 vasp.6.2.0 18Jan21 (build Jun 12 2021 23:27:24) complex

 executed on             LinuxIFC date 2022.05.30  17:55:24

 INCAR:
   ISMEAR = -5
   SIGMA = 0.1
   ISPIN = 1
   EDIFF = 1.d-5
   EDIFFG = -0.01
   NSW = 0
   NELM = 150
   ENCUT = 500
   ISIF = 2
   IBRION = 2
   LREAL = Auto
   ALGO = Fast
   ICHARG = 11
   LORBIT = 10
   LCHARG = .F.
   LWAVE = .F.

 POTCAR:    PAW_PBE Cu 22Jun2005
 POTCAR:    PAW_PBE Cr 06Sep2000
 POTCAR:    PAW_PBE C 08Apr2002
 POTCAR:    PAW_PBE O 08Apr2002
 POTCAR:    PAW_PBE H 15Jun2001
|           W    W    AA    RRRRR   N    N  II  N    N   GGGG   !!!           |
|           W    W   A  A   R    R  NN   N  II  NN   N  G    G  !!!           |
|           W    W  A    A  R    R  N N  N  II  N N  N  G       !!!           |
|           W WW W  AAAAAA  RRRRR   N  N N  II  N  N N  G  GGG   !            |
|           WW  WW  A    A  R   R   N   NN  II  N   NN  G    G                |
|           W    W  A    A  R    R  N    N  II  N    N   GGGG   !!!           |
|     For optimal performance we recommend to set                             |
|       NCORE = 2 up to number-of-cores-per-socket                            |
|     This setting can greatly improve the performance of VASP for DFT.       |
|     The default, NCORE=1 might be grossly inefficient on modern             |
|     multi-core architectures or massively parallel machines. Do your        |
|     Unfortunately you need to use the default for GW and RPA                |
|     calculations (for HF NCORE is supported but not extensively tested      |
|     yet).                                                                   |

 POTCAR:    PAW_PBE Cu 22Jun2005
   VRHFIN =Cu: d10 p1

   TITEL  = PAW_PBE Cu 22Jun2005
   POMASS =   63.546; ZVAL   =   11.000    mass and valenz
   ENMAX  =  295.446; ENMIN  =  221.585 eV

 POTCAR:    PAW_PBE Cr 06Sep2000
   VRHFIN =Cr : d5 s1

   TITEL  = PAW_PBE Cr 06Sep2000
   POMASS =   51.996; ZVAL   =    6.000    mass and valenz
   ENMAX  =  227.080; ENMIN  =  170.310 eV

 POTCAR:    PAW_PBE C 08Apr2002
   VRHFIN =C: s2p2

   TITEL  = PAW_PBE C 08Apr2002
   POMASS =   12.011; ZVAL   =    4.000    mass and valenz
   ENMAX  =  400.000; ENMIN  =  300.000 eV

 POTCAR:    PAW_PBE O 08Apr2002
   VRHFIN =O: s2p4

   TITEL  = PAW_PBE O 08Apr2002
   POMASS =   16.000; ZVAL   =    6.000    mass and valenz
   ENMAX  =  400.000; ENMIN  =  300.000 eV

 POTCAR:    PAW_PBE H 15Jun2001
   VRHFIN =H: ultrasoft test

   TITEL  = PAW_PBE H 15Jun2001
   POMASS =    1.000; ZVAL   =    1.000    mass and valenz
   ENMAX  =  250.000; ENMIN  =  200.000 eV

 Optimization of the real space projectors (new method)

 maximal supplied QI-value         = 16.25
 optimisation between [QCUT,QGAM] = [ 11.38, 22.75] = [ 36.24,144.96] Ry
 Optimized for a Real-space Cutoff    1.52 Angstroem

   l    n(q)    QCUT    max X(q) W(low)/X(q) W(high)/X(q)  e(spline)
   2      9    11.376     4.610    0.21E-03    0.10E-03    0.26E-06
   2      9    11.376     8.522    0.33E-03    0.16E-03    0.37E-06
   0     10    11.376    51.609    0.62E-04    0.20E-04    0.13E-06
   0     10    11.376    27.747    0.54E-04    0.20E-04    0.13E-06
   1     10    11.376    20.408    0.13E-04    0.99E-04    0.19E-06
   1     10    11.376    13.425    0.12E-04    0.87E-04    0.17E-06
 Optimization of the real space projectors (new method)

[...]

   l    n(q)    QCUT    max X(q) W(low)/X(q) W(high)/X(q)  e(spline)
   0      7    11.387    20.381    0.39E-03    0.13E-02    0.15E-06
   0      7    11.387    15.268    0.42E-03    0.14E-02    0.17E-06
   1      6    11.387     5.964    0.41E-03    0.11E-02    0.17E-06
   1      6    11.387     5.382    0.39E-03    0.87E-03    0.15E-06
 Optimization of the real space projectors (new method)

 maximal supplied QI-value         = 34.20
 optimisation between [QCUT,QGAM] = [ 11.29, 22.57] = [ 35.68,142.71] Ry
 Optimized for a Real-space Cutoff    1.16 Angstroem

   l    n(q)    QCUT    max X(q) W(low)/X(q) W(high)/X(q)  e(spline)
   0      8    11.287    19.460    0.40E-03    0.73E-03    0.16E-06
   0      8    11.287    12.209    0.38E-03    0.70E-03    0.15E-06
   1      7    11.287     4.655    0.22E-03    0.25E-04    0.22E-06
  PAW_PBE Cu 22Jun2005                  :
  PAW_PBE Cr 06Sep2000                  :
  PAW_PBE C 08Apr2002                   :
  PAW_PBE O 08Apr2002                   :
  PAW_PBE H 15Jun2001                   :

 POSCAR: Cu-Cr-COH
  positions in direct lattice
  velocities in cartesian coordinates
 exchange correlation table for  LEXCH =        8
   RHO(1)=    0.500       N(1)  =     2000
   RHO(2)=  100.500       N(2)  =     4000

 VTST: version 3.2, (02/03/18)

 CHAIN: initializing optimizer

 OPT: Using VASP Conjugate-Gradient optimizer
 CHAIN: Read ICHAIN            0

 POSCAR: Cu-Cr-COH
  positions in direct lattice
  velocities in cartesian coordinates

 ion  position               nearest neighbor table
   1  0.000  0.000  0.206-   7 2.57   3 2.57   4 2.57   2 2.57   6 2.57   8 2.57  12 2.57  10 2.57
                            16 2.57
   2  0.333  0.000  0.206-   8 2.57   9 2.57   5 2.57   1 2.57   3 2.57  11 2.57   4 2.57  10 2.57
                            17 2.57
   3  0.667  0.000  0.206-   1 2.57   7 2.57   6 2.57   9 2.57   2 2.57  12 2.57   5 2.57  18 2.57
                            11 2.57
   4  0.000  0.333  0.206-   5 2.57   6 2.57   1 2.57   7 2.57   2 2.57  13 2.57   9 2.57  10 2.57
                            15 2.57
   5  0.333  0.333  0.206-   4 2.57   2 2.57   7 2.57  13 2.57   8 2.57   6 2.57   3 2.57  11 2.57
                            14 2.57
   6  0.667  0.333  0.206-   4 2.57   9 2.57  15 2.57   3 2.57   1 2.57   8 2.57  14 2.57   5 2.57
                            12 2.57
   7  0.000  0.667  0.206-   1 2.57   3 2.57  16 2.57  18 2.57   4 2.57   5 2.57   8 2.57   9 2.57
                            13 2.57
   8  0.333  0.667  0.206-   9 2.57   2 2.57  17 2.57   6 2.57   1 2.57   7 2.57   5 2.57  14 2.57
                            16 2.57
   9  0.667  0.667  0.206-   8 2.57   6 2.57   2 2.57  17 2.57   3 2.57   7 2.57   4 2.57  15 2.57
                            18 2.57
  10  0.111  0.111  0.286-  20 2.55  26 2.56  19 2.56  11 2.57  12 2.57  13 2.57   1 2.57   2 2.57
                             4 2.57  15 2.57  16 2.57  17 2.57
  11  0.444  0.111  0.286-  20 2.55  21 2.55  10 2.57  13 2.57   2 2.57  17 2.57  14 2.57  12 2.57
                             5 2.57   3 2.57  18 2.57  27 2.57
  12  0.778  0.111  0.286-  21 2.55  19 2.56  25 2.56  15 2.57  10 2.57  14 2.57  18 2.57   3 2.57
                             1 2.57  16 2.57  11 2.57   6 2.57
  13  0.111  0.444  0.286-  23 2.55  20 2.55  16 2.57  18 2.57  10 2.57  11 2.57  14 2.57   5 2.57
                             4 2.57   7 2.57  15 2.57  22 2.57
  14  0.444  0.444  0.286-  21 2.55  23 2.55  15 2.57  17 2.57  12 2.57  16 2.57  13 2.57  11 2.57
                             6 2.57   8 2.57   5 2.57  24 2.57
  15  0.778  0.444  0.286-  19 2.56  24 2.56  22 2.56  14 2.57  17 2.57  12 2.57   6 2.57  18 2.57
                            10 2.57   9 2.57  13 2.57   4 2.57
  16  0.111  0.778  0.286-  23 2.55  25 2.56  26 2.56  18 2.57  13 2.57   7 2.57  14 2.57  17 2.57
                            12 2.57  10 2.57   8 2.57   1 2.57
  17  0.444  0.778  0.286-  26 2.56  27 2.56  24 2.56  14 2.57  15 2.57   8 2.57   9 2.57  11 2.57
                            16 2.57  18 2.57  10 2.57   2 2.57
  18  0.778  0.778  0.286-  25 2.56  22 2.56  27 2.56  16 2.57  13 2.57   7 2.57  15 2.57  12 2.57
                            17 2.57   9 2.57   3 2.57  11 2.57
  19  0.889  0.222  0.366-  12 2.56  10 2.56  15 2.56  28 2.56  25 2.57  26 2.57  22 2.57  24 2.57
                            21 2.57  20 2.57  32 2.58  31 2.58
  20  0.222  0.222  0.365-  36 2.50  11 2.55  13 2.55  10 2.55  23 2.56  21 2.56  26 2.57  19 2.57
                            29 2.57  31 2.57  27 2.57  22 2.57
  21  0.555  0.222  0.365-  36 2.50  14 2.55  11 2.55  12 2.55  20 2.56  23 2.56  19 2.57  25 2.57
                            32 2.57  30 2.57  24 2.57  27 2.57
  22  0.888  0.556  0.366-  35 2.56  24 2.56  27 2.56  18 2.56  15 2.56  31 2.56  33 2.56  19 2.57
                            25 2.57  13 2.57  23 2.57  20 2.57
  23  0.222  0.555  0.365-  36 2.50  13 2.55  14 2.55  16 2.55  20 2.56  21 2.56  25 2.57  26 2.57
                            33 2.57  34 2.57  22 2.57  24 2.57
  24  0.556  0.556  0.366-  35 2.56  22 2.56  27 2.56  15 2.56  17 2.56  32 2.56  34 2.56  19 2.57
                            26 2.57  14 2.57  21 2.57  23 2.57
  25  0.889  0.889  0.366-  12 2.56  16 2.56  18 2.56  28 2.56  19 2.57  26 2.57  22 2.57  27 2.57
                            21 2.57  23 2.57  33 2.58  30 2.58
  26  0.222  0.889  0.366-  10 2.56  16 2.56  17 2.56  28 2.56  25 2.57  19 2.57  27 2.57  24 2.57
                            20 2.57  23 2.57  29 2.58  34 2.58
  27  0.556  0.888  0.366-  35 2.56  24 2.56  22 2.56  17 2.56  18 2.56  29 2.56  30 2.56  26 2.57
                            25 2.57  11 2.57  20 2.57  21 2.57
  28  0.000  0.000  0.445-  25 2.56  19 2.56  26 2.56  33 2.57  30 2.57  31 2.57  29 2.57  32 2.57
                            34 2.57
  29  0.333  0.002  0.446-  31 2.55  30 2.55  36 2.55  27 2.56  20 2.57  28 2.57  35 2.57  26 2.58
                            34 2.60
  30  0.665  0.002  0.446-  32 2.55  29 2.55  36 2.55  27 2.56  21 2.57  28 2.57  35 2.57  25 2.58
                            33 2.60
  31  0.002  0.333  0.446-  29 2.55  33 2.55  36 2.55  22 2.56  20 2.57  28 2.57  35 2.57  19 2.58
                            32 2.60
  32  0.665  0.333  0.446-  30 2.55  34 2.55  36 2.55  24 2.56  21 2.57  28 2.57  35 2.57  19 2.58
                            31 2.60
  33  0.002  0.665  0.446-  34 2.55  31 2.55  36 2.55  22 2.56  23 2.57  28 2.57  35 2.57  25 2.58
                            30 2.60
  34  0.333  0.665  0.446-  33 2.55  32 2.55  36 2.55  24 2.56  23 2.57  28 2.57  35 2.57  26 2.58
                            29 2.60
  35  0.667  0.667  0.446-  24 2.56  27 2.56  22 2.56  34 2.57  32 2.57  29 2.57  30 2.57  33 2.57
                            31 2.57
  36  0.333  0.333  0.442-  37 1.72  23 2.50  20 2.50  21 2.50  31 2.55  29 2.55  33 2.55  34 2.55
                            32 2.55  30 2.55
  37  0.333  0.333  0.508-  38 1.27  36 1.72
  38  0.333  0.333  0.557-  39 0.96  37 1.27
  39  0.333  0.333  0.593-  38 0.96

  LATTYP: Found a hexagonal cell.
 ALAT       =     7.6967864036
 C/A-ratio  =     3.3950614187

  Lattice vectors:

 A1 = (  -3.8483927580,  -6.6656128093,   0.0000000000)
 A2 = (   7.6967864037,   0.0000000000,   0.0000000000)
 A3 = (   0.0000000000,   0.0000000000,  26.1310625667)

Analysis of symmetry for initial positions (statically):
 Subroutine PRICEL returns:
 Original cell was already a primitive cell.

 Routine SETGRP: Setting up the symmetry group for a
 hexagonal supercell.

 Subroutine GETGRP returns: Found  6 space group operations
 (whereof  6 operations were pure point group operations)
 out of a pool of 24 trial point group operations.

The static configuration has the point symmetry C_3v.

Analysis of symmetry for dynamics (positions and initial velocities):
[...]
     41      -4.0492      2.00000
     42      -3.9499      2.00000
     43      -3.9401      2.00000
     44      -3.8674      2.00000
     45      -3.8589      2.00000
     46      -3.8577      2.00000
     47      -3.8228      2.00000
     48      -3.8182      2.00000
     49      -3.8083      2.00000
     50      -3.8011      2.00000
     51      -3.6176      2.00000
     52      -3.6013      2.00000
     53      -3.5960      2.00000
     54      -3.5864      2.00000
     55      -3.5401      2.00000
     56      -3.5388      2.00000
     57      -3.5193      2.00000
     58      -3.5054      2.00000
     59      -3.5027      2.00000
     60      -3.4808      2.00000
[...]
    238       5.1806      0.00000
    239       5.2560      0.00000
    240       5.4127      0.00000
    241       5.4329      0.00000
    242       5.5014      0.00000
    243       5.5341      0.00000
    244       5.6008      0.00000
    245       5.7925      0.00000
    246       5.8449      0.00000
    247       5.9179      0.00000
    248       5.9723      0.00000
    249       6.0502      0.00000
    250       6.1626      0.00000
    251       6.7936      0.00000
    252       6.8795      0.00000

 soft charge-density along one line, spin component           1
         0         1         2         3         4         5         6         7         8         9
 total charge-density along one line

------------------------ aborting loop because EDIFF is reached ----------------------------------------

 total charge

# of ion       s       p       d       tot
    1        0.449   0.284   9.190   9.923
    2        0.450   0.286   9.186   9.921
    3        0.450   0.286   9.186   9.921
    4        0.450   0.286   9.186   9.921
    5        0.449   0.288   9.181   9.917
    6        0.450   0.286   9.186   9.921
    7        0.450   0.286   9.186   9.921
    8        0.450   0.286   9.186   9.921
    9        0.448   0.284   9.190   9.922
   10        0.441   0.372   9.175   9.989
   11        0.444   0.367   9.183   9.994
   12        0.441   0.372   9.175   9.989
   13        0.444   0.367   9.183   9.994
   14        0.444   0.367   9.183   9.994
   15        0.438   0.371   9.177   9.985
   16        0.441   0.372   9.175   9.989
   17        0.438   0.371   9.177   9.985
   18        0.438   0.371   9.177   9.985
   19        0.441   0.368   9.181   9.990
   20        0.461   0.392   9.165  10.018
   21        0.461   0.392   9.165  10.018
   22        0.432   0.376   9.179   9.987
   23        0.461   0.392   9.165  10.018
   24        0.432   0.376   9.179   9.987
   25        0.441   0.368   9.181   9.990
   26        0.441   0.368   9.181   9.990
   27        0.432   0.376   9.179   9.987
   28        0.447   0.286   9.188   9.921
   29        0.456   0.303   9.173   9.932
   30        0.456   0.303   9.173   9.932
   31        0.456   0.303   9.173   9.932
   32        0.456   0.303   9.173   9.932
   33        0.456   0.303   9.173   9.932
   34        0.456   0.303   9.173   9.932
   35        0.447   0.290   9.183   9.920
   36        0.521   0.701   4.562   5.783
   37        0.927   1.435   0.000   2.362
   38        1.520   3.765   0.000   5.285
   39        0.568   0.138   0.000   0.706
tot         19.183  17.740 325.826 362.748

  FORCE on cell =-STRESS in cart. coord.  units (eV):
  Direction    XX          YY          ZZ          XY          YZ          ZX
  Alpha Z   732.25022   732.25022   732.25022
  Ewald  268941.23292268941.23253************     0.00040     0.00013     0.00018
  Hartree281857.92775281857.92774************     0.00004     0.00007     0.00007
  E(xc)   -2320.44216 -2320.44177 -2324.42228    -0.00034    -0.00004    -0.00006
  Local  ************************563625.12199     0.01884    -0.00062    -0.00098
  n-local  -798.07022  -784.51251  -803.67983     6.90314    -0.09012     0.27683
  augment  3342.80958  3342.82974  3361.05451    -0.01746     0.00033     0.00059
  Kinetic  3393.59506  3397.12400  3362.63291     2.74979     1.78889    -1.24701
  Fock        0.00000     0.00000     0.00000     0.00000     0.00000     0.00000
  Total      -7.37564    -7.37564     0.80839     0.00000     0.00000    -0.00000
  in kB      -8.81463    -8.81463     0.96611     0.00000     0.00000    -0.00000

 VOLUME and BASIS-vectors are now :
  energy-cutoff  :      500.00
  volume of cell :     1340.62
      direct lattice vectors                 reciprocal lattice vectors
     7.696786404  0.000000000  0.000000000     0.129924354 -0.075011849  0.000000000
     3.848392758  6.665612809  0.000000000     0.000000000  0.150023716  0.000000000
     0.000000000  0.000000000 26.131062567     0.000000000  0.000000000  0.038268631

  length of vectors
     7.696786404  7.696786404 26.131062567     0.150023716  0.150023716  0.038268631

 FORCES acting on ions
    electron-ion (+dipol)            ewald-force                    non-local-force                 convergence-correction
   -.436E-04 -.103E-05 0.392E+04   0.580E-04 -.436E-05 -.392E+04   -.495E-17 0.203E-18 -.264E+01   -.156E-03 -.570E-04 0.172E+00
   -.371E+00 -.105E+00 0.392E+04   0.264E+00 0.177E+00 -.392E+04   0.697E-01 0.623E-01 -.183E+01   0.448E-01 -.109E+00 0.221E+00
   0.371E+00 -.105E+00 0.392E+04   -.264E+00 0.177E+00 -.392E+04   -.697E-01 0.623E-01 -.183E+01   -.441E-01 -.106E+00 0.222E+00
   -.276E+00 -.268E+00 0.392E+04   0.285E+00 0.140E+00 -.392E+04   0.888E-01 0.293E-01 -.183E+01   -.717E-01 0.931E-01 0.221E+00
   -.701E-04 -.828E-05 0.392E+04   0.116E-03 -.101E-04 -.392E+04   -.171E-17 -.996E-18 -.153E+01   0.121E-01 0.739E-02 0.261E+00
   0.277E+00 -.268E+00 0.392E+04   -.285E+00 0.140E+00 -.392E+04   -.888E-01 0.293E-01 -.183E+01   0.702E-01 0.944E-01 0.222E+00
   0.941E-01 0.374E+00 0.392E+04   0.210E-01 -.317E+00 -.392E+04   0.191E-01 -.915E-01 -.183E+01   -.114E+00 0.148E-01 0.222E+00
   -.940E-01 0.374E+00 0.392E+04   -.212E-01 -.317E+00 -.392E+04   -.191E-01 -.915E-01 -.183E+01   0.118E+00 0.135E-01 0.222E+00
   -.145E-03 -.339E-04 0.392E+04   0.263E-03 0.205E-04 -.392E+04   0.556E-18 0.610E-18 -.235E+01   -.133E-01 -.686E-02 0.215E+00
   -.125E+01 -.724E+00 0.135E+04   0.166E+01 0.960E+00 -.135E+04   -.433E+00 -.250E+00 -.103E+01   0.242E-01 0.139E-01 0.255E+00
   -.893E-04 -.175E+01 0.134E+04   0.189E-03 0.138E+01 -.134E+04   -.164E-07 0.247E+00 -.529E+00   0.108E-01 0.907E-01 0.292E+00
   0.125E+01 -.724E+00 0.135E+04   -.166E+01 0.960E+00 -.135E+04   0.433E+00 -.250E+00 -.103E+01   -.247E-01 0.152E-01 0.253E+00
   -.152E+01 0.877E+00 0.134E+04   0.120E+01 -.691E+00 -.134E+04   0.214E+00 -.123E+00 -.529E+00   0.844E-01 -.352E-01 0.292E+00
   0.152E+01 0.877E+00 0.134E+04   -.120E+01 -.691E+00 -.134E+04   -.214E+00 -.123E+00 -.529E+00   -.607E-01 -.354E-01 0.291E+00
   -.141E-03 -.589E+00 0.135E+04   0.298E-03 0.457E+00 -.135E+04   -.746E-08 0.112E+00 -.987E+00   -.299E-02 0.220E-01 0.231E+00
   -.910E-04 0.145E+01 0.135E+04   0.186E-03 -.192E+01 -.135E+04   -.333E-07 0.500E+00 -.103E+01   -.879E-04 -.302E-01 0.253E+00
   -.510E+00 0.295E+00 0.135E+04   0.396E+00 -.228E+00 -.135E+04   0.970E-01 -.560E-01 -.987E+00   0.183E-01 -.136E-01 0.231E+00
   0.511E+00 0.295E+00 0.135E+04   -.396E+00 -.228E+00 -.135E+04   -.970E-01 -.560E-01 -.987E+00   -.179E-01 -.121E-01 0.230E+00
   -.637E-04 -.386E+01 -.124E+04   0.700E-04 0.367E+01 0.124E+04   -.568E-08 0.854E-01 0.100E+01   0.134E-01 0.116E+00 0.187E+00
   -.296E+02 -.171E+02 -.127E+04   0.302E+02 0.174E+02 0.127E+04   -.102E+01 -.587E+00 -.669E+00   0.300E+00 0.173E+00 0.578E+00
   0.296E+02 -.171E+02 -.127E+04   -.302E+02 0.174E+02 0.127E+04   0.102E+01 -.587E+00 -.669E+00   -.322E+00 0.175E+00 0.577E+00
   -.144E+02 0.831E+01 -.125E+04   0.139E+02 -.800E+01 0.124E+04   0.403E+00 -.232E+00 0.712E+00   0.177E+00 -.119E+00 0.267E+00
   -.811E-04 0.342E+02 -.127E+04   0.147E-03 -.349E+02 0.127E+04   -.781E-07 0.117E+01 -.669E+00   -.104E-01 -.368E+00 0.577E+00
   0.144E+02 0.831E+01 -.125E+04   -.139E+02 -.800E+01 0.124E+04   -.403E+00 -.232E+00 0.712E+00   -.198E+00 -.115E+00 0.267E+00
   0.334E+01 0.193E+01 -.124E+04   -.318E+01 -.183E+01 0.124E+04   -.739E-01 -.427E-01 0.100E+01   -.821E-01 -.474E-01 0.187E+00
   -.334E+01 0.193E+01 -.124E+04   0.317E+01 -.183E+01 0.124E+04   0.739E-01 -.427E-01 0.100E+01   0.108E+00 -.462E-01 0.187E+00
   -.126E-03 -.166E+02 -.125E+04   0.241E-03 0.160E+02 0.124E+04   -.310E-07 0.465E+00 0.712E+00   -.146E-01 0.212E+00 0.267E+00
   -.337E-04 0.175E-04 -.378E+04   0.359E-04 -.339E-04 0.378E+04   -.431E-17 -.468E-17 0.213E+01   0.802E-03 0.514E-03 0.436E+00
   -.726E+01 -.148E+02 -.375E+04   0.754E+01 0.150E+02 0.375E+04   -.500E+00 -.655E+00 0.228E+01   0.218E+00 0.469E+00 0.252E+00
   0.726E+01 -.148E+02 -.375E+04   -.754E+01 0.150E+02 0.375E+04   0.500E+00 -.655E+00 0.228E+01   -.218E+00 0.471E+00 0.255E+00
   -.165E+02 0.112E+01 -.375E+04   0.167E+02 -.959E+00 0.375E+04   -.817E+00 -.105E+00 0.228E+01   0.515E+00 -.458E-01 0.252E+00
   0.165E+02 0.112E+01 -.375E+04   -.167E+02 -.959E+00 0.375E+04   0.817E+00 -.105E+00 0.228E+01   -.516E+00 -.437E-01 0.254E+00
   -.920E+01 0.137E+02 -.375E+04   0.920E+01 -.140E+02 0.375E+04   -.317E+00 0.760E+00 0.228E+01   0.299E+00 -.425E+00 0.255E+00
   0.920E+01 0.137E+02 -.375E+04   -.920E+01 -.140E+02 0.375E+04   0.317E+00 0.760E+00 0.228E+01   -.295E+00 -.425E+00 0.254E+00
   -.130E-03 -.170E-04 -.379E+04   0.254E-03 0.530E-05 0.378E+04   -.128E-16 -.251E-17 0.228E+01   -.134E-01 -.691E-02 0.418E+00
   -.508E-04 -.161E-04 -.189E+04   0.773E-04 0.145E-04 0.189E+04   0.599E-17 -.255E-17 -.125E+00   0.121E-02 0.735E-03 0.173E+00
   -.682E-05 -.717E-04 -.148E+04   0.129E-04 0.588E-05 0.146E+04   -.110E-17 -.279E-18 0.205E+02   0.943E-03 0.570E-03 -.314E+00
   0.228E-03 -.710E-04 -.231E+04   0.268E-05 0.269E-05 0.231E+04   0.477E-19 -.353E-18 -.367E+01   0.331E-02 0.202E-02 -.187E+00
   0.299E-05 -.143E-04 -.417E+03   0.662E-07 0.177E-06 0.426E+03   0.665E-20 0.922E-20 -.871E+01   0.173E-03 0.106E-03 -.221E-01
   -.116E-03 -.202E-03 -.136E+02   -.163E-12 0.876E-13 0.801E-11   -.787E-17 0.105E-15 0.410E+01   -.104E-02 -.353E-02 0.943E+01

 POSITION                                       TOTAL-FORCE (eV/Angst)
      0.00000      0.00000      5.37156         0.000000     -0.000000     -0.016896
      2.56560      0.00000      5.37156         0.008597      0.026132      0.057536
      5.13119      0.00000      5.37156        -0.008597      0.026132      0.057536
      1.28280      2.22187      5.37156         0.026929     -0.005620      0.057536
      3.84839      2.22187      5.37156         0.000000     -0.000000      0.039071
      6.41399      2.22187      5.37156        -0.026929     -0.005620      0.057536
      2.56560      4.44374      5.37156         0.018332     -0.020511      0.057536
      5.13119      4.44374      5.37156        -0.018332     -0.020511      0.057536
      7.69679      4.44374      5.37156         0.000000     -0.000000      0.016746
      1.28280      0.74062      7.46636         0.001660      0.000958     -0.073655
      3.84839      0.74062      7.46636         0.000000     -0.041430     -0.068015
      6.41399      0.74062      7.46636        -0.001660      0.000958     -0.073655
      2.56560      2.96249      7.46636        -0.035880      0.020715     -0.068015
      5.13119      2.96249      7.46636         0.035880      0.020715     -0.068015
      7.69679      2.96249      7.46636        -0.000000      0.001598     -0.010138
      3.84839      5.18437      7.46636         0.000000     -0.001916     -0.073655
      6.41399      5.18437      7.46636         0.001384     -0.000799     -0.010138
      8.97958      5.18437      7.46636        -0.001384     -0.000799     -0.010138
      7.69679      1.48113      9.55176        -0.000000      0.005018      0.081185
      2.56610      1.48154      9.54462        -0.143816     -0.083032     -0.259252
      5.13069      1.48154      9.54462         0.143816     -0.083032     -0.259252
      8.97635      3.70498      9.55922         0.051201     -0.029561      0.017243
      3.84839      3.70254      9.54462        -0.000000      0.166064     -0.259252
      6.41722      3.70498      9.55922        -0.051201     -0.029561      0.017243
     10.26248      5.92505      9.55176        -0.004345     -0.002509      0.081185
      5.13109      5.92505      9.55176         0.004345     -0.002509      0.081185
      7.69679      5.92126      9.55922        -0.000000      0.059121      0.017243
      0.00000      0.00000     11.63975         0.000000     -0.000000     -0.111094
      2.57267      0.01383     11.65039        -0.003470     -0.022201      0.009976
      5.12411      0.01383     11.65039         0.003470     -0.022201      0.009976
      1.29831      2.22109     11.65039        -0.020961      0.008096      0.009976
      6.39847      2.22109     11.65039         0.020961      0.008096      0.009976
      2.57403      4.43070     11.65039        -0.017492      0.014105      0.009976
      5.12275      4.43070     11.65039         0.017492      0.014105      0.009976
      7.69679      4.44374     11.64501         0.000000     -0.000000     -0.085091
      3.84839      2.22187     11.55740         0.000000     -0.000000      0.683282
      3.84839      2.22187     13.27613         0.000000     -0.000000      0.037499
      3.84839      2.22187     14.54724         0.000000     -0.000000     -0.026858
      3.84839      2.22187     15.50286         0.000000     -0.000000     -0.003830
    total drift:                               -0.001154     -0.003730     -0.063973

  FREE ENERGIE OF THE ION-ELECTRON SYSTEM (eV)
  free  energy   TOTEN  =      -148.13315856 eV

  energy  without entropy=     -148.13315856  energy(sigma->0) =     -148.13315856

 stress matrix after NEB project (eV)
     -7.37564      0.00000     -0.00000
      0.00000     -7.37564      0.00000
     -0.00000      0.00000      0.80839
  FORCES: max atom, RMS     0.037499    0.007411
  FORCE total and by dimension    0.046284    0.037499
  Stress total and by dimension   10.462014    7.375644
|           W    W    AA    RRRRR   N    N  II  N    N   GGGG   !!!           |
|           W    W   A  A   R    R  NN   N  II  NN   N  G    G  !!!           |
|           W    W  A    A  R    R  N N  N  II  N N  N  G       !!!           |
|           W WW W  AAAAAA  RRRRR   N  N N  II  N  N N  G  GGG   !            |
|           WW  WW  A    A  R   R   N   NN  II  N   NN  G    G                |
|           W    W  A    A  R    R  N    N  II  N    N   GGGG   !!!           |
|     Tetrahedron method does not include variations of the Fermi             |
|     occupations, so forces and stress will be inaccurate. We suggest        |
|     using a different smearing scheme ISMEAR = 1 or 2 for metals in         |
|     relaxations.                                                            |

 total charge

# of ion       s       p       d       tot
    1        0.449   0.284   9.190   9.923
    2        0.450   0.286   9.186   9.921
    3        0.450   0.286   9.186   9.921
    4        0.450   0.286   9.186   9.921
    5        0.449   0.288   9.181   9.917
    6        0.450   0.286   9.186   9.921
    7        0.450   0.286   9.186   9.921
    8        0.450   0.286   9.186   9.921
    9        0.448   0.284   9.190   9.922
   10        0.441   0.372   9.175   9.989
   11        0.444   0.367   9.183   9.994
   12        0.441   0.372   9.175   9.989
   13        0.444   0.367   9.183   9.994
   14        0.444   0.367   9.183   9.994
   15        0.438   0.371   9.177   9.985
   16        0.441   0.372   9.175   9.989
   17        0.438   0.371   9.177   9.985
   18        0.438   0.371   9.177   9.985
   19        0.441   0.368   9.181   9.990
   20        0.461   0.392   9.165  10.018
   21        0.461   0.392   9.165  10.018
   22        0.432   0.376   9.179   9.987
   23        0.461   0.392   9.165  10.018
   24        0.432   0.376   9.179   9.987
   25        0.441   0.368   9.181   9.990
   26        0.441   0.368   9.181   9.990
   27        0.432   0.376   9.179   9.987
   28        0.447   0.286   9.188   9.921
   29        0.456   0.303   9.173   9.932
   30        0.456   0.303   9.173   9.932
   31        0.456   0.303   9.173   9.932
   32        0.456   0.303   9.173   9.932
   33        0.456   0.303   9.173   9.932
   34        0.456   0.303   9.173   9.932
   35        0.447   0.290   9.183   9.920
   36        0.521   0.701   4.562   5.783
   37        0.927   1.435   0.000   2.362
   38        1.520   3.765   0.000   5.285
   39        0.568   0.138   0.000   0.706
tot         19.183  17.740 325.826 362.748

 BZINTS: Fermi energy:   -0.150033;  402.000000 electrons
         Band energy:-0.128126E+04;  BLOECHL correction:   -0.030680