 vasp.6.2.0 18Jan21 (build Jun 12 2021 23:27:24) complex

 executed on             LinuxIFC date 2022.05.26  19:52:09

 INCAR:
   ISMEAR = -5
   SIGMA = 0.1
   ISPIN = 1
   EDIFF = 1.d-5
   EDIFFG = -0.01
   NSW = 0
   NELM = 150
   ENCUT = 500
   ISIF = 2
   IBRION = 2
   LREAL = Auto
   ALGO = Fast
   ICHARG = 11
   LORBIT = 10
   LCHARG = .F.
   LWAVE = .F.

 POTCAR:    PAW_PBE Ag 02Apr2005
 POTCAR:    PAW_PBE Ta 17Jan2003
 POTCAR:    PAW_PBE O 08Apr2002
|           W    W    AA    RRRRR   N    N  II  N    N   GGGG   !!!           |
|           W    W   A  A   R    R  NN   N  II  NN   N  G    G  !!!           |
|           W    W  A    A  R    R  N N  N  II  N N  N  G       !!!           |
|           W WW W  AAAAAA  RRRRR   N  N N  II  N  N N  G  GGG   !            |
|           WW  WW  A    A  R   R   N   NN  II  N   NN  G    G                |
|           W    W  A    A  R    R  N    N  II  N    N   GGGG   !!!           |
|     For optimal performance we recommend to set                             |
|       NCORE = 2 up to number-of-cores-per-socket                            |
|     This setting can greatly improve the performance of VASP for DFT.       |
|     The default, NCORE=1 might be grossly inefficient on modern             |
|     multi-core architectures or massively parallel machines. Do your        |
|     Unfortunately you need to use the default for GW and RPA                |
|     calculations (for HF NCORE is supported but not extensively tested      |
|     yet).                                                                   |

 POTCAR:    PAW_PBE Ag 02Apr2005
   VRHFIN =Ag : s1 d10

   TITEL  = PAW_PBE Ag 02Apr2005
   POMASS =  107.868; ZVAL   =   11.000    mass and valenz
   ENMAX  =  249.844; ENMIN  =  187.383 eV

 POTCAR:    PAW_PBE Ta 17Jan2003
   VRHFIN =Ta:  6s5d

   TITEL  = PAW_PBE Ta 17Jan2003
   POMASS =  180.948; ZVAL   =    5.000    mass and valenz
   ENMAX  =  223.667; ENMIN  =  167.750 eV

 POTCAR:    PAW_PBE O 08Apr2002
   VRHFIN =O: s2p4

   TITEL  = PAW_PBE O 08Apr2002
   POMASS =   16.000; ZVAL   =    6.000    mass and valenz
   ENMAX  =  400.000; ENMIN  =  300.000 eV

 Optimization of the real space projectors (new method)

 maximal supplied QI-value         = 15.12
 optimisation between [QCUT,QGAM] = [ 11.34, 22.83] = [ 36.00,145.93] Ry
 Optimized for a Real-space Cutoff    1.43 Angstroem

   l    n(q)    QCUT    max X(q) W(low)/X(q) W(high)/X(q)  e(spline)
   2      9    11.338    53.897    0.16E-03    0.20E-03    0.28E-06
   2      9    11.338    52.416    0.16E-03    0.20E-03    0.29E-06
   0     10    11.338   122.045    0.31E-04    0.76E-04    0.15E-06
   0     10    11.338    73.629    0.30E-04    0.72E-04    0.15E-06
   1      9    11.338    15.255    0.20E-03    0.19E-04    0.17E-06
   1      9    11.338     9.562    0.16E-03    0.15E-04    0.14E-06
 Optimization of the real space projectors (new method)

[...]

   l    n(q)    QCUT    max X(q) W(low)/X(q) W(high)/X(q)  e(spline)
   2     10    11.437    62.315    0.14E-03    0.26E-03    0.80E-06
   2     10    11.437    52.185    0.14E-03    0.26E-03    0.80E-06
   0     11    11.437   103.837    0.25E-04    0.17E-04    0.84E-07
   0     11    11.437    59.728    0.20E-04    0.15E-04    0.73E-07
   1     11    11.437    13.958    0.47E-03    0.12E-03    0.89E-06
   1     11    11.437     8.441    0.33E-03    0.88E-04    0.61E-06
 Optimization of the real space projectors (new method)

 maximal supplied QI-value         = 24.76
 optimisation between [QCUT,QGAM] = [ 11.39, 22.77] = [ 36.31,145.25] Ry
 Optimized for a Real-space Cutoff    1.00 Angstroem

   l    n(q)    QCUT    max X(q) W(low)/X(q) W(high)/X(q)  e(spline)
   0      7    11.387    20.381    0.39E-03    0.13E-02    0.15E-06
   0      7    11.387    15.268    0.42E-03    0.14E-02    0.17E-06
   1      6    11.387     5.964    0.41E-03    0.11E-02    0.17E-06
   1      6    11.387     5.382    0.39E-03    0.87E-03    0.15E-06
  PAW_PBE Ag 02Apr2005                  :
  PAW_PBE Ta 17Jan2003                  :
  PAW_PBE O 08Apr2002                   :

 POSCAR: Ag-Ta-O
  positions in direct lattice
  velocities in cartesian coordinates
 exchange correlation table for  LEXCH =        8
   RHO(1)=    0.500       N(1)  =     2000
   RHO(2)=  100.500       N(2)  =     4000

 VTST: version 3.2, (02/03/18)

 CHAIN: initializing optimizer

 OPT: Using VASP Conjugate-Gradient optimizer
 CHAIN: Read ICHAIN            0

 POSCAR: Ag-Ta-O
  positions in direct lattice
  velocities in cartesian coordinates

 ion  position               nearest neighbor table
   1  0.000  0.000  0.238-   2 2.93   8 2.93   7 2.93   6 2.93   4 2.93  12 2.93  16 2.93  10 2.93
                             3 2.93
   2  0.333  0.000  0.238-   1 2.93   8 2.93   9 2.93   3 2.93   4 2.93   5 2.93  10 2.93  17 2.93
                            11 2.93
   3  0.667  0.000  0.238-   9 2.93   2 2.93   5 2.93  11 2.93   7 2.93  18 2.93   1 2.93   6 2.93
                            12 2.93
   4  0.000  0.333  0.238-   5 2.93   6 2.93   2 2.93   1 2.93   7 2.93  13 2.93  15 2.93   9 2.93
                            10 2.93
   5  0.333  0.333  0.238-   4 2.93   3 2.93   7 2.93   2 2.93   8 2.93  14 2.93  13 2.93  11 2.93
                             6 2.93
   6  0.667  0.333  0.238-   4 2.93   9 2.93   1 2.93  15 2.93   8 2.93  12 2.93   3 2.93   5 2.93
                            14 2.93
   7  0.000  0.667  0.238-   8 2.93   1 2.93   5 2.93   3 2.93   4 2.93  16 2.93  18 2.93  13 2.93
                             9 2.93
   8  0.333  0.667  0.238-   7 2.93   1 2.93   2 2.93   9 2.93   5 2.93  16 2.93   6 2.93  17 2.93
                            14 2.93
   9  0.667  0.667  0.238-   3 2.93   2 2.93   8 2.93   6 2.93  17 2.93   4 2.93  15 2.93   7 2.93
                            18 2.93
  10  0.111  0.111  0.346-  20 2.89  12 2.93  16 2.93  15 2.93  17 2.93  13 2.93  11 2.93   2 2.93
                             1 2.93   4 2.93  19 2.93  26 2.93
  11  0.444  0.111  0.346-  21 2.90  20 2.90  14 2.93  17 2.93  18 2.93   3 2.93  12 2.93  13 2.93
                            10 2.93   5 2.93   2 2.93  27 2.93
  12  0.778  0.111  0.346-  21 2.89  10 2.93  16 2.93  18 2.93  15 2.93  11 2.93   1 2.93  14 2.93
                             6 2.93   3 2.93  25 2.93  19 2.93
  13  0.111  0.444  0.346-  20 2.90  23 2.90  15 2.93  14 2.93  18 2.93  10 2.93  11 2.93  16 2.93
                             4 2.93   5 2.93   7 2.93  22 2.93
  14  0.444  0.444  0.346-  23 2.90  21 2.90  13 2.93  11 2.93  16 2.93   5 2.93  12 2.93  17 2.93
                             8 2.93  15 2.93   6 2.93  24 2.93
  15  0.778  0.444  0.346-  19 2.93  24 2.93  22 2.93  13 2.93  10 2.93  12 2.93  17 2.93  18 2.93
                             4 2.93   6 2.93   9 2.93  14 2.93
  16  0.111  0.778  0.346-  23 2.89  18 2.93  12 2.93  10 2.93  14 2.93  17 2.93  13 2.93   7 2.93
                             8 2.93   1 2.93  26 2.93  25 2.93
  17  0.444  0.778  0.346-  26 2.93  27 2.93  24 2.93  11 2.93  10 2.93   9 2.93  18 2.93  15 2.93
                            16 2.93   2 2.93  14 2.93   8 2.93
  18  0.778  0.778  0.346-  25 2.93  22 2.93  27 2.93  16 2.93  12 2.93  13 2.93  11 2.93  17 2.93
                            15 2.93   7 2.93   3 2.93   9 2.93
  19  0.889  0.223  0.454-  20 2.92  21 2.92  24 2.93  22 2.93  28 2.93  15 2.93  10 2.93  12 2.93
                            26 2.94  25 2.94  32 2.99  31 2.99
  20  0.222  0.222  0.452-  36 2.78  10 2.89  13 2.90  11 2.90  19 2.92  26 2.92  27 2.93  22 2.93
                            21 2.95  23 2.95  31 2.97  29 2.97
  21  0.557  0.222  0.452-  36 2.78  12 2.89  11 2.90  14 2.90  25 2.92  19 2.92  27 2.93  24 2.93
                            20 2.95  23 2.95  30 2.97  32 2.97
  22  0.888  0.556  0.454-  24 2.92  27 2.92  25 2.93  19 2.93  18 2.93  15 2.93  13 2.93  23 2.93
                            20 2.93  35 2.94  33 2.96  31 2.96
  23  0.222  0.557  0.452-  36 2.78  16 2.89  14 2.90  13 2.90  26 2.92  25 2.92  22 2.93  24 2.93
                            21 2.95  20 2.95  34 2.97  33 2.97
  24  0.556  0.556  0.454-  27 2.92  22 2.92  19 2.93  26 2.93  15 2.93  17 2.93  14 2.93  23 2.93
                            21 2.93  35 2.94  32 2.96  34 2.96
  25  0.889  0.889  0.454-  23 2.92  21 2.92  22 2.93  27 2.93  28 2.93  18 2.93  16 2.93  12 2.93
                            26 2.94  19 2.94  33 2.99  30 2.99
  26  0.223  0.889  0.454-  23 2.92  20 2.92  27 2.93  24 2.93  28 2.93  17 2.93  16 2.93  10 2.93
                            25 2.94  19 2.94  34 2.99  29 2.99
  27  0.556  0.888  0.454-  24 2.92  22 2.92  26 2.93  25 2.93  17 2.93  18 2.93  11 2.93  20 2.93
                            21 2.93  35 2.94  29 2.96  30 2.96
  28  0.000  0.000  0.562-  26 2.93  25 2.93  19 2.93  29 2.96  34 2.96  33 2.96  32 2.96  31 2.96
                            30 2.96
  29  0.334  0.006  0.564-  30 2.88  31 2.88  36 2.89  35 2.96  28 2.96  27 2.96  20 2.97  26 2.99
                            34 3.03
  30  0.661  0.006  0.564-  29 2.88  32 2.88  36 2.89  35 2.96  28 2.96  27 2.96  21 2.97  25 2.99
                            33 3.03
  31  0.006  0.334  0.564-  33 2.88  29 2.88  36 2.89  35 2.96  28 2.96  22 2.96  20 2.97  19 2.99
                            32 3.03
  32  0.661  0.334  0.564-  34 2.88  30 2.88  36 2.89  35 2.96  28 2.96  24 2.96  21 2.97  19 2.99
                            31 3.03
  33  0.006  0.661  0.564-  31 2.88  34 2.88  36 2.89  35 2.96  28 2.96  22 2.96  23 2.97  25 2.99
                            30 3.03
  34  0.334  0.661  0.564-  32 2.88  33 2.88  36 2.89  35 2.96  28 2.96  24 2.96  23 2.97  26 2.99
                            29 3.03
  35  0.667  0.667  0.562-  24 2.94  27 2.94  22 2.94  30 2.96  32 2.96  29 2.96  34 2.96  31 2.96
                            33 2.96
  36  0.333  0.333  0.551-  37 1.75  21 2.78  20 2.78  23 2.78  31 2.89  33 2.89  30 2.89  29 2.89
                            34 2.89  32 2.89
  37  0.333  0.333  0.630-  36 1.75

  LATTYP: Found a hexagonal cell.
 ALAT       =     8.7913665772
 C/A-ratio  =     2.5227160501

  Lattice vectors:

 A1 = (  -4.3956832886,  -7.6135467898,   0.0000000000)
 A2 = (   8.7913665771,   0.0000000000,   0.0000000000)
 A3 = (   0.0000000000,   0.0000000000,  22.1781215668)

Analysis of symmetry for initial positions (statically):
 Subroutine PRICEL returns:
 Original cell was already a primitive cell.

 Routine SETGRP: Setting up the symmetry group for a
 hexagonal supercell.

 Subroutine GETGRP returns: Found  6 space group operations
 (whereof  6 operations were pure point group operations)
 out of a pool of 24 trial point group operations.

The static configuration has the point symmetry C_3v.

Analysis of symmetry for dynamics (positions and initial velocities):
 Subroutine PRICEL returns:
 Original cell was already a primitive cell.

[...]

The dynamic configuration has the point symmetry C_3v.

Analysis of constrained symmetry for selective dynamics:
 Subroutine PRICEL returns:
 Original cell was already a primitive cell.

 Routine SETGRP: Setting up the symmetry group for a
 hexagonal supercell.

 Subroutine GETGRP returns: Found  6 space group operations
[...]
     24      -4.7240      2.00000
     25      -4.6993      2.00000
     26      -4.6873      2.00000
     27      -4.6807      2.00000
     28      -4.6474      2.00000
     29      -4.6347      2.00000
     30      -4.6287      2.00000
     31      -4.6195      2.00000
     32      -4.5936      2.00000
     33      -4.5678      2.00000
     34      -4.5647      2.00000
     35      -4.5381      2.00000
     36      -4.5152      2.00000
     37      -4.4871      2.00000
     38      -4.4734      2.00000
     39      -4.4368      2.00000
     40      -4.4252      2.00000
     41      -4.4175      2.00000
     42      -4.3912      2.00000
     43      -4.3692      2.00000
     44      -4.3173      2.00000
     45      -4.2914      2.00000
     46      -4.2569      2.00000
     47      -4.2545      2.00000
     48      -4.2477      2.00000
     49      -4.2432      2.00000
     50      -4.2260      2.00000
     51      -4.2225      2.00000
     52      -4.2193      2.00000
     53      -4.2007      2.00000
     54      -4.1641      2.00000
     55      -4.1505      2.00000
     56      -4.1305      2.00000
     57      -4.1287      2.00000
     58      -4.1166      2.00000
     59      -4.0868      2.00000
     60      -4.0834      2.00000
[...]
    238       6.2943      0.00000
    239       6.3690      0.00000
    240       6.4817      0.00000
    241       7.1877      0.00000
    242       7.2155      0.00000
    243       7.2613      0.00000
    244       7.3366      0.00000
    245       7.3418      0.00000
    246       7.3663      0.00000
    247       7.4362      0.00000
    248       7.5606      0.00000
    249       7.6100      0.00000
    250       7.6435      0.00000
    251       7.6794      0.00000
    252       7.7817      0.00000

 soft charge-density along one line, spin component           1
         0         1         2         3         4         5         6         7         8         9
 total charge-density along one line

------------------------ aborting loop because EDIFF is reached ----------------------------------------

 total charge

# of ion       s       p       d       tot
    1        0.421   0.201   9.177   9.799
    2        0.415   0.204   9.177   9.796
    3        0.415   0.204   9.177   9.796
    4        0.415   0.204   9.177   9.796
    5        0.417   0.202   9.177   9.796
    6        0.415   0.204   9.177   9.796
    7        0.415   0.204   9.177   9.796
    8        0.415   0.204   9.177   9.796
    9        0.416   0.203   9.177   9.795
   10        0.408   0.270   9.164   9.842
   11        0.403   0.273   9.166   9.842
   12        0.408   0.270   9.164   9.842
   13        0.403   0.273   9.166   9.842
   14        0.403   0.273   9.166   9.842
   15        0.402   0.270   9.165   9.836
   16        0.408   0.270   9.164   9.842
   17        0.402   0.270   9.165   9.836
   18        0.402   0.270   9.165   9.836
   19        0.401   0.262   9.168   9.831
   20        0.440   0.306   9.136   9.883
   21        0.440   0.306   9.136   9.883
   22        0.394   0.273   9.163   9.830
   23        0.440   0.306   9.136   9.883
   24        0.394   0.273   9.163   9.830
   25        0.401   0.262   9.168   9.831
   26        0.401   0.262   9.168   9.831
   27        0.394   0.273   9.163   9.830
   28        0.414   0.199   9.172   9.786
   29        0.434   0.218   9.159   9.811
   30        0.434   0.218   9.159   9.811
   31        0.434   0.218   9.159   9.811
   32        0.434   0.218   9.159   9.811
   33        0.434   0.218   9.159   9.811
   34        0.434   0.218   9.159   9.811
   35        0.412   0.204   9.170   9.785
   36        0.741   0.752   3.422   4.915
   37        1.601   3.324   0.000   4.926
tot         16.858  12.577 324.197 353.632

  FORCE on cell =-STRESS in cart. coord.  units (eV):
  Direction    XX          YY          ZZ          XY          YZ          ZX
  Alpha Z   757.73102   757.73102   757.73102
  Ewald  118338.27566118338.27562************     0.00001    -0.00001     0.00003
  Hartree128495.63694128495.63691************     0.00000    -0.00000     0.00001
  E(xc)   -2080.29881 -2080.29882 -2088.34828     0.00000     0.00000     0.00000
  Local  ************************257980.31477     0.00044    -0.00004    -0.00014
  n-local  -348.98286  -332.61457  -341.82848     9.82762    -0.47438     0.51578
  augment  3227.12719  3227.12732  3240.30276    -0.00013     0.00002    -0.00001
  Kinetic  4950.75939  4952.73231  4970.77196     2.97575     0.95053    -0.43959
  Fock        0.00000     0.00000     0.00000     0.00000     0.00000     0.00000
  Total      -6.51064    -6.51064    -0.05893    -0.00000    -0.00000    -0.00000
  in kB      -7.02694    -7.02694    -0.06361    -0.00000    -0.00000    -0.00000

 VOLUME and BASIS-vectors are now :
  energy-cutoff  :      500.00
  volume of cell :     1484.46
      direct lattice vectors                 reciprocal lattice vectors
     8.791366577  0.000000000  0.000000000     0.113747958 -0.065672414  0.000000000
     4.395683289  7.613546790  0.000000000     0.000000000  0.131344829  0.000000000
     0.000000000  0.000000000 22.178121567     0.000000000  0.000000000  0.045089481

  length of vectors
     8.791366577  8.791366577 22.178121567     0.131344829  0.131344829  0.045089481

 FORCES acting on ions
    electron-ion (+dipol)            ewald-force                    non-local-force                 convergence-correction
   0.461E-04 -.281E-04 0.249E+04   -.953E-04 0.593E-04 -.249E+04   0.235E-18 -.327E-18 -.176E+01   -.115E-03 -.127E-03 -.203E+00
   -.680E-01 0.240E+00 0.249E+04   -.228E-01 -.264E+00 -.249E+04   0.131E-01 0.487E-01 -.166E+01   0.736E-01 -.206E-01 -.182E+00
   0.681E-01 0.240E+00 0.249E+04   0.230E-01 -.264E+00 -.249E+04   -.131E-01 0.487E-01 -.166E+01   -.741E-01 -.187E-01 -.181E+00
   0.174E+00 -.179E+00 0.249E+04   -.240E+00 0.112E+00 -.249E+04   0.487E-01 -.130E-01 -.166E+01   0.191E-01 0.742E-01 -.182E+00
   -.596E-05 -.189E-04 0.249E+04   0.980E-04 -.197E-05 -.249E+04   0.213E-17 0.162E-17 -.160E+01   0.622E-02 0.379E-02 -.110E+00
   -.174E+00 -.179E+00 0.249E+04   0.240E+00 0.112E+00 -.249E+04   -.487E-01 -.130E-01 -.166E+01   -.205E-01 0.751E-01 -.181E+00
   0.242E+00 -.610E-01 0.249E+04   -.217E+00 0.152E+00 -.249E+04   0.356E-01 -.357E-01 -.166E+01   -.529E-01 -.543E-01 -.181E+00
   -.242E+00 -.609E-01 0.249E+04   0.217E+00 0.152E+00 -.249E+04   -.356E-01 -.357E-01 -.166E+01   0.545E-01 -.553E-01 -.181E+00
   0.363E-04 -.131E-04 0.249E+04   0.792E-04 -.643E-04 -.249E+04   0.124E-17 0.111E-17 -.168E+01   -.664E-02 -.344E-02 -.161E+00
   0.284E+01 0.164E+01 0.825E+03   -.262E+01 -.151E+01 -.825E+03   -.321E+00 -.185E+00 -.573E+00   0.621E-01 0.361E-01 0.149E+00
   -.280E-04 0.178E+01 0.824E+03   0.400E-04 -.214E+01 -.824E+03   0.112E-11 0.171E+00 -.473E+00   0.620E-02 0.118E+00 0.444E-01
   -.284E+01 0.164E+01 0.825E+03   0.262E+01 -.151E+01 -.825E+03   0.321E+00 -.185E+00 -.573E+00   -.638E-01 0.370E-01 0.148E+00
   0.154E+01 -.888E+00 0.824E+03   -.185E+01 0.107E+01 -.824E+03   0.148E+00 -.856E-01 -.473E+00   0.105E+00 -.537E-01 0.448E-01
   -.154E+01 -.888E+00 0.824E+03   0.185E+01 0.107E+01 -.824E+03   -.148E+00 -.856E-01 -.473E+00   -.948E-01 -.548E-01 0.434E-01
   0.155E-04 -.401E+00 0.823E+03   -.108E-03 0.340E+00 -.823E+03   0.360E-12 0.549E-01 -.575E+00   -.156E-02 -.177E-02 0.880E-01
   -.811E-05 -.328E+01 0.825E+03   0.205E-04 0.303E+01 -.825E+03   0.243E-11 0.370E+00 -.573E+00   -.174E-03 -.735E-01 0.148E+00
   -.347E+00 0.201E+00 0.823E+03   0.294E+00 -.170E+00 -.823E+03   0.475E-01 -.274E-01 -.575E+00   -.207E-02 -.502E-03 0.878E-01
   0.347E+00 0.201E+00 0.823E+03   -.294E+00 -.170E+00 -.823E+03   -.475E-01 -.274E-01 -.575E+00   0.217E-02 0.125E-02 0.886E-01
   0.382E-04 -.414E+01 -.857E+03   -.127E-03 0.404E+01 0.856E+03   0.691E-12 0.105E+00 0.970E+00   0.428E-02 -.314E-01 0.213E+00
   -.212E+02 -.122E+02 -.855E+03   0.216E+02 0.125E+02 0.855E+03   -.686E+00 -.396E+00 -.158E+00   0.206E-01 0.123E-01 0.208E+00
   0.212E+02 -.122E+02 -.855E+03   -.216E+02 0.125E+02 0.855E+03   0.686E+00 -.396E+00 -.158E+00   -.114E-01 0.120E-01 0.208E+00
   -.936E+01 0.541E+01 -.854E+03   0.908E+01 -.524E+01 0.853E+03   0.293E+00 -.169E+00 0.723E+00   0.301E-01 -.117E-01 0.159E+00
   -.505E-04 0.244E+02 -.855E+03   0.380E-04 -.249E+02 0.855E+03   0.520E-11 0.792E+00 -.158E+00   -.728E-03 -.252E-01 0.207E+00
   0.936E+01 0.541E+01 -.854E+03   -.908E+01 -.524E+01 0.853E+03   -.293E+00 -.169E+00 0.723E+00   -.199E-01 -.120E-01 0.159E+00
   0.358E+01 0.207E+01 -.857E+03   -.350E+01 -.202E+01 0.856E+03   -.911E-01 -.526E-01 0.970E+00   0.336E-01 0.204E-01 0.212E+00
   -.358E+01 0.207E+01 -.857E+03   0.350E+01 -.202E+01 0.856E+03   0.911E-01 -.526E-01 0.970E+00   -.246E-01 0.205E-01 0.212E+00
   0.198E-04 -.108E+02 -.854E+03   0.109E-03 0.105E+02 0.853E+03   0.222E-11 0.338E+00 0.723E+00   0.432E-02 0.319E-01 0.160E+00
   0.537E-04 -.356E-04 -.245E+04   -.114E-03 0.767E-04 0.245E+04   -.296E-17 -.661E-17 0.156E+01   -.113E-04 0.155E-02 0.102E+00
   0.255E+01 -.115E+01 -.245E+04   -.177E+01 0.190E+01 0.244E+04   -.824E+00 -.104E+01 0.205E+01   -.880E-01 0.354E-01 0.710E-01
   -.255E+01 -.115E+01 -.245E+04   0.177E+01 0.190E+01 0.244E+04   0.824E+00 -.104E+01 0.205E+01   0.875E-01 0.373E-01 0.711E-01
   0.281E+00 0.278E+01 -.245E+04   0.757E+00 -.248E+01 0.244E+04   -.131E+01 -.195E+00 0.205E+01   -.189E-01 -.104E+00 0.709E-01
   -.281E+00 0.278E+01 -.245E+04   -.757E+00 -.248E+01 0.244E+04   0.131E+01 -.195E+00 0.205E+01   0.756E-02 -.103E+00 0.712E-01
   -.227E+01 -.163E+01 -.245E+04   0.253E+01 0.585E+00 0.244E+04   -.485E+00 0.123E+01 0.205E+01   0.755E-01 0.588E-01 0.711E-01
   0.227E+01 -.163E+01 -.245E+04   -.253E+01 0.585E+00 0.244E+04   0.485E+00 0.123E+01 0.205E+01   -.740E-01 0.578E-01 0.718E-01
   0.249E-04 -.125E-04 -.246E+04   0.104E-03 -.653E-04 0.246E+04   0.541E-17 0.202E-18 0.169E+01   -.643E-02 -.200E-02 0.111E+00
   -.986E-05 -.262E-05 -.942E+03   0.479E-04 0.590E-05 0.945E+03   -.470E-19 -.288E-18 -.178E+01   0.832E-03 -.588E-04 0.913E-02
   0.179E-03 -.973E-04 -.155E+04   0.295E-04 0.413E-06 0.158E+04   -.635E-18 -.260E-18 -.293E+02   0.374E-02 0.172E-02 -.115E-01
   0.536E-03 -.775E-03 0.292E+02   -.167E-13 0.176E-12 -.455E-11   -.162E-15 0.222E-15 -.308E+02   0.368E-01 0.931E-02 0.165E+01

 POSITION                                       TOTAL-FORCE (eV/Angst)
      0.00000      0.00000      5.28219        -0.000000     -0.000000     -0.010604
      2.93046      0.00000      5.28219        -0.003571      0.004876      0.039074
      5.86091      0.00000      5.28219         0.003571      0.004876      0.039074
      1.46523      2.53785      5.28219         0.002438     -0.005531      0.039074
      4.39568      2.53785      5.28219        -0.000000     -0.000000      0.011571
      7.32614      2.53785      5.28219        -0.002438     -0.005531      0.039074
      2.93046      5.07570      5.28219         0.006008      0.000654      0.039074
      5.86091      5.07570      5.28219        -0.006008      0.000654      0.039074
      8.79137      5.07570      5.28219        -0.000000     -0.000000      0.024937
      1.46523      0.84595      7.67490        -0.034136     -0.019709     -0.048744
      4.39568      0.84595      7.67490        -0.000000     -0.073127     -0.055541
      7.32614      0.84595      7.67490         0.034136     -0.019709     -0.048744
      2.93046      3.38380      7.67490        -0.063330      0.036564     -0.055541
      5.86091      3.38380      7.67490         0.063330      0.036564     -0.055541
      8.79137      3.38380      7.67490        -0.000000     -0.008629      0.056373
      4.39568      5.92165      7.67490         0.000000      0.039417     -0.048744
      7.32614      5.92165      7.67490        -0.007473      0.004314      0.056373
     10.25659      5.92165      7.67490         0.007473      0.004314      0.056373
      8.79137      1.69476     10.06939        -0.000000     -0.030062      0.007116
      2.92162      1.68680     10.02387        -0.270383     -0.156106     -0.235690
      5.86975      1.68680     10.02387         0.270383     -0.156106     -0.235690
     10.25272      4.23198     10.06895         0.037831     -0.021842      0.024200
      4.39568      4.23995     10.02387         0.000000      0.312212     -0.235690
      7.33001      4.23198     10.06895        -0.037831     -0.021842      0.024200
     11.71935      6.76617     10.06939         0.026035      0.015031      0.007116
      5.86339      6.76617     10.06939        -0.026035      0.015031      0.007116
      8.79137      6.76312     10.06895         0.000000      0.043683      0.024200
      0.00000      0.00000     12.45783        -0.000000     -0.000000     -0.017625
      2.95723      0.04373     12.49962        -0.138665     -0.248107     -0.204407
      5.83413      0.04373     12.49962         0.138665     -0.248107     -0.204407
      1.51649      2.53918     12.49962        -0.284199      0.003966     -0.204407
      7.27488      2.53918     12.49962         0.284199      0.003966     -0.204407
      2.95494      5.03064     12.49962        -0.145534      0.244141     -0.204407
      5.83643      5.03064     12.49962         0.145534      0.244141     -0.204407
      8.79137      5.07570     12.47105        -0.000000     -0.000000     -0.007761
      4.39568      2.53785     12.22632        -0.000000     -0.000000      1.750954
      4.39568      2.53785     13.97782        -0.000000     -0.000000     -0.002618
    total drift:                                0.037300      0.008537      0.015324

  FREE ENERGIE OF THE ION-ELECTRON SYSTEM (eV)
  free  energy   TOTEN  =      -107.12614951 eV

  energy  without entropy=     -107.12614951  energy(sigma->0) =     -107.12614951

 stress matrix after NEB project (eV)
     -6.51064     -0.00000     -0.00000
     -0.00000     -6.51064     -0.00000
      0.00000     -0.00000     -0.05893
  FORCES: max atom, RMS     0.002618    0.000430
  FORCE total and by dimension    0.002618    0.002618
  Stress total and by dimension    9.207626    6.510642
|           W    W    AA    RRRRR   N    N  II  N    N   GGGG   !!!           |
|           W    W   A  A   R    R  NN   N  II  NN   N  G    G  !!!           |
|           W    W  A    A  R    R  N N  N  II  N N  N  G       !!!           |
|           W WW W  AAAAAA  RRRRR   N  N N  II  N  N N  G  GGG   !            |
|           WW  WW  A    A  R   R   N   NN  II  N   NN  G    G                |
|           W    W  A    A  R    R  N    N  II  N    N   GGGG   !!!           |
|     Tetrahedron method does not include variations of the Fermi             |
|     occupations, so forces and stress will be inaccurate. We suggest        |
|     using a different smearing scheme ISMEAR = 1 or 2 for metals in         |
|     relaxations.                                                            |

 total charge

# of ion       s       p       d       tot
    1        0.421   0.201   9.177   9.799
    2        0.415   0.204   9.177   9.796
    3        0.415   0.204   9.177   9.796
    4        0.415   0.204   9.177   9.796
    5        0.417   0.202   9.177   9.796
    6        0.415   0.204   9.177   9.796
    7        0.415   0.204   9.177   9.796
    8        0.415   0.204   9.177   9.796
    9        0.416   0.203   9.177   9.795
   10        0.408   0.270   9.164   9.842
   11        0.403   0.273   9.166   9.842
   12        0.408   0.270   9.164   9.842
   13        0.403   0.273   9.166   9.842
   14        0.403   0.273   9.166   9.842
   15        0.402   0.270   9.165   9.836
   16        0.408   0.270   9.164   9.842
   17        0.402   0.270   9.165   9.836
   18        0.402   0.270   9.165   9.836
   19        0.401   0.262   9.168   9.831
   20        0.440   0.306   9.136   9.883
   21        0.440   0.306   9.136   9.883
   22        0.394   0.273   9.163   9.830
   23        0.440   0.306   9.136   9.883
   24        0.394   0.273   9.163   9.830
   25        0.401   0.262   9.168   9.831
   26        0.401   0.262   9.168   9.831
   27        0.394   0.273   9.163   9.830
   28        0.414   0.199   9.172   9.786
   29        0.434   0.218   9.159   9.811
   30        0.434   0.218   9.159   9.811
   31        0.434   0.218   9.159   9.811
   32        0.434   0.218   9.159   9.811
   33        0.434   0.218   9.159   9.811
   34        0.434   0.218   9.159   9.811
   35        0.412   0.204   9.170   9.785
   36        0.741   0.752   3.422   4.915
   37        1.601   3.324   0.000   4.926
tot         16.858  12.577 324.197 353.632

 BZINTS: Fermi energy:    0.790390;  396.000000 electrons
         Band energy:-0.135066E+04;  BLOECHL correction:   -0.048440