 vasp.6.2.0 18Jan21 (build Jun 12 2021 23:27:24) complex

 executed on             LinuxIFC date 2022.05.27  06:21:02

 INCAR:
   ISMEAR = -5
   SIGMA = 0.1
   ISPIN = 1
   EDIFF = 1.d-5
   EDIFFG = -0.01
   NSW = 0
   NELM = 150
   ENCUT = 500
   ISIF = 2
   IBRION = 2
   LREAL = Auto
   ALGO = Fast
   ICHARG = 11
   LORBIT = 10
   LCHARG = .F.
   LWAVE = .F.

 POTCAR:    PAW_PBE Cu 22Jun2005
 POTCAR:    PAW_PBE Ir 06Sep2000
 POTCAR:    PAW_PBE H 15Jun2001
|           W    W    AA    RRRRR   N    N  II  N    N   GGGG   !!!           |
|           W    W   A  A   R    R  NN   N  II  NN   N  G    G  !!!           |
|           W    W  A    A  R    R  N N  N  II  N N  N  G       !!!           |
|           W WW W  AAAAAA  RRRRR   N  N N  II  N  N N  G  GGG   !            |
|           WW  WW  A    A  R   R   N   NN  II  N   NN  G    G                |
|           W    W  A    A  R    R  N    N  II  N    N   GGGG   !!!           |
|     For optimal performance we recommend to set                             |
|       NCORE = 2 up to number-of-cores-per-socket                            |
|     This setting can greatly improve the performance of VASP for DFT.       |
|     The default, NCORE=1 might be grossly inefficient on modern             |
|     multi-core architectures or massively parallel machines. Do your        |
|     Unfortunately you need to use the default for GW and RPA                |
|     calculations (for HF NCORE is supported but not extensively tested      |
|     yet).                                                                   |

 POTCAR:    PAW_PBE Cu 22Jun2005
   VRHFIN =Cu: d10 p1

   TITEL  = PAW_PBE Cu 22Jun2005
   POMASS =   63.546; ZVAL   =   11.000    mass and valenz
   ENMAX  =  295.446; ENMIN  =  221.585 eV

 POTCAR:    PAW_PBE Ir 06Sep2000
   VRHFIN =Ir: s1d8

   TITEL  = PAW_PBE Ir 06Sep2000
   POMASS =  192.220; ZVAL   =    9.000    mass and valenz
   ENMAX  =  210.864; ENMIN  =  158.148 eV

 POTCAR:    PAW_PBE H 15Jun2001
   VRHFIN =H: ultrasoft test

   TITEL  = PAW_PBE H 15Jun2001
   POMASS =    1.000; ZVAL   =    1.000    mass and valenz
   ENMAX  =  250.000; ENMIN  =  200.000 eV

 Optimization of the real space projectors (new method)

 maximal supplied QI-value         = 16.25
 optimisation between [QCUT,QGAM] = [ 11.38, 22.75] = [ 36.24,144.96] Ry
 Optimized for a Real-space Cutoff    1.52 Angstroem

   l    n(q)    QCUT    max X(q) W(low)/X(q) W(high)/X(q)  e(spline)
   2      9    11.376     4.610    0.21E-03    0.10E-03    0.26E-06
   2      9    11.376     8.522    0.33E-03    0.16E-03    0.37E-06
   0     10    11.376    51.609    0.62E-04    0.20E-04    0.13E-06
   0     10    11.376    27.747    0.54E-04    0.20E-04    0.13E-06
   1     10    11.376    20.408    0.13E-04    0.99E-04    0.19E-06
   1     10    11.376    13.425    0.12E-04    0.87E-04    0.17E-06
 Optimization of the real space projectors (new method)

[...]

   l    n(q)    QCUT    max X(q) W(low)/X(q) W(high)/X(q)  e(spline)
   2      9    11.346   134.116    0.47E-03    0.13E-03    0.92E-06
   2      9    11.346   130.192    0.47E-03    0.13E-03    0.92E-06
   0     10    11.346    60.310    0.74E-04    0.13E-03    0.69E-06
   0     10    11.346    39.218    0.68E-04    0.12E-03    0.65E-06
   1     10    11.346    18.439    0.15E-03    0.34E-04    0.20E-06
   1     10    11.346    12.760    0.12E-03    0.31E-04    0.16E-06
 Optimization of the real space projectors (new method)

 maximal supplied QI-value         = 34.20
 optimisation between [QCUT,QGAM] = [ 11.29, 22.57] = [ 35.68,142.71] Ry
 Optimized for a Real-space Cutoff    1.16 Angstroem

   l    n(q)    QCUT    max X(q) W(low)/X(q) W(high)/X(q)  e(spline)
   0      8    11.287    19.460    0.40E-03    0.73E-03    0.16E-06
   0      8    11.287    12.209    0.38E-03    0.70E-03    0.15E-06
   1      7    11.287     4.655    0.22E-03    0.25E-04    0.22E-06
  PAW_PBE Cu 22Jun2005                  :
  PAW_PBE Ir 06Sep2000                  :
  PAW_PBE H 15Jun2001                   :

 POSCAR: Cu-Ir-H2
  positions in direct lattice
  velocities in cartesian coordinates
 exchange correlation table for  LEXCH =        8
   RHO(1)=    0.500       N(1)  =     2000
   RHO(2)=  100.500       N(2)  =     4000

 VTST: version 3.2, (02/03/18)

 CHAIN: initializing optimizer

 OPT: Using VASP Conjugate-Gradient optimizer
 CHAIN: Read ICHAIN            0

 POSCAR: Cu-Ir-H2
  positions in direct lattice
  velocities in cartesian coordinates

 ion  position               nearest neighbor table
   1  0.000  0.000  0.252-   7 2.57   3 2.57   4 2.57   2 2.57   6 2.57   8 2.57  12 2.57  10 2.57
                            16 2.57
   2  0.333  0.000  0.252-   8 2.57   9 2.57   5 2.57   1 2.57   3 2.57  11 2.57   4 2.57  10 2.57
                            17 2.57
   3  0.667  0.000  0.252-   1 2.57   7 2.57   6 2.57   9 2.57   2 2.57  12 2.57   5 2.57  18 2.57
                            11 2.57
   4  0.000  0.333  0.252-   5 2.57   6 2.57   1 2.57   7 2.57   2 2.57  13 2.57   9 2.57  10 2.57
                            15 2.57
   5  0.333  0.333  0.252-   4 2.57   2 2.57   7 2.57  13 2.57   8 2.57   6 2.57   3 2.57  11 2.57
                            14 2.57
   6  0.667  0.333  0.252-   4 2.57   9 2.57  15 2.57   3 2.57   1 2.57   8 2.57  14 2.57   5 2.57
                            12 2.57
   7  0.000  0.667  0.252-   1 2.57   3 2.57  16 2.57  18 2.57   4 2.57   5 2.57   8 2.57   9 2.57
                            13 2.57
   8  0.333  0.667  0.252-   9 2.57   2 2.57  17 2.57   6 2.57   1 2.57   7 2.57   5 2.57  14 2.57
                            16 2.57
   9  0.667  0.667  0.252-   8 2.57   6 2.57   2 2.57  17 2.57   3 2.57   7 2.57   4 2.57  15 2.57
                            18 2.57
  10  0.111  0.111  0.351-  20 2.53  11 2.57  12 2.57  13 2.57   1 2.57   2 2.57   4 2.57  15 2.57
                            16 2.57  17 2.57  26 2.57  19 2.57
  11  0.444  0.111  0.351-  20 2.55  21 2.55  10 2.57  13 2.57   2 2.57  17 2.57  14 2.57  12 2.57
                             5 2.57   3 2.57  18 2.57  27 2.57
  12  0.778  0.111  0.351-  21 2.53  15 2.57  10 2.57  14 2.57  18 2.57   3 2.57   1 2.57  16 2.57
                            11 2.57   6 2.57  19 2.57  25 2.57
  13  0.111  0.444  0.351-  23 2.55  20 2.55  16 2.57  18 2.57  10 2.57  11 2.57  14 2.57   5 2.57
                             4 2.57   7 2.57  15 2.57  22 2.57
  14  0.444  0.444  0.351-  21 2.55  23 2.55  15 2.57  17 2.57  12 2.57  16 2.57  13 2.57  11 2.57
                             6 2.57   8 2.57   5 2.57  24 2.57
  15  0.778  0.444  0.351-  19 2.56  24 2.56  22 2.56  14 2.57  17 2.57  12 2.57   6 2.57  18 2.57
                            10 2.57   9 2.57  13 2.57   4 2.57
  16  0.111  0.778  0.351-  23 2.53  18 2.57  13 2.57   7 2.57  14 2.57  17 2.57  12 2.57  10 2.57
                             8 2.57   1 2.57  25 2.57  26 2.57
  17  0.444  0.778  0.351-  26 2.56  27 2.56  24 2.56  14 2.57  15 2.57   8 2.57   9 2.57  11 2.57
                            16 2.57  18 2.57  10 2.57   2 2.57
  18  0.778  0.778  0.351-  25 2.56  22 2.56  27 2.56  16 2.57  13 2.57   7 2.57  15 2.57  12 2.57
                            17 2.57   9 2.57   3 2.57  11 2.57
  19  0.888  0.223  0.449-  28 2.55  21 2.55  20 2.55  22 2.56  24 2.56  15 2.56  32 2.56  31 2.56
                            12 2.57  10 2.57  25 2.58  26 2.58
  20  0.221  0.221  0.448-  10 2.53  11 2.55  13 2.55  26 2.55  19 2.55  36 2.55  27 2.57  22 2.57
                            29 2.59  31 2.59  23 2.59  21 2.59
  21  0.558  0.221  0.448-  12 2.53  14 2.55  11 2.55  19 2.55  25 2.55  36 2.55  24 2.57  27 2.57
                            32 2.59  30 2.59  20 2.59  23 2.59
  22  0.888  0.556  0.449-  35 2.54  24 2.56  27 2.56  19 2.56  25 2.56  18 2.56  15 2.56  13 2.57
                            23 2.57  20 2.57  31 2.57  33 2.57
  23  0.221  0.558  0.448-  16 2.53  13 2.55  14 2.55  25 2.55  26 2.55  36 2.55  22 2.57  24 2.57
                            33 2.59  34 2.59  20 2.59  21 2.59
  24  0.556  0.556  0.449-  35 2.54  22 2.56  27 2.56  19 2.56  26 2.56  15 2.56  17 2.56  14 2.57
                            21 2.57  23 2.57  32 2.57  34 2.57
  25  0.888  0.888  0.449-  28 2.55  21 2.55  23 2.55  22 2.56  27 2.56  18 2.56  33 2.56  30 2.56
                            16 2.57  12 2.57  19 2.58  26 2.58
  26  0.223  0.888  0.449-  28 2.55  20 2.55  23 2.55  27 2.56  24 2.56  17 2.56  29 2.56  34 2.56
                            10 2.57  16 2.57  25 2.58  19 2.58
  27  0.556  0.888  0.449-  35 2.54  24 2.56  22 2.56  26 2.56  25 2.56  17 2.56  18 2.56  11 2.57
                            20 2.57  21 2.57  29 2.57  30 2.57
  28  0.000  0.000  0.546-  25 2.55  19 2.55  26 2.55  33 2.56  30 2.56  31 2.56  29 2.56  32 2.56
                            34 2.56
  29  0.333  0.999  0.548-  34 2.55  28 2.56  26 2.56  35 2.57  31 2.57  27 2.57  36 2.57  30 2.58
                            20 2.59
  30  0.668  0.999  0.548-  33 2.55  28 2.56  25 2.56  35 2.57  32 2.57  27 2.57  36 2.57  29 2.58
                            21 2.59
  31  0.999  0.333  0.548-  32 2.55  28 2.56  19 2.56  35 2.57  29 2.57  22 2.57  36 2.57  33 2.58
                            20 2.59
  32  0.668  0.333  0.548-  31 2.55  28 2.56  19 2.56  35 2.57  30 2.57  24 2.57  36 2.57  34 2.58
                            21 2.59
  33  0.999  0.668  0.548-  30 2.55  28 2.56  25 2.56  35 2.57  34 2.57  22 2.57  36 2.57  31 2.58
                            23 2.59
  34  0.333  0.668  0.548-  29 2.55  28 2.56  26 2.56  35 2.57  33 2.57  24 2.57  36 2.57  32 2.58
                            23 2.59
  35  0.667  0.667  0.546-  24 2.54  27 2.54  22 2.54  34 2.57  32 2.57  29 2.57  30 2.57  33 2.57
                            31 2.57
  36  0.333  0.333  0.545-  37 1.66  38 1.66  23 2.55  20 2.55  21 2.55  31 2.57  29 2.57  33 2.57
                            34 2.57  32 2.57  30 2.57
  37  0.219  0.287  0.603-  36 1.66
  38  0.494  0.287  0.603-  36 1.66

  LATTYP: Found a hexagonal cell.
 ALAT       =     7.6967864036
 C/A-ratio  =     2.7653617908

  Lattice vectors:

 A1 = (  -3.8483927580,  -6.6656128093,   0.0000000000)
 A2 = (   7.6967864037,   0.0000000000,   0.0000000000)
 A3 = (   0.0000000000,   0.0000000000,  21.2843990326)

Analysis of symmetry for initial positions (statically):
 Subroutine PRICEL returns:
 Original cell was already a primitive cell.

 Routine SETGRP: Setting up the symmetry group for a
 hexagonal supercell.

 Subroutine GETGRP returns: Found  2 space group operations
 (whereof  2 operations were pure point group operations)
 out of a pool of 24 trial point group operations.

The static configuration has the point symmetry C_1h.

Analysis of symmetry for dynamics (positions and initial velocities):
 Subroutine PRICEL returns:
 Original cell was already a primitive cell.

[...]

The dynamic configuration has the point symmetry C_1h.

Analysis of constrained symmetry for selective dynamics:
 Subroutine PRICEL returns:
 Original cell was already a primitive cell.

 Routine SETGRP: Setting up the symmetry group for a
 hexagonal supercell.

 Subroutine GETGRP returns: Found  2 space group operations
[...]
     33      -3.9343      2.00000
     34      -3.9212      2.00000
     35      -3.8555      2.00000
     36      -3.8253      2.00000
     37      -3.8045      2.00000
     38      -3.7300      2.00000
     39      -3.6277      2.00000
     40      -3.6164      2.00000
     41      -3.5808      2.00000
     42      -3.5513      2.00000
     43      -3.5364      2.00000
     44      -3.5166      2.00000
     45      -3.5068      2.00000
     46      -3.4912      2.00000
     47      -3.4795      2.00000
     48      -3.3392      2.00000
     49      -3.3119      2.00000
     50      -3.2867      2.00000
     51      -3.2750      2.00000
     52      -3.2321      2.00000
     53      -3.2183      2.00000
     54      -3.2115      2.00000
     55      -3.2022      2.00000
     56      -3.1853      2.00000
     57      -3.1667      2.00000
     58      -3.1539      2.00000
     59      -3.1411      2.00000
     60      -3.1287      2.00000
[...]
    238       6.8526      0.00000
    239       6.9105      0.00000
    240       6.9881      0.00000
    241       7.0598      0.00000
    242       7.0861      0.00000
    243       7.3206      0.00000
    244       7.3624      0.00000
    245       7.4347      0.00000
    246       7.4786      0.00000
    247       7.5841      0.00000
    248       7.7495      0.00000
    249       7.9545      0.00000
    250       8.1913      0.00000
    251       8.2212      0.00000
    252       8.4737      0.00000

 soft charge-density along one line, spin component           1
         0         1         2         3         4         5         6         7         8         9
 total charge-density along one line

------------------------ aborting loop because EDIFF is reached ----------------------------------------

 total charge

# of ion       s       p       d       tot
    1        0.447   0.283   9.191   9.922
    2        0.450   0.284   9.188   9.921
    3        0.450   0.284   9.188   9.921
    4        0.449   0.285   9.186   9.920
    5        0.449   0.288   9.181   9.917
    6        0.449   0.285   9.186   9.920
    7        0.451   0.285   9.186   9.921
    8        0.451   0.285   9.186   9.921
    9        0.446   0.284   9.189   9.919
   10        0.440   0.374   9.174   9.988
   11        0.444   0.367   9.181   9.993
   12        0.440   0.374   9.174   9.988
   13        0.445   0.366   9.184   9.994
   14        0.445   0.366   9.184   9.994
   15        0.437   0.369   9.179   9.986
   16        0.441   0.372   9.176   9.989
   17        0.436   0.370   9.179   9.985
   18        0.436   0.370   9.179   9.985
   19        0.440   0.371   9.182   9.993
   20        0.454   0.387   9.178  10.019
   21        0.454   0.387   9.178  10.019
   22        0.431   0.375   9.180   9.985
   23        0.451   0.393   9.172  10.016
   24        0.431   0.375   9.180   9.985
   25        0.441   0.371   9.181   9.993
   26        0.441   0.371   9.181   9.993
   27        0.432   0.374   9.179   9.986
   28        0.453   0.287   9.198   9.938
   29        0.441   0.310   9.192   9.943
   30        0.441   0.310   9.192   9.943
   31        0.440   0.337   9.180   9.956
   32        0.440   0.337   9.180   9.956
   33        0.448   0.307   9.185   9.940
   34        0.448   0.307   9.185   9.940
   35        0.447   0.289   9.198   9.933
   36        0.701   0.689   7.172   8.561
   37        0.507   0.024   0.000   0.531
   38        0.507   0.024   0.000   0.531
tot         17.253  12.514 328.581 358.347

  FORCE on cell =-STRESS in cart. coord.  units (eV):
  Direction    XX          YY          ZZ          XY          YZ          ZX
  Alpha Z   891.57432   891.57432   891.57432
  Ewald  173869.68785173829.87455************     0.00037    -3.28330     0.00016
  Hartree186797.41646186791.26484************     0.00003     3.27050     0.00006
  E(xc)   -2294.27845 -2294.60472 -2299.16174    -0.00032    -0.08461    -0.00004
  Local  ************************374117.90302     0.01960    -2.99407    -0.00067
  n-local  -767.43259  -767.05140  -781.95045     1.75969     0.02170     0.10088
  augment  3346.51586  3348.32695  3363.82132    -0.01843     0.61287     0.00024
  Kinetic  3261.47397  3269.38485  3288.30460     0.93373     2.62815    -0.20738
  Fock        0.00000     0.00000     0.00000     0.00000     0.00000     0.00000
  Total      -2.55327    -2.57978     2.63000     0.00000     0.17125    -0.00000
  in kB      -3.74625    -3.78514     3.85883     0.00000     0.25127    -0.00000

 VOLUME and BASIS-vectors are now :
  energy-cutoff  :      500.00
  volume of cell :     1091.97
      direct lattice vectors                 reciprocal lattice vectors
     7.696786404  0.000000000  0.000000000     0.129924354 -0.075011849  0.000000000
     3.848392758  6.665612809  0.000000000     0.000000000  0.150023716  0.000000000
     0.000000000  0.000000000 21.284399033     0.000000000  0.000000000  0.046982769

  length of vectors
     7.696786404  7.696786404 21.284399033     0.150023716  0.150023716  0.046982769

 FORCES acting on ions
    electron-ion (+dipol)            ewald-force                    non-local-force                 convergence-correction
   -.408E-04 -.298E-01 0.348E+04   0.580E-04 -.316E-01 -.348E+04   -.367E-08 0.551E-01 -.311E+01   -.335E-03 0.382E-02 -.557E+00
   -.116E+00 0.117E+00 0.348E+04   0.343E-01 -.456E-01 -.348E+04   0.497E-01 0.280E-01 -.199E+01   0.440E-01 -.740E-01 -.420E+00
   0.116E+00 0.117E+00 0.348E+04   -.344E-01 -.457E-01 -.348E+04   -.497E-01 0.280E-01 -.199E+01   -.432E-01 -.714E-01 -.419E+00
   -.242E-01 -.163E+00 0.348E+04   0.481E-02 0.625E-01 -.348E+04   0.731E-01 0.316E-01 -.193E+01   -.244E-01 0.693E-01 -.416E+00
   -.612E-04 0.591E-02 0.348E+04   0.116E-03 0.263E-01 -.348E+04   0.103E-08 -.154E-01 -.147E+01   0.122E-01 -.140E-01 -.196E+00
   0.242E-01 -.163E+00 0.348E+04   -.493E-02 0.624E-01 -.348E+04   -.731E-01 0.316E-01 -.193E+01   0.227E-01 0.705E-01 -.415E+00
   0.168E+00 0.701E-01 0.348E+04   -.288E-01 -.171E-01 -.348E+04   -.152E-01 -.823E-01 -.190E+01   -.992E-01 0.551E-02 -.384E+00
   -.168E+00 0.701E-01 0.348E+04   0.285E-01 -.171E-01 -.348E+04   0.152E-01 -.823E-01 -.190E+01   0.103E+00 0.401E-02 -.383E+00
   -.143E-03 -.822E-01 0.348E+04   0.263E-03 0.583E-02 -.348E+04   -.347E-08 0.521E-01 -.256E+01   -.133E-01 0.248E-01 -.458E+00
   0.288E+01 0.180E+01 0.117E+04   -.249E+01 -.155E+01 -.116E+04   -.441E+00 -.278E+00 -.114E+01   0.422E-01 0.300E-01 -.288E+00
   -.916E-04 -.364E+00 0.116E+04   0.190E-03 0.128E+00 -.116E+04   -.872E-08 0.131E+00 -.672E+00   0.118E-01 0.602E-01 -.244E+00
   -.288E+01 0.180E+01 0.117E+04   0.249E+01 -.155E+01 -.116E+04   0.441E+00 -.278E+00 -.114E+01   -.442E-01 0.321E-01 -.287E+00
   -.346E+00 0.205E-01 0.116E+04   0.230E+00 0.122E+00 -.116E+04   0.314E-01 -.906E-01 -.532E+00   0.553E-01 -.250E-01 -.227E+00
   0.346E+00 0.205E-01 0.116E+04   -.231E+00 0.122E+00 -.116E+04   -.314E-01 -.906E-01 -.532E+00   -.309E-01 -.259E-01 -.226E+00
   -.143E-03 -.156E+00 0.116E+04   0.298E-03 -.124E+00 -.116E+04   -.115E-07 0.173E+00 -.101E+01   -.407E-02 0.981E-01 -.326E+00
   -.920E-04 -.321E+01 0.117E+04   0.186E-03 0.274E+01 -.116E+04   -.359E-07 0.539E+00 -.125E+01   -.148E-03 -.687E-01 -.309E+00
   0.995E-01 0.589E-02 0.116E+04   -.309E+00 0.618E-01 -.116E+04   0.699E-01 -.182E-01 -.948E+00   0.119E+00 -.441E-01 -.368E+00
   -.994E-01 0.593E-02 0.116E+04   0.309E+00 0.617E-01 -.116E+04   -.699E-01 -.182E-01 -.948E+00   -.119E+00 -.411E-01 -.367E+00
   -.603E-04 0.390E+00 -.117E+04   0.692E-04 -.483E+00 0.117E+04   0.367E-08 -.552E-01 0.686E+00   -.250E-02 0.125E+00 -.301E+00
   -.256E+02 -.146E+02 -.117E+04   0.260E+02 0.151E+02 0.117E+04   -.560E+00 -.715E+00 -.886E+00   0.964E-01 0.161E+00 -.271E+00
   0.256E+02 -.146E+02 -.117E+04   -.260E+02 0.151E+02 0.117E+04   0.560E+00 -.715E+00 -.886E+00   -.724E-01 0.163E+00 -.272E+00
   -.178E+02 0.915E+01 -.117E+04   0.173E+02 -.871E+01 0.117E+04   0.506E+00 -.354E+00 0.874E+00   0.443E-01 -.129E+00 -.327E+00
   -.918E-04 0.280E+02 -.117E+04   0.146E-03 -.287E+02 0.118E+04   -.655E-07 0.983E+00 -.912E+00   0.120E-01 -.167E+00 -.243E+00
   0.178E+02 0.915E+01 -.117E+04   -.173E+02 -.871E+01 0.117E+04   -.506E+00 -.354E+00 0.874E+00   -.469E-01 -.130E+00 -.327E+00
   -.826E+00 0.121E+01 -.117E+04   0.685E+00 -.115E+01 0.117E+04   0.135E+00 -.399E-02 0.731E+00   -.297E-02 -.349E-01 -.349E+00
   0.826E+00 0.121E+01 -.117E+04   -.685E+00 -.115E+01 0.117E+04   -.135E+00 -.399E-02 0.731E+00   0.361E-02 -.378E-01 -.349E+00
   -.116E-03 -.192E+02 -.117E+04   0.243E-03 0.186E+02 0.117E+04   -.456E-07 0.685E+00 0.887E+00   -.997E-03 0.392E-01 -.363E+00
   -.435E-04 0.566E+01 -.346E+04   0.400E-04 -.560E+01 0.345E+04   0.128E-07 -.192E+00 0.245E+01   -.254E-03 0.472E-01 0.534E+00
   -.193E+02 -.179E+02 -.347E+04   0.195E+02 0.164E+02 0.346E+04   -.300E+00 0.113E+01 0.269E+01   -.124E-01 0.989E-01 0.351E+00
   0.193E+02 -.179E+02 -.347E+04   -.195E+02 0.164E+02 0.346E+04   0.300E+00 0.113E+01 0.269E+01   0.134E-01 0.101E+00 0.350E+00
   -.218E+02 -.890E+01 -.346E+04   0.207E+02 0.955E+01 0.345E+04   0.895E+00 -.552E+00 0.231E+01   0.555E-01 -.337E-01 0.326E+00
   0.218E+02 -.890E+01 -.346E+04   -.207E+02 0.955E+01 0.345E+04   -.895E+00 -.552E+00 0.231E+01   -.567E-01 -.327E-01 0.325E+00
   -.193E+02 0.312E+02 -.347E+04   0.195E+02 -.310E+02 0.347E+04   -.227E+00 -.301E-02 0.197E+01   0.422E-01 -.602E-01 0.270E+00
   0.193E+02 0.312E+02 -.347E+04   -.195E+02 -.310E+02 0.347E+04   0.227E+00 -.301E-02 0.197E+01   -.388E-01 -.615E-01 0.269E+00
   -.157E-03 -.148E+01 -.346E+04   0.253E-03 0.141E+01 0.346E+04   -.113E-07 0.169E+00 0.267E+01   -.133E-01 -.742E-01 0.327E+00
   -.569E-04 -.165E+02 -.274E+04   0.114E-03 0.168E+02 0.274E+04   0.163E-08 -.245E-01 -.128E+01   0.210E-02 0.843E-02 0.404E-01
   0.118E+01 0.798E+00 -.392E+03   -.221E+01 -.116E+01 0.394E+03   0.102E+01 0.357E+00 -.199E+01   0.225E-02 0.123E-02 0.170E-01
   -.118E+01 0.798E+00 -.392E+03   0.221E+01 -.116E+01 0.394E+03   -.102E+01 0.357E+00 -.199E+01   -.218E-02 0.129E-02 0.168E-01
   -.207E-03 -.142E+01 0.173E+02   0.302E-13 0.389E-12 -.216E-10   -.935E-07 0.140E+01 -.110E+02   0.544E-01 0.192E-01 -.627E+01

 POSITION                                       TOTAL-FORCE (eV/Angst)
      0.00000      0.00000      5.37156         0.000000     -0.002394      0.031441
      2.56560      0.00000      5.37156         0.011731      0.026589      0.073647
      5.13119      0.00000      5.37156        -0.011731      0.026589      0.073647
      1.28280      2.22187      5.37156         0.030191      0.001179      0.085864
      3.84839      2.22187      5.37156        -0.000000      0.002839      0.051809
      6.41399      2.22187      5.37156        -0.030191      0.001179      0.085864
      2.56560      4.44374      5.37156         0.023342     -0.024510      0.069111
      5.13119      4.44374      5.37156        -0.023342     -0.024510      0.069111
      7.69679      4.44374      5.37156        -0.000000      0.000545      0.042884
      1.28280      0.74062      7.46636        -0.010255     -0.001599     -0.061132
      3.84839      0.74062      7.46636         0.000000     -0.045318     -0.101543
      6.41399      0.74062      7.46636         0.010255     -0.001599     -0.061132
      2.56560      2.96249      7.46636        -0.040526      0.026098     -0.094784
      5.13119      2.96249      7.46636         0.040526      0.026098     -0.094784
      7.69679      2.96249      7.46636         0.000000     -0.009146     -0.035585
      3.84839      5.18437      7.46636         0.000000     -0.004876     -0.058955
      6.41399      5.18437      7.46636        -0.020116      0.006858     -0.013727
      8.97958      5.18437      7.46636         0.020116      0.006858     -0.013727
      7.69679      1.48769      9.56171         0.000000     -0.023869      0.075902
      2.55203      1.47342      9.53141        -0.083252     -0.057960     -0.273111
      5.14476      1.47342      9.53141         0.083252     -0.057960     -0.273111
      8.97489      3.70583      9.56026         0.078576     -0.048989      0.027227
      3.84839      3.71878      9.53141        -0.000000      0.051040     -0.211230
      6.41868      3.70583      9.56026        -0.078576     -0.048989      0.027227
     10.25680      5.92177      9.56171        -0.009727      0.021130      0.025384
      5.13677      5.92177      9.56171         0.009727      0.021130      0.025384
      7.69679      5.91957      9.56026        -0.000000      0.037655      0.007974
      0.00000      0.00000     11.63002         0.000000     -0.086952     -0.042272
      6.40663      6.66047     11.66109        -0.096903     -0.229490     -0.054833
      8.98694      6.66047     11.66109         0.096903     -0.229490     -0.054833
      8.97145      2.21807     11.66109        -0.205520      0.060882     -0.011914
      6.42212      2.21807     11.66109         0.205520      0.060882     -0.011914
     10.26160      4.45269     11.66109        -0.063845      0.141233     -0.067765
      5.13197      4.45269     11.66109         0.063845      0.141233     -0.067765
      7.69679      4.44374     11.62915        -0.000000      0.022634     -0.019160
      3.84839      2.22187     11.60012        -0.000000      0.215693      0.851193
      2.78928      1.91298     12.83379        -0.011794     -0.000348     -0.000197
      4.90750      1.91298     12.83379         0.011794     -0.000348     -0.000197
    total drift:                                0.054145     -0.000715      0.020125

  FREE ENERGIE OF THE ION-ELECTRON SYSTEM (eV)
  free  energy   TOTEN  =      -138.41711949 eV

  energy  without entropy=     -138.41711949  energy(sigma->0) =     -138.41711949

 stress matrix after NEB project (eV)
     -2.55327      0.00000     -0.00000
      0.00000     -2.57978      0.17125
     -0.00000      0.17125      2.63000
  FORCES: max atom, RMS     0.011801    0.002707
  FORCE total and by dimension    0.016689    0.011794
  Stress total and by dimension    4.488877    2.630000
|           W    W    AA    RRRRR   N    N  II  N    N   GGGG   !!!           |
|           W    W   A  A   R    R  NN   N  II  NN   N  G    G  !!!           |
|           W    W  A    A  R    R  N N  N  II  N N  N  G       !!!           |
|           W WW W  AAAAAA  RRRRR   N  N N  II  N  N N  G  GGG   !            |
|           WW  WW  A    A  R   R   N   NN  II  N   NN  G    G                |
|           W    W  A    A  R    R  N    N  II  N    N   GGGG   !!!           |
|     Tetrahedron method does not include variations of the Fermi             |
|     occupations, so forces and stress will be inaccurate. We suggest        |
|     using a different smearing scheme ISMEAR = 1 or 2 for metals in         |
|     relaxations.                                                            |

 total charge

# of ion       s       p       d       tot
    1        0.447   0.283   9.191   9.922
    2        0.450   0.284   9.188   9.921
    3        0.450   0.284   9.188   9.921
    4        0.449   0.285   9.186   9.920
    5        0.449   0.288   9.181   9.917
    6        0.449   0.285   9.186   9.920
    7        0.451   0.285   9.186   9.921
    8        0.451   0.285   9.186   9.921
    9        0.446   0.284   9.189   9.919
   10        0.440   0.374   9.174   9.988
   11        0.444   0.367   9.181   9.993
   12        0.440   0.374   9.174   9.988
   13        0.445   0.366   9.184   9.994
   14        0.445   0.366   9.184   9.994
   15        0.437   0.369   9.179   9.986
   16        0.441   0.372   9.176   9.989
   17        0.436   0.370   9.179   9.985
   18        0.436   0.370   9.179   9.985
   19        0.440   0.371   9.182   9.993
   20        0.454   0.387   9.178  10.019
   21        0.454   0.387   9.178  10.019
   22        0.431   0.375   9.180   9.985
   23        0.451   0.393   9.172  10.016
   24        0.431   0.375   9.180   9.985
   25        0.441   0.371   9.181   9.993
   26        0.441   0.371   9.181   9.993
   27        0.432   0.374   9.179   9.986
   28        0.453   0.287   9.198   9.938
   29        0.441   0.310   9.192   9.943
   30        0.441   0.310   9.192   9.943
   31        0.440   0.337   9.180   9.956
   32        0.440   0.337   9.180   9.956
   33        0.448   0.307   9.185   9.940
   34        0.448   0.307   9.185   9.940
   35        0.447   0.289   9.198   9.933
   36        0.701   0.689   7.172   8.561
   37        0.507   0.024   0.000   0.531
   38        0.507   0.024   0.000   0.531
tot         17.253  12.514 328.581 358.347

 BZINTS: Fermi energy:    0.131727;  396.000000 electrons
         Band energy:-0.106054E+04;  BLOECHL correction:   -0.065617