 vasp.6.2.0 18Jan21 (build Jun 12 2021 23:27:24) complex

 executed on             LinuxIFC date 2022.05.28  02:37:30

 INCAR:
   ISMEAR = -5
   SIGMA = 0.1
   ISPIN = 1
   EDIFF = 1.d-5
   EDIFFG = -0.01
   NSW = 0
   NELM = 150
   ENCUT = 500
   ISIF = 2
   IBRION = 2
   LREAL = Auto
   ALGO = Fast
   ICHARG = 11
   LORBIT = 10
   LCHARG = .F.
   LWAVE = .F.

 POTCAR:    PAW_PBE Cu 22Jun2005
 POTCAR:    PAW_PBE Rh 04Feb2005
 POTCAR:    PAW_PBE C 08Apr2002
 POTCAR:    PAW_PBE O 08Apr2002
|           W    W    AA    RRRRR   N    N  II  N    N   GGGG   !!!           |
|           W    W   A  A   R    R  NN   N  II  NN   N  G    G  !!!           |
|           W    W  A    A  R    R  N N  N  II  N N  N  G       !!!           |
|           W WW W  AAAAAA  RRRRR   N  N N  II  N  N N  G  GGG   !            |
|           WW  WW  A    A  R   R   N   NN  II  N   NN  G    G                |
|           W    W  A    A  R    R  N    N  II  N    N   GGGG   !!!           |
|     For optimal performance we recommend to set                             |
|       NCORE = 2 up to number-of-cores-per-socket                            |
|     This setting can greatly improve the performance of VASP for DFT.       |
|     The default, NCORE=1 might be grossly inefficient on modern             |
|     multi-core architectures or massively parallel machines. Do your        |
|     Unfortunately you need to use the default for GW and RPA                |
|     calculations (for HF NCORE is supported but not extensively tested      |
|     yet).                                                                   |

 POTCAR:    PAW_PBE Cu 22Jun2005
   VRHFIN =Cu: d10 p1

   TITEL  = PAW_PBE Cu 22Jun2005
   POMASS =   63.546; ZVAL   =   11.000    mass and valenz
   ENMAX  =  295.446; ENMIN  =  221.585 eV

 POTCAR:    PAW_PBE Rh 04Feb2005
   VRHFIN =Rh: s1 d8

   TITEL  = PAW_PBE Rh 04Feb2005
   POMASS =  102.906; ZVAL   =    9.000    mass and valenz
   ENMAX  =  228.996; ENMIN  =  171.747 eV

 POTCAR:    PAW_PBE C 08Apr2002
   VRHFIN =C: s2p2

   TITEL  = PAW_PBE C 08Apr2002
   POMASS =   12.011; ZVAL   =    4.000    mass and valenz
   ENMAX  =  400.000; ENMIN  =  300.000 eV

 POTCAR:    PAW_PBE O 08Apr2002
   VRHFIN =O: s2p4

   TITEL  = PAW_PBE O 08Apr2002
   POMASS =   16.000; ZVAL   =    6.000    mass and valenz
   ENMAX  =  400.000; ENMIN  =  300.000 eV

 Optimization of the real space projectors (new method)

 maximal supplied QI-value         = 16.25
 optimisation between [QCUT,QGAM] = [ 11.38, 22.75] = [ 36.24,144.96] Ry
 Optimized for a Real-space Cutoff    1.52 Angstroem

   l    n(q)    QCUT    max X(q) W(low)/X(q) W(high)/X(q)  e(spline)
   2      9    11.376     4.610    0.21E-03    0.10E-03    0.26E-06
   2      9    11.376     8.522    0.33E-03    0.16E-03    0.37E-06
   0     10    11.376    51.609    0.62E-04    0.20E-04    0.13E-06
   0     10    11.376    27.747    0.54E-04    0.20E-04    0.13E-06
   1     10    11.376    20.408    0.13E-04    0.99E-04    0.19E-06
   1     10    11.376    13.425    0.12E-04    0.87E-04    0.17E-06
 Optimization of the real space projectors (new method)

[...]

   l    n(q)    QCUT    max X(q) W(low)/X(q) W(high)/X(q)  e(spline)
   0      7    11.310   115.676    0.43E-03    0.13E-02    0.19E-06
   0      7    11.310    87.132    0.43E-03    0.13E-02    0.18E-06
   1      6    11.310     4.429    0.42E-03    0.74E-03    0.11E-06
   1      6    11.310     2.733    0.34E-03    0.55E-03    0.92E-07
 Optimization of the real space projectors (new method)

 maximal supplied QI-value         = 24.76
 optimisation between [QCUT,QGAM] = [ 11.39, 22.77] = [ 36.31,145.25] Ry
 Optimized for a Real-space Cutoff    1.00 Angstroem

   l    n(q)    QCUT    max X(q) W(low)/X(q) W(high)/X(q)  e(spline)
   0      7    11.387    20.381    0.39E-03    0.13E-02    0.15E-06
   0      7    11.387    15.268    0.42E-03    0.14E-02    0.17E-06
   1      6    11.387     5.964    0.41E-03    0.11E-02    0.17E-06
   1      6    11.387     5.382    0.39E-03    0.87E-03    0.15E-06
  PAW_PBE Cu 22Jun2005                  :
  PAW_PBE Rh 04Feb2005                  :
  PAW_PBE C 08Apr2002                   :
  PAW_PBE O 08Apr2002                   :

 POSCAR: Cu-Rh-CO2
  positions in direct lattice
  velocities in cartesian coordinates
 exchange correlation table for  LEXCH =        8
   RHO(1)=    0.500       N(1)  =     2000
   RHO(2)=  100.500       N(2)  =     4000

 VTST: version 3.2, (02/03/18)

 CHAIN: initializing optimizer

 OPT: Using VASP Conjugate-Gradient optimizer
 CHAIN: Read ICHAIN            0

 POSCAR: Cu-Rh-CO2
  positions in direct lattice
  velocities in cartesian coordinates

 ion  position               nearest neighbor table
   1  0.000  0.000  0.229-   7 2.57   3 2.57   4 2.57   2 2.57   6 2.57   8 2.57  12 2.57  10 2.57
                            16 2.57
   2  0.333  0.000  0.229-   8 2.57   9 2.57   5 2.57   1 2.57   3 2.57  11 2.57   4 2.57  10 2.57
                            17 2.57
   3  0.667  0.000  0.229-   1 2.57   7 2.57   6 2.57   9 2.57   2 2.57  12 2.57   5 2.57  18 2.57
                            11 2.57
   4  0.000  0.333  0.229-   5 2.57   6 2.57   1 2.57   7 2.57   2 2.57  13 2.57   9 2.57  10 2.57
                            15 2.57
   5  0.333  0.333  0.229-   4 2.57   2 2.57   7 2.57  13 2.57   8 2.57   6 2.57   3 2.57  11 2.57
                            14 2.57
   6  0.667  0.333  0.229-   4 2.57   9 2.57  15 2.57   3 2.57   1 2.57   8 2.57  14 2.57   5 2.57
                            12 2.57
   7  0.000  0.667  0.229-   1 2.57   3 2.57  16 2.57  18 2.57   4 2.57   5 2.57   8 2.57   9 2.57
                            13 2.57
   8  0.333  0.667  0.229-   9 2.57   2 2.57  17 2.57   6 2.57   1 2.57   7 2.57   5 2.57  14 2.57
                            16 2.57
   9  0.667  0.667  0.229-   8 2.57   6 2.57   2 2.57  17 2.57   3 2.57   7 2.57   4 2.57  15 2.57
                            18 2.57
  10  0.111  0.111  0.318-  20 2.55  26 2.56  19 2.56  11 2.57  12 2.57  13 2.57   1 2.57   2 2.57
                             4 2.57  15 2.57  16 2.57  17 2.57
  11  0.444  0.111  0.318-  20 2.55  21 2.55  27 2.56  10 2.57  13 2.57   2 2.57  17 2.57  14 2.57
                            12 2.57   5 2.57   3 2.57  18 2.57
  12  0.778  0.111  0.318-  21 2.55  19 2.56  25 2.56  15 2.57  10 2.57  14 2.57  18 2.57   3 2.57
                             1 2.57  16 2.57  11 2.57   6 2.57
  13  0.111  0.444  0.318-  23 2.55  20 2.55  22 2.56  16 2.57  18 2.57  10 2.57  11 2.57  14 2.57
                             5 2.57   4 2.57   7 2.57  15 2.57
  14  0.444  0.444  0.318-  21 2.55  23 2.55  24 2.56  15 2.57  17 2.57  12 2.57  16 2.57  13 2.57
                            11 2.57   6 2.57   8 2.57   5 2.57
  15  0.778  0.444  0.318-  19 2.56  24 2.56  22 2.56  14 2.57  17 2.57  12 2.57   6 2.57  18 2.57
                            10 2.57   9 2.57  13 2.57   4 2.57
  16  0.111  0.778  0.318-  23 2.55  25 2.56  26 2.56  18 2.57  13 2.57   7 2.57  14 2.57  17 2.57
                            12 2.57  10 2.57   8 2.57   1 2.57
  17  0.444  0.778  0.318-  26 2.56  27 2.56  24 2.56  14 2.57  15 2.57   8 2.57   9 2.57  11 2.57
                            16 2.57  18 2.57  10 2.57   2 2.57
  18  0.778  0.778  0.318-  25 2.56  22 2.56  27 2.56  16 2.57  13 2.57   7 2.57  15 2.57  12 2.57
                            17 2.57   9 2.57   3 2.57  11 2.57
  19  0.889  0.223  0.407-  28 2.55  32 2.55  31 2.55  15 2.56  12 2.56  10 2.56  21 2.56  20 2.56
                            22 2.56  24 2.56  25 2.57  26 2.57
  20  0.222  0.222  0.407-  10 2.55  11 2.55  13 2.55  26 2.56  19 2.56  27 2.57  22 2.57  36 2.57
                            29 2.58  31 2.58  23 2.58  21 2.58
  21  0.557  0.222  0.407-  12 2.55  14 2.55  11 2.55  19 2.56  25 2.56  24 2.57  27 2.57  36 2.57
                            32 2.58  30 2.58  20 2.58  23 2.58
  22  0.889  0.556  0.407-  35 2.54  31 2.56  33 2.56  18 2.56  15 2.56  19 2.56  25 2.56  13 2.56
                            24 2.56  27 2.56  23 2.57  20 2.57
  23  0.222  0.557  0.407-  16 2.55  13 2.55  14 2.55  25 2.56  26 2.56  22 2.57  24 2.57  36 2.57
                            33 2.58  34 2.58  20 2.58  21 2.58
  24  0.556  0.556  0.407-  35 2.54  32 2.56  34 2.56  15 2.56  17 2.56  19 2.56  26 2.56  14 2.56
                            22 2.56  27 2.56  21 2.57  23 2.57
  25  0.889  0.889  0.407-  28 2.55  33 2.55  30 2.55  18 2.56  16 2.56  12 2.56  21 2.56  23 2.56
                            22 2.56  27 2.56  19 2.57  26 2.57
  26  0.223  0.889  0.407-  28 2.55  29 2.55  34 2.55  17 2.56  10 2.56  16 2.56  20 2.56  23 2.56
                            27 2.56  24 2.56  25 2.57  19 2.57
  27  0.556  0.889  0.407-  35 2.54  29 2.56  30 2.56  17 2.56  18 2.56  26 2.56  25 2.56  11 2.56
                            24 2.56  22 2.56  20 2.57  21 2.57
  28  0.000  0.000  0.495-  25 2.55  19 2.55  26 2.55  33 2.56  30 2.56  31 2.56  29 2.56  32 2.56
                            34 2.56
  29  0.333  0.998  0.496-  34 2.54  26 2.55  28 2.56  27 2.56  35 2.56  31 2.58  20 2.58  36 2.58
                            30 2.59
  30  0.669  0.998  0.496-  33 2.54  25 2.55  28 2.56  27 2.56  35 2.56  32 2.58  21 2.58  36 2.58
                            29 2.59
  31  0.998  0.333  0.496-  32 2.54  19 2.55  28 2.56  22 2.56  35 2.56  29 2.58  20 2.58  36 2.58
                            33 2.59
  32  0.669  0.333  0.496-  31 2.54  19 2.55  28 2.56  24 2.56  35 2.56  30 2.58  21 2.58  36 2.58
                            34 2.59
  33  0.998  0.669  0.496-  30 2.54  25 2.55  28 2.56  22 2.56  35 2.56  34 2.58  23 2.58  36 2.58
                            31 2.59
  34  0.333  0.669  0.496-  29 2.54  26 2.55  28 2.56  24 2.56  35 2.56  33 2.58  23 2.58  36 2.58
                            32 2.59
  35  0.667  0.667  0.495-  24 2.54  27 2.54  22 2.54  34 2.56  32 2.56  29 2.56  30 2.56  33 2.56
                            31 2.56
  36  0.333  0.333  0.496-  23 2.57  20 2.57  21 2.57  31 2.58  29 2.58  33 2.58  34 2.58  32 2.58
                            30 2.58
  37  0.333  0.333  0.651-  39 1.18  38 1.18
  38  0.180  0.333  0.651-  37 1.18
  39  0.486  0.333  0.651-  37 1.18

  LATTYP: Found a hexagonal cell.
 ALAT       =     7.6967864036
 C/A-ratio  =     3.0484540560

  Lattice vectors:

 A1 = (  -3.8483927580,  -6.6656128093,   0.0000000000)
 A2 = (   7.6967864037,   0.0000000000,   0.0000000000)
 A3 = (   0.0000000000,   0.0000000000,  23.4632997305)

Analysis of symmetry for initial positions (statically):
 Subroutine PRICEL returns:
 Original cell was already a primitive cell.

 Routine SETGRP: Setting up the symmetry group for a
 hexagonal supercell.

 Subroutine GETGRP returns: Found  2 space group operations
 (whereof  2 operations were pure point group operations)
 out of a pool of 24 trial point group operations.

The static configuration has the point symmetry C_1h.

Analysis of symmetry for dynamics (positions and initial velocities):
 Subroutine PRICEL returns:
 Original cell was already a primitive cell.

[...]

The dynamic configuration has the point symmetry C_1h.

Analysis of constrained symmetry for selective dynamics:
 Subroutine PRICEL returns:
[...]
     41      -4.1975      2.00000
     42      -4.1334      2.00000
     43      -4.0936      2.00000
     44      -4.0219      2.00000
     45      -3.9264      2.00000
     46      -3.9232      2.00000
     47      -3.8578      2.00000
     48      -3.8470      2.00000
     49      -3.8361      2.00000
     50      -3.8113      2.00000
     51      -3.8044      2.00000
     52      -3.7977      2.00000
     53      -3.7958      2.00000
     54      -3.5965      2.00000
     55      -3.5880      2.00000
     56      -3.5817      2.00000
     57      -3.5768      2.00000
     58      -3.5133      2.00000
     59      -3.5080      2.00000
     60      -3.5046      2.00000
[...]
    238       5.2962      0.00000
    239       5.3235      0.00000
    240       5.5066      0.00000
    241       5.6008      0.00000
    242       5.6196      0.00000
    243       5.8866      0.00000
    244       5.9083      0.00000
    245       6.0988      0.00000
    246       6.1942      0.00000
    247       6.2110      0.00000
    248       6.2745      0.00000
    249       6.3290      0.00000
    250       6.3986      0.00000
    251       6.4685      0.00000
    252       6.6131      0.00000

 soft charge-density along one line, spin component           1
         0         1         2         3         4         5         6         7         8         9
 total charge-density along one line

------------------------ aborting loop because EDIFF is reached ----------------------------------------

 total charge

# of ion       s       p       d       tot
    1        0.446   0.287   9.188   9.921
    2        0.449   0.285   9.187   9.921
    3        0.449   0.285   9.187   9.921
    4        0.449   0.284   9.187   9.921
    5        0.443   0.288   9.182   9.914
    6        0.449   0.284   9.187   9.921
    7        0.450   0.284   9.187   9.921
    8        0.450   0.284   9.187   9.921
    9        0.448   0.283   9.189   9.920
   10        0.441   0.374   9.173   9.988
   11        0.444   0.365   9.183   9.993
   12        0.441   0.374   9.173   9.988
   13        0.444   0.365   9.184   9.993
   14        0.444   0.365   9.184   9.993
   15        0.439   0.369   9.179   9.988
   16        0.441   0.374   9.173   9.988
   17        0.439   0.369   9.180   9.988
   18        0.439   0.369   9.180   9.988
   19        0.442   0.372   9.182   9.997
   20        0.444   0.380   9.176  10.001
   21        0.444   0.380   9.176  10.001
   22        0.436   0.373   9.181   9.989
   23        0.444   0.380   9.176  10.000
   24        0.436   0.373   9.181   9.989
   25        0.443   0.372   9.182   9.997
   26        0.443   0.372   9.182   9.997
   27        0.436   0.372   9.182   9.990
   28        0.451   0.291   9.193   9.934
   29        0.454   0.298   9.183   9.935
   30        0.454   0.298   9.183   9.935
   31        0.453   0.297   9.183   9.934
   32        0.453   0.297   9.183   9.934
   33        0.454   0.298   9.183   9.935
   34        0.454   0.298   9.183   9.935
   35        0.445   0.293   9.193   9.931
   36        0.453   0.343   7.535   8.332
   37        0.932   1.799   0.000   2.731
   38        1.607   3.529   0.000   5.136
   39        1.607   3.529   0.000   5.136
tot         20.194  20.835 328.926 369.955

  FORCE on cell =-STRESS in cart. coord.  units (eV):
  Direction    XX          YY          ZZ          XY          YZ          ZX
  Alpha Z   836.32190   836.32190   836.32190
  Ewald  210537.75546209740.63852************     0.00039     0.12675     0.00016
  Hartree223418.25536223042.33871************     0.00004     0.11620     0.00006
  E(xc)   -2362.65291 -2364.76050 -2369.50946    -0.00030    -0.00015    -0.00003
  Local  ************************446174.16726     0.02033    -0.25235    -0.00071
  n-local  -809.91653  -803.87550  -820.97716     2.09288     0.00532     0.17236
  augment  3376.39574  3379.09603  3398.88613    -0.01857     0.00393     0.00037
  Kinetic  3518.96525  3584.24490  3613.62940     1.10156     0.00892    -0.12443
  Fock        0.00000     0.00000     0.00000     0.00000     0.00000     0.00000
  Total      -5.35603    -5.36970     1.24901     0.00000     0.00862    -0.00000
  in kB      -7.12877    -7.14697     1.66240     0.00000     0.01147    -0.00000

 VOLUME and BASIS-vectors are now :
  energy-cutoff  :      500.00
  volume of cell :     1203.76
      direct lattice vectors                 reciprocal lattice vectors
     7.696786404  0.000000000  0.000000000     0.129924354 -0.075011849  0.000000000
     3.848392758  6.665612809  0.000000000     0.000000000  0.150023716  0.000000000
     0.000000000  0.000000000 23.463299730     0.000000000  0.000000000  0.042619751

  length of vectors
     7.696786404  7.696786404 23.463299730     0.150023716  0.150023716  0.042619751

 FORCES acting on ions
    electron-ion (+dipol)            ewald-force                    non-local-force                 convergence-correction
   -.418E-04 0.444E-03 0.373E+04   0.580E-04 -.156E-01 -.372E+04   0.242E-09 -.364E-02 -.263E+01   -.410E-03 0.176E-01 -.403E+00
   -.340E+00 0.383E-01 0.373E+04   0.253E+00 0.120E+00 -.372E+04   -.166E-02 -.117E+00 -.186E+01   0.897E-01 -.347E-01 -.278E+00
   0.340E+00 0.383E-01 0.373E+04   -.254E+00 0.120E+00 -.372E+04   0.166E-02 -.117E+00 -.186E+01   -.888E-01 -.321E-01 -.277E+00
   -.140E+00 -.317E+00 0.373E+04   0.244E+00 0.152E+00 -.372E+04   -.966E-01 0.580E-01 -.188E+01   0.307E-03 0.103E+00 -.279E+00
   -.630E-04 0.757E-03 0.373E+04   0.116E-03 -.194E-04 -.372E+04   0.345E-09 -.518E-02 -.196E+01   0.123E-01 0.470E-02 -.250E+00
   0.140E+00 -.317E+00 0.373E+04   -.244E+00 0.152E+00 -.372E+04   0.966E-01 0.580E-01 -.188E+01   -.204E-02 0.104E+00 -.277E+00
   0.213E+00 0.276E+00 0.373E+04   -.939E-02 -.272E+00 -.372E+04   -.102E+00 0.590E-01 -.186E+01   -.921E-01 -.671E-01 -.274E+00
   -.213E+00 0.276E+00 0.373E+04   0.912E-02 -.272E+00 -.372E+04   0.102E+00 0.590E-01 -.186E+01   0.956E-01 -.687E-01 -.274E+00
   -.144E-03 0.600E-02 0.373E+04   0.263E-03 0.156E-01 -.372E+04   -.349E-09 0.524E-02 -.224E+01   -.132E-01 -.259E-01 -.319E+00
   -.622E+00 -.251E+00 0.132E+04   0.754E+00 0.312E+00 -.132E+04   -.207E+00 -.118E+00 -.101E+01   0.112E+00 0.783E-01 -.104E+00
   -.903E-04 -.162E+01 0.132E+04   0.190E-03 0.144E+01 -.131E+04   -.181E-08 0.272E-01 -.679E+00   0.123E-01 0.123E+00 -.629E-01
   0.622E+00 -.251E+00 0.132E+04   -.754E+00 0.312E+00 -.132E+04   0.207E+00 -.118E+00 -.101E+01   -.114E+00 0.805E-01 -.102E+00
   -.150E+01 0.790E+00 0.132E+04   0.136E+01 -.701E+00 -.131E+04   0.288E-01 -.212E-01 -.680E+00   0.102E+00 -.490E-01 -.537E-01
   0.150E+01 0.790E+00 0.132E+04   -.136E+01 -.701E+00 -.131E+04   -.288E-01 -.212E-01 -.680E+00   -.776E-01 -.504E-01 -.534E-01
   -.140E-03 -.122E+01 0.132E+04   0.298E-03 0.105E+01 -.132E+04   -.819E-08 0.123E+00 -.769E+00   -.433E-02 0.466E-01 -.171E+00
   -.881E-04 0.689E+00 0.132E+04   0.186E-03 -.829E+00 -.132E+04   -.159E-07 0.238E+00 -.101E+01   -.287E-03 -.142E+00 -.978E-01
   -.100E+01 0.540E+00 0.132E+04   0.843E+00 -.443E+00 -.132E+04   0.111E+00 -.609E-01 -.746E+00   0.458E-01 -.370E-01 -.169E+00
   0.100E+01 0.540E+00 0.132E+04   -.844E+00 -.443E+00 -.132E+04   -.111E+00 -.609E-01 -.746E+00   -.447E-01 -.335E-01 -.167E+00
   -.626E-04 -.697E+00 -.110E+04   0.689E-04 0.720E+00 0.110E+04   0.505E-08 -.758E-01 0.607E+00   -.145E-01 0.496E-01 -.253E+00
   -.254E+02 -.141E+02 -.112E+04   0.257E+02 0.142E+02 0.112E+04   -.460E+00 -.266E+00 -.444E+00   0.229E+00 0.148E+00 -.765E-01
   0.254E+02 -.141E+02 -.112E+04   -.257E+02 0.142E+02 0.112E+04   0.460E+00 -.266E+00 -.444E+00   -.203E+00 0.148E+00 -.770E-01
   -.146E+02 0.759E+01 -.111E+04   0.139E+02 -.716E+01 0.111E+04   0.477E+00 -.287E+00 0.749E+00   0.230E+00 -.135E+00 -.232E+00
   -.845E-04 0.285E+02 -.112E+04   0.147E-03 -.287E+02 0.112E+04   -.343E-07 0.515E+00 -.439E+00   0.121E-01 -.251E+00 -.741E-01
   0.146E+02 0.759E+01 -.111E+04   -.139E+02 -.716E+01 0.111E+04   -.477E+00 -.287E+00 0.749E+00   -.232E+00 -.139E+00 -.232E+00
   0.106E+01 0.936E+00 -.110E+04   -.110E+01 -.948E+00 0.110E+04   0.774E-01 0.531E-01 0.586E+00   -.520E-01 -.366E-01 -.249E+00
   -.106E+01 0.936E+00 -.110E+04   0.110E+01 -.949E+00 0.110E+04   -.774E-01 0.531E-01 0.586E+00   0.302E-01 -.405E-01 -.249E+00
   -.125E-03 -.166E+02 -.111E+04   0.244E-03 0.158E+02 0.111E+04   -.370E-07 0.555E+00 0.751E+00   0.853E-03 0.257E+00 -.231E+00
   -.328E-04 0.498E+01 -.349E+04   0.396E-04 -.498E+01 0.349E+04   0.318E-09 -.477E-02 0.224E+01   -.651E-03 -.410E-03 0.301E+00
   -.197E+02 -.246E+02 -.349E+04   0.200E+02 0.246E+02 0.349E+04   -.370E+00 -.289E+00 0.178E+01   0.132E+00 0.254E+00 0.160E+00
   0.197E+02 -.246E+02 -.349E+04   -.200E+02 0.246E+02 0.349E+04   0.370E+00 -.289E+00 0.178E+01   -.131E+00 0.257E+00 0.159E+00
   -.340E+02 -.152E+01 -.348E+04   0.341E+02 0.168E+01 0.348E+04   -.402E+00 -.166E+00 0.193E+01   0.291E+00 0.561E-02 0.154E+00
   0.340E+02 -.152E+01 -.348E+04   -.341E+02 0.168E+01 0.348E+04   0.402E+00 -.166E+00 0.193E+01   -.293E+00 0.607E-02 0.152E+00
   -.171E+02 0.262E+02 -.349E+04   0.170E+02 -.263E+02 0.349E+04   -.814E-01 0.453E+00 0.178E+01   0.149E+00 -.258E+00 0.155E+00
   0.171E+02 0.262E+02 -.349E+04   -.170E+02 -.263E+02 0.349E+04   0.814E-01 0.453E+00 0.178E+01   -.146E+00 -.260E+00 0.154E+00
   -.152E-03 -.498E+01 -.350E+04   0.255E-03 0.500E+01 0.350E+04   -.610E-09 0.916E-02 0.257E+01   -.130E-01 -.240E-01 0.241E+00
   -.530E-04 -.612E-02 -.280E+04   0.111E-03 -.302E-02 0.280E+04   -.337E-10 0.506E-03 0.382E+01   0.302E-02 0.107E-01 0.156E+00
   -.166E-04 0.134E+00 -.117E+04   0.564E-06 -.132E+00 0.117E+04   -.263E-09 0.395E-02 0.338E-02   -.419E-03 -.105E-02 -.961E-02
   0.256E+03 -.624E-01 -.175E+04   -.319E+03 0.831E-01 0.175E+04   0.637E+02 -.257E-01 -.197E+00   0.328E-01 -.367E-02 0.103E-02
   -.256E+03 -.625E-01 -.175E+04   0.319E+03 0.831E-01 0.175E+04   -.637E+02 -.257E-01 -.197E+00   -.323E-01 -.364E-02 0.895E-03
   0.105E-04 0.518E-01 0.696E+01   0.568E-13 -.175E-13 0.191E-10   0.437E-08 -.656E-01 -.341E+01   0.251E-01 0.760E-03 -.366E+01

 POSITION                                       TOTAL-FORCE (eV/Angst)
      0.00000      0.00000      5.37156         0.000000     -0.000790      0.092956
      2.56560      0.00000      5.37156         0.000725      0.008324      0.066588
      5.13119      0.00000      5.37156        -0.000725      0.008324      0.066588
      1.28280      2.22187      5.37156         0.008202     -0.003937      0.065829
      3.84839      2.22187      5.37156        -0.000000      0.000587      0.044264
      6.41399      2.22187      5.37156        -0.008202     -0.003937      0.065829
      2.56560      4.44374      5.37156         0.007551     -0.003820      0.066176
      5.13119      4.44374      5.37156        -0.007551     -0.003820      0.066176
      7.69679      4.44374      5.37156        -0.000000      0.001242      0.049421
      1.28280      0.74062      7.46636         0.037123      0.022380     -0.062664
      3.84839      0.74062      7.46636         0.000000     -0.033068     -0.097209
      6.41399      0.74062      7.46636        -0.037123      0.022380     -0.062664
      2.56560      2.96249      7.46636        -0.029918      0.017926     -0.098266
      5.13119      2.96249      7.46636         0.029918      0.017926     -0.098266
      7.69679      2.96249      7.46636         0.000000     -0.001646     -0.019013
      3.84839      5.18437      7.46636         0.000000     -0.043035     -0.062551
      6.41399      5.18437      7.46636        -0.001696      0.000556     -0.017216
      8.97958      5.18437      7.46636         0.001696      0.000556     -0.017216
      7.69679      1.48472      9.55134         0.000000     -0.002969     -0.010406
      2.55991      1.47796      9.54139        -0.003052     -0.002471     -0.015496
      5.13688      1.47796      9.54139         0.003052     -0.002471     -0.015496
      8.97851      3.70374      9.55759        -0.010743      0.006458     -0.013606
      3.84839      3.70969      9.54139        -0.000000      0.003730     -0.015823
      6.41506      3.70374      9.55759         0.010743      0.006458     -0.013606
     10.25938      5.92325      9.55134         0.002266      0.001885     -0.015931
      5.13420      5.92325      9.55134        -0.002266      0.001885     -0.015931
      7.69679      5.92375      9.55759         0.000000     -0.011209     -0.015518
      0.00000      0.00000     11.61948         0.000000     -0.003332      0.031710
      6.40389      6.65412     11.64269        -0.000485     -0.007895      0.009127
      8.98968      6.65412     11.64269         0.000485     -0.007895      0.009127
      8.96459      2.21887     11.64269        -0.007169     -0.000031      0.014822
      6.42899      2.21887     11.64269         0.007169     -0.000031      0.014822
     10.25748      4.45823     11.64269         0.000914      0.008615      0.010001
      5.13610      4.45823     11.64269        -0.000914      0.008615      0.010001
      7.69679      4.44374     11.62337        -0.000000      0.004457      0.012858
      3.84839      2.22187     11.63466        -0.000000      0.002358     -0.025942
      3.84839      2.22177     15.27894        -0.000000      0.004391     -0.006675
      2.67149      2.22209     15.28411        -0.002546     -0.008348      0.001601
      5.02530      2.22209     15.28411         0.002546     -0.008348      0.001601
    total drift:                                0.025087     -0.012974     -0.113176

  FREE ENERGIE OF THE ION-ELECTRON SYSTEM (eV)
  free  energy   TOTEN  =      -152.20453009 eV

  energy  without entropy=     -152.20453009  energy(sigma->0) =     -152.20453009

 stress matrix after NEB project (eV)
     -5.35603      0.00000     -0.00000
      0.00000     -5.36970      0.00862
     -0.00000      0.00862      1.24901
  FORCES: max atom, RMS     0.008874    0.002382
  FORCE total and by dimension    0.014877    0.008348
  Stress total and by dimension    7.686408    5.369699
|           W    W    AA    RRRRR   N    N  II  N    N   GGGG   !!!           |
|           W    W   A  A   R    R  NN   N  II  NN   N  G    G  !!!           |
|           W    W  A    A  R    R  N N  N  II  N N  N  G       !!!           |
|           W WW W  AAAAAA  RRRRR   N  N N  II  N  N N  G  GGG   !            |
|           WW  WW  A    A  R   R   N   NN  II  N   NN  G    G                |
|           W    W  A    A  R    R  N    N  II  N    N   GGGG   !!!           |
|     Tetrahedron method does not include variations of the Fermi             |
|     occupations, so forces and stress will be inaccurate. We suggest        |
|     using a different smearing scheme ISMEAR = 1 or 2 for metals in         |
|     relaxations.                                                            |

 total charge

# of ion       s       p       d       tot
    1        0.446   0.287   9.188   9.921
    2        0.449   0.285   9.187   9.921
    3        0.449   0.285   9.187   9.921
    4        0.449   0.284   9.187   9.921
    5        0.443   0.288   9.182   9.914
    6        0.449   0.284   9.187   9.921
    7        0.450   0.284   9.187   9.921
    8        0.450   0.284   9.187   9.921
    9        0.448   0.283   9.189   9.920
   10        0.441   0.374   9.173   9.988
   11        0.444   0.365   9.183   9.993
   12        0.441   0.374   9.173   9.988
   13        0.444   0.365   9.184   9.993
   14        0.444   0.365   9.184   9.993
   15        0.439   0.369   9.179   9.988
   16        0.441   0.374   9.173   9.988
   17        0.439   0.369   9.180   9.988
   18        0.439   0.369   9.180   9.988
   19        0.442   0.372   9.182   9.997
   20        0.444   0.380   9.176  10.001
   21        0.444   0.380   9.176  10.001
   22        0.436   0.373   9.181   9.989
   23        0.444   0.380   9.176  10.000
   24        0.436   0.373   9.181   9.989
   25        0.443   0.372   9.182   9.997
   26        0.443   0.372   9.182   9.997
   27        0.436   0.372   9.182   9.990
   28        0.451   0.291   9.193   9.934
   29        0.454   0.298   9.183   9.935
   30        0.454   0.298   9.183   9.935
   31        0.453   0.297   9.183   9.934
   32        0.453   0.297   9.183   9.934
   33        0.454   0.298   9.183   9.935
   34        0.454   0.298   9.183   9.935
   35        0.445   0.293   9.193   9.931
   36        0.453   0.343   7.535   8.332
   37        0.932   1.799   0.000   2.731
   38        1.607   3.529   0.000   5.136
   39        1.607   3.529   0.000   5.136
tot         20.194  20.835 328.926 369.955

 BZINTS: Fermi energy:   -0.163419;  410.000000 electrons
         Band energy:-0.133344E+04;  BLOECHL correction:   -0.070709