 vasp.6.2.0 18Jan21 (build Jun 12 2021 23:27:24) complex

 executed on             LinuxIFC date 2022.05.27  05:30:31

 INCAR:
   ISMEAR = -5
   SIGMA = 0.1
   ISPIN = 1
   EDIFF = 1.d-5
   EDIFFG = -0.01
   NSW = 0
   NELM = 150
   ENCUT = 500
   ISIF = 2
   IBRION = 2
   LREAL = Auto
   ALGO = Fast
   ICHARG = 11
   LORBIT = 10
   LCHARG = .F.
   LWAVE = .F.

 POTCAR:    PAW_PBE Ag 02Apr2005
 POTCAR:    PAW_PBE Fe 06Sep2000
 POTCAR:    PAW_PBE C 08Apr2002
 POTCAR:    PAW_PBE O 08Apr2002
|           W    W    AA    RRRRR   N    N  II  N    N   GGGG   !!!           |
|           W    W   A  A   R    R  NN   N  II  NN   N  G    G  !!!           |
|           W    W  A    A  R    R  N N  N  II  N N  N  G       !!!           |
|           W WW W  AAAAAA  RRRRR   N  N N  II  N  N N  G  GGG   !            |
|           WW  WW  A    A  R   R   N   NN  II  N   NN  G    G                |
|           W    W  A    A  R    R  N    N  II  N    N   GGGG   !!!           |
|     For optimal performance we recommend to set                             |
|       NCORE = 2 up to number-of-cores-per-socket                            |
|     This setting can greatly improve the performance of VASP for DFT.       |
|     The default, NCORE=1 might be grossly inefficient on modern             |
|     multi-core architectures or massively parallel machines. Do your        |
|     Unfortunately you need to use the default for GW and RPA                |
|     calculations (for HF NCORE is supported but not extensively tested      |
|     yet).                                                                   |

 POTCAR:    PAW_PBE Ag 02Apr2005
   VRHFIN =Ag : s1 d10

   TITEL  = PAW_PBE Ag 02Apr2005
   POMASS =  107.868; ZVAL   =   11.000    mass and valenz
   ENMAX  =  249.844; ENMIN  =  187.383 eV

 POTCAR:    PAW_PBE Fe 06Sep2000
   VRHFIN =Fe:  d7 s1

   TITEL  = PAW_PBE Fe 06Sep2000
   POMASS =   55.847; ZVAL   =    8.000    mass and valenz
   ENMAX  =  267.882; ENMIN  =  200.911 eV

 POTCAR:    PAW_PBE C 08Apr2002
   VRHFIN =C: s2p2

[...]

 POTCAR:    PAW_PBE O 08Apr2002
   VRHFIN =O: s2p4

   TITEL  = PAW_PBE O 08Apr2002
   POMASS =   16.000; ZVAL   =    6.000    mass and valenz
   ENMAX  =  400.000; ENMIN  =  300.000 eV

 Optimization of the real space projectors (new method)

 maximal supplied QI-value         = 15.12
 optimisation between [QCUT,QGAM] = [ 11.34, 22.83] = [ 36.00,145.93] Ry
 Optimized for a Real-space Cutoff    1.43 Angstroem

   l    n(q)    QCUT    max X(q) W(low)/X(q) W(high)/X(q)  e(spline)
   2      9    11.338    53.897    0.16E-03    0.20E-03    0.28E-06
   2      9    11.338    52.416    0.16E-03    0.20E-03    0.29E-06
   0     10    11.338   122.045    0.31E-04    0.76E-04    0.15E-06
   0     10    11.338    73.629    0.30E-04    0.72E-04    0.15E-06
   1      9    11.338    15.255    0.20E-03    0.19E-04    0.17E-06
   1      9    11.338     9.562    0.16E-03    0.15E-04    0.14E-06
 Optimization of the real space projectors (new method)

[...]

   l    n(q)    QCUT    max X(q) W(low)/X(q) W(high)/X(q)  e(spline)
   0      7    11.310   115.676    0.43E-03    0.13E-02    0.19E-06
   0      7    11.310    87.132    0.43E-03    0.13E-02    0.18E-06
   1      6    11.310     4.429    0.42E-03    0.74E-03    0.11E-06
   1      6    11.310     2.733    0.34E-03    0.55E-03    0.92E-07
 Optimization of the real space projectors (new method)

 maximal supplied QI-value         = 24.76
 optimisation between [QCUT,QGAM] = [ 11.39, 22.77] = [ 36.31,145.25] Ry
 Optimized for a Real-space Cutoff    1.00 Angstroem

   l    n(q)    QCUT    max X(q) W(low)/X(q) W(high)/X(q)  e(spline)
   0      7    11.387    20.381    0.39E-03    0.13E-02    0.15E-06
   0      7    11.387    15.268    0.42E-03    0.14E-02    0.17E-06
   1      6    11.387     5.964    0.41E-03    0.11E-02    0.17E-06
   1      6    11.387     5.382    0.39E-03    0.87E-03    0.15E-06
  PAW_PBE Ag 02Apr2005                  :
  PAW_PBE Fe 06Sep2000                  :
  PAW_PBE C 08Apr2002                   :
  PAW_PBE O 08Apr2002                   :

 POSCAR: Ag-Fe-CO
  positions in direct lattice
  velocities in cartesian coordinates
 exchange correlation table for  LEXCH =        8
   RHO(1)=    0.500       N(1)  =     2000
   RHO(2)=  100.500       N(2)  =     4000

 VTST: version 3.2, (02/03/18)

 CHAIN: initializing optimizer

 OPT: Using VASP Conjugate-Gradient optimizer
 CHAIN: Read ICHAIN            0

 POSCAR: Ag-Fe-CO
  positions in direct lattice
  velocities in cartesian coordinates

 ion  position               nearest neighbor table
   1  0.000  0.000  0.238-   2 2.93   8 2.93   7 2.93   6 2.93   4 2.93  12 2.93  16 2.93  10 2.93
                             3 2.93
   2  0.333  0.000  0.238-   1 2.93   8 2.93   9 2.93   3 2.93   4 2.93   5 2.93  10 2.93  17 2.93
                            11 2.93
   3  0.667  0.000  0.238-   9 2.93   2 2.93   5 2.93  11 2.93   7 2.93  18 2.93   1 2.93   6 2.93
                            12 2.93
   4  0.000  0.333  0.238-   5 2.93   6 2.93   2 2.93   1 2.93   7 2.93  13 2.93  15 2.93   9 2.93
                            10 2.93
   5  0.333  0.333  0.238-   4 2.93   3 2.93   7 2.93   2 2.93   8 2.93  14 2.93  13 2.93  11 2.93
                             6 2.93
   6  0.667  0.333  0.238-   4 2.93   9 2.93   1 2.93  15 2.93   8 2.93  12 2.93   3 2.93   5 2.93
                            14 2.93
   7  0.000  0.667  0.238-   8 2.93   1 2.93   5 2.93   3 2.93   4 2.93  16 2.93  18 2.93  13 2.93
                             9 2.93
   8  0.333  0.667  0.238-   7 2.93   1 2.93   2 2.93   9 2.93   5 2.93  16 2.93   6 2.93  17 2.93
                            14 2.93
   9  0.667  0.667  0.238-   3 2.93   2 2.93   8 2.93   6 2.93  17 2.93   4 2.93  15 2.93   7 2.93
                            18 2.93
  10  0.111  0.111  0.346-  20 2.92  19 2.93  26 2.93  12 2.93  16 2.93  15 2.93  17 2.93  13 2.93
                            11 2.93   2 2.93   1 2.93   4 2.93
  11  0.444  0.111  0.346-  21 2.90  20 2.90  27 2.92  14 2.93  17 2.93  18 2.93   3 2.93  12 2.93
                            13 2.93  10 2.93   5 2.93   2 2.93
  12  0.778  0.111  0.346-  21 2.92  25 2.93  19 2.93  10 2.93  16 2.93  18 2.93  15 2.93  11 2.93
                             1 2.93  14 2.93   6 2.93   3 2.93
  13  0.111  0.444  0.346-  20 2.90  23 2.90  22 2.92  15 2.93  14 2.93  18 2.93  10 2.93  11 2.93
                            16 2.93   4 2.93   5 2.93   7 2.93
  14  0.444  0.444  0.346-  23 2.90  21 2.90  24 2.92  13 2.93  11 2.93  16 2.93   5 2.93  12 2.93
                            17 2.93   8 2.93  15 2.93   6 2.93
  15  0.778  0.444  0.346-  24 2.92  22 2.92  19 2.93  13 2.93  10 2.93  12 2.93  17 2.93  18 2.93
                             4 2.93   6 2.93   9 2.93  14 2.93
  16  0.111  0.778  0.346-  23 2.92  26 2.93  25 2.93  18 2.93  12 2.93  10 2.93  14 2.93  17 2.93
                            13 2.93   7 2.93   8 2.93   1 2.93
  17  0.444  0.778  0.346-  27 2.92  24 2.92  26 2.93  11 2.93  10 2.93   9 2.93  18 2.93  15 2.93
                            16 2.93   2 2.93  14 2.93   8 2.93
  18  0.778  0.778  0.346-  22 2.92  27 2.92  25 2.93  16 2.93  12 2.93  13 2.93  11 2.93  17 2.93
                            15 2.93   7 2.93   3 2.93   9 2.93
  19  0.889  0.222  0.454-  28 2.91  15 2.93  10 2.93  12 2.93  24 2.93  22 2.93  26 2.93  25 2.93
                            20 2.94  21 2.94  32 2.94  31 2.94
  20  0.223  0.223  0.453-  36 2.70  31 2.89  29 2.89  13 2.90  11 2.90  21 2.91  23 2.91  10 2.92
                            27 2.94  22 2.94  19 2.94  26 2.94
  21  0.554  0.223  0.453-  36 2.70  30 2.89  32 2.89  11 2.90  14 2.90  20 2.91  23 2.91  12 2.92
                            27 2.94  24 2.94  25 2.94  19 2.94
  22  0.888  0.556  0.453-  35 2.91  18 2.92  15 2.92  33 2.92  31 2.92  13 2.92  24 2.92  27 2.92
                            25 2.93  19 2.93  23 2.94  20 2.94
  23  0.223  0.554  0.453-  36 2.70  34 2.89  33 2.89  14 2.90  13 2.90  21 2.91  20 2.91  16 2.92
                            22 2.94  24 2.94  26 2.94  25 2.94
  24  0.556  0.556  0.453-  35 2.91  15 2.92  17 2.92  32 2.92  34 2.92  14 2.92  27 2.92  22 2.92
                            19 2.93  26 2.93  23 2.94  21 2.94
  25  0.889  0.889  0.454-  28 2.91  18 2.93  16 2.93  12 2.93  22 2.93  27 2.93  26 2.93  19 2.93
                            23 2.94  21 2.94  33 2.94  30 2.94
  26  0.222  0.889  0.454-  28 2.91  17 2.93  16 2.93  10 2.93  27 2.93  24 2.93  25 2.93  19 2.93
                            23 2.94  20 2.94  34 2.94  29 2.94
  27  0.556  0.888  0.453-  35 2.91  17 2.92  18 2.92  29 2.92  30 2.92  11 2.92  24 2.92  22 2.92
                            26 2.93  25 2.93  20 2.94  21 2.94
  28  0.000  0.000  0.560-  26 2.91  25 2.91  19 2.91  29 2.97  34 2.97  33 2.97  32 2.97  31 2.97
                            30 2.97
  29  0.333  0.008  0.560-  31 2.86  30 2.86  36 2.87  20 2.89  27 2.92  26 2.94  28 2.97  35 2.97
                            34 3.07
  30  0.659  0.008  0.560-  32 2.86  29 2.86  36 2.87  21 2.89  27 2.92  25 2.94  28 2.97  35 2.97
                            33 3.07
  31  0.008  0.333  0.560-  29 2.86  33 2.86  36 2.87  20 2.89  22 2.92  19 2.94  28 2.97  35 2.97
                            32 3.07
  32  0.659  0.333  0.560-  30 2.86  34 2.86  36 2.87  21 2.89  24 2.92  19 2.94  28 2.97  35 2.97
                            31 3.07
  33  0.008  0.659  0.560-  34 2.86  31 2.86  36 2.87  23 2.89  22 2.92  25 2.94  28 2.97  35 2.97
                            30 3.07
  34  0.333  0.659  0.560-  33 2.86  32 2.86  36 2.87  23 2.89  24 2.92  26 2.94  28 2.97  35 2.97
                            29 3.07
  35  0.667  0.667  0.560-  24 2.91  27 2.91  22 2.91  32 2.97  30 2.97  29 2.97  34 2.97  31 2.97
                            33 2.97
  36  0.333  0.333  0.548-  37 1.74  21 2.70  20 2.70  23 2.70  31 2.87  30 2.87  33 2.87  29 2.87
                            34 2.87  32 2.87
  37  0.333  0.333  0.626-  38 1.18  36 1.74
  38  0.333  0.333  0.680-  37 1.18

  LATTYP: Found a hexagonal cell.
 ALAT       =     8.7913665772
 C/A-ratio  =     2.5227160501

  Lattice vectors:

 A1 = (  -4.3956832886,  -7.6135467898,   0.0000000000)
 A2 = (   8.7913665771,   0.0000000000,   0.0000000000)
 A3 = (   0.0000000000,   0.0000000000,  22.1781215668)

Analysis of symmetry for initial positions (statically):
 Subroutine PRICEL returns:
 Original cell was already a primitive cell.

 Routine SETGRP: Setting up the symmetry group for a
 hexagonal supercell.

 Subroutine GETGRP returns: Found  6 space group operations
 (whereof  6 operations were pure point group operations)
 out of a pool of 24 trial point group operations.

The static configuration has the point symmetry C_3v.

Analysis of symmetry for dynamics (positions and initial velocities):
 Subroutine PRICEL returns:
 Original cell was already a primitive cell.

[...]

The dynamic configuration has the point symmetry C_3v.

Analysis of constrained symmetry for selective dynamics:
 Subroutine PRICEL returns:
 Original cell was already a primitive cell.

 Routine SETGRP: Setting up the symmetry group for a
 hexagonal supercell.

[...]
     33      -4.6153      2.00000
     34      -4.5870      2.00000
     35      -4.5801      2.00000
     36      -4.5630      2.00000
     37      -4.5279      2.00000
     38      -4.4794      2.00000
     39      -4.4509      2.00000
     40      -4.4252      2.00000
     41      -4.4241      2.00000
     42      -4.3871      2.00000
     43      -4.3837      2.00000
     44      -4.3792      2.00000
     45      -4.3576      2.00000
     46      -4.3459      2.00000
     47      -4.3165      2.00000
     48      -4.2693      2.00000
     49      -4.2377      2.00000
     50      -4.2331      2.00000
     51      -4.2213      2.00000
     52      -4.2163      2.00000
     53      -4.2074      2.00000
     54      -4.1937      2.00000
     55      -4.1889      2.00000
     56      -4.1748      2.00000
     57      -4.1702      2.00000
     58      -4.1037      2.00000
     59      -4.0998      2.00000
     60      -4.0867      2.00000
[...]
    238       6.0194      0.00000
    239       6.1043      0.00000
    240       6.1736      0.00000
    241       6.3012      0.00000
    242       6.3402      0.00000
    243       6.3540      0.00000
    244       7.0944      0.00000
    245       7.1586      0.00000
    246       7.2646      0.00000
    247       7.3348      0.00000
    248       7.3456      0.00000
    249       7.3697      0.00000
    250       7.3951      0.00000
    251       7.5430      0.00000
    252       7.6271      0.00000

 soft charge-density along one line, spin component           1
         0         1         2         3         4         5         6         7         8         9
 total charge-density along one line

------------------------ aborting loop because EDIFF is reached ----------------------------------------

 total charge

# of ion       s       p       d       tot
    1        0.418   0.201   9.179   9.798
    2        0.418   0.203   9.178   9.798
    3        0.418   0.203   9.178   9.798
    4        0.418   0.203   9.178   9.798
    5        0.419   0.203   9.176   9.798
    6        0.418   0.203   9.178   9.798
    7        0.418   0.203   9.178   9.798
    8        0.418   0.203   9.178   9.798
    9        0.414   0.202   9.179   9.796
   10        0.406   0.268   9.165   9.840
   11        0.410   0.268   9.168   9.845
   12        0.406   0.268   9.165   9.840
   13        0.410   0.268   9.168   9.845
   14        0.410   0.268   9.168   9.845
   15        0.402   0.271   9.165   9.838
   16        0.406   0.268   9.165   9.840
   17        0.402   0.271   9.165   9.838
   18        0.402   0.271   9.165   9.838
   19        0.402   0.266   9.167   9.834
   20        0.429   0.291   9.149   9.869
   21        0.429   0.291   9.149   9.869
   22        0.397   0.276   9.165   9.838
   23        0.429   0.291   9.149   9.869
   24        0.397   0.276   9.165   9.838
   25        0.402   0.266   9.167   9.834
   26        0.402   0.266   9.167   9.834
   27        0.397   0.276   9.165   9.838
   28        0.415   0.192   9.182   9.788
   29        0.413   0.206   9.176   9.795
   30        0.413   0.206   9.176   9.795
   31        0.413   0.206   9.176   9.795
   32        0.413   0.206   9.176   9.795
   33        0.413   0.206   9.176   9.795
   34        0.413   0.206   9.176   9.795
   35        0.410   0.194   9.182   9.786
   36        0.415   0.441   6.417   7.273
   37        0.958   1.551   0.000   2.509
   38        1.608   3.527   0.000   5.136
tot         17.375  13.889 327.374 358.638

  FORCE on cell =-STRESS in cart. coord.  units (eV):
  Direction    XX          YY          ZZ          XY          YZ          ZX
  Alpha Z   770.04391   770.04391   770.04391
  Ewald  119777.13011119777.13018************     0.00005    -0.00000     0.00005
  Hartree130233.96678130233.96682************     0.00002    -0.00000     0.00002
  E(xc)   -2112.86680 -2112.86690 -2117.27770     0.00008    -0.00001    -0.00001
  Local  ************************260919.72511     0.00053    -0.00006    -0.00019
  n-local  -380.97067  -363.29405  -381.39844    10.39927    -0.44029     0.60792
  augment  3264.22854  3264.22875  3270.61872    -0.00018    -0.00002     0.00002
  Kinetic  5036.65233  5041.99035  5033.00413     5.23794     0.80200    -0.28198
  Fock        0.00000     0.00000     0.00000     0.00000     0.00000     0.00000
  Total      -9.93456    -9.93456    -0.74221    -0.00000     0.00000    -0.00000
  in kB     -10.72238   -10.72238    -0.80107    -0.00000     0.00000    -0.00000

 VOLUME and BASIS-vectors are now :
  energy-cutoff  :      500.00
  volume of cell :     1484.46
      direct lattice vectors                 reciprocal lattice vectors
     8.791366577  0.000000000  0.000000000     0.113747958 -0.065672414  0.000000000
     4.395683289  7.613546790  0.000000000     0.000000000  0.131344829  0.000000000
     0.000000000  0.000000000 22.178121567     0.000000000  0.000000000  0.045089481

  length of vectors
     8.791366577  8.791366577 22.178121567     0.131344829  0.131344829  0.045089481

 FORCES acting on ions
    electron-ion (+dipol)            ewald-force                    non-local-force                 convergence-correction
   0.459E-04 -.283E-04 0.252E+04   -.954E-04 0.593E-04 -.252E+04   -.771E-18 0.117E-17 -.220E+01   -.164E-03 -.201E-03 -.146E+00
   0.428E+00 0.570E+00 0.252E+04   -.562E+00 -.557E+00 -.252E+04   0.653E-01 0.706E-01 -.161E+01   0.738E-01 -.633E-01 -.148E+00
   -.428E+00 0.570E+00 0.252E+04   0.562E+00 -.557E+00 -.252E+04   -.653E-01 0.706E-01 -.161E+01   -.743E-01 -.614E-01 -.147E+00
   0.708E+00 0.856E-01 0.252E+04   -.764E+00 -.208E+00 -.252E+04   0.938E-01 0.212E-01 -.161E+01   -.177E-01 0.957E-01 -.148E+00
   -.585E-05 -.189E-04 0.252E+04   0.981E-04 -.199E-05 -.252E+04   0.675E-18 -.868E-18 -.133E+01   0.628E-02 0.384E-02 -.119E+00
   -.708E+00 0.856E-01 0.252E+04   0.764E+00 -.208E+00 -.252E+04   -.938E-01 0.212E-01 -.161E+01   0.163E-01 0.966E-01 -.147E+00
   0.280E+00 -.656E+00 0.252E+04   -.202E+00 0.766E+00 -.252E+04   0.285E-01 -.919E-01 -.161E+01   -.898E-01 -.331E-01 -.147E+00
   -.280E+00 -.656E+00 0.252E+04   0.202E+00 0.766E+00 -.252E+04   -.285E-01 -.919E-01 -.161E+01   0.914E-01 -.342E-01 -.147E+00
   0.369E-04 -.127E-04 0.252E+04   0.792E-04 -.643E-04 -.252E+04   0.413E-17 0.439E-18 -.202E+01   -.664E-02 -.342E-02 -.184E+00
   0.498E+01 0.288E+01 0.873E+03   -.468E+01 -.270E+01 -.873E+03   -.333E+00 -.192E+00 -.744E+00   0.349E-01 0.202E-01 0.385E+00
   -.292E-04 0.605E+01 0.882E+03   0.417E-04 -.623E+01 -.882E+03   0.100E-11 0.152E+00 -.383E+00   0.665E-02 -.681E-02 0.389E+00
   -.498E+01 0.288E+01 0.873E+03   0.468E+01 -.270E+01 -.873E+03   0.333E+00 -.192E+00 -.744E+00   -.368E-01 0.213E-01 0.386E+00
   0.524E+01 -.303E+01 0.882E+03   -.540E+01 0.312E+01 -.882E+03   0.132E+00 -.761E-01 -.383E+00   -.269E-02 0.919E-02 0.389E+00
   -.524E+01 -.303E+01 0.882E+03   0.540E+01 0.312E+01 -.882E+03   -.132E+00 -.761E-01 -.383E+00   0.135E-01 0.805E-02 0.388E+00
   0.164E-04 0.135E+01 0.874E+03   -.109E-03 -.147E+01 -.874E+03   0.303E-12 0.462E-01 -.785E+00   -.185E-02 0.445E-01 0.311E+00
   -.778E-05 -.575E+01 0.873E+03   0.208E-04 0.541E+01 -.873E+03   0.253E-11 0.385E+00 -.744E+00   0.165E-04 -.427E-01 0.386E+00
   0.117E+01 -.677E+00 0.874E+03   -.127E+01 0.733E+00 -.874E+03   0.400E-01 -.231E-01 -.785E+00   0.376E-01 -.239E-01 0.311E+00
   -.117E+01 -.677E+00 0.874E+03   0.127E+01 0.733E+00 -.874E+03   -.400E-01 -.231E-01 -.785E+00   -.373E-01 -.216E-01 0.312E+00
   0.407E-04 0.170E+01 -.804E+03   -.129E-03 -.182E+01 0.802E+03   0.345E-12 0.526E-01 0.766E+00   -.649E-02 0.699E-01 0.695E+00
   0.259E+02 0.149E+02 -.760E+03   -.250E+02 -.144E+02 0.760E+03   -.122E+01 -.706E+00 -.105E+01   0.274E+00 0.158E+00 0.991E+00
   -.259E+02 0.149E+02 -.760E+03   0.250E+02 -.144E+02 0.760E+03   0.122E+01 -.706E+00 -.105E+01   -.272E+00 0.158E+00 0.991E+00
   0.979E+01 -.565E+01 -.790E+03   -.101E+02 0.584E+01 0.789E+03   0.223E+00 -.129E+00 0.464E+00   0.132E+00 -.745E-01 0.672E+00
   -.597E-04 -.299E+02 -.760E+03   0.451E-04 0.288E+02 0.760E+03   0.928E-11 0.141E+01 -.105E+01   0.770E-03 -.314E+00 0.991E+00
   -.979E+01 -.565E+01 -.790E+03   0.101E+02 0.584E+01 0.789E+03   -.223E+00 -.129E+00 0.464E+00   -.132E+00 -.762E-01 0.673E+00
   -.147E+01 -.851E+00 -.804E+03   0.157E+01 0.909E+00 0.802E+03   -.456E-01 -.263E-01 0.766E+00   -.678E-01 -.393E-01 0.694E+00
   0.147E+01 -.851E+00 -.804E+03   -.157E+01 0.909E+00 0.802E+03   0.456E-01 -.263E-01 0.766E+00   0.570E-01 -.407E-01 0.695E+00
   0.210E-04 0.113E+02 -.790E+03   0.109E-03 -.117E+02 0.789E+03   0.169E-11 0.258E+00 0.464E+00   0.103E-02 0.152E+00 0.672E+00
   0.546E-04 -.368E-04 -.245E+04   -.115E-03 0.780E-04 0.245E+04   0.529E-17 -.257E-17 0.215E+01   -.271E-03 -.293E-03 0.447E+00
   0.359E+02 0.623E+02 -.243E+04   -.354E+02 -.618E+02 0.243E+04   -.573E+00 -.847E+00 0.218E+01   0.146E+00 0.316E+00 0.381E+00
   -.359E+02 0.623E+02 -.243E+04   0.354E+02 -.618E+02 0.243E+04   0.573E+00 -.847E+00 0.218E+01   -.146E+00 0.318E+00 0.380E+00
   0.719E+02 -.873E-01 -.243E+04   -.712E+02 0.202E+00 0.243E+04   -.102E+01 -.726E-01 0.218E+01   0.347E+00 -.316E-01 0.381E+00
   -.719E+02 -.873E-01 -.243E+04   0.712E+02 0.202E+00 0.243E+04   0.102E+01 -.726E-01 0.218E+01   -.348E+00 -.312E-01 0.380E+00
   0.360E+02 -.622E+02 -.243E+04   -.358E+02 0.616E+02 0.243E+04   -.447E+00 0.919E+00 0.218E+01   0.203E+00 -.285E+00 0.380E+00
   -.360E+02 -.622E+02 -.243E+04   0.358E+02 0.616E+02 0.243E+04   0.447E+00 0.919E+00 0.218E+01   -.201E+00 -.286E+00 0.380E+00
   0.211E-04 -.124E-04 -.245E+04   0.107E-03 -.662E-04 0.245E+04   0.180E-17 -.129E-17 0.219E+01   -.641E-02 -.327E-02 0.475E+00
   -.356E-04 -.227E-04 -.152E+04   0.771E-04 0.110E-04 0.152E+04   0.233E-17 0.131E-18 -.190E+01   0.485E-02 0.296E-02 0.443E+00
   0.265E-05 -.769E-04 -.892E+03   0.201E-04 0.314E-06 0.877E+03   -.580E-18 -.213E-18 0.157E+02   0.128E-02 0.781E-03 -.276E+00
   0.234E-03 -.927E-04 -.156E+04   0.107E-04 0.281E-07 0.162E+04   0.924E-18 0.218E-18 -.569E+02   0.374E-02 0.229E-02 -.330E+00
   0.580E-03 -.876E-03 0.341E+02   -.130E-13 0.138E-12 -.123E-10   0.338E-15 -.334E-15 -.461E+02   0.250E-02 0.493E-02 0.120E+02

 POSITION                                       TOTAL-FORCE (eV/Angst)
      0.00000      0.00000      5.28219         0.000000      0.000000     -0.008421
      2.93046      0.00000      5.28219         0.005686      0.021432      0.036042
      5.86091      0.00000      5.28219        -0.005686      0.021432      0.036042
      1.46523      2.53785      5.28219         0.021404     -0.005791      0.036042
      4.39568      2.53785      5.28219         0.000000      0.000000      0.009814
      7.32614      2.53785      5.28219        -0.021404     -0.005791      0.036042
      2.93046      5.07570      5.28219         0.015718     -0.015641      0.036042
      5.86091      5.07570      5.28219        -0.015718     -0.015641      0.036042
      8.79137      5.07570      5.28219         0.000000      0.000000      0.026562
      1.46523      0.84595      7.67490         0.004014      0.002317     -0.002937
      4.39568      0.84595      7.67490        -0.000000     -0.037582     -0.057108
      7.32614      0.84595      7.67490        -0.004014      0.002317     -0.002937
      2.93046      3.38380      7.67490        -0.032547      0.018791     -0.057108
      5.86091      3.38380      7.67490         0.032547      0.018791     -0.057108
      8.79137      3.38380      7.67490        -0.000000     -0.023070     -0.000122
      4.39568      5.92165      7.67490        -0.000000     -0.004635     -0.002937
      7.32614      5.92165      7.67490        -0.019979      0.011535     -0.000122
     10.25659      5.92165      7.67490         0.019979      0.011535     -0.000122
      8.79137      1.69341     10.06265         0.000000      0.010538      0.019590
      2.94295      1.69911     10.03964        -0.040590     -0.023435     -0.138003
      5.84841      1.69911     10.03964         0.040590     -0.023435     -0.138003
     10.25212      4.23233     10.05217         0.034961     -0.020185     -0.001459
      4.39568      4.21532     10.03964         0.000000      0.046870     -0.138003
      7.33061      4.23233     10.05217        -0.034961     -0.020185     -0.001459
     11.72051      6.76684     10.06265        -0.009126     -0.005269      0.019590
      5.86222      6.76684     10.06265         0.009126     -0.005269      0.019590
      8.79137      6.76243     10.05217         0.000000      0.040369     -0.001459
      0.00000      0.00000     12.42704         0.000000      0.000000     -0.037347
      2.96539      0.06299     12.42777        -0.009038     -0.035730     -0.039564
      5.82597      0.06299     12.42777         0.009038     -0.035730     -0.039564
      1.53725      2.53661     12.42777        -0.035462      0.010038     -0.039564
      7.25412      2.53661     12.42777         0.035462      0.010038     -0.039564
      2.96754      5.01395     12.42777        -0.026424      0.025692     -0.039564
      5.82383      5.01395     12.42777         0.026424      0.025692     -0.039564
      8.79137      5.07570     12.42264         0.000000      0.000000     -0.024263
      4.39568      2.53785     12.15183        -0.000000      0.000000      0.540095
      4.39568      2.53785     13.89320         0.000000      0.000000      0.095394
      4.39568      2.53785     15.07339         0.000000      0.000000     -0.040580
    total drift:                                0.003080      0.004050      0.106665

  FREE ENERGIE OF THE ION-ELECTRON SYSTEM (eV)
  free  energy   TOTEN  =      -111.70925213 eV

  energy  without entropy=     -111.70925213  energy(sigma->0) =     -111.70925213

 stress matrix after NEB project (eV)
     -9.93456     -0.00000     -0.00000
     -0.00000     -9.93456      0.00000
      0.00000      0.00000     -0.74221
  FORCES: max atom, RMS     0.095394    0.016817
  FORCE total and by dimension    0.103666    0.095394
  Stress total and by dimension   14.069186    9.934564
|           W    W    AA    RRRRR   N    N  II  N    N   GGGG   !!!           |
|           W    W   A  A   R    R  NN   N  II  NN   N  G    G  !!!           |
|           W    W  A    A  R    R  N N  N  II  N N  N  G       !!!           |
|           W WW W  AAAAAA  RRRRR   N  N N  II  N  N N  G  GGG   !            |
|           WW  WW  A    A  R   R   N   NN  II  N   NN  G    G                |
|           W    W  A    A  R    R  N    N  II  N    N   GGGG   !!!           |
|     Tetrahedron method does not include variations of the Fermi             |
|     occupations, so forces and stress will be inaccurate. We suggest        |
|     using a different smearing scheme ISMEAR = 1 or 2 for metals in         |
|     relaxations.                                                            |

 total charge

# of ion       s       p       d       tot
    1        0.418   0.201   9.179   9.798
    2        0.418   0.203   9.178   9.798
    3        0.418   0.203   9.178   9.798
    4        0.418   0.203   9.178   9.798
    5        0.419   0.203   9.176   9.798
    6        0.418   0.203   9.178   9.798
    7        0.418   0.203   9.178   9.798
    8        0.418   0.203   9.178   9.798
    9        0.414   0.202   9.179   9.796
   10        0.406   0.268   9.165   9.840
   11        0.410   0.268   9.168   9.845
   12        0.406   0.268   9.165   9.840
   13        0.410   0.268   9.168   9.845
   14        0.410   0.268   9.168   9.845
   15        0.402   0.271   9.165   9.838
   16        0.406   0.268   9.165   9.840
   17        0.402   0.271   9.165   9.838
   18        0.402   0.271   9.165   9.838
   19        0.402   0.266   9.167   9.834
   20        0.429   0.291   9.149   9.869
   21        0.429   0.291   9.149   9.869
   22        0.397   0.276   9.165   9.838
   23        0.429   0.291   9.149   9.869
   24        0.397   0.276   9.165   9.838
   25        0.402   0.266   9.167   9.834
   26        0.402   0.266   9.167   9.834
   27        0.397   0.276   9.165   9.838
   28        0.415   0.192   9.182   9.788
   29        0.413   0.206   9.176   9.795
   30        0.413   0.206   9.176   9.795
   31        0.413   0.206   9.176   9.795
   32        0.413   0.206   9.176   9.795
   33        0.413   0.206   9.176   9.795
   34        0.413   0.206   9.176   9.795
   35        0.410   0.194   9.182   9.786
   36        0.415   0.441   6.417   7.273
   37        0.958   1.551   0.000   2.509
   38        1.608   3.527   0.000   5.136
tot         17.375  13.889 327.374 358.638

 BZINTS: Fermi energy:    0.738058;  403.000000 electrons
         Band energy:-0.137177E+04;  BLOECHL correction:   -0.026373