 vasp.6.2.0 18Jan21 (build Jun 12 2021 23:27:24) complex

 executed on             LinuxIFC date 2022.05.26  19:21:37

 INCAR:
   ISMEAR = -5
   SIGMA = 0.1
   ISPIN = 1
   EDIFF = 1.d-5
   EDIFFG = -0.01
   NSW = 0
   NELM = 150
   ENCUT = 500
   ISIF = 2
   IBRION = 2
   LREAL = Auto
   ALGO = Fast
   ICHARG = 11
   LORBIT = 10
   LCHARG = .F.
   LWAVE = .F.

 POTCAR:    PAW_PBE Au 04Oct2007
 POTCAR:    PAW_PBE Co 02Aug2007
 POTCAR:    PAW_PBE H 15Jun2001
|           W    W    AA    RRRRR   N    N  II  N    N   GGGG   !!!           |
|           W    W   A  A   R    R  NN   N  II  NN   N  G    G  !!!           |
|           W    W  A    A  R    R  N N  N  II  N N  N  G       !!!           |
|           W WW W  AAAAAA  RRRRR   N  N N  II  N  N N  G  GGG   !            |
|           WW  WW  A    A  R   R   N   NN  II  N   NN  G    G                |
|           W    W  A    A  R    R  N    N  II  N    N   GGGG   !!!           |
|     For optimal performance we recommend to set                             |
|       NCORE = 2 up to number-of-cores-per-socket                            |
|     This setting can greatly improve the performance of VASP for DFT.       |
|     The default, NCORE=1 might be grossly inefficient on modern             |
|     multi-core architectures or massively parallel machines. Do your        |
|     Unfortunately you need to use the default for GW and RPA                |
|     calculations (for HF NCORE is supported but not extensively tested      |
|     yet).                                                                   |

 POTCAR:    PAW_PBE Au 04Oct2007
   VRHFIN =Au: s1d10

   TITEL  = PAW_PBE Au 04Oct2007
   POMASS =  196.966; ZVAL   =   11.000    mass and valenz
   ENMAX  =  229.943; ENMIN  =  172.457 eV

 POTCAR:    PAW_PBE Co 02Aug2007
   VRHFIN =Co: d8 s1

   TITEL  = PAW_PBE Co 02Aug2007
   POMASS =   58.933; ZVAL   =    9.000    mass and valenz
   ENMAX  =  267.968; ENMIN  =  200.976 eV

 POTCAR:    PAW_PBE H 15Jun2001
   VRHFIN =H: ultrasoft test

   TITEL  = PAW_PBE H 15Jun2001
   POMASS =    1.000; ZVAL   =    1.000    mass and valenz
   ENMAX  =  250.000; ENMIN  =  200.000 eV

 Optimization of the real space projectors (new method)

 maximal supplied QI-value         = 15.12
 optimisation between [QCUT,QGAM] = [ 11.34, 22.83] = [ 36.00,145.93] Ry
 Optimized for a Real-space Cutoff    1.39 Angstroem

   l    n(q)    QCUT    max X(q) W(low)/X(q) W(high)/X(q)  e(spline)
   2      9    11.338    60.898    0.39E-03    0.42E-03    0.21E-06
   2      9    11.338    58.894    0.40E-03    0.42E-03    0.22E-06
   0      9    11.338   109.617    0.13E-03    0.20E-04    0.13E-06
   0      9    11.338    75.026    0.13E-03    0.20E-04    0.13E-06
   1      9    11.338    16.344    0.33E-04    0.24E-03    0.18E-06
   1      9    11.338    10.160    0.26E-04    0.19E-03    0.15E-06
 Optimization of the real space projectors (new method)

[...]

   l    n(q)    QCUT    max X(q) W(low)/X(q) W(high)/X(q)  e(spline)
   2      8    11.376    65.824    0.20E-03    0.32E-04    0.13E-06
   2      8    11.376    61.429    0.20E-03    0.33E-04    0.14E-06
   0      9    11.376    56.174    0.76E-04    0.11E-03    0.19E-06
   0      9    11.376    31.263    0.69E-04    0.99E-04    0.17E-06
   1      9    11.376    19.828    0.35E-03    0.11E-03    0.12E-06
   1      9    11.376    15.139    0.29E-03    0.94E-04    0.10E-06
 Optimization of the real space projectors (new method)

 maximal supplied QI-value         = 34.20
 optimisation between [QCUT,QGAM] = [ 11.29, 22.57] = [ 35.68,142.71] Ry
 Optimized for a Real-space Cutoff    1.16 Angstroem

   l    n(q)    QCUT    max X(q) W(low)/X(q) W(high)/X(q)  e(spline)
   0      8    11.287    19.460    0.40E-03    0.73E-03    0.16E-06
   0      8    11.287    12.209    0.38E-03    0.70E-03    0.15E-06
   1      7    11.287     4.655    0.22E-03    0.25E-04    0.22E-06
  PAW_PBE Au 04Oct2007                  :
  PAW_PBE Co 02Aug2007                  :
  PAW_PBE H 15Jun2001                   :

 POSCAR: Au-Co-H
  positions in direct lattice
  velocities in cartesian coordinates
 exchange correlation table for  LEXCH =        8
   RHO(1)=    0.500       N(1)  =     2000
   RHO(2)=  100.500       N(2)  =     4000

 VTST: version 3.2, (02/03/18)

 CHAIN: initializing optimizer

 OPT: Using VASP Conjugate-Gradient optimizer
 CHAIN: Read ICHAIN            0

 POSCAR: Au-Co-H
  positions in direct lattice
  velocities in cartesian coordinates

 ion  position               nearest neighbor table
   1  0.000  0.000  0.238-  16 2.94  12 2.94   6 2.94   8 2.94   7 2.94   3 2.94  10 2.94   4 2.94
                             2 2.94
   2  0.333  0.000  0.238-   9 2.94  11 2.94  17 2.94  10 2.94   8 2.94   4 2.94   5 2.94   1 2.94
                             3 2.94
   3  0.667  0.000  0.238-   7 2.94  18 2.94  12 2.94   1 2.94  11 2.94   5 2.94   6 2.94   9 2.94
                             2 2.94
   4  0.000  0.333  0.238-  10 2.94   6 2.94   5 2.94  13 2.94   2 2.94  15 2.94   9 2.94   1 2.94
                             7 2.94
   5  0.333  0.333  0.238-  13 2.94   7 2.94  11 2.94   4 2.94   2 2.94  14 2.94   3 2.94   8 2.94
                             6 2.94
   6  0.667  0.333  0.238-  15 2.94  14 2.94   1 2.94  12 2.94   4 2.94   9 2.94   8 2.94   3 2.94
                             5 2.94
   7  0.000  0.667  0.238-  18 2.94   3 2.94  16 2.94   5 2.94   1 2.94  13 2.94   8 2.94   4 2.94
                             9 2.94
   8  0.333  0.667  0.238-   9 2.94  17 2.94   1 2.94   2 2.94  14 2.94  16 2.94   6 2.94   7 2.94
                             5 2.94
   9  0.667  0.667  0.238-   2 2.94   8 2.94  17 2.94   6 2.94  15 2.94   4 2.94   3 2.94  18 2.94
                             7 2.94
  10  0.111  0.111  0.346-  20 2.92  26 2.93  19 2.93  11 2.94  17 2.94   2 2.94   4 2.94   1 2.94
                            12 2.94  16 2.94  13 2.94  15 2.94
  11  0.444  0.111  0.346-  20 2.91  21 2.91  27 2.93  13 2.94   2 2.94  10 2.94  17 2.94   5 2.94
                             3 2.94  18 2.94  14 2.94  12 2.94
  12  0.778  0.111  0.346-  21 2.92  25 2.93  19 2.93  16 2.94  18 2.94   1 2.94  14 2.94  15 2.94
                             3 2.94   6 2.94  10 2.94  11 2.94
  13  0.111  0.444  0.346-  23 2.91  20 2.91  22 2.93   5 2.94  18 2.94  11 2.94   7 2.94   4 2.94
                            16 2.94  10 2.94  14 2.94  15 2.94
  14  0.444  0.444  0.346-  21 2.91  23 2.91  24 2.93  15 2.94   6 2.94  12 2.94   8 2.94  17 2.94
                             5 2.94  16 2.94  13 2.94  11 2.94
  15  0.778  0.444  0.346-  24 2.92  22 2.92  19 2.93  14 2.94   6 2.94  17 2.94  12 2.94   9 2.94
                             4 2.94  10 2.94  13 2.94  18 2.94
  16  0.111  0.778  0.346-  23 2.92  25 2.93  26 2.93  18 2.94  12 2.94   7 2.94   1 2.94   8 2.94
                            13 2.94  10 2.94  14 2.94  17 2.94
  17  0.444  0.778  0.346-  27 2.92  24 2.92  26 2.93   9 2.94  15 2.94   2 2.94  10 2.94  11 2.94
                             8 2.94  14 2.94  16 2.94  18 2.94
  18  0.778  0.778  0.346-  22 2.92  27 2.92  25 2.93  16 2.94   7 2.94  13 2.94  12 2.94   3 2.94
                            11 2.94   9 2.94  15 2.94  17 2.94
  19  0.889  0.222  0.454-  10 2.93  12 2.93  15 2.93  26 2.94  25 2.94  24 2.94  22 2.94  28 2.94
                            21 2.95  20 2.95  32 2.96  31 2.96
  20  0.223  0.223  0.453-  36 2.69  29 2.91  31 2.91  11 2.91  13 2.91  23 2.91  21 2.91  10 2.92
                            27 2.95  22 2.95  26 2.95  19 2.95
  21  0.554  0.223  0.453-  36 2.69  30 2.91  32 2.91  14 2.91  11 2.91  20 2.91  23 2.91  12 2.92
                            27 2.95  24 2.95  25 2.95  19 2.95
  22  0.887  0.557  0.453-  24 2.91  27 2.91  18 2.92  15 2.92  13 2.93  25 2.94  19 2.94  33 2.94
                            31 2.94  23 2.95  20 2.95  35 2.96
  23  0.223  0.554  0.453-  36 2.69  33 2.91  34 2.91  13 2.91  14 2.91  20 2.91  21 2.91  16 2.92
                            22 2.95  24 2.95  25 2.95  26 2.95
  24  0.557  0.557  0.453-  27 2.91  22 2.91  15 2.92  17 2.92  14 2.93  26 2.94  19 2.94  32 2.94
                            34 2.94  21 2.95  23 2.95  35 2.96
  25  0.889  0.889  0.454-  16 2.93  12 2.93  18 2.93  19 2.94  26 2.94  22 2.94  27 2.94  28 2.94
                            23 2.95  21 2.95  33 2.96  30 2.96
  26  0.222  0.889  0.454-  10 2.93  16 2.93  17 2.93  19 2.94  25 2.94  27 2.94  24 2.94  28 2.94
                            20 2.95  23 2.95  29 2.96  34 2.96
  27  0.557  0.887  0.453-  24 2.91  22 2.91  17 2.92  18 2.92  11 2.93  26 2.94  25 2.94  29 2.94
                            30 2.94  20 2.95  21 2.95  35 2.96
  28  0.000  0.000  0.562-  25 2.94  19 2.94  26 2.94  34 2.98  32 2.98  33 2.98  30 2.98  31 2.98
                            29 2.98
  29  0.334  0.008  0.561-  30 2.86  31 2.87  36 2.88  20 2.91  27 2.94  26 2.96  35 2.98  28 2.98
                            34 3.09
  30  0.658  0.008  0.561-  29 2.86  32 2.87  36 2.88  21 2.91  27 2.94  25 2.96  35 2.98  28 2.98
                            33 3.09
  31  0.008  0.334  0.561-  33 2.86  29 2.87  36 2.88  20 2.91  22 2.94  19 2.96  35 2.98  28 2.98
                            32 3.09
  32  0.658  0.334  0.561-  34 2.86  30 2.87  36 2.88  21 2.91  24 2.94  19 2.96  35 2.98  28 2.98
                            31 3.09
  33  0.008  0.658  0.561-  31 2.86  34 2.87  36 2.88  23 2.91  22 2.94  25 2.96  35 2.98  28 2.98
                            30 3.09
  34  0.334  0.658  0.561-  32 2.86  33 2.87  36 2.88  23 2.91  24 2.94  26 2.96  35 2.98  28 2.98
                            29 3.09
  35  0.667  0.667  0.563-  24 2.96  27 2.96  22 2.96  29 2.98  34 2.98  32 2.98  31 2.98  30 2.98
                            33 2.98
  36  0.333  0.333  0.547-  37 1.48  20 2.69  23 2.69  21 2.69  33 2.88  31 2.88  29 2.88  30 2.88
                            34 2.88  32 2.88
  37  0.333  0.333  0.614-  36 1.48

  LATTYP: Found a hexagonal cell.
 ALAT       =     8.8135128021
 C/A-ratio  =     2.5184286595

  Lattice vectors:

 A1 = (  -4.4067569092,  -7.6327256898,   0.0000000000)
 A2 = (   8.8135128021,   0.0000000000,   0.0000000000)
 A3 = (   0.0000000000,   0.0000000000,  22.1962032318)

Analysis of symmetry for initial positions (statically):
 Subroutine PRICEL returns:
 Original cell was already a primitive cell.

 Routine SETGRP: Setting up the symmetry group for a
 hexagonal supercell.

 Subroutine GETGRP returns: Found  6 space group operations
 (whereof  6 operations were pure point group operations)
 out of a pool of 24 trial point group operations.

The static configuration has the point symmetry C_3v.

Analysis of symmetry for dynamics (positions and initial velocities):
 Subroutine PRICEL returns:
 Original cell was already a primitive cell.

[...]

The dynamic configuration has the point symmetry C_3v.

Analysis of constrained symmetry for selective dynamics:
 Subroutine PRICEL returns:
 Original cell was already a primitive cell.

 Routine SETGRP: Setting up the symmetry group for a
 hexagonal supercell.

 Subroutine GETGRP returns: Found  6 space group operations
 (whereof  6 operations were pure point group operations)
[...]
     24      -5.0866      2.00000
     25      -5.0822      2.00000
     26      -5.0364      2.00000
     27      -4.9565      2.00000
     28      -4.8911      2.00000
     29      -4.8075      2.00000
     30      -4.8006      2.00000
     31      -4.7845      2.00000
     32      -4.7830      2.00000
     33      -4.7725      2.00000
     34      -4.7153      2.00000
     35      -4.6047      2.00000
     36      -4.5809      2.00000
     37      -4.5752      2.00000
     38      -4.5604      2.00000
     39      -4.5224      2.00000
     40      -4.4333      2.00000
     41      -4.3949      2.00000
     42      -4.3339      2.00000
     43      -4.3224      2.00000
     44      -4.3154      2.00000
     45      -4.3037      2.00000
     46      -4.2132      2.00000
     47      -4.1977      2.00000
     48      -4.1633      2.00000
     49      -4.1418      2.00000
     50      -4.1372      2.00000
     51      -4.1250      2.00000
     52      -4.1065      2.00000
     53      -4.0747      2.00000
     54      -4.0444      2.00000
     55      -4.0342      2.00000
     56      -3.9894      2.00000
     57      -3.9763      2.00000
     58      -3.9676      2.00000
     59      -3.9537      2.00000
     60      -3.9430      2.00000
[...]
    238       6.5870      0.00000
    239       6.7325      0.00000
    240       6.7590      0.00000
    241       6.7975      0.00000
    242       6.8250      0.00000
    243       7.0912      0.00000
    244       7.1163      0.00000
    245       7.2466      0.00000
    246       7.5537      0.00000
    247       7.5924      0.00000
    248       7.6637      0.00000
    249       7.7283      0.00000
    250       7.8033      0.00000
    251       7.9405      0.00000
    252       8.0190      0.00000

 soft charge-density along one line, spin component           1
         0         1         2         3         4         5         6         7         8         9
 total charge-density along one line

------------------------ aborting loop because EDIFF is reached ----------------------------------------

 total charge

# of ion       s       p       d       tot
    1        0.546   0.238   8.770   9.554
    2        0.544   0.241   8.765   9.550
    3        0.544   0.241   8.765   9.550
    4        0.544   0.241   8.765   9.550
    5        0.545   0.241   8.759   9.545
    6        0.544   0.241   8.765   9.550
    7        0.544   0.241   8.765   9.550
    8        0.544   0.241   8.765   9.550
    9        0.542   0.239   8.771   9.552
   10        0.521   0.308   8.770   9.599
   11        0.523   0.308   8.780   9.611
   12        0.521   0.308   8.770   9.599
   13        0.523   0.308   8.780   9.611
   14        0.523   0.308   8.780   9.611
   15        0.517   0.310   8.777   9.604
   16        0.521   0.308   8.770   9.599
   17        0.517   0.310   8.777   9.604
   18        0.517   0.310   8.777   9.604
   19        0.516   0.303   8.775   9.594
   20        0.546   0.325   8.757   9.629
   21        0.546   0.325   8.757   9.629
   22        0.511   0.311   8.776   9.598
   23        0.546   0.325   8.757   9.629
   24        0.511   0.311   8.776   9.598
   25        0.516   0.303   8.775   9.594
   26        0.516   0.303   8.775   9.594
   27        0.511   0.311   8.776   9.598
   28        0.539   0.224   8.768   9.531
   29        0.548   0.234   8.759   9.541
   30        0.548   0.234   8.759   9.541
   31        0.548   0.234   8.759   9.541
   32        0.548   0.234   8.759   9.541
   33        0.548   0.234   8.759   9.541
   34        0.548   0.234   8.759   9.541
   35        0.534   0.223   8.770   9.527
   36        0.381   0.346   7.295   8.022
   37        0.509   0.017   0.000   0.526
tot         19.556   9.968 314.184 343.708

  FORCE on cell =-STRESS in cart. coord.  units (eV):
  Direction    XX          YY          ZZ          XY          YZ          ZX
  Alpha Z   993.52106   993.52106   993.52106
  Ewald  120428.51787120428.51829************    -0.00032    -0.00009    -0.00015
  Hartree129120.99095129120.99096************     0.00000    -0.00002    -0.00004
  E(xc)   -1776.23253 -1776.23248 -1783.21789    -0.00004    -0.00000    -0.00000
  Local  ************************262061.56379     0.00181     0.00004     0.00007
  n-local   -95.20156   -43.72611   -41.83176    24.89249    -1.54774     1.78275
  augment  2523.01566  2523.01721  2535.69957    -0.00135     0.00001     0.00005
  Kinetic  5425.88008  5438.49156  5480.30543     6.56552    -0.22136     0.62598
  Fock        0.00000     0.00000     0.00000     0.00000     0.00000     0.00000
  Total     -23.68556   -23.68556     1.36117    -0.00000     0.00000    -0.00000
  in kB     -25.41481   -25.41481     1.46055    -0.00000     0.00000    -0.00000

 VOLUME and BASIS-vectors are now :
  energy-cutoff  :      500.00
  volume of cell :     1493.16
      direct lattice vectors                 reciprocal lattice vectors
     8.813512802  0.000000000  0.000000000     0.113462137 -0.065507406  0.000000000
     4.406756909  7.632725690  0.000000000     0.000000000  0.131014796  0.000000000
     0.000000000  0.000000000 22.196203232     0.000000000  0.000000000  0.045052750

  length of vectors
     8.813512802  8.813512802 22.196203232     0.131014796  0.131014796  0.045052750

 FORCES acting on ions
    electron-ion (+dipol)            ewald-force                    non-local-force                 convergence-correction
   -.199E-04 -.164E-04 0.248E+04   0.519E-04 0.434E-04 -.248E+04   0.568E-17 0.117E-17 -.791E+00   -.174E-03 -.113E-03 -.446E+00
   0.517E+00 0.225E+00 0.248E+04   -.595E+00 -.405E+00 -.248E+04   0.441E-01 0.791E-01 -.327E+00   0.353E-01 0.109E+00 -.534E+00
   -.517E+00 0.225E+00 0.248E+04   0.595E+00 -.405E+00 -.248E+04   -.441E-01 0.791E-01 -.327E+00   -.350E-01 0.111E+00 -.534E+00
   0.453E+00 0.335E+00 0.248E+04   -.648E+00 -.313E+00 -.248E+04   0.905E-01 -.134E-02 -.327E+00   0.112E+00 -.238E-01 -.534E+00
   0.727E-05 -.241E-04 0.249E+04   0.951E-04 0.173E-05 -.249E+04   0.214E-17 0.128E-17 -.136E+00   0.427E-02 0.263E-02 -.523E+00
   -.453E+00 0.335E+00 0.248E+04   0.648E+00 -.313E+00 -.248E+04   -.905E-01 -.134E-02 -.327E+00   -.113E+00 -.228E-01 -.533E+00
   -.632E-01 -.560E+00 0.248E+04   -.529E-01 0.718E+00 -.248E+04   0.464E-01 -.777E-01 -.327E+00   0.784E-01 -.857E-01 -.534E+00
   0.631E-01 -.560E+00 0.248E+04   0.528E-01 0.718E+00 -.248E+04   -.464E-01 -.777E-01 -.327E+00   -.765E-01 -.867E-01 -.533E+00
   0.198E-04 -.415E-04 0.249E+04   0.166E-03 -.201E-04 -.248E+04   -.167E-17 0.694E-18 -.552E+00   -.464E-02 -.244E-02 -.557E+00
   0.449E+01 0.259E+01 0.826E+03   -.427E+01 -.247E+01 -.825E+03   -.240E+00 -.138E+00 -.634E+00   0.285E-01 0.166E-01 0.236E+00
   0.151E-04 0.554E+01 0.834E+03   0.147E-03 -.567E+01 -.834E+03   0.481E-08 0.723E-01 -.281E+00   0.365E-02 0.346E-01 0.256E+00
   -.449E+01 0.259E+01 0.826E+03   0.427E+01 -.247E+01 -.825E+03   0.240E+00 -.138E+00 -.634E+00   -.298E-01 0.179E-01 0.235E+00
   0.479E+01 -.277E+01 0.834E+03   -.491E+01 0.283E+01 -.834E+03   0.626E-01 -.361E-01 -.281E+00   0.319E-01 -.138E-01 0.256E+00
   -.479E+01 -.277E+01 0.834E+03   0.491E+01 0.283E+01 -.834E+03   -.626E-01 -.361E-01 -.281E+00   -.242E-01 -.141E-01 0.256E+00
   0.312E-04 0.299E+01 0.828E+03   0.236E-03 -.304E+01 -.828E+03   0.230E-08 0.345E-01 -.548E+00   -.216E-02 -.334E-01 0.236E+00
   -.217E-04 -.518E+01 0.826E+03   0.163E-03 0.493E+01 -.825E+03   0.184E-07 0.277E+00 -.634E+00   0.340E-03 -.348E-01 0.235E+00
   0.259E+01 -.150E+01 0.828E+03   -.263E+01 0.152E+01 -.828E+03   0.299E-01 -.173E-01 -.548E+00   -.297E-01 0.149E-01 0.235E+00
   -.259E+01 -.150E+01 0.828E+03   0.263E+01 0.152E+01 -.828E+03   -.299E-01 -.173E-01 -.548E+00   0.296E-01 0.167E-01 0.235E+00
   -.396E-04 0.164E+01 -.866E+03   0.540E-04 -.179E+01 0.865E+03   0.512E-08 0.769E-01 0.631E+00   0.347E-02 0.792E-01 0.990E+00
   0.292E+02 0.168E+02 -.824E+03   -.286E+02 -.165E+02 0.823E+03   -.970E+00 -.560E+00 -.829E+00   0.457E+00 0.264E+00 0.169E+01
   -.292E+02 0.168E+02 -.824E+03   0.286E+02 -.165E+02 0.823E+03   0.970E+00 -.560E+00 -.829E+00   -.457E+00 0.266E+00 0.169E+01
   0.568E+01 -.328E+01 -.853E+03   -.618E+01 0.357E+01 0.852E+03   0.291E+00 -.168E+00 0.498E+00   0.221E+00 -.133E+00 0.109E+01
   -.117E-04 -.337E+02 -.824E+03   0.143E-03 0.331E+02 0.823E+03   0.746E-07 0.112E+01 -.829E+00   0.165E-02 -.529E+00 0.169E+01
   -.568E+01 -.328E+01 -.853E+03   0.618E+01 0.357E+01 0.852E+03   -.291E+00 -.168E+00 0.498E+00   -.228E+00 -.132E+00 0.109E+01
   -.142E+01 -.821E+00 -.866E+03   0.155E+01 0.893E+00 0.865E+03   -.666E-01 -.384E-01 0.631E+00   -.614E-01 -.362E-01 0.990E+00
   0.142E+01 -.821E+00 -.866E+03   -.155E+01 0.893E+00 0.865E+03   0.666E-01 -.384E-01 0.631E+00   0.633E-01 -.369E-01 0.990E+00
   0.100E-04 0.656E+01 -.853E+03   0.198E-03 -.714E+01 0.852E+03   0.224E-07 0.336E+00 0.498E+00   -.451E-02 0.258E+00 0.109E+01
   -.105E-04 -.126E-04 -.250E+04   0.283E-04 0.325E-04 0.250E+04   0.333E-17 0.278E-17 0.712E+00   0.391E-03 0.749E-05 0.836E+00
   0.167E+02 0.264E+02 -.250E+04   -.166E+02 -.264E+02 0.250E+04   -.472E+00 -.677E+00 0.600E+00   0.363E+00 0.619E+00 0.699E+00
   -.167E+02 0.264E+02 -.250E+04   0.166E+02 -.264E+02 0.250E+04   0.472E+00 -.677E+00 0.600E+00   -.363E+00 0.621E+00 0.700E+00
   0.313E+02 0.128E+01 -.250E+04   -.312E+02 -.121E+01 0.250E+04   -.823E+00 -.705E-01 0.600E+00   0.717E+00 0.510E-02 0.698E+00
   -.313E+02 0.128E+01 -.250E+04   0.312E+02 -.121E+01 0.250E+04   0.823E+00 -.705E-01 0.600E+00   -.719E+00 0.649E-02 0.699E+00
   0.145E+02 -.277E+02 -.250E+04   -.145E+02 0.276E+02 0.250E+04   -.350E+00 0.748E+00 0.600E+00   0.356E+00 -.625E+00 0.700E+00
   -.145E+02 -.277E+02 -.250E+04   0.145E+02 0.276E+02 0.250E+04   0.350E+00 0.748E+00 0.600E+00   -.354E+00 -.626E+00 0.699E+00
   0.340E-04 -.308E-04 -.251E+04   0.144E-03 -.478E-04 0.251E+04   0.127E-17 -.169E-17 0.656E+00   -.469E-02 -.269E-02 0.749E+00
   -.328E-04 -.132E-05 -.190E+04   0.951E-04 0.891E-05 0.191E+04   -.162E-17 0.137E-17 -.334E+01   0.598E-02 0.378E-02 0.350E+00
   0.501E-05 -.390E-05 -.301E+03   0.533E-05 0.339E-06 0.303E+03   0.254E-18 -.875E-19 -.242E+01   0.144E-03 0.935E-04 -.200E+00
   -.780E-03 -.778E-03 -.646E+01   -.613E-14 -.242E-13 0.165E-11   0.222E-15 0.222E-15 -.771E+01   0.605E-02 0.707E-02 0.147E+02

 POSITION                                       TOTAL-FORCE (eV/Angst)
      0.00000      0.00000      5.28038         0.000000      0.000000     -0.136328
      2.93784      0.00000      5.28038         0.001348      0.009466     -0.055718
      5.87568      0.00000      5.28038        -0.001348      0.009466     -0.055718
      1.46892      2.54424      5.28038         0.008872     -0.003565     -0.055718
      4.40676      2.54424      5.28038         0.000000      0.000000     -0.094363
      7.34459      2.54424      5.28038        -0.008872     -0.003565     -0.055718
      2.93784      5.08848      5.28038         0.007523     -0.005900     -0.055718
      5.87568      5.08848      5.28038        -0.007523     -0.005900     -0.055718
      8.81351      5.08848      5.28038         0.000000      0.000000     -0.082921
      1.46892      0.84808      7.67911         0.003106      0.001793      0.104460
      4.40676      0.84808      7.67911        -0.000000     -0.026832      0.050486
      7.34459      0.84808      7.67911        -0.003106      0.001793      0.104460
      2.93784      3.39232      7.67911        -0.023237      0.013416      0.050486
      5.87568      3.39232      7.67911         0.023237      0.013416      0.050486
      8.81351      3.39232      7.67911        -0.000000     -0.040476      0.077294
      4.40676      5.93656      7.67911        -0.000000     -0.003587      0.104460
      7.34459      5.93656      7.67911        -0.035053      0.020238      0.077294
     10.28243      5.93656      7.67911         0.035053      0.020238      0.077294
      8.81351      1.69524     10.07173         0.000000      0.006455      0.017387
      2.95099      1.70376     10.05075         0.008998      0.005195     -0.103078
      5.86252      1.70376     10.05075        -0.008998      0.005195     -0.103078
     10.26977      4.24772     10.05674         0.019115     -0.011036     -0.009397
      4.40676      4.22522     10.05075        -0.000000     -0.010390     -0.103078
      7.35726      4.24772     10.05674        -0.019115     -0.011036     -0.009397
     11.75215      6.78511     10.07173        -0.005590     -0.003227      0.017387
      5.87488      6.78511     10.07173         0.005590     -0.003227      0.017387
      8.81351      6.77002     10.05674         0.000000      0.022072     -0.009397
      0.00000      0.00000     12.47665         0.000000      0.000000     -0.019788
      2.97645      0.06424     12.45579        -0.006306     -0.021117      0.003304
      5.83706      0.06424     12.45579         0.006306     -0.021117      0.003304
      1.54386      2.54556     12.45579        -0.021441      0.005098      0.003304
      7.26966      2.54556     12.45579         0.021441      0.005098      0.003304
      2.97417      5.02293     12.45579        -0.015135      0.016020      0.003304
      5.83935      5.02293     12.45579         0.015135      0.016020      0.003304
      8.81351      5.08848     12.49078         0.000000      0.000000     -0.016244
      4.40676      2.54424     12.15093        -0.000000      0.000000      0.261272
      4.40676      2.54424     13.62837         0.000000      0.000000     -0.008599
    total drift:                                0.005274      0.006287      0.514697

  FREE ENERGIE OF THE ION-ELECTRON SYSTEM (eV)
  free  energy   TOTEN  =      -115.59540552 eV

  energy  without entropy=     -115.59540552  energy(sigma->0) =     -115.59540552

 stress matrix after NEB project (eV)
    -23.68556     -0.00000     -0.00000
     -0.00000    -23.68556      0.00000
     -0.00000      0.00000      1.36117
  FORCES: max atom, RMS     0.008599    0.001414
  FORCE total and by dimension    0.008599    0.008599
  Stress total and by dimension   33.524090   23.685565
|           W    W    AA    RRRRR   N    N  II  N    N   GGGG   !!!           |
|           W    W   A  A   R    R  NN   N  II  NN   N  G    G  !!!           |
|           W    W  A    A  R    R  N N  N  II  N N  N  G       !!!           |
|           W WW W  AAAAAA  RRRRR   N  N N  II  N  N N  G  GGG   !            |
|           WW  WW  A    A  R   R   N   NN  II  N   NN  G    G                |
|           W    W  A    A  R    R  N    N  II  N    N   GGGG   !!!           |
|     Tetrahedron method does not include variations of the Fermi             |
|     occupations, so forces and stress will be inaccurate. We suggest        |
|     using a different smearing scheme ISMEAR = 1 or 2 for metals in         |
|     relaxations.                                                            |

 total charge

# of ion       s       p       d       tot
    1        0.546   0.238   8.770   9.554
    2        0.544   0.241   8.765   9.550
    3        0.544   0.241   8.765   9.550
    4        0.544   0.241   8.765   9.550
    5        0.545   0.241   8.759   9.545
    6        0.544   0.241   8.765   9.550
    7        0.544   0.241   8.765   9.550
    8        0.544   0.241   8.765   9.550
    9        0.542   0.239   8.771   9.552
   10        0.521   0.308   8.770   9.599
   11        0.523   0.308   8.780   9.611
   12        0.521   0.308   8.770   9.599
   13        0.523   0.308   8.780   9.611
   14        0.523   0.308   8.780   9.611
   15        0.517   0.310   8.777   9.604
   16        0.521   0.308   8.770   9.599
   17        0.517   0.310   8.777   9.604
   18        0.517   0.310   8.777   9.604
   19        0.516   0.303   8.775   9.594
   20        0.546   0.325   8.757   9.629
   21        0.546   0.325   8.757   9.629
   22        0.511   0.311   8.776   9.598
   23        0.546   0.325   8.757   9.629
   24        0.511   0.311   8.776   9.598
   25        0.516   0.303   8.775   9.594
   26        0.516   0.303   8.775   9.594
   27        0.511   0.311   8.776   9.598
   28        0.539   0.224   8.768   9.531
   29        0.548   0.234   8.759   9.541
   30        0.548   0.234   8.759   9.541
   31        0.548   0.234   8.759   9.541
   32        0.548   0.234   8.759   9.541
   33        0.548   0.234   8.759   9.541
   34        0.548   0.234   8.759   9.541
   35        0.534   0.223   8.770   9.527
   36        0.381   0.346   7.295   8.022
   37        0.509   0.017   0.000   0.526
tot         19.556   9.968 314.184 343.708

 BZINTS: Fermi energy:    0.635101;  395.000000 electrons
         Band energy:-0.118848E+04;  BLOECHL correction:   -0.076575