 vasp.6.2.0 18Jan21 (build Jun 12 2021 23:27:24) complex

 executed on             LinuxIFC date 2022.05.27  05:18:55

 INCAR:
   ISMEAR = -5
   SIGMA = 0.1
   ISPIN = 1
   EDIFF = 1.d-5
   EDIFFG = -0.01
   NSW = 0
   NELM = 150
   ENCUT = 500
   ISIF = 2
   IBRION = 2
   LREAL = Auto
   ALGO = Fast
   ICHARG = 11
   LORBIT = 10
   LCHARG = .F.
   LWAVE = .F.

 POTCAR:    PAW_PBE Au 04Oct2007
 POTCAR:    PAW_PBE W 08Apr2002
 POTCAR:    PAW_PBE O 08Apr2002
 POTCAR:    PAW_PBE H 15Jun2001
|           W    W    AA    RRRRR   N    N  II  N    N   GGGG   !!!           |
|           W    W   A  A   R    R  NN   N  II  NN   N  G    G  !!!           |
|           W    W  A    A  R    R  N N  N  II  N N  N  G       !!!           |
|           W WW W  AAAAAA  RRRRR   N  N N  II  N  N N  G  GGG   !            |
|           WW  WW  A    A  R   R   N   NN  II  N   NN  G    G                |
|           W    W  A    A  R    R  N    N  II  N    N   GGGG   !!!           |
|     For optimal performance we recommend to set                             |
|       NCORE = 2 up to number-of-cores-per-socket                            |
|     This setting can greatly improve the performance of VASP for DFT.       |
|     The default, NCORE=1 might be grossly inefficient on modern             |
|     multi-core architectures or massively parallel machines. Do your        |
|     Unfortunately you need to use the default for GW and RPA                |
|     calculations (for HF NCORE is supported but not extensively tested      |
|     yet).                                                                   |

 POTCAR:    PAW_PBE Au 04Oct2007
   VRHFIN =Au: s1d10

   TITEL  = PAW_PBE Au 04Oct2007
   POMASS =  196.966; ZVAL   =   11.000    mass and valenz
   ENMAX  =  229.943; ENMIN  =  172.457 eV

 POTCAR:    PAW_PBE W 08Apr2002
   VRHFIN =W : 6s5d

   TITEL  = PAW_PBE W 08Apr2002
   POMASS =  183.850; ZVAL   =    6.000    mass and valenz
   ENMAX  =  223.057; ENMIN  =  167.293 eV

 POTCAR:    PAW_PBE O 08Apr2002
   VRHFIN =O: s2p4

   TITEL  = PAW_PBE O 08Apr2002
   POMASS =   16.000; ZVAL   =    6.000    mass and valenz
   ENMAX  =  400.000; ENMIN  =  300.000 eV

 POTCAR:    PAW_PBE H 15Jun2001
   VRHFIN =H: ultrasoft test

   TITEL  = PAW_PBE H 15Jun2001
   POMASS =    1.000; ZVAL   =    1.000    mass and valenz
   ENMAX  =  250.000; ENMIN  =  200.000 eV

 Optimization of the real space projectors (new method)

 maximal supplied QI-value         = 15.12
 optimisation between [QCUT,QGAM] = [ 11.34, 22.83] = [ 36.00,145.93] Ry
 Optimized for a Real-space Cutoff    1.39 Angstroem

   l    n(q)    QCUT    max X(q) W(low)/X(q) W(high)/X(q)  e(spline)
   2      9    11.338    60.898    0.39E-03    0.42E-03    0.21E-06
   2      9    11.338    58.894    0.40E-03    0.42E-03    0.22E-06
   0      9    11.338   109.617    0.13E-03    0.20E-04    0.13E-06
   0      9    11.338    75.026    0.13E-03    0.20E-04    0.13E-06
   1      9    11.338    16.344    0.33E-04    0.24E-03    0.18E-06
   1      9    11.338    10.160    0.26E-04    0.19E-03    0.15E-06
 Optimization of the real space projectors (new method)

[...]

   l    n(q)    QCUT    max X(q) W(low)/X(q) W(high)/X(q)  e(spline)
   0      7    11.387    20.381    0.39E-03    0.13E-02    0.15E-06
   0      7    11.387    15.268    0.42E-03    0.14E-02    0.17E-06
   1      6    11.387     5.964    0.41E-03    0.11E-02    0.17E-06
   1      6    11.387     5.382    0.39E-03    0.87E-03    0.15E-06
 Optimization of the real space projectors (new method)

 maximal supplied QI-value         = 34.20
 optimisation between [QCUT,QGAM] = [ 11.29, 22.57] = [ 35.68,142.71] Ry
 Optimized for a Real-space Cutoff    1.16 Angstroem

   l    n(q)    QCUT    max X(q) W(low)/X(q) W(high)/X(q)  e(spline)
   0      8    11.287    19.460    0.40E-03    0.73E-03    0.16E-06
   0      8    11.287    12.209    0.38E-03    0.70E-03    0.15E-06
   1      7    11.287     4.655    0.22E-03    0.25E-04    0.22E-06
  PAW_PBE Au 04Oct2007                  :
  PAW_PBE W 08Apr2002                   :
  PAW_PBE O 08Apr2002                   :
  PAW_PBE H 15Jun2001                   :

 POSCAR: Au-W-OH
  positions in direct lattice
  velocities in cartesian coordinates
 exchange correlation table for  LEXCH =        8
   RHO(1)=    0.500       N(1)  =     2000
   RHO(2)=  100.500       N(2)  =     4000

 VTST: version 3.2, (02/03/18)

 CHAIN: initializing optimizer

 OPT: Using VASP Conjugate-Gradient optimizer
 CHAIN: Read ICHAIN            0

 POSCAR: Au-W-OH
  positions in direct lattice
  velocities in cartesian coordinates

 ion  position               nearest neighbor table
   1  0.000  0.000  0.238-  16 2.94  12 2.94   6 2.94   8 2.94   7 2.94   3 2.94  10 2.94   4 2.94
                             2 2.94
   2  0.333  0.000  0.238-   9 2.94  11 2.94  17 2.94  10 2.94   8 2.94   4 2.94   5 2.94   1 2.94
                             3 2.94
   3  0.667  0.000  0.238-   7 2.94  18 2.94  12 2.94   1 2.94  11 2.94   5 2.94   6 2.94   9 2.94
                             2 2.94
   4  0.000  0.333  0.238-  10 2.94   6 2.94   5 2.94  13 2.94   2 2.94  15 2.94   9 2.94   1 2.94
                             7 2.94
   5  0.333  0.333  0.238-  13 2.94   7 2.94  11 2.94   4 2.94   2 2.94  14 2.94   3 2.94   8 2.94
                             6 2.94
   6  0.667  0.333  0.238-  15 2.94  14 2.94   1 2.94  12 2.94   4 2.94   9 2.94   8 2.94   3 2.94
                             5 2.94
   7  0.000  0.667  0.238-  18 2.94   3 2.94  16 2.94   5 2.94   1 2.94  13 2.94   8 2.94   4 2.94
                             9 2.94
   8  0.333  0.667  0.238-   9 2.94  17 2.94   1 2.94   2 2.94  14 2.94  16 2.94   6 2.94   7 2.94
                             5 2.94
   9  0.667  0.667  0.238-   2 2.94   8 2.94  17 2.94   6 2.94  15 2.94   4 2.94   3 2.94  18 2.94
                             7 2.94
  10  0.111  0.111  0.346-  20 2.90  11 2.94  17 2.94   2 2.94   4 2.94   1 2.94  12 2.94  16 2.94
                            13 2.94  15 2.94  26 2.96  19 2.96
  11  0.444  0.111  0.346-  20 2.91  21 2.91  13 2.94   2 2.94  10 2.94  17 2.94   5 2.94   3 2.94
                            18 2.94  14 2.94  12 2.94  27 2.94
  12  0.778  0.111  0.346-  21 2.90  16 2.94  18 2.94   1 2.94  14 2.94  15 2.94   3 2.94   6 2.94
                            10 2.94  11 2.94  25 2.96  19 2.96
  13  0.111  0.444  0.346-  23 2.91  20 2.91   5 2.94  18 2.94  11 2.94   7 2.94   4 2.94  16 2.94
                            10 2.94  14 2.94  15 2.94  22 2.94
  14  0.444  0.444  0.346-  21 2.91  23 2.91  15 2.94   6 2.94  12 2.94   8 2.94  17 2.94   5 2.94
                            16 2.94  13 2.94  11 2.94  24 2.94
  15  0.778  0.444  0.346-  24 2.92  22 2.92  14 2.94   6 2.94  17 2.94  12 2.94   9 2.94   4 2.94
                            10 2.94  13 2.94  18 2.94  19 2.95
  16  0.111  0.778  0.346-  23 2.90  18 2.94  12 2.94   7 2.94   1 2.94   8 2.94  13 2.94  10 2.94
                            14 2.94  17 2.94  25 2.96  26 2.96
  17  0.444  0.778  0.346-  27 2.92  24 2.92   9 2.94  15 2.94   2 2.94  10 2.94  11 2.94   8 2.94
                            14 2.94  16 2.94  18 2.94  26 2.95
  18  0.778  0.778  0.346-  22 2.92  27 2.92  16 2.94   7 2.94  13 2.94  12 2.94   3 2.94  11 2.94
                             9 2.94  15 2.94  17 2.94  25 2.95
  19  0.888  0.224  0.455-  24 2.93  22 2.93  21 2.93  20 2.93  28 2.94  15 2.95  26 2.96  25 2.96
                            10 2.96  12 2.96  32 3.04  31 3.04
  20  0.222  0.222  0.452-  36 2.74  10 2.90  11 2.91  13 2.91  26 2.93  19 2.93  23 2.95  21 2.95
                            27 2.96  22 2.96  29 2.98  31 2.98
  21  0.557  0.222  0.452-  36 2.74  12 2.90  14 2.91  11 2.91  25 2.93  19 2.93  20 2.95  23 2.95
                            27 2.96  24 2.96  30 2.98  32 2.98
  22  0.886  0.557  0.454-  24 2.90  27 2.90  18 2.92  15 2.92  25 2.93  19 2.93  13 2.94  35 2.95
                            23 2.96  20 2.96  33 3.02  31 3.02
  23  0.222  0.557  0.452-  36 2.74  16 2.90  13 2.91  14 2.91  25 2.93  26 2.93  20 2.95  21 2.95
                            22 2.96  24 2.96  33 2.98  34 2.98
  24  0.557  0.557  0.454-  27 2.90  22 2.90  15 2.92  17 2.92  26 2.93  19 2.93  14 2.94  35 2.95
                            21 2.96  23 2.96  32 3.02  34 3.02
  25  0.888  0.888  0.455-  22 2.93  27 2.93  23 2.93  21 2.93  28 2.94  18 2.95  19 2.96  26 2.96
                            16 2.96  12 2.96  33 3.04  30 3.04
  26  0.224  0.888  0.455-  27 2.93  24 2.93  20 2.93  23 2.93  28 2.94  17 2.95  19 2.96  25 2.96
                            10 2.96  16 2.96  29 3.04  34 3.04
  27  0.557  0.886  0.454-  24 2.90  22 2.90  17 2.92  18 2.92  26 2.93  25 2.93  11 2.94  35 2.95
                            20 2.96  21 2.96  29 3.02  30 3.02
  28  0.000  0.000  0.563-  25 2.94  19 2.94  26 2.94  34 3.00  32 3.00  33 3.00  30 3.00  31 3.00
                            29 3.00
  29  0.334  0.013  0.566-  30 2.82  31 2.82  36 2.84  20 2.98  35 3.00  28 3.00  27 3.02  26 3.04
                            34 3.17
  30  0.653  0.013  0.566-  29 2.82  32 2.82  36 2.84  21 2.98  35 3.00  28 3.00  27 3.02  25 3.04
                            33 3.17
  31  0.013  0.334  0.566-  33 2.82  29 2.82  36 2.84  20 2.98  35 3.00  28 3.00  22 3.02  19 3.04
                            32 3.17
  32  0.653  0.334  0.566-  34 2.82  30 2.82  36 2.84  21 2.98  35 3.00  28 3.00  24 3.02  19 3.04
                            31 3.17
  33  0.013  0.653  0.566-  31 2.82  34 2.82  36 2.84  23 2.98  35 3.00  28 3.00  22 3.02  25 3.04
                            30 3.17
  34  0.334  0.653  0.566-  32 2.82  33 2.82  36 2.84  23 2.98  35 3.00  28 3.00  24 3.02  26 3.04
                            29 3.17
  35  0.667  0.667  0.563-  24 2.95  27 2.95  22 2.95  29 3.00  34 3.00  32 3.00  31 3.00  30 3.00
                            33 3.00
  36  0.333  0.333  0.549-  37 1.86  20 2.74  23 2.74  21 2.74  33 2.84  31 2.84  29 2.84  30 2.84
                            34 2.84  32 2.84
  37  0.333  0.333  0.633-  38 0.97  36 1.86
  38  0.333  0.333  0.676-  37 0.97

  LATTYP: Found a hexagonal cell.
 ALAT       =     8.8135128021
 C/A-ratio  =     2.5184286595

  Lattice vectors:

 A1 = (  -4.4067569092,  -7.6327256898,   0.0000000000)
 A2 = (   8.8135128021,   0.0000000000,   0.0000000000)
 A3 = (   0.0000000000,   0.0000000000,  22.1962032318)

Analysis of symmetry for initial positions (statically):
 Subroutine PRICEL returns:
 Original cell was already a primitive cell.

 Routine SETGRP: Setting up the symmetry group for a
 hexagonal supercell.

 Subroutine GETGRP returns: Found  6 space group operations
 (whereof  6 operations were pure point group operations)
 out of a pool of 24 trial point group operations.

The static configuration has the point symmetry C_3v.

Analysis of symmetry for dynamics (positions and initial velocities):
 Subroutine PRICEL returns:
 Original cell was already a primitive cell.

[...]

The dynamic configuration has the point symmetry C_3v.

Analysis of constrained symmetry for selective dynamics:
 Subroutine PRICEL returns:
 Original cell was already a primitive cell.

[...]
     33      -4.5557      2.00000
     34      -4.5066      2.00000
     35      -4.4760      2.00000
     36      -4.4446      2.00000
     37      -4.4304      2.00000
     38      -4.4053      2.00000
     39      -4.3683      2.00000
     40      -4.3258      2.00000
     41      -4.2759      2.00000
     42      -4.2278      2.00000
     43      -4.1728      2.00000
     44      -4.1247      2.00000
     45      -4.0895      2.00000
     46      -4.0307      2.00000
     47      -4.0098      2.00000
     48      -3.9690      2.00000
     49      -3.9414      2.00000
     50      -3.9164      2.00000
     51      -3.8920      2.00000
     52      -3.8725      2.00000
     53      -3.8619      2.00000
     54      -3.8357      2.00000
     55      -3.8075      2.00000
     56      -3.7896      2.00000
     57      -3.7556      2.00000
     58      -3.7436      2.00000
     59      -3.7198      2.00000
     60      -3.6939      2.00000
[...]
    238       6.5585      0.00000
    239       6.6601      0.00000
    240       6.6731      0.00000
    241       6.7931      0.00000
    242       6.8532      0.00000
    243       7.0127      0.00000
    244       7.0398      0.00000
    245       7.0752      0.00000
    246       7.1590      0.00000
    247       7.4509      0.00000
    248       7.4652      0.00000
    249       7.5081      0.00000
    250       7.5736      0.00000
    251       7.6726      0.00000
    252       7.6904      0.00000

 soft charge-density along one line, spin component           1
         0         1         2         3         4         5         6         7         8         9
 total charge-density along one line

------------------------ aborting loop because EDIFF is reached ----------------------------------------

 total charge

# of ion       s       p       d       tot
    1        0.549   0.237   8.766   9.553
    2        0.543   0.242   8.764   9.549
    3        0.543   0.242   8.764   9.549
    4        0.543   0.242   8.764   9.549
    5        0.546   0.241   8.762   9.549
    6        0.543   0.242   8.764   9.549
    7        0.543   0.242   8.764   9.549
    8        0.543   0.242   8.764   9.549
    9        0.542   0.241   8.766   9.550
   10        0.525   0.306   8.769   9.599
   11        0.518   0.309   8.778   9.606
   12        0.525   0.306   8.769   9.599
   13        0.518   0.309   8.778   9.606
   14        0.518   0.309   8.778   9.606
   15        0.514   0.308   8.774   9.596
   16        0.525   0.306   8.769   9.599
   17        0.514   0.308   8.774   9.596
   18        0.514   0.308   8.774   9.596
   19        0.518   0.293   8.775   9.586
   20        0.579   0.351   8.719   9.648
   21        0.579   0.351   8.719   9.648
   22        0.507   0.307   8.777   9.591
   23        0.579   0.351   8.719   9.648
   24        0.507   0.307   8.777   9.591
   25        0.518   0.293   8.775   9.586
   26        0.518   0.293   8.775   9.586
   27        0.507   0.307   8.777   9.591
   28        0.545   0.227   8.751   9.524
   29        0.575   0.253   8.743   9.571
   30        0.575   0.253   8.743   9.571
   31        0.575   0.253   8.743   9.571
   32        0.575   0.253   8.743   9.571
   33        0.575   0.253   8.743   9.571
   34        0.575   0.253   8.743   9.571
   35        0.535   0.227   8.758   9.520
   36        0.606   0.616   3.876   5.097
   37        1.553   3.563   0.000   5.117
   38        0.597   0.127   0.000   0.723
tot         21.664  14.069 310.495 346.228

  FORCE on cell =-STRESS in cart. coord.  units (eV):
  Direction    XX          YY          ZZ          XY          YZ          ZX
  Alpha Z  1027.07312  1027.07312  1027.07312
  Ewald  117050.48800117050.48843************    -0.00031    -0.00009    -0.00013
  Hartree125852.26108125852.26108************     0.00001    -0.00002    -0.00004
  E(xc)   -1787.06830 -1787.06832 -1793.71340     0.00002     0.00000     0.00001
  Local  ************************255151.99028     0.00200     0.00001     0.00001
  n-local  -108.04887   -59.54741   -50.66656    24.06486    -1.76502     1.49349
  augment  2375.88315  2375.88459  2391.60158    -0.00125     0.00003     0.00006
  Kinetic  5566.92629  5575.79706  5583.19730     5.88987     0.14669     0.02277
  Fock        0.00000     0.00000     0.00000     0.00000     0.00000     0.00000
  Total     -19.99469   -19.99469     1.87119    -0.00000     0.00000     0.00000
  in kB     -21.45448   -21.45447     2.00781    -0.00000     0.00000     0.00000

 VOLUME and BASIS-vectors are now :
  energy-cutoff  :      500.00
  volume of cell :     1493.16
      direct lattice vectors                 reciprocal lattice vectors
     8.813512802  0.000000000  0.000000000     0.113462137 -0.065507406  0.000000000
     4.406756909  7.632725690  0.000000000     0.000000000  0.131014796  0.000000000
     0.000000000  0.000000000 22.196203232     0.000000000  0.000000000  0.045052750

  length of vectors
     8.813512802  8.813512802 22.196203232     0.131014796  0.131014796  0.045052750

 FORCES acting on ions
    electron-ion (+dipol)            ewald-force                    non-local-force                 convergence-correction
   -.194E-04 -.161E-04 0.247E+04   0.520E-04 0.434E-04 -.247E+04   -.821E-17 0.524E-17 -.816E+00   -.201E-03 -.130E-03 -.232E+00
   0.719E+00 0.361E-01 0.247E+04   -.786E+00 -.224E+00 -.247E+04   0.269E-01 0.139E+00 -.291E+00   0.334E-01 0.418E-01 -.228E+00
   -.719E+00 0.361E-01 0.247E+04   0.786E+00 -.224E+00 -.247E+04   -.269E-01 0.139E+00 -.291E+00   -.331E-01 0.438E-01 -.227E+00
   0.391E+00 0.605E+00 0.247E+04   -.587E+00 -.569E+00 -.247E+04   0.133E+00 -.460E-01 -.291E+00   0.529E-01 0.795E-02 -.228E+00
   0.931E-05 -.229E-04 0.247E+04   0.951E-04 0.175E-05 -.247E+04   -.796E-17 0.235E-17 -.683E-01   0.430E-02 0.262E-02 -.214E+00
   -.391E+00 0.605E+00 0.247E+04   0.587E+00 -.569E+00 -.247E+04   -.133E+00 -.460E-01 -.291E+00   -.545E-01 0.892E-02 -.227E+00
   -.328E+00 -.641E+00 0.247E+04   0.199E+00 0.793E+00 -.247E+04   0.107E+00 -.926E-01 -.291E+00   0.214E-01 -.506E-01 -.227E+00
   0.328E+00 -.641E+00 0.247E+04   -.199E+00 0.793E+00 -.247E+04   -.107E+00 -.926E-01 -.291E+00   -.195E-01 -.516E-01 -.227E+00
   0.195E-04 -.416E-04 0.247E+04   0.166E-03 -.200E-04 -.247E+04   -.698E-18 0.144E-17 -.467E+00   -.464E-02 -.240E-02 -.174E+00
   0.781E+01 0.451E+01 0.825E+03   -.743E+01 -.429E+01 -.824E+03   -.458E+00 -.264E+00 -.599E+00   0.530E-01 0.305E-01 -.211E+00
   0.142E-04 0.334E+01 0.832E+03   0.148E-03 -.339E+01 -.831E+03   0.865E-09 0.130E-01 -.171E+00   0.379E-02 -.398E-01 -.166E+00
   -.781E+01 0.451E+01 0.825E+03   0.743E+01 -.429E+01 -.824E+03   0.458E+00 -.264E+00 -.599E+00   -.543E-01 0.320E-01 -.211E+00
   0.289E+01 -.167E+01 0.832E+03   -.293E+01 0.169E+01 -.831E+03   0.113E-01 -.650E-02 -.171E+00   -.323E-01 0.235E-01 -.166E+00
   -.289E+01 -.167E+01 0.832E+03   0.293E+01 0.169E+01 -.831E+03   -.113E-01 -.650E-02 -.171E+00   0.401E-01 0.230E-01 -.166E+00
   0.311E-04 0.558E+01 0.830E+03   0.236E-03 -.569E+01 -.829E+03   -.342E-09 -.514E-02 -.496E+00   -.239E-02 0.386E-01 -.199E+00
   -.214E-04 -.902E+01 0.825E+03   0.163E-03 0.858E+01 -.824E+03   0.352E-07 0.529E+00 -.599E+00   0.297E-03 -.630E-01 -.211E+00
   0.484E+01 -.279E+01 0.830E+03   -.492E+01 0.284E+01 -.829E+03   -.445E-02 0.257E-02 -.496E+00   0.325E-01 -.210E-01 -.199E+00
   -.484E+01 -.279E+01 0.830E+03   0.492E+01 0.284E+01 -.829E+03   0.445E-02 0.257E-02 -.496E+00   -.326E-01 -.191E-01 -.199E+00
   -.434E-04 0.330E+01 -.855E+03   0.550E-04 -.348E+01 0.854E+03   -.178E-08 -.268E-01 0.627E+00   -.259E-03 0.117E+00 0.128E+00
   0.399E+01 0.230E+01 -.808E+03   -.276E+01 -.159E+01 0.809E+03   -.127E+01 -.730E+00 -.133E+01   0.712E-01 0.410E-01 0.166E+00
   -.399E+01 0.230E+01 -.808E+03   0.276E+01 -.159E+01 0.809E+03   0.127E+01 -.730E+00 -.133E+01   -.704E-01 0.430E-01 0.165E+00
   -.760E+01 0.439E+01 -.831E+03   0.722E+01 -.417E+01 0.831E+03   0.513E+00 -.296E+00 0.703E+00   -.620E-01 0.315E-01 0.102E+00
   -.101E-04 -.461E+01 -.808E+03   0.139E-03 0.318E+01 0.809E+03   0.973E-07 0.146E+01 -.133E+01   0.181E-02 -.825E-01 0.165E+00
   0.760E+01 0.439E+01 -.831E+03   -.722E+01 -.417E+01 0.831E+03   -.513E+00 -.296E+00 0.703E+00   0.551E-01 0.318E-01 0.101E+00
   -.286E+01 -.165E+01 -.855E+03   0.301E+01 0.174E+01 0.854E+03   0.232E-01 0.134E-01 0.627E+00   -.993E-01 -.574E-01 0.127E+00
   0.286E+01 -.165E+01 -.855E+03   -.301E+01 0.174E+01 0.854E+03   -.232E-01 0.134E-01 0.627E+00   0.101E+00 -.585E-01 0.128E+00
   0.113E-04 -.877E+01 -.831E+03   0.197E-03 0.833E+01 0.831E+03   0.394E-07 0.592E+00 0.703E+00   -.428E-02 -.694E-01 0.102E+00
   -.141E-04 -.129E-04 -.242E+04   0.305E-04 0.339E-04 0.242E+04   0.376E-17 0.214E-17 0.359E+00   0.130E-02 0.732E-03 0.317E+00
   0.335E+02 0.540E+02 -.241E+04   -.327E+02 -.531E+02 0.241E+04   -.110E+01 -.147E+01 -.876E-01   0.123E+00 0.102E+00 0.287E+00
   -.335E+02 0.540E+02 -.241E+04   0.327E+02 -.531E+02 0.241E+04   0.110E+01 -.147E+01 -.876E-01   -.129E+00 0.104E+00 0.287E+00
   0.636E+02 0.199E+01 -.241E+04   -.624E+02 -.180E+01 0.241E+04   -.183E+01 -.221E+00 -.876E-01   0.150E+00 0.552E-01 0.287E+00
   -.636E+02 0.199E+01 -.241E+04   0.624E+02 -.180E+01 0.241E+04   0.183E+01 -.221E+00 -.876E-01   -.158E+00 0.563E-01 0.287E+00
   0.301E+02 -.560E+02 -.241E+04   -.296E+02 0.549E+02 0.241E+04   -.721E+00 0.169E+01 -.876E-01   0.260E-01 -.164E+00 0.287E+00
   -.301E+02 -.560E+02 -.241E+04   0.296E+02 0.549E+02 0.241E+04   0.721E+00 0.169E+01 -.876E-01   -.301E-01 -.165E+00 0.287E+00
   0.349E-04 -.289E-04 -.242E+04   0.139E-03 -.497E-04 0.242E+04   0.217E-17 0.691E-18 0.633E+00   -.358E-02 -.177E-02 0.250E+00
   -.688E-05 0.372E-06 -.111E+04   0.638E-04 0.589E-05 0.111E+04   0.390E-17 0.254E-17 0.865E+00   0.140E-02 0.828E-03 0.207E+00
   0.199E-03 -.938E-04 -.151E+04   0.236E-04 0.151E-05 0.149E+04   0.330E-17 0.161E-18 0.163E+02   0.394E-02 0.240E-02 -.746E-01
   0.789E-05 -.131E-04 -.312E+03   0.124E-05 0.112E-06 0.320E+03   -.777E-20 -.103E-18 -.855E+01   0.215E-03 0.131E-03 -.199E-01
   -.602E-03 -.884E-03 -.171E+01   -.263E-13 -.328E-13 -.188E-11   -.657E-15 0.328E-17 0.219E+01   -.132E-01 -.692E-02 -.124E+00

 POSITION                                       TOTAL-FORCE (eV/Angst)
      0.00000      0.00000      5.28038        -0.000000      0.000000     -0.164088
      2.93784      0.00000      5.28038        -0.006373     -0.006154     -0.051208
      5.87568      0.00000      5.28038         0.006373     -0.006154     -0.051208
      1.46892      2.54424      5.28038        -0.008516     -0.002443     -0.051208
      4.40676      2.54424      5.28038        -0.000000      0.000000     -0.055271
      7.34459      2.54424      5.28038         0.008516     -0.002443     -0.051208
      2.93784      5.08848      5.28038        -0.002142      0.008596     -0.051208
      5.87568      5.08848      5.28038         0.002142      0.008596     -0.051208
      8.81351      5.08848      5.28038        -0.000000      0.000000     -0.077876
      1.46892      0.84808      7.67911        -0.024907     -0.014380      0.144966
      4.40676      0.84808      7.67911        -0.000000     -0.074468     -0.009603
      7.34459      0.84808      7.67911         0.024907     -0.014380      0.144966
      2.93784      3.39232      7.67911        -0.064491      0.037234     -0.009603
      5.87568      3.39232      7.67911         0.064491      0.037234     -0.009603
      8.81351      3.39232      7.67911        -0.000000     -0.069485      0.124551
      4.40676      5.93656      7.67911         0.000000      0.028760      0.144966
      7.34459      5.93656      7.67911        -0.060176      0.034743      0.124551
     10.28243      5.93656      7.67911         0.060176      0.034743      0.124551
      8.81351      1.70807     10.10081        -0.000000     -0.084621     -0.075443
      2.93151      1.69251     10.04012         0.038054      0.021970     -0.020638
      5.88200      1.69251     10.04012        -0.038054      0.021970     -0.020638
     10.26425      4.25090     10.06644         0.072034     -0.041589     -0.007271
      4.40676      4.24770     10.04012        -0.000000     -0.043941     -0.020638
      7.36277      4.25090     10.06644        -0.072035     -0.041589     -0.007271
     11.74104      6.77869     10.10081         0.073284      0.042311     -0.075443
      5.88599      6.77869     10.10081        -0.073284      0.042311     -0.075443
      8.81351      6.76365     10.06644         0.000000      0.083178     -0.007271
      0.00000      0.00000     12.49922        -0.000000      0.000000     -0.002236
      2.99894      0.10048     12.55446        -0.224380     -0.440904     -0.278624
      5.81457      0.10048     12.55446         0.224380     -0.440904     -0.278624
      1.58649      2.54692     12.55446        -0.494025      0.026133     -0.278624
      7.22703      2.54692     12.55446         0.494025      0.026133     -0.278624
      2.99430      4.98533     12.55446        -0.269644      0.414771     -0.278624
      5.81921      4.98533     12.55446         0.269644      0.414771     -0.278624
      8.81351      5.08848     12.49869        -0.000000      0.000000      0.124079
      4.40676      2.54424     12.18560        -0.000000      0.000000      1.717958
      4.40676      2.54424     14.05013        -0.000000      0.000000     -0.042961
      4.40676      2.54424     15.01564        -0.000000      0.000000      0.009702
    total drift:                               -0.013770     -0.007803      0.359547

  FREE ENERGIE OF THE ION-ELECTRON SYSTEM (eV)
  free  energy   TOTEN  =      -128.33372641 eV

  energy  without entropy=     -128.33372641  energy(sigma->0) =     -128.33372641

 stress matrix after NEB project (eV)
    -19.99469     -0.00000      0.00000
     -0.00000    -19.99469      0.00000
      0.00000      0.00000      1.87119
  FORCES: max atom, RMS     0.042961    0.007145
  FORCE total and by dimension    0.044043    0.042961
  Stress total and by dimension   28.338608   19.994692
|           W    W    AA    RRRRR   N    N  II  N    N   GGGG   !!!           |
|           W    W   A  A   R    R  NN   N  II  NN   N  G    G  !!!           |
|           W    W  A    A  R    R  N N  N  II  N N  N  G       !!!           |
|           W WW W  AAAAAA  RRRRR   N  N N  II  N  N N  G  GGG   !            |
|           WW  WW  A    A  R   R   N   NN  II  N   NN  G    G                |
|           W    W  A    A  R    R  N    N  II  N    N   GGGG   !!!           |
|     Tetrahedron method does not include variations of the Fermi             |
|     occupations, so forces and stress will be inaccurate. We suggest        |
|     using a different smearing scheme ISMEAR = 1 or 2 for metals in         |
|     relaxations.                                                            |

 total charge

# of ion       s       p       d       tot
    1        0.549   0.237   8.766   9.553
    2        0.543   0.242   8.764   9.549
    3        0.543   0.242   8.764   9.549
    4        0.543   0.242   8.764   9.549
    5        0.546   0.241   8.762   9.549
    6        0.543   0.242   8.764   9.549
    7        0.543   0.242   8.764   9.549
    8        0.543   0.242   8.764   9.549
    9        0.542   0.241   8.766   9.550
   10        0.525   0.306   8.769   9.599
   11        0.518   0.309   8.778   9.606
   12        0.525   0.306   8.769   9.599
   13        0.518   0.309   8.778   9.606
   14        0.518   0.309   8.778   9.606
   15        0.514   0.308   8.774   9.596
   16        0.525   0.306   8.769   9.599
   17        0.514   0.308   8.774   9.596
   18        0.514   0.308   8.774   9.596
   19        0.518   0.293   8.775   9.586
   20        0.579   0.351   8.719   9.648
   21        0.579   0.351   8.719   9.648
   22        0.507   0.307   8.777   9.591
   23        0.579   0.351   8.719   9.648
   24        0.507   0.307   8.777   9.591
   25        0.518   0.293   8.775   9.586
   26        0.518   0.293   8.775   9.586
   27        0.507   0.307   8.777   9.591
   28        0.545   0.227   8.751   9.524
   29        0.575   0.253   8.743   9.571
   30        0.575   0.253   8.743   9.571
   31        0.575   0.253   8.743   9.571
   32        0.575   0.253   8.743   9.571
   33        0.575   0.253   8.743   9.571
   34        0.575   0.253   8.743   9.571
   35        0.535   0.227   8.758   9.520
   36        0.606   0.616   3.876   5.097
   37        1.553   3.563   0.000   5.117
   38        0.597   0.127   0.000   0.723
tot         21.664  14.069 310.495 346.228

 BZINTS: Fermi energy:    1.009897;  398.000000 electrons
         Band energy:-0.115134E+04;  BLOECHL correction:   -0.032109