 vasp.6.2.0 18Jan21 (build Jun 12 2021 23:27:24) complex

 executed on             LinuxIFC date 2022.05.30  16:55:08

 INCAR:
   ISMEAR = -5
   SIGMA = 0.1
   ISPIN = 1
   EDIFF = 1.d-5
   EDIFFG = -0.01
   NSW = 0
   NELM = 150
   ENCUT = 500
   ISIF = 2
   IBRION = 2
   LREAL = Auto
   ALGO = Fast
   ICHARG = 11
   LORBIT = 10
   LCHARG = .F.
   LWAVE = .F.

 POTCAR:    PAW_PBE Ag 02Apr2005
 POTCAR:    PAW_PBE Cr 06Sep2000
 POTCAR:    PAW_PBE O 08Apr2002
|           W    W    AA    RRRRR   N    N  II  N    N   GGGG   !!!           |
|           W    W   A  A   R    R  NN   N  II  NN   N  G    G  !!!           |
|           W    W  A    A  R    R  N N  N  II  N N  N  G       !!!           |
|           W WW W  AAAAAA  RRRRR   N  N N  II  N  N N  G  GGG   !            |
|           WW  WW  A    A  R   R   N   NN  II  N   NN  G    G                |
|           W    W  A    A  R    R  N    N  II  N    N   GGGG   !!!           |
|     For optimal performance we recommend to set                             |
|       NCORE = 2 up to number-of-cores-per-socket                            |
|     This setting can greatly improve the performance of VASP for DFT.       |
|     The default, NCORE=1 might be grossly inefficient on modern             |
|     multi-core architectures or massively parallel machines. Do your        |
|     Unfortunately you need to use the default for GW and RPA                |
|     calculations (for HF NCORE is supported but not extensively tested      |
|     yet).                                                                   |

 POTCAR:    PAW_PBE Ag 02Apr2005
   VRHFIN =Ag : s1 d10

   TITEL  = PAW_PBE Ag 02Apr2005
   POMASS =  107.868; ZVAL   =   11.000    mass and valenz
   ENMAX  =  249.844; ENMIN  =  187.383 eV

 POTCAR:    PAW_PBE Cr 06Sep2000
   VRHFIN =Cr : d5 s1

   TITEL  = PAW_PBE Cr 06Sep2000
   POMASS =   51.996; ZVAL   =    6.000    mass and valenz
   ENMAX  =  227.080; ENMIN  =  170.310 eV

 POTCAR:    PAW_PBE O 08Apr2002
   VRHFIN =O: s2p4

   TITEL  = PAW_PBE O 08Apr2002
   POMASS =   16.000; ZVAL   =    6.000    mass and valenz
   ENMAX  =  400.000; ENMIN  =  300.000 eV

 Optimization of the real space projectors (new method)

 maximal supplied QI-value         = 15.12
 optimisation between [QCUT,QGAM] = [ 11.34, 22.83] = [ 36.00,145.93] Ry
 Optimized for a Real-space Cutoff    1.43 Angstroem

   l    n(q)    QCUT    max X(q) W(low)/X(q) W(high)/X(q)  e(spline)
   2      9    11.338    53.897    0.16E-03    0.20E-03    0.28E-06
   2      9    11.338    52.416    0.16E-03    0.20E-03    0.29E-06
   0     10    11.338   122.045    0.31E-04    0.76E-04    0.15E-06
   0     10    11.338    73.629    0.30E-04    0.72E-04    0.15E-06
   1      9    11.338    15.255    0.20E-03    0.19E-04    0.17E-06
   1      9    11.338     9.562    0.16E-03    0.15E-04    0.14E-06
 Optimization of the real space projectors (new method)

[...]

   l    n(q)    QCUT    max X(q) W(low)/X(q) W(high)/X(q)  e(spline)
   2      9    11.338    94.395    0.18E-03    0.10E-02    0.64E-06
   2      9    11.338    88.078    0.18E-03    0.10E-02    0.65E-06
   0     10    11.338    50.173    0.13E-03    0.16E-03    0.96E-07
   0     10    11.338    24.906    0.12E-03    0.14E-03    0.88E-07
   1      9    11.338    12.133    0.13E-03    0.15E-03    0.24E-06
   1      9    11.338     7.290    0.10E-03    0.10E-03    0.18E-06
 Optimization of the real space projectors (new method)

 maximal supplied QI-value         = 24.76
 optimisation between [QCUT,QGAM] = [ 11.39, 22.77] = [ 36.31,145.25] Ry
 Optimized for a Real-space Cutoff    1.00 Angstroem

   l    n(q)    QCUT    max X(q) W(low)/X(q) W(high)/X(q)  e(spline)
   0      7    11.387    20.381    0.39E-03    0.13E-02    0.15E-06
   0      7    11.387    15.268    0.42E-03    0.14E-02    0.17E-06
   1      6    11.387     5.964    0.41E-03    0.11E-02    0.17E-06
   1      6    11.387     5.382    0.39E-03    0.87E-03    0.15E-06
  PAW_PBE Ag 02Apr2005                  :
  PAW_PBE Cr 06Sep2000                  :
  PAW_PBE O 08Apr2002                   :

 POSCAR: Ag-Cr-O2
  positions in direct lattice
  velocities in cartesian coordinates
 exchange correlation table for  LEXCH =        8
   RHO(1)=    0.500       N(1)  =     2000
   RHO(2)=  100.500       N(2)  =     4000

 VTST: version 3.2, (02/03/18)

 CHAIN: initializing optimizer

 OPT: Using VASP Conjugate-Gradient optimizer
 CHAIN: Read ICHAIN            0

 POSCAR: Ag-Cr-O2
  positions in direct lattice
  velocities in cartesian coordinates

 ion  position               nearest neighbor table
   1  0.000  0.000  0.217-   2 2.93   8 2.93   7 2.93   6 2.93   4 2.93  12 2.93  16 2.93  10 2.93
                             3 2.93
   2  0.333  0.000  0.217-   1 2.93   8 2.93   9 2.93   3 2.93   4 2.93   5 2.93  10 2.93  17 2.93
                            11 2.93
   3  0.667  0.000  0.217-   9 2.93   2 2.93   5 2.93  11 2.93   7 2.93  18 2.93   1 2.93   6 2.93
                            12 2.93
   4  0.000  0.333  0.217-   5 2.93   6 2.93   2 2.93   1 2.93   7 2.93  13 2.93  15 2.93   9 2.93
                            10 2.93
   5  0.333  0.333  0.217-   4 2.93   3 2.93   7 2.93   2 2.93   8 2.93  14 2.93  13 2.93  11 2.93
                             6 2.93
   6  0.667  0.333  0.217-   4 2.93   9 2.93   1 2.93  15 2.93   8 2.93  12 2.93   3 2.93   5 2.93
                            14 2.93
   7  0.000  0.667  0.217-   8 2.93   1 2.93   5 2.93   3 2.93   4 2.93  16 2.93  18 2.93  13 2.93
                             9 2.93
   8  0.333  0.667  0.217-   7 2.93   1 2.93   2 2.93   9 2.93   5 2.93  16 2.93   6 2.93  17 2.93
                            14 2.93
   9  0.667  0.667  0.217-   3 2.93   2 2.93   8 2.93   6 2.93  17 2.93   4 2.93  15 2.93   7 2.93
                            18 2.93
  10  0.111  0.111  0.315-  20 2.91  19 2.92  26 2.92  12 2.93  16 2.93  15 2.93  17 2.93  13 2.93
                            11 2.93   2 2.93   1 2.93   4 2.93
  11  0.444  0.111  0.315-  21 2.90  20 2.90  27 2.92  14 2.93  17 2.93  18 2.93   3 2.93  12 2.93
                            13 2.93  10 2.93   5 2.93   2 2.93
  12  0.778  0.111  0.315-  21 2.91  25 2.92  19 2.92  10 2.93  16 2.93  18 2.93  15 2.93  11 2.93
                             1 2.93  14 2.93   6 2.93   3 2.93
  13  0.111  0.444  0.315-  20 2.90  23 2.90  22 2.92  15 2.93  14 2.93  18 2.93  10 2.93  11 2.93
                            16 2.93   4 2.93   5 2.93   7 2.93
  14  0.444  0.444  0.315-  23 2.90  21 2.90  24 2.92  13 2.93  11 2.93  16 2.93   5 2.93  12 2.93
                            17 2.93   8 2.93  15 2.93   6 2.93
  15  0.778  0.444  0.315-  24 2.92  22 2.92  19 2.92  13 2.93  10 2.93  12 2.93  17 2.93  18 2.93
                             4 2.93   6 2.93   9 2.93  14 2.93
  16  0.111  0.778  0.315-  23 2.91  26 2.92  25 2.92  18 2.93  12 2.93  10 2.93  14 2.93  17 2.93
                            13 2.93   7 2.93   8 2.93   1 2.93
  17  0.444  0.778  0.315-  27 2.92  24 2.92  26 2.92  11 2.93  10 2.93   9 2.93  18 2.93  15 2.93
                            16 2.93   2 2.93  14 2.93   8 2.93
  18  0.778  0.778  0.315-  22 2.92  27 2.92  25 2.92  16 2.93  12 2.93  13 2.93  11 2.93  17 2.93
                            15 2.93   7 2.93   3 2.93   9 2.93
  19  0.889  0.222  0.413-  28 2.91  15 2.92  10 2.92  12 2.92  24 2.93  22 2.93  26 2.93  25 2.93
                            20 2.94  21 2.94  32 2.96  31 2.96
  20  0.223  0.223  0.412-  36 2.73  13 2.90  11 2.90  21 2.91  23 2.91  10 2.91  31 2.91  29 2.91
                            27 2.93  22 2.93  19 2.94  26 2.94
  21  0.554  0.223  0.412-  36 2.73  11 2.90  14 2.90  20 2.91  23 2.91  12 2.91  30 2.91  32 2.91
                            27 2.93  24 2.93  25 2.94  19 2.94
  22  0.888  0.556  0.413-  35 2.91  18 2.92  15 2.92  13 2.92  24 2.92  27 2.92  25 2.93  19 2.93
                            33 2.93  31 2.93  23 2.93  20 2.93
  23  0.223  0.554  0.412-  36 2.73  14 2.90  13 2.90  21 2.91  20 2.91  16 2.91  34 2.91  33 2.91
                            22 2.93  24 2.93  26 2.94  25 2.94
  24  0.556  0.556  0.413-  35 2.91  15 2.92  17 2.92  14 2.92  27 2.92  22 2.92  19 2.93  26 2.93
                            32 2.93  34 2.93  23 2.93  21 2.93
  25  0.889  0.889  0.413-  28 2.91  18 2.92  16 2.92  12 2.92  22 2.93  27 2.93  26 2.93  19 2.93
                            23 2.94  21 2.94  33 2.96  30 2.96
  26  0.222  0.889  0.413-  28 2.91  17 2.92  16 2.92  10 2.92  27 2.93  24 2.93  25 2.93  19 2.93
                            23 2.94  20 2.94  34 2.96  29 2.96
  27  0.556  0.888  0.413-  35 2.91  17 2.92  18 2.92  11 2.92  24 2.92  22 2.92  26 2.93  25 2.93
                            29 2.93  30 2.93  20 2.93  21 2.93
  28  0.000  0.000  0.510-  26 2.91  25 2.91  19 2.91  29 2.96  34 2.96  33 2.96  32 2.96  31 2.96
                            30 2.96
  29  0.333  0.007  0.511-  30 2.87  31 2.87  36 2.88  20 2.91  27 2.93  26 2.96  35 2.96  28 2.96
                            34 3.06
  30  0.659  0.007  0.511-  29 2.87  32 2.87  36 2.88  21 2.91  27 2.93  25 2.96  35 2.96  28 2.96
                            33 3.06
  31  0.007  0.333  0.511-  37 2.00  33 2.87  29 2.87  36 2.88  20 2.91  22 2.93  19 2.96  35 2.96
                            28 2.96  32 3.06
  32  0.659  0.333  0.511-  38 2.00  34 2.87  30 2.87  36 2.88  21 2.91  24 2.93  19 2.96  35 2.96
                            28 2.96  31 3.06
  33  0.007  0.659  0.511-  37 2.39  31 2.87  34 2.87  36 2.88  23 2.91  22 2.93  25 2.96  35 2.96
                            28 2.96  30 3.06
  34  0.333  0.659  0.511-  38 2.39  32 2.87  33 2.87  36 2.88  23 2.91  24 2.93  26 2.96  35 2.96
                            28 2.96  29 3.06
  35  0.667  0.667  0.510-  24 2.91  27 2.91  22 2.91  30 2.96  32 2.96  29 2.96  34 2.96  31 2.96
                            33 2.96
  36  0.333  0.333  0.500-  37 1.72  38 1.72  21 2.73  20 2.73  23 2.73  31 2.88  33 2.88  30 2.88
                            29 2.88  34 2.88  32 2.88
  37  0.182  0.375  0.551-  36 1.72  31 2.00  33 2.39
  38  0.443  0.375  0.551-  36 1.72  32 2.00  34 2.39

  LATTYP: Found a hexagonal cell.
 ALAT       =     8.7913665772
 C/A-ratio  =     2.7711238095

  Lattice vectors:

 A1 = (  -4.3956832886,  -7.6135467898,   0.0000000000)
 A2 = (   8.7913665771,   0.0000000000,   0.0000000000)
 A3 = (   0.0000000000,   0.0000000000,  24.3619652401)

Analysis of symmetry for initial positions (statically):
 Subroutine PRICEL returns:
 Original cell was already a primitive cell.

 Routine SETGRP: Setting up the symmetry group for a
 hexagonal supercell.

 Subroutine GETGRP returns: Found  2 space group operations
 (whereof  2 operations were pure point group operations)
 out of a pool of 24 trial point group operations.

The static configuration has the point symmetry C_1h.

Analysis of symmetry for dynamics (positions and initial velocities):
 Subroutine PRICEL returns:
 Original cell was already a primitive cell.

[...]

The dynamic configuration has the point symmetry C_1h.

Analysis of constrained symmetry for selective dynamics:
 Subroutine PRICEL returns:
 Original cell was already a primitive cell.

[...]
     33      -5.0805      2.00000
     34      -5.0570      2.00000
     35      -5.0441      2.00000
     36      -5.0348      2.00000
     37      -5.0279      2.00000
     38      -5.0142      2.00000
     39      -4.9992      2.00000
     40      -4.9674      2.00000
     41      -4.9499      2.00000
     42      -4.8898      2.00000
     43      -4.8768      2.00000
     44      -4.8556      2.00000
     45      -4.8261      2.00000
     46      -4.8148      2.00000
     47      -4.8004      2.00000
     48      -4.7678      2.00000
     49      -4.7411      2.00000
     50      -4.6948      2.00000
     51      -4.6937      2.00000
     52      -4.6770      2.00000
     53      -4.6676      2.00000
     54      -4.6642      2.00000
     55      -4.6489      2.00000
     56      -4.6430      2.00000
     57      -4.6347      2.00000
     58      -4.5883      2.00000
     59      -4.5715      2.00000
     60      -4.5545      2.00000
[...]
    238       5.5293      0.00000
    239       5.6389      0.00000
    240       5.8649      0.00000
    241       5.9021      0.00000
    242       5.9285      0.00000
    243       6.0105      0.00000
    244       6.1870      0.00000
    245       6.4630      0.00000
    246       6.4773      0.00000
    247       6.6274      0.00000
    248       6.6806      0.00000
    249       6.7386      0.00000
    250       6.8091      0.00000
    251       6.8387      0.00000
    252       6.9665      0.00000

 soft charge-density along one line, spin component           1
         0         1         2         3         4         5         6         7         8         9
 total charge-density along one line

------------------------ aborting loop because EDIFF is reached ----------------------------------------

 total charge

# of ion       s       p       d       tot
    1        0.420   0.202   9.178   9.799
    2        0.416   0.205   9.177   9.799
    3        0.416   0.205   9.177   9.799
    4        0.417   0.204   9.177   9.798
    5        0.415   0.205   9.178   9.797
    6        0.417   0.204   9.177   9.798
    7        0.418   0.203   9.178   9.799
    8        0.418   0.203   9.178   9.799
    9        0.415   0.204   9.178   9.797
   10        0.410   0.269   9.163   9.842
   11        0.409   0.269   9.167   9.845
   12        0.410   0.269   9.163   9.842
   13        0.404   0.272   9.167   9.842
   14        0.404   0.272   9.167   9.842
   15        0.407   0.266   9.168   9.841
   16        0.405   0.272   9.163   9.839
   17        0.403   0.269   9.166   9.839
   18        0.403   0.269   9.166   9.839
   19        0.402   0.279   9.152   9.834
   20        0.440   0.294   9.146   9.880
   21        0.440   0.294   9.146   9.880
   22        0.403   0.272   9.166   9.841
   23        0.424   0.312   9.137   9.873
   24        0.403   0.272   9.166   9.841
   25        0.401   0.269   9.165   9.835
   26        0.401   0.269   9.165   9.835
   27        0.395   0.272   9.170   9.837
   28        0.415   0.197   9.184   9.795
   29        0.404   0.209   9.184   9.797
   30        0.404   0.209   9.184   9.797
   31        0.412   0.311   9.157   9.879
   32        0.412   0.311   9.157   9.879
   33        0.379   0.226   9.191   9.796
   34        0.379   0.226   9.191   9.796
   35        0.417   0.192   9.186   9.794
   36        0.534   0.733   4.454   5.721
   37        1.600   3.324   0.000   4.923
   38        1.600   3.324   0.000   4.923
tot         18.067  16.057 325.388 359.513

  FORCE on cell =-STRESS in cart. coord.  units (eV):
  Direction    XX          YY          ZZ          XY          YZ          ZX
  Alpha Z   697.33698   697.33698   697.33698
  Ewald  155737.26675155376.25107************     0.00011     4.39675     0.00010
  Hartree165663.77828165483.04881************     0.00003   -15.40767     0.00002
  E(xc)   -2114.82499 -2115.70423 -2121.29777    -0.00003    -0.09869     0.00001
  Local  ************************332499.09840     0.00087    14.29599    -0.00019
  n-local  -364.26319  -368.42305  -370.66514     2.08277     0.75130     0.05648
  augment  3256.39673  3262.67982  3268.99841    -0.00015    -1.00372     0.00001
  Kinetic  5070.00455  5082.82773  5102.43620     0.96108    -2.63351    -0.13155
  Fock        0.00000     0.00000     0.00000     0.00000     0.00000     0.00000
  Total       2.78887    -6.54597    -1.69730    -0.00000     0.30044     0.00000
  in kB       2.74021    -6.43175    -1.66768    -0.00000     0.29520     0.00000

 VOLUME and BASIS-vectors are now :
  energy-cutoff  :      500.00
  volume of cell :     1630.63
      direct lattice vectors                 reciprocal lattice vectors
     8.791366577  0.000000000  0.000000000     0.113747958 -0.065672414  0.000000000
     4.395683289  7.613546790  0.000000000     0.000000000  0.131344829  0.000000000
     0.000000000  0.000000000 24.361965240     0.000000000  0.000000000  0.041047592

  length of vectors
     8.791366577  8.791366577 24.361965240     0.131344829  0.131344829  0.041047592

 FORCES acting on ions
    electron-ion (+dipol)            ewald-force                    non-local-force                 convergence-correction
   0.461E-04 0.236E+00 0.271E+04   -.954E-04 -.344E-01 -.270E+04   -.939E-12 -.143E+00 -.189E+01   -.120E-03 -.416E-01 0.210E+00
   0.358E+00 0.444E+00 0.271E+04   -.306E+00 -.479E+00 -.270E+04   -.137E-01 0.676E-01 -.152E+01   -.401E-01 -.237E-01 0.232E+00
   -.358E+00 0.444E+00 0.271E+04   0.306E+00 -.479E+00 -.270E+04   0.137E-01 0.676E-01 -.152E+01   0.396E-01 -.219E-01 0.233E+00
   0.386E+00 0.145E+00 0.271E+04   -.542E+00 -.192E+00 -.270E+04   0.131E+00 0.650E-03 -.157E+01   0.164E-01 0.242E-01 0.214E+00
   -.766E-05 -.477E-01 0.271E+04   0.981E-04 -.151E+00 -.271E+04   0.581E-12 0.885E-01 -.155E+01   0.616E-02 0.985E-01 0.181E+00
   -.386E+00 0.145E+00 0.271E+04   0.542E+00 -.193E+00 -.270E+04   -.131E+00 0.650E-03 -.157E+01   -.178E-01 0.251E-01 0.215E+00
   0.193E+00 -.602E+00 0.271E+04   -.231E+00 0.673E+00 -.270E+04   0.244E-02 -.366E-01 -.170E+01   0.296E-01 -.271E-01 0.238E+00
   -.193E+00 -.602E+00 0.271E+04   0.231E+00 0.673E+00 -.270E+04   -.244E-02 -.366E-01 -.170E+01   -.280E-01 -.281E-01 0.238E+00
   0.363E-04 -.122E+00 0.271E+04   0.792E-04 0.181E+00 -.270E+04   -.248E-12 -.378E-01 -.175E+01   -.657E-02 -.178E-01 0.243E+00
   0.340E+01 0.288E+01 0.945E+03   -.312E+01 -.286E+01 -.946E+03   -.218E+00 -.826E-01 -.681E+00   -.719E-01 0.578E-01 0.862E+00
   -.303E-04 0.568E+01 0.950E+03   0.413E-04 -.576E+01 -.951E+03   -.149E-12 -.227E-01 -.292E+00   0.638E-02 0.496E-01 0.105E+01
   -.340E+01 0.288E+01 0.945E+03   0.312E+01 -.286E+01 -.946E+03   0.218E+00 -.826E-01 -.681E+00   0.705E-01 0.582E-01 0.861E+00
   0.406E+01 -.214E+01 0.953E+03   -.404E+01 0.212E+01 -.954E+03   -.204E-01 -.838E-02 -.327E+00   -.521E-02 0.518E-01 0.101E+01
   -.406E+01 -.214E+01 0.953E+03   0.404E+01 0.212E+01 -.954E+03   0.204E-01 -.838E-02 -.327E+00   0.152E-01 0.505E-01 0.100E+01
   0.162E-04 0.291E+00 0.947E+03   -.108E-03 -.371E+00 -.947E+03   0.256E-12 0.390E-01 -.704E+00   -.116E-02 0.188E-01 0.859E+00
   -.858E-05 -.531E+01 0.946E+03   0.208E-04 0.487E+01 -.946E+03   0.327E-11 0.498E+00 -.817E+00   -.455E-03 -.464E-01 0.797E+00
   0.116E+00 -.108E+01 0.945E+03   -.106E+00 0.137E+01 -.946E+03   -.317E-01 -.165E+00 -.534E+00   0.186E-01 -.114E+00 0.878E+00
   -.116E+00 -.108E+01 0.945E+03   0.106E+00 0.137E+01 -.946E+03   0.317E-01 -.165E+00 -.534E+00   -.181E-01 -.112E+00 0.879E+00
   0.405E-04 0.609E+01 -.840E+03   -.129E-03 -.608E+01 0.839E+03   -.621E-12 -.946E-01 0.638E-01   0.979E-03 0.180E+00 0.118E+01
   0.778E+01 0.175E+02 -.810E+03   -.796E+01 -.177E+02 0.808E+03   -.672E+00 -.409E+00 -.863E+00   0.762E+00 0.447E+00 0.221E+01
   -.778E+01 0.175E+02 -.810E+03   0.796E+01 -.177E+02 0.808E+03   0.672E+00 -.409E+00 -.863E+00   -.773E+00 0.445E+00 0.221E+01
   0.111E+02 -.105E+02 -.826E+03   -.111E+02 0.107E+02 0.824E+03   -.233E+00 -.576E-01 0.520E+00   0.184E+00 -.156E+00 0.124E+01
   -.532E-04 -.186E+02 -.803E+03   0.425E-04 0.183E+02 0.802E+03   0.809E-11 0.123E+01 -.820E+00   -.692E-02 -.916E+00 0.216E+01
   -.111E+02 -.105E+02 -.826E+03   0.111E+02 0.107E+02 0.824E+03   0.233E+00 -.576E-01 0.520E+00   -.171E+00 -.156E+00 0.124E+01
   0.175E+01 -.288E+01 -.847E+03   -.161E+01 0.287E+01 0.845E+03   -.670E-01 0.465E-01 0.581E+00   -.145E+00 -.658E-01 0.118E+01
   -.175E+01 -.288E+01 -.847E+03   0.161E+01 0.287E+01 0.845E+03   0.670E-01 0.465E-01 0.581E+00   0.144E+00 -.641E-01 0.118E+01
   0.198E-04 0.405E+01 -.842E+03   0.110E-03 -.453E+01 0.840E+03   0.183E-11 0.278E+00 0.854E+00   0.575E-02 0.273E+00 0.125E+01
   0.541E-04 0.668E+01 -.263E+04   -.116E-03 -.698E+01 0.262E+04   0.106E-11 0.161E+00 0.155E+01   0.992E-04 0.777E-01 0.444E+00
   0.127E+02 0.656E+02 -.262E+04   -.127E+02 -.678E+02 0.262E+04   -.728E+00 0.435E+00 0.234E+01   0.675E+00 0.121E+01 0.403E+00
   -.127E+02 0.656E+02 -.262E+04   0.127E+02 -.678E+02 0.262E+04   0.728E+00 0.435E+00 0.234E+01   -.675E+00 0.121E+01 0.402E+00
   0.170E+03 0.390E+02 -.254E+04   -.173E+03 -.394E+02 0.254E+04   -.123E+01 -.155E+00 0.302E+00   0.149E+01 0.846E-01 0.585E+00
   -.170E+03 0.390E+02 -.254E+04   0.173E+03 -.394E+02 0.254E+04   0.123E+01 -.155E+00 0.302E+00   -.149E+01 0.852E-01 0.586E+00
   0.367E+02 -.132E+03 -.258E+04   -.372E+02 0.135E+03 0.258E+04   -.298E+00 -.154E+01 0.265E+01   0.570E+00 -.132E+01 0.558E+00
   -.367E+02 -.132E+03 -.258E+04   0.372E+02 0.135E+03 0.258E+04   0.298E+00 -.154E+01 0.265E+01   -.569E+00 -.132E+01 0.559E+00
   0.170E-04 -.262E+02 -.263E+04   0.109E-03 0.264E+02 0.262E+04   -.530E-12 -.807E-01 0.186E+01   -.598E-02 -.587E-01 0.532E+00
   -.388E-04 0.621E+02 -.115E+04   0.576E-04 -.618E+02 0.115E+04   0.121E-11 0.184E+00 -.850E-01   0.109E-02 0.181E-01 0.535E+00
   0.211E+02 0.959E+01 -.176E+04   -.230E+02 -.660E+01 0.179E+04   0.666E+00 -.269E+01 -.263E+02   0.128E+01 -.325E+00 -.125E+01
   -.211E+02 0.959E+01 -.176E+04   0.230E+02 -.660E+01 0.179E+04   -.666E+00 -.269E+01 -.263E+02   -.128E+01 -.325E+00 -.125E+01
   0.640E-03 0.778E+01 0.317E+02   -.213E-13 -.746E-13 -.409E-11   -.466E-10 -.709E+01 -.578E+02   0.807E-02 -.669E+00 0.261E+02

 POSITION                                       TOTAL-FORCE (eV/Angst)
      0.00000      0.00000      5.28219         0.000000      0.016103     -0.032261
      2.93046      0.00000      5.28219        -0.001737      0.010093      0.021616
      5.86091      0.00000      5.28219         0.001737      0.010093      0.021616
      1.46523      2.53785      5.28219        -0.008165     -0.023012      0.003465
      4.39568      2.53785      5.28219        -0.000000     -0.012470      0.032096
      7.32614      2.53785      5.28219         0.008165     -0.023012      0.003465
      2.93046      5.07570      5.28219        -0.006061      0.006182      0.016675
      5.86091      5.07570      5.28219         0.006061      0.006182      0.016675
      8.79137      5.07570      5.28219         0.000000      0.003374     -0.004717
      1.46523      0.84595      7.67490        -0.008544      0.000772     -0.009210
      4.39568      0.84595      7.67490        -0.000000     -0.057721     -0.121286
      7.32614      0.84595      7.67490         0.008544      0.000772     -0.009210
      2.93046      3.38380      7.67490        -0.017427      0.022847     -0.074547
      5.86091      3.38380      7.67490         0.017427      0.022847     -0.074547
      8.79137      3.38380      7.67490        -0.000000     -0.023248     -0.042747
      4.39568      5.92165      7.67490         0.000000      0.007876     -0.000289
      7.32614      5.92165      7.67490        -0.003342      0.008573     -0.004777
     10.25659      5.92165      7.67490         0.003342      0.008573     -0.004777
      8.79137      1.69374     10.05841         0.000000      0.096419      0.225747
      2.93927      1.69699     10.03909        -0.091410     -0.121961     -0.363860
      5.85210      1.69699     10.03909         0.091410     -0.121961     -0.363860
     10.25385      4.23133     10.05420         0.031918     -0.013145     -0.044640
      4.39568      4.21957     10.03909         0.000000      0.019966     -0.046896
      7.32888      4.23133     10.05420        -0.031918     -0.013145     -0.044640
     11.72023      6.76668     10.05841        -0.073465     -0.024122      0.096576
      5.86251      6.76668     10.05841         0.073465     -0.024122      0.096576
      8.79137      6.76443     10.05420         0.000000      0.067065      0.029445
      0.00000      0.00000     12.42643        -0.000000     -0.056651     -0.025188
      2.96234      0.05459     12.44639        -0.088948     -0.485126     -0.187724
      5.82903      0.05459     12.44639         0.088948     -0.485126     -0.187724
      1.52844      2.53816     12.44639        -2.443125     -0.494877     -0.927040
      7.26292      2.53816     12.44639         2.443125     -0.494877     -0.927040
      2.96179      5.02079     12.44639        -0.200072      0.812017     -0.179571
      5.82958      5.02079     12.44639         0.200072      0.812017     -0.179571
      8.79137      5.07570     12.42906         0.000000      0.114143     -0.010197
      4.39568      2.53785     12.18689         0.000000      0.473492      3.389974
      3.24513      2.85538     13.42922         0.036264     -0.022417     -0.043802
      5.54624      2.85538     13.42922        -0.036264     -0.022417     -0.043802
    total drift:                                0.008712      0.018932      0.017389

  FREE ENERGIE OF THE ION-ELECTRON SYSTEM (eV)
  free  energy   TOTEN  =      -109.67360951 eV

  energy  without entropy=     -109.67360951  energy(sigma->0) =     -109.67360951

 stress matrix after NEB project (eV)
      2.78887     -0.00000      0.00000
     -0.00000     -6.54597      0.30044
      0.00000      0.30044     -1.69730
  FORCES: max atom, RMS     0.061125    0.014023
  FORCE total and by dimension    0.086444    0.043802
  Stress total and by dimension    7.327275    6.545975
|           W    W    AA    RRRRR   N    N  II  N    N   GGGG   !!!           |
|           W    W   A  A   R    R  NN   N  II  NN   N  G    G  !!!           |
|           W    W  A    A  R    R  N N  N  II  N N  N  G       !!!           |
|           W WW W  AAAAAA  RRRRR   N  N N  II  N  N N  G  GGG   !            |
|           WW  WW  A    A  R   R   N   NN  II  N   NN  G    G                |
|           W    W  A    A  R    R  N    N  II  N    N   GGGG   !!!           |
|     Tetrahedron method does not include variations of the Fermi             |
|     occupations, so forces and stress will be inaccurate. We suggest        |
|     using a different smearing scheme ISMEAR = 1 or 2 for metals in         |
|     relaxations.                                                            |

 total charge

# of ion       s       p       d       tot
    1        0.420   0.202   9.178   9.799
    2        0.416   0.205   9.177   9.799
    3        0.416   0.205   9.177   9.799
    4        0.417   0.204   9.177   9.798
    5        0.415   0.205   9.178   9.797
    6        0.417   0.204   9.177   9.798
    7        0.418   0.203   9.178   9.799
    8        0.418   0.203   9.178   9.799
    9        0.415   0.204   9.178   9.797
   10        0.410   0.269   9.163   9.842
   11        0.409   0.269   9.167   9.845
   12        0.410   0.269   9.163   9.842
   13        0.404   0.272   9.167   9.842
   14        0.404   0.272   9.167   9.842
   15        0.407   0.266   9.168   9.841
   16        0.405   0.272   9.163   9.839
   17        0.403   0.269   9.166   9.839
   18        0.403   0.269   9.166   9.839
   19        0.402   0.279   9.152   9.834
   20        0.440   0.294   9.146   9.880
   21        0.440   0.294   9.146   9.880
   22        0.403   0.272   9.166   9.841
   23        0.424   0.312   9.137   9.873
   24        0.403   0.272   9.166   9.841
   25        0.401   0.269   9.165   9.835
   26        0.401   0.269   9.165   9.835
   27        0.395   0.272   9.170   9.837
   28        0.415   0.197   9.184   9.795
   29        0.404   0.209   9.184   9.797
   30        0.404   0.209   9.184   9.797
   31        0.412   0.311   9.157   9.879
   32        0.412   0.311   9.157   9.879
   33        0.379   0.226   9.191   9.796
   34        0.379   0.226   9.191   9.796
   35        0.417   0.192   9.186   9.794
   36        0.534   0.733   4.454   5.721
   37        1.600   3.324   0.000   4.923
   38        1.600   3.324   0.000   4.923
tot         18.067  16.057 325.388 359.513

 BZINTS: Fermi energy:    0.344493;  403.000000 electrons
         Band energy:-0.158472E+04;  BLOECHL correction:   -0.023865