 vasp.6.2.0 18Jan21 (build Jun 12 2021 23:27:24) complex

 executed on             LinuxIFC date 2022.05.26  19:54:27

 INCAR:
   ISMEAR = -5
   SIGMA = 0.1
   ISPIN = 1
   EDIFF = 1.d-5
   EDIFFG = -0.01
   NSW = 0
   NELM = 150
   ENCUT = 500
   ISIF = 2
   IBRION = 2
   LREAL = Auto
   ALGO = Fast
   ICHARG = 11
   LORBIT = 10
   LCHARG = .F.
   LWAVE = .F.

 POTCAR:    PAW_PBE Ag 02Apr2005
 POTCAR:    PAW_PBE Os 17Jan2003
 POTCAR:    PAW_PBE O 08Apr2002
|           W    W    AA    RRRRR   N    N  II  N    N   GGGG   !!!           |
|           W    W   A  A   R    R  NN   N  II  NN   N  G    G  !!!           |
|           W    W  A    A  R    R  N N  N  II  N N  N  G       !!!           |
|           W WW W  AAAAAA  RRRRR   N  N N  II  N  N N  G  GGG   !            |
|           WW  WW  A    A  R   R   N   NN  II  N   NN  G    G                |
|           W    W  A    A  R    R  N    N  II  N    N   GGGG   !!!           |
|     For optimal performance we recommend to set                             |
|       NCORE = 2 up to number-of-cores-per-socket                            |
|     This setting can greatly improve the performance of VASP for DFT.       |
|     The default, NCORE=1 might be grossly inefficient on modern             |
|     multi-core architectures or massively parallel machines. Do your        |
|     Unfortunately you need to use the default for GW and RPA                |
|     calculations (for HF NCORE is supported but not extensively tested      |
|     yet).                                                                   |

 POTCAR:    PAW_PBE Ag 02Apr2005
   VRHFIN =Ag : s1 d10

   TITEL  = PAW_PBE Ag 02Apr2005
   POMASS =  107.868; ZVAL   =   11.000    mass and valenz
   ENMAX  =  249.844; ENMIN  =  187.383 eV

 POTCAR:    PAW_PBE Os 17Jan2003
   VRHFIN =Os: 6s5d

   TITEL  = PAW_PBE Os 17Jan2003
   POMASS =  190.200; ZVAL   =    8.000    mass and valenz
   ENMAX  =  228.022; ENMIN  =  171.017 eV

 POTCAR:    PAW_PBE O 08Apr2002
   VRHFIN =O: s2p4

   TITEL  = PAW_PBE O 08Apr2002
   POMASS =   16.000; ZVAL   =    6.000    mass and valenz
   ENMAX  =  400.000; ENMIN  =  300.000 eV

 Optimization of the real space projectors (new method)

 maximal supplied QI-value         = 15.12
 optimisation between [QCUT,QGAM] = [ 11.34, 22.83] = [ 36.00,145.93] Ry
 Optimized for a Real-space Cutoff    1.43 Angstroem

   l    n(q)    QCUT    max X(q) W(low)/X(q) W(high)/X(q)  e(spline)
   2      9    11.338    53.897    0.16E-03    0.20E-03    0.28E-06
   2      9    11.338    52.416    0.16E-03    0.20E-03    0.29E-06
   0     10    11.338   122.045    0.31E-04    0.76E-04    0.15E-06
   0     10    11.338    73.629    0.30E-04    0.72E-04    0.15E-06
   1      9    11.338    15.255    0.20E-03    0.19E-04    0.17E-06
   1      9    11.338     9.562    0.16E-03    0.15E-04    0.14E-06
 Optimization of the real space projectors (new method)

[...]

   l    n(q)    QCUT    max X(q) W(low)/X(q) W(high)/X(q)  e(spline)
   2     10    11.327   152.873    0.32E-03    0.72E-03    0.11E-05
   2     10    11.327   151.010    0.32E-03    0.72E-03    0.11E-05
   0     11    11.327    72.114    0.43E-04    0.61E-04    0.13E-06
   0     11    11.327    44.596    0.40E-04    0.57E-04    0.12E-06
   1     10    11.327    13.742    0.16E-03    0.10E-03    0.19E-06
   1     10    11.327     8.461    0.12E-03    0.78E-04    0.15E-06
 Optimization of the real space projectors (new method)

 maximal supplied QI-value         = 24.76
 optimisation between [QCUT,QGAM] = [ 11.39, 22.77] = [ 36.31,145.25] Ry
 Optimized for a Real-space Cutoff    1.00 Angstroem

   l    n(q)    QCUT    max X(q) W(low)/X(q) W(high)/X(q)  e(spline)
   0      7    11.387    20.381    0.39E-03    0.13E-02    0.15E-06
   0      7    11.387    15.268    0.42E-03    0.14E-02    0.17E-06
   1      6    11.387     5.964    0.41E-03    0.11E-02    0.17E-06
   1      6    11.387     5.382    0.39E-03    0.87E-03    0.15E-06
  PAW_PBE Ag 02Apr2005                  :
  PAW_PBE Os 17Jan2003                  :
  PAW_PBE O 08Apr2002                   :

 POSCAR: Ag-Os-O
  positions in direct lattice
  velocities in cartesian coordinates
 exchange correlation table for  LEXCH =        8
   RHO(1)=    0.500       N(1)  =     2000
   RHO(2)=  100.500       N(2)  =     4000

 VTST: version 3.2, (02/03/18)

 CHAIN: initializing optimizer

 OPT: Using VASP Conjugate-Gradient optimizer
 CHAIN: Read ICHAIN            0

 POSCAR: Ag-Os-O
  positions in direct lattice
  velocities in cartesian coordinates

 ion  position               nearest neighbor table
   1  0.000  0.000  0.238-   2 2.93   8 2.93   7 2.93   6 2.93   4 2.93  12 2.93  16 2.93  10 2.93
                             3 2.93
   2  0.333  0.000  0.238-   1 2.93   8 2.93   9 2.93   3 2.93   4 2.93   5 2.93  10 2.93  17 2.93
                            11 2.93
   3  0.667  0.000  0.238-   9 2.93   2 2.93   5 2.93  11 2.93   7 2.93  18 2.93   1 2.93   6 2.93
                            12 2.93
   4  0.000  0.333  0.238-   5 2.93   6 2.93   2 2.93   1 2.93   7 2.93  13 2.93  15 2.93   9 2.93
                            10 2.93
   5  0.333  0.333  0.238-   4 2.93   3 2.93   7 2.93   2 2.93   8 2.93  14 2.93  13 2.93  11 2.93
                             6 2.93
   6  0.667  0.333  0.238-   4 2.93   9 2.93   1 2.93  15 2.93   8 2.93  12 2.93   3 2.93   5 2.93
                            14 2.93
   7  0.000  0.667  0.238-   8 2.93   1 2.93   5 2.93   3 2.93   4 2.93  16 2.93  18 2.93  13 2.93
                             9 2.93
   8  0.333  0.667  0.238-   7 2.93   1 2.93   2 2.93   9 2.93   5 2.93  16 2.93   6 2.93  17 2.93
                            14 2.93
   9  0.667  0.667  0.238-   3 2.93   2 2.93   8 2.93   6 2.93  17 2.93   4 2.93  15 2.93   7 2.93
                            18 2.93
  10  0.111  0.111  0.346-  20 2.89  12 2.93  16 2.93  15 2.93  17 2.93  13 2.93  11 2.93   2 2.93
                             1 2.93   4 2.93  19 2.93  26 2.93
  11  0.444  0.111  0.346-  21 2.89  20 2.89  27 2.92  14 2.93  17 2.93  18 2.93   3 2.93  12 2.93
                            13 2.93  10 2.93   5 2.93   2 2.93
  12  0.778  0.111  0.346-  21 2.89  10 2.93  16 2.93  18 2.93  15 2.93  11 2.93   1 2.93  14 2.93
                             6 2.93   3 2.93  25 2.93  19 2.93
  13  0.111  0.444  0.346-  20 2.89  23 2.89  22 2.92  15 2.93  14 2.93  18 2.93  10 2.93  11 2.93
                            16 2.93   4 2.93   5 2.93   7 2.93
  14  0.444  0.444  0.346-  23 2.89  21 2.89  24 2.92  13 2.93  11 2.93  16 2.93   5 2.93  12 2.93
                            17 2.93   8 2.93  15 2.93   6 2.93
  15  0.778  0.444  0.346-  24 2.92  22 2.92  19 2.93  13 2.93  10 2.93  12 2.93  17 2.93  18 2.93
                             4 2.93   6 2.93   9 2.93  14 2.93
  16  0.111  0.778  0.346-  23 2.89  18 2.93  12 2.93  10 2.93  14 2.93  17 2.93  13 2.93   7 2.93
                             8 2.93   1 2.93  26 2.93  25 2.93
  17  0.444  0.778  0.346-  27 2.92  24 2.92  26 2.93  11 2.93  10 2.93   9 2.93  18 2.93  15 2.93
                            16 2.93   2 2.93  14 2.93   8 2.93
  18  0.778  0.778  0.346-  22 2.92  27 2.92  25 2.93  16 2.93  12 2.93  13 2.93  11 2.93  17 2.93
                            15 2.93   7 2.93   3 2.93   9 2.93
  19  0.888  0.223  0.454-  28 2.90  24 2.93  22 2.93  15 2.93  20 2.93  21 2.93  10 2.93  12 2.93
                            26 2.94  25 2.94  32 2.95  31 2.95
  20  0.222  0.222  0.452-  36 2.76  13 2.89  11 2.89  10 2.89  31 2.93  29 2.93  21 2.93  23 2.93
                            19 2.93  26 2.93  27 2.94  22 2.94
  21  0.556  0.222  0.452-  36 2.76  11 2.89  14 2.89  12 2.89  30 2.93  32 2.93  20 2.93  23 2.93
                            25 2.93  19 2.93  27 2.94  24 2.94
  22  0.888  0.556  0.453-  35 2.90  18 2.92  15 2.92  24 2.92  27 2.92  13 2.92  25 2.93  19 2.93
                            33 2.94  31 2.94  23 2.94  20 2.94
  23  0.222  0.556  0.452-  36 2.76  14 2.89  13 2.89  16 2.89  34 2.93  33 2.93  21 2.93  20 2.93
                            26 2.93  25 2.93  22 2.94  24 2.94
  24  0.556  0.556  0.453-  35 2.90  15 2.92  17 2.92  27 2.92  22 2.92  14 2.92  19 2.93  26 2.93
                            32 2.94  34 2.94  23 2.94  21 2.94
  25  0.888  0.888  0.454-  28 2.90  22 2.93  27 2.93  18 2.93  23 2.93  21 2.93  16 2.93  12 2.93
                            26 2.94  19 2.94  33 2.95  30 2.95
  26  0.223  0.888  0.454-  28 2.90  27 2.93  24 2.93  17 2.93  23 2.93  20 2.93  16 2.93  10 2.93
                            25 2.94  19 2.94  34 2.95  29 2.95
  27  0.556  0.888  0.453-  35 2.90  17 2.92  18 2.92  24 2.92  22 2.92  11 2.92  26 2.93  25 2.93
                            29 2.94  30 2.94  20 2.94  21 2.94
  28  0.000  0.000  0.560-  26 2.90  25 2.90  19 2.90  29 2.96  34 2.96  33 2.96  32 2.96  31 2.96
                            30 2.96
  29  0.333  0.008  0.561-  31 2.86  30 2.87  36 2.88  20 2.93  27 2.94  26 2.95  28 2.96  35 2.97
                            34 3.06
  30  0.659  0.008  0.561-  32 2.86  29 2.87  36 2.88  21 2.93  27 2.94  25 2.95  28 2.96  35 2.97
                            33 3.06
  31  0.008  0.333  0.561-  29 2.86  33 2.87  36 2.88  20 2.93  22 2.94  19 2.95  28 2.96  35 2.97
                            32 3.06
  32  0.659  0.333  0.561-  30 2.86  34 2.87  36 2.88  21 2.93  24 2.94  19 2.95  28 2.96  35 2.97
                            31 3.06
  33  0.008  0.659  0.561-  34 2.86  31 2.87  36 2.88  23 2.93  22 2.94  25 2.95  28 2.96  35 2.97
                            30 3.06
  34  0.333  0.659  0.561-  33 2.86  32 2.87  36 2.88  23 2.93  24 2.94  26 2.95  28 2.96  35 2.97
                            29 3.06
  35  0.667  0.667  0.560-  24 2.90  27 2.90  22 2.90  30 2.97  32 2.97  29 2.97  34 2.97  31 2.97
                            33 2.97
  36  0.333  0.333  0.550-  37 1.74  21 2.76  20 2.76  23 2.76  31 2.88  30 2.88  33 2.88  29 2.88
                            34 2.88  32 2.88
  37  0.333  0.333  0.629-  36 1.74

  LATTYP: Found a hexagonal cell.
 ALAT       =     8.7913665772
 C/A-ratio  =     2.5227160501

  Lattice vectors:

 A1 = (  -4.3956832886,  -7.6135467898,   0.0000000000)
 A2 = (   8.7913665771,   0.0000000000,   0.0000000000)
 A3 = (   0.0000000000,   0.0000000000,  22.1781215668)

Analysis of symmetry for initial positions (statically):
 Subroutine PRICEL returns:
 Original cell was already a primitive cell.

 Routine SETGRP: Setting up the symmetry group for a
 hexagonal supercell.

 Subroutine GETGRP returns: Found  6 space group operations
 (whereof  6 operations were pure point group operations)
 out of a pool of 24 trial point group operations.

The static configuration has the point symmetry C_3v.

Analysis of symmetry for dynamics (positions and initial velocities):
 Subroutine PRICEL returns:
 Original cell was already a primitive cell.

[...]

The dynamic configuration has the point symmetry C_3v.

Analysis of constrained symmetry for selective dynamics:
 Subroutine PRICEL returns:
 Original cell was already a primitive cell.

 Routine SETGRP: Setting up the symmetry group for a
 hexagonal supercell.

 Subroutine GETGRP returns: Found  6 space group operations
[...]
     24      -4.6924      2.00000
     25      -4.6853      2.00000
     26      -4.6577      2.00000
     27      -4.6304      2.00000
     28      -4.6275      2.00000
     29      -4.6004      2.00000
     30      -4.5837      2.00000
     31      -4.5803      2.00000
     32      -4.5572      2.00000
     33      -4.5449      2.00000
     34      -4.5390      2.00000
     35      -4.5222      2.00000
     36      -4.4966      2.00000
     37      -4.4622      2.00000
     38      -4.4361      2.00000
     39      -4.4168      2.00000
     40      -4.4110      2.00000
     41      -4.3617      2.00000
     42      -4.3438      2.00000
     43      -4.3301      2.00000
     44      -4.3147      2.00000
     45      -4.2712      2.00000
     46      -4.2287      2.00000
     47      -4.2098      2.00000
     48      -4.1957      2.00000
     49      -4.1823      2.00000
     50      -4.1750      2.00000
     51      -4.1681      2.00000
     52      -4.1628      2.00000
     53      -4.1512      2.00000
     54      -4.1461      2.00000
     55      -4.1300      2.00000
     56      -4.1010      2.00000
     57      -4.0569      2.00000
     58      -4.0516      2.00000
     59      -4.0325      2.00000
     60      -4.0260      2.00000
[...]
    238       6.2931      0.00000
    239       6.3678      0.00000
    240       6.3991      0.00000
    241       7.1603      0.00000
    242       7.2268      0.00000
    243       7.2705      0.00000
    244       7.3175      0.00000
    245       7.3540      0.00000
    246       7.3704      0.00000
    247       7.4394      0.00000
    248       7.5511      0.00000
    249       7.6208      0.00000
    250       7.6463      0.00000
    251       7.6775      0.00000
    252       7.7793      0.00000

 soft charge-density along one line, spin component           1
         0         1         2         3         4         5         6         7         8         9
 total charge-density along one line

------------------------ aborting loop because EDIFF is reached ----------------------------------------

 total charge

# of ion       s       p       d       tot
    1        0.420   0.200   9.178   9.798
    2        0.416   0.203   9.177   9.797
    3        0.416   0.203   9.177   9.797
    4        0.416   0.203   9.177   9.797
    5        0.419   0.203   9.176   9.798
    6        0.416   0.203   9.177   9.797
    7        0.416   0.203   9.177   9.797
    8        0.416   0.203   9.177   9.797
    9        0.413   0.204   9.177   9.794
   10        0.410   0.268   9.163   9.841
   11        0.406   0.273   9.166   9.844
   12        0.410   0.268   9.163   9.841
   13        0.406   0.273   9.166   9.844
   14        0.406   0.273   9.166   9.844
   15        0.402   0.268   9.167   9.837
   16        0.410   0.268   9.163   9.841
   17        0.402   0.268   9.167   9.837
   18        0.402   0.268   9.167   9.837
   19        0.403   0.265   9.167   9.835
   20        0.437   0.307   9.139   9.882
   21        0.437   0.307   9.139   9.882
   22        0.394   0.272   9.169   9.835
   23        0.437   0.307   9.139   9.882
   24        0.394   0.272   9.169   9.835
   25        0.403   0.265   9.167   9.835
   26        0.403   0.265   9.167   9.835
   27        0.394   0.272   9.169   9.835
   28        0.417   0.196   9.180   9.793
   29        0.404   0.217   9.180   9.801
   30        0.404   0.217   9.180   9.801
   31        0.404   0.217   9.180   9.801
   32        0.404   0.217   9.180   9.801
   33        0.404   0.217   9.180   9.801
   34        0.404   0.217   9.180   9.801
   35        0.410   0.198   9.181   9.788
   36        0.657   0.600   5.980   7.237
   37        1.607   3.268   0.000   4.876
tot         16.618  12.350 326.927 355.895

  FORCE on cell =-STRESS in cart. coord.  units (eV):
  Direction    XX          YY          ZZ          XY          YZ          ZX
  Alpha Z   770.02756   770.02756   770.02756
  Ewald  120877.19807120877.19812************     0.00003    -0.00000     0.00004
  Hartree131143.20613131143.20614************     0.00001     0.00000     0.00001
  E(xc)   -2095.64666 -2095.64667 -2100.30816     0.00000     0.00000     0.00000
  Local  ************************263347.25607     0.00043    -0.00005    -0.00016
  n-local  -376.32676  -356.46369  -361.50927    11.91585    -0.17178     0.39977
  augment  3243.84562  3243.84573  3248.99788    -0.00010     0.00002     0.00007
  Kinetic  5020.24704  5022.26245  5015.31753     3.62114     1.03292    -0.17006
  Fock        0.00000     0.00000     0.00000     0.00000     0.00000     0.00000
  Total      -6.96863    -6.96863     0.29567    -0.00000    -0.00000    -0.00000
  in kB      -7.52124    -7.52124     0.31912    -0.00000    -0.00000    -0.00000

 VOLUME and BASIS-vectors are now :
  energy-cutoff  :      500.00
  volume of cell :     1484.46
      direct lattice vectors                 reciprocal lattice vectors
     8.791366577  0.000000000  0.000000000     0.113747958 -0.065672414  0.000000000
     4.395683289  7.613546790  0.000000000     0.000000000  0.131344829  0.000000000
     0.000000000  0.000000000 22.178121567     0.000000000  0.000000000  0.045089481

  length of vectors
     8.791366577  8.791366577 22.178121567     0.131344829  0.131344829  0.045089481

 FORCES acting on ions
    electron-ion (+dipol)            ewald-force                    non-local-force                 convergence-correction
   0.460E-04 -.282E-04 0.251E+04   -.954E-04 0.593E-04 -.251E+04   0.497E-17 0.257E-17 -.214E+01   -.126E-03 -.180E-03 0.715E-02
   0.534E+00 0.458E+00 0.251E+04   -.580E+00 -.587E+00 -.251E+04   0.582E-01 0.161E+00 -.155E+01   -.116E-01 -.275E-01 0.111E-01
   -.534E+00 0.458E+00 0.251E+04   0.580E+00 -.587E+00 -.251E+04   -.582E-01 0.161E+00 -.155E+01   0.110E-01 -.256E-01 0.118E-01
   0.664E+00 0.233E+00 0.251E+04   -.798E+00 -.208E+00 -.251E+04   0.169E+00 -.303E-01 -.155E+01   -.294E-01 0.394E-02 0.111E-01
   -.583E-05 -.189E-04 0.251E+04   0.980E-04 -.197E-05 -.251E+04   0.205E-17 -.114E-17 -.145E+01   0.630E-02 0.385E-02 -.119E-01
   -.664E+00 0.233E+00 0.251E+04   0.798E+00 -.209E+00 -.251E+04   -.169E+00 -.303E-01 -.155E+01   0.280E-01 0.488E-02 0.120E-01
   0.130E+00 -.692E+00 0.251E+04   -.219E+00 0.796E+00 -.251E+04   0.111E+00 -.131E+00 -.155E+01   -.162E-01 0.229E-01 0.118E-01
   -.130E+00 -.692E+00 0.251E+04   0.219E+00 0.795E+00 -.251E+04   -.111E+00 -.131E+00 -.155E+01   0.178E-01 0.218E-01 0.121E-01
   0.361E-04 -.131E-04 0.251E+04   0.792E-04 -.643E-04 -.251E+04   0.271E-17 -.155E-17 -.183E+01   -.670E-02 -.346E-02 0.128E-01
   0.694E+01 0.400E+01 0.855E+03   -.640E+01 -.369E+01 -.854E+03   -.513E+00 -.296E+00 -.825E+00   -.306E-01 -.176E-01 0.146E+00
   -.286E-04 0.607E+01 0.862E+03   0.410E-04 -.608E+01 -.862E+03   0.699E-12 0.106E+00 -.268E+00   0.644E-02 -.126E+00 0.189E+00
   -.694E+01 0.400E+01 0.855E+03   0.640E+01 -.369E+01 -.854E+03   0.513E+00 -.296E+00 -.825E+00   0.289E-01 -.162E-01 0.147E+00
   0.526E+01 -.303E+01 0.862E+03   -.527E+01 0.304E+01 -.862E+03   0.921E-01 -.532E-01 -.268E+00   -.106E+00 0.685E-01 0.189E+00
   -.526E+01 -.303E+01 0.862E+03   0.527E+01 0.304E+01 -.862E+03   -.921E-01 -.532E-01 -.268E+00   0.117E+00 0.678E-01 0.189E+00
   0.160E-04 0.162E+01 0.855E+03   -.109E-03 -.173E+01 -.855E+03   0.345E-12 0.525E-01 -.680E+00   -.195E-02 0.247E-01 0.147E+00
   -.797E-05 -.801E+01 0.855E+03   0.205E-04 0.739E+01 -.854E+03   0.389E-11 0.592E+00 -.825E+00   0.387E-03 0.330E-01 0.147E+00
   0.140E+01 -.810E+00 0.855E+03   -.150E+01 0.864E+00 -.855E+03   0.455E-01 -.263E-01 -.680E+00   0.204E-01 -.141E-01 0.147E+00
   -.140E+01 -.810E+00 0.855E+03   0.150E+01 0.864E+00 -.855E+03   -.455E-01 -.263E-01 -.680E+00   -.205E-01 -.119E-01 0.147E+00
   0.393E-04 0.218E+01 -.835E+03   -.129E-03 -.230E+01 0.835E+03   0.434E-12 0.661E-01 0.597E+00   -.616E-02 0.256E-01 0.163E+00
   0.136E+02 0.786E+01 -.792E+03   -.123E+02 -.711E+01 0.793E+03   -.142E+01 -.819E+00 -.109E+01   0.834E-01 0.482E-01 0.372E+00
   -.136E+02 0.786E+01 -.792E+03   0.123E+02 -.711E+01 0.793E+03   0.142E+01 -.819E+00 -.109E+01   -.819E-01 0.496E-01 0.373E+00
   0.303E+01 -.175E+01 -.822E+03   -.346E+01 0.200E+01 0.821E+03   0.431E+00 -.249E+00 0.756E+00   0.252E-01 -.194E-01 0.175E+00
   -.542E-04 -.157E+02 -.792E+03   0.433E-04 0.142E+02 0.793E+03   0.108E-10 0.164E+01 -.109E+01   0.231E-02 -.950E-01 0.373E+00
   -.303E+01 -.175E+01 -.822E+03   0.346E+01 0.200E+01 0.821E+03   -.431E+00 -.249E+00 0.756E+00   -.359E-01 -.206E-01 0.175E+00
   -.189E+01 -.109E+01 -.835E+03   0.199E+01 0.115E+01 0.835E+03   -.572E-01 -.330E-01 0.597E+00   -.281E-01 -.164E-01 0.162E+00
   0.189E+01 -.109E+01 -.835E+03   -.199E+01 0.115E+01 0.835E+03   0.572E-01 -.330E-01 0.597E+00   0.188E-01 -.182E-01 0.163E+00
   0.206E-04 0.350E+01 -.822E+03   0.110E-03 -.399E+01 0.821E+03   0.327E-11 0.497E+00 0.756E+00   -.488E-02 0.316E-01 0.175E+00
   0.539E-04 -.364E-04 -.248E+04   -.115E-03 0.779E-04 0.248E+04   0.365E-17 0.412E-17 0.178E+01   0.114E-02 0.522E-03 0.659E-01
   0.261E+02 0.467E+02 -.247E+04   -.262E+02 -.470E+02 0.247E+04   -.273E+00 -.228E+00 0.204E+01   0.119E+00 0.183E+00 0.104E+00
   -.261E+02 0.467E+02 -.247E+04   0.262E+02 -.470E+02 0.247E+04   0.273E+00 -.228E+00 0.204E+01   -.130E+00 0.185E+00 0.104E+00
   0.535E+02 -.733E+00 -.247E+04   -.538E+02 0.862E+00 0.247E+04   -.334E+00 -.123E+00 0.204E+01   0.218E+00 0.119E-01 0.104E+00
   -.535E+02 -.733E+00 -.247E+04   0.538E+02 0.862E+00 0.247E+04   0.334E+00 -.123E+00 0.204E+01   -.230E+00 0.127E-01 0.103E+00
   0.274E+02 -.460E+02 -.247E+04   -.277E+02 0.462E+02 0.247E+04   -.606E-01 0.351E+00 0.204E+01   0.958E-01 -.204E+00 0.104E+00
   -.274E+02 -.460E+02 -.247E+04   0.277E+02 0.462E+02 0.247E+04   0.606E-01 0.351E+00 0.204E+01   -.104E+00 -.205E+00 0.103E+00
   0.220E-04 -.119E-04 -.248E+04   0.106E-03 -.659E-04 0.248E+04   0.341E-17 -.105E-20 0.196E+01   -.552E-02 -.276E-02 0.103E+00
   -.123E-05 -.163E-04 -.153E+04   0.774E-04 0.978E-05 0.153E+04   0.162E-16 0.534E-19 0.183E+01   0.287E-02 0.171E-02 0.156E+00
   0.182E-03 -.990E-04 -.165E+04   0.294E-04 0.427E-06 0.168E+04   -.120E-17 -.164E-17 -.329E+02   0.396E-02 0.241E-02 -.270E+00
   0.563E-03 -.784E-03 0.302E+02   0.136E-13 -.446E-13 -.273E-11   -.169E-15 -.158E-17 -.344E+02   -.423E-01 -.211E-01 0.433E+01

 POSITION                                       TOTAL-FORCE (eV/Angst)
      0.00000      0.00000      5.28219         0.000000     -0.000000     -0.029402
      2.93046      0.00000      5.28219         0.001762      0.006322      0.031804
      5.86091      0.00000      5.28219        -0.001762      0.006322      0.031804
      1.46523      2.53785      5.28219         0.006356     -0.001636      0.031804
      4.39568      2.53785      5.28219         0.000000      0.000000      0.016130
      7.32614      2.53785      5.28219        -0.006356     -0.001636      0.031804
      2.93046      5.07570      5.28219         0.004595     -0.004687      0.031804
      5.86091      5.07570      5.28219        -0.004595     -0.004687      0.031804
      8.79137      5.07570      5.28219         0.000000     -0.000000     -0.001579
      1.46523      0.84595      7.67490        -0.001608     -0.000928      0.002470
      4.39568      0.84595      7.67490        -0.000000     -0.032557     -0.073247
      7.32614      0.84595      7.67490         0.001608     -0.000928      0.002470
      2.93046      3.38380      7.67490        -0.028196      0.016279     -0.073247
      5.86091      3.38380      7.67490         0.028196      0.016279     -0.073247
      8.79137      3.38380      7.67490        -0.000000     -0.031405      0.004507
      4.39568      5.92165      7.67490         0.000000      0.001856      0.002470
      7.32614      5.92165      7.67490        -0.027197      0.015702      0.004507
     10.25659      5.92165      7.67490         0.027197      0.015702      0.004507
      8.79137      1.69824     10.07044        -0.000000     -0.023385     -0.021601
      2.93075      1.69207     10.02201        -0.032898     -0.018994     -0.143088
      5.86061      1.69207     10.02201         0.032898     -0.018994     -0.143088
     10.25044      4.23330     10.05478         0.031185     -0.018005     -0.021641
      4.39568      4.22940     10.02201         0.000000      0.037987     -0.143088
      7.33230      4.23330     10.05478        -0.031185     -0.018005     -0.021641
     11.71633      6.76443     10.07044         0.020252      0.011692     -0.021601
      5.86640      6.76443     10.07044        -0.020252      0.011692     -0.021601
      8.79137      6.76048     10.05478         0.000000      0.036009     -0.021641
      0.00000      0.00000     12.42728         0.000000     -0.000000      0.031979
      2.96092      0.05748     12.44843        -0.194217     -0.376524     -0.177474
      5.83045      0.05748     12.44843         0.194217     -0.376524     -0.177474
      1.53024      2.53549     12.44843        -0.423188      0.020065     -0.177474
      7.26113      2.53549     12.44843         0.423188      0.020065     -0.177474
      2.96500      5.02058     12.44843        -0.228971      0.356459     -0.177474
      5.82636      5.02058     12.44843         0.228971      0.356459     -0.177474
      8.79137      5.07570     12.42122         0.000000     -0.000000      0.059116
      4.39568      2.53785     12.20312         0.000000     -0.000000      1.613649
      4.39568      2.53785     13.94209         0.000000      0.000000     -0.058077
    total drift:                               -0.041735     -0.021875      0.104241

  FREE ENERGIE OF THE ION-ELECTRON SYSTEM (eV)
  free  energy   TOTEN  =      -104.21748247 eV

  energy  without entropy=     -104.21748247  energy(sigma->0) =     -104.21748247

 stress matrix after NEB project (eV)
     -6.96863     -0.00000     -0.00000
     -0.00000     -6.96863     -0.00000
     -0.00000     -0.00000      0.29567
  FORCES: max atom, RMS     0.058077    0.009548
  FORCE total and by dimension    0.058077    0.058077
  Stress total and by dimension    9.859560    6.968626
|           W    W    AA    RRRRR   N    N  II  N    N   GGGG   !!!           |
|           W    W   A  A   R    R  NN   N  II  NN   N  G    G  !!!           |
|           W    W  A    A  R    R  N N  N  II  N N  N  G       !!!           |
|           W WW W  AAAAAA  RRRRR   N  N N  II  N  N N  G  GGG   !            |
|           WW  WW  A    A  R   R   N   NN  II  N   NN  G    G                |
|           W    W  A    A  R    R  N    N  II  N    N   GGGG   !!!           |
|     Tetrahedron method does not include variations of the Fermi             |
|     occupations, so forces and stress will be inaccurate. We suggest        |
|     using a different smearing scheme ISMEAR = 1 or 2 for metals in         |
|     relaxations.                                                            |

 total charge

# of ion       s       p       d       tot
    1        0.420   0.200   9.178   9.798
    2        0.416   0.203   9.177   9.797
    3        0.416   0.203   9.177   9.797
    4        0.416   0.203   9.177   9.797
    5        0.419   0.203   9.176   9.798
    6        0.416   0.203   9.177   9.797
    7        0.416   0.203   9.177   9.797
    8        0.416   0.203   9.177   9.797
    9        0.413   0.204   9.177   9.794
   10        0.410   0.268   9.163   9.841
   11        0.406   0.273   9.166   9.844
   12        0.410   0.268   9.163   9.841
   13        0.406   0.273   9.166   9.844
   14        0.406   0.273   9.166   9.844
   15        0.402   0.268   9.167   9.837
   16        0.410   0.268   9.163   9.841
   17        0.402   0.268   9.167   9.837
   18        0.402   0.268   9.167   9.837
   19        0.403   0.265   9.167   9.835
   20        0.437   0.307   9.139   9.882
   21        0.437   0.307   9.139   9.882
   22        0.394   0.272   9.169   9.835
   23        0.437   0.307   9.139   9.882
   24        0.394   0.272   9.169   9.835
   25        0.403   0.265   9.167   9.835
   26        0.403   0.265   9.167   9.835
   27        0.394   0.272   9.169   9.835
   28        0.417   0.196   9.180   9.793
   29        0.404   0.217   9.180   9.801
   30        0.404   0.217   9.180   9.801
   31        0.404   0.217   9.180   9.801
   32        0.404   0.217   9.180   9.801
   33        0.404   0.217   9.180   9.801
   34        0.404   0.217   9.180   9.801
   35        0.410   0.198   9.181   9.788
   36        0.657   0.600   5.980   7.237
   37        1.607   3.268   0.000   4.876
tot         16.618  12.350 326.927 355.895

 BZINTS: Fermi energy:    0.825741;  399.000000 electrons
         Band energy:-0.133371E+04;  BLOECHL correction:   -0.046456