 vasp.6.2.0 18Jan21 (build Jun 12 2021 23:27:24) complex

 executed on             LinuxIFC date 2022.05.28  01:30:06

 INCAR:
   ISMEAR = -5
   SIGMA = 0.1
   ISPIN = 1
   EDIFF = 1.d-5
   EDIFFG = -0.01
   NSW = 0
   NELM = 150
   ENCUT = 500
   ISIF = 2
   IBRION = 2
   LREAL = Auto
   ALGO = Fast
   ICHARG = 11
   LORBIT = 10
   LCHARG = .F.
   LWAVE = .F.

 POTCAR:    PAW_PBE Ag 02Apr2005
 POTCAR:    PAW_PBE Mn 06Sep2000
 POTCAR:    PAW_PBE H 15Jun2001
 POTCAR:    PAW_PBE O 08Apr2002
|           W    W    AA    RRRRR   N    N  II  N    N   GGGG   !!!           |
|           W    W   A  A   R    R  NN   N  II  NN   N  G    G  !!!           |
|           W    W  A    A  R    R  N N  N  II  N N  N  G       !!!           |
|           W WW W  AAAAAA  RRRRR   N  N N  II  N  N N  G  GGG   !            |
|           WW  WW  A    A  R   R   N   NN  II  N   NN  G    G                |
|           W    W  A    A  R    R  N    N  II  N    N   GGGG   !!!           |
|     For optimal performance we recommend to set                             |
|       NCORE = 2 up to number-of-cores-per-socket                            |
|     This setting can greatly improve the performance of VASP for DFT.       |
|     The default, NCORE=1 might be grossly inefficient on modern             |
|     multi-core architectures or massively parallel machines. Do your        |
|     Unfortunately you need to use the default for GW and RPA                |
|     calculations (for HF NCORE is supported but not extensively tested      |
|     yet).                                                                   |

 POTCAR:    PAW_PBE Ag 02Apr2005
   VRHFIN =Ag : s1 d10

   TITEL  = PAW_PBE Ag 02Apr2005
   POMASS =  107.868; ZVAL   =   11.000    mass and valenz
   ENMAX  =  249.844; ENMIN  =  187.383 eV

 POTCAR:    PAW_PBE Mn 06Sep2000
   VRHFIN =Mn: d6 s1

   TITEL  = PAW_PBE Mn 06Sep2000
   POMASS =   54.938; ZVAL   =    7.000    mass and valenz
   ENMAX  =  269.864; ENMIN  =  202.398 eV

 POTCAR:    PAW_PBE H 15Jun2001
   VRHFIN =H: ultrasoft test

   TITEL  = PAW_PBE H 15Jun2001
   POMASS =    1.000; ZVAL   =    1.000    mass and valenz
   ENMAX  =  250.000; ENMIN  =  200.000 eV

 POTCAR:    PAW_PBE O 08Apr2002
   VRHFIN =O: s2p4

   TITEL  = PAW_PBE O 08Apr2002
   POMASS =   16.000; ZVAL   =    6.000    mass and valenz
   ENMAX  =  400.000; ENMIN  =  300.000 eV

 Optimization of the real space projectors (new method)

 maximal supplied QI-value         = 15.12
 optimisation between [QCUT,QGAM] = [ 11.34, 22.83] = [ 36.00,145.93] Ry
 Optimized for a Real-space Cutoff    1.43 Angstroem

   l    n(q)    QCUT    max X(q) W(low)/X(q) W(high)/X(q)  e(spline)
   2      9    11.338    53.897    0.16E-03    0.20E-03    0.28E-06
   2      9    11.338    52.416    0.16E-03    0.20E-03    0.29E-06
   0     10    11.338   122.045    0.31E-04    0.76E-04    0.15E-06
   0     10    11.338    73.629    0.30E-04    0.72E-04    0.15E-06
   1      9    11.338    15.255    0.20E-03    0.19E-04    0.17E-06
   1      9    11.338     9.562    0.16E-03    0.15E-04    0.14E-06
 Optimization of the real space projectors (new method)

[...]

   l    n(q)    QCUT    max X(q) W(low)/X(q) W(high)/X(q)  e(spline)
   0      8    11.287    19.460    0.40E-03    0.73E-03    0.16E-06
   0      8    11.287    12.209    0.38E-03    0.70E-03    0.15E-06
   1      7    11.287     4.655    0.22E-03    0.25E-04    0.22E-06
 Optimization of the real space projectors (new method)

 maximal supplied QI-value         = 24.76
 optimisation between [QCUT,QGAM] = [ 11.39, 22.77] = [ 36.31,145.25] Ry
 Optimized for a Real-space Cutoff    1.00 Angstroem

   l    n(q)    QCUT    max X(q) W(low)/X(q) W(high)/X(q)  e(spline)
   0      7    11.387    20.381    0.39E-03    0.13E-02    0.15E-06
   0      7    11.387    15.268    0.42E-03    0.14E-02    0.17E-06
   1      6    11.387     5.964    0.41E-03    0.11E-02    0.17E-06
   1      6    11.387     5.382    0.39E-03    0.87E-03    0.15E-06
  PAW_PBE Ag 02Apr2005                  :
  PAW_PBE Mn 06Sep2000                  :
  PAW_PBE H 15Jun2001                   :
  PAW_PBE O 08Apr2002                   :

 POSCAR: Ag-Mn-H2O
  positions in direct lattice
  velocities in cartesian coordinates
 exchange correlation table for  LEXCH =        8
   RHO(1)=    0.500       N(1)  =     2000
   RHO(2)=  100.500       N(2)  =     4000

 VTST: version 3.2, (02/03/18)

 CHAIN: initializing optimizer

 OPT: Using VASP Conjugate-Gradient optimizer
 CHAIN: Read ICHAIN            0

 POSCAR: Ag-Mn-H2O
  positions in direct lattice
  velocities in cartesian coordinates

 ion  position               nearest neighbor table
   1  0.000  0.000  0.212-   2 2.93   8 2.93   7 2.93   6 2.93   4 2.93  12 2.93  16 2.93  10 2.93
                             3 2.93
   2  0.333  0.000  0.212-   1 2.93   8 2.93   9 2.93   3 2.93   4 2.93   5 2.93  10 2.93  17 2.93
                            11 2.93
   3  0.667  0.000  0.212-   9 2.93   2 2.93   5 2.93  11 2.93   7 2.93  18 2.93   1 2.93   6 2.93
                            12 2.93
   4  0.000  0.333  0.212-   5 2.93   6 2.93   2 2.93   1 2.93   7 2.93  13 2.93  15 2.93   9 2.93
                            10 2.93
   5  0.333  0.333  0.212-   4 2.93   3 2.93   7 2.93   2 2.93   8 2.93  14 2.93  13 2.93  11 2.93
                             6 2.93
   6  0.667  0.333  0.212-   4 2.93   9 2.93   1 2.93  15 2.93   8 2.93  12 2.93   3 2.93   5 2.93
                            14 2.93
   7  0.000  0.667  0.212-   8 2.93   1 2.93   5 2.93   3 2.93   4 2.93  16 2.93  18 2.93  13 2.93
                             9 2.93
   8  0.333  0.667  0.212-   7 2.93   1 2.93   2 2.93   9 2.93   5 2.93  16 2.93   6 2.93  17 2.93
                            14 2.93
   9  0.667  0.667  0.212-   3 2.93   2 2.93   8 2.93   6 2.93  17 2.93   4 2.93  15 2.93   7 2.93
                            18 2.93
  10  0.111  0.111  0.308-  20 2.92  19 2.93  26 2.93  12 2.93  16 2.93  15 2.93  17 2.93  13 2.93
                            11 2.93   2 2.93   1 2.93   4 2.93
  11  0.444  0.111  0.308-  21 2.90  20 2.90  27 2.92  14 2.93  17 2.93  18 2.93   3 2.93  12 2.93
                            13 2.93  10 2.93   5 2.93   2 2.93
  12  0.778  0.111  0.308-  21 2.92  25 2.93  19 2.93  10 2.93  16 2.93  18 2.93  15 2.93  11 2.93
                             1 2.93  14 2.93   6 2.93   3 2.93
  13  0.111  0.444  0.308-  20 2.90  23 2.90  22 2.92  15 2.93  14 2.93  18 2.93  10 2.93  11 2.93
                            16 2.93   4 2.93   5 2.93   7 2.93
  14  0.444  0.444  0.308-  23 2.90  21 2.90  24 2.92  13 2.93  11 2.93  16 2.93   5 2.93  12 2.93
                            17 2.93   8 2.93  15 2.93   6 2.93
  15  0.778  0.444  0.308-  24 2.92  22 2.92  19 2.92  13 2.93  10 2.93  12 2.93  17 2.93  18 2.93
                             4 2.93   6 2.93   9 2.93  14 2.93
  16  0.111  0.778  0.308-  23 2.92  26 2.93  25 2.93  18 2.93  12 2.93  10 2.93  14 2.93  17 2.93
                            13 2.93   7 2.93   8 2.93   1 2.93
  17  0.444  0.778  0.308-  27 2.92  24 2.92  26 2.92  11 2.93  10 2.93   9 2.93  18 2.93  15 2.93
                            16 2.93   2 2.93  14 2.93   8 2.93
  18  0.778  0.778  0.308-  22 2.92  27 2.92  25 2.92  16 2.93  12 2.93  13 2.93  11 2.93  17 2.93
                            15 2.93   7 2.93   3 2.93   9 2.93
  19  0.889  0.223  0.403-  28 2.91  15 2.92  10 2.93  12 2.93  24 2.93  22 2.93  26 2.94  25 2.94
                            20 2.94  21 2.94  32 2.95  31 2.95
  20  0.223  0.223  0.402-  36 2.71  31 2.90  29 2.90  13 2.90  11 2.90  21 2.91  23 2.91  10 2.92
                            27 2.93  22 2.93  19 2.94  26 2.94
  21  0.554  0.223  0.402-  36 2.71  30 2.90  32 2.90  11 2.90  14 2.90  20 2.91  23 2.91  12 2.92
                            27 2.93  24 2.93  25 2.94  19 2.94
  22  0.888  0.556  0.403-  35 2.91  18 2.92  15 2.92  13 2.92  24 2.93  27 2.93  33 2.93  31 2.93
                            25 2.93  19 2.93  23 2.93  20 2.93
  23  0.223  0.554  0.402-  36 2.71  34 2.90  33 2.90  14 2.90  13 2.90  21 2.91  20 2.91  16 2.92
                            22 2.93  24 2.93  26 2.94  25 2.94
  24  0.556  0.556  0.403-  35 2.91  15 2.92  17 2.92  14 2.92  27 2.93  22 2.93  32 2.93  34 2.93
                            19 2.93  26 2.93  23 2.93  21 2.93
  25  0.889  0.889  0.403-  28 2.91  18 2.92  16 2.93  12 2.93  22 2.93  27 2.93  26 2.94  19 2.94
                            23 2.94  21 2.94  33 2.95  30 2.95
  26  0.223  0.889  0.403-  28 2.91  17 2.92  16 2.93  10 2.93  27 2.93  24 2.93  25 2.94  19 2.94
                            23 2.94  20 2.94  34 2.95  29 2.95
  27  0.556  0.888  0.403-  35 2.91  17 2.92  18 2.92  11 2.92  24 2.93  22 2.93  29 2.93  30 2.93
                            26 2.93  25 2.93  20 2.93  21 2.93
  28  0.000  0.000  0.498-  26 2.91  25 2.91  19 2.91  29 2.97  34 2.97  33 2.97  32 2.97  31 2.97
                            30 2.97
  29  0.333  0.008  0.498-  31 2.86  30 2.86  36 2.87  20 2.90  27 2.93  26 2.95  28 2.97  35 2.97
                            34 3.07
  30  0.659  0.008  0.498-  32 2.86  29 2.86  36 2.87  21 2.90  27 2.93  25 2.95  28 2.97  35 2.97
                            33 3.07
  31  0.008  0.333  0.498-  29 2.86  33 2.86  36 2.87  20 2.90  22 2.93  19 2.95  28 2.97  35 2.97
                            32 3.07
  32  0.659  0.333  0.498-  30 2.86  34 2.86  36 2.87  21 2.90  24 2.93  19 2.95  28 2.97  35 2.97
                            31 3.07
  33  0.008  0.659  0.498-  34 2.86  31 2.86  36 2.87  23 2.90  22 2.93  25 2.95  28 2.97  35 2.97
                            30 3.07
  34  0.333  0.659  0.498-  33 2.86  32 2.86  36 2.87  23 2.90  24 2.93  26 2.95  28 2.97  35 2.97
                            29 3.07
  35  0.667  0.667  0.498-  24 2.91  27 2.91  22 2.91  32 2.97  30 2.97  29 2.97  34 2.97  31 2.97
                            33 2.97
  36  0.333  0.333  0.488-  39 2.12  21 2.71  20 2.71  23 2.71  31 2.87  30 2.87  33 2.87  29 2.87
                            34 2.87  32 2.87
  37  0.277  0.266  0.582-  39 0.98
  38  0.457  0.264  0.581-  39 0.98
  39  0.332  0.337  0.573-  37 0.98  38 0.98  36 2.12

  LATTYP: Found a hexagonal cell.
 ALAT       =     8.7913665772
 C/A-ratio  =     2.8382349142

  Lattice vectors:

 A1 = (  -4.3956832886,  -7.6135467898,   0.0000000000)
 A2 = (   8.7913665771,   0.0000000000,   0.0000000000)
 A3 = (   0.0000000000,   0.0000000000,  24.9519635625)

Analysis of symmetry for initial positions (statically):
 Subroutine PRICEL returns:
 Original cell was already a primitive cell.

 Routine SETGRP: Setting up the symmetry group for a
 hexagonal supercell.

 Subroutine GETGRP returns: Found  1 space group operations
 (whereof  1 operations were pure point group operations)
 out of a pool of 24 trial point group operations.

The static configuration has the point symmetry C_1 .

Analysis of symmetry for dynamics (positions and initial velocities):
 Subroutine PRICEL returns:
 Original cell was already a primitive cell.

[...]

The dynamic configuration has the point symmetry C_1 .

Analysis of constrained symmetry for selective dynamics:
 Subroutine PRICEL returns:
[...]
     41      -4.7230      2.00000
     42      -4.6999      2.00000
     43      -4.6912      2.00000
     44      -4.6713      2.00000
     45      -4.6653      2.00000
     46      -4.6605      2.00000
     47      -4.5804      2.00000
     48      -4.5499      2.00000
     49      -4.5445      2.00000
     50      -4.5341      2.00000
     51      -4.5283      2.00000
     52      -4.5274      2.00000
     53      -4.5120      2.00000
     54      -4.5053      2.00000
     55      -4.4919      2.00000
     56      -4.4848      2.00000
     57      -4.4145      2.00000
     58      -4.4131      2.00000
     59      -4.3998      2.00000
     60      -4.3934      2.00000
[...]
    238       5.6850      0.00000
    239       5.7868      0.00000
    240       5.8376      0.00000
    241       5.9835      0.00000
    242       6.1177      0.00000
    243       6.2210      0.00000
    244       6.2946      0.00000
    245       6.3886      0.00000
    246       6.4161      0.00000
    247       6.6072      0.00000
    248       6.6952      0.00000
    249       6.8235      0.00000
    250       6.8647      0.00000
    251       6.9026      0.00000
    252       7.1023      0.00000

 soft charge-density along one line, spin component           1
         0         1         2         3         4         5         6         7         8         9
 total charge-density along one line

------------------------ aborting loop because EDIFF is reached ----------------------------------------

 total charge

# of ion       s       p       d       tot
    1        0.419   0.201   9.177   9.797
    2        0.417   0.203   9.177   9.797
    3        0.417   0.203   9.177   9.797
    4        0.417   0.203   9.177   9.797
    5        0.418   0.203   9.175   9.796
    6        0.417   0.203   9.177   9.797
    7        0.417   0.202   9.177   9.797
    8        0.417   0.202   9.177   9.797
    9        0.415   0.201   9.178   9.794
   10        0.408   0.268   9.163   9.838
   11        0.409   0.266   9.168   9.844
   12        0.408   0.268   9.163   9.838
   13        0.408   0.267   9.168   9.843
   14        0.408   0.267   9.168   9.843
   15        0.404   0.268   9.165   9.837
   16        0.408   0.268   9.162   9.838
   17        0.403   0.268   9.165   9.837
   18        0.403   0.268   9.165   9.837
   19        0.404   0.264   9.166   9.833
   20        0.429   0.296   9.143   9.868
   21        0.429   0.296   9.143   9.868
   22        0.397   0.273   9.166   9.835
   23        0.429   0.297   9.142   9.868
   24        0.397   0.273   9.166   9.835
   25        0.402   0.264   9.166   9.832
   26        0.402   0.264   9.166   9.832
   27        0.398   0.272   9.166   9.836
   28        0.411   0.199   9.175   9.785
   29        0.431   0.215   9.164   9.809
   30        0.431   0.215   9.163   9.809
   31        0.431   0.213   9.164   9.808
   32        0.431   0.213   9.164   9.808
   33        0.425   0.206   9.171   9.802
   34        0.425   0.206   9.171   9.801
   35        0.404   0.200   9.177   9.781
   36        0.270   0.206   5.136   5.612
   37        0.602   0.118   0.000   0.720
   38        0.602   0.118   0.000   0.719
   39        1.569   3.608   0.000   5.177
tot         17.532  12.443 325.987 355.962

  FORCE on cell =-STRESS in cart. coord.  units (eV):
  Direction    XX          YY          ZZ          XY          YZ          ZX
  Alpha Z   673.79131   673.79131   673.79131
  Ewald  161819.16983161754.35054************    -0.94067   -15.69602    -1.06831
  Hartree171811.01439171798.70122************    -0.19105     0.26863    -0.22009
  E(xc)   -2096.85392 -2097.12616 -2102.65927    -0.00440    -0.01760    -0.00550
  Local  ************************344821.57799     0.87382     9.04927     0.98666
  n-local  -373.53100  -374.50623  -375.61063    -0.01655     0.12441     0.00055
  augment  3254.54870  3255.75763  3266.26815     0.01859     0.22208     0.02153
  Kinetic  4969.14711  4987.31436  5021.13800     0.25359     6.10683     0.29308
  Fock        0.00000     0.00000     0.00000     0.00000     0.00000     0.00000
  Total      -7.10149    -7.43620     0.96952    -0.00667     0.05761     0.00793
  in kB      -6.81259    -7.13368     0.93008    -0.00640     0.05526     0.00760

 VOLUME and BASIS-vectors are now :
  energy-cutoff  :      500.00
  volume of cell :     1670.12
      direct lattice vectors                 reciprocal lattice vectors
     8.791366577  0.000000000  0.000000000     0.113747958 -0.065672414  0.000000000
     4.395683289  7.613546790  0.000000000     0.000000000  0.131344829  0.000000000
     0.000000000  0.000000000 24.951963562     0.000000000  0.000000000  0.040077006

  length of vectors
     8.791366577  8.791366577 24.951963562     0.131344829  0.131344829  0.040077006

 FORCES acting on ions
    electron-ion (+dipol)            ewald-force                    non-local-force                 convergence-correction
   0.164E-02 -.224E-02 0.273E+04   0.820E-04 -.889E-02 -.272E+04   -.320E-03 0.124E-01 -.208E+01   -.143E-02 0.266E-02 0.112E+00
   0.283E+00 0.429E+00 0.273E+04   -.413E+00 -.378E+00 -.272E+04   0.916E-01 0.906E-01 -.152E+01   0.367E-01 -.128E+00 0.137E+00
   -.284E+00 0.421E+00 0.273E+04   0.413E+00 -.378E+00 -.272E+04   -.911E-01 0.897E-01 -.152E+01   -.365E-01 -.119E+00 0.141E+00
   0.545E+00 0.326E-01 0.273E+04   -.526E+00 -.159E+00 -.272E+04   0.102E+00 0.180E-01 -.152E+01   -.110E+00 0.978E-01 0.135E+00
   -.134E-01 -.533E-01 0.273E+04   -.799E-04 0.140E-01 -.273E+04   -.237E-02 0.107E-01 -.134E+01   0.160E-01 0.237E-01 0.176E+00
   -.536E+00 0.281E-01 0.273E+04   0.526E+00 -.159E+00 -.272E+04   -.102E+00 0.180E-01 -.152E+01   0.101E+00 0.102E+00 0.140E+00
   0.178E+00 -.454E+00 0.273E+04   -.113E+00 0.537E+00 -.272E+04   0.494E-01 -.113E+00 -.159E+01   -.107E+00 0.274E-01 0.134E+00
   -.185E+00 -.448E+00 0.273E+04   0.113E+00 0.537E+00 -.272E+04   -.497E-01 -.113E+00 -.159E+01   0.115E+00 0.210E-01 0.135E+00
   0.124E-01 0.436E-01 0.273E+04   0.747E-04 -.487E-02 -.272E+04   0.283E-02 -.129E-01 -.187E+01   -.155E-01 -.246E-01 0.798E-01
   0.391E+01 0.225E+01 0.931E+03   -.346E+01 -.200E+01 -.930E+03   -.367E+00 -.213E+00 -.773E+00   -.591E-01 -.317E-01 -.286E+00
   -.117E-01 0.433E+01 0.937E+03   -.149E-02 -.431E+01 -.937E+03   -.195E-02 0.105E+00 -.319E+00   0.154E-01 -.164E+00 -.444E+00
   -.390E+01 0.225E+01 0.931E+03   0.346E+01 -.200E+01 -.930E+03   0.367E+00 -.213E+00 -.773E+00   0.507E-01 -.251E-01 -.286E+00
   0.373E+01 -.224E+01 0.937E+03   -.373E+01 0.224E+01 -.937E+03   0.115E+00 -.730E-01 -.377E+00   -.139E+00 0.897E-01 -.466E+00
   -.375E+01 -.224E+01 0.937E+03   0.373E+01 0.224E+01 -.937E+03   -.119E+00 -.725E-01 -.377E+00   0.162E+00 0.858E-01 -.469E+00
   0.816E-02 0.960E+00 0.932E+03   0.766E-03 -.115E+01 -.931E+03   0.439E-03 0.904E-01 -.727E+00   -.933E-02 0.777E-01 -.290E+00
   -.252E-02 -.444E+01 0.931E+03   0.502E-03 0.391E+01 -.930E+03   0.421E-03 0.447E+00 -.825E+00   0.158E-02 0.666E-01 -.305E+00
   0.943E+00 -.438E+00 0.932E+03   -.107E+01 0.531E+00 -.931E+03   0.539E-01 -.361E-01 -.750E+00   0.523E-01 -.475E-01 -.292E+00
   -.939E+00 -.447E+00 0.932E+03   0.107E+01 0.530E+00 -.931E+03   -.550E-01 -.364E-01 -.749E+00   -.542E-01 -.375E-01 -.289E+00
   -.532E-02 0.268E+00 -.890E+03   0.880E-02 -.451E+00 0.890E+03   0.856E-04 0.131E+00 0.625E+00   -.358E-02 0.328E-01 -.360E+00
   0.134E+02 0.721E+01 -.862E+03   -.113E+02 -.607E+01 0.864E+03   -.130E+01 -.723E+00 -.112E+01   -.712E+00 -.399E+00 -.104E+01
   -.134E+02 0.721E+01 -.862E+03   0.113E+02 -.607E+01 0.864E+03   0.130E+01 -.724E+00 -.112E+01   0.715E+00 -.396E+00 -.103E+01
   0.441E+01 -.279E+01 -.879E+03   -.442E+01 0.279E+01 0.880E+03   0.282E+00 -.135E+00 0.392E+00   -.258E+00 0.125E+00 -.454E+00
   -.981E-03 -.157E+02 -.864E+03   -.374E-02 0.133E+02 0.866E+03   -.156E-03 0.155E+01 -.114E+01   0.493E-02 0.822E+00 -.111E+01
   -.441E+01 -.280E+01 -.879E+03   0.442E+01 0.280E+01 0.880E+03   -.283E+00 -.135E+00 0.392E+00   0.255E+00 0.122E+00 -.456E+00
   -.608E+00 0.334E+00 -.890E+03   0.761E+00 -.235E+00 0.890E+03   -.963E-01 -.103E+00 0.725E+00   -.361E-01 0.115E-01 -.380E+00
   0.600E+00 0.331E+00 -.890E+03   -.754E+00 -.227E+00 0.890E+03   0.977E-01 -.102E+00 0.728E+00   0.359E-01 0.703E-02 -.376E+00
   0.803E-02 0.580E+01 -.879E+03   -.697E-02 -.582E+01 0.879E+03   -.962E-03 0.324E+00 0.343E+00   -.713E-04 -.282E+00 -.475E+00
   -.318E-01 0.177E+01 -.267E+04   0.298E-01 -.188E+01 0.267E+04   -.132E-02 0.633E-01 0.179E+01   0.335E-02 0.443E-01 -.371E+00
   0.265E+02 0.452E+02 -.265E+04   -.254E+02 -.433E+02 0.265E+04   -.700E+00 -.114E+01 0.117E+01   -.489E+00 -.900E+00 -.426E+00
   -.265E+02 0.454E+02 -.265E+04   0.254E+02 -.434E+02 0.265E+04   0.708E+00 -.115E+01 0.116E+01   0.472E+00 -.890E+00 -.427E+00
   0.498E+02 -.215E+01 -.265E+04   -.475E+02 0.213E+01 0.265E+04   -.141E+01 -.560E-01 0.122E+01   -.988E+00 0.635E-01 -.398E+00
   -.499E+02 -.221E+01 -.265E+04   0.476E+02 0.219E+01 0.265E+04   0.141E+01 -.539E-01 0.123E+01   0.965E+00 0.653E-01 -.399E+00
   0.214E+02 -.406E+02 -.265E+04   -.204E+02 0.389E+02 0.265E+04   -.427E+00 0.101E+01 0.175E+01   -.582E+00 0.799E+00 -.394E+00
   -.214E+02 -.406E+02 -.265E+04   0.205E+02 0.389E+02 0.265E+04   0.429E+00 0.101E+01 0.175E+01   0.571E+00 0.796E+00 -.396E+00
   0.155E-01 0.930E+00 -.267E+04   -.862E-02 -.886E+00 0.267E+04   0.310E-02 -.690E-02 0.199E+01   -.101E-01 -.356E-01 -.255E+00
   0.795E-01 -.418E+01 -.150E+04   -.931E-01 0.416E+01 0.149E+04   0.223E-03 -.236E-01 0.143E+01   0.970E-02 0.702E-02 -.435E+00
   0.679E+02 0.428E+02 -.300E+03   -.745E+02 -.470E+02 0.301E+03   0.672E+01 0.429E+01 -.179E+01   -.705E-01 -.407E-01 0.115E+00
   -.670E+02 0.443E+02 -.299E+03   0.736E+02 -.487E+02 0.301E+03   -.664E+01 0.444E+01 -.169E+01   0.710E-01 -.424E-01 0.115E+00
   -.448E+00 -.564E+02 -.170E+04   0.901E+00 0.990E+02 0.169E+04   -.463E+00 -.426E+02 0.704E+01   0.763E-02 0.447E-01 0.118E+01
   0.384E+00 0.341E+02 0.130E+02   -.854E-13 0.398E-12 0.500E-11   -.368E+00 -.342E+02 -.335E+01   -.222E-01 -.284E-01 -.971E+01

 POSITION                                       TOTAL-FORCE (eV/Angst)
      0.00000      0.00000      5.28219         0.000126      0.005034     -0.027288
      2.93046      0.00000      5.28219        -0.000979      0.014849      0.019331
      5.86091      0.00000      5.28219         0.001307      0.014843      0.019214
      1.46523      2.53785      5.28219         0.010573     -0.009430      0.020377
      4.39568      2.53785      5.28219         0.000340     -0.003867     -0.005098
      7.32614      2.53785      5.28219        -0.010224     -0.009524      0.020403
      2.93046      5.07570      5.28219         0.006791     -0.002180      0.022108
      5.86091      5.07570      5.28219        -0.006526     -0.002145      0.022081
      8.79137      5.07570      5.28219         0.000010      0.002302      0.002374
      1.46523      0.84595      7.67490         0.021516      0.013919      0.002053
      4.39568      0.84595      7.67490         0.000382     -0.030007     -0.051175
      7.32614      0.84595      7.67490        -0.021214      0.013858      0.002076
      2.93046      3.38380      7.67490        -0.022290      0.016361     -0.050376
      5.86091      3.38380      7.67490         0.023106      0.016432     -0.050452
      8.79137      3.38380      7.67490         0.000197     -0.019465      0.002533
      4.39568      5.92165      7.67490         0.000145     -0.022684     -0.005932
      7.32614      5.92165      7.67490        -0.019635      0.010817      0.003869
     10.25659      5.92165      7.67490         0.019942      0.010852      0.003873
      8.79137      1.69455     10.06139         0.000135     -0.017471     -0.026760
      2.94158      1.69832     10.04035         0.025794      0.021859     -0.039254
      5.84978      1.69832     10.04035        -0.025414      0.022034     -0.039536
     10.25392      4.23129     10.05365         0.014749     -0.008268     -0.014030
      4.39568      4.21690     10.04035         0.000208     -0.020204     -0.006369
      7.32881      4.23129     10.05365        -0.014562     -0.008656     -0.013639
     11.71953      6.76627     10.06139         0.021013      0.008719     -0.013272
      5.86321      6.76627     10.06139        -0.020712      0.009019     -0.012925
      8.79137      6.76451     10.05365         0.000184      0.018735     -0.026991
      0.00000      0.00000     12.42536         0.000184      0.000329      0.045675
      2.96459      0.05999     12.43855        -0.061146     -0.094008     -0.059783
      5.82677      0.05999     12.43855         0.061503     -0.094041     -0.059623
      1.53425      2.53742     12.43855        -0.112758     -0.005902     -0.066722
      7.25712      2.53742     12.43855         0.112529     -0.006760     -0.066530
      2.96534      5.01614     12.43855        -0.077712      0.098287     -0.068410
      5.82603      5.01614     12.43855         0.077399      0.098841     -0.068443
      8.79137      5.07570     12.42471        -0.000001      0.002379      0.029594
      4.39568      2.53785     12.16969        -0.003496     -0.038354      0.593961
      3.60742      2.02739     14.51385         0.002610     -0.001116     -0.007266
      5.17708      2.00868     14.50226        -0.002658     -0.000061      0.002425
      4.39703      2.56621     14.29219        -0.001416     -0.005325     -0.032070
    total drift:                               -0.006272     -0.042064     -0.103749

  FREE ENERGIE OF THE ION-ELECTRON SYSTEM (eV)
  free  energy   TOTEN  =      -109.55914463 eV

  energy  without entropy=     -109.55914463  energy(sigma->0) =     -109.55914463

 stress matrix after NEB project (eV)
     -7.10149     -0.00667      0.00793
     -0.00667     -7.43620      0.05761
      0.00793      0.05761      0.96952
  FORCES: max atom, RMS     0.032540    0.005389
  FORCE total and by dimension    0.033655    0.032070
  Stress total and by dimension   10.328365    7.436202
|           W    W    AA    RRRRR   N    N  II  N    N   GGGG   !!!           |
|           W    W   A  A   R    R  NN   N  II  NN   N  G    G  !!!           |
|           W    W  A    A  R    R  N N  N  II  N N  N  G       !!!           |
|           W WW W  AAAAAA  RRRRR   N  N N  II  N  N N  G  GGG   !            |
|           WW  WW  A    A  R   R   N   NN  II  N   NN  G    G                |
|           W    W  A    A  R    R  N    N  II  N    N   GGGG   !!!           |
|     Tetrahedron method does not include variations of the Fermi             |
|     occupations, so forces and stress will be inaccurate. We suggest        |
|     using a different smearing scheme ISMEAR = 1 or 2 for metals in         |
|     relaxations.                                                            |

 total charge

# of ion       s       p       d       tot
    1        0.419   0.201   9.177   9.797
    2        0.417   0.203   9.177   9.797
    3        0.417   0.203   9.177   9.797
    4        0.417   0.203   9.177   9.797
    5        0.418   0.203   9.175   9.796
    6        0.417   0.203   9.177   9.797
    7        0.417   0.202   9.177   9.797
    8        0.417   0.202   9.177   9.797
    9        0.415   0.201   9.178   9.794
   10        0.408   0.268   9.163   9.838
   11        0.409   0.266   9.168   9.844
   12        0.408   0.268   9.163   9.838
   13        0.408   0.267   9.168   9.843
   14        0.408   0.267   9.168   9.843
   15        0.404   0.268   9.165   9.837
   16        0.408   0.268   9.162   9.838
   17        0.403   0.268   9.165   9.837
   18        0.403   0.268   9.165   9.837
   19        0.404   0.264   9.166   9.833
   20        0.429   0.296   9.143   9.868
   21        0.429   0.296   9.143   9.868
   22        0.397   0.273   9.166   9.835
   23        0.429   0.297   9.142   9.868
   24        0.397   0.273   9.166   9.835
   25        0.402   0.264   9.166   9.832
   26        0.402   0.264   9.166   9.832
   27        0.398   0.272   9.166   9.836
   28        0.411   0.199   9.175   9.785
   29        0.431   0.215   9.164   9.809
   30        0.431   0.215   9.163   9.809
   31        0.431   0.213   9.164   9.808
   32        0.431   0.213   9.164   9.808
   33        0.425   0.206   9.171   9.802
   34        0.425   0.206   9.171   9.801
   35        0.404   0.200   9.177   9.781
   36        0.270   0.206   5.136   5.612
   37        0.602   0.118   0.000   0.720
   38        0.602   0.118   0.000   0.719
   39        1.569   3.608   0.000   5.177
tot         17.532  12.443 325.987 355.962

 BZINTS: Fermi energy:    0.440703;  400.000000 electrons
         Band energy:-0.149400E+04;  BLOECHL correction:   -0.022525