 vasp.6.2.0 18Jan21 (build Jun 12 2021 23:27:24) complex

 executed on             LinuxIFC date 2022.05.26  19:57:28

 INCAR:
   ISMEAR = -5
   SIGMA = 0.1
   ISPIN = 1
   EDIFF = 1.d-5
   EDIFFG = -0.01
   NSW = 0
   NELM = 150
   ENCUT = 500
   ISIF = 2
   IBRION = 2
   LREAL = Auto
   ALGO = Fast
   ICHARG = 11
   LORBIT = 10
   LCHARG = .F.
   LWAVE = .F.

 POTCAR:    PAW_PBE Cu 22Jun2005
 POTCAR:    PAW_PBE Cr 06Sep2000
 POTCAR:    PAW_PBE N 08Apr2002
|           W    W    AA    RRRRR   N    N  II  N    N   GGGG   !!!           |
|           W    W   A  A   R    R  NN   N  II  NN   N  G    G  !!!           |
|           W    W  A    A  R    R  N N  N  II  N N  N  G       !!!           |
|           W WW W  AAAAAA  RRRRR   N  N N  II  N  N N  G  GGG   !            |
|           WW  WW  A    A  R   R   N   NN  II  N   NN  G    G                |
|           W    W  A    A  R    R  N    N  II  N    N   GGGG   !!!           |
|     For optimal performance we recommend to set                             |
|       NCORE = 2 up to number-of-cores-per-socket                            |
|     This setting can greatly improve the performance of VASP for DFT.       |
|     The default, NCORE=1 might be grossly inefficient on modern             |
|     multi-core architectures or massively parallel machines. Do your        |
|     Unfortunately you need to use the default for GW and RPA                |
|     calculations (for HF NCORE is supported but not extensively tested      |
|     yet).                                                                   |

 POTCAR:    PAW_PBE Cu 22Jun2005
   VRHFIN =Cu: d10 p1

   TITEL  = PAW_PBE Cu 22Jun2005
   POMASS =   63.546; ZVAL   =   11.000    mass and valenz
   ENMAX  =  295.446; ENMIN  =  221.585 eV

 POTCAR:    PAW_PBE Cr 06Sep2000
   VRHFIN =Cr : d5 s1

   TITEL  = PAW_PBE Cr 06Sep2000
   POMASS =   51.996; ZVAL   =    6.000    mass and valenz
   ENMAX  =  227.080; ENMIN  =  170.310 eV

 POTCAR:    PAW_PBE N 08Apr2002
   VRHFIN =N: s2p3

   TITEL  = PAW_PBE N 08Apr2002
   POMASS =   14.001; ZVAL   =    5.000    mass and valenz
   ENMAX  =  400.000; ENMIN  =  300.000 eV

 Optimization of the real space projectors (new method)

 maximal supplied QI-value         = 16.25
 optimisation between [QCUT,QGAM] = [ 11.38, 22.75] = [ 36.24,144.96] Ry
 Optimized for a Real-space Cutoff    1.52 Angstroem

   l    n(q)    QCUT    max X(q) W(low)/X(q) W(high)/X(q)  e(spline)
   2      9    11.376     4.610    0.21E-03    0.10E-03    0.26E-06
   2      9    11.376     8.522    0.33E-03    0.16E-03    0.37E-06
   0     10    11.376    51.609    0.62E-04    0.20E-04    0.13E-06
   0     10    11.376    27.747    0.54E-04    0.20E-04    0.13E-06
   1     10    11.376    20.408    0.13E-04    0.99E-04    0.19E-06
   1     10    11.376    13.425    0.12E-04    0.87E-04    0.17E-06
 Optimization of the real space projectors (new method)

[...]

   l    n(q)    QCUT    max X(q) W(low)/X(q) W(high)/X(q)  e(spline)
   2      9    11.338    94.395    0.18E-03    0.10E-02    0.64E-06
   2      9    11.338    88.078    0.18E-03    0.10E-02    0.65E-06
   0     10    11.338    50.173    0.13E-03    0.16E-03    0.96E-07
   0     10    11.338    24.906    0.12E-03    0.14E-03    0.88E-07
   1      9    11.338    12.133    0.13E-03    0.15E-03    0.24E-06
   1      9    11.338     7.290    0.10E-03    0.10E-03    0.18E-06
 Optimization of the real space projectors (new method)

 maximal supplied QI-value         = 25.13
 optimisation between [QCUT,QGAM] = [ 11.31, 22.87] = [ 35.82,146.48] Ry
 Optimized for a Real-space Cutoff    1.27 Angstroem

   l    n(q)    QCUT    max X(q) W(low)/X(q) W(high)/X(q)  e(spline)
   0      9    11.310    79.467    0.75E-04    0.16E-03    0.36E-06
   0      9    11.310    66.151    0.74E-04    0.16E-03    0.36E-06
   1      8    11.310    17.416    0.35E-03    0.12E-03    0.95E-06
   1      8    11.310    12.382    0.37E-03    0.13E-03    0.98E-06
  PAW_PBE Cu 22Jun2005                  :
  PAW_PBE Cr 06Sep2000                  :
  PAW_PBE N 08Apr2002                   :

 POSCAR: Cu-Cr-N
  positions in direct lattice
  velocities in cartesian coordinates
 exchange correlation table for  LEXCH =        8
   RHO(1)=    0.500       N(1)  =     2000
   RHO(2)=  100.500       N(2)  =     4000

 VTST: version 3.2, (02/03/18)

 CHAIN: initializing optimizer

 OPT: Using VASP Conjugate-Gradient optimizer
 CHAIN: Read ICHAIN            0

 POSCAR: Cu-Cr-N
  positions in direct lattice
  velocities in cartesian coordinates

 ion  position               nearest neighbor table
   1  0.000  0.000  0.252-   7 2.57   3 2.57   4 2.57   2 2.57   6 2.57   8 2.57  12 2.57  10 2.57
                            16 2.57
   2  0.333  0.000  0.252-   8 2.57   9 2.57   5 2.57   1 2.57   3 2.57  11 2.57   4 2.57  10 2.57
                            17 2.57
   3  0.667  0.000  0.252-   1 2.57   7 2.57   6 2.57   9 2.57   2 2.57  12 2.57   5 2.57  18 2.57
                            11 2.57
   4  0.000  0.333  0.252-   5 2.57   6 2.57   1 2.57   7 2.57   2 2.57  13 2.57   9 2.57  10 2.57
                            15 2.57
   5  0.333  0.333  0.252-   4 2.57   2 2.57   7 2.57  13 2.57   8 2.57   6 2.57   3 2.57  11 2.57
                            14 2.57
   6  0.667  0.333  0.252-   4 2.57   9 2.57  15 2.57   3 2.57   1 2.57   8 2.57  14 2.57   5 2.57
                            12 2.57
   7  0.000  0.667  0.252-   1 2.57   3 2.57  16 2.57  18 2.57   4 2.57   5 2.57   8 2.57   9 2.57
                            13 2.57
   8  0.333  0.667  0.252-   9 2.57   2 2.57  17 2.57   6 2.57   1 2.57   7 2.57   5 2.57  14 2.57
                            16 2.57
   9  0.667  0.667  0.252-   8 2.57   6 2.57   2 2.57  17 2.57   3 2.57   7 2.57   4 2.57  15 2.57
                            18 2.57
  10  0.111  0.111  0.351-  20 2.55  26 2.56  19 2.56  11 2.57  12 2.57  13 2.57   1 2.57   2 2.57
                             4 2.57  15 2.57  16 2.57  17 2.57
  11  0.444  0.111  0.351-  20 2.55  21 2.55  10 2.57  13 2.57   2 2.57  17 2.57  14 2.57  12 2.57
                             5 2.57   3 2.57  18 2.57  27 2.57
  12  0.778  0.111  0.351-  21 2.55  19 2.56  25 2.56  15 2.57  10 2.57  14 2.57  18 2.57   3 2.57
                             1 2.57  16 2.57  11 2.57   6 2.57
  13  0.111  0.444  0.351-  23 2.55  20 2.55  16 2.57  18 2.57  10 2.57  11 2.57  14 2.57   5 2.57
                             4 2.57   7 2.57  15 2.57  22 2.57
  14  0.444  0.444  0.351-  21 2.55  23 2.55  15 2.57  17 2.57  12 2.57  16 2.57  13 2.57  11 2.57
                             6 2.57   8 2.57   5 2.57  24 2.57
  15  0.778  0.444  0.351-  19 2.56  24 2.56  22 2.56  14 2.57  17 2.57  12 2.57   6 2.57  18 2.57
                            10 2.57   9 2.57  13 2.57   4 2.57
  16  0.111  0.778  0.351-  23 2.55  25 2.56  26 2.56  18 2.57  13 2.57   7 2.57  14 2.57  17 2.57
                            12 2.57  10 2.57   8 2.57   1 2.57
  17  0.444  0.778  0.351-  26 2.56  27 2.56  24 2.56  14 2.57  15 2.57   8 2.57   9 2.57  11 2.57
                            16 2.57  18 2.57  10 2.57   2 2.57
  18  0.778  0.778  0.351-  25 2.56  22 2.56  27 2.56  16 2.57  13 2.57   7 2.57  15 2.57  12 2.57
                            17 2.57   9 2.57   3 2.57  11 2.57
  19  0.889  0.222  0.449-  12 2.56  10 2.56  15 2.56  28 2.56  25 2.57  26 2.57  22 2.57  24 2.57
                            21 2.57  20 2.57  32 2.58  31 2.58
  20  0.222  0.222  0.448-  36 2.50  11 2.55  13 2.55  10 2.55  23 2.56  21 2.56  26 2.57  19 2.57
                            29 2.57  31 2.57  27 2.57  22 2.57
  21  0.555  0.222  0.448-  36 2.50  14 2.55  11 2.55  12 2.55  20 2.56  23 2.56  19 2.57  25 2.57
                            32 2.57  30 2.57  24 2.57  27 2.57
  22  0.888  0.556  0.449-  35 2.56  24 2.56  27 2.56  18 2.56  15 2.56  31 2.56  33 2.56  19 2.57
                            25 2.57  13 2.57  23 2.57  20 2.57
  23  0.222  0.555  0.448-  36 2.50  13 2.55  14 2.55  16 2.55  20 2.56  21 2.56  25 2.57  26 2.57
                            33 2.57  34 2.57  22 2.57  24 2.57
  24  0.556  0.556  0.449-  35 2.56  22 2.56  27 2.56  15 2.56  17 2.56  32 2.56  34 2.56  19 2.57
                            26 2.57  14 2.57  21 2.57  23 2.57
  25  0.889  0.889  0.449-  12 2.56  16 2.56  18 2.56  28 2.56  19 2.57  26 2.57  22 2.57  27 2.57
                            21 2.57  23 2.57  33 2.58  30 2.58
  26  0.222  0.889  0.449-  10 2.56  16 2.56  17 2.56  28 2.56  25 2.57  19 2.57  27 2.57  24 2.57
                            20 2.57  23 2.57  29 2.58  34 2.58
  27  0.556  0.888  0.449-  35 2.56  24 2.56  22 2.56  17 2.56  18 2.56  29 2.56  30 2.56  26 2.57
                            25 2.57  11 2.57  20 2.57  21 2.57
  28  0.000  0.000  0.547-  25 2.56  19 2.56  26 2.56  33 2.57  30 2.57  31 2.57  29 2.57  32 2.57
                            34 2.57
  29  0.333  0.002  0.547-  31 2.55  30 2.55  36 2.55  27 2.56  20 2.57  28 2.57  35 2.57  26 2.58
                            34 2.60
  30  0.665  0.002  0.547-  32 2.55  29 2.55  36 2.55  27 2.56  21 2.57  28 2.57  35 2.57  25 2.58
                            33 2.60
  31  0.002  0.333  0.547-  29 2.55  33 2.55  36 2.55  22 2.56  20 2.57  28 2.57  35 2.57  19 2.58
                            32 2.60
  32  0.665  0.333  0.547-  30 2.55  34 2.55  36 2.55  24 2.56  21 2.57  28 2.57  35 2.57  19 2.58
                            31 2.60
  33  0.002  0.665  0.547-  34 2.55  31 2.55  36 2.55  22 2.56  23 2.57  28 2.57  35 2.57  25 2.58
                            30 2.60
  34  0.333  0.665  0.547-  33 2.55  32 2.55  36 2.55  24 2.56  23 2.57  28 2.57  35 2.57  26 2.58
                            29 2.60
  35  0.667  0.667  0.547-  24 2.56  27 2.56  22 2.56  34 2.57  32 2.57  29 2.57  30 2.57  33 2.57
                            31 2.57
  36  0.333  0.333  0.543-  37 1.60  23 2.50  20 2.50  21 2.50  31 2.55  29 2.55  33 2.55  34 2.55
                            32 2.55  30 2.55
  37  0.333  0.333  0.618-  36 1.60

  LATTYP: Found a hexagonal cell.
 ALAT       =     7.6967864036
 C/A-ratio  =     2.7653617908

  Lattice vectors:

 A1 = (  -3.8483927580,  -6.6656128093,   0.0000000000)
 A2 = (   7.6967864037,   0.0000000000,   0.0000000000)
 A3 = (   0.0000000000,   0.0000000000,  21.2843990326)

Analysis of symmetry for initial positions (statically):
 Subroutine PRICEL returns:
 Original cell was already a primitive cell.

 Routine SETGRP: Setting up the symmetry group for a
 hexagonal supercell.

 Subroutine GETGRP returns: Found  6 space group operations
 (whereof  6 operations were pure point group operations)
 out of a pool of 24 trial point group operations.

The static configuration has the point symmetry C_3v.

Analysis of symmetry for dynamics (positions and initial velocities):
 Subroutine PRICEL returns:
 Original cell was already a primitive cell.

[...]

The dynamic configuration has the point symmetry C_3v.

Analysis of constrained symmetry for selective dynamics:
 Subroutine PRICEL returns:
 Original cell was already a primitive cell.

 Routine SETGRP: Setting up the symmetry group for a
 hexagonal supercell.

 Subroutine GETGRP returns: Found  6 space group operations
[...]
     24      -4.3599      2.00000
     25      -4.2143      2.00000
     26      -4.1801      2.00000
     27      -4.1269      2.00000
     28      -4.1193      2.00000
     29      -4.1134      2.00000
     30      -4.1023      2.00000
     31      -4.0928      2.00000
     32      -4.0876      2.00000
     33      -4.0363      2.00000
     34      -4.0241      2.00000
     35      -4.0120      2.00000
     36      -3.9316      2.00000
     37      -3.9045      2.00000
     38      -3.8125      2.00000
     39      -3.7944      2.00000
     40      -3.7659      2.00000
     41      -3.7332      2.00000
     42      -3.7054      2.00000
     43      -3.6963      2.00000
     44      -3.6872      2.00000
     45      -3.6628      2.00000
     46      -3.6523      2.00000
     47      -3.5329      2.00000
     48      -3.4782      2.00000
     49      -3.4662      2.00000
     50      -3.4482      2.00000
     51      -3.4261      2.00000
     52      -3.4192      2.00000
     53      -3.3834      2.00000
     54      -3.3819      2.00000
     55      -3.3677      2.00000
     56      -3.3427      2.00000
     57      -3.3360      2.00000
     58      -3.3108      2.00000
     59      -3.3011      2.00000
     60      -3.2954      2.00000
[...]
    238       6.2415      0.00000
    239       6.3128      0.00000
    240       6.4025      0.00000
    241       6.9617      0.00000
    242       6.9768      0.00000
    243       7.0798      0.00000
    244       7.1348      0.00000
    245       7.2249      0.00000
    246       7.2713      0.00000
    247       7.3788      0.00000
    248       7.4664      0.00000
    249       7.5313      0.00000
    250       7.7692      0.00000
    251       7.7865      0.00000
    252       7.9105      0.00000

 soft charge-density along one line, spin component           1
         0         1         2         3         4         5         6         7         8         9
 total charge-density along one line

------------------------ aborting loop because EDIFF is reached ----------------------------------------

 total charge

# of ion       s       p       d       tot
    1        0.450   0.284   9.188   9.922
    2        0.449   0.285   9.186   9.920
    3        0.449   0.285   9.186   9.920
    4        0.449   0.285   9.186   9.920
    5        0.448   0.285   9.185   9.918
    6        0.449   0.285   9.186   9.920
    7        0.449   0.285   9.186   9.920
    8        0.449   0.285   9.186   9.920
    9        0.447   0.285   9.188   9.920
   10        0.441   0.371   9.177   9.989
   11        0.441   0.370   9.181   9.991
   12        0.441   0.371   9.177   9.989
   13        0.441   0.370   9.181   9.991
   14        0.441   0.370   9.181   9.991
   15        0.438   0.370   9.177   9.986
   16        0.441   0.371   9.177   9.989
   17        0.438   0.370   9.177   9.986
   18        0.438   0.370   9.177   9.986
   19        0.441   0.365   9.183   9.990
   20        0.458   0.392   9.168  10.018
   21        0.458   0.392   9.168  10.018
   22        0.434   0.375   9.178   9.987
   23        0.458   0.392   9.168  10.018
   24        0.434   0.375   9.178   9.987
   25        0.441   0.365   9.183   9.990
   26        0.441   0.365   9.183   9.990
   27        0.434   0.375   9.178   9.987
   28        0.451   0.283   9.186   9.920
   29        0.453   0.297   9.181   9.931
   30        0.453   0.297   9.181   9.931
   31        0.453   0.297   9.181   9.931
   32        0.453   0.297   9.181   9.931
   33        0.453   0.297   9.181   9.931
   34        0.453   0.297   9.181   9.931
   35        0.449   0.289   9.183   9.920
   36        0.579   0.739   4.739   6.058
   37        1.349   2.193   0.000   3.543
tot         17.549  14.577 326.060 358.186

  FORCE on cell =-STRESS in cart. coord.  units (eV):
  Direction    XX          YY          ZZ          XY          YZ          ZX
  Alpha Z   876.65805   876.65805   876.65805
  Ewald  172095.85004172095.84965************     0.00039     0.00012     0.00018
  Hartree185029.05852185029.05851************     0.00004     0.00006     0.00007
  E(xc)   -2293.56709 -2293.56661 -2299.19879    -0.00042    -0.00003    -0.00006
  Local  ************************370280.18809     0.01864    -0.00060    -0.00097
  n-local  -779.85873  -766.94184  -786.23585     6.71098    -0.08167     0.23967
  augment  3335.78331  3335.80345  3353.03584    -0.01745     0.00024     0.00044
  Kinetic  3274.08381  3275.94049  3292.29019     2.26519     1.84342    -1.30402
  Fock        0.00000     0.00000     0.00000     0.00000     0.00000     0.00000
  Total      -7.01561    -7.01561    -1.44977     0.00000     0.00000    -0.00000
  in kB     -10.29354   -10.29354    -2.12716     0.00000     0.00000    -0.00000

 VOLUME and BASIS-vectors are now :
  energy-cutoff  :      500.00
  volume of cell :     1091.97
      direct lattice vectors                 reciprocal lattice vectors
     7.696786404  0.000000000  0.000000000     0.129924354 -0.075011849  0.000000000
     3.848392758  6.665612809  0.000000000     0.000000000  0.150023716  0.000000000
     0.000000000  0.000000000 21.284399033     0.000000000  0.000000000  0.046982769

  length of vectors
     7.696786404  7.696786404 21.284399033     0.150023716  0.150023716  0.046982769

 FORCES acting on ions
    electron-ion (+dipol)            ewald-force                    non-local-force                 convergence-correction
   -.416E-04 0.139E-06 0.347E+04   0.580E-04 -.435E-05 -.347E+04   0.231E-18 -.394E-17 -.216E+01   -.156E-03 -.570E-04 0.109E+00
   -.289E+00 -.161E+00 0.347E+04   0.269E+00 0.186E+00 -.347E+04   -.211E-01 0.967E-02 -.194E+01   0.399E-01 -.312E-01 0.101E+00
   0.289E+00 -.160E+00 0.347E+04   -.269E+00 0.186E+00 -.347E+04   0.211E-01 0.967E-02 -.194E+01   -.393E-01 -.286E-01 0.101E+00
   -.284E+00 -.170E+00 0.347E+04   0.296E+00 0.140E+00 -.347E+04   -.216E-02 -.231E-01 -.194E+01   -.695E-02 0.501E-01 0.101E+00
   -.650E-04 -.528E-05 0.347E+04   0.116E-03 -.101E-04 -.347E+04   0.387E-17 0.310E-17 -.202E+01   0.121E-01 0.739E-02 0.331E-01
   0.284E+00 -.170E+00 0.347E+04   -.296E+00 0.140E+00 -.347E+04   0.216E-02 -.231E-01 -.194E+01   0.543E-02 0.515E-01 0.102E+00
   0.558E-02 0.331E+00 0.347E+04   0.261E-01 -.326E+00 -.347E+04   0.189E-01 0.134E-01 -.194E+01   -.444E-01 -.198E-01 0.102E+00
   -.548E-02 0.331E+00 0.347E+04   -.264E-01 -.326E+00 -.347E+04   -.189E-01 0.134E-01 -.194E+01   0.480E-01 -.210E-01 0.102E+00
   -.144E-03 -.330E-04 0.347E+04   0.263E-03 0.205E-04 -.347E+04   0.220E-17 0.102E-17 -.210E+01   -.133E-01 -.686E-02 0.117E+00
   -.161E+01 -.930E+00 0.116E+04   0.173E+01 0.998E+00 -.116E+04   -.224E+00 -.129E+00 -.720E+00   0.902E-01 0.521E-01 0.103E+00
   -.904E-04 -.168E+01 0.115E+04   0.189E-03 0.146E+01 -.115E+04   -.115E-07 0.173E+00 -.700E+00   0.108E-01 0.164E-01 0.665E-01
   0.161E+01 -.930E+00 0.116E+04   -.173E+01 0.998E+00 -.116E+04   0.224E+00 -.129E+00 -.720E+00   -.908E-01 0.534E-01 0.101E+00
   -.145E+01 0.838E+00 0.115E+04   0.126E+01 -.730E+00 -.115E+04   0.150E+00 -.866E-01 -.700E+00   0.200E-01 0.196E-02 0.665E-01
   0.145E+01 0.838E+00 0.115E+04   -.126E+01 -.730E+00 -.115E+04   -.150E+00 -.866E-01 -.700E+00   0.364E-02 0.173E-02 0.650E-01
   -.142E-03 -.576E+00 0.116E+04   0.298E-03 0.437E+00 -.116E+04   -.549E-08 0.825E-01 -.742E+00   -.299E-02 0.580E-01 0.769E-01
   -.915E-04 0.186E+01 0.116E+04   0.186E-03 -.200E+01 -.116E+04   -.172E-07 0.259E+00 -.720E+00   -.881E-04 -.107E+00 0.101E+00
   -.499E+00 0.288E+00 0.116E+04   0.379E+00 -.218E+00 -.116E+04   0.714E-01 -.412E-01 -.742E+00   0.494E-01 -.316E-01 0.768E-01
   0.499E+00 0.288E+00 0.116E+04   -.379E+00 -.218E+00 -.116E+04   -.714E-01 -.412E-01 -.742E+00   -.491E-01 -.300E-01 0.758E-01
   -.624E-04 -.398E+01 -.117E+04   0.702E-04 0.386E+01 0.117E+04   -.324E-08 0.486E-01 0.108E+01   0.134E-01 0.568E-01 -.975E-01
   -.304E+02 -.176E+02 -.120E+04   0.305E+02 0.176E+02 0.120E+04   -.461E+00 -.266E+00 0.183E+00   0.147E+00 0.847E-01 0.699E-01
   0.304E+02 -.176E+02 -.120E+04   -.305E+02 0.176E+02 0.120E+04   0.461E+00 -.266E+00 0.183E+00   -.169E+00 0.871E-01 0.692E-01
   -.149E+02 0.858E+01 -.117E+04   0.145E+02 -.834E+01 0.117E+04   0.406E+00 -.234E+00 0.970E+00   0.505E-01 -.460E-01 -.201E+00
   -.813E-04 0.351E+02 -.120E+04   0.147E-03 -.352E+02 0.120E+04   -.355E-07 0.533E+00 0.183E+00   -.104E-01 -.192E+00 0.691E-01
   0.149E+02 0.858E+01 -.117E+04   -.145E+02 -.834E+01 0.117E+04   -.406E+00 -.234E+00 0.970E+00   -.718E-01 -.423E-01 -.201E+00
   0.344E+01 0.199E+01 -.117E+04   -.334E+01 -.193E+01 0.117E+04   -.421E-01 -.243E-01 0.108E+01   -.308E-01 -.178E-01 -.980E-01
   -.344E+01 0.199E+01 -.117E+04   0.334E+01 -.193E+01 0.117E+04   0.421E-01 -.243E-01 0.108E+01   0.563E-01 -.166E-01 -.975E-01
   -.124E-03 -.172E+02 -.117E+04   0.240E-03 0.167E+02 0.117E+04   -.312E-07 0.469E+00 0.970E+00   -.146E-01 0.667E-01 -.201E+00
   -.350E-04 0.168E-04 -.344E+04   0.380E-04 -.333E-04 0.344E+04   0.432E-18 0.111E-17 0.206E+01   0.819E-03 0.524E-03 -.144E+00
   -.118E+02 -.228E+02 -.343E+04   0.119E+02 0.225E+02 0.342E+04   -.259E+00 -.215E+00 0.301E+01   0.119E+00 0.326E+00 -.102E+00
   0.118E+02 -.228E+02 -.343E+04   -.119E+02 0.225E+02 0.342E+04   0.259E+00 -.215E+00 0.301E+01   -.119E+00 0.328E+00 -.997E-01
   -.256E+02 0.113E+01 -.343E+04   0.254E+02 -.956E+00 0.342E+04   -.316E+00 -.117E+00 0.301E+01   0.342E+00 -.601E-01 -.102E+00
   0.256E+02 0.113E+01 -.343E+04   -.254E+02 -.956E+00 0.342E+04   0.316E+00 -.117E+00 0.301E+01   -.342E+00 -.580E-01 -.100E+00
   -.138E+02 0.216E+02 -.343E+04   0.135E+02 -.216E+02 0.342E+04   -.567E-01 0.332E+00 0.301E+01   0.225E+00 -.268E+00 -.997E-01
   0.138E+02 0.216E+02 -.343E+04   -.136E+02 -.216E+02 0.342E+04   0.567E-01 0.332E+00 0.301E+01   -.221E+00 -.267E+00 -.100E+00
   -.128E-03 -.168E-04 -.345E+04   0.252E-03 0.475E-05 0.345E+04   -.824E-17 0.112E-16 0.234E+01   -.134E-01 -.690E-02 -.474E-01
   -.454E-04 -.161E-04 -.170E+04   0.773E-04 0.145E-04 0.170E+04   -.775E-17 0.271E-17 0.212E+01   0.125E-02 0.759E-03 -.345E-01
   0.104E-03 -.473E-04 -.185E+04   0.189E-04 0.813E-05 0.186E+04   0.219E-17 -.306E-19 -.180E+02   0.139E-02 0.839E-03 -.432E+00
   -.183E-03 -.662E-04 0.116E+02   0.192E-12 0.323E-12 -.773E-11   0.215E-15 0.125E-15 -.112E+02   -.405E-02 -.537E-02 -.350E+00

 POSITION                                       TOTAL-FORCE (eV/Angst)
      0.00000      0.00000      5.37156        -0.000000      0.000000      0.018280
      2.56560      0.00000      5.37156        -0.000363      0.004832      0.052953
      5.13119      0.00000      5.37156         0.000363      0.004832      0.052953
      1.28280      2.22187      5.37156         0.004003     -0.002731      0.052953
      3.84839      2.22187      5.37156         0.000000      0.000000      0.036620
      6.41399      2.22187      5.37156        -0.004003     -0.002731      0.052953
      2.56560      4.44374      5.37156         0.004367     -0.002101      0.052953
      5.13119      4.44374      5.37156        -0.004367     -0.002101      0.052953
      7.69679      4.44374      5.37156        -0.000000      0.000000      0.031992
      1.28280      0.74062      7.46636        -0.015540     -0.008972     -0.069191
      3.84839      0.74062      7.46636         0.000000     -0.032694     -0.062082
      6.41399      0.74062      7.46636         0.015540     -0.008972     -0.069191
      2.56560      2.96249      7.46636        -0.028314      0.016347     -0.062082
      5.13119      2.96249      7.46636         0.028314      0.016347     -0.062082
      7.69679      2.96249      7.46636        -0.000000      0.001407      0.004766
      3.84839      5.18437      7.46636        -0.000000      0.017944     -0.069191
      6.41399      5.18437      7.46636         0.001218     -0.000703      0.004766
      8.97958      5.18437      7.46636        -0.001218     -0.000703      0.004766
      7.69679      1.48113      9.55176         0.000000     -0.014973      0.053613
      2.56610      1.48154      9.54462        -0.228300     -0.131809     -0.231527
      5.13069      1.48154      9.54462         0.228300     -0.131809     -0.231527
      8.97635      3.70498      9.55922         0.057094     -0.032963      0.035533
      3.84839      3.70254      9.54462        -0.000000      0.263618     -0.231527
      6.41722      3.70498      9.55922        -0.057094     -0.032963      0.035533
     10.26248      5.92505      9.55176         0.012967      0.007487      0.053613
      5.13109      5.92505      9.55176        -0.012967      0.007487      0.053613
      7.69679      5.92126      9.55922        -0.000000      0.065927      0.035533
      0.00000      0.00000     11.63975        -0.000000      0.000000     -0.069703
      2.57267      0.01383     11.65039        -0.085550     -0.146753     -0.088100
      5.12411      0.01383     11.65039         0.085550     -0.146753     -0.088100
      1.29831      2.22109     11.65039        -0.169867     -0.000712     -0.088100
      6.39847      2.22109     11.65039         0.169867     -0.000712     -0.088100
      2.57403      4.43070     11.65039        -0.084317      0.147465     -0.088100
      5.12275      4.43070     11.65039         0.084317      0.147465     -0.088100
      7.69679      4.44374     11.64501        -0.000000      0.000000     -0.044548
      3.84839      2.22187     11.55740        -0.000000     -0.000000      1.042925
      3.84839      2.22187     13.15394        -0.000000     -0.000000      0.001979
    total drift:                               -0.004228     -0.005435      0.038152

  FREE ENERGIE OF THE ION-ELECTRON SYSTEM (eV)
  free  energy   TOTEN  =      -138.16695398 eV

  energy  without entropy=     -138.16695398  energy(sigma->0) =     -138.16695398

 stress matrix after NEB project (eV)
     -7.01561      0.00000     -0.00000
      0.00000     -7.01561     -0.00000
     -0.00000      0.00000     -1.44977
  FORCES: max atom, RMS     0.001979    0.000325
  FORCE total and by dimension    0.001979    0.001979
  Stress total and by dimension   10.026930    7.015607
|           W    W    AA    RRRRR   N    N  II  N    N   GGGG   !!!           |
|           W    W   A  A   R    R  NN   N  II  NN   N  G    G  !!!           |
|           W    W  A    A  R    R  N N  N  II  N N  N  G       !!!           |
|           W WW W  AAAAAA  RRRRR   N  N N  II  N  N N  G  GGG   !            |
|           WW  WW  A    A  R   R   N   NN  II  N   NN  G    G                |
|           W    W  A    A  R    R  N    N  II  N    N   GGGG   !!!           |
|     Tetrahedron method does not include variations of the Fermi             |
|     occupations, so forces and stress will be inaccurate. We suggest        |
|     using a different smearing scheme ISMEAR = 1 or 2 for metals in         |
|     relaxations.                                                            |

 total charge

# of ion       s       p       d       tot
    1        0.450   0.284   9.188   9.922
    2        0.449   0.285   9.186   9.920
    3        0.449   0.285   9.186   9.920
    4        0.449   0.285   9.186   9.920
    5        0.448   0.285   9.185   9.918
    6        0.449   0.285   9.186   9.920
    7        0.449   0.285   9.186   9.920
    8        0.449   0.285   9.186   9.920
    9        0.447   0.285   9.188   9.920
   10        0.441   0.371   9.177   9.989
   11        0.441   0.370   9.181   9.991
   12        0.441   0.371   9.177   9.989
   13        0.441   0.370   9.181   9.991
   14        0.441   0.370   9.181   9.991
   15        0.438   0.370   9.177   9.986
   16        0.441   0.371   9.177   9.989
   17        0.438   0.370   9.177   9.986
   18        0.438   0.370   9.177   9.986
   19        0.441   0.365   9.183   9.990
   20        0.458   0.392   9.168  10.018
   21        0.458   0.392   9.168  10.018
   22        0.434   0.375   9.178   9.987
   23        0.458   0.392   9.168  10.018
   24        0.434   0.375   9.178   9.987
   25        0.441   0.365   9.183   9.990
   26        0.441   0.365   9.183   9.990
   27        0.434   0.375   9.178   9.987
   28        0.451   0.283   9.186   9.920
   29        0.453   0.297   9.181   9.931
   30        0.453   0.297   9.181   9.931
   31        0.453   0.297   9.181   9.931
   32        0.453   0.297   9.181   9.931
   33        0.453   0.297   9.181   9.931
   34        0.453   0.297   9.181   9.931
   35        0.449   0.289   9.183   9.920
   36        0.579   0.739   4.739   6.058
   37        1.349   2.193   0.000   3.543
tot         17.549  14.577 326.060 358.186

 BZINTS: Fermi energy:    0.011167;  396.000000 electrons
         Band energy:-0.113582E+04;  BLOECHL correction:   -0.028688