 vasp.6.2.0 18Jan21 (build Jun 12 2021 23:27:24) complex

 executed on             LinuxIFC date 2022.05.27  06:03:11

 INCAR:
   ISMEAR = -5
   SIGMA = 0.1
   ISPIN = 1
   EDIFF = 1.d-5
   EDIFFG = -0.01
   NSW = 0
   NELM = 150
   ENCUT = 500
   ISIF = 2
   IBRION = 2
   LREAL = Auto
   ALGO = Fast
   ICHARG = 11
   LORBIT = 10
   LCHARG = .F.
   LWAVE = .F.

 POTCAR:    PAW_PBE Cu 22Jun2005
 POTCAR:    PAW_PBE Co 02Aug2007
 POTCAR:    PAW_PBE C 08Apr2002
 POTCAR:    PAW_PBE O 08Apr2002
|           W    W    AA    RRRRR   N    N  II  N    N   GGGG   !!!           |
|           W    W   A  A   R    R  NN   N  II  NN   N  G    G  !!!           |
|           W    W  A    A  R    R  N N  N  II  N N  N  G       !!!           |
|           W WW W  AAAAAA  RRRRR   N  N N  II  N  N N  G  GGG   !            |
|           WW  WW  A    A  R   R   N   NN  II  N   NN  G    G                |
|           W    W  A    A  R    R  N    N  II  N    N   GGGG   !!!           |
|     For optimal performance we recommend to set                             |
|       NCORE = 2 up to number-of-cores-per-socket                            |
|     This setting can greatly improve the performance of VASP for DFT.       |
|     The default, NCORE=1 might be grossly inefficient on modern             |
|     multi-core architectures or massively parallel machines. Do your        |
|     Unfortunately you need to use the default for GW and RPA                |
|     calculations (for HF NCORE is supported but not extensively tested      |
|     yet).                                                                   |

 POTCAR:    PAW_PBE Cu 22Jun2005
   VRHFIN =Cu: d10 p1

   TITEL  = PAW_PBE Cu 22Jun2005
   POMASS =   63.546; ZVAL   =   11.000    mass and valenz
   ENMAX  =  295.446; ENMIN  =  221.585 eV

 POTCAR:    PAW_PBE Co 02Aug2007
   VRHFIN =Co: d8 s1

   TITEL  = PAW_PBE Co 02Aug2007
   POMASS =   58.933; ZVAL   =    9.000    mass and valenz
   ENMAX  =  267.968; ENMIN  =  200.976 eV

 POTCAR:    PAW_PBE C 08Apr2002
   VRHFIN =C: s2p2

   TITEL  = PAW_PBE C 08Apr2002
   POMASS =   12.011; ZVAL   =    4.000    mass and valenz
   ENMAX  =  400.000; ENMIN  =  300.000 eV

 POTCAR:    PAW_PBE O 08Apr2002
   VRHFIN =O: s2p4

   TITEL  = PAW_PBE O 08Apr2002
   POMASS =   16.000; ZVAL   =    6.000    mass and valenz
   ENMAX  =  400.000; ENMIN  =  300.000 eV

 Optimization of the real space projectors (new method)

 maximal supplied QI-value         = 16.25
 optimisation between [QCUT,QGAM] = [ 11.38, 22.75] = [ 36.24,144.96] Ry
 Optimized for a Real-space Cutoff    1.52 Angstroem

   l    n(q)    QCUT    max X(q) W(low)/X(q) W(high)/X(q)  e(spline)
   2      9    11.376     4.610    0.21E-03    0.10E-03    0.26E-06
   2      9    11.376     8.522    0.33E-03    0.16E-03    0.37E-06
   0     10    11.376    51.609    0.62E-04    0.20E-04    0.13E-06
   0     10    11.376    27.747    0.54E-04    0.20E-04    0.13E-06
   1     10    11.376    20.408    0.13E-04    0.99E-04    0.19E-06
   1     10    11.376    13.425    0.12E-04    0.87E-04    0.17E-06
 Optimization of the real space projectors (new method)

[...]

   l    n(q)    QCUT    max X(q) W(low)/X(q) W(high)/X(q)  e(spline)
   0      7    11.310   115.676    0.43E-03    0.13E-02    0.19E-06
   0      7    11.310    87.132    0.43E-03    0.13E-02    0.18E-06
   1      6    11.310     4.429    0.42E-03    0.74E-03    0.11E-06
   1      6    11.310     2.733    0.34E-03    0.55E-03    0.92E-07
 Optimization of the real space projectors (new method)

 maximal supplied QI-value         = 24.76
 optimisation between [QCUT,QGAM] = [ 11.39, 22.77] = [ 36.31,145.25] Ry
 Optimized for a Real-space Cutoff    1.00 Angstroem

   l    n(q)    QCUT    max X(q) W(low)/X(q) W(high)/X(q)  e(spline)
   0      7    11.387    20.381    0.39E-03    0.13E-02    0.15E-06
   0      7    11.387    15.268    0.42E-03    0.14E-02    0.17E-06
   1      6    11.387     5.964    0.41E-03    0.11E-02    0.17E-06
   1      6    11.387     5.382    0.39E-03    0.87E-03    0.15E-06
  PAW_PBE Cu 22Jun2005                  :
  PAW_PBE Co 02Aug2007                  :
  PAW_PBE C 08Apr2002                   :
  PAW_PBE O 08Apr2002                   :

 POSCAR: Cu-Co-CO
  positions in direct lattice
  velocities in cartesian coordinates
 exchange correlation table for  LEXCH =        8
   RHO(1)=    0.500       N(1)  =     2000
   RHO(2)=  100.500       N(2)  =     4000

 VTST: version 3.2, (02/03/18)

 CHAIN: initializing optimizer

 OPT: Using VASP Conjugate-Gradient optimizer
 CHAIN: Read ICHAIN            0

 POSCAR: Cu-Co-CO
  positions in direct lattice
  velocities in cartesian coordinates

 ion  position               nearest neighbor table
   1  0.000  0.000  0.252-   7 2.57   3 2.57   4 2.57   2 2.57   6 2.57   8 2.57  12 2.57  10 2.57
                            16 2.57
   2  0.333  0.000  0.252-   8 2.57   9 2.57   5 2.57   1 2.57   3 2.57  11 2.57   4 2.57  10 2.57
                            17 2.57
   3  0.667  0.000  0.252-   1 2.57   7 2.57   6 2.57   9 2.57   2 2.57  12 2.57   5 2.57  18 2.57
                            11 2.57
   4  0.000  0.333  0.252-   5 2.57   6 2.57   1 2.57   7 2.57   2 2.57  13 2.57   9 2.57  10 2.57
                            15 2.57
   5  0.333  0.333  0.252-   4 2.57   2 2.57   7 2.57  13 2.57   8 2.57   6 2.57   3 2.57  11 2.57
                            14 2.57
   6  0.667  0.333  0.252-   4 2.57   9 2.57  15 2.57   3 2.57   1 2.57   8 2.57  14 2.57   5 2.57
                            12 2.57
   7  0.000  0.667  0.252-   1 2.57   3 2.57  16 2.57  18 2.57   4 2.57   5 2.57   8 2.57   9 2.57
                            13 2.57
   8  0.333  0.667  0.252-   9 2.57   2 2.57  17 2.57   6 2.57   1 2.57   7 2.57   5 2.57  14 2.57
                            16 2.57
   9  0.667  0.667  0.252-   8 2.57   6 2.57   2 2.57  17 2.57   3 2.57   7 2.57   4 2.57  15 2.57
                            18 2.57
  10  0.111  0.111  0.351-  20 2.55  26 2.56  19 2.56  11 2.57  12 2.57  13 2.57   1 2.57   2 2.57
                             4 2.57  15 2.57  16 2.57  17 2.57
  11  0.444  0.111  0.351-  20 2.55  21 2.55  27 2.56  10 2.57  13 2.57   2 2.57  17 2.57  14 2.57
                            12 2.57   5 2.57   3 2.57  18 2.57
  12  0.778  0.111  0.351-  21 2.55  19 2.56  25 2.56  15 2.57  10 2.57  14 2.57  18 2.57   3 2.57
                             1 2.57  16 2.57  11 2.57   6 2.57
  13  0.111  0.444  0.351-  23 2.55  20 2.55  22 2.56  16 2.57  18 2.57  10 2.57  11 2.57  14 2.57
                             5 2.57   4 2.57   7 2.57  15 2.57
  14  0.444  0.444  0.351-  21 2.55  23 2.55  24 2.56  15 2.57  17 2.57  12 2.57  16 2.57  13 2.57
                            11 2.57   6 2.57   8 2.57   5 2.57
  15  0.778  0.444  0.351-  24 2.56  22 2.56  19 2.56  14 2.57  17 2.57  12 2.57   6 2.57  18 2.57
                            10 2.57   9 2.57  13 2.57   4 2.57
  16  0.111  0.778  0.351-  23 2.55  25 2.56  26 2.56  18 2.57  13 2.57   7 2.57  14 2.57  17 2.57
                            12 2.57  10 2.57   8 2.57   1 2.57
  17  0.444  0.778  0.351-  27 2.56  24 2.56  26 2.56  14 2.57  15 2.57   8 2.57   9 2.57  11 2.57
                            16 2.57  18 2.57  10 2.57   2 2.57
  18  0.778  0.778  0.351-  22 2.56  27 2.56  25 2.56  16 2.57  13 2.57   7 2.57  15 2.57  12 2.57
                            17 2.57   9 2.57   3 2.57  11 2.57
  19  0.889  0.223  0.449-  28 2.54  32 2.56  31 2.56  15 2.56  12 2.56  10 2.56  22 2.56  24 2.56
                            21 2.57  20 2.57  25 2.57  26 2.57
  20  0.222  0.222  0.448-  36 2.46  29 2.55  31 2.55  11 2.55  13 2.55  10 2.55  23 2.56  21 2.56
                            26 2.57  19 2.57  27 2.57  22 2.57
  21  0.555  0.222  0.448-  36 2.46  32 2.55  30 2.55  14 2.55  11 2.55  12 2.55  20 2.56  23 2.56
                            19 2.57  25 2.57  24 2.57  27 2.57
  22  0.889  0.556  0.449-  35 2.54  31 2.55  33 2.55  18 2.56  15 2.56  13 2.56  24 2.56  27 2.56
                            19 2.56  25 2.56  23 2.57  20 2.57
  23  0.222  0.555  0.448-  36 2.46  33 2.55  34 2.55  13 2.55  14 2.55  16 2.55  20 2.56  21 2.56
                            25 2.57  26 2.57  22 2.57  24 2.57
  24  0.556  0.556  0.449-  35 2.54  32 2.55  34 2.55  15 2.56  17 2.56  14 2.56  22 2.56  27 2.56
                            19 2.56  26 2.56  21 2.57  23 2.57
  25  0.889  0.889  0.449-  28 2.54  33 2.56  30 2.56  18 2.56  16 2.56  12 2.56  22 2.56  27 2.56
                            21 2.57  23 2.57  19 2.57  26 2.57
  26  0.223  0.889  0.449-  28 2.54  29 2.56  34 2.56  17 2.56  10 2.56  16 2.56  27 2.56  24 2.56
                            20 2.57  23 2.57  25 2.57  19 2.57
  27  0.556  0.889  0.449-  35 2.54  29 2.55  30 2.55  17 2.56  18 2.56  11 2.56  24 2.56  22 2.56
                            26 2.56  25 2.56  20 2.57  21 2.57
  28  0.000  0.000  0.546-  25 2.54  19 2.54  26 2.54  33 2.58  30 2.58  31 2.58  29 2.58  32 2.58
                            34 2.58
  29  0.333  0.003  0.546-  31 2.54  36 2.54  30 2.55  20 2.55  27 2.55  26 2.56  28 2.58  35 2.58
                            34 2.61
  30  0.664  0.003  0.546-  32 2.54  36 2.54  29 2.55  21 2.55  27 2.55  25 2.56  28 2.58  35 2.58
                            33 2.61
  31  0.003  0.333  0.546-  29 2.54  36 2.54  33 2.55  20 2.55  22 2.55  19 2.56  28 2.58  35 2.58
                            32 2.61
  32  0.664  0.333  0.546-  30 2.54  36 2.54  34 2.55  21 2.55  24 2.55  19 2.56  28 2.58  35 2.58
                            31 2.61
  33  0.003  0.664  0.546-  34 2.54  36 2.54  31 2.55  23 2.55  22 2.55  25 2.56  28 2.58  35 2.58
                            30 2.61
  34  0.333  0.664  0.546-  33 2.54  36 2.54  32 2.55  23 2.55  24 2.55  26 2.56  28 2.58  35 2.58
                            29 2.61
  35  0.667  0.667  0.546-  24 2.54  27 2.54  22 2.54  34 2.58  32 2.58  29 2.58  30 2.58  33 2.58
                            31 2.58
  36  0.333  0.333  0.541-  37 1.73  23 2.46  20 2.46  21 2.46  31 2.54  29 2.54  33 2.54  34 2.54
                            32 2.54  30 2.54
  37  0.333  0.333  0.622-  38 1.17  36 1.73
  38  0.333  0.333  0.677-  37 1.17

  LATTYP: Found a hexagonal cell.
 ALAT       =     7.6967864036
 C/A-ratio  =     2.7653617908

  Lattice vectors:

 A1 = (  -3.8483927580,  -6.6656128093,   0.0000000000)
 A2 = (   7.6967864037,   0.0000000000,   0.0000000000)
 A3 = (   0.0000000000,   0.0000000000,  21.2843990326)

Analysis of symmetry for initial positions (statically):
 Subroutine PRICEL returns:
 Original cell was already a primitive cell.

 Routine SETGRP: Setting up the symmetry group for a
 hexagonal supercell.

 Subroutine GETGRP returns: Found  6 space group operations
 (whereof  6 operations were pure point group operations)
 out of a pool of 24 trial point group operations.

The static configuration has the point symmetry C_3v.

Analysis of symmetry for dynamics (positions and initial velocities):
 Subroutine PRICEL returns:
 Original cell was already a primitive cell.

[...]

The dynamic configuration has the point symmetry C_3v.

Analysis of constrained symmetry for selective dynamics:
 Subroutine PRICEL returns:
[...]
     33      -3.9794      2.00000
     34      -3.9688      2.00000
     35      -3.9503      2.00000
     36      -3.9386      2.00000
     37      -3.8790      2.00000
     38      -3.8708      2.00000
     39      -3.8304      2.00000
     40      -3.7416      2.00000
     41      -3.7381      2.00000
     42      -3.6624      2.00000
     43      -3.6539      2.00000
     44      -3.5758      2.00000
     45      -3.5727      2.00000
     46      -3.5520      2.00000
     47      -3.5323      2.00000
     48      -3.5273      2.00000
     49      -3.5022      2.00000
     50      -3.4865      2.00000
     51      -3.3264      2.00000
     52      -3.3055      2.00000
     53      -3.3008      2.00000
     54      -3.2961      2.00000
     55      -3.2438      2.00000
     56      -3.2396      2.00000
     57      -3.2303      2.00000
     58      -3.1955      2.00000
     59      -3.1898      2.00000
     60      -3.1671      2.00000
[...]
    238       5.8918      0.00000
    239       6.1443      0.00000
    240       6.1827      0.00000
    241       6.2736      0.00000
    242       6.3771      0.00000
    243       6.5048      0.00000
    244       7.0185      0.00000
    245       7.0279      0.00000
    246       7.1016      0.00000
    247       7.1740      0.00000
    248       7.2777      0.00000
    249       7.3563      0.00000
    250       7.4559      0.00000
    251       7.5146      0.00000
    252       7.5998      0.00000

 soft charge-density along one line, spin component           1
         0         1         2         3         4         5         6         7         8         9
 total charge-density along one line

------------------------ aborting loop because EDIFF is reached ----------------------------------------

 total charge

# of ion       s       p       d       tot
    1        0.448   0.283   9.190   9.921
    2        0.449   0.285   9.187   9.921
    3        0.449   0.285   9.187   9.921
    4        0.449   0.285   9.187   9.921
    5        0.448   0.287   9.183   9.919
    6        0.449   0.285   9.187   9.921
    7        0.449   0.285   9.187   9.921
    8        0.449   0.285   9.187   9.921
    9        0.446   0.284   9.190   9.920
   10        0.440   0.372   9.176   9.987
   11        0.444   0.367   9.183   9.994
   12        0.440   0.372   9.176   9.987
   13        0.444   0.367   9.183   9.994
   14        0.444   0.367   9.183   9.994
   15        0.437   0.371   9.177   9.985
   16        0.440   0.372   9.176   9.987
   17        0.437   0.371   9.177   9.985
   18        0.437   0.371   9.177   9.985
   19        0.442   0.370   9.181   9.993
   20        0.456   0.388   9.171  10.015
   21        0.456   0.388   9.171  10.015
   22        0.435   0.378   9.178   9.991
   23        0.456   0.388   9.171  10.015
   24        0.435   0.378   9.178   9.991
   25        0.442   0.370   9.181   9.993
   26        0.442   0.370   9.181   9.993
   27        0.435   0.378   9.178   9.991
   28        0.449   0.282   9.195   9.926
   29        0.445   0.293   9.190   9.927
   30        0.445   0.293   9.190   9.927
   31        0.445   0.293   9.190   9.927
   32        0.445   0.293   9.190   9.927
   33        0.445   0.293   9.190   9.927
   34        0.445   0.293   9.190   9.927
   35        0.445   0.283   9.196   9.924
   36        0.478   0.573   7.454   8.505
   37        0.958   1.553   0.000   2.511
   38        1.612   3.528   0.000   5.140
tot         18.610  17.276 328.861 364.748

  FORCE on cell =-STRESS in cart. coord.  units (eV):
  Direction    XX          YY          ZZ          XY          YZ          ZX
  Alpha Z   894.48930   894.48930   894.48930
  Ewald  172779.74422172779.74376************     0.00042     0.00012     0.00019
  Hartree186121.69907186121.69902************     0.00006     0.00005     0.00008
  E(xc)   -2337.72415 -2337.72374 -2340.84020    -0.00036    -0.00003    -0.00006
  Local  ************************371728.20002     0.01869    -0.00059    -0.00102
  n-local  -792.37970  -778.23700  -804.36160     7.39220    -0.00555     0.10752
  augment  3472.60922  3472.62914  3478.77795    -0.01725     0.00029     0.00051
  Kinetic  3405.57082  3408.79837  3395.01079     3.01673     1.88289    -1.54840
  Fock        0.00000     0.00000     0.00000     0.00000     0.00000     0.00000
  Total      -5.33651    -5.33651     1.95712     0.00000    -0.00000    -0.00000
  in kB      -7.82991    -7.82991     2.87155     0.00000    -0.00000    -0.00000

 VOLUME and BASIS-vectors are now :
  energy-cutoff  :      500.00
  volume of cell :     1091.97
      direct lattice vectors                 reciprocal lattice vectors
     7.696786404  0.000000000  0.000000000     0.129924354 -0.075011849  0.000000000
     3.848392758  6.665612809  0.000000000     0.000000000  0.150023716  0.000000000
     0.000000000  0.000000000 21.284399033     0.000000000  0.000000000  0.046982769

  length of vectors
     7.696786404  7.696786404 21.284399033     0.150023716  0.150023716  0.046982769

 FORCES acting on ions
    electron-ion (+dipol)            ewald-force                    non-local-force                 convergence-correction
   -.416E-04 0.139E-06 0.351E+04   0.578E-04 -.443E-05 -.351E+04   0.111E-17 0.623E-17 -.305E+01   -.280E-03 -.129E-03 -.453E+00
   0.257E+00 0.410E+00 0.351E+04   -.270E+00 -.335E+00 -.351E+04   0.424E-01 0.679E-01 -.199E+01   -.197E-01 -.119E+00 -.364E+00
   -.257E+00 0.410E+00 0.351E+04   0.269E+00 -.335E+00 -.351E+04   -.424E-01 0.679E-01 -.199E+01   0.205E-01 -.117E+00 -.364E+00
   0.484E+00 0.174E-01 0.351E+04   -.425E+00 -.657E-01 -.351E+04   0.800E-01 0.280E-02 -.199E+01   -.113E+00 0.425E-01 -.364E+00
   -.653E-04 -.552E-05 0.351E+04   0.116E-03 -.101E-04 -.351E+04   0.785E-17 0.611E-18 -.162E+01   0.121E-01 0.740E-02 -.306E+00
   -.484E+00 0.175E-01 0.351E+04   0.425E+00 -.658E-01 -.351E+04   -.800E-01 0.280E-02 -.199E+01   0.112E+00 0.437E-01 -.363E+00
   0.227E+00 -.428E+00 0.351E+04   -.156E+00 0.401E+00 -.351E+04   0.376E-01 -.707E-01 -.199E+01   -.909E-01 0.761E-01 -.363E+00
   -.227E+00 -.428E+00 0.351E+04   0.156E+00 0.401E+00 -.351E+04   -.376E-01 -.707E-01 -.199E+01   0.943E-01 0.747E-01 -.363E+00
   -.144E-03 -.329E-04 0.351E+04   0.264E-03 0.206E-04 -.351E+04   -.238E-17 0.230E-17 -.258E+01   -.132E-01 -.680E-02 -.384E+00
   0.357E+01 0.206E+01 0.123E+04   -.310E+01 -.179E+01 -.122E+04   -.436E+00 -.252E+00 -.102E+01   -.258E-01 -.149E-01 -.403E+00
   -.901E-04 0.351E+01 0.123E+04   0.189E-03 -.346E+01 -.123E+04   -.832E-08 0.125E+00 -.520E+00   0.115E-01 -.196E+00 -.341E+00
   -.357E+01 0.206E+01 0.123E+04   0.310E+01 -.179E+01 -.122E+04   0.436E+00 -.252E+00 -.102E+01   0.244E-01 -.139E-01 -.404E+00
   0.304E+01 -.176E+01 0.123E+04   -.299E+01 0.173E+01 -.123E+04   0.108E+00 -.625E-01 -.520E+00   -.164E+00 0.109E+00 -.341E+00
   -.304E+01 -.176E+01 0.123E+04   0.299E+01 0.173E+01 -.123E+04   -.108E+00 -.625E-01 -.520E+00   0.187E+00 0.108E+00 -.343E+00
   -.144E-03 0.855E-01 0.123E+04   0.300E-03 -.284E+00 -.122E+04   -.549E-08 0.825E-01 -.952E+00   -.319E-02 0.100E+00 -.417E+00
   -.911E-04 -.412E+01 0.123E+04   0.185E-03 0.358E+01 -.122E+04   -.335E-07 0.504E+00 -.102E+01   -.759E-03 0.268E-01 -.404E+00
   0.740E-01 -.429E-01 0.123E+04   -.246E+00 0.142E+00 -.122E+04   0.714E-01 -.412E-01 -.952E+00   0.859E-01 -.529E-01 -.418E+00
   -.739E-01 -.428E-01 0.123E+04   0.246E+00 0.142E+00 -.122E+04   -.714E-01 -.412E-01 -.952E+00   -.849E-01 -.507E-01 -.417E+00
   -.560E-04 0.207E+01 -.109E+04   0.661E-04 -.211E+01 0.109E+04   0.320E-10 -.480E-03 0.888E+00   0.113E-01 0.479E-01 -.415E+00
   0.935E+01 0.540E+01 -.107E+04   -.813E+01 -.469E+01 0.107E+04   -.118E+01 -.683E+00 -.117E+01   -.683E-01 -.395E-01 -.410E+00
   -.935E+01 0.540E+01 -.107E+04   0.813E+01 -.469E+01 0.107E+04   0.118E+01 -.683E+00 -.117E+01   0.677E-01 -.400E-01 -.410E+00
   0.377E+01 -.218E+01 -.109E+04   -.403E+01 0.233E+01 0.109E+04   0.321E+00 -.186E+00 0.705E+00   -.729E-02 0.151E-01 -.516E+00
   -.764E-04 -.108E+02 -.107E+04   0.141E-03 0.939E+01 0.107E+04   -.909E-07 0.137E+01 -.117E+01   -.194E-02 0.774E-01 -.411E+00
   -.377E+01 -.218E+01 -.109E+04   0.403E+01 0.233E+01 0.109E+04   -.321E+00 -.186E+00 0.705E+00   0.287E-01 0.157E-01 -.516E+00
   -.179E+01 -.103E+01 -.109E+04   0.182E+01 0.105E+01 0.109E+04   0.416E-03 0.240E-03 0.888E+00   -.261E-01 -.151E-01 -.415E+00
   0.179E+01 -.103E+01 -.109E+04   -.182E+01 0.105E+01 0.109E+04   -.416E-03 0.240E-03 0.888E+00   0.474E-01 -.140E-01 -.414E+00
   -.129E-03 0.435E+01 -.109E+04   0.244E-03 -.465E+01 0.109E+04   -.247E-07 0.371E+00 0.705E+00   0.937E-02 -.139E-01 -.516E+00
   -.276E-04 0.199E-04 -.340E+04   0.308E-04 -.356E-04 0.339E+04   0.891E-17 0.909E-18 0.247E+01   0.293E-04 0.666E-04 0.379E+00
   0.238E+02 0.429E+02 -.337E+04   -.236E+02 -.429E+02 0.337E+04   -.152E+00 -.481E-01 0.291E+01   -.524E-01 -.207E-01 0.199E+00
   -.238E+02 0.429E+02 -.337E+04   0.236E+02 -.429E+02 0.337E+04   0.152E+00 -.481E-01 0.291E+01   0.527E-01 -.189E-01 0.199E+00
   0.490E+02 -.864E+00 -.337E+04   -.490E+02 0.102E+01 0.337E+04   -.118E+00 -.108E+00 0.291E+01   -.441E-01 -.351E-01 0.199E+00
   -.490E+02 -.863E+00 -.337E+04   0.490E+02 0.102E+01 0.337E+04   0.118E+00 -.108E+00 0.291E+01   0.434E-01 -.339E-01 0.200E+00
   0.253E+02 -.420E+02 -.337E+04   -.254E+02 0.419E+02 0.337E+04   0.344E-01 0.156E+00 0.291E+01   0.993E-02 0.551E-01 0.199E+00
   -.253E+02 -.420E+02 -.337E+04   0.254E+02 0.419E+02 0.337E+04   -.344E-01 0.156E+00 0.291E+01   -.698E-02 0.545E-01 0.200E+00
   -.134E-03 -.176E-04 -.340E+04   0.260E-03 0.751E-05 0.340E+04   -.564E-17 0.311E-17 0.267E+01   -.129E-01 -.662E-02 0.327E+00
   -.498E-04 -.113E-04 -.251E+04   0.119E-03 0.211E-04 0.251E+04   -.165E-16 -.417E-17 0.369E+00   0.511E-02 0.312E-02 0.128E+00
   -.405E-05 -.760E-04 -.129E+04   0.131E-04 0.598E-05 0.127E+04   -.276E-18 0.168E-19 0.157E+02   0.110E-02 0.663E-03 0.175E+00
   0.224E-03 -.740E-04 -.203E+04   0.317E-05 0.301E-05 0.209E+04   0.663E-19 -.207E-18 -.585E+02   0.325E-02 0.198E-02 0.116E+00
   -.661E-04 -.174E-03 0.537E+02   0.683E-13 0.476E-12 -.728E-11   0.817E-16 -.845E-16 -.452E+02   0.919E-01 0.502E-01 -.852E+01

 POSITION                                       TOTAL-FORCE (eV/Angst)
      0.00000      0.00000      5.37156         0.000000     -0.000000      0.024584
      2.56560      0.00000      5.37156         0.010628      0.024477      0.086478
      5.13119      0.00000      5.37156        -0.010628      0.024477      0.086478
      1.28280      2.22187      5.37156         0.026512     -0.003035      0.086478
      3.84839      2.22187      5.37156         0.000000      0.000000      0.081765
      6.41399      2.22187      5.37156        -0.026512     -0.003035      0.086478
      2.56560      4.44374      5.37156         0.015884     -0.021442      0.086478
      5.13119      4.44374      5.37156        -0.015884     -0.021442      0.086478
      7.69679      4.44374      5.37156         0.000000     -0.000000      0.049591
      1.28280      0.74062      7.46636         0.002967      0.001713     -0.067573
      3.84839      0.74062      7.46636         0.000000     -0.023636     -0.102320
      6.41399      0.74062      7.46636        -0.002967      0.001713     -0.067573
      2.56560      2.96249      7.46636        -0.020469      0.011818     -0.102320
      5.13119      2.96249      7.46636         0.020469      0.011818     -0.102320
      7.69679      2.96249      7.46636         0.000000     -0.016224     -0.043056
      3.84839      5.18437      7.46636         0.000000     -0.003425     -0.067573
      6.41399      5.18437      7.46636        -0.014050      0.008112     -0.043056
      8.97958      5.18437      7.46636         0.014050      0.008112     -0.043056
      7.69679      1.48420      9.55496        -0.000000      0.001549      0.046711
      2.56664      1.48185      9.54157        -0.025505     -0.014725     -0.203147
      5.13014      1.48185      9.54157         0.025505     -0.014725     -0.203147
      8.97778      3.70416      9.55304         0.045478     -0.026257      0.014338
      3.84839      3.70191      9.54157        -0.000000      0.029451     -0.203147
      6.41579      3.70416      9.55304        -0.045478     -0.026257      0.014338
     10.25982      5.92351      9.55496        -0.001342     -0.000775      0.046711
      5.13375      5.92351      9.55496         0.001342     -0.000775      0.046711
      7.69679      5.92291      9.55304        -0.000000      0.052514      0.014338
      0.00000      0.00000     11.62172         0.000000     -0.000000     -0.041460
      2.57582      0.02145     11.62841        -0.036231     -0.086964     -0.045082
      5.12097      0.02145     11.62841         0.036231     -0.086964     -0.045082
      1.30649      2.22000     11.62841        -0.093428      0.012105     -0.045082
      6.39030      2.22000     11.62841         0.093428      0.012105     -0.045082
      2.57906      4.42416     11.62841        -0.057198      0.074859     -0.045082
      5.11773      4.42416     11.62841         0.057198      0.074859     -0.045082
      7.69679      4.44374     11.62071         0.000000      0.000000     -0.023449
      3.84839      2.22187     11.51210         0.000000      0.000000      0.735873
      3.84839      2.22187     13.24311         0.000000      0.000000      0.018446
      3.84839      2.22187     14.41537         0.000000     -0.000000     -0.028587
    total drift:                                0.091819      0.050059      0.054229

  FREE ENERGIE OF THE ION-ELECTRON SYSTEM (eV)
  free  energy   TOTEN  =      -145.17336810 eV

  energy  without entropy=     -145.17336810  energy(sigma->0) =     -145.17336810

 stress matrix after NEB project (eV)
     -5.33651      0.00000     -0.00000
      0.00000     -5.33651      0.00000
     -0.00000     -0.00000      1.95712
  FORCES: max atom, RMS     0.028587    0.005519
  FORCE total and by dimension    0.034022    0.028587
  Stress total and by dimension    7.796597    5.336508
|           W    W    AA    RRRRR   N    N  II  N    N   GGGG   !!!           |
|           W    W   A  A   R    R  NN   N  II  NN   N  G    G  !!!           |
|           W    W  A    A  R    R  N N  N  II  N N  N  G       !!!           |
|           W WW W  AAAAAA  RRRRR   N  N N  II  N  N N  G  GGG   !            |
|           WW  WW  A    A  R   R   N   NN  II  N   NN  G    G                |
|           W    W  A    A  R    R  N    N  II  N    N   GGGG   !!!           |
|     Tetrahedron method does not include variations of the Fermi             |
|     occupations, so forces and stress will be inaccurate. We suggest        |
|     using a different smearing scheme ISMEAR = 1 or 2 for metals in         |
|     relaxations.                                                            |

 total charge

# of ion       s       p       d       tot
    1        0.448   0.283   9.190   9.921
    2        0.449   0.285   9.187   9.921
    3        0.449   0.285   9.187   9.921
    4        0.449   0.285   9.187   9.921
    5        0.448   0.287   9.183   9.919
    6        0.449   0.285   9.187   9.921
    7        0.449   0.285   9.187   9.921
    8        0.449   0.285   9.187   9.921
    9        0.446   0.284   9.190   9.920
   10        0.440   0.372   9.176   9.987
   11        0.444   0.367   9.183   9.994
   12        0.440   0.372   9.176   9.987
   13        0.444   0.367   9.183   9.994
   14        0.444   0.367   9.183   9.994
   15        0.437   0.371   9.177   9.985
   16        0.440   0.372   9.176   9.987
   17        0.437   0.371   9.177   9.985
   18        0.437   0.371   9.177   9.985
   19        0.442   0.370   9.181   9.993
   20        0.456   0.388   9.171  10.015
   21        0.456   0.388   9.171  10.015
   22        0.435   0.378   9.178   9.991
   23        0.456   0.388   9.171  10.015
   24        0.435   0.378   9.178   9.991
   25        0.442   0.370   9.181   9.993
   26        0.442   0.370   9.181   9.993
   27        0.435   0.378   9.178   9.991
   28        0.449   0.282   9.195   9.926
   29        0.445   0.293   9.190   9.927
   30        0.445   0.293   9.190   9.927
   31        0.445   0.293   9.190   9.927
   32        0.445   0.293   9.190   9.927
   33        0.445   0.293   9.190   9.927
   34        0.445   0.293   9.190   9.927
   35        0.445   0.283   9.196   9.924
   36        0.478   0.573   7.454   8.505
   37        0.958   1.553   0.000   2.511
   38        1.612   3.528   0.000   5.140
tot         18.610  17.276 328.861 364.748

 BZINTS: Fermi energy:    0.087669;  404.000000 electrons
         Band energy:-0.114507E+04;  BLOECHL correction:   -0.052418