 vasp.6.2.0 18Jan21 (build Jun 12 2021 23:27:24) complex

 executed on             LinuxIFC date 2022.05.30  15:59:17

 INCAR:
   ISMEAR = -5
   SIGMA = 0.1
   ISPIN = 1
   EDIFF = 1.d-5
   EDIFFG = -0.01
   NSW = 0
   NELM = 150
   ENCUT = 500
   ISIF = 2
   IBRION = 2
   LREAL = Auto
   ALGO = Fast
   ICHARG = 11
   LORBIT = 10
   LCHARG = .F.
   LWAVE = .F.

 POTCAR:    PAW_PBE Au 04Oct2007
 POTCAR:    PAW_PBE Co 02Aug2007
 POTCAR:    PAW_PBE C 08Apr2002
|           W    W    AA    RRRRR   N    N  II  N    N   GGGG   !!!           |
|           W    W   A  A   R    R  NN   N  II  NN   N  G    G  !!!           |
|           W    W  A    A  R    R  N N  N  II  N N  N  G       !!!           |
|           W WW W  AAAAAA  RRRRR   N  N N  II  N  N N  G  GGG   !            |
|           WW  WW  A    A  R   R   N   NN  II  N   NN  G    G                |
|           W    W  A    A  R    R  N    N  II  N    N   GGGG   !!!           |
|     For optimal performance we recommend to set                             |
|       NCORE = 2 up to number-of-cores-per-socket                            |
|     This setting can greatly improve the performance of VASP for DFT.       |
|     The default, NCORE=1 might be grossly inefficient on modern             |
|     multi-core architectures or massively parallel machines. Do your        |
|     Unfortunately you need to use the default for GW and RPA                |
|     calculations (for HF NCORE is supported but not extensively tested      |
|     yet).                                                                   |

 POTCAR:    PAW_PBE Au 04Oct2007
   VRHFIN =Au: s1d10

   TITEL  = PAW_PBE Au 04Oct2007
   POMASS =  196.966; ZVAL   =   11.000    mass and valenz
   ENMAX  =  229.943; ENMIN  =  172.457 eV

 POTCAR:    PAW_PBE Co 02Aug2007
   VRHFIN =Co: d8 s1

   TITEL  = PAW_PBE Co 02Aug2007
   POMASS =   58.933; ZVAL   =    9.000    mass and valenz
   ENMAX  =  267.968; ENMIN  =  200.976 eV

 POTCAR:    PAW_PBE C 08Apr2002
   VRHFIN =C: s2p2

   TITEL  = PAW_PBE C 08Apr2002
   POMASS =   12.011; ZVAL   =    4.000    mass and valenz
   ENMAX  =  400.000; ENMIN  =  300.000 eV

 Optimization of the real space projectors (new method)

 maximal supplied QI-value         = 15.12
 optimisation between [QCUT,QGAM] = [ 11.34, 22.83] = [ 36.00,145.93] Ry
 Optimized for a Real-space Cutoff    1.39 Angstroem

   l    n(q)    QCUT    max X(q) W(low)/X(q) W(high)/X(q)  e(spline)
   2      9    11.338    60.898    0.39E-03    0.42E-03    0.21E-06
   2      9    11.338    58.894    0.40E-03    0.42E-03    0.22E-06
   0      9    11.338   109.617    0.13E-03    0.20E-04    0.13E-06
   0      9    11.338    75.026    0.13E-03    0.20E-04    0.13E-06
   1      9    11.338    16.344    0.33E-04    0.24E-03    0.18E-06
   1      9    11.338    10.160    0.26E-04    0.19E-03    0.15E-06
 Optimization of the real space projectors (new method)

[...]

   l    n(q)    QCUT    max X(q) W(low)/X(q) W(high)/X(q)  e(spline)
   2      8    11.376    65.824    0.20E-03    0.32E-04    0.13E-06
   2      8    11.376    61.429    0.20E-03    0.33E-04    0.14E-06
   0      9    11.376    56.174    0.76E-04    0.11E-03    0.19E-06
   0      9    11.376    31.263    0.69E-04    0.99E-04    0.17E-06
   1      9    11.376    19.828    0.35E-03    0.11E-03    0.12E-06
   1      9    11.376    15.139    0.29E-03    0.94E-04    0.10E-06
 Optimization of the real space projectors (new method)

 maximal supplied QI-value         = 25.13
 optimisation between [QCUT,QGAM] = [ 11.31, 22.87] = [ 35.82,146.48] Ry
 Optimized for a Real-space Cutoff    1.00 Angstroem

   l    n(q)    QCUT    max X(q) W(low)/X(q) W(high)/X(q)  e(spline)
   0      7    11.310   115.676    0.43E-03    0.13E-02    0.19E-06
   0      7    11.310    87.132    0.43E-03    0.13E-02    0.18E-06
   1      6    11.310     4.429    0.42E-03    0.74E-03    0.11E-06
   1      6    11.310     2.733    0.34E-03    0.55E-03    0.92E-07
  PAW_PBE Au 04Oct2007                  :
  PAW_PBE Co 02Aug2007                  :
  PAW_PBE C 08Apr2002                   :

 POSCAR: Au-Co-C
  positions in direct lattice
  velocities in cartesian coordinates
 exchange correlation table for  LEXCH =        8
   RHO(1)=    0.500       N(1)  =     2000
   RHO(2)=  100.500       N(2)  =     4000

 VTST: version 3.2, (02/03/18)

 CHAIN: initializing optimizer

 OPT: Using VASP Conjugate-Gradient optimizer
 CHAIN: Read ICHAIN            0

 POSCAR: Au-Co-C
  positions in direct lattice
  velocities in cartesian coordinates

 ion  position               nearest neighbor table
   1  0.000  0.000  0.217-  16 2.94  12 2.94   6 2.94   8 2.94   7 2.94   3 2.94  10 2.94   4 2.94
                             2 2.94
   2  0.333  0.000  0.217-   9 2.94  11 2.94  17 2.94  10 2.94   8 2.94   4 2.94   5 2.94   1 2.94
                             3 2.94
   3  0.667  0.000  0.217-   7 2.94  18 2.94  12 2.94   1 2.94  11 2.94   5 2.94   6 2.94   9 2.94
                             2 2.94
   4  0.000  0.333  0.217-  10 2.94   6 2.94   5 2.94  13 2.94   2 2.94  15 2.94   9 2.94   1 2.94
                             7 2.94
   5  0.333  0.333  0.217-  13 2.94   7 2.94  11 2.94   4 2.94   2 2.94  14 2.94   3 2.94   8 2.94
                             6 2.94
   6  0.667  0.333  0.217-  15 2.94  14 2.94   1 2.94  12 2.94   4 2.94   9 2.94   8 2.94   3 2.94
                             5 2.94
   7  0.000  0.667  0.217-  18 2.94   3 2.94  16 2.94   5 2.94   1 2.94  13 2.94   8 2.94   4 2.94
                             9 2.94
   8  0.333  0.667  0.217-   9 2.94  17 2.94   1 2.94   2 2.94  14 2.94  16 2.94   6 2.94   7 2.94
                             5 2.94
   9  0.667  0.667  0.217-   2 2.94   8 2.94  17 2.94   6 2.94  15 2.94   4 2.94   3 2.94  18 2.94
                             7 2.94
  10  0.111  0.111  0.316-  20 2.92  26 2.93  19 2.93  11 2.94  17 2.94   2 2.94   4 2.94   1 2.94
                            12 2.94  16 2.94  13 2.94  15 2.94
  11  0.444  0.111  0.316-  20 2.91  21 2.91  27 2.93  13 2.94   2 2.94  10 2.94  17 2.94   5 2.94
                             3 2.94  18 2.94  14 2.94  12 2.94
  12  0.778  0.111  0.316-  21 2.92  25 2.93  19 2.93  16 2.94  18 2.94   1 2.94  14 2.94  15 2.94
                             3 2.94   6 2.94  10 2.94  11 2.94
  13  0.111  0.444  0.316-  23 2.91  20 2.91  22 2.93   5 2.94  18 2.94  11 2.94   7 2.94   4 2.94
                            16 2.94  10 2.94  14 2.94  15 2.94
  14  0.444  0.444  0.316-  21 2.91  23 2.91  24 2.93  15 2.94   6 2.94  12 2.94   8 2.94  17 2.94
                             5 2.94  16 2.94  13 2.94  11 2.94
  15  0.778  0.444  0.316-  24 2.92  22 2.92  19 2.93  14 2.94   6 2.94  17 2.94  12 2.94   9 2.94
                             4 2.94  10 2.94  13 2.94  18 2.94
  16  0.111  0.778  0.316-  23 2.92  25 2.93  26 2.93  18 2.94  12 2.94   7 2.94   1 2.94   8 2.94
                            13 2.94  10 2.94  14 2.94  17 2.94
  17  0.444  0.778  0.316-  27 2.92  24 2.92  26 2.93   9 2.94  15 2.94   2 2.94  10 2.94  11 2.94
                             8 2.94  14 2.94  16 2.94  18 2.94
  18  0.778  0.778  0.316-  22 2.92  27 2.92  25 2.93  16 2.94   7 2.94  13 2.94  12 2.94   3 2.94
                            11 2.94   9 2.94  15 2.94  17 2.94
  19  0.889  0.222  0.414-  10 2.93  12 2.93  15 2.93  26 2.94  25 2.94  24 2.94  22 2.94  28 2.94
                            21 2.95  20 2.95  32 2.96  31 2.96
  20  0.223  0.223  0.413-  36 2.69  29 2.91  31 2.91  11 2.91  13 2.91  23 2.91  21 2.91  10 2.92
                            27 2.95  22 2.95  26 2.95  19 2.95
  21  0.554  0.223  0.413-  36 2.69  30 2.91  32 2.91  14 2.91  11 2.91  20 2.91  23 2.91  12 2.92
                            27 2.95  24 2.95  25 2.95  19 2.95
  22  0.887  0.557  0.414-  24 2.91  27 2.91  18 2.92  15 2.92  13 2.93  25 2.94  19 2.94  33 2.94
                            31 2.94  23 2.95  20 2.95  35 2.96
  23  0.223  0.554  0.413-  36 2.69  33 2.91  34 2.91  13 2.91  14 2.91  20 2.91  21 2.91  16 2.92
                            22 2.95  24 2.95  25 2.95  26 2.95
  24  0.557  0.557  0.414-  27 2.91  22 2.91  15 2.92  17 2.92  14 2.93  26 2.94  19 2.94  32 2.94
                            34 2.94  21 2.95  23 2.95  35 2.96
  25  0.889  0.889  0.414-  16 2.93  12 2.93  18 2.93  19 2.94  26 2.94  22 2.94  27 2.94  28 2.94
                            23 2.95  21 2.95  33 2.96  30 2.96
  26  0.222  0.889  0.414-  10 2.93  16 2.93  17 2.93  19 2.94  25 2.94  27 2.94  24 2.94  28 2.94
                            20 2.95  23 2.95  29 2.96  34 2.96
  27  0.557  0.887  0.414-  24 2.91  22 2.91  17 2.92  18 2.92  11 2.93  26 2.94  25 2.94  29 2.94
                            30 2.94  20 2.95  21 2.95  35 2.96
  28  0.000  0.000  0.513-  25 2.94  19 2.94  26 2.94  34 2.98  32 2.98  33 2.98  30 2.98  31 2.98
                            29 2.98
  29  0.334  0.008  0.512-  30 2.86  31 2.87  36 2.88  20 2.91  27 2.94  26 2.96  35 2.98  28 2.98
                            34 3.09
  30  0.658  0.008  0.512-  29 2.86  32 2.87  36 2.88  21 2.91  27 2.94  25 2.96  35 2.98  28 2.98
                            33 3.09
  31  0.008  0.334  0.512-  33 2.86  29 2.87  36 2.88  20 2.91  22 2.94  19 2.96  35 2.98  28 2.98
                            32 3.09
  32  0.658  0.334  0.512-  34 2.86  30 2.87  36 2.88  21 2.91  24 2.94  19 2.96  35 2.98  28 2.98
                            31 3.09
  33  0.008  0.658  0.512-  31 2.86  34 2.87  36 2.88  23 2.91  22 2.94  25 2.96  35 2.98  28 2.98
                            30 3.09
  34  0.334  0.658  0.512-  32 2.86  33 2.87  36 2.88  23 2.91  24 2.94  26 2.96  35 2.98  28 2.98
                            29 3.09
  35  0.667  0.667  0.514-  24 2.96  27 2.96  22 2.96  29 2.98  34 2.98  32 2.98  31 2.98  30 2.98
                            33 2.98
  36  0.333  0.333  0.500-  37 1.60  20 2.69  23 2.69  21 2.69  33 2.88  31 2.88  29 2.88  30 2.88
                            34 2.88  32 2.88
  37  0.333  0.333  0.565-  36 1.60

  LATTYP: Found a hexagonal cell.
 ALAT       =     8.8135128021
 C/A-ratio  =     2.7586513333

  Lattice vectors:

 A1 = (  -4.4067569092,  -7.6327256898,   0.0000000000)
 A2 = (   8.8135128021,   0.0000000000,   0.0000000000)
 A3 = (   0.0000000000,   0.0000000000,  24.3134088421)

Analysis of symmetry for initial positions (statically):
 Subroutine PRICEL returns:
 Original cell was already a primitive cell.

 Routine SETGRP: Setting up the symmetry group for a
 hexagonal supercell.

 Subroutine GETGRP returns: Found  6 space group operations
 (whereof  6 operations were pure point group operations)
 out of a pool of 24 trial point group operations.

The static configuration has the point symmetry C_3v.

Analysis of symmetry for dynamics (positions and initial velocities):
 Subroutine PRICEL returns:
 Original cell was already a primitive cell.

[...]

The dynamic configuration has the point symmetry C_3v.

Analysis of constrained symmetry for selective dynamics:
 Subroutine PRICEL returns:
 Original cell was already a primitive cell.

 Routine SETGRP: Setting up the symmetry group for a
 hexagonal supercell.

 Subroutine GETGRP returns: Found  6 space group operations
[...]
     24      -5.5818      2.00000
     25      -5.5612      2.00000
     26      -5.5351      2.00000
     27      -5.5033      2.00000
     28      -5.4213      2.00000
     29      -5.3796      2.00000
     30      -5.2746      2.00000
     31      -5.2654      2.00000
     32      -5.2582      2.00000
     33      -5.2527      2.00000
     34      -5.2407      2.00000
     35      -5.1558      2.00000
     36      -5.0757      2.00000
     37      -5.0576      2.00000
     38      -5.0514      2.00000
     39      -5.0455      2.00000
     40      -4.9869      2.00000
     41      -4.9083      2.00000
     42      -4.8796      2.00000
     43      -4.8334      2.00000
     44      -4.7994      2.00000
     45      -4.7981      2.00000
     46      -4.7798      2.00000
     47      -4.6811      2.00000
     48      -4.6668      2.00000
     49      -4.6314      2.00000
     50      -4.6171      2.00000
     51      -4.6117      2.00000
     52      -4.5994      2.00000
     53      -4.5864      2.00000
     54      -4.5537      2.00000
     55      -4.5175      2.00000
     56      -4.4834      2.00000
     57      -4.4656      2.00000
     58      -4.4537      2.00000
     59      -4.4366      2.00000
     60      -4.4313      2.00000
[...]
    238       5.9463      0.00000
    239       5.9893      0.00000
    240       6.0507      0.00000
    241       6.1009      0.00000
    242       6.2801      0.00000
    243       6.3075      0.00000
    244       6.3545      0.00000
    245       6.3824      0.00000
    246       6.6811      0.00000
    247       6.7186      0.00000
    248       6.8076      0.00000
    249       6.8516      0.00000
    250       6.8644      0.00000
    251       6.9287      0.00000
    252       6.9908      0.00000

 soft charge-density along one line, spin component           1
         0         1         2         3         4         5         6         7         8         9
 total charge-density along one line

------------------------ aborting loop because EDIFF is reached ----------------------------------------

 total charge

# of ion       s       p       d       tot
    1        0.544   0.240   8.763   9.548
    2        0.543   0.241   8.764   9.548
    3        0.543   0.241   8.764   9.548
    4        0.543   0.241   8.764   9.548
    5        0.544   0.239   8.765   9.549
    6        0.543   0.241   8.764   9.548
    7        0.543   0.241   8.764   9.548
    8        0.543   0.241   8.764   9.548
    9        0.542   0.241   8.765   9.548
   10        0.520   0.308   8.772   9.599
   11        0.517   0.311   8.775   9.604
   12        0.520   0.308   8.772   9.599
   13        0.517   0.311   8.775   9.604
   14        0.517   0.311   8.775   9.604
   15        0.516   0.311   8.771   9.598
   16        0.520   0.308   8.772   9.599
   17        0.516   0.311   8.771   9.598
   18        0.516   0.311   8.771   9.598
   19        0.518   0.301   8.776   9.595
   20        0.540   0.330   8.757   9.626
   21        0.540   0.330   8.757   9.626
   22        0.513   0.312   8.772   9.596
   23        0.540   0.330   8.757   9.626
   24        0.513   0.312   8.772   9.596
   25        0.518   0.301   8.776   9.595
   26        0.518   0.301   8.776   9.595
   27        0.513   0.312   8.772   9.596
   28        0.541   0.224   8.768   9.534
   29        0.540   0.238   8.767   9.545
   30        0.540   0.238   8.767   9.545
   31        0.540   0.238   8.767   9.545
   32        0.540   0.238   8.767   9.545
   33        0.540   0.238   8.767   9.545
   34        0.540   0.238   8.767   9.545
   35        0.539   0.222   8.772   9.533
   36        0.448   0.499   7.541   8.488
   37        1.041   1.156   0.000   2.197
tot         20.069  11.305 314.430 345.805

  FORCE on cell =-STRESS in cart. coord.  units (eV):
  Direction    XX          YY          ZZ          XY          YZ          ZX
  Alpha Z   918.29867   918.29867   918.29867
  Ewald  152225.21884152225.21927************    -0.00032    -0.00008    -0.00013
  Hartree160686.40866160686.40868************     0.00001    -0.00002    -0.00003
  E(xc)   -1787.55855 -1787.55850 -1794.14149    -0.00004    -0.00000    -0.00000
  Local  ************************325460.77064     0.00187     0.00004     0.00003
  n-local   -84.08107   -37.04321   -36.36840    22.97792    -1.43474     1.62205
  augment  2528.28114  2528.28270  2525.81996    -0.00135     0.00001     0.00009
  Kinetic  5479.22415  5487.38727  5516.60243     4.63768     0.26561     0.30262
  Fock        0.00000     0.00000     0.00000     0.00000     0.00000     0.00000
  Total     -19.54741   -19.54741     1.45328    -0.00000     0.00000     0.00000
  in kB     -19.14808   -19.14808     1.42359    -0.00000     0.00000     0.00000

 VOLUME and BASIS-vectors are now :
  energy-cutoff  :      500.00
  volume of cell :     1635.59
      direct lattice vectors                 reciprocal lattice vectors
     8.813512802  0.000000000  0.000000000     0.113462137 -0.065507406  0.000000000
     4.406756909  7.632725690  0.000000000     0.000000000  0.131014796  0.000000000
     0.000000000  0.000000000 24.313408842     0.000000000  0.000000000  0.041129568

  length of vectors
     8.813512802  8.813512802 24.313408842     0.131014796  0.131014796  0.041129568

 FORCES acting on ions
    electron-ion (+dipol)            ewald-force                    non-local-force                 convergence-correction
   -.198E-04 -.163E-04 0.266E+04   0.519E-04 0.434E-04 -.266E+04   -.637E-17 -.146E-17 -.453E+00   -.174E-03 -.113E-03 -.215E+00
   0.645E+00 0.595E+00 0.266E+04   -.656E+00 -.509E+00 -.266E+04   0.394E-02 -.155E-01 -.344E+00   0.749E-02 -.679E-01 -.256E+00
   -.645E+00 0.595E+00 0.266E+04   0.655E+00 -.509E+00 -.266E+04   -.394E-02 -.155E-01 -.344E+00   -.723E-02 -.659E-01 -.255E+00
   0.837E+00 0.261E+00 0.266E+04   -.769E+00 -.313E+00 -.266E+04   -.114E-01 0.111E-01 -.344E+00   -.550E-01 0.404E-01 -.256E+00
   0.805E-05 -.235E-04 0.266E+04   0.951E-04 0.173E-05 -.266E+04   0.129E-17 -.236E-17 -.465E+00   0.427E-02 0.263E-02 -.226E+00
   -.837E+00 0.261E+00 0.266E+04   0.769E+00 -.313E+00 -.266E+04   0.114E-01 0.111E-01 -.344E+00   0.534E-01 0.414E-01 -.255E+00
   0.193E+00 -.856E+00 0.266E+04   -.113E+00 0.822E+00 -.266E+04   -.154E-01 0.431E-02 -.344E+00   -.606E-01 0.267E-01 -.255E+00
   -.193E+00 -.856E+00 0.266E+04   0.113E+00 0.822E+00 -.266E+04   0.154E-01 0.431E-02 -.344E+00   0.625E-01 0.256E-01 -.255E+00
   0.196E-04 -.415E-04 0.266E+04   0.166E-03 -.201E-04 -.266E+04   -.170E-18 -.190E-17 -.382E+00   -.464E-02 -.244E-02 -.245E+00
   0.510E+01 0.295E+01 0.902E+03   -.492E+01 -.284E+01 -.901E+03   -.121E+00 -.696E-01 -.511E+00   -.698E-01 -.401E-01 -.345E+00
   0.152E-04 0.662E+01 0.912E+03   0.147E-03 -.664E+01 -.911E+03   0.440E-08 0.661E-01 -.521E+00   0.365E-02 -.751E-01 -.392E+00
   -.510E+01 0.295E+01 0.902E+03   0.492E+01 -.284E+01 -.901E+03   0.121E+00 -.696E-01 -.511E+00   0.685E-01 -.389E-01 -.346E+00
   0.573E+01 -.331E+01 0.912E+03   -.575E+01 0.332E+01 -.911E+03   0.573E-01 -.331E-01 -.521E+00   -.631E-01 0.411E-01 -.392E+00
   -.573E+01 -.331E+01 0.912E+03   0.575E+01 0.332E+01 -.911E+03   -.573E-01 -.331E-01 -.521E+00   0.708E-01 0.408E-01 -.392E+00
   0.310E-04 0.279E+01 0.904E+03   0.236E-03 -.288E+01 -.903E+03   -.100E-09 -.151E-02 -.404E+00   -.217E-02 0.430E-01 -.309E+00
   -.215E-04 -.589E+01 0.902E+03   0.163E-03 0.568E+01 -.901E+03   0.927E-08 0.139E+00 -.511E+00   0.341E-03 0.787E-01 -.346E+00
   0.242E+01 -.140E+01 0.904E+03   -.249E+01 0.144E+01 -.903E+03   -.131E-02 0.754E-03 -.404E+00   0.365E-01 -.233E-01 -.309E+00
   -.242E+01 -.140E+01 0.904E+03   0.249E+01 0.144E+01 -.903E+03   0.131E-02 0.754E-03 -.404E+00   -.366E-01 -.216E-01 -.310E+00
   -.398E-04 0.267E+01 -.894E+03   0.535E-04 -.268E+01 0.894E+03   0.137E-08 0.206E-01 0.539E+00   0.345E-02 -.445E-03 -.152E+00
   0.360E+02 0.208E+02 -.840E+03   -.352E+02 -.203E+02 0.841E+03   -.797E+00 -.460E+00 -.420E+00   -.171E+00 -.982E-01 -.220E+00
   -.360E+02 0.208E+02 -.840E+03   0.352E+02 -.203E+02 0.841E+03   0.797E+00 -.460E+00 -.420E+00   0.171E+00 -.962E-01 -.221E+00
   0.101E+02 -.583E+01 -.879E+03   -.103E+02 0.593E+01 0.878E+03   0.328E+00 -.189E+00 0.658E+00   -.134E+00 0.713E-01 -.113E+00
   -.123E-04 -.416E+02 -.840E+03   0.144E-03 0.406E+02 0.841E+03   0.613E-07 0.920E+00 -.420E+00   0.167E-02 0.197E+00 -.220E+00
   -.101E+02 -.583E+01 -.879E+03   0.103E+02 0.593E+01 0.878E+03   -.328E+00 -.189E+00 0.658E+00   0.127E+00 0.725E-01 -.113E+00
   -.231E+01 -.133E+01 -.894E+03   0.232E+01 0.134E+01 0.894E+03   -.178E-01 -.103E-01 0.539E+00   0.759E-02 0.358E-02 -.152E+00
   0.231E+01 -.133E+01 -.894E+03   -.232E+01 0.134E+01 0.894E+03   0.178E-01 -.103E-01 0.539E+00   -.565E-02 0.290E-02 -.152E+00
   0.107E-04 0.117E+02 -.879E+03   0.197E-03 -.119E+02 0.878E+03   0.252E-07 0.378E+00 0.658E+00   -.451E-02 -.152E+00 -.113E+00
   -.123E-04 -.136E-04 -.265E+04   0.294E-04 0.341E-04 0.265E+04   -.903E-18 -.247E-18 0.601E+00   0.364E-03 -.974E-05 0.149E+00
   0.329E+02 0.546E+02 -.264E+04   -.326E+02 -.541E+02 0.264E+04   -.316E+00 -.517E+00 0.735E+00   -.630E-01 -.219E+00 0.142E+00
   -.329E+02 0.546E+02 -.264E+04   0.326E+02 -.541E+02 0.264E+04   0.316E+00 -.517E+00 0.735E+00   0.629E-01 -.218E+00 0.143E+00
   0.638E+02 0.116E+01 -.264E+04   -.631E+02 -.119E+01 0.264E+04   -.606E+00 -.156E-01 0.735E+00   -.222E+00 0.553E-01 0.142E+00
   -.638E+02 0.116E+01 -.264E+04   0.631E+02 -.119E+01 0.264E+04   0.606E+00 -.156E-01 0.735E+00   0.220E+00 0.567E-01 0.142E+00
   0.309E+02 -.558E+02 -.264E+04   -.305E+02 0.553E+02 0.264E+04   -.289E+00 0.533E+00 0.735E+00   -.157E+00 0.163E+00 0.143E+00
   -.309E+02 -.558E+02 -.264E+04   0.305E+02 0.553E+02 0.264E+04   0.289E+00 0.533E+00 0.735E+00   0.159E+00 0.162E+00 0.142E+00
   0.344E-04 -.286E-04 -.266E+04   0.143E-03 -.495E-04 0.266E+04   -.134E-16 0.552E-18 0.498E+00   -.472E-02 -.271E-02 0.903E-01
   -.224E-04 -.724E-05 -.188E+04   0.951E-04 0.891E-05 0.188E+04   -.920E-17 -.230E-17 0.539E+01   0.626E-02 0.396E-02 0.696E-01
   0.470E-04 -.258E-04 -.125E+04   0.192E-04 0.124E-05 0.126E+04   0.815E-18 0.889E-18 -.986E+01   0.872E-03 0.553E-03 0.159E+00
   -.714E-03 -.795E-03 0.100E+02   0.791E-13 -.490E-13 -.477E-11   0.367E-15 -.863E-18 -.430E+01   0.683E-02 0.755E-02 -.549E+01

 POSITION                                       TOTAL-FORCE (eV/Angst)
      0.00000      0.00000      5.28038         0.000000      0.000000     -0.052539
      2.93784      0.00000      5.28038         0.000973      0.003049     -0.018438
      5.87568      0.00000      5.28038        -0.000973      0.003049     -0.018438
      1.46892      2.54424      5.28038         0.003127     -0.000682     -0.018438
      4.40676      2.54424      5.28038         0.000000      0.000000     -0.066591
      7.34459      2.54424      5.28038        -0.003127     -0.000682     -0.018438
      2.93784      5.08848      5.28038         0.002154     -0.002367     -0.018438
      5.87568      5.08848      5.28038        -0.002154     -0.002367     -0.018438
      8.81351      5.08848      5.28038         0.000000      0.000000     -0.018598
      1.46892      0.84808      7.67911        -0.007026     -0.004057      0.068437
      4.40676      0.84808      7.67911        -0.000000     -0.034061      0.010234
      7.34459      0.84808      7.67911         0.007026     -0.004057      0.068437
      2.93784      3.39232      7.67911        -0.029498      0.017031      0.010234
      5.87568      3.39232      7.67911         0.029498      0.017031      0.010234
      8.81351      3.39232      7.67911        -0.000000     -0.044049      0.045955
      4.40676      5.93656      7.67911         0.000000      0.008114      0.068437
      7.34459      5.93656      7.67911        -0.038147      0.022024      0.045955
     10.28243      5.93656      7.67911         0.038147      0.022024      0.045955
      8.81351      1.69524     10.07173         0.000000      0.002265     -0.023240
      2.95099      1.70376     10.05075        -0.071239     -0.041130     -0.062820
      5.86252      1.70376     10.05075         0.071239     -0.041130     -0.062820
     10.26977      4.24772     10.05674         0.020506     -0.011839      0.041550
      4.40676      4.22522     10.05075         0.000000      0.082259     -0.062820
      7.35726      4.24772     10.05674        -0.020506     -0.011839      0.041550
     11.75215      6.78511     10.07173        -0.001962     -0.001133     -0.023240
      5.87488      6.78511     10.07173         0.001962     -0.001133     -0.023240
      8.81351      6.77002     10.05674         0.000000      0.023678      0.041550
      0.00000      0.00000     12.47665         0.000000      0.000000     -0.053289
      2.97645      0.06424     12.45579        -0.092319     -0.177057     -0.072338
      5.83706      0.06424     12.45579         0.092319     -0.177057     -0.072338
      1.54386      2.54556     12.45579        -0.199496      0.008578     -0.072338
      7.26966      2.54556     12.45579         0.199496      0.008578     -0.072338
      2.97417      5.02293     12.45579        -0.107177      0.168479     -0.072338
      5.83935      5.02293     12.45579         0.107177      0.168479     -0.072338
      8.81351      5.08848     12.49078         0.000000      0.000000     -0.082137
      4.40676      2.54424     12.15093         0.000000      0.000000      0.633193
      4.40676      2.54424     13.74716         0.000000      0.000000     -0.055727
    total drift:                                0.006117      0.006759      0.206043

  FREE ENERGIE OF THE ION-ELECTRON SYSTEM (eV)
  free  energy   TOTEN  =      -118.80807305 eV

  energy  without entropy=     -118.80807305  energy(sigma->0) =     -118.80807305

 stress matrix after NEB project (eV)
    -19.54741     -0.00000      0.00000
     -0.00000    -19.54741      0.00000
      0.00000      0.00000      1.45328
  FORCES: max atom, RMS     0.055727    0.009161
  FORCE total and by dimension    0.055727    0.055727
  Stress total and by dimension   27.682381   19.547407
|           W    W    AA    RRRRR   N    N  II  N    N   GGGG   !!!           |
|           W    W   A  A   R    R  NN   N  II  NN   N  G    G  !!!           |
|           W    W  A    A  R    R  N N  N  II  N N  N  G       !!!           |
|           W WW W  AAAAAA  RRRRR   N  N N  II  N  N N  G  GGG   !            |
|           WW  WW  A    A  R   R   N   NN  II  N   NN  G    G                |
|           W    W  A    A  R    R  N    N  II  N    N   GGGG   !!!           |
|     Tetrahedron method does not include variations of the Fermi             |
|     occupations, so forces and stress will be inaccurate. We suggest        |
|     using a different smearing scheme ISMEAR = 1 or 2 for metals in         |
|     relaxations.                                                            |

 total charge

# of ion       s       p       d       tot
    1        0.544   0.240   8.763   9.548
    2        0.543   0.241   8.764   9.548
    3        0.543   0.241   8.764   9.548
    4        0.543   0.241   8.764   9.548
    5        0.544   0.239   8.765   9.549
    6        0.543   0.241   8.764   9.548
    7        0.543   0.241   8.764   9.548
    8        0.543   0.241   8.764   9.548
    9        0.542   0.241   8.765   9.548
   10        0.520   0.308   8.772   9.599
   11        0.517   0.311   8.775   9.604
   12        0.520   0.308   8.772   9.599
   13        0.517   0.311   8.775   9.604
   14        0.517   0.311   8.775   9.604
   15        0.516   0.311   8.771   9.598
   16        0.520   0.308   8.772   9.599
   17        0.516   0.311   8.771   9.598
   18        0.516   0.311   8.771   9.598
   19        0.518   0.301   8.776   9.595
   20        0.540   0.330   8.757   9.626
   21        0.540   0.330   8.757   9.626
   22        0.513   0.312   8.772   9.596
   23        0.540   0.330   8.757   9.626
   24        0.513   0.312   8.772   9.596
   25        0.518   0.301   8.776   9.595
   26        0.518   0.301   8.776   9.595
   27        0.513   0.312   8.772   9.596
   28        0.541   0.224   8.768   9.534
   29        0.540   0.238   8.767   9.545
   30        0.540   0.238   8.767   9.545
   31        0.540   0.238   8.767   9.545
   32        0.540   0.238   8.767   9.545
   33        0.540   0.238   8.767   9.545
   34        0.540   0.238   8.767   9.545
   35        0.539   0.222   8.772   9.533
   36        0.448   0.499   7.541   8.488
   37        1.041   1.156   0.000   2.197
tot         20.069  11.305 314.430 345.805

 BZINTS: Fermi energy:    0.166488;  398.000000 electrons
         Band energy:-0.140428E+04;  BLOECHL correction:   -0.099478