 vasp.6.2.0 18Jan21 (build Jun 12 2021 23:27:24) complex

 executed on             LinuxIFC date 2022.05.27  05:52:34

 INCAR:
   ISMEAR = -5
   SIGMA = 0.1
   ISPIN = 1
   EDIFF = 1.d-5
   EDIFFG = -0.01
   NSW = 0
   NELM = 150
   ENCUT = 500
   ISIF = 2
   IBRION = 2
   LREAL = Auto
   ALGO = Fast
   ICHARG = 11
   LORBIT = 10
   LCHARG = .F.
   LWAVE = .F.

 POTCAR:    PAW_PBE Ag 02Apr2005
 POTCAR:    PAW_PBE Re 17Jan2003
 POTCAR:    PAW_PBE N 08Apr2002
|           W    W    AA    RRRRR   N    N  II  N    N   GGGG   !!!           |
|           W    W   A  A   R    R  NN   N  II  NN   N  G    G  !!!           |
|           W    W  A    A  R    R  N N  N  II  N N  N  G       !!!           |
|           W WW W  AAAAAA  RRRRR   N  N N  II  N  N N  G  GGG   !            |
|           WW  WW  A    A  R   R   N   NN  II  N   NN  G    G                |
|           W    W  A    A  R    R  N    N  II  N    N   GGGG   !!!           |
|     For optimal performance we recommend to set                             |
|       NCORE = 2 up to number-of-cores-per-socket                            |
|     This setting can greatly improve the performance of VASP for DFT.       |
|     The default, NCORE=1 might be grossly inefficient on modern             |
|     multi-core architectures or massively parallel machines. Do your        |
|     Unfortunately you need to use the default for GW and RPA                |
|     calculations (for HF NCORE is supported but not extensively tested      |
|     yet).                                                                   |

 POTCAR:    PAW_PBE Ag 02Apr2005
   VRHFIN =Ag : s1 d10

   TITEL  = PAW_PBE Ag 02Apr2005
   POMASS =  107.868; ZVAL   =   11.000    mass and valenz
   ENMAX  =  249.844; ENMIN  =  187.383 eV

 POTCAR:    PAW_PBE Re 17Jan2003
   VRHFIN =Re: 5p6s5d

   TITEL  = PAW_PBE Re 17Jan2003
   POMASS =  186.207; ZVAL   =    7.000    mass and valenz
   ENMAX  =  226.216; ENMIN  =  169.662 eV

 POTCAR:    PAW_PBE N 08Apr2002
   VRHFIN =N: s2p3

   TITEL  = PAW_PBE N 08Apr2002
   POMASS =   14.001; ZVAL   =    5.000    mass and valenz
   ENMAX  =  400.000; ENMIN  =  300.000 eV

 Optimization of the real space projectors (new method)

 maximal supplied QI-value         = 15.12
 optimisation between [QCUT,QGAM] = [ 11.34, 22.83] = [ 36.00,145.93] Ry
 Optimized for a Real-space Cutoff    1.43 Angstroem

   l    n(q)    QCUT    max X(q) W(low)/X(q) W(high)/X(q)  e(spline)
   2      9    11.338    53.897    0.16E-03    0.20E-03    0.28E-06
   2      9    11.338    52.416    0.16E-03    0.20E-03    0.29E-06
   0     10    11.338   122.045    0.31E-04    0.76E-04    0.15E-06
   0     10    11.338    73.629    0.30E-04    0.72E-04    0.15E-06
   1      9    11.338    15.255    0.20E-03    0.19E-04    0.17E-06
   1      9    11.338     9.562    0.16E-03    0.15E-04    0.14E-06
 Optimization of the real space projectors (new method)

[...]

   l    n(q)    QCUT    max X(q) W(low)/X(q) W(high)/X(q)  e(spline)
   2     10    11.327   884.633    0.22E-03    0.51E-03    0.88E-06
   2     10    11.327   796.723    0.22E-03    0.51E-03    0.88E-06
   0     11    11.327    65.348    0.44E-04    0.11E-03    0.75E-06
   0     11    11.327    39.642    0.40E-04    0.10E-03    0.69E-06
   1     10    11.327    13.988    0.15E-03    0.10E-03    0.19E-06
   1     10    11.327     8.682    0.11E-03    0.76E-04    0.14E-06
 Optimization of the real space projectors (new method)

 maximal supplied QI-value         = 25.13
 optimisation between [QCUT,QGAM] = [ 11.31, 22.87] = [ 35.82,146.48] Ry
 Optimized for a Real-space Cutoff    1.27 Angstroem

   l    n(q)    QCUT    max X(q) W(low)/X(q) W(high)/X(q)  e(spline)
   0      9    11.310    79.467    0.75E-04    0.16E-03    0.36E-06
   0      9    11.310    66.151    0.74E-04    0.16E-03    0.36E-06
   1      8    11.310    17.416    0.35E-03    0.12E-03    0.95E-06
   1      8    11.310    12.382    0.37E-03    0.13E-03    0.98E-06
  PAW_PBE Ag 02Apr2005                  :
  PAW_PBE Re 17Jan2003                  :
  PAW_PBE N 08Apr2002                   :

 POSCAR: Ag-Re-N2
  positions in direct lattice
  velocities in cartesian coordinates
 exchange correlation table for  LEXCH =        8
   RHO(1)=    0.500       N(1)  =     2000
   RHO(2)=  100.500       N(2)  =     4000

 VTST: version 3.2, (02/03/18)

 CHAIN: initializing optimizer

 OPT: Using VASP Conjugate-Gradient optimizer
 CHAIN: Read ICHAIN            0

 POSCAR: Ag-Re-N2
  positions in direct lattice
  velocities in cartesian coordinates

 ion  position               nearest neighbor table
   1  0.000  0.000  0.220-   2 2.93   8 2.93   7 2.93   6 2.93   4 2.93  12 2.93  16 2.93  10 2.93
                             3 2.93
   2  0.333  0.000  0.220-   1 2.93   8 2.93   9 2.93   3 2.93   4 2.93   5 2.93  10 2.93  17 2.93
                            11 2.93
   3  0.667  0.000  0.220-   9 2.93   2 2.93   5 2.93  11 2.93   7 2.93  18 2.93   1 2.93   6 2.93
                            12 2.93
   4  0.000  0.333  0.220-   5 2.93   6 2.93   2 2.93   1 2.93   7 2.93  13 2.93  15 2.93   9 2.93
                            10 2.93
   5  0.333  0.333  0.220-   4 2.93   3 2.93   7 2.93   2 2.93   8 2.93  14 2.93  13 2.93  11 2.93
                             6 2.93
   6  0.667  0.333  0.220-   4 2.93   9 2.93   1 2.93  15 2.93   8 2.93  12 2.93   3 2.93   5 2.93
                            14 2.93
   7  0.000  0.667  0.220-   8 2.93   1 2.93   5 2.93   3 2.93   4 2.93  16 2.93  18 2.93  13 2.93
                             9 2.93
   8  0.333  0.667  0.220-   7 2.93   1 2.93   2 2.93   9 2.93   5 2.93  16 2.93   6 2.93  17 2.93
                            14 2.93
   9  0.667  0.667  0.220-   3 2.93   2 2.93   8 2.93   6 2.93  17 2.93   4 2.93  15 2.93   7 2.93
                            18 2.93
  10  0.111  0.111  0.320-  20 2.89  12 2.93  16 2.93  15 2.93  17 2.93  13 2.93  11 2.93   2 2.93
                             1 2.93   4 2.93  19 2.93  26 2.93
  11  0.444  0.111  0.320-  21 2.89  20 2.89  27 2.93  14 2.93  17 2.93  18 2.93   3 2.93  12 2.93
                            13 2.93  10 2.93   5 2.93   2 2.93
  12  0.778  0.111  0.320-  21 2.89  10 2.93  16 2.93  18 2.93  15 2.93  11 2.93   1 2.93  14 2.93
                             6 2.93   3 2.93  25 2.93  19 2.93
  13  0.111  0.444  0.320-  20 2.89  23 2.89  22 2.93  15 2.93  14 2.93  18 2.93  10 2.93  11 2.93
                            16 2.93   4 2.93   5 2.93   7 2.93
  14  0.444  0.444  0.320-  23 2.89  21 2.89  24 2.93  13 2.93  11 2.93  16 2.93   5 2.93  12 2.93
                            17 2.93   8 2.93  15 2.93   6 2.93
  15  0.778  0.444  0.320-  24 2.92  22 2.92  19 2.93  13 2.93  10 2.93  12 2.93  17 2.93  18 2.93
                             4 2.93   6 2.93   9 2.93  14 2.93
  16  0.111  0.778  0.320-  23 2.89  18 2.93  12 2.93  10 2.93  14 2.93  17 2.93  13 2.93   7 2.93
                             8 2.93   1 2.93  26 2.93  25 2.93
  17  0.444  0.778  0.320-  27 2.92  24 2.92  26 2.93  11 2.93  10 2.93   9 2.93  18 2.93  15 2.93
                            16 2.93   2 2.93  14 2.93   8 2.93
  18  0.778  0.778  0.320-  22 2.92  27 2.92  25 2.93  16 2.93  12 2.93  13 2.93  11 2.93  17 2.93
                            15 2.93   7 2.93   3 2.93   9 2.93
  19  0.889  0.223  0.419-  28 2.91  24 2.93  22 2.93  15 2.93  20 2.93  21 2.93  10 2.93  12 2.93
                            26 2.94  25 2.94  32 2.97  31 2.97
  20  0.222  0.222  0.417-  36 2.76  10 2.89  13 2.89  11 2.89  19 2.93  26 2.93  21 2.93  23 2.93
                            27 2.94  22 2.94  31 2.94  29 2.94
  21  0.556  0.222  0.417-  36 2.76  12 2.89  11 2.89  14 2.89  25 2.93  19 2.93  20 2.93  23 2.93
                            27 2.94  24 2.94  30 2.94  32 2.94
  22  0.888  0.556  0.419-  35 2.91  24 2.92  27 2.92  18 2.92  15 2.92  13 2.93  25 2.93  19 2.93
                            23 2.94  20 2.94  33 2.95  31 2.95
  23  0.222  0.556  0.417-  36 2.76  16 2.89  14 2.89  13 2.89  26 2.93  25 2.93  21 2.93  20 2.93
                            22 2.94  24 2.94  34 2.94  33 2.94
  24  0.556  0.556  0.419-  35 2.91  27 2.92  22 2.92  15 2.92  17 2.92  14 2.93  19 2.93  26 2.93
                            23 2.94  21 2.94  32 2.95  34 2.95
  25  0.889  0.889  0.419-  28 2.91  22 2.93  27 2.93  18 2.93  23 2.93  21 2.93  16 2.93  12 2.93
                            26 2.94  19 2.94  33 2.97  30 2.97
  26  0.223  0.889  0.419-  28 2.91  27 2.93  24 2.93  17 2.93  23 2.93  20 2.93  16 2.93  10 2.93
                            25 2.94  19 2.94  34 2.97  29 2.97
  27  0.556  0.888  0.419-  35 2.91  24 2.92  22 2.92  17 2.92  18 2.92  11 2.93  26 2.93  25 2.93
                            20 2.94  21 2.94  29 2.95  30 2.95
  28  0.000  0.000  0.518-  26 2.91  25 2.91  19 2.91  29 2.96  34 2.96  33 2.96  32 2.96  31 2.96
                            30 2.96
  29  0.333  0.008  0.519-  31 2.86  30 2.87  36 2.88  20 2.94  27 2.95  28 2.96  26 2.97  35 2.97
                            34 3.06
  30  0.659  0.008  0.519-  32 2.86  29 2.87  36 2.88  21 2.94  27 2.95  28 2.96  25 2.97  35 2.97
                            33 3.06
  31  0.008  0.333  0.519-  29 2.86  33 2.87  36 2.88  20 2.94  22 2.95  28 2.96  19 2.97  35 2.97
                            32 3.06
  32  0.659  0.333  0.519-  30 2.86  34 2.87  36 2.88  21 2.94  24 2.95  28 2.96  19 2.97  35 2.97
                            31 3.06
  33  0.008  0.659  0.519-  34 2.86  31 2.87  36 2.88  23 2.94  22 2.95  28 2.96  25 2.97  35 2.97
                            30 3.06
  34  0.333  0.659  0.519-  33 2.86  32 2.87  36 2.88  23 2.94  24 2.95  28 2.96  26 2.97  35 2.97
                            29 3.06
  35  0.667  0.667  0.517-  24 2.91  27 2.91  22 2.91  30 2.97  32 2.97  29 2.97  34 2.97  31 2.97
                            33 2.97
  36  0.333  0.333  0.508-  38 2.20  37 2.20  21 2.76  20 2.76  23 2.76  31 2.88  30 2.88  33 2.88
                            29 2.88  34 2.88  32 2.88
  37  0.267  0.333  0.596-  38 1.18  36 2.20
  38  0.401  0.333  0.596-  37 1.18  36 2.20

  LATTYP: Found a hexagonal cell.
 ALAT       =     8.7913665772
 C/A-ratio  =     2.7320372559

  Lattice vectors:

 A1 = (  -4.3956832886,  -7.6135467898,   0.0000000000)
 A2 = (   8.7913665771,   0.0000000000,   0.0000000000)
 A3 = (   0.0000000000,   0.0000000000,  24.0183410195)

Analysis of symmetry for initial positions (statically):
 Subroutine PRICEL returns:
 Original cell was already a primitive cell.

 Routine SETGRP: Setting up the symmetry group for a
 hexagonal supercell.

 Subroutine GETGRP returns: Found  2 space group operations
 (whereof  2 operations were pure point group operations)
 out of a pool of 24 trial point group operations.

The static configuration has the point symmetry C_1h.

Analysis of symmetry for dynamics (positions and initial velocities):
 Subroutine PRICEL returns:
 Original cell was already a primitive cell.

[...]

The dynamic configuration has the point symmetry C_1h.

Analysis of constrained symmetry for selective dynamics:
 Subroutine PRICEL returns:
 Original cell was already a primitive cell.

 Routine SETGRP: Setting up the symmetry group for a
 hexagonal supercell.

[...]
     33      -4.9277      2.00000
     34      -4.9100      2.00000
     35      -4.8960      2.00000
     36      -4.8851      2.00000
     37      -4.8447      2.00000
     38      -4.8150      2.00000
     39      -4.7784      2.00000
     40      -4.7707      2.00000
     41      -4.7667      2.00000
     42      -4.7203      2.00000
     43      -4.7014      2.00000
     44      -4.6857      2.00000
     45      -4.6806      2.00000
     46      -4.6733      2.00000
     47      -4.6572      2.00000
     48      -4.5751      2.00000
     49      -4.5524      2.00000
     50      -4.5380      2.00000
     51      -4.5357      2.00000
     52      -4.5311      2.00000
     53      -4.5272      2.00000
     54      -4.5164      2.00000
     55      -4.5111      2.00000
     56      -4.5047      2.00000
     57      -4.4897      2.00000
     58      -4.4207      2.00000
     59      -4.4150      2.00000
     60      -4.4048      2.00000
[...]
    238       5.6547      0.00000
    239       5.8319      0.00000
    240       5.8950      0.00000
    241       5.9826      0.00000
    242       5.9963      0.00000
    243       6.0734      0.00000
    244       6.5166      0.00000
    245       6.5265      0.00000
    246       6.6946      0.00000
    247       6.7399      0.00000
    248       6.8412      0.00000
    249       6.8861      0.00000
    250       6.9242      0.00000
    251       6.9926      0.00000
    252       7.0354      0.00000

 soft charge-density along one line, spin component           1
         0         1         2         3         4         5         6         7         8         9
 total charge-density along one line

------------------------ aborting loop because EDIFF is reached ----------------------------------------

 total charge

# of ion       s       p       d       tot
    1        0.419   0.201   9.178   9.798
    2        0.415   0.204   9.177   9.796
    3        0.415   0.204   9.177   9.796
    4        0.418   0.203   9.177   9.798
    5        0.418   0.202   9.175   9.796
    6        0.418   0.203   9.177   9.798
    7        0.417   0.203   9.177   9.797
    8        0.417   0.203   9.177   9.797
    9        0.414   0.202   9.179   9.795
   10        0.408   0.270   9.163   9.840
   11        0.408   0.268   9.169   9.846
   12        0.408   0.270   9.163   9.840
   13        0.408   0.268   9.169   9.845
   14        0.408   0.268   9.169   9.845
   15        0.402   0.268   9.166   9.837
   16        0.411   0.269   9.160   9.841
   17        0.402   0.270   9.165   9.837
   18        0.402   0.270   9.165   9.837
   19        0.398   0.265   9.167   9.830
   20        0.434   0.309   9.137   9.880
   21        0.434   0.309   9.137   9.880
   22        0.392   0.272   9.168   9.833
   23        0.441   0.309   9.133   9.884
   24        0.392   0.272   9.168   9.833
   25        0.403   0.263   9.168   9.833
   26        0.403   0.263   9.168   9.833
   27        0.393   0.271   9.170   9.834
   28        0.413   0.197   9.178   9.788
   29        0.425   0.219   9.167   9.811
   30        0.425   0.219   9.167   9.811
   31        0.418   0.216   9.171   9.805
   32        0.418   0.216   9.171   9.805
   33        0.425   0.219   9.167   9.810
   34        0.425   0.219   9.167   9.810
   35        0.404   0.201   9.179   9.784
   36        0.498   0.370   4.767   5.635
   37        1.342   2.441   0.000   3.783
   38        1.342   2.441   0.000   3.783
tot         17.631  13.737 325.635 357.003

  FORCE on cell =-STRESS in cart. coord.  units (eV):
  Direction    XX          YY          ZZ          XY          YZ          ZX
  Alpha Z   721.35308   721.35308   721.35308
  Ewald  147425.45303147116.85185************     0.00004     0.47903     0.00006
  Hartree157352.95748157239.24950************     0.00002     0.88857     0.00002
  E(xc)   -2102.75517 -2103.68201 -2108.80213     0.00003     0.12096    -0.00000
  Local  ************************315749.89022     0.00079    -0.97785    -0.00016
  n-local  -368.14964  -356.28114  -364.91033     2.64189     0.73264     0.21100
  augment  3229.92872  3228.97182  3241.37666    -0.00018    -0.20885    -0.00002
  Kinetic  5047.52043  5057.94392  5086.66489     1.49734    -0.96539    -0.13340
  Fock        0.00000     0.00000     0.00000     0.00000     0.00000     0.00000
  Total      -7.76740    -7.95143    -0.23456    -0.00000     0.06910     0.00000
  in kB      -7.74105    -7.92445    -0.23377    -0.00000     0.06887     0.00000

 VOLUME and BASIS-vectors are now :
  energy-cutoff  :      500.00
  volume of cell :     1607.63
      direct lattice vectors                 reciprocal lattice vectors
     8.791366577  0.000000000  0.000000000     0.113747958 -0.065672414  0.000000000
     4.395683289  7.613546790  0.000000000     0.000000000  0.131344829  0.000000000
     0.000000000  0.000000000 24.018341020     0.000000000  0.000000000  0.041634849

  length of vectors
     8.791366577  8.791366577 24.018341020     0.131344829  0.131344829  0.041634849

 FORCES acting on ions
    electron-ion (+dipol)            ewald-force                    non-local-force                 convergence-correction
   0.461E-04 -.963E-02 0.266E+04   -.954E-04 -.136E-01 -.266E+04   0.326E-12 0.496E-01 -.218E+01   -.271E-04 -.327E-01 0.242E-01
   0.135E+00 0.444E+00 0.266E+04   -.441E+00 -.524E+00 -.266E+04   0.159E+00 0.110E+00 -.156E+01   0.134E+00 -.213E-01 -.663E-02
   -.135E+00 0.444E+00 0.266E+04   0.441E+00 -.524E+00 -.266E+04   -.159E+00 0.110E+00 -.156E+01   -.134E+00 -.194E-01 -.609E-02
   0.657E+00 -.602E-02 0.266E+04   -.663E+00 -.126E+00 -.266E+04   0.499E-01 0.216E-01 -.155E+01   -.190E-01 0.101E+00 0.745E-01
   -.725E-05 -.431E-01 0.267E+04   0.980E-04 0.127E-02 -.266E+04   0.354E-12 0.540E-01 -.133E+01   0.615E-02 -.902E-02 0.153E+00
   -.657E+00 -.599E-02 0.266E+04   0.662E+00 -.126E+00 -.266E+04   -.499E-01 0.216E-01 -.155E+01   0.177E-01 0.102E+00 0.752E-01
   0.130E+00 -.453E+00 0.266E+04   -.221E+00 0.650E+00 -.266E+04   0.110E+00 -.149E+00 -.149E+01   -.166E-01 -.478E-01 0.645E-01
   -.130E+00 -.453E+00 0.266E+04   0.221E+00 0.649E+00 -.266E+04   -.110E+00 -.149E+00 -.149E+01   0.182E-01 -.487E-01 0.646E-01
   0.361E-04 0.620E-01 0.266E+04   0.792E-04 0.124E-01 -.266E+04   -.333E-12 -.507E-01 -.193E+01   -.665E-02 -.202E-01 -.534E-02
   0.584E+01 0.345E+01 0.919E+03   -.540E+01 -.322E+01 -.919E+03   -.486E+00 -.257E+00 -.863E+00   0.474E-01 0.351E-01 0.313E+00
   -.291E-04 0.499E+01 0.925E+03   0.408E-04 -.534E+01 -.925E+03   0.148E-11 0.226E+00 -.243E+00   0.582E-02 0.551E-01 0.280E+00
   -.584E+01 0.345E+01 0.919E+03   0.540E+01 -.322E+01 -.919E+03   0.486E+00 -.257E+00 -.863E+00   -.483E-01 0.357E-01 0.311E+00
   0.428E+01 -.249E+01 0.925E+03   -.453E+01 0.270E+01 -.925E+03   0.185E+00 -.168E+00 -.366E+00   0.180E-01 -.794E-02 0.246E+00
   -.428E+01 -.249E+01 0.925E+03   0.453E+01 0.270E+01 -.925E+03   -.185E+00 -.168E+00 -.366E+00   -.782E-02 -.851E-02 0.245E+00
   0.161E-04 0.980E+00 0.919E+03   -.108E-03 -.113E+01 -.919E+03   0.593E-12 0.903E-01 -.743E+00   -.107E-02 0.274E-01 0.274E+00
   -.760E-05 -.691E+01 0.919E+03   0.205E-04 0.626E+01 -.919E+03   0.454E-11 0.692E+00 -.892E+00   0.443E-05 -.537E-01 0.236E+00
   0.968E+00 -.505E+00 0.919E+03   -.104E+01 0.633E+00 -.919E+03   0.563E-01 -.819E-01 -.742E+00   -.285E-02 -.368E-01 0.206E+00
   -.969E+00 -.505E+00 0.919E+03   0.104E+01 0.633E+00 -.919E+03   -.563E-01 -.819E-01 -.742E+00   0.274E-02 -.356E-01 0.207E+00
   0.388E-04 0.480E+00 -.857E+03   -.128E-03 -.770E+00 0.856E+03   0.129E-11 0.196E+00 0.948E+00   0.690E-02 0.751E-01 0.326E+00
   0.563E+01 0.367E+01 -.820E+03   -.412E+01 -.298E+01 0.821E+03   -.164E+01 -.769E+00 -.124E+01   0.120E+00 0.550E-01 0.515E+00
   -.563E+01 0.367E+01 -.820E+03   0.412E+01 -.298E+01 0.821E+03   0.164E+01 -.769E+00 -.124E+01   -.132E+00 0.550E-01 0.514E+00
   -.276E-02 -.518E+00 -.845E+03   -.399E+00 0.948E+00 0.844E+03   0.391E+00 -.315E+00 0.609E+00   0.544E-01 -.127E+00 0.316E+00
   -.535E-04 -.763E+01 -.821E+03   0.418E-04 0.566E+01 0.822E+03   0.140E-10 0.213E+01 -.174E+01   -.571E-02 -.140E+00 0.398E+00
   0.267E-02 -.518E+00 -.845E+03   0.399E+00 0.948E+00 0.844E+03   -.391E+00 -.315E+00 0.609E+00   -.530E-01 -.124E+00 0.316E+00
   -.216E+00 0.103E+00 -.858E+03   0.351E+00 -.143E+00 0.857E+03   -.937E-01 -.285E-02 0.799E+00   -.284E-01 0.468E-01 0.346E+00
   0.217E+00 0.103E+00 -.858E+03   -.351E+00 -.143E+00 0.857E+03   0.937E-01 -.285E-02 0.799E+00   0.394E-01 0.482E-01 0.346E+00
   0.194E-04 -.134E+00 -.846E+03   0.110E-03 -.577E+00 0.845E+03   0.386E-11 0.588E+00 0.604E+00   -.189E-02 0.162E+00 0.343E+00
   0.535E-04 0.287E+01 -.258E+04   -.115E-03 -.289E+01 0.258E+04   0.988E-13 0.151E-01 0.183E+01   -.607E-03 -.238E-01 0.951E-02
   0.257E+02 0.527E+02 -.256E+04   -.249E+02 -.521E+02 0.256E+04   -.975E+00 -.110E+01 0.164E+01   0.117E+00 0.217E+00 -.568E-01
   -.257E+02 0.527E+02 -.256E+04   0.249E+02 -.521E+02 0.256E+04   0.975E+00 -.110E+01 0.164E+01   -.108E+00 0.218E+00 -.558E-01
   0.629E+02 -.635E+00 -.255E+04   -.622E+02 0.744E+00 0.255E+04   -.123E+01 -.134E+00 0.256E+01   0.282E+00 0.358E-01 -.209E-01
   -.629E+02 -.635E+00 -.255E+04   0.622E+02 0.744E+00 0.255E+04   0.123E+01 -.134E+00 0.256E+01   -.271E+00 0.371E-01 -.195E-01
   0.258E+02 -.518E+02 -.256E+04   -.255E+02 0.510E+02 0.256E+04   -.686E+00 0.124E+01 0.168E+01   0.187E+00 -.256E+00 0.443E-01
   -.258E+02 -.518E+02 -.256E+04   0.255E+02 0.510E+02 0.256E+04   0.686E+00 0.124E+01 0.168E+01   -.175E+00 -.255E+00 0.448E-01
   0.211E-04 -.258E+01 -.258E+04   0.106E-03 0.267E+01 0.258E+04   -.429E-13 -.653E-02 0.205E+01   -.767E-02 -.494E-01 0.762E-01
   -.153E-04 -.641E+00 -.141E+04   0.677E-04 0.534E+00 0.141E+04   0.763E-12 0.116E+00 0.231E+01   -.211E-03 0.214E-01 0.101E+00
   0.206E+03 -.166E+00 -.138E+04   -.245E+03 0.150E+00 0.139E+04   0.397E+02 -.440E-01 -.104E+02   0.613E-01 0.516E-01 -.192E+00
   -.206E+03 -.166E+00 -.138E+04   0.245E+03 0.150E+00 0.139E+04   -.397E+02 -.440E-01 -.104E+02   -.615E-01 0.517E-01 -.192E+00
   0.462E-03 -.924E+00 0.172E+02   0.000E+00 0.944E-15 -.273E-11   0.531E-11 0.809E+00 -.232E+02   0.350E-01 0.115E+00 0.591E+01

 POSITION                                       TOTAL-FORCE (eV/Angst)
      0.00000      0.00000      5.28219        -0.000000     -0.006348     -0.031848
      2.93046      0.00000      5.28219        -0.013798      0.009936      0.042641
      5.86091      0.00000      5.28219         0.013798      0.009936      0.042641
      1.46523      2.53785      5.28219         0.025956     -0.008157      0.027389
      4.39568      2.53785      5.28219         0.000000      0.003130     -0.010459
      7.32614      2.53785      5.28219        -0.025956     -0.008157      0.027389
      2.93046      5.07570      5.28219         0.001749     -0.000459      0.027603
      5.86091      5.07570      5.28219        -0.001749     -0.000459      0.027603
      8.79137      5.07570      5.28219         0.000000      0.003465      0.010623
      1.46523      0.84595      7.67490        -0.003191      0.009213     -0.011442
      4.39568      0.84595      7.67490        -0.000000     -0.071887     -0.087212
      7.32614      0.84595      7.67490         0.003191      0.009213     -0.011442
      2.93046      3.38380      7.67490        -0.052392      0.034094     -0.074964
      5.86091      3.38380      7.67490         0.052392      0.034094     -0.074964
      8.79137      3.38380      7.67490        -0.000000     -0.036158      0.013754
      4.39568      5.92165      7.67490        -0.000000     -0.008884     -0.004142
      7.32614      5.92165      7.67490        -0.022563      0.010197      0.019138
     10.25659      5.92165      7.67490         0.022563      0.010197      0.019138
      8.79137      1.69725     10.06774        -0.000000     -0.019111      0.025292
      2.92950      1.69135     10.02116        -0.003032     -0.020475     -0.109657
      5.86187      1.69135     10.02116         0.003032     -0.020475     -0.109657
     10.25061      4.23320     10.05696         0.042952     -0.011512      0.012791
      4.39568      4.23086     10.02116         0.000000      0.026248     -0.105443
      7.33212      4.23320     10.05696        -0.042952     -0.011512      0.012791
     11.71719      6.76492     10.06774         0.006516      0.004665     -0.002426
      5.86555      6.76492     10.06774        -0.006516      0.004665     -0.002426
      8.79137      6.76069     10.05696         0.000000      0.038867      0.001201
      0.00000      0.00000     12.43040        -0.000000     -0.030150      0.023250
      2.96174      0.05879     12.46433        -0.115959     -0.241902     -0.165904
      5.82963      0.05879     12.46433         0.115959     -0.241902     -0.165904
      1.53179      2.53554     12.46433        -0.293094      0.012357     -0.187811
      7.25958      2.53554     12.46433         0.293094      0.012357     -0.187811
      2.96573      5.01921     12.46433        -0.137089      0.228135     -0.176382
      5.82563      5.01921     12.46433         0.137089      0.228135     -0.176382
      8.79137      5.07570     12.42552         0.000000      0.033347      0.026857
      4.39568      2.53785     12.19879         0.000000      0.030529      1.328003
      3.80610      2.53176     14.31811         0.106378     -0.007615      0.004087
      4.98527      2.53176     14.31811        -0.106378     -0.007615      0.004087
    total drift:                                0.035449     -0.000388     -0.056569

  FREE ENERGIE OF THE ION-ELECTRON SYSTEM (eV)
  free  energy   TOTEN  =      -114.06388857 eV

  energy  without entropy=     -114.06388857  energy(sigma->0) =     -114.06388857

 stress matrix after NEB project (eV)
     -7.76740     -0.00000      0.00000
     -0.00000     -7.95143      0.06910
      0.00000      0.06910     -0.23456
  FORCES: max atom, RMS     0.106728    0.024485
  FORCE total and by dimension    0.150936    0.106378
  Stress total and by dimension   11.118556    7.951426
|           W    W    AA    RRRRR   N    N  II  N    N   GGGG   !!!           |
|           W    W   A  A   R    R  NN   N  II  NN   N  G    G  !!!           |
|           W    W  A    A  R    R  N N  N  II  N N  N  G       !!!           |
|           W WW W  AAAAAA  RRRRR   N  N N  II  N  N N  G  GGG   !            |
|           WW  WW  A    A  R   R   N   NN  II  N   NN  G    G                |
|           W    W  A    A  R    R  N    N  II  N    N   GGGG   !!!           |
|     Tetrahedron method does not include variations of the Fermi             |
|     occupations, so forces and stress will be inaccurate. We suggest        |
|     using a different smearing scheme ISMEAR = 1 or 2 for metals in         |
|     relaxations.                                                            |

 total charge

# of ion       s       p       d       tot
    1        0.419   0.201   9.178   9.798
    2        0.415   0.204   9.177   9.796
    3        0.415   0.204   9.177   9.796
    4        0.418   0.203   9.177   9.798
    5        0.418   0.202   9.175   9.796
    6        0.418   0.203   9.177   9.798
    7        0.417   0.203   9.177   9.797
    8        0.417   0.203   9.177   9.797
    9        0.414   0.202   9.179   9.795
   10        0.408   0.270   9.163   9.840
   11        0.408   0.268   9.169   9.846
   12        0.408   0.270   9.163   9.840
   13        0.408   0.268   9.169   9.845
   14        0.408   0.268   9.169   9.845
   15        0.402   0.268   9.166   9.837
   16        0.411   0.269   9.160   9.841
   17        0.402   0.270   9.165   9.837
   18        0.402   0.270   9.165   9.837
   19        0.398   0.265   9.167   9.830
   20        0.434   0.309   9.137   9.880
   21        0.434   0.309   9.137   9.880
   22        0.392   0.272   9.168   9.833
   23        0.441   0.309   9.133   9.884
   24        0.392   0.272   9.168   9.833
   25        0.403   0.263   9.168   9.833
   26        0.403   0.263   9.168   9.833
   27        0.393   0.271   9.170   9.834
   28        0.413   0.197   9.178   9.788
   29        0.425   0.219   9.167   9.811
   30        0.425   0.219   9.167   9.811
   31        0.418   0.216   9.171   9.805
   32        0.418   0.216   9.171   9.805
   33        0.425   0.219   9.167   9.810
   34        0.425   0.219   9.167   9.810
   35        0.404   0.201   9.179   9.784
   36        0.498   0.370   4.767   5.635
   37        1.342   2.441   0.000   3.783
   38        1.342   2.441   0.000   3.783
tot         17.631  13.737 325.635 357.003

 BZINTS: Fermi energy:    0.438454;  402.000000 electrons
         Band energy:-0.150748E+04;  BLOECHL correction:   -0.028219