 vasp.6.2.0 18Jan21 (build Jun 12 2021 23:27:24) complex

 executed on             LinuxIFC date 2022.05.27  05:07:19

 INCAR:
   ISMEAR = -5
   SIGMA = 0.1
   ISPIN = 1
   EDIFF = 1.d-5
   EDIFFG = -0.01
   NSW = 0
   NELM = 150
   ENCUT = 500
   ISIF = 2
   IBRION = 2
   LREAL = Auto
   ALGO = Fast
   ICHARG = 11
   LORBIT = 10
   LCHARG = .F.
   LWAVE = .F.

 POTCAR:    PAW_PBE Au 04Oct2007
 POTCAR:    PAW_PBE Mo 08Apr2002
 POTCAR:    PAW_PBE H 15Jun2001
|           W    W    AA    RRRRR   N    N  II  N    N   GGGG   !!!           |
|           W    W   A  A   R    R  NN   N  II  NN   N  G    G  !!!           |
|           W    W  A    A  R    R  N N  N  II  N N  N  G       !!!           |
|           W WW W  AAAAAA  RRRRR   N  N N  II  N  N N  G  GGG   !            |
|           WW  WW  A    A  R   R   N   NN  II  N   NN  G    G                |
|           W    W  A    A  R    R  N    N  II  N    N   GGGG   !!!           |
|     For optimal performance we recommend to set                             |
|       NCORE = 2 up to number-of-cores-per-socket                            |
|     This setting can greatly improve the performance of VASP for DFT.       |
|     The default, NCORE=1 might be grossly inefficient on modern             |
|     multi-core architectures or massively parallel machines. Do your        |
|     Unfortunately you need to use the default for GW and RPA                |
|     calculations (for HF NCORE is supported but not extensively tested      |
|     yet).                                                                   |

 POTCAR:    PAW_PBE Au 04Oct2007
   VRHFIN =Au: s1d10

   TITEL  = PAW_PBE Au 04Oct2007
   POMASS =  196.966; ZVAL   =   11.000    mass and valenz
   ENMAX  =  229.943; ENMIN  =  172.457 eV

 POTCAR:    PAW_PBE Mo 08Apr2002
   VRHFIN =Mo: 4p5s4d

   TITEL  = PAW_PBE Mo 08Apr2002
   POMASS =   95.940; ZVAL   =    6.000    mass and valenz
   ENMAX  =  224.584; ENMIN  =  168.438 eV

 POTCAR:    PAW_PBE H 15Jun2001
   VRHFIN =H: ultrasoft test

   TITEL  = PAW_PBE H 15Jun2001
   POMASS =    1.000; ZVAL   =    1.000    mass and valenz
   ENMAX  =  250.000; ENMIN  =  200.000 eV

 Optimization of the real space projectors (new method)

 maximal supplied QI-value         = 15.12
 optimisation between [QCUT,QGAM] = [ 11.34, 22.83] = [ 36.00,145.93] Ry
 Optimized for a Real-space Cutoff    1.39 Angstroem

   l    n(q)    QCUT    max X(q) W(low)/X(q) W(high)/X(q)  e(spline)
   2      9    11.338    60.898    0.39E-03    0.42E-03    0.21E-06
   2      9    11.338    58.894    0.40E-03    0.42E-03    0.22E-06
   0      9    11.338   109.617    0.13E-03    0.20E-04    0.13E-06
   0      9    11.338    75.026    0.13E-03    0.20E-04    0.13E-06
   1      9    11.338    16.344    0.33E-04    0.24E-03    0.18E-06
   1      9    11.338    10.160    0.26E-04    0.19E-03    0.15E-06
 Optimization of the real space projectors (new method)

[...]

   l    n(q)    QCUT    max X(q) W(low)/X(q) W(high)/X(q)  e(spline)
   2     10    11.429    80.908    0.27E-03    0.78E-03    0.13E-05
   2     10    11.429    79.000    0.27E-03    0.78E-03    0.13E-05
   0     11    11.429    52.066    0.33E-04    0.97E-04    0.72E-06
   0     11    11.429    24.514    0.27E-04    0.80E-04    0.60E-06
   1     10    11.429    16.033    0.31E-04    0.17E-03    0.36E-06
   1     10    11.429    11.179    0.22E-04    0.13E-03    0.29E-06
 Optimization of the real space projectors (new method)

 maximal supplied QI-value         = 34.20
 optimisation between [QCUT,QGAM] = [ 11.29, 22.57] = [ 35.68,142.71] Ry
 Optimized for a Real-space Cutoff    1.16 Angstroem

   l    n(q)    QCUT    max X(q) W(low)/X(q) W(high)/X(q)  e(spline)
   0      8    11.287    19.460    0.40E-03    0.73E-03    0.16E-06
   0      8    11.287    12.209    0.38E-03    0.70E-03    0.15E-06
   1      7    11.287     4.655    0.22E-03    0.25E-04    0.22E-06
  PAW_PBE Au 04Oct2007                  :
  PAW_PBE Mo 08Apr2002                  :
  PAW_PBE H 15Jun2001                   :

 POSCAR: Au-Mo-H2
  positions in direct lattice
  velocities in cartesian coordinates
 exchange correlation table for  LEXCH =        8
   RHO(1)=    0.500       N(1)  =     2000
   RHO(2)=  100.500       N(2)  =     4000

 VTST: version 3.2, (02/03/18)

 CHAIN: initializing optimizer

 OPT: Using VASP Conjugate-Gradient optimizer
 CHAIN: Read ICHAIN            0

 POSCAR: Au-Mo-H2
  positions in direct lattice
  velocities in cartesian coordinates

 ion  position               nearest neighbor table
   1  0.000  0.000  0.238-  16 2.94  12 2.94   6 2.94   8 2.94   7 2.94   3 2.94  10 2.94   4 2.94
                             2 2.94
   2  0.333  0.000  0.238-   9 2.94  11 2.94  17 2.94  10 2.94   8 2.94   4 2.94   5 2.94   1 2.94
                             3 2.94
   3  0.667  0.000  0.238-   7 2.94  18 2.94  12 2.94   1 2.94  11 2.94   5 2.94   6 2.94   9 2.94
                             2 2.94
   4  0.000  0.333  0.238-  10 2.94   6 2.94   5 2.94  13 2.94   2 2.94  15 2.94   9 2.94   1 2.94
                             7 2.94
   5  0.333  0.333  0.238-  13 2.94   7 2.94  11 2.94   4 2.94   2 2.94  14 2.94   3 2.94   8 2.94
                             6 2.94
   6  0.667  0.333  0.238-  15 2.94  14 2.94   1 2.94  12 2.94   4 2.94   9 2.94   8 2.94   3 2.94
                             5 2.94
   7  0.000  0.667  0.238-  18 2.94   3 2.94  16 2.94   5 2.94   1 2.94  13 2.94   8 2.94   4 2.94
                             9 2.94
   8  0.333  0.667  0.238-   9 2.94  17 2.94   1 2.94   2 2.94  14 2.94  16 2.94   6 2.94   7 2.94
                             5 2.94
   9  0.667  0.667  0.238-   2 2.94   8 2.94  17 2.94   6 2.94  15 2.94   4 2.94   3 2.94  18 2.94
                             7 2.94
  10  0.111  0.111  0.346-  20 2.91  11 2.94  17 2.94   2 2.94   4 2.94   1 2.94  12 2.94  16 2.94
                            13 2.94  15 2.94  26 2.95  19 2.95
  11  0.444  0.111  0.346-  20 2.91  21 2.91  13 2.94   2 2.94  10 2.94  17 2.94   5 2.94   3 2.94
                            18 2.94  14 2.94  12 2.94  27 2.94
  12  0.778  0.111  0.346-  21 2.91  16 2.94  18 2.94   1 2.94  14 2.94  15 2.94   3 2.94   6 2.94
                            10 2.94  11 2.94  25 2.95  19 2.95
  13  0.111  0.444  0.346-  23 2.91  20 2.91   5 2.94  18 2.94  11 2.94   7 2.94   4 2.94  16 2.94
                            10 2.94  14 2.94  15 2.94  22 2.94
  14  0.444  0.444  0.346-  21 2.91  23 2.91  15 2.94   6 2.94  12 2.94   8 2.94  17 2.94   5 2.94
                            16 2.94  13 2.94  11 2.94  24 2.94
  15  0.778  0.444  0.346-  24 2.93  22 2.93  14 2.94   6 2.94  17 2.94  12 2.94   9 2.94   4 2.94
                            10 2.94  13 2.94  18 2.94  19 2.95
  16  0.111  0.778  0.346-  23 2.91  18 2.94  12 2.94   7 2.94   1 2.94   8 2.94  13 2.94  10 2.94
                            14 2.94  17 2.94  25 2.95  26 2.95
  17  0.444  0.778  0.346-  27 2.93  24 2.93   9 2.94  15 2.94   2 2.94  10 2.94  11 2.94   8 2.94
                            14 2.94  16 2.94  18 2.94  26 2.95
  18  0.778  0.778  0.346-  22 2.93  27 2.93  16 2.94   7 2.94  13 2.94  12 2.94   3 2.94  11 2.94
                             9 2.94  15 2.94  17 2.94  25 2.95
  19  0.889  0.223  0.455-  24 2.93  22 2.93  21 2.94  20 2.94  28 2.95  26 2.95  25 2.95  15 2.95
                            10 2.95  12 2.95  32 3.02  31 3.02
  20  0.222  0.222  0.453-  36 2.77  11 2.91  13 2.91  10 2.91  23 2.94  21 2.94  26 2.94  19 2.94
                            27 2.95  22 2.95  29 2.98  31 2.98
  21  0.555  0.222  0.453-  36 2.77  14 2.91  11 2.91  12 2.91  20 2.94  23 2.94  25 2.94  19 2.94
                            27 2.95  24 2.95  30 2.98  32 2.98
  22  0.887  0.557  0.454-  24 2.91  27 2.91  18 2.93  15 2.93  25 2.93  19 2.93  13 2.94  35 2.95
                            23 2.95  20 2.95  33 3.00  31 3.00
  23  0.222  0.555  0.453-  36 2.77  13 2.91  14 2.91  16 2.91  20 2.94  21 2.94  25 2.94  26 2.94
                            22 2.95  24 2.95  33 2.98  34 2.98
  24  0.557  0.557  0.454-  27 2.91  22 2.91  15 2.93  17 2.93  26 2.93  19 2.93  14 2.94  35 2.95
                            21 2.95  23 2.95  32 3.00  34 3.00
  25  0.889  0.889  0.455-  22 2.93  27 2.93  23 2.94  21 2.94  28 2.95  19 2.95  26 2.95  18 2.95
                            16 2.95  12 2.95  33 3.02  30 3.02
  26  0.223  0.889  0.455-  27 2.93  24 2.93  20 2.94  23 2.94  28 2.95  19 2.95  25 2.95  17 2.95
                            10 2.95  16 2.95  29 3.02  34 3.02
  27  0.557  0.887  0.454-  24 2.91  22 2.91  17 2.93  18 2.93  26 2.93  25 2.93  11 2.94  35 2.95
                            20 2.95  21 2.95  29 3.00  30 3.00
  28  0.000  0.000  0.563-  25 2.95  19 2.95  26 2.95  34 2.98  32 2.98  33 2.98  30 2.98  31 2.98
                            29 2.98
  29  0.333  0.010  0.565-  30 2.85  31 2.85  36 2.87  20 2.98  35 2.98  28 2.98  27 3.00  26 3.02
                            34 3.11
  30  0.657  0.010  0.565-  29 2.85  32 2.85  36 2.87  21 2.98  35 2.98  28 2.98  27 3.00  25 3.02
                            33 3.11
  31  0.010  0.333  0.565-  33 2.85  29 2.85  36 2.87  20 2.98  35 2.98  28 2.98  22 3.00  19 3.02
                            32 3.11
  32  0.657  0.333  0.565-  34 2.85  30 2.85  36 2.87  21 2.98  35 2.98  28 2.98  24 3.00  19 3.02
                            31 3.11
  33  0.010  0.657  0.565-  31 2.85  34 2.85  36 2.87  23 2.98  35 2.98  28 2.98  22 3.00  25 3.02
                            30 3.11
  34  0.333  0.657  0.565-  32 2.85  33 2.85  36 2.87  23 2.98  35 2.98  28 2.98  24 3.00  26 3.02
                            29 3.11
  35  0.667  0.667  0.563-  24 2.95  27 2.95  22 2.95  29 2.98  34 2.98  32 2.98  31 2.98  30 2.98
                            33 2.98
  36  0.333  0.333  0.551-  38 1.84  37 1.84  20 2.77  23 2.77  21 2.77  33 2.87  31 2.87  29 2.87
                            30 2.87  34 2.87  32 2.87
  37  0.284  0.333  0.631-  38 0.88  36 1.84
  38  0.383  0.333  0.631-  37 0.88  36 1.84

  LATTYP: Found a hexagonal cell.
 ALAT       =     8.8135128021
 C/A-ratio  =     2.5184286595

  Lattice vectors:

 A1 = (  -4.4067569092,  -7.6327256898,   0.0000000000)
 A2 = (   8.8135128021,   0.0000000000,   0.0000000000)
 A3 = (   0.0000000000,   0.0000000000,  22.1962032318)

Analysis of symmetry for initial positions (statically):
 Subroutine PRICEL returns:
 Original cell was already a primitive cell.

 Routine SETGRP: Setting up the symmetry group for a
 hexagonal supercell.

 Subroutine GETGRP returns: Found  2 space group operations
 (whereof  2 operations were pure point group operations)
 out of a pool of 24 trial point group operations.

The static configuration has the point symmetry C_1h.

Analysis of symmetry for dynamics (positions and initial velocities):
 Subroutine PRICEL returns:
 Original cell was already a primitive cell.

[...]

The dynamic configuration has the point symmetry C_1h.

Analysis of constrained symmetry for selective dynamics:
 Subroutine PRICEL returns:
 Original cell was already a primitive cell.

 Routine SETGRP: Setting up the symmetry group for a
 hexagonal supercell.

 Subroutine GETGRP returns: Found  2 space group operations
[...]
     33      -4.6697      2.00000
     34      -4.6542      2.00000
     35      -4.6447      2.00000
     36      -4.5815      2.00000
     37      -4.5721      2.00000
     38      -4.4516      2.00000
     39      -4.4435      2.00000
     40      -4.3861      2.00000
     41      -4.3296      2.00000
     42      -4.3060      2.00000
     43      -4.2696      2.00000
     44      -4.2511      2.00000
     45      -4.2220      2.00000
     46      -4.2075      2.00000
     47      -4.1085      2.00000
     48      -4.0831      2.00000
     49      -4.0622      2.00000
     50      -4.0373      2.00000
     51      -4.0325      2.00000
     52      -4.0295      2.00000
     53      -4.0127      2.00000
     54      -3.9891      2.00000
     55      -3.9431      2.00000
     56      -3.9135      2.00000
     57      -3.9010      2.00000
     58      -3.8834      2.00000
     59      -3.8783      2.00000
     60      -3.8650      2.00000
[...]
    238       6.6773      0.00000
    239       6.7100      0.00000
    240       6.8018      0.00000
    241       6.8676      0.00000
    242       6.8914      0.00000
    243       7.0060      0.00000
    244       7.2005      0.00000
    245       7.3548      0.00000
    246       7.5533      0.00000
    247       7.5638      0.00000
    248       7.5837      0.00000
    249       7.6936      0.00000
    250       7.7055      0.00000
    251       7.8062      0.00000
    252       7.8989      0.00000

 soft charge-density along one line, spin component           1
         0         1         2         3         4         5         6         7         8         9
 total charge-density along one line

------------------------ aborting loop because EDIFF is reached ----------------------------------------

 total charge

# of ion       s       p       d       tot
    1        0.546   0.237   8.769   9.552
    2        0.543   0.241   8.764   9.548
    3        0.543   0.241   8.764   9.548
    4        0.545   0.241   8.765   9.551
    5        0.546   0.241   8.759   9.546
    6        0.545   0.241   8.765   9.551
    7        0.542   0.241   8.765   9.548
    8        0.542   0.241   8.765   9.548
    9        0.542   0.239   8.770   9.551
   10        0.526   0.307   8.766   9.599
   11        0.525   0.305   8.781   9.611
   12        0.526   0.307   8.766   9.599
   13        0.525   0.306   8.780   9.611
   14        0.525   0.306   8.780   9.611
   15        0.515   0.308   8.776   9.598
   16        0.528   0.307   8.764   9.598
   17        0.515   0.308   8.776   9.598
   18        0.515   0.308   8.776   9.598
   19        0.516   0.296   8.772   9.585
   20        0.564   0.336   8.736   9.636
   21        0.564   0.336   8.736   9.636
   22        0.505   0.306   8.778   9.589
   23        0.569   0.335   8.735   9.639
   24        0.505   0.306   8.778   9.589
   25        0.517   0.295   8.773   9.585
   26        0.517   0.295   8.773   9.585
   27        0.505   0.305   8.779   9.589
   28        0.539   0.228   8.758   9.525
   29        0.575   0.247   8.737   9.560
   30        0.575   0.247   8.737   9.560
   31        0.571   0.250   8.737   9.557
   32        0.571   0.250   8.737   9.557
   33        0.576   0.247   8.737   9.560
   34        0.576   0.247   8.737   9.560
   35        0.537   0.227   8.759   9.523
   36        0.386   0.417   4.165   4.968
   37        0.544   0.030   0.000   0.575
   38        0.544   0.030   0.000   0.575
tot         20.352  10.152 310.816 341.320

  FORCE on cell =-STRESS in cart. coord.  units (eV):
  Direction    XX          YY          ZZ          XY          YZ          ZX
  Alpha Z  1006.85536  1006.85536  1006.85536
  Ewald  117364.75638117346.62246************    -0.00033     0.05111    -0.00016
  Hartree125902.00274125899.28775************     0.00000     0.15955    -0.00004
  E(xc)   -1760.21859 -1760.24350 -1768.92640     0.00000     0.03822    -0.00000
  Local  ************************255663.63789     0.00183    -0.07064     0.00012
  n-local   -73.13627   -71.93599   -44.79939     4.83488     0.09477     0.12089
  augment  2371.85413  2371.53001  2393.89502    -0.00134    -0.03623     0.00003
  Kinetic  5430.61613  5434.14091  5498.81869     1.69563    -0.27983     0.13327
  Fock        0.00000     0.00000     0.00000     0.00000     0.00000     0.00000
  Total     -22.41179   -22.47082     3.76530    -0.00000    -0.04304    -0.00000
  in kB     -24.04805   -24.11138     4.04020    -0.00000    -0.04618    -0.00000

 VOLUME and BASIS-vectors are now :
  energy-cutoff  :      500.00
  volume of cell :     1493.16
      direct lattice vectors                 reciprocal lattice vectors
     8.813512802  0.000000000  0.000000000     0.113462137 -0.065507406  0.000000000
     4.406756909  7.632725690  0.000000000     0.000000000  0.131014796  0.000000000
     0.000000000  0.000000000 22.196203232     0.000000000  0.000000000  0.045052750

  length of vectors
     8.813512802  8.813512802 22.196203232     0.131014796  0.131014796  0.045052750

 FORCES acting on ions
    electron-ion (+dipol)            ewald-force                    non-local-force                 convergence-correction
   -.198E-04 0.486E-01 0.246E+04   0.519E-04 -.202E-02 -.246E+04   0.119E-08 0.178E-01 -.944E+00   -.280E-03 -.649E-01 -.257E+00
   0.328E+00 -.832E-01 0.246E+04   -.526E+00 -.719E-01 -.246E+04   0.108E+00 0.134E+00 -.236E+00   0.794E-01 0.212E-01 -.322E+00
   -.328E+00 -.832E-01 0.246E+04   0.526E+00 -.719E-01 -.246E+04   -.108E+00 0.134E+00 -.236E+00   -.790E-01 0.232E-01 -.322E+00
   0.148E+00 0.428E+00 0.246E+04   -.323E+00 -.420E+00 -.246E+04   0.115E+00 -.916E-02 -.206E+00   0.696E-01 -.119E-02 -.276E+00
   0.736E-05 -.239E-01 0.246E+04   0.951E-04 0.336E-03 -.246E+04   0.106E-08 0.159E-01 0.449E-01   0.439E-02 0.775E-02 -.287E+00
   -.148E+00 0.428E+00 0.246E+04   0.323E+00 -.420E+00 -.246E+04   -.115E+00 -.916E-02 -.206E+00   -.712E-01 -.262E-03 -.275E+00
   -.393E+00 -.344E+00 0.246E+04   0.202E+00 0.492E+00 -.246E+04   0.102E+00 -.125E+00 -.247E+00   0.786E-01 -.191E-01 -.339E+00
   0.393E+00 -.344E+00 0.246E+04   -.203E+00 0.492E+00 -.246E+04   -.102E+00 -.125E+00 -.247E+00   -.767E-01 -.203E-01 -.339E+00
   0.197E-04 -.505E-01 0.246E+04   0.166E-03 0.171E-02 -.246E+04   -.738E-09 -.111E-01 -.587E+00   -.466E-02 0.598E-01 -.280E+00
   0.499E+01 0.296E+01 0.797E+03   -.456E+01 -.265E+01 -.796E+03   -.414E+00 -.241E+00 -.734E+00   -.725E-02 -.595E-01 0.127E+00
   0.145E-04 0.203E+01 0.800E+03   0.148E-03 -.210E+01 -.800E+03   0.480E-08 0.721E-01 -.668E-01   0.426E-02 -.696E-01 0.195E+00
   -.499E+01 0.296E+01 0.797E+03   0.456E+01 -.265E+01 -.796E+03   0.414E+00 -.241E+00 -.734E+00   0.531E-02 -.575E-01 0.128E+00
   0.165E+01 -.101E+01 0.800E+03   -.180E+01 0.105E+01 -.800E+03   0.930E-01 -.431E-01 -.165E+00   0.980E-02 0.299E-01 0.157E+00
   -.165E+01 -.101E+01 0.800E+03   0.180E+01 0.105E+01 -.800E+03   -.930E-01 -.431E-01 -.165E+00   -.146E-02 0.292E-01 0.158E+00
   0.317E-04 0.455E+01 0.801E+03   0.236E-03 -.470E+01 -.800E+03   0.229E-08 0.344E-01 -.510E+00   -.297E-02 0.375E-01 0.198E+00
   -.210E-04 -.584E+01 0.797E+03   0.162E-03 0.527E+01 -.796E+03   0.349E-07 0.524E+00 -.717E+00   0.397E-03 0.371E-01 0.112E+00
   0.396E+01 -.234E+01 0.801E+03   -.408E+01 0.236E+01 -.800E+03   0.396E-01 -.233E-01 -.538E+00   0.185E-01 0.297E-01 0.167E+00
   -.396E+01 -.234E+01 0.801E+03   0.408E+01 0.236E+01 -.800E+03   -.396E-01 -.233E-01 -.538E+00   -.184E-01 0.324E-01 0.167E+00
   -.429E-04 -.460E+00 -.887E+03   0.552E-04 0.304E+00 0.886E+03   0.327E-08 0.491E-01 0.578E+00   -.591E-02 0.982E-01 0.679E+00
   -.656E+01 -.381E+01 -.871E+03   0.753E+01 0.426E+01 0.871E+03   -.123E+01 -.602E+00 -.133E+01   0.207E+00 0.968E-01 0.104E+01
   0.656E+01 -.381E+01 -.871E+03   -.753E+01 0.426E+01 0.871E+03   0.123E+01 -.602E+00 -.133E+01   -.198E+00 0.986E-01 0.104E+01
   -.133E+02 0.757E+01 -.873E+03   0.128E+02 -.726E+01 0.872E+03   0.468E+00 -.285E+00 0.604E+00   0.604E-01 -.336E-01 0.734E+00
   -.894E-05 0.736E+01 -.871E+03   0.138E-03 -.855E+01 0.871E+03   0.101E-06 0.152E+01 -.147E+01   0.581E-02 -.220E+00 0.106E+01
   0.133E+02 0.757E+01 -.873E+03   -.128E+02 -.726E+01 0.872E+03   -.468E+00 -.285E+00 0.604E+00   -.685E-01 -.354E-01 0.734E+00
   0.475E+00 0.313E+00 -.888E+03   -.303E+00 -.231E+00 0.886E+03   -.537E-01 -.222E-01 0.557E+00   -.116E+00 -.537E-01 0.655E+00
   -.475E+00 0.313E+00 -.888E+03   0.303E+00 -.231E+00 0.886E+03   0.537E-01 -.222E-01 0.557E+00   0.111E+00 -.573E-01 0.656E+00
   0.995E-05 -.154E+02 -.873E+03   0.199E-03 0.147E+02 0.872E+03   0.381E-07 0.572E+00 0.575E+00   -.309E-02 0.103E+00 0.697E+00
   -.106E-04 0.364E+00 -.245E+04   0.277E-04 -.382E+00 0.245E+04   -.135E-08 -.202E-01 0.552E+00   -.286E-03 0.228E-01 0.497E+00
   0.624E+00 0.303E+00 -.246E+04   0.207E+00 0.900E+00 0.246E+04   -.113E+01 -.167E+01 -.126E+00   0.270E+00 0.384E+00 0.380E+00
   -.624E+00 0.303E+00 -.246E+04   -.207E+00 0.900E+00 0.246E+04   0.113E+01 -.167E+01 -.126E+00   -.269E+00 0.386E+00 0.380E+00
   0.149E+01 0.845E+00 -.246E+04   -.521E-01 -.813E+00 0.246E+04   -.194E+01 -.676E-01 0.702E-01   0.440E+00 0.455E-01 0.423E+00
   -.149E+01 0.845E+00 -.246E+04   0.520E-01 -.813E+00 0.246E+04   0.194E+01 -.676E-01 0.702E-01   -.442E+00 0.462E-01 0.422E+00
   -.109E+01 -.108E+01 -.246E+04   0.182E+01 -.162E+00 0.246E+04   -.958E+00 0.174E+01 -.114E+00   0.185E+00 -.426E+00 0.402E+00
   0.109E+01 -.108E+01 -.246E+04   -.182E+01 -.162E+00 0.246E+04   0.958E+00 0.174E+01 -.114E+00   -.183E+00 -.427E+00 0.400E+00
   0.326E-04 -.339E+00 -.246E+04   0.144E-03 0.333E+00 0.245E+04   0.300E-08 0.451E-01 0.650E+00   -.473E-02 -.283E-01 0.463E+00
   -.216E-04 -.189E+00 -.124E+04   0.625E-04 0.160E+00 0.124E+04   0.225E-08 0.338E-01 0.752E-01   0.111E-02 -.332E-02 0.302E+00
   0.137E+02 -.380E-01 -.264E+03   -.170E+02 0.253E-01 0.265E+03   0.330E+01 0.595E-02 -.124E+01   0.107E-01 -.311E-03 -.794E-01
   -.137E+02 -.380E-01 -.264E+03   0.170E+02 0.253E-01 0.265E+03   -.330E+01 0.595E-02 -.124E+01   -.106E-01 -.301E-03 -.795E-01
   -.804E-03 -.451E+00 0.220E+00   -.355E-13 0.261E-12 0.512E-11   0.294E-07 0.442E+00 -.923E+01   -.118E-02 0.114E-01 0.953E+01

 POSITION                                       TOTAL-FORCE (eV/Angst)
      0.00000      0.00000      5.28038        -0.000000     -0.000598     -0.179451
      2.93784      0.00000      5.28038        -0.011081      0.001518     -0.077211
      5.87568      0.00000      5.28038         0.011081      0.001518     -0.077211
      1.46892      2.54424      5.28038         0.010152     -0.002499     -0.091114
      4.40676      2.54424      5.28038         0.000000      0.000011     -0.129684
      7.34459      2.54424      5.28038        -0.010152     -0.002499     -0.091114
      2.93784      5.08848      5.28038        -0.010299      0.003096     -0.073547
      5.87568      5.08848      5.28038         0.010299      0.003096     -0.073547
      8.81351      5.08848      5.28038        -0.000000     -0.000106     -0.107229
      1.46892      0.84808      7.67911         0.002481      0.007407      0.147893
      4.40676      0.84808      7.67911        -0.000000     -0.059933      0.025254
      7.34459      0.84808      7.67911        -0.002481      0.007407      0.147893
      2.93784      3.39232      7.67911        -0.052219      0.031265      0.027820
      5.87568      3.39232      7.67911         0.052219      0.031265      0.027820
      8.81351      3.39232      7.67911        -0.000000     -0.070276      0.114082
      4.40676      5.93656      7.67911        -0.000000     -0.003506      0.142297
      7.34459      5.93656      7.67911        -0.055971      0.027068      0.112143
     10.28243      5.93656      7.67911         0.055971      0.027068      0.112143
      8.81351      1.70181     10.09390        -0.000000     -0.007862      0.044985
      2.93906      1.69686     10.04479        -0.066366     -0.053238     -0.154444
      5.87446      1.69686     10.04479         0.066366     -0.053238     -0.154444
     10.26694      4.24935     10.06849         0.025244     -0.012721      0.004018
      4.40676      4.23900     10.04479         0.000000      0.100876     -0.111256
      7.36009      4.24935     10.06849        -0.025244     -0.012721      0.004018
     11.74646      6.78182     10.09390         0.004706      0.004208      0.028405
      5.88057      6.78182     10.09390        -0.004706      0.004208      0.028405
      8.81351      6.76675     10.06849         0.000000      0.034232      0.004953
      0.00000      0.00000     12.49934        -0.000000     -0.014834     -0.052493
      2.98260      0.07565     12.53968        -0.029196     -0.077732     -0.032763
      5.83091      0.07565     12.53968         0.029196     -0.077732     -0.032763
      1.55682      2.54518     12.53968        -0.061605      0.010060     -0.006271
      7.25669      2.54518     12.53968         0.061605      0.010060     -0.006271
      2.98097      5.01189     12.53968        -0.044193      0.073702     -0.035126
      5.83254      5.01189     12.53968         0.044193      0.073702     -0.035126
      8.81351      5.08848     12.49853         0.000000      0.010727     -0.012626
      4.40676      2.54424     12.23451         0.000000      0.001381      0.566767
      3.96908      2.53826     14.01668         0.007050     -0.007190     -0.002604
      4.84443      2.53826     14.01668        -0.007050     -0.007190     -0.002604
    total drift:                               -0.001984      0.002686      0.518694

  FREE ENERGIE OF THE ION-ELECTRON SYSTEM (eV)
  free  energy   TOTEN  =      -122.96461324 eV

  energy  without entropy=     -122.96461324  energy(sigma->0) =     -122.96461324

 stress matrix after NEB project (eV)
    -22.41179     -0.00000     -0.00000
     -0.00000    -22.47082     -0.04304
     -0.00000     -0.04304      3.76530
  FORCES: max atom, RMS     0.010401    0.002386
  FORCE total and by dimension    0.014709    0.007190
  Stress total and by dimension   31.959464   22.470817
|           W    W    AA    RRRRR   N    N  II  N    N   GGGG   !!!           |
|           W    W   A  A   R    R  NN   N  II  NN   N  G    G  !!!           |
|           W    W  A    A  R    R  N N  N  II  N N  N  G       !!!           |
|           W WW W  AAAAAA  RRRRR   N  N N  II  N  N N  G  GGG   !            |
|           WW  WW  A    A  R   R   N   NN  II  N   NN  G    G                |
|           W    W  A    A  R    R  N    N  II  N    N   GGGG   !!!           |
|     Tetrahedron method does not include variations of the Fermi             |
|     occupations, so forces and stress will be inaccurate. We suggest        |
|     using a different smearing scheme ISMEAR = 1 or 2 for metals in         |
|     relaxations.                                                            |

 total charge

# of ion       s       p       d       tot
    1        0.546   0.237   8.769   9.552
    2        0.543   0.241   8.764   9.548
    3        0.543   0.241   8.764   9.548
    4        0.545   0.241   8.765   9.551
    5        0.546   0.241   8.759   9.546
    6        0.545   0.241   8.765   9.551
    7        0.542   0.241   8.765   9.548
    8        0.542   0.241   8.765   9.548
    9        0.542   0.239   8.770   9.551
   10        0.526   0.307   8.766   9.599
   11        0.525   0.305   8.781   9.611
   12        0.526   0.307   8.766   9.599
   13        0.525   0.306   8.780   9.611
   14        0.525   0.306   8.780   9.611
   15        0.515   0.308   8.776   9.598
   16        0.528   0.307   8.764   9.598
   17        0.515   0.308   8.776   9.598
   18        0.515   0.308   8.776   9.598
   19        0.516   0.296   8.772   9.585
   20        0.564   0.336   8.736   9.636
   21        0.564   0.336   8.736   9.636
   22        0.505   0.306   8.778   9.589
   23        0.569   0.335   8.735   9.639
   24        0.505   0.306   8.778   9.589
   25        0.517   0.295   8.773   9.585
   26        0.517   0.295   8.773   9.585
   27        0.505   0.305   8.779   9.589
   28        0.539   0.228   8.758   9.525
   29        0.575   0.247   8.737   9.560
   30        0.575   0.247   8.737   9.560
   31        0.571   0.250   8.737   9.557
   32        0.571   0.250   8.737   9.557
   33        0.576   0.247   8.737   9.560
   34        0.576   0.247   8.737   9.560
   35        0.537   0.227   8.759   9.523
   36        0.386   0.417   4.165   4.968
   37        0.544   0.030   0.000   0.575
   38        0.544   0.030   0.000   0.575
tot         20.352  10.152 310.816 341.320

 BZINTS: Fermi energy:    0.751956;  393.000000 electrons
         Band energy:-0.117076E+04;  BLOECHL correction:   -0.036190