 vasp.6.2.0 18Jan21 (build Jun 12 2021 23:27:24) complex

 executed on             LinuxIFC date 2022.05.30  17:47:01

 INCAR:
   ISMEAR = -5
   SIGMA = 0.1
   ISPIN = 1
   EDIFF = 1.d-5
   EDIFFG = -0.01
   NSW = 0
   NELM = 150
   ENCUT = 500
   ISIF = 2
   IBRION = 2
   LREAL = Auto
   ALGO = Fast
   ICHARG = 11
   LORBIT = 10
   LCHARG = .F.
   LWAVE = .F.

 POTCAR:    PAW_PBE Ag 02Apr2005
 POTCAR:    PAW_PBE Pt 04Feb2005
 POTCAR:    PAW_PBE C 08Apr2002
 POTCAR:    PAW_PBE O 08Apr2002
 POTCAR:    PAW_PBE H 15Jun2001
|           W    W    AA    RRRRR   N    N  II  N    N   GGGG   !!!           |
|           W    W   A  A   R    R  NN   N  II  NN   N  G    G  !!!           |
|           W    W  A    A  R    R  N N  N  II  N N  N  G       !!!           |
|           W WW W  AAAAAA  RRRRR   N  N N  II  N  N N  G  GGG   !            |
|           WW  WW  A    A  R   R   N   NN  II  N   NN  G    G                |
|           W    W  A    A  R    R  N    N  II  N    N   GGGG   !!!           |
|     For optimal performance we recommend to set                             |
|       NCORE = 2 up to number-of-cores-per-socket                            |
|     This setting can greatly improve the performance of VASP for DFT.       |
|     The default, NCORE=1 might be grossly inefficient on modern             |
|     multi-core architectures or massively parallel machines. Do your        |
|     Unfortunately you need to use the default for GW and RPA                |
|     calculations (for HF NCORE is supported but not extensively tested      |
|     yet).                                                                   |

 POTCAR:    PAW_PBE Ag 02Apr2005
   VRHFIN =Ag : s1 d10

   TITEL  = PAW_PBE Ag 02Apr2005
   POMASS =  107.868; ZVAL   =   11.000    mass and valenz
   ENMAX  =  249.844; ENMIN  =  187.383 eV

 POTCAR:    PAW_PBE Pt 04Feb2005
   VRHFIN =Pt: s1d9

   TITEL  = PAW_PBE Pt 04Feb2005
   POMASS =  195.080; ZVAL   =   10.000    mass and valenz
   ENMAX  =  230.283; ENMIN  =  172.712 eV

 POTCAR:    PAW_PBE C 08Apr2002
   VRHFIN =C: s2p2

[...]

 POTCAR:    PAW_PBE O 08Apr2002
   VRHFIN =O: s2p4

   TITEL  = PAW_PBE O 08Apr2002
   POMASS =   16.000; ZVAL   =    6.000    mass and valenz
   ENMAX  =  400.000; ENMIN  =  300.000 eV

 POTCAR:    PAW_PBE H 15Jun2001
   VRHFIN =H: ultrasoft test

   TITEL  = PAW_PBE H 15Jun2001
   POMASS =    1.000; ZVAL   =    1.000    mass and valenz
   ENMAX  =  250.000; ENMIN  =  200.000 eV

 Optimization of the real space projectors (new method)

 maximal supplied QI-value         = 15.12
 optimisation between [QCUT,QGAM] = [ 11.34, 22.83] = [ 36.00,145.93] Ry
 Optimized for a Real-space Cutoff    1.43 Angstroem

   l    n(q)    QCUT    max X(q) W(low)/X(q) W(high)/X(q)  e(spline)
   2      9    11.338    53.897    0.16E-03    0.20E-03    0.28E-06
   2      9    11.338    52.416    0.16E-03    0.20E-03    0.29E-06
   0     10    11.338   122.045    0.31E-04    0.76E-04    0.15E-06
   0     10    11.338    73.629    0.30E-04    0.72E-04    0.15E-06
   1      9    11.338    15.255    0.20E-03    0.19E-04    0.17E-06
   1      9    11.338     9.562    0.16E-03    0.15E-04    0.14E-06
 Optimization of the real space projectors (new method)

[...]

   l    n(q)    QCUT    max X(q) W(low)/X(q) W(high)/X(q)  e(spline)
   0      7    11.387    20.381    0.39E-03    0.13E-02    0.15E-06
   0      7    11.387    15.268    0.42E-03    0.14E-02    0.17E-06
   1      6    11.387     5.964    0.41E-03    0.11E-02    0.17E-06
   1      6    11.387     5.382    0.39E-03    0.87E-03    0.15E-06
 Optimization of the real space projectors (new method)

 maximal supplied QI-value         = 34.20
 optimisation between [QCUT,QGAM] = [ 11.29, 22.57] = [ 35.68,142.71] Ry
 Optimized for a Real-space Cutoff    1.16 Angstroem

   l    n(q)    QCUT    max X(q) W(low)/X(q) W(high)/X(q)  e(spline)
   0      8    11.287    19.460    0.40E-03    0.73E-03    0.16E-06
   0      8    11.287    12.209    0.38E-03    0.70E-03    0.15E-06
   1      7    11.287     4.655    0.22E-03    0.25E-04    0.22E-06
  PAW_PBE Ag 02Apr2005                  :
  PAW_PBE Pt 04Feb2005                  :
  PAW_PBE C 08Apr2002                   :
  PAW_PBE O 08Apr2002                   :
  PAW_PBE H 15Jun2001                   :

 POSCAR: Ag-Pt-COH
  positions in direct lattice
  velocities in cartesian coordinates
 exchange correlation table for  LEXCH =        8
   RHO(1)=    0.500       N(1)  =     2000
   RHO(2)=  100.500       N(2)  =     4000

 VTST: version 3.2, (02/03/18)

 CHAIN: initializing optimizer

 OPT: Using VASP Conjugate-Gradient optimizer
 CHAIN: Read ICHAIN            0

 POSCAR: Ag-Pt-COH
  positions in direct lattice
  velocities in cartesian coordinates

 ion  position               nearest neighbor table
   1  0.000  0.000  0.199-   2 2.93   8 2.93   7 2.93   6 2.93   4 2.93  12 2.93  16 2.93  10 2.93
                             3 2.93
   2  0.333  0.000  0.199-   1 2.93   8 2.93   9 2.93   3 2.93   4 2.93   5 2.93  10 2.93  17 2.93
                            11 2.93
   3  0.667  0.000  0.199-   9 2.93   2 2.93   5 2.93  11 2.93   7 2.93  18 2.93   1 2.93   6 2.93
                            12 2.93
   4  0.000  0.333  0.199-   5 2.93   6 2.93   2 2.93   1 2.93   7 2.93  13 2.93  15 2.93   9 2.93
                            10 2.93
   5  0.333  0.333  0.199-   4 2.93   3 2.93   7 2.93   2 2.93   8 2.93  14 2.93  13 2.93  11 2.93
                             6 2.93
   6  0.667  0.333  0.199-   4 2.93   9 2.93   1 2.93  15 2.93   8 2.93  12 2.93   3 2.93   5 2.93
                            14 2.93
   7  0.000  0.667  0.199-   8 2.93   1 2.93   5 2.93   3 2.93   4 2.93  16 2.93  18 2.93  13 2.93
                             9 2.93
   8  0.333  0.667  0.199-   7 2.93   1 2.93   2 2.93   9 2.93   5 2.93  16 2.93   6 2.93  17 2.93
                            14 2.93
   9  0.667  0.667  0.199-   3 2.93   2 2.93   8 2.93   6 2.93  17 2.93   4 2.93  15 2.93   7 2.93
                            18 2.93
  10  0.111  0.111  0.289-  20 2.89  19 2.93  26 2.93  12 2.93  16 2.93  15 2.93  17 2.93  13 2.93
                            11 2.93   2 2.93   1 2.93   4 2.93
  11  0.444  0.111  0.289-  21 2.90  20 2.90  27 2.91  14 2.93  17 2.93  18 2.93   3 2.93  12 2.93
                            13 2.93  10 2.93   5 2.93   2 2.93
  12  0.778  0.111  0.289-  21 2.89  25 2.93  19 2.93  10 2.93  16 2.93  18 2.93  15 2.93  11 2.93
                             1 2.93  14 2.93   6 2.93   3 2.93
  13  0.111  0.444  0.289-  20 2.90  23 2.90  22 2.91  15 2.93  14 2.93  18 2.93  10 2.93  11 2.93
                            16 2.93   4 2.93   5 2.93   7 2.93
  14  0.444  0.444  0.289-  23 2.90  21 2.90  24 2.91  13 2.93  11 2.93  16 2.93   5 2.93  12 2.93
                            17 2.93   8 2.93  15 2.93   6 2.93
  15  0.778  0.444  0.289-  24 2.91  22 2.91  19 2.92  13 2.93  10 2.93  12 2.93  17 2.93  18 2.93
                             4 2.93   6 2.93   9 2.93  14 2.93
  16  0.111  0.778  0.289-  23 2.89  26 2.93  25 2.93  18 2.93  12 2.93  10 2.93  14 2.93  17 2.93
                            13 2.93   7 2.93   8 2.93   1 2.93
  17  0.444  0.778  0.289-  27 2.91  24 2.91  26 2.92  11 2.93  10 2.93   9 2.93  18 2.93  15 2.93
                            16 2.93   2 2.93  14 2.93   8 2.93
  18  0.778  0.778  0.289-  22 2.91  27 2.91  25 2.92  16 2.93  12 2.93  13 2.93  11 2.93  17 2.93
                            15 2.93   7 2.93   3 2.93   9 2.93
  19  0.888  0.223  0.379-  28 2.91  15 2.92  20 2.92  21 2.92  24 2.92  22 2.92  10 2.93  12 2.93
                            32 2.93  31 2.93  26 2.94  25 2.94
  20  0.221  0.221  0.377-  36 2.81  10 2.89  13 2.90  11 2.90  19 2.92  26 2.92  31 2.92  29 2.92
                            27 2.93  22 2.93  21 2.95  23 2.95
  21  0.557  0.221  0.377-  36 2.81  12 2.89  11 2.90  14 2.90  25 2.92  19 2.92  30 2.92  32 2.92
                            27 2.93  24 2.93  20 2.95  23 2.95
  22  0.889  0.556  0.378-  35 2.91  18 2.91  15 2.91  13 2.91  25 2.92  19 2.92  24 2.93  27 2.93
                            33 2.93  31 2.93  23 2.93  20 2.93
  23  0.221  0.557  0.377-  36 2.81  16 2.89  14 2.90  13 2.90  26 2.92  25 2.92  34 2.92  33 2.92
                            22 2.93  24 2.93  21 2.95  20 2.95
  24  0.556  0.556  0.378-  35 2.91  15 2.91  17 2.91  14 2.91  19 2.92  26 2.92  27 2.93  22 2.93
                            32 2.93  34 2.93  23 2.93  21 2.93
  25  0.888  0.888  0.379-  28 2.91  18 2.92  23 2.92  21 2.92  22 2.92  27 2.92  16 2.93  12 2.93
                            33 2.93  30 2.93  26 2.94  19 2.94
  26  0.223  0.888  0.379-  28 2.91  17 2.92  23 2.92  20 2.92  27 2.92  24 2.92  16 2.93  10 2.93
                            34 2.93  29 2.93  25 2.94  19 2.94
  27  0.556  0.889  0.378-  35 2.91  17 2.91  18 2.91  11 2.91  26 2.92  25 2.92  24 2.93  22 2.93
                            29 2.93  30 2.93  20 2.93  21 2.93
  28  0.000  0.000  0.467-  26 2.91  25 2.91  19 2.91  29 2.95  34 2.95  33 2.95  32 2.95  31 2.95
                            30 2.95
  29  0.333  0.004  0.468-  30 2.89  31 2.89  36 2.90  20 2.92  27 2.93  26 2.93  35 2.95  28 2.95
                            34 3.00
  30  0.662  0.004  0.468-  29 2.89  32 2.89  36 2.90  21 2.92  27 2.93  25 2.93  35 2.95  28 2.95
                            33 3.00
  31  0.004  0.333  0.468-  33 2.89  29 2.89  36 2.90  20 2.92  22 2.93  19 2.93  35 2.95  28 2.95
                            32 3.00
  32  0.662  0.333  0.468-  34 2.89  30 2.89  36 2.90  21 2.92  24 2.93  19 2.93  35 2.95  28 2.95
                            31 3.00
  33  0.004  0.662  0.468-  31 2.89  34 2.89  36 2.90  23 2.92  22 2.93  25 2.93  35 2.95  28 2.95
                            30 3.00
  34  0.333  0.662  0.468-  32 2.89  33 2.89  36 2.90  23 2.92  24 2.93  26 2.93  35 2.95  28 2.95
                            29 3.00
  35  0.667  0.667  0.467-  24 2.91  27 2.91  22 2.91  30 2.95  32 2.95  29 2.95  34 2.95  31 2.95
                            33 2.95
  36  0.333  0.333  0.461-  37 1.80  21 2.81  20 2.81  23 2.81  31 2.90  33 2.90  30 2.90  29 2.90
                            34 2.90  32 2.90
  37  0.333  0.333  0.529-  38 1.25  36 1.80
  38  0.333  0.333  0.576-  39 0.97  37 1.25
  39  0.333  0.333  0.613-  38 0.97

  LATTYP: Found a hexagonal cell.
 ALAT       =     8.7913665772
 C/A-ratio  =     3.0233954145

  Lattice vectors:

 A1 = (  -4.3956832886,  -7.6135467898,   0.0000000000)
 A2 = (   8.7913665771,   0.0000000000,   0.0000000000)
 A3 = (   0.0000000000,   0.0000000000,  26.5797773968)

Analysis of symmetry for initial positions (statically):
 Subroutine PRICEL returns:
 Original cell was already a primitive cell.

 Routine SETGRP: Setting up the symmetry group for a
 hexagonal supercell.

 Subroutine GETGRP returns: Found  6 space group operations
 (whereof  6 operations were pure point group operations)
 out of a pool of 24 trial point group operations.

The static configuration has the point symmetry C_3v.

Analysis of symmetry for dynamics (positions and initial velocities):
 Subroutine PRICEL returns:
 Original cell was already a primitive cell.

[...]

[...]
     41      -4.6423      2.00000
     42      -4.6265      2.00000
     43      -4.6164      2.00000
     44      -4.5724      2.00000
     45      -4.5524      2.00000
     46      -4.5382      2.00000
     47      -4.5152      2.00000
     48      -4.4317      2.00000
     49      -4.4038      2.00000
     50      -4.3979      2.00000
     51      -4.3951      2.00000
     52      -4.3794      2.00000
     53      -4.3763      2.00000
     54      -4.3655      2.00000
     55      -4.3627      2.00000
     56      -4.3527      2.00000
     57      -4.3390      2.00000
     58      -4.3004      2.00000
     59      -4.2770      2.00000
     60      -4.2544      2.00000
[...]
    238       5.2981      0.00000
    239       5.3537      0.00000
    240       5.4959      0.00000
    241       5.5802      0.00000
    242       5.6517      0.00000
    243       5.7796      0.00000
    244       5.8467      0.00000
    245       5.8586      0.00000
    246       5.8987      0.00000
    247       5.9273      0.00000
    248       5.9849      0.00000
    249       6.0070      0.00000
    250       6.1330      0.00000
    251       6.5005      0.00000
    252       6.8194      0.00000

 soft charge-density along one line, spin component           1
         0         1         2         3         4         5         6         7         8         9
 total charge-density along one line

------------------------ aborting loop because EDIFF is reached ----------------------------------------

 total charge

# of ion       s       p       d       tot
    1        0.413   0.206   9.176   9.795
    2        0.419   0.203   9.177   9.799
    3        0.419   0.203   9.177   9.799
    4        0.419   0.203   9.177   9.799
    5        0.413   0.205   9.177   9.795
    6        0.419   0.203   9.177   9.799
    7        0.419   0.203   9.177   9.799
    8        0.419   0.203   9.177   9.799
    9        0.412   0.206   9.176   9.794
   10        0.408   0.271   9.162   9.841
   11        0.408   0.270   9.165   9.843
   12        0.408   0.271   9.162   9.841
   13        0.408   0.270   9.165   9.843
   14        0.408   0.270   9.165   9.843
   15        0.402   0.271   9.166   9.838
   16        0.408   0.271   9.162   9.841
   17        0.402   0.271   9.166   9.838
   18        0.402   0.271   9.166   9.838
   19        0.408   0.269   9.165   9.842
   20        0.412   0.297   9.151   9.861
   21        0.412   0.297   9.151   9.861
   22        0.400   0.274   9.166   9.839
   23        0.412   0.297   9.151   9.861
   24        0.400   0.274   9.166   9.839
   25        0.408   0.269   9.165   9.842
   26        0.408   0.269   9.165   9.842
   27        0.400   0.274   9.166   9.839
   28        0.419   0.202   9.177   9.798
   29        0.401   0.215   9.184   9.800
   30        0.401   0.215   9.184   9.800
   31        0.401   0.215   9.184   9.800
   32        0.401   0.215   9.184   9.800
   33        0.401   0.215   9.184   9.800
   34        0.401   0.215   9.184   9.800
   35        0.419   0.203   9.177   9.799
   36        0.697   0.711   8.069   9.477
   37        0.930   1.416   0.000   2.346
   38        1.535   3.741   0.000   5.275
   39        0.550   0.127   0.000   0.677
tot         18.023  14.480 329.040 361.544

  FORCE on cell =-STRESS in cart. coord.  units (eV):
  Direction    XX          YY          ZZ          XY          YZ          ZX
  Alpha Z   649.84001   649.84001   649.84001
  Ewald  188233.78332188233.78341************     0.00005     0.00000     0.00005
  Hartree198514.50361198514.50364************     0.00002     0.00000     0.00002
  E(xc)   -2121.95143 -2121.95159 -2125.53246     0.00014    -0.00001    -0.00001
  Local  ************************397769.38991     0.00065    -0.00008    -0.00021
  n-local  -346.20220  -329.30244  -339.04268    10.12757    -0.19174     0.19533
  augment  3282.13773  3282.13804  3281.62951    -0.00027    -0.00004    -0.00006
  Kinetic  5133.46325  5132.63725  5081.30661     2.18288     1.44812    -0.76499
  Fock        0.00000     0.00000     0.00000     0.00000     0.00000     0.00000
  Total      -6.91951    -6.91951     0.87817    -0.00000     0.00000    -0.00000
  in kB      -6.23148    -6.23148     0.79085    -0.00000     0.00000    -0.00000

 VOLUME and BASIS-vectors are now :
  energy-cutoff  :      500.00
  volume of cell :     1779.08
      direct lattice vectors                 reciprocal lattice vectors
     8.791366577  0.000000000  0.000000000     0.113747958 -0.065672414  0.000000000
     4.395683289  7.613546790  0.000000000     0.000000000  0.131344829  0.000000000
     0.000000000  0.000000000 26.579777397     0.000000000  0.000000000  0.037622587

  length of vectors
     8.791366577  8.791366577 26.579777397     0.131344829  0.131344829  0.037622587

 FORCES acting on ions
    electron-ion (+dipol)            ewald-force                    non-local-force                 convergence-correction
   0.456E-04 -.285E-04 0.286E+04   -.954E-04 0.593E-04 -.286E+04   0.631E-17 -.186E-18 -.224E+01   -.107E-03 -.169E-03 -.131E+00
   0.464E+00 0.460E+00 0.286E+04   -.472E+00 -.433E+00 -.286E+04   -.352E-01 -.846E-01 -.148E+01   0.449E-01 0.651E-01 -.798E-01
   -.464E+00 0.460E+00 0.286E+04   0.472E+00 -.433E+00 -.286E+04   0.352E-01 -.846E-01 -.148E+01   -.455E-01 0.670E-01 -.791E-01
   0.631E+00 0.172E+00 0.286E+04   -.611E+00 -.192E+00 -.286E+04   -.908E-01 0.118E-01 -.148E+01   0.791E-01 0.655E-02 -.798E-01
   -.442E-05 -.179E-04 0.286E+04   0.981E-04 -.197E-05 -.286E+04   0.948E-18 0.292E-17 -.165E+01   0.624E-02 0.382E-02 -.112E+00
   -.631E+00 0.172E+00 0.286E+04   0.611E+00 -.192E+00 -.286E+04   0.908E-01 0.118E-01 -.148E+01   -.805E-01 0.748E-02 -.789E-01
   0.166E+00 -.632E+00 0.286E+04   -.139E+00 0.626E+00 -.286E+04   -.557E-01 0.728E-01 -.148E+01   0.358E-01 -.724E-01 -.791E-01
   -.166E+00 -.632E+00 0.286E+04   0.139E+00 0.626E+00 -.286E+04   0.557E-01 0.728E-01 -.148E+01   -.341E-01 -.734E-01 -.789E-01
   0.371E-04 -.125E-04 0.286E+04   0.792E-04 -.643E-04 -.286E+04   -.572E-17 -.217E-17 -.178E+01   -.667E-02 -.344E-02 0.210E-01
   0.591E+01 0.341E+01 0.101E+04   -.564E+01 -.326E+01 -.101E+04   -.323E+00 -.186E+00 -.803E+00   0.751E-01 0.434E-01 0.164E+00
   -.293E-04 0.374E+01 0.102E+04   0.412E-04 -.381E+01 -.102E+04   -.161E-12 -.245E-01 -.677E+00   0.629E-02 0.497E-01 0.188E+00
   -.591E+01 0.341E+01 0.101E+04   0.564E+01 -.326E+01 -.101E+04   0.323E+00 -.186E+00 -.803E+00   -.766E-01 0.444E-01 0.164E+00
   0.324E+01 -.187E+01 0.102E+04   -.330E+01 0.190E+01 -.102E+04   -.212E-01 0.123E-01 -.677E+00   0.460E-01 -.194E-01 0.188E+00
   -.324E+01 -.187E+01 0.102E+04   0.330E+01 0.190E+01 -.102E+04   0.212E-01 0.123E-01 -.677E+00   -.354E-01 -.202E-01 0.187E+00
   0.158E-04 0.118E+01 0.101E+04   -.109E-03 -.121E+01 -.101E+04   -.228E-12 -.348E-01 -.464E+00   -.166E-02 0.471E-01 0.141E+00
   -.764E-05 -.682E+01 0.101E+04   0.205E-04 0.651E+01 -.101E+04   0.245E-11 0.372E+00 -.803E+00   0.118E-03 -.887E-01 0.164E+00
   0.102E+01 -.588E+00 0.101E+04   -.104E+01 0.603E+00 -.101E+04   -.301E-01 0.174E-01 -.464E+00   0.400E-01 -.250E-01 0.141E+00
   -.102E+01 -.588E+00 0.101E+04   0.104E+01 0.603E+00 -.101E+04   0.301E-01 0.174E-01 -.464E+00   -.400E-01 -.231E-01 0.142E+00
   0.412E-04 0.488E+01 -.875E+03   -.131E-03 -.494E+01 0.874E+03   -.897E-13 -.137E-01 0.464E+00   -.653E-03 0.531E-01 0.180E+00
   0.157E+02 0.908E+01 -.826E+03   -.151E+02 -.873E+01 0.827E+03   -.634E+00 -.366E+00 -.828E+00   0.934E-01 0.539E-01 0.184E+00
   -.157E+02 0.908E+01 -.826E+03   0.151E+02 -.873E+01 0.827E+03   0.634E+00 -.366E+00 -.828E+00   -.933E-01 0.541E-01 0.183E+00
   0.749E+01 -.433E+01 -.861E+03   -.794E+01 0.459E+01 0.860E+03   0.385E+00 -.222E+00 0.741E+00   0.662E-01 -.381E-01 0.157E+00
   -.567E-04 -.182E+02 -.826E+03   0.447E-04 0.175E+02 0.827E+03   0.481E-11 0.733E+00 -.828E+00   0.532E-03 -.107E+00 0.183E+00
   -.749E+01 -.433E+01 -.861E+03   0.794E+01 0.459E+01 0.860E+03   -.385E+00 -.222E+00 0.741E+00   -.661E-01 -.381E-01 0.158E+00
   -.422E+01 -.244E+01 -.875E+03   0.428E+01 0.247E+01 0.874E+03   0.118E-01 0.683E-02 0.464E+00   -.453E-01 -.263E-01 0.180E+00
   0.422E+01 -.244E+01 -.875E+03   -.428E+01 0.247E+01 0.874E+03   -.118E-01 0.683E-02 0.464E+00   0.454E-01 -.272E-01 0.180E+00
   0.199E-04 0.865E+01 -.861E+03   0.110E-03 -.917E+01 0.860E+03   0.292E-11 0.444E+00 0.741E+00   -.552E-03 0.763E-01 0.157E+00
   0.539E-04 -.375E-04 -.274E+04   -.118E-03 0.789E-04 0.274E+04   -.321E-17 -.134E-17 0.139E+01   -.118E-02 -.821E-03 0.151E+00
   0.334E+02 0.580E+02 -.272E+04   -.337E+02 -.586E+02 0.272E+04   0.661E-01 0.177E+00 0.190E+01   0.381E-01 0.895E-01 0.152E+00
   -.334E+02 0.580E+02 -.272E+04   0.337E+02 -.586E+02 0.272E+04   -.661E-01 0.177E+00 0.190E+01   -.284E-01 0.911E-01 0.152E+00
   0.670E+02 -.651E-01 -.272E+04   -.676E+02 0.122E+00 0.272E+04   0.186E+00 -.314E-01 0.190E+01   0.967E-01 -.116E-01 0.152E+00
   -.670E+02 -.650E-01 -.272E+04   0.676E+02 0.122E+00 0.272E+04   -.186E+00 -.314E-01 0.190E+01   -.876E-01 -.107E-01 0.152E+00
   0.335E+02 -.580E+02 -.272E+04   -.339E+02 0.585E+02 0.272E+04   0.120E+00 -.146E+00 0.190E+01   0.652E-01 -.696E-01 0.152E+00
   -.335E+02 -.580E+02 -.272E+04   0.339E+02 0.585E+02 0.272E+04   -.120E+00 -.146E+00 0.190E+01   -.534E-01 -.704E-01 0.152E+00
   0.215E-04 -.962E-05 -.274E+04   0.107E-03 -.671E-04 0.274E+04   0.756E-17 -.625E-17 0.147E+01   -.780E-02 -.408E-02 0.103E+00
   0.312E-04 -.202E-04 -.219E+04   0.953E-04 0.113E-04 0.219E+04   0.547E-17 0.449E-17 -.125E+01   0.221E-02 0.138E-02 0.194E+00
   0.140E-05 -.768E-04 -.109E+04   0.175E-04 0.229E-06 0.107E+04   0.757E-17 0.263E-17 0.182E+02   0.106E-02 0.655E-03 -.980E-03
   0.242E-03 -.912E-04 -.176E+04   0.865E-05 0.673E-08 0.177E+04   -.187E-18 0.986E-18 -.668E+01   0.380E-02 0.233E-02 -.124E+00
   0.661E-05 -.139E-04 -.332E+03   0.587E-06 -.296E-08 0.340E+03   -.417E-19 -.313E-19 -.824E+01   0.198E-03 0.122E-03 -.187E-01
   0.696E-03 -.856E-03 -.612E+00   -.817E-13 0.478E-14 -.176E-11   -.213E-16 0.851E-16 -.296E+01   0.414E-01 0.273E-01 0.356E+01

 POSITION                                       TOTAL-FORCE (eV/Angst)
      0.00000      0.00000      5.28219         0.000000     -0.000000      0.078947
      2.93046      0.00000      5.28219         0.002476      0.008595      0.018752
      5.86091      0.00000      5.28219        -0.002476      0.008595      0.018752
      1.46523      2.53785      5.28219         0.008681     -0.002153      0.018752
      4.39568      2.53785      5.28219         0.000000     -0.000000     -0.006386
      7.32614      2.53785      5.28219        -0.008681     -0.002153      0.018752
      2.93046      5.07570      5.28219         0.006206     -0.006441      0.018752
      5.86091      5.07570      5.28219        -0.006206     -0.006441      0.018752
      8.79137      5.07570      5.28219         0.000000     -0.000000      0.048684
      1.46523      0.84595      7.67490         0.018865      0.010892      0.002278
      4.39568      0.84595      7.67490        -0.000000     -0.041898     -0.115918
      7.32614      0.84595      7.67490        -0.018865      0.010892      0.002278
      2.93046      3.38380      7.67490        -0.036285      0.020949     -0.115918
      5.86091      3.38380      7.67490         0.036285      0.020949     -0.115918
      8.79137      3.38380      7.67490        -0.000000     -0.018354      0.001574
      4.39568      5.92165      7.67490        -0.000000     -0.021783      0.002278
      7.32614      5.92165      7.67490        -0.015895      0.009177      0.001574
     10.25659      5.92165      7.67490         0.015895      0.009177      0.001574
      8.79137      1.70009     10.06101        -0.000000     -0.029973     -0.025447
      2.92042      1.68610     10.02751         0.050680      0.029260     -0.095272
      5.87095      1.68610     10.02751        -0.050680      0.029260     -0.095272
     10.25445      4.23098     10.04520         0.003034     -0.001752      0.009523
      4.39568      4.24134     10.02751        -0.000000     -0.058521     -0.095272
      7.32828      4.23098     10.04520        -0.003034     -0.001752      0.009523
     11.71473      6.76350     10.06101         0.025957      0.014986     -0.025447
      5.86800      6.76350     10.06101        -0.025957      0.014986     -0.025447
      8.79137      6.76512     10.04520         0.000000      0.003503      0.009523
      0.00000      0.00000     12.42233         0.000000     -0.000000      0.023242
      2.94927      0.03214     12.43461        -0.157963     -0.295673     -0.050833
      5.84210      0.03214     12.43461         0.157963     -0.295673     -0.050833
      1.50247      2.53807     12.43461        -0.335042      0.011037     -0.050833
      7.28890      2.53807     12.43461         0.335042      0.011037     -0.050833
      2.94888      5.04334     12.43461        -0.177079      0.284636     -0.050833
      5.84248      5.04334     12.43461         0.177079      0.284636     -0.050833
      8.79137      5.07570     12.41249         0.000000     -0.000000      0.051246
      4.39568      2.53785     12.25656         0.000000     -0.000000      0.632594
      4.39568      2.53785     14.05749         0.000000     -0.000000      0.036778
      4.39568      2.53785     15.31202         0.000000     -0.000000     -0.037854
      4.39568      2.53785     16.28091         0.000000     -0.000000      0.035026
    total drift:                                0.042095      0.026479     -0.016780

  FREE ENERGIE OF THE ION-ELECTRON SYSTEM (eV)
  free  energy   TOTEN  =      -111.77815708 eV

  energy  without entropy=     -111.77815708  energy(sigma->0) =     -111.77815708

 stress matrix after NEB project (eV)
     -6.91951     -0.00000     -0.00000
     -0.00000     -6.91951      0.00000
      0.00000      0.00000      0.87817
  FORCES: max atom, RMS     0.037854    0.010143
  FORCE total and by dimension    0.063343    0.037854
  Stress total and by dimension    9.824983    6.919505
|           W    W    AA    RRRRR   N    N  II  N    N   GGGG   !!!           |
|           W    W   A  A   R    R  NN   N  II  NN   N  G    G  !!!           |
|           W    W  A    A  R    R  N N  N  II  N N  N  G       !!!           |
|           W WW W  AAAAAA  RRRRR   N  N N  II  N  N N  G  GGG   !            |
|           WW  WW  A    A  R   R   N   NN  II  N   NN  G    G                |
|           W    W  A    A  R    R  N    N  II  N    N   GGGG   !!!           |
|     Tetrahedron method does not include variations of the Fermi             |
|     occupations, so forces and stress will be inaccurate. We suggest        |
|     using a different smearing scheme ISMEAR = 1 or 2 for metals in         |
|     relaxations.                                                            |

 total charge

# of ion       s       p       d       tot
    1        0.413   0.206   9.176   9.795
    2        0.419   0.203   9.177   9.799
    3        0.419   0.203   9.177   9.799
    4        0.419   0.203   9.177   9.799
    5        0.413   0.205   9.177   9.795
    6        0.419   0.203   9.177   9.799
    7        0.419   0.203   9.177   9.799
    8        0.419   0.203   9.177   9.799
    9        0.412   0.206   9.176   9.794
   10        0.408   0.271   9.162   9.841
   11        0.408   0.270   9.165   9.843
   12        0.408   0.271   9.162   9.841
   13        0.408   0.270   9.165   9.843
   14        0.408   0.270   9.165   9.843
   15        0.402   0.271   9.166   9.838
   16        0.408   0.271   9.162   9.841
   17        0.402   0.271   9.166   9.838
   18        0.402   0.271   9.166   9.838
   19        0.408   0.269   9.165   9.842
   20        0.412   0.297   9.151   9.861
   21        0.412   0.297   9.151   9.861
   22        0.400   0.274   9.166   9.839
   23        0.412   0.297   9.151   9.861
   24        0.400   0.274   9.166   9.839
   25        0.408   0.269   9.165   9.842
   26        0.408   0.269   9.165   9.842
   27        0.400   0.274   9.166   9.839
   28        0.419   0.202   9.177   9.798
   29        0.401   0.215   9.184   9.800
   30        0.401   0.215   9.184   9.800
   31        0.401   0.215   9.184   9.800
   32        0.401   0.215   9.184   9.800
   33        0.401   0.215   9.184   9.800
   34        0.401   0.215   9.184   9.800
   35        0.419   0.203   9.177   9.799
   36        0.697   0.711   8.069   9.477
   37        0.930   1.416   0.000   2.346
   38        1.535   3.741   0.000   5.275
   39        0.550   0.127   0.000   0.677
tot         18.023  14.480 329.040 361.544

 BZINTS: Fermi energy:    0.640487;  406.000000 electrons
         Band energy:-0.149947E+04;  BLOECHL correction:   -0.048904