 vasp.6.2.0 18Jan21 (build Jun 12 2021 23:27:24) complex

 executed on             LinuxIFC date 2022.05.26  20:00:27

 INCAR:
   ISMEAR = -5
   SIGMA = 0.1
   ISPIN = 1
   EDIFF = 1.d-5
   EDIFFG = -0.01
   NSW = 0
   NELM = 150
   ENCUT = 500
   ISIF = 2
   IBRION = 2
   LREAL = Auto
   ALGO = Fast
   ICHARG = 11
   LORBIT = 10
   LCHARG = .F.
   LWAVE = .F.

 POTCAR:    PAW_PBE Cu 22Jun2005
 POTCAR:    PAW_PBE Ni 02Aug2007
 POTCAR:    PAW_PBE H 15Jun2001
|           W    W    AA    RRRRR   N    N  II  N    N   GGGG   !!!           |
|           W    W   A  A   R    R  NN   N  II  NN   N  G    G  !!!           |
|           W    W  A    A  R    R  N N  N  II  N N  N  G       !!!           |
|           W WW W  AAAAAA  RRRRR   N  N N  II  N  N N  G  GGG   !            |
|           WW  WW  A    A  R   R   N   NN  II  N   NN  G    G                |
|           W    W  A    A  R    R  N    N  II  N    N   GGGG   !!!           |
|     For optimal performance we recommend to set                             |
|       NCORE = 2 up to number-of-cores-per-socket                            |
|     This setting can greatly improve the performance of VASP for DFT.       |
|     The default, NCORE=1 might be grossly inefficient on modern             |
|     multi-core architectures or massively parallel machines. Do your        |
|     Unfortunately you need to use the default for GW and RPA                |
|     calculations (for HF NCORE is supported but not extensively tested      |
|     yet).                                                                   |

 POTCAR:    PAW_PBE Cu 22Jun2005
   VRHFIN =Cu: d10 p1

   TITEL  = PAW_PBE Cu 22Jun2005
   POMASS =   63.546; ZVAL   =   11.000    mass and valenz
   ENMAX  =  295.446; ENMIN  =  221.585 eV

 POTCAR:    PAW_PBE Ni 02Aug2007
   VRHFIN =Ni:

   TITEL  = PAW_PBE Ni 02Aug2007
   POMASS =   58.690; ZVAL   =   10.000    mass and valenz
   ENMAX  =  269.532; ENMIN  =  202.149 eV

 POTCAR:    PAW_PBE H 15Jun2001
   VRHFIN =H: ultrasoft test

   TITEL  = PAW_PBE H 15Jun2001
   POMASS =    1.000; ZVAL   =    1.000    mass and valenz
   ENMAX  =  250.000; ENMIN  =  200.000 eV

 Optimization of the real space projectors (new method)

 maximal supplied QI-value         = 16.25
 optimisation between [QCUT,QGAM] = [ 11.38, 22.75] = [ 36.24,144.96] Ry
 Optimized for a Real-space Cutoff    1.52 Angstroem

   l    n(q)    QCUT    max X(q) W(low)/X(q) W(high)/X(q)  e(spline)
   2      9    11.376     4.610    0.21E-03    0.10E-03    0.26E-06
   2      9    11.376     8.522    0.33E-03    0.16E-03    0.37E-06
   0     10    11.376    51.609    0.62E-04    0.20E-04    0.13E-06
   0     10    11.376    27.747    0.54E-04    0.20E-04    0.13E-06
   1     10    11.376    20.408    0.13E-04    0.99E-04    0.19E-06
   1     10    11.376    13.425    0.12E-04    0.87E-04    0.17E-06
 Optimization of the real space projectors (new method)

[...]

   l    n(q)    QCUT    max X(q) W(low)/X(q) W(high)/X(q)  e(spline)
   2      8    11.376    60.317    0.19E-03    0.33E-04    0.13E-06
   2      8    11.376    55.921    0.20E-03    0.34E-04    0.14E-06
   0      9    11.376    51.690    0.82E-04    0.12E-03    0.20E-06
   0      9    11.376    30.015    0.74E-04    0.11E-03    0.18E-06
   1      9    11.376    18.849    0.39E-03    0.12E-03    0.13E-06
   1      9    11.376    14.624    0.33E-03    0.10E-03    0.11E-06
 Optimization of the real space projectors (new method)

 maximal supplied QI-value         = 34.20
 optimisation between [QCUT,QGAM] = [ 11.29, 22.57] = [ 35.68,142.71] Ry
 Optimized for a Real-space Cutoff    1.16 Angstroem

   l    n(q)    QCUT    max X(q) W(low)/X(q) W(high)/X(q)  e(spline)
   0      8    11.287    19.460    0.40E-03    0.73E-03    0.16E-06
   0      8    11.287    12.209    0.38E-03    0.70E-03    0.15E-06
   1      7    11.287     4.655    0.22E-03    0.25E-04    0.22E-06
  PAW_PBE Cu 22Jun2005                  :
  PAW_PBE Ni 02Aug2007                  :
  PAW_PBE H 15Jun2001                   :

 POSCAR: Cu-Ni-H
  positions in direct lattice
  velocities in cartesian coordinates
 exchange correlation table for  LEXCH =        8
   RHO(1)=    0.500       N(1)  =     2000
   RHO(2)=  100.500       N(2)  =     4000

 VTST: version 3.2, (02/03/18)

 CHAIN: initializing optimizer

 OPT: Using VASP Conjugate-Gradient optimizer
 CHAIN: Read ICHAIN            0

 POSCAR: Cu-Ni-H
  positions in direct lattice
  velocities in cartesian coordinates

 ion  position               nearest neighbor table
   1  0.000  0.000  0.252-   7 2.57   3 2.57   4 2.57   2 2.57   6 2.57   8 2.57  12 2.57  10 2.57
                            16 2.57
   2  0.333  0.000  0.252-   8 2.57   9 2.57   5 2.57   1 2.57   3 2.57  11 2.57   4 2.57  10 2.57
                            17 2.57
   3  0.667  0.000  0.252-   1 2.57   7 2.57   6 2.57   9 2.57   2 2.57  12 2.57   5 2.57  18 2.57
                            11 2.57
   4  0.000  0.333  0.252-   5 2.57   6 2.57   1 2.57   7 2.57   2 2.57  13 2.57   9 2.57  10 2.57
                            15 2.57
   5  0.333  0.333  0.252-   4 2.57   2 2.57   7 2.57  13 2.57   8 2.57   6 2.57   3 2.57  11 2.57
                            14 2.57
   6  0.667  0.333  0.252-   4 2.57   9 2.57  15 2.57   3 2.57   1 2.57   8 2.57  14 2.57   5 2.57
                            12 2.57
   7  0.000  0.667  0.252-   1 2.57   3 2.57  16 2.57  18 2.57   4 2.57   5 2.57   8 2.57   9 2.57
                            13 2.57
   8  0.333  0.667  0.252-   9 2.57   2 2.57  17 2.57   6 2.57   1 2.57   7 2.57   5 2.57  14 2.57
                            16 2.57
   9  0.667  0.667  0.252-   8 2.57   6 2.57   2 2.57  17 2.57   3 2.57   7 2.57   4 2.57  15 2.57
                            18 2.57
  10  0.111  0.111  0.351-  20 2.55  26 2.56  19 2.56  11 2.57  12 2.57  13 2.57   1 2.57   2 2.57
                             4 2.57  15 2.57  16 2.57  17 2.57
  11  0.444  0.111  0.351-  20 2.55  21 2.55  27 2.56  10 2.57  13 2.57   2 2.57  17 2.57  14 2.57
                            12 2.57   5 2.57   3 2.57  18 2.57
  12  0.778  0.111  0.351-  21 2.55  19 2.56  25 2.56  15 2.57  10 2.57  14 2.57  18 2.57   3 2.57
                             1 2.57  16 2.57  11 2.57   6 2.57
  13  0.111  0.444  0.351-  23 2.55  20 2.55  22 2.56  16 2.57  18 2.57  10 2.57  11 2.57  14 2.57
                             5 2.57   4 2.57   7 2.57  15 2.57
  14  0.444  0.444  0.351-  21 2.55  23 2.55  24 2.56  15 2.57  17 2.57  12 2.57  16 2.57  13 2.57
                            11 2.57   6 2.57   8 2.57   5 2.57
  15  0.778  0.444  0.351-  24 2.55  22 2.55  19 2.56  14 2.57  17 2.57  12 2.57   6 2.57  18 2.57
                            10 2.57   9 2.57  13 2.57   4 2.57
  16  0.111  0.778  0.351-  23 2.55  25 2.56  26 2.56  18 2.57  13 2.57   7 2.57  14 2.57  17 2.57
                            12 2.57  10 2.57   8 2.57   1 2.57
  17  0.444  0.778  0.351-  27 2.55  24 2.55  26 2.56  14 2.57  15 2.57   8 2.57   9 2.57  11 2.57
                            16 2.57  18 2.57  10 2.57   2 2.57
  18  0.778  0.778  0.351-  22 2.55  27 2.55  25 2.56  16 2.57  13 2.57   7 2.57  15 2.57  12 2.57
                            17 2.57   9 2.57   3 2.57  11 2.57
  19  0.889  0.223  0.449-  28 2.54  32 2.55  31 2.55  15 2.56  12 2.56  10 2.56  22 2.56  24 2.56
                            21 2.57  20 2.57  25 2.57  26 2.57
  20  0.222  0.222  0.448-  36 2.48  29 2.54  31 2.54  10 2.55  11 2.55  13 2.55  26 2.57  19 2.57
                            27 2.57  22 2.57  23 2.57  21 2.57
  21  0.556  0.222  0.448-  36 2.48  32 2.54  30 2.54  12 2.55  14 2.55  11 2.55  19 2.57  25 2.57
                            24 2.57  27 2.57  20 2.57  23 2.57
  22  0.889  0.556  0.449-  35 2.54  31 2.55  33 2.55  18 2.55  15 2.55  13 2.56  19 2.56  25 2.56
                            24 2.57  27 2.57  23 2.57  20 2.57
  23  0.222  0.556  0.448-  36 2.48  33 2.54  34 2.54  16 2.55  13 2.55  14 2.55  25 2.57  26 2.57
                            22 2.57  24 2.57  20 2.57  21 2.57
  24  0.556  0.556  0.449-  35 2.54  32 2.55  34 2.55  15 2.55  17 2.55  14 2.56  19 2.56  26 2.56
                            22 2.57  27 2.57  21 2.57  23 2.57
  25  0.889  0.889  0.449-  28 2.54  33 2.55  30 2.55  18 2.56  16 2.56  12 2.56  22 2.56  27 2.56
                            21 2.57  23 2.57  19 2.57  26 2.57
  26  0.223  0.889  0.449-  28 2.54  29 2.55  34 2.55  17 2.56  10 2.56  16 2.56  27 2.56  24 2.56
                            20 2.57  23 2.57  25 2.57  19 2.57
  27  0.556  0.889  0.449-  35 2.54  29 2.55  30 2.55  17 2.55  18 2.55  11 2.56  26 2.56  25 2.56
                            24 2.57  22 2.57  20 2.57  21 2.57
  28  0.000  0.000  0.546-  25 2.54  19 2.54  26 2.54  33 2.57  30 2.57  31 2.57  29 2.57  32 2.57
                            34 2.57
  29  0.333  0.002  0.546-  20 2.54  27 2.55  31 2.55  36 2.55  30 2.55  26 2.55  28 2.57  35 2.57
                            34 2.60
  30  0.665  0.002  0.546-  21 2.54  27 2.55  32 2.55  36 2.55  29 2.55  25 2.55  28 2.57  35 2.57
                            33 2.60
  31  0.002  0.333  0.546-  20 2.54  22 2.55  29 2.55  36 2.55  33 2.55  19 2.55  28 2.57  35 2.57
                            32 2.60
  32  0.665  0.333  0.546-  21 2.54  24 2.55  30 2.55  36 2.55  34 2.55  19 2.55  28 2.57  35 2.57
                            31 2.60
  33  0.002  0.665  0.546-  23 2.54  22 2.55  34 2.55  36 2.55  31 2.55  25 2.55  28 2.57  35 2.57
                            30 2.60
  34  0.333  0.665  0.546-  23 2.54  24 2.55  33 2.55  36 2.55  32 2.55  26 2.55  28 2.57  35 2.57
                            29 2.60
  35  0.667  0.667  0.546-  24 2.54  27 2.54  22 2.54  34 2.57  32 2.57  29 2.57  30 2.57  33 2.57
                            31 2.57
  36  0.333  0.333  0.542-  37 1.48  23 2.48  20 2.48  21 2.48  31 2.55  29 2.55  33 2.55  34 2.55
                            32 2.55  30 2.55
  37  0.333  0.333  0.612-  36 1.48

  LATTYP: Found a hexagonal cell.
 ALAT       =     7.6967864036
 C/A-ratio  =     2.7653617908

  Lattice vectors:

 A1 = (  -3.8483927580,  -6.6656128093,   0.0000000000)
 A2 = (   7.6967864037,   0.0000000000,   0.0000000000)
 A3 = (   0.0000000000,   0.0000000000,  21.2843990326)

Analysis of symmetry for initial positions (statically):
 Subroutine PRICEL returns:
 Original cell was already a primitive cell.

 Routine SETGRP: Setting up the symmetry group for a
 hexagonal supercell.

 Subroutine GETGRP returns: Found  6 space group operations
 (whereof  6 operations were pure point group operations)
 out of a pool of 24 trial point group operations.

The static configuration has the point symmetry C_3v.

Analysis of symmetry for dynamics (positions and initial velocities):
 Subroutine PRICEL returns:
 Original cell was already a primitive cell.

[...]

The dynamic configuration has the point symmetry C_3v.

Analysis of constrained symmetry for selective dynamics:
 Subroutine PRICEL returns:
 Original cell was already a primitive cell.

 Routine SETGRP: Setting up the symmetry group for a
 hexagonal supercell.

 Subroutine GETGRP returns: Found  6 space group operations
 (whereof  6 operations were pure point group operations)
[...]
     24      -4.1287      2.00000
     25      -4.1036      2.00000
     26      -4.0678      2.00000
     27      -4.0463      2.00000
     28      -4.0404      2.00000
     29      -4.0304      2.00000
     30      -4.0217      2.00000
     31      -3.9961      2.00000
     32      -3.9508      2.00000
     33      -3.9263      2.00000
     34      -3.9093      2.00000
     35      -3.8269      2.00000
     36      -3.7931      2.00000
     37      -3.7319      2.00000
     38      -3.7161      2.00000
     39      -3.6520      2.00000
     40      -3.6280      2.00000
     41      -3.6039      2.00000
     42      -3.5969      2.00000
     43      -3.5880      2.00000
     44      -3.5541      2.00000
     45      -3.5400      2.00000
     46      -3.4714      2.00000
     47      -3.3741      2.00000
     48      -3.3587      2.00000
     49      -3.3501      2.00000
     50      -3.3304      2.00000
     51      -3.2925      2.00000
     52      -3.2904      2.00000
     53      -3.2605      2.00000
     54      -3.2448      2.00000
     55      -3.2407      2.00000
     56      -3.2167      2.00000
     57      -3.2126      2.00000
     58      -3.2052      2.00000
     59      -3.1975      2.00000
     60      -3.1839      2.00000
[...]
    238       6.8016      0.00000
    239       6.8494      0.00000
    240       6.9983      0.00000
    241       7.0351      0.00000
    242       7.2102      0.00000
    243       7.2558      0.00000
    244       7.2793      0.00000
    245       7.3871      0.00000
    246       7.5010      0.00000
    247       7.6190      0.00000
    248       7.7811      0.00000
    249       7.8951      0.00000
    250       8.0787      0.00000
    251       8.1567      0.00000
    252       8.4117      0.00000

 soft charge-density along one line, spin component           1
         0         1         2         3         4         5         6         7         8         9
 total charge-density along one line

------------------------ aborting loop because EDIFF is reached ----------------------------------------

 total charge

# of ion       s       p       d       tot
    1        0.448   0.283   9.191   9.922
    2        0.449   0.285   9.187   9.921
    3        0.449   0.285   9.187   9.921
    4        0.449   0.285   9.187   9.921
    5        0.449   0.287   9.182   9.919
    6        0.449   0.285   9.187   9.921
    7        0.449   0.285   9.187   9.921
    8        0.449   0.285   9.187   9.921
    9        0.447   0.284   9.192   9.922
   10        0.440   0.372   9.175   9.987
   11        0.444   0.367   9.183   9.994
   12        0.440   0.372   9.175   9.987
   13        0.444   0.367   9.183   9.994
   14        0.444   0.367   9.183   9.994
   15        0.438   0.373   9.177   9.987
   16        0.440   0.372   9.175   9.987
   17        0.438   0.373   9.177   9.987
   18        0.438   0.373   9.177   9.987
   19        0.441   0.374   9.180   9.995
   20        0.453   0.382   9.175  10.009
   21        0.453   0.382   9.175  10.009
   22        0.437   0.378   9.178   9.993
   23        0.453   0.382   9.175  10.009
   24        0.437   0.378   9.178   9.993
   25        0.441   0.374   9.180   9.995
   26        0.441   0.374   9.180   9.995
   27        0.437   0.378   9.178   9.993
   28        0.449   0.283   9.196   9.928
   29        0.446   0.287   9.191   9.923
   30        0.446   0.287   9.191   9.923
   31        0.446   0.287   9.191   9.923
   32        0.446   0.287   9.191   9.923
   33        0.446   0.287   9.191   9.923
   34        0.446   0.287   9.191   9.923
   35        0.446   0.285   9.196   9.927
   36        0.500   0.471   8.370   9.341
   37        0.496   0.016   0.000   0.512
tot         16.562  12.076 329.798 358.436

  FORCE on cell =-STRESS in cart. coord.  units (eV):
  Direction    XX          YY          ZZ          XY          YZ          ZX
  Alpha Z   863.24109   863.24109   863.24109
  Ewald  175404.40942175404.40898************     0.00040     0.00010     0.00017
  Hartree188513.19538188513.19533************     0.00005     0.00004     0.00008
  E(xc)   -2304.76181 -2304.76132 -2309.18129    -0.00042    -0.00003    -0.00006
  Local  ************************377321.93049     0.01868    -0.00054    -0.00095
  n-local  -775.81282  -760.57839  -781.01358     7.50154    -0.04413     0.15064
  augment  3485.82639  3485.84684  3496.05822    -0.01771     0.00024     0.00045
  Kinetic  3215.86481  3219.58551  3236.77090     2.86582     1.96392    -1.56270
  Fock        0.00000     0.00000     0.00000     0.00000     0.00000     0.00000
  Total      -5.64822    -5.64822     2.34069     0.00000     0.00000     0.00000
  in kB      -8.28727    -8.28727     3.43435     0.00000     0.00000     0.00000

 VOLUME and BASIS-vectors are now :
  energy-cutoff  :      500.00
  volume of cell :     1091.97
      direct lattice vectors                 reciprocal lattice vectors
     7.696786404  0.000000000  0.000000000     0.129924354 -0.075011849  0.000000000
     3.848392758  6.665612809  0.000000000     0.000000000  0.150023716  0.000000000
     0.000000000  0.000000000 21.284399033     0.000000000  0.000000000  0.046982769

  length of vectors
     7.696786404  7.696786404 21.284399033     0.150023716  0.150023716  0.046982769

 FORCES acting on ions
    electron-ion (+dipol)            ewald-force                    non-local-force                 convergence-correction
   -.415E-04 0.185E-06 0.349E+04   0.579E-04 -.443E-05 -.349E+04   -.119E-17 0.669E-19 -.293E+01   -.307E-03 -.144E-03 -.490E+00
   0.136E+00 0.128E+00 0.349E+04   -.170E+00 -.170E+00 -.349E+04   0.518E-01 0.910E-01 -.202E+01   -.526E-02 -.290E-01 -.424E+00
   -.136E+00 0.128E+00 0.349E+04   0.170E+00 -.170E+00 -.349E+04   -.518E-01 0.910E-01 -.202E+01   0.607E-02 -.264E-01 -.423E+00
   0.179E+00 0.537E-01 0.349E+04   -.232E+00 -.625E-01 -.349E+04   0.105E+00 -.692E-03 -.202E+01   -.277E-01 0.989E-02 -.423E+00
   -.622E-04 -.376E-05 0.349E+04   0.116E-03 -.101E-04 -.349E+04   0.408E-17 -.366E-18 -.154E+01   0.122E-01 0.744E-02 -.291E+00
   -.179E+00 0.538E-01 0.349E+04   0.232E+00 -.627E-01 -.349E+04   -.105E+00 -.692E-03 -.202E+01   0.261E-01 0.111E-01 -.422E+00
   0.430E-01 -.182E+00 0.349E+04   -.619E-01 0.232E+00 -.349E+04   0.530E-01 -.903E-01 -.202E+01   -.198E-01 0.184E-01 -.422E+00
   -.429E-01 -.182E+00 0.349E+04   0.616E-01 0.232E+00 -.349E+04   -.530E-01 -.903E-01 -.202E+01   0.233E-01 0.170E-01 -.422E+00
   -.144E-03 -.329E-04 0.349E+04   0.263E-03 0.206E-04 -.349E+04   -.401E-17 -.384E-17 -.254E+01   -.132E-01 -.683E-02 -.472E+00
   0.223E+01 0.129E+01 0.117E+04   -.190E+01 -.110E+01 -.117E+04   -.350E+00 -.202E+00 -.974E+00   0.119E-01 0.688E-02 -.229E+00
   -.903E-04 0.159E+01 0.117E+04   0.190E-03 -.167E+01 -.117E+04   -.896E-08 0.135E+00 -.484E+00   0.117E-01 -.612E-01 -.167E+00
   -.223E+01 0.129E+01 0.117E+04   0.190E+01 -.110E+01 -.117E+04   0.350E+00 -.202E+00 -.974E+00   -.134E-01 0.842E-02 -.229E+00
   0.138E+01 -.795E+00 0.117E+04   -.145E+01 0.834E+00 -.117E+04   0.117E+00 -.673E-01 -.484E+00   -.467E-01 0.416E-01 -.167E+00
   -.138E+01 -.795E+00 0.117E+04   0.145E+01 0.834E+00 -.117E+04   -.117E+00 -.673E-01 -.484E+00   0.708E-01 0.405E-01 -.168E+00
   -.144E-03 0.133E+00 0.117E+04   0.299E-03 -.312E+00 -.117E+04   -.577E-08 0.867E-01 -.986E+00   -.353E-02 0.773E-01 -.252E+00
   -.913E-04 -.258E+01 0.117E+04   0.186E-03 0.219E+01 -.117E+04   -.269E-07 0.404E+00 -.974E+00   -.355E-03 -.170E-01 -.229E+00
   0.115E+00 -.665E-01 0.117E+04   -.270E+00 0.156E+00 -.117E+04   0.751E-01 -.433E-01 -.986E+00   0.659E-01 -.417E-01 -.252E+00
   -.115E+00 -.665E-01 0.117E+04   0.270E+00 0.156E+00 -.117E+04   -.751E-01 -.433E-01 -.986E+00   -.648E-01 -.391E-01 -.252E+00
   -.559E-04 0.983E+00 -.117E+04   0.670E-04 -.104E+01 0.117E+04   -.187E-08 0.280E-01 0.931E+00   -.108E-01 0.311E-01 -.346E+00
   0.584E+01 0.337E+01 -.116E+04   -.491E+01 -.284E+01 0.116E+04   -.993E+00 -.574E+00 -.821E+00   0.571E-01 0.329E-01 -.264E+00
   -.584E+01 0.337E+01 -.116E+04   0.491E+01 -.284E+01 0.116E+04   0.993E+00 -.574E+00 -.821E+00   -.757E-01 0.334E-01 -.265E+00
   0.161E+01 -.932E+00 -.117E+04   -.184E+01 0.106E+01 0.117E+04   0.191E+00 -.110E+00 0.644E+00   0.552E-01 -.445E-01 -.429E+00
   -.744E-04 -.674E+01 -.116E+04   0.143E-03 0.567E+01 0.116E+04   -.764E-07 0.115E+01 -.821E+00   -.101E-01 -.835E-01 -.265E+00
   -.161E+01 -.932E+00 -.117E+04   0.184E+01 0.106E+01 0.117E+04   -.191E+00 -.110E+00 0.644E+00   -.761E-01 -.448E-01 -.429E+00
   -.852E+00 -.492E+00 -.117E+04   0.901E+00 0.520E+00 0.117E+04   -.243E-01 -.140E-01 0.931E+00   -.412E-01 -.238E-01 -.346E+00
   0.852E+00 -.492E+00 -.117E+04   -.901E+00 0.520E+00 0.117E+04   0.243E-01 -.140E-01 0.931E+00   0.219E-01 -.247E-01 -.346E+00
   -.132E-03 0.186E+01 -.117E+04   0.244E-03 -.212E+01 0.117E+04   -.147E-07 0.220E+00 0.644E+00   -.109E-01 0.700E-01 -.429E+00
   -.279E-04 0.196E-04 -.349E+04   0.366E-04 -.343E-04 0.349E+04   -.416E-17 0.167E-17 0.252E+01   -.688E-06 0.513E-04 0.413E+00
   0.393E+01 0.775E+01 -.350E+04   -.386E+01 -.792E+01 0.349E+04   -.759E-01 0.712E-01 0.275E+01   0.212E-01 0.108E+00 0.269E+00
   -.393E+01 0.775E+01 -.350E+04   0.386E+01 -.792E+01 0.349E+04   0.759E-01 0.712E-01 0.275E+01   -.203E-01 0.111E+00 0.269E+00
   0.868E+01 -.474E+00 -.350E+04   -.879E+01 0.620E+00 0.349E+04   0.238E-01 -.101E+00 0.275E+01   0.105E+00 -.360E-01 0.269E+00
   -.868E+01 -.474E+00 -.350E+04   0.879E+01 0.620E+00 0.349E+04   -.238E-01 -.101E+00 0.275E+01   -.105E+00 -.349E-01 0.268E+00
   0.475E+01 -.728E+01 -.350E+04   -.493E+01 0.730E+01 0.349E+04   0.996E-01 0.301E-01 0.275E+01   0.856E-01 -.729E-01 0.269E+00
   -.475E+01 -.728E+01 -.350E+04   0.493E+01 0.730E+01 0.349E+04   -.996E-01 0.301E-01 0.275E+01   -.823E-01 -.739E-01 0.269E+00
   -.129E-03 -.174E-04 -.349E+04   0.255E-03 0.574E-05 0.349E+04   -.303E-17 -.153E-18 0.260E+01   -.130E-01 -.666E-02 0.359E+00
   -.524E-04 -.406E-05 -.307E+04   0.130E-03 0.238E-04 0.307E+04   -.955E-18 0.238E-17 -.376E+01   0.855E-02 0.521E-02 -.912E-03
   0.252E-05 -.542E-05 -.406E+03   0.431E-05 0.177E-05 0.409E+03   0.114E-19 0.421E-21 -.219E+01   0.142E-03 0.844E-04 0.230E-02
   -.132E-03 0.522E-04 0.150E+02   0.863E-13 0.113E-13 0.132E-10   -.323E-15 -.109E-15 -.854E+01   -.587E-01 -.368E-01 -.647E+01

 POSITION                                       TOTAL-FORCE (eV/Angst)
      0.00000      0.00000      5.37156         0.000000     -0.000000      0.035097
      2.56560      0.00000      5.37156         0.012797      0.021706      0.092219
      5.13119      0.00000      5.37156        -0.012797      0.021706      0.092219
      1.28280      2.22187      5.37156         0.025197      0.000229      0.092219
      3.84839      2.22187      5.37156         0.000000      0.000000      0.084782
      6.41399      2.22187      5.37156        -0.025197      0.000229      0.092219
      2.56560      4.44374      5.37156         0.012400     -0.021936      0.092219
      5.13119      4.44374      5.37156        -0.012400     -0.021936      0.092219
      7.69679      4.44374      5.37156         0.000000     -0.000000      0.053014
      1.28280      0.74062      7.46636        -0.003238     -0.001870     -0.081673
      3.84839      0.74062      7.46636         0.000000     -0.011770     -0.093671
      6.41399      0.74062      7.46636         0.003238     -0.001870     -0.081673
      2.56560      2.96249      7.46636        -0.010193      0.005885     -0.093671
      5.13119      2.96249      7.46636         0.010193      0.005885     -0.093671
      7.69679      2.96249      7.46636         0.000000     -0.015062     -0.074630
      3.84839      5.18437      7.46636        -0.000000      0.003739     -0.081673
      6.41399      5.18437      7.46636        -0.013044      0.007531     -0.074630
      8.97958      5.18437      7.46636         0.013044      0.007531     -0.074630
      7.69679      1.48353      9.55071        -0.000000      0.007851      0.043252
      2.56540      1.48114      9.54275        -0.000156     -0.000090     -0.154291
      5.13138      1.48114      9.54275         0.000156     -0.000090     -0.154291
      8.97935      3.70325      9.54809         0.030852     -0.017812      0.006532
      3.84839      3.70334      9.54275        -0.000000      0.000180     -0.154291
      6.41422      3.70325      9.54809        -0.030852     -0.017812      0.006532
     10.26040      5.92385      9.55071        -0.006799     -0.003925      0.043252
      5.13317      5.92385      9.55071         0.006799     -0.003925      0.043252
      7.69679      5.92472      9.54809        -0.000000      0.035624      0.006532
      0.00000      0.00000     11.61525         0.000000     -0.000000     -0.018061
      2.57297      0.01446     11.62005         0.013822      0.006786      0.037801
      5.12381      0.01446     11.62005        -0.013822      0.006786      0.037801
      1.29901      2.22103     11.62005         0.012788      0.008577      0.037801
      6.39777      2.22103     11.62005        -0.012788      0.008577      0.037801
      2.57443      4.43012     11.62005        -0.001034     -0.015363      0.037801
      5.12235      4.43012     11.62005         0.001034     -0.015363      0.037801
      7.69679      4.44374     11.61370         0.000000     -0.000000     -0.007325
      3.84839      2.22187     11.53520         0.000000      0.000000      0.182791
      3.84839      2.22187     13.01878         0.000000     -0.000000     -0.046972
    total drift:                               -0.058865     -0.036708     -0.006822

  FREE ENERGIE OF THE ION-ELECTRON SYSTEM (eV)
  free  energy   TOTEN  =      -130.84100580 eV

  energy  without entropy=     -130.84100580  energy(sigma->0) =     -130.84100580

 stress matrix after NEB project (eV)
     -5.64822      0.00000      0.00000
      0.00000     -5.64822     -0.00000
     -0.00000      0.00000      2.34069
  FORCES: max atom, RMS     0.046972    0.007722
  FORCE total and by dimension    0.046972    0.046972
  Stress total and by dimension    8.323680    5.648221
|           W    W    AA    RRRRR   N    N  II  N    N   GGGG   !!!           |
|           W    W   A  A   R    R  NN   N  II  NN   N  G    G  !!!           |
|           W    W  A    A  R    R  N N  N  II  N N  N  G       !!!           |
|           W WW W  AAAAAA  RRRRR   N  N N  II  N  N N  G  GGG   !            |
|           WW  WW  A    A  R   R   N   NN  II  N   NN  G    G                |
|           W    W  A    A  R    R  N    N  II  N    N   GGGG   !!!           |
|     Tetrahedron method does not include variations of the Fermi             |
|     occupations, so forces and stress will be inaccurate. We suggest        |
|     using a different smearing scheme ISMEAR = 1 or 2 for metals in         |
|     relaxations.                                                            |

 total charge

# of ion       s       p       d       tot
    1        0.448   0.283   9.191   9.922
    2        0.449   0.285   9.187   9.921
    3        0.449   0.285   9.187   9.921
    4        0.449   0.285   9.187   9.921
    5        0.449   0.287   9.182   9.919
    6        0.449   0.285   9.187   9.921
    7        0.449   0.285   9.187   9.921
    8        0.449   0.285   9.187   9.921
    9        0.447   0.284   9.192   9.922
   10        0.440   0.372   9.175   9.987
   11        0.444   0.367   9.183   9.994
   12        0.440   0.372   9.175   9.987
   13        0.444   0.367   9.183   9.994
   14        0.444   0.367   9.183   9.994
   15        0.438   0.373   9.177   9.987
   16        0.440   0.372   9.175   9.987
   17        0.438   0.373   9.177   9.987
   18        0.438   0.373   9.177   9.987
   19        0.441   0.374   9.180   9.995
   20        0.453   0.382   9.175  10.009
   21        0.453   0.382   9.175  10.009
   22        0.437   0.378   9.178   9.993
   23        0.453   0.382   9.175  10.009
   24        0.437   0.378   9.178   9.993
   25        0.441   0.374   9.180   9.995
   26        0.441   0.374   9.180   9.995
   27        0.437   0.378   9.178   9.993
   28        0.449   0.283   9.196   9.928
   29        0.446   0.287   9.191   9.923
   30        0.446   0.287   9.191   9.923
   31        0.446   0.287   9.191   9.923
   32        0.446   0.287   9.191   9.923
   33        0.446   0.287   9.191   9.923
   34        0.446   0.287   9.191   9.923
   35        0.446   0.285   9.196   9.927
   36        0.500   0.471   8.370   9.341
   37        0.496   0.016   0.000   0.512
tot         16.562  12.076 329.798 358.436

 BZINTS: Fermi energy:    0.012560;  396.000000 electrons
         Band energy:-0.107261E+04;  BLOECHL correction:   -0.059528