 vasp.6.2.0 18Jan21 (build Jun 12 2021 23:27:24) complex

 executed on             LinuxIFC date 2022.05.30  17:25:56

 INCAR:
   ISMEAR = -5
   SIGMA = 0.1
   ISPIN = 1
   EDIFF = 1.d-5
   EDIFFG = -0.01
   NSW = 0
   NELM = 150
   ENCUT = 500
   ISIF = 2
   IBRION = 2
   LREAL = Auto
   ALGO = Fast
   ICHARG = 11
   LORBIT = 10
   LCHARG = .F.
   LWAVE = .F.

 POTCAR:    PAW_PBE Ag 02Apr2005
 POTCAR:    PAW_PBE Pd 04Jan2005
 POTCAR:    PAW_PBE C 08Apr2002
 POTCAR:    PAW_PBE O 08Apr2002
 POTCAR:    PAW_PBE H 15Jun2001
|           W    W    AA    RRRRR   N    N  II  N    N   GGGG   !!!           |
|           W    W   A  A   R    R  NN   N  II  NN   N  G    G  !!!           |
|           W    W  A    A  R    R  N N  N  II  N N  N  G       !!!           |
|           W WW W  AAAAAA  RRRRR   N  N N  II  N  N N  G  GGG   !            |
|           WW  WW  A    A  R   R   N   NN  II  N   NN  G    G                |
|           W    W  A    A  R    R  N    N  II  N    N   GGGG   !!!           |
|     For optimal performance we recommend to set                             |
|       NCORE = 2 up to number-of-cores-per-socket                            |
|     This setting can greatly improve the performance of VASP for DFT.       |
|     The default, NCORE=1 might be grossly inefficient on modern             |
|     multi-core architectures or massively parallel machines. Do your        |
|     Unfortunately you need to use the default for GW and RPA                |
|     calculations (for HF NCORE is supported but not extensively tested      |
|     yet).                                                                   |

 POTCAR:    PAW_PBE Ag 02Apr2005
   VRHFIN =Ag : s1 d10

   TITEL  = PAW_PBE Ag 02Apr2005
   POMASS =  107.868; ZVAL   =   11.000    mass and valenz
   ENMAX  =  249.844; ENMIN  =  187.383 eV

 POTCAR:    PAW_PBE Pd 04Jan2005
   VRHFIN =Pd : s1 d9

   TITEL  = PAW_PBE Pd 04Jan2005
   POMASS =  106.420; ZVAL   =   10.000    mass and valenz
   ENMAX  =  250.925; ENMIN  =  188.194 eV

 POTCAR:    PAW_PBE C 08Apr2002
   VRHFIN =C: s2p2

[...]

 POTCAR:    PAW_PBE O 08Apr2002
   VRHFIN =O: s2p4

   TITEL  = PAW_PBE O 08Apr2002
   POMASS =   16.000; ZVAL   =    6.000    mass and valenz
   ENMAX  =  400.000; ENMIN  =  300.000 eV

 POTCAR:    PAW_PBE H 15Jun2001
   VRHFIN =H: ultrasoft test

   TITEL  = PAW_PBE H 15Jun2001
   POMASS =    1.000; ZVAL   =    1.000    mass and valenz
   ENMAX  =  250.000; ENMIN  =  200.000 eV

 Optimization of the real space projectors (new method)

 maximal supplied QI-value         = 15.12
 optimisation between [QCUT,QGAM] = [ 11.34, 22.83] = [ 36.00,145.93] Ry
 Optimized for a Real-space Cutoff    1.43 Angstroem

   l    n(q)    QCUT    max X(q) W(low)/X(q) W(high)/X(q)  e(spline)
   2      9    11.338    53.897    0.16E-03    0.20E-03    0.28E-06
   2      9    11.338    52.416    0.16E-03    0.20E-03    0.29E-06
   0     10    11.338   122.045    0.31E-04    0.76E-04    0.15E-06
   0     10    11.338    73.629    0.30E-04    0.72E-04    0.15E-06
   1      9    11.338    15.255    0.20E-03    0.19E-04    0.17E-06
   1      9    11.338     9.562    0.16E-03    0.15E-04    0.14E-06
 Optimization of the real space projectors (new method)

[...]

   l    n(q)    QCUT    max X(q) W(low)/X(q) W(high)/X(q)  e(spline)
   0      7    11.387    20.381    0.39E-03    0.13E-02    0.15E-06
   0      7    11.387    15.268    0.42E-03    0.14E-02    0.17E-06
   1      6    11.387     5.964    0.41E-03    0.11E-02    0.17E-06
   1      6    11.387     5.382    0.39E-03    0.87E-03    0.15E-06
 Optimization of the real space projectors (new method)

 maximal supplied QI-value         = 34.20
 optimisation between [QCUT,QGAM] = [ 11.29, 22.57] = [ 35.68,142.71] Ry
 Optimized for a Real-space Cutoff    1.16 Angstroem

   l    n(q)    QCUT    max X(q) W(low)/X(q) W(high)/X(q)  e(spline)
   0      8    11.287    19.460    0.40E-03    0.73E-03    0.16E-06
   0      8    11.287    12.209    0.38E-03    0.70E-03    0.15E-06
   1      7    11.287     4.655    0.22E-03    0.25E-04    0.22E-06
  PAW_PBE Ag 02Apr2005                  :
  PAW_PBE Pd 04Jan2005                  :
  PAW_PBE C 08Apr2002                   :
  PAW_PBE O 08Apr2002                   :
  PAW_PBE H 15Jun2001                   :

 POSCAR: Ag-Pd-COH
  positions in direct lattice
  velocities in cartesian coordinates
 exchange correlation table for  LEXCH =        8
   RHO(1)=    0.500       N(1)  =     2000
   RHO(2)=  100.500       N(2)  =     4000

 VTST: version 3.2, (02/03/18)

 CHAIN: initializing optimizer

 OPT: Using VASP Conjugate-Gradient optimizer
 CHAIN: Read ICHAIN            0

 POSCAR: Ag-Pd-COH
  positions in direct lattice
  velocities in cartesian coordinates

 ion  position               nearest neighbor table
   1  0.000  0.000  0.199-   2 2.93   8 2.93   7 2.93   6 2.93   4 2.93  12 2.93  16 2.93  10 2.93
                             3 2.93
   2  0.333  0.000  0.199-   1 2.93   8 2.93   9 2.93   3 2.93   4 2.93   5 2.93  10 2.93  17 2.93
                            11 2.93
   3  0.667  0.000  0.199-   9 2.93   2 2.93   5 2.93  11 2.93   7 2.93  18 2.93   1 2.93   6 2.93
                            12 2.93
   4  0.000  0.333  0.199-   5 2.93   6 2.93   2 2.93   1 2.93   7 2.93  13 2.93  15 2.93   9 2.93
                            10 2.93
   5  0.333  0.333  0.199-   4 2.93   3 2.93   7 2.93   2 2.93   8 2.93  14 2.93  13 2.93  11 2.93
                             6 2.93
   6  0.667  0.333  0.199-   4 2.93   9 2.93   1 2.93  15 2.93   8 2.93  12 2.93   3 2.93   5 2.93
                            14 2.93
   7  0.000  0.667  0.199-   8 2.93   1 2.93   5 2.93   3 2.93   4 2.93  16 2.93  18 2.93  13 2.93
                             9 2.93
   8  0.333  0.667  0.199-   7 2.93   1 2.93   2 2.93   9 2.93   5 2.93  16 2.93   6 2.93  17 2.93
                            14 2.93
   9  0.667  0.667  0.199-   3 2.93   2 2.93   8 2.93   6 2.93  17 2.93   4 2.93  15 2.93   7 2.93
                            18 2.93
  10  0.111  0.111  0.289-  20 2.91  19 2.92  26 2.92  12 2.93  16 2.93  15 2.93  17 2.93  13 2.93
                            11 2.93   2 2.93   1 2.93   4 2.93
  11  0.444  0.111  0.289-  21 2.91  20 2.91  27 2.91  14 2.93  17 2.93  18 2.93   3 2.93  12 2.93
                            13 2.93  10 2.93   5 2.93   2 2.93
  12  0.778  0.111  0.289-  21 2.91  25 2.92  19 2.92  10 2.93  16 2.93  18 2.93  15 2.93  11 2.93
                             1 2.93  14 2.93   6 2.93   3 2.93
  13  0.111  0.444  0.289-  20 2.91  23 2.91  22 2.91  15 2.93  14 2.93  18 2.93  10 2.93  11 2.93
                            16 2.93   4 2.93   5 2.93   7 2.93
  14  0.444  0.444  0.289-  23 2.91  21 2.91  24 2.91  13 2.93  11 2.93  16 2.93   5 2.93  12 2.93
                            17 2.93   8 2.93  15 2.93   6 2.93
  15  0.778  0.444  0.289-  24 2.91  22 2.91  19 2.92  13 2.93  10 2.93  12 2.93  17 2.93  18 2.93
                             4 2.93   6 2.93   9 2.93  14 2.93
  16  0.111  0.778  0.289-  23 2.91  26 2.92  25 2.92  18 2.93  12 2.93  10 2.93  14 2.93  17 2.93
                            13 2.93   7 2.93   8 2.93   1 2.93
  17  0.444  0.778  0.289-  27 2.91  24 2.91  26 2.92  11 2.93  10 2.93   9 2.93  18 2.93  15 2.93
                            16 2.93   2 2.93  14 2.93   8 2.93
  18  0.778  0.778  0.289-  22 2.91  27 2.91  25 2.92  16 2.93  12 2.93  13 2.93  11 2.93  17 2.93
                            15 2.93   7 2.93   3 2.93   9 2.93
  19  0.889  0.223  0.378-  28 2.91  15 2.92  10 2.92  12 2.92  32 2.92  31 2.92  20 2.93  21 2.93
                            24 2.93  22 2.93  26 2.93  25 2.93
  20  0.222  0.222  0.378-  36 2.81  10 2.91  13 2.91  11 2.91  31 2.91  29 2.91  19 2.93  26 2.93
                            27 2.93  22 2.93  21 2.94  23 2.94
  21  0.556  0.222  0.378-  36 2.81  12 2.91  11 2.91  14 2.91  30 2.91  32 2.91  25 2.93  19 2.93
                            27 2.93  24 2.93  20 2.94  23 2.94
  22  0.889  0.556  0.378-  35 2.91  18 2.91  15 2.91  13 2.91  33 2.92  31 2.92  25 2.93  19 2.93
                            24 2.93  27 2.93  23 2.93  20 2.93
  23  0.222  0.556  0.378-  36 2.81  16 2.91  14 2.91  13 2.91  34 2.91  33 2.91  26 2.93  25 2.93
                            22 2.93  24 2.93  21 2.94  20 2.94
  24  0.556  0.556  0.378-  35 2.91  15 2.91  17 2.91  14 2.91  32 2.92  34 2.92  19 2.93  26 2.93
                            27 2.93  22 2.93  23 2.93  21 2.93
  25  0.889  0.889  0.378-  28 2.91  18 2.92  16 2.92  12 2.92  33 2.92  30 2.92  23 2.93  21 2.93
                            22 2.93  27 2.93  26 2.93  19 2.93
  26  0.223  0.889  0.378-  28 2.91  17 2.92  16 2.92  10 2.92  34 2.92  29 2.92  23 2.93  20 2.93
                            27 2.93  24 2.93  25 2.93  19 2.93
  27  0.556  0.889  0.378-  35 2.91  17 2.91  18 2.91  11 2.91  29 2.92  30 2.92  26 2.93  25 2.93
                            24 2.93  22 2.93  20 2.93  21 2.93
  28  0.000  0.000  0.467-  26 2.91  25 2.91  19 2.91  29 2.94  34 2.94  33 2.94  32 2.94  31 2.94
                            30 2.94
  29  0.333  0.003  0.467-  30 2.91  31 2.91  36 2.91  20 2.91  27 2.92  26 2.92  35 2.94  28 2.94
                            34 2.98
  30  0.664  0.003  0.467-  29 2.91  32 2.91  36 2.91  21 2.91  27 2.92  25 2.92  35 2.94  28 2.94
                            33 2.98
  31  0.003  0.333  0.467-  33 2.91  29 2.91  36 2.91  20 2.91  22 2.92  19 2.92  35 2.94  28 2.94
                            32 2.98
  32  0.664  0.333  0.467-  34 2.91  30 2.91  36 2.91  21 2.91  24 2.92  19 2.92  35 2.94  28 2.94
                            31 2.98
  33  0.003  0.664  0.467-  31 2.91  34 2.91  36 2.91  23 2.91  22 2.92  25 2.92  35 2.94  28 2.94
                            30 2.98
  34  0.333  0.664  0.467-  32 2.91  33 2.91  36 2.91  23 2.91  24 2.92  26 2.92  35 2.94  28 2.94
                            29 2.98
  35  0.667  0.667  0.467-  24 2.91  27 2.91  22 2.91  30 2.94  29 2.94  32 2.94  34 2.94  31 2.94
                            33 2.94
  36  0.333  0.333  0.462-  37 1.82  21 2.81  20 2.81  23 2.81  31 2.91  33 2.91  30 2.91  29 2.91
                            34 2.91  32 2.91
  37  0.333  0.333  0.531-  38 1.26  36 1.82
  38  0.333  0.333  0.578-  39 0.97  37 1.26
  39  0.333  0.333  0.615-  38 0.97

  LATTYP: Found a hexagonal cell.
 ALAT       =     8.7913665772
 C/A-ratio  =     3.0233954145

  Lattice vectors:

 A1 = (  -4.3956832886,  -7.6135467898,   0.0000000000)
 A2 = (   8.7913665771,   0.0000000000,   0.0000000000)
 A3 = (   0.0000000000,   0.0000000000,  26.5797773968)

Analysis of symmetry for initial positions (statically):
 Subroutine PRICEL returns:
 Original cell was already a primitive cell.

 Routine SETGRP: Setting up the symmetry group for a
 hexagonal supercell.

 Subroutine GETGRP returns: Found  6 space group operations
 (whereof  6 operations were pure point group operations)
 out of a pool of 24 trial point group operations.

The static configuration has the point symmetry C_3v.

Analysis of symmetry for dynamics (positions and initial velocities):
 Subroutine PRICEL returns:
 Original cell was already a primitive cell.

[...]

[...]
     41      -4.6323      2.00000
     42      -4.6129      2.00000
     43      -4.5815      2.00000
     44      -4.5693      2.00000
     45      -4.5540      2.00000
     46      -4.5531      2.00000
     47      -4.5238      2.00000
     48      -4.4349      2.00000
     49      -4.4038      2.00000
     50      -4.3976      2.00000
     51      -4.3959      2.00000
     52      -4.3859      2.00000
     53      -4.3812      2.00000
     54      -4.3772      2.00000
     55      -4.3690      2.00000
     56      -4.3593      2.00000
     57      -4.3390      2.00000
     58      -4.2777      2.00000
     59      -4.2686      2.00000
     60      -4.2533      2.00000
[...]
    238       5.2776      0.00000
    239       5.3718      0.00000
    240       5.5347      0.00000
    241       5.5688      0.00000
    242       5.6404      0.00000
    243       5.7916      0.00000
    244       5.8441      0.00000
    245       5.8559      0.00000
    246       5.8935      0.00000
    247       5.9317      0.00000
    248       5.9787      0.00000
    249       5.9984      0.00000
    250       6.1330      0.00000
    251       6.4942      0.00000
    252       6.8130      0.00000

 soft charge-density along one line, spin component           1
         0         1         2         3         4         5         6         7         8         9
 total charge-density along one line

------------------------ aborting loop because EDIFF is reached ----------------------------------------

 total charge

# of ion       s       p       d       tot
    1        0.412   0.206   9.176   9.795
    2        0.419   0.203   9.177   9.798
    3        0.419   0.203   9.177   9.798
    4        0.419   0.203   9.177   9.798
    5        0.413   0.204   9.177   9.795
    6        0.419   0.203   9.177   9.798
    7        0.419   0.203   9.177   9.798
    8        0.419   0.203   9.177   9.798
    9        0.413   0.206   9.176   9.795
   10        0.408   0.270   9.163   9.841
   11        0.408   0.268   9.165   9.841
   12        0.408   0.270   9.163   9.841
   13        0.408   0.268   9.165   9.841
   14        0.408   0.268   9.165   9.841
   15        0.403   0.270   9.165   9.839
   16        0.408   0.270   9.163   9.841
   17        0.403   0.270   9.165   9.839
   18        0.403   0.270   9.165   9.839
   19        0.408   0.269   9.166   9.843
   20        0.413   0.287   9.156   9.856
   21        0.413   0.287   9.156   9.856
   22        0.402   0.274   9.164   9.840
   23        0.413   0.287   9.156   9.856
   24        0.402   0.274   9.164   9.840
   25        0.408   0.269   9.166   9.843
   26        0.408   0.269   9.166   9.843
   27        0.402   0.274   9.164   9.840
   28        0.420   0.203   9.177   9.800
   29        0.406   0.210   9.183   9.799
   30        0.406   0.210   9.183   9.799
   31        0.406   0.210   9.183   9.799
   32        0.406   0.210   9.183   9.799
   33        0.406   0.210   9.183   9.799
   34        0.406   0.210   9.183   9.799
   35        0.421   0.204   9.177   9.802
   36        0.511   0.634   8.497   9.642
   37        0.949   1.357   0.000   2.305
   38        1.538   3.730   0.000   5.269
   39        0.551   0.126   0.000   0.677
tot         17.898  14.266 329.479 361.642

  FORCE on cell =-STRESS in cart. coord.  units (eV):
  Direction    XX          YY          ZZ          XY          YZ          ZX
  Alpha Z   643.02046   643.02046   643.02046
  Ewald  188137.23325188137.23333************     0.00004     0.00000     0.00005
  Hartree198439.61113198439.61117************     0.00002     0.00000     0.00002
  E(xc)   -2129.81385 -2129.81399 -2133.10856     0.00012    -0.00001    -0.00001
  Local  ************************397564.40767     0.00065    -0.00008    -0.00021
  n-local  -355.62829  -338.93079  -347.06913    10.23588    -0.30506     0.36240
  augment  3304.18737  3304.18764  3303.44327    -0.00023    -0.00001     0.00000
  Kinetic  5121.18748  5120.64254  5075.89698     2.58516     1.37727    -0.61236
  Fock        0.00000     0.00000     0.00000     0.00000     0.00000     0.00000
  Total      -7.00481    -7.00481     0.73294    -0.00000    -0.00000    -0.00000
  in kB      -6.30830    -6.30830     0.66006    -0.00000    -0.00000    -0.00000

 VOLUME and BASIS-vectors are now :
  energy-cutoff  :      500.00
  volume of cell :     1779.08
      direct lattice vectors                 reciprocal lattice vectors
     8.791366577  0.000000000  0.000000000     0.113747958 -0.065672414  0.000000000
     4.395683289  7.613546790  0.000000000     0.000000000  0.131344829  0.000000000
     0.000000000  0.000000000 26.579777397     0.000000000  0.000000000  0.037622587

  length of vectors
     8.791366577  8.791366577 26.579777397     0.131344829  0.131344829  0.037622587

 FORCES acting on ions
    electron-ion (+dipol)            ewald-force                    non-local-force                 convergence-correction
   0.456E-04 -.284E-04 0.286E+04   -.954E-04 0.593E-04 -.286E+04   0.835E-18 -.256E-17 -.208E+01   -.847E-04 -.156E-03 0.374E-01
   0.225E+00 0.339E+00 0.286E+04   -.255E+00 -.318E+00 -.286E+04   -.338E-01 -.107E+00 -.148E+01   0.657E-01 0.923E-01 0.887E-01
   -.225E+00 0.339E+00 0.286E+04   0.255E+00 -.318E+00 -.286E+04   0.338E-01 -.107E+00 -.148E+01   -.662E-01 0.942E-01 0.893E-01
   0.406E+00 0.258E-01 0.286E+04   -.403E+00 -.619E-01 -.286E+04   -.109E+00 0.240E-01 -.148E+01   0.113E+00 0.109E-01 0.887E-01
   -.441E-05 -.178E-04 0.286E+04   0.981E-04 -.199E-05 -.286E+04   0.126E-17 0.140E-17 -.170E+01   0.618E-02 0.378E-02 0.750E-01
   -.406E+00 0.258E-01 0.286E+04   0.403E+00 -.620E-01 -.286E+04   0.109E+00 0.240E-01 -.148E+01   -.114E+00 0.118E-01 0.894E-01
   0.181E+00 -.365E+00 0.286E+04   -.148E+00 0.380E+00 -.286E+04   -.754E-01 0.826E-01 -.148E+01   0.489E-01 -.104E+00 0.893E-01
   -.181E+00 -.365E+00 0.286E+04   0.148E+00 0.380E+00 -.286E+04   0.754E-01 0.826E-01 -.148E+01   -.473E-01 -.105E+00 0.894E-01
   0.373E-04 -.125E-04 0.286E+04   0.792E-04 -.643E-04 -.286E+04   0.384E-17 -.364E-18 -.174E+01   -.663E-02 -.341E-02 0.133E+00
   0.298E+01 0.172E+01 0.101E+04   -.289E+01 -.167E+01 -.101E+04   -.190E+00 -.109E+00 -.718E+00   0.118E+00 0.684E-01 0.181E+00
   -.295E-04 0.275E+01 0.102E+04   0.414E-04 -.290E+01 -.102E+04   0.245E-13 0.373E-02 -.679E+00   0.619E-02 0.114E+00 0.125E+00
   -.298E+01 0.172E+01 0.101E+04   0.289E+01 -.167E+01 -.101E+04   0.190E+00 -.109E+00 -.718E+00   -.120E+00 0.691E-01 0.180E+00
   0.238E+01 -.138E+01 0.102E+04   -.251E+01 0.145E+01 -.102E+04   0.323E-02 -.186E-02 -.679E+00   0.102E+00 -.515E-01 0.125E+00
   -.238E+01 -.138E+01 0.102E+04   0.251E+01 0.145E+01 -.102E+04   -.323E-02 -.186E-02 -.679E+00   -.912E-01 -.524E-01 0.123E+00
   0.156E-04 0.174E+00 0.101E+04   -.108E-03 -.148E+00 -.101E+04   -.241E-12 -.367E-01 -.440E+00   -.128E-02 0.299E-02 0.140E+00
   -.748E-05 -.344E+01 0.101E+04   0.206E-04 0.334E+01 -.101E+04   0.144E-11 0.219E+00 -.718E+00   -.886E-04 -.138E+00 0.180E+00
   0.151E+00 -.871E-01 0.101E+04   -.128E+00 0.738E-01 -.101E+04   -.318E-01 0.183E-01 -.440E+00   0.192E-02 -.262E-02 0.140E+00
   -.151E+00 -.871E-01 0.101E+04   0.128E+00 0.739E-01 -.101E+04   0.318E-01 0.183E-01 -.440E+00   -.176E-02 -.104E-02 0.141E+00
   0.416E-04 0.251E+01 -.867E+03   -.130E-03 -.248E+01 0.866E+03   0.165E-13 0.251E-02 0.469E+00   0.989E-03 -.375E-01 -.110E+00
   0.152E+02 0.880E+01 -.834E+03   -.147E+02 -.848E+01 0.835E+03   -.596E+00 -.344E+00 -.711E+00   0.569E-01 0.329E-01 -.113E+00
   -.152E+02 0.880E+01 -.834E+03   0.147E+02 -.848E+01 0.835E+03   0.596E+00 -.344E+00 -.711E+00   -.678E-01 0.325E-01 -.113E+00
   0.802E+01 -.463E+01 -.859E+03   -.842E+01 0.486E+01 0.858E+03   0.290E+00 -.168E+00 0.663E+00   0.116E+00 -.664E-01 -.133E+00
   -.580E-04 -.176E+02 -.834E+03   0.447E-04 0.170E+02 0.835E+03   0.452E-11 0.688E+00 -.711E+00   -.538E-02 -.743E-01 -.113E+00
   -.802E+01 -.463E+01 -.859E+03   0.842E+01 0.486E+01 0.858E+03   -.290E+00 -.168E+00 0.663E+00   -.114E+00 -.659E-01 -.133E+00
   -.217E+01 -.125E+01 -.867E+03   0.214E+01 0.124E+01 0.866E+03   -.217E-02 -.125E-02 0.469E+00   0.325E-01 0.186E-01 -.110E+00
   0.217E+01 -.125E+01 -.867E+03   -.214E+01 0.124E+01 0.866E+03   0.217E-02 -.125E-02 0.469E+00   -.323E-01 0.195E-01 -.110E+00
   0.199E-04 0.926E+01 -.859E+03   0.110E-03 -.972E+01 0.858E+03   0.220E-11 0.335E+00 0.663E+00   -.290E-03 0.133E+00 -.133E+00
   0.543E-04 -.380E-04 -.275E+04   -.118E-03 0.789E-04 0.274E+04   0.485E-17 0.168E-17 0.143E+01   0.187E-03 -.305E-04 -.535E-01
   0.290E+02 0.489E+02 -.272E+04   -.291E+02 -.493E+02 0.272E+04   0.529E-01 0.148E+00 0.194E+01   -.182E-02 0.516E-01 -.399E-01
   -.290E+02 0.489E+02 -.272E+04   0.291E+02 -.493E+02 0.272E+04   -.529E-01 0.148E+00 0.194E+01   0.984E-03 0.530E-01 -.396E-01
   0.569E+02 0.637E+00 -.272E+04   -.573E+02 -.579E+00 0.272E+04   0.155E+00 -.283E-01 0.194E+01   0.440E-01 -.272E-01 -.399E-01
   -.569E+02 0.637E+00 -.272E+04   0.573E+02 -.579E+00 0.272E+04   -.155E+00 -.283E-01 0.194E+01   -.448E-01 -.263E-01 -.388E-01
   0.279E+02 -.496E+02 -.272E+04   -.281E+02 0.499E+02 0.272E+04   0.102E+00 -.120E+00 0.194E+01   0.469E-01 -.251E-01 -.397E-01
   -.279E+02 -.496E+02 -.272E+04   0.281E+02 0.499E+02 0.272E+04   -.102E+00 -.120E+00 0.194E+01   -.455E-01 -.256E-01 -.389E-01
   0.213E-04 -.992E-05 -.274E+04   0.107E-03 -.674E-04 0.274E+04   0.241E-17 0.515E-17 0.146E+01   -.640E-02 -.327E-02 -.416E-01
   0.275E-04 -.174E-04 -.221E+04   0.943E-04 0.110E-04 0.221E+04   -.623E-17 0.155E-17 -.253E+01   0.439E-02 0.269E-02 0.588E-01
   0.296E-05 -.743E-04 -.109E+04   0.167E-04 0.216E-06 0.107E+04   0.354E-17 0.213E-17 0.203E+02   0.121E-02 0.741E-03 0.197E-01
   0.242E-03 -.909E-04 -.175E+04   0.819E-05 0.873E-08 0.175E+04   0.918E-19 0.539E-18 -.543E+01   0.384E-02 0.235E-02 -.106E+00
   0.675E-05 -.139E-04 -.329E+03   0.558E-06 -.247E-08 0.338E+03   -.262E-20 -.325E-19 -.822E+01   0.199E-03 0.122E-03 -.154E-01
   0.692E-03 -.857E-03 -.685E+00   -.689E-13 0.565E-15 0.105E-10   -.222E-15 -.878E-16 0.454E-01   0.246E-02 0.490E-02 0.673E+00

 POSITION                                       TOTAL-FORCE (eV/Angst)
      0.00000      0.00000      5.28219        -0.000000      0.000000      0.073971
      2.93046      0.00000      5.28219         0.002770      0.007554      0.014350
      5.86091      0.00000      5.28219        -0.002770      0.007554      0.014350
      1.46523      2.53785      5.28219         0.007927     -0.001378      0.014350
      4.39568      2.53785      5.28219        -0.000000      0.000000     -0.013394
      7.32614      2.53785      5.28219        -0.007927     -0.001378      0.014350
      2.93046      5.07570      5.28219         0.005157     -0.006176      0.014350
      5.86091      5.07570      5.28219        -0.005157     -0.006176      0.014350
      8.79137      5.07570      5.28219        -0.000000     -0.000000      0.049585
      1.46523      0.84595      7.67490         0.017889      0.010328     -0.013401
      4.39568      0.84595      7.67490        -0.000000     -0.035647     -0.088264
      7.32614      0.84595      7.67490        -0.017889      0.010328     -0.013401
      2.93046      3.38380      7.67490        -0.030871      0.017823     -0.088264
      5.86091      3.38380      7.67490         0.030871      0.017823     -0.088264
      8.79137      3.38380      7.67490        -0.000000     -0.007671     -0.003104
      4.39568      5.92165      7.67490        -0.000000     -0.020656     -0.013401
      7.32614      5.92165      7.67490        -0.006643      0.003835     -0.003104
     10.25659      5.92165      7.67490         0.006643      0.003835     -0.003104
      8.79137      1.69432     10.05238        -0.000000     -0.005771     -0.016340
      2.92802      1.69049     10.04000         0.013585      0.007843     -0.114944
      5.86334      1.69049     10.04000        -0.013585      0.007843     -0.114944
     10.25637      4.22988     10.04709         0.005894     -0.003403      0.006611
      4.39568      4.23256     10.04000        -0.000000     -0.015686     -0.114944
      7.32637      4.22988     10.04709        -0.005894     -0.003403      0.006611
     11.71973      6.76639     10.05238         0.004998      0.002886     -0.016340
      5.86300      6.76639     10.05238        -0.004998      0.002886     -0.016340
      8.79137      6.76733     10.04709         0.000000      0.006806      0.006611
      0.00000      0.00000     12.42253        -0.000000      0.000000      0.009333
      2.94245      0.01904     12.42445        -0.097905     -0.174745     -0.006324
      5.84892      0.01904     12.42445         0.097905     -0.174745     -0.006324
      1.48772      2.53872     12.42445        -0.200286      0.002585     -0.006324
      7.30365      2.53872     12.42445         0.200286      0.002585     -0.006324
      2.94095      5.05579     12.42445        -0.102382      0.172161     -0.006324
      5.85042      5.05579     12.42445         0.102382      0.172161     -0.006324
      8.79137      5.07570     12.41807        -0.000000     -0.000000      0.007476
      4.39568      2.53785     12.28633        -0.000000      0.000000      0.479164
      4.39568      2.53785     14.10752        -0.000000     -0.000000      0.049209
      4.39568      2.53785     15.36511        -0.000000     -0.000000     -0.049522
      4.39568      2.53785     16.33484        -0.000000      0.000000      0.034351
    total drift:                                0.003151      0.004045      0.033745

  FREE ENERGIE OF THE ION-ELECTRON SYSTEM (eV)
  free  energy   TOTEN  =      -110.68859785 eV

  energy  without entropy=     -110.68859785  energy(sigma->0) =     -110.68859785

 stress matrix after NEB project (eV)
     -7.00481     -0.00000     -0.00000
     -0.00000     -7.00481     -0.00000
     -0.00000     -0.00000      0.73294
  FORCES: max atom, RMS     0.049522    0.012459
  FORCE total and by dimension    0.077807    0.049522
  Stress total and by dimension    9.933372    7.004808
|           W    W    AA    RRRRR   N    N  II  N    N   GGGG   !!!           |
|           W    W   A  A   R    R  NN   N  II  NN   N  G    G  !!!           |
|           W    W  A    A  R    R  N N  N  II  N N  N  G       !!!           |
|           W WW W  AAAAAA  RRRRR   N  N N  II  N  N N  G  GGG   !            |
|           WW  WW  A    A  R   R   N   NN  II  N   NN  G    G                |
|           W    W  A    A  R    R  N    N  II  N    N   GGGG   !!!           |
|     Tetrahedron method does not include variations of the Fermi             |
|     occupations, so forces and stress will be inaccurate. We suggest        |
|     using a different smearing scheme ISMEAR = 1 or 2 for metals in         |
|     relaxations.                                                            |

 total charge

# of ion       s       p       d       tot
    1        0.412   0.206   9.176   9.795
    2        0.419   0.203   9.177   9.798
    3        0.419   0.203   9.177   9.798
    4        0.419   0.203   9.177   9.798
    5        0.413   0.204   9.177   9.795
    6        0.419   0.203   9.177   9.798
    7        0.419   0.203   9.177   9.798
    8        0.419   0.203   9.177   9.798
    9        0.413   0.206   9.176   9.795
   10        0.408   0.270   9.163   9.841
   11        0.408   0.268   9.165   9.841
   12        0.408   0.270   9.163   9.841
   13        0.408   0.268   9.165   9.841
   14        0.408   0.268   9.165   9.841
   15        0.403   0.270   9.165   9.839
   16        0.408   0.270   9.163   9.841
   17        0.403   0.270   9.165   9.839
   18        0.403   0.270   9.165   9.839
   19        0.408   0.269   9.166   9.843
   20        0.413   0.287   9.156   9.856
   21        0.413   0.287   9.156   9.856
   22        0.402   0.274   9.164   9.840
   23        0.413   0.287   9.156   9.856
   24        0.402   0.274   9.164   9.840
   25        0.408   0.269   9.166   9.843
   26        0.408   0.269   9.166   9.843
   27        0.402   0.274   9.164   9.840
   28        0.420   0.203   9.177   9.800
   29        0.406   0.210   9.183   9.799
   30        0.406   0.210   9.183   9.799
   31        0.406   0.210   9.183   9.799
   32        0.406   0.210   9.183   9.799
   33        0.406   0.210   9.183   9.799
   34        0.406   0.210   9.183   9.799
   35        0.421   0.204   9.177   9.802
   36        0.511   0.634   8.497   9.642
   37        0.949   1.357   0.000   2.305
   38        1.538   3.730   0.000   5.269
   39        0.551   0.126   0.000   0.677
tot         17.898  14.266 329.479 361.642

 BZINTS: Fermi energy:    0.618559;  406.000000 electrons
         Band energy:-0.149807E+04;  BLOECHL correction:   -0.049717