 vasp.6.2.0 18Jan21 (build Jun 12 2021 23:27:24) complex

 executed on             LinuxIFC date 2022.05.30  18:00:55

 INCAR:
   ISMEAR = -5
   SIGMA = 0.1
   ISPIN = 1
   EDIFF = 1.d-5
   EDIFFG = -0.01
   NSW = 0
   NELM = 150
   ENCUT = 500
   ISIF = 2
   IBRION = 2
   LREAL = Auto
   ALGO = Fast
   ICHARG = 11
   LORBIT = 10
   LCHARG = .F.
   LWAVE = .F.

 POTCAR:    PAW_PBE Cu 22Jun2005
 POTCAR:    PAW_PBE Fe 06Sep2000
 POTCAR:    PAW_PBE C 08Apr2002
 POTCAR:    PAW_PBE O 08Apr2002
 POTCAR:    PAW_PBE H 15Jun2001
|           W    W    AA    RRRRR   N    N  II  N    N   GGGG   !!!           |
|           W    W   A  A   R    R  NN   N  II  NN   N  G    G  !!!           |
|           W    W  A    A  R    R  N N  N  II  N N  N  G       !!!           |
|           W WW W  AAAAAA  RRRRR   N  N N  II  N  N N  G  GGG   !            |
|           WW  WW  A    A  R   R   N   NN  II  N   NN  G    G                |
|           W    W  A    A  R    R  N    N  II  N    N   GGGG   !!!           |
|     For optimal performance we recommend to set                             |
|       NCORE = 2 up to number-of-cores-per-socket                            |
|     This setting can greatly improve the performance of VASP for DFT.       |
|     The default, NCORE=1 might be grossly inefficient on modern             |
|     multi-core architectures or massively parallel machines. Do your        |
|     Unfortunately you need to use the default for GW and RPA                |
|     calculations (for HF NCORE is supported but not extensively tested      |
|     yet).                                                                   |

 POTCAR:    PAW_PBE Cu 22Jun2005
   VRHFIN =Cu: d10 p1

   TITEL  = PAW_PBE Cu 22Jun2005
   POMASS =   63.546; ZVAL   =   11.000    mass and valenz
   ENMAX  =  295.446; ENMIN  =  221.585 eV

 POTCAR:    PAW_PBE Fe 06Sep2000
   VRHFIN =Fe:  d7 s1

   TITEL  = PAW_PBE Fe 06Sep2000
   POMASS =   55.847; ZVAL   =    8.000    mass and valenz
   ENMAX  =  267.882; ENMIN  =  200.911 eV

 POTCAR:    PAW_PBE C 08Apr2002
   VRHFIN =C: s2p2

   TITEL  = PAW_PBE C 08Apr2002
   POMASS =   12.011; ZVAL   =    4.000    mass and valenz
   ENMAX  =  400.000; ENMIN  =  300.000 eV

 POTCAR:    PAW_PBE O 08Apr2002
   VRHFIN =O: s2p4

   TITEL  = PAW_PBE O 08Apr2002
   POMASS =   16.000; ZVAL   =    6.000    mass and valenz
   ENMAX  =  400.000; ENMIN  =  300.000 eV

 POTCAR:    PAW_PBE H 15Jun2001
   VRHFIN =H: ultrasoft test

   TITEL  = PAW_PBE H 15Jun2001
   POMASS =    1.000; ZVAL   =    1.000    mass and valenz
   ENMAX  =  250.000; ENMIN  =  200.000 eV

 Optimization of the real space projectors (new method)

 maximal supplied QI-value         = 16.25
 optimisation between [QCUT,QGAM] = [ 11.38, 22.75] = [ 36.24,144.96] Ry
 Optimized for a Real-space Cutoff    1.52 Angstroem

   l    n(q)    QCUT    max X(q) W(low)/X(q) W(high)/X(q)  e(spline)
   2      9    11.376     4.610    0.21E-03    0.10E-03    0.26E-06
   2      9    11.376     8.522    0.33E-03    0.16E-03    0.37E-06
   0     10    11.376    51.609    0.62E-04    0.20E-04    0.13E-06
   0     10    11.376    27.747    0.54E-04    0.20E-04    0.13E-06
   1     10    11.376    20.408    0.13E-04    0.99E-04    0.19E-06
   1     10    11.376    13.425    0.12E-04    0.87E-04    0.17E-06
 Optimization of the real space projectors (new method)

[...]

   l    n(q)    QCUT    max X(q) W(low)/X(q) W(high)/X(q)  e(spline)
   0      7    11.387    20.381    0.39E-03    0.13E-02    0.15E-06
   0      7    11.387    15.268    0.42E-03    0.14E-02    0.17E-06
   1      6    11.387     5.964    0.41E-03    0.11E-02    0.17E-06
   1      6    11.387     5.382    0.39E-03    0.87E-03    0.15E-06
 Optimization of the real space projectors (new method)

 maximal supplied QI-value         = 34.20
 optimisation between [QCUT,QGAM] = [ 11.29, 22.57] = [ 35.68,142.71] Ry
 Optimized for a Real-space Cutoff    1.16 Angstroem

   l    n(q)    QCUT    max X(q) W(low)/X(q) W(high)/X(q)  e(spline)
   0      8    11.287    19.460    0.40E-03    0.73E-03    0.16E-06
   0      8    11.287    12.209    0.38E-03    0.70E-03    0.15E-06
   1      7    11.287     4.655    0.22E-03    0.25E-04    0.22E-06
  PAW_PBE Cu 22Jun2005                  :
  PAW_PBE Fe 06Sep2000                  :
  PAW_PBE C 08Apr2002                   :
  PAW_PBE O 08Apr2002                   :
  PAW_PBE H 15Jun2001                   :

 POSCAR: Cu-Fe-COH
  positions in direct lattice
  velocities in cartesian coordinates
 exchange correlation table for  LEXCH =        8
   RHO(1)=    0.500       N(1)  =     2000
   RHO(2)=  100.500       N(2)  =     4000

 VTST: version 3.2, (02/03/18)

 CHAIN: initializing optimizer

 OPT: Using VASP Conjugate-Gradient optimizer
 CHAIN: Read ICHAIN            0

 POSCAR: Cu-Fe-COH
  positions in direct lattice
  velocities in cartesian coordinates

 ion  position               nearest neighbor table
   1  0.000  0.000  0.206-   7 2.57   3 2.57   4 2.57   2 2.57   6 2.57   8 2.57  12 2.57  10 2.57
                            16 2.57
   2  0.333  0.000  0.206-   8 2.57   9 2.57   5 2.57   1 2.57   3 2.57  11 2.57   4 2.57  10 2.57
                            17 2.57
   3  0.667  0.000  0.206-   1 2.57   7 2.57   6 2.57   9 2.57   2 2.57  12 2.57   5 2.57  18 2.57
                            11 2.57
   4  0.000  0.333  0.206-   5 2.57   6 2.57   1 2.57   7 2.57   2 2.57  13 2.57   9 2.57  10 2.57
                            15 2.57
   5  0.333  0.333  0.206-   4 2.57   2 2.57   7 2.57  13 2.57   8 2.57   6 2.57   3 2.57  11 2.57
                            14 2.57
   6  0.667  0.333  0.206-   4 2.57   9 2.57  15 2.57   3 2.57   1 2.57   8 2.57  14 2.57   5 2.57
                            12 2.57
   7  0.000  0.667  0.206-   1 2.57   3 2.57  16 2.57  18 2.57   4 2.57   5 2.57   8 2.57   9 2.57
                            13 2.57
   8  0.333  0.667  0.206-   9 2.57   2 2.57  17 2.57   6 2.57   1 2.57   7 2.57   5 2.57  14 2.57
                            16 2.57
   9  0.667  0.667  0.206-   8 2.57   6 2.57   2 2.57  17 2.57   3 2.57   7 2.57   4 2.57  15 2.57
                            18 2.57
  10  0.111  0.111  0.286-  20 2.55  26 2.56  19 2.56  11 2.57  12 2.57  13 2.57   1 2.57   2 2.57
                             4 2.57  15 2.57  16 2.57  17 2.57
  11  0.444  0.111  0.286-  20 2.55  21 2.55  27 2.56  10 2.57  13 2.57   2 2.57  17 2.57  14 2.57
                            12 2.57   5 2.57   3 2.57  18 2.57
  12  0.778  0.111  0.286-  21 2.55  19 2.56  25 2.56  15 2.57  10 2.57  14 2.57  18 2.57   3 2.57
                             1 2.57  16 2.57  11 2.57   6 2.57
  13  0.111  0.444  0.286-  23 2.55  20 2.55  22 2.56  16 2.57  18 2.57  10 2.57  11 2.57  14 2.57
                             5 2.57   4 2.57   7 2.57  15 2.57
  14  0.444  0.444  0.286-  21 2.55  23 2.55  24 2.56  15 2.57  17 2.57  12 2.57  16 2.57  13 2.57
                            11 2.57   6 2.57   8 2.57   5 2.57
  15  0.778  0.444  0.286-  19 2.56  24 2.56  22 2.56  14 2.57  17 2.57  12 2.57   6 2.57  18 2.57
                            10 2.57   9 2.57  13 2.57   4 2.57
  16  0.111  0.778  0.286-  23 2.55  25 2.56  26 2.56  18 2.57  13 2.57   7 2.57  14 2.57  17 2.57
                            12 2.57  10 2.57   8 2.57   1 2.57
  17  0.444  0.778  0.286-  26 2.56  27 2.56  24 2.56  14 2.57  15 2.57   8 2.57   9 2.57  11 2.57
                            16 2.57  18 2.57  10 2.57   2 2.57
  18  0.778  0.778  0.286-  25 2.56  22 2.56  27 2.56  16 2.57  13 2.57   7 2.57  15 2.57  12 2.57
                            17 2.57   9 2.57   3 2.57  11 2.57
  19  0.889  0.223  0.366-  28 2.55  15 2.56  12 2.56  10 2.56  22 2.56  24 2.56  32 2.57  31 2.57
                            21 2.57  20 2.57  25 2.57  26 2.57
  20  0.222  0.222  0.365-  36 2.47  11 2.55  13 2.55  10 2.55  29 2.55  31 2.55  23 2.56  21 2.56
                            26 2.57  19 2.57  27 2.57  22 2.57
  21  0.555  0.222  0.365-  36 2.47  14 2.55  11 2.55  12 2.55  32 2.55  30 2.55  20 2.56  23 2.56
                            19 2.57  25 2.57  24 2.57  27 2.57
  22  0.888  0.556  0.366-  35 2.54  31 2.56  33 2.56  18 2.56  15 2.56  24 2.56  27 2.56  13 2.56
                            19 2.56  25 2.56  23 2.57  20 2.57
  23  0.222  0.555  0.365-  36 2.47  13 2.55  14 2.55  16 2.55  33 2.55  34 2.55  20 2.56  21 2.56
                            25 2.57  26 2.57  22 2.57  24 2.57
  24  0.556  0.556  0.366-  35 2.54  32 2.56  34 2.56  15 2.56  17 2.56  22 2.56  27 2.56  14 2.56
                            19 2.56  26 2.56  21 2.57  23 2.57
  25  0.889  0.889  0.366-  28 2.55  18 2.56  16 2.56  12 2.56  22 2.56  27 2.56  33 2.57  30 2.57
                            21 2.57  23 2.57  19 2.57  26 2.57
  26  0.223  0.889  0.366-  28 2.55  17 2.56  10 2.56  16 2.56  27 2.56  24 2.56  29 2.57  34 2.57
                            20 2.57  23 2.57  25 2.57  19 2.57
  27  0.556  0.888  0.366-  35 2.54  29 2.56  30 2.56  17 2.56  18 2.56  24 2.56  22 2.56  11 2.56
                            26 2.56  25 2.56  20 2.57  21 2.57
  28  0.000  0.000  0.445-  25 2.55  19 2.55  26 2.55  33 2.58  30 2.58  31 2.58  29 2.58  32 2.58
                            34 2.58
  29  0.333  0.003  0.445-  31 2.54  30 2.54  36 2.54  20 2.55  27 2.56  26 2.57  28 2.58  35 2.58
                            34 2.61
  30  0.664  0.003  0.445-  32 2.54  29 2.54  36 2.54  21 2.55  27 2.56  25 2.57  28 2.58  35 2.58
                            33 2.61
  31  0.003  0.333  0.445-  29 2.54  33 2.54  36 2.54  20 2.55  22 2.56  19 2.57  28 2.58  35 2.58
                            32 2.61
  32  0.664  0.333  0.445-  30 2.54  34 2.54  36 2.54  21 2.55  24 2.56  19 2.57  28 2.58  35 2.58
                            31 2.61
  33  0.003  0.664  0.445-  34 2.54  31 2.54  36 2.54  23 2.55  22 2.56  25 2.57  28 2.58  35 2.58
                            30 2.61
  34  0.333  0.664  0.445-  33 2.54  32 2.54  36 2.54  23 2.55  24 2.56  26 2.57  28 2.58  35 2.58
                            29 2.61
  35  0.667  0.667  0.445-  24 2.54  27 2.54  22 2.54  34 2.58  32 2.58  29 2.58  30 2.58  33 2.58
                            31 2.58
  36  0.333  0.333  0.441-  37 1.65  23 2.47  20 2.47  21 2.47  31 2.54  29 2.54  33 2.54  34 2.54
                            32 2.54  30 2.54
  37  0.333  0.333  0.504-  38 1.26  36 1.65
  38  0.333  0.333  0.552-  39 0.96  37 1.26
  39  0.333  0.333  0.589-  38 0.96

  LATTYP: Found a hexagonal cell.
 ALAT       =     7.6967864036
 C/A-ratio  =     3.3950614187

  Lattice vectors:

 A1 = (  -3.8483927580,  -6.6656128093,   0.0000000000)
 A2 = (   7.6967864037,   0.0000000000,   0.0000000000)
 A3 = (   0.0000000000,   0.0000000000,  26.1310625667)

Analysis of symmetry for initial positions (statically):
 Subroutine PRICEL returns:
 Original cell was already a primitive cell.

 Routine SETGRP: Setting up the symmetry group for a
 hexagonal supercell.

 Subroutine GETGRP returns: Found  6 space group operations
 (whereof  6 operations were pure point group operations)
 out of a pool of 24 trial point group operations.

The static configuration has the point symmetry C_3v.

Analysis of symmetry for dynamics (positions and initial velocities):
[...]
     41      -3.9452      2.00000
     42      -3.8670      2.00000
     43      -3.8594      2.00000
     44      -3.7811      2.00000
     45      -3.7796      2.00000
     46      -3.7658      2.00000
     47      -3.7379      2.00000
     48      -3.7354      2.00000
     49      -3.7161      2.00000
     50      -3.7008      2.00000
     51      -3.5326      2.00000
     52      -3.5113      2.00000
     53      -3.5079      2.00000
     54      -3.5038      2.00000
     55      -3.4513      2.00000
     56      -3.4467      2.00000
     57      -3.4377      2.00000
     58      -3.4076      2.00000
     59      -3.3997      2.00000
     60      -3.3864      2.00000
[...]
    238       5.1472      0.00000
    239       5.2922      0.00000
    240       5.3790      0.00000
    241       5.4257      0.00000
    242       5.4681      0.00000
    243       5.4810      0.00000
    244       5.6078      0.00000
    245       5.8124      0.00000
    246       5.8241      0.00000
    247       5.8628      0.00000
    248       5.9536      0.00000
    249       6.0921      0.00000
    250       6.2046      0.00000
    251       6.6587      0.00000
    252       6.8270      0.00000

 soft charge-density along one line, spin component           1
         0         1         2         3         4         5         6         7         8         9
 total charge-density along one line

------------------------ aborting loop because EDIFF is reached ----------------------------------------

 total charge

# of ion       s       p       d       tot
    1        0.449   0.284   9.189   9.921
    2        0.449   0.286   9.186   9.921
    3        0.449   0.286   9.186   9.921
    4        0.449   0.286   9.186   9.921
    5        0.448   0.288   9.183   9.919
    6        0.449   0.286   9.186   9.921
    7        0.449   0.286   9.186   9.921
    8        0.449   0.286   9.186   9.921
    9        0.446   0.285   9.188   9.920
   10        0.440   0.371   9.176   9.988
   11        0.443   0.368   9.182   9.993
   12        0.440   0.371   9.176   9.988
   13        0.443   0.368   9.182   9.993
   14        0.443   0.368   9.182   9.993
   15        0.437   0.371   9.177   9.986
   16        0.440   0.371   9.176   9.988
   17        0.437   0.371   9.177   9.986
   18        0.437   0.371   9.177   9.986
   19        0.441   0.369   9.180   9.990
   20        0.458   0.392   9.168  10.018
   21        0.458   0.392   9.168  10.018
   22        0.434   0.378   9.177   9.989
   23        0.458   0.392   9.168  10.018
   24        0.434   0.378   9.177   9.989
   25        0.441   0.369   9.180   9.990
   26        0.441   0.369   9.180   9.990
   27        0.434   0.378   9.177   9.989
   28        0.450   0.284   9.191   9.925
   29        0.443   0.300   9.185   9.928
   30        0.443   0.300   9.185   9.928
   31        0.443   0.300   9.185   9.928
   32        0.443   0.300   9.185   9.928
   33        0.443   0.300   9.185   9.928
   34        0.443   0.300   9.185   9.928
   35        0.446   0.286   9.191   9.924
   36        0.499   0.645   6.525   7.668
   37        0.929   1.441   0.000   2.370
   38        1.525   3.761   0.000   5.286
   39        0.562   0.135   0.000   0.697
tot         19.074  17.670 327.872 364.616

  FORCE on cell =-STRESS in cart. coord.  units (eV):
  Direction    XX          YY          ZZ          XY          YZ          ZX
  Alpha Z   741.16950   741.16950   741.16950
  Ewald  272382.53310272382.53266************     0.00042     0.00012     0.00019
  Hartree285444.79321285444.79317************     0.00005     0.00006     0.00008
  E(xc)   -2333.99153 -2333.99117 -2336.87746    -0.00031    -0.00004    -0.00006
  Local  ************************570812.73096     0.01874    -0.00061    -0.00101
  n-local  -819.29692  -806.92419  -825.93526     6.87382     0.00532     0.13608
  augment  3355.95044  3355.97041  3363.35959    -0.01730     0.00036     0.00071
  Kinetic  3423.49946  3426.35896  3378.71712     3.10797     1.79863    -1.45132
  Fock        0.00000     0.00000     0.00000     0.00000     0.00000     0.00000
  Total      -6.92507    -6.92507     0.58898     0.00000    -0.00000     0.00000
  in kB      -8.27615    -8.27615     0.70389     0.00000    -0.00000     0.00000

 VOLUME and BASIS-vectors are now :
  energy-cutoff  :      500.00
  volume of cell :     1340.62
      direct lattice vectors                 reciprocal lattice vectors
     7.696786404  0.000000000  0.000000000     0.129924354 -0.075011849  0.000000000
     3.848392758  6.665612809  0.000000000     0.000000000  0.150023716  0.000000000
     0.000000000  0.000000000 26.131062567     0.000000000  0.000000000  0.038268631

  length of vectors
     7.696786404  7.696786404 26.131062567     0.150023716  0.150023716  0.038268631

 FORCES acting on ions
    electron-ion (+dipol)            ewald-force                    non-local-force                 convergence-correction
   -.436E-04 -.100E-05 0.395E+04   0.579E-04 -.441E-05 -.395E+04   -.766E-17 0.440E-17 -.290E+01   -.326E-03 -.155E-03 -.330E+00
   0.164E+00 0.218E+00 0.395E+04   -.165E+00 -.201E+00 -.395E+04   0.277E-01 0.816E-01 -.194E+01   -.199E-01 -.777E-01 -.279E+00
   -.164E+00 0.218E+00 0.395E+04   0.165E+00 -.201E+00 -.395E+04   -.277E-01 0.816E-01 -.194E+01   0.207E-01 -.753E-01 -.278E+00
   0.271E+00 0.335E-01 0.395E+04   -.256E+00 -.424E-01 -.395E+04   0.845E-01 -.168E-01 -.194E+01   -.772E-01 0.216E-01 -.279E+00
   -.705E-04 -.855E-05 0.395E+04   0.116E-03 -.101E-04 -.395E+04   -.317E-18 0.310E-19 -.168E+01   0.121E-01 0.738E-02 -.276E+00
   -.271E+00 0.336E-01 0.395E+04   0.256E+00 -.426E-01 -.395E+04   -.845E-01 -.168E-01 -.194E+01   0.757E-01 0.228E-01 -.278E+00
   0.106E+00 -.251E+00 0.395E+04   -.915E-01 0.243E+00 -.395E+04   0.568E-01 -.648E-01 -.194E+01   -.548E-01 0.555E-01 -.278E+00
   -.106E+00 -.251E+00 0.395E+04   0.912E-01 0.243E+00 -.395E+04   -.568E-01 -.648E-01 -.194E+01   0.582E-01 0.541E-01 -.278E+00
   -.146E-03 -.339E-04 0.395E+04   0.263E-03 0.206E-04 -.395E+04   0.134E-17 -.125E-17 -.249E+01   -.131E-01 -.675E-02 -.268E+00
   0.256E+01 0.148E+01 0.138E+04   -.205E+01 -.119E+01 -.138E+04   -.456E+00 -.264E+00 -.101E+01   -.454E-01 -.262E-01 -.299E+00
   -.888E-04 0.250E+01 0.138E+04   0.189E-03 -.240E+01 -.138E+04   -.736E-08 0.111E+00 -.596E+00   0.118E-01 -.224E+00 -.289E+00
   -.256E+01 0.148E+01 0.138E+04   0.205E+01 -.119E+01 -.138E+04   0.456E+00 -.264E+00 -.101E+01   0.440E-01 -.257E-01 -.300E+00
   0.216E+01 -.125E+01 0.138E+04   -.208E+01 0.120E+01 -.138E+04   0.957E-01 -.553E-01 -.596E+00   -.188E+00 0.123E+00 -.289E+00
   -.216E+01 -.125E+01 0.138E+04   0.208E+01 0.120E+01 -.138E+04   -.957E-01 -.553E-01 -.596E+00   0.211E+00 0.121E+00 -.292E+00
   -.142E-03 0.213E+00 0.138E+04   0.299E-03 -.362E+00 -.138E+04   -.505E-08 0.758E-01 -.977E+00   -.297E-02 0.615E-01 -.334E+00
   -.907E-04 -.295E+01 0.138E+04   0.185E-03 0.237E+01 -.138E+04   -.351E-07 0.527E+00 -.101E+01   -.116E-02 0.497E-01 -.300E+00
   0.184E+00 -.107E+00 0.138E+04   -.313E+00 0.181E+00 -.138E+04   0.656E-01 -.379E-01 -.977E+00   0.525E-01 -.333E-01 -.335E+00
   -.184E+00 -.107E+00 0.138E+04   0.313E+00 0.181E+00 -.138E+04   -.656E-01 -.379E-01 -.977E+00   -.509E-01 -.311E-01 -.332E+00
   -.596E-04 0.928E+00 -.122E+04   0.672E-04 -.926E+00 0.122E+04   -.361E-09 0.543E-02 0.865E+00   0.132E-02 -.421E-02 -.350E+00
   -.662E-01 -.382E-01 -.121E+04   0.127E+01 0.736E+00 0.121E+04   -.111E+01 -.639E+00 -.118E+01   -.182E+00 -.105E+00 -.409E+00
   0.662E-01 -.381E-01 -.121E+04   -.127E+01 0.735E+00 0.121E+04   0.111E+01 -.639E+00 -.118E+01   0.160E+00 -.107E+00 -.409E+00
   -.150E+01 0.864E+00 -.122E+04   0.128E+01 -.741E+00 0.122E+04   0.351E+00 -.202E+00 0.710E+00   -.645E-01 0.507E-01 -.394E+00
   -.760E-04 0.763E-01 -.121E+04   0.142E-03 -.147E+01 0.121E+04   -.851E-07 0.128E+01 -.118E+01   -.137E-01 0.191E+00 -.409E+00
   0.150E+01 0.864E+00 -.122E+04   -.128E+01 -.741E+00 0.122E+04   -.351E+00 -.202E+00 0.710E+00   0.881E-01 0.500E-01 -.394E+00
   -.804E+00 -.464E+00 -.122E+04   0.801E+00 0.463E+00 0.122E+04   -.470E-02 -.271E-02 0.865E+00   0.168E-02 0.986E-03 -.351E+00
   0.804E+00 -.464E+00 -.122E+04   -.802E+00 0.463E+00 0.122E+04   0.470E-02 -.271E-02 0.865E+00   -.264E-02 0.345E-02 -.349E+00
   -.129E-03 -.173E+01 -.122E+04   0.243E-03 0.148E+01 0.122E+04   -.270E-07 0.405E+00 0.710E+00   0.115E-01 -.813E-01 -.394E+00
   -.319E-04 0.178E-04 -.379E+04   0.317E-04 -.353E-04 0.379E+04   0.321E-17 0.475E-17 0.208E+01   0.141E-02 0.864E-03 0.116E+00
   0.173E+02 0.305E+02 -.377E+04   -.171E+02 -.305E+02 0.376E+04   -.140E+00 0.993E-02 0.274E+01   -.940E-01 -.161E+00 0.677E-01
   -.173E+02 0.305E+02 -.377E+04   0.171E+02 -.305E+02 0.376E+04   0.140E+00 0.993E-02 0.274E+01   0.728E-01 -.160E+00 0.671E-01
   0.351E+02 -.271E+00 -.377E+04   -.349E+02 0.393E+00 0.376E+04   -.614E-01 -.126E+00 0.274E+01   -.187E+00 -.906E-03 0.677E-01
   -.351E+02 -.271E+00 -.377E+04   0.349E+02 0.393E+00 0.376E+04   0.614E-01 -.126E+00 0.274E+01   0.165E+00 -.170E-03 0.692E-01
   0.178E+02 -.302E+02 -.377E+04   -.178E+02 0.301E+02 0.376E+04   0.786E-01 0.116E+00 0.274E+01   -.102E+00 0.143E+00 0.671E-01
   -.178E+02 -.302E+02 -.377E+04   0.178E+02 0.301E+02 0.376E+04   -.786E-01 0.116E+00 0.274E+01   0.829E-01 0.143E+00 0.693E-01
   -.135E-03 -.186E-04 -.379E+04   0.258E-03 0.731E-05 0.379E+04   -.650E-17 -.620E-17 0.234E+01   -.108E-01 -.544E-02 0.193E+00
   -.695E-04 -.310E-04 -.249E+04   0.105E-03 0.189E-04 0.249E+04   -.471E-17 -.210E-17 0.317E+01   0.477E-02 0.288E-02 -.502E-02
   -.429E-05 -.710E-04 -.154E+04   0.146E-04 0.642E-05 0.152E+04   -.748E-18 0.630E-18 0.199E+02   0.125E-02 0.749E-03 0.136E+00
   0.230E-03 -.707E-04 -.237E+04   0.312E-05 0.299E-05 0.237E+04   -.897E-19 0.221E-18 -.465E+01   0.339E-02 0.207E-02 0.151E+00
   0.283E-05 -.143E-04 -.425E+03   0.755E-07 0.196E-06 0.434E+03   -.296E-20 -.505E-20 -.858E+01   0.176E-03 0.107E-03 0.223E-01
   -.111E-03 -.212E-03 0.231E+01   0.149E-13 0.332E-12 -.140E-10   -.428E-15 0.131E-15 0.538E+01   -.292E-01 -.197E-01 -.775E+01

 POSITION                                       TOTAL-FORCE (eV/Angst)
      0.00000      0.00000      5.37156        -0.000000     -0.000000      0.020690
      2.56560      0.00000      5.37156         0.007583      0.021664      0.085812
      5.13119      0.00000      5.37156        -0.007583      0.021664      0.085812
      1.28280      2.22187      5.37156         0.022553     -0.004265      0.085812
      3.84839      2.22187      5.37156        -0.000000     -0.000000      0.088886
      6.41399      2.22187      5.37156        -0.022553     -0.004265      0.085812
      2.56560      4.44374      5.37156         0.014970     -0.017399      0.085812
      5.13119      4.44374      5.37156        -0.014970     -0.017399      0.085812
      7.69679      4.44374      5.37156        -0.000000     -0.000000      0.047713
      1.28280      0.74062      7.46636         0.001517      0.000876     -0.065948
      3.84839      0.74062      7.46636         0.000000     -0.024178     -0.103523
      6.41399      0.74062      7.46636        -0.001517      0.000876     -0.065948
      2.56560      2.96249      7.46636        -0.020939      0.012089     -0.103523
      5.13119      2.96249      7.46636         0.020939      0.012089     -0.103523
      7.69679      2.96249      7.46636         0.000000     -0.011955     -0.033823
      3.84839      5.18437      7.46636         0.000000     -0.001752     -0.065948
      6.41399      5.18437      7.46636        -0.010353      0.005978     -0.033823
      8.97958      5.18437      7.46636         0.010353      0.005978     -0.033823
      7.69679      1.48386      9.55425        -0.000000      0.004904      0.059293
      2.56752      1.48236      9.54187        -0.069985     -0.040406     -0.245054
      5.12927      1.48236      9.54187         0.069985     -0.040406     -0.245054
      8.97669      3.70479      9.55452         0.060306     -0.034818      0.015523
      3.84839      3.70090      9.54187        -0.000000      0.080812     -0.245054
      6.41688      3.70479      9.55452        -0.060306     -0.034818      0.015523
     10.26012      5.92368      9.55425        -0.004247     -0.002452      0.059293
      5.13345      5.92368      9.55425         0.004247     -0.002452      0.059293
      7.69679      5.92165      9.55452        -0.000000      0.069635      0.015523
      0.00000      0.00000     11.62539        -0.000000     -0.000000     -0.041536
      2.57645      0.02208     11.63568        -0.053090     -0.094199     -0.046108
      5.12034      0.02208     11.63568         0.053090     -0.094199     -0.046108
      1.30734      2.22023     11.63568        -0.108124      0.001122     -0.046108
      6.38944      2.22023     11.63568         0.108124      0.001122     -0.046108
      2.57929      4.42331     11.63568        -0.055034      0.093077     -0.046108
      5.11749      4.42331     11.63568         0.055034      0.093077     -0.046108
      7.69679      4.44374     11.62587        -0.000000     -0.000000     -0.015621
      3.84839      2.22187     11.51524        -0.000000     -0.000000      0.795372
      3.84839      2.22187     13.16387        -0.000000     -0.000000      0.001946
      3.84839      2.22187     14.42839        -0.000000     -0.000000     -0.003410
      3.84839      2.22187     15.38768        -0.000000     -0.000000     -0.011667
    total drift:                               -0.029340     -0.019937     -0.054656

  FREE ENERGIE OF THE ION-ELECTRON SYSTEM (eV)
  free  energy   TOTEN  =      -147.41813007 eV

  energy  without entropy=     -147.41813007  energy(sigma->0) =     -147.41813007

 stress matrix after NEB project (eV)
     -6.92507      0.00000      0.00000
      0.00000     -6.92507     -0.00000
     -0.00000     -0.00000      0.58898
  FORCES: max atom, RMS     0.011667    0.001971
  FORCE total and by dimension    0.012309    0.011667
  Stress total and by dimension    9.811228    6.925074
|           W    W    AA    RRRRR   N    N  II  N    N   GGGG   !!!           |
|           W    W   A  A   R    R  NN   N  II  NN   N  G    G  !!!           |
|           W    W  A    A  R    R  N N  N  II  N N  N  G       !!!           |
|           W WW W  AAAAAA  RRRRR   N  N N  II  N  N N  G  GGG   !            |
|           WW  WW  A    A  R   R   N   NN  II  N   NN  G    G                |
|           W    W  A    A  R    R  N    N  II  N    N   GGGG   !!!           |
|     Tetrahedron method does not include variations of the Fermi             |
|     occupations, so forces and stress will be inaccurate. We suggest        |
|     using a different smearing scheme ISMEAR = 1 or 2 for metals in         |
|     relaxations.                                                            |

 total charge

# of ion       s       p       d       tot
    1        0.449   0.284   9.189   9.921
    2        0.449   0.286   9.186   9.921
    3        0.449   0.286   9.186   9.921
    4        0.449   0.286   9.186   9.921
    5        0.448   0.288   9.183   9.919
    6        0.449   0.286   9.186   9.921
    7        0.449   0.286   9.186   9.921
    8        0.449   0.286   9.186   9.921
    9        0.446   0.285   9.188   9.920
   10        0.440   0.371   9.176   9.988
   11        0.443   0.368   9.182   9.993
   12        0.440   0.371   9.176   9.988
   13        0.443   0.368   9.182   9.993
   14        0.443   0.368   9.182   9.993
   15        0.437   0.371   9.177   9.986
   16        0.440   0.371   9.176   9.988
   17        0.437   0.371   9.177   9.986
   18        0.437   0.371   9.177   9.986
   19        0.441   0.369   9.180   9.990
   20        0.458   0.392   9.168  10.018
   21        0.458   0.392   9.168  10.018
   22        0.434   0.378   9.177   9.989
   23        0.458   0.392   9.168  10.018
   24        0.434   0.378   9.177   9.989
   25        0.441   0.369   9.180   9.990
   26        0.441   0.369   9.180   9.990
   27        0.434   0.378   9.177   9.989
   28        0.450   0.284   9.191   9.925
   29        0.443   0.300   9.185   9.928
   30        0.443   0.300   9.185   9.928
   31        0.443   0.300   9.185   9.928
   32        0.443   0.300   9.185   9.928
   33        0.443   0.300   9.185   9.928
   34        0.443   0.300   9.185   9.928
   35        0.446   0.286   9.191   9.924
   36        0.499   0.645   6.525   7.668
   37        0.929   1.441   0.000   2.370
   38        1.525   3.761   0.000   5.286
   39        0.562   0.135   0.000   0.697
tot         19.074  17.670 327.872 364.616

 BZINTS: Fermi energy:   -0.093751;  404.000000 electrons
         Band energy:-0.125462E+04;  BLOECHL correction:   -0.045595