 vasp.6.2.0 18Jan21 (build Jun 12 2021 23:27:24) complex

 executed on             LinuxIFC date 2022.05.27  06:08:48

 INCAR:
   ISMEAR = -5
   SIGMA = 0.1
   ISPIN = 1
   EDIFF = 1.d-5
   EDIFFG = -0.01
   NSW = 0
   NELM = 150
   ENCUT = 500
   ISIF = 2
   IBRION = 2
   LREAL = Auto
   ALGO = Fast
   ICHARG = 11
   LORBIT = 10
   LCHARG = .F.
   LWAVE = .F.

 POTCAR:    PAW_PBE Cu 22Jun2005
 POTCAR:    PAW_PBE Nb_sv 25May2007
 POTCAR:    PAW_PBE O 08Apr2002
 POTCAR:    PAW_PBE H 15Jun2001
|           W    W    AA    RRRRR   N    N  II  N    N   GGGG   !!!           |
|           W    W   A  A   R    R  NN   N  II  NN   N  G    G  !!!           |
|           W    W  A    A  R    R  N N  N  II  N N  N  G       !!!           |
|           W WW W  AAAAAA  RRRRR   N  N N  II  N  N N  G  GGG   !            |
|           WW  WW  A    A  R   R   N   NN  II  N   NN  G    G                |
|           W    W  A    A  R    R  N    N  II  N    N   GGGG   !!!           |
|     For optimal performance we recommend to set                             |
|       NCORE = 2 up to number-of-cores-per-socket                            |
|     This setting can greatly improve the performance of VASP for DFT.       |
|     The default, NCORE=1 might be grossly inefficient on modern             |
|     multi-core architectures or massively parallel machines. Do your        |
|     Unfortunately you need to use the default for GW and RPA                |
|     calculations (for HF NCORE is supported but not extensively tested      |
|     yet).                                                                   |

 POTCAR:    PAW_PBE Cu 22Jun2005
   VRHFIN =Cu: d10 p1

   TITEL  = PAW_PBE Cu 22Jun2005
   POMASS =   63.546; ZVAL   =   11.000    mass and valenz
   ENMAX  =  295.446; ENMIN  =  221.585 eV

 POTCAR:    PAW_PBE Nb_sv 25May2007
   VRHFIN =Nb: 4p5s4d

   TITEL  = PAW_PBE Nb_sv 25May2007
   POMASS =   92.910; ZVAL   =   13.000    mass and valenz
   ENMAX  =  293.235; ENMIN  =  219.927 eV

 POTCAR:    PAW_PBE O 08Apr2002
   VRHFIN =O: s2p4

   TITEL  = PAW_PBE O 08Apr2002
   POMASS =   16.000; ZVAL   =    6.000    mass and valenz
   ENMAX  =  400.000; ENMIN  =  300.000 eV

 POTCAR:    PAW_PBE H 15Jun2001
   VRHFIN =H: ultrasoft test

   TITEL  = PAW_PBE H 15Jun2001
   POMASS =    1.000; ZVAL   =    1.000    mass and valenz
   ENMAX  =  250.000; ENMIN  =  200.000 eV

 Optimization of the real space projectors (new method)

 maximal supplied QI-value         = 16.25
 optimisation between [QCUT,QGAM] = [ 11.38, 22.75] = [ 36.24,144.96] Ry
 Optimized for a Real-space Cutoff    1.52 Angstroem

   l    n(q)    QCUT    max X(q) W(low)/X(q) W(high)/X(q)  e(spline)
   2      9    11.376     4.610    0.21E-03    0.10E-03    0.26E-06
   2      9    11.376     8.522    0.33E-03    0.16E-03    0.37E-06
   0     10    11.376    51.609    0.62E-04    0.20E-04    0.13E-06
   0     10    11.376    27.747    0.54E-04    0.20E-04    0.13E-06
   1     10    11.376    20.408    0.13E-04    0.99E-04    0.19E-06
   1     10    11.376    13.425    0.12E-04    0.87E-04    0.17E-06
 Optimization of the real space projectors (new method)

[...]

   l    n(q)    QCUT    max X(q) W(low)/X(q) W(high)/X(q)  e(spline)
   0      7    11.387    20.381    0.39E-03    0.13E-02    0.15E-06
   0      7    11.387    15.268    0.42E-03    0.14E-02    0.17E-06
   1      6    11.387     5.964    0.41E-03    0.11E-02    0.17E-06
   1      6    11.387     5.382    0.39E-03    0.87E-03    0.15E-06
 Optimization of the real space projectors (new method)

 maximal supplied QI-value         = 34.20
 optimisation between [QCUT,QGAM] = [ 11.29, 22.57] = [ 35.68,142.71] Ry
 Optimized for a Real-space Cutoff    1.16 Angstroem

   l    n(q)    QCUT    max X(q) W(low)/X(q) W(high)/X(q)  e(spline)
   0      8    11.287    19.460    0.40E-03    0.73E-03    0.16E-06
   0      8    11.287    12.209    0.38E-03    0.70E-03    0.15E-06
   1      7    11.287     4.655    0.22E-03    0.25E-04    0.22E-06
  PAW_PBE Cu 22Jun2005                  :
  PAW_PBE Nb_sv 25May2007               :
  PAW_PBE O 08Apr2002                   :
  PAW_PBE H 15Jun2001                   :

 POSCAR: Cu-Nb-OH
  positions in direct lattice
  velocities in cartesian coordinates
 exchange correlation table for  LEXCH =        8
   RHO(1)=    0.500       N(1)  =     2000
   RHO(2)=  100.500       N(2)  =     4000

 VTST: version 3.2, (02/03/18)

 CHAIN: initializing optimizer

 OPT: Using VASP Conjugate-Gradient optimizer
 CHAIN: Read ICHAIN            0

 POSCAR: Cu-Nb-OH
  positions in direct lattice
  velocities in cartesian coordinates

 ion  position               nearest neighbor table
   1  0.000  0.000  0.252-   7 2.57   3 2.57   4 2.57   2 2.57   6 2.57   8 2.57  12 2.57  10 2.57
                            16 2.57
   2  0.333  0.000  0.252-   8 2.57   9 2.57   5 2.57   1 2.57   3 2.57  11 2.57   4 2.57  10 2.57
                            17 2.57
   3  0.667  0.000  0.252-   1 2.57   7 2.57   6 2.57   9 2.57   2 2.57  12 2.57   5 2.57  18 2.57
                            11 2.57
   4  0.000  0.333  0.252-   5 2.57   6 2.57   1 2.57   7 2.57   2 2.57  13 2.57   9 2.57  10 2.57
                            15 2.57
   5  0.333  0.333  0.252-   4 2.57   2 2.57   7 2.57  13 2.57   8 2.57   6 2.57   3 2.57  11 2.57
                            14 2.57
   6  0.667  0.333  0.252-   4 2.57   9 2.57  15 2.57   3 2.57   1 2.57   8 2.57  14 2.57   5 2.57
                            12 2.57
   7  0.000  0.667  0.252-   1 2.57   3 2.57  16 2.57  18 2.57   4 2.57   5 2.57   8 2.57   9 2.57
                            13 2.57
   8  0.333  0.667  0.252-   9 2.57   2 2.57  17 2.57   6 2.57   1 2.57   7 2.57   5 2.57  14 2.57
                            16 2.57
   9  0.667  0.667  0.252-   8 2.57   6 2.57   2 2.57  17 2.57   3 2.57   7 2.57   4 2.57  15 2.57
                            18 2.57
  10  0.111  0.111  0.351-  26 2.55  19 2.55  11 2.57  12 2.57  13 2.57   1 2.57   2 2.57   4 2.57
                            15 2.57  16 2.57  17 2.57  20 2.57
  11  0.444  0.111  0.351-  20 2.57  21 2.57  10 2.57  13 2.57   2 2.57  17 2.57  14 2.57  12 2.57
                             5 2.57   3 2.57  18 2.57  27 2.57
  12  0.778  0.111  0.351-  19 2.55  25 2.55  15 2.57  10 2.57  14 2.57  18 2.57   3 2.57   1 2.57
                            16 2.57  11 2.57   6 2.57  21 2.57
  13  0.111  0.444  0.351-  23 2.57  20 2.57  16 2.57  18 2.57  10 2.57  11 2.57  14 2.57   5 2.57
                             4 2.57   7 2.57  15 2.57  22 2.57
  14  0.444  0.444  0.351-  21 2.57  23 2.57  15 2.57  17 2.57  12 2.57  16 2.57  13 2.57  11 2.57
                             6 2.57   8 2.57   5 2.57  24 2.57
  15  0.778  0.444  0.351-  19 2.55  14 2.57  17 2.57  12 2.57   6 2.57  18 2.57  10 2.57   9 2.57
                            13 2.57   4 2.57  24 2.57  22 2.57
  16  0.111  0.778  0.351-  25 2.55  26 2.55  18 2.57  13 2.57   7 2.57  14 2.57  17 2.57  12 2.57
                            10 2.57   8 2.57   1 2.57  23 2.57
  17  0.444  0.778  0.351-  26 2.55  14 2.57  15 2.57   8 2.57   9 2.57  11 2.57  16 2.57  18 2.57
                            10 2.57   2 2.57  27 2.57  24 2.57
  18  0.778  0.778  0.351-  25 2.55  16 2.57  13 2.57   7 2.57  15 2.57  12 2.57  17 2.57   9 2.57
                             3 2.57  11 2.57  22 2.57  27 2.57
  19  0.889  0.222  0.448-  12 2.55  10 2.55  15 2.55  25 2.56  26 2.56  21 2.57  20 2.57  22 2.57
                            24 2.57  28 2.57  32 2.58  31 2.58
  20  0.222  0.222  0.449-  23 2.56  21 2.56  11 2.57  13 2.57  10 2.57  26 2.57  19 2.57  27 2.57
                            22 2.57  29 2.59  31 2.59  36 2.66
  21  0.555  0.222  0.449-  20 2.56  23 2.56  14 2.57  11 2.57  12 2.57  19 2.57  25 2.57  24 2.57
                            27 2.57  32 2.59  30 2.59  36 2.66
  22  0.889  0.556  0.449-  24 2.56  27 2.56  18 2.57  15 2.57  23 2.57  20 2.57  19 2.57  25 2.57
                            13 2.57  35 2.57  31 2.57  33 2.57
  23  0.222  0.555  0.449-  20 2.56  21 2.56  13 2.57  14 2.57  16 2.57  25 2.57  26 2.57  22 2.57
                            24 2.57  33 2.59  34 2.59  36 2.66
  24  0.556  0.556  0.449-  22 2.56  27 2.56  15 2.57  17 2.57  21 2.57  23 2.57  19 2.57  26 2.57
                            14 2.57  35 2.57  32 2.57  34 2.57
  25  0.889  0.889  0.448-  12 2.55  16 2.55  18 2.55  19 2.56  26 2.56  21 2.57  23 2.57  22 2.57
                            27 2.57  28 2.57  33 2.58  30 2.58
  26  0.222  0.889  0.448-  10 2.55  16 2.55  17 2.55  25 2.56  19 2.56  20 2.57  23 2.57  27 2.57
                            24 2.57  28 2.57  29 2.58  34 2.58
  27  0.556  0.889  0.449-  24 2.56  22 2.56  17 2.57  18 2.57  20 2.57  21 2.57  26 2.57  25 2.57
                            11 2.57  35 2.57  29 2.57  30 2.57
  28  0.000  0.000  0.547-  33 2.55  30 2.55  31 2.55  29 2.55  32 2.55  34 2.55  25 2.57  19 2.57
                            26 2.57
  29  0.334  0.996  0.548-  34 2.51  35 2.55  28 2.55  27 2.57  26 2.58  20 2.59  30 2.59  36 2.60
                            31 2.60
  30  0.670  0.996  0.548-  33 2.51  35 2.55  28 2.55  27 2.57  25 2.58  21 2.59  29 2.59  36 2.60
                            32 2.60
  31  0.996  0.334  0.548-  32 2.51  35 2.55  28 2.55  22 2.57  19 2.58  20 2.59  33 2.59  36 2.60
                            29 2.60
  32  0.670  0.334  0.548-  31 2.51  35 2.55  28 2.55  24 2.57  19 2.58  21 2.59  34 2.59  36 2.60
                            30 2.60
  33  0.996  0.670  0.548-  30 2.51  35 2.55  28 2.55  22 2.57  25 2.58  23 2.59  31 2.59  36 2.60
                            34 2.60
  34  0.334  0.670  0.548-  29 2.51  35 2.55  28 2.55  24 2.57  26 2.58  23 2.59  32 2.59  36 2.60
                            33 2.60
  35  0.667  0.667  0.548-  34 2.55  32 2.55  29 2.55  30 2.55  33 2.55  31 2.55  24 2.57  27 2.57
                            22 2.57
  36  0.333  0.333  0.553-  37 1.88  31 2.60  29 2.60  33 2.60  32 2.60  34 2.60  30 2.60  23 2.66
                            20 2.66  21 2.66
  37  0.333  0.333  0.641-  38 0.97  36 1.88
  38  0.333  0.333  0.687-  37 0.97

  LATTYP: Found a hexagonal cell.
 ALAT       =     7.6967864036
 C/A-ratio  =     2.7653617908

  Lattice vectors:

 A1 = (  -3.8483927580,  -6.6656128093,   0.0000000000)
 A2 = (   7.6967864037,   0.0000000000,   0.0000000000)
 A3 = (   0.0000000000,   0.0000000000,  21.2843990326)

Analysis of symmetry for initial positions (statically):
 Subroutine PRICEL returns:
 Original cell was already a primitive cell.

 Routine SETGRP: Setting up the symmetry group for a
 hexagonal supercell.

 Subroutine GETGRP returns: Found  6 space group operations
 (whereof  6 operations were pure point group operations)
 out of a pool of 24 trial point group operations.

The static configuration has the point symmetry C_3v.

Analysis of symmetry for dynamics (positions and initial velocities):
 Subroutine PRICEL returns:
 Original cell was already a primitive cell.

[...]

The dynamic configuration has the point symmetry C_3v.

Analysis of constrained symmetry for selective dynamics:
 Subroutine PRICEL returns:
 Original cell was already a primitive cell.

[...]
     33      -3.7101      2.00000
     34      -3.6911      2.00000
     35      -3.6793      2.00000
     36      -3.6322      2.00000
     37      -3.6177      2.00000
     38      -3.6159      2.00000
     39      -3.6080      2.00000
     40      -3.5983      2.00000
     41      -3.5492      2.00000
     42      -3.5174      2.00000
     43      -3.4560      2.00000
     44      -3.4387      2.00000
     45      -3.3066      2.00000
     46      -3.3024      2.00000
     47      -3.2329      2.00000
     48      -3.2228      2.00000
     49      -3.2110      2.00000
     50      -3.1947      2.00000
     51      -3.1871      2.00000
     52      -3.1760      2.00000
     53      -3.1636      2.00000
     54      -3.0239      2.00000
     55      -2.9931      2.00000
     56      -2.9826      2.00000
     57      -2.9678      2.00000
     58      -2.9222      2.00000
     59      -2.9056      2.00000
     60      -2.8950      2.00000
[...]
    238       6.0870      0.00000
    239       6.2819      0.00000
    240       6.3401      0.00000
    241       6.5116      0.00000
    242       6.5375      0.00000
    243       6.7499      0.00000
    244       6.9137      0.00000
    245       6.9440      0.00000
    246       6.9740      0.00000
    247       7.1178      0.00000
    248       7.1296      0.00000
    249       7.3346      0.00000
    250       7.4719      0.00000
    251       7.7284      0.00000
    252       7.7940      0.00000

 soft charge-density along one line, spin component           1
         0         1         2         3         4         5         6         7         8         9
 total charge-density along one line

------------------------ aborting loop because EDIFF is reached ----------------------------------------

 total charge

# of ion       s       p       d       tot
    1        0.450   0.284   9.188   9.922
    2        0.448   0.286   9.185   9.919
    3        0.448   0.286   9.185   9.919
    4        0.448   0.286   9.185   9.919
    5        0.448   0.285   9.182   9.914
    6        0.448   0.286   9.185   9.919
    7        0.448   0.286   9.185   9.919
    8        0.448   0.286   9.185   9.919
    9        0.448   0.285   9.187   9.921
   10        0.443   0.371   9.177   9.991
   11        0.440   0.366   9.181   9.987
   12        0.443   0.371   9.177   9.991
   13        0.440   0.366   9.181   9.987
   14        0.440   0.366   9.181   9.987
   15        0.438   0.371   9.177   9.986
   16        0.443   0.371   9.177   9.991
   17        0.438   0.371   9.177   9.986
   18        0.438   0.371   9.177   9.986
   19        0.444   0.368   9.182   9.994
   20        0.465   0.392   9.158  10.015
   21        0.465   0.392   9.158  10.015
   22        0.432   0.374   9.177   9.983
   23        0.465   0.392   9.158  10.015
   24        0.432   0.374   9.177   9.983
   25        0.444   0.368   9.182   9.994
   26        0.444   0.368   9.182   9.994
   27        0.432   0.374   9.177   9.983
   28        0.452   0.296   9.179   9.926
   29        0.477   0.319   9.167   9.963
   30        0.477   0.319   9.167   9.963
   31        0.477   0.319   9.167   9.963
   32        0.477   0.319   9.167   9.963
   33        0.477   0.319   9.167   9.963
   34        0.477   0.319   9.167   9.963
   35        0.446   0.302   9.177   9.925
   36        2.225   6.038   2.356  10.619
   37        1.562   3.555   0.000   5.116
   38        0.606   0.124   0.000   0.731
tot         20.177  21.524 323.541 365.241

  FORCE on cell =-STRESS in cart. coord.  units (eV):
  Direction    XX          YY          ZZ          XY          YZ          ZX
  Alpha Z   915.05986   915.05986   915.05986
  Ewald  174266.07950174266.07899************     0.00042     0.00012     0.00021
  Hartree187753.89940187753.89933************     0.00005     0.00006     0.00008
  E(xc)   -2339.12825 -2339.12782 -2342.85038    -0.00038    -0.00004    -0.00007
  Local  ************************375353.53196     0.01869    -0.00061    -0.00102
  n-local  -795.84159  -785.51601  -795.95317     5.86770    -0.39788     0.33287
  augment  3333.39899  3333.41894  3352.05236    -0.01728     0.00026     0.00050
  Kinetic  3532.86834  3536.38792  3515.13018     2.52231     2.11073    -1.47277
  Fock        0.00000     0.00000     0.00000     0.00000     0.00000     0.00000
  Total      -4.83862    -4.83863    -0.28541     0.00000     0.00000    -0.00000
  in kB      -7.09940    -7.09940    -0.41876     0.00000     0.00000    -0.00000

 VOLUME and BASIS-vectors are now :
  energy-cutoff  :      500.00
  volume of cell :     1091.97
      direct lattice vectors                 reciprocal lattice vectors
     7.696786404  0.000000000  0.000000000     0.129924354 -0.075011849  0.000000000
     3.848392758  6.665612809  0.000000000     0.000000000  0.150023716  0.000000000
     0.000000000  0.000000000 21.284399033     0.000000000  0.000000000  0.046982769

  length of vectors
     7.696786404  7.696786404 21.284399033     0.150023716  0.150023716  0.046982769

 FORCES acting on ions
    electron-ion (+dipol)            ewald-force                    non-local-force                 convergence-correction
   -.413E-04 0.321E-06 0.352E+04   0.578E-04 -.436E-05 -.352E+04   0.870E-17 0.403E-18 -.230E+01   -.336E-03 -.161E-03 -.320E+00
   -.514E+00 -.204E+00 0.352E+04   0.401E+00 -.481E-01 -.352E+04   0.161E-01 0.110E+00 -.189E+01   0.990E-01 0.144E+00 -.166E+00
   0.514E+00 -.204E+00 0.352E+04   -.401E+00 -.482E-01 -.352E+04   -.161E-01 0.110E+00 -.189E+01   -.982E-01 0.147E+00 -.165E+00
   -.433E+00 -.343E+00 0.352E+04   0.159E+00 0.371E+00 -.352E+04   0.104E+00 -.412E-01 -.189E+01   0.175E+00 0.135E-01 -.166E+00
   -.658E-04 -.579E-05 0.352E+04   0.116E-03 -.101E-04 -.352E+04   -.443E-17 0.448E-18 -.187E+01   0.122E-01 0.749E-02 -.587E-01
   0.433E+00 -.343E+00 0.352E+04   -.159E+00 0.371E+00 -.352E+04   -.104E+00 -.412E-01 -.189E+01   -.176E+00 0.147E-01 -.165E+00
   0.805E-01 0.547E+00 0.352E+04   -.242E+00 -.323E+00 -.352E+04   0.875E-01 -.691E-01 -.189E+01   0.783E-01 -.159E+00 -.165E+00
   -.804E-01 0.547E+00 0.352E+04   0.242E+00 -.323E+00 -.352E+04   -.875E-01 -.691E-01 -.189E+01   -.748E-01 -.160E+00 -.165E+00
   -.144E-03 -.328E-04 0.352E+04   0.263E-03 0.205E-04 -.352E+04   0.150E-17 -.343E-18 -.208E+01   -.133E-01 -.685E-02 -.145E+00
   -.293E+01 -.169E+01 0.124E+04   0.311E+01 0.180E+01 -.124E+04   -.370E+00 -.214E+00 -.880E+00   0.189E+00 0.109E+00 -.297E+00
   -.908E-04 0.255E+00 0.124E+04   0.190E-03 -.808E+00 -.124E+04   -.210E-07 0.315E+00 -.406E+00   0.118E-01 0.196E+00 -.387E+00
   0.293E+01 -.169E+01 0.124E+04   -.311E+01 0.180E+01 -.124E+04   0.370E+00 -.214E+00 -.880E+00   -.191E+00 0.111E+00 -.296E+00
   0.220E+00 -.127E+00 0.124E+04   -.699E+00 0.404E+00 -.124E+04   0.273E+00 -.158E+00 -.406E+00   0.176E+00 -.868E-01 -.387E+00
   -.220E+00 -.127E+00 0.124E+04   0.699E+00 0.404E+00 -.124E+04   -.273E+00 -.158E+00 -.406E+00   -.151E+00 -.878E-01 -.387E+00
   -.142E-03 -.335E+01 0.124E+04   0.298E-03 0.322E+01 -.124E+04   -.629E-08 0.944E-01 -.904E+00   -.407E-02 0.359E-01 -.326E+00
   -.911E-04 0.338E+01 0.124E+04   0.185E-03 -.359E+01 -.124E+04   -.285E-07 0.427E+00 -.880E+00   -.151E-03 -.222E+00 -.296E+00
   -.290E+01 0.168E+01 0.124E+04   0.279E+01 -.161E+01 -.124E+04   0.818E-01 -.472E-01 -.904E+00   0.297E-01 -.215E-01 -.326E+00
   0.290E+01 0.168E+01 0.124E+04   -.279E+01 -.161E+01 -.124E+04   -.818E-01 -.472E-01 -.904E+00   -.290E-01 -.184E-01 -.325E+00
   -.665E-04 -.194E+01 -.105E+04   0.637E-04 0.194E+01 0.105E+04   0.377E-08 -.566E-01 0.104E+01   -.236E-02 0.400E-01 -.350E+00
   0.927E+01 0.535E+01 -.105E+04   -.839E+01 -.485E+01 0.105E+04   -.111E+01 -.640E+00 -.549E+00   0.107E+00 0.616E-01 -.485E+00
   -.927E+01 0.535E+01 -.105E+04   0.839E+01 -.485E+01 0.105E+04   0.111E+01 -.640E+00 -.549E+00   -.829E-01 0.635E-01 -.484E+00
   0.241E+01 -.139E+01 -.107E+04   -.275E+01 0.159E+01 0.107E+04   0.374E+00 -.216E+00 0.903E+00   0.177E-01 -.110E-01 -.422E+00
   -.584E-04 -.107E+02 -.105E+04   0.141E-03 0.969E+01 0.105E+04   -.853E-07 0.128E+01 -.549E+00   0.123E-01 -.105E+00 -.484E+00
   -.241E+01 -.139E+01 -.107E+04   0.275E+01 0.159E+01 0.107E+04   -.374E+00 -.216E+00 0.903E+00   -.206E-01 -.128E-01 -.423E+00
   0.168E+01 0.970E+00 -.105E+04   -.168E+01 -.969E+00 0.105E+04   0.490E-01 0.283E-01 0.104E+01   -.334E-01 -.192E-01 -.351E+00
   -.168E+01 0.970E+00 -.105E+04   0.168E+01 -.969E+00 0.105E+04   -.490E-01 0.283E-01 0.104E+01   0.338E-01 -.219E-01 -.350E+00
   -.131E-03 0.278E+01 -.107E+04   0.244E-03 -.318E+01 0.107E+04   -.287E-07 0.431E+00 0.903E+00   -.705E-03 0.208E-01 -.422E+00
   -.267E-04 0.233E-04 -.338E+04   0.329E-04 -.343E-04 0.338E+04   0.649E-17 0.242E-17 0.143E+01   0.121E-02 0.746E-03 0.112E+00
   0.300E+02 0.430E+02 -.336E+04   -.296E+02 -.428E+02 0.336E+04   -.404E+00 -.172E+00 0.143E+01   -.777E-01 -.165E+00 0.415E-01
   -.300E+02 0.430E+02 -.336E+04   0.296E+02 -.428E+02 0.336E+04   0.404E+00 -.172E+00 0.143E+01   0.569E-01 -.162E+00 0.415E-01
   0.522E+02 0.446E+01 -.336E+04   -.519E+02 -.422E+01 0.336E+04   -.351E+00 -.264E+00 0.143E+01   -.182E+00 0.152E-01 0.415E-01
   -.522E+02 0.446E+01 -.336E+04   0.519E+02 -.422E+01 0.336E+04   0.351E+00 -.264E+00 0.143E+01   0.158E+00 0.161E-01 0.406E-01
   0.223E+02 -.475E+02 -.336E+04   -.223E+02 0.470E+02 0.336E+04   0.531E-01 0.436E+00 0.143E+01   -.112E+00 0.130E+00 0.414E-01
   -.223E+02 -.475E+02 -.336E+04   0.223E+02 0.470E+02 0.336E+04   -.531E-01 0.436E+00 0.143E+01   0.936E-01 0.129E+00 0.407E-01
   -.151E-03 -.185E-04 -.340E+04   0.262E-03 0.237E-05 0.340E+04   -.290E-18 -.132E-17 0.191E+01   -.118E-01 -.598E-02 0.178E+00
   0.156E-03 -.173E-03 -.378E+04   0.151E-03 0.344E-04 0.379E+04   0.165E-19 -.116E-17 -.199E+01   0.876E-02 0.526E-02 -.567E-01
   0.205E-03 -.823E-04 -.219E+04   0.124E-04 0.632E-05 0.217E+04   0.124E-17 -.450E-18 0.198E+02   0.367E-02 0.223E-02 0.202E+00
   0.549E-05 -.134E-04 -.388E+03   0.480E-06 0.424E-06 0.397E+03   -.434E-19 -.110E-19 -.849E+01   0.195E-03 0.118E-03 0.155E-01
   0.133E-03 -.237E-03 0.632E+01   0.161E-12 0.914E-13 0.739E-11   0.426E-16 -.225E-15 0.130E+01   0.212E-02 -.161E-02 -.762E+01

 POSITION                                       TOTAL-FORCE (eV/Angst)
      0.00000      0.00000      5.37156        -0.000000     -0.000000      0.002096
      2.56560      0.00000      5.37156         0.002317      0.004076      0.059259
      5.13119      0.00000      5.37156        -0.002317      0.004076      0.059259
      1.28280      2.22187      5.37156         0.004689     -0.000031      0.059259
      3.84839      2.22187      5.37156        -0.000000     -0.000000      0.061325
      6.41399      2.22187      5.37156        -0.004689     -0.000031      0.059259
      2.56560      4.44374      5.37156         0.002371     -0.004045      0.059259
      5.13119      4.44374      5.37156        -0.002371     -0.004045      0.059259
      7.69679      4.44374      5.37156        -0.000000     -0.000000      0.016558
      1.28280      0.74062      7.46636         0.002563      0.001480     -0.100158
      3.84839      0.74062      7.46636         0.000000     -0.049138     -0.037014
      6.41399      0.74062      7.46636        -0.002563      0.001480     -0.100158
      2.56560      2.96249      7.46636        -0.042555      0.024569     -0.037014
      5.13119      2.96249      7.46636         0.042555      0.024569     -0.037014
      7.69679      2.96249      7.46636        -0.000000      0.002537      0.003001
      3.84839      5.18437      7.46636         0.000000     -0.002960     -0.100158
      6.41399      5.18437      7.46636         0.002197     -0.001269      0.003001
      8.97958      5.18437      7.46636        -0.002197     -0.001269      0.003001
      7.69679      1.47855      9.54201         0.000000     -0.017971      0.010629
      2.56706      1.48209      9.56134        -0.132787     -0.076665     -0.251121
      5.12972      1.48209      9.56134         0.132787     -0.076665     -0.251121
      8.97774      3.70418      9.56312         0.053239     -0.030737      0.012570
      3.84839      3.70142      9.56134        -0.000000      0.153330     -0.251121
      6.41583      3.70418      9.56312        -0.053239     -0.030737      0.012570
     10.26471      5.92634      9.54201         0.015563      0.008985      0.010629
      5.12886      5.92634      9.54201        -0.015563      0.008985      0.010629
      7.69679      5.92286      9.56312        -0.000000      0.061475      0.012570
      0.00000      0.00000     11.64396        -0.000000     -0.000000     -0.029625
      6.40056      6.63873     11.66709        -0.087856     -0.151459     -0.213883
      8.99302      6.63873     11.66709         0.087856     -0.151459     -0.213883
      8.94959      2.22368     11.66709        -0.175095     -0.000356     -0.213883
      6.44399      2.22368     11.66709         0.175095     -0.000356     -0.213883
     10.24582      4.46882     11.66709        -0.087239      0.151815     -0.213883
      5.14776      4.46882     11.66709         0.087239      0.151815     -0.213883
      7.69679      4.44374     11.66626        -0.000000     -0.000000     -0.015576
      3.84839      2.22187     11.77465        -0.000000     -0.000000      1.993355
      3.84839      2.22187     13.65084        -0.000000     -0.000000     -0.010490
      3.84839      2.22187     14.61785        -0.000000     -0.000000     -0.003622
    total drift:                                0.002256     -0.001846      0.009081

  FREE ENERGIE OF THE ION-ELECTRON SYSTEM (eV)
  free  energy   TOTEN  =      -143.02887089 eV

  energy  without entropy=     -143.02887089  energy(sigma->0) =     -143.02887089

 stress matrix after NEB project (eV)
     -4.83862      0.00000     -0.00000
      0.00000     -4.83863     -0.00000
     -0.00000      0.00000     -0.28541
  FORCES: max atom, RMS     0.010490    0.001800
  FORCE total and by dimension    0.011098    0.010490
  Stress total and by dimension    6.848799    4.838625
|           W    W    AA    RRRRR   N    N  II  N    N   GGGG   !!!           |
|           W    W   A  A   R    R  NN   N  II  NN   N  G    G  !!!           |
|           W    W  A    A  R    R  N N  N  II  N N  N  G       !!!           |
|           W WW W  AAAAAA  RRRRR   N  N N  II  N  N N  G  GGG   !            |
|           WW  WW  A    A  R   R   N   NN  II  N   NN  G    G                |
|           W    W  A    A  R    R  N    N  II  N    N   GGGG   !!!           |
|     Tetrahedron method does not include variations of the Fermi             |
|     occupations, so forces and stress will be inaccurate. We suggest        |
|     using a different smearing scheme ISMEAR = 1 or 2 for metals in         |
|     relaxations.                                                            |

 total charge

# of ion       s       p       d       tot
    1        0.450   0.284   9.188   9.922
    2        0.448   0.286   9.185   9.919
    3        0.448   0.286   9.185   9.919
    4        0.448   0.286   9.185   9.919
    5        0.448   0.285   9.182   9.914
    6        0.448   0.286   9.185   9.919
    7        0.448   0.286   9.185   9.919
    8        0.448   0.286   9.185   9.919
    9        0.448   0.285   9.187   9.921
   10        0.443   0.371   9.177   9.991
   11        0.440   0.366   9.181   9.987
   12        0.443   0.371   9.177   9.991
   13        0.440   0.366   9.181   9.987
   14        0.440   0.366   9.181   9.987
   15        0.438   0.371   9.177   9.986
   16        0.443   0.371   9.177   9.991
   17        0.438   0.371   9.177   9.986
   18        0.438   0.371   9.177   9.986
   19        0.444   0.368   9.182   9.994
   20        0.465   0.392   9.158  10.015
   21        0.465   0.392   9.158  10.015
   22        0.432   0.374   9.177   9.983
   23        0.465   0.392   9.158  10.015
   24        0.432   0.374   9.177   9.983
   25        0.444   0.368   9.182   9.994
   26        0.444   0.368   9.182   9.994
   27        0.432   0.374   9.177   9.983
   28        0.452   0.296   9.179   9.926
   29        0.477   0.319   9.167   9.963
   30        0.477   0.319   9.167   9.963
   31        0.477   0.319   9.167   9.963
   32        0.477   0.319   9.167   9.963
   33        0.477   0.319   9.167   9.963
   34        0.477   0.319   9.167   9.963
   35        0.446   0.302   9.177   9.925
   36        2.225   6.038   2.356  10.619
   37        1.562   3.555   0.000   5.116
   38        0.606   0.124   0.000   0.731
tot         20.177  21.524 323.541 365.241

 BZINTS: Fermi energy:    0.534513;  405.000000 electrons
         Band energy:-0.128521E+04;  BLOECHL correction:   -0.029132