 vasp.6.2.0 18Jan21 (build Jun 12 2021 23:27:24) complex

 executed on             LinuxIFC date 2022.05.30  17:54:07

 INCAR:
   ISMEAR = -5
   SIGMA = 0.1
   ISPIN = 1
   EDIFF = 1.d-5
   EDIFFG = -0.01
   NSW = 0
   NELM = 150
   ENCUT = 500
   ISIF = 2
   IBRION = 2
   LREAL = Auto
   ALGO = Fast
   ICHARG = 11
   LORBIT = 10
   LCHARG = .F.
   LWAVE = .F.

 POTCAR:    PAW_PBE Cu 22Jun2005
 POTCAR:    PAW_PBE V 08Apr2002
 POTCAR:    PAW_PBE C 08Apr2002
|           W    W    AA    RRRRR   N    N  II  N    N   GGGG   !!!           |
|           W    W   A  A   R    R  NN   N  II  NN   N  G    G  !!!           |
|           W    W  A    A  R    R  N N  N  II  N N  N  G       !!!           |
|           W WW W  AAAAAA  RRRRR   N  N N  II  N  N N  G  GGG   !            |
|           WW  WW  A    A  R   R   N   NN  II  N   NN  G    G                |
|           W    W  A    A  R    R  N    N  II  N    N   GGGG   !!!           |
|     For optimal performance we recommend to set                             |
|       NCORE = 2 up to number-of-cores-per-socket                            |
|     This setting can greatly improve the performance of VASP for DFT.       |
|     The default, NCORE=1 might be grossly inefficient on modern             |
|     multi-core architectures or massively parallel machines. Do your        |
|     Unfortunately you need to use the default for GW and RPA                |
|     calculations (for HF NCORE is supported but not extensively tested      |
|     yet).                                                                   |

 POTCAR:    PAW_PBE Cu 22Jun2005
   VRHFIN =Cu: d10 p1

   TITEL  = PAW_PBE Cu 22Jun2005
   POMASS =   63.546; ZVAL   =   11.000    mass and valenz
   ENMAX  =  295.446; ENMIN  =  221.585 eV

 POTCAR:    PAW_PBE V 08Apr2002
   VRHFIN =V: p6 d4 s1

   TITEL  = PAW_PBE V 08Apr2002
   POMASS =   50.941; ZVAL   =    5.000    mass and valenz
   ENMAX  =  192.543; ENMIN  =  144.408 eV

 POTCAR:    PAW_PBE C 08Apr2002
   VRHFIN =C: s2p2

   TITEL  = PAW_PBE C 08Apr2002
   POMASS =   12.011; ZVAL   =    4.000    mass and valenz
   ENMAX  =  400.000; ENMIN  =  300.000 eV

 Optimization of the real space projectors (new method)

 maximal supplied QI-value         = 16.25
 optimisation between [QCUT,QGAM] = [ 11.38, 22.75] = [ 36.24,144.96] Ry
 Optimized for a Real-space Cutoff    1.52 Angstroem

   l    n(q)    QCUT    max X(q) W(low)/X(q) W(high)/X(q)  e(spline)
   2      9    11.376     4.610    0.21E-03    0.10E-03    0.26E-06
   2      9    11.376     8.522    0.33E-03    0.16E-03    0.37E-06
   0     10    11.376    51.609    0.62E-04    0.20E-04    0.13E-06
   0     10    11.376    27.747    0.54E-04    0.20E-04    0.13E-06
   1     10    11.376    20.408    0.13E-04    0.99E-04    0.19E-06
   1     10    11.376    13.425    0.12E-04    0.87E-04    0.17E-06
 Optimization of the real space projectors (new method)

[...]

   l    n(q)    QCUT    max X(q) W(low)/X(q) W(high)/X(q)  e(spline)
   2     10    11.327    96.114    0.36E-03    0.35E-03    0.42E-06
   2     10    11.327    88.986    0.37E-03    0.35E-03    0.42E-06
   0     11    11.327    20.919    0.40E-04    0.56E-04    0.79E-06
   0     11    11.327     9.593    0.30E-04    0.41E-04    0.60E-06
   1     10    11.327    11.615    0.15E-03    0.10E-03    0.19E-06
   1     10    11.327     7.031    0.11E-03    0.73E-04    0.14E-06
 Optimization of the real space projectors (new method)

 maximal supplied QI-value         = 25.13
 optimisation between [QCUT,QGAM] = [ 11.31, 22.87] = [ 35.82,146.48] Ry
 Optimized for a Real-space Cutoff    1.00 Angstroem

   l    n(q)    QCUT    max X(q) W(low)/X(q) W(high)/X(q)  e(spline)
   0      7    11.310   115.676    0.43E-03    0.13E-02    0.19E-06
   0      7    11.310    87.132    0.43E-03    0.13E-02    0.18E-06
   1      6    11.310     4.429    0.42E-03    0.74E-03    0.11E-06
   1      6    11.310     2.733    0.34E-03    0.55E-03    0.92E-07
  PAW_PBE Cu 22Jun2005                  :
  PAW_PBE V 08Apr2002                   :
  PAW_PBE C 08Apr2002                   :

 POSCAR: Cu-V-C
  positions in direct lattice
  velocities in cartesian coordinates
 exchange correlation table for  LEXCH =        8
   RHO(1)=    0.500       N(1)  =     2000
   RHO(2)=  100.500       N(2)  =     4000

 VTST: version 3.2, (02/03/18)

 CHAIN: initializing optimizer

 OPT: Using VASP Conjugate-Gradient optimizer
 CHAIN: Read ICHAIN            0

 POSCAR: Cu-V-C
  positions in direct lattice
  velocities in cartesian coordinates

 ion  position               nearest neighbor table
   1  0.000  0.000  0.226-   7 2.57   3 2.57   4 2.57   2 2.57   6 2.57   8 2.57  12 2.57  10 2.57
                            16 2.57
   2  0.333  0.000  0.226-   8 2.57   9 2.57   5 2.57   1 2.57   3 2.57  11 2.57   4 2.57  10 2.57
                            17 2.57
   3  0.667  0.000  0.226-   1 2.57   7 2.57   6 2.57   9 2.57   2 2.57  12 2.57   5 2.57  18 2.57
                            11 2.57
   4  0.000  0.333  0.226-   5 2.57   6 2.57   1 2.57   7 2.57   2 2.57  13 2.57   9 2.57  10 2.57
                            15 2.57
   5  0.333  0.333  0.226-   4 2.57   2 2.57   7 2.57  13 2.57   8 2.57   6 2.57   3 2.57  11 2.57
                            14 2.57
   6  0.667  0.333  0.226-   4 2.57   9 2.57  15 2.57   3 2.57   1 2.57   8 2.57  14 2.57   5 2.57
                            12 2.57
   7  0.000  0.667  0.226-   1 2.57   3 2.57  16 2.57  18 2.57   4 2.57   5 2.57   8 2.57   9 2.57
                            13 2.57
   8  0.333  0.667  0.226-   9 2.57   2 2.57  17 2.57   6 2.57   1 2.57   7 2.57   5 2.57  14 2.57
                            16 2.57
   9  0.667  0.667  0.226-   8 2.57   6 2.57   2 2.57  17 2.57   3 2.57   7 2.57   4 2.57  15 2.57
                            18 2.57
  10  0.111  0.111  0.314-  26 2.56  19 2.56  20 2.56  11 2.57  12 2.57  13 2.57   1 2.57   2 2.57
                             4 2.57  15 2.57  16 2.57  17 2.57
  11  0.444  0.111  0.314-  20 2.56  21 2.56  10 2.57  13 2.57   2 2.57  17 2.57  14 2.57  12 2.57
                             5 2.57   3 2.57  18 2.57  27 2.57
  12  0.778  0.111  0.314-  19 2.56  25 2.56  21 2.56  15 2.57  10 2.57  14 2.57  18 2.57   3 2.57
                             1 2.57  16 2.57  11 2.57   6 2.57
  13  0.111  0.444  0.314-  23 2.56  20 2.56  16 2.57  18 2.57  10 2.57  11 2.57  14 2.57   5 2.57
                             4 2.57   7 2.57  15 2.57  22 2.57
  14  0.444  0.444  0.314-  21 2.56  23 2.56  15 2.57  17 2.57  12 2.57  16 2.57  13 2.57  11 2.57
                             6 2.57   8 2.57   5 2.57  24 2.57
  15  0.778  0.444  0.314-  19 2.56  24 2.57  22 2.57  14 2.57  17 2.57  12 2.57   6 2.57  18 2.57
                            10 2.57   9 2.57  13 2.57   4 2.57
  16  0.111  0.778  0.314-  25 2.56  26 2.56  23 2.56  18 2.57  13 2.57   7 2.57  14 2.57  17 2.57
                            12 2.57  10 2.57   8 2.57   1 2.57
  17  0.444  0.778  0.314-  26 2.56  27 2.57  24 2.57  14 2.57  15 2.57   8 2.57   9 2.57  11 2.57
                            16 2.57  18 2.57  10 2.57   2 2.57
  18  0.778  0.778  0.314-  25 2.56  22 2.57  27 2.57  16 2.57  13 2.57   7 2.57  15 2.57  12 2.57
                            17 2.57   9 2.57   3 2.57  11 2.57
  19  0.889  0.222  0.401-  12 2.56  10 2.56  15 2.56  28 2.56  25 2.56  26 2.56  21 2.57  20 2.57
                            22 2.57  24 2.57  32 2.58  31 2.58
  20  0.222  0.222  0.401-  36 2.54  11 2.56  13 2.56  10 2.56  23 2.56  21 2.56  26 2.57  19 2.57
                            27 2.57  22 2.57  29 2.57  31 2.57
  21  0.555  0.222  0.401-  36 2.54  14 2.56  11 2.56  12 2.56  20 2.56  23 2.56  19 2.57  25 2.57
                            24 2.57  27 2.57  32 2.57  30 2.57
  22  0.888  0.556  0.402-  24 2.56  27 2.56  35 2.56  18 2.57  15 2.57  19 2.57  25 2.57  31 2.57
                            33 2.57  13 2.57  23 2.57  20 2.57
  23  0.222  0.555  0.401-  36 2.54  13 2.56  14 2.56  16 2.56  20 2.56  21 2.56  25 2.57  26 2.57
                            22 2.57  24 2.57  33 2.57  34 2.57
  24  0.556  0.556  0.402-  22 2.56  27 2.56  35 2.56  15 2.57  17 2.57  19 2.57  26 2.57  32 2.57
                            34 2.57  14 2.57  21 2.57  23 2.57
  25  0.889  0.889  0.401-  12 2.56  16 2.56  18 2.56  28 2.56  19 2.56  26 2.56  21 2.57  23 2.57
                            22 2.57  27 2.57  33 2.58  30 2.58
  26  0.222  0.889  0.401-  10 2.56  16 2.56  17 2.56  28 2.56  25 2.56  19 2.56  20 2.57  23 2.57
                            27 2.57  24 2.57  29 2.58  34 2.58
  27  0.556  0.888  0.402-  24 2.56  22 2.56  35 2.56  17 2.57  18 2.57  26 2.57  25 2.57  29 2.57
                            30 2.57  11 2.57  20 2.57  21 2.57
  28  0.000  0.000  0.489-  25 2.56  19 2.56  26 2.56  33 2.57  30 2.57  31 2.57  29 2.57  32 2.57
                            34 2.57
  29  0.333  0.000  0.490-  30 2.56  36 2.56  31 2.56  27 2.57  35 2.57  28 2.57  20 2.57  34 2.57
                            26 2.58
  30  0.666  0.000  0.490-  29 2.56  36 2.56  32 2.56  27 2.57  35 2.57  28 2.57  21 2.57  33 2.57
                            25 2.58
  31  0.000  0.333  0.490-  33 2.56  36 2.56  29 2.56  22 2.57  35 2.57  28 2.57  20 2.57  32 2.57
                            19 2.58
  32  0.666  0.333  0.490-  34 2.56  36 2.56  30 2.56  24 2.57  35 2.57  28 2.57  21 2.57  31 2.57
                            19 2.58
  33  0.000  0.666  0.490-  31 2.56  36 2.56  34 2.56  22 2.57  35 2.57  28 2.57  23 2.57  30 2.57
                            25 2.58
  34  0.333  0.666  0.490-  32 2.56  36 2.56  33 2.56  24 2.57  35 2.57  28 2.57  23 2.57  29 2.57
                            26 2.58
  35  0.667  0.667  0.490-  24 2.56  27 2.56  22 2.56  34 2.57  32 2.57  29 2.57  30 2.57  33 2.57
                            31 2.57
  36  0.333  0.333  0.488-  37 1.70  23 2.54  20 2.54  21 2.54  31 2.56  29 2.56  33 2.56  32 2.56
                            34 2.56  30 2.56
  37  0.333  0.333  0.560-  36 1.70

  LATTYP: Found a hexagonal cell.
 ALAT       =     7.6967864036
 C/A-ratio  =     3.0908716217

  Lattice vectors:

 A1 = (  -3.8483927580,  -6.6656128093,   0.0000000000)
 A2 = (   7.6967864037,   0.0000000000,   0.0000000000)
 A3 = (   0.0000000000,   0.0000000000,  23.7897786731)

Analysis of symmetry for initial positions (statically):
 Subroutine PRICEL returns:
 Original cell was already a primitive cell.

 Routine SETGRP: Setting up the symmetry group for a
 hexagonal supercell.

 Subroutine GETGRP returns: Found  6 space group operations
 (whereof  6 operations were pure point group operations)
 out of a pool of 24 trial point group operations.

The static configuration has the point symmetry C_3v.

Analysis of symmetry for dynamics (positions and initial velocities):
 Subroutine PRICEL returns:
 Original cell was already a primitive cell.

[...]

The dynamic configuration has the point symmetry C_3v.

Analysis of constrained symmetry for selective dynamics:
 Subroutine PRICEL returns:
 Original cell was already a primitive cell.

 Routine SETGRP: Setting up the symmetry group for a
 hexagonal supercell.

 Subroutine GETGRP returns: Found  6 space group operations
[...]
     24      -4.9435      2.00000
     25      -4.7955      2.00000
     26      -4.7800      2.00000
     27      -4.7304      2.00000
     28      -4.7180      2.00000
     29      -4.7149      2.00000
     30      -4.7114      2.00000
     31      -4.7045      2.00000
     32      -4.6850      2.00000
     33      -4.6497      2.00000
     34      -4.6450      2.00000
     35      -4.6016      2.00000
     36      -4.5399      2.00000
     37      -4.5137      2.00000
     38      -4.3980      2.00000
     39      -4.3895      2.00000
     40      -4.3203      2.00000
     41      -4.3139      2.00000
     42      -4.3073      2.00000
     43      -4.2768      2.00000
     44      -4.2712      2.00000
     45      -4.2645      2.00000
     46      -4.2628      2.00000
     47      -4.0735      2.00000
     48      -4.0661      2.00000
     49      -4.0553      2.00000
     50      -4.0387      2.00000
     51      -3.9937      2.00000
     52      -3.9926      2.00000
     53      -3.9731      2.00000
     54      -3.9676      2.00000
     55      -3.9611      2.00000
     56      -3.9422      2.00000
     57      -3.9135      2.00000
     58      -3.9092      2.00000
     59      -3.9038      2.00000
     60      -3.8907      2.00000
[...]
    238       5.7317      0.00000
    239       5.7971      0.00000
    240       5.8478      0.00000
    241       6.0768      0.00000
    242       6.1454      0.00000
    243       6.2800      0.00000
    244       6.3275      0.00000
    245       6.5359      0.00000
    246       6.6217      0.00000
    247       6.7024      0.00000
    248       6.7417      0.00000
    249       6.9045      0.00000
    250       7.1787      0.00000
    251       7.1838      0.00000
    252       7.3982      0.00000

 soft charge-density along one line, spin component           1
         0         1         2         3         4         5         6         7         8         9
 total charge-density along one line

------------------------ aborting loop because EDIFF is reached ----------------------------------------

 total charge

# of ion       s       p       d       tot
    1        0.448   0.285   9.187   9.921
    2        0.447   0.285   9.186   9.919
    3        0.447   0.285   9.186   9.919
    4        0.447   0.285   9.186   9.919
    5        0.451   0.283   9.185   9.919
    6        0.447   0.285   9.186   9.919
    7        0.447   0.285   9.186   9.919
    8        0.447   0.285   9.186   9.919
    9        0.448   0.285   9.188   9.921
   10        0.441   0.372   9.178   9.991
   11        0.442   0.368   9.180   9.990
   12        0.441   0.372   9.178   9.991
   13        0.442   0.368   9.180   9.990
   14        0.442   0.368   9.180   9.990
   15        0.439   0.371   9.176   9.987
   16        0.441   0.372   9.178   9.991
   17        0.439   0.371   9.176   9.987
   18        0.439   0.371   9.176   9.987
   19        0.440   0.368   9.181   9.989
   20        0.454   0.387   9.168  10.009
   21        0.454   0.387   9.168  10.009
   22        0.432   0.374   9.180   9.986
   23        0.454   0.387   9.168  10.009
   24        0.432   0.374   9.180   9.986
   25        0.440   0.368   9.181   9.989
   26        0.440   0.368   9.181   9.989
   27        0.432   0.374   9.180   9.986
   28        0.449   0.286   9.187   9.922
   29        0.460   0.297   9.174   9.930
   30        0.460   0.297   9.174   9.930
   31        0.460   0.297   9.174   9.930
   32        0.460   0.297   9.174   9.930
   33        0.460   0.297   9.174   9.930
   34        0.460   0.297   9.174   9.930
   35        0.450   0.285   9.186   9.921
   36        0.576   0.723   3.905   5.204
   37        1.000   1.215   0.000   2.215
tot         17.207  13.577 325.186 355.970

  FORCE on cell =-STRESS in cart. coord.  units (eV):
  Direction    XX          YY          ZZ          XY          YZ          ZX
  Alpha Z   777.82206   777.82206   777.82206
  Ewald  220339.48082220339.48047************     0.00037     0.00013     0.00016
  Hartree232862.45712232862.45713************     0.00003     0.00006     0.00006
  E(xc)   -2281.84198 -2281.84149 -2289.17684    -0.00042    -0.00004    -0.00006
  Local  ************************466347.68409     0.01857    -0.00058    -0.00091
  n-local  -759.50084  -748.39693  -769.82019     6.18676    -0.08715     0.23887
  augment  3325.03523  3325.05570  3349.57951    -0.01772     0.00033     0.00052
  Kinetic  3216.98460  3218.96929  3246.63752     2.65254     1.73560    -1.20364
  Fock        0.00000     0.00000     0.00000     0.00000     0.00000     0.00000
  Total      -7.68200    -7.68200    -2.27752     0.00000     0.00000    -0.00000
  in kB     -10.08428   -10.08428    -2.98973     0.00000     0.00000    -0.00000

 VOLUME and BASIS-vectors are now :
  energy-cutoff  :      500.00
  volume of cell :     1220.51
      direct lattice vectors                 reciprocal lattice vectors
     7.696786404  0.000000000  0.000000000     0.129924354 -0.075011849  0.000000000
     3.848392758  6.665612809  0.000000000     0.000000000  0.150023716  0.000000000
     0.000000000  0.000000000 23.789778673     0.000000000  0.000000000  0.042034859

  length of vectors
     7.696786404  7.696786404 23.789778673     0.150023716  0.150023716  0.042034859

 FORCES acting on ions
    electron-ion (+dipol)            ewald-force                    non-local-force                 convergence-correction
   -.423E-04 -.288E-06 0.369E+04   0.581E-04 -.430E-05 -.369E+04   -.627E-17 0.204E-17 -.227E+01   -.278E-03 -.128E-03 -.288E-01
   -.825E+00 -.777E+00 0.369E+04   0.583E+00 0.539E+00 -.369E+04   0.708E-01 0.112E+00 -.196E+01   0.164E+00 0.117E+00 -.734E-01
   0.825E+00 -.777E+00 0.369E+04   -.583E+00 0.539E+00 -.369E+04   -.708E-01 0.112E+00 -.196E+01   -.164E+00 0.119E+00 -.726E-01
   -.109E+01 -.326E+00 0.369E+04   0.758E+00 0.235E+00 -.369E+04   0.132E+00 0.547E-02 -.196E+01   0.183E+00 0.840E-01 -.734E-01
   -.640E-04 -.477E-05 0.369E+04   0.116E-03 -.101E-04 -.369E+04   0.146E-17 -.326E-17 -.181E+01   0.121E-01 0.740E-02 -.270E-01
   0.109E+01 -.326E+00 0.369E+04   -.758E+00 0.235E+00 -.369E+04   -.132E+00 0.547E-02 -.196E+01   -.185E+00 0.852E-01 -.723E-01
   -.261E+00 0.110E+01 0.369E+04   0.176E+00 -.774E+00 -.369E+04   0.613E-01 -.117E+00 -.196E+01   0.215E-01 -.201E+00 -.725E-01
   0.261E+00 0.110E+01 0.369E+04   -.176E+00 -.774E+00 -.369E+04   -.613E-01 -.117E+00 -.196E+01   -.180E-01 -.203E+00 -.724E-01
   -.144E-03 -.333E-04 0.369E+04   0.263E-03 0.205E-04 -.369E+04   0.405E-17 -.303E-19 -.219E+01   -.132E-01 -.680E-02 0.285E-01
   -.490E+01 -.283E+01 0.121E+04   0.491E+01 0.284E+01 -.121E+04   -.216E+00 -.125E+00 -.798E+00   0.193E+00 0.111E+00 0.297E+00
   -.880E-04 -.506E+01 0.120E+04   0.189E-03 0.492E+01 -.120E+04   -.655E-08 0.983E-01 -.719E+00   0.115E-01 0.463E-01 0.321E+00
   0.490E+01 -.283E+01 0.121E+04   -.491E+01 0.284E+01 -.121E+04   0.216E+00 -.125E+00 -.798E+00   -.194E+00 0.112E+00 0.296E+00
   -.439E+01 0.253E+01 0.120E+04   0.427E+01 -.246E+01 -.120E+04   0.851E-01 -.492E-01 -.719E+00   0.463E-01 -.124E-01 0.321E+00
   0.439E+01 0.253E+01 0.120E+04   -.427E+01 -.246E+01 -.120E+04   -.851E-01 -.492E-01 -.719E+00   -.228E-01 -.135E-01 0.319E+00
   -.138E-03 -.103E+01 0.121E+04   0.297E-03 0.944E+00 -.121E+04   -.451E-08 0.677E-01 -.898E+00   -.311E-02 0.275E-01 0.211E+00
   -.899E-04 0.566E+01 0.121E+04   0.186E-03 -.567E+01 -.121E+04   -.166E-07 0.249E+00 -.798E+00   -.702E-03 -.225E+00 0.296E+00
   -.894E+00 0.516E+00 0.121E+04   0.817E+00 -.472E+00 -.121E+04   0.586E-01 -.338E-01 -.898E+00   0.230E-01 -.165E-01 0.211E+00
   0.894E+00 0.516E+00 0.121E+04   -.817E+00 -.472E+00 -.121E+04   -.586E-01 -.338E-01 -.898E+00   -.218E-01 -.143E-01 0.212E+00
   -.659E-04 -.682E+01 -.126E+04   0.720E-04 0.664E+01 0.126E+04   -.539E-08 0.809E-01 0.122E+01   0.102E-02 0.123E+00 0.132E+00
   -.498E+02 -.288E+02 -.133E+04   0.497E+02 0.287E+02 0.133E+04   -.346E+00 -.200E+00 -.593E-01   0.222E+00 0.128E+00 0.290E+00
   0.498E+02 -.288E+02 -.133E+04   -.497E+02 0.287E+02 0.133E+04   0.346E+00 -.200E+00 -.593E-01   -.242E+00 0.127E+00 0.289E+00
   -.235E+02 0.136E+02 -.128E+04   0.230E+02 -.133E+02 0.128E+04   0.324E+00 -.187E+00 0.808E+00   0.232E+00 -.135E+00 0.935E-01
   -.785E-04 0.575E+02 -.133E+04   0.151E-03 -.574E+02 0.133E+04   -.266E-07 0.400E+00 -.593E-01   -.124E-01 -.274E+00 0.289E+00
   0.235E+02 0.136E+02 -.128E+04   -.230E+02 -.133E+02 0.128E+04   -.324E+00 -.187E+00 0.808E+00   -.230E+00 -.134E+00 0.940E-01
   0.591E+01 0.341E+01 -.126E+04   -.575E+01 -.332E+01 0.126E+04   -.701E-01 -.405E-01 0.122E+01   -.107E+00 -.615E-01 0.132E+00
   -.591E+01 0.341E+01 -.126E+04   0.575E+01 -.332E+01 0.126E+04   0.701E-01 -.405E-01 0.122E+01   0.108E+00 -.606E-01 0.132E+00
   -.124E-03 -.272E+02 -.128E+04   0.239E-03 0.266E+02 0.128E+04   -.249E-07 0.374E+00 0.808E+00   -.982E-03 0.268E+00 0.936E-01
   -.377E-04 0.160E-04 -.367E+04   0.423E-04 -.323E-04 0.367E+04   0.182E-17 -.108E-17 0.228E+01   -.137E-02 -.740E-03 -.119E+00
   -.321E+02 -.614E+02 -.367E+04   0.321E+02 0.615E+02 0.367E+04   -.367E+00 -.525E+00 0.273E+01   0.284E+00 0.363E+00 -.160E+00
   0.321E+02 -.614E+02 -.367E+04   -.321E+02 0.615E+02 0.367E+04   0.367E+00 -.525E+00 0.273E+01   -.262E+00 0.364E+00 -.160E+00
   -.692E+02 0.290E+01 -.367E+04   0.693E+02 -.291E+01 0.367E+04   -.639E+00 -.554E-01 0.273E+01   0.456E+00 0.642E-01 -.160E+00
   0.692E+02 0.290E+01 -.367E+04   -.693E+02 -.291E+01 0.367E+04   0.639E+00 -.554E-01 0.273E+01   -.434E+00 0.654E-01 -.159E+00
   -.371E+02 0.585E+02 -.367E+04   0.372E+02 -.586E+02 0.367E+04   -.271E+00 0.581E+00 0.273E+01   0.185E+00 -.409E+00 -.160E+00
   0.371E+02 0.585E+02 -.367E+04   -.372E+02 -.586E+02 0.367E+04   0.271E+00 0.581E+00 0.273E+01   -.160E+00 -.409E+00 -.159E+00
   -.123E-03 -.150E-04 -.369E+04   0.249E-03 0.281E-05 0.369E+04   0.194E-17 0.114E-17 0.253E+01   -.143E-01 -.742E-02 -.647E-01
   -.446E-04 -.124E-04 -.158E+04   0.627E-04 0.126E-04 0.157E+04   -.250E-17 -.295E-18 0.814E+00   0.390E-04 0.364E-04 -.122E+00
   0.519E-04 -.194E-04 -.156E+04   0.124E-04 0.566E-05 0.157E+04   -.104E-17 -.711E-18 -.426E+01   0.344E-03 0.209E-03 -.409E+00
   -.177E-03 -.114E-05 -.304E+00   -.425E-13 0.285E-14 -.682E-11   -.160E-17 0.133E-18 -.166E+01   0.558E-01 0.291E-01 0.189E+01

 POSITION                                       TOTAL-FORCE (eV/Angst)
      0.00000      0.00000      5.37156         0.000000      0.000000      0.021950
      2.56560      0.00000      5.37156        -0.006726     -0.008719      0.055485
      5.13119      0.00000      5.37156         0.006726     -0.008719      0.055485
      1.28280      2.22187      5.37156        -0.010913     -0.001465      0.055485
      3.84839      2.22187      5.37156        -0.000000     -0.000000      0.039666
      6.41399      2.22187      5.37156         0.010913     -0.001465      0.055485
      2.56560      4.44374      5.37156        -0.004188      0.010184      0.055485
      5.13119      4.44374      5.37156         0.004188      0.010184      0.055485
      7.69679      4.44374      5.37156         0.000000      0.000000      0.037254
      1.28280      0.74062      7.46636        -0.010754     -0.006209     -0.055998
      3.84839      0.74062      7.46636         0.000000     -0.000517     -0.073984
      6.41399      0.74062      7.46636         0.010754     -0.006209     -0.055998
      2.56560      2.96249      7.46636        -0.000447      0.000258     -0.073984
      5.13119      2.96249      7.46636         0.000447      0.000258     -0.073984
      7.69679      2.96249      7.46636        -0.000000      0.006525     -0.006480
      3.84839      5.18437      7.46636        -0.000000      0.012417     -0.055998
      6.41399      5.18437      7.46636         0.005651     -0.003263     -0.006480
      8.97958      5.18437      7.46636        -0.005651     -0.003263     -0.006480
      7.69679      1.48017      9.54910        -0.000000      0.020570      0.124192
      2.56637      1.48170      9.55121        -0.184380     -0.106452     -0.209619
      5.13041      1.48170      9.55121         0.184380     -0.106452     -0.209619
      8.97729      3.70444      9.56154         0.038409     -0.022176      0.049131
      3.84839      3.70222      9.55121        -0.000000      0.212904     -0.209619
      6.41628      3.70444      9.56154        -0.038409     -0.022176      0.049131
     10.26332      5.92553      9.54910        -0.017814     -0.010285      0.124192
      5.13026      5.92553      9.54910         0.017814     -0.010285      0.124192
      7.69679      5.92234      9.56154        -0.000000      0.044351      0.049131
      0.00000      0.00000     11.64072         0.000000      0.000000     -0.113227
      2.56831      0.00307     11.65724        -0.031098     -0.035848      0.085825
      5.12847      0.00307     11.65724         0.031098     -0.035848      0.085825
      1.28681      2.22269     11.65724        -0.046594     -0.009008      0.085825
      6.40997      2.22269     11.65724         0.046594     -0.009008      0.085825
      2.56689      4.43985     11.65724        -0.015496      0.044856      0.085825
      5.12989      4.43985     11.65724         0.015496      0.044856      0.085825
      7.69679      4.44374     11.65596        -0.000000     -0.000000     -0.130427
      3.84839      2.22187     11.62023         0.000000      0.000000     -0.209360
      3.84839      2.22187     13.31992         0.000000      0.000000      0.024558
    total drift:                                0.055612      0.029135     -0.075807

  FREE ENERGIE OF THE ION-ELECTRON SYSTEM (eV)
  free  energy   TOTEN  =      -136.14043706 eV

  energy  without entropy=     -136.14043706  energy(sigma->0) =     -136.14043706

 stress matrix after NEB project (eV)
     -7.68200      0.00000     -0.00000
      0.00000     -7.68200      0.00000
     -0.00000      0.00000     -2.27752
  FORCES: max atom, RMS     0.024558    0.004037
  FORCE total and by dimension    0.024558    0.024558
  Stress total and by dimension   11.100149    7.681999
|           W    W    AA    RRRRR   N    N  II  N    N   GGGG   !!!           |
|           W    W   A  A   R    R  NN   N  II  NN   N  G    G  !!!           |
|           W    W  A    A  R    R  N N  N  II  N N  N  G       !!!           |
|           W WW W  AAAAAA  RRRRR   N  N N  II  N  N N  G  GGG   !            |
|           WW  WW  A    A  R   R   N   NN  II  N   NN  G    G                |
|           W    W  A    A  R    R  N    N  II  N    N   GGGG   !!!           |
|     Tetrahedron method does not include variations of the Fermi             |
|     occupations, so forces and stress will be inaccurate. We suggest        |
|     using a different smearing scheme ISMEAR = 1 or 2 for metals in         |
|     relaxations.                                                            |

 total charge

# of ion       s       p       d       tot
    1        0.448   0.285   9.187   9.921
    2        0.447   0.285   9.186   9.919
    3        0.447   0.285   9.186   9.919
    4        0.447   0.285   9.186   9.919
    5        0.451   0.283   9.185   9.919
    6        0.447   0.285   9.186   9.919
    7        0.447   0.285   9.186   9.919
    8        0.447   0.285   9.186   9.919
    9        0.448   0.285   9.188   9.921
   10        0.441   0.372   9.178   9.991
   11        0.442   0.368   9.180   9.990
   12        0.441   0.372   9.178   9.991
   13        0.442   0.368   9.180   9.990
   14        0.442   0.368   9.180   9.990
   15        0.439   0.371   9.176   9.987
   16        0.441   0.372   9.178   9.991
   17        0.439   0.371   9.176   9.987
   18        0.439   0.371   9.176   9.987
   19        0.440   0.368   9.181   9.989
   20        0.454   0.387   9.168  10.009
   21        0.454   0.387   9.168  10.009
   22        0.432   0.374   9.180   9.986
   23        0.454   0.387   9.168  10.009
   24        0.432   0.374   9.180   9.986
   25        0.440   0.368   9.181   9.989
   26        0.440   0.368   9.181   9.989
   27        0.432   0.374   9.180   9.986
   28        0.449   0.286   9.187   9.922
   29        0.460   0.297   9.174   9.930
   30        0.460   0.297   9.174   9.930
   31        0.460   0.297   9.174   9.930
   32        0.460   0.297   9.174   9.930
   33        0.460   0.297   9.174   9.930
   34        0.460   0.297   9.174   9.930
   35        0.450   0.285   9.186   9.921
   36        0.576   0.723   3.905   5.204
   37        1.000   1.215   0.000   2.215
tot         17.207  13.577 325.186 355.970

 BZINTS: Fermi energy:   -0.594428;  394.000000 electrons
         Band energy:-0.135693E+04;  BLOECHL correction:   -0.051495