 vasp.6.2.0 18Jan21 (build Jun 12 2021 23:27:24) complex

 executed on             LinuxIFC date 2022.05.26  20:12:58

 INCAR:
   ISMEAR = -5
   SIGMA = 0.1
   ISPIN = 1
   EDIFF = 1.d-5
   EDIFFG = -0.01
   NSW = 0
   NELM = 150
   ENCUT = 500
   ISIF = 2
   IBRION = 2
   LREAL = Auto
   ALGO = Fast
   ICHARG = 11
   LORBIT = 10
   LCHARG = .F.
   LWAVE = .F.

 POTCAR:    PAW_PBE Au 04Oct2007
 POTCAR:    PAW_PBE Mo 08Apr2002
|           W    W    AA    RRRRR   N    N  II  N    N   GGGG   !!!           |
|           W    W   A  A   R    R  NN   N  II  NN   N  G    G  !!!           |
|           W    W  A    A  R    R  N N  N  II  N N  N  G       !!!           |
|           W WW W  AAAAAA  RRRRR   N  N N  II  N  N N  G  GGG   !            |
|           WW  WW  A    A  R   R   N   NN  II  N   NN  G    G                |
|           W    W  A    A  R    R  N    N  II  N    N   GGGG   !!!           |
|     For optimal performance we recommend to set                             |
|       NCORE = 2 up to number-of-cores-per-socket                            |
|     This setting can greatly improve the performance of VASP for DFT.       |
|     The default, NCORE=1 might be grossly inefficient on modern             |
|     multi-core architectures or massively parallel machines. Do your        |
|     Unfortunately you need to use the default for GW and RPA                |
|     calculations (for HF NCORE is supported but not extensively tested      |
|     yet).                                                                   |

 POTCAR:    PAW_PBE Au 04Oct2007
   VRHFIN =Au: s1d10

   TITEL  = PAW_PBE Au 04Oct2007
   POMASS =  196.966; ZVAL   =   11.000    mass and valenz
   ENMAX  =  229.943; ENMIN  =  172.457 eV

 POTCAR:    PAW_PBE Mo 08Apr2002
   VRHFIN =Mo: 4p5s4d

   TITEL  = PAW_PBE Mo 08Apr2002
   POMASS =   95.940; ZVAL   =    6.000    mass and valenz
   ENMAX  =  224.584; ENMIN  =  168.438 eV

 Optimization of the real space projectors (new method)

 maximal supplied QI-value         = 15.12
 optimisation between [QCUT,QGAM] = [ 11.34, 22.83] = [ 36.00,145.93] Ry
 Optimized for a Real-space Cutoff    1.39 Angstroem

   l    n(q)    QCUT    max X(q) W(low)/X(q) W(high)/X(q)  e(spline)
   2      9    11.338    60.898    0.39E-03    0.42E-03    0.21E-06
   2      9    11.338    58.894    0.40E-03    0.42E-03    0.22E-06
   0      9    11.338   109.617    0.13E-03    0.20E-04    0.13E-06
   0      9    11.338    75.026    0.13E-03    0.20E-04    0.13E-06
   1      9    11.338    16.344    0.33E-04    0.24E-03    0.18E-06
   1      9    11.338    10.160    0.26E-04    0.19E-03    0.15E-06
 Optimization of the real space projectors (new method)

 maximal supplied QI-value         = 13.61
 optimisation between [QCUT,QGAM] = [ 11.43, 22.86] = [ 36.58,146.31] Ry
 Optimized for a Real-space Cutoff    1.56 Angstroem

   l    n(q)    QCUT    max X(q) W(low)/X(q) W(high)/X(q)  e(spline)
   2     10    11.429    80.908    0.27E-03    0.78E-03    0.13E-05
   2     10    11.429    79.000    0.27E-03    0.78E-03    0.13E-05
   0     11    11.429    52.066    0.33E-04    0.97E-04    0.72E-06
   0     11    11.429    24.514    0.27E-04    0.80E-04    0.60E-06
   1     10    11.429    16.033    0.31E-04    0.17E-03    0.36E-06
   1     10    11.429    11.179    0.22E-04    0.13E-03    0.29E-06
  PAW_PBE Au 04Oct2007                  :
  PAW_PBE Mo 08Apr2002                  :

 POSCAR: Au-Mo
  positions in direct lattice
  velocities in cartesian coordinates
 exchange correlation table for  LEXCH =        8
   RHO(1)=    0.500       N(1)  =     2000
   RHO(2)=  100.500       N(2)  =     4000

 VTST: version 3.2, (02/03/18)

 CHAIN: initializing optimizer

 OPT: Using VASP Conjugate-Gradient optimizer
 CHAIN: Read ICHAIN            0

 POSCAR: Au-Mo
  positions in direct lattice
  velocities in cartesian coordinates

 ion  position               nearest neighbor table
   1  0.000  0.000  0.238-  16 2.94  12 2.94   6 2.94   8 2.94   7 2.94   3 2.94  10 2.94   4 2.94
                             2 2.94
   2  0.333  0.000  0.238-   9 2.94  11 2.94  17 2.94  10 2.94   8 2.94   4 2.94   5 2.94   1 2.94
                             3 2.94
   3  0.667  0.000  0.238-   7 2.94  18 2.94  12 2.94   1 2.94  11 2.94   5 2.94   6 2.94   9 2.94
                             2 2.94
   4  0.000  0.333  0.238-  10 2.94   6 2.94   5 2.94  13 2.94   2 2.94  15 2.94   9 2.94   1 2.94
                             7 2.94
   5  0.333  0.333  0.238-  13 2.94   7 2.94  11 2.94   4 2.94   2 2.94  14 2.94   3 2.94   8 2.94
                             6 2.94
   6  0.667  0.333  0.238-  15 2.94  14 2.94   1 2.94  12 2.94   4 2.94   9 2.94   8 2.94   3 2.94
                             5 2.94
   7  0.000  0.667  0.238-  18 2.94   3 2.94  16 2.94   5 2.94   1 2.94  13 2.94   8 2.94   4 2.94
                             9 2.94
   8  0.333  0.667  0.238-   9 2.94  17 2.94   1 2.94   2 2.94  14 2.94  16 2.94   6 2.94   7 2.94
                             5 2.94
   9  0.667  0.667  0.238-   2 2.94   8 2.94  17 2.94   6 2.94  15 2.94   4 2.94   3 2.94  18 2.94
                             7 2.94
  10  0.111  0.111  0.346-  20 2.91  11 2.94  17 2.94   2 2.94   4 2.94   1 2.94  12 2.94  16 2.94
                            13 2.94  15 2.94  26 2.95  19 2.95
  11  0.444  0.111  0.346-  20 2.91  21 2.91  13 2.94   2 2.94  10 2.94  17 2.94   5 2.94   3 2.94
                            18 2.94  14 2.94  12 2.94  27 2.94
  12  0.778  0.111  0.346-  21 2.91  16 2.94  18 2.94   1 2.94  14 2.94  15 2.94   3 2.94   6 2.94
                            10 2.94  11 2.94  25 2.95  19 2.95
  13  0.111  0.444  0.346-  23 2.91  20 2.91   5 2.94  18 2.94  11 2.94   7 2.94   4 2.94  16 2.94
                            10 2.94  14 2.94  15 2.94  22 2.94
  14  0.444  0.444  0.346-  21 2.91  23 2.91  15 2.94   6 2.94  12 2.94   8 2.94  17 2.94   5 2.94
                            16 2.94  13 2.94  11 2.94  24 2.94
  15  0.778  0.444  0.346-  24 2.93  22 2.93  14 2.94   6 2.94  17 2.94  12 2.94   9 2.94   4 2.94
                            10 2.94  13 2.94  18 2.94  19 2.95
  16  0.111  0.778  0.346-  23 2.91  18 2.94  12 2.94   7 2.94   1 2.94   8 2.94  13 2.94  10 2.94
                            14 2.94  17 2.94  25 2.95  26 2.95
  17  0.444  0.778  0.346-  27 2.93  24 2.93   9 2.94  15 2.94   2 2.94  10 2.94  11 2.94   8 2.94
                            14 2.94  16 2.94  18 2.94  26 2.95
  18  0.778  0.778  0.346-  22 2.93  27 2.93  16 2.94   7 2.94  13 2.94  12 2.94   3 2.94  11 2.94
                             9 2.94  15 2.94  17 2.94  25 2.95
  19  0.889  0.223  0.455-  24 2.93  22 2.93  21 2.94  20 2.94  28 2.95  26 2.95  25 2.95  15 2.95
                            10 2.95  12 2.95  32 3.02  31 3.02
  20  0.222  0.222  0.453-  36 2.77  11 2.91  13 2.91  10 2.91  23 2.94  21 2.94  26 2.94  19 2.94
                            27 2.95  22 2.95  29 2.98  31 2.98
  21  0.555  0.222  0.453-  36 2.77  14 2.91  11 2.91  12 2.91  20 2.94  23 2.94  25 2.94  19 2.94
                            27 2.95  24 2.95  30 2.98  32 2.98
  22  0.887  0.557  0.454-  24 2.91  27 2.91  18 2.93  15 2.93  25 2.93  19 2.93  13 2.94  35 2.95
                            23 2.95  20 2.95  33 3.00  31 3.00
  23  0.222  0.555  0.453-  36 2.77  13 2.91  14 2.91  16 2.91  20 2.94  21 2.94  25 2.94  26 2.94
                            22 2.95  24 2.95  33 2.98  34 2.98
  24  0.557  0.557  0.454-  27 2.91  22 2.91  15 2.93  17 2.93  26 2.93  19 2.93  14 2.94  35 2.95
                            21 2.95  23 2.95  32 3.00  34 3.00
  25  0.889  0.889  0.455-  22 2.93  27 2.93  23 2.94  21 2.94  28 2.95  19 2.95  26 2.95  18 2.95
                            16 2.95  12 2.95  33 3.02  30 3.02
  26  0.223  0.889  0.455-  27 2.93  24 2.93  20 2.94  23 2.94  28 2.95  19 2.95  25 2.95  17 2.95
                            10 2.95  16 2.95  29 3.02  34 3.02
  27  0.557  0.887  0.454-  24 2.91  22 2.91  17 2.93  18 2.93  26 2.93  25 2.93  11 2.94  35 2.95
                            20 2.95  21 2.95  29 3.00  30 3.00
  28  0.000  0.000  0.563-  25 2.95  19 2.95  26 2.95  34 2.98  32 2.98  33 2.98  30 2.98  31 2.98
                            29 2.98
  29  0.333  0.010  0.565-  30 2.85  31 2.85  36 2.87  20 2.98  35 2.98  28 2.98  27 3.00  26 3.02
                            34 3.11
  30  0.657  0.010  0.565-  29 2.85  32 2.85  36 2.87  21 2.98  35 2.98  28 2.98  27 3.00  25 3.02
                            33 3.11
  31  0.010  0.333  0.565-  33 2.85  29 2.85  36 2.87  20 2.98  35 2.98  28 2.98  22 3.00  19 3.02
                            32 3.11
  32  0.657  0.333  0.565-  34 2.85  30 2.85  36 2.87  21 2.98  35 2.98  28 2.98  24 3.00  19 3.02
                            31 3.11
  33  0.010  0.657  0.565-  31 2.85  34 2.85  36 2.87  23 2.98  35 2.98  28 2.98  22 3.00  25 3.02
                            30 3.11
  34  0.333  0.657  0.565-  32 2.85  33 2.85  36 2.87  23 2.98  35 2.98  28 2.98  24 3.00  26 3.02
                            29 3.11
  35  0.667  0.667  0.563-  24 2.95  27 2.95  22 2.95  29 2.98  34 2.98  32 2.98  31 2.98  30 2.98
                            33 2.98
  36  0.333  0.333  0.551-  20 2.77  23 2.77  21 2.77  33 2.87  31 2.87  29 2.87  30 2.87  34 2.87
                            32 2.87

  LATTYP: Found a hexagonal cell.
 ALAT       =     8.8135128021
 C/A-ratio  =     2.5184286595

  Lattice vectors:

 A1 = (  -4.4067569092,  -7.6327256898,   0.0000000000)
 A2 = (   8.8135128021,   0.0000000000,   0.0000000000)
 A3 = (   0.0000000000,   0.0000000000,  22.1962032318)

Analysis of symmetry for initial positions (statically):
 Subroutine PRICEL returns:
 Original cell was already a primitive cell.

 Routine SETGRP: Setting up the symmetry group for a
 hexagonal supercell.

 Subroutine GETGRP returns: Found  6 space group operations
 (whereof  6 operations were pure point group operations)
 out of a pool of 24 trial point group operations.

The static configuration has the point symmetry C_3v.

Analysis of symmetry for dynamics (positions and initial velocities):
 Subroutine PRICEL returns:
 Original cell was already a primitive cell.

[...]

The dynamic configuration has the point symmetry C_3v.

Analysis of constrained symmetry for selective dynamics:
 Subroutine PRICEL returns:
 Original cell was already a primitive cell.

 Routine SETGRP: Setting up the symmetry group for a
 hexagonal supercell.

 Subroutine GETGRP returns: Found  6 space group operations
 (whereof  6 operations were pure point group operations)
 out of a pool of 24 trial point group operations.

The constrained configuration has the point symmetry C_3v.

 Subroutine INISYM returns: Found  6 space group operations
 (whereof  6 operations are pure point group operations),
 and found     1 'primitive' translations

                                     Primitive cell

  volume of cell :    1493.1636

  direct lattice vectors                    reciprocal lattice vectors
     8.813512802  0.000000000  0.000000000     0.113462137 -0.065507406  0.000000000
     4.406756909  7.632725690  0.000000000     0.000000000  0.131014796  0.000000000
[...]
     15      -5.2275      2.00000
     16      -5.2118      2.00000
     17      -5.2098      2.00000
     18      -5.1816      2.00000
     19      -5.1544      2.00000
     20      -5.1312      2.00000
     21      -5.1256      2.00000
     22      -5.1118      2.00000
     23      -5.0523      2.00000
     24      -5.0205      2.00000
     25      -5.0001      2.00000
     26      -4.9765      2.00000
     27      -4.9195      2.00000
     28      -4.8867      2.00000
     29      -4.8006      2.00000
     30      -4.7793      2.00000
     31      -4.7684      2.00000
     32      -4.7251      2.00000
     33      -4.7100      2.00000
     34      -4.7024      2.00000
     35      -4.6501      2.00000
     36      -4.6431      2.00000
     37      -4.5172      2.00000
     38      -4.4999      2.00000
     39      -4.4466      2.00000
     40      -4.3855      2.00000
     41      -4.3633      2.00000
     42      -4.3288      2.00000
     43      -4.3072      2.00000
     44      -4.2794      2.00000
     45      -4.2640      2.00000
     46      -4.1657      2.00000
     47      -4.1518      2.00000
     48      -4.1214      2.00000
     49      -4.0962      2.00000
     50      -4.0912      2.00000
     51      -4.0891      2.00000
     52      -4.0693      2.00000
     53      -4.0431      2.00000
     54      -3.9956      2.00000
     55      -3.9733      2.00000
     56      -3.9591      2.00000
     57      -3.9471      2.00000
     58      -3.9358      2.00000
     59      -3.9313      2.00000
     60      -3.9089      2.00000
[...]
    238       6.7519      0.00000
    239       6.7627      0.00000
    240       6.8225      0.00000
    241       6.8623      0.00000
    242       7.0329      0.00000
    243       7.1639      0.00000
    244       7.2507      0.00000
    245       7.3280      0.00000
    246       7.5718      0.00000
    247       7.6223      0.00000
    248       7.7591      0.00000
    249       7.7677      0.00000
    250       7.8992      0.00000
    251       8.0340      0.00000
    252       8.0705      0.00000

 soft charge-density along one line, spin component           1
         0         1         2         3         4         5         6         7         8         9
 total charge-density along one line

------------------------ aborting loop because EDIFF is reached ----------------------------------------

 total charge

# of ion       s       p       d       tot
    1        0.548   0.238   8.766   9.552
    2        0.543   0.241   8.766   9.550
    3        0.543   0.241   8.766   9.550
    4        0.543   0.241   8.766   9.550
    5        0.544   0.240   8.762   9.547
    6        0.543   0.241   8.766   9.550
    7        0.543   0.241   8.766   9.550
    8        0.543   0.241   8.766   9.550
    9        0.543   0.239   8.769   9.550
   10        0.528   0.306   8.765   9.600
   11        0.521   0.306   8.782   9.609
   12        0.528   0.306   8.765   9.600
   13        0.521   0.306   8.782   9.609
   14        0.521   0.306   8.782   9.609
   15        0.516   0.307   8.776   9.599
   16        0.528   0.306   8.765   9.600
   17        0.516   0.307   8.776   9.599
   18        0.516   0.307   8.776   9.599
   19        0.516   0.296   8.773   9.586
   20        0.565   0.339   8.729   9.633
   21        0.565   0.339   8.729   9.633
   22        0.506   0.305   8.780   9.590
   23        0.565   0.339   8.729   9.633
   24        0.506   0.305   8.780   9.590
   25        0.516   0.296   8.773   9.586
   26        0.516   0.296   8.773   9.586
   27        0.506   0.305   8.780   9.590
   28        0.541   0.229   8.754   9.523
   29        0.579   0.249   8.729   9.557
   30        0.579   0.249   8.729   9.557
   31        0.579   0.249   8.729   9.557
   32        0.579   0.249   8.729   9.557
   33        0.579   0.249   8.729   9.557
   34        0.579   0.249   8.729   9.557
   35        0.536   0.228   8.758   9.522
   36        0.376   0.304   4.032   4.712
tot         19.277   9.992 310.628 339.897

  FORCE on cell =-STRESS in cart. coord.  units (eV):
  Direction    XX          YY          ZZ          XY          YZ          ZX
  Alpha Z  1000.45554  1000.45554  1000.45554
  Ewald  117288.57835117288.57873************    -0.00033    -0.00009    -0.00018
  Hartree125796.77302125796.77302************    -0.00000    -0.00003    -0.00005
  E(xc)   -1753.91026 -1753.91025 -1761.87008    -0.00001    -0.00000    -0.00000
  Local  ************************255454.13399     0.00172     0.00005     0.00011
  n-local   -92.51285   -41.87892   -41.27608    23.82255    -1.26451     1.22291
  augment  2371.61198  2371.61348  2393.10451    -0.00130     0.00002     0.00004
  Kinetic  5405.71986  5419.08339  5481.70545     7.64593    -0.23433     0.80388
  Fock        0.00000     0.00000     0.00000     0.00000     0.00000     0.00000
  Total     -23.46990   -23.46989     3.35314    -0.00000     0.00000     0.00000
  in kB     -25.18340   -25.18340     3.59795    -0.00000     0.00000     0.00000

 VOLUME and BASIS-vectors are now :
  energy-cutoff  :      500.00
  volume of cell :     1493.16
      direct lattice vectors                 reciprocal lattice vectors
     8.813512802  0.000000000  0.000000000     0.113462137 -0.065507406  0.000000000
     4.406756909  7.632725690  0.000000000     0.000000000  0.131014796  0.000000000
     0.000000000  0.000000000 22.196203232     0.000000000  0.000000000  0.045052750

  length of vectors
     8.813512802  8.813512802 22.196203232     0.131014796  0.131014796  0.045052750

 FORCES acting on ions
    electron-ion (+dipol)            ewald-force                    non-local-force                 convergence-correction
   -.197E-04 -.163E-04 0.245E+04   0.519E-04 0.433E-04 -.245E+04   -.211E-19 0.616E-18 -.887E+00   -.280E-03 -.175E-03 -.240E+00
   0.287E+00 -.176E+00 0.245E+04   -.493E+00 -.137E-01 -.245E+04   0.824E-01 0.120E+00 -.255E+00   0.107E+00 0.623E-01 -.299E+00
   -.287E+00 -.176E+00 0.245E+04   0.493E+00 -.137E-01 -.245E+04   -.824E-01 0.120E+00 -.255E+00   -.107E+00 0.643E-01 -.298E+00
   -.921E-02 0.337E+00 0.245E+04   -.259E+00 -.420E+00 -.245E+04   0.145E+00 0.116E-01 -.255E+00   0.108E+00 0.615E-01 -.299E+00
   0.734E-05 -.241E-04 0.245E+04   0.951E-04 0.174E-05 -.245E+04   0.107E-17 0.256E-17 -.215E-01   0.439E-02 0.267E-02 -.259E+00
   0.916E-02 0.337E+00 0.245E+04   0.258E+00 -.420E+00 -.245E+04   -.145E+00 0.116E-01 -.255E+00   -.109E+00 0.624E-01 -.298E+00
   -.296E+00 -.160E+00 0.245E+04   0.235E+00 0.434E+00 -.245E+04   0.623E-01 -.131E+00 -.255E+00   0.242E-02 -.125E+00 -.298E+00
   0.296E+00 -.160E+00 0.245E+04   -.235E+00 0.434E+00 -.245E+04   -.623E-01 -.131E+00 -.255E+00   -.504E-03 -.126E+00 -.298E+00
   0.198E-04 -.416E-04 0.246E+04   0.166E-03 -.200E-04 -.245E+04   0.183E-17 -.233E-17 -.491E+00   -.466E-02 -.241E-02 -.282E+00
   0.468E+01 0.270E+01 0.784E+03   -.422E+01 -.244E+01 -.783E+03   -.420E+00 -.242E+00 -.765E+00   -.175E-01 -.102E-01 0.219E+00
   0.142E-04 0.150E+01 0.787E+03   0.148E-03 -.157E+01 -.787E+03   0.197E-08 0.295E-01 -.893E-01   0.425E-02 -.171E-01 0.288E+00
   -.468E+01 0.270E+01 0.784E+03   0.422E+01 -.244E+01 -.783E+03   0.420E+00 -.242E+00 -.765E+00   0.155E-01 -.824E-02 0.220E+00
   0.130E+01 -.749E+00 0.787E+03   -.136E+01 0.786E+00 -.787E+03   0.256E-01 -.148E-01 -.893E-01   -.124E-01 0.125E-01 0.288E+00
   -.130E+01 -.749E+00 0.787E+03   0.136E+01 0.786E+00 -.787E+03   -.256E-01 -.148E-01 -.893E-01   0.207E-01 0.118E-01 0.289E+00
   0.319E-04 0.462E+01 0.788E+03   0.235E-03 -.479E+01 -.788E+03   0.176E-08 0.264E-01 -.505E+00   -.297E-02 0.784E-01 0.253E+00
   -.209E-04 -.541E+01 0.784E+03   0.162E-03 0.487E+01 -.783E+03   0.323E-07 0.485E+00 -.765E+00   0.397E-03 0.176E-01 0.220E+00
   0.400E+01 -.231E+01 0.788E+03   -.415E+01 0.240E+01 -.788E+03   0.228E-01 -.132E-01 -.505E+00   0.667E-01 -.414E-01 0.253E+00
   -.400E+01 -.231E+01 0.788E+03   0.415E+01 0.240E+01 -.788E+03   -.228E-01 -.132E-01 -.505E+00   -.666E-01 -.387E-01 0.253E+00
   -.424E-04 -.967E+00 -.904E+03   0.555E-04 0.861E+00 0.903E+03   0.477E-09 0.716E-02 0.434E+00   -.590E-02 0.100E+00 0.808E+00
   -.101E+02 -.585E+01 -.894E+03   0.109E+02 0.627E+01 0.894E+03   -.103E+01 -.596E+00 -.117E+01   0.294E+00 0.170E+00 0.126E+01
   0.101E+02 -.585E+01 -.894E+03   -.109E+02 0.627E+01 0.894E+03   0.103E+01 -.596E+00 -.117E+01   -.285E+00 0.172E+00 0.126E+01
   -.155E+02 0.895E+01 -.891E+03   0.150E+02 -.865E+01 0.889E+03   0.431E+00 -.249E+00 0.570E+00   0.930E-01 -.566E-01 0.834E+00
   -.925E-05 0.117E+02 -.894E+03   0.138E-03 -.125E+02 0.894E+03   0.794E-07 0.119E+01 -.117E+01   0.580E-02 -.333E+00 0.126E+01
   0.155E+02 0.895E+01 -.891E+03   -.150E+02 -.865E+01 0.889E+03   -.431E+00 -.249E+00 0.570E+00   -.101E+00 -.584E-01 0.833E+00
   0.838E+00 0.484E+00 -.904E+03   -.746E+00 -.431E+00 0.903E+03   -.620E-02 -.358E-02 0.434E+00   -.894E-01 -.517E-01 0.807E+00
   -.838E+00 0.484E+00 -.904E+03   0.746E+00 -.431E+00 0.903E+03   0.620E-02 -.358E-02 0.434E+00   0.844E-01 -.553E-01 0.808E+00
   0.840E-05 -.179E+02 -.891E+03   0.199E-03 0.173E+02 0.889E+03   0.331E-07 0.497E+00 0.570E+00   -.309E-02 0.109E+00 0.834E+00
   -.963E-05 -.104E-04 -.246E+04   0.270E-04 0.300E-04 0.246E+04   -.120E-17 -.845E-18 0.453E+00   -.269E-03 -.170E-03 0.522E+00
   -.867E+01 -.169E+02 -.248E+04   0.951E+01 0.182E+02 0.248E+04   -.115E+01 -.177E+01 -.260E+00   0.308E+00 0.440E+00 0.478E+00
   0.867E+01 -.169E+02 -.248E+04   -.951E+01 0.182E+02 0.248E+04   0.115E+01 -.177E+01 -.260E+00   -.307E+00 0.442E+00 0.478E+00
   -.190E+02 0.932E+00 -.248E+04   0.205E+02 -.870E+00 0.248E+04   -.211E+01 -.111E+00 -.260E+00   0.535E+00 0.461E-01 0.478E+00
   0.190E+02 0.932E+00 -.248E+04   -.205E+02 -.870E+00 0.248E+04   0.211E+01 -.111E+00 -.260E+00   -.536E+00 0.468E-01 0.476E+00
   -.103E+02 0.160E+02 -.248E+04   0.110E+02 -.173E+02 0.248E+04   -.958E+00 0.188E+01 -.260E+00   0.230E+00 -.487E+00 0.478E+00
   0.103E+02 0.160E+02 -.248E+04   -.110E+02 -.173E+02 0.248E+04   0.958E+00 0.188E+01 -.260E+00   -.228E+00 -.488E+00 0.476E+00
   0.326E-04 -.336E-04 -.247E+04   0.144E-03 -.455E-04 0.246E+04   -.775E-17 -.485E-17 0.673E+00   -.472E-02 -.243E-02 0.541E+00
   -.252E-04 0.417E-07 -.130E+04   0.625E-04 0.565E-05 0.129E+04   -.210E-17 -.323E-18 0.272E+01   0.104E-02 0.617E-03 0.371E+00
   -.817E-03 -.776E-03 -.703E+01   -.329E-13 0.263E-12 0.682E-12   0.656E-15 0.217E-15 -.520E+01   -.129E-02 -.184E-03 0.127E+02

 POSITION                                       TOTAL-FORCE (eV/Angst)
      0.00000      0.00000      5.28038        -0.000000     -0.000000     -0.171527
      2.93784      0.00000      5.28038        -0.016264     -0.007183     -0.077042
      5.87568      0.00000      5.28038         0.016264     -0.007183     -0.077042
      1.46892      2.54424      5.28038        -0.014353     -0.010493     -0.077042
      4.40676      2.54424      5.28038        -0.000000      0.000000     -0.101063
      7.34459      2.54424      5.28038         0.014353     -0.010493     -0.077042
      2.93784      5.08848      5.28038         0.001911      0.017677     -0.077042
      5.87568      5.08848      5.28038        -0.001911      0.017677     -0.077042
      8.81351      5.08848      5.28038        -0.000000     -0.000000     -0.095506
      1.46892      0.84808      7.67911         0.027047      0.015616      0.155826
      4.40676      0.84808      7.67911        -0.000000     -0.063625      0.001343
      7.34459      0.84808      7.67911        -0.027047      0.015616      0.155826
      2.93784      3.39232      7.67911        -0.055100      0.031812      0.001343
      5.87568      3.39232      7.67911         0.055100      0.031812      0.001343
      8.81351      3.39232      7.67911        -0.000000     -0.064218      0.107793
      4.40676      5.93656      7.67911        -0.000000     -0.031232      0.155826
      7.34459      5.93656      7.67911        -0.055614      0.032109      0.107793
     10.28243      5.93656      7.67911         0.055614      0.032109      0.107793
      8.81351      1.70181     10.09390         0.000000      0.002663     -0.002430
      2.93906      1.69686     10.04479        -0.013095     -0.007560     -0.001767
      5.87446      1.69686     10.04479         0.013095     -0.007560     -0.001767
     10.26694      4.24935     10.06849         0.006873     -0.003968     -0.009465
      4.40676      4.23900     10.04479         0.000000      0.015121     -0.001767
      7.36009      4.24935     10.06849        -0.006873     -0.003968     -0.009465
     11.74646      6.78182     10.09390        -0.002306     -0.001331     -0.002430
      5.88057      6.78182     10.09390         0.002306     -0.001331     -0.002430
      8.81351      6.76675     10.06849         0.000000      0.007936     -0.009465
      0.00000      0.00000     12.49934        -0.000000     -0.000000     -0.006147
      2.98260      0.07565     12.53968        -0.001446      0.005363      0.009853
      5.83091      0.07565     12.53968         0.001446      0.005363      0.009853
      1.55682      2.54518     12.53968         0.003921     -0.003934      0.009853
      7.25669      2.54518     12.53968        -0.003921     -0.003934      0.009853
      2.98097      5.01189     12.53968         0.005367     -0.001429      0.009853
      5.83254      5.01189     12.53968        -0.005367     -0.001429      0.009853
      8.81351      5.08848     12.49853        -0.000000     -0.000000      0.014793
      4.40676      2.54424     12.23451        -0.000000     -0.000000      0.008683
    total drift:                               -0.002111     -0.000960      0.488868

  FREE ENERGIE OF THE ION-ELECTRON SYSTEM (eV)
  free  energy   TOTEN  =      -115.36368648 eV

  energy  without entropy=     -115.36368648  energy(sigma->0) =     -115.36368648

 stress matrix after NEB project (eV)
    -23.46990     -0.00000      0.00000
     -0.00000    -23.46989      0.00000
     -0.00000      0.00000      3.35314
  FORCES: max atom, RMS     0.015223    0.007978
  FORCE total and by dimension    0.047870    0.015121
  Stress total and by dimension   33.360388   23.469895
|           W    W    AA    RRRRR   N    N  II  N    N   GGGG   !!!           |
|           W    W   A  A   R    R  NN   N  II  NN   N  G    G  !!!           |
|           W    W  A    A  R    R  N N  N  II  N N  N  G       !!!           |
|           W WW W  AAAAAA  RRRRR   N  N N  II  N  N N  G  GGG   !            |
|           WW  WW  A    A  R   R   N   NN  II  N   NN  G    G                |
|           W    W  A    A  R    R  N    N  II  N    N   GGGG   !!!           |
|     Tetrahedron method does not include variations of the Fermi             |
|     occupations, so forces and stress will be inaccurate. We suggest        |
|     using a different smearing scheme ISMEAR = 1 or 2 for metals in         |
|     relaxations.                                                            |

 total charge

# of ion       s       p       d       tot
    1        0.548   0.238   8.766   9.552
    2        0.543   0.241   8.766   9.550
    3        0.543   0.241   8.766   9.550
    4        0.543   0.241   8.766   9.550
    5        0.544   0.240   8.762   9.547
    6        0.543   0.241   8.766   9.550
    7        0.543   0.241   8.766   9.550
    8        0.543   0.241   8.766   9.550
    9        0.543   0.239   8.769   9.550
   10        0.528   0.306   8.765   9.600
   11        0.521   0.306   8.782   9.609
   12        0.528   0.306   8.765   9.600
   13        0.521   0.306   8.782   9.609
   14        0.521   0.306   8.782   9.609
   15        0.516   0.307   8.776   9.599
   16        0.528   0.306   8.765   9.600
   17        0.516   0.307   8.776   9.599
   18        0.516   0.307   8.776   9.599
   19        0.516   0.296   8.773   9.586
   20        0.565   0.339   8.729   9.633
   21        0.565   0.339   8.729   9.633
   22        0.506   0.305   8.780   9.590
   23        0.565   0.339   8.729   9.633
   24        0.506   0.305   8.780   9.590
   25        0.516   0.296   8.773   9.586
   26        0.516   0.296   8.773   9.586
   27        0.506   0.305   8.780   9.590
   28        0.541   0.229   8.754   9.523
   29        0.579   0.249   8.729   9.557
   30        0.579   0.249   8.729   9.557
   31        0.579   0.249   8.729   9.557
   32        0.579   0.249   8.729   9.557
   33        0.579   0.249   8.729   9.557
   34        0.579   0.249   8.729   9.557
   35        0.536   0.228   8.758   9.522
   36        0.376   0.304   4.032   4.712
tot         19.277   9.992 310.628 339.897

 BZINTS: Fermi energy:    0.698677;  391.000000 electrons
         Band energy:-0.117923E+04;  BLOECHL correction:   -0.032975