 vasp.6.2.0 18Jan21 (build Jun 12 2021 23:27:24) complex

 executed on             LinuxIFC date 2022.05.26  19:32:37

 INCAR:
   ISMEAR = -5
   SIGMA = 0.1
   ISPIN = 1
   EDIFF = 1.d-5
   EDIFFG = -0.01
   NSW = 0
   NELM = 150
   ENCUT = 500
   ISIF = 2
   IBRION = 2
   LREAL = Auto
   ALGO = Fast
   ICHARG = 11
   LORBIT = 10
   LCHARG = .F.
   LWAVE = .F.

 POTCAR:    PAW_PBE Au 04Oct2007
 POTCAR:    PAW_PBE W 08Apr2002
 POTCAR:    PAW_PBE O 08Apr2002
|           W    W    AA    RRRRR   N    N  II  N    N   GGGG   !!!           |
|           W    W   A  A   R    R  NN   N  II  NN   N  G    G  !!!           |
|           W    W  A    A  R    R  N N  N  II  N N  N  G       !!!           |
|           W WW W  AAAAAA  RRRRR   N  N N  II  N  N N  G  GGG   !            |
|           WW  WW  A    A  R   R   N   NN  II  N   NN  G    G                |
|           W    W  A    A  R    R  N    N  II  N    N   GGGG   !!!           |
|     For optimal performance we recommend to set                             |
|       NCORE = 2 up to number-of-cores-per-socket                            |
|     This setting can greatly improve the performance of VASP for DFT.       |
|     The default, NCORE=1 might be grossly inefficient on modern             |
|     multi-core architectures or massively parallel machines. Do your        |
|     Unfortunately you need to use the default for GW and RPA                |
|     calculations (for HF NCORE is supported but not extensively tested      |
|     yet).                                                                   |

 POTCAR:    PAW_PBE Au 04Oct2007
   VRHFIN =Au: s1d10

   TITEL  = PAW_PBE Au 04Oct2007
   POMASS =  196.966; ZVAL   =   11.000    mass and valenz
   ENMAX  =  229.943; ENMIN  =  172.457 eV

 POTCAR:    PAW_PBE W 08Apr2002
   VRHFIN =W : 6s5d

   TITEL  = PAW_PBE W 08Apr2002
   POMASS =  183.850; ZVAL   =    6.000    mass and valenz
   ENMAX  =  223.057; ENMIN  =  167.293 eV

 POTCAR:    PAW_PBE O 08Apr2002
   VRHFIN =O: s2p4

   TITEL  = PAW_PBE O 08Apr2002
   POMASS =   16.000; ZVAL   =    6.000    mass and valenz
   ENMAX  =  400.000; ENMIN  =  300.000 eV

 Optimization of the real space projectors (new method)

 maximal supplied QI-value         = 15.12
 optimisation between [QCUT,QGAM] = [ 11.34, 22.83] = [ 36.00,145.93] Ry
 Optimized for a Real-space Cutoff    1.39 Angstroem

   l    n(q)    QCUT    max X(q) W(low)/X(q) W(high)/X(q)  e(spline)
   2      9    11.338    60.898    0.39E-03    0.42E-03    0.21E-06
   2      9    11.338    58.894    0.40E-03    0.42E-03    0.22E-06
   0      9    11.338   109.617    0.13E-03    0.20E-04    0.13E-06
   0      9    11.338    75.026    0.13E-03    0.20E-04    0.13E-06
   1      9    11.338    16.344    0.33E-04    0.24E-03    0.18E-06
   1      9    11.338    10.160    0.26E-04    0.19E-03    0.15E-06
 Optimization of the real space projectors (new method)

[...]

   l    n(q)    QCUT    max X(q) W(low)/X(q) W(high)/X(q)  e(spline)
   2     10    11.429   130.855    0.22E-03    0.64E-03    0.11E-05
   2     10    11.429   114.007    0.22E-03    0.64E-03    0.11E-05
   0     11    11.429    84.709    0.39E-04    0.67E-04    0.23E-06
   0     11    11.429    49.163    0.35E-04    0.62E-04    0.21E-06
   1     10    11.429    15.765    0.84E-04    0.15E-03    0.24E-06
   1     10    11.429    10.638    0.58E-04    0.12E-03    0.19E-06
 Optimization of the real space projectors (new method)

 maximal supplied QI-value         = 24.76
 optimisation between [QCUT,QGAM] = [ 11.39, 22.77] = [ 36.31,145.25] Ry
 Optimized for a Real-space Cutoff    1.00 Angstroem

   l    n(q)    QCUT    max X(q) W(low)/X(q) W(high)/X(q)  e(spline)
   0      7    11.387    20.381    0.39E-03    0.13E-02    0.15E-06
   0      7    11.387    15.268    0.42E-03    0.14E-02    0.17E-06
   1      6    11.387     5.964    0.41E-03    0.11E-02    0.17E-06
   1      6    11.387     5.382    0.39E-03    0.87E-03    0.15E-06
  PAW_PBE Au 04Oct2007                  :
  PAW_PBE W 08Apr2002                   :
  PAW_PBE O 08Apr2002                   :

 POSCAR: Au-W-O
  positions in direct lattice
  velocities in cartesian coordinates
 exchange correlation table for  LEXCH =        8
   RHO(1)=    0.500       N(1)  =     2000
   RHO(2)=  100.500       N(2)  =     4000

 VTST: version 3.2, (02/03/18)

 CHAIN: initializing optimizer

 OPT: Using VASP Conjugate-Gradient optimizer
 CHAIN: Read ICHAIN            0

 POSCAR: Au-W-O
  positions in direct lattice
  velocities in cartesian coordinates

 ion  position               nearest neighbor table
   1  0.000  0.000  0.238-  16 2.94  12 2.94   6 2.94   8 2.94   7 2.94   3 2.94  10 2.94   4 2.94
                             2 2.94
   2  0.333  0.000  0.238-   9 2.94  11 2.94  17 2.94  10 2.94   8 2.94   4 2.94   5 2.94   1 2.94
                             3 2.94
   3  0.667  0.000  0.238-   7 2.94  18 2.94  12 2.94   1 2.94  11 2.94   5 2.94   6 2.94   9 2.94
                             2 2.94
   4  0.000  0.333  0.238-  10 2.94   6 2.94   5 2.94  13 2.94   2 2.94  15 2.94   9 2.94   1 2.94
                             7 2.94
   5  0.333  0.333  0.238-  13 2.94   7 2.94  11 2.94   4 2.94   2 2.94  14 2.94   3 2.94   8 2.94
                             6 2.94
   6  0.667  0.333  0.238-  15 2.94  14 2.94   1 2.94  12 2.94   4 2.94   9 2.94   8 2.94   3 2.94
                             5 2.94
   7  0.000  0.667  0.238-  18 2.94   3 2.94  16 2.94   5 2.94   1 2.94  13 2.94   8 2.94   4 2.94
                             9 2.94
   8  0.333  0.667  0.238-   9 2.94  17 2.94   1 2.94   2 2.94  14 2.94  16 2.94   6 2.94   7 2.94
                             5 2.94
   9  0.667  0.667  0.238-   2 2.94   8 2.94  17 2.94   6 2.94  15 2.94   4 2.94   3 2.94  18 2.94
                             7 2.94
  10  0.111  0.111  0.346-  20 2.90  11 2.94  17 2.94   2 2.94   4 2.94   1 2.94  12 2.94  16 2.94
                            13 2.94  15 2.94  26 2.96  19 2.96
  11  0.444  0.111  0.346-  20 2.91  21 2.91  13 2.94   2 2.94  10 2.94  17 2.94   5 2.94   3 2.94
                            18 2.94  14 2.94  12 2.94  27 2.94
  12  0.778  0.111  0.346-  21 2.90  16 2.94  18 2.94   1 2.94  14 2.94  15 2.94   3 2.94   6 2.94
                            10 2.94  11 2.94  25 2.96  19 2.96
  13  0.111  0.444  0.346-  23 2.91  20 2.91   5 2.94  18 2.94  11 2.94   7 2.94   4 2.94  16 2.94
                            10 2.94  14 2.94  15 2.94  22 2.94
  14  0.444  0.444  0.346-  21 2.91  23 2.91  15 2.94   6 2.94  12 2.94   8 2.94  17 2.94   5 2.94
                            16 2.94  13 2.94  11 2.94  24 2.94
  15  0.778  0.444  0.346-  24 2.92  22 2.92  14 2.94   6 2.94  17 2.94  12 2.94   9 2.94   4 2.94
                            10 2.94  13 2.94  18 2.94  19 2.95
  16  0.111  0.778  0.346-  23 2.90  18 2.94  12 2.94   7 2.94   1 2.94   8 2.94  13 2.94  10 2.94
                            14 2.94  17 2.94  25 2.96  26 2.96
  17  0.444  0.778  0.346-  27 2.92  24 2.92   9 2.94  15 2.94   2 2.94  10 2.94  11 2.94   8 2.94
                            14 2.94  16 2.94  18 2.94  26 2.95
  18  0.778  0.778  0.346-  22 2.92  27 2.92  16 2.94   7 2.94  13 2.94  12 2.94   3 2.94  11 2.94
                             9 2.94  15 2.94  17 2.94  25 2.95
  19  0.888  0.224  0.455-  24 2.93  22 2.93  21 2.93  20 2.93  28 2.94  15 2.95  26 2.96  25 2.96
                            10 2.96  12 2.96  32 3.04  31 3.04
  20  0.222  0.222  0.452-  36 2.74  10 2.90  11 2.91  13 2.91  26 2.93  19 2.93  23 2.95  21 2.95
                            27 2.96  22 2.96  29 2.98  31 2.98
  21  0.557  0.222  0.452-  36 2.74  12 2.90  14 2.91  11 2.91  25 2.93  19 2.93  20 2.95  23 2.95
                            27 2.96  24 2.96  30 2.98  32 2.98
  22  0.886  0.557  0.454-  24 2.90  27 2.90  18 2.92  15 2.92  25 2.93  19 2.93  13 2.94  35 2.95
                            23 2.96  20 2.96  33 3.02  31 3.02
  23  0.222  0.557  0.452-  36 2.74  16 2.90  13 2.91  14 2.91  25 2.93  26 2.93  20 2.95  21 2.95
                            22 2.96  24 2.96  33 2.98  34 2.98
  24  0.557  0.557  0.454-  27 2.90  22 2.90  15 2.92  17 2.92  26 2.93  19 2.93  14 2.94  35 2.95
                            21 2.96  23 2.96  32 3.02  34 3.02
  25  0.888  0.888  0.455-  22 2.93  27 2.93  23 2.93  21 2.93  28 2.94  18 2.95  19 2.96  26 2.96
                            16 2.96  12 2.96  33 3.04  30 3.04
  26  0.224  0.888  0.455-  27 2.93  24 2.93  20 2.93  23 2.93  28 2.94  17 2.95  19 2.96  25 2.96
                            10 2.96  16 2.96  29 3.04  34 3.04
  27  0.557  0.886  0.454-  24 2.90  22 2.90  17 2.92  18 2.92  26 2.93  25 2.93  11 2.94  35 2.95
                            20 2.96  21 2.96  29 3.02  30 3.02
  28  0.000  0.000  0.563-  25 2.94  19 2.94  26 2.94  34 3.00  32 3.00  33 3.00  30 3.00  31 3.00
                            29 3.00
  29  0.334  0.013  0.566-  30 2.82  31 2.82  36 2.84  20 2.98  35 3.00  28 3.00  27 3.02  26 3.04
                            34 3.17
  30  0.653  0.013  0.566-  29 2.82  32 2.82  36 2.84  21 2.98  35 3.00  28 3.00  27 3.02  25 3.04
                            33 3.17
  31  0.013  0.334  0.566-  33 2.82  29 2.82  36 2.84  20 2.98  35 3.00  28 3.00  22 3.02  19 3.04
                            32 3.17
  32  0.653  0.334  0.566-  34 2.82  30 2.82  36 2.84  21 2.98  35 3.00  28 3.00  24 3.02  19 3.04
                            31 3.17
  33  0.013  0.653  0.566-  31 2.82  34 2.82  36 2.84  23 2.98  35 3.00  28 3.00  22 3.02  25 3.04
                            30 3.17
  34  0.334  0.653  0.566-  32 2.82  33 2.82  36 2.84  23 2.98  35 3.00  28 3.00  24 3.02  26 3.04
                            29 3.17
  35  0.667  0.667  0.563-  24 2.95  27 2.95  22 2.95  29 3.00  34 3.00  32 3.00  31 3.00  30 3.00
                            33 3.00
  36  0.333  0.333  0.549-  37 1.74  20 2.74  23 2.74  21 2.74  33 2.84  31 2.84  29 2.84  30 2.84
                            34 2.84  32 2.84
  37  0.333  0.333  0.627-  36 1.74

  LATTYP: Found a hexagonal cell.
 ALAT       =     8.8135128021
 C/A-ratio  =     2.5184286595

  Lattice vectors:

 A1 = (  -4.4067569092,  -7.6327256898,   0.0000000000)
 A2 = (   8.8135128021,   0.0000000000,   0.0000000000)
 A3 = (   0.0000000000,   0.0000000000,  22.1962032318)

Analysis of symmetry for initial positions (statically):
 Subroutine PRICEL returns:
 Original cell was already a primitive cell.

 Routine SETGRP: Setting up the symmetry group for a
 hexagonal supercell.

 Subroutine GETGRP returns: Found  6 space group operations
 (whereof  6 operations were pure point group operations)
 out of a pool of 24 trial point group operations.

The static configuration has the point symmetry C_3v.

Analysis of symmetry for dynamics (positions and initial velocities):
 Subroutine PRICEL returns:
 Original cell was already a primitive cell.

[...]

The dynamic configuration has the point symmetry C_3v.

Analysis of constrained symmetry for selective dynamics:
 Subroutine PRICEL returns:
 Original cell was already a primitive cell.

 Routine SETGRP: Setting up the symmetry group for a
 hexagonal supercell.

 Subroutine GETGRP returns: Found  6 space group operations
[...]
     24      -5.1019      2.00000
     25      -5.0732      2.00000
     26      -5.0612      2.00000
     27      -5.0325      2.00000
     28      -4.9608      2.00000
     29      -4.9514      2.00000
     30      -4.8869      2.00000
     31      -4.8728      2.00000
     32      -4.8423      2.00000
     33      -4.7889      2.00000
     34      -4.7712      2.00000
     35      -4.7216      2.00000
     36      -4.7173      2.00000
     37      -4.6989      2.00000
     38      -4.6351      2.00000
     39      -4.6190      2.00000
     40      -4.5649      2.00000
     41      -4.5177      2.00000
     42      -4.4710      2.00000
     43      -4.4248      2.00000
     44      -4.3906      2.00000
     45      -4.3334      2.00000
     46      -4.2952      2.00000
     47      -4.2357      2.00000
     48      -4.2221      2.00000
     49      -4.2049      2.00000
     50      -4.1811      2.00000
     51      -4.1627      2.00000
     52      -4.1517      2.00000
     53      -4.1460      2.00000
     54      -4.0994      2.00000
     55      -4.0732      2.00000
     56      -4.0472      2.00000
     57      -4.0299      2.00000
     58      -4.0141      2.00000
     59      -3.9981      2.00000
     60      -3.9758      2.00000
[...]
    238       6.5221      0.00000
    239       6.5490      0.00000
    240       6.5815      0.00000
    241       6.7471      0.00000
    242       6.7875      0.00000
    243       6.8361      0.00000
    244       6.8726      0.00000
    245       6.9605      0.00000
    246       7.2075      0.00000
    247       7.2300      0.00000
    248       7.3370      0.00000
    249       7.6407      0.00000
    250       7.6560      0.00000
    251       7.7556      0.00000
    252       7.8626      0.00000

 soft charge-density along one line, spin component           1
         0         1         2         3         4         5         6         7         8         9
 total charge-density along one line

------------------------ aborting loop because EDIFF is reached ----------------------------------------

 total charge

# of ion       s       p       d       tot
    1        0.549   0.237   8.767   9.553
    2        0.543   0.241   8.765   9.549
    3        0.543   0.241   8.765   9.549
    4        0.543   0.241   8.765   9.549
    5        0.544   0.241   8.762   9.548
    6        0.543   0.241   8.765   9.549
    7        0.543   0.241   8.765   9.549
    8        0.543   0.241   8.765   9.549
    9        0.542   0.240   8.766   9.549
   10        0.523   0.306   8.770   9.599
   11        0.519   0.311   8.779   9.608
   12        0.523   0.306   8.770   9.599
   13        0.519   0.311   8.779   9.608
   14        0.519   0.311   8.779   9.608
   15        0.514   0.309   8.772   9.595
   16        0.523   0.306   8.770   9.599
   17        0.514   0.309   8.772   9.595
   18        0.514   0.309   8.772   9.595
   19        0.518   0.292   8.775   9.585
   20        0.570   0.347   8.732   9.649
   21        0.570   0.347   8.732   9.649
   22        0.509   0.308   8.773   9.589
   23        0.570   0.347   8.732   9.649
   24        0.509   0.308   8.773   9.589
   25        0.518   0.292   8.775   9.585
   26        0.518   0.292   8.775   9.585
   27        0.509   0.308   8.773   9.589
   28        0.545   0.224   8.754   9.523
   29        0.568   0.249   8.748   9.566
   30        0.568   0.249   8.748   9.566
   31        0.568   0.249   8.748   9.566
   32        0.568   0.249   8.748   9.566
   33        0.568   0.249   8.748   9.566
   34        0.568   0.249   8.748   9.566
   35        0.536   0.226   8.757   9.519
   36        0.665   0.683   4.099   5.447
   37        1.609   3.304   0.000   4.913
tot         21.110  13.718 310.789 345.618

  FORCE on cell =-STRESS in cart. coord.  units (eV):
  Direction    XX          YY          ZZ          XY          YZ          ZX
  Alpha Z  1023.84481  1023.84481  1023.84481
  Ewald  117472.23263117472.23305************    -0.00031    -0.00009    -0.00013
  Hartree126126.47201126126.47201************     0.00001    -0.00002    -0.00004
  E(xc)   -1783.43888 -1783.43888 -1791.92640     0.00000     0.00000     0.00001
  Local  ************************255932.81257     0.00193     0.00002     0.00001
  n-local  -104.68225   -57.35543   -48.67357    23.74074    -1.77152     1.47622
  augment  2375.02579  2375.02724  2392.60544    -0.00126     0.00002     0.00007
  Kinetic  5548.25449  5557.31683  5590.95746     5.56070     0.34717    -0.00687
  Fock        0.00000     0.00000     0.00000     0.00000     0.00000     0.00000
  Total     -18.83305   -18.83304     2.18847    -0.00000     0.00000     0.00000
  in kB     -20.20802   -20.20802     2.34825    -0.00000     0.00000     0.00000

 VOLUME and BASIS-vectors are now :
  energy-cutoff  :      500.00
  volume of cell :     1493.16
      direct lattice vectors                 reciprocal lattice vectors
     8.813512802  0.000000000  0.000000000     0.113462137 -0.065507406  0.000000000
     4.406756909  7.632725690  0.000000000     0.000000000  0.131014796  0.000000000
     0.000000000  0.000000000 22.196203232     0.000000000  0.000000000  0.045052750

  length of vectors
     8.813512802  8.813512802 22.196203232     0.131014796  0.131014796  0.045052750

 FORCES acting on ions
    electron-ion (+dipol)            ewald-force                    non-local-force                 convergence-correction
   -.195E-04 -.161E-04 0.247E+04   0.520E-04 0.434E-04 -.247E+04   -.402E-17 0.570E-18 -.637E+00   -.201E-03 -.130E-03 -.112E+00
   0.798E+00 0.221E+00 0.247E+04   -.789E+00 -.228E+00 -.247E+04   -.111E-01 0.694E-01 -.317E+00   0.234E-02 -.590E-01 -.117E+00
   -.798E+00 0.221E+00 0.247E+04   0.789E+00 -.228E+00 -.247E+04   0.111E-01 0.694E-01 -.317E+00   -.205E-02 -.570E-01 -.116E+00
   0.590E+00 0.581E+00 0.247E+04   -.592E+00 -.569E+00 -.247E+04   0.545E-01 -.443E-01 -.317E+00   -.499E-01 0.315E-01 -.117E+00
   0.917E-05 -.230E-04 0.247E+04   0.951E-04 0.175E-05 -.247E+04   -.805E-17 -.223E-17 -.164E+00   0.430E-02 0.262E-02 -.111E+00
   -.590E+00 0.581E+00 0.247E+04   0.592E+00 -.569E+00 -.247E+04   -.545E-01 -.443E-01 -.317E+00   0.483E-01 0.324E-01 -.116E+00
   -.208E+00 -.801E+00 0.247E+04   0.197E+00 0.797E+00 -.247E+04   0.656E-01 -.251E-01 -.317E+00   -.503E-01 0.267E-01 -.116E+00
   0.208E+00 -.801E+00 0.247E+04   -.197E+00 0.797E+00 -.247E+04   -.656E-01 -.251E-01 -.317E+00   0.522E-01 0.256E-01 -.116E+00
   0.196E-04 -.416E-04 0.247E+04   0.166E-03 -.200E-04 -.247E+04   0.647E-18 0.192E-17 -.458E+00   -.464E-02 -.240E-02 -.369E-01
   0.785E+01 0.453E+01 0.820E+03   -.746E+01 -.431E+01 -.820E+03   -.365E+00 -.211E+00 -.467E+00   -.634E-01 -.367E-01 0.140E+00
   0.143E-04 0.349E+01 0.828E+03   0.148E-03 -.345E+01 -.827E+03   0.171E-08 0.257E-01 -.264E+00   0.379E-02 -.147E+00 0.191E+00
   -.785E+01 0.453E+01 0.820E+03   0.746E+01 -.431E+01 -.820E+03   0.365E+00 -.211E+00 -.467E+00   0.621E-01 -.352E-01 0.139E+00
   0.302E+01 -.175E+01 0.828E+03   -.299E+01 0.172E+01 -.827E+03   0.223E-01 -.129E-01 -.264E+00   -.125E+00 0.769E-01 0.191E+00
   -.302E+01 -.175E+01 0.828E+03   0.299E+01 0.172E+01 -.827E+03   -.223E-01 -.129E-01 -.264E+00   0.133E+00 0.765E-01 0.191E+00
   0.310E-04 0.546E+01 0.825E+03   0.236E-03 -.568E+01 -.825E+03   0.116E-08 0.174E-01 -.396E+00   -.239E-02 0.130E+00 0.204E+00
   -.212E-04 -.906E+01 0.820E+03   0.163E-03 0.862E+01 -.820E+03   0.281E-07 0.421E+00 -.467E+00   0.297E-03 0.714E-01 0.139E+00
   0.473E+01 -.273E+01 0.825E+03   -.492E+01 0.284E+01 -.825E+03   0.151E-01 -.872E-02 -.396E+00   0.111E+00 -.665E-01 0.204E+00
   -.473E+01 -.273E+01 0.825E+03   0.492E+01 0.284E+01 -.825E+03   -.151E-01 -.872E-02 -.396E+00   -.111E+00 -.646E-01 0.203E+00
   -.436E-04 0.326E+01 -.863E+03   0.550E-04 -.348E+01 0.861E+03   -.231E-08 -.347E-01 0.658E+00   -.259E-03 0.172E+00 0.318E+00
   0.415E+01 0.240E+01 -.816E+03   -.327E+01 -.189E+01 0.816E+03   -.110E+01 -.633E+00 -.923E+00   0.693E-01 0.399E-01 0.516E+00
   -.415E+01 0.240E+01 -.816E+03   0.327E+01 -.189E+01 0.816E+03   0.110E+01 -.633E+00 -.923E+00   -.685E-01 0.419E-01 0.516E+00
   -.743E+01 0.429E+01 -.839E+03   0.707E+01 -.408E+01 0.838E+03   0.499E+00 -.288E+00 0.765E+00   -.783E-01 0.409E-01 0.286E+00
   -.103E-04 -.480E+01 -.816E+03   0.139E-03 0.377E+01 0.816E+03   0.843E-07 0.127E+01 -.923E+00   0.181E-02 -.803E-01 0.516E+00
   0.743E+01 0.429E+01 -.839E+03   -.707E+01 -.408E+01 0.838E+03   -.499E+00 -.288E+00 0.765E+00   0.714E-01 0.413E-01 0.286E+00
   -.283E+01 -.163E+01 -.863E+03   0.302E+01 0.174E+01 0.861E+03   0.300E-01 0.173E-01 0.658E+00   -.147E+00 -.852E-01 0.317E+00
   0.283E+01 -.163E+01 -.863E+03   -.302E+01 0.174E+01 0.861E+03   -.300E-01 0.173E-01 0.658E+00   0.149E+00 -.863E-01 0.318E+00
   0.113E-04 -.857E+01 -.839E+03   0.197E-03 0.817E+01 0.838E+03   0.384E-07 0.577E+00 0.765E+00   -.428E-02 -.883E-01 0.286E+00
   -.138E-04 -.128E-04 -.243E+04   0.303E-04 0.337E-04 0.243E+04   0.360E-17 -.271E-17 0.436E+00   0.130E-02 0.734E-03 0.234E+00
   0.329E+02 0.530E+02 -.243E+04   -.322E+02 -.521E+02 0.243E+04   -.109E+01 -.143E+01 0.306E+00   0.128E+00 0.138E+00 0.130E+00
   -.329E+02 0.530E+02 -.243E+04   0.322E+02 -.521E+02 0.243E+04   0.109E+01 -.143E+01 0.306E+00   -.134E+00 0.140E+00 0.131E+00
   0.623E+02 0.201E+01 -.243E+04   -.613E+02 -.180E+01 0.243E+04   -.178E+01 -.227E+00 0.306E+00   0.184E+00 0.418E-01 0.130E+00
   -.623E+02 0.201E+01 -.243E+04   0.613E+02 -.180E+01 0.243E+04   0.178E+01 -.227E+00 0.306E+00   -.191E+00 0.429E-01 0.130E+00
   0.294E+02 -.550E+02 -.243E+04   -.291E+02 0.539E+02 0.243E+04   -.693E+00 0.165E+01 0.306E+00   0.543E-01 -.186E+00 0.131E+00
   -.294E+02 -.550E+02 -.243E+04   0.291E+02 0.539E+02 0.243E+04   0.693E+00 0.165E+01 0.306E+00   -.584E-01 -.187E+00 0.130E+00
   0.349E-04 -.292E-04 -.243E+04   0.139E-03 -.495E-04 0.243E+04   0.299E-18 0.333E-17 0.662E+00   -.358E-02 -.177E-02 0.168E+00
   -.371E-05 -.554E-06 -.109E+04   0.638E-04 0.589E-05 0.110E+04   -.536E-18 0.325E-17 -.198E+00   0.142E-02 0.844E-03 0.144E+00
   0.183E-03 -.978E-04 -.158E+04   0.269E-04 0.167E-05 0.162E+04   -.330E-18 -.196E-18 -.327E+02   0.384E-02 0.234E-02 -.367E+00
   -.621E-03 -.875E-03 0.304E+02   -.152E-13 -.150E-13 0.227E-12   -.567E-18 -.660E-15 -.350E+02   -.135E-01 -.711E-02 0.497E+01

 POSITION                                       TOTAL-FORCE (eV/Angst)
      0.00000      0.00000      5.28038        -0.000000      0.000000     -0.145669
      2.93784      0.00000      5.28038         0.001016      0.004126     -0.055025
      5.87568      0.00000      5.28038        -0.001016      0.004126     -0.055025
      1.46892      2.54424      5.28038         0.004081     -0.001183     -0.055025
      4.40676      2.54424      5.28038         0.000000      0.000000     -0.069183
      7.34459      2.54424      5.28038        -0.004081     -0.001183     -0.055025
      2.93784      5.08848      5.28038         0.003065     -0.002943     -0.055025
      5.87568      5.08848      5.28038        -0.003065     -0.002943     -0.055025
      8.81351      5.08848      5.28038         0.000000      0.000000     -0.080319
      1.46892      0.84808      7.67911        -0.043696     -0.025228      0.113294
      4.40676      0.84808      7.67911        -0.000000     -0.081259      0.017913
      7.34459      0.84808      7.67911         0.043696     -0.025228      0.113294
      2.93784      3.39232      7.67911        -0.070373      0.040630      0.017913
      5.87568      3.39232      7.67911         0.070373      0.040630      0.017913
      8.81351      3.39232      7.67911        -0.000000     -0.069006      0.130110
      4.40676      5.93656      7.67911         0.000000      0.050455      0.113294
      7.34459      5.93656      7.67911        -0.059761      0.034503      0.130110
     10.28243      5.93656      7.67911         0.059761      0.034503      0.130110
      8.81351      1.70807     10.10081        -0.000000     -0.083428     -0.059940
      2.93151      1.69251     10.04012        -0.141666     -0.081791     -0.201350
      5.88200      1.69251     10.04012         0.141666     -0.081791     -0.201350
     10.26425      4.25090     10.06644         0.071581     -0.041327      0.013462
      4.40676      4.24770     10.04012         0.000000      0.163582     -0.201350
      7.36277      4.25090     10.06644        -0.071581     -0.041327      0.013462
     11.74104      6.77869     10.10081         0.072251      0.041714     -0.059940
      5.88599      6.77869     10.10081        -0.072251      0.041714     -0.059940
      8.81351      6.76365     10.06644         0.000000      0.082654      0.013462
      0.00000      0.00000     12.49922         0.000000      0.000000     -0.024028
      2.99894      0.10048     12.55446        -0.241119     -0.465987     -0.317617
      5.81457      0.10048     12.55446         0.241119     -0.465987     -0.317617
      1.58649      2.54692     12.55446        -0.524116      0.024179     -0.317617
      7.22703      2.54692     12.55446         0.524116      0.024179     -0.317617
      2.99430      4.98533     12.55446        -0.282997      0.441809     -0.317617
      5.81921      4.98533     12.55446         0.282998      0.441809     -0.317617
      8.81351      5.08848     12.49869         0.000000      0.000000      0.096286
      4.40676      2.54424     12.18560        -0.000000      0.000000      2.417460
      4.40676      2.54424     13.92138        -0.000000      0.000000      0.000840
    total drift:                               -0.014098     -0.007985      0.355143

  FREE ENERGIE OF THE ION-ELECTRON SYSTEM (eV)
  free  energy   TOTEN  =      -125.19502965 eV

  energy  without entropy=     -125.19502965  energy(sigma->0) =     -125.19502965

 stress matrix after NEB project (eV)
    -18.83305     -0.00000      0.00000
     -0.00000    -18.83304     -0.00000
      0.00000      0.00000      2.18847
  FORCES: max atom, RMS     0.000840    0.000138
  FORCE total and by dimension    0.000840    0.000840
  Stress total and by dimension   26.723707   18.833045
|           W    W    AA    RRRRR   N    N  II  N    N   GGGG   !!!           |
|           W    W   A  A   R    R  NN   N  II  NN   N  G    G  !!!           |
|           W    W  A    A  R    R  N N  N  II  N N  N  G       !!!           |
|           W WW W  AAAAAA  RRRRR   N  N N  II  N  N N  G  GGG   !            |
|           WW  WW  A    A  R   R   N   NN  II  N   NN  G    G                |
|           W    W  A    A  R    R  N    N  II  N    N   GGGG   !!!           |
|     Tetrahedron method does not include variations of the Fermi             |
|     occupations, so forces and stress will be inaccurate. We suggest        |
|     using a different smearing scheme ISMEAR = 1 or 2 for metals in         |
|     relaxations.                                                            |

 total charge

# of ion       s       p       d       tot
    1        0.549   0.237   8.767   9.553
    2        0.543   0.241   8.765   9.549
    3        0.543   0.241   8.765   9.549
    4        0.543   0.241   8.765   9.549
    5        0.544   0.241   8.762   9.548
    6        0.543   0.241   8.765   9.549
    7        0.543   0.241   8.765   9.549
    8        0.543   0.241   8.765   9.549
    9        0.542   0.240   8.766   9.549
   10        0.523   0.306   8.770   9.599
   11        0.519   0.311   8.779   9.608
   12        0.523   0.306   8.770   9.599
   13        0.519   0.311   8.779   9.608
   14        0.519   0.311   8.779   9.608
   15        0.514   0.309   8.772   9.595
   16        0.523   0.306   8.770   9.599
   17        0.514   0.309   8.772   9.595
   18        0.514   0.309   8.772   9.595
   19        0.518   0.292   8.775   9.585
   20        0.570   0.347   8.732   9.649
   21        0.570   0.347   8.732   9.649
   22        0.509   0.308   8.773   9.589
   23        0.570   0.347   8.732   9.649
   24        0.509   0.308   8.773   9.589
   25        0.518   0.292   8.775   9.585
   26        0.518   0.292   8.775   9.585
   27        0.509   0.308   8.773   9.589
   28        0.545   0.224   8.754   9.523
   29        0.568   0.249   8.748   9.566
   30        0.568   0.249   8.748   9.566
   31        0.568   0.249   8.748   9.566
   32        0.568   0.249   8.748   9.566
   33        0.568   0.249   8.748   9.566
   34        0.568   0.249   8.748   9.566
   35        0.536   0.226   8.757   9.519
   36        0.665   0.683   4.099   5.447
   37        1.609   3.304   0.000   4.913
tot         21.110  13.718 310.789 345.618

 BZINTS: Fermi energy:    0.691758;  397.000000 electrons
         Band energy:-0.124830E+04;  BLOECHL correction:   -0.036821