 vasp.6.2.0 18Jan21 (build Jun 12 2021 23:27:24) complex

 executed on             LinuxIFC date 2022.05.28  02:47:12

 INCAR:
   ISMEAR = -5
   SIGMA = 0.1
   ISPIN = 1
   EDIFF = 1.d-5
   EDIFFG = -0.01
   NSW = 0
   NELM = 150
   ENCUT = 500
   ISIF = 2
   IBRION = 2
   LREAL = Auto
   ALGO = Fast
   ICHARG = 11
   LORBIT = 10
   LCHARG = .F.
   LWAVE = .F.

 POTCAR:    PAW_PBE Cu 22Jun2005
 POTCAR:    PAW_PBE W 08Apr2002
 POTCAR:    PAW_PBE O 08Apr2002
 POTCAR:    PAW_PBE H 15Jun2001
|           W    W    AA    RRRRR   N    N  II  N    N   GGGG   !!!           |
|           W    W   A  A   R    R  NN   N  II  NN   N  G    G  !!!           |
|           W    W  A    A  R    R  N N  N  II  N N  N  G       !!!           |
|           W WW W  AAAAAA  RRRRR   N  N N  II  N  N N  G  GGG   !            |
|           WW  WW  A    A  R   R   N   NN  II  N   NN  G    G                |
|           W    W  A    A  R    R  N    N  II  N    N   GGGG   !!!           |
|     For optimal performance we recommend to set                             |
|       NCORE = 2 up to number-of-cores-per-socket                            |
|     This setting can greatly improve the performance of VASP for DFT.       |
|     The default, NCORE=1 might be grossly inefficient on modern             |
|     multi-core architectures or massively parallel machines. Do your        |
|     Unfortunately you need to use the default for GW and RPA                |
|     calculations (for HF NCORE is supported but not extensively tested      |
|     yet).                                                                   |

 POTCAR:    PAW_PBE Cu 22Jun2005
   VRHFIN =Cu: d10 p1

   TITEL  = PAW_PBE Cu 22Jun2005
   POMASS =   63.546; ZVAL   =   11.000    mass and valenz
   ENMAX  =  295.446; ENMIN  =  221.585 eV

 POTCAR:    PAW_PBE W 08Apr2002
   VRHFIN =W : 6s5d

   TITEL  = PAW_PBE W 08Apr2002
   POMASS =  183.850; ZVAL   =    6.000    mass and valenz
   ENMAX  =  223.057; ENMIN  =  167.293 eV

 POTCAR:    PAW_PBE O 08Apr2002
   VRHFIN =O: s2p4

   TITEL  = PAW_PBE O 08Apr2002
   POMASS =   16.000; ZVAL   =    6.000    mass and valenz
   ENMAX  =  400.000; ENMIN  =  300.000 eV

 POTCAR:    PAW_PBE H 15Jun2001
   VRHFIN =H: ultrasoft test

   TITEL  = PAW_PBE H 15Jun2001
   POMASS =    1.000; ZVAL   =    1.000    mass and valenz
   ENMAX  =  250.000; ENMIN  =  200.000 eV

 Optimization of the real space projectors (new method)

 maximal supplied QI-value         = 16.25
 optimisation between [QCUT,QGAM] = [ 11.38, 22.75] = [ 36.24,144.96] Ry
 Optimized for a Real-space Cutoff    1.52 Angstroem

   l    n(q)    QCUT    max X(q) W(low)/X(q) W(high)/X(q)  e(spline)
   2      9    11.376     4.610    0.21E-03    0.10E-03    0.26E-06
   2      9    11.376     8.522    0.33E-03    0.16E-03    0.37E-06
   0     10    11.376    51.609    0.62E-04    0.20E-04    0.13E-06
   0     10    11.376    27.747    0.54E-04    0.20E-04    0.13E-06
   1     10    11.376    20.408    0.13E-04    0.99E-04    0.19E-06
   1     10    11.376    13.425    0.12E-04    0.87E-04    0.17E-06
 Optimization of the real space projectors (new method)

[...]

   l    n(q)    QCUT    max X(q) W(low)/X(q) W(high)/X(q)  e(spline)
   0      7    11.387    20.381    0.39E-03    0.13E-02    0.15E-06
   0      7    11.387    15.268    0.42E-03    0.14E-02    0.17E-06
   1      6    11.387     5.964    0.41E-03    0.11E-02    0.17E-06
   1      6    11.387     5.382    0.39E-03    0.87E-03    0.15E-06
 Optimization of the real space projectors (new method)

 maximal supplied QI-value         = 34.20
 optimisation between [QCUT,QGAM] = [ 11.29, 22.57] = [ 35.68,142.71] Ry
 Optimized for a Real-space Cutoff    1.16 Angstroem

   l    n(q)    QCUT    max X(q) W(low)/X(q) W(high)/X(q)  e(spline)
   0      8    11.287    19.460    0.40E-03    0.73E-03    0.16E-06
   0      8    11.287    12.209    0.38E-03    0.70E-03    0.15E-06
   1      7    11.287     4.655    0.22E-03    0.25E-04    0.22E-06
  PAW_PBE Cu 22Jun2005                  :
  PAW_PBE W 08Apr2002                   :
  PAW_PBE O 08Apr2002                   :
  PAW_PBE H 15Jun2001                   :

 POSCAR: Cu-W-OOH
  positions in direct lattice
  velocities in cartesian coordinates
 exchange correlation table for  LEXCH =        8
   RHO(1)=    0.500       N(1)  =     2000
   RHO(2)=  100.500       N(2)  =     4000

 VTST: version 3.2, (02/03/18)

 CHAIN: initializing optimizer

 OPT: Using VASP Conjugate-Gradient optimizer
 CHAIN: Read ICHAIN            0

 POSCAR: Cu-W-OOH
  positions in direct lattice
  velocities in cartesian coordinates

 ion  position               nearest neighbor table
   1  0.000  0.000  0.212-   7 2.57   3 2.57   4 2.57   2 2.57   6 2.57   8 2.57  12 2.57  10 2.57
                            16 2.57
   2  0.333  0.000  0.212-   8 2.57   9 2.57   5 2.57   1 2.57   3 2.57  11 2.57   4 2.57  10 2.57
                            17 2.57
   3  0.667  0.000  0.212-   1 2.57   7 2.57   6 2.57   9 2.57   2 2.57  12 2.57   5 2.57  18 2.57
                            11 2.57
   4  0.000  0.333  0.212-   5 2.57   6 2.57   1 2.57   7 2.57   2 2.57  13 2.57   9 2.57  10 2.57
                            15 2.57
   5  0.333  0.333  0.212-   4 2.57   2 2.57   7 2.57  13 2.57   8 2.57   6 2.57   3 2.57  11 2.57
                            14 2.57
   6  0.667  0.333  0.212-   4 2.57   9 2.57  15 2.57   3 2.57   1 2.57   8 2.57  14 2.57   5 2.57
                            12 2.57
   7  0.000  0.667  0.212-   1 2.57   3 2.57  16 2.57  18 2.57   4 2.57   5 2.57   8 2.57   9 2.57
                            13 2.57
   8  0.333  0.667  0.212-   9 2.57   2 2.57  17 2.57   6 2.57   1 2.57   7 2.57   5 2.57  14 2.57
                            16 2.57
   9  0.667  0.667  0.212-   8 2.57   6 2.57   2 2.57  17 2.57   3 2.57   7 2.57   4 2.57  15 2.57
                            18 2.57
  10  0.111  0.111  0.294-  20 2.54  11 2.57  12 2.57  13 2.57   1 2.57   2 2.57   4 2.57  15 2.57
                            16 2.57  17 2.57  26 2.57  19 2.57
  11  0.444  0.111  0.294-  20 2.55  21 2.55  10 2.57  13 2.57   2 2.57  17 2.57  14 2.57  12 2.57
                             5 2.57   3 2.57  18 2.57  27 2.58
  12  0.778  0.111  0.294-  21 2.54  15 2.57  10 2.57  14 2.57  18 2.57   3 2.57   1 2.57  16 2.57
                            11 2.57   6 2.57  19 2.57  25 2.57
  13  0.111  0.444  0.294-  23 2.55  20 2.55  16 2.57  18 2.57  10 2.57  11 2.57  14 2.57   5 2.57
                             4 2.57   7 2.57  15 2.57  22 2.58
  14  0.444  0.444  0.294-  21 2.55  23 2.55  15 2.57  17 2.57  12 2.57  16 2.57  13 2.57  11 2.57
                             6 2.57   8 2.57   5 2.57  24 2.58
  15  0.778  0.444  0.294-  19 2.57  14 2.57  17 2.57  12 2.57   6 2.57  18 2.57  10 2.57   9 2.57
                            13 2.57   4 2.57  24 2.57  22 2.57
  16  0.111  0.778  0.294-  23 2.54  18 2.57  13 2.57   7 2.57  14 2.57  17 2.57  12 2.57  10 2.57
                             8 2.57   1 2.57  25 2.57  26 2.57
  17  0.444  0.778  0.294-  26 2.57  14 2.57  15 2.57   8 2.57   9 2.57  11 2.57  16 2.57  18 2.57
                            10 2.57   2 2.57  27 2.57  24 2.57
  18  0.778  0.778  0.294-  25 2.57  16 2.57  13 2.57   7 2.57  15 2.57  12 2.57  17 2.57   9 2.57
                             3 2.57  11 2.57  22 2.57  27 2.57
  19  0.889  0.223  0.377-  21 2.55  20 2.55  22 2.56  24 2.56  15 2.57  12 2.57  10 2.57  25 2.57
                            26 2.57  28 2.57  32 2.60  31 2.60
  20  0.221  0.221  0.376-  10 2.54  36 2.54  11 2.55  13 2.55  26 2.55  19 2.55  27 2.57  22 2.57
                            23 2.59  21 2.59  29 2.62  31 2.62
  21  0.558  0.221  0.376-  12 2.54  36 2.54  14 2.55  11 2.55  19 2.55  25 2.55  24 2.57  27 2.57
                            20 2.59  23 2.59  32 2.62  30 2.62
  22  0.888  0.556  0.377-  24 2.56  27 2.56  19 2.56  25 2.56  35 2.56  23 2.57  20 2.57  18 2.57
                            15 2.57  13 2.58  31 2.59  33 2.59
  23  0.221  0.558  0.376-  16 2.54  36 2.54  13 2.55  14 2.55  25 2.55  26 2.55  22 2.57  24 2.57
                            20 2.59  21 2.59  33 2.62  34 2.62
  24  0.556  0.556  0.377-  22 2.56  27 2.56  19 2.56  26 2.56  35 2.56  21 2.57  23 2.57  15 2.57
                            17 2.57  14 2.58  32 2.59  34 2.59
  25  0.889  0.889  0.377-  21 2.55  23 2.55  22 2.56  27 2.56  18 2.57  16 2.57  12 2.57  19 2.57
                            26 2.57  28 2.57  33 2.60  30 2.60
  26  0.223  0.889  0.377-  20 2.55  23 2.55  27 2.56  24 2.56  17 2.57  10 2.57  16 2.57  25 2.57
                            19 2.57  28 2.57  29 2.60  34 2.60
  27  0.556  0.888  0.377-  24 2.56  22 2.56  26 2.56  25 2.56  35 2.56  20 2.57  21 2.57  17 2.57
                            18 2.57  11 2.58  29 2.59  30 2.59
  28  0.000  0.000  0.460-  33 2.56  30 2.56  31 2.56  29 2.56  32 2.56  34 2.56  25 2.57  19 2.57
                            26 2.57
  29  0.333  1.000  0.461-  38 2.15  34 2.56  28 2.56  35 2.57  31 2.57  36 2.57  30 2.57  27 2.59
                            26 2.60  20 2.62
  30  0.667  1.000  0.461-  33 2.56  28 2.56  35 2.57  32 2.57  36 2.57  29 2.57  27 2.59  25 2.60
                            21 2.62
  31  1.000  0.333  0.461-  38 2.09  32 2.56  28 2.56  35 2.57  29 2.57  36 2.57  33 2.57  22 2.59
                            19 2.60  20 2.62
  32  0.667  0.333  0.461-  37 2.03  31 2.56  28 2.56  35 2.57  30 2.57  36 2.57  34 2.57  24 2.59
                            19 2.60  21 2.62
  33  1.000  0.667  0.461-  30 2.56  28 2.56  35 2.57  34 2.57  36 2.57  31 2.57  22 2.59  25 2.60
                            23 2.62
  34  0.333  0.667  0.461-  37 2.05  29 2.56  28 2.56  35 2.57  33 2.57  36 2.57  32 2.57  24 2.59
                            26 2.60  23 2.62
  35  0.667  0.667  0.460-  24 2.56  27 2.56  22 2.56  34 2.57  32 2.57  29 2.57  30 2.57  33 2.57
                            31 2.57
  36  0.333  0.333  0.457-  37 1.86  38 2.10  23 2.54  20 2.54  21 2.54  31 2.57  29 2.57  33 2.57
                            34 2.57  32 2.57  30 2.57
  37  0.431  0.426  0.511-  36 1.86  32 2.03  34 2.05
  38  0.223  0.236  0.519-  39 0.98  31 2.09  36 2.10  29 2.15
  39  0.241  0.280  0.554-  38 0.98

  LATTYP: Found a hexagonal cell.
 ALAT       =     7.6967864036
 C/A-ratio  =     3.2973366172

  Lattice vectors:

 A1 = (  -3.8483927580,  -6.6656128093,   0.0000000000)
 A2 = (   7.6967864037,   0.0000000000,   0.0000000000)
 A3 = (   0.0000000000,   0.0000000000,  25.3788956434)

Analysis of symmetry for initial positions (statically):
 Subroutine PRICEL returns:
 Original cell was already a primitive cell.

 Routine SETGRP: Setting up the symmetry group for a
 hexagonal supercell.

 Subroutine GETGRP returns: Found  1 space group operations
 (whereof  1 operations were pure point group operations)
 out of a pool of 24 trial point group operations.

The static configuration has the point symmetry C_1 .

Analysis of symmetry for dynamics (positions and initial velocities):
 Subroutine PRICEL returns:
 Original cell was already a primitive cell.

[...]

The dynamic configuration has the point symmetry C_1 .

Analysis of constrained symmetry for selective dynamics:
[...]
     41      -4.4377      2.00000
     42      -4.4033      2.00000
     43      -4.3583      2.00000
     44      -4.2910      2.00000
     45      -4.2557      2.00000
     46      -4.2182      2.00000
     47      -4.1788      2.00000
     48      -4.1596      2.00000
     49      -4.1538      2.00000
     50      -4.1261      2.00000
     51      -4.1100      2.00000
     52      -4.0888      2.00000
     53      -4.0462      2.00000
     54      -3.9599      2.00000
     55      -3.9531      2.00000
     56      -3.9238      2.00000
     57      -3.8980      2.00000
     58      -3.8729      2.00000
     59      -3.8460      2.00000
     60      -3.8325      2.00000
[...]
    238       5.2713      0.00000
    239       5.3978      0.00000
    240       5.4787      0.00000
    241       5.5450      0.00000
    242       5.5839      0.00000
    243       5.7904      0.00000
    244       5.8620      0.00000
    245       5.9025      0.00000
    246       5.9667      0.00000
    247       6.0249      0.00000
    248       6.2035      0.00000
    249       6.3327      0.00000
    250       6.3821      0.00000
    251       6.8079      0.00000
    252       7.0122      0.00000

 soft charge-density along one line, spin component           1
         0         1         2         3         4         5         6         7         8         9
 total charge-density along one line

------------------------ aborting loop because EDIFF is reached ----------------------------------------

 total charge

# of ion       s       p       d       tot
    1        0.451   0.282   9.188   9.921
    2        0.448   0.285   9.186   9.919
    3        0.448   0.286   9.185   9.919
    4        0.447   0.286   9.186   9.919
    5        0.449   0.285   9.183   9.918
    6        0.449   0.285   9.186   9.920
    7        0.448   0.286   9.186   9.919
    8        0.449   0.284   9.186   9.919
    9        0.446   0.285   9.187   9.918
   10        0.443   0.369   9.179   9.992
   11        0.441   0.368   9.182   9.991
   12        0.446   0.370   9.176   9.992
   13        0.441   0.369   9.182   9.991
   14        0.441   0.366   9.184   9.991
   15        0.438   0.366   9.179   9.984
   16        0.445   0.370   9.176   9.992
   17        0.438   0.366   9.180   9.984
   18        0.436   0.369   9.178   9.984
   19        0.432   0.374   9.175   9.982
   20        0.475   0.411   9.151  10.037
   21        0.470   0.419   9.146  10.035
   22        0.429   0.370   9.180   9.979
   23        0.469   0.419   9.146  10.034
   24        0.432   0.368   9.183   9.983
   25        0.442   0.361   9.186   9.989
   26        0.432   0.373   9.176   9.981
   27        0.429   0.369   9.181   9.979
   28        0.457   0.283   9.193   9.933
   29        0.438   0.339   9.179   9.956
   30        0.459   0.319   9.179   9.957
   31        0.435   0.353   9.175   9.963
   32        0.433   0.366   9.177   9.976
   33        0.460   0.318   9.180   9.958
   34        0.433   0.361   9.178   9.972
   35        0.450   0.286   9.191   9.928
   36        0.699   0.741   4.173   5.613
   37        1.591   3.355   0.000   4.946
   38        1.557   3.532   0.000   5.089
   39        0.602   0.117   0.000   0.719
tot         20.029  19.713 325.439 365.180

  FORCE on cell =-STRESS in cart. coord.  units (eV):
  Direction    XX          YY          ZZ          XY          YZ          ZX
  Alpha Z   774.83432   774.83432   774.83432
  Ewald  257345.20903257315.78741************    13.79304    16.57364    22.46303
  Hartree270065.53287270072.75694************   -12.98878    -3.89795    -2.23400
  E(xc)   -2337.25433 -2337.37308 -2341.06974     0.06944    -0.05265    -0.13897
  Local  ************************540540.13975     5.01963    -5.92318   -12.55986
  n-local  -810.33033  -811.40006  -824.48204     0.61261     0.72182     1.57377
  augment  3326.62666  3327.40628  3344.27894    -0.44222    -0.28959    -0.41962
  Kinetic  3480.38976  3487.22879  3486.58094    -6.14183    -6.86921    -8.25303
  Fock        0.00000     0.00000     0.00000     0.00000     0.00000     0.00000
  Total      -1.24105    -1.19425    -2.01098    -0.07811     0.26288     0.43131
  in kB      -1.52713    -1.46955    -2.47455    -0.09612     0.32348     0.53074

 VOLUME and BASIS-vectors are now :
  energy-cutoff  :      500.00
  volume of cell :     1302.03
      direct lattice vectors                 reciprocal lattice vectors
     7.696786404  0.000000000  0.000000000     0.129924354 -0.075011849  0.000000000
     3.848392758  6.665612809  0.000000000     0.000000000  0.150023716  0.000000000
     0.000000000  0.000000000 25.378895643     0.000000000  0.000000000  0.039402818

  length of vectors
     7.696786404  7.696786404 25.378895643     0.150023716  0.150023716  0.039402818

 FORCES acting on ions
    electron-ion (+dipol)            ewald-force                    non-local-force                 convergence-correction
   0.641E-01 0.903E-01 0.389E+04   -.113E+00 -.708E-01 -.389E+04   0.411E-01 0.414E-02 -.257E+01   -.382E-02 -.283E-01 -.299E+00
   -.415E+00 -.257E+00 0.389E+04   0.449E+00 -.447E-01 -.389E+04   -.255E-01 0.284E+00 -.195E+01   0.982E-02 0.191E-01 -.225E+00
   0.294E+00 0.399E-01 0.389E+04   -.337E+00 -.127E+00 -.389E+04   0.324E-01 0.568E-01 -.175E+01   0.760E-02 0.438E-01 -.241E+00
   -.478E+00 -.200E+00 0.389E+04   0.191E+00 0.401E+00 -.389E+04   0.246E+00 -.172E+00 -.199E+01   0.498E-01 -.127E-01 -.234E+00
   -.102E+00 -.636E-01 0.389E+04   -.180E-01 -.185E-01 -.389E+04   0.775E-01 0.410E-01 -.168E+01   0.483E-01 0.419E-01 -.266E+00
   0.536E+00 -.362E+00 0.389E+04   -.173E+00 0.258E+00 -.389E+04   -.277E+00 0.173E-01 -.171E+01   -.931E-01 0.656E-01 -.256E+00
   0.132E+00 0.205E+00 0.389E+04   -.273E+00 -.217E+00 -.389E+04   0.825E-01 0.161E-01 -.179E+01   0.660E-01 -.125E-01 -.279E+00
   -.559E-01 0.605E+00 0.389E+04   0.143E+00 -.269E+00 -.389E+04   -.117E+00 -.238E+00 -.174E+01   0.991E-02 -.952E-01 -.273E+00
   0.188E-01 -.550E-01 0.389E+04   0.130E+00 0.885E-01 -.389E+04   -.565E-01 -.122E-01 -.223E+01   -.893E-01 -.219E-01 -.214E+00
   0.654E+00 0.455E+00 0.136E+04   -.293E+00 -.260E+00 -.136E+04   -.446E+00 -.249E+00 -.887E+00   0.200E-01 0.120E-01 -.330E+00
   -.487E+00 0.765E-01 0.135E+04   0.583E+00 -.301E+00 -.135E+04   -.734E-01 0.165E+00 -.333E+00   -.257E-01 0.274E-02 -.362E+00
   -.292E+00 0.134E+01 0.136E+04   -.290E+00 -.107E+01 -.136E+04   0.622E+00 -.318E+00 -.110E+01   0.165E-01 0.436E-01 -.382E+00
   -.279E+00 -.426E+00 0.135E+04   0.111E+00 0.620E+00 -.135E+04   0.120E+00 -.139E+00 -.345E+00   -.599E-03 -.289E-01 -.363E+00
   0.831E+00 0.441E+00 0.135E+04   -.586E+00 -.329E+00 -.135E+04   -.261E+00 -.141E+00 0.901E-02   0.587E-01 0.527E-01 -.366E+00
   -.363E+00 -.226E+01 0.136E+04   0.475E+00 0.218E+01 -.136E+04   -.904E-01 0.518E-01 -.962E+00   -.319E-01 0.248E-01 -.354E+00
   0.951E+00 -.946E+00 0.136E+04   -.994E+00 0.319E+00 -.136E+04   0.106E-01 0.694E+00 -.108E+01   0.598E-01 -.106E-01 -.386E+00
   -.217E+01 0.738E+00 0.136E+04   0.212E+01 -.591E+00 -.136E+04   0.275E-01 -.108E+00 -.927E+00   0.104E-01 -.411E-01 -.341E+00
   0.111E+01 0.561E+00 0.136E+04   -.112E+01 -.568E+00 -.136E+04   0.642E-01 0.293E-01 -.566E+00   -.524E-01 -.255E-01 -.362E+00
   0.217E+01 -.171E+01 -.118E+04   -.240E+01 0.169E+01 0.118E+04   0.238E+00 0.107E+00 0.102E+01   -.616E-02 -.711E-02 -.462E-01
   -.423E+02 -.236E+02 -.119E+04   0.424E+02 0.236E+02 0.119E+04   -.289E+00 -.155E+00 -.725E+00   0.364E-02 -.371E-02 -.412E-01
   0.391E+02 -.134E+02 -.120E+04   -.400E+02 0.144E+02 0.120E+04   0.987E+00 -.995E+00 -.121E+01   -.729E-02 -.783E-04 -.915E-01
   -.223E+02 0.540E+01 -.120E+04   0.221E+02 -.493E+01 0.120E+04   0.221E+00 -.498E+00 0.102E+01   -.607E-02 -.601E-01 -.105E+00
   0.730E+01 0.403E+02 -.120E+04   -.692E+01 -.416E+02 0.120E+04   -.370E+00 0.137E+01 -.111E+01   0.664E-02 -.113E-01 -.892E-01
   0.152E+02 0.828E+01 -.118E+04   -.150E+02 -.821E+01 0.118E+04   -.261E+00 -.181E+00 0.528E+00   -.181E-02 0.412E-01 -.142E+00
   0.683E+01 0.380E+01 -.119E+04   -.709E+01 -.395E+01 0.119E+04   0.225E+00 0.128E+00 0.922E+00   0.353E-01 0.243E-01 -.303E-01
   -.105E+01 0.284E+01 -.118E+04   0.836E+00 -.303E+01 0.118E+04   0.260E+00 0.173E+00 0.109E+01   0.183E-01 -.136E-01 -.500E-01
   -.596E+01 -.226E+02 -.120E+04   0.634E+01 0.222E+02 0.120E+04   -.347E+00 0.499E+00 0.110E+01   -.640E-01 0.300E-01 -.126E+00
   0.291E+02 0.181E+02 -.369E+04   -.299E+02 -.186E+02 0.369E+04   0.623E+00 0.406E+00 0.180E+01   0.335E-01 0.336E-01 0.179E+00
   -.349E+02 0.502E+02 -.362E+04   0.351E+02 -.546E+02 0.361E+04   -.334E+00 0.357E+01 0.491E+01   0.245E-01 0.933E-02 0.247E+00
   0.610E+01 -.672E+01 -.371E+04   -.612E+01 0.527E+01 0.370E+04   0.373E+00 0.919E+00 0.184E+01   -.609E-01 -.980E-02 0.244E+00
   0.328E+02 -.533E+02 -.361E+04   -.368E+02 0.553E+02 0.360E+04   0.314E+01 -.182E+01 0.452E+01   0.522E-01 0.221E-01 0.256E+00
   -.461E+02 0.557E+02 -.362E+04   0.505E+02 -.578E+02 0.361E+04   -.365E+01 0.172E+01 0.334E+01   0.684E-01 0.530E-01 0.231E+00
   -.459E+01 0.424E+01 -.370E+04   0.346E+01 -.337E+01 0.370E+04   0.859E+00 -.233E+00 0.186E+01   -.380E-01 -.644E-01 0.244E+00
   0.253E+02 -.668E+02 -.362E+04   -.250E+02 0.718E+02 0.362E+04   -.303E+00 -.415E+01 0.345E+01   0.106E+00 0.397E-01 0.224E+00
   -.263E+02 -.183E+02 -.371E+04   0.268E+02 0.185E+02 0.371E+04   -.214E+00 -.563E-01 0.221E+01   -.800E-01 -.381E-01 0.241E+00
   0.178E+02 0.123E+02 -.182E+04   -.172E+02 -.121E+02 0.182E+04   -.443E+00 -.212E+00 0.145E+01   -.404E-01 -.188E-01 0.102E+00
   0.169E+02 0.965E+01 -.250E+04   -.101E+02 -.576E+01 0.253E+04   -.684E+01 -.390E+01 -.278E+02   0.438E-02 -.218E-02 0.755E-01
   -.275E+01 0.787E+01 -.246E+04   -.137E+02 -.226E+02 0.245E+04   0.165E+02 0.147E+02 0.143E+02   -.222E-01 0.576E-02 0.557E-01
   -.201E+02 -.213E+02 -.463E+03   0.227E+02 0.237E+02 0.471E+03   -.253E+01 -.238E+01 -.732E+01   -.517E-02 -.391E-02 -.298E-02
   -.783E+01 -.908E+01 0.204E+02   0.249E-13 0.327E-12 -.104E-10   0.777E+01 0.900E+01 -.164E+02   0.808E-01 0.555E-01 -.416E+01

 POSITION                                       TOTAL-FORCE (eV/Angst)
      0.00000      0.00000      5.37156        -0.011606     -0.004163     -0.028540
      2.56560      0.00000      5.37156         0.018328      0.002333      0.067943
      5.13119      0.00000      5.37156        -0.003459      0.014291      0.071553
      1.28280      2.22187      5.37156         0.008247      0.017401      0.067010
      3.84839      2.22187      5.37156         0.005112      0.001350      0.053031
      6.41399      2.22187      5.37156        -0.007047     -0.020647      0.051177
      2.56560      4.44374      5.37156         0.006935     -0.008189      0.070677
      5.13119      4.44374      5.37156        -0.019670      0.003771      0.057383
      7.69679      4.44374      5.37156         0.002282     -0.000091      0.022014
      1.28280      0.74062      7.46636        -0.065336     -0.040908     -0.107471
      3.84839      0.74062      7.46636        -0.003798     -0.055597     -0.098766
      6.41399      0.74062      7.46636         0.056956     -0.001792     -0.076442
      2.56560      2.96249      7.46636        -0.049588      0.027817     -0.104388
      5.13119      2.96249      7.46636         0.042235      0.024729     -0.090170
      7.69679      2.96249      7.46636        -0.010741     -0.006437     -0.015240
      3.84839      5.18437      7.46636         0.026288      0.056442     -0.075378
      6.41399      5.18437      7.46636        -0.011139     -0.001367     -0.008797
      8.97958      5.18437      7.46636        -0.002214     -0.002321      0.086428
      7.69679      1.48345      9.56239         0.003973      0.078727      0.258265
      2.55319      1.47409      9.53589        -0.228924     -0.128333     -0.325099
      5.14360      1.47409      9.53589         0.052318     -0.028203     -0.130938
      8.97438      3.70612      9.57309         0.050884     -0.083652      0.098584
      3.84839      3.71744      9.53589         0.013500      0.052839     -0.107721
      6.41919      3.70612      9.57309        -0.105950     -0.063482      0.009143
     10.26047      5.92389      9.56239         0.001601      0.006293      0.003565
      5.13310      5.92389      9.56239         0.059821     -0.031196      0.242532
      7.69679      5.91898      9.57309        -0.039717      0.091030      0.086671
      0.00000      0.00000     11.66245        -0.099101     -0.072847     -0.169583
      6.40959      6.66262     11.69844        -0.136879     -0.813222     -0.324204
      8.98399      6.66262     11.69844         0.298639     -0.547577     -0.483186
      8.97479      2.21956     11.69844        -0.794434      0.272908     -0.300571
      6.41878      2.21956     11.69844         0.812796     -0.244253     -0.201386
     10.26199      4.44905     11.69844        -0.316520      0.571765     -0.499359
      5.13158      4.44905     11.69844         0.183374      0.795990     -0.174268
      7.69679      4.44374     11.67118         0.181573      0.121263     -0.109394
      3.84839      2.22187     11.59207         0.090318      0.028335      2.206478
      4.95664      2.84283     12.95645        -0.015271     -0.012156      0.002814
      2.61956      1.56989     13.17009         0.002827     -0.000504     -0.024747
      2.93050      1.86377     14.04928         0.003386     -0.000349      0.000380
    total drift:                                0.016736     -0.020668     -0.066631

  FREE ENERGIE OF THE ION-ELECTRON SYSTEM (eV)
  free  energy   TOTEN  =      -151.60383191 eV

  energy  without entropy=     -151.60383191  energy(sigma->0) =     -151.60383191

 stress matrix after NEB project (eV)
     -1.24105     -0.07811      0.43131
     -0.07811     -1.19425      0.26288
      0.43131      0.26288     -2.01098
  FORCES: max atom, RMS     0.024913    0.005117
  FORCE total and by dimension    0.031958    0.024747
  Stress total and by dimension    2.744624    2.010983
|           W    W    AA    RRRRR   N    N  II  N    N   GGGG   !!!           |
|           W    W   A  A   R    R  NN   N  II  NN   N  G    G  !!!           |
|           W    W  A    A  R    R  N N  N  II  N N  N  G       !!!           |
|           W WW W  AAAAAA  RRRRR   N  N N  II  N  N N  G  GGG   !            |
|           WW  WW  A    A  R   R   N   NN  II  N   NN  G    G                |
|           W    W  A    A  R    R  N    N  II  N    N   GGGG   !!!           |
|     Tetrahedron method does not include variations of the Fermi             |
|     occupations, so forces and stress will be inaccurate. We suggest        |
|     using a different smearing scheme ISMEAR = 1 or 2 for metals in         |
|     relaxations.                                                            |

 total charge

# of ion       s       p       d       tot
    1        0.451   0.282   9.188   9.921
    2        0.448   0.285   9.186   9.919
    3        0.448   0.286   9.185   9.919
    4        0.447   0.286   9.186   9.919
    5        0.449   0.285   9.183   9.918
    6        0.449   0.285   9.186   9.920
    7        0.448   0.286   9.186   9.919
    8        0.449   0.284   9.186   9.919
    9        0.446   0.285   9.187   9.918
   10        0.443   0.369   9.179   9.992
   11        0.441   0.368   9.182   9.991
   12        0.446   0.370   9.176   9.992
   13        0.441   0.369   9.182   9.991
   14        0.441   0.366   9.184   9.991
   15        0.438   0.366   9.179   9.984
   16        0.445   0.370   9.176   9.992
   17        0.438   0.366   9.180   9.984
   18        0.436   0.369   9.178   9.984
   19        0.432   0.374   9.175   9.982
   20        0.475   0.411   9.151  10.037
   21        0.470   0.419   9.146  10.035
   22        0.429   0.370   9.180   9.979
   23        0.469   0.419   9.146  10.034
   24        0.432   0.368   9.183   9.983
   25        0.442   0.361   9.186   9.989
   26        0.432   0.373   9.176   9.981
   27        0.429   0.369   9.181   9.979
   28        0.457   0.283   9.193   9.933
   29        0.438   0.339   9.179   9.956
   30        0.459   0.319   9.179   9.957
   31        0.435   0.353   9.175   9.963
   32        0.433   0.366   9.177   9.976
   33        0.460   0.318   9.180   9.958
   34        0.433   0.361   9.178   9.972
   35        0.450   0.286   9.191   9.928
   36        0.699   0.741   4.173   5.613
   37        1.591   3.355   0.000   4.946
   38        1.557   3.532   0.000   5.089
   39        0.602   0.117   0.000   0.719
tot         20.029  19.713 325.439 365.180

 BZINTS: Fermi energy:   -0.408976;  404.000000 electrons
         Band energy:-0.143162E+04;  BLOECHL correction:   -0.023613