 vasp.6.2.0 18Jan21 (build Jun 12 2021 23:27:24) complex

 executed on             LinuxIFC date 2022.05.26  20:22:58

 INCAR:
   ISMEAR = -5
   SIGMA = 0.1
   ISPIN = 1
   EDIFF = 1.d-5
   EDIFFG = -0.01
   NSW = 0
   NELM = 150
   ENCUT = 500
   ISIF = 2
   IBRION = 2
   LREAL = Auto
   ALGO = Fast
   ICHARG = 11
   LORBIT = 10
   LCHARG = .F.
   LWAVE = .F.

 POTCAR:    PAW_PBE Ag 02Apr2005
 POTCAR:    PAW_PBE W 08Apr2002
|           W    W    AA    RRRRR   N    N  II  N    N   GGGG   !!!           |
|           W    W   A  A   R    R  NN   N  II  NN   N  G    G  !!!           |
|           W    W  A    A  R    R  N N  N  II  N N  N  G       !!!           |
|           W WW W  AAAAAA  RRRRR   N  N N  II  N  N N  G  GGG   !            |
|           WW  WW  A    A  R   R   N   NN  II  N   NN  G    G                |
|           W    W  A    A  R    R  N    N  II  N    N   GGGG   !!!           |
|     For optimal performance we recommend to set                             |
|       NCORE = 2 up to number-of-cores-per-socket                            |
|     This setting can greatly improve the performance of VASP for DFT.       |
|     The default, NCORE=1 might be grossly inefficient on modern             |
|     multi-core architectures or massively parallel machines. Do your        |
|     Unfortunately you need to use the default for GW and RPA                |
|     calculations (for HF NCORE is supported but not extensively tested      |
|     yet).                                                                   |

 POTCAR:    PAW_PBE Ag 02Apr2005
   VRHFIN =Ag : s1 d10

   TITEL  = PAW_PBE Ag 02Apr2005
   POMASS =  107.868; ZVAL   =   11.000    mass and valenz
   ENMAX  =  249.844; ENMIN  =  187.383 eV

 POTCAR:    PAW_PBE W 08Apr2002
   VRHFIN =W : 6s5d

   TITEL  = PAW_PBE W 08Apr2002
   POMASS =  183.850; ZVAL   =    6.000    mass and valenz
   ENMAX  =  223.057; ENMIN  =  167.293 eV

 Optimization of the real space projectors (new method)

 maximal supplied QI-value         = 15.12
 optimisation between [QCUT,QGAM] = [ 11.34, 22.83] = [ 36.00,145.93] Ry
 Optimized for a Real-space Cutoff    1.43 Angstroem

   l    n(q)    QCUT    max X(q) W(low)/X(q) W(high)/X(q)  e(spline)
   2      9    11.338    53.897    0.16E-03    0.20E-03    0.28E-06
   2      9    11.338    52.416    0.16E-03    0.20E-03    0.29E-06
   0     10    11.338   122.045    0.31E-04    0.76E-04    0.15E-06
   0     10    11.338    73.629    0.30E-04    0.72E-04    0.15E-06
   1      9    11.338    15.255    0.20E-03    0.19E-04    0.17E-06
   1      9    11.338     9.562    0.16E-03    0.15E-04    0.14E-06
 Optimization of the real space projectors (new method)

 maximal supplied QI-value         = 13.61
 optimisation between [QCUT,QGAM] = [ 11.43, 22.86] = [ 36.58,146.31] Ry
 Optimized for a Real-space Cutoff    1.56 Angstroem

   l    n(q)    QCUT    max X(q) W(low)/X(q) W(high)/X(q)  e(spline)
   2     10    11.429   130.855    0.22E-03    0.64E-03    0.11E-05
   2     10    11.429   114.007    0.22E-03    0.64E-03    0.11E-05
   0     11    11.429    84.709    0.39E-04    0.67E-04    0.23E-06
   0     11    11.429    49.163    0.35E-04    0.62E-04    0.21E-06
   1     10    11.429    15.765    0.84E-04    0.15E-03    0.24E-06
   1     10    11.429    10.638    0.58E-04    0.12E-03    0.19E-06
  PAW_PBE Ag 02Apr2005                  :
  PAW_PBE W 08Apr2002                   :

 POSCAR: Ag-W
  positions in direct lattice
  velocities in cartesian coordinates
 exchange correlation table for  LEXCH =        8
   RHO(1)=    0.500       N(1)  =     2000
   RHO(2)=  100.500       N(2)  =     4000

 VTST: version 3.2, (02/03/18)

 CHAIN: initializing optimizer

 OPT: Using VASP Conjugate-Gradient optimizer
 CHAIN: Read ICHAIN            0

 POSCAR: Ag-W
  positions in direct lattice
  velocities in cartesian coordinates

 ion  position               nearest neighbor table
   1  0.000  0.000  0.238-   2 2.93   8 2.93   7 2.93   6 2.93   4 2.93  12 2.93  16 2.93  10 2.93
                             3 2.93
   2  0.333  0.000  0.238-   1 2.93   8 2.93   9 2.93   3 2.93   4 2.93   5 2.93  10 2.93  17 2.93
                            11 2.93
   3  0.667  0.000  0.238-   9 2.93   2 2.93   5 2.93  11 2.93   7 2.93  18 2.93   1 2.93   6 2.93
                            12 2.93
   4  0.000  0.333  0.238-   5 2.93   6 2.93   2 2.93   1 2.93   7 2.93  13 2.93  15 2.93   9 2.93
                            10 2.93
   5  0.333  0.333  0.238-   4 2.93   3 2.93   7 2.93   2 2.93   8 2.93  14 2.93  13 2.93  11 2.93
                             6 2.93
   6  0.667  0.333  0.238-   4 2.93   9 2.93   1 2.93  15 2.93   8 2.93  12 2.93   3 2.93   5 2.93
                            14 2.93
   7  0.000  0.667  0.238-   8 2.93   1 2.93   5 2.93   3 2.93   4 2.93  16 2.93  18 2.93  13 2.93
                             9 2.93
   8  0.333  0.667  0.238-   7 2.93   1 2.93   2 2.93   9 2.93   5 2.93  16 2.93   6 2.93  17 2.93
                            14 2.93
   9  0.667  0.667  0.238-   3 2.93   2 2.93   8 2.93   6 2.93  17 2.93   4 2.93  15 2.93   7 2.93
                            18 2.93
  10  0.111  0.111  0.346-  20 2.89  12 2.93  16 2.93  15 2.93  17 2.93  13 2.93  11 2.93   2 2.93
                             1 2.93   4 2.93  19 2.93  26 2.93
  11  0.444  0.111  0.346-  21 2.90  20 2.90  14 2.93  17 2.93  18 2.93   3 2.93  12 2.93  13 2.93
                            10 2.93   5 2.93   2 2.93  27 2.93
  12  0.778  0.111  0.346-  21 2.89  10 2.93  16 2.93  18 2.93  15 2.93  11 2.93   1 2.93  14 2.93
                             6 2.93   3 2.93  25 2.93  19 2.93
  13  0.111  0.444  0.346-  20 2.90  23 2.90  15 2.93  14 2.93  18 2.93  10 2.93  11 2.93  16 2.93
                             4 2.93   5 2.93   7 2.93  22 2.93
  14  0.444  0.444  0.346-  23 2.90  21 2.90  13 2.93  11 2.93  16 2.93   5 2.93  12 2.93  17 2.93
                             8 2.93  15 2.93   6 2.93  24 2.93
  15  0.778  0.444  0.346-  24 2.93  22 2.93  13 2.93  10 2.93  12 2.93  17 2.93  18 2.93   4 2.93
                             6 2.93   9 2.93  14 2.93  19 2.93
  16  0.111  0.778  0.346-  23 2.89  18 2.93  12 2.93  10 2.93  14 2.93  17 2.93  13 2.93   7 2.93
                             8 2.93   1 2.93  26 2.93  25 2.93
  17  0.444  0.778  0.346-  27 2.93  24 2.93  11 2.93  10 2.93   9 2.93  18 2.93  15 2.93  16 2.93
                             2 2.93  14 2.93   8 2.93  26 2.93
  18  0.778  0.778  0.346-  22 2.93  27 2.93  16 2.93  12 2.93  13 2.93  11 2.93  17 2.93  15 2.93
                             7 2.93   3 2.93   9 2.93  25 2.93
  19  0.889  0.223  0.454-  28 2.92  20 2.93  21 2.93  24 2.93  22 2.93  15 2.93  10 2.93  12 2.93
                            26 2.94  25 2.94  32 2.98  31 2.98
  20  0.222  0.222  0.452-  36 2.76  10 2.89  13 2.90  11 2.90  19 2.93  26 2.93  27 2.94  22 2.94
                            21 2.94  23 2.94  31 2.96  29 2.96
  21  0.556  0.222  0.452-  36 2.76  12 2.89  11 2.90  14 2.90  25 2.93  19 2.93  27 2.94  24 2.94
                            20 2.94  23 2.94  30 2.96  32 2.96
  22  0.888  0.556  0.454-  35 2.92  24 2.92  27 2.92  18 2.93  15 2.93  25 2.93  19 2.93  13 2.93
                            23 2.94  20 2.94  33 2.96  31 2.96
  23  0.222  0.556  0.452-  36 2.76  16 2.89  14 2.90  13 2.90  26 2.93  25 2.93  22 2.94  24 2.94
                            21 2.94  20 2.94  34 2.96  33 2.96
  24  0.556  0.556  0.454-  35 2.92  27 2.92  22 2.92  15 2.93  17 2.93  19 2.93  26 2.93  14 2.93
                            23 2.94  21 2.94  32 2.96  34 2.96
  25  0.889  0.889  0.454-  28 2.92  23 2.93  21 2.93  22 2.93  27 2.93  18 2.93  16 2.93  12 2.93
                            26 2.94  19 2.94  33 2.98  30 2.98
  26  0.223  0.889  0.454-  28 2.92  23 2.93  20 2.93  27 2.93  24 2.93  17 2.93  16 2.93  10 2.93
                            25 2.94  19 2.94  34 2.98  29 2.98
  27  0.556  0.888  0.454-  35 2.92  24 2.92  22 2.92  17 2.93  18 2.93  26 2.93  25 2.93  11 2.93
                            20 2.94  21 2.94  29 2.96  30 2.96
  28  0.000  0.000  0.562-  26 2.92  25 2.92  19 2.92  29 2.96  34 2.96  33 2.96  32 2.96  31 2.96
                            30 2.96
  29  0.333  0.007  0.563-  31 2.86  30 2.87  36 2.88  20 2.96  27 2.96  28 2.96  35 2.96  26 2.98
                            34 3.06
  30  0.659  0.007  0.563-  32 2.86  29 2.87  36 2.88  21 2.96  27 2.96  28 2.96  35 2.96  25 2.98
                            33 3.06
  31  0.007  0.333  0.563-  29 2.86  33 2.87  36 2.88  20 2.96  22 2.96  28 2.96  35 2.96  19 2.98
                            32 3.06
  32  0.659  0.333  0.563-  30 2.86  34 2.87  36 2.88  21 2.96  24 2.96  28 2.96  35 2.96  19 2.98
                            31 3.06
  33  0.007  0.659  0.563-  34 2.86  31 2.87  36 2.88  23 2.96  22 2.96  28 2.96  35 2.96  25 2.98
                            30 3.06
  34  0.333  0.659  0.563-  33 2.86  32 2.87  36 2.88  23 2.96  24 2.96  28 2.96  35 2.96  26 2.98
                            29 3.06
  35  0.667  0.667  0.561-  24 2.92  27 2.92  22 2.92  30 2.96  32 2.96  29 2.96  34 2.96  31 2.96
                            33 2.96
  36  0.333  0.333  0.550-  21 2.76  20 2.76  23 2.76  31 2.88  30 2.88  33 2.88  29 2.88  34 2.88
                            32 2.88

  LATTYP: Found a hexagonal cell.
 ALAT       =     8.7913665772
 C/A-ratio  =     2.5227160501

  Lattice vectors:

 A1 = (  -4.3956832886,  -7.6135467898,   0.0000000000)
 A2 = (   8.7913665771,   0.0000000000,   0.0000000000)
 A3 = (   0.0000000000,   0.0000000000,  22.1781215668)

Analysis of symmetry for initial positions (statically):
 Subroutine PRICEL returns:
 Original cell was already a primitive cell.

 Routine SETGRP: Setting up the symmetry group for a
 hexagonal supercell.

 Subroutine GETGRP returns: Found  6 space group operations
 (whereof  6 operations were pure point group operations)
 out of a pool of 24 trial point group operations.

The static configuration has the point symmetry C_3v.

Analysis of symmetry for dynamics (positions and initial velocities):
 Subroutine PRICEL returns:
 Original cell was already a primitive cell.

[...]

The dynamic configuration has the point symmetry C_3v.

Analysis of constrained symmetry for selective dynamics:
 Subroutine PRICEL returns:
 Original cell was already a primitive cell.

 Routine SETGRP: Setting up the symmetry group for a
 hexagonal supercell.

 Subroutine GETGRP returns: Found  6 space group operations
 (whereof  6 operations were pure point group operations)
 out of a pool of 24 trial point group operations.

The constrained configuration has the point symmetry C_3v.

 Subroutine INISYM returns: Found  6 space group operations
 (whereof  6 operations are pure point group operations),
 and found     1 'primitive' translations

                                     Primitive cell

  volume of cell :    1484.4589

  direct lattice vectors                    reciprocal lattice vectors
     8.791366577  0.000000000  0.000000000     0.113747958 -0.065672414  0.000000000
     4.395683289  7.613546790  0.000000000     0.000000000  0.131344829  0.000000000
[...]
     15      -4.8109      2.00000
     16      -4.7521      2.00000
     17      -4.7424      2.00000
     18      -4.7229      2.00000
     19      -4.7193      2.00000
     20      -4.6981      2.00000
     21      -4.6899      2.00000
     22      -4.6665      2.00000
     23      -4.6562      2.00000
     24      -4.6421      2.00000
     25      -4.6238      2.00000
     26      -4.6107      2.00000
     27      -4.5828      2.00000
     28      -4.5731      2.00000
     29      -4.5668      2.00000
     30      -4.5519      2.00000
     31      -4.5325      2.00000
     32      -4.5053      2.00000
     33      -4.4994      2.00000
     34      -4.4674      2.00000
     35      -4.4383      2.00000
     36      -4.4213      2.00000
     37      -4.3822      2.00000
     38      -4.3518      2.00000
     39      -4.3496      2.00000
     40      -4.3376      2.00000
     41      -4.3311      2.00000
     42      -4.3147      2.00000
     43      -4.2215      2.00000
     44      -4.1947      2.00000
     45      -4.1899      2.00000
     46      -4.1812      2.00000
     47      -4.1745      2.00000
     48      -4.1732      2.00000
     49      -4.1679      2.00000
     50      -4.1651      2.00000
     51      -4.1487      2.00000
     52      -4.1406      2.00000
     53      -4.0693      2.00000
     54      -4.0630      2.00000
     55      -4.0541      2.00000
     56      -4.0443      2.00000
     57      -4.0292      2.00000
     58      -4.0159      2.00000
     59      -3.9985      2.00000
     60      -3.9710      2.00000
[...]
    238       7.2281      0.00000
    239       7.2480      0.00000
    240       7.2487      0.00000
    241       7.2832      0.00000
    242       7.2885      0.00000
    243       7.3460      0.00000
    244       7.4026      0.00000
    245       7.5298      0.00000
    246       7.5715      0.00000
    247       7.6170      0.00000
    248       7.6669      0.00000
    249       7.7669      0.00000
    250       7.9471      0.00000
    251       8.0510      0.00000
    252       8.1755      0.00000

 soft charge-density along one line, spin component           1
         0         1         2         3         4         5         6         7         8         9
 total charge-density along one line

------------------------ aborting loop because EDIFF is reached ----------------------------------------

 total charge

# of ion       s       p       d       tot
    1        0.421   0.201   9.177   9.800
    2        0.415   0.204   9.178   9.796
    3        0.415   0.204   9.178   9.796
    4        0.415   0.204   9.178   9.796
    5        0.420   0.201   9.175   9.796
    6        0.415   0.204   9.178   9.796
    7        0.415   0.204   9.178   9.796
    8        0.415   0.204   9.178   9.796
    9        0.418   0.201   9.178   9.797
   10        0.411   0.269   9.160   9.841
   11        0.406   0.267   9.170   9.843
   12        0.411   0.269   9.160   9.841
   13        0.406   0.267   9.170   9.843
   14        0.406   0.267   9.170   9.843
   15        0.405   0.267   9.165   9.837
   16        0.411   0.269   9.160   9.841
   17        0.405   0.267   9.165   9.837
   18        0.405   0.267   9.165   9.837
   19        0.399   0.264   9.166   9.829
   20        0.441   0.314   9.127   9.882
   21        0.441   0.314   9.127   9.882
   22        0.393   0.270   9.169   9.832
   23        0.441   0.314   9.127   9.882
   24        0.393   0.270   9.169   9.832
   25        0.399   0.264   9.166   9.829
   26        0.399   0.264   9.166   9.829
   27        0.393   0.270   9.169   9.832
   28        0.409   0.198   9.175   9.781
   29        0.439   0.222   9.149   9.810
   30        0.439   0.222   9.149   9.810
   31        0.439   0.222   9.149   9.810
   32        0.439   0.222   9.149   9.810
   33        0.439   0.222   9.149   9.810
   34        0.439   0.222   9.149   9.810
   35        0.401   0.199   9.178   9.778
   36        0.597   0.309   3.812   4.717
tot         15.151   8.815 324.532 348.498

  FORCE on cell =-STRESS in cart. coord.  units (eV):
  Direction    XX          YY          ZZ          XY          YZ          ZX
  Alpha Z   744.84518   744.84518   744.84518
  Ewald  118889.78765118889.78755************    -0.00001    -0.00001    -0.00002
  Hartree128907.26443128907.26438************    -0.00001    -0.00000    -0.00001
  E(xc)   -2053.89191 -2053.89190 -2060.09995    -0.00001     0.00000     0.00000
  Local  ************************259013.89183     0.00021    -0.00002    -0.00003
  n-local  -338.69722  -319.02754  -333.79387    11.11921    -0.41914     0.44456
  augment  3223.48704  3223.48718  3237.48342    -0.00010     0.00004     0.00005
  Kinetic  4833.88255  4838.10148  4875.52516     4.19573     0.58542     0.01019
  Fock        0.00000     0.00000     0.00000     0.00000     0.00000     0.00000
  Total     -10.49297   -10.49297     0.14817    -0.00000     0.00000     0.00000
  in kB     -11.32506   -11.32506     0.15992    -0.00000     0.00000     0.00000

 VOLUME and BASIS-vectors are now :
  energy-cutoff  :      500.00
  volume of cell :     1484.46
      direct lattice vectors                 reciprocal lattice vectors
     8.791366577  0.000000000  0.000000000     0.113747958 -0.065672414  0.000000000
     4.395683289  7.613546790  0.000000000     0.000000000  0.131344829  0.000000000
     0.000000000  0.000000000 22.178121567     0.000000000  0.000000000  0.045089481

  length of vectors
     8.791366577  8.791366577 22.178121567     0.131344829  0.131344829  0.045089481

 FORCES acting on ions
    electron-ion (+dipol)            ewald-force                    non-local-force                 convergence-correction
   0.462E-04 -.281E-04 0.248E+04   -.953E-04 0.593E-04 -.247E+04   0.310E-17 -.809E-19 -.199E+01   -.203E-03 -.221E-03 0.702E-01
   -.179E+00 0.345E-01 0.248E+04   -.156E+00 -.211E+00 -.247E+04   0.158E+00 0.163E+00 -.155E+01   0.163E+00 0.107E-01 0.713E-01
   0.179E+00 0.345E-01 0.248E+04   0.156E+00 -.211E+00 -.247E+04   -.158E+00 0.163E+00 -.155E+01   -.163E+00 0.126E-01 0.722E-01
   -.594E-01 -.172E+00 0.248E+04   -.260E+00 -.293E-01 -.247E+04   0.221E+00 0.556E-01 -.155E+01   0.908E-01 0.136E+00 0.713E-01
   -.776E-05 -.200E-04 0.248E+04   0.980E-04 -.197E-05 -.247E+04   0.214E-17 0.217E-17 -.116E+01   0.626E-02 0.383E-02 0.221E+00
   0.594E-01 -.172E+00 0.248E+04   0.260E+00 -.294E-01 -.247E+04   -.221E+00 0.556E-01 -.155E+01   -.922E-01 0.136E+00 0.722E-01
   0.119E+00 0.137E+00 0.248E+04   -.105E+00 0.240E+00 -.247E+04   0.621E-01 -.219E+00 -.155E+01   -.702E-01 -.147E+00 0.722E-01
   -.119E+00 0.137E+00 0.248E+04   0.105E+00 0.240E+00 -.247E+04   -.621E-01 -.219E+00 -.155E+01   0.717E-01 -.148E+00 0.722E-01
   0.364E-04 -.131E-04 0.248E+04   0.792E-04 -.643E-04 -.247E+04   -.352E-17 -.106E-17 -.171E+01   -.658E-02 -.339E-02 0.255E-01
   0.342E+01 0.198E+01 0.797E+03   -.303E+01 -.175E+01 -.796E+03   -.466E+00 -.269E+00 -.898E+00   0.656E-01 0.379E-01 0.108E+00
   -.282E-04 0.192E+01 0.796E+03   0.402E-04 -.217E+01 -.796E+03   0.757E-12 0.115E+00 -.136E+00   0.687E-02 0.911E-01 0.103E+00
   -.342E+01 0.198E+01 0.797E+03   0.302E+01 -.175E+01 -.796E+03   0.466E+00 -.269E+00 -.898E+00   -.677E-01 0.387E-01 0.109E+00
   0.166E+01 -.958E+00 0.796E+03   -.188E+01 0.109E+01 -.796E+03   0.998E-01 -.576E-01 -.136E+00   0.822E-01 -.396E-01 0.103E+00
   -.166E+01 -.958E+00 0.796E+03   0.188E+01 0.109E+01 -.796E+03   -.998E-01 -.576E-01 -.136E+00   -.717E-01 -.411E-01 0.102E+00
   0.155E-04 0.785E+00 0.796E+03   -.108E-03 -.101E+01 -.795E+03   0.793E-12 0.121E+00 -.755E+00   -.173E-02 0.726E-01 0.791E-01
   -.817E-05 -.395E+01 0.797E+03   0.205E-04 0.349E+01 -.796E+03   0.353E-11 0.538E+00 -.898E+00   -.373E-03 -.781E-01 0.109E+00
   0.680E+00 -.392E+00 0.796E+03   -.871E+00 0.503E+00 -.795E+03   0.105E+00 -.604E-01 -.755E+00   0.620E-01 -.378E-01 0.791E-01
   -.680E+00 -.393E+00 0.796E+03   0.871E+00 0.503E+00 -.795E+03   -.105E+00 -.604E-01 -.755E+00   -.613E-01 -.355E-01 0.813E-01
   0.383E-04 -.381E+01 -.902E+03   -.126E-03 0.369E+01 0.901E+03   0.563E-12 0.857E-01 0.759E+00   -.649E-02 0.371E-01 0.346E+00
   -.170E+02 -.983E+01 -.900E+03   0.184E+02 0.106E+02 0.901E+03   -.139E+01 -.805E+00 -.139E+01   0.578E-01 0.337E-01 0.303E+00
   0.170E+02 -.983E+01 -.900E+03   -.184E+02 0.106E+02 0.901E+03   0.139E+01 -.805E+00 -.139E+01   -.564E-01 0.317E-01 0.303E+00
   -.125E+02 0.723E+01 -.896E+03   0.121E+02 -.698E+01 0.896E+03   0.347E+00 -.201E+00 0.366E+00   0.793E-01 -.366E-01 0.252E+00
   -.507E-04 0.197E+02 -.900E+03   0.380E-04 -.212E+02 0.901E+03   0.106E-10 0.161E+01 -.139E+01   -.658E-03 -.643E-01 0.303E+00
   0.125E+02 0.723E+01 -.896E+03   -.121E+02 -.698E+01 0.896E+03   -.347E+00 -.201E+00 0.366E+00   -.682E-01 -.394E-01 0.251E+00
   0.330E+01 0.191E+01 -.902E+03   -.320E+01 -.184E+01 0.901E+03   -.742E-01 -.428E-01 0.759E+00   -.411E-01 -.237E-01 0.346E+00
   -.330E+01 0.191E+01 -.902E+03   0.320E+01 -.184E+01 0.901E+03   0.742E-01 -.428E-01 0.759E+00   0.285E-01 -.242E-01 0.346E+00
   0.199E-04 -.145E+02 -.896E+03   0.109E-03 0.140E+02 0.896E+03   0.263E-11 0.401E+00 0.366E+00   0.732E-02 0.867E-01 0.251E+00
   0.531E-04 -.358E-04 -.249E+04   -.112E-03 0.761E-04 0.249E+04   0.572E-17 -.115E-16 0.175E+01   -.439E-03 0.372E-03 0.164E+00
   -.163E+02 -.293E+02 -.251E+04   0.175E+02 0.311E+02 0.251E+04   -.122E+01 -.185E+01 0.100E+01   0.771E-01 0.838E-01 0.199E+00
   0.163E+02 -.293E+02 -.251E+04   -.175E+02 0.311E+02 0.251E+04   0.122E+01 -.185E+01 0.100E+01   -.767E-01 0.846E-01 0.198E+00
   -.336E+02 0.537E+00 -.251E+04   0.357E+02 -.435E+00 0.251E+04   -.221E+01 -.129E+00 0.100E+01   0.112E+00 0.262E-01 0.199E+00
   0.336E+02 0.537E+00 -.251E+04   -.357E+02 -.435E+00 0.251E+04   0.221E+01 -.129E+00 0.100E+01   -.123E+00 0.255E-01 0.199E+00
   -.173E+02 0.288E+02 -.251E+04   0.182E+02 -.307E+02 0.251E+04   -.992E+00 0.198E+01 0.100E+01   0.293E-01 -.118E+00 0.198E+00
   0.173E+02 0.288E+02 -.251E+04   -.182E+02 -.307E+02 0.251E+04   0.992E+00 0.198E+01 0.100E+01   -.391E-01 -.119E+00 0.199E+00
   0.266E-04 -.143E-04 -.249E+04   0.103E-03 -.644E-04 0.249E+04   -.257E-17 0.269E-17 0.209E+01   -.476E-02 -.308E-02 0.251E+00
   -.265E-04 -.402E-05 -.131E+04   0.578E-04 0.738E-05 0.131E+04   -.878E-17 0.535E-17 0.292E+01   0.112E-02 0.102E-02 0.165E+00
   0.293E-03 -.705E-03 0.154E+01   -.292E-13 0.147E-12 0.546E-11   0.544E-15 -.436E-15 -.755E+01   -.113E-01 -.896E-02 0.609E+01

 POSITION                                       TOTAL-FORCE (eV/Angst)
      0.00000      0.00000      5.28219         0.000000     -0.000000     -0.058801
      2.93046      0.00000      5.28219        -0.012478     -0.001227      0.021730
      5.86091      0.00000      5.28219         0.012478     -0.001227      0.021730
      1.46523      2.53785      5.28219        -0.007301     -0.010192      0.021730
      4.39568      2.53785      5.28219        -0.000000     -0.000000     -0.007140
      7.32614      2.53785      5.28219         0.007301     -0.010192      0.021730
      2.93046      5.07570      5.28219         0.005176      0.011419      0.021730
      5.86091      5.07570      5.28219        -0.005176      0.011419      0.021730
      8.79137      5.07570      5.28219         0.000000     -0.000000      0.001860
      1.46523      0.84595      7.67490        -0.002111     -0.001219     -0.008733
      4.39568      0.84595      7.67490        -0.000000     -0.052351     -0.070089
      7.32614      0.84595      7.67490         0.002111     -0.001219     -0.008733
      2.93046      3.38380      7.67490        -0.045337      0.026176     -0.070089
      5.86091      3.38380      7.67490         0.045337      0.026176     -0.070089
      8.79137      3.38380      7.67490        -0.000000     -0.028012      0.019889
      4.39568      5.92165      7.67490         0.000000      0.002437     -0.008733
      7.32614      5.92165      7.67490        -0.024259      0.014006      0.019889
     10.25659      5.92165      7.67490         0.024259      0.014006      0.019889
      8.79137      1.69504     10.07204         0.000000      0.004691      0.002324
      2.92602      1.68934     10.02478        -0.004458     -0.002574      0.011418
      5.86534      1.68934     10.02478         0.004458     -0.002574      0.011418
     10.25093      4.23302     10.06482         0.001786     -0.001031     -0.008667
      4.39568      4.23487     10.02478         0.000000      0.005148      0.011418
      7.33181      4.23302     10.06482        -0.001786     -0.001031     -0.008667
     11.71910      6.76603     10.07204        -0.004062     -0.002345      0.002324
      5.86363      6.76603     10.07204         0.004062     -0.002345      0.002324
      8.79137      6.76105     10.06482         0.000000      0.002062     -0.008667
      0.00000      0.00000     12.45341         0.000000     -0.000000      0.014888
      2.96185      0.05622     12.48740        -0.004005     -0.006798      0.010909
      5.82952      0.05622     12.48740         0.004005     -0.006798      0.010909
      1.52961      2.53693     12.48740        -0.007890     -0.000069      0.010909
      7.26176      2.53693     12.48740         0.007890     -0.000069      0.010909
      2.96344      5.02040     12.48740        -0.003885      0.006867      0.010909
      5.82792      5.02040     12.48740         0.003885      0.006867      0.010909
      8.79137      5.07570     12.44798         0.000000     -0.000000      0.012405
      4.39568      2.53785     12.20252         0.000000     -0.000000      0.002531
    total drift:                               -0.011001     -0.009663      0.076573

  FREE ENERGIE OF THE ION-ELECTRON SYSTEM (eV)
  free  energy   TOTEN  =       -97.55653496 eV

  energy  without entropy=      -97.55653496  energy(sigma->0) =      -97.55653496

 stress matrix after NEB project (eV)
    -10.49297     -0.00000      0.00000
     -0.00000    -10.49297     -0.00000
      0.00000      0.00000      0.14817
  FORCES: max atom, RMS     0.014888    0.007924
  FORCE total and by dimension    0.047544    0.014888
  Stress total and by dimension   14.840034   10.492966
|           W    W    AA    RRRRR   N    N  II  N    N   GGGG   !!!           |
|           W    W   A  A   R    R  NN   N  II  NN   N  G    G  !!!           |
|           W    W  A    A  R    R  N N  N  II  N N  N  G       !!!           |
|           W WW W  AAAAAA  RRRRR   N  N N  II  N  N N  G  GGG   !            |
|           WW  WW  A    A  R   R   N   NN  II  N   NN  G    G                |
|           W    W  A    A  R    R  N    N  II  N    N   GGGG   !!!           |
|     Tetrahedron method does not include variations of the Fermi             |
|     occupations, so forces and stress will be inaccurate. We suggest        |
|     using a different smearing scheme ISMEAR = 1 or 2 for metals in         |
|     relaxations.                                                            |

 total charge

# of ion       s       p       d       tot
    1        0.421   0.201   9.177   9.800
    2        0.415   0.204   9.178   9.796
    3        0.415   0.204   9.178   9.796
    4        0.415   0.204   9.178   9.796
    5        0.420   0.201   9.175   9.796
    6        0.415   0.204   9.178   9.796
    7        0.415   0.204   9.178   9.796
    8        0.415   0.204   9.178   9.796
    9        0.418   0.201   9.178   9.797
   10        0.411   0.269   9.160   9.841
   11        0.406   0.267   9.170   9.843
   12        0.411   0.269   9.160   9.841
   13        0.406   0.267   9.170   9.843
   14        0.406   0.267   9.170   9.843
   15        0.405   0.267   9.165   9.837
   16        0.411   0.269   9.160   9.841
   17        0.405   0.267   9.165   9.837
   18        0.405   0.267   9.165   9.837
   19        0.399   0.264   9.166   9.829
   20        0.441   0.314   9.127   9.882
   21        0.441   0.314   9.127   9.882
   22        0.393   0.270   9.169   9.832
   23        0.441   0.314   9.127   9.882
   24        0.393   0.270   9.169   9.832
   25        0.399   0.264   9.166   9.829
   26        0.399   0.264   9.166   9.829
   27        0.393   0.270   9.169   9.832
   28        0.409   0.198   9.175   9.781
   29        0.439   0.222   9.149   9.810
   30        0.439   0.222   9.149   9.810
   31        0.439   0.222   9.149   9.810
   32        0.439   0.222   9.149   9.810
   33        0.439   0.222   9.149   9.810
   34        0.439   0.222   9.149   9.810
   35        0.401   0.199   9.178   9.778
   36        0.597   0.309   3.812   4.717
tot         15.151   8.815 324.532 348.498

 BZINTS: Fermi energy:    0.809134;  391.000000 electrons
         Band energy:-0.127334E+04;  BLOECHL correction:   -0.017312