 vasp.6.2.0 18Jan21 (build Jun 12 2021 23:27:24) complex

 executed on             LinuxIFC date 2022.05.27  05:17:36

 INCAR:
   ISMEAR = -5
   SIGMA = 0.1
   ISPIN = 1
   EDIFF = 1.d-5
   EDIFFG = -0.01
   NSW = 0
   NELM = 150
   ENCUT = 500
   ISIF = 2
   IBRION = 2
   LREAL = Auto
   ALGO = Fast
   ICHARG = 11
   LORBIT = 10
   LCHARG = .F.
   LWAVE = .F.

 POTCAR:    PAW_PBE Au 04Oct2007
 POTCAR:    PAW_PBE Ta 17Jan2003
 POTCAR:    PAW_PBE C 08Apr2002
 POTCAR:    PAW_PBE O 08Apr2002
|           W    W    AA    RRRRR   N    N  II  N    N   GGGG   !!!           |
|           W    W   A  A   R    R  NN   N  II  NN   N  G    G  !!!           |
|           W    W  A    A  R    R  N N  N  II  N N  N  G       !!!           |
|           W WW W  AAAAAA  RRRRR   N  N N  II  N  N N  G  GGG   !            |
|           WW  WW  A    A  R   R   N   NN  II  N   NN  G    G                |
|           W    W  A    A  R    R  N    N  II  N    N   GGGG   !!!           |
|     For optimal performance we recommend to set                             |
|       NCORE = 2 up to number-of-cores-per-socket                            |
|     This setting can greatly improve the performance of VASP for DFT.       |
|     The default, NCORE=1 might be grossly inefficient on modern             |
|     multi-core architectures or massively parallel machines. Do your        |
|     Unfortunately you need to use the default for GW and RPA                |
|     calculations (for HF NCORE is supported but not extensively tested      |
|     yet).                                                                   |

 POTCAR:    PAW_PBE Au 04Oct2007
   VRHFIN =Au: s1d10

   TITEL  = PAW_PBE Au 04Oct2007
   POMASS =  196.966; ZVAL   =   11.000    mass and valenz
   ENMAX  =  229.943; ENMIN  =  172.457 eV

 POTCAR:    PAW_PBE Ta 17Jan2003
   VRHFIN =Ta:  6s5d

   TITEL  = PAW_PBE Ta 17Jan2003
   POMASS =  180.948; ZVAL   =    5.000    mass and valenz
   ENMAX  =  223.667; ENMIN  =  167.750 eV

 POTCAR:    PAW_PBE C 08Apr2002
   VRHFIN =C: s2p2

   TITEL  = PAW_PBE C 08Apr2002
   POMASS =   12.011; ZVAL   =    4.000    mass and valenz
   ENMAX  =  400.000; ENMIN  =  300.000 eV

 POTCAR:    PAW_PBE O 08Apr2002
   VRHFIN =O: s2p4

   TITEL  = PAW_PBE O 08Apr2002
   POMASS =   16.000; ZVAL   =    6.000    mass and valenz
   ENMAX  =  400.000; ENMIN  =  300.000 eV

 Optimization of the real space projectors (new method)

 maximal supplied QI-value         = 15.12
 optimisation between [QCUT,QGAM] = [ 11.34, 22.83] = [ 36.00,145.93] Ry
 Optimized for a Real-space Cutoff    1.39 Angstroem

   l    n(q)    QCUT    max X(q) W(low)/X(q) W(high)/X(q)  e(spline)
   2      9    11.338    60.898    0.39E-03    0.42E-03    0.21E-06
   2      9    11.338    58.894    0.40E-03    0.42E-03    0.22E-06
   0      9    11.338   109.617    0.13E-03    0.20E-04    0.13E-06
   0      9    11.338    75.026    0.13E-03    0.20E-04    0.13E-06
   1      9    11.338    16.344    0.33E-04    0.24E-03    0.18E-06
   1      9    11.338    10.160    0.26E-04    0.19E-03    0.15E-06
 Optimization of the real space projectors (new method)

[...]

   l    n(q)    QCUT    max X(q) W(low)/X(q) W(high)/X(q)  e(spline)
   0      7    11.310   115.676    0.43E-03    0.13E-02    0.19E-06
   0      7    11.310    87.132    0.43E-03    0.13E-02    0.18E-06
   1      6    11.310     4.429    0.42E-03    0.74E-03    0.11E-06
   1      6    11.310     2.733    0.34E-03    0.55E-03    0.92E-07
 Optimization of the real space projectors (new method)

 maximal supplied QI-value         = 24.76
 optimisation between [QCUT,QGAM] = [ 11.39, 22.77] = [ 36.31,145.25] Ry
 Optimized for a Real-space Cutoff    1.00 Angstroem

   l    n(q)    QCUT    max X(q) W(low)/X(q) W(high)/X(q)  e(spline)
   0      7    11.387    20.381    0.39E-03    0.13E-02    0.15E-06
   0      7    11.387    15.268    0.42E-03    0.14E-02    0.17E-06
   1      6    11.387     5.964    0.41E-03    0.11E-02    0.17E-06
   1      6    11.387     5.382    0.39E-03    0.87E-03    0.15E-06
  PAW_PBE Au 04Oct2007                  :
  PAW_PBE Ta 17Jan2003                  :
  PAW_PBE C 08Apr2002                   :
  PAW_PBE O 08Apr2002                   :

 POSCAR: Au-Ta-CO
  positions in direct lattice
  velocities in cartesian coordinates
 exchange correlation table for  LEXCH =        8
   RHO(1)=    0.500       N(1)  =     2000
   RHO(2)=  100.500       N(2)  =     4000

 VTST: version 3.2, (02/03/18)

 CHAIN: initializing optimizer

 OPT: Using VASP Conjugate-Gradient optimizer
 CHAIN: Read ICHAIN            0

 POSCAR: Au-Ta-CO
  positions in direct lattice
  velocities in cartesian coordinates

 ion  position               nearest neighbor table
   1  0.000  0.000  0.238-  16 2.94  12 2.94   6 2.94   8 2.94   7 2.94   3 2.94  10 2.94   4 2.94
                             2 2.94
   2  0.333  0.000  0.238-   9 2.94  11 2.94  17 2.94  10 2.94   8 2.94   4 2.94   5 2.94   1 2.94
                             3 2.94
   3  0.667  0.000  0.238-   7 2.94  18 2.94  12 2.94   1 2.94  11 2.94   5 2.94   6 2.94   9 2.94
                             2 2.94
   4  0.000  0.333  0.238-  10 2.94   6 2.94   5 2.94  13 2.94   2 2.94  15 2.94   9 2.94   1 2.94
                             7 2.94
   5  0.333  0.333  0.238-  13 2.94   7 2.94  11 2.94   4 2.94   2 2.94  14 2.94   3 2.94   8 2.94
                             6 2.94
   6  0.667  0.333  0.238-  15 2.94  14 2.94   1 2.94  12 2.94   4 2.94   9 2.94   8 2.94   3 2.94
                             5 2.94
   7  0.000  0.667  0.238-  18 2.94   3 2.94  16 2.94   5 2.94   1 2.94  13 2.94   8 2.94   4 2.94
                             9 2.94
   8  0.333  0.667  0.238-   9 2.94  17 2.94   1 2.94   2 2.94  14 2.94  16 2.94   6 2.94   7 2.94
                             5 2.94
   9  0.667  0.667  0.238-   2 2.94   8 2.94  17 2.94   6 2.94  15 2.94   4 2.94   3 2.94  18 2.94
                             7 2.94
  10  0.111  0.111  0.346-  20 2.91  11 2.94  17 2.94   2 2.94   4 2.94   1 2.94  12 2.94  16 2.94
                            13 2.94  15 2.94  26 2.96  19 2.96
  11  0.444  0.111  0.346-  20 2.91  21 2.91  13 2.94   2 2.94  10 2.94  17 2.94   5 2.94   3 2.94
                            18 2.94  14 2.94  12 2.94  27 2.94
  12  0.778  0.111  0.346-  21 2.91  16 2.94  18 2.94   1 2.94  14 2.94  15 2.94   3 2.94   6 2.94
                            10 2.94  11 2.94  25 2.96  19 2.96
  13  0.111  0.444  0.346-  23 2.91  20 2.91   5 2.94  18 2.94  11 2.94   7 2.94   4 2.94  16 2.94
                            10 2.94  14 2.94  15 2.94  22 2.94
  14  0.444  0.444  0.346-  21 2.91  23 2.91  15 2.94   6 2.94  12 2.94   8 2.94  17 2.94   5 2.94
                            16 2.94  13 2.94  11 2.94  24 2.94
  15  0.778  0.444  0.346-  24 2.92  22 2.92  14 2.94   6 2.94  17 2.94  12 2.94   9 2.94   4 2.94
                            10 2.94  13 2.94  18 2.94  19 2.95
  16  0.111  0.778  0.346-  23 2.91  18 2.94  12 2.94   7 2.94   1 2.94   8 2.94  13 2.94  10 2.94
                            14 2.94  17 2.94  25 2.96  26 2.96
  17  0.444  0.778  0.346-  27 2.92  24 2.92   9 2.94  15 2.94   2 2.94  10 2.94  11 2.94   8 2.94
                            14 2.94  16 2.94  18 2.94  26 2.95
  18  0.778  0.778  0.346-  22 2.92  27 2.92  16 2.94   7 2.94  13 2.94  12 2.94   3 2.94  11 2.94
                             9 2.94  15 2.94  17 2.94  25 2.95
  19  0.888  0.223  0.455-  24 2.93  22 2.93  21 2.93  20 2.93  28 2.95  15 2.95  26 2.95  25 2.95
                            10 2.96  12 2.96  32 3.06  31 3.06
  20  0.222  0.222  0.453-  36 2.74  10 2.91  11 2.91  13 2.91  26 2.93  19 2.93  23 2.95  21 2.95
                            27 2.95  22 2.95  29 2.99  31 2.99
  21  0.556  0.222  0.453-  36 2.74  12 2.91  14 2.91  11 2.91  25 2.93  19 2.93  20 2.95  23 2.95
                            27 2.95  24 2.95  30 2.99  32 2.99
  22  0.886  0.557  0.454-  24 2.91  27 2.91  18 2.92  15 2.92  25 2.93  19 2.93  13 2.94  23 2.95
                            20 2.95  35 2.96  33 3.03  31 3.03
  23  0.222  0.556  0.453-  36 2.74  16 2.91  13 2.91  14 2.91  25 2.93  26 2.93  20 2.95  21 2.95
                            22 2.95  24 2.95  33 2.99  34 2.99
  24  0.557  0.557  0.454-  27 2.91  22 2.91  15 2.92  17 2.92  26 2.93  19 2.93  14 2.94  21 2.95
                            23 2.95  35 2.96  32 3.03  34 3.03
  25  0.888  0.888  0.455-  22 2.93  27 2.93  23 2.93  21 2.93  28 2.95  18 2.95  19 2.95  26 2.95
                            16 2.96  12 2.96  33 3.06  30 3.06
  26  0.223  0.888  0.455-  27 2.93  24 2.93  20 2.93  23 2.93  28 2.95  17 2.95  19 2.95  25 2.95
                            10 2.96  16 2.96  29 3.06  34 3.06
  27  0.557  0.886  0.454-  24 2.91  22 2.91  17 2.92  18 2.92  26 2.93  25 2.93  11 2.94  20 2.95
                            21 2.95  35 2.96  29 3.03  30 3.03
  28  0.000  0.000  0.563-  25 2.95  19 2.95  26 2.95  34 3.00  32 3.00  33 3.00  30 3.00  31 3.00
                            29 3.00
  29  0.334  0.012  0.567-  30 2.82  31 2.84  36 2.85  35 2.99  20 2.99  28 3.00  27 3.03  26 3.06
                            34 3.16
  30  0.654  0.012  0.567-  29 2.82  32 2.84  36 2.85  35 2.99  21 2.99  28 3.00  27 3.03  25 3.06
                            33 3.16
  31  0.012  0.334  0.567-  33 2.82  29 2.84  36 2.85  35 2.99  20 2.99  28 3.00  22 3.03  19 3.06
                            32 3.16
  32  0.654  0.334  0.567-  34 2.82  30 2.84  36 2.85  35 2.99  21 2.99  28 3.00  24 3.03  19 3.06
                            31 3.16
  33  0.012  0.654  0.567-  31 2.82  34 2.84  36 2.85  35 2.99  23 2.99  28 3.00  22 3.03  25 3.06
                            30 3.16
  34  0.334  0.654  0.567-  32 2.82  33 2.84  36 2.85  35 2.99  23 2.99  28 3.00  24 3.03  26 3.06
                            29 3.16
  35  0.667  0.667  0.563-  24 2.96  27 2.96  22 2.96  29 2.99  34 2.99  32 2.99  31 2.99  30 2.99
                            33 2.99
  36  0.333  0.333  0.550-  37 2.11  20 2.74  23 2.74  21 2.74  33 2.85  31 2.85  29 2.85  30 2.85
                            34 2.85  32 2.85
  37  0.333  0.333  0.645-  38 1.16  36 2.11
  38  0.333  0.333  0.697-  37 1.16

  LATTYP: Found a hexagonal cell.
 ALAT       =     8.8135128021
 C/A-ratio  =     2.5184286595

  Lattice vectors:

 A1 = (  -4.4067569092,  -7.6327256898,   0.0000000000)
 A2 = (   8.8135128021,   0.0000000000,   0.0000000000)
 A3 = (   0.0000000000,   0.0000000000,  22.1962032318)

Analysis of symmetry for initial positions (statically):
 Subroutine PRICEL returns:
 Original cell was already a primitive cell.

 Routine SETGRP: Setting up the symmetry group for a
 hexagonal supercell.

 Subroutine GETGRP returns: Found  6 space group operations
 (whereof  6 operations were pure point group operations)
 out of a pool of 24 trial point group operations.

The static configuration has the point symmetry C_3v.

Analysis of symmetry for dynamics (positions and initial velocities):
 Subroutine PRICEL returns:
 Original cell was already a primitive cell.

[...]

The dynamic configuration has the point symmetry C_3v.

Analysis of constrained symmetry for selective dynamics:
 Subroutine PRICEL returns:
[...]
     33      -4.8380      2.00000
     34      -4.7891      2.00000
     35      -4.7639      2.00000
     36      -4.7536      2.00000
     37      -4.6710      2.00000
     38      -4.6575      2.00000
     39      -4.6428      2.00000
     40      -4.6174      2.00000
     41      -4.6096      2.00000
     42      -4.4562      2.00000
     43      -4.4418      2.00000
     44      -4.3806      2.00000
     45      -4.3418      2.00000
     46      -4.3105      2.00000
     47      -4.2787      2.00000
     48      -4.2539      2.00000
     49      -4.2377      2.00000
     50      -4.2143      2.00000
     51      -4.1272      2.00000
     52      -4.1063      2.00000
     53      -4.0855      2.00000
     54      -4.0607      2.00000
     55      -4.0499      2.00000
     56      -4.0326      2.00000
     57      -4.0176      2.00000
     58      -4.0016      2.00000
     59      -3.9731      2.00000
     60      -3.9375      2.00000
[...]
    238       6.1852      0.00000
    239       6.4615      0.00000
    240       6.4984      0.00000
    241       6.5557      0.00000
    242       6.5766      0.00000
    243       6.6286      0.00000
    244       6.8140      0.00000
    245       6.8380      0.00000
    246       6.8811      0.00000
    247       6.9655      0.00000
    248       7.0183      0.00000
    249       7.3081      0.00000
    250       7.3652      0.00000
    251       7.3850      0.00000
    252       7.6957      0.00000

 soft charge-density along one line, spin component           1
         0         1         2         3         4         5         6         7         8         9
 total charge-density along one line

------------------------ aborting loop because EDIFF is reached ----------------------------------------

 total charge

# of ion       s       p       d       tot
    1        0.548   0.236   8.769   9.552
    2        0.541   0.241   8.766   9.547
    3        0.541   0.241   8.766   9.547
    4        0.541   0.241   8.766   9.547
    5        0.550   0.240   8.759   9.549
    6        0.541   0.241   8.766   9.547
    7        0.541   0.241   8.766   9.547
    8        0.541   0.241   8.766   9.547
    9        0.542   0.239   8.769   9.550
   10        0.527   0.306   8.767   9.600
   11        0.523   0.306   8.779   9.608
   12        0.527   0.306   8.767   9.600
   13        0.523   0.306   8.779   9.608
   14        0.523   0.306   8.779   9.608
   15        0.515   0.307   8.774   9.597
   16        0.527   0.306   8.767   9.600
   17        0.515   0.307   8.774   9.597
   18        0.515   0.307   8.774   9.597
   19        0.518   0.294   8.768   9.580
   20        0.581   0.342   8.726   9.650
   21        0.581   0.342   8.726   9.650
   22        0.507   0.304   8.779   9.590
   23        0.581   0.342   8.726   9.650
   24        0.507   0.304   8.779   9.590
   25        0.518   0.294   8.768   9.580
   26        0.518   0.294   8.768   9.580
   27        0.507   0.304   8.779   9.590
   28        0.537   0.224   8.758   9.519
   29        0.588   0.250   8.732   9.571
   30        0.588   0.250   8.732   9.571
   31        0.588   0.250   8.732   9.571
   32        0.588   0.250   8.732   9.571
   33        0.588   0.250   8.732   9.571
   34        0.588   0.250   8.732   9.571
   35        0.539   0.224   8.759   9.523
   36        0.622   0.724   3.112   4.459
   37        0.973   1.538   0.000   2.511
   38        1.616   3.525   0.000   5.142
tot         22.215  15.476 309.699 347.389

  FORCE on cell =-STRESS in cart. coord.  units (eV):
  Direction    XX          YY          ZZ          XY          YZ          ZX
  Alpha Z  1034.25429  1034.25429  1034.25429
  Ewald  114177.22345114177.22386************    -0.00032    -0.00009    -0.00014
  Hartree122968.22941122968.22940************     0.00001    -0.00002    -0.00004
  E(xc)   -1793.53861 -1793.53867 -1801.24829     0.00006    -0.00000    -0.00000
  Local  ************************248975.69829     0.00204     0.00002     0.00002
  n-local   -92.42923   -46.93535   -47.10469    22.09811    -1.50798     1.38259
  augment  2370.37204  2370.37352  2391.23819    -0.00128     0.00004     0.00004
  Kinetic  5586.25822  5591.89522  5630.93879     3.98883     0.22547     0.15995
  Fock        0.00000     0.00000     0.00000     0.00000     0.00000     0.00000
  Total     -21.58432   -21.58432     3.27438    -0.00000     0.00000    -0.00000
  in kB     -23.16017   -23.16016     3.51344    -0.00000     0.00000    -0.00000

 VOLUME and BASIS-vectors are now :
  energy-cutoff  :      500.00
  volume of cell :     1493.16
      direct lattice vectors                 reciprocal lattice vectors
     8.813512802  0.000000000  0.000000000     0.113462137 -0.065507406  0.000000000
     4.406756909  7.632725690  0.000000000     0.000000000  0.131014796  0.000000000
     0.000000000  0.000000000 22.196203232     0.000000000  0.000000000  0.045052750

  length of vectors
     8.813512802  8.813512802 22.196203232     0.131014796  0.131014796  0.045052750

 FORCES acting on ions
    electron-ion (+dipol)            ewald-force                    non-local-force                 convergence-correction
   -.195E-04 -.161E-04 0.246E+04   0.519E-04 0.433E-04 -.246E+04   0.735E-17 0.190E-17 -.793E+00   -.188E-03 -.121E-03 -.197E+00
   0.526E+00 -.187E+00 0.246E+04   -.551E+00 -.125E-01 -.246E+04   0.528E-01 0.179E+00 -.331E+00   -.240E-01 0.512E-02 -.202E+00
   -.526E+00 -.187E+00 0.246E+04   0.551E+00 -.125E-01 -.246E+04   -.528E-01 0.179E+00 -.331E+00   0.242E-01 0.697E-02 -.201E+00
   0.101E+00 0.549E+00 0.246E+04   -.286E+00 -.471E+00 -.246E+04   0.181E+00 -.435E-01 -.331E+00   -.749E-02 -.233E-01 -.202E+00
   0.870E-05 -.235E-04 0.246E+04   0.951E-04 0.174E-05 -.246E+04   0.122E-18 0.280E-17 0.246E+00   0.419E-02 0.258E-02 -.149E+00
   -.101E+00 0.549E+00 0.246E+04   0.286E+00 -.471E+00 -.246E+04   -.181E+00 -.435E-01 -.331E+00   0.604E-02 -.224E-01 -.201E+00
   -.424E+00 -.362E+00 0.246E+04   0.265E+00 0.483E+00 -.246E+04   0.128E+00 -.135E+00 -.331E+00   0.182E-01 0.175E-01 -.201E+00
   0.424E+00 -.362E+00 0.246E+04   -.265E+00 0.483E+00 -.246E+04   -.128E+00 -.135E+00 -.331E+00   -.164E-01 0.164E-01 -.201E+00
   0.195E-04 -.417E-04 0.246E+04   0.166E-03 -.200E-04 -.246E+04   0.204E-17 0.152E-17 -.494E+00   -.454E-02 -.238E-02 -.177E+00
   0.526E+01 0.304E+01 0.822E+03   -.490E+01 -.283E+01 -.821E+03   -.402E+00 -.232E+00 -.607E+00   -.211E-01 -.120E-01 -.903E-01
   0.141E-04 0.118E+01 0.825E+03   0.148E-03 -.114E+01 -.825E+03   -.697E-09 -.105E-01 -.628E-01   0.374E-02 -.676E-01 -.722E-01
   -.526E+01 0.304E+01 0.822E+03   0.490E+01 -.283E+01 -.821E+03   0.402E+00 -.232E+00 -.607E+00   0.200E-01 -.115E-01 -.918E-01
   0.102E+01 -.589E+00 0.825E+03   -.986E+00 0.569E+00 -.825E+03   -.906E-02 0.523E-02 -.628E-01   -.566E-01 0.374E-01 -.720E-01
   -.102E+01 -.589E+00 0.825E+03   0.986E+00 0.569E+00 -.825E+03   0.906E-02 0.523E-02 -.628E-01   0.635E-01 0.366E-01 -.738E-01
   0.317E-04 0.517E+01 0.827E+03   0.235E-03 -.523E+01 -.826E+03   0.324E-10 0.487E-03 -.540E+00   -.166E-02 -.210E-01 -.109E+00
   -.211E-04 -.608E+01 0.822E+03   0.162E-03 0.565E+01 -.821E+03   0.309E-07 0.465E+00 -.607E+00   -.239E-03 0.230E-01 -.914E-01
   0.448E+01 -.259E+01 0.827E+03   -.453E+01 0.262E+01 -.826E+03   0.422E-03 -.243E-03 -.540E+00   -.187E-01 0.912E-02 -.110E+00
   -.448E+01 -.259E+01 0.827E+03   0.453E+01 0.262E+01 -.826E+03   -.422E-03 -.243E-03 -.540E+00   0.191E-01 0.106E-01 -.109E+00
   -.432E-04 -.972E+00 -.841E+03   0.555E-04 0.112E+01 0.841E+03   -.180E-08 -.271E-01 0.605E+00   0.508E-02 -.956E-01 0.140E+00
   -.838E+01 -.484E+01 -.818E+03   0.958E+01 0.553E+01 0.819E+03   -.126E+01 -.726E+00 -.162E+01   -.538E-01 -.304E-01 0.100E+00
   0.838E+01 -.484E+01 -.818E+03   -.958E+01 0.553E+01 0.819E+03   0.126E+01 -.726E+00 -.162E+01   0.463E-01 -.306E-01 0.999E-01
   -.133E+02 0.767E+01 -.822E+03   0.128E+02 -.741E+01 0.821E+03   0.444E+00 -.256E+00 0.597E+00   0.231E-01 -.144E-01 0.613E-01
   -.969E-05 0.968E+01 -.818E+03   0.138E-03 -.111E+02 0.819E+03   0.967E-07 0.145E+01 -.162E+01   -.379E-02 0.560E-01 0.100E+00
   0.133E+02 0.767E+01 -.822E+03   -.128E+02 -.741E+01 0.821E+03   -.444E+00 -.256E+00 0.597E+00   -.217E-01 -.132E-01 0.608E-01
   0.842E+00 0.486E+00 -.841E+03   -.968E+00 -.559E+00 0.841E+03   0.235E-01 0.135E-01 0.605E+00   0.878E-01 0.499E-01 0.140E+00
   -.842E+00 0.486E+00 -.841E+03   0.968E+00 -.559E+00 0.841E+03   -.235E-01 0.135E-01 0.605E+00   -.872E-01 0.519E-01 0.140E+00
   0.107E-04 -.153E+02 -.822E+03   0.197E-03 0.148E+02 0.821E+03   0.341E-07 0.513E+00 0.597E+00   -.278E-03 0.269E-01 0.613E-01
   -.135E-04 -.124E-04 -.237E+04   0.296E-04 0.331E-04 0.237E+04   0.312E-17 0.942E-18 0.649E+00   0.151E-02 0.652E-03 0.804E-01
   0.232E+02 0.302E+02 -.237E+04   -.219E+02 -.283E+02 0.237E+04   -.132E+01 -.207E+01 -.289E+00   -.407E-01 0.700E-02 0.975E-01
   -.232E+02 0.302E+02 -.237E+04   0.219E+02 -.283E+02 0.237E+04   0.132E+01 -.207E+01 -.289E+00   0.343E-01 0.804E-02 0.980E-01
   0.378E+02 0.500E+01 -.237E+04   -.355E+02 -.485E+01 0.237E+04   -.245E+01 -.107E+00 -.289E+00   -.144E-01 -.386E-01 0.970E-01
   -.378E+02 0.500E+01 -.237E+04   0.355E+02 -.485E+01 0.237E+04   0.245E+01 -.107E+00 -.289E+00   0.774E-02 -.376E-01 0.985E-01
   0.145E+02 -.352E+02 -.237E+04   -.135E+02 0.331E+02 0.237E+04   -.113E+01 0.218E+01 -.289E+00   0.242E-01 0.256E-01 0.978E-01
   -.145E+02 -.352E+02 -.237E+04   0.135E+02 0.331E+02 0.237E+04   0.113E+01 0.218E+01 -.289E+00   -.290E-01 0.254E-01 0.985E-01
   0.346E-04 -.297E-04 -.238E+04   0.140E-03 -.490E-04 0.238E+04   -.174E-17 0.113E-17 0.640E+00   -.302E-02 -.173E-02 0.141E+00
   -.113E-04 0.387E-05 -.942E+03   0.528E-04 0.493E-05 0.944E+03   0.402E-18 -.261E-19 -.107E+01   0.563E-03 0.405E-03 0.496E-01
   -.455E-05 -.839E-04 -.762E+03   0.122E-04 0.847E-06 0.744E+03   -.657E-18 -.208E-18 0.182E+02   0.118E-02 0.732E-03 0.930E-03
   0.242E-03 -.922E-04 -.144E+04   0.415E-05 0.481E-06 0.150E+04   -.822E-19 -.178E-18 -.600E+02   0.371E-02 0.228E-02 0.165E-01
   -.579E-03 -.950E-03 0.522E+02   -.399E-13 0.221E-12 -.159E-11   -.208E-17 0.445E-15 -.512E+02   -.101E-01 -.234E-02 -.772E+00

 POSITION                                       TOTAL-FORCE (eV/Angst)
      0.00000      0.00000      5.28038        -0.000000      0.000000     -0.163757
      2.93784      0.00000      5.28038         0.004078     -0.014444     -0.053197
      5.87568      0.00000      5.28038        -0.004078     -0.014444     -0.053197
      1.46892      2.54424      5.28038        -0.010470      0.010753     -0.053197
      4.40676      2.54424      5.28038        -0.000000      0.000000     -0.087225
      7.34459      2.54424      5.28038         0.010470      0.010753     -0.053197
      2.93784      5.08848      5.28038        -0.014548      0.003690     -0.053197
      5.87568      5.08848      5.28038         0.014548      0.003690     -0.053197
      8.81351      5.08848      5.28038        -0.000000      0.000000     -0.066067
      1.46892      0.84808      7.67911        -0.056259     -0.032481      0.109226
      4.40676      0.84808      7.67911        -0.000000     -0.040800     -0.008258
      7.34459      0.84808      7.67911         0.056259     -0.032481      0.109226
      2.93784      3.39232      7.67911        -0.035334      0.020400     -0.008258
      5.87568      3.39232      7.67911         0.035334      0.020400     -0.008258
      8.81351      3.39232      7.67911        -0.000000     -0.082072      0.109256
      4.40676      5.93656      7.67911         0.000000      0.064962      0.109226
      7.34459      5.93656      7.67911        -0.071076      0.041036      0.109256
     10.28243      5.93656      7.67911         0.071076      0.041036      0.109256
      8.81351      1.70341     10.09804         0.000000      0.019582      0.037990
      2.93277      1.69323     10.04724        -0.107978     -0.062341     -0.200212
      5.88075      1.69323     10.04724         0.107978     -0.062341     -0.200212
     10.26617      4.24979     10.06844         0.022574     -0.013033      0.039809
      4.40676      4.24626     10.04724         0.000000      0.124682     -0.200212
      7.36086      4.24979     10.06844        -0.022574     -0.013033      0.039809
     11.74508      6.78102     10.09804        -0.016959     -0.009791      0.037990
      5.88195      6.78102     10.09804         0.016959     -0.009791      0.037990
      8.81351      6.76586     10.06844         0.000000      0.026066      0.039809
      0.00000      0.00000     12.50054        -0.000000      0.000000     -0.026358
      2.99863      0.09131     12.57640        -0.071226     -0.139765     -0.076852
      5.81488      0.09131     12.57640         0.071226     -0.139765     -0.076852
      1.57839      2.55123     12.57640        -0.156653      0.008199     -0.076852
      7.23512      2.55123     12.57640         0.156653      0.008199     -0.076852
      2.98652      4.99018     12.57640        -0.085427      0.131566     -0.076852
      5.82700      4.99018     12.57640         0.085427      0.131566     -0.076852
      8.81351      5.08848     12.50707        -0.000000      0.000000     -0.006161
      4.40676      2.54424     12.20058        -0.000000      0.000000      0.886545
      4.40676      2.54424     14.31178        -0.000000      0.000000     -0.017181
      4.40676      2.54424     15.47413        -0.000000      0.000000     -0.002934
    total drift:                               -0.010717     -0.003293      0.194272

  FREE ENERGIE OF THE ION-ELECTRON SYSTEM (eV)
  free  energy   TOTEN  =      -134.17455074 eV

  energy  without entropy=     -134.17455074  energy(sigma->0) =     -134.17455074

 stress matrix after NEB project (eV)
    -21.58432     -0.00000     -0.00000
     -0.00000    -21.58432      0.00000
      0.00000      0.00000      3.27438
  FORCES: max atom, RMS     0.017181    0.002828
  FORCE total and by dimension    0.017430    0.017181
  Stress total and by dimension   30.699961   21.584324
|           W    W    AA    RRRRR   N    N  II  N    N   GGGG   !!!           |
|           W    W   A  A   R    R  NN   N  II  NN   N  G    G  !!!           |
|           W    W  A    A  R    R  N N  N  II  N N  N  G       !!!           |
|           W WW W  AAAAAA  RRRRR   N  N N  II  N  N N  G  GGG   !            |
|           WW  WW  A    A  R   R   N   NN  II  N   NN  G    G                |
|           W    W  A    A  R    R  N    N  II  N    N   GGGG   !!!           |
|     Tetrahedron method does not include variations of the Fermi             |
|     occupations, so forces and stress will be inaccurate. We suggest        |
|     using a different smearing scheme ISMEAR = 1 or 2 for metals in         |
|     relaxations.                                                            |

 total charge

# of ion       s       p       d       tot
    1        0.548   0.236   8.769   9.552
    2        0.541   0.241   8.766   9.547
    3        0.541   0.241   8.766   9.547
    4        0.541   0.241   8.766   9.547
    5        0.550   0.240   8.759   9.549
    6        0.541   0.241   8.766   9.547
    7        0.541   0.241   8.766   9.547
    8        0.541   0.241   8.766   9.547
    9        0.542   0.239   8.769   9.550
   10        0.527   0.306   8.767   9.600
   11        0.523   0.306   8.779   9.608
   12        0.527   0.306   8.767   9.600
   13        0.523   0.306   8.779   9.608
   14        0.523   0.306   8.779   9.608
   15        0.515   0.307   8.774   9.597
   16        0.527   0.306   8.767   9.600
   17        0.515   0.307   8.774   9.597
   18        0.515   0.307   8.774   9.597
   19        0.518   0.294   8.768   9.580
   20        0.581   0.342   8.726   9.650
   21        0.581   0.342   8.726   9.650
   22        0.507   0.304   8.779   9.590
   23        0.581   0.342   8.726   9.650
   24        0.507   0.304   8.779   9.590
   25        0.518   0.294   8.768   9.580
   26        0.518   0.294   8.768   9.580
   27        0.507   0.304   8.779   9.590
   28        0.537   0.224   8.758   9.519
   29        0.588   0.250   8.732   9.571
   30        0.588   0.250   8.732   9.571
   31        0.588   0.250   8.732   9.571
   32        0.588   0.250   8.732   9.571
   33        0.588   0.250   8.732   9.571
   34        0.588   0.250   8.732   9.571
   35        0.539   0.224   8.759   9.523
   36        0.622   0.724   3.112   4.459
   37        0.973   1.538   0.000   2.511
   38        1.616   3.525   0.000   5.142
tot         22.215  15.476 309.699 347.389

 BZINTS: Fermi energy:    0.764244;  400.000000 electrons
         Band energy:-0.125796E+04;  BLOECHL correction:   -0.034325