 vasp.6.2.0 18Jan21 (build Jun 12 2021 23:27:24) complex

 executed on             LinuxIFC date 2022.05.30  17:11:06

 INCAR:
   ISMEAR = -5
   SIGMA = 0.1
   ISPIN = 1
   EDIFF = 1.d-5
   EDIFFG = -0.01
   NSW = 0
   NELM = 150
   ENCUT = 500
   ISIF = 2
   IBRION = 2
   LREAL = Auto
   ALGO = Fast
   ICHARG = 11
   LORBIT = 10
   LCHARG = .F.
   LWAVE = .F.

 POTCAR:    PAW_PBE Ag 02Apr2005
 POTCAR:    PAW_PBE Mo 08Apr2002
 POTCAR:    PAW_PBE O 08Apr2002
|           W    W    AA    RRRRR   N    N  II  N    N   GGGG   !!!           |
|           W    W   A  A   R    R  NN   N  II  NN   N  G    G  !!!           |
|           W    W  A    A  R    R  N N  N  II  N N  N  G       !!!           |
|           W WW W  AAAAAA  RRRRR   N  N N  II  N  N N  G  GGG   !            |
|           WW  WW  A    A  R   R   N   NN  II  N   NN  G    G                |
|           W    W  A    A  R    R  N    N  II  N    N   GGGG   !!!           |
|     For optimal performance we recommend to set                             |
|       NCORE = 2 up to number-of-cores-per-socket                            |
|     This setting can greatly improve the performance of VASP for DFT.       |
|     The default, NCORE=1 might be grossly inefficient on modern             |
|     multi-core architectures or massively parallel machines. Do your        |
|     Unfortunately you need to use the default for GW and RPA                |
|     calculations (for HF NCORE is supported but not extensively tested      |
|     yet).                                                                   |

 POTCAR:    PAW_PBE Ag 02Apr2005
   VRHFIN =Ag : s1 d10

   TITEL  = PAW_PBE Ag 02Apr2005
   POMASS =  107.868; ZVAL   =   11.000    mass and valenz
   ENMAX  =  249.844; ENMIN  =  187.383 eV

 POTCAR:    PAW_PBE Mo 08Apr2002
   VRHFIN =Mo: 4p5s4d

[...]

 POTCAR:    PAW_PBE O 08Apr2002
   VRHFIN =O: s2p4

   TITEL  = PAW_PBE O 08Apr2002
   POMASS =   16.000; ZVAL   =    6.000    mass and valenz
   ENMAX  =  400.000; ENMIN  =  300.000 eV

 Optimization of the real space projectors (new method)

 maximal supplied QI-value         = 15.12
 optimisation between [QCUT,QGAM] = [ 11.34, 22.83] = [ 36.00,145.93] Ry
 Optimized for a Real-space Cutoff    1.43 Angstroem

   l    n(q)    QCUT    max X(q) W(low)/X(q) W(high)/X(q)  e(spline)
   2      9    11.338    53.897    0.16E-03    0.20E-03    0.28E-06
   2      9    11.338    52.416    0.16E-03    0.20E-03    0.29E-06
   0     10    11.338   122.045    0.31E-04    0.76E-04    0.15E-06
   0     10    11.338    73.629    0.30E-04    0.72E-04    0.15E-06
   1      9    11.338    15.255    0.20E-03    0.19E-04    0.17E-06
   1      9    11.338     9.562    0.16E-03    0.15E-04    0.14E-06
 Optimization of the real space projectors (new method)

[...]

   l    n(q)    QCUT    max X(q) W(low)/X(q) W(high)/X(q)  e(spline)
   2     10    11.429    80.908    0.27E-03    0.78E-03    0.13E-05
   2     10    11.429    79.000    0.27E-03    0.78E-03    0.13E-05
   0     11    11.429    52.066    0.33E-04    0.97E-04    0.72E-06
   0     11    11.429    24.514    0.27E-04    0.80E-04    0.60E-06
   1     10    11.429    16.033    0.31E-04    0.17E-03    0.36E-06
   1     10    11.429    11.179    0.22E-04    0.13E-03    0.29E-06
 Optimization of the real space projectors (new method)

 maximal supplied QI-value         = 24.76
 optimisation between [QCUT,QGAM] = [ 11.39, 22.77] = [ 36.31,145.25] Ry
 Optimized for a Real-space Cutoff    1.00 Angstroem

   l    n(q)    QCUT    max X(q) W(low)/X(q) W(high)/X(q)  e(spline)
   0      7    11.387    20.381    0.39E-03    0.13E-02    0.15E-06
   0      7    11.387    15.268    0.42E-03    0.14E-02    0.17E-06
   1      6    11.387     5.964    0.41E-03    0.11E-02    0.17E-06
   1      6    11.387     5.382    0.39E-03    0.87E-03    0.15E-06
  PAW_PBE Ag 02Apr2005                  :
  PAW_PBE Mo 08Apr2002                  :
  PAW_PBE O 08Apr2002                   :

 POSCAR: Ag-Mo-O2
  positions in direct lattice
  velocities in cartesian coordinates
 exchange correlation table for  LEXCH =        8
   RHO(1)=    0.500       N(1)  =     2000
   RHO(2)=  100.500       N(2)  =     4000

 VTST: version 3.2, (02/03/18)

 CHAIN: initializing optimizer

 OPT: Using VASP Conjugate-Gradient optimizer
 CHAIN: Read ICHAIN            0

 POSCAR: Ag-Mo-O2
  positions in direct lattice
  velocities in cartesian coordinates

 ion  position               nearest neighbor table
   1  0.000  0.000  0.217-   2 2.93   8 2.93   7 2.93   6 2.93   4 2.93  12 2.93  16 2.93  10 2.93
                             3 2.93
   2  0.333  0.000  0.217-   1 2.93   8 2.93   9 2.93   3 2.93   4 2.93   5 2.93  10 2.93  17 2.93
                            11 2.93
   3  0.667  0.000  0.217-   9 2.93   2 2.93   5 2.93  11 2.93   7 2.93  18 2.93   1 2.93   6 2.93
                            12 2.93
   4  0.000  0.333  0.217-   5 2.93   6 2.93   2 2.93   1 2.93   7 2.93  13 2.93  15 2.93   9 2.93
                            10 2.93
   5  0.333  0.333  0.217-   4 2.93   3 2.93   7 2.93   2 2.93   8 2.93  14 2.93  13 2.93  11 2.93
                             6 2.93
   6  0.667  0.333  0.217-   4 2.93   9 2.93   1 2.93  15 2.93   8 2.93  12 2.93   3 2.93   5 2.93
                            14 2.93
   7  0.000  0.667  0.217-   8 2.93   1 2.93   5 2.93   3 2.93   4 2.93  16 2.93  18 2.93  13 2.93
                             9 2.93
   8  0.333  0.667  0.217-   7 2.93   1 2.93   2 2.93   9 2.93   5 2.93  16 2.93   6 2.93  17 2.93
                            14 2.93
   9  0.667  0.667  0.217-   3 2.93   2 2.93   8 2.93   6 2.93  17 2.93   4 2.93  15 2.93   7 2.93
                            18 2.93
  10  0.111  0.111  0.315-  20 2.90  19 2.93  26 2.93  12 2.93  16 2.93  15 2.93  17 2.93  13 2.93
                            11 2.93   2 2.93   1 2.93   4 2.93
  11  0.444  0.111  0.315-  21 2.90  20 2.90  27 2.93  14 2.93  17 2.93  18 2.93   3 2.93  12 2.93
                            13 2.93  10 2.93   5 2.93   2 2.93
  12  0.778  0.111  0.315-  21 2.90  25 2.93  19 2.93  10 2.93  16 2.93  18 2.93  15 2.93  11 2.93
                             1 2.93  14 2.93   6 2.93   3 2.93
  13  0.111  0.444  0.315-  20 2.90  23 2.90  22 2.93  15 2.93  14 2.93  18 2.93  10 2.93  11 2.93
                            16 2.93   4 2.93   5 2.93   7 2.93
  14  0.444  0.444  0.315-  23 2.90  21 2.90  24 2.93  13 2.93  11 2.93  16 2.93   5 2.93  12 2.93
                            17 2.93   8 2.93  15 2.93   6 2.93
  15  0.778  0.444  0.315-  24 2.92  22 2.92  19 2.92  13 2.93  10 2.93  12 2.93  17 2.93  18 2.93
                             4 2.93   6 2.93   9 2.93  14 2.93
  16  0.111  0.778  0.315-  23 2.90  26 2.93  25 2.93  18 2.93  12 2.93  10 2.93  14 2.93  17 2.93
                            13 2.93   7 2.93   8 2.93   1 2.93
  17  0.444  0.778  0.315-  27 2.92  24 2.92  26 2.92  11 2.93  10 2.93   9 2.93  18 2.93  15 2.93
                            16 2.93   2 2.93  14 2.93   8 2.93
  18  0.778  0.778  0.315-  22 2.92  27 2.92  25 2.92  16 2.93  12 2.93  13 2.93  11 2.93  17 2.93
                            15 2.93   7 2.93   3 2.93   9 2.93
  19  0.889  0.222  0.413-  28 2.92  15 2.92  10 2.93  12 2.93  24 2.93  22 2.93  26 2.93  25 2.93
                            20 2.93  21 2.93  32 2.96  31 2.96
  20  0.222  0.222  0.412-  36 2.79  13 2.90  11 2.90  10 2.90  21 2.93  23 2.93  19 2.93  26 2.93
                            27 2.93  22 2.93  31 2.94  29 2.94
  21  0.555  0.222  0.412-  36 2.79  11 2.90  14 2.90  12 2.90  20 2.93  23 2.93  25 2.93  19 2.93
                            27 2.93  24 2.93  30 2.94  32 2.94
  22  0.888  0.556  0.413-  35 2.91  24 2.92  27 2.92  18 2.92  15 2.92  13 2.93  25 2.93  19 2.93
                            23 2.93  20 2.93  33 2.94  31 2.94
  23  0.222  0.555  0.412-  36 2.79  14 2.90  13 2.90  16 2.90  21 2.93  20 2.93  26 2.93  25 2.93
                            22 2.93  24 2.93  34 2.94  33 2.94
  24  0.556  0.556  0.413-  35 2.91  27 2.92  22 2.92  15 2.92  17 2.92  14 2.93  19 2.93  26 2.93
                            23 2.93  21 2.93  32 2.94  34 2.94
  25  0.889  0.889  0.413-  28 2.92  18 2.92  16 2.93  12 2.93  22 2.93  27 2.93  26 2.93  19 2.93
                            23 2.93  21 2.93  33 2.96  30 2.96
  26  0.222  0.889  0.413-  28 2.92  17 2.92  16 2.93  10 2.93  27 2.93  24 2.93  25 2.93  19 2.93
                            23 2.93  20 2.93  34 2.96  29 2.96
  27  0.556  0.888  0.413-  35 2.91  24 2.92  22 2.92  17 2.92  18 2.92  11 2.93  26 2.93  25 2.93
                            20 2.93  21 2.93  29 2.94  30 2.94
  28  0.000  0.000  0.510-  26 2.92  25 2.92  19 2.92  29 2.95  34 2.95  33 2.95  32 2.95  31 2.95
                            30 2.95
  29  0.333  0.005  0.512-  31 2.88  30 2.89  36 2.89  27 2.94  20 2.94  28 2.95  35 2.96  26 2.96
                            34 3.02
  30  0.662  0.005  0.512-  32 2.88  29 2.89  36 2.89  27 2.94  21 2.94  28 2.95  35 2.96  25 2.96
                            33 3.02
  31  0.005  0.333  0.512-  37 2.71  29 2.88  33 2.89  36 2.89  22 2.94  20 2.94  28 2.95  35 2.96
                            19 2.96  32 3.02
  32  0.662  0.333  0.512-  38 2.71  30 2.88  34 2.89  36 2.89  24 2.94  21 2.94  28 2.95  35 2.96
                            19 2.96  31 3.02
  33  0.005  0.662  0.512-  34 2.88  31 2.89  36 2.89  22 2.94  23 2.94  28 2.95  35 2.96  25 2.96
                            30 3.02
  34  0.333  0.662  0.512-  33 2.88  32 2.89  36 2.89  24 2.94  23 2.94  28 2.95  35 2.96  26 2.96
                            29 3.02
  35  0.667  0.667  0.510-  24 2.91  27 2.91  22 2.91  30 2.96  32 2.96  29 2.96  34 2.96  31 2.96
                            33 2.96
  36  0.333  0.333  0.503-  38 1.99  37 1.99  21 2.79  20 2.79  23 2.79  31 2.89  30 2.89  33 2.89
                            29 2.89  34 2.89  32 2.89
  37  0.251  0.333  0.579-  38 1.45  36 1.99  31 2.71
  38  0.416  0.333  0.579-  37 1.45  36 1.99  32 2.71

  LATTYP: Found a hexagonal cell.
 ALAT       =     8.7913665772
 C/A-ratio  =     2.7711238095

  Lattice vectors:

 A1 = (  -4.3956832886,  -7.6135467898,   0.0000000000)
 A2 = (   8.7913665771,   0.0000000000,   0.0000000000)
 A3 = (   0.0000000000,   0.0000000000,  24.3619652401)

Analysis of symmetry for initial positions (statically):
 Subroutine PRICEL returns:
 Original cell was already a primitive cell.

 Routine SETGRP: Setting up the symmetry group for a
 hexagonal supercell.

 Subroutine GETGRP returns: Found  2 space group operations
 (whereof  2 operations were pure point group operations)
 out of a pool of 24 trial point group operations.

The static configuration has the point symmetry C_1h.

Analysis of symmetry for dynamics (positions and initial velocities):
 Subroutine PRICEL returns:
 Original cell was already a primitive cell.

[...]

The dynamic configuration has the point symmetry C_1h.

Analysis of constrained symmetry for selective dynamics:
 Subroutine PRICEL returns:
 Original cell was already a primitive cell.

 Routine SETGRP: Setting up the symmetry group for a
 hexagonal supercell.

 Subroutine GETGRP returns: Found  2 space group operations
[...]
     33      -5.0725      2.00000
     34      -5.0509      2.00000
     35      -5.0370      2.00000
     36      -5.0239      2.00000
     37      -4.9911      2.00000
     38      -4.9486      2.00000
     39      -4.9278      2.00000
     40      -4.9252      2.00000
     41      -4.9206      2.00000
     42      -4.8668      2.00000
     43      -4.8512      2.00000
     44      -4.8382      2.00000
     45      -4.8317      2.00000
     46      -4.8162      2.00000
     47      -4.8103      2.00000
     48      -4.7180      2.00000
     49      -4.6922      2.00000
     50      -4.6827      2.00000
     51      -4.6755      2.00000
     52      -4.6736      2.00000
     53      -4.6711      2.00000
     54      -4.6617      2.00000
     55      -4.6571      2.00000
     56      -4.6481      2.00000
     57      -4.6367      2.00000
     58      -4.5685      2.00000
     59      -4.5614      2.00000
     60      -4.5533      2.00000
[...]
    238       5.5540      0.00000
    239       5.6708      0.00000
    240       5.7290      0.00000
    241       5.8200      0.00000
    242       5.9089      0.00000
    243       5.9185      0.00000
    244       6.0859      0.00000
    245       6.4860      0.00000
    246       6.4878      0.00000
    247       6.6527      0.00000
    248       6.6981      0.00000
    249       6.7275      0.00000
    250       6.7552      0.00000
    251       6.8347      0.00000
    252       6.8747      0.00000

 soft charge-density along one line, spin component           1
         0         1         2         3         4         5         6         7         8         9
 total charge-density along one line

------------------------ aborting loop because EDIFF is reached ----------------------------------------

 total charge

# of ion       s       p       d       tot
    1        0.421   0.200   9.177   9.798
    2        0.415   0.204   9.177   9.796
    3        0.415   0.204   9.177   9.796
    4        0.416   0.203   9.177   9.796
    5        0.419   0.202   9.175   9.796
    6        0.416   0.203   9.177   9.796
    7        0.415   0.204   9.177   9.796
    8        0.415   0.204   9.177   9.796
    9        0.414   0.203   9.178   9.795
   10        0.409   0.268   9.164   9.840
   11        0.406   0.269   9.168   9.843
   12        0.409   0.268   9.164   9.840
   13        0.405   0.270   9.167   9.842
   14        0.405   0.270   9.167   9.842
   15        0.401   0.269   9.165   9.835
   16        0.409   0.270   9.162   9.840
   17        0.401   0.269   9.165   9.836
   18        0.401   0.269   9.165   9.836
   19        0.403   0.263   9.169   9.836
   20        0.438   0.301   9.138   9.878
   21        0.438   0.301   9.138   9.878
   22        0.392   0.276   9.164   9.832
   23        0.442   0.308   9.129   9.879
   24        0.392   0.276   9.164   9.832
   25        0.402   0.265   9.168   9.835
   26        0.402   0.265   9.168   9.835
   27        0.393   0.273   9.168   9.833
   28        0.421   0.197   9.177   9.795
   29        0.420   0.214   9.172   9.806
   30        0.420   0.214   9.172   9.806
   31        0.419   0.217   9.174   9.810
   32        0.419   0.217   9.174   9.810
   33        0.418   0.214   9.173   9.806
   34        0.418   0.214   9.173   9.806
   35        0.413   0.200   9.178   9.791
   36        0.435   0.461   4.215   5.111
   37        1.611   3.244   0.000   4.856
   38        1.611   3.244   0.000   4.856
tot         18.099  15.416 325.094 358.609

  FORCE on cell =-STRESS in cart. coord.  units (eV):
  Direction    XX          YY          ZZ          XY          YZ          ZX
  Alpha Z   708.58681   708.58681   708.58681
  Ewald  152888.45817152517.07902************     0.00004     0.61876     0.00008
  Hartree162855.82271162671.29313************     0.00002     0.83735     0.00002
  E(xc)   -2115.77600 -2115.98205 -2121.47380    -0.00002     0.09271     0.00000
  Local  ************************326578.49538     0.00105    -1.15050    -0.00020
  n-local  -376.80254  -382.92644  -380.75521     2.52802     0.48059     0.11456
  augment  3238.55786  3242.06379  3251.29343    -0.00016    -0.08457     0.00000
  Kinetic  5082.04458  5123.43599  5124.36025     1.05885    -0.74684    -0.14594
  Fock        0.00000     0.00000     0.00000     0.00000     0.00000     0.00000
  Total      -4.94522    -6.43539    -0.24358    -0.00000     0.04750     0.00000
  in kB      -4.85893    -6.32310    -0.23933    -0.00000     0.04667     0.00000

 VOLUME and BASIS-vectors are now :
  energy-cutoff  :      500.00
  volume of cell :     1630.63
      direct lattice vectors                 reciprocal lattice vectors
     8.791366577  0.000000000  0.000000000     0.113747958 -0.065672414  0.000000000
     4.395683289  7.613546790  0.000000000     0.000000000  0.131344829  0.000000000
     0.000000000  0.000000000 24.361965240     0.000000000  0.000000000  0.041047592

  length of vectors
     8.791366577  8.791366577 24.361965240     0.131344829  0.131344829  0.041047592

 FORCES acting on ions
    electron-ion (+dipol)            ewald-force                    non-local-force                 convergence-correction
   0.461E-04 -.527E-01 0.269E+04   -.953E-04 -.284E-01 -.269E+04   0.273E-12 0.416E-01 -.201E+01   -.832E-04 0.249E-01 -.689E-03
   0.132E+00 0.265E+00 0.269E+04   -.162E+00 -.410E+00 -.269E+04   0.503E-01 0.155E+00 -.161E+01   -.225E-01 -.104E-02 -.283E-01
   -.132E+00 0.265E+00 0.269E+04   0.162E+00 -.410E+00 -.269E+04   -.503E-01 0.155E+00 -.161E+01   0.220E-01 0.831E-03 -.277E-01
   0.313E+00 -.384E-01 0.269E+04   -.412E+00 0.508E-01 -.269E+04   0.871E-01 -.478E-01 -.162E+01   0.190E-01 0.327E-01 -.786E-02
   -.798E-05 -.143E+00 0.269E+04   0.980E-04 0.523E-03 -.269E+04   0.352E-12 0.536E-01 -.145E+01   0.618E-02 0.855E-01 0.191E-01
   -.313E+00 -.383E-01 0.269E+04   0.412E+00 0.507E-01 -.269E+04   -.871E-01 -.478E-01 -.162E+01   -.203E-01 0.336E-01 -.715E-02
   0.221E+00 -.134E+00 0.269E+04   -.249E+00 0.360E+00 -.269E+04   0.656E-01 -.148E+00 -.158E+01   -.296E-01 -.744E-01 -.155E-01
   -.221E+00 -.134E+00 0.269E+04   0.249E+00 0.359E+00 -.269E+04   -.656E-01 -.148E+00 -.158E+01   0.312E-01 -.754E-01 -.154E-01
   0.363E-04 -.679E-02 0.269E+04   0.792E-04 0.279E-01 -.269E+04   0.330E-13 0.502E-02 -.184E+01   -.663E-02 -.258E-01 -.525E-02
   0.319E+01 0.197E+01 0.937E+03   -.278E+01 -.183E+01 -.936E+03   -.415E+00 -.200E+00 -.693E+00   0.517E-02 0.633E-01 -.560E-02
   -.257E-04 0.377E+01 0.939E+03   0.408E-04 -.404E+01 -.938E+03   0.121E-11 0.184E+00 -.233E+00   0.617E-02 0.270E-01 0.460E-01
   -.319E+01 0.197E+01 0.937E+03   0.278E+01 -.183E+01 -.936E+03   0.415E+00 -.200E+00 -.693E+00   -.643E-02 0.640E-01 -.648E-02
   0.305E+01 -.195E+01 0.939E+03   -.329E+01 0.206E+01 -.939E+03   0.206E+00 -.105E+00 -.335E+00   -.833E-02 0.265E-01 0.118E-01
   -.305E+01 -.195E+01 0.939E+03   0.329E+01 0.206E+01 -.939E+03   -.206E+00 -.105E+00 -.335E+00   0.186E-01 0.256E-01 0.101E-01
   0.156E-04 -.365E+00 0.935E+03   -.108E-03 0.381E+00 -.935E+03   -.201E-12 -.306E-01 -.722E+00   -.126E-02 -.103E-01 -.454E-01
   -.826E-05 -.384E+01 0.936E+03   0.206E-04 0.327E+01 -.936E+03   0.418E-11 0.637E+00 -.807E+00   -.940E-04 -.555E-01 -.999E-02
   -.253E+00 0.210E+00 0.935E+03   0.205E+00 -.376E-01 -.934E+03   0.478E-01 -.104E+00 -.645E+00   -.587E-02 -.645E-01 -.650E-02
   0.253E+00 0.210E+00 0.935E+03   -.205E+00 -.375E-01 -.934E+03   -.478E-01 -.104E+00 -.645E+00   0.603E-02 -.629E-01 -.568E-02
   0.395E-04 -.119E+01 -.844E+03   -.128E-03 0.111E+01 0.843E+03   0.314E-12 0.478E-01 0.901E+00   0.108E-02 0.154E-01 0.947E-02
   -.316E+01 -.668E+00 -.826E+03   0.431E+01 0.102E+01 0.827E+03   -.136E+01 -.499E+00 -.960E+00   0.122E+00 0.740E-01 0.189E+00
   0.316E+01 -.668E+00 -.826E+03   -.431E+01 0.102E+01 0.827E+03   0.136E+01 -.499E+00 -.960E+00   -.133E+00 0.735E-01 0.188E+00
   -.779E+00 -.998E+00 -.840E+03   0.611E+00 0.118E+01 0.839E+03   0.166E+00 -.196E+00 0.591E+00   0.497E-01 -.412E-02 0.307E-01
   -.479E-04 0.133E+01 -.828E+03   0.406E-04 -.294E+01 0.829E+03   0.120E-10 0.183E+01 -.130E+01   -.551E-02 -.134E+00 0.184E+00
   0.779E+00 -.998E+00 -.840E+03   -.611E+00 0.118E+01 0.839E+03   -.166E+00 -.196E+00 0.591E+00   -.481E-01 -.349E-02 0.308E-01
   0.192E+01 0.172E+01 -.847E+03   -.170E+01 -.163E+01 0.846E+03   -.159E+00 -.356E-01 0.827E+00   -.713E-01 -.425E-01 0.902E-01
   -.192E+01 0.172E+01 -.847E+03   0.170E+01 -.163E+01 0.846E+03   0.159E+00 -.356E-01 0.827E+00   0.715E-01 -.415E-01 0.906E-01
   0.197E-04 -.115E+01 -.842E+03   0.110E-03 0.614E+00 0.841E+03   0.376E-11 0.572E+00 0.709E+00   -.319E-03 0.447E-01 0.887E-01
   0.539E-04 0.567E+01 -.259E+04   -.117E-03 -.566E+01 0.259E+04   0.496E-12 0.755E-01 0.168E+01   0.295E-03 -.845E-01 0.172E+00
   0.213E+02 0.521E+02 -.257E+04   -.209E+02 -.521E+02 0.256E+04   -.630E+00 -.504E+00 0.221E+01   0.124E+00 0.166E+00 0.134E+00
   -.213E+02 0.521E+02 -.257E+04   0.209E+02 -.521E+02 0.256E+04   0.630E+00 -.504E+00 0.221E+01   -.125E+00 0.167E+00 0.135E+00
   0.681E+02 0.402E+00 -.255E+04   -.682E+02 -.245E+00 0.255E+04   -.734E+00 -.177E+00 0.263E+01   0.302E+00 0.190E-01 0.156E+00
   -.681E+02 0.402E+00 -.255E+04   0.682E+02 -.245E+00 0.255E+04   0.734E+00 -.177E+00 0.263E+01   -.302E+00 0.200E-01 0.156E+00
   0.203E+02 -.523E+02 -.257E+04   -.202E+02 0.522E+02 0.256E+04   -.323E+00 0.608E+00 0.228E+01   0.120E+00 -.186E+00 0.200E+00
   -.203E+02 -.523E+02 -.257E+04   0.202E+02 0.522E+02 0.256E+04   0.323E+00 0.608E+00 0.228E+01   -.119E+00 -.186E+00 0.200E+00
   0.211E-04 -.566E+01 -.260E+04   0.106E-03 0.557E+01 0.259E+04   0.649E-13 0.989E-02 0.192E+01   -.629E-02 0.699E-01 0.165E+00
   -.149E-04 -.305E+00 -.115E+04   0.573E-04 0.220E+00 0.116E+04   0.373E-12 0.568E-01 0.317E+00   0.430E-03 0.304E-02 0.179E+00
   0.187E+03 -.981E-01 -.170E+04   -.220E+03 0.138E+00 0.171E+04   0.324E+02 -.612E-01 -.185E+02   0.237E+00 0.323E-01 -.765E-01
   -.187E+03 -.981E-01 -.170E+04   0.220E+03 0.138E+00 0.171E+04   -.324E+02 -.612E-01 -.185E+02   -.237E+00 0.323E-01 -.768E-01
   0.640E-03 -.915E+00 0.353E+02   0.568E-13 -.327E-12 -.455E-12   0.559E-11 0.853E+00 -.376E+02   -.565E-02 0.502E-01 0.214E+01

 POSITION                                       TOTAL-FORCE (eV/Angst)
      0.00000      0.00000      5.28219        -0.000000     -0.014322     -0.046904
      2.93046      0.00000      5.28219        -0.001838      0.009382      0.036834
      5.86091      0.00000      5.28219         0.001838      0.009382      0.036834
      1.46523      2.53785      5.28219         0.007554     -0.001956      0.025796
      4.39568      2.53785      5.28219        -0.000000     -0.002659      0.002110
      7.32614      2.53785      5.28219        -0.007554     -0.001956      0.025796
      2.93046      5.07570      5.28219         0.006717      0.003112      0.024995
      5.86091      5.07570      5.28219        -0.006717      0.003112      0.024995
      8.79137      5.07570      5.28219         0.000000      0.000659     -0.000812
      1.46523      0.84595      7.67490        -0.006976     -0.002031     -0.034254
      4.39568      0.84595      7.67490        -0.000000     -0.065193     -0.081713
      7.32614      0.84595      7.67490         0.006976     -0.002031     -0.034254
      2.93046      3.38380      7.67490        -0.046396      0.032833     -0.060683
      5.86091      3.38380      7.67490         0.046396      0.032833     -0.060683
      8.79137      3.38380      7.67490        -0.000000     -0.024295      0.034370
      4.39568      5.92165      7.67490         0.000000      0.016325     -0.012914
      7.32614      5.92165      7.67490        -0.006520      0.004939      0.029213
     10.25659      5.92165      7.67490         0.006520      0.004939      0.029213
      8.79137      1.69286     10.06155        -0.000000     -0.022189      0.032123
      2.93202      1.69280     10.03008        -0.078003     -0.072173     -0.167229
      5.85935      1.69280     10.03008         0.078003     -0.072173     -0.167229
     10.25345      4.23157     10.06207         0.047365     -0.017720      0.042096
      4.39568      4.22795     10.03008         0.000000      0.092622     -0.075197
      7.32929      4.23157     10.06207        -0.047365     -0.017720      0.042096
     11.72099      6.76712     10.06155        -0.015035      0.014598      0.036085
      5.86174      6.76712     10.06155         0.015035      0.014598      0.036085
      8.79137      6.76396     10.06207         0.000000      0.081698      0.028880
      0.00000      0.00000     12.43674         0.000000      0.004349      0.026659
      2.95191      0.04038     12.46589        -0.125862     -0.305762     -0.210825
      5.83946      0.04038     12.46589         0.125862     -0.305762     -0.210825
      1.51092      2.53624     12.46589        -0.533281     -0.000931     -0.379719
      7.28044      2.53624     12.46589         0.533281     -0.000931     -0.379719
      2.95470      5.03693     12.46589        -0.134572      0.306496     -0.218718
      5.83667      5.03693     12.46589         0.134572      0.306496     -0.218718
      8.79137      5.07570     12.43630        -0.000000     -0.006700      0.051471
      4.39568      2.53785     12.24527        -0.000000     -0.024289      1.855356
      3.66951      2.53608     14.09642         0.019657      0.011211     -0.030306
      5.12185      2.53608     14.09642        -0.019657      0.011211     -0.030306
    total drift:                               -0.005008     -0.011463     -0.106927

  FREE ENERGIE OF THE ION-ELECTRON SYSTEM (eV)
  free  energy   TOTEN  =      -108.81738190 eV

  energy  without entropy=     -108.81738190  energy(sigma->0) =     -108.81738190

 stress matrix after NEB project (eV)
     -4.94522     -0.00000      0.00000
     -0.00000     -6.43539      0.04750
      0.00000      0.04750     -0.24358
  FORCES: max atom, RMS     0.037822    0.008677
  FORCE total and by dimension    0.053488    0.030306
  Stress total and by dimension    8.119934    6.435393
|           W    W    AA    RRRRR   N    N  II  N    N   GGGG   !!!           |
|           W    W   A  A   R    R  NN   N  II  NN   N  G    G  !!!           |
|           W    W  A    A  R    R  N N  N  II  N N  N  G       !!!           |
|           W WW W  AAAAAA  RRRRR   N  N N  II  N  N N  G  GGG   !            |
|           WW  WW  A    A  R   R   N   NN  II  N   NN  G    G                |
|           W    W  A    A  R    R  N    N  II  N    N   GGGG   !!!           |
|     Tetrahedron method does not include variations of the Fermi             |
|     occupations, so forces and stress will be inaccurate. We suggest        |
|     using a different smearing scheme ISMEAR = 1 or 2 for metals in         |
|     relaxations.                                                            |

 total charge

# of ion       s       p       d       tot
    1        0.421   0.200   9.177   9.798
    2        0.415   0.204   9.177   9.796
    3        0.415   0.204   9.177   9.796
    4        0.416   0.203   9.177   9.796
    5        0.419   0.202   9.175   9.796
    6        0.416   0.203   9.177   9.796
    7        0.415   0.204   9.177   9.796
    8        0.415   0.204   9.177   9.796
    9        0.414   0.203   9.178   9.795
   10        0.409   0.268   9.164   9.840
   11        0.406   0.269   9.168   9.843
   12        0.409   0.268   9.164   9.840
   13        0.405   0.270   9.167   9.842
   14        0.405   0.270   9.167   9.842
   15        0.401   0.269   9.165   9.835
   16        0.409   0.270   9.162   9.840
   17        0.401   0.269   9.165   9.836
   18        0.401   0.269   9.165   9.836
   19        0.403   0.263   9.169   9.836
   20        0.438   0.301   9.138   9.878
   21        0.438   0.301   9.138   9.878
   22        0.392   0.276   9.164   9.832
   23        0.442   0.308   9.129   9.879
   24        0.392   0.276   9.164   9.832
   25        0.402   0.265   9.168   9.835
   26        0.402   0.265   9.168   9.835
   27        0.393   0.273   9.168   9.833
   28        0.421   0.197   9.177   9.795
   29        0.420   0.214   9.172   9.806
   30        0.420   0.214   9.172   9.806
   31        0.419   0.217   9.174   9.810
   32        0.419   0.217   9.174   9.810
   33        0.418   0.214   9.173   9.806
   34        0.418   0.214   9.173   9.806
   35        0.413   0.200   9.178   9.791
   36        0.435   0.461   4.215   5.111
   37        1.611   3.244   0.000   4.856
   38        1.611   3.244   0.000   4.856
tot         18.099  15.416 325.094 358.609

 BZINTS: Fermi energy:    0.318389;  403.000000 electrons
         Band energy:-0.158673E+04;  BLOECHL correction:   -0.025931