 vasp.6.2.0 18Jan21 (build Jun 12 2021 23:27:24) complex

 executed on             LinuxIFC date 2022.05.26  20:13:05

 INCAR:
   ISMEAR = -5
   SIGMA = 0.1
   ISPIN = 1
   EDIFF = 1.d-5
   EDIFFG = -0.01
   NSW = 0
   NELM = 150
   ENCUT = 500
   ISIF = 2
   IBRION = 2
   LREAL = Auto
   ALGO = Fast
   ICHARG = 11
   LORBIT = 10
   LCHARG = .F.
   LWAVE = .F.

 POTCAR:    PAW_PBE Au 04Oct2007
 POTCAR:    PAW_PBE Zr_sv 04Jan2005
|           W    W    AA    RRRRR   N    N  II  N    N   GGGG   !!!           |
|           W    W   A  A   R    R  NN   N  II  NN   N  G    G  !!!           |
|           W    W  A    A  R    R  N N  N  II  N N  N  G       !!!           |
|           W WW W  AAAAAA  RRRRR   N  N N  II  N  N N  G  GGG   !            |
|           WW  WW  A    A  R   R   N   NN  II  N   NN  G    G                |
|           W    W  A    A  R    R  N    N  II  N    N   GGGG   !!!           |
|     For optimal performance we recommend to set                             |
|       NCORE = 2 up to number-of-cores-per-socket                            |
|     This setting can greatly improve the performance of VASP for DFT.       |
|     The default, NCORE=1 might be grossly inefficient on modern             |
|     multi-core architectures or massively parallel machines. Do your        |
|     Unfortunately you need to use the default for GW and RPA                |
|     calculations (for HF NCORE is supported but not extensively tested      |
|     yet).                                                                   |

 POTCAR:    PAW_PBE Au 04Oct2007
   VRHFIN =Au: s1d10

   TITEL  = PAW_PBE Au 04Oct2007
   POMASS =  196.966; ZVAL   =   11.000    mass and valenz
   ENMAX  =  229.943; ENMIN  =  172.457 eV

 POTCAR:    PAW_PBE Zr_sv 04Jan2005
   VRHFIN =Zr: 4s4p5s4d

   TITEL  = PAW_PBE Zr_sv 04Jan2005
   POMASS =   91.224; ZVAL   =   12.000    mass and valenz
   ENMAX  =  229.898; ENMIN  =  172.424 eV

 Optimization of the real space projectors (new method)

 maximal supplied QI-value         = 15.12
 optimisation between [QCUT,QGAM] = [ 11.34, 22.83] = [ 36.00,145.93] Ry
 Optimized for a Real-space Cutoff    1.39 Angstroem

   l    n(q)    QCUT    max X(q) W(low)/X(q) W(high)/X(q)  e(spline)
   2      9    11.338    60.898    0.39E-03    0.42E-03    0.21E-06
   2      9    11.338    58.894    0.40E-03    0.42E-03    0.22E-06
   0      9    11.338   109.617    0.13E-03    0.20E-04    0.13E-06
   0      9    11.338    75.026    0.13E-03    0.20E-04    0.13E-06
   1      9    11.338    16.344    0.33E-04    0.24E-03    0.18E-06
   1      9    11.338    10.160    0.26E-04    0.19E-03    0.15E-06
 Optimization of the real space projectors (new method)

 maximal supplied QI-value         = 15.12
 optimisation between [QCUT,QGAM] = [ 11.34, 22.83] = [ 36.00,145.93] Ry
 Optimized for a Real-space Cutoff    1.47 Angstroem

   l    n(q)    QCUT    max X(q) W(low)/X(q) W(high)/X(q)  e(spline)
   0     10    11.338    12.107    0.38E-04    0.13E-04    0.27E-07
   0     10    11.338     9.948    0.69E-04    0.30E-04    0.38E-07
   1     10    11.338     3.563    0.26E-04    0.18E-04    0.40E-07
   1     10    11.338     4.524    0.25E-03    0.39E-04    0.44E-06
   2      9    11.338    87.261    0.26E-03    0.91E-05    0.26E-06
   2      9    11.338    70.950    0.25E-03    0.91E-05    0.25E-06
  PAW_PBE Au 04Oct2007                  :
  PAW_PBE Zr_sv 04Jan2005               :

 POSCAR: Au-Zr
  positions in direct lattice
  velocities in cartesian coordinates
 exchange correlation table for  LEXCH =        8
   RHO(1)=    0.500       N(1)  =     2000
   RHO(2)=  100.500       N(2)  =     4000

 VTST: version 3.2, (02/03/18)

 CHAIN: initializing optimizer

 OPT: Using VASP Conjugate-Gradient optimizer
 CHAIN: Read ICHAIN            0

 POSCAR: Au-Zr
  positions in direct lattice
  velocities in cartesian coordinates

 ion  position               nearest neighbor table
   1  0.000  0.000  0.238-  16 2.94  12 2.94   6 2.94   8 2.94   7 2.94   3 2.94  10 2.94   4 2.94
                             2 2.94
   2  0.333  0.000  0.238-   9 2.94  11 2.94  17 2.94  10 2.94   8 2.94   4 2.94   5 2.94   1 2.94
                             3 2.94
   3  0.667  0.000  0.238-   7 2.94  18 2.94  12 2.94   1 2.94  11 2.94   5 2.94   6 2.94   9 2.94
                             2 2.94
   4  0.000  0.333  0.238-  10 2.94   6 2.94   5 2.94  13 2.94   2 2.94  15 2.94   9 2.94   1 2.94
                             7 2.94
   5  0.333  0.333  0.238-  13 2.94   7 2.94  11 2.94   4 2.94   2 2.94  14 2.94   3 2.94   8 2.94
                             6 2.94
   6  0.667  0.333  0.238-  15 2.94  14 2.94   1 2.94  12 2.94   4 2.94   9 2.94   8 2.94   3 2.94
                             5 2.94
   7  0.000  0.667  0.238-  18 2.94   3 2.94  16 2.94   5 2.94   1 2.94  13 2.94   8 2.94   4 2.94
                             9 2.94
   8  0.333  0.667  0.238-   9 2.94  17 2.94   1 2.94   2 2.94  14 2.94  16 2.94   6 2.94   7 2.94
                             5 2.94
   9  0.667  0.667  0.238-   2 2.94   8 2.94  17 2.94   6 2.94  15 2.94   4 2.94   3 2.94  18 2.94
                             7 2.94
  10  0.111  0.111  0.346-  20 2.93  26 2.93  19 2.93  11 2.94  17 2.94   2 2.94   4 2.94   1 2.94
                            12 2.94  16 2.94  13 2.94  15 2.94
  11  0.444  0.111  0.346-  20 2.92  21 2.92  27 2.94  13 2.94   2 2.94  10 2.94  17 2.94   5 2.94
                             3 2.94  18 2.94  14 2.94  12 2.94
  12  0.778  0.111  0.346-  21 2.93  25 2.93  19 2.93  16 2.94  18 2.94   1 2.94  14 2.94  15 2.94
                             3 2.94   6 2.94  10 2.94  11 2.94
  13  0.111  0.444  0.346-  23 2.92  20 2.92  22 2.94   5 2.94  18 2.94  11 2.94   7 2.94   4 2.94
                            16 2.94  10 2.94  14 2.94  15 2.94
  14  0.444  0.444  0.346-  21 2.92  23 2.92  24 2.94  15 2.94   6 2.94  12 2.94   8 2.94  17 2.94
                             5 2.94  16 2.94  13 2.94  11 2.94
  15  0.778  0.444  0.346-  24 2.93  22 2.93  19 2.93  14 2.94   6 2.94  17 2.94  12 2.94   9 2.94
                             4 2.94  10 2.94  13 2.94  18 2.94
  16  0.111  0.778  0.346-  23 2.93  25 2.93  26 2.93  18 2.94  12 2.94   7 2.94   1 2.94   8 2.94
                            13 2.94  10 2.94  14 2.94  17 2.94
  17  0.444  0.778  0.346-  27 2.93  24 2.93  26 2.93   9 2.94  15 2.94   2 2.94  10 2.94  11 2.94
                             8 2.94  14 2.94  16 2.94  18 2.94
  18  0.778  0.778  0.346-  22 2.93  27 2.93  25 2.93  16 2.94   7 2.94  13 2.94  12 2.94   3 2.94
                            11 2.94   9 2.94  15 2.94  17 2.94
  19  0.889  0.222  0.454-  10 2.93  12 2.93  15 2.93  26 2.94  25 2.94  24 2.94  22 2.94  21 2.95
                            20 2.95  28 2.96  32 3.04  31 3.04
  20  0.223  0.223  0.453-  36 2.86  23 2.92  21 2.92  11 2.92  13 2.92  10 2.93  27 2.94  22 2.94
                            26 2.95  19 2.95  29 3.00  31 3.00
  21  0.554  0.223  0.453-  36 2.86  20 2.92  23 2.92  14 2.92  11 2.92  12 2.93  27 2.94  24 2.94
                            25 2.95  19 2.95  30 3.00  32 3.00
  22  0.888  0.556  0.454-  24 2.92  27 2.92  18 2.93  15 2.93  13 2.94  25 2.94  19 2.94  23 2.94
                            20 2.94  35 2.96  33 3.01  31 3.01
  23  0.223  0.554  0.453-  36 2.86  20 2.92  21 2.92  13 2.92  14 2.92  16 2.93  22 2.94  24 2.94
                            25 2.95  26 2.95  33 3.00  34 3.00
  24  0.556  0.556  0.454-  27 2.92  22 2.92  15 2.93  17 2.93  14 2.94  26 2.94  19 2.94  21 2.94
                            23 2.94  35 2.96  32 3.01  34 3.01
  25  0.889  0.889  0.454-  16 2.93  12 2.93  18 2.93  19 2.94  26 2.94  22 2.94  27 2.94  23 2.95
                            21 2.95  28 2.96  33 3.04  30 3.04
  26  0.222  0.889  0.454-  10 2.93  16 2.93  17 2.93  19 2.94  25 2.94  27 2.94  24 2.94  20 2.95
                            23 2.95  28 2.96  29 3.04  34 3.04
  27  0.556  0.888  0.454-  24 2.92  22 2.92  17 2.93  18 2.93  11 2.94  26 2.94  25 2.94  20 2.94
                            21 2.94  35 2.96  29 3.01  30 3.01
  28  0.000  0.000  0.563-  25 2.96  19 2.96  26 2.96  34 2.97  32 2.97  33 2.97  30 2.97  31 2.97
                            29 2.97
  29  0.334  0.006  0.566-  30 2.88  31 2.89  36 2.89  35 2.96  28 2.97  20 3.00  27 3.01  26 3.04
                            34 3.04
  30  0.661  0.006  0.566-  29 2.88  32 2.89  36 2.89  35 2.96  28 2.97  21 3.00  27 3.01  25 3.04
                            33 3.04
  31  0.006  0.334  0.566-  33 2.88  29 2.89  36 2.89  35 2.96  28 2.97  20 3.00  22 3.01  19 3.04
                            32 3.04
  32  0.661  0.334  0.566-  34 2.88  30 2.89  36 2.89  35 2.96  28 2.97  21 3.00  24 3.01  19 3.04
                            31 3.04
  33  0.006  0.661  0.566-  31 2.88  34 2.89  36 2.89  35 2.96  28 2.97  23 3.00  22 3.01  25 3.04
                            30 3.04
  34  0.334  0.661  0.566-  32 2.88  33 2.89  36 2.89  35 2.96  28 2.97  23 3.00  24 3.01  26 3.04
                            29 3.04
  35  0.667  0.667  0.563-  24 2.96  27 2.96  22 2.96  29 2.96  34 2.96  32 2.96  31 2.96  30 2.96
                            33 2.96
  36  0.333  0.333  0.557-  20 2.86  23 2.86  21 2.86  33 2.89  31 2.89  29 2.89  30 2.89  34 2.89
                            32 2.89

  LATTYP: Found a hexagonal cell.
 ALAT       =     8.8135128021
 C/A-ratio  =     2.5184286595

  Lattice vectors:

 A1 = (  -4.4067569092,  -7.6327256898,   0.0000000000)
 A2 = (   8.8135128021,   0.0000000000,   0.0000000000)
 A3 = (   0.0000000000,   0.0000000000,  22.1962032318)

Analysis of symmetry for initial positions (statically):
 Subroutine PRICEL returns:
 Original cell was already a primitive cell.

 Routine SETGRP: Setting up the symmetry group for a
 hexagonal supercell.

 Subroutine GETGRP returns: Found  6 space group operations
 (whereof  6 operations were pure point group operations)
 out of a pool of 24 trial point group operations.

The static configuration has the point symmetry C_3v.

Analysis of symmetry for dynamics (positions and initial velocities):
 Subroutine PRICEL returns:
 Original cell was already a primitive cell.

[...]

The dynamic configuration has the point symmetry C_3v.

Analysis of constrained symmetry for selective dynamics:
 Subroutine PRICEL returns:
 Original cell was already a primitive cell.

 Routine SETGRP: Setting up the symmetry group for a
 hexagonal supercell.

 Subroutine GETGRP returns: Found  6 space group operations
 (whereof  6 operations were pure point group operations)
 out of a pool of 24 trial point group operations.

The constrained configuration has the point symmetry C_3v.

 Subroutine INISYM returns: Found  6 space group operations
 (whereof  6 operations are pure point group operations),
 and found     1 'primitive' translations

                                     Primitive cell

  volume of cell :    1493.1636

  direct lattice vectors                    reciprocal lattice vectors
     8.813512802  0.000000000  0.000000000     0.113462137 -0.065507406  0.000000000
     4.406756909  7.632725690  0.000000000     0.000000000  0.131014796  0.000000000
[...]
     15      -5.2596      2.00000
     16      -5.2171      2.00000
     17      -5.2034      2.00000
     18      -5.1297      2.00000
     19      -5.0847      2.00000
     20      -5.0641      2.00000
     21      -5.0576      2.00000
     22      -5.0383      2.00000
     23      -5.0284      2.00000
     24      -5.0159      2.00000
     25      -4.9841      2.00000
     26      -4.9752      2.00000
     27      -4.9053      2.00000
     28      -4.8746      2.00000
     29      -4.8534      2.00000
     30      -4.8352      2.00000
     31      -4.7971      2.00000
     32      -4.7550      2.00000
     33      -4.7107      2.00000
     34      -4.6557      2.00000
     35      -4.6299      2.00000
     36      -4.5892      2.00000
     37      -4.5815      2.00000
     38      -4.5538      2.00000
     39      -4.5511      2.00000
     40      -4.5363      2.00000
     41      -4.3741      2.00000
     42      -4.3540      2.00000
     43      -4.2932      2.00000
     44      -4.2503      2.00000
     45      -4.2292      2.00000
     46      -4.2013      2.00000
     47      -4.1804      2.00000
     48      -4.1442      2.00000
     49      -4.1200      2.00000
     50      -4.0423      2.00000
     51      -4.0252      2.00000
     52      -3.9800      2.00000
     53      -3.9634      2.00000
     54      -3.9561      2.00000
     55      -3.9488      2.00000
     56      -3.9361      2.00000
     57      -3.9059      2.00000
     58      -3.8604      2.00000
     59      -3.8372      2.00000
     60      -3.8266      2.00000
[...]
    238       6.5129      0.00000
    239       6.5349      0.00000
    240       6.6309      0.00000
    241       6.6889      0.00000
    242       6.8171      0.00000
    243       6.8872      0.00000
    244       6.9188      0.00000
    245       7.0159      0.00000
    246       7.1853      0.00000
    247       7.2943      0.00000
    248       7.3779      0.00000
    249       7.4922      0.00000
    250       7.6661      0.00000
    251       7.6992      0.00000
    252       7.8198      0.00000

 soft charge-density along one line, spin component           1
         0         1         2         3         4         5         6         7         8         9
 total charge-density along one line

------------------------ aborting loop because EDIFF is reached ----------------------------------------

 total charge

# of ion       s       p       d       tot
    1        0.551   0.237   8.767   9.554
    2        0.542   0.241   8.766   9.549
    3        0.542   0.241   8.766   9.549
    4        0.542   0.241   8.766   9.549
    5        0.543   0.242   8.761   9.546
    6        0.542   0.241   8.766   9.549
    7        0.542   0.241   8.766   9.549
    8        0.542   0.241   8.766   9.549
    9        0.545   0.240   8.766   9.551
   10        0.524   0.307   8.769   9.600
   11        0.519   0.306   8.779   9.604
   12        0.524   0.307   8.769   9.600
   13        0.519   0.306   8.779   9.604
   14        0.519   0.306   8.779   9.604
   15        0.516   0.308   8.773   9.597
   16        0.524   0.307   8.769   9.600
   17        0.516   0.308   8.773   9.597
   18        0.516   0.308   8.773   9.597
   19        0.522   0.299   8.768   9.588
   20        0.568   0.333   8.729   9.630
   21        0.568   0.333   8.729   9.630
   22        0.510   0.305   8.774   9.589
   23        0.568   0.333   8.729   9.630
   24        0.510   0.305   8.774   9.589
   25        0.522   0.299   8.768   9.588
   26        0.522   0.299   8.768   9.588
   27        0.510   0.305   8.774   9.589
   28        0.543   0.236   8.751   9.530
   29        0.601   0.250   8.723   9.574
   30        0.601   0.250   8.723   9.574
   31        0.601   0.250   8.723   9.574
   32        0.601   0.250   8.723   9.574
   33        0.601   0.250   8.723   9.574
   34        0.601   0.250   8.723   9.574
   35        0.539   0.237   8.754   9.530
   36        2.194   5.971   1.432   9.597
tot         21.250  15.686 307.938 344.875

  FORCE on cell =-STRESS in cart. coord.  units (eV):
  Direction    XX          YY          ZZ          XY          YZ          ZX
  Alpha Z  1014.82910  1014.82910  1014.82910
  Ewald  119459.05842119459.05886************    -0.00033    -0.00008    -0.00015
  Hartree128201.94009128201.94010************     0.00000    -0.00002    -0.00004
  E(xc)   -1778.23518 -1778.23516 -1786.07615    -0.00002    -0.00000    -0.00000
  Local  ************************260472.92038     0.00172     0.00004     0.00008
  n-local   -74.26139   -30.44817   -20.71446    21.29531    -1.68471     0.99139
  augment  2364.23615  2364.23769  2383.29432    -0.00134     0.00003     0.00003
  Kinetic  5562.40924  5568.68332  5622.57141     3.57530     0.68451    -0.28528
  Fock        0.00000     0.00000     0.00000     0.00000     0.00000     0.00000
  Total     -21.90144   -21.90143     2.41100    -0.00000     0.00000     0.00000
  in kB     -23.50043   -23.50043     2.58702    -0.00000     0.00000     0.00000

 VOLUME and BASIS-vectors are now :
  energy-cutoff  :      500.00
  volume of cell :     1493.16
      direct lattice vectors                 reciprocal lattice vectors
     8.813512802  0.000000000  0.000000000     0.113462137 -0.065507406  0.000000000
     4.406756909  7.632725690  0.000000000     0.000000000  0.131014796  0.000000000
     0.000000000  0.000000000 22.196203232     0.000000000  0.000000000  0.045052750

  length of vectors
     8.813512802  8.813512802 22.196203232     0.131014796  0.131014796  0.045052750

 FORCES acting on ions
    electron-ion (+dipol)            ewald-force                    non-local-force                 convergence-correction
   -.198E-04 -.163E-04 0.248E+04   0.519E-04 0.433E-04 -.248E+04   0.603E-17 0.294E-17 -.519E+00   -.146E-03 -.979E-04 -.170E+00
   0.301E+00 0.340E+00 0.248E+04   -.359E+00 -.458E+00 -.248E+04   0.519E-02 0.675E-01 -.366E+00   0.505E-01 0.403E-01 -.152E+00
   -.301E+00 0.340E+00 0.248E+04   0.359E+00 -.458E+00 -.248E+04   -.519E-02 0.675E-01 -.366E+00   -.503E-01 0.423E-01 -.152E+00
   0.445E+00 0.905E-01 0.248E+04   -.576E+00 -.821E-01 -.248E+04   0.610E-01 -.292E-01 -.366E+00   0.602E-01 0.236E-01 -.152E+00
   0.722E-05 -.241E-04 0.248E+04   0.951E-04 0.171E-05 -.248E+04   0.316E-17 0.194E-17 -.760E-01   0.427E-02 0.260E-02 -.180E+00
   -.445E+00 0.905E-01 0.248E+04   0.576E+00 -.822E-01 -.248E+04   -.610E-01 -.292E-01 -.366E+00   -.617E-01 0.246E-01 -.151E+00
   0.144E+00 -.431E+00 0.248E+04   -.217E+00 0.540E+00 -.248E+04   0.558E-01 -.382E-01 -.366E+00   0.115E-01 -.647E-01 -.152E+00
   -.144E+00 -.431E+00 0.248E+04   0.217E+00 0.540E+00 -.248E+04   -.558E-01 -.382E-01 -.366E+00   -.958E-02 -.657E-01 -.151E+00
   0.198E-04 -.415E-04 0.248E+04   0.166E-03 -.201E-04 -.248E+04   0.625E-17 -.557E-19 -.302E+00   -.466E-02 -.242E-02 -.990E-01
   0.314E+01 0.181E+01 0.833E+03   -.302E+01 -.175E+01 -.832E+03   -.220E+00 -.127E+00 -.581E+00   0.887E-01 0.511E-01 -.200E-01
   0.155E-04 0.543E+01 0.839E+03   0.147E-03 -.548E+01 -.839E+03   -.208E-08 -.313E-01 -.142E+00   0.344E-02 0.203E-01 -.143E-01
   -.314E+01 0.181E+01 0.833E+03   0.302E+01 -.175E+01 -.832E+03   0.220E+00 -.127E+00 -.581E+00   -.897E-01 0.525E-01 -.212E-01
   0.470E+01 -.272E+01 0.839E+03   -.474E+01 0.274E+01 -.839E+03   -.271E-01 0.157E-01 -.142E+00   0.196E-01 -.688E-02 -.143E-01
   -.470E+01 -.272E+01 0.839E+03   0.474E+01 0.274E+01 -.839E+03   0.271E-01 0.157E-01 -.142E+00   -.119E-01 -.701E-02 -.146E-01
   0.308E-04 0.589E+00 0.833E+03   0.236E-03 -.679E+00 -.832E+03   0.711E-09 0.107E-01 -.441E+00   -.220E-02 0.460E-01 -.568E-01
   -.213E-04 -.363E+01 0.833E+03   0.162E-03 0.349E+01 -.832E+03   0.169E-07 0.254E+00 -.581E+00   0.403E-03 -.104E+00 -.212E-01
   0.510E+00 -.295E+00 0.833E+03   -.588E+00 0.339E+00 -.832E+03   0.924E-02 -.534E-02 -.441E+00   0.390E-01 -.245E-01 -.568E-01
   -.510E+00 -.294E+00 0.833E+03   0.588E+00 0.339E+00 -.832E+03   -.924E-02 -.534E-02 -.441E+00   -.393E-01 -.229E-01 -.578E-01
   -.424E-04 -.201E+01 -.845E+03   0.526E-04 0.208E+01 0.845E+03   -.435E-08 -.653E-01 0.514E+00   0.350E-02 0.109E-01 0.985E-01
   0.333E+02 0.192E+02 -.802E+03   -.324E+02 -.187E+02 0.803E+03   -.105E+01 -.604E+00 -.105E+01   0.162E+00 0.931E-01 0.232E+00
   -.333E+02 0.192E+02 -.802E+03   0.324E+02 -.187E+02 0.803E+03   0.105E+01 -.604E+00 -.105E+01   -.162E+00 0.958E-01 0.232E+00
   0.641E+01 -.370E+01 -.838E+03   -.674E+01 0.389E+01 0.837E+03   0.248E+00 -.143E+00 0.606E+00   0.917E-01 -.590E-01 0.842E-01
   -.706E-05 -.385E+02 -.802E+03   0.143E-03 0.375E+02 0.803E+03   0.804E-07 0.121E+01 -.105E+01   0.171E-02 -.188E+00 0.232E+00
   -.641E+01 -.370E+01 -.838E+03   0.674E+01 0.389E+01 0.837E+03   -.248E+00 -.143E+00 0.606E+00   -.988E-01 -.570E-01 0.842E-01
   0.174E+01 0.101E+01 -.845E+03   -.180E+01 -.104E+01 0.845E+03   0.566E-01 0.327E-01 0.514E+00   -.286E-02 -.172E-02 0.982E-01
   -.174E+01 0.101E+01 -.845E+03   0.180E+01 -.104E+01 0.845E+03   -.566E-01 0.327E-01 0.514E+00   0.115E-01 -.239E-02 0.985E-01
   0.112E-04 0.740E+01 -.838E+03   0.196E-03 -.779E+01 0.837E+03   0.191E-07 0.286E+00 0.606E+00   -.578E-02 0.109E+00 0.842E-01
   -.132E-04 -.123E-04 -.245E+04   0.282E-04 0.336E-04 0.245E+04   -.778E-17 -.327E-17 0.371E+00   0.431E-03 0.230E-03 0.145E+00
   0.284E+02 0.455E+02 -.248E+04   -.273E+02 -.437E+02 0.248E+04   -.123E+01 -.192E+01 -.693E+00   0.868E-01 0.145E+00 0.835E-01
   -.284E+02 0.455E+02 -.248E+04   0.273E+02 -.437E+02 0.248E+04   0.123E+01 -.192E+01 -.693E+00   -.872E-01 0.147E+00 0.849E-01
   0.536E+02 0.186E+01 -.248E+04   -.515E+02 -.176E+01 0.248E+04   -.228E+01 -.103E+00 -.693E+00   0.169E+00 0.255E-02 0.836E-01
   -.536E+02 0.186E+01 -.248E+04   0.515E+02 -.176E+01 0.248E+04   0.228E+01 -.103E+00 -.693E+00   -.171E+00 0.403E-02 0.838E-01
   0.252E+02 -.474E+02 -.248E+04   -.242E+02 0.455E+02 0.248E+04   -.105E+01 0.203E+01 -.693E+00   0.840E-01 -.149E+00 0.848E-01
   -.252E+02 -.474E+02 -.248E+04   0.242E+02 0.455E+02 0.248E+04   0.105E+01 0.203E+01 -.693E+00   -.818E-01 -.150E+00 0.838E-01
   0.294E-04 -.291E-04 -.245E+04   0.145E-03 -.487E-04 0.245E+04   -.440E-17 -.358E-17 0.548E+00   -.491E-02 -.254E-02 0.138E+00
   0.204E-03 -.138E-03 -.263E+04   0.120E-03 0.103E-04 0.263E+04   -.833E-18 0.145E-17 0.329E+01   0.526E-02 0.322E-02 0.302E-01
   -.565E-03 -.892E-03 0.636E+01   -.437E-13 0.464E-13 0.637E-11   -.449E-15 -.213E-17 -.634E+01   0.991E-02 0.642E-02 0.425E+00

 POSITION                                       TOTAL-FORCE (eV/Angst)
      0.00000      0.00000      5.28038        -0.000000     -0.000000     -0.139519
      2.93784      0.00000      5.28038        -0.002174     -0.009036     -0.061876
      5.87568      0.00000      5.28038         0.002174     -0.009036     -0.061876
      1.46892      2.54424      5.28038        -0.008913      0.002635     -0.061876
      4.40676      2.54424      5.28038        -0.000000     -0.000000     -0.032723
      7.34459      2.54424      5.28038         0.008913      0.002635     -0.061876
      2.93784      5.08848      5.28038        -0.006738      0.006401     -0.061876
      5.87568      5.08848      5.28038         0.006738      0.006401     -0.061876
      8.81351      5.08848      5.28038        -0.000000     -0.000000     -0.080078
      1.46892      0.84808      7.67911        -0.013899     -0.008025      0.055701
      4.40676      0.84808      7.67911        -0.000000     -0.059270      0.001466
      7.34459      0.84808      7.67911         0.013899     -0.008025      0.055701
      2.93784      3.39232      7.67911        -0.051330      0.029635      0.001466
      5.87568      3.39232      7.67911         0.051330      0.029635      0.001466
      8.81351      3.39232      7.67911        -0.000000     -0.033438      0.133587
      4.40676      5.93656      7.67911         0.000000      0.016049      0.055701
      7.34459      5.93656      7.67911        -0.028958      0.016719      0.133587
     10.28243      5.93656      7.67911         0.028958      0.016719      0.133587
      8.81351      1.69571     10.07248         0.000000      0.011641     -0.004627
      2.94528      1.70046     10.06340        -0.012810     -0.007396     -0.008746
      5.86824      1.70046     10.06340         0.012810     -0.007396     -0.008746
     10.27570      4.24429     10.07162         0.009025     -0.005210      0.000996
      4.40676      4.23182     10.06340         0.000000      0.014792     -0.008746
      7.35132      4.24429     10.07162        -0.009025     -0.005210      0.000996
     11.75174      6.78487     10.07248        -0.010082     -0.005821     -0.004627
      5.87529      6.78487     10.07248         0.010082     -0.005821     -0.004627
      8.81351      6.77688     10.07162         0.000000      0.010421      0.000996
      0.00000      0.00000     12.49858        -0.000000     -0.000000     -0.007592
      2.96552      0.04535     12.55994         0.003090     -0.000136      0.015939
      5.84799      0.04535     12.55994        -0.003090     -0.000136      0.015939
      1.52204      2.54555     12.55994         0.001427      0.002745      0.015939
      7.29148      2.54555     12.55994        -0.001427      0.002745      0.015939
      2.96327      5.04183     12.55994        -0.001663     -0.002608      0.015939
      5.85025      5.04183     12.55994         0.001663     -0.002608      0.015939
      8.81351      5.08848     12.50663         0.000000     -0.000000      0.009956
      4.40676      2.54424     12.37417         0.000000     -0.000000     -0.009556
    total drift:                                0.009344      0.005523      0.446755

  FREE ENERGIE OF THE ION-ELECTRON SYSTEM (eV)
  free  energy   TOTEN  =      -116.48758566 eV

  energy  without entropy=     -116.48758566  energy(sigma->0) =     -116.48758566

 stress matrix after NEB project (eV)
    -21.90144     -0.00000      0.00000
     -0.00000    -21.90143      0.00000
      0.00000      0.00000      2.41100
  FORCES: max atom, RMS     0.017184    0.009882
  FORCE total and by dimension    0.059289    0.015939
  Stress total and by dimension   31.067003   21.901437
|           W    W    AA    RRRRR   N    N  II  N    N   GGGG   !!!           |
|           W    W   A  A   R    R  NN   N  II  NN   N  G    G  !!!           |
|           W    W  A    A  R    R  N N  N  II  N N  N  G       !!!           |
|           W WW W  AAAAAA  RRRRR   N  N N  II  N  N N  G  GGG   !            |
|           WW  WW  A    A  R   R   N   NN  II  N   NN  G    G                |
|           W    W  A    A  R    R  N    N  II  N    N   GGGG   !!!           |
|     Tetrahedron method does not include variations of the Fermi             |
|     occupations, so forces and stress will be inaccurate. We suggest        |
|     using a different smearing scheme ISMEAR = 1 or 2 for metals in         |
|     relaxations.                                                            |

 total charge

# of ion       s       p       d       tot
    1        0.551   0.237   8.767   9.554
    2        0.542   0.241   8.766   9.549
    3        0.542   0.241   8.766   9.549
    4        0.542   0.241   8.766   9.549
    5        0.543   0.242   8.761   9.546
    6        0.542   0.241   8.766   9.549
    7        0.542   0.241   8.766   9.549
    8        0.542   0.241   8.766   9.549
    9        0.545   0.240   8.766   9.551
   10        0.524   0.307   8.769   9.600
   11        0.519   0.306   8.779   9.604
   12        0.524   0.307   8.769   9.600
   13        0.519   0.306   8.779   9.604
   14        0.519   0.306   8.779   9.604
   15        0.516   0.308   8.773   9.597
   16        0.524   0.307   8.769   9.600
   17        0.516   0.308   8.773   9.597
   18        0.516   0.308   8.773   9.597
   19        0.522   0.299   8.768   9.588
   20        0.568   0.333   8.729   9.630
   21        0.568   0.333   8.729   9.630
   22        0.510   0.305   8.774   9.589
   23        0.568   0.333   8.729   9.630
   24        0.510   0.305   8.774   9.589
   25        0.522   0.299   8.768   9.588
   26        0.522   0.299   8.768   9.588
   27        0.510   0.305   8.774   9.589
   28        0.543   0.236   8.751   9.530
   29        0.601   0.250   8.723   9.574
   30        0.601   0.250   8.723   9.574
   31        0.601   0.250   8.723   9.574
   32        0.601   0.250   8.723   9.574
   33        0.601   0.250   8.723   9.574
   34        0.601   0.250   8.723   9.574
   35        0.539   0.237   8.754   9.530
   36        2.194   5.971   1.432   9.597
tot         21.250  15.686 307.938 344.875

 BZINTS: Fermi energy:    0.888922;  397.000000 electrons
         Band energy:-0.139148E+04;  BLOECHL correction:   -0.031257