 vasp.6.2.0 18Jan21 (build Jun 12 2021 23:27:24) complex

 executed on             LinuxIFC date 2022.05.26  19:31:28

 INCAR:
   ISMEAR = -5
   SIGMA = 0.1
   ISPIN = 1
   EDIFF = 1.d-5
   EDIFFG = -0.01
   NSW = 0
   NELM = 150
   ENCUT = 500
   ISIF = 2
   IBRION = 2
   LREAL = Auto
   ALGO = Fast
   ICHARG = 11
   LORBIT = 10
   LCHARG = .F.
   LWAVE = .F.

 POTCAR:    PAW_PBE Au 04Oct2007
 POTCAR:    PAW_PBE Ta 17Jan2003
 POTCAR:    PAW_PBE O 08Apr2002
|           W    W    AA    RRRRR   N    N  II  N    N   GGGG   !!!           |
|           W    W   A  A   R    R  NN   N  II  NN   N  G    G  !!!           |
|           W    W  A    A  R    R  N N  N  II  N N  N  G       !!!           |
|           W WW W  AAAAAA  RRRRR   N  N N  II  N  N N  G  GGG   !            |
|           WW  WW  A    A  R   R   N   NN  II  N   NN  G    G                |
|           W    W  A    A  R    R  N    N  II  N    N   GGGG   !!!           |
|     For optimal performance we recommend to set                             |
|       NCORE = 2 up to number-of-cores-per-socket                            |
|     This setting can greatly improve the performance of VASP for DFT.       |
|     The default, NCORE=1 might be grossly inefficient on modern             |
|     multi-core architectures or massively parallel machines. Do your        |
|     Unfortunately you need to use the default for GW and RPA                |
|     calculations (for HF NCORE is supported but not extensively tested      |
|     yet).                                                                   |

 POTCAR:    PAW_PBE Au 04Oct2007
   VRHFIN =Au: s1d10

   TITEL  = PAW_PBE Au 04Oct2007
   POMASS =  196.966; ZVAL   =   11.000    mass and valenz
   ENMAX  =  229.943; ENMIN  =  172.457 eV

 POTCAR:    PAW_PBE Ta 17Jan2003
   VRHFIN =Ta:  6s5d

   TITEL  = PAW_PBE Ta 17Jan2003
   POMASS =  180.948; ZVAL   =    5.000    mass and valenz
   ENMAX  =  223.667; ENMIN  =  167.750 eV

 POTCAR:    PAW_PBE O 08Apr2002
   VRHFIN =O: s2p4

   TITEL  = PAW_PBE O 08Apr2002
   POMASS =   16.000; ZVAL   =    6.000    mass and valenz
   ENMAX  =  400.000; ENMIN  =  300.000 eV

 Optimization of the real space projectors (new method)

 maximal supplied QI-value         = 15.12
 optimisation between [QCUT,QGAM] = [ 11.34, 22.83] = [ 36.00,145.93] Ry
 Optimized for a Real-space Cutoff    1.39 Angstroem

   l    n(q)    QCUT    max X(q) W(low)/X(q) W(high)/X(q)  e(spline)
   2      9    11.338    60.898    0.39E-03    0.42E-03    0.21E-06
   2      9    11.338    58.894    0.40E-03    0.42E-03    0.22E-06
   0      9    11.338   109.617    0.13E-03    0.20E-04    0.13E-06
   0      9    11.338    75.026    0.13E-03    0.20E-04    0.13E-06
   1      9    11.338    16.344    0.33E-04    0.24E-03    0.18E-06
   1      9    11.338    10.160    0.26E-04    0.19E-03    0.15E-06
 Optimization of the real space projectors (new method)

[...]

   l    n(q)    QCUT    max X(q) W(low)/X(q) W(high)/X(q)  e(spline)
   2     10    11.437    62.315    0.14E-03    0.26E-03    0.80E-06
   2     10    11.437    52.185    0.14E-03    0.26E-03    0.80E-06
   0     11    11.437   103.837    0.25E-04    0.17E-04    0.84E-07
   0     11    11.437    59.728    0.20E-04    0.15E-04    0.73E-07
   1     11    11.437    13.958    0.47E-03    0.12E-03    0.89E-06
   1     11    11.437     8.441    0.33E-03    0.88E-04    0.61E-06
 Optimization of the real space projectors (new method)

 maximal supplied QI-value         = 24.76
 optimisation between [QCUT,QGAM] = [ 11.39, 22.77] = [ 36.31,145.25] Ry
 Optimized for a Real-space Cutoff    1.00 Angstroem

   l    n(q)    QCUT    max X(q) W(low)/X(q) W(high)/X(q)  e(spline)
   0      7    11.387    20.381    0.39E-03    0.13E-02    0.15E-06
   0      7    11.387    15.268    0.42E-03    0.14E-02    0.17E-06
   1      6    11.387     5.964    0.41E-03    0.11E-02    0.17E-06
   1      6    11.387     5.382    0.39E-03    0.87E-03    0.15E-06
  PAW_PBE Au 04Oct2007                  :
  PAW_PBE Ta 17Jan2003                  :
  PAW_PBE O 08Apr2002                   :

 POSCAR: Au-Ta-O
  positions in direct lattice
  velocities in cartesian coordinates
 exchange correlation table for  LEXCH =        8
   RHO(1)=    0.500       N(1)  =     2000
   RHO(2)=  100.500       N(2)  =     4000

 VTST: version 3.2, (02/03/18)

 CHAIN: initializing optimizer

 OPT: Using VASP Conjugate-Gradient optimizer
 CHAIN: Read ICHAIN            0

 POSCAR: Au-Ta-O
  positions in direct lattice
  velocities in cartesian coordinates

 ion  position               nearest neighbor table
   1  0.000  0.000  0.238-  16 2.94  12 2.94   6 2.94   8 2.94   7 2.94   3 2.94  10 2.94   4 2.94
                             2 2.94
   2  0.333  0.000  0.238-   9 2.94  11 2.94  17 2.94  10 2.94   8 2.94   4 2.94   5 2.94   1 2.94
                             3 2.94
   3  0.667  0.000  0.238-   7 2.94  18 2.94  12 2.94   1 2.94  11 2.94   5 2.94   6 2.94   9 2.94
                             2 2.94
   4  0.000  0.333  0.238-  10 2.94   6 2.94   5 2.94  13 2.94   2 2.94  15 2.94   9 2.94   1 2.94
                             7 2.94
   5  0.333  0.333  0.238-  13 2.94   7 2.94  11 2.94   4 2.94   2 2.94  14 2.94   3 2.94   8 2.94
                             6 2.94
   6  0.667  0.333  0.238-  15 2.94  14 2.94   1 2.94  12 2.94   4 2.94   9 2.94   8 2.94   3 2.94
                             5 2.94
   7  0.000  0.667  0.238-  18 2.94   3 2.94  16 2.94   5 2.94   1 2.94  13 2.94   8 2.94   4 2.94
                             9 2.94
   8  0.333  0.667  0.238-   9 2.94  17 2.94   1 2.94   2 2.94  14 2.94  16 2.94   6 2.94   7 2.94
                             5 2.94
   9  0.667  0.667  0.238-   2 2.94   8 2.94  17 2.94   6 2.94  15 2.94   4 2.94   3 2.94  18 2.94
                             7 2.94
  10  0.111  0.111  0.346-  20 2.91  11 2.94  17 2.94   2 2.94   4 2.94   1 2.94  12 2.94  16 2.94
                            13 2.94  15 2.94  26 2.96  19 2.96
  11  0.444  0.111  0.346-  20 2.91  21 2.91  13 2.94   2 2.94  10 2.94  17 2.94   5 2.94   3 2.94
                            18 2.94  14 2.94  12 2.94  27 2.94
  12  0.778  0.111  0.346-  21 2.91  16 2.94  18 2.94   1 2.94  14 2.94  15 2.94   3 2.94   6 2.94
                            10 2.94  11 2.94  25 2.96  19 2.96
  13  0.111  0.444  0.346-  23 2.91  20 2.91   5 2.94  18 2.94  11 2.94   7 2.94   4 2.94  16 2.94
                            10 2.94  14 2.94  15 2.94  22 2.94
  14  0.444  0.444  0.346-  21 2.91  23 2.91  15 2.94   6 2.94  12 2.94   8 2.94  17 2.94   5 2.94
                            16 2.94  13 2.94  11 2.94  24 2.94
  15  0.778  0.444  0.346-  24 2.92  22 2.92  14 2.94   6 2.94  17 2.94  12 2.94   9 2.94   4 2.94
                            10 2.94  13 2.94  18 2.94  19 2.95
  16  0.111  0.778  0.346-  23 2.91  18 2.94  12 2.94   7 2.94   1 2.94   8 2.94  13 2.94  10 2.94
                            14 2.94  17 2.94  25 2.96  26 2.96
  17  0.444  0.778  0.346-  27 2.92  24 2.92   9 2.94  15 2.94   2 2.94  10 2.94  11 2.94   8 2.94
                            14 2.94  16 2.94  18 2.94  26 2.95
  18  0.778  0.778  0.346-  22 2.92  27 2.92  16 2.94   7 2.94  13 2.94  12 2.94   3 2.94  11 2.94
                             9 2.94  15 2.94  17 2.94  25 2.95
  19  0.888  0.223  0.455-  24 2.93  22 2.93  21 2.93  20 2.93  28 2.95  15 2.95  26 2.95  25 2.95
                            10 2.96  12 2.96  32 3.06  31 3.06
  20  0.222  0.222  0.453-  36 2.74  10 2.91  11 2.91  13 2.91  26 2.93  19 2.93  23 2.95  21 2.95
                            27 2.95  22 2.95  29 2.99  31 2.99
  21  0.556  0.222  0.453-  36 2.74  12 2.91  14 2.91  11 2.91  25 2.93  19 2.93  20 2.95  23 2.95
                            27 2.95  24 2.95  30 2.99  32 2.99
  22  0.886  0.557  0.454-  24 2.91  27 2.91  18 2.92  15 2.92  25 2.93  19 2.93  13 2.94  23 2.95
                            20 2.95  35 2.96  33 3.03  31 3.03
  23  0.222  0.556  0.453-  36 2.74  16 2.91  13 2.91  14 2.91  25 2.93  26 2.93  20 2.95  21 2.95
                            22 2.95  24 2.95  33 2.99  34 2.99
  24  0.557  0.557  0.454-  27 2.91  22 2.91  15 2.92  17 2.92  26 2.93  19 2.93  14 2.94  21 2.95
                            23 2.95  35 2.96  32 3.03  34 3.03
  25  0.888  0.888  0.455-  22 2.93  27 2.93  23 2.93  21 2.93  28 2.95  18 2.95  19 2.95  26 2.95
                            16 2.96  12 2.96  33 3.06  30 3.06
  26  0.223  0.888  0.455-  27 2.93  24 2.93  20 2.93  23 2.93  28 2.95  17 2.95  19 2.95  25 2.95
                            10 2.96  16 2.96  29 3.06  34 3.06
  27  0.557  0.886  0.454-  24 2.91  22 2.91  17 2.92  18 2.92  26 2.93  25 2.93  11 2.94  20 2.95
                            21 2.95  35 2.96  29 3.03  30 3.03
  28  0.000  0.000  0.563-  25 2.95  19 2.95  26 2.95  34 3.00  32 3.00  33 3.00  30 3.00  31 3.00
                            29 3.00
  29  0.334  0.012  0.567-  30 2.82  31 2.84  36 2.85  35 2.99  20 2.99  28 3.00  27 3.03  26 3.06
                            34 3.16
  30  0.654  0.012  0.567-  29 2.82  32 2.84  36 2.85  35 2.99  21 2.99  28 3.00  27 3.03  25 3.06
                            33 3.16
  31  0.012  0.334  0.567-  33 2.82  29 2.84  36 2.85  35 2.99  20 2.99  28 3.00  22 3.03  19 3.06
                            32 3.16
  32  0.654  0.334  0.567-  34 2.82  30 2.84  36 2.85  35 2.99  21 2.99  28 3.00  24 3.03  19 3.06
                            31 3.16
  33  0.012  0.654  0.567-  31 2.82  34 2.84  36 2.85  35 2.99  23 2.99  28 3.00  22 3.03  25 3.06
                            30 3.16
  34  0.334  0.654  0.567-  32 2.82  33 2.84  36 2.85  35 2.99  23 2.99  28 3.00  24 3.03  26 3.06
                            29 3.16
  35  0.667  0.667  0.563-  24 2.96  27 2.96  22 2.96  29 2.99  34 2.99  32 2.99  31 2.99  30 2.99
                            33 2.99
  36  0.333  0.333  0.550-  37 1.76  20 2.74  23 2.74  21 2.74  33 2.85  31 2.85  29 2.85  30 2.85
                            34 2.85  32 2.85
  37  0.333  0.333  0.629-  36 1.76

  LATTYP: Found a hexagonal cell.
 ALAT       =     8.8135128021
 C/A-ratio  =     2.5184286595

  Lattice vectors:

 A1 = (  -4.4067569092,  -7.6327256898,   0.0000000000)
 A2 = (   8.8135128021,   0.0000000000,   0.0000000000)
 A3 = (   0.0000000000,   0.0000000000,  22.1962032318)

Analysis of symmetry for initial positions (statically):
 Subroutine PRICEL returns:
 Original cell was already a primitive cell.

 Routine SETGRP: Setting up the symmetry group for a
 hexagonal supercell.

 Subroutine GETGRP returns: Found  6 space group operations
 (whereof  6 operations were pure point group operations)
 out of a pool of 24 trial point group operations.

The static configuration has the point symmetry C_3v.

Analysis of symmetry for dynamics (positions and initial velocities):
 Subroutine PRICEL returns:
 Original cell was already a primitive cell.

[...]

The dynamic configuration has the point symmetry C_3v.

Analysis of constrained symmetry for selective dynamics:
 Subroutine PRICEL returns:
 Original cell was already a primitive cell.

 Routine SETGRP: Setting up the symmetry group for a
 hexagonal supercell.

 Subroutine GETGRP returns: Found  6 space group operations
[...]
     24      -5.1216      2.00000
     25      -5.0914      2.00000
     26      -5.0782      2.00000
     27      -5.0488      2.00000
     28      -4.9919      2.00000
     29      -4.9752      2.00000
     30      -4.9146      2.00000
     31      -4.9040      2.00000
     32      -4.8733      2.00000
     33      -4.7923      2.00000
     34      -4.7753      2.00000
     35      -4.7533      2.00000
     36      -4.7431      2.00000
     37      -4.7292      2.00000
     38      -4.6388      2.00000
     39      -4.5579      2.00000
     40      -4.5287      2.00000
     41      -4.4997      2.00000
     42      -4.4543      2.00000
     43      -4.4466      2.00000
     44      -4.4150      2.00000
     45      -4.3654      2.00000
     46      -4.3249      2.00000
     47      -4.2570      2.00000
     48      -4.2438      2.00000
     49      -4.2120      2.00000
     50      -4.1947      2.00000
     51      -4.1780      2.00000
     52      -4.1679      2.00000
     53      -4.1442      2.00000
     54      -4.1290      2.00000
     55      -4.1041      2.00000
     56      -4.0696      2.00000
     57      -4.0458      2.00000
     58      -4.0381      2.00000
     59      -4.0261      2.00000
     60      -3.9988      2.00000
[...]
    238       6.5038      0.00000
    239       6.5633      0.00000
    240       6.5866      0.00000
    241       6.7087      0.00000
    242       6.7680      0.00000
    243       6.8706      0.00000
    244       6.9049      0.00000
    245       7.0314      0.00000
    246       7.1918      0.00000
    247       7.2528      0.00000
    248       7.3298      0.00000
    249       7.6523      0.00000
    250       7.6671      0.00000
    251       7.7835      0.00000
    252       7.8803      0.00000

 soft charge-density along one line, spin component           1
         0         1         2         3         4         5         6         7         8         9
 total charge-density along one line

------------------------ aborting loop because EDIFF is reached ----------------------------------------

 total charge

# of ion       s       p       d       tot
    1        0.548   0.238   8.765   9.551
    2        0.542   0.241   8.765   9.548
    3        0.542   0.241   8.765   9.548
    4        0.542   0.241   8.765   9.548
    5        0.544   0.242   8.763   9.548
    6        0.542   0.241   8.765   9.548
    7        0.542   0.241   8.765   9.548
    8        0.542   0.241   8.765   9.548
    9        0.540   0.240   8.766   9.546
   10        0.522   0.306   8.771   9.600
   11        0.520   0.310   8.778   9.608
   12        0.522   0.306   8.771   9.600
   13        0.520   0.310   8.778   9.608
   14        0.520   0.310   8.778   9.608
   15        0.514   0.309   8.772   9.594
   16        0.522   0.306   8.771   9.600
   17        0.514   0.309   8.772   9.594
   18        0.514   0.309   8.772   9.594
   19        0.518   0.292   8.773   9.583
   20        0.568   0.342   8.740   9.650
   21        0.568   0.342   8.740   9.650
   22        0.511   0.305   8.773   9.589
   23        0.568   0.342   8.740   9.650
   24        0.511   0.305   8.773   9.589
   25        0.518   0.292   8.773   9.583
   26        0.518   0.292   8.773   9.583
   27        0.511   0.305   8.773   9.589
   28        0.540   0.225   8.756   9.521
   29        0.580   0.242   8.745   9.568
   30        0.580   0.242   8.745   9.568
   31        0.580   0.242   8.745   9.568
   32        0.580   0.242   8.745   9.568
   33        0.580   0.242   8.745   9.568
   34        0.580   0.242   8.745   9.568
   35        0.538   0.230   8.753   9.521
   36        0.709   0.856   3.415   4.979
   37        1.604   3.314   0.000   4.918
tot         21.212  13.839 310.099 345.150

  FORCE on cell =-STRESS in cart. coord.  units (eV):
  Direction    XX          YY          ZZ          XY          YZ          ZX
  Alpha Z  1018.46524  1018.46524  1018.46524
  Ewald  116538.84916116538.84957************    -0.00032    -0.00009    -0.00014
  Hartree125157.99304125157.99304************     0.00001    -0.00002    -0.00004
  E(xc)   -1779.02004 -1779.02004 -1789.08413     0.00000     0.00000     0.00001
  Local  ************************253967.00658     0.00194     0.00002     0.00002
  n-local   -94.72619   -50.01548   -42.89890    22.30804    -1.71811     1.42906
  augment  2371.24398  2371.24544  2391.38346    -0.00126     0.00002     0.00004
  Kinetic  5524.41804  5531.58864  5580.98813     4.51628     0.52158    -0.12595
  Fock        0.00000     0.00000     0.00000     0.00000     0.00000     0.00000
  Total     -18.93794   -18.93794     2.43736    -0.00000     0.00000     0.00000
  in kB     -20.32057   -20.32057     2.61531    -0.00000     0.00000     0.00000

 VOLUME and BASIS-vectors are now :
  energy-cutoff  :      500.00
  volume of cell :     1493.16
      direct lattice vectors                 reciprocal lattice vectors
     8.813512802  0.000000000  0.000000000     0.113462137 -0.065507406  0.000000000
     4.406756909  7.632725690  0.000000000     0.000000000  0.131014796  0.000000000
     0.000000000  0.000000000 22.196203232     0.000000000  0.000000000  0.045052750

  length of vectors
     8.813512802  8.813512802 22.196203232     0.131014796  0.131014796  0.045052750

 FORCES acting on ions
    electron-ion (+dipol)            ewald-force                    non-local-force                 convergence-correction
   -.194E-04 -.161E-04 0.246E+04   0.519E-04 0.433E-04 -.246E+04   0.123E-17 0.798E-18 -.572E+00   -.188E-03 -.121E-03 -.646E-01
   0.577E+00 0.148E+00 0.246E+04   -.566E+00 -.393E-01 -.246E+04   -.216E-01 0.506E-01 -.303E+00   0.958E-02 -.153E+00 -.121E+00
   -.577E+00 0.148E+00 0.246E+04   0.566E+00 -.393E-01 -.246E+04   0.216E-01 0.506E-01 -.303E+00   -.931E-02 -.151E+00 -.121E+00
   0.417E+00 0.426E+00 0.246E+04   -.317E+00 -.471E+00 -.246E+04   0.330E-01 -.440E-01 -.303E+00   -.127E+00 0.847E-01 -.121E+00
   0.902E-05 -.230E-04 0.247E+04   0.951E-04 0.174E-05 -.246E+04   0.325E-17 -.264E-18 -.204E+00   0.419E-02 0.258E-02 -.109E+00
   -.417E+00 0.426E+00 0.246E+04   0.317E+00 -.471E+00 -.246E+04   -.330E-01 -.440E-01 -.303E+00   0.126E+00 0.856E-01 -.121E+00
   -.161E+00 -.574E+00 0.246E+04   0.249E+00 0.510E+00 -.246E+04   0.546E-01 -.656E-02 -.303E+00   -.135E+00 0.674E-01 -.121E+00
   0.161E+00 -.574E+00 0.246E+04   -.249E+00 0.510E+00 -.246E+04   -.546E-01 -.656E-02 -.303E+00   0.137E+00 0.664E-01 -.121E+00
   0.195E-04 -.416E-04 0.247E+04   0.166E-03 -.200E-04 -.246E+04   -.183E-17 0.991E-18 -.475E+00   -.454E-02 -.238E-02 -.135E+00
   0.550E+01 0.318E+01 0.810E+03   -.512E+01 -.296E+01 -.809E+03   -.304E+00 -.176E+00 -.418E+00   -.115E+00 -.663E-01 0.787E-02
   0.140E-04 0.162E+01 0.814E+03   0.148E-03 -.150E+01 -.814E+03   0.123E-08 0.184E-01 -.265E+00   0.374E-02 -.214E+00 0.913E-01
   -.550E+01 0.318E+01 0.810E+03   0.512E+01 -.296E+01 -.809E+03   0.304E+00 -.176E+00 -.418E+00   0.114E+00 -.658E-01 0.633E-02
   0.140E+01 -.810E+00 0.814E+03   -.130E+01 0.751E+00 -.814E+03   0.160E-01 -.922E-02 -.265E+00   -.183E+00 0.110E+00 0.915E-01
   -.140E+01 -.810E+00 0.814E+03   0.130E+01 0.751E+00 -.814E+03   -.160E-01 -.922E-02 -.265E+00   0.190E+00 0.110E+00 0.897E-01
   0.313E-04 0.500E+01 0.815E+03   0.235E-03 -.518E+01 -.814E+03   0.523E-09 0.785E-02 -.325E+00   -.166E-02 0.113E+00 0.829E-01
   -.208E-04 -.635E+01 0.810E+03   0.162E-03 0.592E+01 -.809E+03   0.234E-07 0.351E+00 -.418E+00   -.239E-03 0.132E+00 0.677E-02
   0.433E+01 -.250E+01 0.815E+03   -.449E+01 0.259E+01 -.814E+03   0.680E-02 -.392E-02 -.325E+00   0.972E-01 -.578E-01 0.823E-01
   -.433E+01 -.250E+01 0.815E+03   0.449E+01 0.259E+01 -.814E+03   -.680E-02 -.392E-02 -.325E+00   -.968E-01 -.563E-01 0.830E-01
   -.434E-04 -.113E+01 -.868E+03   0.553E-04 0.909E+00 0.867E+03   0.250E-08 0.375E-01 0.700E+00   0.508E-02 0.119E+00 0.140E+00
   -.613E+01 -.354E+01 -.841E+03   0.689E+01 0.398E+01 0.841E+03   -.104E+01 -.603E+00 -.866E+00   -.301E-01 -.168E-01 0.256E+00
   0.613E+01 -.354E+01 -.841E+03   -.689E+01 0.398E+01 0.841E+03   0.104E+01 -.603E+00 -.866E+00   0.227E-01 -.170E-01 0.255E+00
   -.119E+02 0.685E+01 -.848E+03   0.116E+02 -.668E+01 0.847E+03   0.478E+00 -.276E+00 0.779E+00   -.106E+00 0.601E-01 0.850E-01
   -.976E-05 0.708E+01 -.841E+03   0.138E-03 -.795E+01 0.841E+03   0.802E-07 0.121E+01 -.866E+00   -.378E-02 0.287E-01 0.255E+00
   0.119E+02 0.685E+01 -.848E+03   -.116E+02 -.668E+01 0.847E+03   -.478E+00 -.276E+00 0.779E+00   0.107E+00 0.612E-01 0.845E-01
   0.977E+00 0.564E+00 -.868E+03   -.787E+00 -.454E+00 0.867E+03   -.325E-01 -.188E-01 0.700E+00   -.982E-01 -.575E-01 0.139E+00
   -.977E+00 0.564E+00 -.868E+03   0.787E+00 -.454E+00 0.867E+03   0.325E-01 -.188E-01 0.700E+00   0.988E-01 -.555E-01 0.140E+00
   0.108E-04 -.137E+02 -.848E+03   0.197E-03 0.134E+02 0.847E+03   0.368E-07 0.552E+00 0.779E+00   -.276E-03 -.122E+00 0.850E-01
   -.128E-04 -.121E-04 -.241E+04   0.293E-04 0.327E-04 0.241E+04   0.565E-18 0.112E-18 0.392E+00   0.152E-02 0.655E-03 0.192E+00
   0.255E+02 0.340E+02 -.242E+04   -.246E+02 -.329E+02 0.242E+04   -.117E+01 -.160E+01 0.397E+00   0.351E-01 0.328E-01 0.930E-01
   -.255E+02 0.340E+02 -.242E+04   0.246E+02 -.329E+02 0.242E+04   0.117E+01 -.160E+01 0.397E+00   -.415E-01 0.339E-01 0.935E-01
   0.422E+02 0.506E+01 -.242E+04   -.407E+02 -.484E+01 0.242E+04   -.197E+01 -.213E+00 0.397E+00   0.458E-01 0.141E-01 0.925E-01
   -.422E+02 0.506E+01 -.242E+04   0.407E+02 -.484E+01 0.242E+04   0.197E+01 -.213E+00 0.397E+00   -.527E-01 0.152E-01 0.940E-01
   0.167E+02 -.391E+02 -.242E+04   -.162E+02 0.377E+02 0.242E+04   -.802E+00 0.181E+01 0.397E+00   0.871E-02 -.530E-01 0.932E-01
   -.167E+02 -.391E+02 -.242E+04   0.162E+02 0.377E+02 0.242E+04   0.802E+00 0.181E+01 0.397E+00   -.135E-01 -.532E-01 0.940E-01
   0.341E-04 -.302E-04 -.242E+04   0.140E-03 -.487E-04 0.242E+04   0.123E-16 -.216E-18 0.395E+00   -.302E-02 -.173E-02 0.597E-01
   -.419E-05 0.309E-05 -.913E+03   0.528E-04 0.493E-05 0.917E+03   -.284E-17 -.889E-18 -.111E+01   0.642E-03 0.453E-03 0.756E-01
   0.181E-03 -.975E-04 -.155E+04   0.264E-04 0.169E-05 0.158E+04   -.634E-19 -.802E-19 -.297E+02   0.364E-02 0.225E-02 -.153E+00
   -.624E-03 -.871E-03 0.304E+02   -.505E-13 0.246E-12 -.409E-11   0.231E-15 0.443E-15 -.319E+02   -.114E-01 -.314E-02 0.168E+01

 POSITION                                       TOTAL-FORCE (eV/Angst)
      0.00000      0.00000      5.28038        -0.000000      0.000000     -0.130731
      2.93784      0.00000      5.28038        -0.000589      0.007177     -0.054462
      5.87568      0.00000      5.28038         0.000589      0.007177     -0.054462
      1.46892      2.54424      5.28038         0.005921     -0.004099     -0.054462
      4.40676      2.54424      5.28038        -0.000000      0.000000     -0.070749
      7.34459      2.54424      5.28038        -0.005921     -0.004099     -0.054462
      2.93784      5.08848      5.28038         0.006510     -0.003078     -0.054462
      5.87568      5.08848      5.28038        -0.006510     -0.003078     -0.054462
      8.81351      5.08848      5.28038        -0.000000      0.000000     -0.051936
      1.46892      0.84808      7.67911        -0.044059     -0.025438      0.090542
      4.40676      0.84808      7.67911        -0.000000     -0.080381      0.025588
      7.34459      0.84808      7.67911         0.044059     -0.025438      0.090542
      2.93784      3.39232      7.67911        -0.069612      0.040191      0.025588
      5.87568      3.39232      7.67911         0.069612      0.040191      0.025588
      8.81351      3.39232      7.67911        -0.000000     -0.058096      0.145159
      4.40676      5.93656      7.67911         0.000000      0.050875      0.090542
      7.34459      5.93656      7.67911        -0.050313      0.029048      0.145159
     10.28243      5.93656      7.67911         0.050313      0.029048      0.145159
      8.81351      1.70341     10.09804        -0.000000     -0.066438     -0.024140
      2.93277      1.69323     10.04724        -0.311050     -0.179585     -0.338789
      5.88075      1.69323     10.04724         0.311050     -0.179585     -0.338789
     10.26617      4.24979     10.06844         0.068451     -0.039520      0.039003
      4.40676      4.24626     10.04724         0.000000      0.359169     -0.338789
      7.36086      4.24979     10.06844        -0.068451     -0.039520      0.039003
     11.74508      6.78102     10.09804         0.057537      0.033219     -0.024140
      5.88195      6.78102     10.09804        -0.057537      0.033219     -0.024140
      8.81351      6.76586     10.06844         0.000000      0.079041      0.039003
      0.00000      0.00000     12.50054        -0.000000      0.000000     -0.040105
      2.99863      0.09131     12.57640        -0.211220     -0.406300     -0.314232
      5.81488      0.09131     12.57640         0.211220     -0.406300     -0.314232
      1.57839      2.55123     12.57640        -0.457477      0.020228     -0.314232
      7.23512      2.55123     12.57640         0.457477      0.020228     -0.314232
      2.98652      4.99018     12.57640        -0.246256      0.386072     -0.314232
      5.82700      4.99018     12.57640         0.246256      0.386072     -0.314232
      8.81351      5.08848     12.50707        -0.000000     -0.000000      0.049067
      4.40676      2.54424     12.20058        -0.000000      0.000000      2.642931
      4.40676      2.54424     13.96342        -0.000000     -0.000000      0.001595
    total drift:                               -0.012064     -0.004011      0.167831

  FREE ENERGIE OF THE ION-ELECTRON SYSTEM (eV)
  free  energy   TOTEN  =      -125.86031252 eV

  energy  without entropy=     -125.86031252  energy(sigma->0) =     -125.86031252

 stress matrix after NEB project (eV)
    -18.93794     -0.00000      0.00000
     -0.00000    -18.93794      0.00000
      0.00000      0.00000      2.43736
  FORCES: max atom, RMS     0.001595    0.000262
  FORCE total and by dimension    0.001595    0.001595
  Stress total and by dimension   26.892966   18.937937
|           W    W    AA    RRRRR   N    N  II  N    N   GGGG   !!!           |
|           W    W   A  A   R    R  NN   N  II  NN   N  G    G  !!!           |
|           W    W  A    A  R    R  N N  N  II  N N  N  G       !!!           |
|           W WW W  AAAAAA  RRRRR   N  N N  II  N  N N  G  GGG   !            |
|           WW  WW  A    A  R   R   N   NN  II  N   NN  G    G                |
|           W    W  A    A  R    R  N    N  II  N    N   GGGG   !!!           |
|     Tetrahedron method does not include variations of the Fermi             |
|     occupations, so forces and stress will be inaccurate. We suggest        |
|     using a different smearing scheme ISMEAR = 1 or 2 for metals in         |
|     relaxations.                                                            |

 total charge

# of ion       s       p       d       tot
    1        0.548   0.238   8.765   9.551
    2        0.542   0.241   8.765   9.548
    3        0.542   0.241   8.765   9.548
    4        0.542   0.241   8.765   9.548
    5        0.544   0.242   8.763   9.548
    6        0.542   0.241   8.765   9.548
    7        0.542   0.241   8.765   9.548
    8        0.542   0.241   8.765   9.548
    9        0.540   0.240   8.766   9.546
   10        0.522   0.306   8.771   9.600
   11        0.520   0.310   8.778   9.608
   12        0.522   0.306   8.771   9.600
   13        0.520   0.310   8.778   9.608
   14        0.520   0.310   8.778   9.608
   15        0.514   0.309   8.772   9.594
   16        0.522   0.306   8.771   9.600
   17        0.514   0.309   8.772   9.594
   18        0.514   0.309   8.772   9.594
   19        0.518   0.292   8.773   9.583
   20        0.568   0.342   8.740   9.650
   21        0.568   0.342   8.740   9.650
   22        0.511   0.305   8.773   9.589
   23        0.568   0.342   8.740   9.650
   24        0.511   0.305   8.773   9.589
   25        0.518   0.292   8.773   9.583
   26        0.518   0.292   8.773   9.583
   27        0.511   0.305   8.773   9.589
   28        0.540   0.225   8.756   9.521
   29        0.580   0.242   8.745   9.568
   30        0.580   0.242   8.745   9.568
   31        0.580   0.242   8.745   9.568
   32        0.580   0.242   8.745   9.568
   33        0.580   0.242   8.745   9.568
   34        0.580   0.242   8.745   9.568
   35        0.538   0.230   8.753   9.521
   36        0.709   0.856   3.415   4.979
   37        1.604   3.314   0.000   4.918
tot         21.212  13.839 310.099 345.150

 BZINTS: Fermi energy:    0.669406;  396.000000 electrons
         Band energy:-0.125753E+04;  BLOECHL correction:   -0.059944