 vasp.6.2.0 18Jan21 (build Jun 12 2021 23:27:24) complex

 executed on             LinuxIFC date 2022.05.26  19:53:28

 INCAR:
   ISMEAR = -5
   SIGMA = 0.1
   ISPIN = 1
   EDIFF = 1.d-5
   EDIFFG = -0.01
   NSW = 0
   NELM = 150
   ENCUT = 500
   ISIF = 2
   IBRION = 2
   LREAL = Auto
   ALGO = Fast
   ICHARG = 11
   LORBIT = 10
   LCHARG = .F.
   LWAVE = .F.

 POTCAR:    PAW_PBE Ag 02Apr2005
 POTCAR:    PAW_PBE Re 17Jan2003
 POTCAR:    PAW_PBE O 08Apr2002
|           W    W    AA    RRRRR   N    N  II  N    N   GGGG   !!!           |
|           W    W   A  A   R    R  NN   N  II  NN   N  G    G  !!!           |
|           W    W  A    A  R    R  N N  N  II  N N  N  G       !!!           |
|           W WW W  AAAAAA  RRRRR   N  N N  II  N  N N  G  GGG   !            |
|           WW  WW  A    A  R   R   N   NN  II  N   NN  G    G                |
|           W    W  A    A  R    R  N    N  II  N    N   GGGG   !!!           |
|     For optimal performance we recommend to set                             |
|       NCORE = 2 up to number-of-cores-per-socket                            |
|     This setting can greatly improve the performance of VASP for DFT.       |
|     The default, NCORE=1 might be grossly inefficient on modern             |
|     multi-core architectures or massively parallel machines. Do your        |
|     Unfortunately you need to use the default for GW and RPA                |
|     calculations (for HF NCORE is supported but not extensively tested      |
|     yet).                                                                   |

 POTCAR:    PAW_PBE Ag 02Apr2005
   VRHFIN =Ag : s1 d10

   TITEL  = PAW_PBE Ag 02Apr2005
   POMASS =  107.868; ZVAL   =   11.000    mass and valenz
   ENMAX  =  249.844; ENMIN  =  187.383 eV

 POTCAR:    PAW_PBE Re 17Jan2003
   VRHFIN =Re: 5p6s5d

   TITEL  = PAW_PBE Re 17Jan2003
   POMASS =  186.207; ZVAL   =    7.000    mass and valenz
   ENMAX  =  226.216; ENMIN  =  169.662 eV

 POTCAR:    PAW_PBE O 08Apr2002
   VRHFIN =O: s2p4

   TITEL  = PAW_PBE O 08Apr2002
   POMASS =   16.000; ZVAL   =    6.000    mass and valenz
   ENMAX  =  400.000; ENMIN  =  300.000 eV

 Optimization of the real space projectors (new method)

 maximal supplied QI-value         = 15.12
 optimisation between [QCUT,QGAM] = [ 11.34, 22.83] = [ 36.00,145.93] Ry
 Optimized for a Real-space Cutoff    1.43 Angstroem

   l    n(q)    QCUT    max X(q) W(low)/X(q) W(high)/X(q)  e(spline)
   2      9    11.338    53.897    0.16E-03    0.20E-03    0.28E-06
   2      9    11.338    52.416    0.16E-03    0.20E-03    0.29E-06
   0     10    11.338   122.045    0.31E-04    0.76E-04    0.15E-06
   0     10    11.338    73.629    0.30E-04    0.72E-04    0.15E-06
   1      9    11.338    15.255    0.20E-03    0.19E-04    0.17E-06
   1      9    11.338     9.562    0.16E-03    0.15E-04    0.14E-06
 Optimization of the real space projectors (new method)

[...]

   l    n(q)    QCUT    max X(q) W(low)/X(q) W(high)/X(q)  e(spline)
   2     10    11.327   884.633    0.22E-03    0.51E-03    0.88E-06
   2     10    11.327   796.723    0.22E-03    0.51E-03    0.88E-06
   0     11    11.327    65.348    0.44E-04    0.11E-03    0.75E-06
   0     11    11.327    39.642    0.40E-04    0.10E-03    0.69E-06
   1     10    11.327    13.988    0.15E-03    0.10E-03    0.19E-06
   1     10    11.327     8.682    0.11E-03    0.76E-04    0.14E-06
 Optimization of the real space projectors (new method)

 maximal supplied QI-value         = 24.76
 optimisation between [QCUT,QGAM] = [ 11.39, 22.77] = [ 36.31,145.25] Ry
 Optimized for a Real-space Cutoff    1.00 Angstroem

   l    n(q)    QCUT    max X(q) W(low)/X(q) W(high)/X(q)  e(spline)
   0      7    11.387    20.381    0.39E-03    0.13E-02    0.15E-06
   0      7    11.387    15.268    0.42E-03    0.14E-02    0.17E-06
   1      6    11.387     5.964    0.41E-03    0.11E-02    0.17E-06
   1      6    11.387     5.382    0.39E-03    0.87E-03    0.15E-06
  PAW_PBE Ag 02Apr2005                  :
  PAW_PBE Re 17Jan2003                  :
  PAW_PBE O 08Apr2002                   :

 POSCAR: Ag-Re-O
  positions in direct lattice
  velocities in cartesian coordinates
 exchange correlation table for  LEXCH =        8
   RHO(1)=    0.500       N(1)  =     2000
   RHO(2)=  100.500       N(2)  =     4000

 VTST: version 3.2, (02/03/18)

 CHAIN: initializing optimizer

 OPT: Using VASP Conjugate-Gradient optimizer
 CHAIN: Read ICHAIN            0

 POSCAR: Ag-Re-O
  positions in direct lattice
  velocities in cartesian coordinates

 ion  position               nearest neighbor table
   1  0.000  0.000  0.238-   2 2.93   8 2.93   7 2.93   6 2.93   4 2.93  12 2.93  16 2.93  10 2.93
                             3 2.93
   2  0.333  0.000  0.238-   1 2.93   8 2.93   9 2.93   3 2.93   4 2.93   5 2.93  10 2.93  17 2.93
                            11 2.93
   3  0.667  0.000  0.238-   9 2.93   2 2.93   5 2.93  11 2.93   7 2.93  18 2.93   1 2.93   6 2.93
                            12 2.93
   4  0.000  0.333  0.238-   5 2.93   6 2.93   2 2.93   1 2.93   7 2.93  13 2.93  15 2.93   9 2.93
                            10 2.93
   5  0.333  0.333  0.238-   4 2.93   3 2.93   7 2.93   2 2.93   8 2.93  14 2.93  13 2.93  11 2.93
                             6 2.93
   6  0.667  0.333  0.238-   4 2.93   9 2.93   1 2.93  15 2.93   8 2.93  12 2.93   3 2.93   5 2.93
                            14 2.93
   7  0.000  0.667  0.238-   8 2.93   1 2.93   5 2.93   3 2.93   4 2.93  16 2.93  18 2.93  13 2.93
                             9 2.93
   8  0.333  0.667  0.238-   7 2.93   1 2.93   2 2.93   9 2.93   5 2.93  16 2.93   6 2.93  17 2.93
                            14 2.93
   9  0.667  0.667  0.238-   3 2.93   2 2.93   8 2.93   6 2.93  17 2.93   4 2.93  15 2.93   7 2.93
                            18 2.93
  10  0.111  0.111  0.346-  20 2.89  12 2.93  16 2.93  15 2.93  17 2.93  13 2.93  11 2.93   2 2.93
                             1 2.93   4 2.93  19 2.93  26 2.93
  11  0.444  0.111  0.346-  21 2.89  20 2.89  27 2.93  14 2.93  17 2.93  18 2.93   3 2.93  12 2.93
                            13 2.93  10 2.93   5 2.93   2 2.93
  12  0.778  0.111  0.346-  21 2.89  10 2.93  16 2.93  18 2.93  15 2.93  11 2.93   1 2.93  14 2.93
                             6 2.93   3 2.93  25 2.93  19 2.93
  13  0.111  0.444  0.346-  20 2.89  23 2.89  22 2.93  15 2.93  14 2.93  18 2.93  10 2.93  11 2.93
                            16 2.93   4 2.93   5 2.93   7 2.93
  14  0.444  0.444  0.346-  23 2.89  21 2.89  24 2.93  13 2.93  11 2.93  16 2.93   5 2.93  12 2.93
                            17 2.93   8 2.93  15 2.93   6 2.93
  15  0.778  0.444  0.346-  24 2.92  22 2.92  19 2.93  13 2.93  10 2.93  12 2.93  17 2.93  18 2.93
                             4 2.93   6 2.93   9 2.93  14 2.93
  16  0.111  0.778  0.346-  23 2.89  18 2.93  12 2.93  10 2.93  14 2.93  17 2.93  13 2.93   7 2.93
                             8 2.93   1 2.93  26 2.93  25 2.93
  17  0.444  0.778  0.346-  27 2.92  24 2.92  26 2.93  11 2.93  10 2.93   9 2.93  18 2.93  15 2.93
                            16 2.93   2 2.93  14 2.93   8 2.93
  18  0.778  0.778  0.346-  22 2.92  27 2.92  25 2.93  16 2.93  12 2.93  13 2.93  11 2.93  17 2.93
                            15 2.93   7 2.93   3 2.93   9 2.93
  19  0.889  0.223  0.454-  28 2.91  24 2.93  22 2.93  15 2.93  20 2.93  21 2.93  10 2.93  12 2.93
                            26 2.94  25 2.94  32 2.97  31 2.97
  20  0.222  0.222  0.452-  36 2.76  10 2.89  13 2.89  11 2.89  19 2.93  26 2.93  21 2.93  23 2.93
                            27 2.94  22 2.94  31 2.94  29 2.94
  21  0.556  0.222  0.452-  36 2.76  12 2.89  11 2.89  14 2.89  25 2.93  19 2.93  20 2.93  23 2.93
                            27 2.94  24 2.94  30 2.94  32 2.94
  22  0.888  0.556  0.453-  35 2.91  24 2.92  27 2.92  18 2.92  15 2.92  13 2.93  25 2.93  19 2.93
                            23 2.94  20 2.94  33 2.95  31 2.95
  23  0.222  0.556  0.452-  36 2.76  16 2.89  14 2.89  13 2.89  26 2.93  25 2.93  21 2.93  20 2.93
                            22 2.94  24 2.94  34 2.94  33 2.94
  24  0.556  0.556  0.453-  35 2.91  27 2.92  22 2.92  15 2.92  17 2.92  14 2.93  19 2.93  26 2.93
                            23 2.94  21 2.94  32 2.95  34 2.95
  25  0.889  0.889  0.454-  28 2.91  22 2.93  27 2.93  18 2.93  23 2.93  21 2.93  16 2.93  12 2.93
                            26 2.94  19 2.94  33 2.97  30 2.97
  26  0.223  0.889  0.454-  28 2.91  27 2.93  24 2.93  17 2.93  23 2.93  20 2.93  16 2.93  10 2.93
                            25 2.94  19 2.94  34 2.97  29 2.97
  27  0.556  0.888  0.453-  35 2.91  24 2.92  22 2.92  17 2.92  18 2.92  11 2.93  26 2.93  25 2.93
                            20 2.94  21 2.94  29 2.95  30 2.95
  28  0.000  0.000  0.560-  26 2.91  25 2.91  19 2.91  29 2.96  34 2.96  33 2.96  32 2.96  31 2.96
                            30 2.96
  29  0.333  0.008  0.562-  31 2.86  30 2.87  36 2.88  20 2.94  27 2.95  28 2.96  26 2.97  35 2.97
                            34 3.06
  30  0.659  0.008  0.562-  32 2.86  29 2.87  36 2.88  21 2.94  27 2.95  28 2.96  25 2.97  35 2.97
                            33 3.06
  31  0.008  0.333  0.562-  29 2.86  33 2.87  36 2.88  20 2.94  22 2.95  28 2.96  19 2.97  35 2.97
                            32 3.06
  32  0.659  0.333  0.562-  30 2.86  34 2.87  36 2.88  21 2.94  24 2.95  28 2.96  19 2.97  35 2.97
                            31 3.06
  33  0.008  0.659  0.562-  34 2.86  31 2.87  36 2.88  23 2.94  22 2.95  28 2.96  25 2.97  35 2.97
                            30 3.06
  34  0.333  0.659  0.562-  33 2.86  32 2.87  36 2.88  23 2.94  24 2.95  28 2.96  26 2.97  35 2.97
                            29 3.06
  35  0.667  0.667  0.560-  24 2.91  27 2.91  22 2.91  30 2.97  32 2.97  29 2.97  34 2.97  31 2.97
                            33 2.97
  36  0.333  0.333  0.550-  37 1.72  21 2.76  20 2.76  23 2.76  31 2.88  30 2.88  33 2.88  29 2.88
                            34 2.88  32 2.88
  37  0.333  0.333  0.628-  36 1.72

  LATTYP: Found a hexagonal cell.
 ALAT       =     8.7913665772
 C/A-ratio  =     2.5227160501

  Lattice vectors:

 A1 = (  -4.3956832886,  -7.6135467898,   0.0000000000)
 A2 = (   8.7913665771,   0.0000000000,   0.0000000000)
 A3 = (   0.0000000000,   0.0000000000,  22.1781215668)

Analysis of symmetry for initial positions (statically):
 Subroutine PRICEL returns:
 Original cell was already a primitive cell.

 Routine SETGRP: Setting up the symmetry group for a
 hexagonal supercell.

 Subroutine GETGRP returns: Found  6 space group operations
 (whereof  6 operations were pure point group operations)
 out of a pool of 24 trial point group operations.

The static configuration has the point symmetry C_3v.

Analysis of symmetry for dynamics (positions and initial velocities):
 Subroutine PRICEL returns:
 Original cell was already a primitive cell.

[...]

The dynamic configuration has the point symmetry C_3v.

Analysis of constrained symmetry for selective dynamics:
 Subroutine PRICEL returns:
 Original cell was already a primitive cell.

 Routine SETGRP: Setting up the symmetry group for a
 hexagonal supercell.

 Subroutine GETGRP returns: Found  6 space group operations
[...]
     24      -4.6904      2.00000
     25      -4.6812      2.00000
     26      -4.6516      2.00000
     27      -4.6224      2.00000
     28      -4.6198      2.00000
     29      -4.5871      2.00000
     30      -4.5720      2.00000
     31      -4.5699      2.00000
     32      -4.5569      2.00000
     33      -4.5337      2.00000
     34      -4.5281      2.00000
     35      -4.5177      2.00000
     36      -4.4785      2.00000
     37      -4.4523      2.00000
     38      -4.4208      2.00000
     39      -4.4085      2.00000
     40      -4.3990      2.00000
     41      -4.3503      2.00000
     42      -4.3362      2.00000
     43      -4.3157      2.00000
     44      -4.3056      2.00000
     45      -4.2641      2.00000
     46      -4.2215      2.00000
     47      -4.2004      2.00000
     48      -4.1856      2.00000
     49      -4.1837      2.00000
     50      -4.1656      2.00000
     51      -4.1624      2.00000
     52      -4.1533      2.00000
     53      -4.1453      2.00000
     54      -4.1362      2.00000
     55      -4.1165      2.00000
     56      -4.0987      2.00000
     57      -4.0582      2.00000
     58      -4.0501      2.00000
     59      -4.0251      2.00000
     60      -4.0222      2.00000
[...]
    238       6.2898      0.00000
    239       6.3767      0.00000
    240       6.4033      0.00000
    241       7.1788      0.00000
    242       7.2394      0.00000
    243       7.2843      0.00000
    244       7.2907      0.00000
    245       7.3415      0.00000
    246       7.3597      0.00000
    247       7.4351      0.00000
    248       7.5619      0.00000
    249       7.6070      0.00000
    250       7.6331      0.00000
    251       7.6782      0.00000
    252       7.7843      0.00000

 soft charge-density along one line, spin component           1
         0         1         2         3         4         5         6         7         8         9
 total charge-density along one line

------------------------ aborting loop because EDIFF is reached ----------------------------------------

 total charge

# of ion       s       p       d       tot
    1        0.421   0.199   9.179   9.798
    2        0.415   0.204   9.177   9.796
    3        0.415   0.204   9.177   9.796
    4        0.415   0.204   9.177   9.796
    5        0.422   0.202   9.176   9.800
    6        0.415   0.204   9.177   9.796
    7        0.415   0.204   9.177   9.796
    8        0.415   0.204   9.177   9.796
    9        0.412   0.204   9.177   9.794
   10        0.410   0.267   9.164   9.841
   11        0.404   0.273   9.167   9.843
   12        0.410   0.267   9.164   9.841
   13        0.404   0.273   9.167   9.843
   14        0.404   0.273   9.167   9.843
   15        0.403   0.269   9.165   9.837
   16        0.410   0.267   9.164   9.841
   17        0.403   0.269   9.165   9.837
   18        0.403   0.269   9.165   9.837
   19        0.405   0.263   9.168   9.835
   20        0.443   0.309   9.135   9.887
   21        0.443   0.309   9.135   9.887
   22        0.392   0.275   9.166   9.833
   23        0.443   0.309   9.135   9.887
   24        0.392   0.275   9.166   9.833
   25        0.405   0.263   9.168   9.835
   26        0.405   0.263   9.168   9.835
   27        0.392   0.275   9.166   9.833
   28        0.417   0.195   9.179   9.791
   29        0.411   0.221   9.174   9.806
   30        0.411   0.221   9.174   9.806
   31        0.411   0.221   9.174   9.806
   32        0.411   0.221   9.174   9.806
   33        0.411   0.221   9.174   9.806
   34        0.411   0.221   9.174   9.806
   35        0.410   0.197   9.180   9.788
   36        0.618   0.547   4.817   5.982
   37        1.608   3.299   0.000   4.907
tot         16.634  12.360 325.708 354.702

  FORCE on cell =-STRESS in cart. coord.  units (eV):
  Direction    XX          YY          ZZ          XY          YZ          ZX
  Alpha Z   768.08786   768.08786   768.08786
  Ewald  120182.23596120182.23598************     0.00003    -0.00000     0.00003
  Hartree130416.07330130416.07331************     0.00001    -0.00000     0.00001
  E(xc)   -2091.10320 -2091.10320 -2096.06046    -0.00000     0.00000     0.00000
  Local  ************************261883.86454     0.00042    -0.00005    -0.00015
  n-local  -370.78403  -351.72603  -356.10950    11.69910    -0.31321     0.45812
  augment  3235.63986  3235.64004  3242.15799    -0.00015    -0.00002    -0.00004
  Kinetic  5000.83866  5003.52077  4994.33675     4.47440     0.85513    -0.36208
  Fock        0.00000     0.00000     0.00000     0.00000     0.00000     0.00000
  Total      -6.11869    -6.11869    -0.03122    -0.00000     0.00000    -0.00000
  in kB      -6.60391    -6.60391    -0.03369    -0.00000     0.00000    -0.00000

 VOLUME and BASIS-vectors are now :
  energy-cutoff  :      500.00
  volume of cell :     1484.46
      direct lattice vectors                 reciprocal lattice vectors
     8.791366577  0.000000000  0.000000000     0.113747958 -0.065672414  0.000000000
     4.395683289  7.613546790  0.000000000     0.000000000  0.131344829  0.000000000
     0.000000000  0.000000000 22.178121567     0.000000000  0.000000000  0.045089481

  length of vectors
     8.791366577  8.791366577 22.178121567     0.131344829  0.131344829  0.045089481

 FORCES acting on ions
    electron-ion (+dipol)            ewald-force                    non-local-force                 convergence-correction
   0.460E-04 -.282E-04 0.250E+04   -.954E-04 0.593E-04 -.250E+04   0.400E-17 0.705E-18 -.194E+01   -.274E-04 -.123E-03 0.456E-01
   0.460E+00 0.404E+00 0.250E+04   -.431E+00 -.494E+00 -.250E+04   0.148E-01 0.161E+00 -.162E+01   -.358E-01 -.635E-01 0.235E-01
   -.460E+00 0.404E+00 0.250E+04   0.432E+00 -.494E+00 -.250E+04   -.148E-01 0.161E+00 -.162E+01   0.352E-01 -.616E-01 0.241E-01
   0.580E+00 0.196E+00 0.250E+04   -.644E+00 -.126E+00 -.250E+04   0.147E+00 -.676E-01 -.162E+01   -.727E-01 0.878E-03 0.236E-01
   -.572E-05 -.189E-04 0.251E+04   0.980E-04 -.197E-05 -.250E+04   0.384E-17 -.800E-18 -.143E+01   0.615E-02 0.376E-02 0.579E-01
   -.580E+00 0.197E+00 0.250E+04   0.644E+00 -.126E+00 -.250E+04   -.147E+00 -.676E-01 -.162E+01   0.714E-01 0.184E-02 0.242E-01
   0.120E+00 -.601E+00 0.250E+04   -.213E+00 0.621E+00 -.250E+04   0.132E+00 -.933E-01 -.162E+01   -.353E-01 0.618E-01 0.241E-01
   -.120E+00 -.601E+00 0.250E+04   0.212E+00 0.621E+00 -.250E+04   -.132E+00 -.933E-01 -.162E+01   0.369E-01 0.609E-01 0.242E-01
   0.359E-04 -.132E-04 0.250E+04   0.792E-04 -.643E-04 -.250E+04   0.275E-17 -.890E-19 -.176E+01   -.665E-02 -.343E-02 0.123E-01
   0.581E+01 0.335E+01 0.846E+03   -.528E+01 -.305E+01 -.845E+03   -.470E+00 -.271E+00 -.681E+00   -.769E-01 -.444E-01 0.142E+00
   -.284E-04 0.498E+01 0.851E+03   0.408E-04 -.509E+01 -.851E+03   0.983E-12 0.150E+00 -.329E+00   0.582E-02 -.885E-01 0.153E+00
   -.581E+01 0.335E+01 0.846E+03   0.528E+01 -.305E+01 -.845E+03   0.470E+00 -.271E+00 -.681E+00   0.760E-01 -.438E-01 0.141E+00
   0.431E+01 -.249E+01 0.851E+03   -.441E+01 0.254E+01 -.851E+03   0.130E+00 -.748E-01 -.329E+00   -.738E-01 0.493E-01 0.153E+00
   -.431E+01 -.249E+01 0.851E+03   0.441E+01 0.254E+01 -.851E+03   -.130E+00 -.748E-01 -.329E+00   0.840E-01 0.487E-01 0.151E+00
   0.158E-04 0.114E+01 0.846E+03   -.108E-03 -.124E+01 -.845E+03   0.241E-12 0.367E-01 -.681E+00   -.108E-02 0.340E-01 0.132E+00
   -.807E-05 -.671E+01 0.846E+03   0.205E-04 0.610E+01 -.845E+03   0.357E-11 0.543E+00 -.681E+00   0.546E-05 0.877E-01 0.141E+00
   0.983E+00 -.568E+00 0.846E+03   -.107E+01 0.618E+00 -.845E+03   0.318E-01 -.184E-01 -.681E+00   0.289E-01 -.180E-01 0.132E+00
   -.983E+00 -.568E+00 0.846E+03   0.107E+01 0.618E+00 -.845E+03   -.318E-01 -.184E-01 -.681E+00   -.290E-01 -.168E-01 0.132E+00
   0.388E-04 0.154E+00 -.844E+03   -.128E-03 -.465E-01 0.843E+03   -.301E-12 -.458E-01 0.696E+00   0.687E-02 -.588E-01 0.217E+00
   0.486E+01 0.280E+01 -.812E+03   -.356E+01 -.206E+01 0.812E+03   -.131E+01 -.758E+00 -.100E+01   -.942E-01 -.544E-01 0.290E+00
   -.486E+01 0.280E+01 -.812E+03   0.356E+01 -.206E+01 0.812E+03   0.131E+01 -.758E+00 -.100E+01   0.820E-01 -.543E-01 0.290E+00
   -.895E+00 0.517E+00 -.833E+03   0.656E+00 -.379E+00 0.832E+03   0.362E+00 -.209E+00 0.680E+00   -.680E-01 0.378E-01 0.202E+00
   -.529E-04 -.561E+01 -.812E+03   0.417E-04 0.411E+01 0.812E+03   0.996E-11 0.152E+01 -.100E+01   -.568E-02 0.988E-01 0.290E+00
   0.895E+00 0.517E+00 -.833E+03   -.657E+00 -.379E+00 0.832E+03   -.362E+00 -.209E+00 0.680E+00   0.694E-01 0.402E-01 0.203E+00
   -.133E+00 -.771E-01 -.844E+03   0.402E-01 0.234E-01 0.843E+03   0.397E-01 0.229E-01 0.696E+00   0.589E-01 0.338E-01 0.217E+00
   0.134E+00 -.771E-01 -.844E+03   -.403E-01 0.233E-01 0.843E+03   -.397E-01 0.229E-01 0.696E+00   -.478E-01 0.352E-01 0.217E+00
   0.204E-04 -.103E+01 -.833E+03   0.110E-03 0.758E+00 0.832E+03   0.275E-11 0.418E+00 0.680E+00   -.189E-02 -.778E-01 0.202E+00
   0.536E-04 -.362E-04 -.247E+04   -.115E-03 0.776E-04 0.247E+04   0.169E-16 -.958E-18 0.175E+01   -.662E-03 -.518E-03 0.175E+00
   0.204E+02 0.362E+02 -.246E+04   -.200E+02 -.358E+02 0.246E+04   -.571E+00 -.688E+00 0.208E+01   -.743E-02 0.277E-01 0.153E+00
   -.204E+02 0.362E+02 -.246E+04   0.200E+02 -.358E+02 0.246E+04   0.571E+00 -.688E+00 0.208E+01   0.164E-01 0.289E-01 0.154E+00
   0.415E+02 -.371E+00 -.246E+04   -.411E+02 0.562E+00 0.246E+04   -.881E+00 -.151E+00 0.208E+01   0.205E-01 -.201E-01 0.153E+00
   -.415E+02 -.371E+00 -.246E+04   0.411E+02 0.562E+00 0.246E+04   0.881E+00 -.151E+00 0.208E+01   -.104E-01 -.188E-01 0.155E+00
   0.211E+02 -.358E+02 -.246E+04   -.210E+02 0.353E+02 0.246E+04   -.310E+00 0.838E+00 0.208E+01   0.336E-01 0.295E-03 0.154E+00
   -.211E+02 -.358E+02 -.246E+04   0.210E+02 0.353E+02 0.246E+04   0.310E+00 0.838E+00 0.208E+01   -.218E-01 0.422E-03 0.155E+00
   0.226E-04 -.122E-04 -.247E+04   0.105E-03 -.657E-04 0.247E+04   -.702E-17 -.134E-17 0.198E+01   -.772E-02 -.403E-02 0.191E+00
   -.568E-05 -.115E-04 -.133E+04   0.677E-04 0.862E-05 0.133E+04   -.476E-17 0.269E-17 0.114E+01   0.147E-03 0.121E-03 0.108E+00
   0.182E-03 -.985E-04 -.162E+04   0.303E-04 0.453E-06 0.166E+04   0.196E-18 -.621E-18 -.337E+02   0.306E-02 0.189E-02 -.225E+00
   0.549E-03 -.783E-03 0.303E+02   0.701E-13 -.921E-13 -.568E-11   0.321E-15 -.110E-15 -.352E+02   0.381E-01 0.253E-01 0.484E+01

 POSITION                                       TOTAL-FORCE (eV/Angst)
      0.00000      0.00000      5.28219         0.000000      0.000000     -0.036558
      2.93046      0.00000      5.28219         0.008668      0.008264      0.042361
      5.86091      0.00000      5.28219        -0.008668      0.008264      0.042361
      1.46523      2.53785      5.28219         0.011491      0.003374      0.042361
      4.39568      2.53785      5.28219         0.000000     -0.000000      0.016599
      7.32614      2.53785      5.28219        -0.011491      0.003374      0.042361
      2.93046      5.07570      5.28219         0.002823     -0.011639      0.042361
      5.86091      5.07570      5.28219        -0.002823     -0.011639      0.042361
      8.79137      5.07570      5.28219         0.000000      0.000000      0.017956
      1.46523      0.84595      7.67490        -0.018644     -0.010764     -0.016409
      4.39568      0.84595      7.67490        -0.000000     -0.052843     -0.077123
      7.32614      0.84595      7.67490         0.018644     -0.010764     -0.016409
      2.93046      3.38380      7.67490        -0.045764      0.026422     -0.077123
      5.86091      3.38380      7.67490         0.045764      0.026422     -0.077123
      8.79137      3.38380      7.67490        -0.000000     -0.030896      0.013117
      4.39568      5.92165      7.67490         0.000000      0.021528     -0.016409
      7.32614      5.92165      7.67490        -0.026757      0.015448      0.013117
     10.25659      5.92165      7.67490         0.026757      0.015448      0.013117
      8.79137      1.69725     10.06774        -0.000000     -0.000108      0.013888
      2.92950      1.69135     10.02116        -0.108233     -0.062488     -0.150293
      5.86187      1.69135     10.02116         0.108233     -0.062488     -0.150293
     10.25061      4.23320     10.05696         0.055083     -0.031802      0.018674
      4.39568      4.23086     10.02116         0.000000      0.124977     -0.150293
      7.33212      4.23320     10.05696        -0.055083     -0.031802      0.018674
     11.71719      6.76492     10.06774         0.000094      0.000054      0.013888
      5.86555      6.76492     10.06774        -0.000094      0.000054      0.013888
      8.79137      6.76069     10.05696         0.000000      0.063605      0.018674
      0.00000      0.00000     12.43040         0.000000      0.000000      0.027646
      2.96174      0.05879     12.46433        -0.183696     -0.353133     -0.233538
      5.82963      0.05879     12.46433         0.183696     -0.353133     -0.233538
      1.53179      2.53554     12.46433        -0.397670      0.017481     -0.233538
      7.25958      2.53554     12.46433         0.397670      0.017481     -0.233538
      2.96573      5.01921     12.46433        -0.213974      0.335652     -0.233538
      5.82563      5.01921     12.46433         0.213974      0.335652     -0.233538
      8.79137      5.07570     12.42552         0.000000     -0.000000      0.041607
      4.39568      2.53785     12.19879         0.000000      0.000000      1.675950
      4.39568      2.53785     13.91771         0.000000      0.000000     -0.001705
    total drift:                                0.038672      0.024544      0.007155

  FREE ENERGIE OF THE ION-ELECTRON SYSTEM (eV)
  free  energy   TOTEN  =      -105.79507768 eV

  energy  without entropy=     -105.79507768  energy(sigma->0) =     -105.79507768

 stress matrix after NEB project (eV)
     -6.11869     -0.00000     -0.00000
     -0.00000     -6.11869      0.00000
      0.00000      0.00000     -0.03122
  FORCES: max atom, RMS     0.001705    0.000280
  FORCE total and by dimension    0.001705    0.001705
  Stress total and by dimension    8.653192    6.118691
|           W    W    AA    RRRRR   N    N  II  N    N   GGGG   !!!           |
|           W    W   A  A   R    R  NN   N  II  NN   N  G    G  !!!           |
|           W    W  A    A  R    R  N N  N  II  N N  N  G       !!!           |
|           W WW W  AAAAAA  RRRRR   N  N N  II  N  N N  G  GGG   !            |
|           WW  WW  A    A  R   R   N   NN  II  N   NN  G    G                |
|           W    W  A    A  R    R  N    N  II  N    N   GGGG   !!!           |
|     Tetrahedron method does not include variations of the Fermi             |
|     occupations, so forces and stress will be inaccurate. We suggest        |
|     using a different smearing scheme ISMEAR = 1 or 2 for metals in         |
|     relaxations.                                                            |

 total charge

# of ion       s       p       d       tot
    1        0.421   0.199   9.179   9.798
    2        0.415   0.204   9.177   9.796
    3        0.415   0.204   9.177   9.796
    4        0.415   0.204   9.177   9.796
    5        0.422   0.202   9.176   9.800
    6        0.415   0.204   9.177   9.796
    7        0.415   0.204   9.177   9.796
    8        0.415   0.204   9.177   9.796
    9        0.412   0.204   9.177   9.794
   10        0.410   0.267   9.164   9.841
   11        0.404   0.273   9.167   9.843
   12        0.410   0.267   9.164   9.841
   13        0.404   0.273   9.167   9.843
   14        0.404   0.273   9.167   9.843
   15        0.403   0.269   9.165   9.837
   16        0.410   0.267   9.164   9.841
   17        0.403   0.269   9.165   9.837
   18        0.403   0.269   9.165   9.837
   19        0.405   0.263   9.168   9.835
   20        0.443   0.309   9.135   9.887
   21        0.443   0.309   9.135   9.887
   22        0.392   0.275   9.166   9.833
   23        0.443   0.309   9.135   9.887
   24        0.392   0.275   9.166   9.833
   25        0.405   0.263   9.168   9.835
   26        0.405   0.263   9.168   9.835
   27        0.392   0.275   9.166   9.833
   28        0.417   0.195   9.179   9.791
   29        0.411   0.221   9.174   9.806
   30        0.411   0.221   9.174   9.806
   31        0.411   0.221   9.174   9.806
   32        0.411   0.221   9.174   9.806
   33        0.411   0.221   9.174   9.806
   34        0.411   0.221   9.174   9.806
   35        0.410   0.197   9.180   9.788
   36        0.618   0.547   4.817   5.982
   37        1.608   3.299   0.000   4.907
tot         16.634  12.360 325.708 354.702

 BZINTS: Fermi energy:    0.814210;  398.000000 electrons
         Band energy:-0.133067E+04;  BLOECHL correction:   -0.043084