 vasp.6.2.0 18Jan21 (build Jun 12 2021 23:27:24) complex

 executed on             LinuxIFC date 2022.05.26  19:48:26

 INCAR:
   ISMEAR = -5
   SIGMA = 0.1
   ISPIN = 1
   EDIFF = 1.d-5
   EDIFFG = -0.01
   NSW = 0
   NELM = 150
   ENCUT = 500
   ISIF = 2
   IBRION = 2
   LREAL = Auto
   ALGO = Fast
   ICHARG = 11
   LORBIT = 10
   LCHARG = .F.
   LWAVE = .F.

 POTCAR:    PAW_PBE Ag 02Apr2005
 POTCAR:    PAW_PBE Rh 04Feb2005
 POTCAR:    PAW_PBE H 15Jun2001
|           W    W    AA    RRRRR   N    N  II  N    N   GGGG   !!!           |
|           W    W   A  A   R    R  NN   N  II  NN   N  G    G  !!!           |
|           W    W  A    A  R    R  N N  N  II  N N  N  G       !!!           |
|           W WW W  AAAAAA  RRRRR   N  N N  II  N  N N  G  GGG   !            |
|           WW  WW  A    A  R   R   N   NN  II  N   NN  G    G                |
|           W    W  A    A  R    R  N    N  II  N    N   GGGG   !!!           |
|     For optimal performance we recommend to set                             |
|       NCORE = 2 up to number-of-cores-per-socket                            |
|     This setting can greatly improve the performance of VASP for DFT.       |
|     The default, NCORE=1 might be grossly inefficient on modern             |
|     multi-core architectures or massively parallel machines. Do your        |
|     Unfortunately you need to use the default for GW and RPA                |
|     calculations (for HF NCORE is supported but not extensively tested      |
|     yet).                                                                   |

 POTCAR:    PAW_PBE Ag 02Apr2005
   VRHFIN =Ag : s1 d10

   TITEL  = PAW_PBE Ag 02Apr2005
   POMASS =  107.868; ZVAL   =   11.000    mass and valenz
   ENMAX  =  249.844; ENMIN  =  187.383 eV

 POTCAR:    PAW_PBE Rh 04Feb2005
   VRHFIN =Rh: s1 d8

   TITEL  = PAW_PBE Rh 04Feb2005
   POMASS =  102.906; ZVAL   =    9.000    mass and valenz
   ENMAX  =  228.996; ENMIN  =  171.747 eV

 POTCAR:    PAW_PBE H 15Jun2001
   VRHFIN =H: ultrasoft test

   TITEL  = PAW_PBE H 15Jun2001
   POMASS =    1.000; ZVAL   =    1.000    mass and valenz
   ENMAX  =  250.000; ENMIN  =  200.000 eV

 Optimization of the real space projectors (new method)

 maximal supplied QI-value         = 15.12
 optimisation between [QCUT,QGAM] = [ 11.34, 22.83] = [ 36.00,145.93] Ry
 Optimized for a Real-space Cutoff    1.43 Angstroem

   l    n(q)    QCUT    max X(q) W(low)/X(q) W(high)/X(q)  e(spline)
   2      9    11.338    53.897    0.16E-03    0.20E-03    0.28E-06
   2      9    11.338    52.416    0.16E-03    0.20E-03    0.29E-06
   0     10    11.338   122.045    0.31E-04    0.76E-04    0.15E-06
   0     10    11.338    73.629    0.30E-04    0.72E-04    0.15E-06
   1      9    11.338    15.255    0.20E-03    0.19E-04    0.17E-06
   1      9    11.338     9.562    0.16E-03    0.15E-04    0.14E-06
 Optimization of the real space projectors (new method)

[...]

   l    n(q)    QCUT    max X(q) W(low)/X(q) W(high)/X(q)  e(spline)
   2      9    11.327    59.645    0.31E-03    0.12E-04    0.28E-06
   2      9    11.327    58.460    0.31E-03    0.12E-04    0.29E-06
   0     10    11.327    97.683    0.32E-04    0.83E-04    0.31E-06
   0     10    11.327    53.223    0.30E-04    0.78E-04    0.29E-06
   1     10    11.327    13.596    0.49E-03    0.95E-03    0.55E-06
   1     10    11.327     7.885    0.36E-03    0.71E-03    0.41E-06
 Optimization of the real space projectors (new method)

 maximal supplied QI-value         = 34.20
 optimisation between [QCUT,QGAM] = [ 11.29, 22.57] = [ 35.68,142.71] Ry
 Optimized for a Real-space Cutoff    1.16 Angstroem

   l    n(q)    QCUT    max X(q) W(low)/X(q) W(high)/X(q)  e(spline)
   0      8    11.287    19.460    0.40E-03    0.73E-03    0.16E-06
   0      8    11.287    12.209    0.38E-03    0.70E-03    0.15E-06
   1      7    11.287     4.655    0.22E-03    0.25E-04    0.22E-06
  PAW_PBE Ag 02Apr2005                  :
  PAW_PBE Rh 04Feb2005                  :
  PAW_PBE H 15Jun2001                   :

 POSCAR: Ag-Rh-H
  positions in direct lattice
  velocities in cartesian coordinates
 exchange correlation table for  LEXCH =        8
   RHO(1)=    0.500       N(1)  =     2000
   RHO(2)=  100.500       N(2)  =     4000

 VTST: version 3.2, (02/03/18)

 CHAIN: initializing optimizer

 OPT: Using VASP Conjugate-Gradient optimizer
 CHAIN: Read ICHAIN            0

 POSCAR: Ag-Rh-H
  positions in direct lattice
  velocities in cartesian coordinates

 ion  position               nearest neighbor table
   1  0.000  0.000  0.238-   2 2.93   8 2.93   7 2.93   6 2.93   4 2.93  12 2.93  16 2.93  10 2.93
                             3 2.93
   2  0.333  0.000  0.238-   1 2.93   8 2.93   9 2.93   3 2.93   4 2.93   5 2.93  10 2.93  17 2.93
                            11 2.93
   3  0.667  0.000  0.238-   9 2.93   2 2.93   5 2.93  11 2.93   7 2.93  18 2.93   1 2.93   6 2.93
                            12 2.93
   4  0.000  0.333  0.238-   5 2.93   6 2.93   2 2.93   1 2.93   7 2.93  13 2.93  15 2.93   9 2.93
                            10 2.93
   5  0.333  0.333  0.238-   4 2.93   3 2.93   7 2.93   2 2.93   8 2.93  14 2.93  13 2.93  11 2.93
                             6 2.93
   6  0.667  0.333  0.238-   4 2.93   9 2.93   1 2.93  15 2.93   8 2.93  12 2.93   3 2.93   5 2.93
                            14 2.93
   7  0.000  0.667  0.238-   8 2.93   1 2.93   5 2.93   3 2.93   4 2.93  16 2.93  18 2.93  13 2.93
                             9 2.93
   8  0.333  0.667  0.238-   7 2.93   1 2.93   2 2.93   9 2.93   5 2.93  16 2.93   6 2.93  17 2.93
                            14 2.93
   9  0.667  0.667  0.238-   3 2.93   2 2.93   8 2.93   6 2.93  17 2.93   4 2.93  15 2.93   7 2.93
                            18 2.93
  10  0.111  0.111  0.346-  20 2.90  19 2.93  26 2.93  12 2.93  16 2.93  15 2.93  17 2.93  13 2.93
                            11 2.93   2 2.93   1 2.93   4 2.93
  11  0.444  0.111  0.346-  21 2.90  20 2.90  27 2.92  14 2.93  17 2.93  18 2.93   3 2.93  12 2.93
                            13 2.93  10 2.93   5 2.93   2 2.93
  12  0.778  0.111  0.346-  21 2.90  25 2.93  19 2.93  10 2.93  16 2.93  18 2.93  15 2.93  11 2.93
                             1 2.93  14 2.93   6 2.93   3 2.93
  13  0.111  0.444  0.346-  20 2.90  23 2.90  22 2.92  15 2.93  14 2.93  18 2.93  10 2.93  11 2.93
                            16 2.93   4 2.93   5 2.93   7 2.93
  14  0.444  0.444  0.346-  23 2.90  21 2.90  24 2.92  13 2.93  11 2.93  16 2.93   5 2.93  12 2.93
                            17 2.93   8 2.93  15 2.93   6 2.93
  15  0.778  0.444  0.346-  24 2.92  22 2.92  19 2.92  13 2.93  10 2.93  12 2.93  17 2.93  18 2.93
                             4 2.93   6 2.93   9 2.93  14 2.93
  16  0.111  0.778  0.346-  23 2.90  26 2.93  25 2.93  18 2.93  12 2.93  10 2.93  14 2.93  17 2.93
                            13 2.93   7 2.93   8 2.93   1 2.93
  17  0.444  0.778  0.346-  27 2.92  24 2.92  26 2.92  11 2.93  10 2.93   9 2.93  18 2.93  15 2.93
                            16 2.93   2 2.93  14 2.93   8 2.93
  18  0.778  0.778  0.346-  22 2.92  27 2.92  25 2.92  16 2.93  12 2.93  13 2.93  11 2.93  17 2.93
                            15 2.93   7 2.93   3 2.93   9 2.93
  19  0.889  0.223  0.454-  28 2.91  15 2.92  10 2.93  12 2.93  24 2.93  22 2.93  32 2.93  31 2.93
                            20 2.93  21 2.93  26 2.94  25 2.94
  20  0.222  0.222  0.452-  36 2.78  13 2.90  11 2.90  10 2.90  31 2.91  29 2.91  21 2.92  23 2.92
                            27 2.93  22 2.93  19 2.93  26 2.93
  21  0.555  0.222  0.452-  36 2.78  11 2.90  14 2.90  12 2.90  30 2.91  32 2.91  20 2.92  23 2.92
                            27 2.93  24 2.93  25 2.93  19 2.93
  22  0.889  0.556  0.453-  35 2.90  18 2.92  15 2.92  13 2.92  33 2.92  31 2.92  25 2.93  19 2.93
                            24 2.93  27 2.93  23 2.93  20 2.93
  23  0.222  0.555  0.452-  36 2.78  14 2.90  13 2.90  16 2.90  34 2.91  33 2.91  21 2.92  20 2.92
                            22 2.93  24 2.93  26 2.93  25 2.93
  24  0.556  0.556  0.453-  35 2.90  15 2.92  17 2.92  14 2.92  32 2.92  34 2.92  19 2.93  26 2.93
                            27 2.93  22 2.93  23 2.93  21 2.93
  25  0.889  0.889  0.454-  28 2.91  18 2.92  16 2.93  12 2.93  22 2.93  27 2.93  33 2.93  30 2.93
                            23 2.93  21 2.93  26 2.94  19 2.94
  26  0.223  0.889  0.454-  28 2.91  17 2.92  16 2.93  10 2.93  27 2.93  24 2.93  34 2.93  29 2.93
                            23 2.93  20 2.93  25 2.94  19 2.94
  27  0.556  0.889  0.453-  35 2.90  17 2.92  18 2.92  11 2.92  29 2.92  30 2.92  26 2.93  25 2.93
                            24 2.93  22 2.93  20 2.93  21 2.93
  28  0.000  0.000  0.560-  26 2.91  25 2.91  19 2.91  29 2.95  34 2.95  33 2.95  32 2.95  31 2.95
                            30 2.95
  29  0.333  0.005  0.560-  31 2.88  30 2.89  36 2.89  20 2.91  27 2.92  26 2.93  28 2.95  35 2.95
                            34 3.02
  30  0.662  0.005  0.560-  32 2.88  29 2.89  36 2.89  21 2.91  27 2.92  25 2.93  28 2.95  35 2.95
                            33 3.02
  31  0.005  0.333  0.560-  29 2.88  33 2.89  36 2.89  20 2.91  22 2.92  19 2.93  28 2.95  35 2.95
                            32 3.02
  32  0.662  0.333  0.560-  30 2.88  34 2.89  36 2.89  21 2.91  24 2.92  19 2.93  28 2.95  35 2.95
                            31 3.02
  33  0.005  0.662  0.560-  34 2.88  31 2.89  36 2.89  23 2.91  22 2.92  25 2.93  28 2.95  35 2.95
                            30 3.02
  34  0.333  0.662  0.560-  33 2.88  32 2.89  36 2.89  23 2.91  24 2.92  26 2.93  28 2.95  35 2.95
                            29 3.02
  35  0.667  0.667  0.560-  24 2.90  27 2.90  22 2.90  30 2.95  32 2.95  29 2.95  34 2.95  31 2.95
                            33 2.95
  36  0.333  0.333  0.552-  37 1.57  21 2.78  20 2.78  23 2.78  31 2.89  30 2.89  33 2.89  29 2.89
                            34 2.89  32 2.89
  37  0.333  0.333  0.623-  36 1.57

  LATTYP: Found a hexagonal cell.
 ALAT       =     8.7913665772
 C/A-ratio  =     2.5227160501

  Lattice vectors:

 A1 = (  -4.3956832886,  -7.6135467898,   0.0000000000)
 A2 = (   8.7913665771,   0.0000000000,   0.0000000000)
 A3 = (   0.0000000000,   0.0000000000,  22.1781215668)

Analysis of symmetry for initial positions (statically):
 Subroutine PRICEL returns:
 Original cell was already a primitive cell.

 Routine SETGRP: Setting up the symmetry group for a
 hexagonal supercell.

 Subroutine GETGRP returns: Found  6 space group operations
 (whereof  6 operations were pure point group operations)
 out of a pool of 24 trial point group operations.

The static configuration has the point symmetry C_3v.

Analysis of symmetry for dynamics (positions and initial velocities):
 Subroutine PRICEL returns:
 Original cell was already a primitive cell.

[...]

The dynamic configuration has the point symmetry C_3v.

Analysis of constrained symmetry for selective dynamics:
 Subroutine PRICEL returns:
 Original cell was already a primitive cell.

 Routine SETGRP: Setting up the symmetry group for a
 hexagonal supercell.

 Subroutine GETGRP returns: Found  6 space group operations
 (whereof  6 operations were pure point group operations)
[...]
     24      -4.6365      2.00000
     25      -4.6071      2.00000
     26      -4.5894      2.00000
     27      -4.5741      2.00000
     28      -4.5684      2.00000
     29      -4.5502      2.00000
     30      -4.5397      2.00000
     31      -4.5266      2.00000
     32      -4.4924      2.00000
     33      -4.4487      2.00000
     34      -4.4249      2.00000
     35      -4.4001      2.00000
     36      -4.3895      2.00000
     37      -4.3621      2.00000
     38      -4.3410      2.00000
     39      -4.3308      2.00000
     40      -4.3129      2.00000
     41      -4.3034      2.00000
     42      -4.2793      2.00000
     43      -4.2254      2.00000
     44      -4.1988      2.00000
     45      -4.1891      2.00000
     46      -4.1816      2.00000
     47      -4.1675      2.00000
     48      -4.1626      2.00000
     49      -4.1494      2.00000
     50      -4.1375      2.00000
     51      -4.1361      2.00000
     52      -4.1161      2.00000
     53      -4.0583      2.00000
     54      -4.0479      2.00000
     55      -4.0410      2.00000
     56      -4.0333      2.00000
     57      -4.0153      2.00000
     58      -3.9989      2.00000
     59      -3.9620      2.00000
     60      -3.9540      2.00000
[...]
    238       7.2063      0.00000
    239       7.2310      0.00000
    240       7.2568      0.00000
    241       7.2776      0.00000
    242       7.3283      0.00000
    243       7.3478      0.00000
    244       7.3860      0.00000
    245       7.5463      0.00000
    246       7.5906      0.00000
    247       7.5968      0.00000
    248       7.6523      0.00000
    249       7.6876      0.00000
    250       7.9321      0.00000
    251       7.9710      0.00000
    252       8.1652      0.00000

 soft charge-density along one line, spin component           1
         0         1         2         3         4         5         6         7         8         9
 total charge-density along one line

------------------------ aborting loop because EDIFF is reached ----------------------------------------

 total charge

# of ion       s       p       d       tot
    1        0.417   0.201   9.179   9.797
    2        0.417   0.202   9.178   9.797
    3        0.417   0.202   9.178   9.797
    4        0.417   0.202   9.178   9.797
    5        0.420   0.203   9.175   9.798
    6        0.417   0.202   9.178   9.797
    7        0.417   0.202   9.178   9.797
    8        0.417   0.202   9.178   9.797
    9        0.413   0.202   9.180   9.795
   10        0.407   0.268   9.165   9.839
   11        0.409   0.267   9.168   9.844
   12        0.407   0.268   9.165   9.839
   13        0.409   0.267   9.168   9.844
   14        0.409   0.267   9.168   9.844
   15        0.403   0.269   9.165   9.837
   16        0.407   0.268   9.165   9.839
   17        0.403   0.269   9.165   9.837
   18        0.403   0.269   9.165   9.837
   19        0.403   0.268   9.166   9.836
   20        0.426   0.282   9.158   9.866
   21        0.426   0.282   9.158   9.866
   22        0.398   0.273   9.167   9.838
   23        0.426   0.282   9.158   9.866
   24        0.398   0.273   9.167   9.838
   25        0.403   0.268   9.166   9.836
   26        0.403   0.268   9.166   9.836
   27        0.398   0.273   9.167   9.838
   28        0.414   0.195   9.183   9.792
   29        0.411   0.206   9.176   9.794
   30        0.411   0.206   9.176   9.794
   31        0.411   0.206   9.176   9.794
   32        0.411   0.206   9.176   9.794
   33        0.411   0.206   9.176   9.794
   34        0.411   0.206   9.176   9.794
   35        0.407   0.198   9.184   9.788
   36        0.432   0.355   7.547   8.333
   37        0.508   0.020   0.000   0.528
tot         15.318   8.704 328.538 352.560

  FORCE on cell =-STRESS in cart. coord.  units (eV):
  Direction    XX          YY          ZZ          XY          YZ          ZX
  Alpha Z   737.18887   737.18887   737.18887
  Ewald  121459.07170121459.07169************     0.00001    -0.00000    -0.00001
  Hartree131612.45840131612.45840************     0.00000    -0.00000    -0.00000
  E(xc)   -2075.01990 -2075.01988 -2080.55541    -0.00002    -0.00000    -0.00000
  Local  ************************264568.66873     0.00021    -0.00003    -0.00006
  n-local  -337.31055  -315.03259  -324.56234    12.09790    -0.52494     0.73614
  augment  3280.03617  3280.03638  3286.49716    -0.00018    -0.00002    -0.00002
  Kinetic  4886.35022  4894.21216  4911.22099     5.81181     0.77189    -0.16952
  Fock        0.00000     0.00000     0.00000     0.00000     0.00000     0.00000
  Total      -8.34625    -8.34625     0.86316    -0.00000     0.00000    -0.00000
  in kB      -9.00811    -9.00811     0.93161    -0.00000     0.00000    -0.00000

 VOLUME and BASIS-vectors are now :
  energy-cutoff  :      500.00
  volume of cell :     1484.46
      direct lattice vectors                 reciprocal lattice vectors
     8.791366577  0.000000000  0.000000000     0.113747958 -0.065672414  0.000000000
     4.395683289  7.613546790  0.000000000     0.000000000  0.131344829  0.000000000
     0.000000000  0.000000000 22.178121567     0.000000000  0.000000000  0.045089481

  length of vectors
     8.791366577  8.791366577 22.178121567     0.131344829  0.131344829  0.045089481

 FORCES acting on ions
    electron-ion (+dipol)            ewald-force                    non-local-force                 convergence-correction
   0.459E-04 -.283E-04 0.250E+04   -.954E-04 0.593E-04 -.250E+04   0.895E-18 0.548E-19 -.214E+01   -.171E-03 -.165E-03 -.323E-01
   0.284E+00 0.371E+00 0.250E+04   -.353E+00 -.379E+00 -.250E+04   0.670E-01 0.104E+00 -.158E+01   0.113E-01 -.772E-01 0.629E-02
   -.284E+00 0.371E+00 0.250E+04   0.353E+00 -.379E+00 -.250E+04   -.670E-01 0.104E+00 -.158E+01   -.118E-01 -.753E-01 0.712E-02
   0.463E+00 0.602E-01 0.250E+04   -.505E+00 -.116E+00 -.250E+04   0.123E+00 0.614E-02 -.158E+01   -.611E-01 0.486E-01 0.635E-02
   -.806E-05 -.202E-04 0.250E+04   0.981E-04 -.199E-05 -.250E+04   -.195E-18 0.200E-18 -.127E+01   0.625E-02 0.382E-02 0.719E-01
   -.463E+00 0.602E-01 0.250E+04   0.505E+00 -.116E+00 -.250E+04   -.123E+00 0.614E-02 -.158E+01   0.597E-01 0.494E-01 0.722E-02
   0.179E+00 -.431E+00 0.250E+04   -.152E+00 0.496E+00 -.250E+04   0.564E-01 -.110E+00 -.158E+01   -.707E-01 0.280E-01 0.712E-02
   -.179E+00 -.431E+00 0.250E+04   0.152E+00 0.495E+00 -.250E+04   -.564E-01 -.110E+00 -.158E+01   0.723E-01 0.270E-01 0.717E-02
   0.364E-04 -.129E-04 0.250E+04   0.792E-04 -.643E-04 -.250E+04   0.888E-17 0.158E-17 -.202E+01   -.661E-02 -.343E-02 -.114E+00
   0.409E+01 0.236E+01 0.834E+03   -.380E+01 -.219E+01 -.833E+03   -.288E+00 -.166E+00 -.717E+00   -.144E-01 -.810E-02 0.514E-01
   -.290E-04 0.384E+01 0.839E+03   0.413E-04 -.387E+01 -.839E+03   0.903E-12 0.138E+00 -.302E+00   0.660E-02 -.128E+00 0.690E-01
   -.409E+01 0.236E+01 0.834E+03   0.380E+01 -.219E+01 -.833E+03   0.288E+00 -.166E+00 -.717E+00   0.125E-01 -.711E-02 0.521E-01
   0.332E+01 -.192E+01 0.839E+03   -.335E+01 0.193E+01 -.839E+03   0.119E+00 -.688E-01 -.302E+00   -.108E+00 0.699E-01 0.694E-01
   -.332E+01 -.192E+01 0.839E+03   0.335E+01 0.193E+01 -.839E+03   -.119E+00 -.688E-01 -.302E+00   0.119E+00 0.685E-01 0.681E-01
   0.162E-04 0.594E+00 0.834E+03   -.108E-03 -.740E+00 -.834E+03   0.480E-12 0.731E-01 -.780E+00   -.170E-02 0.506E-01 0.314E-01
   -.804E-05 -.472E+01 0.834E+03   0.206E-04 0.438E+01 -.833E+03   0.218E-11 0.332E+00 -.717E+00   -.238E-03 0.146E-01 0.515E-01
   0.514E+00 -.297E+00 0.834E+03   -.641E+00 0.370E+00 -.834E+03   0.633E-01 -.365E-01 -.780E+00   0.432E-01 -.269E-01 0.311E-01
   -.514E+00 -.297E+00 0.834E+03   0.641E+00 0.370E+00 -.834E+03   -.633E-01 -.365E-01 -.780E+00   -.427E-01 -.247E-01 0.327E-01
   0.414E-04 0.139E+01 -.862E+03   -.128E-03 -.146E+01 0.861E+03   0.280E-12 0.426E-01 0.643E+00   -.656E-02 0.381E-01 0.615E-02
   0.936E+01 0.541E+01 -.839E+03   -.815E+01 -.471E+01 0.840E+03   -.110E+01 -.634E+00 -.907E+00   -.167E+00 -.959E-01 -.146E+00
   -.936E+01 0.541E+01 -.839E+03   0.815E+01 -.471E+01 0.840E+03   0.110E+01 -.634E+00 -.907E+00   0.169E+00 -.973E-01 -.147E+00
   0.221E+01 -.128E+01 -.854E+03   -.232E+01 0.134E+01 0.853E+03   0.197E+00 -.114E+00 0.416E+00   -.674E-01 0.407E-01 -.621E-01
   -.560E-04 -.108E+02 -.839E+03   0.429E-04 0.941E+01 0.840E+03   0.832E-11 0.127E+01 -.907E+00   -.545E-02 0.186E+00 -.147E+00
   -.221E+01 -.128E+01 -.854E+03   0.232E+01 0.134E+01 0.853E+03   -.197E+00 -.114E+00 0.416E+00   0.690E-01 0.392E-01 -.615E-01
   -.120E+01 -.693E+00 -.862E+03   0.127E+01 0.732E+00 0.861E+03   -.369E-01 -.213E-01 0.643E+00   -.406E-01 -.228E-01 0.624E-02
   0.120E+01 -.693E+00 -.862E+03   -.127E+01 0.732E+00 0.861E+03   0.369E-01 -.213E-01 0.643E+00   0.298E-01 -.237E-01 0.620E-02
   0.200E-04 0.255E+01 -.854E+03   0.110E-03 -.268E+01 0.853E+03   0.150E-11 0.228E+00 0.416E+00   0.989E-03 -.793E-01 -.621E-01
   0.542E-04 -.374E-04 -.251E+04   -.115E-03 0.777E-04 0.251E+04   -.352E-17 0.634E-19 0.217E+01   -.147E-02 -.697E-03 0.101E+00
   0.480E+01 0.882E+01 -.252E+04   -.417E+01 -.800E+01 0.252E+04   -.515E+00 -.659E+00 0.188E+01   -.955E-01 -.139E+00 -.148E-01
   -.480E+01 0.882E+01 -.252E+04   0.417E+01 -.800E+01 0.252E+04   0.515E+00 -.659E+00 0.188E+01   0.106E+00 -.138E+00 -.158E-01
   0.100E+02 -.255E+00 -.252E+04   -.901E+01 0.391E+00 0.252E+04   -.829E+00 -.117E+00 0.188E+01   -.168E+00 -.129E-01 -.150E-01
   -.100E+02 -.255E+00 -.252E+04   0.901E+01 0.391E+00 0.252E+04   0.829E+00 -.117E+00 0.188E+01   0.178E+00 -.126E-01 -.157E-01
   0.524E+01 -.857E+01 -.252E+04   -.485E+01 0.761E+01 0.252E+04   -.313E+00 0.776E+00 0.188E+01   -.665E-01 0.161E+00 -.158E-01
   -.524E+01 -.857E+01 -.252E+04   0.485E+01 0.761E+01 0.252E+04   0.313E+00 0.776E+00 0.188E+01   0.779E-01 0.160E+00 -.150E-01
   0.241E-04 -.126E-04 -.251E+04   0.105E-03 -.657E-04 0.251E+04   0.194E-17 -.363E-18 0.225E+01   -.741E-02 -.398E-02 0.545E-01
   -.181E-04 -.184E-04 -.195E+04   0.860E-04 0.106E-04 0.195E+04   -.107E-17 -.167E-18 -.511E+01   0.189E-02 0.141E-02 -.602E-01
   0.532E-05 -.430E-05 -.294E+03   0.530E-05 0.910E-07 0.296E+03   0.211E-18 0.136E-18 -.245E+01   0.641E-04 0.422E-04 0.263E-01
   0.335E-03 -.719E-03 0.119E+02   0.201E-13 0.113E-12 0.176E-11   -.221E-15 -.395E-18 -.117E+02   0.188E-01 0.897E-02 -.154E+00

 POSITION                                       TOTAL-FORCE (eV/Angst)
      0.00000      0.00000      5.28219         0.000000      0.000000     -0.006615
      2.93046      0.00000      5.28219         0.009410      0.019423      0.033608
      5.86091      0.00000      5.28219        -0.009410      0.019423      0.033608
      1.46523      2.53785      5.28219         0.021525     -0.001562      0.033608
      4.39568      2.53785      5.28219         0.000000      0.000000      0.006614
      7.32614      2.53785      5.28219        -0.021525     -0.001562      0.033608
      2.93046      5.07570      5.28219         0.012115     -0.017861      0.033608
      5.86091      5.07570      5.28219        -0.012115     -0.017861      0.033608
      8.79137      5.07570      5.28219         0.000000      0.000000      0.021538
      1.46523      0.84595      7.67490        -0.011525     -0.006654     -0.013406
      4.39568      0.84595      7.67490        -0.000000     -0.023055     -0.050793
      7.32614      0.84595      7.67490         0.011525     -0.006654     -0.013406
      2.93046      3.38380      7.67490        -0.019966      0.011528     -0.050793
      5.86091      3.38380      7.67490         0.019966      0.011528     -0.050793
      8.79137      3.38380      7.67490        -0.000000     -0.023120     -0.021222
      4.39568      5.92165      7.67490         0.000000      0.013308     -0.013406
      7.32614      5.92165      7.67490        -0.020022      0.011560     -0.021222
     10.25659      5.92165      7.67490         0.020022      0.011560     -0.021222
      8.79137      1.69615     10.06050         0.000000      0.006011      0.016958
      2.93321      1.69349     10.03240        -0.050238     -0.029005     -0.153210
      5.85816      1.69349     10.03240         0.050238     -0.029005     -0.153210
     10.25564      4.23030     10.05204         0.015500     -0.008949     -0.011681
      4.39568      4.22657     10.03240         0.000000      0.058010     -0.153210
      7.32709      4.23030     10.05204        -0.015500     -0.008949     -0.011681
     11.71814      6.76547     10.06050        -0.005206     -0.003006      0.016958
      5.86459      6.76547     10.06050         0.005206     -0.003006      0.016958
      8.79137      6.76650     10.05204         0.000000      0.017897     -0.011681
      0.00000      0.00000     12.42190         0.000000      0.000000     -0.004826
      2.95118      0.03878     12.42853         0.015449      0.020536      0.045417
      5.84018      0.03878     12.42853        -0.015449      0.020536      0.045417
      1.50917      2.53641     12.42853         0.025509      0.003111      0.045417
      7.28219      2.53641     12.42853        -0.025509      0.003111      0.045417
      2.95367      5.03836     12.42853         0.010060     -0.023647      0.045417
      5.83769      5.03836     12.42853        -0.010060     -0.023647      0.045417
      8.79137      5.07570     12.41313         0.000000      0.000000     -0.001504
      4.39568      2.53785     12.23685         0.000000      0.000000      0.206615
      4.39568      2.53785     13.80845         0.000000      0.000000      0.004091
    total drift:                                0.019141      0.008249      0.082156

  FREE ENERGIE OF THE ION-ELECTRON SYSTEM (eV)
  free  energy   TOTEN  =       -98.89961075 eV

  energy  without entropy=      -98.89961075  energy(sigma->0) =      -98.89961075

 stress matrix after NEB project (eV)
     -8.34625     -0.00000     -0.00000
     -0.00000     -8.34625      0.00000
      0.00000      0.00000      0.86316
  FORCES: max atom, RMS     0.004091    0.000673
  FORCE total and by dimension    0.004091    0.004091
  Stress total and by dimension   11.834898    8.346249
|           W    W    AA    RRRRR   N    N  II  N    N   GGGG   !!!           |
|           W    W   A  A   R    R  NN   N  II  NN   N  G    G  !!!           |
|           W    W  A    A  R    R  N N  N  II  N N  N  G       !!!           |
|           W WW W  AAAAAA  RRRRR   N  N N  II  N  N N  G  GGG   !            |
|           WW  WW  A    A  R   R   N   NN  II  N   NN  G    G                |
|           W    W  A    A  R    R  N    N  II  N    N   GGGG   !!!           |
|     Tetrahedron method does not include variations of the Fermi             |
|     occupations, so forces and stress will be inaccurate. We suggest        |
|     using a different smearing scheme ISMEAR = 1 or 2 for metals in         |
|     relaxations.                                                            |

 total charge

# of ion       s       p       d       tot
    1        0.417   0.201   9.179   9.797
    2        0.417   0.202   9.178   9.797
    3        0.417   0.202   9.178   9.797
    4        0.417   0.202   9.178   9.797
    5        0.420   0.203   9.175   9.798
    6        0.417   0.202   9.178   9.797
    7        0.417   0.202   9.178   9.797
    8        0.417   0.202   9.178   9.797
    9        0.413   0.202   9.180   9.795
   10        0.407   0.268   9.165   9.839
   11        0.409   0.267   9.168   9.844
   12        0.407   0.268   9.165   9.839
   13        0.409   0.267   9.168   9.844
   14        0.409   0.267   9.168   9.844
   15        0.403   0.269   9.165   9.837
   16        0.407   0.268   9.165   9.839
   17        0.403   0.269   9.165   9.837
   18        0.403   0.269   9.165   9.837
   19        0.403   0.268   9.166   9.836
   20        0.426   0.282   9.158   9.866
   21        0.426   0.282   9.158   9.866
   22        0.398   0.273   9.167   9.838
   23        0.426   0.282   9.158   9.866
   24        0.398   0.273   9.167   9.838
   25        0.403   0.268   9.166   9.836
   26        0.403   0.268   9.166   9.836
   27        0.398   0.273   9.167   9.838
   28        0.414   0.195   9.183   9.792
   29        0.411   0.206   9.176   9.794
   30        0.411   0.206   9.176   9.794
   31        0.411   0.206   9.176   9.794
   32        0.411   0.206   9.176   9.794
   33        0.411   0.206   9.176   9.794
   34        0.411   0.206   9.176   9.794
   35        0.407   0.198   9.184   9.788
   36        0.432   0.355   7.547   8.333
   37        0.508   0.020   0.000   0.528
tot         15.318   8.704 328.538 352.560

 BZINTS: Fermi energy:    0.745545;  395.000000 electrons
         Band energy:-0.127002E+04;  BLOECHL correction:   -0.053590