 vasp.6.2.0 18Jan21 (build Jun 12 2021 23:27:24) complex

 executed on             LinuxIFC date 2022.05.30  16:33:27

 INCAR:
   ISMEAR = -5
   SIGMA = 0.1
   ISPIN = 1
   EDIFF = 1.d-5
   EDIFFG = -0.01
   NSW = 0
   NELM = 150
   ENCUT = 500
   ISIF = 2
   IBRION = 2
   LREAL = Auto
   ALGO = Fast
   ICHARG = 11
   LORBIT = 10
   LCHARG = .F.
   LWAVE = .F.

 POTCAR:    PAW_PBE Au 04Oct2007
 POTCAR:    PAW_PBE Re 17Jan2003
 POTCAR:    PAW_PBE C 08Apr2002
 POTCAR:    PAW_PBE O 08Apr2002
 POTCAR:    PAW_PBE H 15Jun2001
|           W    W    AA    RRRRR   N    N  II  N    N   GGGG   !!!           |
|           W    W   A  A   R    R  NN   N  II  NN   N  G    G  !!!           |
|           W    W  A    A  R    R  N N  N  II  N N  N  G       !!!           |
|           W WW W  AAAAAA  RRRRR   N  N N  II  N  N N  G  GGG   !            |
|           WW  WW  A    A  R   R   N   NN  II  N   NN  G    G                |
|           W    W  A    A  R    R  N    N  II  N    N   GGGG   !!!           |
|     For optimal performance we recommend to set                             |
|       NCORE = 2 up to number-of-cores-per-socket                            |
|     This setting can greatly improve the performance of VASP for DFT.       |
|     The default, NCORE=1 might be grossly inefficient on modern             |
|     multi-core architectures or massively parallel machines. Do your        |
|     Unfortunately you need to use the default for GW and RPA                |
|     calculations (for HF NCORE is supported but not extensively tested      |
|     yet).                                                                   |

 POTCAR:    PAW_PBE Au 04Oct2007
   VRHFIN =Au: s1d10

   TITEL  = PAW_PBE Au 04Oct2007
   POMASS =  196.966; ZVAL   =   11.000    mass and valenz
   ENMAX  =  229.943; ENMIN  =  172.457 eV

 POTCAR:    PAW_PBE Re 17Jan2003
   VRHFIN =Re: 5p6s5d

   TITEL  = PAW_PBE Re 17Jan2003
   POMASS =  186.207; ZVAL   =    7.000    mass and valenz
   ENMAX  =  226.216; ENMIN  =  169.662 eV

 POTCAR:    PAW_PBE C 08Apr2002
   VRHFIN =C: s2p2

   TITEL  = PAW_PBE C 08Apr2002
   POMASS =   12.011; ZVAL   =    4.000    mass and valenz
   ENMAX  =  400.000; ENMIN  =  300.000 eV

 POTCAR:    PAW_PBE O 08Apr2002
   VRHFIN =O: s2p4

   TITEL  = PAW_PBE O 08Apr2002
   POMASS =   16.000; ZVAL   =    6.000    mass and valenz
   ENMAX  =  400.000; ENMIN  =  300.000 eV

 POTCAR:    PAW_PBE H 15Jun2001
   VRHFIN =H: ultrasoft test

   TITEL  = PAW_PBE H 15Jun2001
   POMASS =    1.000; ZVAL   =    1.000    mass and valenz
   ENMAX  =  250.000; ENMIN  =  200.000 eV

 Optimization of the real space projectors (new method)

 maximal supplied QI-value         = 15.12
 optimisation between [QCUT,QGAM] = [ 11.34, 22.83] = [ 36.00,145.93] Ry
 Optimized for a Real-space Cutoff    1.39 Angstroem

   l    n(q)    QCUT    max X(q) W(low)/X(q) W(high)/X(q)  e(spline)
   2      9    11.338    60.898    0.39E-03    0.42E-03    0.21E-06
   2      9    11.338    58.894    0.40E-03    0.42E-03    0.22E-06
   0      9    11.338   109.617    0.13E-03    0.20E-04    0.13E-06
   0      9    11.338    75.026    0.13E-03    0.20E-04    0.13E-06
   1      9    11.338    16.344    0.33E-04    0.24E-03    0.18E-06
   1      9    11.338    10.160    0.26E-04    0.19E-03    0.15E-06
 Optimization of the real space projectors (new method)

[...]

   l    n(q)    QCUT    max X(q) W(low)/X(q) W(high)/X(q)  e(spline)
   0      7    11.387    20.381    0.39E-03    0.13E-02    0.15E-06
   0      7    11.387    15.268    0.42E-03    0.14E-02    0.17E-06
   1      6    11.387     5.964    0.41E-03    0.11E-02    0.17E-06
   1      6    11.387     5.382    0.39E-03    0.87E-03    0.15E-06
 Optimization of the real space projectors (new method)

 maximal supplied QI-value         = 34.20
 optimisation between [QCUT,QGAM] = [ 11.29, 22.57] = [ 35.68,142.71] Ry
 Optimized for a Real-space Cutoff    1.16 Angstroem

   l    n(q)    QCUT    max X(q) W(low)/X(q) W(high)/X(q)  e(spline)
   0      8    11.287    19.460    0.40E-03    0.73E-03    0.16E-06
   0      8    11.287    12.209    0.38E-03    0.70E-03    0.15E-06
   1      7    11.287     4.655    0.22E-03    0.25E-04    0.22E-06
  PAW_PBE Au 04Oct2007                  :
  PAW_PBE Re 17Jan2003                  :
  PAW_PBE C 08Apr2002                   :
  PAW_PBE O 08Apr2002                   :
  PAW_PBE H 15Jun2001                   :

 POSCAR: Au-Re-COH
  positions in direct lattice
  velocities in cartesian coordinates
 exchange correlation table for  LEXCH =        8
   RHO(1)=    0.500       N(1)  =     2000
   RHO(2)=  100.500       N(2)  =     4000

 VTST: version 3.2, (02/03/18)

 CHAIN: initializing optimizer

 OPT: Using VASP Conjugate-Gradient optimizer
 CHAIN: Read ICHAIN            0

 POSCAR: Au-Re-COH
  positions in direct lattice
  velocities in cartesian coordinates

 ion  position               nearest neighbor table
   1  0.000  0.000  0.197-  16 2.94  12 2.94   6 2.94   8 2.94   7 2.94   3 2.94  10 2.94   4 2.94
                             2 2.94
   2  0.333  0.000  0.197-   9 2.94  11 2.94  17 2.94  10 2.94   8 2.94   4 2.94   5 2.94   1 2.94
                             3 2.94
   3  0.667  0.000  0.197-   7 2.94  18 2.94  12 2.94   1 2.94  11 2.94   5 2.94   6 2.94   9 2.94
                             2 2.94
   4  0.000  0.333  0.197-  10 2.94   6 2.94   5 2.94  13 2.94   2 2.94  15 2.94   9 2.94   1 2.94
                             7 2.94
   5  0.333  0.333  0.197-  13 2.94   7 2.94  11 2.94   4 2.94   2 2.94  14 2.94   3 2.94   8 2.94
                             6 2.94
   6  0.667  0.333  0.197-  15 2.94  14 2.94   1 2.94  12 2.94   4 2.94   9 2.94   8 2.94   3 2.94
                             5 2.94
   7  0.000  0.667  0.197-  18 2.94   3 2.94  16 2.94   5 2.94   1 2.94  13 2.94   8 2.94   4 2.94
                             9 2.94
   8  0.333  0.667  0.197-   9 2.94  17 2.94   1 2.94   2 2.94  14 2.94  16 2.94   6 2.94   7 2.94
                             5 2.94
   9  0.667  0.667  0.197-   2 2.94   8 2.94  17 2.94   6 2.94  15 2.94   4 2.94   3 2.94  18 2.94
                             7 2.94
  10  0.111  0.111  0.287-  20 2.90  11 2.94  17 2.94   2 2.94   4 2.94   1 2.94  12 2.94  16 2.94
                            13 2.94  15 2.94  26 2.96  19 2.96
  11  0.444  0.111  0.287-  20 2.91  21 2.91  13 2.94   2 2.94  10 2.94  17 2.94   5 2.94   3 2.94
                            18 2.94  14 2.94  12 2.94  27 2.94
  12  0.778  0.111  0.287-  21 2.90  16 2.94  18 2.94   1 2.94  14 2.94  15 2.94   3 2.94   6 2.94
                            10 2.94  11 2.94  25 2.96  19 2.96
  13  0.111  0.444  0.287-  23 2.91  20 2.91   5 2.94  18 2.94  11 2.94   7 2.94   4 2.94  16 2.94
                            10 2.94  14 2.94  15 2.94  22 2.94
  14  0.444  0.444  0.287-  21 2.91  23 2.91  15 2.94   6 2.94  12 2.94   8 2.94  17 2.94   5 2.94
                            16 2.94  13 2.94  11 2.94  24 2.94
  15  0.778  0.444  0.287-  24 2.92  22 2.92  14 2.94   6 2.94  17 2.94  12 2.94   9 2.94   4 2.94
                            10 2.94  13 2.94  18 2.94  19 2.95
  16  0.111  0.778  0.287-  23 2.90  18 2.94  12 2.94   7 2.94   1 2.94   8 2.94  13 2.94  10 2.94
                            14 2.94  17 2.94  25 2.96  26 2.96
  17  0.444  0.778  0.287-  27 2.92  24 2.92   9 2.94  15 2.94   2 2.94  10 2.94  11 2.94   8 2.94
                            14 2.94  16 2.94  18 2.94  26 2.95
  18  0.778  0.778  0.287-  22 2.92  27 2.92  16 2.94   7 2.94  13 2.94  12 2.94   3 2.94  11 2.94
                             9 2.94  15 2.94  17 2.94  25 2.95
  19  0.888  0.224  0.377-  24 2.93  22 2.93  21 2.93  20 2.93  28 2.94  15 2.95  26 2.96  25 2.96
                            10 2.96  12 2.96  32 3.02  31 3.02
  20  0.222  0.222  0.375-  36 2.75  10 2.90  11 2.91  13 2.91  26 2.93  19 2.93  23 2.95  21 2.95
                            27 2.96  22 2.96  29 2.97  31 2.97
  21  0.556  0.222  0.375-  36 2.75  12 2.90  14 2.91  11 2.91  25 2.93  19 2.93  20 2.95  23 2.95
                            27 2.96  24 2.96  30 2.97  32 2.97
  22  0.886  0.557  0.376-  24 2.90  27 2.90  18 2.92  15 2.92  25 2.93  19 2.93  13 2.94  35 2.95
                            23 2.96  20 2.96  33 3.00  31 3.00
  23  0.222  0.556  0.375-  36 2.75  16 2.90  13 2.91  14 2.91  25 2.93  26 2.93  20 2.95  21 2.95
                            22 2.96  24 2.96  33 2.97  34 2.97
  24  0.557  0.557  0.376-  27 2.90  22 2.90  15 2.92  17 2.92  26 2.93  19 2.93  14 2.94  35 2.95
                            21 2.96  23 2.96  32 3.00  34 3.00
  25  0.888  0.888  0.377-  22 2.93  27 2.93  23 2.93  21 2.93  28 2.94  18 2.95  19 2.96  26 2.96
                            16 2.96  12 2.96  33 3.02  30 3.02
  26  0.224  0.888  0.377-  27 2.93  24 2.93  20 2.93  23 2.93  28 2.94  17 2.95  19 2.96  25 2.96
                            10 2.96  16 2.96  29 3.02  34 3.02
  27  0.557  0.886  0.376-  24 2.90  22 2.90  17 2.92  18 2.92  26 2.93  25 2.93  11 2.94  35 2.95
                            20 2.96  21 2.96  29 3.00  30 3.00
  28  0.000  0.000  0.467-  25 2.94  19 2.94  26 2.94  34 2.99  32 2.99  33 2.99  30 2.99  31 2.99
                            29 2.99
  29  0.333  0.011  0.469-  30 2.84  31 2.84  36 2.86  20 2.97  35 2.99  28 2.99  27 3.00  26 3.02
                            34 3.14
  30  0.655  0.011  0.469-  29 2.84  32 2.84  36 2.86  21 2.97  35 2.99  28 2.99  27 3.00  25 3.02
                            33 3.14
  31  0.011  0.333  0.469-  33 2.84  29 2.84  36 2.86  20 2.97  35 2.99  28 2.99  22 3.00  19 3.02
                            32 3.14
  32  0.655  0.333  0.469-  34 2.84  30 2.84  36 2.86  21 2.97  35 2.99  28 2.99  24 3.00  19 3.02
                            31 3.14
  33  0.011  0.655  0.469-  31 2.84  34 2.84  36 2.86  23 2.97  35 2.99  28 2.99  22 3.00  25 3.02
                            30 3.14
  34  0.333  0.655  0.469-  32 2.84  33 2.84  36 2.86  23 2.97  35 2.99  28 2.99  24 3.00  26 3.02
                            29 3.14
  35  0.667  0.667  0.467-  24 2.95  27 2.95  22 2.95  29 2.99  34 2.99  32 2.99  31 2.99  30 2.99
                            33 2.99
  36  0.333  0.333  0.456-  37 1.81  20 2.75  23 2.75  21 2.75  33 2.86  31 2.86  29 2.86  30 2.86
                            34 2.86  32 2.86
  37  0.333  0.333  0.524-  38 1.25  36 1.81
  38  0.333  0.333  0.570-  39 0.96  37 1.25
  39  0.333  0.333  0.606-  38 0.96

  LATTYP: Found a hexagonal cell.
 ALAT       =     8.8135128021
 C/A-ratio  =     3.0356784858

  Lattice vectors:

 A1 = (  -4.4067569092,  -7.6327256898,   0.0000000000)
 A2 = (   8.8135128021,   0.0000000000,   0.0000000000)
 A3 = (   0.0000000000,   0.0000000000,  26.7549911976)

Analysis of symmetry for initial positions (statically):
 Subroutine PRICEL returns:
 Original cell was already a primitive cell.

 Routine SETGRP: Setting up the symmetry group for a
 hexagonal supercell.

 Subroutine GETGRP returns: Found  6 space group operations
 (whereof  6 operations were pure point group operations)
 out of a pool of 24 trial point group operations.

The static configuration has the point symmetry C_3v.

Analysis of symmetry for dynamics (positions and initial velocities):
[...]
     41      -5.0363      2.00000
     42      -4.9136      2.00000
     43      -4.8945      2.00000
     44      -4.8372      2.00000
     45      -4.7854      2.00000
     46      -4.7682      2.00000
     47      -4.7313      2.00000
     48      -4.7172      2.00000
     49      -4.6749      2.00000
     50      -4.6572      2.00000
     51      -4.5656      2.00000
     52      -4.5419      2.00000
     53      -4.5222      2.00000
     54      -4.5034      2.00000
     55      -4.4801      2.00000
     56      -4.4742      2.00000
     57      -4.4659      2.00000
     58      -4.4408      2.00000
     59      -4.4054      2.00000
     60      -4.3655      2.00000
[...]
    238       5.2578      0.00000
    239       5.3031      0.00000
    240       5.4491      0.00000
    241       5.5722      0.00000
    242       5.6918      0.00000
    243       5.9067      0.00000
    244       5.9220      0.00000
    245       5.9914      0.00000
    246       6.0504      0.00000
    247       6.1147      0.00000
    248       6.1404      0.00000
    249       6.1730      0.00000
    250       6.2850      0.00000
    251       6.3501      0.00000
    252       6.3898      0.00000

 soft charge-density along one line, spin component           1
         0         1         2         3         4         5         6         7         8         9
 total charge-density along one line

------------------------ aborting loop because EDIFF is reached ----------------------------------------

 total charge

# of ion       s       p       d       tot
    1        0.546   0.239   8.767   9.552
    2        0.546   0.241   8.764   9.552
    3        0.546   0.241   8.764   9.552
    4        0.546   0.241   8.764   9.552
    5        0.544   0.243   8.762   9.548
    6        0.546   0.241   8.764   9.552
    7        0.546   0.241   8.764   9.552
    8        0.546   0.241   8.764   9.552
    9        0.541   0.241   8.769   9.551
   10        0.522   0.307   8.771   9.600
   11        0.523   0.308   8.779   9.610
   12        0.522   0.307   8.771   9.600
   13        0.523   0.308   8.779   9.610
   14        0.523   0.308   8.779   9.610
   15        0.513   0.310   8.775   9.598
   16        0.522   0.307   8.771   9.600
   17        0.513   0.310   8.775   9.598
   18        0.513   0.310   8.775   9.598
   19        0.518   0.295   8.772   9.585
   20        0.557   0.340   8.744   9.641
   21        0.557   0.340   8.744   9.641
   22        0.508   0.309   8.776   9.593
   23        0.557   0.340   8.744   9.641
   24        0.508   0.309   8.776   9.593
   25        0.518   0.295   8.772   9.585
   26        0.518   0.295   8.772   9.585
   27        0.508   0.309   8.776   9.593
   28        0.544   0.226   8.761   9.531
   29        0.556   0.255   8.749   9.560
   30        0.556   0.255   8.749   9.560
   31        0.556   0.255   8.749   9.560
   32        0.556   0.255   8.749   9.560
   33        0.556   0.255   8.749   9.560
   34        0.556   0.255   8.749   9.560
   35        0.538   0.229   8.759   9.525
   36        0.550   0.560   4.860   5.970
   37        0.919   1.487   0.000   2.406
   38        1.521   3.778   0.000   5.299
   39        0.560   0.137   0.000   0.698
tot         22.299  15.728 311.608 349.635

  FORCE on cell =-STRESS in cart. coord.  units (eV):
  Direction    XX          YY          ZZ          XY          YZ          ZX
  Alpha Z   870.46155   870.46155   870.46155
  Ewald  185550.40191185550.40235************    -0.00031    -0.00008    -0.00013
  Hartree194081.44459194081.44460************     0.00001    -0.00002    -0.00004
  E(xc)   -1807.60285 -1807.60300 -1814.37649     0.00013    -0.00001    -0.00002
  Local  ************************391735.66766     0.00215     0.00000    -0.00002
  n-local  -124.05980   -76.97329   -73.93802    23.50192    -1.61570     1.28734
  augment  2382.16949  2382.17098  2395.60816    -0.00129     0.00002     0.00005
  Kinetic  5657.83305  5669.12860  5645.53865     7.12661     0.09339     0.35857
  Fock        0.00000     0.00000     0.00000     0.00000     0.00000     0.00000
  Total     -20.40509   -20.40509     2.69526    -0.00000     0.00000     0.00000
  in kB     -18.16417   -18.16417     2.39926    -0.00000     0.00000     0.00000

 VOLUME and BASIS-vectors are now :
  energy-cutoff  :      500.00
  volume of cell :     1799.84
      direct lattice vectors                 reciprocal lattice vectors
     8.813512802  0.000000000  0.000000000     0.113462137 -0.065507406  0.000000000
     4.406756909  7.632725690  0.000000000     0.000000000  0.131014796  0.000000000
     0.000000000  0.000000000 26.754991198     0.000000000  0.000000000  0.037376204

  length of vectors
     8.813512802  8.813512802 26.754991198     0.131014796  0.131014796  0.037376204

 FORCES acting on ions
    electron-ion (+dipol)            ewald-force                    non-local-force                 convergence-correction
   -.201E-04 -.165E-04 0.282E+04   0.520E-04 0.434E-04 -.282E+04   0.126E-17 -.197E-17 -.949E+00   -.161E-03 -.106E-03 -.427E+00
   0.749E+00 0.257E+00 0.282E+04   -.822E+00 -.366E+00 -.282E+04   0.304E-01 0.780E-01 -.244E+00   0.474E-01 0.480E-01 -.368E+00
   -.749E+00 0.257E+00 0.282E+04   0.822E+00 -.366E+00 -.282E+04   -.304E-01 0.780E-01 -.244E+00   -.471E-01 0.499E-01 -.368E+00
   0.596E+00 0.520E+00 0.282E+04   -.728E+00 -.529E+00 -.282E+04   0.827E-01 -.127E-01 -.244E+00   0.653E-01 0.169E-01 -.368E+00
   0.105E-04 -.222E-04 0.283E+04   0.951E-04 0.175E-05 -.282E+04   0.226E-17 -.843E-18 -.133E+00   0.418E-02 0.255E-02 -.317E+00
   -.597E+00 0.520E+00 0.282E+04   0.728E+00 -.529E+00 -.282E+04   -.827E-01 -.127E-01 -.244E+00   -.668E-01 0.179E-01 -.367E+00
   -.152E+00 -.777E+00 0.282E+04   0.945E-01 0.895E+00 -.282E+04   0.523E-01 -.653E-01 -.244E+00   0.197E-01 -.658E-01 -.367E+00
   0.152E+00 -.777E+00 0.282E+04   -.946E-01 0.895E+00 -.282E+04   -.523E-01 -.653E-01 -.244E+00   -.179E-01 -.668E-01 -.367E+00
   0.197E-04 -.414E-04 0.282E+04   0.166E-03 -.201E-04 -.282E+04   0.551E-17 0.615E-18 -.647E+00   -.457E-02 -.236E-02 -.417E+00
   0.812E+01 0.469E+01 0.970E+03   -.789E+01 -.455E+01 -.970E+03   -.379E+00 -.219E+00 -.629E+00   0.129E+00 0.746E-01 0.420E+00
   0.149E-04 0.470E+01 0.979E+03   0.148E-03 -.488E+01 -.979E+03   0.335E-08 0.503E-01 -.294E+00   0.354E-02 0.591E-01 0.470E+00
   -.812E+01 0.469E+01 0.970E+03   0.789E+01 -.455E+01 -.970E+03   0.379E+00 -.219E+00 -.629E+00   -.130E+00 0.753E-01 0.418E+00
   0.407E+01 -.235E+01 0.979E+03   -.423E+01 0.244E+01 -.979E+03   0.435E-01 -.251E-01 -.294E+00   0.533E-01 -.262E-01 0.470E+00
   -.407E+01 -.235E+01 0.979E+03   0.423E+01 0.244E+01 -.979E+03   -.435E-01 -.251E-01 -.294E+00   -.463E-01 -.269E-01 0.469E+00
   0.313E-04 0.517E+01 0.975E+03   0.236E-03 -.523E+01 -.975E+03   -.268E-09 -.402E-02 -.471E+00   -.171E-02 0.381E-02 0.366E+00
   -.209E-04 -.937E+01 0.970E+03   0.163E-03 0.911E+01 -.970E+03   0.292E-07 0.438E+00 -.629E+00   -.176E-03 -.150E+00 0.418E+00
   0.448E+01 -.259E+01 0.975E+03   -.453E+01 0.262E+01 -.975E+03   -.348E-02 0.201E-02 -.471E+00   0.269E-02 -.295E-02 0.366E+00
   -.448E+01 -.259E+01 0.975E+03   0.453E+01 0.262E+01 -.975E+03   0.348E-02 0.201E-02 -.471E+00   -.249E-02 -.169E-02 0.366E+00
   -.438E-04 0.435E+01 -.917E+03   0.543E-04 -.440E+01 0.916E+03   -.268E-08 -.403E-01 0.652E+00   0.509E-02 0.546E-01 0.107E+01
   0.102E+02 0.587E+01 -.860E+03   -.961E+01 -.555E+01 0.860E+03   -.108E+01 -.624E+00 -.106E+01   0.372E+00 0.215E+00 0.148E+01
   -.102E+02 0.587E+01 -.860E+03   0.961E+01 -.555E+01 0.860E+03   0.108E+01 -.624E+00 -.106E+01   -.380E+00 0.216E+00 0.148E+01
   -.462E+01 0.267E+01 -.893E+03   0.396E+01 -.229E+01 0.891E+03   0.440E+00 -.254E+00 0.733E+00   0.227E+00 -.132E+00 0.110E+01
   -.109E-04 -.117E+02 -.860E+03   0.140E-03 0.111E+02 0.860E+03   0.831E-07 0.125E+01 -.106E+01   -.368E-02 -.437E+00 0.148E+01
   0.462E+01 0.267E+01 -.893E+03   -.396E+01 -.229E+01 0.891E+03   -.440E+00 -.254E+00 0.733E+00   -.225E+00 -.130E+00 0.110E+01
   -.377E+01 -.218E+01 -.917E+03   0.381E+01 0.220E+01 0.916E+03   0.349E-01 0.201E-01 0.652E+00   -.428E-01 -.248E-01 0.107E+01
   0.377E+01 -.218E+01 -.917E+03   -.381E+01 0.220E+01 0.916E+03   -.349E-01 0.201E-01 0.652E+00   0.501E-01 -.229E-01 0.107E+01
   0.992E-05 -.533E+01 -.893E+03   0.197E-03 0.458E+01 0.891E+03   0.338E-07 0.508E+00 0.733E+00   -.154E-02 0.262E+00 0.110E+01
   -.155E-04 -.139E-04 -.271E+04   0.308E-04 0.349E-04 0.271E+04   0.117E-17 0.797E-17 0.357E+00   0.155E-02 0.876E-03 0.810E+00
   0.356E+02 0.608E+02 -.270E+04   -.352E+02 -.605E+02 0.270E+04   -.858E+00 -.116E+01 0.212E+00   0.294E+00 0.493E+00 0.605E+00
   -.356E+02 0.608E+02 -.270E+04   0.352E+02 -.605E+02 0.270E+04   0.858E+00 -.116E+01 0.212E+00   -.300E+00 0.494E+00 0.606E+00
   0.705E+02 0.432E+00 -.270E+04   -.700E+02 -.258E+00 0.270E+04   -.143E+01 -.164E+00 0.212E+00   0.574E+00 0.800E-02 0.605E+00
   -.705E+02 0.432E+00 -.270E+04   0.700E+02 -.258E+00 0.270E+04   0.143E+01 -.164E+00 0.212E+00   -.581E+00 0.922E-02 0.607E+00
   0.349E+02 -.613E+02 -.270E+04   -.348E+02 0.607E+02 0.270E+04   -.575E+00 0.132E+01 0.212E+00   0.278E+00 -.507E+00 0.606E+00
   -.349E+02 -.613E+02 -.270E+04   0.348E+02 0.607E+02 0.270E+04   0.575E+00 0.132E+01 0.212E+00   -.282E+00 -.508E+00 0.607E+00
   0.346E-04 -.273E-04 -.271E+04   0.140E-03 -.506E-04 0.271E+04   0.558E-17 0.252E-17 0.394E+00   -.326E-02 -.159E-02 0.772E+00
   -.174E-05 -.348E-05 -.147E+04   0.737E-04 0.671E-05 0.147E+04   -.306E-17 0.164E-18 0.273E+00   0.141E-02 0.847E-03 0.511E+00
   -.655E-05 -.810E-04 -.103E+04   0.161E-04 0.101E-05 0.101E+04   -.251E-18 -.251E-18 0.191E+02   0.129E-02 0.782E-03 -.408E+00
   0.246E-03 -.893E-04 -.174E+04   0.533E-05 0.528E-06 0.175E+04   0.447E-18 -.311E-18 -.671E+01   0.389E-02 0.238E-02 -.350E+00
   0.626E-05 -.146E-04 -.334E+03   0.224E-06 0.392E-07 0.343E+03   -.174E-19 -.527E-20 -.871E+01   0.202E-03 0.124E-03 -.429E-01
   -.535E-03 -.951E-03 -.153E+02   -.464E-14 -.739E-13 0.171E-11   0.114E-15 -.442E-15 -.402E+00   -.428E-02 -.173E-02 0.163E+02

 POSITION                                       TOTAL-FORCE (eV/Angst)
      0.00000      0.00000      5.28038         0.000000     -0.000000     -0.108897
      2.93784      0.00000      5.28038         0.004384      0.017844     -0.055031
      5.87568      0.00000      5.28038        -0.004384      0.017844     -0.055031
      1.46892      2.54424      5.28038         0.017645     -0.005125     -0.055031
      4.40676      2.54424      5.28038         0.000000     -0.000000     -0.079293
      7.34459      2.54424      5.28038        -0.017645     -0.005125     -0.055031
      2.93784      5.08848      5.28038         0.013261     -0.012719     -0.055031
      5.87568      5.08848      5.28038        -0.013261     -0.012719     -0.055031
      8.81351      5.08848      5.28038         0.000000      0.000000     -0.052417
      1.46892      0.84808      7.67911        -0.019088     -0.011021      0.175649
      4.40676      0.84808      7.67911        -0.000000     -0.072707      0.052434
      7.34459      0.84808      7.67911         0.019088     -0.011021      0.175649
      2.93784      3.39232      7.67911        -0.062966      0.036354      0.052434
      5.87568      3.39232      7.67911         0.062966      0.036354      0.052434
      8.81351      3.39232      7.67911        -0.000000     -0.058973      0.150896
      4.40676      5.93656      7.67911         0.000000      0.022041      0.175649
      7.34459      5.93656      7.67911        -0.051072      0.029486      0.150896
     10.28243      5.93656      7.67911         0.051072      0.029486      0.150896
      8.81351      1.70659     10.09931        -0.000000     -0.031183      0.004681
      2.93410      1.69400     10.03753        -0.142944     -0.082529     -0.301177
      5.87941      1.69400     10.03753         0.142944     -0.082529     -0.301177
     10.26439      4.25082     10.06692         0.011100     -0.006408      0.023859
      4.40676      4.24472     10.03753         0.000000      0.165058     -0.301177
      7.36264      4.25082     10.06692        -0.011100     -0.006408      0.023859
     11.74232      6.77943     10.09931         0.027005      0.015591      0.004681
      5.88471      6.77943     10.09931        -0.027005      0.015591      0.004681
      8.81351      6.76381     10.06692         0.000000      0.012817      0.023859
      0.00000      0.00000     12.49835         0.000000     -0.000000     -0.131407
      2.98825      0.08685     12.53577        -0.159344     -0.315855     -0.217057
      5.82526      0.08685     12.53577         0.159344     -0.315855     -0.217057
      1.56934      2.54447     12.53577        -0.353211      0.019931     -0.217057
      7.24417      2.54447     12.53577         0.353211      0.019931     -0.217057
      2.98785      5.00140     12.53577        -0.193867      0.295924     -0.217057
      5.82567      5.00140     12.53577         0.193867      0.295924     -0.217057
      8.81351      5.08848     12.49628         0.000000      0.000000     -0.076779
      4.40676      2.54424     12.20474         0.000000     -0.000000      1.706161
      4.40676      2.54424     14.01060         0.000000     -0.000000      0.061605
      4.40676      2.54424     15.26235         0.000000     -0.000000     -0.014292
      4.40676      2.54424     16.21921         0.000000      0.000000      0.008819
    total drift:                               -0.004811     -0.002683      0.533253

  FREE ENERGIE OF THE ION-ELECTRON SYSTEM (eV)
  free  energy   TOTEN  =      -135.05273242 eV

  energy  without entropy=     -135.05273242  energy(sigma->0) =     -135.05273242

 stress matrix after NEB project (eV)
    -20.40509     -0.00000      0.00000
     -0.00000    -20.40509      0.00000
      0.00000      0.00000      2.69526
  FORCES: max atom, RMS     0.061605    0.010225
  FORCE total and by dimension    0.063853    0.061605
  Stress total and by dimension   28.982750   20.405091
|           W    W    AA    RRRRR   N    N  II  N    N   GGGG   !!!           |
|           W    W   A  A   R    R  NN   N  II  NN   N  G    G  !!!           |
|           W    W  A    A  R    R  N N  N  II  N N  N  G       !!!           |
|           W WW W  AAAAAA  RRRRR   N  N N  II  N  N N  G  GGG   !            |
|           WW  WW  A    A  R   R   N   NN  II  N   NN  G    G                |
|           W    W  A    A  R    R  N    N  II  N    N   GGGG   !!!           |
|     Tetrahedron method does not include variations of the Fermi             |
|     occupations, so forces and stress will be inaccurate. We suggest        |
|     using a different smearing scheme ISMEAR = 1 or 2 for metals in         |
|     relaxations.                                                            |

 total charge

# of ion       s       p       d       tot
    1        0.546   0.239   8.767   9.552
    2        0.546   0.241   8.764   9.552
    3        0.546   0.241   8.764   9.552
    4        0.546   0.241   8.764   9.552
    5        0.544   0.243   8.762   9.548
    6        0.546   0.241   8.764   9.552
    7        0.546   0.241   8.764   9.552
    8        0.546   0.241   8.764   9.552
    9        0.541   0.241   8.769   9.551
   10        0.522   0.307   8.771   9.600
   11        0.523   0.308   8.779   9.610
   12        0.522   0.307   8.771   9.600
   13        0.523   0.308   8.779   9.610
   14        0.523   0.308   8.779   9.610
   15        0.513   0.310   8.775   9.598
   16        0.522   0.307   8.771   9.600
   17        0.513   0.310   8.775   9.598
   18        0.513   0.310   8.775   9.598
   19        0.518   0.295   8.772   9.585
   20        0.557   0.340   8.744   9.641
   21        0.557   0.340   8.744   9.641
   22        0.508   0.309   8.776   9.593
   23        0.557   0.340   8.744   9.641
   24        0.508   0.309   8.776   9.593
   25        0.518   0.295   8.772   9.585
   26        0.518   0.295   8.772   9.585
   27        0.508   0.309   8.776   9.593
   28        0.544   0.226   8.761   9.531
   29        0.556   0.255   8.749   9.560
   30        0.556   0.255   8.749   9.560
   31        0.556   0.255   8.749   9.560
   32        0.556   0.255   8.749   9.560
   33        0.556   0.255   8.749   9.560
   34        0.556   0.255   8.749   9.560
   35        0.538   0.229   8.759   9.525
   36        0.550   0.560   4.860   5.970
   37        0.919   1.487   0.000   2.406
   38        1.521   3.778   0.000   5.299
   39        0.560   0.137   0.000   0.698
tot         22.299  15.728 311.608 349.635

 BZINTS: Fermi energy:    0.318018;  403.000000 electrons
         Band energy:-0.146060E+04;  BLOECHL correction:   -0.046616