 vasp.6.2.0 18Jan21 (build Jun 12 2021 23:27:24) complex

 executed on             LinuxIFC date 2022.05.28  01:58:34

 INCAR:
   ISMEAR = -5
   SIGMA = 0.1
   ISPIN = 1
   EDIFF = 1.d-5
   EDIFFG = -0.01
   NSW = 0
   NELM = 150
   ENCUT = 500
   ISIF = 2
   IBRION = 2
   LREAL = Auto
   ALGO = Fast
   ICHARG = 11
   LORBIT = 10
   LCHARG = .F.
   LWAVE = .F.

 POTCAR:    PAW_PBE Ag 02Apr2005
 POTCAR:    PAW_PBE Ta 17Jan2003
 POTCAR:    PAW_PBE C 08Apr2002
 POTCAR:    PAW_PBE O 08Apr2002
|           W    W    AA    RRRRR   N    N  II  N    N   GGGG   !!!           |
|           W    W   A  A   R    R  NN   N  II  NN   N  G    G  !!!           |
|           W    W  A    A  R    R  N N  N  II  N N  N  G       !!!           |
|           W WW W  AAAAAA  RRRRR   N  N N  II  N  N N  G  GGG   !            |
|           WW  WW  A    A  R   R   N   NN  II  N   NN  G    G                |
|           W    W  A    A  R    R  N    N  II  N    N   GGGG   !!!           |
|     For optimal performance we recommend to set                             |
|       NCORE = 2 up to number-of-cores-per-socket                            |
|     This setting can greatly improve the performance of VASP for DFT.       |
|     The default, NCORE=1 might be grossly inefficient on modern             |
|     multi-core architectures or massively parallel machines. Do your        |
|     Unfortunately you need to use the default for GW and RPA                |
|     calculations (for HF NCORE is supported but not extensively tested      |
|     yet).                                                                   |

 POTCAR:    PAW_PBE Ag 02Apr2005
   VRHFIN =Ag : s1 d10

   TITEL  = PAW_PBE Ag 02Apr2005
   POMASS =  107.868; ZVAL   =   11.000    mass and valenz
   ENMAX  =  249.844; ENMIN  =  187.383 eV

 POTCAR:    PAW_PBE Ta 17Jan2003
   VRHFIN =Ta:  6s5d

   TITEL  = PAW_PBE Ta 17Jan2003
   POMASS =  180.948; ZVAL   =    5.000    mass and valenz
   ENMAX  =  223.667; ENMIN  =  167.750 eV

 POTCAR:    PAW_PBE C 08Apr2002
   VRHFIN =C: s2p2

[...]

 POTCAR:    PAW_PBE O 08Apr2002
   VRHFIN =O: s2p4

   TITEL  = PAW_PBE O 08Apr2002
   POMASS =   16.000; ZVAL   =    6.000    mass and valenz
   ENMAX  =  400.000; ENMIN  =  300.000 eV

 Optimization of the real space projectors (new method)

 maximal supplied QI-value         = 15.12
 optimisation between [QCUT,QGAM] = [ 11.34, 22.83] = [ 36.00,145.93] Ry
 Optimized for a Real-space Cutoff    1.43 Angstroem

   l    n(q)    QCUT    max X(q) W(low)/X(q) W(high)/X(q)  e(spline)
   2      9    11.338    53.897    0.16E-03    0.20E-03    0.28E-06
   2      9    11.338    52.416    0.16E-03    0.20E-03    0.29E-06
   0     10    11.338   122.045    0.31E-04    0.76E-04    0.15E-06
   0     10    11.338    73.629    0.30E-04    0.72E-04    0.15E-06
   1      9    11.338    15.255    0.20E-03    0.19E-04    0.17E-06
   1      9    11.338     9.562    0.16E-03    0.15E-04    0.14E-06
 Optimization of the real space projectors (new method)

[...]

   l    n(q)    QCUT    max X(q) W(low)/X(q) W(high)/X(q)  e(spline)
   0      7    11.310   115.676    0.43E-03    0.13E-02    0.19E-06
   0      7    11.310    87.132    0.43E-03    0.13E-02    0.18E-06
   1      6    11.310     4.429    0.42E-03    0.74E-03    0.11E-06
   1      6    11.310     2.733    0.34E-03    0.55E-03    0.92E-07
 Optimization of the real space projectors (new method)

 maximal supplied QI-value         = 24.76
 optimisation between [QCUT,QGAM] = [ 11.39, 22.77] = [ 36.31,145.25] Ry
 Optimized for a Real-space Cutoff    1.00 Angstroem

   l    n(q)    QCUT    max X(q) W(low)/X(q) W(high)/X(q)  e(spline)
   0      7    11.387    20.381    0.39E-03    0.13E-02    0.15E-06
   0      7    11.387    15.268    0.42E-03    0.14E-02    0.17E-06
   1      6    11.387     5.964    0.41E-03    0.11E-02    0.17E-06
   1      6    11.387     5.382    0.39E-03    0.87E-03    0.15E-06
  PAW_PBE Ag 02Apr2005                  :
  PAW_PBE Ta 17Jan2003                  :
  PAW_PBE C 08Apr2002                   :
  PAW_PBE O 08Apr2002                   :

 POSCAR: Ag-Ta-CO2
  positions in direct lattice
  velocities in cartesian coordinates
 exchange correlation table for  LEXCH =        8
   RHO(1)=    0.500       N(1)  =     2000
   RHO(2)=  100.500       N(2)  =     4000

 VTST: version 3.2, (02/03/18)

 CHAIN: initializing optimizer

 OPT: Using VASP Conjugate-Gradient optimizer
 CHAIN: Read ICHAIN            0

 POSCAR: Ag-Ta-CO2
  positions in direct lattice
  velocities in cartesian coordinates

 ion  position               nearest neighbor table
   1  0.000  0.000  0.217-   2 2.93   8 2.93   7 2.93   6 2.93   4 2.93  12 2.93  16 2.93  10 2.93
                             3 2.93
   2  0.333  0.000  0.217-   1 2.93   8 2.93   9 2.93   3 2.93   4 2.93   5 2.93  10 2.93  17 2.93
                            11 2.93
   3  0.667  0.000  0.217-   9 2.93   2 2.93   5 2.93  11 2.93   7 2.93  18 2.93   1 2.93   6 2.93
                            12 2.93
   4  0.000  0.333  0.217-   5 2.93   6 2.93   2 2.93   1 2.93   7 2.93  13 2.93  15 2.93   9 2.93
                            10 2.93
   5  0.333  0.333  0.217-   4 2.93   3 2.93   7 2.93   2 2.93   8 2.93  14 2.93  13 2.93  11 2.93
                             6 2.93
   6  0.667  0.333  0.217-   4 2.93   9 2.93   1 2.93  15 2.93   8 2.93  12 2.93   3 2.93   5 2.93
                            14 2.93
   7  0.000  0.667  0.217-   8 2.93   1 2.93   5 2.93   3 2.93   4 2.93  16 2.93  18 2.93  13 2.93
                             9 2.93
   8  0.333  0.667  0.217-   7 2.93   1 2.93   2 2.93   9 2.93   5 2.93  16 2.93   6 2.93  17 2.93
                            14 2.93
   9  0.667  0.667  0.217-   3 2.93   2 2.93   8 2.93   6 2.93  17 2.93   4 2.93  15 2.93   7 2.93
                            18 2.93
  10  0.111  0.111  0.315-  20 2.89  12 2.93  16 2.93  15 2.93  17 2.93  13 2.93  11 2.93   2 2.93
                             1 2.93   4 2.93  19 2.93  26 2.93
  11  0.444  0.111  0.315-  21 2.90  20 2.90  14 2.93  17 2.93  18 2.93   3 2.93  12 2.93  13 2.93
                            10 2.93   5 2.93   2 2.93  27 2.93
  12  0.778  0.111  0.315-  21 2.89  10 2.93  16 2.93  18 2.93  15 2.93  11 2.93   1 2.93  14 2.93
                             6 2.93   3 2.93  25 2.93  19 2.93
  13  0.111  0.444  0.315-  20 2.90  23 2.90  15 2.93  14 2.93  18 2.93  10 2.93  11 2.93  16 2.93
                             4 2.93   5 2.93   7 2.93  22 2.93
  14  0.444  0.444  0.315-  23 2.90  21 2.90  13 2.93  11 2.93  16 2.93   5 2.93  12 2.93  17 2.93
                             8 2.93  15 2.93   6 2.93  24 2.93
  15  0.778  0.444  0.315-  19 2.93  24 2.93  22 2.93  13 2.93  10 2.93  12 2.93  17 2.93  18 2.93
                             4 2.93   6 2.93   9 2.93  14 2.93
  16  0.111  0.778  0.315-  23 2.89  18 2.93  12 2.93  10 2.93  14 2.93  17 2.93  13 2.93   7 2.93
                             8 2.93   1 2.93  26 2.93  25 2.93
  17  0.444  0.778  0.315-  26 2.93  27 2.93  24 2.93  11 2.93  10 2.93   9 2.93  18 2.93  15 2.93
                            16 2.93   2 2.93  14 2.93   8 2.93
  18  0.778  0.778  0.315-  25 2.93  22 2.93  27 2.93  16 2.93  12 2.93  13 2.93  11 2.93  17 2.93
                            15 2.93   7 2.93   3 2.93   9 2.93
  19  0.889  0.223  0.413-  20 2.92  21 2.92  24 2.93  22 2.93  28 2.93  15 2.93  10 2.93  12 2.93
                            26 2.94  25 2.94  32 2.99  31 2.99
  20  0.222  0.222  0.412-  36 2.78  10 2.89  13 2.90  11 2.90  19 2.92  26 2.92  27 2.93  22 2.93
                            21 2.95  23 2.95  31 2.97  29 2.97
  21  0.557  0.222  0.412-  36 2.78  12 2.89  11 2.90  14 2.90  25 2.92  19 2.92  27 2.93  24 2.93
                            20 2.95  23 2.95  30 2.97  32 2.97
  22  0.888  0.556  0.413-  24 2.92  27 2.92  25 2.93  19 2.93  18 2.93  15 2.93  13 2.93  23 2.93
                            20 2.93  35 2.94  33 2.96  31 2.96
  23  0.222  0.557  0.412-  36 2.78  16 2.89  14 2.90  13 2.90  26 2.92  25 2.92  22 2.93  24 2.93
                            21 2.95  20 2.95  34 2.97  33 2.97
  24  0.556  0.556  0.413-  27 2.92  22 2.92  19 2.93  26 2.93  15 2.93  17 2.93  14 2.93  23 2.93
                            21 2.93  35 2.94  32 2.96  34 2.96
  25  0.889  0.889  0.413-  23 2.92  21 2.92  22 2.93  27 2.93  28 2.93  18 2.93  16 2.93  12 2.93
                            26 2.94  19 2.94  33 2.99  30 2.99
  26  0.223  0.889  0.413-  23 2.92  20 2.92  27 2.93  24 2.93  28 2.93  17 2.93  16 2.93  10 2.93
                            25 2.94  19 2.94  34 2.99  29 2.99
  27  0.556  0.888  0.413-  24 2.92  22 2.92  26 2.93  25 2.93  17 2.93  18 2.93  11 2.93  20 2.93
                            21 2.93  35 2.94  29 2.96  30 2.96
  28  0.000  0.000  0.512-  26 2.93  25 2.93  19 2.93  29 2.96  34 2.96  33 2.96  32 2.96  31 2.96
                            30 2.96
  29  0.334  0.006  0.513-  30 2.88  31 2.88  36 2.89  35 2.96  28 2.96  27 2.96  20 2.97  26 2.99
                            34 3.03
  30  0.661  0.006  0.513-  29 2.88  32 2.88  36 2.89  35 2.96  28 2.96  27 2.96  21 2.97  25 2.99
                            33 3.03
  31  0.006  0.334  0.513-  33 2.88  29 2.88  36 2.89  35 2.96  28 2.96  22 2.96  20 2.97  19 2.99
                            32 3.03
  32  0.661  0.334  0.513-  34 2.88  30 2.88  36 2.89  35 2.96  28 2.96  24 2.96  21 2.97  19 2.99
                            31 3.03
  33  0.006  0.661  0.513-  31 2.88  34 2.88  36 2.89  35 2.96  28 2.96  22 2.96  23 2.97  25 2.99
                            30 3.03
  34  0.334  0.661  0.513-  32 2.88  33 2.88  36 2.89  35 2.96  28 2.96  24 2.96  23 2.97  26 2.99
                            29 3.03
  35  0.667  0.667  0.512-  24 2.94  27 2.94  22 2.94  30 2.96  32 2.96  29 2.96  34 2.96  31 2.96
                            33 2.96
  36  0.333  0.333  0.502-  37 2.15  21 2.78  20 2.78  23 2.78  31 2.89  33 2.89  30 2.89  29 2.89
                            34 2.89  32 2.89
  37  0.333  0.334  0.590-  39 1.25  38 1.25  36 2.15
  38  0.201  0.332  0.609-  37 1.25
  39  0.467  0.332  0.609-  37 1.25

  LATTYP: Found a hexagonal cell.
 ALAT       =     8.7913665772
 C/A-ratio  =     2.7703738524

  Lattice vectors:

 A1 = (  -4.3956832886,  -7.6135467898,   0.0000000000)
 A2 = (   8.7913665771,   0.0000000000,   0.0000000000)
 A3 = (   0.0000000000,   0.0000000000,  24.3553720923)

Analysis of symmetry for initial positions (statically):
 Subroutine PRICEL returns:
 Original cell was already a primitive cell.

 Routine SETGRP: Setting up the symmetry group for a
 hexagonal supercell.

 Subroutine GETGRP returns: Found  1 space group operations
 (whereof  1 operations were pure point group operations)
 out of a pool of 24 trial point group operations.

The static configuration has the point symmetry C_1 .

Analysis of symmetry for dynamics (positions and initial velocities):
 Subroutine PRICEL returns:
 Original cell was already a primitive cell.

[...]

The dynamic configuration has the point symmetry C_1 .

Analysis of constrained symmetry for selective dynamics:
 Subroutine PRICEL returns:
 Original cell was already a primitive cell.

 Routine SETGRP: Setting up the symmetry group for a
[...]
     41      -5.0812      2.00000
     42      -5.0530      2.00000
     43      -5.0051      2.00000
     44      -4.9881      2.00000
     45      -4.9874      2.00000
     46      -4.9687      2.00000
     47      -4.9582      2.00000
     48      -4.9432      2.00000
     49      -4.8600      2.00000
     50      -4.8419      2.00000
     51      -4.8204      2.00000
     52      -4.8178      2.00000
     53      -4.8145      2.00000
     54      -4.8033      2.00000
     55      -4.7987      2.00000
     56      -4.7932      2.00000
     57      -4.7778      2.00000
     58      -4.7763      2.00000
     59      -4.7192      2.00000
     60      -4.7055      2.00000
[...]
    238       5.3155      0.00000
    239       5.4633      0.00000
    240       5.6333      0.00000
    241       5.6950      0.00000
    242       5.7258      0.00000
    243       5.8281      0.00000
    244       5.8670      0.00000
    245       5.8799      0.00000
    246       6.0983      0.00000
    247       6.6261      0.00000
    248       6.6689      0.00000
    249       6.6823      0.00000
    250       6.7196      0.00000
    251       6.7260      0.00000
    252       6.7507      0.00000

 soft charge-density along one line, spin component           1
         0         1         2         3         4         5         6         7         8         9
 total charge-density along one line

------------------------ aborting loop because EDIFF is reached ----------------------------------------

 total charge

# of ion       s       p       d       tot
    1        0.423   0.200   9.178   9.801
    2        0.414   0.204   9.177   9.795
    3        0.414   0.204   9.177   9.795
    4        0.415   0.203   9.178   9.797
    5        0.418   0.201   9.178   9.797
    6        0.415   0.203   9.178   9.797
    7        0.414   0.204   9.177   9.796
    8        0.414   0.204   9.177   9.796
    9        0.418   0.203   9.176   9.797
   10        0.410   0.270   9.163   9.843
   11        0.405   0.270   9.167   9.842
   12        0.410   0.270   9.163   9.843
   13        0.404   0.271   9.167   9.842
   14        0.404   0.271   9.167   9.842
   15        0.402   0.269   9.165   9.836
   16        0.408   0.271   9.163   9.842
   17        0.405   0.267   9.166   9.837
   18        0.405   0.267   9.166   9.837
   19        0.397   0.264   9.170   9.831
   20        0.439   0.307   9.132   9.879
   21        0.439   0.307   9.132   9.879
   22        0.391   0.273   9.164   9.828
   23        0.442   0.304   9.135   9.881
   24        0.391   0.273   9.164   9.828
   25        0.401   0.263   9.167   9.831
   26        0.401   0.263   9.167   9.831
   27        0.394   0.269   9.168   9.830
   28        0.413   0.198   9.175   9.786
   29        0.443   0.217   9.152   9.812
   30        0.443   0.217   9.152   9.812
   31        0.419   0.224   9.157   9.800
   32        0.419   0.224   9.157   9.800
   33        0.443   0.216   9.152   9.812
   34        0.443   0.216   9.152   9.812
   35        0.406   0.200   9.175   9.781
   36        0.695   0.533   3.038   4.266
   37        0.886   1.698   0.000   2.584
   38        1.599   3.460   0.000   5.059
   39        1.599   3.460   0.000   5.059
tot         19.298  17.641 323.795 360.734

  FORCE on cell =-STRESS in cart. coord.  units (eV):
  Direction    XX          YY          ZZ          XY          YZ          ZX
  Alpha Z   718.30013   718.30013   718.30013
  Ewald  149533.60729148880.13149************    -0.01217    -1.82775     0.14204
  Hartree159409.42331159087.40259************    -0.00718    -0.67307     0.08679
  E(xc)   -2123.71756 -2125.65367 -2131.65819    -0.00012    -0.00428     0.00017
  Local  ************************319150.09569     0.02092     2.76814    -0.22092
  n-local  -371.87955  -365.78470  -375.13034    -0.00003     0.43150    -0.00262
  augment  3232.53854  3233.65416  3247.56467     0.00011    -0.11686    -0.00028
  Kinetic  5114.65985  5155.37249  5186.25352     0.00253    -0.59033    -0.00801
  Fock        0.00000     0.00000     0.00000     0.00000     0.00000     0.00000
  Total      -7.32863    -6.96605    -0.84482     0.00407    -0.01265    -0.00283
  in kB      -7.20270    -6.84634    -0.83030     0.00400    -0.01244    -0.00278

 VOLUME and BASIS-vectors are now :
  energy-cutoff  :      500.00
  volume of cell :     1630.19
      direct lattice vectors                 reciprocal lattice vectors
     8.791366577  0.000000000  0.000000000     0.113747958 -0.065672414  0.000000000
     4.395683289  7.613546790  0.000000000     0.000000000  0.131344829  0.000000000
     0.000000000  0.000000000 24.355372092     0.000000000  0.000000000  0.041058703

  length of vectors
     8.791366577  8.791366577 24.355372092     0.131344829  0.131344829  0.041058703

 FORCES acting on ions
    electron-ion (+dipol)            ewald-force                    non-local-force                 convergence-correction
   0.143E-02 0.363E-01 0.269E+04   -.115E-03 -.391E-01 -.269E+04   -.990E-07 -.609E-02 -.175E+01   -.132E-02 0.645E-03 -.122E+00
   -.635E-01 0.264E+00 0.269E+04   -.368E-01 -.327E+00 -.269E+04   0.304E-03 0.725E-01 -.170E+01   0.966E-01 -.211E-01 -.901E-01
   0.629E-01 0.254E+00 0.269E+04   0.370E-01 -.327E+00 -.269E+04   -.644E-04 0.722E-01 -.170E+01   -.964E-01 -.112E-01 -.868E-01
   0.417E-01 -.138E+00 0.269E+04   -.268E+00 0.113E+00 -.269E+04   0.115E+00 -.354E-01 -.181E+01   0.102E+00 0.616E-01 -.115E+00
   -.137E-01 -.867E-01 0.269E+04   0.140E-03 0.126E-02 -.269E+04   -.219E-02 0.621E-01 -.153E+01   0.159E-01 0.155E-01 -.263E-01
   -.329E-01 -.142E+00 0.269E+04   0.268E+00 0.113E+00 -.269E+04   -.114E+00 -.356E-01 -.181E+01   -.111E+00 0.655E-01 -.111E+00
   0.189E+00 -.522E-01 0.269E+04   -.230E+00 0.214E+00 -.269E+04   0.106E+00 -.644E-01 -.170E+01   -.716E-01 -.787E-01 -.118E+00
   -.197E+00 -.464E-01 0.269E+04   0.230E+00 0.214E+00 -.269E+04   -.106E+00 -.643E-01 -.170E+01   0.796E-01 -.846E-01 -.117E+00
   0.130E-01 -.112E+00 0.269E+04   0.572E-04 0.378E-01 -.269E+04   0.240E-02 0.103E-01 -.159E+01   -.156E-01 0.637E-01 -.568E-01
   0.297E+01 0.200E+01 0.940E+03   -.280E+01 -.192E+01 -.940E+03   -.359E+00 -.127E+00 -.717E+00   0.148E+00 0.250E-01 0.335E+00
   -.125E-01 0.260E+01 0.939E+03   0.268E-03 -.266E+01 -.939E+03   -.235E-02 -.370E-01 -.488E+00   0.148E-01 0.436E-01 0.332E+00
   -.296E+01 0.200E+01 0.940E+03   0.280E+01 -.192E+01 -.940E+03   0.359E+00 -.127E+00 -.717E+00   -.156E+00 0.306E-01 0.335E+00
   0.177E+01 -.132E+01 0.940E+03   -.202E+01 0.139E+01 -.939E+03   0.695E-01 -.419E-02 -.475E+00   0.128E+00 -.344E-01 0.330E+00
   -.178E+01 -.131E+01 0.940E+03   0.202E+01 0.139E+01 -.939E+03   -.737E-01 -.397E-02 -.475E+00   -.106E+00 -.392E-01 0.325E+00
   0.899E-02 -.734E+00 0.938E+03   -.394E-03 0.592E+00 -.938E+03   0.199E-03 0.297E-01 -.762E+00   -.878E-02 0.110E+00 0.276E+00
   -.328E-03 -.343E+01 0.940E+03   0.840E-04 0.332E+01 -.940E+03   0.275E-04 0.302E+00 -.496E+00   0.219E-03 -.139E+00 0.372E+00
   -.561E+00 0.849E-01 0.938E+03   0.336E+00 -.915E-01 -.937E+03   0.119E+00 -.115E-02 -.581E+00   0.917E-01 0.592E-02 0.319E+00
   0.562E+00 0.756E-01 0.938E+03   -.337E+00 -.911E-01 -.937E+03   -.119E+00 -.149E-02 -.582E+00   -.925E-01 0.151E-01 0.322E+00
   0.142E-02 -.243E+01 -.826E+03   -.204E-02 0.224E+01 0.825E+03   -.196E-02 0.127E+00 0.969E+00   0.282E-02 0.451E-01 0.378E+00
   -.205E+02 -.101E+02 -.819E+03   0.209E+02 0.104E+02 0.819E+03   -.767E+00 -.445E+00 -.775E+00   0.277E+00 0.779E-01 0.564E+00
   0.205E+02 -.101E+02 -.819E+03   -.209E+02 0.104E+02 0.819E+03   0.763E+00 -.445E+00 -.775E+00   -.260E+00 0.782E-01 0.564E+00
   -.771E+01 0.229E+01 -.824E+03   0.748E+01 -.216E+01 0.823E+03   0.176E+00 -.201E+00 0.606E+00   0.103E+00 0.441E-01 0.393E+00
   -.165E-02 0.212E+02 -.821E+03   0.177E-02 -.216E+02 0.821E+03   -.483E-05 0.862E+00 -.549E+00   -.283E-04 -.270E+00 0.567E+00
   0.770E+01 0.229E+01 -.824E+03   -.748E+01 -.216E+01 0.823E+03   -.180E+00 -.201E+00 0.606E+00   -.891E-01 0.412E-01 0.395E+00
   0.327E+01 0.271E+01 -.830E+03   -.302E+01 -.263E+01 0.828E+03   -.811E-01 -.594E-02 0.825E+00   -.159E+00 -.558E-01 0.384E+00
   -.328E+01 0.271E+01 -.830E+03   0.302E+01 -.263E+01 0.828E+03   0.772E-01 -.593E-02 0.825E+00   0.172E+00 -.585E-01 0.386E+00
   -.506E-02 -.856E+01 -.826E+03   0.410E-03 0.818E+01 0.825E+03   -.194E-02 0.293E+00 0.597E+00   0.682E-02 0.109E+00 0.375E+00
   0.462E-02 0.104E+02 -.253E+04   -.354E-02 -.101E+02 0.253E+04   0.466E-04 -.188E+00 0.171E+01   -.116E-02 -.880E-01 0.272E+00
   0.868E+01 0.303E+02 -.250E+04   -.747E+01 -.293E+02 0.250E+04   -.139E+01 -.128E+01 0.169E+01   0.147E+00 0.137E+00 0.170E+00
   -.869E+01 0.302E+02 -.250E+04   0.748E+01 -.293E+02 0.250E+04   0.139E+01 -.128E+01 0.169E+01   -.147E+00 0.148E+00 0.171E+00
   0.356E+02 0.227E+01 -.247E+04   -.351E+02 -.208E+01 0.247E+04   -.956E+00 -.223E+00 0.257E+01   0.290E+00 0.325E-01 0.194E+00
   -.356E+02 0.227E+01 -.247E+04   0.351E+02 -.208E+01 0.247E+04   0.960E+00 -.224E+00 0.257E+01   -.316E+00 0.358E-01 0.196E+00
   0.373E+01 -.323E+02 -.251E+04   -.296E+01 0.313E+02 0.250E+04   -.887E+00 0.143E+01 0.166E+01   0.918E-01 -.194E+00 0.230E+00
   -.375E+01 -.323E+02 -.251E+04   0.297E+01 0.313E+02 0.250E+04   0.886E+00 0.143E+01 0.166E+01   -.841E-01 -.202E+00 0.234E+00
   0.165E-01 -.102E+02 -.254E+04   -.405E-02 0.991E+01 0.254E+04   0.233E-02 0.219E+00 0.193E+01   -.150E-01 0.756E-01 0.209E+00
   -.143E-01 -.254E+00 -.983E+03   0.102E-01 0.219E+00 0.983E+03   -.203E-03 0.621E-01 0.555E+00   0.402E-02 0.185E-02 0.106E+00
   -.269E-01 -.495E+01 -.933E+03   0.257E-01 0.516E+01 0.925E+03   -.238E-02 -.232E+00 0.727E+01   0.480E-02 0.189E-01 -.142E+00
   0.212E+03 0.195E+01 -.162E+04   -.257E+03 -.248E+01 0.164E+04   0.453E+02 0.509E+00 -.208E+02   0.131E+00 0.185E-01 -.139E+00
   -.212E+03 0.196E+01 -.162E+04   0.257E+03 -.249E+01 0.164E+04   -.453E+02 0.510E+00 -.208E+02   -.124E+00 0.184E-01 -.157E+00
   -.357E-01 -.782E+00 0.291E+02   -.568E-13 0.255E-12 0.296E-11   -.196E-01 0.753E+00 -.365E+02   0.533E-01 0.424E-01 0.745E+01

 POSITION                                       TOTAL-FORCE (eV/Angst)
      0.00000      0.00000      5.28219         0.000045     -0.008602     -0.020441
      2.93046      0.00000      5.28219        -0.003419     -0.011856      0.031091
      5.86091      0.00000      5.28219         0.003495     -0.011902      0.031092
      1.46523      2.53785      5.28219        -0.009978      0.000951      0.018010
      4.39568      2.53785      5.28219         0.000223     -0.008134      0.011389
      7.32614      2.53785      5.28219         0.010125      0.000932      0.018040
      2.93046      5.07570      5.28219        -0.007305      0.018247      0.035229
      5.86091      5.07570      5.28219         0.007362      0.018260      0.035269
      8.79137      5.07570      5.28219        -0.000140     -0.000222      0.000441
      1.46523      0.84595      7.67490        -0.036119     -0.021603     -0.046505
      4.39568      0.84595      7.67490         0.000271     -0.052487     -0.091935
      7.32614      0.84595      7.67490         0.036245     -0.021604     -0.046527
      2.93046      3.38380      7.67490        -0.056949      0.026811     -0.084753
      5.86091      3.38380      7.67490         0.057492      0.026823     -0.084741
      8.79137      3.38380      7.67490         0.000065     -0.002419      0.039568
      4.39568      5.92165      7.67490         0.000054      0.050520     -0.043685
      7.32614      5.92165      7.67490        -0.013444     -0.002149      0.038653
     10.25659      5.92165      7.67490         0.013548     -0.002168      0.038651
      8.79137      1.69476     10.06939         0.000296     -0.020978      0.082792
      2.92162      1.68680     10.02387        -0.154370     -0.084580     -0.103603
      5.86975      1.68680     10.02387         0.154966     -0.084521     -0.103521
     10.25272      4.23198     10.06895         0.046937     -0.027563      0.062836
      4.39568      4.23995     10.02387         0.000139      0.172498     -0.116307
      7.33001      4.23198     10.06895        -0.046385     -0.027566      0.062845
     11.71935      6.76617     10.06939         0.003696      0.011422      0.023957
      5.86339      6.76617     10.06939        -0.003132      0.011392      0.023993
      8.79137      6.76312     10.06895         0.000277      0.022986      0.021469
      0.00000      0.00000     12.45783         0.000013     -0.020906     -0.022871
      2.95723      0.04373     12.49962        -0.026099     -0.207052     -0.166107
      5.83413      0.04373     12.49962         0.026192     -0.206952     -0.165997
      1.51649      2.53918     12.49962        -0.201783     -0.002894     -0.102285
      7.27488      2.53918     12.49962         0.201407     -0.003013     -0.102172
      2.95494      5.03064     12.49962        -0.022184      0.210918     -0.173962
      5.83643      5.03064     12.49962         0.022202      0.210825     -0.173940
      8.79137      5.07570     12.47105        -0.000133      0.024886     -0.025629
      4.39568      2.53785     12.22632        -0.000221      0.029136      1.098667
      4.39569      2.54227     14.38010         0.001281     -0.008594      0.036406
      3.22930      2.52708     14.83874        -0.000567      0.001367     -0.015524
      5.56187      2.52704     14.83919        -0.004104     -0.000210     -0.019892
    total drift:                               -0.001974      0.013979      0.022015

  FREE ENERGIE OF THE ION-ELECTRON SYSTEM (eV)
  free  energy   TOTEN  =      -120.53451573 eV

  energy  without entropy=     -120.53451573  energy(sigma->0) =     -120.53451573

 stress matrix after NEB project (eV)
     -7.32863      0.00407     -0.00283
      0.00407     -6.96605     -0.01265
     -0.00283     -0.01265     -0.84482
  FORCES: max atom, RMS     0.037429    0.007262
  FORCE total and by dimension    0.045351    0.036406
  Stress total and by dimension   10.146363    7.328629
|           W    W    AA    RRRRR   N    N  II  N    N   GGGG   !!!           |
|           W    W   A  A   R    R  NN   N  II  NN   N  G    G  !!!           |
|           W    W  A    A  R    R  N N  N  II  N N  N  G       !!!           |
|           W WW W  AAAAAA  RRRRR   N  N N  II  N  N N  G  GGG   !            |
|           WW  WW  A    A  R   R   N   NN  II  N   NN  G    G                |
|           W    W  A    A  R    R  N    N  II  N    N   GGGG   !!!           |
|     Tetrahedron method does not include variations of the Fermi             |
|     occupations, so forces and stress will be inaccurate. We suggest        |
|     using a different smearing scheme ISMEAR = 1 or 2 for metals in         |
|     relaxations.                                                            |

 total charge

# of ion       s       p       d       tot
    1        0.423   0.200   9.178   9.801
    2        0.414   0.204   9.177   9.795
    3        0.414   0.204   9.177   9.795
    4        0.415   0.203   9.178   9.797
    5        0.418   0.201   9.178   9.797
    6        0.415   0.203   9.178   9.797
    7        0.414   0.204   9.177   9.796
    8        0.414   0.204   9.177   9.796
    9        0.418   0.203   9.176   9.797
   10        0.410   0.270   9.163   9.843
   11        0.405   0.270   9.167   9.842
   12        0.410   0.270   9.163   9.843
   13        0.404   0.271   9.167   9.842
   14        0.404   0.271   9.167   9.842
   15        0.402   0.269   9.165   9.836
   16        0.408   0.271   9.163   9.842
   17        0.405   0.267   9.166   9.837
   18        0.405   0.267   9.166   9.837
   19        0.397   0.264   9.170   9.831
   20        0.439   0.307   9.132   9.879
   21        0.439   0.307   9.132   9.879
   22        0.391   0.273   9.164   9.828
   23        0.442   0.304   9.135   9.881
   24        0.391   0.273   9.164   9.828
   25        0.401   0.263   9.167   9.831
   26        0.401   0.263   9.167   9.831
   27        0.394   0.269   9.168   9.830
   28        0.413   0.198   9.175   9.786
   29        0.443   0.217   9.152   9.812
   30        0.443   0.217   9.152   9.812
   31        0.419   0.224   9.157   9.800
   32        0.419   0.224   9.157   9.800
   33        0.443   0.216   9.152   9.812
   34        0.443   0.216   9.152   9.812
   35        0.406   0.200   9.175   9.781
   36        0.695   0.533   3.038   4.266
   37        0.886   1.698   0.000   2.584
   38        1.599   3.460   0.000   5.059
   39        1.599   3.460   0.000   5.059
tot         19.298  17.641 323.795 360.734

 BZINTS: Fermi energy:    0.209924;  406.000000 electrons
         Band energy:-0.166767E+04;  BLOECHL correction:   -0.030468