 vasp.6.2.0 18Jan21 (build Jun 12 2021 23:27:24) complex

 executed on             LinuxIFC date 2022.05.27  05:45:07

 INCAR:
   ISMEAR = -5
   SIGMA = 0.1
   ISPIN = 1
   EDIFF = 1.d-5
   EDIFFG = -0.01
   NSW = 0
   NELM = 150
   ENCUT = 500
   ISIF = 2
   IBRION = 2
   LREAL = Auto
   ALGO = Fast
   ICHARG = 11
   LORBIT = 10
   LCHARG = .F.
   LWAVE = .F.

 POTCAR:    PAW_PBE Ag 02Apr2005
 POTCAR:    PAW_PBE Rh 04Feb2005
 POTCAR:    PAW_PBE N 08Apr2002
|           W    W    AA    RRRRR   N    N  II  N    N   GGGG   !!!           |
|           W    W   A  A   R    R  NN   N  II  NN   N  G    G  !!!           |
|           W    W  A    A  R    R  N N  N  II  N N  N  G       !!!           |
|           W WW W  AAAAAA  RRRRR   N  N N  II  N  N N  G  GGG   !            |
|           WW  WW  A    A  R   R   N   NN  II  N   NN  G    G                |
|           W    W  A    A  R    R  N    N  II  N    N   GGGG   !!!           |
|     For optimal performance we recommend to set                             |
|       NCORE = 2 up to number-of-cores-per-socket                            |
|     This setting can greatly improve the performance of VASP for DFT.       |
|     The default, NCORE=1 might be grossly inefficient on modern             |
|     multi-core architectures or massively parallel machines. Do your        |
|     Unfortunately you need to use the default for GW and RPA                |
|     calculations (for HF NCORE is supported but not extensively tested      |
|     yet).                                                                   |

 POTCAR:    PAW_PBE Ag 02Apr2005
   VRHFIN =Ag : s1 d10

   TITEL  = PAW_PBE Ag 02Apr2005
   POMASS =  107.868; ZVAL   =   11.000    mass and valenz
   ENMAX  =  249.844; ENMIN  =  187.383 eV

 POTCAR:    PAW_PBE Rh 04Feb2005
   VRHFIN =Rh: s1 d8

   TITEL  = PAW_PBE Rh 04Feb2005
   POMASS =  102.906; ZVAL   =    9.000    mass and valenz
   ENMAX  =  228.996; ENMIN  =  171.747 eV

 POTCAR:    PAW_PBE N 08Apr2002
   VRHFIN =N: s2p3

   TITEL  = PAW_PBE N 08Apr2002
   POMASS =   14.001; ZVAL   =    5.000    mass and valenz
   ENMAX  =  400.000; ENMIN  =  300.000 eV

 Optimization of the real space projectors (new method)

 maximal supplied QI-value         = 15.12
 optimisation between [QCUT,QGAM] = [ 11.34, 22.83] = [ 36.00,145.93] Ry
 Optimized for a Real-space Cutoff    1.43 Angstroem

   l    n(q)    QCUT    max X(q) W(low)/X(q) W(high)/X(q)  e(spline)
   2      9    11.338    53.897    0.16E-03    0.20E-03    0.28E-06
   2      9    11.338    52.416    0.16E-03    0.20E-03    0.29E-06
   0     10    11.338   122.045    0.31E-04    0.76E-04    0.15E-06
   0     10    11.338    73.629    0.30E-04    0.72E-04    0.15E-06
   1      9    11.338    15.255    0.20E-03    0.19E-04    0.17E-06
   1      9    11.338     9.562    0.16E-03    0.15E-04    0.14E-06
 Optimization of the real space projectors (new method)

[...]

   l    n(q)    QCUT    max X(q) W(low)/X(q) W(high)/X(q)  e(spline)
   2      9    11.327    59.645    0.31E-03    0.12E-04    0.28E-06
   2      9    11.327    58.460    0.31E-03    0.12E-04    0.29E-06
   0     10    11.327    97.683    0.32E-04    0.83E-04    0.31E-06
   0     10    11.327    53.223    0.30E-04    0.78E-04    0.29E-06
   1     10    11.327    13.596    0.49E-03    0.95E-03    0.55E-06
   1     10    11.327     7.885    0.36E-03    0.71E-03    0.41E-06
 Optimization of the real space projectors (new method)

 maximal supplied QI-value         = 25.13
 optimisation between [QCUT,QGAM] = [ 11.31, 22.87] = [ 35.82,146.48] Ry
 Optimized for a Real-space Cutoff    1.27 Angstroem

   l    n(q)    QCUT    max X(q) W(low)/X(q) W(high)/X(q)  e(spline)
   0      9    11.310    79.467    0.75E-04    0.16E-03    0.36E-06
   0      9    11.310    66.151    0.74E-04    0.16E-03    0.36E-06
   1      8    11.310    17.416    0.35E-03    0.12E-03    0.95E-06
   1      8    11.310    12.382    0.37E-03    0.13E-03    0.98E-06
  PAW_PBE Ag 02Apr2005                  :
  PAW_PBE Rh 04Feb2005                  :
  PAW_PBE N 08Apr2002                   :

 POSCAR: Ag-Rh-N2
  positions in direct lattice
  velocities in cartesian coordinates
 exchange correlation table for  LEXCH =        8
   RHO(1)=    0.500       N(1)  =     2000
   RHO(2)=  100.500       N(2)  =     4000

 VTST: version 3.2, (02/03/18)

 CHAIN: initializing optimizer

 OPT: Using VASP Conjugate-Gradient optimizer
 CHAIN: Read ICHAIN            0

 POSCAR: Ag-Rh-N2
  positions in direct lattice
  velocities in cartesian coordinates

 ion  position               nearest neighbor table
   1  0.000  0.000  0.238-   2 2.93   8 2.93   7 2.93   6 2.93   4 2.93  12 2.93  16 2.93  10 2.93
                             3 2.93
   2  0.333  0.000  0.238-   1 2.93   8 2.93   9 2.93   3 2.93   4 2.93   5 2.93  10 2.93  17 2.93
                            11 2.93
   3  0.667  0.000  0.238-   9 2.93   2 2.93   5 2.93  11 2.93   7 2.93  18 2.93   1 2.93   6 2.93
                            12 2.93
   4  0.000  0.333  0.238-   5 2.93   6 2.93   2 2.93   1 2.93   7 2.93  13 2.93  15 2.93   9 2.93
                            10 2.93
   5  0.333  0.333  0.238-   4 2.93   3 2.93   7 2.93   2 2.93   8 2.93  14 2.93  13 2.93  11 2.93
                             6 2.93
   6  0.667  0.333  0.238-   4 2.93   9 2.93   1 2.93  15 2.93   8 2.93  12 2.93   3 2.93   5 2.93
                            14 2.93
   7  0.000  0.667  0.238-   8 2.93   1 2.93   5 2.93   3 2.93   4 2.93  16 2.93  18 2.93  13 2.93
                             9 2.93
   8  0.333  0.667  0.238-   7 2.93   1 2.93   2 2.93   9 2.93   5 2.93  16 2.93   6 2.93  17 2.93
                            14 2.93
   9  0.667  0.667  0.238-   3 2.93   2 2.93   8 2.93   6 2.93  17 2.93   4 2.93  15 2.93   7 2.93
                            18 2.93
  10  0.111  0.111  0.346-  20 2.90  19 2.93  26 2.93  12 2.93  16 2.93  15 2.93  17 2.93  13 2.93
                            11 2.93   2 2.93   1 2.93   4 2.93
  11  0.444  0.111  0.346-  21 2.90  20 2.90  27 2.92  14 2.93  17 2.93  18 2.93   3 2.93  12 2.93
                            13 2.93  10 2.93   5 2.93   2 2.93
  12  0.778  0.111  0.346-  21 2.90  25 2.93  19 2.93  10 2.93  16 2.93  18 2.93  15 2.93  11 2.93
                             1 2.93  14 2.93   6 2.93   3 2.93
  13  0.111  0.444  0.346-  20 2.90  23 2.90  22 2.92  15 2.93  14 2.93  18 2.93  10 2.93  11 2.93
                            16 2.93   4 2.93   5 2.93   7 2.93
  14  0.444  0.444  0.346-  23 2.90  21 2.90  24 2.92  13 2.93  11 2.93  16 2.93   5 2.93  12 2.93
                            17 2.93   8 2.93  15 2.93   6 2.93
  15  0.778  0.444  0.346-  24 2.92  22 2.92  19 2.92  13 2.93  10 2.93  12 2.93  17 2.93  18 2.93
                             4 2.93   6 2.93   9 2.93  14 2.93
  16  0.111  0.778  0.346-  23 2.90  26 2.93  25 2.93  18 2.93  12 2.93  10 2.93  14 2.93  17 2.93
                            13 2.93   7 2.93   8 2.93   1 2.93
  17  0.444  0.778  0.346-  27 2.92  24 2.92  26 2.92  11 2.93  10 2.93   9 2.93  18 2.93  15 2.93
                            16 2.93   2 2.93  14 2.93   8 2.93
  18  0.778  0.778  0.346-  22 2.92  27 2.92  25 2.92  16 2.93  12 2.93  13 2.93  11 2.93  17 2.93
                            15 2.93   7 2.93   3 2.93   9 2.93
  19  0.889  0.223  0.454-  28 2.91  15 2.92  10 2.93  12 2.93  24 2.93  22 2.93  32 2.93  31 2.93
                            20 2.93  21 2.93  26 2.94  25 2.94
  20  0.222  0.222  0.452-  36 2.78  13 2.90  11 2.90  10 2.90  31 2.91  29 2.91  21 2.92  23 2.92
                            27 2.93  22 2.93  19 2.93  26 2.93
  21  0.555  0.222  0.452-  36 2.78  11 2.90  14 2.90  12 2.90  30 2.91  32 2.91  20 2.92  23 2.92
                            27 2.93  24 2.93  25 2.93  19 2.93
  22  0.889  0.556  0.453-  35 2.90  18 2.92  15 2.92  13 2.92  33 2.92  31 2.92  25 2.93  19 2.93
                            24 2.93  27 2.93  23 2.93  20 2.93
  23  0.222  0.555  0.452-  36 2.78  14 2.90  13 2.90  16 2.90  34 2.91  33 2.91  21 2.92  20 2.92
                            22 2.93  24 2.93  26 2.93  25 2.93
  24  0.556  0.556  0.453-  35 2.90  15 2.92  17 2.92  14 2.92  32 2.92  34 2.92  19 2.93  26 2.93
                            27 2.93  22 2.93  23 2.93  21 2.93
  25  0.889  0.889  0.454-  28 2.91  18 2.92  16 2.93  12 2.93  22 2.93  27 2.93  33 2.93  30 2.93
                            23 2.93  21 2.93  26 2.94  19 2.94
  26  0.223  0.889  0.454-  28 2.91  17 2.92  16 2.93  10 2.93  27 2.93  24 2.93  34 2.93  29 2.93
                            23 2.93  20 2.93  25 2.94  19 2.94
  27  0.556  0.889  0.453-  35 2.90  17 2.92  18 2.92  11 2.92  29 2.92  30 2.92  26 2.93  25 2.93
                            24 2.93  22 2.93  20 2.93  21 2.93
  28  0.000  0.000  0.560-  26 2.91  25 2.91  19 2.91  29 2.95  34 2.95  33 2.95  32 2.95  31 2.95
                            30 2.95
  29  0.333  0.005  0.560-  31 2.88  30 2.89  36 2.89  20 2.91  27 2.92  26 2.93  28 2.95  35 2.95
                            34 3.02
  30  0.662  0.005  0.560-  32 2.88  29 2.89  36 2.89  21 2.91  27 2.92  25 2.93  28 2.95  35 2.95
                            33 3.02
  31  0.005  0.333  0.560-  29 2.88  33 2.89  36 2.89  20 2.91  22 2.92  19 2.93  28 2.95  35 2.95
                            32 3.02
  32  0.662  0.333  0.560-  30 2.88  34 2.89  36 2.89  21 2.91  24 2.92  19 2.93  28 2.95  35 2.95
                            31 3.02
  33  0.005  0.662  0.560-  34 2.88  31 2.89  36 2.89  23 2.91  22 2.92  25 2.93  28 2.95  35 2.95
                            30 3.02
  34  0.333  0.662  0.560-  33 2.88  32 2.89  36 2.89  23 2.91  24 2.92  26 2.93  28 2.95  35 2.95
                            29 3.02
  35  0.667  0.667  0.560-  24 2.90  27 2.90  22 2.90  30 2.95  32 2.95  29 2.95  34 2.95  31 2.95
                            33 2.95
  36  0.333  0.333  0.552-  37 2.35  38 2.35  21 2.78  20 2.78  23 2.78  31 2.89  30 2.89  33 2.89
                            29 2.89  34 2.89  32 2.89
  37  0.269  0.333  0.655-  38 1.14  36 2.35
  38  0.399  0.333  0.655-  37 1.14  36 2.35

  LATTYP: Found a hexagonal cell.
 ALAT       =     8.7913665772
 C/A-ratio  =     2.5227160501

  Lattice vectors:

 A1 = (  -4.3956832886,  -7.6135467898,   0.0000000000)
 A2 = (   8.7913665771,   0.0000000000,   0.0000000000)
 A3 = (   0.0000000000,   0.0000000000,  22.1781215668)

Analysis of symmetry for initial positions (statically):
 Subroutine PRICEL returns:
 Original cell was already a primitive cell.

 Routine SETGRP: Setting up the symmetry group for a
 hexagonal supercell.

 Subroutine GETGRP returns: Found  2 space group operations
 (whereof  2 operations were pure point group operations)
 out of a pool of 24 trial point group operations.

The static configuration has the point symmetry C_1h.

Analysis of symmetry for dynamics (positions and initial velocities):
 Subroutine PRICEL returns:
 Original cell was already a primitive cell.

[...]

The dynamic configuration has the point symmetry C_1h.

Analysis of constrained symmetry for selective dynamics:
 Subroutine PRICEL returns:
 Original cell was already a primitive cell.

 Routine SETGRP: Setting up the symmetry group for a
 hexagonal supercell.

[...]
     33      -4.3781      2.00000
     34      -4.3528      2.00000
     35      -4.3495      2.00000
     36      -4.3420      2.00000
     37      -4.3140      2.00000
     38      -4.2530      2.00000
     39      -4.2351      2.00000
     40      -4.2138      2.00000
     41      -4.2029      2.00000
     42      -4.1776      2.00000
     43      -4.1584      2.00000
     44      -4.1438      2.00000
     45      -4.1383      2.00000
     46      -4.1186      2.00000
     47      -4.1076      2.00000
     48      -4.0338      2.00000
     49      -4.0057      2.00000
     50      -4.0010      2.00000
     51      -3.9880      2.00000
     52      -3.9817      2.00000
     53      -3.9778      2.00000
     54      -3.9657      2.00000
     55      -3.9569      2.00000
     56      -3.9383      2.00000
     57      -3.9342      2.00000
     58      -3.8682      2.00000
     59      -3.8595      2.00000
     60      -3.8495      2.00000
[...]
    238       6.0495      0.00000
    239       6.2719      0.00000
    240       6.3372      0.00000
    241       6.4684      0.00000
    242       6.4944      0.00000
    243       6.5624      0.00000
    244       7.0155      0.00000
    245       7.3167      0.00000
    246       7.3728      0.00000
    247       7.3972      0.00000
    248       7.4319      0.00000
    249       7.4454      0.00000
    250       7.4881      0.00000
    251       7.6402      0.00000
    252       7.6812      0.00000

 soft charge-density along one line, spin component           1
         0         1         2         3         4         5         6         7         8         9
 total charge-density along one line

------------------------ aborting loop because EDIFF is reached ----------------------------------------

 total charge

# of ion       s       p       d       tot
    1        0.414   0.204   9.178   9.796
    2        0.419   0.203   9.177   9.799
    3        0.419   0.203   9.177   9.799
    4        0.419   0.203   9.177   9.799
    5        0.416   0.205   9.176   9.797
    6        0.419   0.203   9.177   9.799
    7        0.420   0.203   9.177   9.799
    8        0.420   0.203   9.177   9.799
    9        0.414   0.203   9.179   9.796
   10        0.405   0.270   9.163   9.839
   11        0.410   0.266   9.168   9.844
   12        0.405   0.270   9.163   9.839
   13        0.410   0.266   9.168   9.844
   14        0.410   0.266   9.168   9.844
   15        0.400   0.271   9.165   9.836
   16        0.405   0.270   9.164   9.839
   17        0.400   0.271   9.166   9.836
   18        0.400   0.271   9.166   9.836
   19        0.402   0.267   9.168   9.838
   20        0.418   0.288   9.155   9.861
   21        0.418   0.288   9.155   9.861
   22        0.398   0.275   9.166   9.838
   23        0.416   0.290   9.154   9.861
   24        0.398   0.275   9.166   9.838
   25        0.405   0.267   9.167   9.839
   26        0.405   0.267   9.167   9.839
   27        0.398   0.274   9.167   9.838
   28        0.418   0.197   9.180   9.796
   29        0.416   0.206   9.181   9.803
   30        0.416   0.206   9.181   9.803
   31        0.410   0.207   9.182   9.799
   32        0.410   0.207   9.182   9.799
   33        0.416   0.206   9.181   9.803
   34        0.416   0.206   9.181   9.803
   35        0.413   0.200   9.182   9.794
   36        0.346   0.305   7.518   8.170
   37        1.357   2.453   0.000   3.810
   38        1.357   2.453   0.000   3.810
tot         17.437  13.588 328.520 359.545

  FORCE on cell =-STRESS in cart. coord.  units (eV):
  Direction    XX          YY          ZZ          XY          YZ          ZX
  Alpha Z   765.05193   765.05193   765.05193
  Ewald  120651.93090120329.07131************     0.00005     0.12788     0.00005
  Hartree130956.84925130838.89862************     0.00002     0.12823     0.00002
  E(xc)   -2113.86884 -2115.17713 -2119.64128     0.00008    -0.01039    -0.00001
  Local  ************************262534.81894     0.00082    -0.39103    -0.00017
  n-local  -349.82999  -338.24277  -347.84770     2.27215    -0.00002     0.11154
  augment  3281.08634  3281.26260  3288.09218    -0.00020     0.03997    -0.00004
  Kinetic  5061.78215  5078.96208  5097.38657     1.16452     0.17719     0.00169
  Fock        0.00000     0.00000     0.00000     0.00000     0.00000     0.00000
  Total      -7.23688    -7.19640    -0.56369    -0.00000     0.07183     0.00000
  in kB      -7.81076    -7.76708    -0.60839    -0.00000     0.07752     0.00000

 VOLUME and BASIS-vectors are now :
  energy-cutoff  :      500.00
  volume of cell :     1484.46
      direct lattice vectors                 reciprocal lattice vectors
     8.791366577  0.000000000  0.000000000     0.113747958 -0.065672414  0.000000000
     4.395683289  7.613546790  0.000000000     0.000000000  0.131344829  0.000000000
     0.000000000  0.000000000 22.178121567     0.000000000  0.000000000  0.045089481

  length of vectors
     8.791366577  8.791366577 22.178121567     0.131344829  0.131344829  0.045089481

 FORCES acting on ions
    electron-ion (+dipol)            ewald-force                    non-local-force                 convergence-correction
   0.458E-04 0.330E-02 0.252E+04   -.954E-04 -.112E-01 -.252E+04   -.798E-14 -.122E-02 -.245E+01   -.171E-03 0.802E-02 -.257E+00
   0.435E+00 0.629E+00 0.252E+04   -.439E+00 -.538E+00 -.252E+04   0.188E-01 -.125E-01 -.164E+01   -.721E-02 -.606E-01 -.198E+00
   -.435E+00 0.629E+00 0.252E+04   0.439E+00 -.538E+00 -.252E+04   -.188E-01 -.125E-01 -.164E+01   0.673E-02 -.587E-01 -.197E+00
   0.687E+00 0.331E-01 0.252E+04   -.675E+00 -.116E+00 -.252E+04   0.423E-01 0.330E-01 -.165E+01   -.376E-01 0.439E-01 -.212E+00
   -.734E-05 0.598E-02 0.253E+04   0.981E-04 0.875E-03 -.252E+04   -.149E-13 -.226E-02 -.149E+01   0.625E-02 -.481E-02 -.126E+00
   -.687E+00 0.331E-01 0.252E+04   0.675E+00 -.116E+00 -.252E+04   -.423E-01 0.330E-01 -.165E+01   0.361E-01 0.447E-01 -.211E+00
   0.376E+00 -.662E+00 0.252E+04   -.236E+00 0.654E+00 -.252E+04   -.337E-01 -.255E-01 -.163E+01   -.872E-01 0.216E-01 -.198E+00
   -.376E+00 -.662E+00 0.252E+04   0.236E+00 0.653E+00 -.252E+04   0.337E-01 -.255E-01 -.163E+01   0.888E-01 0.206E-01 -.198E+00
   0.361E-04 -.156E-02 0.252E+04   0.792E-04 0.103E-01 -.252E+04   0.394E-13 0.599E-02 -.210E+01   -.661E-02 -.146E-01 -.250E+00
   0.504E+01 0.298E+01 0.884E+03   -.468E+01 -.278E+01 -.883E+03   -.370E+00 -.207E+00 -.795E+00   0.276E-01 0.270E-01 -.685E-03
   -.295E-04 0.515E+01 0.891E+03   0.414E-04 -.523E+01 -.890E+03   0.375E-12 0.570E-01 -.505E+00   0.661E-02 -.138E-01 0.719E-01
   -.504E+01 0.298E+01 0.884E+03   0.468E+01 -.278E+01 -.883E+03   0.370E+00 -.207E+00 -.795E+00   -.295E-01 0.280E-01 0.466E-04
   0.440E+01 -.256E+01 0.891E+03   -.445E+01 0.263E+01 -.890E+03   0.513E-01 -.458E-01 -.482E+00   -.237E-01 -.164E-02 0.783E-01
   -.440E+01 -.256E+01 0.891E+03   0.445E+01 0.263E+01 -.890E+03   -.513E-01 -.458E-01 -.482E+00   0.344E-01 -.303E-02 0.770E-01
   0.164E-04 0.407E+00 0.884E+03   -.109E-03 -.463E+00 -.883E+03   0.162E-12 0.246E-01 -.726E+00   -.171E-02 0.189E-01 -.144E-01
   -.800E-05 -.587E+01 0.884E+03   0.206E-04 0.542E+01 -.883E+03   0.285E-11 0.434E+00 -.807E+00   -.237E-03 -.222E-01 -.184E-01
   0.395E+00 -.267E+00 0.884E+03   -.450E+00 0.285E+00 -.883E+03   0.104E-01 -.298E-02 -.659E+00   0.306E-01 -.106E-01 -.266E-01
   -.395E+00 -.267E+00 0.884E+03   0.450E+00 0.285E+00 -.883E+03   -.104E-01 -.298E-02 -.659E+00   -.301E-01 -.844E-02 -.250E-01
   0.421E-04 0.304E+01 -.788E+03   -.129E-03 -.319E+01 0.788E+03   0.534E-12 0.814E-01 0.743E+00   -.658E-02 0.655E-01 0.178E+00
   0.170E+02 0.103E+02 -.751E+03   -.162E+02 -.982E+01 0.751E+03   -.101E+01 -.628E+00 -.116E+01   0.145E+00 0.905E-01 0.322E+00
   -.170E+02 0.103E+02 -.751E+03   0.162E+02 -.982E+01 0.751E+03   0.101E+01 -.628E+00 -.116E+01   -.143E+00 0.891E-01 0.322E+00
   0.802E+01 -.514E+01 -.778E+03   -.830E+01 0.536E+01 0.778E+03   0.245E+00 -.180E+00 0.575E+00   0.663E-01 -.577E-01 0.185E+00
   -.582E-04 -.204E+02 -.751E+03   0.443E-04 0.194E+02 0.752E+03   0.786E-11 0.120E+01 -.111E+01   -.542E-02 -.208E+00 0.359E+00
   -.802E+01 -.514E+01 -.778E+03   0.830E+01 0.536E+01 0.778E+03   -.245E+00 -.180E+00 0.575E+00   -.648E-01 -.593E-01 0.186E+00
   -.244E+01 -.115E+01 -.789E+03   0.250E+01 0.118E+01 0.788E+03   -.106E-01 -.403E-02 0.708E+00   -.581E-01 -.218E-01 0.200E+00
   0.244E+01 -.115E+01 -.789E+03   -.250E+01 0.118E+01 0.788E+03   0.106E-01 -.403E-02 0.708E+00   0.473E-01 -.227E-01 0.200E+00
   0.199E-04 0.927E+01 -.779E+03   0.110E-03 -.969E+01 0.778E+03   0.232E-11 0.354E+00 0.606E+00   0.994E-03 0.858E-01 0.198E+00
   0.541E-04 0.246E+01 -.245E+04   -.117E-03 -.242E+01 0.245E+04   -.238E-12 -.363E-01 0.193E+01   -.153E-02 -.589E-02 0.359E+00
   0.292E+02 0.568E+02 -.242E+04   -.289E+02 -.566E+02 0.242E+04   -.496E+00 -.512E+00 0.214E+01   0.612E-01 0.147E+00 0.228E+00
   -.292E+02 0.568E+02 -.242E+04   0.289E+02 -.566E+02 0.242E+04   0.496E+00 -.512E+00 0.214E+01   -.510E-01 0.148E+00 0.227E+00
   0.664E+02 -.355E+00 -.242E+04   -.662E+02 0.490E+00 0.241E+04   -.492E+00 -.105E+00 0.254E+01   0.172E+00 -.146E-01 0.236E+00
   -.664E+02 -.355E+00 -.242E+04   0.662E+02 0.490E+00 0.241E+04   0.492E+00 -.105E+00 0.254E+01   -.162E+00 -.144E-01 0.236E+00
   0.294E+02 -.563E+02 -.242E+04   -.292E+02 0.560E+02 0.242E+04   -.327E+00 0.621E+00 0.214E+01   0.101E+00 -.119E+00 0.234E+00
   -.294E+02 -.563E+02 -.242E+04   0.292E+02 0.560E+02 0.242E+04   0.327E+00 0.621E+00 0.214E+01   -.891E-01 -.120E+00 0.235E+00
   0.207E-04 -.230E+01 -.245E+04   0.107E-03 0.226E+01 0.244E+04   0.343E-12 0.522E-01 0.206E+01   -.747E-02 -.191E-02 0.265E+00
   -.785E-05 -.423E+00 -.176E+04   0.860E-04 0.432E+00 0.176E+04   0.199E-12 0.303E-01 0.363E+01   0.210E-02 0.378E-02 0.159E+00
   0.229E+03 -.492E-01 -.127E+04   -.271E+03 0.450E-01 0.128E+04   0.425E+02 -.268E-02 -.535E+01   0.653E-01 0.181E-02 -.108E+00
   -.229E+03 -.492E-01 -.127E+04   0.271E+03 0.450E-01 0.128E+04   -.425E+02 -.268E-02 -.535E+01   -.631E-01 0.183E-02 -.108E+00
   0.489E-03 -.562E-01 0.841E+01   0.568E-13 0.989E-13 -.364E-11   0.348E-12 0.533E-01 -.108E+02   0.208E-01 0.232E-02 0.241E+01

 POSITION                                       TOTAL-FORCE (eV/Angst)
      0.00000      0.00000      5.28219        -0.000000     -0.001053      0.060757
      2.93046      0.00000      5.28219         0.007877      0.019206      0.048915
      5.86091      0.00000      5.28219        -0.007877      0.019206      0.048915
      1.46523      2.53785      5.28219         0.017221     -0.005512      0.047929
      4.39568      2.53785      5.28219        -0.000000     -0.000198      0.016666
      7.32614      2.53785      5.28219        -0.017221     -0.005512      0.047929
      2.93046      5.07570      5.28219         0.018060     -0.013302      0.047370
      5.86091      5.07570      5.28219        -0.018060     -0.013302      0.047370
      8.79137      5.07570      5.28219         0.000000      0.000161      0.053332
      1.46523      0.84595      7.67490         0.020690      0.014236     -0.012665
      4.39568      0.84595      7.67490        -0.000000     -0.040725     -0.101606
      7.32614      0.84595      7.67490        -0.020690      0.014236     -0.012665
      2.93046      3.38380      7.67490        -0.034286      0.022225     -0.095581
      5.86091      3.38380      7.67490         0.034286      0.022225     -0.095581
      8.79137      3.38380      7.67490        -0.000000     -0.012897     -0.004415
      4.39568      5.92165      7.67490        -0.000000     -0.033277     -0.006329
      7.32614      5.92165      7.67490        -0.014371      0.005718      0.005452
     10.25659      5.92165      7.67490         0.014371      0.005718      0.005452
      8.79137      1.69615     10.06050        -0.000000     -0.004058      0.009722
      2.93321      1.69349     10.03240        -0.000491     -0.005059     -0.092402
      5.85816      1.69349     10.03240         0.000491     -0.005059     -0.092402
     10.25564      4.23030     10.05204         0.024072     -0.012352     -0.000189
      4.39568      4.22657     10.03240        -0.000000     -0.016435     -0.089206
      7.32709      4.23030     10.05204        -0.024072     -0.012352     -0.000189
     11.71814      6.76547     10.06050         0.001910      0.001229     -0.014329
      5.86459      6.76547     10.06050        -0.001910      0.001229     -0.014329
      8.79137      6.76650     10.05204         0.000000      0.017732     -0.010505
      0.00000      0.00000     12.42190        -0.000000     -0.009729     -0.001439
      2.95118      0.03878     12.42853        -0.068133     -0.161615     -0.113416
      5.84018      0.03878     12.42853         0.068133     -0.161615     -0.113416
      1.50917      2.53641     12.42853        -0.185223      0.015397     -0.115123
      7.28219      2.53641     12.42853         0.185223      0.015397     -0.115123
      2.95367      5.03836     12.42853        -0.087274      0.149890     -0.108972
      5.83769      5.03836     12.42853         0.087274      0.149890     -0.108972
      8.79137      5.07570     12.41313         0.000000      0.007886      0.003712
      4.39568      2.53785     12.23685         0.000000      0.042589      0.892107
      3.82544      2.53310     14.51725        -0.012214     -0.005062     -0.008386
      4.96593      2.53310     14.51725         0.012214     -0.005062     -0.008386
    total drift:                                0.021322     -0.000534      0.055443

  FREE ENERGIE OF THE ION-ELECTRON SYSTEM (eV)
  free  energy   TOTEN  =      -111.80276761 eV

  energy  without entropy=     -111.80276761  energy(sigma->0) =     -111.80276761

 stress matrix after NEB project (eV)
     -7.23688     -0.00000      0.00000
     -0.00000     -7.19640      0.07183
      0.00000      0.07183     -0.56369
  FORCES: max atom, RMS     0.015656    0.003592
  FORCE total and by dimension    0.022142    0.012214
  Stress total and by dimension   10.221969    7.236876
|           W    W    AA    RRRRR   N    N  II  N    N   GGGG   !!!           |
|           W    W   A  A   R    R  NN   N  II  NN   N  G    G  !!!           |
|           W    W  A    A  R    R  N N  N  II  N N  N  G       !!!           |
|           W WW W  AAAAAA  RRRRR   N  N N  II  N  N N  G  GGG   !            |
|           WW  WW  A    A  R   R   N   NN  II  N   NN  G    G                |
|           W    W  A    A  R    R  N    N  II  N    N   GGGG   !!!           |
|     Tetrahedron method does not include variations of the Fermi             |
|     occupations, so forces and stress will be inaccurate. We suggest        |
|     using a different smearing scheme ISMEAR = 1 or 2 for metals in         |
|     relaxations.                                                            |

 total charge

# of ion       s       p       d       tot
    1        0.414   0.204   9.178   9.796
    2        0.419   0.203   9.177   9.799
    3        0.419   0.203   9.177   9.799
    4        0.419   0.203   9.177   9.799
    5        0.416   0.205   9.176   9.797
    6        0.419   0.203   9.177   9.799
    7        0.420   0.203   9.177   9.799
    8        0.420   0.203   9.177   9.799
    9        0.414   0.203   9.179   9.796
   10        0.405   0.270   9.163   9.839
   11        0.410   0.266   9.168   9.844
   12        0.405   0.270   9.163   9.839
   13        0.410   0.266   9.168   9.844
   14        0.410   0.266   9.168   9.844
   15        0.400   0.271   9.165   9.836
   16        0.405   0.270   9.164   9.839
   17        0.400   0.271   9.166   9.836
   18        0.400   0.271   9.166   9.836
   19        0.402   0.267   9.168   9.838
   20        0.418   0.288   9.155   9.861
   21        0.418   0.288   9.155   9.861
   22        0.398   0.275   9.166   9.838
   23        0.416   0.290   9.154   9.861
   24        0.398   0.275   9.166   9.838
   25        0.405   0.267   9.167   9.839
   26        0.405   0.267   9.167   9.839
   27        0.398   0.274   9.167   9.838
   28        0.418   0.197   9.180   9.796
   29        0.416   0.206   9.181   9.803
   30        0.416   0.206   9.181   9.803
   31        0.410   0.207   9.182   9.799
   32        0.410   0.207   9.182   9.799
   33        0.416   0.206   9.181   9.803
   34        0.416   0.206   9.181   9.803
   35        0.413   0.200   9.182   9.794
   36        0.346   0.305   7.518   8.170
   37        1.357   2.453   0.000   3.810
   38        1.357   2.453   0.000   3.810
tot         17.437  13.588 328.520 359.545

 BZINTS: Fermi energy:    0.967184;  404.000000 electrons
         Band energy:-0.129103E+04;  BLOECHL correction:   -0.053809