 vasp.6.2.0 18Jan21 (build Jun 12 2021 23:27:24) complex

 executed on             LinuxIFC date 2022.05.26  20:11:59

 INCAR:
   ISMEAR = -5
   SIGMA = 0.1
   ISPIN = 1
   EDIFF = 1.d-5
   EDIFFG = -0.01
   NSW = 0
   NELM = 150
   ENCUT = 500
   ISIF = 2
   IBRION = 2
   LREAL = Auto
   ALGO = Fast
   ICHARG = 11
   LORBIT = 10
   LCHARG = .F.
   LWAVE = .F.

 POTCAR:    PAW_PBE Au 04Oct2007
 POTCAR:    PAW_PBE Fe 06Sep2000
|           W    W    AA    RRRRR   N    N  II  N    N   GGGG   !!!           |
|           W    W   A  A   R    R  NN   N  II  NN   N  G    G  !!!           |
|           W    W  A    A  R    R  N N  N  II  N N  N  G       !!!           |
|           W WW W  AAAAAA  RRRRR   N  N N  II  N  N N  G  GGG   !            |
|           WW  WW  A    A  R   R   N   NN  II  N   NN  G    G                |
|           W    W  A    A  R    R  N    N  II  N    N   GGGG   !!!           |
|     For optimal performance we recommend to set                             |
|       NCORE = 2 up to number-of-cores-per-socket                            |
|     This setting can greatly improve the performance of VASP for DFT.       |
|     The default, NCORE=1 might be grossly inefficient on modern             |
|     multi-core architectures or massively parallel machines. Do your        |
|     Unfortunately you need to use the default for GW and RPA                |
|     calculations (for HF NCORE is supported but not extensively tested      |
|     yet).                                                                   |

 POTCAR:    PAW_PBE Au 04Oct2007
   VRHFIN =Au: s1d10

   TITEL  = PAW_PBE Au 04Oct2007
   POMASS =  196.966; ZVAL   =   11.000    mass and valenz
   ENMAX  =  229.943; ENMIN  =  172.457 eV

 POTCAR:    PAW_PBE Fe 06Sep2000
   VRHFIN =Fe:  d7 s1

   TITEL  = PAW_PBE Fe 06Sep2000
   POMASS =   55.847; ZVAL   =    8.000    mass and valenz
   ENMAX  =  267.882; ENMIN  =  200.911 eV

 Optimization of the real space projectors (new method)

 maximal supplied QI-value         = 15.12
 optimisation between [QCUT,QGAM] = [ 11.34, 22.83] = [ 36.00,145.93] Ry
 Optimized for a Real-space Cutoff    1.39 Angstroem

   l    n(q)    QCUT    max X(q) W(low)/X(q) W(high)/X(q)  e(spline)
   2      9    11.338    60.898    0.39E-03    0.42E-03    0.21E-06
   2      9    11.338    58.894    0.40E-03    0.42E-03    0.22E-06
   0      9    11.338   109.617    0.13E-03    0.20E-04    0.13E-06
   0      9    11.338    75.026    0.13E-03    0.20E-04    0.13E-06
   1      9    11.338    16.344    0.33E-04    0.24E-03    0.18E-06
   1      9    11.338    10.160    0.26E-04    0.19E-03    0.15E-06
 Optimization of the real space projectors (new method)

 maximal supplied QI-value         = 16.25
 optimisation between [QCUT,QGAM] = [ 11.38, 22.75] = [ 36.24,144.96] Ry
 Optimized for a Real-space Cutoff    1.39 Angstroem

   l    n(q)    QCUT    max X(q) W(low)/X(q) W(high)/X(q)  e(spline)
   2      8    11.376    80.901    0.45E-03    0.44E-04    0.21E-06
   2      8    11.376    75.754    0.45E-03    0.45E-04    0.22E-06
   0      9    11.376    58.752    0.65E-04    0.95E-04    0.17E-06
   0      9    11.376    30.679    0.59E-04    0.87E-04    0.16E-06
   1      9    11.376    17.977    0.38E-03    0.10E-03    0.14E-06
   1      9    11.376    13.559    0.31E-03    0.90E-04    0.12E-06
  PAW_PBE Au 04Oct2007                  :
  PAW_PBE Fe 06Sep2000                  :

 POSCAR: Au-Fe
  positions in direct lattice
  velocities in cartesian coordinates
 exchange correlation table for  LEXCH =        8
   RHO(1)=    0.500       N(1)  =     2000
   RHO(2)=  100.500       N(2)  =     4000

 VTST: version 3.2, (02/03/18)

 CHAIN: initializing optimizer

 OPT: Using VASP Conjugate-Gradient optimizer
 CHAIN: Read ICHAIN            0

 POSCAR: Au-Fe
  positions in direct lattice
  velocities in cartesian coordinates

 ion  position               nearest neighbor table
   1  0.000  0.000  0.238-  16 2.94  12 2.94   6 2.94   8 2.94   7 2.94   3 2.94  10 2.94   4 2.94
                             2 2.94
   2  0.333  0.000  0.238-   9 2.94  11 2.94  17 2.94  10 2.94   8 2.94   4 2.94   5 2.94   1 2.94
                             3 2.94
   3  0.667  0.000  0.238-   7 2.94  18 2.94  12 2.94   1 2.94  11 2.94   5 2.94   6 2.94   9 2.94
                             2 2.94
   4  0.000  0.333  0.238-  10 2.94   6 2.94   5 2.94  13 2.94   2 2.94  15 2.94   9 2.94   1 2.94
                             7 2.94
   5  0.333  0.333  0.238-  13 2.94   7 2.94  11 2.94   4 2.94   2 2.94  14 2.94   3 2.94   8 2.94
                             6 2.94
   6  0.667  0.333  0.238-  15 2.94  14 2.94   1 2.94  12 2.94   4 2.94   9 2.94   8 2.94   3 2.94
                             5 2.94
   7  0.000  0.667  0.238-  18 2.94   3 2.94  16 2.94   5 2.94   1 2.94  13 2.94   8 2.94   4 2.94
                             9 2.94
   8  0.333  0.667  0.238-   9 2.94  17 2.94   1 2.94   2 2.94  14 2.94  16 2.94   6 2.94   7 2.94
                             5 2.94
   9  0.667  0.667  0.238-   2 2.94   8 2.94  17 2.94   6 2.94  15 2.94   4 2.94   3 2.94  18 2.94
                             7 2.94
  10  0.111  0.111  0.346-  20 2.93  26 2.94  19 2.94  11 2.94  17 2.94   2 2.94   4 2.94   1 2.94
                            12 2.94  16 2.94  13 2.94  15 2.94
  11  0.444  0.111  0.346-  20 2.91  21 2.91  27 2.93  13 2.94   2 2.94  10 2.94  17 2.94   5 2.94
                             3 2.94  18 2.94  14 2.94  12 2.94
  12  0.778  0.111  0.346-  21 2.93  25 2.94  19 2.94  16 2.94  18 2.94   1 2.94  14 2.94  15 2.94
                             3 2.94   6 2.94  10 2.94  11 2.94
  13  0.111  0.444  0.346-  23 2.91  20 2.91  22 2.93   5 2.94  18 2.94  11 2.94   7 2.94   4 2.94
                            16 2.94  10 2.94  14 2.94  15 2.94
  14  0.444  0.444  0.346-  21 2.91  23 2.91  24 2.93  15 2.94   6 2.94  12 2.94   8 2.94  17 2.94
                             5 2.94  16 2.94  13 2.94  11 2.94
  15  0.778  0.444  0.346-  24 2.92  22 2.92  19 2.94  14 2.94   6 2.94  17 2.94  12 2.94   9 2.94
                             4 2.94  10 2.94  13 2.94  18 2.94
  16  0.111  0.778  0.346-  23 2.93  25 2.94  26 2.94  18 2.94  12 2.94   7 2.94   1 2.94   8 2.94
                            13 2.94  10 2.94  14 2.94  17 2.94
  17  0.444  0.778  0.346-  27 2.92  24 2.92  26 2.94   9 2.94  15 2.94   2 2.94  10 2.94  11 2.94
                             8 2.94  14 2.94  16 2.94  18 2.94
  18  0.778  0.778  0.346-  22 2.92  27 2.92  25 2.94  16 2.94   7 2.94  13 2.94  12 2.94   3 2.94
                            11 2.94   9 2.94  15 2.94  17 2.94
  19  0.889  0.222  0.454-  10 2.94  12 2.94  15 2.94  26 2.94  25 2.94  24 2.94  22 2.94  28 2.95
                            21 2.95  20 2.95  32 2.98  31 2.98
  20  0.223  0.223  0.453-  36 2.70  23 2.91  21 2.91  11 2.91  13 2.91  29 2.92  31 2.92  10 2.93
                            27 2.95  22 2.95  26 2.95  19 2.95
  21  0.553  0.223  0.453-  36 2.70  20 2.91  23 2.91  14 2.91  11 2.91  30 2.92  32 2.92  12 2.93
                            27 2.95  24 2.95  25 2.95  19 2.95
  22  0.887  0.557  0.453-  24 2.91  27 2.91  18 2.92  15 2.92  13 2.93  25 2.94  19 2.94  33 2.95
                            31 2.95  23 2.95  20 2.95  35 2.95
  23  0.223  0.553  0.453-  36 2.70  20 2.91  21 2.91  13 2.91  14 2.91  33 2.92  34 2.92  16 2.93
                            22 2.95  24 2.95  25 2.95  26 2.95
  24  0.557  0.557  0.453-  27 2.91  22 2.91  15 2.92  17 2.92  14 2.93  26 2.94  19 2.94  32 2.95
                            34 2.95  21 2.95  23 2.95  35 2.95
  25  0.889  0.889  0.454-  16 2.94  12 2.94  18 2.94  19 2.94  26 2.94  22 2.94  27 2.94  28 2.95
                            23 2.95  21 2.95  33 2.98  30 2.98
  26  0.222  0.889  0.454-  10 2.94  16 2.94  17 2.94  19 2.94  25 2.94  27 2.94  24 2.94  28 2.95
                            20 2.95  23 2.95  29 2.98  34 2.98
  27  0.557  0.887  0.453-  24 2.91  22 2.91  17 2.92  18 2.92  11 2.93  26 2.94  25 2.94  29 2.95
                            30 2.95  20 2.95  21 2.95  35 2.95
  28  0.000  0.000  0.563-  25 2.95  19 2.95  26 2.95  34 2.98  32 2.98  33 2.98  30 2.98  31 2.98
                            29 2.98
  29  0.333  0.010  0.562-  30 2.85  31 2.85  36 2.87  20 2.92  27 2.95  26 2.98  35 2.98  28 2.98
                            34 3.11
  30  0.657  0.010  0.562-  29 2.85  32 2.85  36 2.87  21 2.92  27 2.95  25 2.98  35 2.98  28 2.98
                            33 3.11
  31  0.010  0.333  0.562-  33 2.85  29 2.85  36 2.87  20 2.92  22 2.95  19 2.98  35 2.98  28 2.98
                            32 3.11
  32  0.657  0.333  0.562-  34 2.85  30 2.85  36 2.87  21 2.92  24 2.95  19 2.98  35 2.98  28 2.98
                            31 3.11
  33  0.010  0.657  0.562-  31 2.85  34 2.85  36 2.87  23 2.92  22 2.95  25 2.98  35 2.98  28 2.98
                            30 3.11
  34  0.333  0.657  0.562-  32 2.85  33 2.85  36 2.87  23 2.92  24 2.95  26 2.98  35 2.98  28 2.98
                            29 3.11
  35  0.667  0.667  0.563-  24 2.95  27 2.95  22 2.95  29 2.98  34 2.98  32 2.98  31 2.98  30 2.98
                            33 2.98
  36  0.333  0.333  0.548-  20 2.70  23 2.70  21 2.70  33 2.87  31 2.87  29 2.87  30 2.87  34 2.87
                            32 2.87

  LATTYP: Found a hexagonal cell.
 ALAT       =     8.8135128021
 C/A-ratio  =     2.5184286595

  Lattice vectors:

 A1 = (  -4.4067569092,  -7.6327256898,   0.0000000000)
 A2 = (   8.8135128021,   0.0000000000,   0.0000000000)
 A3 = (   0.0000000000,   0.0000000000,  22.1962032318)

Analysis of symmetry for initial positions (statically):
 Subroutine PRICEL returns:
 Original cell was already a primitive cell.

 Routine SETGRP: Setting up the symmetry group for a
 hexagonal supercell.

 Subroutine GETGRP returns: Found  6 space group operations
 (whereof  6 operations were pure point group operations)
 out of a pool of 24 trial point group operations.

The static configuration has the point symmetry C_3v.

Analysis of symmetry for dynamics (positions and initial velocities):
 Subroutine PRICEL returns:
 Original cell was already a primitive cell.

[...]

The dynamic configuration has the point symmetry C_3v.

Analysis of constrained symmetry for selective dynamics:
 Subroutine PRICEL returns:
 Original cell was already a primitive cell.

 Routine SETGRP: Setting up the symmetry group for a
 hexagonal supercell.

 Subroutine GETGRP returns: Found  6 space group operations
 (whereof  6 operations were pure point group operations)
 out of a pool of 24 trial point group operations.

The constrained configuration has the point symmetry C_3v.

 Subroutine INISYM returns: Found  6 space group operations
 (whereof  6 operations are pure point group operations),
 and found     1 'primitive' translations

                                     Primitive cell

  volume of cell :    1493.1636

  direct lattice vectors                    reciprocal lattice vectors
     8.813512802  0.000000000  0.000000000     0.113462137 -0.065507406  0.000000000
     4.406756909  7.632725690  0.000000000     0.000000000  0.131014796  0.000000000
[...]
     15      -5.2829      2.00000
     16      -5.2758      2.00000
     17      -5.2697      2.00000
     18      -5.2562      2.00000
     19      -5.1925      2.00000
     20      -5.1880      2.00000
     21      -5.1430      2.00000
     22      -5.1223      2.00000
     23      -5.1036      2.00000
     24      -5.0821      2.00000
     25      -5.0702      2.00000
     26      -5.0340      2.00000
     27      -4.9599      2.00000
     28      -4.8997      2.00000
     29      -4.8092      2.00000
     30      -4.8010      2.00000
     31      -4.7802      2.00000
     32      -4.7769      2.00000
     33      -4.7630      2.00000
     34      -4.7066      2.00000
     35      -4.6094      2.00000
     36      -4.5790      2.00000
     37      -4.5763      2.00000
     38      -4.5677      2.00000
     39      -4.5126      2.00000
     40      -4.4315      2.00000
     41      -4.3997      2.00000
     42      -4.3412      2.00000
     43      -4.3208      2.00000
     44      -4.3190      2.00000
     45      -4.3104      2.00000
     46      -4.2037      2.00000
     47      -4.1949      2.00000
     48      -4.1609      2.00000
     49      -4.1393      2.00000
     50      -4.1371      2.00000
     51      -4.1288      2.00000
     52      -4.1056      2.00000
     53      -4.0763      2.00000
     54      -4.0317      2.00000
     55      -4.0238      2.00000
     56      -3.9933      2.00000
     57      -3.9815      2.00000
     58      -3.9673      2.00000
     59      -3.9563      2.00000
     60      -3.9460      2.00000
[...]
    238       6.6865      0.00000
    239       6.7443      0.00000
    240       6.7781      0.00000
    241       6.8004      0.00000
    242       6.8864      0.00000
    243       7.0911      0.00000
    244       7.1539      0.00000
    245       7.2573      0.00000
    246       7.5401      0.00000
    247       7.5752      0.00000
    248       7.6626      0.00000
    249       7.6848      0.00000
    250       7.8525      0.00000
    251       7.9660      0.00000
    252       7.9800      0.00000

 soft charge-density along one line, spin component           1
         0         1         2         3         4         5         6         7         8         9
 total charge-density along one line

------------------------ aborting loop because EDIFF is reached ----------------------------------------

 total charge

# of ion       s       p       d       tot
    1        0.546   0.239   8.766   9.551
    2        0.544   0.241   8.765   9.550
    3        0.544   0.241   8.765   9.550
    4        0.544   0.241   8.765   9.550
    5        0.542   0.242   8.762   9.546
    6        0.544   0.241   8.765   9.550
    7        0.544   0.241   8.765   9.550
    8        0.544   0.241   8.765   9.550
    9        0.544   0.239   8.768   9.551
   10        0.523   0.308   8.768   9.599
   11        0.521   0.308   8.780   9.609
   12        0.523   0.308   8.768   9.599
   13        0.521   0.308   8.780   9.609
   14        0.521   0.308   8.780   9.609
   15        0.518   0.308   8.776   9.602
   16        0.523   0.308   8.768   9.599
   17        0.518   0.308   8.776   9.602
   18        0.518   0.308   8.776   9.602
   19        0.516   0.300   8.775   9.592
   20        0.544   0.331   8.751   9.626
   21        0.544   0.331   8.751   9.626
   22        0.511   0.309   8.777   9.597
   23        0.544   0.331   8.751   9.626
   24        0.511   0.309   8.777   9.597
   25        0.516   0.300   8.775   9.592
   26        0.516   0.300   8.775   9.592
   27        0.511   0.309   8.777   9.597
   28        0.538   0.224   8.765   9.527
   29        0.559   0.239   8.750   9.548
   30        0.559   0.239   8.750   9.548
   31        0.559   0.239   8.750   9.548
   32        0.559   0.239   8.750   9.548
   33        0.559   0.239   8.750   9.548
   34        0.559   0.239   8.750   9.548
   35        0.534   0.224   8.766   9.524
   36        0.317   0.239   6.204   6.760
tot         19.041   9.886 312.999 341.925

  FORCE on cell =-STRESS in cart. coord.  units (eV):
  Direction    XX          YY          ZZ          XY          YZ          ZX
  Alpha Z   998.20052   998.20052   998.20052
  Ewald  119535.95352119535.95392************    -0.00032    -0.00009    -0.00016
  Hartree128162.48207128162.48207************     0.00000    -0.00002    -0.00005
  E(xc)   -1765.90101 -1765.90098 -1773.09281    -0.00002    -0.00000    -0.00000
  Local  ************************260267.08167     0.00176     0.00005     0.00010
  n-local  -108.16108   -59.27368   -58.63495    23.23267    -1.25151     1.33631
  augment  2402.64644  2402.64801  2419.17959    -0.00136     0.00003     0.00004
  Kinetic  5407.43248  5423.91861  5471.38235     8.20348    -0.33401     0.99946
  Fock        0.00000     0.00000     0.00000     0.00000     0.00000     0.00000
  Total     -24.80236   -24.80236     1.54544    -0.00000     0.00000     0.00000
  in kB     -26.61314   -26.61314     1.65827    -0.00000     0.00000     0.00000

 VOLUME and BASIS-vectors are now :
  energy-cutoff  :      500.00
  volume of cell :     1493.16
      direct lattice vectors                 reciprocal lattice vectors
     8.813512802  0.000000000  0.000000000     0.113462137 -0.065507406  0.000000000
     4.406756909  7.632725690  0.000000000     0.000000000  0.131014796  0.000000000
     0.000000000  0.000000000 22.196203232     0.000000000  0.000000000  0.045052750

  length of vectors
     8.813512802  8.813512802 22.196203232     0.131014796  0.131014796  0.045052750

 FORCES acting on ions
    electron-ion (+dipol)            ewald-force                    non-local-force                 convergence-correction
   -.198E-04 -.163E-04 0.247E+04   0.519E-04 0.433E-04 -.247E+04   -.119E-17 0.779E-18 -.742E+00   -.237E-03 -.150E-03 -.271E+00
   0.521E+00 0.266E+00 0.247E+04   -.555E+00 -.297E+00 -.247E+04   0.247E-01 0.298E-01 -.296E+00   0.427E-02 0.348E-02 -.339E+00
   -.521E+00 0.266E+00 0.247E+04   0.555E+00 -.297E+00 -.247E+04   -.247E-01 0.298E-01 -.296E+00   -.395E-02 0.541E-02 -.338E+00
   0.491E+00 0.318E+00 0.247E+04   -.534E+00 -.332E+00 -.247E+04   0.381E-01 0.646E-02 -.296E+00   0.521E-02 0.190E-02 -.339E+00
   0.742E-05 -.239E-04 0.247E+04   0.951E-04 0.173E-05 -.247E+04   -.200E-17 0.267E-17 -.228E+00   0.428E-02 0.260E-02 -.331E+00
   -.492E+00 0.318E+00 0.247E+04   0.534E+00 -.332E+00 -.247E+04   -.381E-01 0.646E-02 -.296E+00   -.675E-02 0.281E-02 -.338E+00
   -.299E-01 -.585E+00 0.247E+04   0.205E-01 0.629E+00 -.247E+04   0.135E-01 -.362E-01 -.296E+00   0.277E-02 -.614E-02 -.338E+00
   0.299E-01 -.585E+00 0.247E+04   -.207E-01 0.629E+00 -.247E+04   -.135E-01 -.362E-01 -.296E+00   -.926E-03 -.723E-02 -.338E+00
   0.198E-04 -.415E-04 0.247E+04   0.166E-03 -.201E-04 -.247E+04   -.146E-17 -.909E-18 -.426E+00   -.459E-02 -.237E-02 -.334E+00
   0.417E+01 0.241E+01 0.808E+03   -.383E+01 -.221E+01 -.808E+03   -.248E+00 -.143E+00 -.662E+00   -.601E-01 -.348E-01 0.306E+00
   0.149E-04 0.481E+01 0.816E+03   0.147E-03 -.489E+01 -.816E+03   0.148E-08 0.223E-01 -.311E+00   0.404E-02 0.143E-01 0.410E+00
   -.417E+01 0.241E+01 0.808E+03   0.383E+01 -.221E+01 -.808E+03   0.248E+00 -.143E+00 -.662E+00   0.588E-01 -.337E-01 0.305E+00
   0.416E+01 -.240E+01 0.816E+03   -.423E+01 0.244E+01 -.816E+03   0.193E-01 -.111E-01 -.311E+00   0.147E-01 -.337E-02 0.410E+00
   -.416E+01 -.240E+01 0.816E+03   0.423E+01 0.244E+01 -.816E+03   -.193E-01 -.111E-01 -.311E+00   -.703E-02 -.420E-02 0.409E+00
   0.315E-04 0.334E+01 0.811E+03   0.236E-03 -.344E+01 -.811E+03   0.186E-08 0.280E-01 -.470E+00   -.224E-02 0.325E-01 0.333E+00
   -.214E-04 -.482E+01 0.808E+03   0.162E-03 0.442E+01 -.808E+03   0.191E-07 0.286E+00 -.662E+00   -.183E-04 0.677E-01 0.305E+00
   0.289E+01 -.167E+01 0.811E+03   -.298E+01 0.172E+01 -.811E+03   0.242E-01 -.140E-01 -.470E+00   0.272E-01 -.177E-01 0.333E+00
   -.289E+01 -.167E+01 0.811E+03   0.298E+01 0.172E+01 -.811E+03   -.242E-01 -.140E-01 -.470E+00   -.268E-01 -.157E-01 0.334E+00
   -.402E-04 0.120E+01 -.884E+03   0.547E-04 -.135E+01 0.883E+03   0.251E-08 0.376E-01 0.458E+00   -.315E-02 0.113E+00 0.959E+00
   0.187E+02 0.108E+02 -.854E+03   -.184E+02 -.106E+02 0.853E+03   -.805E+00 -.465E+00 -.718E+00   0.498E+00 0.287E+00 0.172E+01
   -.187E+02 0.108E+02 -.854E+03   0.184E+02 -.106E+02 0.853E+03   0.805E+00 -.465E+00 -.718E+00   -.502E+00 0.288E+00 0.171E+01
   -.501E+00 0.289E+00 -.872E+03   -.439E-01 0.253E-01 0.870E+03   0.340E+00 -.196E+00 0.524E+00   0.206E+00 -.122E+00 0.107E+01
   -.100E-04 -.216E+02 -.854E+03   0.141E-03 0.213E+02 0.853E+03   0.619E-07 0.930E+00 -.718E+00   -.221E-02 -.579E+00 0.171E+01
   0.501E+00 0.289E+00 -.872E+03   0.437E-01 0.252E-01 0.870E+03   -.340E+00 -.196E+00 0.524E+00   -.211E+00 -.122E+00 0.107E+01
   -.104E+01 -.598E+00 -.884E+03   0.117E+01 0.676E+00 0.883E+03   -.326E-01 -.188E-01 0.458E+00   -.102E+00 -.588E-01 0.958E+00
   0.104E+01 -.598E+00 -.884E+03   -.117E+01 0.676E+00 0.883E+03   0.326E-01 -.188E-01 0.458E+00   0.970E-01 -.594E-01 0.959E+00
   0.102E-04 -.578E+00 -.872E+03   0.198E-03 -.506E-01 0.870E+03   0.262E-07 0.393E+00 0.524E+00   -.291E-02 0.239E+00 0.107E+01
   -.977E-05 -.118E-04 -.250E+04   0.280E-04 0.316E-04 0.250E+04   0.746E-17 0.136E-17 0.608E+00   0.214E-04 -.384E-05 0.704E+00
   0.727E+01 0.103E+02 -.250E+04   -.697E+01 -.985E+01 0.250E+04   -.752E+00 -.115E+01 0.207E+00   0.453E+00 0.708E+00 0.645E+00
   -.727E+01 0.103E+02 -.250E+04   0.697E+01 -.985E+01 0.250E+04   0.752E+00 -.115E+01 0.207E+00   -.453E+00 0.709E+00 0.644E+00
   0.125E+02 0.115E+01 -.250E+04   -.120E+02 -.111E+01 0.250E+04   -.137E+01 -.763E-01 0.207E+00   0.840E+00 0.386E-01 0.645E+00
   -.125E+02 0.115E+01 -.250E+04   0.120E+02 -.111E+01 0.250E+04   0.137E+01 -.763E-01 0.207E+00   -.841E+00 0.394E-01 0.644E+00
   0.528E+01 -.114E+02 -.250E+04   -.504E+01 0.110E+02 0.250E+04   -.619E+00 0.123E+01 0.207E+00   0.388E+00 -.747E+00 0.644E+00
   -.528E+01 -.114E+02 -.250E+04   0.504E+01 0.110E+02 0.250E+04   0.619E+00 0.123E+01 0.207E+00   -.386E+00 -.748E+00 0.644E+00
   0.345E-04 -.320E-04 -.250E+04   0.143E-03 -.469E-04 0.250E+04   -.200E-17 0.509E-18 0.657E+00   -.436E-02 -.222E-02 0.654E+00
   -.314E-04 0.500E-06 -.175E+04   0.846E-04 0.789E-05 0.174E+04   -.713E-18 -.478E-18 0.308E+01   0.437E-02 0.267E-02 0.801E+00
   -.791E-03 -.773E-03 -.159E+02   0.113E-12 0.322E-12 -.955E-11   -.271E-17 0.317E-19 -.112E+01   -.126E-01 -.660E-02 0.174E+02

 POSITION                                       TOTAL-FORCE (eV/Angst)
      0.00000      0.00000      5.28038         0.000000      0.000000     -0.109329
      2.93784      0.00000      5.28038        -0.004311      0.004079     -0.070074
      5.87568      0.00000      5.28038         0.004311      0.004079     -0.070074
      1.46892      2.54424      5.28038         0.001377     -0.005773     -0.070074
      4.40676      2.54424      5.28038         0.000000      0.000000     -0.101647
      7.34459      2.54424      5.28038        -0.001377     -0.005773     -0.070074
      2.93784      5.08848      5.28038         0.005688      0.001694     -0.070074
      5.87568      5.08848      5.28038        -0.005688      0.001694     -0.070074
      8.81351      5.08848      5.28038         0.000000      0.000000     -0.090477
      1.46892      0.84808      7.67911         0.042132      0.024325      0.131943
      4.40676      0.84808      7.67911        -0.000000     -0.046180      0.028531
      7.34459      0.84808      7.67911        -0.042132      0.024325      0.131943
      2.93784      3.39232      7.67911        -0.039993      0.023090      0.028531
      5.87568      3.39232      7.67911         0.039993      0.023090      0.028531
      8.81351      3.39232      7.67911        -0.000000     -0.041177      0.101270
      4.40676      5.93656      7.67911        -0.000000     -0.048650      0.131943
      7.34459      5.93656      7.67911        -0.035660      0.020588      0.101270
     10.28243      5.93656      7.67911         0.035660      0.020588      0.101270
      8.81351      1.69603     10.07519        -0.000000     -0.004557     -0.015606
      2.95264      1.70471     10.05068        -0.009528     -0.005501     -0.025277
      5.86088      1.70471     10.05068         0.009528     -0.005501     -0.025277
     10.26798      4.24875     10.06116         0.004364     -0.002520     -0.009946
      4.40676      4.22331     10.05068         0.000000      0.011002     -0.025277
      7.35905      4.24875     10.06116        -0.004364     -0.002520     -0.009946
     11.75147      6.78471     10.07519         0.003946      0.002278     -0.015606
      5.87556      6.78471     10.07519        -0.003946      0.002278     -0.015606
      8.81351      6.76796     10.06116         0.000000      0.005039     -0.009946
      0.00000      0.00000     12.48698         0.000000      0.000000     -0.006331
      2.98147      0.07441     12.46921        -0.002064      0.000944      0.009688
      5.83205      0.07441     12.46921         0.002064      0.000944      0.009688
      1.55518      2.54482     12.46921        -0.000214     -0.002259      0.009688
      7.25833      2.54482     12.46921         0.000214     -0.002259      0.009688
      2.98047      5.01349     12.46921         0.001849      0.001315      0.009688
      5.83305      5.01349     12.46921        -0.001849      0.001315      0.009688
      8.81351      5.08848     12.49182         0.000000     -0.000000     -0.000393
      4.40676      2.54424     12.16047         0.000000      0.000000      0.037742
    total drift:                               -0.013402     -0.007374      0.454677

  FREE ENERGIE OF THE ION-ELECTRON SYSTEM (eV)
  free  energy   TOTEN  =      -112.64815870 eV

  energy  without entropy=     -112.64815870  energy(sigma->0) =     -112.64815870

 stress matrix after NEB project (eV)
    -24.80236     -0.00000      0.00000
     -0.00000    -24.80236      0.00000
      0.00000      0.00000      1.54544
  FORCES: max atom, RMS     0.037742    0.012365
  FORCE total and by dimension    0.074192    0.037742
  Stress total and by dimension   35.109859   24.802358
|           W    W    AA    RRRRR   N    N  II  N    N   GGGG   !!!           |
|           W    W   A  A   R    R  NN   N  II  NN   N  G    G  !!!           |
|           W    W  A    A  R    R  N N  N  II  N N  N  G       !!!           |
|           W WW W  AAAAAA  RRRRR   N  N N  II  N  N N  G  GGG   !            |
|           WW  WW  A    A  R   R   N   NN  II  N   NN  G    G                |
|           W    W  A    A  R    R  N    N  II  N    N   GGGG   !!!           |
|     Tetrahedron method does not include variations of the Fermi             |
|     occupations, so forces and stress will be inaccurate. We suggest        |
|     using a different smearing scheme ISMEAR = 1 or 2 for metals in         |
|     relaxations.                                                            |

 total charge

# of ion       s       p       d       tot
    1        0.546   0.239   8.766   9.551
    2        0.544   0.241   8.765   9.550
    3        0.544   0.241   8.765   9.550
    4        0.544   0.241   8.765   9.550
    5        0.542   0.242   8.762   9.546
    6        0.544   0.241   8.765   9.550
    7        0.544   0.241   8.765   9.550
    8        0.544   0.241   8.765   9.550
    9        0.544   0.239   8.768   9.551
   10        0.523   0.308   8.768   9.599
   11        0.521   0.308   8.780   9.609
   12        0.523   0.308   8.768   9.599
   13        0.521   0.308   8.780   9.609
   14        0.521   0.308   8.780   9.609
   15        0.518   0.308   8.776   9.602
   16        0.523   0.308   8.768   9.599
   17        0.518   0.308   8.776   9.602
   18        0.518   0.308   8.776   9.602
   19        0.516   0.300   8.775   9.592
   20        0.544   0.331   8.751   9.626
   21        0.544   0.331   8.751   9.626
   22        0.511   0.309   8.777   9.597
   23        0.544   0.331   8.751   9.626
   24        0.511   0.309   8.777   9.597
   25        0.516   0.300   8.775   9.592
   26        0.516   0.300   8.775   9.592
   27        0.511   0.309   8.777   9.597
   28        0.538   0.224   8.765   9.527
   29        0.559   0.239   8.750   9.548
   30        0.559   0.239   8.750   9.548
   31        0.559   0.239   8.750   9.548
   32        0.559   0.239   8.750   9.548
   33        0.559   0.239   8.750   9.548
   34        0.559   0.239   8.750   9.548
   35        0.534   0.224   8.766   9.524
   36        0.317   0.239   6.204   6.760
tot         19.041   9.886 312.999 341.925

 BZINTS: Fermi energy:    0.642827;  393.000000 electrons
         Band energy:-0.118604E+04;  BLOECHL correction:   -0.051282