 vasp.6.2.0 18Jan21 (build Jun 12 2021 23:27:24) complex

 executed on             LinuxIFC date 2022.05.28  00:47:27

 INCAR:
   ISMEAR = -5
   SIGMA = 0.1
   ISPIN = 1
   EDIFF = 1.d-5
   EDIFFG = -0.01
   NSW = 0
   NELM = 150
   ENCUT = 500
   ISIF = 2
   IBRION = 2
   LREAL = Auto
   ALGO = Fast
   ICHARG = 11
   LORBIT = 10
   LCHARG = .F.
   LWAVE = .F.

 POTCAR:    PAW_PBE Au 04Oct2007
 POTCAR:    PAW_PBE Co 02Aug2007
 POTCAR:    PAW_PBE H 15Jun2001
 POTCAR:    PAW_PBE O 08Apr2002
|           W    W    AA    RRRRR   N    N  II  N    N   GGGG   !!!           |
|           W    W   A  A   R    R  NN   N  II  NN   N  G    G  !!!           |
|           W    W  A    A  R    R  N N  N  II  N N  N  G       !!!           |
|           W WW W  AAAAAA  RRRRR   N  N N  II  N  N N  G  GGG   !            |
|           WW  WW  A    A  R   R   N   NN  II  N   NN  G    G                |
|           W    W  A    A  R    R  N    N  II  N    N   GGGG   !!!           |
|     For optimal performance we recommend to set                             |
|       NCORE = 2 up to number-of-cores-per-socket                            |
|     This setting can greatly improve the performance of VASP for DFT.       |
|     The default, NCORE=1 might be grossly inefficient on modern             |
|     multi-core architectures or massively parallel machines. Do your        |
|     Unfortunately you need to use the default for GW and RPA                |
|     calculations (for HF NCORE is supported but not extensively tested      |
|     yet).                                                                   |

 POTCAR:    PAW_PBE Au 04Oct2007
   VRHFIN =Au: s1d10

   TITEL  = PAW_PBE Au 04Oct2007
   POMASS =  196.966; ZVAL   =   11.000    mass and valenz
   ENMAX  =  229.943; ENMIN  =  172.457 eV

 POTCAR:    PAW_PBE Co 02Aug2007
   VRHFIN =Co: d8 s1

   TITEL  = PAW_PBE Co 02Aug2007
   POMASS =   58.933; ZVAL   =    9.000    mass and valenz
   ENMAX  =  267.968; ENMIN  =  200.976 eV

 POTCAR:    PAW_PBE H 15Jun2001
   VRHFIN =H: ultrasoft test

   TITEL  = PAW_PBE H 15Jun2001
   POMASS =    1.000; ZVAL   =    1.000    mass and valenz
   ENMAX  =  250.000; ENMIN  =  200.000 eV

 POTCAR:    PAW_PBE O 08Apr2002
   VRHFIN =O: s2p4

   TITEL  = PAW_PBE O 08Apr2002
   POMASS =   16.000; ZVAL   =    6.000    mass and valenz
   ENMAX  =  400.000; ENMIN  =  300.000 eV

 Optimization of the real space projectors (new method)

 maximal supplied QI-value         = 15.12
 optimisation between [QCUT,QGAM] = [ 11.34, 22.83] = [ 36.00,145.93] Ry
 Optimized for a Real-space Cutoff    1.39 Angstroem

   l    n(q)    QCUT    max X(q) W(low)/X(q) W(high)/X(q)  e(spline)
   2      9    11.338    60.898    0.39E-03    0.42E-03    0.21E-06
   2      9    11.338    58.894    0.40E-03    0.42E-03    0.22E-06
   0      9    11.338   109.617    0.13E-03    0.20E-04    0.13E-06
   0      9    11.338    75.026    0.13E-03    0.20E-04    0.13E-06
   1      9    11.338    16.344    0.33E-04    0.24E-03    0.18E-06
   1      9    11.338    10.160    0.26E-04    0.19E-03    0.15E-06
 Optimization of the real space projectors (new method)

[...]

   l    n(q)    QCUT    max X(q) W(low)/X(q) W(high)/X(q)  e(spline)
   0      8    11.287    19.460    0.40E-03    0.73E-03    0.16E-06
   0      8    11.287    12.209    0.38E-03    0.70E-03    0.15E-06
   1      7    11.287     4.655    0.22E-03    0.25E-04    0.22E-06
 Optimization of the real space projectors (new method)

 maximal supplied QI-value         = 24.76
 optimisation between [QCUT,QGAM] = [ 11.39, 22.77] = [ 36.31,145.25] Ry
 Optimized for a Real-space Cutoff    1.00 Angstroem

   l    n(q)    QCUT    max X(q) W(low)/X(q) W(high)/X(q)  e(spline)
   0      7    11.387    20.381    0.39E-03    0.13E-02    0.15E-06
   0      7    11.387    15.268    0.42E-03    0.14E-02    0.17E-06
   1      6    11.387     5.964    0.41E-03    0.11E-02    0.17E-06
   1      6    11.387     5.382    0.39E-03    0.87E-03    0.15E-06
  PAW_PBE Au 04Oct2007                  :
  PAW_PBE Co 02Aug2007                  :
  PAW_PBE H 15Jun2001                   :
  PAW_PBE O 08Apr2002                   :

 POSCAR: Au-Co-H2O
  positions in direct lattice
  velocities in cartesian coordinates
 exchange correlation table for  LEXCH =        8
   RHO(1)=    0.500       N(1)  =     2000
   RHO(2)=  100.500       N(2)  =     4000

 VTST: version 3.2, (02/03/18)

 CHAIN: initializing optimizer

 OPT: Using VASP Conjugate-Gradient optimizer
 CHAIN: Read ICHAIN            0

 POSCAR: Au-Co-H2O
  positions in direct lattice
  velocities in cartesian coordinates

 ion  position               nearest neighbor table
   1  0.000  0.000  0.213-  16 2.94  12 2.94   6 2.94   8 2.94   7 2.94   3 2.94  10 2.94   4 2.94
                             2 2.94
   2  0.333  0.000  0.213-   9 2.94  11 2.94  17 2.94  10 2.94   8 2.94   4 2.94   5 2.94   1 2.94
                             3 2.94
   3  0.667  0.000  0.213-   7 2.94  18 2.94  12 2.94   1 2.94  11 2.94   5 2.94   6 2.94   9 2.94
                             2 2.94
   4  0.000  0.333  0.213-  10 2.94   6 2.94   5 2.94  13 2.94   2 2.94  15 2.94   9 2.94   1 2.94
                             7 2.94
   5  0.333  0.333  0.213-  13 2.94   7 2.94  11 2.94   4 2.94   2 2.94  14 2.94   3 2.94   8 2.94
                             6 2.94
   6  0.667  0.333  0.213-  15 2.94  14 2.94   1 2.94  12 2.94   4 2.94   9 2.94   8 2.94   3 2.94
                             5 2.94
   7  0.000  0.667  0.213-  18 2.94   3 2.94  16 2.94   5 2.94   1 2.94  13 2.94   8 2.94   4 2.94
                             9 2.94
   8  0.333  0.667  0.213-   9 2.94  17 2.94   1 2.94   2 2.94  14 2.94  16 2.94   6 2.94   7 2.94
                             5 2.94
   9  0.667  0.667  0.213-   2 2.94   8 2.94  17 2.94   6 2.94  15 2.94   4 2.94   3 2.94  18 2.94
                             7 2.94
  10  0.111  0.111  0.310-  20 2.92  26 2.93  19 2.93  11 2.94  17 2.94   2 2.94   4 2.94   1 2.94
                            12 2.94  16 2.94  13 2.94  15 2.94
  11  0.444  0.111  0.310-  20 2.91  21 2.91  27 2.93  13 2.94   2 2.94  10 2.94  17 2.94   5 2.94
                             3 2.94  18 2.94  14 2.94  12 2.94
  12  0.778  0.111  0.310-  21 2.92  25 2.93  19 2.93  16 2.94  18 2.94   1 2.94  14 2.94  15 2.94
                             3 2.94   6 2.94  10 2.94  11 2.94
  13  0.111  0.444  0.310-  23 2.91  20 2.91  22 2.93   5 2.94  18 2.94  11 2.94   7 2.94   4 2.94
                            16 2.94  10 2.94  14 2.94  15 2.94
  14  0.444  0.444  0.310-  21 2.91  23 2.91  24 2.93  15 2.94   6 2.94  12 2.94   8 2.94  17 2.94
                             5 2.94  16 2.94  13 2.94  11 2.94
  15  0.778  0.444  0.310-  24 2.92  22 2.92  19 2.93  14 2.94   6 2.94  17 2.94  12 2.94   9 2.94
                             4 2.94  10 2.94  13 2.94  18 2.94
  16  0.111  0.778  0.310-  23 2.92  25 2.93  26 2.93  18 2.94  12 2.94   7 2.94   1 2.94   8 2.94
                            13 2.94  10 2.94  14 2.94  17 2.94
  17  0.444  0.778  0.310-  27 2.92  24 2.92  26 2.93   9 2.94  15 2.94   2 2.94  10 2.94  11 2.94
                             8 2.94  14 2.94  16 2.94  18 2.94
  18  0.778  0.778  0.310-  22 2.92  27 2.92  25 2.93  16 2.94   7 2.94  13 2.94  12 2.94   3 2.94
                            11 2.94   9 2.94  15 2.94  17 2.94
  19  0.889  0.222  0.407-  10 2.93  12 2.93  15 2.93  26 2.94  25 2.94  24 2.94  22 2.94  28 2.94
                            21 2.95  20 2.95  32 2.96  31 2.96
  20  0.223  0.223  0.406-  36 2.69  29 2.91  31 2.91  11 2.91  13 2.91  23 2.91  21 2.91  10 2.92
                            27 2.95  22 2.95  26 2.95  19 2.95
  21  0.554  0.223  0.406-  36 2.69  30 2.91  32 2.91  14 2.91  11 2.91  20 2.91  23 2.91  12 2.92
                            27 2.95  24 2.95  25 2.95  19 2.95
  22  0.887  0.557  0.406-  24 2.91  27 2.91  18 2.92  15 2.92  13 2.93  25 2.94  19 2.94  33 2.94
                            31 2.94  23 2.95  20 2.95  35 2.96
  23  0.223  0.554  0.406-  36 2.69  33 2.91  34 2.91  13 2.91  14 2.91  20 2.91  21 2.91  16 2.92
                            22 2.95  24 2.95  25 2.95  26 2.95
  24  0.557  0.557  0.406-  27 2.91  22 2.91  15 2.92  17 2.92  14 2.93  26 2.94  19 2.94  32 2.94
                            34 2.94  21 2.95  23 2.95  35 2.96
  25  0.889  0.889  0.407-  16 2.93  12 2.93  18 2.93  19 2.94  26 2.94  22 2.94  27 2.94  28 2.94
                            23 2.95  21 2.95  33 2.96  30 2.96
  26  0.222  0.889  0.407-  10 2.93  16 2.93  17 2.93  19 2.94  25 2.94  27 2.94  24 2.94  28 2.94
                            20 2.95  23 2.95  29 2.96  34 2.96
  27  0.557  0.887  0.406-  24 2.91  22 2.91  17 2.92  18 2.92  11 2.93  26 2.94  25 2.94  29 2.94
                            30 2.94  20 2.95  21 2.95  35 2.96
  28  0.000  0.000  0.504-  25 2.94  19 2.94  26 2.94  34 2.98  32 2.98  33 2.98  30 2.98  31 2.98
                            29 2.98
  29  0.334  0.008  0.503-  30 2.86  31 2.87  36 2.88  20 2.91  27 2.94  26 2.96  35 2.98  28 2.98
                            34 3.09
  30  0.658  0.008  0.503-  29 2.86  32 2.87  36 2.88  21 2.91  27 2.94  25 2.96  35 2.98  28 2.98
                            33 3.09
  31  0.008  0.334  0.503-  33 2.86  29 2.87  36 2.88  20 2.91  22 2.94  19 2.96  35 2.98  28 2.98
                            32 3.09
  32  0.658  0.334  0.503-  34 2.86  30 2.87  36 2.88  21 2.91  24 2.94  19 2.96  35 2.98  28 2.98
                            31 3.09
  33  0.008  0.658  0.503-  31 2.86  34 2.87  36 2.88  23 2.91  22 2.94  25 2.96  35 2.98  28 2.98
                            30 3.09
  34  0.334  0.658  0.503-  32 2.86  33 2.87  36 2.88  23 2.91  24 2.94  26 2.96  35 2.98  28 2.98
                            29 3.09
  35  0.667  0.667  0.505-  24 2.96  27 2.96  22 2.96  29 2.98  34 2.98  32 2.98  31 2.98  30 2.98
                            33 2.98
  36  0.333  0.333  0.491-  39 2.11  20 2.69  23 2.69  21 2.69  33 2.88  31 2.88  29 2.88  30 2.88
                            34 2.88  32 2.88
  37  0.281  0.260  0.584-  39 0.98
  38  0.459  0.260  0.584-  39 0.98
  39  0.333  0.333  0.576-  37 0.98  38 0.98  36 2.11

  LATTYP: Found a hexagonal cell.
 ALAT       =     8.8135128021
 C/A-ratio  =     2.8075332270

  Lattice vectors:

 A1 = (  -4.4067569092,  -7.6327256898,   0.0000000000)
 A2 = (   8.8135128021,   0.0000000000,   0.0000000000)
 A3 = (   0.0000000000,   0.0000000000,  24.7442300386)

Analysis of symmetry for initial positions (statically):
 Subroutine PRICEL returns:
 Original cell was already a primitive cell.

 Routine SETGRP: Setting up the symmetry group for a
 hexagonal supercell.

 Subroutine GETGRP returns: Found  1 space group operations
 (whereof  1 operations were pure point group operations)
 out of a pool of 24 trial point group operations.

The static configuration has the point symmetry C_1 .

Analysis of symmetry for dynamics (positions and initial velocities):
 Subroutine PRICEL returns:
 Original cell was already a primitive cell.

[...]

The dynamic configuration has the point symmetry C_1 .

Analysis of constrained symmetry for selective dynamics:
 Subroutine PRICEL returns:
[...]
     41      -4.9080      2.00000
     42      -4.8560      2.00000
     43      -4.7694      2.00000
     44      -4.7436      2.00000
     45      -4.7020      2.00000
     46      -4.6622      2.00000
     47      -4.6555      2.00000
     48      -4.6523      2.00000
     49      -4.5984      2.00000
     50      -4.5369      2.00000
     51      -4.5095      2.00000
     52      -4.4800      2.00000
     53      -4.4764      2.00000
     54      -4.4667      2.00000
     55      -4.4460      2.00000
     56      -4.4412      2.00000
     57      -4.4069      2.00000
     58      -4.3641      2.00000
     59      -4.3384      2.00000
     60      -4.3164      2.00000
[...]
    238       5.7643      0.00000
    239       6.0054      0.00000
    240       6.0155      0.00000
    241       6.0577      0.00000
    242       6.1127      0.00000
    243       6.3019      0.00000
    244       6.3700      0.00000
    245       6.4210      0.00000
    246       6.4413      0.00000
    247       6.5683      0.00000
    248       6.5813      0.00000
    249       6.6410      0.00000
    250       6.7234      0.00000
    251       6.8038      0.00000
    252       6.8429      0.00000

 soft charge-density along one line, spin component           1
         0         1         2         3         4         5         6         7         8         9
 total charge-density along one line

------------------------ aborting loop because EDIFF is reached ----------------------------------------

 total charge

# of ion       s       p       d       tot
    1        0.545   0.239   8.768   9.552
    2        0.546   0.241   8.765   9.552
    3        0.546   0.241   8.765   9.552
    4        0.546   0.241   8.765   9.552
    5        0.542   0.242   8.762   9.546
    6        0.546   0.241   8.765   9.552
    7        0.546   0.240   8.766   9.552
    8        0.546   0.240   8.766   9.552
    9        0.541   0.240   8.771   9.552
   10        0.521   0.308   8.771   9.601
   11        0.523   0.307   8.781   9.611
   12        0.521   0.308   8.771   9.601
   13        0.522   0.308   8.781   9.610
   14        0.522   0.308   8.780   9.610
   15        0.517   0.310   8.777   9.603
   16        0.522   0.308   8.771   9.601
   17        0.516   0.310   8.777   9.603
   18        0.516   0.310   8.777   9.603
   19        0.521   0.302   8.776   9.599
   20        0.542   0.329   8.756   9.627
   21        0.542   0.329   8.756   9.627
   22        0.512   0.311   8.776   9.600
   23        0.541   0.330   8.754   9.625
   24        0.512   0.311   8.776   9.600
   25        0.520   0.303   8.776   9.598
   26        0.520   0.303   8.776   9.598
   27        0.514   0.311   8.776   9.601
   28        0.540   0.228   8.767   9.535
   29        0.561   0.243   8.758   9.562
   30        0.561   0.243   8.758   9.562
   31        0.560   0.241   8.759   9.560
   32        0.560   0.241   8.759   9.560
   33        0.553   0.235   8.764   9.552
   34        0.553   0.235   8.764   9.552
   35        0.535   0.226   8.769   9.531
   36        0.317   0.288   7.221   7.826
   37        0.602   0.117   0.000   0.720
   38        0.602   0.117   0.000   0.719
   39        1.569   3.595   0.000   5.164
tot         21.822  13.781 314.119 349.722

  FORCE on cell =-STRESS in cart. coord.  units (eV):
  Direction    XX          YY          ZZ          XY          YZ          ZX
  Alpha Z   913.18864   913.18864   913.18864
  Ewald  158608.84240158546.46922************    -0.26659   -16.85466    -0.34895
  Hartree167191.52553167179.38549************    -0.06405    -1.58228    -0.06271
  E(xc)   -1809.70593 -1809.94126 -1816.39117    -0.00111    -0.04337    -0.00187
  Local  ************************338101.40895     0.26557    12.18459     0.30700
  n-local   -94.84328   -96.01294   -73.25274    -0.00566     0.04986    -0.00005
  augment  2529.71296  2530.96980  2540.10026     0.00400     0.39733     0.00992
  Kinetic  5560.86273  5578.32376  5628.43198     0.07031     5.78925     0.09908
  Fock        0.00000     0.00000     0.00000     0.00000     0.00000     0.00000
  Total     -24.46510   -24.73874    -1.10684     0.00246    -0.05927     0.00241
  in kB     -23.54805   -23.81144    -1.06535     0.00237    -0.05705     0.00232

 VOLUME and BASIS-vectors are now :
  energy-cutoff  :      500.00
  volume of cell :     1664.57
      direct lattice vectors                 reciprocal lattice vectors
     8.813512802  0.000000000  0.000000000     0.113462137 -0.065507406  0.000000000
     4.406756909  7.632725690  0.000000000     0.000000000  0.131014796  0.000000000
     0.000000000  0.000000000 24.744230039     0.000000000  0.000000000  0.040413462

  length of vectors
     8.813512802  8.813512802 24.744230039     0.131014796  0.131014796  0.040413462

 FORCES acting on ions
    electron-ion (+dipol)            ewald-force                    non-local-force                 convergence-correction
   0.115E-02 0.530E-02 0.271E+04   0.430E-04 -.118E-01 -.270E+04   -.464E-04 0.950E-02 -.846E+00   -.119E-02 -.759E-03 -.409E+00
   0.614E+00 0.465E+00 0.271E+04   -.682E+00 -.548E+00 -.271E+04   0.315E-01 0.465E-01 -.232E+00   0.344E-01 0.531E-01 -.475E+00
   -.615E+00 0.453E+00 0.271E+04   0.682E+00 -.548E+00 -.271E+04   -.315E-01 0.465E-01 -.232E+00   -.331E-01 0.643E-01 -.473E+00
   0.714E+00 0.285E+00 0.271E+04   -.806E+00 -.302E+00 -.271E+04   0.459E-01 -.267E-02 -.232E+00   0.567E-01 0.851E-02 -.479E+00
   -.145E-01 -.286E-01 0.271E+04   0.163E-03 0.202E-01 -.271E+04   0.104E-03 -.491E-02 -.228E+00   0.144E-01 0.106E-01 -.439E+00
   -.704E+00 0.279E+00 0.271E+04   0.805E+00 -.302E+00 -.271E+04   -.460E-01 -.254E-02 -.232E+00   -.664E-01 0.137E-01 -.474E+00
   0.759E-01 -.750E+00 0.271E+04   -.124E+00 0.850E+00 -.271E+04   0.211E-01 -.435E-01 -.264E+00   0.391E-01 -.614E-01 -.475E+00
   -.858E-01 -.743E+00 0.271E+04   0.124E+00 0.850E+00 -.271E+04   -.210E-01 -.436E-01 -.265E+00   -.291E-01 -.679E-01 -.472E+00
   0.143E-01 0.319E-01 0.271E+04   0.108E-03 -.806E-02 -.271E+04   0.613E-04 -.516E-02 -.493E+00   -.147E-01 -.175E-01 -.519E+00
   0.542E+01 0.310E+01 0.936E+03   -.517E+01 -.297E+01 -.936E+03   -.255E+00 -.148E+00 -.677E+00   0.506E-01 0.422E-01 0.297E+00
   -.102E-01 0.676E+01 0.947E+03   0.375E-03 -.688E+01 -.947E+03   0.130E-03 0.228E-01 -.347E+00   0.996E-02 0.654E-01 0.447E+00
   -.541E+01 0.309E+01 0.936E+03   0.517E+01 -.297E+01 -.936E+03   0.255E+00 -.148E+00 -.677E+00   -.566E-01 0.516E-01 0.292E+00
   0.584E+01 -.351E+01 0.946E+03   -.596E+01 0.357E+01 -.946E+03   0.386E-01 -.213E-01 -.385E+00   0.558E-01 -.189E-01 0.444E+00
   -.586E+01 -.351E+01 0.946E+03   0.596E+01 0.357E+01 -.946E+03   -.385E-01 -.212E-01 -.385E+00   -.339E-01 -.187E-01 0.443E+00
   0.126E-01 0.275E+01 0.938E+03   -.288E-03 -.278E+01 -.938E+03   -.326E-04 0.388E-02 -.521E+00   -.124E-01 -.942E-02 0.252E+00
   -.538E-02 -.610E+01 0.936E+03   0.441E-03 0.583E+01 -.936E+03   0.399E-04 0.298E+00 -.736E+00   0.498E-02 -.811E-01 0.307E+00
   0.250E+01 -.129E+01 0.938E+03   -.251E+01 0.132E+01 -.938E+03   -.899E-02 0.685E-02 -.539E+00   -.166E-01 -.160E-01 0.256E+00
   -.249E+01 -.130E+01 0.938E+03   0.251E+01 0.132E+01 -.938E+03   0.872E-02 0.688E-02 -.539E+00   0.118E-01 -.583E-02 0.254E+00
   -.290E-02 0.280E+01 -.870E+03   -.259E-02 -.294E+01 0.869E+03   0.144E-03 0.261E-01 0.480E+00   0.558E-02 0.974E-01 0.121E+01
   0.368E+02 0.205E+02 -.813E+03   -.368E+02 -.205E+02 0.811E+03   -.866E+00 -.490E+00 -.784E+00   0.928E+00 0.538E+00 0.240E+01
   -.368E+02 0.205E+02 -.813E+03   0.368E+02 -.205E+02 0.811E+03   0.866E+00 -.490E+00 -.784E+00   -.928E+00 0.549E+00 0.240E+01
   0.108E+02 -.655E+01 -.855E+03   -.115E+02 0.692E+01 0.853E+03   0.326E+00 -.154E+00 0.523E+00   0.367E+00 -.233E+00 0.131E+01
   -.151E-01 -.427E+02 -.815E+03   0.401E-02 0.427E+02 0.813E+03   0.278E-04 0.103E+01 -.778E+00   0.112E-01 -.108E+01 0.240E+01
   -.108E+02 -.655E+01 -.855E+03   0.115E+02 0.692E+01 0.853E+03   -.326E+00 -.154E+00 0.523E+00   -.388E+00 -.227E+00 0.131E+01
   -.302E+01 -.751E+00 -.871E+03   0.310E+01 0.861E+00 0.869E+03   0.745E-03 -.621E-01 0.545E+00   -.577E-01 -.410E-01 0.122E+01
   0.301E+01 -.742E+00 -.871E+03   -.310E+01 0.858E+00 0.869E+03   -.120E-03 -.618E-01 0.546E+00   0.677E-01 -.474E-01 0.122E+01
   0.151E-01 0.135E+02 -.854E+03   -.659E-03 -.143E+02 0.852E+03   -.351E-03 0.357E+00 0.482E+00   -.143E-01 0.439E+00 0.132E+01
   -.275E-03 0.232E+01 -.265E+04   -.265E-02 -.236E+01 0.265E+04   -.264E-03 0.266E-01 0.486E+00   0.328E-02 0.129E-03 0.115E+01
   0.444E+02 0.743E+02 -.261E+04   -.445E+02 -.746E+02 0.261E+04   -.576E+00 -.944E+00 -.243E-01   0.646E+00 0.111E+01 0.101E+01
   -.444E+02 0.743E+02 -.261E+04   0.446E+02 -.746E+02 0.261E+04   0.577E+00 -.947E+00 -.294E-01   -.649E+00 0.112E+01 0.101E+01
   0.824E+02 -.238E+01 -.262E+04   -.827E+02 0.245E+01 0.262E+04   -.114E+01 -.444E-01 0.603E-01   0.128E+01 -.349E-02 0.999E+00
   -.824E+02 -.240E+01 -.262E+04   0.827E+02 0.246E+01 0.262E+04   0.114E+01 -.443E-01 0.621E-01   -.129E+01 0.495E-02 0.998E+00
   0.361E+02 -.681E+02 -.262E+04   -.364E+02 0.685E+02 0.262E+04   -.398E+00 0.830E+00 0.540E+00   0.637E+00 -.111E+01 0.991E+00
   -.361E+02 -.681E+02 -.262E+04   0.365E+02 0.685E+02 0.262E+04   0.398E+00 0.830E+00 0.542E+00   -.626E+00 -.111E+01 0.985E+00
   0.274E-01 0.146E+01 -.266E+04   -.122E-01 -.146E+01 0.266E+04   -.267E-04 0.409E-02 0.464E+00   -.154E-01 -.160E-02 0.110E+01
   -.394E-01 -.825E+01 -.188E+04   0.278E-01 0.842E+01 0.188E+04   -.244E-02 -.122E+00 0.120E+01   0.121E-01 -.379E-02 0.726E+00
   0.682E+02 0.447E+02 -.300E+03   -.750E+02 -.492E+02 0.302E+03   0.669E+01 0.445E+01 -.158E+01   0.908E-01 0.621E-01 -.133E+00
   -.680E+02 0.451E+02 -.300E+03   0.747E+02 -.497E+02 0.302E+03   -.666E+01 0.449E+01 -.154E+01   -.904E-01 0.630E-01 -.133E+00
   -.136E+00 -.579E+02 -.172E+04   0.272E+00 0.102E+03 0.172E+04   -.131E+00 -.436E+02 0.536E+01   0.158E-02 -.422E-01 -.141E+01
   0.946E-01 0.350E+02 -.185E+02   0.241E-12 -.213E-12 -.136E-11   -.105E+00 -.351E+02 -.154E+01   0.960E-02 0.913E-01 0.209E+02

 POSITION                                       TOTAL-FORCE (eV/Angst)
      0.00000      0.00000      5.28038        -0.000027      0.002108     -0.023141
      2.93784      0.00000      5.28038        -0.001639      0.015729     -0.000210
      5.87568      0.00000      5.28038         0.001708      0.015772     -0.000236
      1.46892      2.54424      5.28038         0.011261     -0.011917      0.002929
      4.40676      2.54424      5.28038         0.000229     -0.002931     -0.017889
      7.34459      2.54424      5.28038        -0.011238     -0.011929      0.003038
      2.93784      5.08848      5.28038         0.012338     -0.004317     -0.000875
      5.87568      5.08848      5.28038        -0.012283     -0.004346     -0.000834
      8.81351      5.08848      5.28038        -0.000189      0.001021     -0.005149
      1.46892      0.84808      7.67911         0.043576      0.021484      0.077148
      4.40676      0.84808      7.67911         0.000265     -0.034632     -0.018741
      7.34459      0.84808      7.67911        -0.043574      0.021551      0.077144
      2.93784      3.39232      7.67911        -0.027395      0.018423     -0.019616
      5.87568      3.39232      7.67911         0.027935      0.018436     -0.019709
      8.81351      3.39232      7.67911        -0.000082     -0.030415      0.041506
      4.40676      5.93656      7.67911         0.000099     -0.049429      0.067465
      7.34459      5.93656      7.67911        -0.032190      0.016506      0.039697
     10.28243      5.93656      7.67911         0.032145      0.016560      0.039703
      8.81351      1.69524     10.07173         0.000253     -0.020642     -0.058054
      2.95099      1.70376     10.05075         0.023238      0.017956     -0.091508
      5.86252      1.70376     10.05075        -0.023320      0.018275     -0.091319
     10.26977      4.24772     10.05674         0.019362     -0.012834     -0.013037
      4.40676      4.22522     10.05075         0.000165     -0.029286     -0.053744
      7.35726      4.24772     10.05674        -0.019838     -0.012922     -0.012935
     11.75215      6.78511     10.07173         0.022250      0.006336     -0.045297
      5.87488      6.78511     10.07173        -0.022106      0.006400     -0.045087
      8.81351      6.77002     10.05674        -0.000233      0.019784     -0.026849
      0.00000      0.00000     12.47665         0.000102     -0.008222     -0.043917
      2.97645      0.06424     12.45579        -0.090081     -0.186010     -0.050017
      5.83706      0.06424     12.45579         0.090065     -0.185567     -0.049201
      1.54386      2.54556     12.45579        -0.193989      0.021089     -0.064055
      7.26966      2.54556     12.45579         0.193487      0.020999     -0.063728
      2.97417      5.02293     12.45579        -0.123311      0.151381     -0.079045
      5.83935      5.02293     12.45579         0.123298      0.151260     -0.079077
      8.81351      5.08848     12.49078        -0.000193     -0.001075     -0.079130
      4.40676      2.54424     12.15093        -0.001842      0.036429      0.821794
      3.62255      1.98645     14.45306        -0.025321     -0.019339      0.000091
      5.18766      1.98122     14.44907         0.020671     -0.016229      0.003658
      4.40636      2.54389     14.25849         0.006405      0.044540     -0.121774
    total drift:                               -0.000668      0.006633      0.799853

  FREE ENERGIE OF THE ION-ELECTRON SYSTEM (eV)
  free  energy   TOTEN  =      -126.84564886 eV

  energy  without entropy=     -126.84564886  energy(sigma->0) =     -126.84564886

 stress matrix after NEB project (eV)
    -24.46510      0.00246      0.00241
      0.00246    -24.73874     -0.05927
      0.00241     -0.05927     -1.10684
  FORCES: max atom, RMS     0.129822    0.021823
  FORCE total and by dimension    0.136283    0.121774
  Stress total and by dimension   34.810611   24.738743
|           W    W    AA    RRRRR   N    N  II  N    N   GGGG   !!!           |
|           W    W   A  A   R    R  NN   N  II  NN   N  G    G  !!!           |
|           W    W  A    A  R    R  N N  N  II  N N  N  G       !!!           |
|           W WW W  AAAAAA  RRRRR   N  N N  II  N  N N  G  GGG   !            |
|           WW  WW  A    A  R   R   N   NN  II  N   NN  G    G                |
|           W    W  A    A  R    R  N    N  II  N    N   GGGG   !!!           |
|     Tetrahedron method does not include variations of the Fermi             |
|     occupations, so forces and stress will be inaccurate. We suggest        |
|     using a different smearing scheme ISMEAR = 1 or 2 for metals in         |
|     relaxations.                                                            |

 total charge

# of ion       s       p       d       tot
    1        0.545   0.239   8.768   9.552
    2        0.546   0.241   8.765   9.552
    3        0.546   0.241   8.765   9.552
    4        0.546   0.241   8.765   9.552
    5        0.542   0.242   8.762   9.546
    6        0.546   0.241   8.765   9.552
    7        0.546   0.240   8.766   9.552
    8        0.546   0.240   8.766   9.552
    9        0.541   0.240   8.771   9.552
   10        0.521   0.308   8.771   9.601
   11        0.523   0.307   8.781   9.611
   12        0.521   0.308   8.771   9.601
   13        0.522   0.308   8.781   9.610
   14        0.522   0.308   8.780   9.610
   15        0.517   0.310   8.777   9.603
   16        0.522   0.308   8.771   9.601
   17        0.516   0.310   8.777   9.603
   18        0.516   0.310   8.777   9.603
   19        0.521   0.302   8.776   9.599
   20        0.542   0.329   8.756   9.627
   21        0.542   0.329   8.756   9.627
   22        0.512   0.311   8.776   9.600
   23        0.541   0.330   8.754   9.625
   24        0.512   0.311   8.776   9.600
   25        0.520   0.303   8.776   9.598
   26        0.520   0.303   8.776   9.598
   27        0.514   0.311   8.776   9.601
   28        0.540   0.228   8.767   9.535
   29        0.561   0.243   8.758   9.562
   30        0.561   0.243   8.758   9.562
   31        0.560   0.241   8.759   9.560
   32        0.560   0.241   8.759   9.560
   33        0.553   0.235   8.764   9.552
   34        0.553   0.235   8.764   9.552
   35        0.535   0.226   8.769   9.531
   36        0.317   0.288   7.221   7.826
   37        0.602   0.117   0.000   0.720
   38        0.602   0.117   0.000   0.719
   39        1.569   3.595   0.000   5.164
tot         21.822  13.781 314.119 349.722

 BZINTS: Fermi energy:    0.308116;  402.000000 electrons
         Band energy:-0.140329E+04;  BLOECHL correction:   -0.062857