 vasp.6.2.0 18Jan21 (build Jun 12 2021 23:27:24) complex

 executed on             LinuxIFC date 2022.05.26  19:53:28

 INCAR:
   ISMEAR = -5
   SIGMA = 0.1
   ISPIN = 1
   EDIFF = 1.d-5
   EDIFFG = -0.01
   NSW = 0
   NELM = 150
   ENCUT = 500
   ISIF = 2
   IBRION = 2
   LREAL = Auto
   ALGO = Fast
   ICHARG = 11
   LORBIT = 10
   LCHARG = .F.
   LWAVE = .F.

 POTCAR:    PAW_PBE Ag 02Apr2005
 POTCAR:    PAW_PBE Re 17Jan2003
 POTCAR:    PAW_PBE N 08Apr2002
|           W    W    AA    RRRRR   N    N  II  N    N   GGGG   !!!           |
|           W    W   A  A   R    R  NN   N  II  NN   N  G    G  !!!           |
|           W    W  A    A  R    R  N N  N  II  N N  N  G       !!!           |
|           W WW W  AAAAAA  RRRRR   N  N N  II  N  N N  G  GGG   !            |
|           WW  WW  A    A  R   R   N   NN  II  N   NN  G    G                |
|           W    W  A    A  R    R  N    N  II  N    N   GGGG   !!!           |
|     For optimal performance we recommend to set                             |
|       NCORE = 2 up to number-of-cores-per-socket                            |
|     This setting can greatly improve the performance of VASP for DFT.       |
|     The default, NCORE=1 might be grossly inefficient on modern             |
|     multi-core architectures or massively parallel machines. Do your        |
|     Unfortunately you need to use the default for GW and RPA                |
|     calculations (for HF NCORE is supported but not extensively tested      |
|     yet).                                                                   |

 POTCAR:    PAW_PBE Ag 02Apr2005
   VRHFIN =Ag : s1 d10

   TITEL  = PAW_PBE Ag 02Apr2005
   POMASS =  107.868; ZVAL   =   11.000    mass and valenz
   ENMAX  =  249.844; ENMIN  =  187.383 eV

 POTCAR:    PAW_PBE Re 17Jan2003
   VRHFIN =Re: 5p6s5d

   TITEL  = PAW_PBE Re 17Jan2003
   POMASS =  186.207; ZVAL   =    7.000    mass and valenz
   ENMAX  =  226.216; ENMIN  =  169.662 eV

 POTCAR:    PAW_PBE N 08Apr2002
   VRHFIN =N: s2p3

   TITEL  = PAW_PBE N 08Apr2002
   POMASS =   14.001; ZVAL   =    5.000    mass and valenz
   ENMAX  =  400.000; ENMIN  =  300.000 eV

 Optimization of the real space projectors (new method)

 maximal supplied QI-value         = 15.12
 optimisation between [QCUT,QGAM] = [ 11.34, 22.83] = [ 36.00,145.93] Ry
 Optimized for a Real-space Cutoff    1.43 Angstroem

   l    n(q)    QCUT    max X(q) W(low)/X(q) W(high)/X(q)  e(spline)
   2      9    11.338    53.897    0.16E-03    0.20E-03    0.28E-06
   2      9    11.338    52.416    0.16E-03    0.20E-03    0.29E-06
   0     10    11.338   122.045    0.31E-04    0.76E-04    0.15E-06
   0     10    11.338    73.629    0.30E-04    0.72E-04    0.15E-06
   1      9    11.338    15.255    0.20E-03    0.19E-04    0.17E-06
   1      9    11.338     9.562    0.16E-03    0.15E-04    0.14E-06
 Optimization of the real space projectors (new method)

[...]

   l    n(q)    QCUT    max X(q) W(low)/X(q) W(high)/X(q)  e(spline)
   2     10    11.327   884.633    0.22E-03    0.51E-03    0.88E-06
   2     10    11.327   796.723    0.22E-03    0.51E-03    0.88E-06
   0     11    11.327    65.348    0.44E-04    0.11E-03    0.75E-06
   0     11    11.327    39.642    0.40E-04    0.10E-03    0.69E-06
   1     10    11.327    13.988    0.15E-03    0.10E-03    0.19E-06
   1     10    11.327     8.682    0.11E-03    0.76E-04    0.14E-06
 Optimization of the real space projectors (new method)

 maximal supplied QI-value         = 25.13
 optimisation between [QCUT,QGAM] = [ 11.31, 22.87] = [ 35.82,146.48] Ry
 Optimized for a Real-space Cutoff    1.27 Angstroem

   l    n(q)    QCUT    max X(q) W(low)/X(q) W(high)/X(q)  e(spline)
   0      9    11.310    79.467    0.75E-04    0.16E-03    0.36E-06
   0      9    11.310    66.151    0.74E-04    0.16E-03    0.36E-06
   1      8    11.310    17.416    0.35E-03    0.12E-03    0.95E-06
   1      8    11.310    12.382    0.37E-03    0.13E-03    0.98E-06
  PAW_PBE Ag 02Apr2005                  :
  PAW_PBE Re 17Jan2003                  :
  PAW_PBE N 08Apr2002                   :

 POSCAR: Ag-Re-N
  positions in direct lattice
  velocities in cartesian coordinates
 exchange correlation table for  LEXCH =        8
   RHO(1)=    0.500       N(1)  =     2000
   RHO(2)=  100.500       N(2)  =     4000

 VTST: version 3.2, (02/03/18)

 CHAIN: initializing optimizer

 OPT: Using VASP Conjugate-Gradient optimizer
 CHAIN: Read ICHAIN            0

 POSCAR: Ag-Re-N
  positions in direct lattice
  velocities in cartesian coordinates

 ion  position               nearest neighbor table
   1  0.000  0.000  0.238-   2 2.93   8 2.93   7 2.93   6 2.93   4 2.93  12 2.93  16 2.93  10 2.93
                             3 2.93
   2  0.333  0.000  0.238-   1 2.93   8 2.93   9 2.93   3 2.93   4 2.93   5 2.93  10 2.93  17 2.93
                            11 2.93
   3  0.667  0.000  0.238-   9 2.93   2 2.93   5 2.93  11 2.93   7 2.93  18 2.93   1 2.93   6 2.93
                            12 2.93
   4  0.000  0.333  0.238-   5 2.93   6 2.93   2 2.93   1 2.93   7 2.93  13 2.93  15 2.93   9 2.93
                            10 2.93
   5  0.333  0.333  0.238-   4 2.93   3 2.93   7 2.93   2 2.93   8 2.93  14 2.93  13 2.93  11 2.93
                             6 2.93
   6  0.667  0.333  0.238-   4 2.93   9 2.93   1 2.93  15 2.93   8 2.93  12 2.93   3 2.93   5 2.93
                            14 2.93
   7  0.000  0.667  0.238-   8 2.93   1 2.93   5 2.93   3 2.93   4 2.93  16 2.93  18 2.93  13 2.93
                             9 2.93
   8  0.333  0.667  0.238-   7 2.93   1 2.93   2 2.93   9 2.93   5 2.93  16 2.93   6 2.93  17 2.93
                            14 2.93
   9  0.667  0.667  0.238-   3 2.93   2 2.93   8 2.93   6 2.93  17 2.93   4 2.93  15 2.93   7 2.93
                            18 2.93
  10  0.111  0.111  0.346-  20 2.89  12 2.93  16 2.93  15 2.93  17 2.93  13 2.93  11 2.93   2 2.93
                             1 2.93   4 2.93  19 2.93  26 2.93
  11  0.444  0.111  0.346-  21 2.89  20 2.89  27 2.93  14 2.93  17 2.93  18 2.93   3 2.93  12 2.93
                            13 2.93  10 2.93   5 2.93   2 2.93
  12  0.778  0.111  0.346-  21 2.89  10 2.93  16 2.93  18 2.93  15 2.93  11 2.93   1 2.93  14 2.93
                             6 2.93   3 2.93  25 2.93  19 2.93
  13  0.111  0.444  0.346-  20 2.89  23 2.89  22 2.93  15 2.93  14 2.93  18 2.93  10 2.93  11 2.93
                            16 2.93   4 2.93   5 2.93   7 2.93
  14  0.444  0.444  0.346-  23 2.89  21 2.89  24 2.93  13 2.93  11 2.93  16 2.93   5 2.93  12 2.93
                            17 2.93   8 2.93  15 2.93   6 2.93
  15  0.778  0.444  0.346-  24 2.92  22 2.92  19 2.93  13 2.93  10 2.93  12 2.93  17 2.93  18 2.93
                             4 2.93   6 2.93   9 2.93  14 2.93
  16  0.111  0.778  0.346-  23 2.89  18 2.93  12 2.93  10 2.93  14 2.93  17 2.93  13 2.93   7 2.93
                             8 2.93   1 2.93  26 2.93  25 2.93
  17  0.444  0.778  0.346-  27 2.92  24 2.92  26 2.93  11 2.93  10 2.93   9 2.93  18 2.93  15 2.93
                            16 2.93   2 2.93  14 2.93   8 2.93
  18  0.778  0.778  0.346-  22 2.92  27 2.92  25 2.93  16 2.93  12 2.93  13 2.93  11 2.93  17 2.93
                            15 2.93   7 2.93   3 2.93   9 2.93
  19  0.889  0.223  0.454-  28 2.91  24 2.93  22 2.93  15 2.93  20 2.93  21 2.93  10 2.93  12 2.93
                            26 2.94  25 2.94  32 2.97  31 2.97
  20  0.222  0.222  0.452-  36 2.76  10 2.89  13 2.89  11 2.89  19 2.93  26 2.93  21 2.93  23 2.93
                            27 2.94  22 2.94  31 2.94  29 2.94
  21  0.556  0.222  0.452-  36 2.76  12 2.89  11 2.89  14 2.89  25 2.93  19 2.93  20 2.93  23 2.93
                            27 2.94  24 2.94  30 2.94  32 2.94
  22  0.888  0.556  0.453-  35 2.91  24 2.92  27 2.92  18 2.92  15 2.92  13 2.93  25 2.93  19 2.93
                            23 2.94  20 2.94  33 2.95  31 2.95
  23  0.222  0.556  0.452-  36 2.76  16 2.89  14 2.89  13 2.89  26 2.93  25 2.93  21 2.93  20 2.93
                            22 2.94  24 2.94  34 2.94  33 2.94
  24  0.556  0.556  0.453-  35 2.91  27 2.92  22 2.92  15 2.92  17 2.92  14 2.93  19 2.93  26 2.93
                            23 2.94  21 2.94  32 2.95  34 2.95
  25  0.889  0.889  0.454-  28 2.91  22 2.93  27 2.93  18 2.93  23 2.93  21 2.93  16 2.93  12 2.93
                            26 2.94  19 2.94  33 2.97  30 2.97
  26  0.223  0.889  0.454-  28 2.91  27 2.93  24 2.93  17 2.93  23 2.93  20 2.93  16 2.93  10 2.93
                            25 2.94  19 2.94  34 2.97  29 2.97
  27  0.556  0.888  0.453-  35 2.91  24 2.92  22 2.92  17 2.92  18 2.92  11 2.93  26 2.93  25 2.93
                            20 2.94  21 2.94  29 2.95  30 2.95
  28  0.000  0.000  0.560-  26 2.91  25 2.91  19 2.91  29 2.96  34 2.96  33 2.96  32 2.96  31 2.96
                            30 2.96
  29  0.333  0.008  0.562-  31 2.86  30 2.87  36 2.88  20 2.94  27 2.95  28 2.96  26 2.97  35 2.97
                            34 3.06
  30  0.659  0.008  0.562-  32 2.86  29 2.87  36 2.88  21 2.94  27 2.95  28 2.96  25 2.97  35 2.97
                            33 3.06
  31  0.008  0.333  0.562-  29 2.86  33 2.87  36 2.88  20 2.94  22 2.95  28 2.96  19 2.97  35 2.97
                            32 3.06
  32  0.659  0.333  0.562-  30 2.86  34 2.87  36 2.88  21 2.94  24 2.95  28 2.96  19 2.97  35 2.97
                            31 3.06
  33  0.008  0.659  0.562-  34 2.86  31 2.87  36 2.88  23 2.94  22 2.95  28 2.96  25 2.97  35 2.97
                            30 3.06
  34  0.333  0.659  0.562-  33 2.86  32 2.87  36 2.88  23 2.94  24 2.95  28 2.96  26 2.97  35 2.97
                            29 3.06
  35  0.667  0.667  0.560-  24 2.91  27 2.91  22 2.91  30 2.97  32 2.97  29 2.97  34 2.97  31 2.97
                            33 2.97
  36  0.333  0.333  0.550-  37 1.70  21 2.76  20 2.76  23 2.76  31 2.88  30 2.88  33 2.88  29 2.88
                            34 2.88  32 2.88
  37  0.333  0.333  0.627-  36 1.70

  LATTYP: Found a hexagonal cell.
 ALAT       =     8.7913665772
 C/A-ratio  =     2.5227160501

  Lattice vectors:

 A1 = (  -4.3956832886,  -7.6135467898,   0.0000000000)
 A2 = (   8.7913665771,   0.0000000000,   0.0000000000)
 A3 = (   0.0000000000,   0.0000000000,  22.1781215668)

Analysis of symmetry for initial positions (statically):
 Subroutine PRICEL returns:
 Original cell was already a primitive cell.

 Routine SETGRP: Setting up the symmetry group for a
 hexagonal supercell.

 Subroutine GETGRP returns: Found  6 space group operations
 (whereof  6 operations were pure point group operations)
 out of a pool of 24 trial point group operations.

The static configuration has the point symmetry C_3v.

Analysis of symmetry for dynamics (positions and initial velocities):
 Subroutine PRICEL returns:
 Original cell was already a primitive cell.

[...]

The dynamic configuration has the point symmetry C_3v.

Analysis of constrained symmetry for selective dynamics:
 Subroutine PRICEL returns:
 Original cell was already a primitive cell.

 Routine SETGRP: Setting up the symmetry group for a
 hexagonal supercell.

 Subroutine GETGRP returns: Found  6 space group operations
[...]
     24      -4.6943      2.00000
     25      -4.6641      2.00000
     26      -4.6479      2.00000
     27      -4.6425      2.00000
     28      -4.6059      2.00000
     29      -4.6034      2.00000
     30      -4.5865      2.00000
     31      -4.5793      2.00000
     32      -4.5609      2.00000
     33      -4.5369      2.00000
     34      -4.5208      2.00000
     35      -4.4709      2.00000
     36      -4.4542      2.00000
     37      -4.4479      2.00000
     38      -4.4319      2.00000
     39      -4.4068      2.00000
     40      -4.3860      2.00000
     41      -4.3771      2.00000
     42      -4.3588      2.00000
     43      -4.3384      2.00000
     44      -4.2811      2.00000
     45      -4.2368      2.00000
     46      -4.2240      2.00000
     47      -4.2153      2.00000
     48      -4.2067      2.00000
     49      -4.2033      2.00000
     50      -4.1976      2.00000
     51      -4.1866      2.00000
     52      -4.1800      2.00000
     53      -4.1665      2.00000
     54      -4.1179      2.00000
     55      -4.0987      2.00000
     56      -4.0930      2.00000
     57      -4.0807      2.00000
     58      -4.0643      2.00000
     59      -4.0537      2.00000
     60      -4.0372      2.00000
[...]
    238       6.2869      0.00000
    239       6.3693      0.00000
    240       6.4673      0.00000
    241       7.1979      0.00000
    242       7.2225      0.00000
    243       7.2690      0.00000
    244       7.2967      0.00000
    245       7.3351      0.00000
    246       7.3649      0.00000
    247       7.4362      0.00000
    248       7.5710      0.00000
    249       7.6140      0.00000
    250       7.6315      0.00000
    251       7.6711      0.00000
    252       7.7973      0.00000

 soft charge-density along one line, spin component           1
         0         1         2         3         4         5         6         7         8         9
 total charge-density along one line

------------------------ aborting loop because EDIFF is reached ----------------------------------------

 total charge

# of ion       s       p       d       tot
    1        0.419   0.201   9.178   9.798
    2        0.416   0.204   9.177   9.797
    3        0.416   0.204   9.177   9.797
    4        0.416   0.204   9.177   9.797
    5        0.420   0.201   9.178   9.800
    6        0.416   0.204   9.177   9.797
    7        0.416   0.204   9.177   9.797
    8        0.416   0.204   9.177   9.797
    9        0.413   0.205   9.177   9.794
   10        0.407   0.269   9.165   9.841
   11        0.403   0.274   9.166   9.843
   12        0.407   0.269   9.165   9.841
   13        0.403   0.274   9.166   9.843
   14        0.403   0.274   9.166   9.843
   15        0.403   0.270   9.165   9.838
   16        0.407   0.269   9.165   9.841
   17        0.403   0.270   9.165   9.838
   18        0.403   0.270   9.165   9.838
   19        0.404   0.262   9.168   9.834
   20        0.435   0.304   9.145   9.884
   21        0.435   0.304   9.145   9.884
   22        0.393   0.276   9.165   9.834
   23        0.435   0.304   9.145   9.884
   24        0.393   0.276   9.165   9.834
   25        0.404   0.262   9.168   9.834
   26        0.404   0.262   9.168   9.834
   27        0.393   0.276   9.165   9.834
   28        0.418   0.193   9.179   9.790
   29        0.412   0.220   9.173   9.804
   30        0.412   0.220   9.173   9.804
   31        0.412   0.220   9.173   9.804
   32        0.412   0.220   9.173   9.804
   33        0.412   0.220   9.173   9.804
   34        0.412   0.220   9.173   9.804
   35        0.412   0.197   9.179   9.788
   36        0.628   0.518   5.040   6.187
   37        1.344   2.236   0.000   3.580
tot         16.357  11.258 325.950 353.566

  FORCE on cell =-STRESS in cart. coord.  units (eV):
  Direction    XX          YY          ZZ          XY          YZ          ZX
  Alpha Z   765.72745   765.72745   765.72745
  Ewald  120156.19013120156.19014************     0.00002    -0.00000     0.00002
  Hartree130325.06388130325.06388************     0.00001    -0.00000     0.00001
  E(xc)   -2082.23285 -2082.23283 -2088.42569    -0.00001    -0.00000    -0.00000
  Local  ************************261821.02136     0.00037    -0.00005    -0.00014
  n-local  -358.37528  -340.10920  -348.96676    11.34598    -0.42897     0.56043
  augment  3229.88858  3229.88877  3237.62706    -0.00016    -0.00002    -0.00004
  Kinetic  4963.09925  4966.57185  4966.74518     4.74725     0.80622    -0.37699
  Fock        0.00000     0.00000     0.00000     0.00000     0.00000     0.00000
  Total      -6.04839    -6.04839     0.15532    -0.00000     0.00000     0.00000
  in kB      -6.52803    -6.52803     0.16764    -0.00000     0.00000     0.00000

 VOLUME and BASIS-vectors are now :
  energy-cutoff  :      500.00
  volume of cell :     1484.46
      direct lattice vectors                 reciprocal lattice vectors
     8.791366577  0.000000000  0.000000000     0.113747958 -0.065672414  0.000000000
     4.395683289  7.613546790  0.000000000     0.000000000  0.131344829  0.000000000
     0.000000000  0.000000000 22.178121567     0.000000000  0.000000000  0.045089481

  length of vectors
     8.791366577  8.791366577 22.178121567     0.131344829  0.131344829  0.045089481

 FORCES acting on ions
    electron-ion (+dipol)            ewald-force                    non-local-force                 convergence-correction
   0.459E-04 -.283E-04 0.250E+04   -.954E-04 0.593E-04 -.250E+04   0.220E-17 -.289E-17 -.181E+01   -.274E-04 -.123E-03 -.121E+00
   0.474E+00 0.452E+00 0.250E+04   -.415E+00 -.465E+00 -.250E+04   -.333E-02 0.695E-01 -.167E+01   -.503E-01 -.524E-01 -.134E+00
   -.474E+00 0.452E+00 0.250E+04   0.415E+00 -.465E+00 -.250E+04   0.333E-02 0.695E-01 -.167E+01   0.497E-01 -.505E-01 -.134E+00
   0.629E+00 0.185E+00 0.250E+04   -.610E+00 -.126E+00 -.250E+04   0.585E-01 -.376E-01 -.167E+01   -.703E-01 -.172E-01 -.134E+00
   -.624E-05 -.191E-04 0.250E+04   0.980E-04 -.197E-05 -.250E+04   -.215E-17 -.170E-18 -.164E+01   0.615E-02 0.376E-02 -.948E-01
   -.629E+00 0.185E+00 0.250E+04   0.610E+00 -.126E+00 -.250E+04   -.585E-01 -.376E-01 -.167E+01   0.690E-01 -.163E-01 -.133E+00
   0.154E+00 -.637E+00 0.250E+04   -.196E+00 0.592E+00 -.250E+04   0.618E-01 -.319E-01 -.167E+01   -.184E-01 0.688E-01 -.134E+00
   -.154E+00 -.637E+00 0.250E+04   0.196E+00 0.592E+00 -.250E+04   -.618E-01 -.319E-01 -.167E+01   0.201E-01 0.679E-01 -.133E+00
   0.360E-04 -.132E-04 0.250E+04   0.792E-04 -.643E-04 -.250E+04   -.321E-17 0.401E-18 -.170E+01   -.665E-02 -.343E-02 -.108E+00
   0.545E+01 0.315E+01 0.839E+03   -.510E+01 -.295E+01 -.839E+03   -.291E+00 -.168E+00 -.564E+00   -.814E-01 -.470E-01 0.230E+00
   -.286E-04 0.461E+01 0.844E+03   0.407E-04 -.483E+01 -.844E+03   0.975E-12 0.148E+00 -.578E+00   0.582E-02 0.115E-01 0.242E+00
   -.545E+01 0.315E+01 0.839E+03   0.510E+01 -.295E+01 -.839E+03   0.291E+00 -.168E+00 -.564E+00   0.805E-01 -.464E-01 0.229E+00
   0.399E+01 -.231E+01 0.844E+03   -.418E+01 0.241E+01 -.844E+03   0.129E+00 -.742E-01 -.578E+00   0.128E-01 -.706E-03 0.242E+00
   -.399E+01 -.231E+01 0.844E+03   0.418E+01 0.241E+01 -.844E+03   -.129E+00 -.742E-01 -.578E+00   -.265E-02 -.128E-02 0.241E+00
   0.157E-04 0.122E+01 0.839E+03   -.108E-03 -.128E+01 -.839E+03   0.243E-12 0.370E-01 -.612E+00   -.108E-02 -.270E-02 0.216E+00
   -.805E-05 -.629E+01 0.839E+03   0.205E-04 0.589E+01 -.839E+03   0.221E-11 0.336E+00 -.564E+00   0.531E-05 0.929E-01 0.229E+00
   0.106E+01 -.610E+00 0.839E+03   -.111E+01 0.640E+00 -.839E+03   0.320E-01 -.185E-01 -.612E+00   -.290E-02 0.404E-03 0.216E+00
   -.106E+01 -.610E+00 0.839E+03   0.111E+01 0.640E+00 -.839E+03   -.320E-01 -.185E-01 -.612E+00   0.278E-02 0.158E-02 0.216E+00
   0.389E-04 -.205E-01 -.852E+03   -.128E-03 0.206E+00 0.851E+03   -.431E-12 -.656E-01 0.755E+00   0.687E-02 -.112E+00 0.506E+00
   0.234E+01 0.135E+01 -.824E+03   -.185E+01 -.107E+01 0.824E+03   -.796E+00 -.460E+00 -.438E+00   0.392E-01 0.227E-01 0.609E+00
   -.234E+01 0.135E+01 -.824E+03   0.185E+01 -.107E+01 0.824E+03   0.796E+00 -.460E+00 -.438E+00   -.515E-01 0.228E-01 0.609E+00
   -.211E+01 0.122E+01 -.842E+03   0.181E+01 -.104E+01 0.841E+03   0.368E+00 -.212E+00 0.707E+00   -.142E-01 0.677E-02 0.474E+00
   -.526E-04 -.270E+01 -.824E+03   0.414E-04 0.214E+01 0.824E+03   0.604E-11 0.920E+00 -.438E+00   -.569E-02 -.553E-01 0.609E+00
   0.211E+01 0.122E+01 -.842E+03   -.181E+01 -.104E+01 0.841E+03   -.368E+00 -.212E+00 0.707E+00   0.156E-01 0.910E-02 0.474E+00
   0.177E-01 0.102E-01 -.852E+03   -.179E+00 -.103E+00 0.851E+03   0.568E-01 0.328E-01 0.755E+00   0.105E+00 0.605E-01 0.506E+00
   -.177E-01 0.102E-01 -.852E+03   0.179E+00 -.103E+00 0.851E+03   -.568E-01 0.328E-01 0.755E+00   -.940E-01 0.619E-01 0.506E+00
   0.204E-04 -.244E+01 -.842E+03   0.110E-03 0.208E+01 0.841E+03   0.279E-11 0.424E+00 0.707E+00   -.189E-02 -.157E-01 0.474E+00
   0.534E-04 -.362E-04 -.248E+04   -.114E-03 0.775E-04 0.247E+04   -.213E-16 0.601E-17 0.189E+01   -.653E-03 -.512E-03 0.343E+00
   0.160E+02 0.283E+02 -.247E+04   -.153E+02 -.277E+02 0.247E+04   -.741E+00 -.101E+01 0.227E+01   -.307E-01 0.967E-01 0.272E+00
   -.160E+02 0.283E+02 -.247E+04   0.153E+02 -.277E+02 0.247E+04   0.741E+00 -.101E+01 0.227E+01   0.397E-01 0.979E-01 0.274E+00
   0.325E+02 -.344E+00 -.247E+04   -.316E+02 0.570E+00 0.247E+04   -.124E+01 -.137E+00 0.227E+01   0.686E-01 -.748E-01 0.272E+00
   -.325E+02 -.344E+00 -.247E+04   0.316E+02 0.570E+00 0.247E+04   0.124E+01 -.137E+00 0.227E+01   -.585E-01 -.735E-01 0.274E+00
   0.166E+02 -.280E+02 -.247E+04   -.163E+02 0.271E+02 0.247E+04   -.503E+00 0.115E+01 0.227E+01   0.105E+00 -.140E-01 0.273E+00
   -.166E+02 -.280E+02 -.247E+04   0.163E+02 0.271E+02 0.247E+04   0.503E+00 0.115E+01 0.227E+01   -.933E-01 -.139E-01 0.274E+00
   0.231E-04 -.125E-04 -.248E+04   0.105E-03 -.655E-04 0.247E+04   0.208E-17 -.206E-17 0.204E+01   -.771E-02 -.402E-02 0.311E+00
   -.717E-05 -.120E-04 -.136E+04   0.677E-04 0.862E-05 0.136E+04   -.346E-18 0.112E-17 0.908E+00   0.809E-04 0.799E-04 0.161E+00
   0.106E-03 -.592E-04 -.136E+04   0.256E-04 0.391E-06 0.139E+04   0.199E-18 -.222E-18 -.223E+02   0.126E-02 0.784E-03 -.266E+00
   0.460E-03 -.750E-03 0.134E+02   0.631E-13 -.920E-13 -.591E-11   0.224E-15 0.443E-15 -.213E+02   0.363E-01 0.242E-01 0.789E+01

 POSITION                                       TOTAL-FORCE (eV/Angst)
      0.00000      0.00000      5.28219         0.000000      0.000000     -0.004815
      2.93046      0.00000      5.28219         0.006724      0.004797      0.039384
      5.86091      0.00000      5.28219        -0.006724      0.004797      0.039384
      1.46523      2.53785      5.28219         0.007517      0.003424      0.039384
      4.39568      2.53785      5.28219         0.000000      0.000000      0.003547
      7.32614      2.53785      5.28219        -0.007517      0.003424      0.039384
      2.93046      5.07570      5.28219         0.000793     -0.008222      0.039384
      5.86091      5.07570      5.28219        -0.000793     -0.008222      0.039384
      8.79137      5.07570      5.28219         0.000000      0.000000      0.036755
      1.46523      0.84595      7.67490        -0.026597     -0.015356     -0.021180
      4.39568      0.84595      7.67490        -0.000000     -0.057768     -0.064348
      7.32614      0.84595      7.67490         0.026597     -0.015356     -0.021180
      2.93046      3.38380      7.67490        -0.050028      0.028884     -0.064348
      5.86091      3.38380      7.67490         0.050028      0.028884     -0.064348
      8.79137      3.38380      7.67490        -0.000000     -0.026902      0.019468
      4.39568      5.92165      7.67490         0.000000      0.030712     -0.021180
      7.32614      5.92165      7.67490        -0.023298      0.013451      0.019468
     10.25659      5.92165      7.67490         0.023298      0.013451      0.019468
      8.79137      1.69725     10.06774         0.000000      0.005036      0.016453
      2.92950      1.69135     10.02116        -0.260539     -0.150422     -0.235253
      5.86187      1.69135     10.02116         0.260539     -0.150422     -0.235253
     10.25061      4.23320     10.05696         0.046839     -0.027042      0.019970
      4.39568      4.23086     10.02116         0.000000      0.300845     -0.235253
      7.33212      4.23320     10.05696        -0.046839     -0.027042      0.019970
     11.71719      6.76492     10.06774        -0.004361     -0.002518      0.016453
      5.86555      6.76492     10.06774         0.004361     -0.002518      0.016453
      8.79137      6.76069     10.05696         0.000000      0.054085      0.019970
      0.00000      0.00000     12.43040         0.000000      0.000000     -0.003025
      2.96174      0.05879     12.46433        -0.135025     -0.257409     -0.174958
      5.82963      0.05879     12.46433         0.135025     -0.257409     -0.174958
      1.53179      2.53554     12.46433        -0.290435      0.011769     -0.174958
      7.25958      2.53554     12.46433         0.290435      0.011769     -0.174958
      2.96573      5.01921     12.46433        -0.155410      0.245639     -0.174958
      5.82563      5.01921     12.46433         0.155410      0.245639     -0.174958
      8.79137      5.07570     12.42552         0.000000      0.000000      0.005821
      4.39568      2.53785     12.19879         0.000000      0.000000      1.555620
      4.39568      2.53785     13.89757         0.000000      0.000000      0.014207
    total drift:                                0.036789      0.023474      0.058519

  FREE ENERGIE OF THE ION-ELECTRON SYSTEM (eV)
  free  energy   TOTEN  =      -106.90528855 eV

  energy  without entropy=     -106.90528855  energy(sigma->0) =     -106.90528855

 stress matrix after NEB project (eV)
     -6.04839     -0.00000      0.00000
     -0.00000     -6.04839     -0.00000
      0.00000      0.00000      0.15532
  FORCES: max atom, RMS     0.014207    0.002336
  FORCE total and by dimension    0.014207    0.014207
  Stress total and by dimension    8.555121    6.048387
|           W    W    AA    RRRRR   N    N  II  N    N   GGGG   !!!           |
|           W    W   A  A   R    R  NN   N  II  NN   N  G    G  !!!           |
|           W    W  A    A  R    R  N N  N  II  N N  N  G       !!!           |
|           W WW W  AAAAAA  RRRRR   N  N N  II  N  N N  G  GGG   !            |
|           WW  WW  A    A  R   R   N   NN  II  N   NN  G    G                |
|           W    W  A    A  R    R  N    N  II  N    N   GGGG   !!!           |
|     Tetrahedron method does not include variations of the Fermi             |
|     occupations, so forces and stress will be inaccurate. We suggest        |
|     using a different smearing scheme ISMEAR = 1 or 2 for metals in         |
|     relaxations.                                                            |

 total charge

# of ion       s       p       d       tot
    1        0.419   0.201   9.178   9.798
    2        0.416   0.204   9.177   9.797
    3        0.416   0.204   9.177   9.797
    4        0.416   0.204   9.177   9.797
    5        0.420   0.201   9.178   9.800
    6        0.416   0.204   9.177   9.797
    7        0.416   0.204   9.177   9.797
    8        0.416   0.204   9.177   9.797
    9        0.413   0.205   9.177   9.794
   10        0.407   0.269   9.165   9.841
   11        0.403   0.274   9.166   9.843
   12        0.407   0.269   9.165   9.841
   13        0.403   0.274   9.166   9.843
   14        0.403   0.274   9.166   9.843
   15        0.403   0.270   9.165   9.838
   16        0.407   0.269   9.165   9.841
   17        0.403   0.270   9.165   9.838
   18        0.403   0.270   9.165   9.838
   19        0.404   0.262   9.168   9.834
   20        0.435   0.304   9.145   9.884
   21        0.435   0.304   9.145   9.884
   22        0.393   0.276   9.165   9.834
   23        0.435   0.304   9.145   9.884
   24        0.393   0.276   9.165   9.834
   25        0.404   0.262   9.168   9.834
   26        0.404   0.262   9.168   9.834
   27        0.393   0.276   9.165   9.834
   28        0.418   0.193   9.179   9.790
   29        0.412   0.220   9.173   9.804
   30        0.412   0.220   9.173   9.804
   31        0.412   0.220   9.173   9.804
   32        0.412   0.220   9.173   9.804
   33        0.412   0.220   9.173   9.804
   34        0.412   0.220   9.173   9.804
   35        0.412   0.197   9.179   9.788
   36        0.628   0.518   5.040   6.187
   37        1.344   2.236   0.000   3.580
tot         16.357  11.258 325.950 353.566

 BZINTS: Fermi energy:    0.781530;  397.000000 electrons
         Band energy:-0.132200E+04;  BLOECHL correction:   -0.044499