 vasp.6.2.0 18Jan21 (build Jun 12 2021 23:27:24) complex

 executed on             LinuxIFC date 2022.05.26  20:06:15

 INCAR:
   ISMEAR = -5
   SIGMA = 0.1
   ISPIN = 1
   EDIFF = 1.d-5
   EDIFFG = -0.01
   NSW = 0
   NELM = 150
   ENCUT = 500
   ISIF = 2
   IBRION = 2
   LREAL = Auto
   ALGO = Fast
   ICHARG = 11
   LORBIT = 10
   LCHARG = .F.
   LWAVE = .F.

 POTCAR:    PAW_PBE Cu 22Jun2005
 POTCAR:    PAW_PBE Hf 20Jan2003
 POTCAR:    PAW_PBE O 08Apr2002
|           W    W    AA    RRRRR   N    N  II  N    N   GGGG   !!!           |
|           W    W   A  A   R    R  NN   N  II  NN   N  G    G  !!!           |
|           W    W  A    A  R    R  N N  N  II  N N  N  G       !!!           |
|           W WW W  AAAAAA  RRRRR   N  N N  II  N  N N  G  GGG   !            |
|           WW  WW  A    A  R   R   N   NN  II  N   NN  G    G                |
|           W    W  A    A  R    R  N    N  II  N    N   GGGG   !!!           |
|     For optimal performance we recommend to set                             |
|       NCORE = 2 up to number-of-cores-per-socket                            |
|     This setting can greatly improve the performance of VASP for DFT.       |
|     The default, NCORE=1 might be grossly inefficient on modern             |
|     multi-core architectures or massively parallel machines. Do your        |
|     Unfortunately you need to use the default for GW and RPA                |
|     calculations (for HF NCORE is supported but not extensively tested      |
|     yet).                                                                   |

 POTCAR:    PAW_PBE Cu 22Jun2005
   VRHFIN =Cu: d10 p1

   TITEL  = PAW_PBE Cu 22Jun2005
   POMASS =   63.546; ZVAL   =   11.000    mass and valenz
   ENMAX  =  295.446; ENMIN  =  221.585 eV

 POTCAR:    PAW_PBE Hf 20Jan2003
   VRHFIN =Hf: 6s5d

   TITEL  = PAW_PBE Hf 20Jan2003
   POMASS =  178.490; ZVAL   =    4.000    mass and valenz
   ENMAX  =  220.334; ENMIN  =  165.250 eV

 POTCAR:    PAW_PBE O 08Apr2002
   VRHFIN =O: s2p4

   TITEL  = PAW_PBE O 08Apr2002
   POMASS =   16.000; ZVAL   =    6.000    mass and valenz
   ENMAX  =  400.000; ENMIN  =  300.000 eV

 Optimization of the real space projectors (new method)

 maximal supplied QI-value         = 16.25
 optimisation between [QCUT,QGAM] = [ 11.38, 22.75] = [ 36.24,144.96] Ry
 Optimized for a Real-space Cutoff    1.52 Angstroem

   l    n(q)    QCUT    max X(q) W(low)/X(q) W(high)/X(q)  e(spline)
   2      9    11.376     4.610    0.21E-03    0.10E-03    0.26E-06
   2      9    11.376     8.522    0.33E-03    0.16E-03    0.37E-06
   0     10    11.376    51.609    0.62E-04    0.20E-04    0.13E-06
   0     10    11.376    27.747    0.54E-04    0.20E-04    0.13E-06
   1     10    11.376    20.408    0.13E-04    0.99E-04    0.19E-06
   1     10    11.376    13.425    0.12E-04    0.87E-04    0.17E-06
 Optimization of the real space projectors (new method)

[...]

   l    n(q)    QCUT    max X(q) W(low)/X(q) W(high)/X(q)  e(spline)
   2     10    11.350    48.111    0.20E-03    0.11E-03    0.41E-06
   2     10    11.350    40.545    0.19E-03    0.10E-03    0.39E-06
   0     11    11.350   121.658    0.22E-04    0.19E-04    0.24E-06
   0     11    11.350    71.177    0.17E-04    0.17E-04    0.23E-06
   1     11    11.350    14.183    0.25E-03    0.43E-03    0.12E-05
   1     11    11.350     8.257    0.17E-03    0.29E-03    0.81E-06
 Optimization of the real space projectors (new method)

 maximal supplied QI-value         = 24.76
 optimisation between [QCUT,QGAM] = [ 11.39, 22.77] = [ 36.31,145.25] Ry
 Optimized for a Real-space Cutoff    1.00 Angstroem

   l    n(q)    QCUT    max X(q) W(low)/X(q) W(high)/X(q)  e(spline)
   0      7    11.387    20.381    0.39E-03    0.13E-02    0.15E-06
   0      7    11.387    15.268    0.42E-03    0.14E-02    0.17E-06
   1      6    11.387     5.964    0.41E-03    0.11E-02    0.17E-06
   1      6    11.387     5.382    0.39E-03    0.87E-03    0.15E-06
  PAW_PBE Cu 22Jun2005                  :
  PAW_PBE Hf 20Jan2003                  :
  PAW_PBE O 08Apr2002                   :

 POSCAR: Cu-Hf-O
  positions in direct lattice
  velocities in cartesian coordinates
 exchange correlation table for  LEXCH =        8
   RHO(1)=    0.500       N(1)  =     2000
   RHO(2)=  100.500       N(2)  =     4000

 VTST: version 3.2, (02/03/18)

 CHAIN: initializing optimizer

 OPT: Using VASP Conjugate-Gradient optimizer
 CHAIN: Read ICHAIN            0

 POSCAR: Cu-Hf-O
  positions in direct lattice
  velocities in cartesian coordinates

 ion  position               nearest neighbor table
   1  0.000  0.000  0.252-   7 2.57   3 2.57   4 2.57   2 2.57   6 2.57   8 2.57  12 2.57  10 2.57
                            16 2.57
   2  0.333  0.000  0.252-   8 2.57   9 2.57   5 2.57   1 2.57   3 2.57  11 2.57   4 2.57  10 2.57
                            17 2.57
   3  0.667  0.000  0.252-   1 2.57   7 2.57   6 2.57   9 2.57   2 2.57  12 2.57   5 2.57  18 2.57
                            11 2.57
   4  0.000  0.333  0.252-   5 2.57   6 2.57   1 2.57   7 2.57   2 2.57  13 2.57   9 2.57  10 2.57
                            15 2.57
   5  0.333  0.333  0.252-   4 2.57   2 2.57   7 2.57  13 2.57   8 2.57   6 2.57   3 2.57  11 2.57
                            14 2.57
   6  0.667  0.333  0.252-   4 2.57   9 2.57  15 2.57   3 2.57   1 2.57   8 2.57  14 2.57   5 2.57
                            12 2.57
   7  0.000  0.667  0.252-   1 2.57   3 2.57  16 2.57  18 2.57   4 2.57   5 2.57   8 2.57   9 2.57
                            13 2.57
   8  0.333  0.667  0.252-   9 2.57   2 2.57  17 2.57   6 2.57   1 2.57   7 2.57   5 2.57  14 2.57
                            16 2.57
   9  0.667  0.667  0.252-   8 2.57   6 2.57   2 2.57  17 2.57   3 2.57   7 2.57   4 2.57  15 2.57
                            18 2.57
  10  0.111  0.111  0.351-  26 2.54  19 2.54  11 2.57  12 2.57  13 2.57   1 2.57   2 2.57   4 2.57
                            15 2.57  16 2.57  17 2.57  20 2.58
  11  0.444  0.111  0.351-  27 2.56  10 2.57  13 2.57   2 2.57  17 2.57  14 2.57  12 2.57   5 2.57
                             3 2.57  18 2.57  20 2.57  21 2.57
  12  0.778  0.111  0.351-  19 2.54  25 2.54  15 2.57  10 2.57  14 2.57  18 2.57   3 2.57   1 2.57
                            16 2.57  11 2.57   6 2.57  21 2.58
  13  0.111  0.444  0.351-  22 2.56  16 2.57  18 2.57  10 2.57  11 2.57  14 2.57   5 2.57   4 2.57
                             7 2.57  15 2.57  23 2.57  20 2.57
  14  0.444  0.444  0.351-  24 2.56  15 2.57  17 2.57  12 2.57  16 2.57  13 2.57  11 2.57   6 2.57
                             8 2.57   5 2.57  21 2.57  23 2.57
  15  0.778  0.444  0.351-  19 2.55  24 2.56  22 2.56  14 2.57  17 2.57  12 2.57   6 2.57  18 2.57
                            10 2.57   9 2.57  13 2.57   4 2.57
  16  0.111  0.778  0.351-  25 2.54  26 2.54  18 2.57  13 2.57   7 2.57  14 2.57  17 2.57  12 2.57
                            10 2.57   8 2.57   1 2.57  23 2.58
  17  0.444  0.778  0.351-  26 2.55  27 2.56  24 2.56  14 2.57  15 2.57   8 2.57   9 2.57  11 2.57
                            16 2.57  18 2.57  10 2.57   2 2.57
  18  0.778  0.778  0.351-  25 2.55  22 2.56  27 2.56  16 2.57  13 2.57   7 2.57  15 2.57  12 2.57
                            17 2.57   9 2.57   3 2.57  11 2.57
  19  0.889  0.221  0.448-  12 2.54  10 2.54  15 2.55  25 2.56  26 2.56  32 2.57  31 2.57  22 2.57
                            24 2.57  21 2.57  20 2.57  28 2.57
  20  0.223  0.223  0.450-  23 2.55  21 2.55  27 2.57  22 2.57  26 2.57  19 2.57  11 2.57  13 2.57
                            10 2.58  29 2.58  31 2.58  36 2.77
  21  0.555  0.223  0.450-  20 2.55  23 2.55  24 2.57  27 2.57  19 2.57  25 2.57  14 2.57  11 2.57
                            12 2.58  32 2.58  30 2.58  36 2.77
  22  0.889  0.556  0.449-  18 2.56  15 2.56  13 2.56  24 2.56  27 2.56  23 2.57  20 2.57  31 2.57
                            33 2.57  19 2.57  25 2.57  35 2.58
  23  0.223  0.555  0.450-  20 2.55  21 2.55  22 2.57  24 2.57  25 2.57  26 2.57  13 2.57  14 2.57
                            16 2.58  33 2.58  34 2.58  36 2.77
  24  0.556  0.556  0.449-  15 2.56  17 2.56  14 2.56  22 2.56  27 2.56  21 2.57  23 2.57  32 2.57
                            34 2.57  19 2.57  26 2.57  35 2.58
  25  0.889  0.889  0.448-  12 2.54  16 2.54  18 2.55  19 2.56  26 2.56  33 2.57  30 2.57  22 2.57
                            27 2.57  21 2.57  23 2.57  28 2.57
  26  0.221  0.889  0.448-  10 2.54  16 2.54  17 2.55  25 2.56  19 2.56  29 2.57  34 2.57  27 2.57
                            24 2.57  20 2.57  23 2.57  28 2.57
  27  0.556  0.889  0.449-  17 2.56  18 2.56  11 2.56  24 2.56  22 2.56  20 2.57  21 2.57  29 2.57
                            30 2.57  26 2.57  25 2.57  35 2.58
  28  0.000  0.000  0.547-  33 2.55  30 2.55  31 2.55  29 2.55  32 2.55  34 2.55  25 2.57  19 2.57
                            26 2.57
  29  0.334  0.994  0.548-  34 2.48  35 2.54  28 2.55  26 2.57  27 2.57  20 2.58  30 2.60  31 2.61
                            36 2.62
  30  0.672  0.994  0.548-  33 2.48  35 2.54  28 2.55  25 2.57  27 2.57  21 2.58  29 2.60  32 2.61
                            36 2.62
  31  0.994  0.334  0.548-  32 2.48  35 2.54  28 2.55  19 2.57  22 2.57  20 2.58  33 2.60  29 2.61
                            36 2.62
  32  0.672  0.334  0.548-  31 2.48  35 2.54  28 2.55  19 2.57  24 2.57  21 2.58  34 2.60  30 2.61
                            36 2.62
  33  0.994  0.672  0.548-  30 2.48  35 2.54  28 2.55  25 2.57  22 2.57  23 2.58  31 2.60  34 2.61
                            36 2.62
  34  0.334  0.672  0.548-  29 2.48  35 2.54  28 2.55  26 2.57  24 2.57  23 2.58  32 2.60  33 2.61
                            36 2.62
  35  0.667  0.667  0.548-  34 2.54  32 2.54  29 2.54  30 2.54  33 2.54  31 2.54  24 2.58  27 2.58
                            22 2.58
  36  0.333  0.333  0.560-  37 1.80  31 2.62  29 2.62  33 2.62  32 2.62  34 2.62  30 2.62  23 2.77
                            20 2.77  21 2.77
  37  0.333  0.333  0.644-  36 1.80

  LATTYP: Found a hexagonal cell.
 ALAT       =     7.6967864036
 C/A-ratio  =     2.7653617908

  Lattice vectors:

 A1 = (  -3.8483927580,  -6.6656128093,   0.0000000000)
 A2 = (   7.6967864037,   0.0000000000,   0.0000000000)
 A3 = (   0.0000000000,   0.0000000000,  21.2843990326)

Analysis of symmetry for initial positions (statically):
 Subroutine PRICEL returns:
 Original cell was already a primitive cell.

 Routine SETGRP: Setting up the symmetry group for a
 hexagonal supercell.

 Subroutine GETGRP returns: Found  6 space group operations
 (whereof  6 operations were pure point group operations)
 out of a pool of 24 trial point group operations.

The static configuration has the point symmetry C_3v.

Analysis of symmetry for dynamics (positions and initial velocities):
 Subroutine PRICEL returns:
 Original cell was already a primitive cell.

[...]

The dynamic configuration has the point symmetry C_3v.

Analysis of constrained symmetry for selective dynamics:
 Subroutine PRICEL returns:
 Original cell was already a primitive cell.

 Routine SETGRP: Setting up the symmetry group for a
 hexagonal supercell.

 Subroutine GETGRP returns: Found  6 space group operations
[...]
     24      -4.5859      2.00000
     25      -4.4320      2.00000
     26      -4.3963      2.00000
     27      -4.3749      2.00000
     28      -4.3442      2.00000
     29      -4.3318      2.00000
     30      -4.3138      2.00000
     31      -4.3107      2.00000
     32      -4.3048      2.00000
     33      -4.2987      2.00000
     34      -4.2681      2.00000
     35      -4.2488      2.00000
     36      -4.1675      2.00000
     37      -4.1509      2.00000
     38      -4.0014      2.00000
     39      -3.9915      2.00000
     40      -3.9466      2.00000
     41      -3.9299      2.00000
     42      -3.9089      2.00000
     43      -3.8952      2.00000
     44      -3.8838      2.00000
     45      -3.8808      2.00000
     46      -3.8787      2.00000
     47      -3.7282      2.00000
     48      -3.6973      2.00000
     49      -3.6833      2.00000
     50      -3.6659      2.00000
     51      -3.6148      2.00000
     52      -3.6036      2.00000
     53      -3.5964      2.00000
     54      -3.5834      2.00000
     55      -3.5680      2.00000
     56      -3.5668      2.00000
     57      -3.5401      2.00000
     58      -3.5237      2.00000
     59      -3.5154      2.00000
     60      -3.5073      2.00000
[...]
    238       6.5185      0.00000
    239       6.6586      0.00000
    240       6.8552      0.00000
    241       7.1077      0.00000
    242       7.1354      0.00000
    243       7.1563      0.00000
    244       7.1675      0.00000
    245       7.2075      0.00000
    246       7.2460      0.00000
    247       7.4142      0.00000
    248       7.5404      0.00000
    249       7.5985      0.00000
    250       7.6183      0.00000
    251       7.7700      0.00000
    252       7.8634      0.00000

 soft charge-density along one line, spin component           1
         0         1         2         3         4         5         6         7         8         9
 total charge-density along one line

------------------------ aborting loop because EDIFF is reached ----------------------------------------

 total charge

# of ion       s       p       d       tot
    1        0.448   0.283   9.189   9.920
    2        0.448   0.285   9.187   9.920
    3        0.448   0.285   9.187   9.920
    4        0.448   0.285   9.187   9.920
    5        0.449   0.285   9.185   9.919
    6        0.448   0.285   9.187   9.920
    7        0.448   0.285   9.187   9.920
    8        0.448   0.285   9.187   9.920
    9        0.447   0.284   9.188   9.920
   10        0.441   0.370   9.180   9.992
   11        0.441   0.366   9.181   9.989
   12        0.441   0.370   9.180   9.992
   13        0.441   0.366   9.181   9.989
   14        0.441   0.366   9.181   9.989
   15        0.440   0.372   9.178   9.989
   16        0.441   0.370   9.180   9.992
   17        0.440   0.372   9.178   9.989
   18        0.440   0.372   9.178   9.989
   19        0.443   0.370   9.181   9.995
   20        0.453   0.378   9.175  10.006
   21        0.453   0.378   9.175  10.006
   22        0.435   0.373   9.178   9.986
   23        0.453   0.378   9.175  10.006
   24        0.435   0.373   9.178   9.986
   25        0.443   0.370   9.181   9.995
   26        0.443   0.370   9.181   9.995
   27        0.435   0.373   9.178   9.986
   28        0.449   0.295   9.182   9.926
   29        0.481   0.306   9.179   9.966
   30        0.481   0.306   9.179   9.966
   31        0.481   0.306   9.179   9.966
   32        0.481   0.306   9.179   9.966
   33        0.481   0.306   9.179   9.966
   34        0.481   0.306   9.179   9.966
   35        0.450   0.297   9.180   9.927
   36        0.669   0.675   2.593   3.938
   37        1.594   3.318   0.000   4.911
tot         18.042  15.670 323.934 357.645

  FORCE on cell =-STRESS in cart. coord.  units (eV):
  Direction    XX          YY          ZZ          XY          YZ          ZX
  Alpha Z   879.96489   879.96489   879.96489
  Ewald  168969.33446168969.33414************     0.00035     0.00014     0.00017
  Hartree181835.05116181835.05119************     0.00002     0.00007     0.00006
  E(xc)   -2293.17859 -2293.17816 -2300.28731    -0.00037    -0.00004    -0.00007
  Local  ************************363568.37790     0.01856    -0.00061    -0.00093
  n-local  -776.14414  -765.20824  -782.40845     6.50333    -0.11385     0.25340
  augment  3313.76541  3313.78522  3336.28798    -0.01717     0.00019     0.00033
  Kinetic  3298.16865  3297.89096  3322.80741     2.02076     2.00177    -1.34312
  Fock        0.00000     0.00000     0.00000     0.00000     0.00000     0.00000
  Total       1.13538     1.13538     1.57335    -0.00000     0.00000     0.00000
  in kB       1.66586     1.66586     2.30848    -0.00000     0.00000     0.00000

 VOLUME and BASIS-vectors are now :
  energy-cutoff  :      500.00
  volume of cell :     1091.97
      direct lattice vectors                 reciprocal lattice vectors
     7.696786404  0.000000000  0.000000000     0.129924354 -0.075011849  0.000000000
     3.848392758  6.665612809  0.000000000     0.000000000  0.150023716  0.000000000
     0.000000000  0.000000000 21.284399033     0.000000000  0.000000000  0.046982769

  length of vectors
     7.696786404  7.696786404 21.284399033     0.150023716  0.150023716  0.046982769

 FORCES acting on ions
    electron-ion (+dipol)            ewald-force                    non-local-force                 convergence-correction
   -.414E-04 0.266E-06 0.345E+04   0.581E-04 -.424E-05 -.345E+04   0.225E-18 -.464E-17 -.215E+01   -.222E-03 -.147E-03 -.368E+00
   -.115E+01 -.152E+01 0.345E+04   0.114E+01 0.143E+01 -.345E+04   0.301E-01 0.109E+00 -.200E+01   -.159E-01 -.203E-01 -.337E+00
   0.115E+01 -.152E+01 0.345E+04   -.114E+01 0.143E+01 -.345E+04   -.301E-01 0.109E+00 -.200E+01   0.166E-01 -.178E-01 -.336E+00
   -.189E+01 -.240E+00 0.345E+04   0.181E+01 0.273E+00 -.345E+04   0.109E+00 -.284E-01 -.200E+01   -.255E-01 -.367E-02 -.337E+00
   -.642E-04 -.475E-05 0.345E+04   0.116E-03 -.101E-04 -.344E+04   -.373E-17 0.342E-17 -.193E+01   0.122E-01 0.744E-02 -.328E+00
   0.189E+01 -.239E+00 0.345E+04   -.181E+01 0.273E+00 -.345E+04   -.109E+00 -.284E-01 -.200E+01   0.239E-01 -.235E-02 -.336E+00
   -.739E+00 0.176E+01 0.345E+04   0.670E+00 -.171E+01 -.345E+04   0.793E-01 -.806E-01 -.200E+01   -.700E-02 0.233E-01 -.336E+00
   0.739E+00 0.176E+01 0.345E+04   -.670E+00 -.171E+01 -.345E+04   -.793E-01 -.806E-01 -.200E+01   0.106E-01 0.219E-01 -.336E+00
   -.143E-03 -.326E-04 0.345E+04   0.263E-03 0.204E-04 -.345E+04   0.469E-17 -.622E-18 -.216E+01   -.133E-01 -.683E-02 -.398E+00
   -.123E+02 -.709E+01 0.114E+04   0.125E+02 0.721E+01 -.114E+04   -.119E+00 -.687E-01 -.706E+00   -.840E-01 -.488E-01 -.148E-01
   -.906E-04 -.132E+02 0.112E+04   0.189E-03 0.132E+02 -.112E+04   -.138E-07 0.207E+00 -.502E+00   0.113E-01 -.109E+00 -.205E-01
   0.123E+02 -.709E+01 0.114E+04   -.125E+02 0.721E+01 -.114E+04   0.119E+00 -.687E-01 -.706E+00   0.830E-01 -.471E-01 -.161E-01
   -.115E+02 0.662E+01 0.112E+04   0.114E+02 -.658E+01 -.112E+04   0.180E+00 -.104E+00 -.502E+00   -.880E-01 0.649E-01 -.211E-01
   0.115E+02 0.662E+01 0.112E+04   -.114E+02 -.658E+01 -.112E+04   -.180E+00 -.104E+00 -.502E+00   0.112E+00 0.646E-01 -.215E-01
   -.139E-03 -.717E+00 0.114E+04   0.295E-03 0.707E+00 -.114E+04   -.211E-08 0.317E-01 -.889E+00   -.345E-02 -.131E-01 0.116E-01
   -.929E-04 0.142E+02 0.114E+04   0.187E-03 -.144E+02 -.114E+04   -.915E-08 0.137E+00 -.706E+00   0.849E-04 0.939E-01 -.153E-01
   -.621E+00 0.359E+00 0.114E+04   0.613E+00 -.353E+00 -.114E+04   0.274E-01 -.158E-01 -.889E+00   -.126E-01 0.362E-02 0.118E-01
   0.621E+00 0.359E+00 0.114E+04   -.613E+00 -.353E+00 -.114E+04   -.274E-01 -.158E-01 -.889E+00   0.131E-01 0.592E-02 0.114E-01
   -.713E-04 -.962E+01 -.115E+04   0.736E-04 0.957E+01 0.115E+04   -.185E-08 0.278E-01 0.126E+01   0.104E-02 0.169E-01 0.149E+00
   -.755E+02 -.436E+02 -.129E+04   0.759E+02 0.438E+02 0.129E+04   -.446E+00 -.258E+00 0.671E+00   -.164E+00 -.957E-01 0.795E-01
   0.755E+02 -.436E+02 -.129E+04   -.759E+02 0.438E+02 0.129E+04   0.446E+00 -.258E+00 0.671E+00   0.143E+00 -.937E-01 0.779E-01
   -.359E+02 0.207E+02 -.118E+04   0.360E+02 -.208E+02 0.118E+04   0.147E+00 -.847E-01 0.892E+00   -.183E+00 0.905E-01 0.121E+00
   -.694E-04 0.872E+02 -.129E+04   0.157E-03 -.876E+02 0.129E+04   -.343E-07 0.516E+00 0.671E+00   0.132E-02 0.190E+00 0.778E-01
   0.359E+02 0.207E+02 -.118E+04   -.360E+02 -.208E+02 0.118E+04   -.147E+00 -.847E-01 0.892E+00   0.160E+00 0.926E-01 0.121E+00
   0.833E+01 0.481E+01 -.115E+04   -.829E+01 -.479E+01 0.115E+04   -.241E-01 -.139E-01 0.126E+01   -.118E-01 -.775E-02 0.150E+00
   -.833E+01 0.481E+01 -.115E+04   0.829E+01 -.479E+01 0.115E+04   0.241E-01 -.139E-01 0.126E+01   0.150E-01 -.878E-02 0.150E+00
   -.138E-03 -.415E+02 -.118E+04   0.239E-03 0.416E+02 0.118E+04   -.113E-07 0.169E+00 0.892E+00   -.132E-01 -.203E+00 0.121E+00
   -.285E-04 0.232E-04 -.340E+04   0.484E-04 -.308E-04 0.340E+04   -.290E-17 0.460E-18 0.191E+01   -.107E-02 -.939E-03 0.346E+00
   -.574E+02 -.109E+03 -.339E+04   0.573E+02 0.108E+03 0.338E+04   -.217E-01 0.142E+00 0.216E+01   -.452E-01 -.897E-01 0.326E+00
   0.574E+02 -.109E+03 -.339E+04   -.573E+02 0.108E+03 0.338E+04   0.217E-01 0.142E+00 0.216E+01   0.673E-01 -.877E-01 0.327E+00
   -.123E+03 0.460E+01 -.339E+04   0.123E+03 -.451E+01 0.338E+04   0.112E+00 -.899E-01 0.216E+01   -.100E+00 0.550E-02 0.326E+00
   0.123E+03 0.460E+01 -.339E+04   -.123E+03 -.451E+01 0.338E+04   -.112E+00 -.899E-01 0.216E+01   0.122E+00 0.730E-02 0.327E+00
   -.654E+02 0.104E+03 -.339E+04   0.652E+02 -.104E+03 0.338E+04   0.134E+00 -.523E-01 0.216E+01   -.419E-01 0.102E+00 0.327E+00
   0.654E+02 0.104E+03 -.339E+04   -.652E+02 -.104E+03 0.338E+04   -.134E+00 -.523E-01 0.216E+01   0.675E-01 0.102E+00 0.326E+00
   -.125E-03 -.123E-04 -.342E+04   0.249E-03 -.196E-05 0.342E+04   -.241E-17 0.494E-17 0.199E+01   -.149E-01 -.760E-02 0.321E+00
   -.189E-04 -.496E-05 -.118E+04   0.434E-04 0.109E-04 0.119E+04   0.744E-18 0.408E-18 -.340E+01   -.546E-04 -.666E-04 0.102E+00
   0.170E-03 -.855E-04 -.200E+04   0.113E-04 0.592E-05 0.202E+04   0.884E-18 -.307E-18 -.244E+02   0.270E-02 0.165E-02 0.160E-01
   -.107E-03 -.899E-04 0.263E+02   0.132E-12 0.284E-12 0.250E-11   0.825E-16 -.505E-16 -.270E+02   0.379E-01 0.306E-01 0.609E+00

 POSITION                                       TOTAL-FORCE (eV/Angst)
      0.00000      0.00000      5.37156        -0.000000     -0.000000      0.026874
      2.56560      0.00000      5.37156         0.003421      0.003851      0.065049
      5.13119      0.00000      5.37156        -0.003421      0.003851      0.065049
      1.28280      2.22187      5.37156         0.005046      0.001037      0.065049
      3.84839      2.22187      5.37156        -0.000000     -0.000000      0.070988
      6.41399      2.22187      5.37156        -0.005046      0.001037      0.065049
      2.56560      4.44374      5.37156         0.001625     -0.004888      0.065049
      5.13119      4.44374      5.37156        -0.001625     -0.004888      0.065049
      7.69679      4.44374      5.37156        -0.000000     -0.000000      0.042712
      1.28280      0.74062      7.46636         0.012869      0.007430     -0.088563
      3.84839      0.74062      7.46636        -0.000000      0.001845     -0.005311
      6.41399      0.74062      7.46636        -0.012869      0.007430     -0.088563
      2.56560      2.96249      7.46636         0.001598     -0.000923     -0.005311
      5.13119      2.96249      7.46636        -0.001598     -0.000923     -0.005311
      7.69679      2.96249      7.46636        -0.000000      0.008204     -0.031300
      3.84839      5.18437      7.46636         0.000000     -0.014860     -0.088563
      6.41399      5.18437      7.46636         0.007105     -0.004102     -0.031300
      8.97958      5.18437      7.46636        -0.007105     -0.004102     -0.031300
      7.69679      1.47625      9.53578         0.000000     -0.006437      0.067834
      2.57143      1.48462      9.57247        -0.240390     -0.138789     -0.290919
      5.12535      1.48462      9.57247         0.240390     -0.138789     -0.290919
      8.97869      3.70363      9.55450         0.045219     -0.026107      0.067318
      3.84839      3.69638      9.57247        -0.000000      0.277578     -0.290919
      6.41488      3.70363      9.55450        -0.045219     -0.026107      0.067318
     10.26671      5.92749      9.53578         0.005575      0.003219      0.067834
      5.12686      5.92749      9.53578        -0.005575      0.003219      0.067834
      7.69679      5.92396      9.55450        -0.000000      0.052214      0.067318
      0.00000      0.00000     11.64309        -0.000000     -0.000000     -0.087652
      6.39641      6.62889     11.65568        -0.171503     -0.286285     -0.144854
      8.99717      6.62889     11.65568         0.171503     -0.286285     -0.144854
      8.93899      2.22500     11.65568        -0.333681     -0.005383     -0.144854
      6.45458      2.22500     11.65568         0.333681     -0.005383     -0.144854
     10.23937      4.47733     11.65568        -0.162178      0.291668     -0.144854
      5.15420      4.47733     11.65568         0.162178      0.291668     -0.144854
      7.69679      4.44374     11.66757        -0.000000      0.000000     -0.099049
      3.84839      2.22187     11.91603        -0.000000     -0.000000      1.398089
      3.84839      2.22187     13.71283        -0.000000     -0.000000     -0.030310
    total drift:                                0.037779      0.030475     -0.061834

  FREE ENERGIE OF THE ION-ELECTRON SYSTEM (eV)
  free  energy   TOTEN  =      -139.71396027 eV

  energy  without entropy=     -139.71396027  energy(sigma->0) =     -139.71396027

 stress matrix after NEB project (eV)
      1.13538     -0.00000      0.00000
     -0.00000      1.13538     -0.00000
     -0.00000      0.00000      1.57335
  FORCES: max atom, RMS     0.030310    0.004983
  FORCE total and by dimension    0.030310    0.030310
  Stress total and by dimension    2.248020    1.573353
|           W    W    AA    RRRRR   N    N  II  N    N   GGGG   !!!           |
|           W    W   A  A   R    R  NN   N  II  NN   N  G    G  !!!           |
|           W    W  A    A  R    R  N N  N  II  N N  N  G       !!!           |
|           W WW W  AAAAAA  RRRRR   N  N N  II  N  N N  G  GGG   !            |
|           WW  WW  A    A  R   R   N   NN  II  N   NN  G    G                |
|           W    W  A    A  R    R  N    N  II  N    N   GGGG   !!!           |
|     Tetrahedron method does not include variations of the Fermi             |
|     occupations, so forces and stress will be inaccurate. We suggest        |
|     using a different smearing scheme ISMEAR = 1 or 2 for metals in         |
|     relaxations.                                                            |

 total charge

# of ion       s       p       d       tot
    1        0.448   0.283   9.189   9.920
    2        0.448   0.285   9.187   9.920
    3        0.448   0.285   9.187   9.920
    4        0.448   0.285   9.187   9.920
    5        0.449   0.285   9.185   9.919
    6        0.448   0.285   9.187   9.920
    7        0.448   0.285   9.187   9.920
    8        0.448   0.285   9.187   9.920
    9        0.447   0.284   9.188   9.920
   10        0.441   0.370   9.180   9.992
   11        0.441   0.366   9.181   9.989
   12        0.441   0.370   9.180   9.992
   13        0.441   0.366   9.181   9.989
   14        0.441   0.366   9.181   9.989
   15        0.440   0.372   9.178   9.989
   16        0.441   0.370   9.180   9.992
   17        0.440   0.372   9.178   9.989
   18        0.440   0.372   9.178   9.989
   19        0.443   0.370   9.181   9.995
   20        0.453   0.378   9.175  10.006
   21        0.453   0.378   9.175  10.006
   22        0.435   0.373   9.178   9.986
   23        0.453   0.378   9.175  10.006
   24        0.435   0.373   9.178   9.986
   25        0.443   0.370   9.181   9.995
   26        0.443   0.370   9.181   9.995
   27        0.435   0.373   9.178   9.986
   28        0.449   0.295   9.182   9.926
   29        0.481   0.306   9.179   9.966
   30        0.481   0.306   9.179   9.966
   31        0.481   0.306   9.179   9.966
   32        0.481   0.306   9.179   9.966
   33        0.481   0.306   9.179   9.966
   34        0.481   0.306   9.179   9.966
   35        0.450   0.297   9.180   9.927
   36        0.669   0.675   2.593   3.938
   37        1.594   3.318   0.000   4.911
tot         18.042  15.670 323.934 357.645

 BZINTS: Fermi energy:   -0.165906;  395.000000 electrons
         Band energy:-0.122796E+04;  BLOECHL correction:   -0.076669