 vasp.6.2.0 18Jan21 (build Jun 12 2021 23:27:24) complex

 executed on             LinuxIFC date 2022.05.30  16:09:00

 INCAR:
   ISMEAR = -5
   SIGMA = 0.1
   ISPIN = 1
   EDIFF = 1.d-5
   EDIFFG = -0.01
   NSW = 0
   NELM = 150
   ENCUT = 500
   ISIF = 2
   IBRION = 2
   LREAL = Auto
   ALGO = Fast
   ICHARG = 11
   LORBIT = 10
   LCHARG = .F.
   LWAVE = .F.

 POTCAR:    PAW_PBE Au 04Oct2007
 POTCAR:    PAW_PBE Zr_sv 04Jan2005
 POTCAR:    PAW_PBE C 08Apr2002
|           W    W    AA    RRRRR   N    N  II  N    N   GGGG   !!!           |
|           W    W   A  A   R    R  NN   N  II  NN   N  G    G  !!!           |
|           W    W  A    A  R    R  N N  N  II  N N  N  G       !!!           |
|           W WW W  AAAAAA  RRRRR   N  N N  II  N  N N  G  GGG   !            |
|           WW  WW  A    A  R   R   N   NN  II  N   NN  G    G                |
|           W    W  A    A  R    R  N    N  II  N    N   GGGG   !!!           |
|     For optimal performance we recommend to set                             |
|       NCORE = 2 up to number-of-cores-per-socket                            |
|     This setting can greatly improve the performance of VASP for DFT.       |
|     The default, NCORE=1 might be grossly inefficient on modern             |
|     multi-core architectures or massively parallel machines. Do your        |
|     Unfortunately you need to use the default for GW and RPA                |
|     calculations (for HF NCORE is supported but not extensively tested      |
|     yet).                                                                   |

 POTCAR:    PAW_PBE Au 04Oct2007
   VRHFIN =Au: s1d10

   TITEL  = PAW_PBE Au 04Oct2007
   POMASS =  196.966; ZVAL   =   11.000    mass and valenz
   ENMAX  =  229.943; ENMIN  =  172.457 eV

 POTCAR:    PAW_PBE Zr_sv 04Jan2005
   VRHFIN =Zr: 4s4p5s4d

   TITEL  = PAW_PBE Zr_sv 04Jan2005
   POMASS =   91.224; ZVAL   =   12.000    mass and valenz
   ENMAX  =  229.898; ENMIN  =  172.424 eV

 POTCAR:    PAW_PBE C 08Apr2002
   VRHFIN =C: s2p2

   TITEL  = PAW_PBE C 08Apr2002
   POMASS =   12.011; ZVAL   =    4.000    mass and valenz
   ENMAX  =  400.000; ENMIN  =  300.000 eV

 Optimization of the real space projectors (new method)

 maximal supplied QI-value         = 15.12
 optimisation between [QCUT,QGAM] = [ 11.34, 22.83] = [ 36.00,145.93] Ry
 Optimized for a Real-space Cutoff    1.39 Angstroem

   l    n(q)    QCUT    max X(q) W(low)/X(q) W(high)/X(q)  e(spline)
   2      9    11.338    60.898    0.39E-03    0.42E-03    0.21E-06
   2      9    11.338    58.894    0.40E-03    0.42E-03    0.22E-06
   0      9    11.338   109.617    0.13E-03    0.20E-04    0.13E-06
   0      9    11.338    75.026    0.13E-03    0.20E-04    0.13E-06
   1      9    11.338    16.344    0.33E-04    0.24E-03    0.18E-06
   1      9    11.338    10.160    0.26E-04    0.19E-03    0.15E-06
 Optimization of the real space projectors (new method)

[...]

   l    n(q)    QCUT    max X(q) W(low)/X(q) W(high)/X(q)  e(spline)
   0     10    11.338    12.107    0.38E-04    0.13E-04    0.27E-07
   0     10    11.338     9.948    0.69E-04    0.30E-04    0.38E-07
   1     10    11.338     3.563    0.26E-04    0.18E-04    0.40E-07
   1     10    11.338     4.524    0.25E-03    0.39E-04    0.44E-06
   2      9    11.338    87.261    0.26E-03    0.91E-05    0.26E-06
   2      9    11.338    70.950    0.25E-03    0.91E-05    0.25E-06
 Optimization of the real space projectors (new method)

 maximal supplied QI-value         = 25.13
 optimisation between [QCUT,QGAM] = [ 11.31, 22.87] = [ 35.82,146.48] Ry
 Optimized for a Real-space Cutoff    1.00 Angstroem

   l    n(q)    QCUT    max X(q) W(low)/X(q) W(high)/X(q)  e(spline)
   0      7    11.310   115.676    0.43E-03    0.13E-02    0.19E-06
   0      7    11.310    87.132    0.43E-03    0.13E-02    0.18E-06
   1      6    11.310     4.429    0.42E-03    0.74E-03    0.11E-06
   1      6    11.310     2.733    0.34E-03    0.55E-03    0.92E-07
  PAW_PBE Au 04Oct2007                  :
  PAW_PBE Zr_sv 04Jan2005               :
  PAW_PBE C 08Apr2002                   :

 POSCAR: Au-Zr-C
  positions in direct lattice
  velocities in cartesian coordinates
 exchange correlation table for  LEXCH =        8
   RHO(1)=    0.500       N(1)  =     2000
   RHO(2)=  100.500       N(2)  =     4000

 VTST: version 3.2, (02/03/18)

 CHAIN: initializing optimizer

 OPT: Using VASP Conjugate-Gradient optimizer
 CHAIN: Read ICHAIN            0

 POSCAR: Au-Zr-C
  positions in direct lattice
  velocities in cartesian coordinates

 ion  position               nearest neighbor table
   1  0.000  0.000  0.217-  16 2.94  12 2.94   6 2.94   8 2.94   7 2.94   3 2.94  10 2.94   4 2.94
                             2 2.94
   2  0.333  0.000  0.217-   9 2.94  11 2.94  17 2.94  10 2.94   8 2.94   4 2.94   5 2.94   1 2.94
                             3 2.94
   3  0.667  0.000  0.217-   7 2.94  18 2.94  12 2.94   1 2.94  11 2.94   5 2.94   6 2.94   9 2.94
                             2 2.94
   4  0.000  0.333  0.217-  10 2.94   6 2.94   5 2.94  13 2.94   2 2.94  15 2.94   9 2.94   1 2.94
                             7 2.94
   5  0.333  0.333  0.217-  13 2.94   7 2.94  11 2.94   4 2.94   2 2.94  14 2.94   3 2.94   8 2.94
                             6 2.94
   6  0.667  0.333  0.217-  15 2.94  14 2.94   1 2.94  12 2.94   4 2.94   9 2.94   8 2.94   3 2.94
                             5 2.94
   7  0.000  0.667  0.217-  18 2.94   3 2.94  16 2.94   5 2.94   1 2.94  13 2.94   8 2.94   4 2.94
                             9 2.94
   8  0.333  0.667  0.217-   9 2.94  17 2.94   1 2.94   2 2.94  14 2.94  16 2.94   6 2.94   7 2.94
                             5 2.94
   9  0.667  0.667  0.217-   2 2.94   8 2.94  17 2.94   6 2.94  15 2.94   4 2.94   3 2.94  18 2.94
                             7 2.94
  10  0.111  0.111  0.316-  20 2.93  26 2.93  19 2.93  11 2.94  17 2.94   2 2.94   4 2.94   1 2.94
                            12 2.94  16 2.94  13 2.94  15 2.94
  11  0.444  0.111  0.316-  20 2.92  21 2.92  27 2.94  13 2.94   2 2.94  10 2.94  17 2.94   5 2.94
                             3 2.94  18 2.94  14 2.94  12 2.94
  12  0.778  0.111  0.316-  21 2.93  25 2.93  19 2.93  16 2.94  18 2.94   1 2.94  14 2.94  15 2.94
                             3 2.94   6 2.94  10 2.94  11 2.94
  13  0.111  0.444  0.316-  23 2.92  20 2.92  22 2.94   5 2.94  18 2.94  11 2.94   7 2.94   4 2.94
                            16 2.94  10 2.94  14 2.94  15 2.94
  14  0.444  0.444  0.316-  21 2.92  23 2.92  24 2.94  15 2.94   6 2.94  12 2.94   8 2.94  17 2.94
                             5 2.94  16 2.94  13 2.94  11 2.94
  15  0.778  0.444  0.316-  24 2.93  22 2.93  19 2.93  14 2.94   6 2.94  17 2.94  12 2.94   9 2.94
                             4 2.94  10 2.94  13 2.94  18 2.94
  16  0.111  0.778  0.316-  23 2.93  25 2.93  26 2.93  18 2.94  12 2.94   7 2.94   1 2.94   8 2.94
                            13 2.94  10 2.94  14 2.94  17 2.94
  17  0.444  0.778  0.316-  27 2.93  24 2.93  26 2.93   9 2.94  15 2.94   2 2.94  10 2.94  11 2.94
                             8 2.94  14 2.94  16 2.94  18 2.94
  18  0.778  0.778  0.316-  22 2.93  27 2.93  25 2.93  16 2.94   7 2.94  13 2.94  12 2.94   3 2.94
                            11 2.94   9 2.94  15 2.94  17 2.94
  19  0.889  0.222  0.414-  10 2.93  12 2.93  15 2.93  26 2.94  25 2.94  24 2.94  22 2.94  21 2.95
                            20 2.95  28 2.96  32 3.04  31 3.04
  20  0.223  0.223  0.414-  36 2.86  23 2.92  21 2.92  11 2.92  13 2.92  10 2.93  27 2.94  22 2.94
                            26 2.95  19 2.95  29 3.00  31 3.00
  21  0.554  0.223  0.414-  36 2.86  20 2.92  23 2.92  14 2.92  11 2.92  12 2.93  27 2.94  24 2.94
                            25 2.95  19 2.95  30 3.00  32 3.00
  22  0.888  0.556  0.414-  24 2.92  27 2.92  18 2.93  15 2.93  13 2.94  25 2.94  19 2.94  23 2.94
                            20 2.94  35 2.96  33 3.01  31 3.01
  23  0.223  0.554  0.414-  36 2.86  20 2.92  21 2.92  13 2.92  14 2.92  16 2.93  22 2.94  24 2.94
                            25 2.95  26 2.95  33 3.00  34 3.00
  24  0.556  0.556  0.414-  27 2.92  22 2.92  15 2.93  17 2.93  14 2.94  26 2.94  19 2.94  21 2.94
                            23 2.94  35 2.96  32 3.01  34 3.01
  25  0.889  0.889  0.414-  16 2.93  12 2.93  18 2.93  19 2.94  26 2.94  22 2.94  27 2.94  23 2.95
                            21 2.95  28 2.96  33 3.04  30 3.04
  26  0.222  0.889  0.414-  10 2.93  16 2.93  17 2.93  19 2.94  25 2.94  27 2.94  24 2.94  20 2.95
                            23 2.95  28 2.96  29 3.04  34 3.04
  27  0.556  0.888  0.414-  24 2.92  22 2.92  17 2.93  18 2.93  11 2.94  26 2.94  25 2.94  20 2.94
                            21 2.94  35 2.96  29 3.01  30 3.01
  28  0.000  0.000  0.514-  25 2.96  19 2.96  26 2.96  34 2.97  32 2.97  33 2.97  30 2.97  31 2.97
                            29 2.97
  29  0.334  0.006  0.517-  30 2.88  31 2.89  36 2.89  35 2.96  28 2.97  20 3.00  27 3.01  26 3.04
                            34 3.04
  30  0.661  0.006  0.517-  29 2.88  32 2.89  36 2.89  35 2.96  28 2.97  21 3.00  27 3.01  25 3.04
                            33 3.04
  31  0.006  0.334  0.517-  33 2.88  29 2.89  36 2.89  35 2.96  28 2.97  20 3.00  22 3.01  19 3.04
                            32 3.04
  32  0.661  0.334  0.517-  34 2.88  30 2.89  36 2.89  35 2.96  28 2.97  21 3.00  24 3.01  19 3.04
                            31 3.04
  33  0.006  0.661  0.517-  31 2.88  34 2.89  36 2.89  35 2.96  28 2.97  23 3.00  22 3.01  25 3.04
                            30 3.04
  34  0.334  0.661  0.517-  32 2.88  33 2.89  36 2.89  35 2.96  28 2.97  23 3.00  24 3.01  26 3.04
                            29 3.04
  35  0.667  0.667  0.514-  24 2.96  27 2.96  22 2.96  29 2.96  34 2.96  32 2.96  31 2.96  30 2.96
                            33 2.96
  36  0.333  0.333  0.509-  37 1.97  20 2.86  23 2.86  21 2.86  33 2.89  31 2.89  29 2.89  30 2.89
                            34 2.89  32 2.89
  37  0.333  0.333  0.590-  36 1.97

  LATTYP: Found a hexagonal cell.
 ALAT       =     8.8135128021
 C/A-ratio  =     2.7586513333

  Lattice vectors:

 A1 = (  -4.4067569092,  -7.6327256898,   0.0000000000)
 A2 = (   8.8135128021,   0.0000000000,   0.0000000000)
 A3 = (   0.0000000000,   0.0000000000,  24.3134088421)

Analysis of symmetry for initial positions (statically):
 Subroutine PRICEL returns:
 Original cell was already a primitive cell.

 Routine SETGRP: Setting up the symmetry group for a
 hexagonal supercell.

 Subroutine GETGRP returns: Found  6 space group operations
 (whereof  6 operations were pure point group operations)
 out of a pool of 24 trial point group operations.

The static configuration has the point symmetry C_3v.

Analysis of symmetry for dynamics (positions and initial velocities):
 Subroutine PRICEL returns:
 Original cell was already a primitive cell.

[...]

The dynamic configuration has the point symmetry C_3v.

Analysis of constrained symmetry for selective dynamics:
 Subroutine PRICEL returns:
 Original cell was already a primitive cell.

 Routine SETGRP: Setting up the symmetry group for a
 hexagonal supercell.

 Subroutine GETGRP returns: Found  6 space group operations
[...]
     24      -5.6974      2.00000
     25      -5.6932      2.00000
     26      -5.6867      2.00000
     27      -5.6344      2.00000
     28      -5.5996      2.00000
     29      -5.5743      2.00000
     30      -5.5443      2.00000
     31      -5.5355      2.00000
     32      -5.4699      2.00000
     33      -5.4306      2.00000
     34      -5.3315      2.00000
     35      -5.3250      2.00000
     36      -5.3062      2.00000
     37      -5.2795      2.00000
     38      -5.2617      2.00000
     39      -5.2489      2.00000
     40      -5.1856      2.00000
     41      -5.1589      2.00000
     42      -5.0616      2.00000
     43      -5.0337      2.00000
     44      -4.9901      2.00000
     45      -4.9333      2.00000
     46      -4.9107      2.00000
     47      -4.8743      2.00000
     48      -4.8543      2.00000
     49      -4.8255      2.00000
     50      -4.8097      2.00000
     51      -4.7197      2.00000
     52      -4.6889      2.00000
     53      -4.6756      2.00000
     54      -4.6465      2.00000
     55      -4.6377      2.00000
     56      -4.6269      2.00000
     57      -4.6244      2.00000
     58      -4.5978      2.00000
     59      -4.5471      2.00000
     60      -4.5264      2.00000
[...]
    238       5.6039      0.00000
    239       5.7737      0.00000
    240       5.8699      0.00000
    241       5.9651      0.00000
    242       6.0242      0.00000
    243       6.1271      0.00000
    244       6.1499      0.00000
    245       6.2338      0.00000
    246       6.2853      0.00000
    247       6.4230      0.00000
    248       6.4820      0.00000
    249       6.6118      0.00000
    250       6.7601      0.00000
    251       6.8873      0.00000
    252       6.9044      0.00000

 soft charge-density along one line, spin component           1
         0         1         2         3         4         5         6         7         8         9
 total charge-density along one line

------------------------ aborting loop because EDIFF is reached ----------------------------------------

 total charge

# of ion       s       p       d       tot
    1        0.545   0.238   8.767   9.551
    2        0.542   0.240   8.765   9.547
    3        0.542   0.240   8.765   9.547
    4        0.542   0.240   8.765   9.547
    5        0.548   0.239   8.760   9.547
    6        0.542   0.240   8.765   9.547
    7        0.542   0.240   8.765   9.547
    8        0.542   0.240   8.765   9.547
    9        0.542   0.240   8.769   9.551
   10        0.521   0.308   8.772   9.601
   11        0.523   0.305   8.777   9.606
   12        0.521   0.308   8.772   9.601
   13        0.523   0.305   8.777   9.606
   14        0.523   0.305   8.777   9.606
   15        0.517   0.309   8.774   9.600
   16        0.521   0.308   8.772   9.601
   17        0.517   0.309   8.774   9.600
   18        0.517   0.309   8.774   9.600
   19        0.517   0.298   8.771   9.586
   20        0.554   0.324   8.755   9.632
   21        0.554   0.324   8.755   9.632
   22        0.507   0.305   8.777   9.588
   23        0.554   0.324   8.755   9.632
   24        0.507   0.305   8.777   9.588
   25        0.517   0.298   8.771   9.586
   26        0.517   0.298   8.771   9.586
   27        0.507   0.305   8.777   9.588
   28        0.544   0.229   8.761   9.534
   29        0.576   0.238   8.749   9.563
   30        0.576   0.238   8.749   9.563
   31        0.576   0.238   8.749   9.563
   32        0.576   0.238   8.749   9.563
   33        0.576   0.238   8.749   9.563
   34        0.576   0.238   8.749   9.563
   35        0.544   0.229   8.760   9.534
   36        2.195   5.983   1.796   9.974
   37        1.016   1.118   0.000   2.133
tot         22.055  16.694 308.575 347.325

  FORCE on cell =-STRESS in cart. coord.  units (eV):
  Direction    XX          YY          ZZ          XY          YZ          ZX
  Alpha Z   940.82763   940.82763   940.82763
  Ewald  151051.20661151051.20707************    -0.00032    -0.00008    -0.00013
  Hartree159573.25818159573.25819************     0.00001    -0.00002    -0.00004
  E(xc)   -1792.65011 -1792.65010 -1799.17541    -0.00001    -0.00000    -0.00000
  Local  ************************323365.31729     0.00178     0.00003     0.00004
  n-local   -74.28878   -30.70720   -42.16554    22.23246    -1.46894     1.47839
  augment  2365.52972  2365.53125  2388.19550    -0.00133     0.00001     0.00004
  Kinetic  5616.02806  5622.45871  5695.86677     4.96964    -0.11965     0.38531
  Fock        0.00000     0.00000     0.00000     0.00000     0.00000     0.00000
  Total     -18.72806   -18.72806     3.39804    -0.00000     0.00000     0.00000
  in kB     -18.34547   -18.34547     3.32862    -0.00000     0.00000     0.00000

 VOLUME and BASIS-vectors are now :
  energy-cutoff  :      500.00
  volume of cell :     1635.59
      direct lattice vectors                 reciprocal lattice vectors
     8.813512802  0.000000000  0.000000000     0.113462137 -0.065507406  0.000000000
     4.406756909  7.632725690  0.000000000     0.000000000  0.131014796  0.000000000
     0.000000000  0.000000000 24.313408842     0.000000000  0.000000000  0.041129568

  length of vectors
     8.813512802  8.813512802 24.313408842     0.131014796  0.131014796  0.041129568

 FORCES acting on ions
    electron-ion (+dipol)            ewald-force                    non-local-force                 convergence-correction
   -.199E-04 -.163E-04 0.267E+04   0.519E-04 0.434E-04 -.266E+04   -.214E-17 0.302E-17 -.665E+00   -.146E-03 -.978E-04 -.576E+00
   0.303E+00 0.292E+00 0.267E+04   -.411E+00 -.547E+00 -.266E+04   0.376E-01 0.122E+00 -.376E+00   0.636E-01 0.113E+00 -.612E+00
   -.303E+00 0.292E+00 0.267E+04   0.410E+00 -.547E+00 -.266E+04   -.376E-01 0.122E+00 -.376E+00   -.634E-01 0.115E+00 -.612E+00
   0.404E+00 0.116E+00 0.267E+04   -.679E+00 -.821E-01 -.266E+04   0.124E+00 -.284E-01 -.376E+00   0.130E+00 -.137E-02 -.612E+00
   0.790E-05 -.239E-04 0.267E+04   0.951E-04 0.171E-05 -.267E+04   0.215E-17 0.305E-17 -.247E-01   0.427E-02 0.260E-02 -.544E+00
   -.404E+00 0.116E+00 0.267E+04   0.679E+00 -.822E-01 -.266E+04   -.124E+00 -.284E-01 -.376E+00   -.131E+00 -.351E-03 -.611E+00
   0.101E+00 -.408E+00 0.267E+04   -.268E+00 0.629E+00 -.266E+04   0.868E-01 -.936E-01 -.376E+00   0.677E-01 -.112E+00 -.611E+00
   -.101E+00 -.408E+00 0.267E+04   0.268E+00 0.629E+00 -.266E+04   -.868E-01 -.936E-01 -.376E+00   -.658E-01 -.113E+00 -.611E+00
   0.195E-04 -.416E-04 0.267E+04   0.166E-03 -.201E-04 -.266E+04   -.335E-17 0.321E-17 -.495E+00   -.466E-02 -.242E-02 -.582E+00
   0.364E+01 0.210E+01 0.915E+03   -.357E+01 -.206E+01 -.915E+03   -.196E+00 -.113E+00 -.545E+00   0.104E+00 0.599E-01 -.215E+00
   0.159E-04 0.619E+01 0.923E+03   0.147E-03 -.629E+01 -.923E+03   -.516E-09 -.775E-02 -.342E+00   0.345E-02 0.860E-01 -.214E+00
   -.364E+01 0.210E+01 0.915E+03   0.357E+01 -.206E+01 -.915E+03   0.196E+00 -.113E+00 -.545E+00   -.105E+00 0.613E-01 -.216E+00
   0.536E+01 -.309E+01 0.923E+03   -.545E+01 0.314E+01 -.923E+03   -.671E-02 0.387E-02 -.342E+00   0.765E-01 -.397E-01 -.214E+00
   -.536E+01 -.309E+01 0.923E+03   0.545E+01 0.314E+01 -.923E+03   0.671E-02 0.387E-02 -.342E+00   -.688E-01 -.399E-01 -.214E+00
   0.307E-04 0.586E+00 0.915E+03   0.236E-03 -.542E+00 -.914E+03   0.590E-09 0.886E-02 -.591E+00   -.220E-02 -.676E-01 -.291E+00
   -.214E-04 -.420E+01 0.915E+03   0.163E-03 0.413E+01 -.915E+03   0.150E-07 0.226E+00 -.545E+00   0.403E-03 -.122E+00 -.216E+00
   0.507E+00 -.293E+00 0.915E+03   -.469E+00 0.271E+00 -.914E+03   0.767E-02 -.443E-02 -.591E+00   -.594E-01 0.323E-01 -.291E+00
   -.507E+00 -.293E+00 0.915E+03   0.469E+00 0.271E+00 -.914E+03   -.767E-02 -.443E-02 -.591E+00   0.591E-01 0.339E-01 -.292E+00
   -.425E-04 -.124E+01 -.866E+03   0.522E-04 0.126E+01 0.864E+03   0.423E-08 0.635E-01 0.813E+00   0.348E-02 -.220E-01 0.586E+00
   0.382E+02 0.220E+02 -.813E+03   -.378E+02 -.218E+02 0.813E+03   -.793E+00 -.458E+00 -.931E+00   0.163E+00 0.942E-01 0.746E+00
   -.382E+02 0.220E+02 -.813E+03   0.378E+02 -.218E+02 0.813E+03   0.793E+00 -.458E+00 -.931E+00   -.164E+00 0.969E-01 0.746E+00
   0.996E+01 -.575E+01 -.856E+03   -.104E+02 0.600E+01 0.855E+03   0.253E+00 -.146E+00 0.617E+00   0.193E+00 -.117E+00 0.607E+00
   -.769E-05 -.441E+02 -.813E+03   0.143E-03 0.436E+02 0.813E+03   0.609E-07 0.915E+00 -.931E+00   0.172E-02 -.190E+00 0.746E+00
   -.996E+01 -.575E+01 -.856E+03   0.104E+02 0.600E+01 0.855E+03   -.253E+00 -.146E+00 0.617E+00   -.200E+00 -.115E+00 0.607E+00
   0.107E+01 0.620E+00 -.866E+03   -.109E+01 -.631E+00 0.864E+03   -.550E-01 -.318E-01 0.813E+00   0.256E-01 0.147E-01 0.586E+00
   -.107E+01 0.620E+00 -.866E+03   0.109E+01 -.631E+00 0.864E+03   0.550E-01 -.318E-01 0.813E+00   -.170E-01 0.140E-01 0.586E+00
   0.119E-04 0.115E+02 -.856E+03   0.195E-03 -.120E+02 0.855E+03   0.194E-07 0.292E+00 0.617E+00   -.577E-02 0.226E+00 0.607E+00
   -.155E-04 -.136E-04 -.259E+04   0.295E-04 0.354E-04 0.259E+04   0.731E-18 -.183E-17 0.440E+00   0.400E-03 0.212E-03 0.764E+00
   0.441E+02 0.729E+02 -.261E+04   -.435E+02 -.719E+02 0.261E+04   -.884E+00 -.146E+01 0.401E+00   0.203E+00 0.369E+00 0.823E+00
   -.441E+02 0.729E+02 -.261E+04   0.435E+02 -.719E+02 0.261E+04   0.884E+00 -.146E+01 0.401E+00   -.204E+00 0.372E+00 0.825E+00
   0.852E+02 0.179E+01 -.261E+04   -.841E+02 -.174E+01 0.261E+04   -.170E+01 -.372E-01 0.401E+00   0.422E+00 -.869E-02 0.823E+00
   -.852E+02 0.179E+01 -.261E+04   0.841E+02 -.174E+01 0.261E+04   0.170E+01 -.372E-01 0.401E+00   -.423E+00 -.721E-02 0.824E+00
   0.410E+02 -.746E+02 -.261E+04   -.405E+02 0.737E+02 0.261E+04   -.819E+00 0.149E+01 0.401E+00   0.220E+00 -.362E+00 0.825E+00
   -.410E+02 -.746E+02 -.261E+04   0.405E+02 0.737E+02 0.261E+04   0.819E+00 0.149E+01 0.401E+00   -.218E+00 -.363E+00 0.824E+00
   0.300E-04 -.267E-04 -.260E+04   0.143E-03 -.506E-04 0.259E+04   0.474E-17 -.363E-18 0.521E+00   -.494E-02 -.256E-02 0.881E+00
   0.225E-03 -.143E-03 -.261E+04   0.120E-03 0.103E-04 0.261E+04   0.905E-18 0.412E-18 -.183E+01   0.556E-02 0.340E-02 0.160E+01
   0.512E-04 -.314E-04 -.120E+04   0.117E-04 0.775E-06 0.120E+04   -.231E-17 0.158E-17 -.262E+01   0.766E-03 0.466E-03 -.285E-01
   -.476E-03 -.917E-03 0.106E+01   0.168E-13 0.233E-12 -.455E-11   0.225E-15 0.163E-17 -.747E+01   0.108E-01 0.693E-02 0.644E+01

 POSITION                                       TOTAL-FORCE (eV/Angst)
      0.00000      0.00000      5.28038        -0.000000      0.000000     -0.076314
      2.93784      0.00000      5.28038        -0.005744     -0.019004     -0.025152
      5.87568      0.00000      5.28038         0.005744     -0.019004     -0.025152
      1.46892      2.54424      5.28038        -0.019330      0.004527     -0.025152
      4.40676      2.54424      5.28038        -0.000000      0.000000     -0.057563
      7.34459      2.54424      5.28038         0.019330      0.004527     -0.025152
      2.93784      5.08848      5.28038        -0.013586      0.014477     -0.025152
      5.87568      5.08848      5.28038         0.013586      0.014477     -0.025152
      8.81351      5.08848      5.28038        -0.000000     -0.000000     -0.029723
      1.46892      0.84808      7.67911        -0.026547     -0.015327      0.051698
      4.40676      0.84808      7.67911        -0.000000     -0.025807     -0.014659
      7.34459      0.84808      7.67911         0.026547     -0.015327      0.051698
      2.93784      3.39232      7.67911        -0.022350      0.012904     -0.014659
      5.87568      3.39232      7.67911         0.022350      0.012904     -0.014659
      8.81351      3.39232      7.67911        -0.000000     -0.014925      0.091369
      4.40676      5.93656      7.67911         0.000000      0.030654      0.051698
      7.34459      5.93656      7.67911        -0.012925      0.007462      0.091369
     10.28243      5.93656      7.67911         0.012925      0.007462      0.091369
      8.81351      1.69571     10.07248         0.000000      0.060634      0.142161
      2.94528      1.70046     10.06340        -0.255004     -0.147227     -0.218117
      5.86824      1.70046     10.06340         0.255004     -0.147227     -0.218117
     10.27570      4.24429     10.07162         0.016723     -0.009655      0.075170
      4.40676      4.23182     10.06340         0.000000      0.294454     -0.218117
      7.35132      4.24429     10.07162        -0.016723     -0.009655      0.075170
     11.75174      6.78487     10.07248        -0.052511     -0.030317      0.142161
      5.87529      6.78487     10.07248         0.052511     -0.030317      0.142161
      8.81351      6.77688     10.07162         0.000000      0.019310      0.075170
      0.00000      0.00000     12.49858        -0.000000      0.000000     -0.090422
      2.96552      0.04535     12.55994        -0.101799     -0.171082     -0.017892
      5.84799      0.04535     12.55994         0.101799     -0.171082     -0.017892
      1.52204      2.54555     12.55994        -0.199061     -0.002620     -0.017892
      7.29148      2.54555     12.55994         0.199061     -0.002620     -0.017892
      2.96327      5.04183     12.55994        -0.097262      0.173702     -0.017892
      5.85025      5.04183     12.55994         0.097262      0.173702     -0.017892
      8.81351      5.08848     12.50663        -0.000000     -0.000000     -0.088672
      4.40676      2.54424     12.37417        -0.000000     -0.000000      0.139023
      4.40676      2.54424     14.34576        -0.000000      0.000000      0.079075
    total drift:                                0.010279      0.006014      0.037262

  FREE ENERGIE OF THE ION-ELECTRON SYSTEM (eV)
  free  energy   TOTEN  =      -120.79790589 eV

  energy  without entropy=     -120.79790589  energy(sigma->0) =     -120.79790589

 stress matrix after NEB project (eV)
    -18.72806     -0.00000      0.00000
     -0.00000    -18.72806      0.00000
     -0.00000      0.00000      3.39804
  FORCES: max atom, RMS     0.079075    0.013000
  FORCE total and by dimension    0.079075    0.079075
  Stress total and by dimension   26.702565   18.728059
|           W    W    AA    RRRRR   N    N  II  N    N   GGGG   !!!           |
|           W    W   A  A   R    R  NN   N  II  NN   N  G    G  !!!           |
|           W    W  A    A  R    R  N N  N  II  N N  N  G       !!!           |
|           W WW W  AAAAAA  RRRRR   N  N N  II  N  N N  G  GGG   !            |
|           WW  WW  A    A  R   R   N   NN  II  N   NN  G    G                |
|           W    W  A    A  R    R  N    N  II  N    N   GGGG   !!!           |
|     Tetrahedron method does not include variations of the Fermi             |
|     occupations, so forces and stress will be inaccurate. We suggest        |
|     using a different smearing scheme ISMEAR = 1 or 2 for metals in         |
|     relaxations.                                                            |

 total charge

# of ion       s       p       d       tot
    1        0.545   0.238   8.767   9.551
    2        0.542   0.240   8.765   9.547
    3        0.542   0.240   8.765   9.547
    4        0.542   0.240   8.765   9.547
    5        0.548   0.239   8.760   9.547
    6        0.542   0.240   8.765   9.547
    7        0.542   0.240   8.765   9.547
    8        0.542   0.240   8.765   9.547
    9        0.542   0.240   8.769   9.551
   10        0.521   0.308   8.772   9.601
   11        0.523   0.305   8.777   9.606
   12        0.521   0.308   8.772   9.601
   13        0.523   0.305   8.777   9.606
   14        0.523   0.305   8.777   9.606
   15        0.517   0.309   8.774   9.600
   16        0.521   0.308   8.772   9.601
   17        0.517   0.309   8.774   9.600
   18        0.517   0.309   8.774   9.600
   19        0.517   0.298   8.771   9.586
   20        0.554   0.324   8.755   9.632
   21        0.554   0.324   8.755   9.632
   22        0.507   0.305   8.777   9.588
   23        0.554   0.324   8.755   9.632
   24        0.507   0.305   8.777   9.588
   25        0.517   0.298   8.771   9.586
   26        0.517   0.298   8.771   9.586
   27        0.507   0.305   8.777   9.588
   28        0.544   0.229   8.761   9.534
   29        0.576   0.238   8.749   9.563
   30        0.576   0.238   8.749   9.563
   31        0.576   0.238   8.749   9.563
   32        0.576   0.238   8.749   9.563
   33        0.576   0.238   8.749   9.563
   34        0.576   0.238   8.749   9.563
   35        0.544   0.229   8.760   9.534
   36        2.195   5.983   1.796   9.974
   37        1.016   1.118   0.000   2.133
tot         22.055  16.694 308.575 347.325

 BZINTS: Fermi energy:    0.151947;  401.000000 electrons
         Band energy:-0.166563E+04;  BLOECHL correction:   -0.051928