 vasp.6.2.0 18Jan21 (build Jun 12 2021 23:27:24) complex

 executed on             LinuxIFC date 2022.05.30  16:48:59

 INCAR:
   ISMEAR = -5
   SIGMA = 0.1
   ISPIN = 1
   EDIFF = 1.d-5
   EDIFFG = -0.01
   NSW = 0
   NELM = 150
   ENCUT = 500
   ISIF = 2
   IBRION = 2
   LREAL = Auto
   ALGO = Fast
   ICHARG = 11
   LORBIT = 10
   LCHARG = .F.
   LWAVE = .F.

 POTCAR:    PAW_PBE Ag 02Apr2005
 POTCAR:    PAW_PBE Ti 08Apr2002
 POTCAR:    PAW_PBE O 08Apr2002
|           W    W    AA    RRRRR   N    N  II  N    N   GGGG   !!!           |
|           W    W   A  A   R    R  NN   N  II  NN   N  G    G  !!!           |
|           W    W  A    A  R    R  N N  N  II  N N  N  G       !!!           |
|           W WW W  AAAAAA  RRRRR   N  N N  II  N  N N  G  GGG   !            |
|           WW  WW  A    A  R   R   N   NN  II  N   NN  G    G                |
|           W    W  A    A  R    R  N    N  II  N    N   GGGG   !!!           |
|     For optimal performance we recommend to set                             |
|       NCORE = 2 up to number-of-cores-per-socket                            |
|     This setting can greatly improve the performance of VASP for DFT.       |
|     The default, NCORE=1 might be grossly inefficient on modern             |
|     multi-core architectures or massively parallel machines. Do your        |
|     Unfortunately you need to use the default for GW and RPA                |
|     calculations (for HF NCORE is supported but not extensively tested      |
|     yet).                                                                   |

 POTCAR:    PAW_PBE Ag 02Apr2005
   VRHFIN =Ag : s1 d10

   TITEL  = PAW_PBE Ag 02Apr2005
   POMASS =  107.868; ZVAL   =   11.000    mass and valenz
   ENMAX  =  249.844; ENMIN  =  187.383 eV

 POTCAR:    PAW_PBE Ti 08Apr2002
   VRHFIN =Ti: d3 s1

[...]

 POTCAR:    PAW_PBE O 08Apr2002
   VRHFIN =O: s2p4

   TITEL  = PAW_PBE O 08Apr2002
   POMASS =   16.000; ZVAL   =    6.000    mass and valenz
   ENMAX  =  400.000; ENMIN  =  300.000 eV

 Optimization of the real space projectors (new method)

 maximal supplied QI-value         = 15.12
 optimisation between [QCUT,QGAM] = [ 11.34, 22.83] = [ 36.00,145.93] Ry
 Optimized for a Real-space Cutoff    1.43 Angstroem

   l    n(q)    QCUT    max X(q) W(low)/X(q) W(high)/X(q)  e(spline)
   2      9    11.338    53.897    0.16E-03    0.20E-03    0.28E-06
   2      9    11.338    52.416    0.16E-03    0.20E-03    0.29E-06
   0     10    11.338   122.045    0.31E-04    0.76E-04    0.15E-06
   0     10    11.338    73.629    0.30E-04    0.72E-04    0.15E-06
   1      9    11.338    15.255    0.20E-03    0.19E-04    0.17E-06
   1      9    11.338     9.562    0.16E-03    0.15E-04    0.14E-06
 Optimization of the real space projectors (new method)

[...]

   l    n(q)    QCUT    max X(q) W(low)/X(q) W(high)/X(q)  e(spline)
   2     10    11.404    49.363    0.27E-03    0.67E-03    0.76E-06
   2     10    11.404    47.669    0.26E-03    0.65E-03    0.73E-06
   0     11    11.404    26.374    0.17E-03    0.20E-03    0.34E-06
   0     11    11.404    11.549    0.14E-03    0.16E-03    0.29E-06
   1     10    11.404     9.492    0.33E-04    0.56E-04    0.16E-06
 Optimization of the real space projectors (new method)

 maximal supplied QI-value         = 24.76
 optimisation between [QCUT,QGAM] = [ 11.39, 22.77] = [ 36.31,145.25] Ry
 Optimized for a Real-space Cutoff    1.00 Angstroem

   l    n(q)    QCUT    max X(q) W(low)/X(q) W(high)/X(q)  e(spline)
   0      7    11.387    20.381    0.39E-03    0.13E-02    0.15E-06
   0      7    11.387    15.268    0.42E-03    0.14E-02    0.17E-06
   1      6    11.387     5.964    0.41E-03    0.11E-02    0.17E-06
   1      6    11.387     5.382    0.39E-03    0.87E-03    0.15E-06
  PAW_PBE Ag 02Apr2005                  :
  PAW_PBE Ti 08Apr2002                  :
  PAW_PBE O 08Apr2002                   :

 POSCAR: Ag-Ti-O2
  positions in direct lattice
  velocities in cartesian coordinates
 exchange correlation table for  LEXCH =        8
   RHO(1)=    0.500       N(1)  =     2000
   RHO(2)=  100.500       N(2)  =     4000

 VTST: version 3.2, (02/03/18)

 CHAIN: initializing optimizer

 OPT: Using VASP Conjugate-Gradient optimizer
 CHAIN: Read ICHAIN            0

 POSCAR: Ag-Ti-O2
  positions in direct lattice
  velocities in cartesian coordinates

 ion  position               nearest neighbor table
   1  0.000  0.000  0.217-   2 2.93   8 2.93   7 2.93   6 2.93   4 2.93  12 2.93  16 2.93  10 2.93
                             3 2.93
   2  0.333  0.000  0.217-   1 2.93   8 2.93   9 2.93   3 2.93   4 2.93   5 2.93  10 2.93  17 2.93
                            11 2.93
   3  0.667  0.000  0.217-   9 2.93   2 2.93   5 2.93  11 2.93   7 2.93  18 2.93   1 2.93   6 2.93
                            12 2.93
   4  0.000  0.333  0.217-   5 2.93   6 2.93   2 2.93   1 2.93   7 2.93  13 2.93  15 2.93   9 2.93
                            10 2.93
   5  0.333  0.333  0.217-   4 2.93   3 2.93   7 2.93   2 2.93   8 2.93  14 2.93  13 2.93  11 2.93
                             6 2.93
   6  0.667  0.333  0.217-   4 2.93   9 2.93   1 2.93  15 2.93   8 2.93  12 2.93   3 2.93   5 2.93
                            14 2.93
   7  0.000  0.667  0.217-   8 2.93   1 2.93   5 2.93   3 2.93   4 2.93  16 2.93  18 2.93  13 2.93
                             9 2.93
   8  0.333  0.667  0.217-   7 2.93   1 2.93   2 2.93   9 2.93   5 2.93  16 2.93   6 2.93  17 2.93
                            14 2.93
   9  0.667  0.667  0.217-   3 2.93   2 2.93   8 2.93   6 2.93  17 2.93   4 2.93  15 2.93   7 2.93
                            18 2.93
  10  0.111  0.111  0.315-  20 2.91  19 2.92  26 2.92  12 2.93  16 2.93  15 2.93  17 2.93  13 2.93
                            11 2.93   2 2.93   1 2.93   4 2.93
  11  0.444  0.111  0.315-  21 2.91  20 2.91  27 2.92  14 2.93  17 2.93  18 2.93   3 2.93  12 2.93
                            13 2.93  10 2.93   5 2.93   2 2.93
  12  0.778  0.111  0.315-  21 2.91  25 2.92  19 2.92  10 2.93  16 2.93  18 2.93  15 2.93  11 2.93
                             1 2.93  14 2.93   6 2.93   3 2.93
  13  0.111  0.444  0.315-  20 2.91  23 2.91  22 2.92  15 2.93  14 2.93  18 2.93  10 2.93  11 2.93
                            16 2.93   4 2.93   5 2.93   7 2.93
  14  0.444  0.444  0.315-  23 2.91  21 2.91  24 2.92  13 2.93  11 2.93  16 2.93   5 2.93  12 2.93
                            17 2.93   8 2.93  15 2.93   6 2.93
  15  0.778  0.444  0.315-  19 2.92  24 2.92  22 2.92  13 2.93  10 2.93  12 2.93  17 2.93  18 2.93
                             4 2.93   6 2.93   9 2.93  14 2.93
  16  0.111  0.778  0.315-  23 2.91  26 2.92  25 2.92  18 2.93  12 2.93  10 2.93  14 2.93  17 2.93
                            13 2.93   7 2.93   8 2.93   1 2.93
  17  0.444  0.778  0.315-  26 2.92  27 2.92  24 2.92  11 2.93  10 2.93   9 2.93  18 2.93  15 2.93
                            16 2.93   2 2.93  14 2.93   8 2.93
  18  0.778  0.778  0.315-  25 2.92  22 2.92  27 2.92  16 2.93  12 2.93  13 2.93  11 2.93  17 2.93
                            15 2.93   7 2.93   3 2.93   9 2.93
  19  0.889  0.222  0.413-  10 2.92  12 2.92  15 2.92  28 2.92  26 2.93  25 2.93  24 2.93  22 2.93
                            20 2.94  21 2.94  32 2.96  31 2.96
  20  0.223  0.223  0.412-  36 2.82  13 2.91  11 2.91  10 2.91  21 2.92  23 2.92  27 2.93  22 2.93
                            19 2.94  26 2.94  31 2.94  29 2.94
  21  0.555  0.223  0.412-  36 2.82  11 2.91  14 2.91  12 2.91  20 2.92  23 2.92  27 2.93  24 2.93
                            25 2.94  19 2.94  30 2.94  32 2.94
  22  0.889  0.556  0.413-  18 2.92  15 2.92  13 2.92  24 2.93  27 2.93  25 2.93  19 2.93  35 2.93
                            23 2.93  20 2.93  33 2.94  31 2.94
  23  0.223  0.555  0.412-  36 2.82  14 2.91  13 2.91  16 2.91  21 2.92  20 2.92  22 2.93  24 2.93
                            26 2.94  25 2.94  34 2.94  33 2.94
  24  0.556  0.556  0.413-  15 2.92  17 2.92  14 2.92  27 2.93  22 2.93  19 2.93  26 2.93  35 2.93
                            23 2.93  21 2.93  32 2.94  34 2.94
  25  0.889  0.889  0.413-  16 2.92  12 2.92  18 2.92  28 2.92  26 2.93  19 2.93  22 2.93  27 2.93
                            23 2.94  21 2.94  33 2.96  30 2.96
  26  0.222  0.889  0.413-  16 2.92  10 2.92  17 2.92  28 2.92  25 2.93  19 2.93  27 2.93  24 2.93
                            23 2.94  20 2.94  34 2.96  29 2.96
  27  0.556  0.889  0.413-  17 2.92  18 2.92  11 2.92  24 2.93  22 2.93  26 2.93  25 2.93  35 2.93
                            20 2.93  21 2.93  29 2.94  30 2.94
  28  0.000  0.000  0.510-  26 2.92  25 2.92  19 2.92  29 2.95  34 2.95  33 2.95  32 2.95  31 2.95
                            30 2.95
  29  0.334  0.004  0.511-  30 2.89  31 2.90  36 2.90  20 2.94  27 2.94  35 2.95  28 2.95  26 2.96
                            34 3.00
  30  0.662  0.004  0.511-  29 2.89  32 2.90  36 2.90  21 2.94  27 2.94  35 2.95  28 2.95  25 2.96
                            33 3.00
  31  0.004  0.334  0.511-  37 2.06  33 2.89  29 2.90  36 2.90  20 2.94  22 2.94  35 2.95  28 2.95
                            19 2.96  32 3.00
  32  0.662  0.334  0.511-  38 2.06  34 2.89  30 2.90  36 2.90  21 2.94  24 2.94  35 2.95  28 2.95
                            19 2.96  31 3.00
  33  0.004  0.662  0.511-  37 2.35  31 2.89  34 2.90  36 2.90  23 2.94  22 2.94  35 2.95  28 2.95
                            25 2.96  30 3.00
  34  0.334  0.662  0.511-  38 2.35  32 2.89  33 2.90  36 2.90  23 2.94  24 2.94  35 2.95  28 2.95
                            26 2.96  29 3.00
  35  0.667  0.667  0.511-  24 2.93  27 2.93  22 2.93  30 2.95  32 2.95  29 2.95  34 2.95  31 2.95
                            33 2.95
  36  0.333  0.333  0.505-  37 1.80  38 1.80  21 2.82  20 2.82  23 2.82  31 2.90  33 2.90  30 2.90
                            29 2.90  34 2.90  32 2.90
  37  0.166  0.392  0.556-  36 1.80  31 2.06  33 2.35
  38  0.442  0.392  0.556-  36 1.80  32 2.06  34 2.35

  LATTYP: Found a hexagonal cell.
 ALAT       =     8.7913665772
 C/A-ratio  =     2.7711238095

  Lattice vectors:

 A1 = (  -4.3956832886,  -7.6135467898,   0.0000000000)
 A2 = (   8.7913665771,   0.0000000000,   0.0000000000)
 A3 = (   0.0000000000,   0.0000000000,  24.3619652401)

Analysis of symmetry for initial positions (statically):
 Subroutine PRICEL returns:
 Original cell was already a primitive cell.

 Routine SETGRP: Setting up the symmetry group for a
 hexagonal supercell.

 Subroutine GETGRP returns: Found  2 space group operations
 (whereof  2 operations were pure point group operations)
 out of a pool of 24 trial point group operations.

The static configuration has the point symmetry C_1h.

Analysis of symmetry for dynamics (positions and initial velocities):
 Subroutine PRICEL returns:
 Original cell was already a primitive cell.

[...]

The dynamic configuration has the point symmetry C_1h.

Analysis of constrained symmetry for selective dynamics:
 Subroutine PRICEL returns:
 Original cell was already a primitive cell.

 Routine SETGRP: Setting up the symmetry group for a
 hexagonal supercell.

 Subroutine GETGRP returns: Found  2 space group operations
 (whereof  2 operations were pure point group operations)
[...]
     33      -5.1218      2.00000
     34      -5.1039      2.00000
     35      -5.0996      2.00000
     36      -5.0899      2.00000
     37      -5.0753      2.00000
     38      -5.0350      2.00000
     39      -5.0185      2.00000
     40      -4.9974      2.00000
     41      -4.9604      2.00000
     42      -4.9487      2.00000
     43      -4.9322      2.00000
     44      -4.9041      2.00000
     45      -4.8820      2.00000
     46      -4.8620      2.00000
     47      -4.8202      2.00000
     48      -4.8177      2.00000
     49      -4.7841      2.00000
     50      -4.7585      2.00000
     51      -4.7516      2.00000
     52      -4.7463      2.00000
     53      -4.7356      2.00000
     54      -4.7308      2.00000
     55      -4.7203      2.00000
     56      -4.6970      2.00000
     57      -4.6752      2.00000
     58      -4.6444      2.00000
     59      -4.6352      2.00000
     60      -4.6269      2.00000
[...]
    238       5.5410      0.00000
    239       5.6819      0.00000
    240       5.8439      0.00000
    241       5.8961      0.00000
    242       5.9495      0.00000
    243       6.0595      0.00000
    244       6.1920      0.00000
    245       6.4637      0.00000
    246       6.5013      0.00000
    247       6.6196      0.00000
    248       6.6631      0.00000
    249       6.6828      0.00000
    250       6.7979      0.00000
    251       6.8410      0.00000
    252       6.9155      0.00000

 soft charge-density along one line, spin component           1
         0         1         2         3         4         5         6         7         8         9
 total charge-density along one line

------------------------ aborting loop because EDIFF is reached ----------------------------------------

 total charge

# of ion       s       p       d       tot
    1        0.420   0.200   9.178   9.798
    2        0.414   0.205   9.176   9.794
    3        0.414   0.205   9.176   9.794
    4        0.416   0.203   9.177   9.796
    5        0.418   0.202   9.177   9.797
    6        0.416   0.203   9.177   9.796
    7        0.416   0.203   9.178   9.797
    8        0.416   0.203   9.178   9.797
    9        0.415   0.204   9.176   9.795
   10        0.407   0.270   9.164   9.841
   11        0.406   0.269   9.167   9.841
   12        0.407   0.270   9.164   9.841
   13        0.402   0.272   9.165   9.839
   14        0.402   0.272   9.165   9.839
   15        0.407   0.268   9.165   9.840
   16        0.408   0.270   9.162   9.840
   17        0.403   0.269   9.165   9.837
   18        0.403   0.269   9.165   9.837
   19        0.400   0.281   9.151   9.832
   20        0.436   0.288   9.148   9.871
   21        0.436   0.288   9.148   9.871
   22        0.402   0.271   9.165   9.837
   23        0.431   0.302   9.133   9.867
   24        0.402   0.271   9.165   9.837
   25        0.401   0.270   9.164   9.835
   26        0.401   0.270   9.164   9.835
   27        0.395   0.271   9.168   9.835
   28        0.412   0.198   9.183   9.793
   29        0.428   0.206   9.174   9.808
   30        0.428   0.206   9.174   9.808
   31        0.405   0.297   9.161   9.863
   32        0.405   0.297   9.161   9.863
   33        0.385   0.230   9.187   9.803
   34        0.385   0.230   9.187   9.803
   35        0.422   0.189   9.187   9.798
   36        0.563   0.803   2.824   4.191
   37        1.596   3.335   0.000   4.932
   38        1.596   3.335   0.000   4.932
tot         18.119  16.096 323.718 357.933

  FORCE on cell =-STRESS in cart. coord.  units (eV):
  Direction    XX          YY          ZZ          XY          YZ          ZX
  Alpha Z   698.60341   698.60341   698.60341
  Ewald  153464.74280153249.12981************     0.00009   -43.77153     0.00008
  Hartree163370.13767163263.91346************     0.00002   -53.21947     0.00002
  E(xc)   -2105.49560 -2104.93918 -2111.30920    -0.00001    -0.55150     0.00000
  Local  ************************327930.39197     0.00088    98.62850    -0.00017
  n-local  -359.23139  -361.22738  -367.46525     2.26643     0.86624     0.06770
  augment  3237.09404  3238.22332  3248.43218    -0.00017    -0.33754     0.00001
  Kinetic  5049.72549  5054.95514  5081.52345     1.03143    -1.37293    -0.05917
  Fock        0.00000     0.00000     0.00000     0.00000     0.00000     0.00000
  Total       2.62683    -3.28680    -0.16288    -0.00000     0.24177     0.00000
  in kB       2.58100    -3.22945    -0.16004    -0.00000     0.23755     0.00000

 VOLUME and BASIS-vectors are now :
  energy-cutoff  :      500.00
  volume of cell :     1630.63
      direct lattice vectors                 reciprocal lattice vectors
     8.791366577  0.000000000  0.000000000     0.113747958 -0.065672414  0.000000000
     4.395683289  7.613546790  0.000000000     0.000000000  0.131344829  0.000000000
     0.000000000  0.000000000 24.361965240     0.000000000  0.000000000  0.041047592

  length of vectors
     8.791366577  8.791366577 24.361965240     0.131344829  0.131344829  0.041047592

 FORCES acting on ions
    electron-ion (+dipol)            ewald-force                    non-local-force                 convergence-correction
   0.461E-04 0.303E-02 0.269E+04   -.953E-04 -.814E-02 -.269E+04   -.114E-13 -.174E-02 -.191E+01   -.831E-04 0.836E-02 -.472E-01
   -.218E+00 -.553E-01 0.269E+04   0.177E+00 -.105E-01 -.269E+04   -.770E-02 0.961E-01 -.174E+01   0.548E-01 -.308E-01 -.681E-01
   0.218E+00 -.554E-01 0.269E+04   -.177E+00 -.105E-01 -.269E+04   0.770E-02 0.961E-01 -.174E+01   -.554E-01 -.289E-01 -.674E-01
   -.219E+00 0.658E-01 0.269E+04   0.822E-01 -.300E-01 -.269E+04   0.129E+00 -.522E-01 -.169E+01   -.144E-02 0.106E-01 -.899E-01
   -.789E-05 0.141E+00 0.269E+04   0.981E-04 -.187E+00 -.269E+04   0.323E-12 0.492E-01 -.148E+01   0.618E-02 -.971E-02 -.392E-01
   0.219E+00 0.658E-01 0.269E+04   -.824E-01 -.301E-01 -.269E+04   -.129E+00 -.522E-01 -.169E+01   0.106E-03 0.115E-01 -.892E-01
   0.113E+00 0.253E-01 0.269E+04   -.904E-01 0.429E-01 -.269E+04   0.119E-01 -.564E-01 -.166E+01   -.366E-01 -.397E-02 -.341E-01
   -.113E+00 0.254E-01 0.269E+04   0.904E-01 0.428E-01 -.269E+04   -.119E-01 -.564E-01 -.166E+01   0.382E-01 -.491E-02 -.340E-01
   0.365E-04 -.215E+00 0.269E+04   0.792E-04 0.191E+00 -.269E+04   -.115E-12 -.176E-01 -.169E+01   -.663E-02 0.439E-01 -.698E-01
   -.102E+01 0.666E+00 0.927E+03   0.100E+01 -.456E+00 -.926E+03   -.972E-01 -.143E+00 -.662E+00   0.625E-01 -.675E-01 -.170E+00
   -.295E-04 0.116E+01 0.924E+03   0.407E-04 -.114E+01 -.923E+03   -.287E-12 -.436E-01 -.350E+00   0.611E-02 -.283E-01 -.154E+00
   0.102E+01 0.666E+00 0.927E+03   -.100E+01 -.456E+00 -.926E+03   0.972E-01 -.143E+00 -.662E+00   -.638E-01 -.669E-01 -.170E+00
   0.859E-01 0.557E+00 0.927E+03   -.783E-01 -.420E+00 -.926E+03   -.463E-01 -.111E+00 -.392E+00   0.208E-01 0.743E-03 -.147E+00
   -.859E-01 0.557E+00 0.927E+03   0.784E-01 -.420E+00 -.926E+03   0.463E-01 -.111E+00 -.392E+00   -.106E-01 -.141E-03 -.148E+00
   0.154E-04 -.558E+00 0.928E+03   -.108E-03 0.381E+00 -.927E+03   0.713E-12 0.109E+00 -.766E+00   -.131E-02 0.513E-01 -.105E+00
   -.933E-05 -.824E+00 0.928E+03   0.207E-04 0.343E+00 -.927E+03   0.304E-11 0.463E+00 -.866E+00   -.142E-03 0.345E-01 -.122E+00
   -.763E+00 -.115E+01 0.926E+03   0.747E+00 0.109E+01 -.925E+03   0.109E-01 0.195E-01 -.588E+00   0.234E-02 0.392E-01 -.141E+00
   0.763E+00 -.115E+01 0.926E+03   -.747E+00 0.109E+01 -.925E+03   -.109E-01 0.195E-01 -.588E+00   -.228E-02 0.408E-01 -.140E+00
   0.391E-04 0.226E+01 -.848E+03   -.127E-03 -.215E+01 0.848E+03   -.286E-12 -.435E-01 0.208E+00   0.567E-02 0.486E-01 0.556E-03
   -.241E+02 -.209E+00 -.865E+03   0.246E+02 0.477E+00 0.865E+03   -.458E+00 -.400E+00 -.292E+00   -.771E-01 0.273E-02 -.719E-01
   0.241E+02 -.209E+00 -.865E+03   -.246E+02 0.477E+00 0.865E+03   0.458E+00 -.400E+00 -.292E+00   0.753E-01 0.217E-02 -.727E-01
   -.180E+01 -.229E+01 -.843E+03   0.203E+01 0.236E+01 0.843E+03   -.197E+00 -.677E-01 0.440E+00   -.134E-01 -.124E-03 -.379E-01
   -.523E-04 0.191E+02 -.853E+03   0.374E-04 -.203E+02 0.854E+03   0.792E-11 0.121E+01 -.952E+00   -.101E-02 0.646E-01 -.574E-01
   0.180E+01 -.229E+01 -.843E+03   -.203E+01 0.236E+01 0.843E+03   0.197E+00 -.677E-01 0.440E+00   0.241E-01 0.535E-03 -.379E-01
   0.580E+01 -.221E+01 -.854E+03   -.588E+01 0.215E+01 0.854E+03   -.137E-02 0.194E-01 0.731E+00   0.185E-01 -.243E-01 -.754E-01
   -.580E+01 -.221E+01 -.854E+03   0.588E+01 0.215E+01 0.854E+03   0.137E-02 0.194E-01 0.731E+00   -.919E-02 -.233E-01 -.750E-01
   0.192E-04 -.121E+02 -.861E+03   0.110E-03 0.122E+02 0.860E+03   -.383E-13 -.583E-02 0.954E+00   0.424E-02 -.493E-01 -.925E-01
   0.539E-04 0.353E+01 -.261E+04   -.115E-03 -.359E+01 0.261E+04   -.349E-12 -.531E-01 0.179E+01   0.269E-03 0.580E-01 0.141E+00
   -.154E+02 0.823E+01 -.260E+04   0.163E+02 -.875E+01 0.260E+04   -.909E+00 0.936E-01 0.204E+01   -.943E-01 -.193E-01 0.311E-01
   0.154E+02 0.823E+01 -.260E+04   -.163E+02 -.875E+01 0.260E+04   0.909E+00 0.936E-01 0.204E+01   0.932E-01 -.186E-01 0.312E-01
   0.103E+03 0.518E+02 -.252E+04   -.104E+03 -.522E+02 0.252E+04   -.138E+01 -.107E+00 0.393E+00   -.915E-01 0.110E-01 0.834E-01
   -.103E+03 0.518E+02 -.252E+04   0.104E+03 -.522E+02 0.252E+04   0.138E+01 -.107E+00 0.393E+00   0.917E-01 0.119E-01 0.841E-01
   0.109E+02 -.951E+02 -.255E+04   -.105E+02 0.969E+02 0.255E+04   -.527E+00 -.106E+01 0.265E+01   0.129E-01 -.879E-02 0.708E-01
   -.109E+02 -.951E+02 -.255E+04   0.105E+02 0.969E+02 0.255E+04   0.527E+00 -.106E+01 0.265E+01   -.117E-01 -.857E-02 0.715E-01
   0.179E-04 -.301E+02 -.261E+04   0.108E-03 0.303E+02 0.261E+04   0.293E-12 0.446E-01 0.199E+01   -.631E-02 -.968E-01 0.308E-01
   -.267E-04 0.506E+02 -.795E+03   0.380E-04 -.504E+02 0.797E+03   0.217E-11 0.330E+00 0.607E+00   0.186E-03 0.261E-01 0.367E-01
   -.185E+02 0.268E+02 -.172E+04   0.181E+02 -.239E+02 0.174E+04   0.451E+00 -.290E+01 -.235E+02   -.490E-01 0.225E-01 0.653E-01
   0.185E+02 0.268E+02 -.172E+04   -.181E+02 -.239E+02 0.174E+04   -.451E+00 -.290E+01 -.235E+02   0.488E-01 0.226E-01 0.651E-01
   0.660E-03 0.735E+01 0.526E+02   -.391E-13 0.185E-12 0.659E-11   -.480E-10 -.731E+01 -.511E+02   0.343E-01 0.213E-01 -.164E+01

 POSITION                                       TOTAL-FORCE (eV/Angst)
      0.00000      0.00000      5.28219        -0.000000     -0.000093     -0.027147
      2.93046      0.00000      5.28219         0.007195     -0.001202      0.035390
      5.86091      0.00000      5.28219        -0.007195     -0.001202      0.035390
      1.46523      2.53785      5.28219        -0.007929     -0.006978      0.018001
      4.39568      2.53785      5.28219        -0.000000     -0.008188      0.024003
      7.32614      2.53785      5.28219         0.007929     -0.006978      0.018001
      2.93046      5.07570      5.28219        -0.003098      0.005843      0.020581
      5.86091      5.07570      5.28219         0.003098      0.005843      0.020581
      8.79137      5.07570      5.28219        -0.000000     -0.000019      0.016498
      1.46523      0.84595      7.67490        -0.044884     -0.001554     -0.020150
      4.39568      0.84595      7.67490        -0.000000     -0.050585     -0.088323
      7.32614      0.84595      7.67490         0.044884     -0.001554     -0.020150
      2.93046      3.38380      7.67490        -0.023058      0.025103     -0.056593
      5.86091      3.38380      7.67490         0.023058      0.025103     -0.056593
      8.79137      3.38380      7.67490        -0.000000     -0.018999     -0.037990
      4.39568      5.92165      7.67490         0.000000      0.014529     -0.049993
      7.32614      5.92165      7.67490        -0.002728     -0.004284      0.002508
     10.25659      5.92165      7.67490         0.002728     -0.004284      0.002508
      8.79137      1.69074     10.05145         0.000000      0.121461      0.264828
      2.93556      1.69484     10.04095        -0.097968     -0.131269     -0.336776
      5.85581      1.69484     10.04095         0.097968     -0.131269     -0.336776
     10.25435      4.23104     10.05745         0.008648     -0.002691     -0.003945
      4.39568      4.22386     10.04095         0.000000      0.052303     -0.086183
      7.32838      4.23104     10.05745        -0.008648     -0.002691     -0.003945
     11.72283      6.76818     10.05145        -0.066114     -0.064689      0.139794
      5.85990      6.76818     10.05145         0.066114     -0.064689      0.139794
      8.79137      6.76501     10.05745         0.000000      0.056189      0.078472
      0.00000      0.00000     12.43413        -0.000000     -0.060494     -0.103894
      2.95009      0.02948     12.45917        -0.063771     -0.443382     -0.171532
      5.84128      0.02948     12.45917         0.063771     -0.443382     -0.171532
      1.50057      2.54011     12.45917        -1.830447     -0.516783     -0.679469
      7.29079      2.54011     12.45917         1.830447     -0.516783     -0.679469
      2.94617      5.04396     12.45917        -0.161434      0.743504     -0.142635
      5.84520      5.04396     12.45917         0.161434      0.743504     -0.142635
      8.79137      5.07570     12.45428         0.000000      0.149025     -0.105898
      4.39568      2.53785     12.30230         0.000000      0.548512      2.539527
      3.18187      2.98377     13.55508         0.006661     -0.003439     -0.017126
      5.60950      2.98377     13.55508        -0.006661     -0.003439     -0.017126
    total drift:                                0.034953      0.060622     -0.082877

  FREE ENERGIE OF THE ION-ELECTRON SYSTEM (eV)
  free  energy   TOTEN  =      -111.11871436 eV

  energy  without entropy=     -111.11871436  energy(sigma->0) =     -111.11871436

 stress matrix after NEB project (eV)
      2.62683     -0.00000      0.00000
     -0.00000     -3.28680      0.24177
      0.00000      0.24177     -0.16288
  FORCES: max atom, RMS     0.018695    0.004289
  FORCE total and by dimension    0.026438    0.017126
  Stress total and by dimension    4.224541    3.286799
|           W    W    AA    RRRRR   N    N  II  N    N   GGGG   !!!           |
|           W    W   A  A   R    R  NN   N  II  NN   N  G    G  !!!           |
|           W    W  A    A  R    R  N N  N  II  N N  N  G       !!!           |
|           W WW W  AAAAAA  RRRRR   N  N N  II  N  N N  G  GGG   !            |
|           WW  WW  A    A  R   R   N   NN  II  N   NN  G    G                |
|           W    W  A    A  R    R  N    N  II  N    N   GGGG   !!!           |
|     Tetrahedron method does not include variations of the Fermi             |
|     occupations, so forces and stress will be inaccurate. We suggest        |
|     using a different smearing scheme ISMEAR = 1 or 2 for metals in         |
|     relaxations.                                                            |

 total charge

# of ion       s       p       d       tot
    1        0.420   0.200   9.178   9.798
    2        0.414   0.205   9.176   9.794
    3        0.414   0.205   9.176   9.794
    4        0.416   0.203   9.177   9.796
    5        0.418   0.202   9.177   9.797
    6        0.416   0.203   9.177   9.796
    7        0.416   0.203   9.178   9.797
    8        0.416   0.203   9.178   9.797
    9        0.415   0.204   9.176   9.795
   10        0.407   0.270   9.164   9.841
   11        0.406   0.269   9.167   9.841
   12        0.407   0.270   9.164   9.841
   13        0.402   0.272   9.165   9.839
   14        0.402   0.272   9.165   9.839
   15        0.407   0.268   9.165   9.840
   16        0.408   0.270   9.162   9.840
   17        0.403   0.269   9.165   9.837
   18        0.403   0.269   9.165   9.837
   19        0.400   0.281   9.151   9.832
   20        0.436   0.288   9.148   9.871
   21        0.436   0.288   9.148   9.871
   22        0.402   0.271   9.165   9.837
   23        0.431   0.302   9.133   9.867
   24        0.402   0.271   9.165   9.837
   25        0.401   0.270   9.164   9.835
   26        0.401   0.270   9.164   9.835
   27        0.395   0.271   9.168   9.835
   28        0.412   0.198   9.183   9.793
   29        0.428   0.206   9.174   9.808
   30        0.428   0.206   9.174   9.808
   31        0.405   0.297   9.161   9.863
   32        0.405   0.297   9.161   9.863
   33        0.385   0.230   9.187   9.803
   34        0.385   0.230   9.187   9.803
   35        0.422   0.189   9.187   9.798
   36        0.563   0.803   2.824   4.191
   37        1.596   3.335   0.000   4.932
   38        1.596   3.335   0.000   4.932
tot         18.119  16.096 323.718 357.933

 BZINTS: Fermi energy:    0.266617;  401.000000 electrons
         Band energy:-0.159980E+04;  BLOECHL correction:   -0.036288