 vasp.6.2.0 18Jan21 (build Jun 12 2021 23:27:24) complex

 executed on             LinuxIFC date 2022.05.26  20:19:31

 INCAR:
   ISMEAR = -5
   SIGMA = 0.1
   ISPIN = 1
   EDIFF = 1.d-5
   EDIFFG = -0.01
   NSW = 0
   NELM = 150
   ENCUT = 500
   ISIF = 2
   IBRION = 2
   LREAL = Auto
   ALGO = Fast
   ICHARG = 11
   LORBIT = 10
   LCHARG = .F.
   LWAVE = .F.

 POTCAR:    PAW_PBE Ag 02Apr2005
 POTCAR:    PAW_PBE Ni 02Aug2007
|           W    W    AA    RRRRR   N    N  II  N    N   GGGG   !!!           |
|           W    W   A  A   R    R  NN   N  II  NN   N  G    G  !!!           |
|           W    W  A    A  R    R  N N  N  II  N N  N  G       !!!           |
|           W WW W  AAAAAA  RRRRR   N  N N  II  N  N N  G  GGG   !            |
|           WW  WW  A    A  R   R   N   NN  II  N   NN  G    G                |
|           W    W  A    A  R    R  N    N  II  N    N   GGGG   !!!           |
|     For optimal performance we recommend to set                             |
|       NCORE = 2 up to number-of-cores-per-socket                            |
|     This setting can greatly improve the performance of VASP for DFT.       |
|     The default, NCORE=1 might be grossly inefficient on modern             |
|     multi-core architectures or massively parallel machines. Do your        |
|     Unfortunately you need to use the default for GW and RPA                |
|     calculations (for HF NCORE is supported but not extensively tested      |
|     yet).                                                                   |

 POTCAR:    PAW_PBE Ag 02Apr2005
   VRHFIN =Ag : s1 d10

   TITEL  = PAW_PBE Ag 02Apr2005
   POMASS =  107.868; ZVAL   =   11.000    mass and valenz
   ENMAX  =  249.844; ENMIN  =  187.383 eV

 POTCAR:    PAW_PBE Ni 02Aug2007
   VRHFIN =Ni:

   TITEL  = PAW_PBE Ni 02Aug2007
   POMASS =   58.690; ZVAL   =   10.000    mass and valenz
   ENMAX  =  269.532; ENMIN  =  202.149 eV

 Optimization of the real space projectors (new method)

 maximal supplied QI-value         = 15.12
 optimisation between [QCUT,QGAM] = [ 11.34, 22.83] = [ 36.00,145.93] Ry
 Optimized for a Real-space Cutoff    1.43 Angstroem

   l    n(q)    QCUT    max X(q) W(low)/X(q) W(high)/X(q)  e(spline)
   2      9    11.338    53.897    0.16E-03    0.20E-03    0.28E-06
   2      9    11.338    52.416    0.16E-03    0.20E-03    0.29E-06
   0     10    11.338   122.045    0.31E-04    0.76E-04    0.15E-06
   0     10    11.338    73.629    0.30E-04    0.72E-04    0.15E-06
   1      9    11.338    15.255    0.20E-03    0.19E-04    0.17E-06
   1      9    11.338     9.562    0.16E-03    0.15E-04    0.14E-06
 Optimization of the real space projectors (new method)

 maximal supplied QI-value         = 16.25
 optimisation between [QCUT,QGAM] = [ 11.38, 22.75] = [ 36.24,144.96] Ry
 Optimized for a Real-space Cutoff    1.39 Angstroem

   l    n(q)    QCUT    max X(q) W(low)/X(q) W(high)/X(q)  e(spline)
   2      8    11.376    60.317    0.19E-03    0.33E-04    0.13E-06
   2      8    11.376    55.921    0.20E-03    0.34E-04    0.14E-06
   0      9    11.376    51.690    0.82E-04    0.12E-03    0.20E-06
   0      9    11.376    30.015    0.74E-04    0.11E-03    0.18E-06
   1      9    11.376    18.849    0.39E-03    0.12E-03    0.13E-06
   1      9    11.376    14.624    0.33E-03    0.10E-03    0.11E-06
  PAW_PBE Ag 02Apr2005                  :
  PAW_PBE Ni 02Aug2007                  :

 POSCAR: Ag-Ni
  positions in direct lattice
  velocities in cartesian coordinates
 exchange correlation table for  LEXCH =        8
   RHO(1)=    0.500       N(1)  =     2000
   RHO(2)=  100.500       N(2)  =     4000

 VTST: version 3.2, (02/03/18)

 CHAIN: initializing optimizer

 OPT: Using VASP Conjugate-Gradient optimizer
 CHAIN: Read ICHAIN            0

 POSCAR: Ag-Ni
  positions in direct lattice
  velocities in cartesian coordinates

 ion  position               nearest neighbor table
   1  0.000  0.000  0.238-   2 2.93   8 2.93   7 2.93   6 2.93   4 2.93  12 2.93  16 2.93  10 2.93
                             3 2.93
   2  0.333  0.000  0.238-   1 2.93   8 2.93   9 2.93   3 2.93   4 2.93   5 2.93  10 2.93  17 2.93
                            11 2.93
   3  0.667  0.000  0.238-   9 2.93   2 2.93   5 2.93  11 2.93   7 2.93  18 2.93   1 2.93   6 2.93
                            12 2.93
   4  0.000  0.333  0.238-   5 2.93   6 2.93   2 2.93   1 2.93   7 2.93  13 2.93  15 2.93   9 2.93
                            10 2.93
   5  0.333  0.333  0.238-   4 2.93   3 2.93   7 2.93   2 2.93   8 2.93  14 2.93  13 2.93  11 2.93
                             6 2.93
   6  0.667  0.333  0.238-   4 2.93   9 2.93   1 2.93  15 2.93   8 2.93  12 2.93   3 2.93   5 2.93
                            14 2.93
   7  0.000  0.667  0.238-   8 2.93   1 2.93   5 2.93   3 2.93   4 2.93  16 2.93  18 2.93  13 2.93
                             9 2.93
   8  0.333  0.667  0.238-   7 2.93   1 2.93   2 2.93   9 2.93   5 2.93  16 2.93   6 2.93  17 2.93
                            14 2.93
   9  0.667  0.667  0.238-   3 2.93   2 2.93   8 2.93   6 2.93  17 2.93   4 2.93  15 2.93   7 2.93
                            18 2.93
  10  0.111  0.111  0.346-  20 2.91  19 2.92  26 2.92  12 2.93  16 2.93  15 2.93  17 2.93  13 2.93
                            11 2.93   2 2.93   1 2.93   4 2.93
  11  0.444  0.111  0.346-  21 2.91  20 2.91  27 2.91  14 2.93  17 2.93  18 2.93   3 2.93  12 2.93
                            13 2.93  10 2.93   5 2.93   2 2.93
  12  0.778  0.111  0.346-  21 2.91  25 2.92  19 2.92  10 2.93  16 2.93  18 2.93  15 2.93  11 2.93
                             1 2.93  14 2.93   6 2.93   3 2.93
  13  0.111  0.444  0.346-  20 2.91  23 2.91  22 2.91  15 2.93  14 2.93  18 2.93  10 2.93  11 2.93
                            16 2.93   4 2.93   5 2.93   7 2.93
  14  0.444  0.444  0.346-  23 2.91  21 2.91  24 2.91  13 2.93  11 2.93  16 2.93   5 2.93  12 2.93
                            17 2.93   8 2.93  15 2.93   6 2.93
  15  0.778  0.444  0.346-  24 2.91  22 2.91  19 2.92  13 2.93  10 2.93  12 2.93  17 2.93  18 2.93
                             4 2.93   6 2.93   9 2.93  14 2.93
  16  0.111  0.778  0.346-  23 2.91  26 2.92  25 2.92  18 2.93  12 2.93  10 2.93  14 2.93  17 2.93
                            13 2.93   7 2.93   8 2.93   1 2.93
  17  0.444  0.778  0.346-  27 2.91  24 2.91  26 2.92  11 2.93  10 2.93   9 2.93  18 2.93  15 2.93
                            16 2.93   2 2.93  14 2.93   8 2.93
  18  0.778  0.778  0.346-  22 2.91  27 2.91  25 2.92  16 2.93  12 2.93  13 2.93  11 2.93  17 2.93
                            15 2.93   7 2.93   3 2.93   9 2.93
  19  0.889  0.223  0.454-  28 2.91  15 2.92  10 2.92  12 2.92  24 2.93  22 2.93  32 2.94  31 2.94
                            26 2.94  25 2.94  20 2.94  21 2.94
  20  0.223  0.223  0.453-  36 2.69  31 2.89  29 2.89  13 2.91  11 2.91  10 2.91  21 2.92  23 2.92
                            27 2.93  22 2.93  19 2.94  26 2.94
  21  0.554  0.223  0.453-  36 2.69  30 2.89  32 2.89  11 2.91  14 2.91  12 2.91  20 2.92  23 2.92
                            27 2.93  24 2.93  25 2.94  19 2.94
  22  0.889  0.556  0.453-  18 2.91  15 2.91  35 2.91  13 2.91  33 2.91  31 2.91  24 2.93  27 2.93
                            25 2.93  19 2.93  23 2.93  20 2.93
  23  0.223  0.554  0.453-  36 2.69  34 2.89  33 2.89  14 2.91  13 2.91  16 2.91  21 2.92  20 2.92
                            22 2.93  24 2.93  26 2.94  25 2.94
  24  0.556  0.556  0.453-  15 2.91  17 2.91  35 2.91  14 2.91  32 2.91  34 2.91  27 2.93  22 2.93
                            19 2.93  26 2.93  23 2.93  21 2.93
  25  0.889  0.889  0.454-  28 2.91  18 2.92  16 2.92  12 2.92  22 2.93  27 2.93  33 2.94  30 2.94
                            26 2.94  19 2.94  23 2.94  21 2.94
  26  0.223  0.889  0.454-  28 2.91  17 2.92  16 2.92  10 2.92  27 2.93  24 2.93  34 2.94  29 2.94
                            25 2.94  19 2.94  23 2.94  20 2.94
  27  0.556  0.889  0.453-  17 2.91  18 2.91  35 2.91  11 2.91  29 2.91  30 2.91  24 2.93  22 2.93
                            26 2.93  25 2.93  20 2.93  21 2.93
  28  0.000  0.000  0.560-  26 2.91  25 2.91  19 2.91  29 2.96  34 2.96  33 2.96  32 2.96  31 2.96
                            30 2.96
  29  0.333  0.007  0.560-  30 2.87  31 2.87  36 2.88  20 2.89  27 2.91  26 2.94  35 2.96  28 2.96
                            34 3.06
  30  0.659  0.007  0.560-  29 2.87  32 2.87  36 2.88  21 2.89  27 2.91  25 2.94  35 2.96  28 2.96
                            33 3.06
  31  0.007  0.333  0.560-  33 2.87  29 2.87  36 2.88  20 2.89  22 2.91  19 2.94  35 2.96  28 2.96
                            32 3.06
  32  0.659  0.333  0.560-  34 2.87  30 2.87  36 2.88  21 2.89  24 2.91  19 2.94  35 2.96  28 2.96
                            31 3.06
  33  0.007  0.659  0.560-  31 2.87  34 2.87  36 2.88  23 2.89  22 2.91  25 2.94  35 2.96  28 2.96
                            30 3.06
  34  0.333  0.659  0.560-  32 2.87  33 2.87  36 2.88  23 2.89  24 2.91  26 2.94  35 2.96  28 2.96
                            29 3.06
  35  0.667  0.667  0.560-  24 2.91  27 2.91  22 2.91  30 2.96  32 2.96  29 2.96  34 2.96  31 2.96
                            33 2.96
  36  0.333  0.333  0.547-  21 2.69  20 2.69  23 2.69  31 2.88  33 2.88  30 2.88  29 2.88  34 2.88
                            32 2.88

  LATTYP: Found a hexagonal cell.
 ALAT       =     8.7913665772
 C/A-ratio  =     2.5227160501

  Lattice vectors:

 A1 = (  -4.3956832886,  -7.6135467898,   0.0000000000)
 A2 = (   8.7913665771,   0.0000000000,   0.0000000000)
 A3 = (   0.0000000000,   0.0000000000,  22.1781215668)

Analysis of symmetry for initial positions (statically):
 Subroutine PRICEL returns:
 Original cell was already a primitive cell.

 Routine SETGRP: Setting up the symmetry group for a
 hexagonal supercell.

 Subroutine GETGRP returns: Found  6 space group operations
 (whereof  6 operations were pure point group operations)
 out of a pool of 24 trial point group operations.

The static configuration has the point symmetry C_3v.

Analysis of symmetry for dynamics (positions and initial velocities):
 Subroutine PRICEL returns:
 Original cell was already a primitive cell.

[...]

The dynamic configuration has the point symmetry C_3v.

Analysis of constrained symmetry for selective dynamics:
 Subroutine PRICEL returns:
 Original cell was already a primitive cell.

 Routine SETGRP: Setting up the symmetry group for a
 hexagonal supercell.

 Subroutine GETGRP returns: Found  6 space group operations
 (whereof  6 operations were pure point group operations)
 out of a pool of 24 trial point group operations.

The constrained configuration has the point symmetry C_3v.

 Subroutine INISYM returns: Found  6 space group operations
 (whereof  6 operations are pure point group operations),
 and found     1 'primitive' translations

                                     Primitive cell

  volume of cell :    1484.4589

  direct lattice vectors                    reciprocal lattice vectors
     8.791366577  0.000000000  0.000000000     0.113747958 -0.065672414  0.000000000
     4.395683289  7.613546790  0.000000000     0.000000000  0.131344829  0.000000000
[...]
     15      -4.7398      2.00000
     16      -4.7349      2.00000
     17      -4.7038      2.00000
     18      -4.6987      2.00000
     19      -4.6938      2.00000
     20      -4.6899      2.00000
     21      -4.6792      2.00000
     22      -4.6522      2.00000
     23      -4.6301      2.00000
     24      -4.6292      2.00000
     25      -4.5957      2.00000
     26      -4.5699      2.00000
     27      -4.5596      2.00000
     28      -4.5521      2.00000
     29      -4.5400      2.00000
     30      -4.5239      2.00000
     31      -4.5153      2.00000
     32      -4.4859      2.00000
     33      -4.4473      2.00000
     34      -4.4156      2.00000
     35      -4.3911      2.00000
     36      -4.3741      2.00000
     37      -4.3557      2.00000
     38      -4.3250      2.00000
     39      -4.3161      2.00000
     40      -4.3004      2.00000
     41      -4.2892      2.00000
     42      -4.2726      2.00000
     43      -4.2135      2.00000
     44      -4.1809      2.00000
     45      -4.1762      2.00000
     46      -4.1647      2.00000
     47      -4.1587      2.00000
     48      -4.1539      2.00000
     49      -4.1398      2.00000
     50      -4.1298      2.00000
     51      -4.1067      2.00000
     52      -4.1034      2.00000
     53      -4.0432      2.00000
     54      -4.0348      2.00000
     55      -4.0235      2.00000
     56      -4.0198      2.00000
     57      -4.0013      2.00000
     58      -3.9902      2.00000
     59      -3.9476      2.00000
     60      -3.9406      2.00000
[...]
    238       7.1840      0.00000
    239       7.1862      0.00000
    240       7.1962      0.00000
    241       7.2125      0.00000
    242       7.2938      0.00000
    243       7.3208      0.00000
    244       7.3583      0.00000
    245       7.5125      0.00000
    246       7.5395      0.00000
    247       7.5965      0.00000
    248       7.6307      0.00000
    249       7.6522      0.00000
    250       7.9082      0.00000
    251       7.9419      0.00000
    252       8.0984      0.00000

 soft charge-density along one line, spin component           1
         0         1         2         3         4         5         6         7         8         9
 total charge-density along one line

------------------------ aborting loop because EDIFF is reached ----------------------------------------

 total charge

# of ion       s       p       d       tot
    1        0.415   0.204   9.177   9.796
    2        0.417   0.203   9.177   9.797
    3        0.417   0.203   9.177   9.797
    4        0.417   0.203   9.177   9.797
    5        0.415   0.203   9.178   9.795
    6        0.417   0.203   9.177   9.797
    7        0.417   0.203   9.177   9.797
    8        0.417   0.203   9.177   9.797
    9        0.418   0.203   9.177   9.798
   10        0.406   0.269   9.164   9.839
   11        0.407   0.269   9.167   9.842
   12        0.406   0.269   9.164   9.839
   13        0.407   0.269   9.167   9.842
   14        0.407   0.269   9.167   9.842
   15        0.405   0.269   9.166   9.840
   16        0.406   0.269   9.164   9.839
   17        0.405   0.269   9.166   9.840
   18        0.405   0.269   9.166   9.840
   19        0.403   0.267   9.167   9.837
   20        0.415   0.287   9.156   9.858
   21        0.415   0.287   9.156   9.858
   22        0.402   0.273   9.166   9.841
   23        0.415   0.287   9.156   9.858
   24        0.402   0.273   9.166   9.841
   25        0.403   0.267   9.167   9.837
   26        0.403   0.267   9.167   9.837
   27        0.402   0.273   9.166   9.841
   28        0.412   0.195   9.180   9.787
   29        0.416   0.203   9.175   9.794
   30        0.416   0.203   9.175   9.794
   31        0.416   0.203   9.175   9.794
   32        0.416   0.203   9.175   9.794
   33        0.416   0.203   9.175   9.794
   34        0.416   0.203   9.175   9.794
   35        0.411   0.195   9.181   9.787
   36        0.377   0.200   8.412   8.990
tot         14.762   8.534 329.378 352.673

  FORCE on cell =-STRESS in cart. coord.  units (eV):
  Direction    XX          YY          ZZ          XY          YZ          ZX
  Alpha Z   733.71298   733.71298   733.71298
  Ewald  122209.57428122209.57430************     0.00002     0.00000    -0.00002
  Hartree132508.50907132508.50909************     0.00001     0.00000    -0.00001
  E(xc)   -2084.17328 -2084.17327 -2089.69293    -0.00001     0.00000     0.00000
  Local  ************************266127.28272     0.00041    -0.00004    -0.00004
  n-local  -343.67365  -324.53838  -338.99738    11.52402    -0.49062     0.62962
  augment  3396.78677  3396.78712  3406.22323    -0.00033    -0.00000    -0.00002
  Kinetic  4841.33960  4845.94920  4869.95793     5.12787     0.90068    -0.17220
  Fock        0.00000     0.00000     0.00000     0.00000     0.00000     0.00000
  Total      -9.49728    -9.49728    -0.79472    -0.00000    -0.00000     0.00000
  in kB     -10.25042   -10.25042    -0.85775    -0.00000    -0.00000     0.00000

 VOLUME and BASIS-vectors are now :
  energy-cutoff  :      500.00
  volume of cell :     1484.46
      direct lattice vectors                 reciprocal lattice vectors
     8.791366577  0.000000000  0.000000000     0.113747958 -0.065672414  0.000000000
     4.395683289  7.613546790  0.000000000     0.000000000  0.131344829  0.000000000
     0.000000000  0.000000000 22.178121567     0.000000000  0.000000000  0.045089481

  length of vectors
     8.791366577  8.791366577 22.178121567     0.131344829  0.131344829  0.045089481

 FORCES acting on ions
    electron-ion (+dipol)            ewald-force                    non-local-force                 convergence-correction
   0.460E-04 -.282E-04 0.251E+04   -.954E-04 0.593E-04 -.250E+04   0.157E-17 -.271E-17 -.192E+01   -.132E-03 -.177E-03 -.139E+00
   0.427E+00 0.463E+00 0.251E+04   -.532E+00 -.467E+00 -.251E+04   0.438E-01 -.102E-01 -.165E+01   0.567E-01 0.147E-01 -.970E-01
   -.427E+00 0.463E+00 0.251E+04   0.532E+00 -.466E+00 -.251E+04   -.438E-01 -.102E-01 -.165E+01   -.573E-01 0.167E-01 -.962E-01
   0.614E+00 0.139E+00 0.251E+04   -.670E+00 -.227E+00 -.251E+04   0.130E-01 0.430E-01 -.165E+01   0.413E-01 0.420E-01 -.970E-01
   -.764E-05 -.197E-04 0.251E+04   0.981E-04 -.200E-05 -.251E+04   -.377E-19 -.110E-19 -.165E+01   0.631E-02 0.384E-02 -.151E+00
   -.614E+00 0.139E+00 0.251E+04   0.670E+00 -.228E+00 -.251E+04   -.130E-01 0.430E-01 -.165E+01   -.427E-01 0.429E-01 -.960E-01
   0.187E+00 -.601E+00 0.251E+04   -.138E+00 0.694E+00 -.251E+04   -.307E-01 -.328E-01 -.165E+01   -.138E-01 -.574E-01 -.963E-01
   -.187E+00 -.601E+00 0.251E+04   0.138E+00 0.694E+00 -.251E+04   0.307E-01 -.328E-01 -.165E+01   0.154E-01 -.584E-01 -.960E-01
   0.365E-04 -.131E-04 0.251E+04   0.792E-04 -.643E-04 -.250E+04   0.180E-17 0.718E-20 -.172E+01   -.671E-02 -.345E-02 -.748E-01
   0.459E+01 0.265E+01 0.837E+03   -.441E+01 -.255E+01 -.836E+03   -.134E+00 -.773E-01 -.650E+00   -.302E-01 -.174E-01 0.524E-01
   -.294E-04 0.514E+01 0.845E+03   0.418E-04 -.518E+01 -.845E+03   0.840E-13 0.128E-01 -.503E+00   0.643E-02 0.187E-01 0.715E-01
   -.459E+01 0.265E+01 0.837E+03   0.441E+01 -.255E+01 -.836E+03   0.134E+00 -.773E-01 -.650E+00   0.283E-01 -.159E-01 0.531E-01
   0.445E+01 -.257E+01 0.845E+03   -.449E+01 0.259E+01 -.845E+03   0.111E-01 -.640E-02 -.503E+00   0.193E-01 -.384E-02 0.714E-01
   -.445E+01 -.257E+01 0.845E+03   0.449E+01 0.259E+01 -.845E+03   -.111E-01 -.640E-02 -.503E+00   -.826E-02 -.458E-02 0.716E-01
   0.164E-04 0.142E+01 0.838E+03   -.109E-03 -.141E+01 -.837E+03   0.399E-13 0.608E-02 -.612E+00   -.206E-02 -.266E-01 0.552E-01
   -.821E-05 -.530E+01 0.837E+03   0.208E-04 0.510E+01 -.836E+03   0.102E-11 0.155E+00 -.650E+00   0.333E-03 0.325E-01 0.530E-01
   0.123E+01 -.712E+00 0.838E+03   -.122E+01 0.707E+00 -.837E+03   0.527E-02 -.304E-02 -.612E+00   -.240E-01 0.115E-01 0.553E-01
   -.123E+01 -.712E+00 0.838E+03   0.122E+01 0.707E+00 -.837E+03   -.527E-02 -.304E-02 -.612E+00   0.238E-01 0.138E-01 0.557E-01
   0.430E-04 0.283E+01 -.866E+03   -.129E-03 -.281E+01 0.865E+03   -.659E-13 -.100E-01 0.534E+00   -.210E-02 -.824E-02 0.143E+00
   0.305E+02 0.176E+02 -.824E+03   -.300E+02 -.173E+02 0.825E+03   -.568E+00 -.328E+00 -.480E+00   0.373E-01 0.211E-01 0.754E-01
   -.305E+02 0.176E+02 -.824E+03   0.300E+02 -.173E+02 0.825E+03   0.568E+00 -.328E+00 -.480E+00   -.262E-01 0.224E-01 0.755E-01
   0.104E+02 -.598E+01 -.854E+03   -.105E+02 0.608E+01 0.853E+03   0.154E+00 -.887E-01 0.481E+00   0.135E-01 -.762E-02 0.144E+00
   -.617E-04 -.353E+02 -.824E+03   0.464E-04 0.346E+02 0.825E+03   0.430E-11 0.655E+00 -.480E+00   0.682E-02 -.336E-01 0.746E-01
   -.104E+02 -.598E+01 -.854E+03   0.105E+02 0.608E+01 0.853E+03   -.154E+00 -.887E-01 0.481E+00   -.153E-01 -.854E-02 0.145E+00
   -.245E+01 -.141E+01 -.866E+03   0.243E+01 0.141E+01 0.865E+03   0.869E-02 0.501E-02 0.534E+00   0.791E-02 0.489E-02 0.143E+00
   0.245E+01 -.141E+01 -.866E+03   -.243E+01 0.141E+01 0.865E+03   -.869E-02 0.501E-02 0.534E+00   -.811E-02 0.229E-02 0.143E+00
   0.206E-04 0.120E+02 -.854E+03   0.110E-03 -.122E+02 0.853E+03   0.117E-11 0.177E+00 0.481E+00   -.596E-03 0.160E-01 0.145E+00
   0.548E-04 -.376E-04 -.253E+04   -.114E-03 0.774E-04 0.253E+04   0.230E-17 -.268E-18 0.201E+01   -.129E-02 0.521E-03 0.156E+00
   0.147E+02 0.251E+02 -.254E+04   -.143E+02 -.243E+02 0.253E+04   -.446E+00 -.717E+00 0.187E+01   -.333E-01 -.105E+00 0.820E-01
   -.147E+02 0.251E+02 -.254E+04   0.143E+02 -.243E+02 0.253E+04   0.446E+00 -.717E+00 0.187E+01   0.434E-01 -.102E+00 0.817E-01
   0.291E+02 0.214E+00 -.254E+04   -.282E+02 -.202E+00 0.253E+04   -.844E+00 -.277E-01 0.187E+01   -.113E+00 0.136E-01 0.820E-01
   -.291E+02 0.214E+00 -.254E+04   0.282E+02 -.202E+00 0.253E+04   0.844E+00 -.277E-01 0.187E+01   0.111E+00 0.144E-01 0.809E-01
   0.144E+02 -.253E+02 -.254E+04   -.139E+02 0.245E+02 0.253E+04   -.398E+00 0.745E+00 0.187E+01   -.670E-01 0.905E-01 0.816E-01
   -.144E+02 -.253E+02 -.254E+04   0.139E+02 0.245E+02 0.253E+04   0.398E+00 0.745E+00 0.187E+01   0.790E-01 0.888E-01 0.808E-01
   0.245E-04 -.140E-04 -.253E+04   0.105E-03 -.656E-04 0.252E+04   -.414E-18 0.103E-17 0.202E+01   -.794E-02 -.275E-02 0.737E-01
   -.514E-04 -.895E-05 -.222E+04   0.957E-04 0.140E-04 0.221E+04   -.274E-18 0.162E-17 0.220E+01   0.990E-02 0.453E-02 0.174E+00
   0.306E-03 -.711E-03 -.786E-01   0.649E-14 -.963E-13 -.409E-11   0.166E-15 0.225E-15 -.144E+01   0.471E-01 0.204E-01 0.158E+01

 POSITION                                       TOTAL-FORCE (eV/Angst)
      0.00000      0.00000      5.28219        -0.000000     -0.000000      0.041335
      2.93046      0.00000      5.28219        -0.003601      0.001604      0.032831
      5.86091      0.00000      5.28219         0.003601      0.001604      0.032831
      1.46523      2.53785      5.28219        -0.000412     -0.003920      0.032831
      4.39568      2.53785      5.28219        -0.000000     -0.000000      0.026660
      7.32614      2.53785      5.28219         0.000412     -0.003920      0.032831
      2.93046      5.07570      5.28219         0.003189      0.002317      0.032831
      5.86091      5.07570      5.28219        -0.003189      0.002317      0.032831
      8.79137      5.07570      5.28219        -0.000000     -0.000000      0.033263
      1.46523      0.84595      7.67490         0.015893      0.009176     -0.011331
      4.39568      0.84595      7.67490        -0.000000     -0.013544     -0.058258
      7.32614      0.84595      7.67490        -0.015893      0.009176     -0.011331
      2.93046      3.38380      7.67490        -0.011730      0.006772     -0.058258
      5.86091      3.38380      7.67490         0.011730      0.006772     -0.058258
      8.79137      3.38380      7.67490        -0.000000     -0.010422     -0.018659
      4.39568      5.92165      7.67490        -0.000000     -0.018351     -0.011331
      7.32614      5.92165      7.67490        -0.009026      0.005211     -0.018659
     10.25659      5.92165      7.67490         0.009026      0.005211     -0.018659
      8.79137      1.69533     10.05818        -0.000000     -0.002207      0.000604
      2.93805      1.69629     10.04232         0.001232      0.000711      0.002284
      5.85331      1.69629     10.04232        -0.001232      0.000711      0.002284
     10.25424      4.23111     10.04634        -0.008141      0.004700     -0.001019
      4.39568      4.22098     10.04232        -0.000000     -0.001423      0.002284
      7.32849      4.23111     10.04634         0.008141      0.004700     -0.001019
     11.71886      6.76588     10.05818         0.001911      0.001103      0.000604
      5.86388      6.76588     10.05818        -0.001911      0.001103      0.000604
      8.79137      6.76488     10.04634        -0.000000     -0.009400     -0.001019
      0.00000      0.00000     12.42348         0.000000     -0.000000     -0.000566
      2.96241      0.05505     12.41819         0.002604      0.001533     -0.008921
      5.82895      0.05505     12.41819        -0.002604      0.001533     -0.008921
      1.52888      2.53800     12.41819         0.002630      0.001488     -0.008921
      7.26249      2.53800     12.41819        -0.002630      0.001488     -0.008921
      2.96215      5.02050     12.41819         0.000026     -0.003022     -0.008921
      5.82922      5.02050     12.41819        -0.000026     -0.003022     -0.008921
      8.79137      5.07570     12.42030        -0.000000     -0.000000      0.002387
      4.39568      2.53785     12.13895        -0.000000     -0.000000      0.012602
    total drift:                                0.047448      0.019721      0.060310

  FREE ENERGIE OF THE ION-ELECTRON SYSTEM (eV)
  free  energy   TOTEN  =       -93.47118800 eV

  energy  without entropy=      -93.47118800  energy(sigma->0) =      -93.47118800

 stress matrix after NEB project (eV)
     -9.49728     -0.00000      0.00000
     -0.00000     -9.49728     -0.00000
      0.00000     -0.00000     -0.79472
  FORCES: max atom, RMS     0.012602    0.005278
  FORCE total and by dimension    0.031666    0.012602
  Stress total and by dimension   13.454677    9.497282
|           W    W    AA    RRRRR   N    N  II  N    N   GGGG   !!!           |
|           W    W   A  A   R    R  NN   N  II  NN   N  G    G  !!!           |
|           W    W  A    A  R    R  N N  N  II  N N  N  G       !!!           |
|           W WW W  AAAAAA  RRRRR   N  N N  II  N  N N  G  GGG   !            |
|           WW  WW  A    A  R   R   N   NN  II  N   NN  G    G                |
|           W    W  A    A  R    R  N    N  II  N    N   GGGG   !!!           |
|     Tetrahedron method does not include variations of the Fermi             |
|     occupations, so forces and stress will be inaccurate. We suggest        |
|     using a different smearing scheme ISMEAR = 1 or 2 for metals in         |
|     relaxations.                                                            |

 total charge

# of ion       s       p       d       tot
    1        0.415   0.204   9.177   9.796
    2        0.417   0.203   9.177   9.797
    3        0.417   0.203   9.177   9.797
    4        0.417   0.203   9.177   9.797
    5        0.415   0.203   9.178   9.795
    6        0.417   0.203   9.177   9.797
    7        0.417   0.203   9.177   9.797
    8        0.417   0.203   9.177   9.797
    9        0.418   0.203   9.177   9.798
   10        0.406   0.269   9.164   9.839
   11        0.407   0.269   9.167   9.842
   12        0.406   0.269   9.164   9.839
   13        0.407   0.269   9.167   9.842
   14        0.407   0.269   9.167   9.842
   15        0.405   0.269   9.166   9.840
   16        0.406   0.269   9.164   9.839
   17        0.405   0.269   9.166   9.840
   18        0.405   0.269   9.166   9.840
   19        0.403   0.267   9.167   9.837
   20        0.415   0.287   9.156   9.858
   21        0.415   0.287   9.156   9.858
   22        0.402   0.273   9.166   9.841
   23        0.415   0.287   9.156   9.858
   24        0.402   0.273   9.166   9.841
   25        0.403   0.267   9.167   9.837
   26        0.403   0.267   9.167   9.837
   27        0.402   0.273   9.166   9.841
   28        0.412   0.195   9.180   9.787
   29        0.416   0.203   9.175   9.794
   30        0.416   0.203   9.175   9.794
   31        0.416   0.203   9.175   9.794
   32        0.416   0.203   9.175   9.794
   33        0.416   0.203   9.175   9.794
   34        0.416   0.203   9.175   9.794
   35        0.411   0.195   9.181   9.787
   36        0.377   0.200   8.412   8.990
tot         14.762   8.534 329.378 352.673

 BZINTS: Fermi energy:    0.800977;  395.000000 electrons
         Band energy:-0.125786E+04;  BLOECHL correction:   -0.075093