 vasp.6.2.0 18Jan21 (build Jun 12 2021 23:27:24) complex

 executed on             LinuxIFC date 2022.05.28  01:38:09

 INCAR:
   ISMEAR = -5
   SIGMA = 0.1
   ISPIN = 1
   EDIFF = 1.d-5
   EDIFFG = -0.01
   NSW = 0
   NELM = 150
   ENCUT = 500
   ISIF = 2
   IBRION = 2
   LREAL = Auto
   ALGO = Fast
   ICHARG = 11
   LORBIT = 10
   LCHARG = .F.
   LWAVE = .F.

 POTCAR:    PAW_PBE Ag 02Apr2005
 POTCAR:    PAW_PBE Ni 02Aug2007
 POTCAR:    PAW_PBE H 15Jun2001
 POTCAR:    PAW_PBE O 08Apr2002
|           W    W    AA    RRRRR   N    N  II  N    N   GGGG   !!!           |
|           W    W   A  A   R    R  NN   N  II  NN   N  G    G  !!!           |
|           W    W  A    A  R    R  N N  N  II  N N  N  G       !!!           |
|           W WW W  AAAAAA  RRRRR   N  N N  II  N  N N  G  GGG   !            |
|           WW  WW  A    A  R   R   N   NN  II  N   NN  G    G                |
|           W    W  A    A  R    R  N    N  II  N    N   GGGG   !!!           |
|     For optimal performance we recommend to set                             |
|       NCORE = 2 up to number-of-cores-per-socket                            |
|     This setting can greatly improve the performance of VASP for DFT.       |
|     The default, NCORE=1 might be grossly inefficient on modern             |
|     multi-core architectures or massively parallel machines. Do your        |
|     Unfortunately you need to use the default for GW and RPA                |
|     calculations (for HF NCORE is supported but not extensively tested      |
|     yet).                                                                   |

 POTCAR:    PAW_PBE Ag 02Apr2005
   VRHFIN =Ag : s1 d10

   TITEL  = PAW_PBE Ag 02Apr2005
   POMASS =  107.868; ZVAL   =   11.000    mass and valenz
   ENMAX  =  249.844; ENMIN  =  187.383 eV

 POTCAR:    PAW_PBE Ni 02Aug2007
   VRHFIN =Ni:

   TITEL  = PAW_PBE Ni 02Aug2007
   POMASS =   58.690; ZVAL   =   10.000    mass and valenz
   ENMAX  =  269.532; ENMIN  =  202.149 eV

 POTCAR:    PAW_PBE H 15Jun2001
   VRHFIN =H: ultrasoft test

   TITEL  = PAW_PBE H 15Jun2001
   POMASS =    1.000; ZVAL   =    1.000    mass and valenz
   ENMAX  =  250.000; ENMIN  =  200.000 eV

 POTCAR:    PAW_PBE O 08Apr2002
   VRHFIN =O: s2p4

   TITEL  = PAW_PBE O 08Apr2002
   POMASS =   16.000; ZVAL   =    6.000    mass and valenz
   ENMAX  =  400.000; ENMIN  =  300.000 eV

 Optimization of the real space projectors (new method)

 maximal supplied QI-value         = 15.12
 optimisation between [QCUT,QGAM] = [ 11.34, 22.83] = [ 36.00,145.93] Ry
 Optimized for a Real-space Cutoff    1.43 Angstroem

   l    n(q)    QCUT    max X(q) W(low)/X(q) W(high)/X(q)  e(spline)
   2      9    11.338    53.897    0.16E-03    0.20E-03    0.28E-06
   2      9    11.338    52.416    0.16E-03    0.20E-03    0.29E-06
   0     10    11.338   122.045    0.31E-04    0.76E-04    0.15E-06
   0     10    11.338    73.629    0.30E-04    0.72E-04    0.15E-06
   1      9    11.338    15.255    0.20E-03    0.19E-04    0.17E-06
   1      9    11.338     9.562    0.16E-03    0.15E-04    0.14E-06
 Optimization of the real space projectors (new method)

[...]

   l    n(q)    QCUT    max X(q) W(low)/X(q) W(high)/X(q)  e(spline)
   0      8    11.287    19.460    0.40E-03    0.73E-03    0.16E-06
   0      8    11.287    12.209    0.38E-03    0.70E-03    0.15E-06
   1      7    11.287     4.655    0.22E-03    0.25E-04    0.22E-06
 Optimization of the real space projectors (new method)

 maximal supplied QI-value         = 24.76
 optimisation between [QCUT,QGAM] = [ 11.39, 22.77] = [ 36.31,145.25] Ry
 Optimized for a Real-space Cutoff    1.00 Angstroem

   l    n(q)    QCUT    max X(q) W(low)/X(q) W(high)/X(q)  e(spline)
   0      7    11.387    20.381    0.39E-03    0.13E-02    0.15E-06
   0      7    11.387    15.268    0.42E-03    0.14E-02    0.17E-06
   1      6    11.387     5.964    0.41E-03    0.11E-02    0.17E-06
   1      6    11.387     5.382    0.39E-03    0.87E-03    0.15E-06
  PAW_PBE Ag 02Apr2005                  :
  PAW_PBE Ni 02Aug2007                  :
  PAW_PBE H 15Jun2001                   :
  PAW_PBE O 08Apr2002                   :

 POSCAR: Ag-Ni-H2O
  positions in direct lattice
  velocities in cartesian coordinates
 exchange correlation table for  LEXCH =        8
   RHO(1)=    0.500       N(1)  =     2000
   RHO(2)=  100.500       N(2)  =     4000

 VTST: version 3.2, (02/03/18)

 CHAIN: initializing optimizer

 OPT: Using VASP Conjugate-Gradient optimizer
 CHAIN: Read ICHAIN            0

 POSCAR: Ag-Ni-H2O
  positions in direct lattice
  velocities in cartesian coordinates

 ion  position               nearest neighbor table
   1  0.000  0.000  0.212-   2 2.93   8 2.93   7 2.93   6 2.93   4 2.93  12 2.93  16 2.93  10 2.93
                             3 2.93
   2  0.333  0.000  0.212-   1 2.93   8 2.93   9 2.93   3 2.93   4 2.93   5 2.93  10 2.93  17 2.93
                            11 2.93
   3  0.667  0.000  0.212-   9 2.93   2 2.93   5 2.93  11 2.93   7 2.93  18 2.93   1 2.93   6 2.93
                            12 2.93
   4  0.000  0.333  0.212-   5 2.93   6 2.93   2 2.93   1 2.93   7 2.93  13 2.93  15 2.93   9 2.93
                            10 2.93
   5  0.333  0.333  0.212-   4 2.93   3 2.93   7 2.93   2 2.93   8 2.93  14 2.93  13 2.93  11 2.93
                             6 2.93
   6  0.667  0.333  0.212-   4 2.93   9 2.93   1 2.93  15 2.93   8 2.93  12 2.93   3 2.93   5 2.93
                            14 2.93
   7  0.000  0.667  0.212-   8 2.93   1 2.93   5 2.93   3 2.93   4 2.93  16 2.93  18 2.93  13 2.93
                             9 2.93
   8  0.333  0.667  0.212-   7 2.93   1 2.93   2 2.93   9 2.93   5 2.93  16 2.93   6 2.93  17 2.93
                            14 2.93
   9  0.667  0.667  0.212-   3 2.93   2 2.93   8 2.93   6 2.93  17 2.93   4 2.93  15 2.93   7 2.93
                            18 2.93
  10  0.111  0.111  0.308-  20 2.91  19 2.92  26 2.92  12 2.93  16 2.93  15 2.93  17 2.93  13 2.93
                            11 2.93   2 2.93   1 2.93   4 2.93
  11  0.444  0.111  0.308-  21 2.91  20 2.91  27 2.91  14 2.93  17 2.93  18 2.93   3 2.93  12 2.93
                            13 2.93  10 2.93   5 2.93   2 2.93
  12  0.778  0.111  0.308-  21 2.91  25 2.92  19 2.92  10 2.93  16 2.93  18 2.93  15 2.93  11 2.93
                             1 2.93  14 2.93   6 2.93   3 2.93
  13  0.111  0.444  0.308-  20 2.91  23 2.91  22 2.91  15 2.93  14 2.93  18 2.93  10 2.93  11 2.93
                            16 2.93   4 2.93   5 2.93   7 2.93
  14  0.444  0.444  0.308-  23 2.91  21 2.91  24 2.91  13 2.93  11 2.93  16 2.93   5 2.93  12 2.93
                            17 2.93   8 2.93  15 2.93   6 2.93
  15  0.778  0.444  0.308-  24 2.91  22 2.91  19 2.92  13 2.93  10 2.93  12 2.93  17 2.93  18 2.93
                             4 2.93   6 2.93   9 2.93  14 2.93
  16  0.111  0.778  0.308-  23 2.91  26 2.92  25 2.92  18 2.93  12 2.93  10 2.93  14 2.93  17 2.93
                            13 2.93   7 2.93   8 2.93   1 2.93
  17  0.444  0.778  0.308-  27 2.91  24 2.91  26 2.92  11 2.93  10 2.93   9 2.93  18 2.93  15 2.93
                            16 2.93   2 2.93  14 2.93   8 2.93
  18  0.778  0.778  0.308-  22 2.91  27 2.91  25 2.92  16 2.93  12 2.93  13 2.93  11 2.93  17 2.93
                            15 2.93   7 2.93   3 2.93   9 2.93
  19  0.889  0.223  0.403-  28 2.91  15 2.92  10 2.92  12 2.92  24 2.93  22 2.93  32 2.94  31 2.94
                            26 2.94  25 2.94  20 2.94  21 2.94
  20  0.223  0.223  0.402-  36 2.69  31 2.89  29 2.89  13 2.91  11 2.91  10 2.91  21 2.92  23 2.92
                            27 2.93  22 2.93  19 2.94  26 2.94
  21  0.554  0.223  0.402-  36 2.69  30 2.89  32 2.89  11 2.91  14 2.91  12 2.91  20 2.92  23 2.92
                            27 2.93  24 2.93  25 2.94  19 2.94
  22  0.889  0.556  0.403-  18 2.91  15 2.91  35 2.91  13 2.91  33 2.91  31 2.91  24 2.93  27 2.93
                            25 2.93  19 2.93  23 2.93  20 2.93
  23  0.223  0.554  0.402-  36 2.69  34 2.89  33 2.89  14 2.91  13 2.91  16 2.91  21 2.92  20 2.92
                            22 2.93  24 2.93  26 2.94  25 2.94
  24  0.556  0.556  0.403-  15 2.91  17 2.91  35 2.91  14 2.91  32 2.91  34 2.91  27 2.93  22 2.93
                            19 2.93  26 2.93  23 2.93  21 2.93
  25  0.889  0.889  0.403-  28 2.91  18 2.92  16 2.92  12 2.92  22 2.93  27 2.93  33 2.94  30 2.94
                            26 2.94  19 2.94  23 2.94  21 2.94
  26  0.223  0.889  0.403-  28 2.91  17 2.92  16 2.92  10 2.92  27 2.93  24 2.93  34 2.94  29 2.94
                            25 2.94  19 2.94  23 2.94  20 2.94
  27  0.556  0.889  0.403-  17 2.91  18 2.91  35 2.91  11 2.91  29 2.91  30 2.91  24 2.93  22 2.93
                            26 2.93  25 2.93  20 2.93  21 2.93
  28  0.000  0.000  0.498-  26 2.91  25 2.91  19 2.91  29 2.96  34 2.96  33 2.96  32 2.96  31 2.96
                            30 2.96
  29  0.333  0.007  0.498-  30 2.87  31 2.87  36 2.88  20 2.89  27 2.91  26 2.94  35 2.96  28 2.96
                            34 3.06
  30  0.659  0.007  0.498-  29 2.87  32 2.87  36 2.88  21 2.89  27 2.91  25 2.94  35 2.96  28 2.96
                            33 3.06
  31  0.007  0.333  0.498-  33 2.87  29 2.87  36 2.88  20 2.89  22 2.91  19 2.94  35 2.96  28 2.96
                            32 3.06
  32  0.659  0.333  0.498-  34 2.87  30 2.87  36 2.88  21 2.89  24 2.91  19 2.94  35 2.96  28 2.96
                            31 3.06
  33  0.007  0.659  0.498-  31 2.87  34 2.87  36 2.88  23 2.89  22 2.91  25 2.94  35 2.96  28 2.96
                            30 3.06
  34  0.333  0.659  0.498-  32 2.87  33 2.87  36 2.88  23 2.89  24 2.91  26 2.94  35 2.96  28 2.96
                            29 3.06
  35  0.667  0.667  0.498-  24 2.91  27 2.91  22 2.91  30 2.96  32 2.96  29 2.96  34 2.96  31 2.96
                            33 2.96
  36  0.333  0.333  0.486-  39 2.21  21 2.69  20 2.69  23 2.69  31 2.88  33 2.88  30 2.88  29 2.88
                            34 2.88  32 2.88
  37  0.218  0.385  0.585-  39 0.98
  38  0.394  0.388  0.585-  39 0.98
  39  0.342  0.315  0.575-  38 0.98  37 0.98  36 2.21

  LATTYP: Found a hexagonal cell.
 ALAT       =     8.7913665772
 C/A-ratio  =     2.8382349142

  Lattice vectors:

 A1 = (  -4.3956832886,  -7.6135467898,   0.0000000000)
 A2 = (   8.7913665771,   0.0000000000,   0.0000000000)
 A3 = (   0.0000000000,   0.0000000000,  24.9519635625)

Analysis of symmetry for initial positions (statically):
 Subroutine PRICEL returns:
 Original cell was already a primitive cell.

 Routine SETGRP: Setting up the symmetry group for a
 hexagonal supercell.

 Subroutine GETGRP returns: Found  1 space group operations
 (whereof  1 operations were pure point group operations)
 out of a pool of 24 trial point group operations.

The static configuration has the point symmetry C_1 .

Analysis of symmetry for dynamics (positions and initial velocities):
 Subroutine PRICEL returns:
 Original cell was already a primitive cell.

[...]

The dynamic configuration has the point symmetry C_1 .

Analysis of constrained symmetry for selective dynamics:
 Subroutine PRICEL returns:
 Original cell was already a primitive cell.
[...]
     41      -4.6815      2.00000
     42      -4.6721      2.00000
     43      -4.6629      2.00000
     44      -4.6439      2.00000
     45      -4.6395      2.00000
     46      -4.5756      2.00000
     47      -4.5558      2.00000
     48      -4.5316      2.00000
     49      -4.5251      2.00000
     50      -4.5160      2.00000
     51      -4.5086      2.00000
     52      -4.4962      2.00000
     53      -4.4882      2.00000
     54      -4.4678      2.00000
     55      -4.4597      2.00000
     56      -4.4557      2.00000
     57      -4.3959      2.00000
     58      -4.3877      2.00000
     59      -4.3781      2.00000
     60      -4.3727      2.00000
[...]
    238       5.7171      0.00000
    239       5.8032      0.00000
    240       5.8413      0.00000
    241       5.9724      0.00000
    242       6.1141      0.00000
    243       6.1512      0.00000
    244       6.2892      0.00000
    245       6.3736      0.00000
    246       6.4101      0.00000
    247       6.6233      0.00000
    248       6.6901      0.00000
    249       6.8257      0.00000
    250       6.8434      0.00000
    251       6.9961      0.00000
    252       7.2150      0.00000

 soft charge-density along one line, spin component           1
         0         1         2         3         4         5         6         7         8         9
 total charge-density along one line

------------------------ aborting loop because EDIFF is reached ----------------------------------------

 total charge

# of ion       s       p       d       tot
    1        0.415   0.204   9.177   9.796
    2        0.419   0.202   9.178   9.799
    3        0.419   0.202   9.178   9.799
    4        0.419   0.203   9.177   9.799
    5        0.414   0.204   9.177   9.796
    6        0.419   0.203   9.177   9.799
    7        0.419   0.203   9.177   9.799
    8        0.419   0.203   9.177   9.799
    9        0.416   0.203   9.178   9.797
   10        0.407   0.269   9.164   9.839
   11        0.407   0.268   9.167   9.842
   12        0.407   0.269   9.164   9.839
   13        0.408   0.267   9.167   9.843
   14        0.408   0.267   9.167   9.843
   15        0.403   0.270   9.166   9.839
   16        0.406   0.269   9.164   9.839
   17        0.403   0.270   9.166   9.839
   18        0.403   0.270   9.166   9.839
   19        0.405   0.266   9.167   9.839
   20        0.415   0.290   9.154   9.859
   21        0.415   0.290   9.154   9.859
   22        0.403   0.273   9.166   9.843
   23        0.416   0.290   9.154   9.860
   24        0.403   0.273   9.166   9.843
   25        0.404   0.267   9.167   9.838
   26        0.404   0.267   9.167   9.838
   27        0.401   0.275   9.165   9.841
   28        0.414   0.198   9.178   9.789
   29        0.415   0.200   9.181   9.797
   30        0.415   0.200   9.181   9.797
   31        0.423   0.207   9.175   9.804
   32        0.423   0.206   9.175   9.804
   33        0.421   0.208   9.174   9.803
   34        0.421   0.208   9.174   9.803
   35        0.411   0.199   9.179   9.788
   36        0.357   0.252   8.379   8.988
   37        0.608   0.117   0.000   0.725
   38        0.608   0.117   0.000   0.725
   39        1.571   3.592   0.000   5.163
tot         17.568  12.442 329.342 359.352

  FORCE on cell =-STRESS in cart. coord.  units (eV):
  Direction    XX          YY          ZZ          XY          YZ          ZX
  Alpha Z   672.12014   672.12014   672.12014
  Ewald  164216.73552164150.58481************     0.73147    19.39022    -0.00996
  Hartree174425.01071174412.12712************     0.14404     1.20357     0.00918
  E(xc)   -2120.40788 -2120.66676 -2125.80143     0.00275     0.06031     0.00045
  Local  ************************349754.45028    -0.66924   -13.61828    -0.01303
  n-local  -362.35185  -363.12123  -368.03918     0.00872     0.05773     0.00351
  augment  3403.54734  3404.97751  3410.69320    -0.01576    -0.32277     0.00059
  Kinetic  4980.39333  4998.83783  5028.41930    -0.19919    -6.63928     0.01264
  Fock        0.00000     0.00000     0.00000     0.00000     0.00000     0.00000
  Total      -9.46989    -9.64525    -1.48045     0.00280     0.13149     0.00338
  in kB      -9.08463    -9.25286    -1.42022     0.00269     0.12614     0.00325

 VOLUME and BASIS-vectors are now :
  energy-cutoff  :      500.00
  volume of cell :     1670.12
      direct lattice vectors                 reciprocal lattice vectors
     8.791366577  0.000000000  0.000000000     0.113747958 -0.065672414  0.000000000
     4.395683289  7.613546790  0.000000000     0.000000000  0.131344829  0.000000000
     0.000000000  0.000000000 24.951963562     0.000000000  0.000000000  0.040077006

  length of vectors
     8.791366577  8.791366577 24.951963562     0.131344829  0.131344829  0.040077006

 FORCES acting on ions
    electron-ion (+dipol)            ewald-force                    non-local-force                 convergence-correction
   0.278E-02 -.533E-02 0.275E+04   -.307E-03 -.417E-02 -.275E+04   0.154E-03 0.254E-02 -.210E+01   -.254E-02 0.436E-02 -.420E-01
   0.536E+00 0.681E+00 0.275E+04   -.627E+00 -.630E+00 -.275E+04   0.250E-01 -.506E-01 -.164E+01   0.630E-01 0.102E-01 -.559E-01
   -.537E+00 0.670E+00 0.275E+04   0.627E+00 -.630E+00 -.275E+04   -.249E-01 -.506E-01 -.164E+01   -.616E-01 0.210E-01 -.530E-01
   0.881E+00 0.182E+00 0.275E+04   -.856E+00 -.226E+00 -.275E+04   -.441E-01 0.393E-01 -.161E+01   0.283E-01 0.221E-02 -.453E-01
   -.150E-01 0.201E-01 0.275E+04   0.433E-03 0.434E-02 -.275E+04   -.231E-02 0.599E-03 -.168E+01   0.170E-01 -.190E-01 -.695E-01
   -.871E+00 0.180E+00 0.275E+04   0.856E+00 -.226E+00 -.275E+04   0.442E-01 0.391E-01 -.161E+01   -.380E-01 0.531E-02 -.397E-01
   0.285E+00 -.853E+00 0.275E+04   -.228E+00 0.856E+00 -.275E+04   -.491E-01 0.128E-01 -.160E+01   0.382E-02 -.235E-01 -.263E-01
   -.293E+00 -.846E+00 0.275E+04   0.229E+00 0.856E+00 -.275E+04   0.489E-01 0.132E-01 -.160E+01   0.429E-02 -.304E-01 -.240E-01
   0.132E-01 -.368E-01 0.275E+04   -.384E-04 -.181E-04 -.275E+04   0.235E-02 -.140E-02 -.183E+01   -.157E-01 0.329E-01 -.242E-01
   0.565E+01 0.330E+01 0.959E+03   -.543E+01 -.315E+01 -.959E+03   -.214E+00 -.121E+00 -.732E+00   0.187E-01 -.139E-01 0.802E-01
   -.172E-01 0.652E+01 0.970E+03   0.215E-02 -.666E+01 -.970E+03   -.202E-02 0.488E-01 -.574E+00   0.173E-01 0.596E-01 0.100E+00
   -.564E+01 0.329E+01 0.959E+03   0.543E+01 -.314E+01 -.959E+03   0.213E+00 -.122E+00 -.734E+00   -.296E-01 -.521E-02 0.832E-01
   0.562E+01 -.329E+01 0.970E+03   -.575E+01 0.336E+01 -.970E+03   0.305E-01 -.274E-01 -.533E+00   0.835E-01 -.246E-01 0.117E+00
   -.564E+01 -.329E+01 0.970E+03   0.576E+01 0.336E+01 -.970E+03   -.353E-01 -.273E-01 -.535E+00   -.579E-01 -.289E-01 0.118E+00
   0.137E-01 0.116E+01 0.960E+03   -.219E-02 -.115E+01 -.960E+03   0.723E-03 -.203E-01 -.546E+00   -.123E-01 0.205E-02 0.729E-01
   -.248E-02 -.652E+01 0.959E+03   0.623E-04 0.624E+01 -.959E+03   -.139E-03 0.261E+00 -.671E+00   0.252E-02 -.157E-01 0.969E-01
   0.106E+01 -.580E+00 0.960E+03   -.103E+01 0.570E+00 -.960E+03   -.299E-01 0.336E-02 -.595E+00   -.673E-02 0.128E-01 0.694E-01
   -.105E+01 -.595E+00 0.960E+03   0.103E+01 0.572E+00 -.960E+03   0.298E-01 0.298E-02 -.596E+00   0.427E-02 0.260E-01 0.704E-01
   0.294E-01 0.441E+01 -.867E+03   -.161E-01 -.439E+01 0.866E+03   -.763E-03 -.574E-02 0.553E+00   -.127E-01 -.225E-01 0.260E+00
   0.402E+02 0.231E+02 -.807E+03   -.396E+02 -.228E+02 0.807E+03   -.782E+00 -.457E+00 -.770E+00   0.225E+00 0.113E+00 0.504E+00
   -.402E+02 0.231E+02 -.807E+03   0.396E+02 -.228E+02 0.807E+03   0.778E+00 -.457E+00 -.771E+00   -.199E+00 0.119E+00 0.505E+00
   0.168E+02 -.987E+01 -.851E+03   -.171E+02 0.100E+02 0.851E+03   0.206E+00 -.114E+00 0.506E+00   0.822E-01 -.383E-01 0.291E+00
   -.280E-01 -.466E+02 -.808E+03   0.113E-01 0.459E+02 0.808E+03   -.233E-02 0.889E+00 -.800E+00   0.193E-01 -.224E+00 0.491E+00
   -.168E+02 -.985E+01 -.851E+03   0.171E+02 0.100E+02 0.851E+03   -.206E+00 -.115E+00 0.506E+00   -.942E-01 -.447E-01 0.294E+00
   -.380E+01 -.206E+01 -.868E+03   0.386E+01 0.202E+01 0.867E+03   -.520E-01 0.360E-01 0.577E+00   0.119E-01 0.125E-01 0.246E+00
   0.381E+01 -.203E+01 -.868E+03   -.386E+01 0.200E+01 0.867E+03   0.515E-01 0.359E-01 0.576E+00   -.126E-01 -.291E-02 0.246E+00
   -.559E-02 0.196E+02 -.851E+03   0.550E-02 -.199E+02 0.851E+03   0.837E-03 0.217E+00 0.497E+00   -.793E-03 0.105E+00 0.289E+00
   0.476E-01 0.733E+00 -.268E+04   -.418E-01 -.706E+00 0.268E+04   0.728E-03 -.136E-01 0.179E+01   -.639E-02 -.122E-01 0.252E+00
   0.433E+02 0.747E+02 -.266E+04   -.432E+02 -.746E+02 0.266E+04   -.227E+00 -.430E+00 0.221E+01   0.144E+00 0.210E+00 0.232E+00
   -.433E+02 0.746E+02 -.266E+04   0.433E+02 -.745E+02 0.266E+04   0.222E+00 -.426E+00 0.222E+01   -.124E+00 0.224E+00 0.230E+00
   0.860E+02 0.351E+00 -.266E+04   -.857E+02 -.217E+00 0.266E+04   -.783E+00 -.850E-01 0.168E+01   0.241E+00 -.232E-01 0.221E+00
   -.858E+02 0.374E+00 -.266E+04   0.855E+02 -.242E+00 0.266E+04   0.778E+00 -.863E-01 0.169E+01   -.253E+00 -.195E-01 0.214E+00
   0.408E+02 -.740E+02 -.266E+04   -.407E+02 0.736E+02 0.266E+04   -.313E+00 0.711E+00 0.163E+01   0.148E+00 -.185E+00 0.219E+00
   -.408E+02 -.739E+02 -.266E+04   0.407E+02 0.735E+02 0.266E+04   0.310E+00 0.715E+00 0.162E+01   -.121E+00 -.196E+00 0.215E+00
   0.376E-01 -.320E+00 -.268E+04   -.195E-01 0.336E+00 0.268E+04   0.248E-02 -.389E-01 0.178E+01   -.207E-01 0.128E-01 0.260E+00
   -.173E+00 -.423E+01 -.216E+04   0.160E+00 0.435E+01 0.215E+04   -.820E-02 -.129E+00 0.281E+01   0.223E-01 -.955E-02 0.211E+00
   0.697E+02 -.440E+02 -.305E+03   -.765E+02 0.483E+02 0.307E+03   0.672E+01 -.428E+01 -.191E+01   0.224E-01 -.128E-01 -.277E-01
   -.686E+02 -.456E+02 -.305E+03   0.752E+02 0.500E+02 0.307E+03   -.661E+01 -.444E+01 -.194E+01   -.214E-01 -.134E-01 -.283E-01
   -.727E+00 0.569E+02 -.174E+04   0.124E+01 -.998E+02 0.173E+04   -.522E+00 0.429E+02 0.125E+02   0.545E-02 0.336E-01 -.300E+00
   0.370E+00 -.345E+02 -.115E+02   -.713E-13 0.284E-12 0.387E-11   -.443E+00 0.344E+02 0.615E+01   0.740E-01 0.412E-01 0.525E+01

 POSITION                                       TOTAL-FORCE (eV/Angst)
      0.00000      0.00000      5.28219         0.000058     -0.001293      0.050071
      2.93046      0.00000      5.28219        -0.003647      0.011886      0.028345
      5.86091      0.00000      5.28219         0.003461      0.011802      0.028267
      1.46523      2.53785      5.28219         0.009460     -0.000775      0.029563
      4.39568      2.53785      5.28219         0.000079      0.007354      0.013772
      7.32614      2.53785      5.28219        -0.009429     -0.000728      0.029634
      2.93046      5.07570      5.28219         0.011082     -0.005877      0.029753
      5.86091      5.07570      5.28219        -0.011192     -0.005788      0.029804
      8.79137      5.07570      5.28219        -0.000223     -0.004069      0.039864
      1.46523      0.84595      7.67490         0.024915      0.016698     -0.012898
      4.39568      0.84595      7.67490         0.000162     -0.030312     -0.078907
      7.32614      0.84595      7.67490        -0.024957      0.016680     -0.013121
      2.93046      3.38380      7.67490        -0.025061      0.014856     -0.078627
      5.86091      3.38380      7.67490         0.025504      0.014911     -0.078684
      8.79137      3.38380      7.67490        -0.000085     -0.010805     -0.007895
      4.39568      5.92165      7.67490        -0.000067     -0.027077     -0.004977
      7.32614      5.92165      7.67490        -0.007990      0.007599     -0.010688
     10.25659      5.92165      7.67490         0.007948      0.007638     -0.010800
      8.79137      1.69533     10.05818        -0.000230     -0.013518     -0.020614
      2.93805      1.69629     10.04232         0.027106      0.016477     -0.026889
      5.85331      1.69629     10.04232        -0.026499      0.016618     -0.026582
     10.25424      4.23111     10.04634         0.002456     -0.003633     -0.008373
      4.39568      4.22098     10.04232         0.000275     -0.038247     -0.028099
      7.32849      4.23111     10.04634        -0.002503     -0.003805     -0.008228
     11.71886      6.76588     10.05818         0.013483      0.012652     -0.013446
      5.86388      6.76588     10.05818        -0.013530      0.012628     -0.013782
      8.79137      6.76488     10.04634        -0.000078      0.011961      0.017089
      0.00000      0.00000     12.42348         0.000148      0.002076      0.016194
      2.96241      0.05505     12.41819        -0.077974     -0.127517     -0.079268
      5.82895      0.05505     12.41819         0.077769     -0.127292     -0.078783
      1.52888      2.53800     12.41819        -0.150665      0.027202     -0.078704
      7.26249      2.53800     12.41819         0.149956      0.027432     -0.078346
      2.96215      5.02050     12.41819        -0.074134      0.096187     -0.050772
      5.82922      5.02050     12.41819         0.074539      0.096579     -0.051207
      8.79137      5.07570     12.42030        -0.000206     -0.008964      0.018121
      4.39568      2.53785     12.13895         0.000595     -0.021592      0.564053
      3.60960      2.93417     14.58636        -0.003443     -0.000026     -0.009578
      5.16693      2.95215     14.59004         0.004525      0.000575     -0.010284
      4.39514      2.39930     14.34930        -0.001609      0.001508     -0.014980
    total drift:                                0.001195     -0.050887     -0.109314

  FREE ENERGIE OF THE ION-ELECTRON SYSTEM (eV)
  free  energy   TOTEN  =      -107.95564394 eV

  energy  without entropy=     -107.95564394  energy(sigma->0) =     -107.95564394

 stress matrix after NEB project (eV)
     -9.46989      0.00280      0.00338
      0.00280     -9.64525      0.13149
      0.00338      0.13149     -1.48045
  FORCES: max atom, RMS     0.015141    0.003432
  FORCE total and by dimension    0.021434    0.014980
  Stress total and by dimension   13.599120    9.645255
|           W    W    AA    RRRRR   N    N  II  N    N   GGGG   !!!           |
|           W    W   A  A   R    R  NN   N  II  NN   N  G    G  !!!           |
|           W    W  A    A  R    R  N N  N  II  N N  N  G       !!!           |
|           W WW W  AAAAAA  RRRRR   N  N N  II  N  N N  G  GGG   !            |
|           WW  WW  A    A  R   R   N   NN  II  N   NN  G    G                |
|           W    W  A    A  R    R  N    N  II  N    N   GGGG   !!!           |
|     Tetrahedron method does not include variations of the Fermi             |
|     occupations, so forces and stress will be inaccurate. We suggest        |
|     using a different smearing scheme ISMEAR = 1 or 2 for metals in         |
|     relaxations.                                                            |

 total charge

# of ion       s       p       d       tot
    1        0.415   0.204   9.177   9.796
    2        0.419   0.202   9.178   9.799
    3        0.419   0.202   9.178   9.799
    4        0.419   0.203   9.177   9.799
    5        0.414   0.204   9.177   9.796
    6        0.419   0.203   9.177   9.799
    7        0.419   0.203   9.177   9.799
    8        0.419   0.203   9.177   9.799
    9        0.416   0.203   9.178   9.797
   10        0.407   0.269   9.164   9.839
   11        0.407   0.268   9.167   9.842
   12        0.407   0.269   9.164   9.839
   13        0.408   0.267   9.167   9.843
   14        0.408   0.267   9.167   9.843
   15        0.403   0.270   9.166   9.839
   16        0.406   0.269   9.164   9.839
   17        0.403   0.270   9.166   9.839
   18        0.403   0.270   9.166   9.839
   19        0.405   0.266   9.167   9.839
   20        0.415   0.290   9.154   9.859
   21        0.415   0.290   9.154   9.859
   22        0.403   0.273   9.166   9.843
   23        0.416   0.290   9.154   9.860
   24        0.403   0.273   9.166   9.843
   25        0.404   0.267   9.167   9.838
   26        0.404   0.267   9.167   9.838
   27        0.401   0.275   9.165   9.841
   28        0.414   0.198   9.178   9.789
   29        0.415   0.200   9.181   9.797
   30        0.415   0.200   9.181   9.797
   31        0.423   0.207   9.175   9.804
   32        0.423   0.206   9.175   9.804
   33        0.421   0.208   9.174   9.803
   34        0.421   0.208   9.174   9.803
   35        0.411   0.199   9.179   9.788
   36        0.357   0.252   8.379   8.988
   37        0.608   0.117   0.000   0.725
   38        0.608   0.117   0.000   0.725
   39        1.571   3.592   0.000   5.163
tot         17.568  12.442 329.342 359.352

 BZINTS: Fermi energy:    0.460996;  403.000000 electrons
         Band energy:-0.148438E+04;  BLOECHL correction:   -0.060185