 vasp.6.2.0 18Jan21 (build Jun 12 2021 23:27:24) complex

 executed on             LinuxIFC date 2022.05.28  01:31:48

 INCAR:
   ISMEAR = -5
   SIGMA = 0.1
   ISPIN = 1
   EDIFF = 1.d-5
   EDIFFG = -0.01
   NSW = 0
   NELM = 150
   ENCUT = 500
   ISIF = 2
   IBRION = 2
   LREAL = Auto
   ALGO = Fast
   ICHARG = 11
   LORBIT = 10
   LCHARG = .F.
   LWAVE = .F.

 POTCAR:    PAW_PBE Ag 02Apr2005
 POTCAR:    PAW_PBE Fe 06Sep2000
 POTCAR:    PAW_PBE C 08Apr2002
 POTCAR:    PAW_PBE O 08Apr2002
|           W    W    AA    RRRRR   N    N  II  N    N   GGGG   !!!           |
|           W    W   A  A   R    R  NN   N  II  NN   N  G    G  !!!           |
|           W    W  A    A  R    R  N N  N  II  N N  N  G       !!!           |
|           W WW W  AAAAAA  RRRRR   N  N N  II  N  N N  G  GGG   !            |
|           WW  WW  A    A  R   R   N   NN  II  N   NN  G    G                |
|           W    W  A    A  R    R  N    N  II  N    N   GGGG   !!!           |
|     For optimal performance we recommend to set                             |
|       NCORE = 2 up to number-of-cores-per-socket                            |
|     This setting can greatly improve the performance of VASP for DFT.       |
|     The default, NCORE=1 might be grossly inefficient on modern             |
|     multi-core architectures or massively parallel machines. Do your        |
|     Unfortunately you need to use the default for GW and RPA                |
|     calculations (for HF NCORE is supported but not extensively tested      |
|     yet).                                                                   |

 POTCAR:    PAW_PBE Ag 02Apr2005
   VRHFIN =Ag : s1 d10

   TITEL  = PAW_PBE Ag 02Apr2005
   POMASS =  107.868; ZVAL   =   11.000    mass and valenz
   ENMAX  =  249.844; ENMIN  =  187.383 eV

 POTCAR:    PAW_PBE Fe 06Sep2000
   VRHFIN =Fe:  d7 s1

   TITEL  = PAW_PBE Fe 06Sep2000
   POMASS =   55.847; ZVAL   =    8.000    mass and valenz
   ENMAX  =  267.882; ENMIN  =  200.911 eV

 POTCAR:    PAW_PBE C 08Apr2002
   VRHFIN =C: s2p2

[...]

 POTCAR:    PAW_PBE O 08Apr2002
   VRHFIN =O: s2p4

   TITEL  = PAW_PBE O 08Apr2002
   POMASS =   16.000; ZVAL   =    6.000    mass and valenz
   ENMAX  =  400.000; ENMIN  =  300.000 eV

 Optimization of the real space projectors (new method)

 maximal supplied QI-value         = 15.12
 optimisation between [QCUT,QGAM] = [ 11.34, 22.83] = [ 36.00,145.93] Ry
 Optimized for a Real-space Cutoff    1.43 Angstroem

   l    n(q)    QCUT    max X(q) W(low)/X(q) W(high)/X(q)  e(spline)
   2      9    11.338    53.897    0.16E-03    0.20E-03    0.28E-06
   2      9    11.338    52.416    0.16E-03    0.20E-03    0.29E-06
   0     10    11.338   122.045    0.31E-04    0.76E-04    0.15E-06
   0     10    11.338    73.629    0.30E-04    0.72E-04    0.15E-06
   1      9    11.338    15.255    0.20E-03    0.19E-04    0.17E-06
   1      9    11.338     9.562    0.16E-03    0.15E-04    0.14E-06
 Optimization of the real space projectors (new method)

[...]

   l    n(q)    QCUT    max X(q) W(low)/X(q) W(high)/X(q)  e(spline)
   0      7    11.310   115.676    0.43E-03    0.13E-02    0.19E-06
   0      7    11.310    87.132    0.43E-03    0.13E-02    0.18E-06
   1      6    11.310     4.429    0.42E-03    0.74E-03    0.11E-06
   1      6    11.310     2.733    0.34E-03    0.55E-03    0.92E-07
 Optimization of the real space projectors (new method)

 maximal supplied QI-value         = 24.76
 optimisation between [QCUT,QGAM] = [ 11.39, 22.77] = [ 36.31,145.25] Ry
 Optimized for a Real-space Cutoff    1.00 Angstroem

   l    n(q)    QCUT    max X(q) W(low)/X(q) W(high)/X(q)  e(spline)
   0      7    11.387    20.381    0.39E-03    0.13E-02    0.15E-06
   0      7    11.387    15.268    0.42E-03    0.14E-02    0.17E-06
   1      6    11.387     5.964    0.41E-03    0.11E-02    0.17E-06
   1      6    11.387     5.382    0.39E-03    0.87E-03    0.15E-06
  PAW_PBE Ag 02Apr2005                  :
  PAW_PBE Fe 06Sep2000                  :
  PAW_PBE C 08Apr2002                   :
  PAW_PBE O 08Apr2002                   :

 POSCAR: Ag-Fe-CO2
  positions in direct lattice
  velocities in cartesian coordinates
 exchange correlation table for  LEXCH =        8
   RHO(1)=    0.500       N(1)  =     2000
   RHO(2)=  100.500       N(2)  =     4000

 VTST: version 3.2, (02/03/18)

 CHAIN: initializing optimizer

 OPT: Using VASP Conjugate-Gradient optimizer
 CHAIN: Read ICHAIN            0

 POSCAR: Ag-Fe-CO2
  positions in direct lattice
  velocities in cartesian coordinates

 ion  position               nearest neighbor table
   1  0.000  0.000  0.217-   2 2.93   8 2.93   7 2.93   6 2.93   4 2.93  12 2.93  16 2.93  10 2.93
                             3 2.93
   2  0.333  0.000  0.217-   1 2.93   8 2.93   9 2.93   3 2.93   4 2.93   5 2.93  10 2.93  17 2.93
                            11 2.93
   3  0.667  0.000  0.217-   9 2.93   2 2.93   5 2.93  11 2.93   7 2.93  18 2.93   1 2.93   6 2.93
                            12 2.93
   4  0.000  0.333  0.217-   5 2.93   6 2.93   2 2.93   1 2.93   7 2.93  13 2.93  15 2.93   9 2.93
                            10 2.93
   5  0.333  0.333  0.217-   4 2.93   3 2.93   7 2.93   2 2.93   8 2.93  14 2.93  13 2.93  11 2.93
                             6 2.93
   6  0.667  0.333  0.217-   4 2.93   9 2.93   1 2.93  15 2.93   8 2.93  12 2.93   3 2.93   5 2.93
                            14 2.93
   7  0.000  0.667  0.217-   8 2.93   1 2.93   5 2.93   3 2.93   4 2.93  16 2.93  18 2.93  13 2.93
                             9 2.93
   8  0.333  0.667  0.217-   7 2.93   1 2.93   2 2.93   9 2.93   5 2.93  16 2.93   6 2.93  17 2.93
                            14 2.93
   9  0.667  0.667  0.217-   3 2.93   2 2.93   8 2.93   6 2.93  17 2.93   4 2.93  15 2.93   7 2.93
                            18 2.93
  10  0.111  0.111  0.315-  20 2.92  19 2.93  26 2.93  12 2.93  16 2.93  15 2.93  17 2.93  13 2.93
                            11 2.93   2 2.93   1 2.93   4 2.93
  11  0.444  0.111  0.315-  21 2.90  20 2.90  27 2.92  14 2.93  17 2.93  18 2.93   3 2.93  12 2.93
                            13 2.93  10 2.93   5 2.93   2 2.93
  12  0.778  0.111  0.315-  21 2.92  25 2.93  19 2.93  10 2.93  16 2.93  18 2.93  15 2.93  11 2.93
                             1 2.93  14 2.93   6 2.93   3 2.93
  13  0.111  0.444  0.315-  20 2.90  23 2.90  22 2.92  15 2.93  14 2.93  18 2.93  10 2.93  11 2.93
                            16 2.93   4 2.93   5 2.93   7 2.93
  14  0.444  0.444  0.315-  23 2.90  21 2.90  24 2.92  13 2.93  11 2.93  16 2.93   5 2.93  12 2.93
                            17 2.93   8 2.93  15 2.93   6 2.93
  15  0.778  0.444  0.315-  24 2.92  22 2.92  19 2.93  13 2.93  10 2.93  12 2.93  17 2.93  18 2.93
                             4 2.93   6 2.93   9 2.93  14 2.93
  16  0.111  0.778  0.315-  23 2.92  26 2.93  25 2.93  18 2.93  12 2.93  10 2.93  14 2.93  17 2.93
                            13 2.93   7 2.93   8 2.93   1 2.93
  17  0.444  0.778  0.315-  27 2.92  24 2.92  26 2.93  11 2.93  10 2.93   9 2.93  18 2.93  15 2.93
                            16 2.93   2 2.93  14 2.93   8 2.93
  18  0.778  0.778  0.315-  22 2.92  27 2.92  25 2.93  16 2.93  12 2.93  13 2.93  11 2.93  17 2.93
                            15 2.93   7 2.93   3 2.93   9 2.93
  19  0.889  0.222  0.413-  28 2.91  15 2.93  10 2.93  12 2.93  24 2.93  22 2.93  26 2.93  25 2.93
                            20 2.94  21 2.94  32 2.94  31 2.94
  20  0.223  0.223  0.412-  36 2.70  31 2.89  29 2.89  13 2.90  11 2.90  21 2.91  23 2.91  10 2.92
                            27 2.94  22 2.94  19 2.94  26 2.94
  21  0.554  0.223  0.412-  36 2.70  30 2.89  32 2.89  11 2.90  14 2.90  20 2.91  23 2.91  12 2.92
                            27 2.94  24 2.94  25 2.94  19 2.94
  22  0.888  0.556  0.413-  35 2.91  18 2.92  15 2.92  33 2.92  31 2.92  13 2.92  24 2.92  27 2.92
                            25 2.93  19 2.93  23 2.94  20 2.94
  23  0.223  0.554  0.412-  36 2.70  34 2.89  33 2.89  14 2.90  13 2.90  21 2.91  20 2.91  16 2.92
                            22 2.94  24 2.94  26 2.94  25 2.94
  24  0.556  0.556  0.413-  35 2.91  15 2.92  17 2.92  32 2.92  34 2.92  14 2.92  27 2.92  22 2.92
                            19 2.93  26 2.93  23 2.94  21 2.94
  25  0.889  0.889  0.413-  28 2.91  18 2.93  16 2.93  12 2.93  22 2.93  27 2.93  26 2.93  19 2.93
                            23 2.94  21 2.94  33 2.94  30 2.94
  26  0.222  0.889  0.413-  28 2.91  17 2.93  16 2.93  10 2.93  27 2.93  24 2.93  25 2.93  19 2.93
                            23 2.94  20 2.94  34 2.94  29 2.94
  27  0.556  0.888  0.413-  35 2.91  17 2.92  18 2.92  29 2.92  30 2.92  11 2.92  24 2.92  22 2.92
                            26 2.93  25 2.93  20 2.94  21 2.94
  28  0.000  0.000  0.510-  26 2.91  25 2.91  19 2.91  29 2.97  34 2.97  33 2.97  32 2.97  31 2.97
                            30 2.97
  29  0.333  0.008  0.510-  31 2.86  30 2.86  36 2.87  20 2.89  27 2.92  26 2.94  28 2.97  35 2.97
                            34 3.07
  30  0.659  0.008  0.510-  32 2.86  29 2.86  36 2.87  21 2.89  27 2.92  25 2.94  28 2.97  35 2.97
                            33 3.07
  31  0.008  0.333  0.510-  38 2.69  29 2.86  33 2.86  36 2.87  20 2.89  22 2.92  19 2.94  28 2.97
                            35 2.97  32 3.07
  32  0.659  0.333  0.510-  39 2.69  30 2.86  34 2.86  36 2.87  21 2.89  24 2.92  19 2.94  28 2.97
                            35 2.97  31 3.07
  33  0.008  0.659  0.510-  34 2.86  31 2.86  36 2.87  23 2.89  22 2.92  25 2.94  28 2.97  35 2.97
                            30 3.07
  34  0.333  0.659  0.510-  33 2.86  32 2.86  36 2.87  23 2.89  24 2.92  26 2.94  28 2.97  35 2.97
                            29 3.07
  35  0.667  0.667  0.510-  24 2.91  27 2.91  22 2.91  32 2.97  30 2.97  29 2.97  34 2.97  31 2.97
                            33 2.97
  36  0.333  0.333  0.499-  37 1.89  21 2.70  20 2.70  23 2.70  31 2.87  30 2.87  33 2.87  29 2.87
                            34 2.87  32 2.87
  37  0.333  0.334  0.577-  38 1.25  39 1.25  36 1.89
  38  0.201  0.333  0.596-  37 1.25  31 2.69
  39  0.466  0.333  0.596-  37 1.25  32 2.69

  LATTYP: Found a hexagonal cell.
 ALAT       =     8.7913665772
 C/A-ratio  =     2.7703738524

  Lattice vectors:

 A1 = (  -4.3956832886,  -7.6135467898,   0.0000000000)
 A2 = (   8.7913665771,   0.0000000000,   0.0000000000)
 A3 = (   0.0000000000,   0.0000000000,  24.3553720923)

Analysis of symmetry for initial positions (statically):
 Subroutine PRICEL returns:
 Original cell was already a primitive cell.

 Routine SETGRP: Setting up the symmetry group for a
 hexagonal supercell.

 Subroutine GETGRP returns: Found  1 space group operations
 (whereof  1 operations were pure point group operations)
 out of a pool of 24 trial point group operations.

The static configuration has the point symmetry C_1 .

Analysis of symmetry for dynamics (positions and initial velocities):
 Subroutine PRICEL returns:
 Original cell was already a primitive cell.

[...]

The dynamic configuration has the point symmetry C_1 .

Analysis of constrained symmetry for selective dynamics:
 Subroutine PRICEL returns:
 Original cell was already a primitive cell.

[...]
     41      -5.0139      2.00000
     42      -4.9967      2.00000
     43      -4.9743      2.00000
     44      -4.9488      2.00000
     45      -4.9434      2.00000
     46      -4.9260      2.00000
     47      -4.9217      2.00000
     48      -4.9005      2.00000
     49      -4.8326      2.00000
     50      -4.8060      2.00000
     51      -4.7986      2.00000
     52      -4.7870      2.00000
     53      -4.7819      2.00000
     54      -4.7804      2.00000
     55      -4.7627      2.00000
     56      -4.7591      2.00000
     57      -4.7412      2.00000
     58      -4.7378      2.00000
     59      -4.6698      2.00000
     60      -4.6641      2.00000
[...]
    238       5.3069      0.00000
    239       5.4292      0.00000
    240       5.6435      0.00000
    241       5.6572      0.00000
    242       5.6987      0.00000
    243       5.7491      0.00000
    244       5.8245      0.00000
    245       5.8879      0.00000
    246       6.0312      0.00000
    247       6.5072      0.00000
    248       6.5572      0.00000
    249       6.6247      0.00000
    250       6.6376      0.00000
    251       6.6996      0.00000
    252       6.7149      0.00000

 soft charge-density along one line, spin component           1
         0         1         2         3         4         5         6         7         8         9
 total charge-density along one line

------------------------ aborting loop because EDIFF is reached ----------------------------------------

 total charge

# of ion       s       p       d       tot
    1        0.417   0.202   9.178   9.797
    2        0.416   0.203   9.177   9.796
    3        0.416   0.203   9.177   9.796
    4        0.416   0.203   9.178   9.796
    5        0.418   0.202   9.177   9.797
    6        0.416   0.203   9.178   9.796
    7        0.417   0.203   9.177   9.796
    8        0.417   0.203   9.177   9.796
    9        0.415   0.202   9.177   9.795
   10        0.406   0.270   9.163   9.839
   11        0.406   0.269   9.166   9.841
   12        0.406   0.270   9.163   9.839
   13        0.406   0.270   9.166   9.841
   14        0.406   0.269   9.166   9.841
   15        0.404   0.270   9.164   9.838
   16        0.404   0.269   9.164   9.837
   17        0.404   0.268   9.165   9.838
   18        0.404   0.268   9.165   9.838
   19        0.396   0.269   9.166   9.831
   20        0.422   0.295   9.149   9.866
   21        0.422   0.295   9.149   9.866
   22        0.396   0.275   9.166   9.837
   23        0.420   0.291   9.154   9.865
   24        0.396   0.275   9.166   9.837
   25        0.400   0.265   9.168   9.833
   26        0.400   0.265   9.168   9.833
   27        0.397   0.273   9.168   9.838
   28        0.414   0.192   9.182   9.788
   29        0.414   0.201   9.179   9.795
   30        0.414   0.201   9.179   9.795
   31        0.389   0.209   9.183   9.781
   32        0.389   0.209   9.183   9.781
   33        0.415   0.201   9.180   9.796
   34        0.415   0.201   9.180   9.795
   35        0.408   0.194   9.181   9.783
   36        0.394   0.313   6.443   7.150
   37        0.886   1.683   0.000   2.570
   38        1.596   3.473   0.000   5.069
   39        1.596   3.473   0.000   5.069
tot         18.775  17.300 327.418 363.492

  FORCE on cell =-STRESS in cart. coord.  units (eV):
  Direction    XX          YY          ZZ          XY          YZ          ZX
  Alpha Z   717.45596   717.45596   717.45596
  Ewald  154397.89264153708.39403************    -0.07380    -1.42867     0.13591
  Hartree164432.13884164077.34982************    -0.03704    -0.73363     0.08711
  E(xc)   -2141.67162 -2143.57402 -2148.23855    -0.00030    -0.00062     0.00168
  Local  ************************329125.42800     0.10759     2.33808    -0.20997
  n-local  -404.65519  -399.82140  -407.28217    -0.00249     0.26287    -0.01309
  augment  3267.42846  3270.64163  3280.40868     0.00054    -0.08398    -0.00382
  Kinetic  5136.32076  5180.90227  5199.92302     0.00550    -0.38538    -0.00960
  Fock        0.00000     0.00000     0.00000     0.00000     0.00000     0.00000
  Total      -7.18362    -6.67189    -0.67207    -0.00000    -0.03133    -0.01178
  in kB      -7.06018    -6.55724    -0.66052    -0.00000    -0.03079    -0.01158

 VOLUME and BASIS-vectors are now :
  energy-cutoff  :      500.00
  volume of cell :     1630.19
      direct lattice vectors                 reciprocal lattice vectors
     8.791366577  0.000000000  0.000000000     0.113747958 -0.065672414  0.000000000
     4.395683289  7.613546790  0.000000000     0.000000000  0.131344829  0.000000000
     0.000000000  0.000000000 24.355372092     0.000000000  0.000000000  0.041058703

  length of vectors
     8.791366577  8.791366577 24.355372092     0.131344829  0.131344829  0.041058703

 FORCES acting on ions
    electron-ion (+dipol)            ewald-force                    non-local-force                 convergence-correction
   0.319E-02 0.125E+00 0.272E+04   -.276E-03 -.497E-01 -.272E+04   -.497E-03 -.443E-01 -.197E+01   -.236E-02 -.329E-01 -.272E+00
   0.597E+00 0.817E+00 0.272E+04   -.595E+00 -.665E+00 -.272E+04   -.237E-01 -.230E-01 -.173E+01   0.243E-01 -.123E+00 -.190E+00
   -.599E+00 0.806E+00 0.272E+04   0.596E+00 -.665E+00 -.272E+04   0.242E-01 -.230E-01 -.173E+01   -.231E-01 -.113E+00 -.186E+00
   0.771E+00 0.159E+00 0.272E+04   -.832E+00 -.208E+00 -.272E+04   0.876E-01 0.292E-02 -.174E+01   -.266E-01 0.471E-01 -.213E+00
   -.134E-01 0.131E-01 0.272E+04   0.487E-03 0.278E-03 -.272E+04   -.282E-02 -.170E-02 -.154E+01   0.159E-01 -.170E-01 -.113E+00
   -.763E+00 0.156E+00 0.272E+04   0.831E+00 -.208E+00 -.272E+04   -.869E-01 0.270E-02 -.174E+01   0.181E-01 0.505E-01 -.208E+00
   0.318E+00 -.936E+00 0.272E+04   -.235E+00 0.873E+00 -.272E+04   0.138E-01 -.122E-02 -.166E+01   -.928E-01 0.619E-01 -.164E+00
   -.326E+00 -.929E+00 0.272E+04   0.235E+00 0.873E+00 -.272E+04   -.137E-01 -.851E-03 -.166E+01   0.101E+00 0.556E-01 -.163E+00
   0.132E-01 -.205E+00 0.272E+04   -.124E-03 0.494E-01 -.272E+04   0.236E-02 0.788E-01 -.181E+01   -.155E-01 0.725E-01 -.193E+00
   0.530E+01 0.358E+01 0.978E+03   -.511E+01 -.335E+01 -.977E+03   -.237E+00 -.172E+00 -.730E+00   0.449E-01 -.552E-01 -.113E+00
   -.179E-01 0.733E+01 0.989E+03   0.212E-02 -.724E+01 -.988E+03   -.172E-02 -.129E-01 -.710E+00   0.177E-01 -.752E-01 -.185E+00
   -.528E+01 0.357E+01 0.978E+03   0.511E+01 -.335E+01 -.977E+03   0.237E+00 -.172E+00 -.729E+00   -.554E-01 -.489E-01 -.110E+00
   0.581E+01 -.375E+01 0.989E+03   -.591E+01 0.369E+01 -.988E+03   0.550E-01 -.250E-02 -.569E+00   0.220E-01 0.676E-01 -.146E+00
   -.583E+01 -.374E+01 0.989E+03   0.591E+01 0.369E+01 -.988E+03   -.587E-01 -.250E-02 -.570E+00   0.187E-02 0.615E-01 -.148E+00
   0.133E-01 0.844E+00 0.980E+03   -.273E-02 -.110E+01 -.979E+03   0.290E-03 0.108E+00 -.811E+00   -.108E-01 0.125E+00 -.958E-01
   -.773E-03 -.612E+01 0.978E+03   0.590E-03 0.602E+01 -.977E+03   -.765E-04 0.159E+00 -.611E+00   0.212E-03 -.591E-01 -.118E+00
   0.969E+00 -.841E+00 0.979E+03   -.117E+01 0.818E+00 -.978E+03   0.115E+00 0.320E-01 -.624E+00   0.669E-01 -.806E-02 -.139E+00
   -.968E+00 -.856E+00 0.979E+03   0.117E+01 0.821E+00 -.978E+03   -.115E+00 0.314E-01 -.625E+00   -.667E-01 0.428E-02 -.134E+00
   0.332E-01 0.400E+01 -.797E+03   -.178E-01 -.427E+01 0.796E+03   0.194E-02 0.206E+00 0.737E+00   -.173E-01 0.783E-01 0.734E-01
   0.294E+02 0.194E+02 -.744E+03   -.283E+02 -.187E+02 0.745E+03   -.855E+00 -.568E+00 -.953E+00   -.260E+00 -.183E+00 -.344E+00
   -.294E+02 0.194E+02 -.744E+03   0.283E+02 -.187E+02 0.745E+03   0.852E+00 -.566E+00 -.950E+00   0.270E+00 -.184E+00 -.346E+00
   0.132E+02 -.103E+02 -.783E+03   -.133E+02 0.104E+02 0.782E+03   0.228E+00 -.213E+00 0.460E+00   -.781E-01 0.372E-01 -.665E-01
   -.204E-01 -.372E+02 -.747E+03   0.160E-01 0.361E+02 0.748E+03   -.959E-04 0.910E+00 -.578E+00   0.429E-02 0.326E+00 -.406E+00
   -.132E+02 -.102E+02 -.783E+03   0.133E+02 0.104E+02 0.782E+03   -.227E+00 -.213E+00 0.461E+00   0.754E-01 0.282E-01 -.664E-01
   -.220E+01 -.123E+00 -.801E+03   0.229E+01 0.240E+00 0.801E+03   -.584E-01 -.817E-01 0.743E+00   -.362E-01 -.293E-01 0.953E-02
   0.222E+01 -.970E-01 -.801E+03   -.229E+01 0.223E+00 0.801E+03   0.629E-01 -.815E-01 0.743E+00   0.162E-01 -.378E-01 0.118E-01
   -.802E-02 0.157E+02 -.786E+03   0.277E-02 -.158E+02 0.786E+03   -.188E-03 0.242E+00 0.610E+00   0.544E-02 -.931E-01 -.645E-01
   0.388E-01 0.119E+02 -.258E+04   -.371E-01 -.117E+02 0.257E+04   0.603E-03 -.187E+00 0.212E+01   -.238E-02 0.175E-01 0.424E-01
   0.436E+02 0.102E+03 -.253E+04   -.428E+02 -.101E+03 0.253E+04   -.743E+00 -.331E+00 0.246E+01   -.141E+00 -.311E+00 0.522E-01
   -.437E+02 0.102E+03 -.253E+04   0.428E+02 -.101E+03 0.253E+04   0.742E+00 -.331E+00 0.246E+01   0.143E+00 -.303E+00 0.485E-01
   0.121E+03 -.235E+00 -.249E+04   -.121E+03 0.330E+00 0.249E+04   0.196E-01 -.853E-01 0.302E+01   -.433E+00 0.269E-02 0.367E-01
   -.121E+03 -.245E+00 -.249E+04   0.121E+03 0.339E+00 0.249E+04   -.206E-01 -.856E-01 0.302E+01   0.427E+00 0.366E-02 0.333E-01
   0.440E+02 -.102E+03 -.253E+04   -.431E+02 0.101E+03 0.253E+04   -.577E+00 0.438E+00 0.243E+01   -.279E+00 0.371E+00 0.381E-01
   -.440E+02 -.102E+03 -.253E+04   0.432E+02 0.101E+03 0.253E+04   0.576E+00 0.438E+00 0.243E+01   0.285E+00 0.367E+00 0.387E-01
   0.531E-01 -.117E+02 -.258E+04   -.421E-01 0.116E+02 0.257E+04   0.235E-02 0.198E+00 0.221E+01   -.136E-01 -.966E-02 0.119E+00
   -.146E+00 0.426E+00 -.154E+04   0.133E+00 -.135E+00 0.154E+04   0.596E-02 -.210E+00 0.127E+01   0.101E-01 -.117E+00 -.541E-01
   -.116E-01 -.465E+01 -.103E+04   0.339E-02 0.490E+01 0.102E+04   -.155E-02 -.207E+00 0.714E+01   0.335E-02 -.266E-01 0.383E+00
   0.220E+03 0.174E+01 -.173E+04   -.264E+03 -.222E+01 0.175E+04   0.440E+02 0.492E+00 -.218E+02   -.197E+00 -.179E-01 0.216E+00
   -.220E+03 0.180E+01 -.173E+04   0.264E+03 -.229E+01 0.175E+04   -.441E+02 0.503E+00 -.218E+02   0.203E+00 -.224E-01 0.229E+00
   -.591E-02 -.150E+00 0.382E+02   0.000E+00 0.231E-12 -.209E-10   -.443E-02 0.228E+00 -.354E+02   0.435E-02 -.877E-01 -.291E+01

 POSITION                                       TOTAL-FORCE (eV/Angst)
      0.00000      0.00000      5.28219         0.000209     -0.001786      0.013872
      2.93046      0.00000      5.28219         0.002937      0.005897      0.031746
      5.86091      0.00000      5.28219        -0.002717      0.005856      0.031812
      1.46523      2.53785      5.28219         0.001049      0.001778      0.024966
      4.39568      2.53785      5.28219         0.000373     -0.005097     -0.015272
      7.32614      2.53785      5.28219        -0.000731      0.001807      0.025085
      2.93046      5.07570      5.28219         0.004462     -0.001401      0.029439
      5.86091      5.07570      5.28219        -0.004239     -0.001398      0.029499
      8.79137      5.07570      5.28219         0.000018     -0.003516      0.012540
      1.46523      0.84595      7.67490        -0.007088      0.004265      0.008848
      4.39568      0.84595      7.67490         0.000310     -0.003998     -0.056018
      7.32614      0.84595      7.67490         0.007495      0.004209      0.008802
      2.93046      3.38380      7.67490        -0.023414      0.006884     -0.057515
      5.86091      3.38380      7.67490         0.024198      0.006978     -0.057426
      8.79137      3.38380      7.67490         0.000210     -0.019831     -0.011470
      4.39568      5.92165      7.67490         0.000105     -0.001988      0.008390
      7.32614      5.92165      7.67490        -0.021245      0.000720      0.005733
     10.25659      5.92165      7.67490         0.021584      0.000604      0.005696
      8.79137      1.69341     10.06265         0.000086      0.009931      0.096467
      2.94295      1.69911     10.03964        -0.065957     -0.023838     -0.008761
      5.84841      1.69911     10.03964         0.066955     -0.024363     -0.009364
     10.25212      4.23233     10.05217         0.033616     -0.022991      0.025596
      4.39568      4.21532     10.03964        -0.000137      0.078929     -0.045916
      7.33061      4.23233     10.05217        -0.033387     -0.022909      0.025474
     11.72051      6.76684     10.06265        -0.008500      0.006478      0.022992
      5.86222      6.76684     10.06265         0.008293      0.006438      0.022950
      8.79137      6.76243     10.05217         0.000159      0.039107      0.008364
      0.00000      0.00000     12.42704         0.000050     -0.033670     -0.011587
      2.96539      0.06299     12.42777        -0.018890     -0.202280     -0.108138
      5.82597      0.06299     12.42777         0.019327     -0.202241     -0.108070
      1.53725      2.53661     12.42777        -0.155676      0.012740      0.042300
      7.25412      2.53661     12.42777         0.155943      0.012729      0.041416
      2.96754      5.01395     12.42777        -0.023111      0.182028     -0.097568
      5.82383      5.01395     12.42777         0.023531      0.181868     -0.097677
      8.79137      5.07570     12.42264        -0.000075      0.037769     -0.014848
      4.39568      2.53785     12.15183         0.003109     -0.036938      0.269615
      4.39420      2.54605     14.04434        -0.006295      0.010535     -0.087561
      3.23169      2.53203     14.51659        -0.005738     -0.004218     -0.001873
      5.55668      2.53175     14.51668         0.003182     -0.005086     -0.002534
    total drift:                               -0.005989     -0.010213     -0.077894

  FREE ENERGIE OF THE ION-ELECTRON SYSTEM (eV)
  free  energy   TOTEN  =      -117.21449014 eV

  energy  without entropy=     -117.21449014  energy(sigma->0) =     -117.21449014

 stress matrix after NEB project (eV)
     -7.18362     -0.00000     -0.01178
     -0.00000     -6.67189     -0.03133
     -0.01178     -0.03133     -0.67207
  FORCES: max atom, RMS     0.088417    0.014245
  FORCE total and by dimension    0.088962    0.087561
  Stress total and by dimension    9.827128    7.183621
|           W    W    AA    RRRRR   N    N  II  N    N   GGGG   !!!           |
|           W    W   A  A   R    R  NN   N  II  NN   N  G    G  !!!           |
|           W    W  A    A  R    R  N N  N  II  N N  N  G       !!!           |
|           W WW W  AAAAAA  RRRRR   N  N N  II  N  N N  G  GGG   !            |
|           WW  WW  A    A  R   R   N   NN  II  N   NN  G    G                |
|           W    W  A    A  R    R  N    N  II  N    N   GGGG   !!!           |
|     Tetrahedron method does not include variations of the Fermi             |
|     occupations, so forces and stress will be inaccurate. We suggest        |
|     using a different smearing scheme ISMEAR = 1 or 2 for metals in         |
|     relaxations.                                                            |

 total charge

# of ion       s       p       d       tot
    1        0.417   0.202   9.178   9.797
    2        0.416   0.203   9.177   9.796
    3        0.416   0.203   9.177   9.796
    4        0.416   0.203   9.178   9.796
    5        0.418   0.202   9.177   9.797
    6        0.416   0.203   9.178   9.796
    7        0.417   0.203   9.177   9.796
    8        0.417   0.203   9.177   9.796
    9        0.415   0.202   9.177   9.795
   10        0.406   0.270   9.163   9.839
   11        0.406   0.269   9.166   9.841
   12        0.406   0.270   9.163   9.839
   13        0.406   0.270   9.166   9.841
   14        0.406   0.269   9.166   9.841
   15        0.404   0.270   9.164   9.838
   16        0.404   0.269   9.164   9.837
   17        0.404   0.268   9.165   9.838
   18        0.404   0.268   9.165   9.838
   19        0.396   0.269   9.166   9.831
   20        0.422   0.295   9.149   9.866
   21        0.422   0.295   9.149   9.866
   22        0.396   0.275   9.166   9.837
   23        0.420   0.291   9.154   9.865
   24        0.396   0.275   9.166   9.837
   25        0.400   0.265   9.168   9.833
   26        0.400   0.265   9.168   9.833
   27        0.397   0.273   9.168   9.838
   28        0.414   0.192   9.182   9.788
   29        0.414   0.201   9.179   9.795
   30        0.414   0.201   9.179   9.795
   31        0.389   0.209   9.183   9.781
   32        0.389   0.209   9.183   9.781
   33        0.415   0.201   9.180   9.796
   34        0.415   0.201   9.180   9.795
   35        0.408   0.194   9.181   9.783
   36        0.394   0.313   6.443   7.150
   37        0.886   1.683   0.000   2.570
   38        1.596   3.473   0.000   5.069
   39        1.596   3.473   0.000   5.069
tot         18.775  17.300 327.418 363.492

 BZINTS: Fermi energy:    0.187857;  409.000000 electrons
         Band energy:-0.165159E+04;  BLOECHL correction:   -0.033851