 vasp.6.2.0 18Jan21 (build Jun 12 2021 23:27:24) complex

 executed on             LinuxIFC date 2022.05.30  16:52:26

 INCAR:
   ISMEAR = -5
   SIGMA = 0.1
   ISPIN = 1
   EDIFF = 1.d-5
   EDIFFG = -0.01
   NSW = 0
   NELM = 150
   ENCUT = 500
   ISIF = 2
   IBRION = 2
   LREAL = Auto
   ALGO = Fast
   ICHARG = 11
   LORBIT = 10
   LCHARG = .F.
   LWAVE = .F.

 POTCAR:    PAW_PBE Ag 02Apr2005
 POTCAR:    PAW_PBE Cr 06Sep2000
 POTCAR:    PAW_PBE C 08Apr2002
 POTCAR:    PAW_PBE O 08Apr2002
 POTCAR:    PAW_PBE H 15Jun2001
|           W    W    AA    RRRRR   N    N  II  N    N   GGGG   !!!           |
|           W    W   A  A   R    R  NN   N  II  NN   N  G    G  !!!           |
|           W    W  A    A  R    R  N N  N  II  N N  N  G       !!!           |
|           W WW W  AAAAAA  RRRRR   N  N N  II  N  N N  G  GGG   !            |
|           WW  WW  A    A  R   R   N   NN  II  N   NN  G    G                |
|           W    W  A    A  R    R  N    N  II  N    N   GGGG   !!!           |
|     For optimal performance we recommend to set                             |
|       NCORE = 2 up to number-of-cores-per-socket                            |
|     This setting can greatly improve the performance of VASP for DFT.       |
|     The default, NCORE=1 might be grossly inefficient on modern             |
|     multi-core architectures or massively parallel machines. Do your        |
|     Unfortunately you need to use the default for GW and RPA                |
|     calculations (for HF NCORE is supported but not extensively tested      |
|     yet).                                                                   |

 POTCAR:    PAW_PBE Ag 02Apr2005
   VRHFIN =Ag : s1 d10

   TITEL  = PAW_PBE Ag 02Apr2005
   POMASS =  107.868; ZVAL   =   11.000    mass and valenz
   ENMAX  =  249.844; ENMIN  =  187.383 eV

 POTCAR:    PAW_PBE Cr 06Sep2000
   VRHFIN =Cr : d5 s1

   TITEL  = PAW_PBE Cr 06Sep2000
   POMASS =   51.996; ZVAL   =    6.000    mass and valenz
   ENMAX  =  227.080; ENMIN  =  170.310 eV

 POTCAR:    PAW_PBE C 08Apr2002
   VRHFIN =C: s2p2

[...]

 POTCAR:    PAW_PBE O 08Apr2002
   VRHFIN =O: s2p4

   TITEL  = PAW_PBE O 08Apr2002
   POMASS =   16.000; ZVAL   =    6.000    mass and valenz
   ENMAX  =  400.000; ENMIN  =  300.000 eV

 POTCAR:    PAW_PBE H 15Jun2001
   VRHFIN =H: ultrasoft test

   TITEL  = PAW_PBE H 15Jun2001
   POMASS =    1.000; ZVAL   =    1.000    mass and valenz
   ENMAX  =  250.000; ENMIN  =  200.000 eV

 Optimization of the real space projectors (new method)

 maximal supplied QI-value         = 15.12
 optimisation between [QCUT,QGAM] = [ 11.34, 22.83] = [ 36.00,145.93] Ry
 Optimized for a Real-space Cutoff    1.43 Angstroem

   l    n(q)    QCUT    max X(q) W(low)/X(q) W(high)/X(q)  e(spline)
   2      9    11.338    53.897    0.16E-03    0.20E-03    0.28E-06
   2      9    11.338    52.416    0.16E-03    0.20E-03    0.29E-06
   0     10    11.338   122.045    0.31E-04    0.76E-04    0.15E-06
   0     10    11.338    73.629    0.30E-04    0.72E-04    0.15E-06
   1      9    11.338    15.255    0.20E-03    0.19E-04    0.17E-06
   1      9    11.338     9.562    0.16E-03    0.15E-04    0.14E-06
 Optimization of the real space projectors (new method)

[...]

   l    n(q)    QCUT    max X(q) W(low)/X(q) W(high)/X(q)  e(spline)
   0      7    11.387    20.381    0.39E-03    0.13E-02    0.15E-06
   0      7    11.387    15.268    0.42E-03    0.14E-02    0.17E-06
   1      6    11.387     5.964    0.41E-03    0.11E-02    0.17E-06
   1      6    11.387     5.382    0.39E-03    0.87E-03    0.15E-06
 Optimization of the real space projectors (new method)

 maximal supplied QI-value         = 34.20
 optimisation between [QCUT,QGAM] = [ 11.29, 22.57] = [ 35.68,142.71] Ry
 Optimized for a Real-space Cutoff    1.16 Angstroem

   l    n(q)    QCUT    max X(q) W(low)/X(q) W(high)/X(q)  e(spline)
   0      8    11.287    19.460    0.40E-03    0.73E-03    0.16E-06
   0      8    11.287    12.209    0.38E-03    0.70E-03    0.15E-06
   1      7    11.287     4.655    0.22E-03    0.25E-04    0.22E-06
  PAW_PBE Ag 02Apr2005                  :
  PAW_PBE Cr 06Sep2000                  :
  PAW_PBE C 08Apr2002                   :
  PAW_PBE O 08Apr2002                   :
  PAW_PBE H 15Jun2001                   :

 POSCAR: Ag-Cr-COH
  positions in direct lattice
  velocities in cartesian coordinates
 exchange correlation table for  LEXCH =        8
   RHO(1)=    0.500       N(1)  =     2000
   RHO(2)=  100.500       N(2)  =     4000

 VTST: version 3.2, (02/03/18)

 CHAIN: initializing optimizer

 OPT: Using VASP Conjugate-Gradient optimizer
 CHAIN: Read ICHAIN            0

 POSCAR: Ag-Cr-COH
  positions in direct lattice
  velocities in cartesian coordinates

 ion  position               nearest neighbor table
   1  0.000  0.000  0.199-   2 2.93   8 2.93   7 2.93   6 2.93   4 2.93  12 2.93  16 2.93  10 2.93
                             3 2.93
   2  0.333  0.000  0.199-   1 2.93   8 2.93   9 2.93   3 2.93   4 2.93   5 2.93  10 2.93  17 2.93
                            11 2.93
   3  0.667  0.000  0.199-   9 2.93   2 2.93   5 2.93  11 2.93   7 2.93  18 2.93   1 2.93   6 2.93
                            12 2.93
   4  0.000  0.333  0.199-   5 2.93   6 2.93   2 2.93   1 2.93   7 2.93  13 2.93  15 2.93   9 2.93
                            10 2.93
   5  0.333  0.333  0.199-   4 2.93   3 2.93   7 2.93   2 2.93   8 2.93  14 2.93  13 2.93  11 2.93
                             6 2.93
   6  0.667  0.333  0.199-   4 2.93   9 2.93   1 2.93  15 2.93   8 2.93  12 2.93   3 2.93   5 2.93
                            14 2.93
   7  0.000  0.667  0.199-   8 2.93   1 2.93   5 2.93   3 2.93   4 2.93  16 2.93  18 2.93  13 2.93
                             9 2.93
   8  0.333  0.667  0.199-   7 2.93   1 2.93   2 2.93   9 2.93   5 2.93  16 2.93   6 2.93  17 2.93
                            14 2.93
   9  0.667  0.667  0.199-   3 2.93   2 2.93   8 2.93   6 2.93  17 2.93   4 2.93  15 2.93   7 2.93
                            18 2.93
  10  0.111  0.111  0.289-  20 2.91  19 2.92  26 2.92  12 2.93  16 2.93  15 2.93  17 2.93  13 2.93
                            11 2.93   2 2.93   1 2.93   4 2.93
  11  0.444  0.111  0.289-  21 2.90  20 2.90  27 2.92  14 2.93  17 2.93  18 2.93   3 2.93  12 2.93
                            13 2.93  10 2.93   5 2.93   2 2.93
  12  0.778  0.111  0.289-  21 2.91  25 2.92  19 2.92  10 2.93  16 2.93  18 2.93  15 2.93  11 2.93
                             1 2.93  14 2.93   6 2.93   3 2.93
  13  0.111  0.444  0.289-  20 2.90  23 2.90  22 2.92  15 2.93  14 2.93  18 2.93  10 2.93  11 2.93
                            16 2.93   4 2.93   5 2.93   7 2.93
  14  0.444  0.444  0.289-  23 2.90  21 2.90  24 2.92  13 2.93  11 2.93  16 2.93   5 2.93  12 2.93
                            17 2.93   8 2.93  15 2.93   6 2.93
  15  0.778  0.444  0.289-  24 2.92  22 2.92  19 2.92  13 2.93  10 2.93  12 2.93  17 2.93  18 2.93
                             4 2.93   6 2.93   9 2.93  14 2.93
  16  0.111  0.778  0.289-  23 2.91  26 2.92  25 2.92  18 2.93  12 2.93  10 2.93  14 2.93  17 2.93
                            13 2.93   7 2.93   8 2.93   1 2.93
  17  0.444  0.778  0.289-  27 2.92  24 2.92  26 2.92  11 2.93  10 2.93   9 2.93  18 2.93  15 2.93
                            16 2.93   2 2.93  14 2.93   8 2.93
  18  0.778  0.778  0.289-  22 2.92  27 2.92  25 2.92  16 2.93  12 2.93  13 2.93  11 2.93  17 2.93
                            15 2.93   7 2.93   3 2.93   9 2.93
  19  0.889  0.222  0.378-  28 2.91  15 2.92  10 2.92  12 2.92  24 2.93  22 2.93  26 2.93  25 2.93
                            20 2.94  21 2.94  32 2.96  31 2.96
  20  0.223  0.223  0.378-  36 2.73  13 2.90  11 2.90  21 2.91  23 2.91  10 2.91  31 2.91  29 2.91
                            27 2.93  22 2.93  19 2.94  26 2.94
  21  0.554  0.223  0.378-  36 2.73  11 2.90  14 2.90  20 2.91  23 2.91  12 2.91  30 2.91  32 2.91
                            27 2.93  24 2.93  25 2.94  19 2.94
  22  0.888  0.556  0.378-  35 2.91  18 2.92  15 2.92  13 2.92  24 2.92  27 2.92  25 2.93  19 2.93
                            33 2.93  31 2.93  23 2.93  20 2.93
  23  0.223  0.554  0.378-  36 2.73  14 2.90  13 2.90  21 2.91  20 2.91  16 2.91  34 2.91  33 2.91
                            22 2.93  24 2.93  26 2.94  25 2.94
  24  0.556  0.556  0.378-  35 2.91  15 2.92  17 2.92  14 2.92  27 2.92  22 2.92  19 2.93  26 2.93
                            32 2.93  34 2.93  23 2.93  21 2.93
  25  0.889  0.889  0.378-  28 2.91  18 2.92  16 2.92  12 2.92  22 2.93  27 2.93  26 2.93  19 2.93
                            23 2.94  21 2.94  33 2.96  30 2.96
  26  0.222  0.889  0.378-  28 2.91  17 2.92  16 2.92  10 2.92  27 2.93  24 2.93  25 2.93  19 2.93
                            23 2.94  20 2.94  34 2.96  29 2.96
  27  0.556  0.888  0.378-  35 2.91  17 2.92  18 2.92  11 2.92  24 2.92  22 2.92  26 2.93  25 2.93
                            29 2.93  30 2.93  20 2.93  21 2.93
  28  0.000  0.000  0.468-  26 2.91  25 2.91  19 2.91  29 2.96  34 2.96  33 2.96  32 2.96  31 2.96
                            30 2.96
  29  0.333  0.007  0.468-  30 2.87  31 2.87  36 2.88  20 2.91  27 2.93  26 2.96  35 2.96  28 2.96
                            34 3.06
  30  0.659  0.007  0.468-  29 2.87  32 2.87  36 2.88  21 2.91  27 2.93  25 2.96  35 2.96  28 2.96
                            33 3.06
  31  0.007  0.333  0.468-  33 2.87  29 2.87  36 2.88  20 2.91  22 2.93  19 2.96  35 2.96  28 2.96
                            32 3.06
  32  0.659  0.333  0.468-  34 2.87  30 2.87  36 2.88  21 2.91  24 2.93  19 2.96  35 2.96  28 2.96
                            31 3.06
  33  0.007  0.659  0.468-  31 2.87  34 2.87  36 2.88  23 2.91  22 2.93  25 2.96  35 2.96  28 2.96
                            30 3.06
  34  0.333  0.659  0.468-  32 2.87  33 2.87  36 2.88  23 2.91  24 2.93  26 2.96  35 2.96  28 2.96
                            29 3.06
  35  0.667  0.667  0.468-  24 2.91  27 2.91  22 2.91  30 2.96  32 2.96  29 2.96  34 2.96  31 2.96
                            33 2.96
  36  0.333  0.333  0.459-  37 1.71  21 2.73  20 2.73  23 2.73  31 2.88  33 2.88  30 2.88  29 2.88
                            34 2.88  32 2.88
  37  0.333  0.333  0.523-  38 1.28  36 1.71
  38  0.333  0.333  0.571-  39 0.96  37 1.28
  39  0.333  0.333  0.607-  38 0.96

  LATTYP: Found a hexagonal cell.
 ALAT       =     8.7913665772
 C/A-ratio  =     3.0233954145

  Lattice vectors:

 A1 = (  -4.3956832886,  -7.6135467898,   0.0000000000)
 A2 = (   8.7913665771,   0.0000000000,   0.0000000000)
 A3 = (   0.0000000000,   0.0000000000,  26.5797773968)

Analysis of symmetry for initial positions (statically):
 Subroutine PRICEL returns:
 Original cell was already a primitive cell.

 Routine SETGRP: Setting up the symmetry group for a
 hexagonal supercell.

 Subroutine GETGRP returns: Found  6 space group operations
 (whereof  6 operations were pure point group operations)
 out of a pool of 24 trial point group operations.

The static configuration has the point symmetry C_3v.

Analysis of symmetry for dynamics (positions and initial velocities):
 Subroutine PRICEL returns:
 Original cell was already a primitive cell.

[...]

[...]
     41      -4.7984      2.00000
     42      -4.7831      2.00000
     43      -4.7529      2.00000
     44      -4.7463      2.00000
     45      -4.7337      2.00000
     46      -4.7257      2.00000
     47      -4.7096      2.00000
     48      -4.6326      2.00000
     49      -4.6031      2.00000
     50      -4.5935      2.00000
     51      -4.5925      2.00000
     52      -4.5883      2.00000
     53      -4.5777      2.00000
     54      -4.5605      2.00000
     55      -4.5578      2.00000
     56      -4.5456      2.00000
     57      -4.5410      2.00000
     58      -4.4759      2.00000
     59      -4.4679      2.00000
     60      -4.4569      2.00000
[...]
    238       5.2515      0.00000
    239       5.3730      0.00000
    240       5.4113      0.00000
    241       5.5857      0.00000
    242       5.6700      0.00000
    243       5.7241      0.00000
    244       5.7538      0.00000
    245       5.8261      0.00000
    246       5.8456      0.00000
    247       5.8706      0.00000
    248       5.8984      0.00000
    249       6.1396      0.00000
    250       6.1668      0.00000
    251       6.6620      0.00000
    252       6.7818      0.00000

 soft charge-density along one line, spin component           1
         0         1         2         3         4         5         6         7         8         9
 total charge-density along one line

------------------------ aborting loop because EDIFF is reached ----------------------------------------

 total charge

# of ion       s       p       d       tot
    1        0.419   0.203   9.179   9.801
    2        0.419   0.204   9.177   9.800
    3        0.419   0.204   9.177   9.800
    4        0.419   0.204   9.177   9.800
    5        0.418   0.204   9.175   9.797
    6        0.419   0.204   9.177   9.800
    7        0.419   0.204   9.177   9.800
    8        0.419   0.204   9.177   9.800
    9        0.416   0.203   9.179   9.797
   10        0.408   0.270   9.165   9.842
   11        0.409   0.268   9.168   9.845
   12        0.408   0.270   9.165   9.842
   13        0.409   0.268   9.168   9.845
   14        0.409   0.268   9.168   9.845
   15        0.403   0.271   9.165   9.839
   16        0.408   0.270   9.165   9.842
   17        0.403   0.271   9.165   9.839
   18        0.403   0.271   9.165   9.839
   19        0.401   0.265   9.166   9.833
   20        0.432   0.293   9.144   9.869
   21        0.432   0.293   9.144   9.869
   22        0.396   0.275   9.164   9.835
   23        0.432   0.293   9.144   9.869
   24        0.396   0.275   9.164   9.835
   25        0.401   0.265   9.166   9.833
   26        0.401   0.265   9.166   9.833
   27        0.396   0.275   9.164   9.835
   28        0.416   0.197   9.178   9.791
   29        0.420   0.212   9.168   9.799
   30        0.420   0.212   9.168   9.799
   31        0.420   0.212   9.168   9.799
   32        0.420   0.212   9.168   9.799
   33        0.420   0.212   9.168   9.799
   34        0.420   0.212   9.168   9.799
   35        0.413   0.200   9.176   9.789
   36        0.449   0.555   4.481   5.484
   37        0.927   1.438   0.000   2.364
   38        1.520   3.761   0.000   5.281
   39        0.568   0.138   0.000   0.706
tot         17.921  14.325 325.351 357.598

  FORCE on cell =-STRESS in cart. coord.  units (eV):
  Direction    XX          YY          ZZ          XY          YZ          ZX
  Alpha Z   637.52324   637.52324   637.52324
  Ewald  185272.45948185272.45949************     0.00003    -0.00001     0.00005
  Hartree195365.43479195365.43480************     0.00001    -0.00000     0.00002
  E(xc)   -2102.56467 -2102.56483 -2107.81853     0.00013    -0.00001    -0.00002
  Local  ************************391537.74316     0.00063    -0.00007    -0.00020
  n-local  -364.26414  -346.99259  -358.98906    10.06009    -0.49860     0.61228
  augment  3255.04266  3255.04287  3262.85578    -0.00018    -0.00003    -0.00004
  Kinetic  5030.52429  5034.45608  4999.60258     4.10247     0.83454    -0.19939
  Fock        0.00000     0.00000     0.00000     0.00000     0.00000     0.00000
  Total      -9.72122    -9.72122    -0.57580    -0.00000     0.00000    -0.00000
  in kB      -8.75460    -8.75460    -0.51855    -0.00000     0.00000    -0.00000

 VOLUME and BASIS-vectors are now :
  energy-cutoff  :      500.00
  volume of cell :     1779.08
      direct lattice vectors                 reciprocal lattice vectors
     8.791366577  0.000000000  0.000000000     0.113747958 -0.065672414  0.000000000
     4.395683289  7.613546790  0.000000000     0.000000000  0.131344829  0.000000000
     0.000000000  0.000000000 26.579777397     0.000000000  0.000000000  0.037622587

  length of vectors
     8.791366577  8.791366577 26.579777397     0.131344829  0.131344829  0.037622587

 FORCES acting on ions
    electron-ion (+dipol)            ewald-force                    non-local-force                 convergence-correction
   0.456E-04 -.284E-04 0.283E+04   -.954E-04 0.593E-04 -.283E+04   -.313E-17 0.457E-17 -.206E+01   -.120E-03 -.176E-03 -.618E-01
   -.757E-02 0.320E+00 0.283E+04   -.254E+00 -.238E+00 -.283E+04   0.758E-01 0.364E-01 -.154E+01   0.185E+00 -.970E-01 0.216E-01
   0.767E-02 0.320E+00 0.283E+04   0.254E+00 -.238E+00 -.283E+04   -.758E-01 0.364E-01 -.154E+01   -.186E+00 -.952E-01 0.223E-01
   0.274E+00 -.167E+00 0.283E+04   -.333E+00 -.101E+00 -.283E+04   0.694E-01 0.475E-01 -.154E+01   0.875E-02 0.209E+00 0.216E-01
   -.402E-05 -.177E-04 0.283E+04   0.981E-04 -.200E-05 -.283E+04   -.262E-17 -.429E-18 -.127E+01   0.616E-02 0.377E-02 0.163E+00
   -.274E+00 -.167E+00 0.283E+04   0.333E+00 -.101E+00 -.283E+04   -.694E-01 0.475E-01 -.154E+01   -.101E-01 0.210E+00 0.223E-01
   0.281E+00 -.154E+00 0.283E+04   -.795E-01 0.339E+00 -.283E+04   -.638E-02 -.839E-01 -.154E+01   -.175E+00 -.113E+00 0.223E-01
   -.281E+00 -.154E+00 0.283E+04   0.794E-01 0.339E+00 -.283E+04   0.638E-02 -.839E-01 -.154E+01   0.176E+00 -.114E+00 0.223E-01
   0.370E-04 -.126E-04 0.283E+04   0.792E-04 -.643E-04 -.283E+04   0.186E-17 -.827E-18 -.192E+01   -.657E-02 -.338E-02 -.644E-01
   0.241E+01 0.139E+01 0.973E+03   -.225E+01 -.130E+01 -.974E+03   -.323E+00 -.187E+00 -.744E+00   0.164E+00 0.948E-01 0.101E+01
   -.292E-04 0.252E+01 0.977E+03   0.412E-04 -.288E+01 -.978E+03   0.110E-11 0.168E+00 -.438E+00   0.638E-02 0.151E+00 0.965E+00
   -.241E+01 0.139E+01 0.973E+03   0.225E+01 -.130E+01 -.974E+03   0.323E+00 -.187E+00 -.744E+00   -.166E+00 0.951E-01 0.101E+01
   0.219E+01 -.126E+01 0.977E+03   -.250E+01 0.144E+01 -.978E+03   0.145E+00 -.838E-01 -.438E+00   0.133E+00 -.697E-01 0.965E+00
   -.219E+01 -.126E+01 0.977E+03   0.250E+01 0.144E+01 -.978E+03   -.145E+00 -.838E-01 -.438E+00   -.123E+00 -.710E-01 0.963E+00
   0.154E-04 0.743E+00 0.974E+03   -.108E-03 -.866E+00 -.975E+03   0.406E-12 0.618E-01 -.773E+00   -.117E-02 0.511E-01 0.919E+00
   -.727E-05 -.278E+01 0.973E+03   0.207E-04 0.260E+01 -.974E+03   0.245E-11 0.374E+00 -.744E+00   -.454E-03 -.191E+00 0.101E+01
   0.644E+00 -.372E+00 0.974E+03   -.750E+00 0.433E+00 -.975E+03   0.536E-01 -.309E-01 -.773E+00   0.436E-01 -.266E-01 0.919E+00
   -.644E+00 -.372E+00 0.974E+03   0.750E+00 0.433E+00 -.975E+03   -.536E-01 -.309E-01 -.773E+00   -.431E-01 -.249E-01 0.921E+00
   0.395E-04 -.126E+01 -.908E+03   -.127E-03 0.990E+00 0.906E+03   0.694E-12 0.106E+00 0.813E+00   0.942E-03 0.167E+00 0.119E+01
   0.792E+00 0.457E+00 -.894E+03   -.253E+00 -.146E+00 0.894E+03   -.107E+01 -.616E+00 -.871E+00   0.426E+00 0.246E+00 0.166E+01
   -.792E+00 0.457E+00 -.894E+03   0.254E+00 -.146E+00 0.894E+03   0.107E+01 -.616E+00 -.871E+00   -.437E+00 0.244E+00 0.166E+01
   -.162E+00 0.936E-01 -.900E+03   -.303E+00 0.175E+00 0.898E+03   0.245E+00 -.141E+00 0.506E+00   0.250E+00 -.137E+00 0.116E+01
   -.553E-04 -.915E+00 -.894E+03   0.409E-04 0.292E+00 0.894E+03   0.809E-11 0.123E+01 -.871E+00   -.688E-02 -.499E+00 0.166E+01
   0.162E+00 0.937E-01 -.900E+03   0.303E+00 0.175E+00 0.898E+03   -.245E+00 -.141E+00 0.506E+00   -.238E+00 -.137E+00 0.116E+01
   0.109E+01 0.630E+00 -.908E+03   -.858E+00 -.495E+00 0.906E+03   -.915E-01 -.528E-01 0.813E+00   -.146E+00 -.847E-01 0.119E+01
   -.109E+01 0.630E+00 -.908E+03   0.857E+00 -.495E+00 0.906E+03   0.915E-01 -.528E-01 0.813E+00   0.145E+00 -.830E-01 0.119E+01
   0.198E-04 -.187E+00 -.900E+03   0.110E-03 -.349E+00 0.898E+03   0.185E-11 0.282E+00 0.506E+00   0.576E-02 0.285E+00 0.116E+01
   0.536E-04 -.368E-04 -.274E+04   -.115E-03 0.777E-04 0.274E+04   0.252E-17 -.254E-19 0.188E+01   0.285E-04 -.119E-03 0.459E+00
   0.194E+02 0.309E+02 -.272E+04   -.190E+02 -.305E+02 0.272E+04   -.696E+00 -.105E+01 0.194E+01   0.289E+00 0.574E+00 0.279E+00
   -.194E+02 0.309E+02 -.272E+04   0.190E+02 -.305E+02 0.272E+04   0.696E+00 -.105E+01 0.194E+01   -.290E+00 0.575E+00 0.279E+00
   0.365E+02 0.134E+01 -.272E+04   -.359E+02 -.123E+01 0.272E+04   -.126E+01 -.765E-01 0.194E+01   0.642E+00 -.366E-01 0.279E+00
   -.365E+02 0.134E+01 -.272E+04   0.359E+02 -.123E+01 0.272E+04   0.126E+01 -.765E-01 0.194E+01   -.642E+00 -.360E-01 0.281E+00
   0.171E+02 -.323E+02 -.272E+04   -.169E+02 0.317E+02 0.272E+04   -.563E+00 0.113E+01 0.194E+01   0.353E+00 -.537E+00 0.279E+00
   -.171E+02 -.323E+02 -.272E+04   0.169E+02 0.317E+02 0.272E+04   0.563E+00 0.113E+01 0.194E+01   -.352E+00 -.538E+00 0.281E+00
   0.232E-04 -.119E-04 -.274E+04   0.106E-03 -.660E-04 0.274E+04   -.141E-17 0.427E-18 0.189E+01   -.605E-02 -.306E-02 0.421E+00
   -.176E-04 -.525E-05 -.128E+04   0.576E-04 0.774E-05 0.129E+04   -.219E-18 -.122E-17 -.109E+01   0.135E-02 0.830E-03 0.292E+00
   -.102E-05 -.725E-04 -.104E+04   0.202E-04 0.313E-06 0.102E+04   -.303E-18 -.290E-18 0.204E+02   0.107E-02 0.658E-03 -.531E+00
   0.238E-03 -.901E-04 -.174E+04   0.985E-05 0.209E-07 0.174E+04   -.108E-17 -.374E-18 -.328E+01   0.379E-02 0.232E-02 -.458E+00
   0.657E-05 -.143E-04 -.335E+03   0.669E-06 -.260E-08 0.343E+03   -.578E-20 -.147E-19 -.870E+01   0.201E-03 0.123E-03 -.628E-01
   0.604E-03 -.860E-03 -.263E+02   -.196E-12 0.946E-13 0.773E-11   0.330E-15 -.147E-17 0.374E+01   0.132E-01 0.110E-01 0.227E+02

 POSITION                                       TOTAL-FORCE (eV/Angst)
      0.00000      0.00000      5.28219        -0.000000     -0.000000     -0.016517
      2.93046      0.00000      5.28219         0.000097      0.022359      0.027121
      5.86091      0.00000      5.28219        -0.000097      0.022359      0.027121
      1.46523      2.53785      5.28219         0.019412     -0.011095      0.027121
      4.39568      2.53785      5.28219        -0.000000     -0.000000     -0.013104
      7.32614      2.53785      5.28219        -0.019412     -0.011095      0.027121
      2.93046      5.07570      5.28219         0.019315     -0.011263      0.027121
      5.86091      5.07570      5.28219        -0.019315     -0.011263      0.027121
      8.79137      5.07570      5.28219        -0.000000     -0.000000      0.020760
      1.46523      0.84595      7.67490         0.002198      0.001269     -0.023607
      4.39568      0.84595      7.67490        -0.000000     -0.044374     -0.054083
      7.32614      0.84595      7.67490        -0.002198      0.001269     -0.023607
      2.93046      3.38380      7.67490        -0.038429      0.022187     -0.054083
      5.86091      3.38380      7.67490         0.038429      0.022187     -0.054083
      8.79137      3.38380      7.67490        -0.000000     -0.010420      0.004088
      4.39568      5.92165      7.67490        -0.000000     -0.002538     -0.023607
      7.32614      5.92165      7.67490        -0.009024      0.005210      0.004088
     10.25659      5.92165      7.67490         0.009024      0.005210      0.004088
      8.79137      1.69374     10.05841         0.000000      0.004497      0.040224
      2.93927      1.69699     10.03909        -0.098126     -0.056653     -0.161272
      5.85210      1.69699     10.03909         0.098126     -0.056653     -0.161272
     10.25385      4.23133     10.05420         0.023421     -0.013522      0.003577
      4.39568      4.21957     10.03909         0.000000      0.113306     -0.161272
      7.32888      4.23133     10.05420        -0.023421     -0.013522      0.003577
     11.72023      6.76668     10.05841        -0.003895     -0.002249      0.040224
      5.86251      6.76668     10.05841         0.003895     -0.002249      0.040224
      8.79137      6.76443     10.05420         0.000000      0.027044      0.003577
      0.00000      0.00000     12.42643        -0.000000     -0.000000     -0.030857
      2.96234      0.05459     12.44639        -0.013939     -0.020608     -0.036565
      5.82903      0.05459     12.44639         0.013939     -0.020608     -0.036565
      1.52844      2.53816     12.44639        -0.024816     -0.001767     -0.036565
      7.26292      2.53816     12.44639         0.024816     -0.001767     -0.036565
      2.96179      5.02079     12.44639        -0.010877      0.022375     -0.036565
      5.82958      5.02079     12.44639         0.010877      0.022375     -0.036565
      8.79137      5.07570     12.42906        -0.000000     -0.000000     -0.026339
      4.39568      2.53785     12.18689        -0.000000     -0.000000      0.653898
      4.39568      2.53785     13.90024        -0.000000     -0.000000      0.066460
      4.39568      2.53785     15.17588        -0.000000     -0.000000     -0.026694
      4.39568      2.53785     16.13157        -0.000000     -0.000000      0.002275
    total drift:                                0.013831      0.010171      0.175869

  FREE ENERGIE OF THE ION-ELECTRON SYSTEM (eV)
  free  energy   TOTEN  =      -113.99301278 eV

  energy  without entropy=     -113.99301278  energy(sigma->0) =     -113.99301278

 stress matrix after NEB project (eV)
     -9.72122     -0.00000     -0.00000
     -0.00000     -9.72122      0.00000
     -0.00000      0.00000     -0.57580
  FORCES: max atom, RMS     0.066460    0.011474
  FORCE total and by dimension    0.071657    0.066460
  Stress total and by dimension   13.759930    9.721217
|           W    W    AA    RRRRR   N    N  II  N    N   GGGG   !!!           |
|           W    W   A  A   R    R  NN   N  II  NN   N  G    G  !!!           |
|           W    W  A    A  R    R  N N  N  II  N N  N  G       !!!           |
|           W WW W  AAAAAA  RRRRR   N  N N  II  N  N N  G  GGG   !            |
|           WW  WW  A    A  R   R   N   NN  II  N   NN  G    G                |
|           W    W  A    A  R    R  N    N  II  N    N   GGGG   !!!           |
|     Tetrahedron method does not include variations of the Fermi             |
|     occupations, so forces and stress will be inaccurate. We suggest        |
|     using a different smearing scheme ISMEAR = 1 or 2 for metals in         |
|     relaxations.                                                            |

 total charge

# of ion       s       p       d       tot
    1        0.419   0.203   9.179   9.801
    2        0.419   0.204   9.177   9.800
    3        0.419   0.204   9.177   9.800
    4        0.419   0.204   9.177   9.800
    5        0.418   0.204   9.175   9.797
    6        0.419   0.204   9.177   9.800
    7        0.419   0.204   9.177   9.800
    8        0.419   0.204   9.177   9.800
    9        0.416   0.203   9.179   9.797
   10        0.408   0.270   9.165   9.842
   11        0.409   0.268   9.168   9.845
   12        0.408   0.270   9.165   9.842
   13        0.409   0.268   9.168   9.845
   14        0.409   0.268   9.168   9.845
   15        0.403   0.271   9.165   9.839
   16        0.408   0.270   9.165   9.842
   17        0.403   0.271   9.165   9.839
   18        0.403   0.271   9.165   9.839
   19        0.401   0.265   9.166   9.833
   20        0.432   0.293   9.144   9.869
   21        0.432   0.293   9.144   9.869
   22        0.396   0.275   9.164   9.835
   23        0.432   0.293   9.144   9.869
   24        0.396   0.275   9.164   9.835
   25        0.401   0.265   9.166   9.833
   26        0.401   0.265   9.166   9.833
   27        0.396   0.275   9.164   9.835
   28        0.416   0.197   9.178   9.791
   29        0.420   0.212   9.168   9.799
   30        0.420   0.212   9.168   9.799
   31        0.420   0.212   9.168   9.799
   32        0.420   0.212   9.168   9.799
   33        0.420   0.212   9.168   9.799
   34        0.420   0.212   9.168   9.799
   35        0.413   0.200   9.176   9.789
   36        0.449   0.555   4.481   5.484
   37        0.927   1.438   0.000   2.364
   38        1.520   3.761   0.000   5.281
   39        0.568   0.138   0.000   0.706
tot         17.921  14.325 325.351 357.598

 BZINTS: Fermi energy:    0.403194;  402.000000 electrons
         Band energy:-0.154293E+04;  BLOECHL correction:   -0.023475