 vasp.6.2.0 18Jan21 (build Jun 12 2021 23:27:24) complex

 executed on             LinuxIFC date 2022.05.26  20:26:52

 INCAR:
   ISMEAR = -5
   SIGMA = 0.1
   ISPIN = 1
   EDIFF = 1.d-5
   EDIFFG = -0.01
   NSW = 0
   NELM = 150
   ENCUT = 500
   ISIF = 2
   IBRION = 2
   LREAL = Auto
   ALGO = Fast
   ICHARG = 11
   LORBIT = 10
   LCHARG = .F.
   LWAVE = .F.

 POTCAR:    PAW_PBE Cu 22Jun2005
 POTCAR:    PAW_PBE Nb_sv 25May2007
|           W    W    AA    RRRRR   N    N  II  N    N   GGGG   !!!           |
|           W    W   A  A   R    R  NN   N  II  NN   N  G    G  !!!           |
|           W    W  A    A  R    R  N N  N  II  N N  N  G       !!!           |
|           W WW W  AAAAAA  RRRRR   N  N N  II  N  N N  G  GGG   !            |
|           WW  WW  A    A  R   R   N   NN  II  N   NN  G    G                |
|           W    W  A    A  R    R  N    N  II  N    N   GGGG   !!!           |
|     For optimal performance we recommend to set                             |
|       NCORE = 2 up to number-of-cores-per-socket                            |
|     This setting can greatly improve the performance of VASP for DFT.       |
|     The default, NCORE=1 might be grossly inefficient on modern             |
|     multi-core architectures or massively parallel machines. Do your        |
|     Unfortunately you need to use the default for GW and RPA                |
|     calculations (for HF NCORE is supported but not extensively tested      |
|     yet).                                                                   |

 POTCAR:    PAW_PBE Cu 22Jun2005
   VRHFIN =Cu: d10 p1

   TITEL  = PAW_PBE Cu 22Jun2005
   POMASS =   63.546; ZVAL   =   11.000    mass and valenz
   ENMAX  =  295.446; ENMIN  =  221.585 eV

 POTCAR:    PAW_PBE Nb_sv 25May2007
   VRHFIN =Nb: 4p5s4d

   TITEL  = PAW_PBE Nb_sv 25May2007
   POMASS =   92.910; ZVAL   =   13.000    mass and valenz
   ENMAX  =  293.235; ENMIN  =  219.927 eV

 Optimization of the real space projectors (new method)

 maximal supplied QI-value         = 16.25
 optimisation between [QCUT,QGAM] = [ 11.38, 22.75] = [ 36.24,144.96] Ry
 Optimized for a Real-space Cutoff    1.52 Angstroem

   l    n(q)    QCUT    max X(q) W(low)/X(q) W(high)/X(q)  e(spline)
   2      9    11.376     4.610    0.21E-03    0.10E-03    0.26E-06
   2      9    11.376     8.522    0.33E-03    0.16E-03    0.37E-06
   0     10    11.376    51.609    0.62E-04    0.20E-04    0.13E-06
   0     10    11.376    27.747    0.54E-04    0.20E-04    0.13E-06
   1     10    11.376    20.408    0.13E-04    0.99E-04    0.19E-06
   1     10    11.376    13.425    0.12E-04    0.87E-04    0.17E-06
 Optimization of the real space projectors (new method)

 maximal supplied QI-value         = 15.68
 optimisation between [QCUT,QGAM] = [ 11.45, 22.90] = [ 36.71,146.85] Ry
 Optimized for a Real-space Cutoff    1.56 Angstroem

   l    n(q)    QCUT    max X(q) W(low)/X(q) W(high)/X(q)  e(spline)
   0     11    11.450    10.201    0.21E-04    0.96E-05    0.78E-07
   0     11    11.450     8.174    0.31E-04    0.18E-04    0.14E-06
   1     10    11.450     3.488    0.27E-04    0.12E-04    0.96E-07
   1     10    11.450     4.917    0.11E-03    0.11E-03    0.37E-06
   2     10    11.450   153.744    0.37E-03    0.81E-03    0.10E-05
   2     10    11.450   126.342    0.37E-03    0.81E-03    0.10E-05
  PAW_PBE Cu 22Jun2005                  :
  PAW_PBE Nb_sv 25May2007               :

 POSCAR: Cu-Nb
  positions in direct lattice
  velocities in cartesian coordinates
 exchange correlation table for  LEXCH =        8
   RHO(1)=    0.500       N(1)  =     2000
   RHO(2)=  100.500       N(2)  =     4000

 VTST: version 3.2, (02/03/18)

 CHAIN: initializing optimizer

 OPT: Using VASP Conjugate-Gradient optimizer
 CHAIN: Read ICHAIN            0

 POSCAR: Cu-Nb
  positions in direct lattice
  velocities in cartesian coordinates

 ion  position               nearest neighbor table
   1  0.000  0.000  0.252-   7 2.57   3 2.57   4 2.57   2 2.57   6 2.57   8 2.57  12 2.57  10 2.57
                            16 2.57
   2  0.333  0.000  0.252-   8 2.57   9 2.57   5 2.57   1 2.57   3 2.57  11 2.57   4 2.57  10 2.57
                            17 2.57
   3  0.667  0.000  0.252-   1 2.57   7 2.57   6 2.57   9 2.57   2 2.57  12 2.57   5 2.57  18 2.57
                            11 2.57
   4  0.000  0.333  0.252-   5 2.57   6 2.57   1 2.57   7 2.57   2 2.57  13 2.57   9 2.57  10 2.57
                            15 2.57
   5  0.333  0.333  0.252-   4 2.57   2 2.57   7 2.57  13 2.57   8 2.57   6 2.57   3 2.57  11 2.57
                            14 2.57
   6  0.667  0.333  0.252-   4 2.57   9 2.57  15 2.57   3 2.57   1 2.57   8 2.57  14 2.57   5 2.57
                            12 2.57
   7  0.000  0.667  0.252-   1 2.57   3 2.57  16 2.57  18 2.57   4 2.57   5 2.57   8 2.57   9 2.57
                            13 2.57
   8  0.333  0.667  0.252-   9 2.57   2 2.57  17 2.57   6 2.57   1 2.57   7 2.57   5 2.57  14 2.57
                            16 2.57
   9  0.667  0.667  0.252-   8 2.57   6 2.57   2 2.57  17 2.57   3 2.57   7 2.57   4 2.57  15 2.57
                            18 2.57
  10  0.111  0.111  0.351-  26 2.55  19 2.55  11 2.57  12 2.57  13 2.57   1 2.57   2 2.57   4 2.57
                            15 2.57  16 2.57  17 2.57  20 2.57
  11  0.444  0.111  0.351-  20 2.57  21 2.57  10 2.57  13 2.57   2 2.57  17 2.57  14 2.57  12 2.57
                             5 2.57   3 2.57  18 2.57  27 2.57
  12  0.778  0.111  0.351-  19 2.55  25 2.55  15 2.57  10 2.57  14 2.57  18 2.57   3 2.57   1 2.57
                            16 2.57  11 2.57   6 2.57  21 2.57
  13  0.111  0.444  0.351-  23 2.57  20 2.57  16 2.57  18 2.57  10 2.57  11 2.57  14 2.57   5 2.57
                             4 2.57   7 2.57  15 2.57  22 2.57
  14  0.444  0.444  0.351-  21 2.57  23 2.57  15 2.57  17 2.57  12 2.57  16 2.57  13 2.57  11 2.57
                             6 2.57   8 2.57   5 2.57  24 2.57
  15  0.778  0.444  0.351-  19 2.55  14 2.57  17 2.57  12 2.57   6 2.57  18 2.57  10 2.57   9 2.57
                            13 2.57   4 2.57  24 2.57  22 2.57
  16  0.111  0.778  0.351-  25 2.55  26 2.55  18 2.57  13 2.57   7 2.57  14 2.57  17 2.57  12 2.57
                            10 2.57   8 2.57   1 2.57  23 2.57
  17  0.444  0.778  0.351-  26 2.55  14 2.57  15 2.57   8 2.57   9 2.57  11 2.57  16 2.57  18 2.57
                            10 2.57   2 2.57  27 2.57  24 2.57
  18  0.778  0.778  0.351-  25 2.55  16 2.57  13 2.57   7 2.57  15 2.57  12 2.57  17 2.57   9 2.57
                             3 2.57  11 2.57  22 2.57  27 2.57
  19  0.889  0.222  0.448-  12 2.55  10 2.55  15 2.55  25 2.56  26 2.56  21 2.57  20 2.57  22 2.57
                            24 2.57  28 2.57  32 2.58  31 2.58
  20  0.222  0.222  0.449-  23 2.56  21 2.56  11 2.57  13 2.57  10 2.57  26 2.57  19 2.57  27 2.57
                            22 2.57  29 2.59  31 2.59  36 2.66
  21  0.555  0.222  0.449-  20 2.56  23 2.56  14 2.57  11 2.57  12 2.57  19 2.57  25 2.57  24 2.57
                            27 2.57  32 2.59  30 2.59  36 2.66
  22  0.889  0.556  0.449-  24 2.56  27 2.56  18 2.57  15 2.57  23 2.57  20 2.57  19 2.57  25 2.57
                            13 2.57  35 2.57  31 2.57  33 2.57
  23  0.222  0.555  0.449-  20 2.56  21 2.56  13 2.57  14 2.57  16 2.57  25 2.57  26 2.57  22 2.57
                            24 2.57  33 2.59  34 2.59  36 2.66
  24  0.556  0.556  0.449-  22 2.56  27 2.56  15 2.57  17 2.57  21 2.57  23 2.57  19 2.57  26 2.57
                            14 2.57  35 2.57  32 2.57  34 2.57
  25  0.889  0.889  0.448-  12 2.55  16 2.55  18 2.55  19 2.56  26 2.56  21 2.57  23 2.57  22 2.57
                            27 2.57  28 2.57  33 2.58  30 2.58
  26  0.222  0.889  0.448-  10 2.55  16 2.55  17 2.55  25 2.56  19 2.56  20 2.57  23 2.57  27 2.57
                            24 2.57  28 2.57  29 2.58  34 2.58
  27  0.556  0.889  0.449-  24 2.56  22 2.56  17 2.57  18 2.57  20 2.57  21 2.57  26 2.57  25 2.57
                            11 2.57  35 2.57  29 2.57  30 2.57
  28  0.000  0.000  0.547-  33 2.55  30 2.55  31 2.55  29 2.55  32 2.55  34 2.55  25 2.57  19 2.57
                            26 2.57
  29  0.334  0.996  0.548-  34 2.51  35 2.55  28 2.55  27 2.57  26 2.58  20 2.59  30 2.59  36 2.60
                            31 2.60
  30  0.670  0.996  0.548-  33 2.51  35 2.55  28 2.55  27 2.57  25 2.58  21 2.59  29 2.59  36 2.60
                            32 2.60
  31  0.996  0.334  0.548-  32 2.51  35 2.55  28 2.55  22 2.57  19 2.58  20 2.59  33 2.59  36 2.60
                            29 2.60
  32  0.670  0.334  0.548-  31 2.51  35 2.55  28 2.55  24 2.57  19 2.58  21 2.59  34 2.59  36 2.60
                            30 2.60
  33  0.996  0.670  0.548-  30 2.51  35 2.55  28 2.55  22 2.57  25 2.58  23 2.59  31 2.59  36 2.60
                            34 2.60
  34  0.334  0.670  0.548-  29 2.51  35 2.55  28 2.55  24 2.57  26 2.58  23 2.59  32 2.59  36 2.60
                            33 2.60
  35  0.667  0.667  0.548-  34 2.55  32 2.55  29 2.55  30 2.55  33 2.55  31 2.55  24 2.57  27 2.57
                            22 2.57
  36  0.333  0.333  0.553-  31 2.60  29 2.60  33 2.60  32 2.60  34 2.60  30 2.60  23 2.66  20 2.66
                            21 2.66

  LATTYP: Found a hexagonal cell.
 ALAT       =     7.6967864036
 C/A-ratio  =     2.7653617908

  Lattice vectors:

 A1 = (  -3.8483927580,  -6.6656128093,   0.0000000000)
 A2 = (   7.6967864037,   0.0000000000,   0.0000000000)
 A3 = (   0.0000000000,   0.0000000000,  21.2843990326)

Analysis of symmetry for initial positions (statically):
 Subroutine PRICEL returns:
 Original cell was already a primitive cell.

 Routine SETGRP: Setting up the symmetry group for a
 hexagonal supercell.

 Subroutine GETGRP returns: Found  6 space group operations
 (whereof  6 operations were pure point group operations)
 out of a pool of 24 trial point group operations.

The static configuration has the point symmetry C_3v.

Analysis of symmetry for dynamics (positions and initial velocities):
 Subroutine PRICEL returns:
 Original cell was already a primitive cell.

[...]

The dynamic configuration has the point symmetry C_3v.

Analysis of constrained symmetry for selective dynamics:
 Subroutine PRICEL returns:
 Original cell was already a primitive cell.

 Routine SETGRP: Setting up the symmetry group for a
 hexagonal supercell.

 Subroutine GETGRP returns: Found  6 space group operations
 (whereof  6 operations were pure point group operations)
 out of a pool of 24 trial point group operations.

The constrained configuration has the point symmetry C_3v.

 Subroutine INISYM returns: Found  6 space group operations
 (whereof  6 operations are pure point group operations),
 and found     1 'primitive' translations

                                     Primitive cell

  volume of cell :    1091.9705

  direct lattice vectors                    reciprocal lattice vectors
     7.696786404  0.000000000  0.000000000     0.129924354 -0.075011849  0.000000000
     3.848392758  6.665612809  0.000000000     0.000000000  0.150023716  0.000000000
[...]
     15      -4.6313      2.00000
     16      -4.5197      2.00000
     17      -4.4533      2.00000
     18      -4.3989      2.00000
     19      -4.3532      2.00000
     20      -4.3516      2.00000
     21      -4.3284      2.00000
     22      -4.2776      2.00000
     23      -4.2572      2.00000
     24      -4.2145      2.00000
     25      -4.1960      2.00000
     26      -4.1706      2.00000
     27      -4.1393      2.00000
     28      -4.0407      2.00000
     29      -3.9741      2.00000
     30      -3.9535      2.00000
     31      -3.9460      2.00000
     32      -3.9000      2.00000
     33      -3.8866      2.00000
     34      -3.8815      2.00000
     35      -3.8766      2.00000
     36      -3.8650      2.00000
     37      -3.8354      2.00000
     38      -3.7959      2.00000
     39      -3.7493      2.00000
     40      -3.7192      2.00000
     41      -3.5706      2.00000
     42      -3.5662      2.00000
     43      -3.5219      2.00000
     44      -3.4969      2.00000
     45      -3.4810      2.00000
     46      -3.4696      2.00000
     47      -3.4581      2.00000
     48      -3.4545      2.00000
     49      -3.4477      2.00000
     50      -3.2965      2.00000
     51      -3.2654      2.00000
     52      -3.2525      2.00000
     53      -3.2391      2.00000
     54      -3.1855      2.00000
     55      -3.1749      2.00000
     56      -3.1661      2.00000
     57      -3.1593      2.00000
     58      -3.1494      2.00000
     59      -3.1427      2.00000
     60      -3.1101      2.00000
[...]
    238       6.2943      0.00000
    239       6.6957      0.00000
    240       6.7310      0.00000
    241       6.7712      0.00000
    242       6.9665      0.00000
    243       7.0596      0.00000
    244       7.1130      0.00000
    245       7.1744      0.00000
    246       7.4234      0.00000
    247       7.4698      0.00000
    248       7.5178      0.00000
    249       7.5959      0.00000
    250       7.7795      0.00000
    251       7.8236      0.00000
    252       8.1133      0.00000

 soft charge-density along one line, spin component           1
         0         1         2         3         4         5         6         7         8         9
 total charge-density along one line

------------------------ aborting loop because EDIFF is reached ----------------------------------------

 total charge

# of ion       s       p       d       tot
    1        0.449   0.282   9.188   9.920
    2        0.447   0.286   9.185   9.918
    3        0.447   0.286   9.185   9.918
    4        0.447   0.286   9.185   9.918
    5        0.447   0.287   9.180   9.914
    6        0.447   0.286   9.185   9.918
    7        0.447   0.286   9.185   9.918
    8        0.447   0.286   9.185   9.918
    9        0.449   0.283   9.187   9.919
   10        0.443   0.372   9.174   9.989
   11        0.441   0.364   9.183   9.988
   12        0.443   0.372   9.174   9.989
   13        0.441   0.364   9.183   9.988
   14        0.441   0.364   9.183   9.988
   15        0.439   0.371   9.176   9.986
   16        0.443   0.372   9.174   9.989
   17        0.439   0.371   9.176   9.986
   18        0.439   0.371   9.176   9.986
   19        0.443   0.371   9.178   9.992
   20        0.463   0.393   9.156  10.012
   21        0.463   0.393   9.156  10.012
   22        0.431   0.374   9.180   9.984
   23        0.463   0.393   9.156  10.012
   24        0.431   0.374   9.180   9.984
   25        0.443   0.371   9.178   9.992
   26        0.443   0.371   9.178   9.992
   27        0.431   0.374   9.180   9.984
   28        0.444   0.295   9.181   9.920
   29        0.482   0.319   9.156   9.958
   30        0.482   0.319   9.156   9.958
   31        0.482   0.319   9.156   9.958
   32        0.482   0.319   9.156   9.958
   33        0.482   0.319   9.156   9.958
   34        0.482   0.319   9.156   9.958
   35        0.438   0.301   9.179   9.918
   36        2.212   5.970   2.433  10.615
tot         17.996  17.785 323.535 359.316

  FORCE on cell =-STRESS in cart. coord.  units (eV):
  Direction    XX          YY          ZZ          XY          YZ          ZX
  Alpha Z   889.91509   889.91509   889.91509
  Ewald  174964.13359174964.13311************     0.00040     0.00011     0.00019
  Hartree188075.73372188075.73367************     0.00004     0.00005     0.00007
  E(xc)   -2305.06100 -2305.06051 -2310.16381    -0.00043    -0.00003    -0.00006
  Local  ************************376821.28128     0.01840    -0.00055    -0.00093
  n-local  -769.99439  -759.16078  -770.65351     6.12626    -0.30226     0.12413
  augment  3326.41661  3326.43652  3348.27578    -0.01724     0.00026     0.00047
  Kinetic  3376.87807  3378.91641  3402.48102     1.72603     1.68747    -1.44757
  Fock        0.00000     0.00000     0.00000     0.00000     0.00000     0.00000
  Total      -9.14304    -9.14304    -3.95325     0.00000    -0.00000    -0.00000
  in kB     -13.41499   -13.41499    -5.80035     0.00000    -0.00000    -0.00000

 VOLUME and BASIS-vectors are now :
  energy-cutoff  :      500.00
  volume of cell :     1091.97
      direct lattice vectors                 reciprocal lattice vectors
     7.696786404  0.000000000  0.000000000     0.129924354 -0.075011849  0.000000000
     3.848392758  6.665612809  0.000000000     0.000000000  0.150023716  0.000000000
     0.000000000  0.000000000 21.284399033     0.000000000  0.000000000  0.046982769

  length of vectors
     7.696786404  7.696786404 21.284399033     0.150023716  0.150023716  0.046982769

 FORCES acting on ions
    electron-ion (+dipol)            ewald-force                    non-local-force                 convergence-correction
   -.412E-04 0.352E-06 0.349E+04   0.579E-04 -.434E-05 -.349E+04   0.523E-17 -.437E-17 -.240E+01   -.335E-03 -.161E-03 0.285E+00
   -.572E+00 -.820E-01 0.349E+04   0.478E+00 0.855E-01 -.349E+04   0.793E-01 0.120E+00 -.186E+01   0.241E-01 -.108E+00 0.251E+00
   0.572E+00 -.820E-01 0.349E+04   -.478E+00 0.855E-01 -.349E+04   -.793E-01 0.120E+00 -.186E+01   -.233E-01 -.105E+00 0.252E+00
   -.357E+00 -.455E+00 0.349E+04   0.313E+00 0.371E+00 -.349E+04   0.144E+00 0.849E-02 -.186E+01   -.814E-01 0.748E-01 0.251E+00
   -.622E-04 -.382E-05 0.349E+04   0.116E-03 -.101E-04 -.349E+04   -.170E-17 0.287E-17 -.144E+01   0.122E-01 0.749E-02 0.514E+00
   0.357E+00 -.455E+00 0.349E+04   -.313E+00 0.371E+00 -.349E+04   -.144E+00 0.849E-02 -.186E+01   0.797E-01 0.761E-01 0.252E+00
   0.215E+00 0.537E+00 0.349E+04   -.165E+00 -.456E+00 -.349E+04   0.646E-01 -.129E+00 -.186E+01   -.103E+00 0.325E-01 0.252E+00
   -.215E+00 0.537E+00 0.349E+04   0.165E+00 -.456E+00 -.349E+04   -.646E-01 -.129E+00 -.186E+01   0.106E+00 0.310E-01 0.252E+00
   -.144E-03 -.328E-04 0.349E+04   0.263E-03 0.205E-04 -.349E+04   -.195E-17 0.124E-17 -.212E+01   -.133E-01 -.685E-02 0.137E+00
   -.354E+01 -.204E+01 0.119E+04   0.394E+01 0.227E+01 -.119E+04   -.386E+00 -.223E+00 -.104E+01   -.780E-03 -.465E-03 -.153E+00
   -.908E-04 -.813E+00 0.118E+04   0.190E-03 0.399E+00 -.118E+04   -.172E-07 0.258E+00 -.101E+00   0.118E-01 0.109E+00 -.217E+00
   0.354E+01 -.204E+01 0.119E+04   -.394E+01 0.227E+01 -.119E+04   0.386E+00 -.223E+00 -.104E+01   -.123E-02 0.161E-02 -.152E+00
   -.704E+00 0.406E+00 0.118E+04   0.345E+00 -.199E+00 -.118E+04   0.224E+00 -.129E+00 -.101E+00   0.101E+00 -.436E-01 -.217E+00
   0.704E+00 0.406E+00 0.118E+04   -.346E+00 -.199E+00 -.118E+04   -.224E+00 -.129E+00 -.101E+00   -.765E-01 -.446E-01 -.217E+00
   -.142E-03 -.321E+01 0.119E+04   0.297E-03 0.302E+01 -.118E+04   -.933E-08 0.140E+00 -.100E+01   -.407E-02 0.506E-01 -.254E+00
   -.915E-04 0.408E+01 0.119E+04   0.186E-03 -.455E+01 -.119E+04   -.297E-07 0.445E+00 -.104E+01   -.152E-03 -.308E-02 -.152E+00
   -.278E+01 0.160E+01 0.119E+04   0.261E+01 -.151E+01 -.118E+04   0.121E+00 -.700E-01 -.100E+01   0.425E-01 -.288E-01 -.255E+00
   0.278E+01 0.160E+01 0.119E+04   -.261E+01 -.151E+01 -.118E+04   -.121E+00 -.700E-01 -.100E+01   -.418E-01 -.258E-01 -.254E+00
   -.678E-04 -.307E+01 -.113E+04   0.653E-04 0.322E+01 0.113E+04   0.617E-08 -.927E-01 0.909E+00   -.234E-02 -.527E-01 -.275E+00
   0.196E+01 0.113E+01 -.114E+04   -.466E+00 -.269E+00 0.115E+04   -.128E+01 -.736E+00 -.100E+01   -.204E+00 -.118E+00 -.516E+00
   -.196E+01 0.113E+01 -.114E+04   0.465E+00 -.269E+00 0.115E+04   0.128E+01 -.736E+00 -.100E+01   0.228E+00 -.116E+00 -.515E+00
   -.318E+01 0.184E+01 -.115E+04   0.288E+01 -.166E+01 0.114E+04   0.397E+00 -.229E+00 0.665E+00   -.904E-01 0.514E-01 -.291E+00
   -.601E-04 -.226E+01 -.114E+04   0.143E-03 0.538E+00 0.115E+04   -.980E-07 0.147E+01 -.100E+01   0.123E-01 0.254E+00 -.516E+00
   0.318E+01 0.184E+01 -.115E+04   -.288E+01 -.166E+01 0.114E+04   -.397E+00 -.229E+00 0.665E+00   0.876E-01 0.497E-01 -.292E+00
   0.266E+01 0.153E+01 -.113E+04   -.279E+01 -.161E+01 0.113E+04   0.803E-01 0.464E-01 0.909E+00   0.469E-01 0.271E-01 -.276E+00
   -.266E+01 0.153E+01 -.113E+04   0.279E+01 -.161E+01 0.113E+04   -.803E-01 0.464E-01 0.909E+00   -.464E-01 0.245E-01 -.275E+00
   -.131E-03 -.367E+01 -.115E+04   0.243E-03 0.332E+01 0.114E+04   -.305E-07 0.458E+00 0.665E+00   -.711E-03 -.104E+00 -.291E+00
   -.302E-04 0.214E-04 -.345E+04   0.386E-04 -.329E-04 0.345E+04   0.254E-17 0.206E-17 0.167E+01   0.126E-02 0.778E-03 -.198E+00
   0.667E+01 0.262E+01 -.346E+04   -.593E+01 -.177E+01 0.346E+04   -.671E+00 -.690E+00 0.321E+00   -.795E-01 -.169E+00 -.115E+00
   -.667E+01 0.262E+01 -.346E+04   0.593E+01 -.177E+01 0.346E+04   0.671E+00 -.690E+00 0.321E+00   0.588E-01 -.166E+00 -.115E+00
   0.561E+01 0.446E+01 -.346E+04   -.450E+01 -.425E+01 0.346E+04   -.933E+00 -.236E+00 0.321E+00   -.186E+00 0.155E-01 -.115E+00
   -.561E+01 0.446E+01 -.346E+04   0.450E+01 -.425E+01 0.346E+04   0.933E+00 -.236E+00 0.321E+00   0.162E+00 0.165E-01 -.116E+00
   -.106E+01 -.709E+01 -.346E+04   0.143E+01 0.602E+01 0.346E+04   -.262E+00 0.926E+00 0.321E+00   -.115E+00 0.134E+00 -.115E+00
   0.106E+01 -.709E+01 -.346E+04   -.143E+01 0.602E+01 0.346E+04   0.262E+00 0.926E+00 0.321E+00   0.963E-01 0.132E+00 -.116E+00
   -.144E-03 -.180E-04 -.347E+04   0.257E-03 0.106E-05 0.347E+04   0.452E-17 -.502E-18 0.239E+01   -.117E-01 -.595E-02 -.268E-01
   0.113E-03 -.179E-03 -.416E+04   0.151E-03 0.344E-04 0.416E+04   -.268E-17 -.108E-17 0.482E+01   0.824E-02 0.493E-02 -.483E-01
   -.606E-04 -.121E-03 0.147E+02   0.158E-12 0.999E-13 0.364E-11   0.224E-15 -.159E-17 -.110E+02   -.196E-02 -.409E-02 -.364E+01

 POSITION                                       TOTAL-FORCE (eV/Angst)
      0.00000      0.00000      5.37156        -0.000000      0.000000     -0.030430
      2.56560      0.00000      5.37156         0.009311      0.016999      0.048665
      5.13119      0.00000      5.37156        -0.009311      0.016999      0.048665
      1.28280      2.22187      5.37156         0.019377     -0.000436      0.048665
      3.84839      2.22187      5.37156        -0.000000     -0.000000      0.054820
      6.41399      2.22187      5.37156        -0.019377     -0.000436      0.048665
      2.56560      4.44374      5.37156         0.010066     -0.016563      0.048665
      5.13119      4.44374      5.37156        -0.010066     -0.016563      0.048665
      7.69679      4.44374      5.37156        -0.000000      0.000000      0.013255
      1.28280      0.74062      7.46636         0.016461      0.009504     -0.089729
      3.84839      0.74062      7.46636         0.000000     -0.053270     -0.046088
      6.41399      0.74062      7.46636        -0.016461      0.009504     -0.089729
      2.56560      2.96249      7.46636        -0.046133      0.026635     -0.046088
      5.13119      2.96249      7.46636         0.046133      0.026635     -0.046088
      7.69679      2.96249      7.46636        -0.000000      0.000061     -0.015457
      3.84839      5.18437      7.46636         0.000000     -0.019007     -0.089729
      6.41399      5.18437      7.46636         0.000053     -0.000030     -0.015457
      8.97958      5.18437      7.46636        -0.000053     -0.000030     -0.015457
      7.69679      1.47855      9.54201        -0.000000      0.005236      0.005442
      2.56706      1.48209      9.56134         0.003679      0.002124     -0.002620
      5.12972      1.48209      9.56134        -0.003679      0.002124     -0.002620
      8.97774      3.70418      9.56312         0.004996     -0.002884      0.001685
      3.84839      3.70142      9.56134         0.000000     -0.004248     -0.002620
      6.41583      3.70418      9.56312        -0.004996     -0.002884      0.001685
     10.26471      5.92634      9.54201        -0.004535     -0.002618      0.005442
      5.12886      5.92634      9.54201         0.004535     -0.002618      0.005442
      7.69679      5.92286      9.56312        -0.000000      0.005768      0.001685
      0.00000      0.00000     11.64396        -0.000000      0.000000      0.028577
      6.40056      6.63873     11.66709        -0.001920     -0.001286      0.012000
      8.99302      6.63873     11.66709         0.001920     -0.001286      0.012000
      8.94959      2.22368     11.66709        -0.002074     -0.001020      0.012000
      6.44399      2.22368     11.66709         0.002074     -0.001020      0.012000
     10.24582      4.46882     11.66709        -0.000154      0.002306      0.012000
      5.14776      4.46882     11.66709         0.000154      0.002306      0.012000
      7.69679      4.44374     11.66626        -0.000000     -0.000000      0.008912
      3.84839      2.22187     11.77465        -0.000000     -0.000000      0.001174
    total drift:                               -0.002023     -0.004214     -0.005887

  FREE ENERGIE OF THE ION-ELECTRON SYSTEM (eV)
  free  energy   TOTEN  =      -130.84685756 eV

  energy  without entropy=     -130.84685756  energy(sigma->0) =     -130.84685756

 stress matrix after NEB project (eV)
     -9.14304      0.00000     -0.00000
      0.00000     -9.14304     -0.00000
     -0.00000     -0.00000     -3.95325
  FORCES: max atom, RMS     0.028577    0.007724
  FORCE total and by dimension    0.046343    0.028577
  Stress total and by dimension   13.521047    9.143044
|           W    W    AA    RRRRR   N    N  II  N    N   GGGG   !!!           |
|           W    W   A  A   R    R  NN   N  II  NN   N  G    G  !!!           |
|           W    W  A    A  R    R  N N  N  II  N N  N  G       !!!           |
|           W WW W  AAAAAA  RRRRR   N  N N  II  N  N N  G  GGG   !            |
|           WW  WW  A    A  R   R   N   NN  II  N   NN  G    G                |
|           W    W  A    A  R    R  N    N  II  N    N   GGGG   !!!           |
|     Tetrahedron method does not include variations of the Fermi             |
|     occupations, so forces and stress will be inaccurate. We suggest        |
|     using a different smearing scheme ISMEAR = 1 or 2 for metals in         |
|     relaxations.                                                            |

 total charge

# of ion       s       p       d       tot
    1        0.449   0.282   9.188   9.920
    2        0.447   0.286   9.185   9.918
    3        0.447   0.286   9.185   9.918
    4        0.447   0.286   9.185   9.918
    5        0.447   0.287   9.180   9.914
    6        0.447   0.286   9.185   9.918
    7        0.447   0.286   9.185   9.918
    8        0.447   0.286   9.185   9.918
    9        0.449   0.283   9.187   9.919
   10        0.443   0.372   9.174   9.989
   11        0.441   0.364   9.183   9.988
   12        0.443   0.372   9.174   9.989
   13        0.441   0.364   9.183   9.988
   14        0.441   0.364   9.183   9.988
   15        0.439   0.371   9.176   9.986
   16        0.443   0.372   9.174   9.989
   17        0.439   0.371   9.176   9.986
   18        0.439   0.371   9.176   9.986
   19        0.443   0.371   9.178   9.992
   20        0.463   0.393   9.156  10.012
   21        0.463   0.393   9.156  10.012
   22        0.431   0.374   9.180   9.984
   23        0.463   0.393   9.156  10.012
   24        0.431   0.374   9.180   9.984
   25        0.443   0.371   9.178   9.992
   26        0.443   0.371   9.178   9.992
   27        0.431   0.374   9.180   9.984
   28        0.444   0.295   9.181   9.920
   29        0.482   0.319   9.156   9.958
   30        0.482   0.319   9.156   9.958
   31        0.482   0.319   9.156   9.958
   32        0.482   0.319   9.156   9.958
   33        0.482   0.319   9.156   9.958
   34        0.482   0.319   9.156   9.958
   35        0.438   0.301   9.179   9.918
   36        2.212   5.970   2.433  10.615
tot         17.996  17.785 323.535 359.316

 BZINTS: Fermi energy:    0.261227;  398.000000 electrons
         Band energy:-0.131673E+04;  BLOECHL correction:   -0.021302