 vasp.6.2.0 18Jan21 (build Jun 12 2021 23:27:24) complex

 executed on             LinuxIFC date 2022.05.27  05:29:42

 INCAR:
   ISMEAR = -5
   SIGMA = 0.1
   ISPIN = 1
   EDIFF = 1.d-5
   EDIFFG = -0.01
   NSW = 0
   NELM = 150
   ENCUT = 500
   ISIF = 2
   IBRION = 2
   LREAL = Auto
   ALGO = Fast
   ICHARG = 11
   LORBIT = 10
   LCHARG = .F.
   LWAVE = .F.

 POTCAR:    PAW_PBE Ag 02Apr2005
 POTCAR:    PAW_PBE Mn 06Sep2000
 POTCAR:    PAW_PBE H 15Jun2001
|           W    W    AA    RRRRR   N    N  II  N    N   GGGG   !!!           |
|           W    W   A  A   R    R  NN   N  II  NN   N  G    G  !!!           |
|           W    W  A    A  R    R  N N  N  II  N N  N  G       !!!           |
|           W WW W  AAAAAA  RRRRR   N  N N  II  N  N N  G  GGG   !            |
|           WW  WW  A    A  R   R   N   NN  II  N   NN  G    G                |
|           W    W  A    A  R    R  N    N  II  N    N   GGGG   !!!           |
|     For optimal performance we recommend to set                             |
|       NCORE = 2 up to number-of-cores-per-socket                            |
|     This setting can greatly improve the performance of VASP for DFT.       |
|     The default, NCORE=1 might be grossly inefficient on modern             |
|     multi-core architectures or massively parallel machines. Do your        |
|     Unfortunately you need to use the default for GW and RPA                |
|     calculations (for HF NCORE is supported but not extensively tested      |
|     yet).                                                                   |

 POTCAR:    PAW_PBE Ag 02Apr2005
   VRHFIN =Ag : s1 d10

   TITEL  = PAW_PBE Ag 02Apr2005
   POMASS =  107.868; ZVAL   =   11.000    mass and valenz
   ENMAX  =  249.844; ENMIN  =  187.383 eV

 POTCAR:    PAW_PBE Mn 06Sep2000
   VRHFIN =Mn: d6 s1

   TITEL  = PAW_PBE Mn 06Sep2000
   POMASS =   54.938; ZVAL   =    7.000    mass and valenz
   ENMAX  =  269.864; ENMIN  =  202.398 eV

 POTCAR:    PAW_PBE H 15Jun2001
   VRHFIN =H: ultrasoft test

   TITEL  = PAW_PBE H 15Jun2001
   POMASS =    1.000; ZVAL   =    1.000    mass and valenz
   ENMAX  =  250.000; ENMIN  =  200.000 eV

 Optimization of the real space projectors (new method)

 maximal supplied QI-value         = 15.12
 optimisation between [QCUT,QGAM] = [ 11.34, 22.83] = [ 36.00,145.93] Ry
 Optimized for a Real-space Cutoff    1.43 Angstroem

   l    n(q)    QCUT    max X(q) W(low)/X(q) W(high)/X(q)  e(spline)
   2      9    11.338    53.897    0.16E-03    0.20E-03    0.28E-06
   2      9    11.338    52.416    0.16E-03    0.20E-03    0.29E-06
   0     10    11.338   122.045    0.31E-04    0.76E-04    0.15E-06
   0     10    11.338    73.629    0.30E-04    0.72E-04    0.15E-06
   1      9    11.338    15.255    0.20E-03    0.19E-04    0.17E-06
   1      9    11.338     9.562    0.16E-03    0.15E-04    0.14E-06
 Optimization of the real space projectors (new method)

[...]

   l    n(q)    QCUT    max X(q) W(low)/X(q) W(high)/X(q)  e(spline)
   2      8    11.376   110.144    0.49E-03    0.27E-04    0.26E-06
   2      8    11.376   103.200    0.49E-03    0.28E-04    0.27E-06
   0      9    11.376    68.437    0.57E-04    0.92E-04    0.15E-06
   0      9    11.376    33.971    0.51E-04    0.83E-04    0.14E-06
   1      9    11.376    17.065    0.34E-03    0.68E-04    0.14E-06
   1      9    11.376    12.540    0.27E-03    0.59E-04    0.11E-06
 Optimization of the real space projectors (new method)

 maximal supplied QI-value         = 34.20
 optimisation between [QCUT,QGAM] = [ 11.29, 22.57] = [ 35.68,142.71] Ry
 Optimized for a Real-space Cutoff    1.16 Angstroem

   l    n(q)    QCUT    max X(q) W(low)/X(q) W(high)/X(q)  e(spline)
   0      8    11.287    19.460    0.40E-03    0.73E-03    0.16E-06
   0      8    11.287    12.209    0.38E-03    0.70E-03    0.15E-06
   1      7    11.287     4.655    0.22E-03    0.25E-04    0.22E-06
  PAW_PBE Ag 02Apr2005                  :
  PAW_PBE Mn 06Sep2000                  :
  PAW_PBE H 15Jun2001                   :

 POSCAR: Ag-Mn-H2
  positions in direct lattice
  velocities in cartesian coordinates
 exchange correlation table for  LEXCH =        8
   RHO(1)=    0.500       N(1)  =     2000
   RHO(2)=  100.500       N(2)  =     4000

 VTST: version 3.2, (02/03/18)

 CHAIN: initializing optimizer

 OPT: Using VASP Conjugate-Gradient optimizer
 CHAIN: Read ICHAIN            0

 POSCAR: Ag-Mn-H2
  positions in direct lattice
  velocities in cartesian coordinates

 ion  position               nearest neighbor table
   1  0.000  0.000  0.238-   2 2.93   8 2.93   7 2.93   6 2.93   4 2.93  12 2.93  16 2.93  10 2.93
                             3 2.93
   2  0.333  0.000  0.238-   1 2.93   8 2.93   9 2.93   3 2.93   4 2.93   5 2.93  10 2.93  17 2.93
                            11 2.93
   3  0.667  0.000  0.238-   9 2.93   2 2.93   5 2.93  11 2.93   7 2.93  18 2.93   1 2.93   6 2.93
                            12 2.93
   4  0.000  0.333  0.238-   5 2.93   6 2.93   2 2.93   1 2.93   7 2.93  13 2.93  15 2.93   9 2.93
                            10 2.93
   5  0.333  0.333  0.238-   4 2.93   3 2.93   7 2.93   2 2.93   8 2.93  14 2.93  13 2.93  11 2.93
                             6 2.93
   6  0.667  0.333  0.238-   4 2.93   9 2.93   1 2.93  15 2.93   8 2.93  12 2.93   3 2.93   5 2.93
                            14 2.93
   7  0.000  0.667  0.238-   8 2.93   1 2.93   5 2.93   3 2.93   4 2.93  16 2.93  18 2.93  13 2.93
                             9 2.93
   8  0.333  0.667  0.238-   7 2.93   1 2.93   2 2.93   9 2.93   5 2.93  16 2.93   6 2.93  17 2.93
                            14 2.93
   9  0.667  0.667  0.238-   3 2.93   2 2.93   8 2.93   6 2.93  17 2.93   4 2.93  15 2.93   7 2.93
                            18 2.93
  10  0.111  0.111  0.346-  20 2.92  19 2.93  26 2.93  12 2.93  16 2.93  15 2.93  17 2.93  13 2.93
                            11 2.93   2 2.93   1 2.93   4 2.93
  11  0.444  0.111  0.346-  21 2.90  20 2.90  27 2.92  14 2.93  17 2.93  18 2.93   3 2.93  12 2.93
                            13 2.93  10 2.93   5 2.93   2 2.93
  12  0.778  0.111  0.346-  21 2.92  25 2.93  19 2.93  10 2.93  16 2.93  18 2.93  15 2.93  11 2.93
                             1 2.93  14 2.93   6 2.93   3 2.93
  13  0.111  0.444  0.346-  20 2.90  23 2.90  22 2.92  15 2.93  14 2.93  18 2.93  10 2.93  11 2.93
                            16 2.93   4 2.93   5 2.93   7 2.93
  14  0.444  0.444  0.346-  23 2.90  21 2.90  24 2.92  13 2.93  11 2.93  16 2.93   5 2.93  12 2.93
                            17 2.93   8 2.93  15 2.93   6 2.93
  15  0.778  0.444  0.346-  24 2.92  22 2.92  19 2.92  13 2.93  10 2.93  12 2.93  17 2.93  18 2.93
                             4 2.93   6 2.93   9 2.93  14 2.93
  16  0.111  0.778  0.346-  23 2.92  26 2.93  25 2.93  18 2.93  12 2.93  10 2.93  14 2.93  17 2.93
                            13 2.93   7 2.93   8 2.93   1 2.93
  17  0.444  0.778  0.346-  27 2.92  24 2.92  26 2.92  11 2.93  10 2.93   9 2.93  18 2.93  15 2.93
                            16 2.93   2 2.93  14 2.93   8 2.93
  18  0.778  0.778  0.346-  22 2.92  27 2.92  25 2.92  16 2.93  12 2.93  13 2.93  11 2.93  17 2.93
                            15 2.93   7 2.93   3 2.93   9 2.93
  19  0.889  0.223  0.454-  28 2.91  15 2.92  10 2.93  12 2.93  24 2.93  22 2.93  26 2.94  25 2.94
                            20 2.94  21 2.94  32 2.95  31 2.95
  20  0.223  0.223  0.453-  36 2.71  31 2.90  29 2.90  13 2.90  11 2.90  21 2.91  23 2.91  10 2.92
                            27 2.93  22 2.93  19 2.94  26 2.94
  21  0.554  0.223  0.453-  36 2.71  30 2.90  32 2.90  11 2.90  14 2.90  20 2.91  23 2.91  12 2.92
                            27 2.93  24 2.93  25 2.94  19 2.94
  22  0.888  0.556  0.453-  35 2.91  18 2.92  15 2.92  13 2.92  24 2.93  27 2.93  33 2.93  31 2.93
                            25 2.93  19 2.93  23 2.93  20 2.93
  23  0.223  0.554  0.453-  36 2.71  34 2.90  33 2.90  14 2.90  13 2.90  21 2.91  20 2.91  16 2.92
                            22 2.93  24 2.93  26 2.94  25 2.94
  24  0.556  0.556  0.453-  35 2.91  15 2.92  17 2.92  14 2.92  27 2.93  22 2.93  32 2.93  34 2.93
                            19 2.93  26 2.93  23 2.93  21 2.93
  25  0.889  0.889  0.454-  28 2.91  18 2.92  16 2.93  12 2.93  22 2.93  27 2.93  26 2.94  19 2.94
                            23 2.94  21 2.94  33 2.95  30 2.95
  26  0.223  0.889  0.454-  28 2.91  17 2.92  16 2.93  10 2.93  27 2.93  24 2.93  25 2.94  19 2.94
                            23 2.94  20 2.94  34 2.95  29 2.95
  27  0.556  0.888  0.453-  35 2.91  17 2.92  18 2.92  11 2.92  24 2.93  22 2.93  29 2.93  30 2.93
                            26 2.93  25 2.93  20 2.93  21 2.93
  28  0.000  0.000  0.560-  26 2.91  25 2.91  19 2.91  29 2.97  34 2.97  33 2.97  32 2.97  31 2.97
                            30 2.97
  29  0.333  0.008  0.561-  31 2.86  30 2.86  36 2.87  20 2.90  27 2.93  26 2.95  28 2.97  35 2.97
                            34 3.07
  30  0.659  0.008  0.561-  32 2.86  29 2.86  36 2.87  21 2.90  27 2.93  25 2.95  28 2.97  35 2.97
                            33 3.07
  31  0.008  0.333  0.561-  29 2.86  33 2.86  36 2.87  20 2.90  22 2.93  19 2.95  28 2.97  35 2.97
                            32 3.07
  32  0.659  0.333  0.561-  30 2.86  34 2.86  36 2.87  21 2.90  24 2.93  19 2.95  28 2.97  35 2.97
                            31 3.07
  33  0.008  0.659  0.561-  34 2.86  31 2.86  36 2.87  23 2.90  22 2.93  25 2.95  28 2.97  35 2.97
                            30 3.07
  34  0.333  0.659  0.561-  33 2.86  32 2.86  36 2.87  23 2.90  24 2.93  26 2.95  28 2.97  35 2.97
                            29 3.07
  35  0.667  0.667  0.560-  24 2.91  27 2.91  22 2.91  32 2.97  30 2.97  29 2.97  34 2.97  31 2.97
                            33 2.97
  36  0.333  0.333  0.549-  38 1.62  37 1.62  21 2.71  20 2.71  23 2.71  31 2.87  30 2.87  33 2.87
                            29 2.87  34 2.87  32 2.87
  37  0.281  0.332  0.618-  36 1.62
  38  0.388  0.332  0.618-  36 1.62

  LATTYP: Found a hexagonal cell.
 ALAT       =     8.7913665772
 C/A-ratio  =     2.5227160501

  Lattice vectors:

 A1 = (  -4.3956832886,  -7.6135467898,   0.0000000000)
 A2 = (   8.7913665771,   0.0000000000,   0.0000000000)
 A3 = (   0.0000000000,   0.0000000000,  22.1781215668)

Analysis of symmetry for initial positions (statically):
 Subroutine PRICEL returns:
 Original cell was already a primitive cell.

 Routine SETGRP: Setting up the symmetry group for a
 hexagonal supercell.

 Subroutine GETGRP returns: Found  2 space group operations
 (whereof  2 operations were pure point group operations)
 out of a pool of 24 trial point group operations.

The static configuration has the point symmetry C_1h.

Analysis of symmetry for dynamics (positions and initial velocities):
 Subroutine PRICEL returns:
 Original cell was already a primitive cell.

[...]

The dynamic configuration has the point symmetry C_1h.

Analysis of constrained symmetry for selective dynamics:
 Subroutine PRICEL returns:
 Original cell was already a primitive cell.

 Routine SETGRP: Setting up the symmetry group for a
 hexagonal supercell.

 Subroutine GETGRP returns: Found  2 space group operations
[...]
     33      -4.4691      2.00000
     34      -4.4099      2.00000
     35      -4.3964      2.00000
     36      -4.3688      2.00000
     37      -4.3654      2.00000
     38      -4.3341      2.00000
     39      -4.3121      2.00000
     40      -4.3094      2.00000
     41      -4.2910      2.00000
     42      -4.2859      2.00000
     43      -4.2629      2.00000
     44      -4.1963      2.00000
     45      -4.1667      2.00000
     46      -4.1607      2.00000
     47      -4.1538      2.00000
     48      -4.1457      2.00000
     49      -4.1420      2.00000
     50      -4.1249      2.00000
     51      -4.1193      2.00000
     52      -4.1030      2.00000
     53      -4.0999      2.00000
     54      -4.0348      2.00000
     55      -4.0286      2.00000
     56      -4.0163      2.00000
     57      -4.0127      2.00000
     58      -3.9960      2.00000
     59      -3.9797      2.00000
     60      -3.9435      2.00000
[...]
    238       6.9715      0.00000
    239       7.0858      0.00000
    240       7.1747      0.00000
    241       7.1810      0.00000
    242       7.2418      0.00000
    243       7.2742      0.00000
    244       7.2808      0.00000
    245       7.3145      0.00000
    246       7.4368      0.00000
    247       7.4794      0.00000
    248       7.5740      0.00000
    249       7.5938      0.00000
    250       7.8185      0.00000
    251       7.9333      0.00000
    252       8.0563      0.00000

 soft charge-density along one line, spin component           1
         0         1         2         3         4         5         6         7         8         9
 total charge-density along one line

------------------------ aborting loop because EDIFF is reached ----------------------------------------

 total charge

# of ion       s       p       d       tot
    1        0.418   0.202   9.179   9.799
    2        0.417   0.203   9.177   9.798
    3        0.417   0.203   9.177   9.798
    4        0.418   0.203   9.177   9.798
    5        0.418   0.203   9.175   9.796
    6        0.418   0.203   9.177   9.798
    7        0.417   0.203   9.177   9.798
    8        0.417   0.203   9.177   9.798
    9        0.415   0.202   9.179   9.796
   10        0.407   0.269   9.163   9.839
   11        0.410   0.266   9.168   9.845
   12        0.407   0.269   9.163   9.839
   13        0.409   0.267   9.168   9.844
   14        0.409   0.267   9.168   9.844
   15        0.403   0.270   9.165   9.838
   16        0.408   0.269   9.163   9.840
   17        0.403   0.270   9.165   9.838
   18        0.403   0.270   9.165   9.838
   19        0.401   0.265   9.166   9.832
   20        0.429   0.293   9.145   9.867
   21        0.429   0.293   9.145   9.867
   22        0.396   0.275   9.165   9.836
   23        0.431   0.295   9.142   9.869
   24        0.396   0.275   9.165   9.836
   25        0.402   0.264   9.167   9.833
   26        0.402   0.264   9.167   9.833
   27        0.396   0.274   9.166   9.836
   28        0.413   0.195   9.180   9.787
   29        0.423   0.207   9.171   9.800
   30        0.423   0.207   9.171   9.800
   31        0.419   0.213   9.167   9.799
   32        0.419   0.213   9.167   9.799
   33        0.423   0.206   9.171   9.800
   34        0.423   0.206   9.171   9.800
   35        0.407   0.196   9.180   9.784
   36        0.290   0.280   5.159   5.728
   37        0.534   0.030   0.000   0.564
   38        0.534   0.030   0.000   0.564
tot         15.806   8.724 326.048 350.579

  FORCE on cell =-STRESS in cart. coord.  units (eV):
  Direction    XX          YY          ZZ          XY          YZ          ZX
  Alpha Z   740.54538   740.54538   740.54538
  Ewald  120539.73475120518.16129************     0.00001    -0.18064    -0.00000
  Hartree130659.81464130654.28267************     0.00000    -0.06117     0.00000
  E(xc)   -2066.80768 -2067.04192 -2073.11559    -0.00002     0.02417     0.00000
  Local  ************************262561.70340     0.00031     0.43867    -0.00004
  n-local  -349.91635  -349.82115  -353.32872     2.21829     0.19231     0.16597
  augment  3248.11125  3248.23290  3259.49157    -0.00009    -0.14998     0.00007
  Kinetic  4849.68310  4853.77639  4880.34047     1.47170    -0.22006    -0.06035
  Fock        0.00000     0.00000     0.00000     0.00000     0.00000     0.00000
  Total     -10.01236    -9.87578    -0.26037    -0.00000     0.04331     0.00000
  in kB     -10.80634   -10.65893    -0.28102    -0.00000     0.04674     0.00000

 VOLUME and BASIS-vectors are now :
  energy-cutoff  :      500.00
  volume of cell :     1484.46
      direct lattice vectors                 reciprocal lattice vectors
     8.791366577  0.000000000  0.000000000     0.113747958 -0.065672414  0.000000000
     4.395683289  7.613546790  0.000000000     0.000000000  0.131344829  0.000000000
     0.000000000  0.000000000 22.178121567     0.000000000  0.000000000  0.045089481

  length of vectors
     8.791366577  8.791366577 22.178121567     0.131344829  0.131344829  0.045089481

 FORCES acting on ions
    electron-ion (+dipol)            ewald-force                    non-local-force                 convergence-correction
   0.459E-04 -.270E-01 0.249E+04   -.954E-04 -.318E-02 -.249E+04   0.190E-12 0.289E-01 -.209E+01   -.105E-03 -.164E-02 0.126E+00
   0.152E+00 0.311E+00 0.249E+04   -.350E+00 -.276E+00 -.249E+04   0.998E-01 0.669E-01 -.154E+01   0.966E-01 -.865E-01 0.150E+00
   -.152E+00 0.311E+00 0.249E+04   0.350E+00 -.276E+00 -.249E+04   -.998E-01 0.669E-01 -.154E+01   -.971E-01 -.846E-01 0.151E+00
   0.375E+00 -.315E-01 0.249E+04   -.411E+00 -.166E+00 -.249E+04   0.739E-01 0.421E-01 -.155E+01   -.179E-01 0.147E+00 0.189E+00
   -.772E-05 -.365E-01 0.249E+04   0.981E-04 0.949E-03 -.249E+04   0.126E-12 0.192E-01 -.123E+01   0.624E-02 0.152E-01 0.280E+00
   -.375E+00 -.315E-01 0.249E+04   0.411E+00 -.166E+00 -.249E+04   -.739E-01 0.421E-01 -.155E+01   0.165E-01 0.148E+00 0.190E+00
   0.174E+00 -.272E+00 0.249E+04   -.610E-01 0.442E+00 -.249E+04   0.326E-01 -.120E+00 -.152E+01   -.132E+00 -.556E-01 0.181E+00
   -.174E+00 -.272E+00 0.249E+04   0.610E-01 0.442E+00 -.249E+04   -.326E-01 -.120E+00 -.152E+01   0.134E+00 -.566E-01 0.182E+00
   0.361E-04 0.475E-01 0.249E+04   0.792E-04 0.225E-02 -.249E+04   -.157E-12 -.239E-01 -.192E+01   -.666E-02 -.243E-01 0.748E-01
   0.311E+01 0.176E+01 0.822E+03   -.281E+01 -.164E+01 -.821E+03   -.336E+00 -.173E+00 -.765E+00   0.445E-01 0.646E-01 0.459E+00
   -.288E-04 0.314E+01 0.827E+03   0.414E-04 -.344E+01 -.827E+03   0.119E-11 0.181E+00 -.351E+00   0.628E-02 0.723E-01 0.378E+00
   -.311E+01 0.176E+01 0.822E+03   0.281E+01 -.164E+01 -.821E+03   0.336E+00 -.173E+00 -.765E+00   -.461E-01 0.656E-01 0.458E+00
   0.278E+01 -.157E+01 0.827E+03   -.296E+01 0.173E+01 -.827E+03   0.136E+00 -.119E+00 -.388E+00   0.101E-01 -.132E-01 0.372E+00
   -.278E+01 -.157E+01 0.827E+03   0.296E+01 0.173E+01 -.827E+03   -.136E+00 -.119E+00 -.388E+00   0.569E-03 -.140E-01 0.371E+00
   0.161E-04 0.117E+01 0.823E+03   -.108E-03 -.133E+01 -.823E+03   0.507E-12 0.773E-01 -.764E+00   -.163E-02 0.545E-01 0.439E+00
   -.813E-05 -.362E+01 0.822E+03   0.207E-04 0.325E+01 -.821E+03   0.284E-11 0.433E+00 -.782E+00   0.123E-03 -.725E-01 0.411E+00
   0.105E+01 -.543E+00 0.823E+03   -.117E+01 0.675E+00 -.823E+03   0.655E-01 -.499E-01 -.762E+00   0.366E-01 -.716E-01 0.409E+00
   -.105E+01 -.543E+00 0.823E+03   0.117E+01 0.675E+00 -.823E+03   -.655E-01 -.499E-01 -.762E+00   -.366E-01 -.697E-01 0.410E+00
   0.408E-04 -.602E+00 -.872E+03   -.127E-03 0.359E+00 0.871E+03   0.712E-12 0.108E+00 0.729E+00   -.130E-03 0.130E+00 0.530E+00
   0.661E+01 0.389E+01 -.858E+03   -.543E+01 -.326E+01 0.858E+03   -.125E+01 -.696E+00 -.106E+01   0.665E-01 0.397E-01 0.674E+00
   -.661E+01 0.389E+01 -.858E+03   0.543E+01 -.326E+01 0.858E+03   0.125E+01 -.696E+00 -.106E+01   -.667E-01 0.402E-01 0.674E+00
   0.158E+00 -.186E+00 -.864E+03   -.417E+00 0.394E+00 0.863E+03   0.241E+00 -.168E+00 0.433E+00   0.342E-01 -.464E-01 0.500E+00
   -.572E-04 -.794E+01 -.858E+03   0.416E-04 0.648E+01 0.858E+03   0.102E-10 0.155E+01 -.121E+01   0.762E-03 -.759E-01 0.658E+00
   -.158E+00 -.186E+00 -.864E+03   0.417E+00 0.394E+00 0.863E+03   -.241E+00 -.168E+00 0.433E+00   -.342E-01 -.467E-01 0.499E+00
   0.554E+00 0.377E+00 -.873E+03   -.355E+00 -.304E+00 0.871E+03   -.844E-01 -.331E-01 0.754E+00   -.112E+00 -.377E-01 0.597E+00
   -.553E+00 0.377E+00 -.873E+03   0.355E+00 -.304E+00 0.871E+03   0.844E-01 -.331E-01 0.754E+00   0.112E+00 -.379E-01 0.598E+00
   0.204E-04 0.136E+00 -.864E+03   0.110E-03 -.522E+00 0.863E+03   0.225E-11 0.343E+00 0.434E+00   -.246E-03 0.637E-01 0.550E+00
   0.540E-04 0.593E+00 -.250E+04   -.113E-03 -.516E+00 0.250E+04   -.288E-12 -.438E-01 0.204E+01   0.131E-02 -.493E-01 0.622E-01
   0.476E+01 0.847E+01 -.251E+04   -.403E+01 -.741E+01 0.251E+04   -.840E+00 -.117E+01 0.174E+01   0.933E-01 0.842E-01 0.457E-01
   -.476E+01 0.847E+01 -.251E+04   0.403E+01 -.741E+01 0.251E+04   0.840E+00 -.117E+01 0.174E+01   -.104E+00 0.855E-01 0.456E-01
   0.110E+02 0.442E+00 -.251E+04   -.975E+01 -.422E+00 0.250E+04   -.145E+01 -.605E-01 0.183E+01   0.232E+00 0.392E-01 0.894E-02
   -.110E+02 0.442E+00 -.251E+04   0.975E+01 -.422E+00 0.250E+04   0.145E+01 -.605E-01 0.183E+01   -.243E+00 0.400E-01 0.876E-02
   0.339E+01 -.862E+01 -.251E+04   -.280E+01 0.762E+01 0.251E+04   -.696E+00 0.120E+01 0.174E+01   0.760E-01 -.175E+00 0.559E-01
   -.339E+01 -.862E+01 -.251E+04   0.280E+01 0.762E+01 0.251E+04   0.696E+00 0.120E+01 0.174E+01   -.849E-01 -.175E+00 0.558E-01
   0.247E-04 -.493E+00 -.250E+04   0.105E-03 0.396E+00 0.250E+04   0.450E-12 0.685E-01 0.213E+01   -.531E-02 0.396E-01 0.749E-01
   -.288E-04 -.747E+00 -.147E+04   0.674E-04 0.625E+00 0.147E+04   0.795E-12 0.121E+00 -.599E+00   0.342E-02 0.375E-01 0.110E+00
   0.148E+02 -.621E-02 -.282E+03   -.173E+02 -.260E-01 0.284E+03   0.258E+01 0.139E-01 -.144E+01   -.126E-01 0.785E-02 -.291E-01
   -.148E+02 -.621E-02 -.282E+03   0.173E+02 -.260E-01 0.284E+03   -.258E+01 0.139E-01 -.144E+01   0.128E-01 0.786E-02 -.293E-01
   0.315E-03 -.327E+00 -.223E+01   -.462E-13 0.306E-12 -.111E-10   0.221E-11 0.336E+00 -.866E+01   -.179E-01 -.123E-01 0.109E+02

 POSITION                                       TOTAL-FORCE (eV/Angst)
      0.00000      0.00000      5.28219        -0.000000     -0.002847     -0.024304
      2.93046      0.00000      5.28219        -0.002009      0.016655      0.024913
      5.86091      0.00000      5.28219         0.002009      0.016655      0.024913
      1.46523      2.53785      5.28219         0.020376     -0.008234      0.022387
      4.39568      2.53785      5.28219        -0.000000     -0.001064     -0.019787
      7.32614      2.53785      5.28219        -0.020376     -0.008234      0.022387
      2.93046      5.07570      5.28219         0.012300     -0.006447      0.021887
      5.86091      5.07570      5.28219        -0.012300     -0.006447      0.021887
      8.79137      5.07570      5.28219         0.000000      0.001577      0.011964
      1.46523      0.84595      7.67490         0.006806      0.005512     -0.001828
      4.39568      0.84595      7.67490        -0.000000     -0.043326     -0.055061
      7.32614      0.84595      7.67490        -0.006806      0.005512     -0.001828
      2.93046      3.38380      7.67490        -0.031833      0.022120     -0.044454
      5.86091      3.38380      7.67490         0.031833      0.022120     -0.044454
      8.79137      3.38380      7.67490        -0.000000     -0.021564      0.002253
      4.39568      5.92165      7.67490        -0.000000     -0.013590      0.002150
      7.32614      5.92165      7.67490        -0.017547      0.011355      0.008635
     10.25659      5.92165      7.67490         0.017547      0.011355      0.008635
      8.79137      1.69455     10.06139        -0.000000     -0.003976      0.030680
      2.94158      1.69832     10.04035        -0.003606     -0.022481     -0.081307
      5.84978      1.69832     10.04035         0.003606     -0.022481     -0.081307
     10.25392      4.23129     10.05365         0.016157     -0.006760      0.000447
      4.39568      4.21690     10.04035         0.000000      0.011997     -0.062143
      7.32881      4.23129     10.05365        -0.016157     -0.006760      0.000447
     11.71953      6.76627     10.06139         0.002242      0.002041      0.008861
      5.86321      6.76627     10.06139        -0.002242      0.002041      0.008861
      8.79137      6.76451     10.05365         0.000000      0.020720     -0.000617
      0.00000      0.00000     12.42536        -0.000000     -0.015924     -0.017712
      2.96459      0.05999     12.43855        -0.013023     -0.021797     -0.013361
      5.82677      0.05999     12.43855         0.013023     -0.021797     -0.013361
      1.53425      2.53742     12.43855         0.035668     -0.000585      0.019484
      7.25712      2.53742     12.43855        -0.035668     -0.000585      0.019484
      2.96534      5.01614     12.43855        -0.017057      0.029401     -0.016921
      5.82603      5.01614     12.43855         0.017057      0.029401     -0.016921
      8.79137      5.07570     12.42471         0.000000      0.010540     -0.018047
      4.39568      2.53785     12.16969         0.000000      0.036689      0.279316
      3.92351      2.52431     13.71635         0.063783     -0.010395     -0.013089
      4.86786      2.52431     13.71635        -0.063783     -0.010395     -0.013089
    total drift:                               -0.017576     -0.003274      0.026809

  FREE ENERGIE OF THE ION-ELECTRON SYSTEM (eV)
  free  energy   TOTEN  =      -102.42437824 eV

  energy  without entropy=     -102.42437824  energy(sigma->0) =     -102.42437824

 stress matrix after NEB project (eV)
    -10.01236     -0.00000      0.00000
     -0.00000     -9.87578      0.04331
      0.00000      0.04331     -0.26037
  FORCES: max atom, RMS     0.065936    0.015127
  FORCE total and by dimension    0.093248    0.063783
  Stress total and by dimension   14.065911   10.012358
|           W    W    AA    RRRRR   N    N  II  N    N   GGGG   !!!           |
|           W    W   A  A   R    R  NN   N  II  NN   N  G    G  !!!           |
|           W    W  A    A  R    R  N N  N  II  N N  N  G       !!!           |
|           W WW W  AAAAAA  RRRRR   N  N N  II  N  N N  G  GGG   !            |
|           WW  WW  A    A  R   R   N   NN  II  N   NN  G    G                |
|           W    W  A    A  R    R  N    N  II  N    N   GGGG   !!!           |
|     Tetrahedron method does not include variations of the Fermi             |
|     occupations, so forces and stress will be inaccurate. We suggest        |
|     using a different smearing scheme ISMEAR = 1 or 2 for metals in         |
|     relaxations.                                                            |

 total charge

# of ion       s       p       d       tot
    1        0.418   0.202   9.179   9.799
    2        0.417   0.203   9.177   9.798
    3        0.417   0.203   9.177   9.798
    4        0.418   0.203   9.177   9.798
    5        0.418   0.203   9.175   9.796
    6        0.418   0.203   9.177   9.798
    7        0.417   0.203   9.177   9.798
    8        0.417   0.203   9.177   9.798
    9        0.415   0.202   9.179   9.796
   10        0.407   0.269   9.163   9.839
   11        0.410   0.266   9.168   9.845
   12        0.407   0.269   9.163   9.839
   13        0.409   0.267   9.168   9.844
   14        0.409   0.267   9.168   9.844
   15        0.403   0.270   9.165   9.838
   16        0.408   0.269   9.163   9.840
   17        0.403   0.270   9.165   9.838
   18        0.403   0.270   9.165   9.838
   19        0.401   0.265   9.166   9.832
   20        0.429   0.293   9.145   9.867
   21        0.429   0.293   9.145   9.867
   22        0.396   0.275   9.165   9.836
   23        0.431   0.295   9.142   9.869
   24        0.396   0.275   9.165   9.836
   25        0.402   0.264   9.167   9.833
   26        0.402   0.264   9.167   9.833
   27        0.396   0.274   9.166   9.836
   28        0.413   0.195   9.180   9.787
   29        0.423   0.207   9.171   9.800
   30        0.423   0.207   9.171   9.800
   31        0.419   0.213   9.167   9.799
   32        0.419   0.213   9.167   9.799
   33        0.423   0.206   9.171   9.800
   34        0.423   0.206   9.171   9.800
   35        0.407   0.196   9.180   9.784
   36        0.290   0.280   5.159   5.728
   37        0.534   0.030   0.000   0.564
   38        0.534   0.030   0.000   0.564
tot         15.806   8.724 326.048 350.579

 BZINTS: Fermi energy:    0.818288;  394.000000 electrons
         Band energy:-0.126760E+04;  BLOECHL correction:   -0.017616