 vasp.6.2.0 18Jan21 (build Jun 12 2021 23:27:24) complex

 executed on             LinuxIFC date 2022.05.30  17:08:10

 INCAR:
   ISMEAR = -5
   SIGMA = 0.1
   ISPIN = 1
   EDIFF = 1.d-5
   EDIFFG = -0.01
   NSW = 0
   NELM = 150
   ENCUT = 500
   ISIF = 2
   IBRION = 2
   LREAL = Auto
   ALGO = Fast
   ICHARG = 11
   LORBIT = 10
   LCHARG = .F.
   LWAVE = .F.

 POTCAR:    PAW_PBE Ag 02Apr2005
 POTCAR:    PAW_PBE Mo 08Apr2002
 POTCAR:    PAW_PBE C 08Apr2002
 POTCAR:    PAW_PBE O 08Apr2002
 POTCAR:    PAW_PBE H 15Jun2001
|           W    W    AA    RRRRR   N    N  II  N    N   GGGG   !!!           |
|           W    W   A  A   R    R  NN   N  II  NN   N  G    G  !!!           |
|           W    W  A    A  R    R  N N  N  II  N N  N  G       !!!           |
|           W WW W  AAAAAA  RRRRR   N  N N  II  N  N N  G  GGG   !            |
|           WW  WW  A    A  R   R   N   NN  II  N   NN  G    G                |
|           W    W  A    A  R    R  N    N  II  N    N   GGGG   !!!           |
|     For optimal performance we recommend to set                             |
|       NCORE = 2 up to number-of-cores-per-socket                            |
|     This setting can greatly improve the performance of VASP for DFT.       |
|     The default, NCORE=1 might be grossly inefficient on modern             |
|     multi-core architectures or massively parallel machines. Do your        |
|     Unfortunately you need to use the default for GW and RPA                |
|     calculations (for HF NCORE is supported but not extensively tested      |
|     yet).                                                                   |

 POTCAR:    PAW_PBE Ag 02Apr2005
   VRHFIN =Ag : s1 d10

   TITEL  = PAW_PBE Ag 02Apr2005
   POMASS =  107.868; ZVAL   =   11.000    mass and valenz
   ENMAX  =  249.844; ENMIN  =  187.383 eV

 POTCAR:    PAW_PBE Mo 08Apr2002
   VRHFIN =Mo: 4p5s4d

[...]

 POTCAR:    PAW_PBE C 08Apr2002
   VRHFIN =C: s2p2

[...]

 POTCAR:    PAW_PBE O 08Apr2002
   VRHFIN =O: s2p4

   TITEL  = PAW_PBE O 08Apr2002
   POMASS =   16.000; ZVAL   =    6.000    mass and valenz
   ENMAX  =  400.000; ENMIN  =  300.000 eV

 POTCAR:    PAW_PBE H 15Jun2001
   VRHFIN =H: ultrasoft test

   TITEL  = PAW_PBE H 15Jun2001
   POMASS =    1.000; ZVAL   =    1.000    mass and valenz
   ENMAX  =  250.000; ENMIN  =  200.000 eV

 Optimization of the real space projectors (new method)

 maximal supplied QI-value         = 15.12
 optimisation between [QCUT,QGAM] = [ 11.34, 22.83] = [ 36.00,145.93] Ry
 Optimized for a Real-space Cutoff    1.43 Angstroem

   l    n(q)    QCUT    max X(q) W(low)/X(q) W(high)/X(q)  e(spline)
   2      9    11.338    53.897    0.16E-03    0.20E-03    0.28E-06
   2      9    11.338    52.416    0.16E-03    0.20E-03    0.29E-06
   0     10    11.338   122.045    0.31E-04    0.76E-04    0.15E-06
   0     10    11.338    73.629    0.30E-04    0.72E-04    0.15E-06
   1      9    11.338    15.255    0.20E-03    0.19E-04    0.17E-06
   1      9    11.338     9.562    0.16E-03    0.15E-04    0.14E-06
 Optimization of the real space projectors (new method)

[...]

   l    n(q)    QCUT    max X(q) W(low)/X(q) W(high)/X(q)  e(spline)
   0      7    11.387    20.381    0.39E-03    0.13E-02    0.15E-06
   0      7    11.387    15.268    0.42E-03    0.14E-02    0.17E-06
   1      6    11.387     5.964    0.41E-03    0.11E-02    0.17E-06
   1      6    11.387     5.382    0.39E-03    0.87E-03    0.15E-06
 Optimization of the real space projectors (new method)

 maximal supplied QI-value         = 34.20
 optimisation between [QCUT,QGAM] = [ 11.29, 22.57] = [ 35.68,142.71] Ry
 Optimized for a Real-space Cutoff    1.16 Angstroem

   l    n(q)    QCUT    max X(q) W(low)/X(q) W(high)/X(q)  e(spline)
   0      8    11.287    19.460    0.40E-03    0.73E-03    0.16E-06
   0      8    11.287    12.209    0.38E-03    0.70E-03    0.15E-06
   1      7    11.287     4.655    0.22E-03    0.25E-04    0.22E-06
  PAW_PBE Ag 02Apr2005                  :
  PAW_PBE Mo 08Apr2002                  :
  PAW_PBE C 08Apr2002                   :
  PAW_PBE O 08Apr2002                   :
  PAW_PBE H 15Jun2001                   :

 POSCAR: Ag-Mo-COH
  positions in direct lattice
  velocities in cartesian coordinates
 exchange correlation table for  LEXCH =        8
   RHO(1)=    0.500       N(1)  =     2000
   RHO(2)=  100.500       N(2)  =     4000

 VTST: version 3.2, (02/03/18)

 CHAIN: initializing optimizer

 OPT: Using VASP Conjugate-Gradient optimizer
 CHAIN: Read ICHAIN            0

 POSCAR: Ag-Mo-COH
  positions in direct lattice
  velocities in cartesian coordinates

 ion  position               nearest neighbor table
   1  0.000  0.000  0.199-   2 2.93   8 2.93   7 2.93   6 2.93   4 2.93  12 2.93  16 2.93  10 2.93
                             3 2.93
   2  0.333  0.000  0.199-   1 2.93   8 2.93   9 2.93   3 2.93   4 2.93   5 2.93  10 2.93  17 2.93
                            11 2.93
   3  0.667  0.000  0.199-   9 2.93   2 2.93   5 2.93  11 2.93   7 2.93  18 2.93   1 2.93   6 2.93
                            12 2.93
   4  0.000  0.333  0.199-   5 2.93   6 2.93   2 2.93   1 2.93   7 2.93  13 2.93  15 2.93   9 2.93
                            10 2.93
   5  0.333  0.333  0.199-   4 2.93   3 2.93   7 2.93   2 2.93   8 2.93  14 2.93  13 2.93  11 2.93
                             6 2.93
   6  0.667  0.333  0.199-   4 2.93   9 2.93   1 2.93  15 2.93   8 2.93  12 2.93   3 2.93   5 2.93
                            14 2.93
   7  0.000  0.667  0.199-   8 2.93   1 2.93   5 2.93   3 2.93   4 2.93  16 2.93  18 2.93  13 2.93
                             9 2.93
   8  0.333  0.667  0.199-   7 2.93   1 2.93   2 2.93   9 2.93   5 2.93  16 2.93   6 2.93  17 2.93
                            14 2.93
   9  0.667  0.667  0.199-   3 2.93   2 2.93   8 2.93   6 2.93  17 2.93   4 2.93  15 2.93   7 2.93
                            18 2.93
  10  0.111  0.111  0.289-  20 2.90  19 2.93  26 2.93  12 2.93  16 2.93  15 2.93  17 2.93  13 2.93
                            11 2.93   2 2.93   1 2.93   4 2.93
  11  0.444  0.111  0.289-  21 2.90  20 2.90  27 2.93  14 2.93  17 2.93  18 2.93   3 2.93  12 2.93
                            13 2.93  10 2.93   5 2.93   2 2.93
  12  0.778  0.111  0.289-  21 2.90  25 2.93  19 2.93  10 2.93  16 2.93  18 2.93  15 2.93  11 2.93
                             1 2.93  14 2.93   6 2.93   3 2.93
  13  0.111  0.444  0.289-  20 2.90  23 2.90  22 2.93  15 2.93  14 2.93  18 2.93  10 2.93  11 2.93
                            16 2.93   4 2.93   5 2.93   7 2.93
  14  0.444  0.444  0.289-  23 2.90  21 2.90  24 2.93  13 2.93  11 2.93  16 2.93   5 2.93  12 2.93
                            17 2.93   8 2.93  15 2.93   6 2.93
  15  0.778  0.444  0.289-  24 2.92  22 2.92  19 2.92  13 2.93  10 2.93  12 2.93  17 2.93  18 2.93
                             4 2.93   6 2.93   9 2.93  14 2.93
  16  0.111  0.778  0.289-  23 2.90  26 2.93  25 2.93  18 2.93  12 2.93  10 2.93  14 2.93  17 2.93
                            13 2.93   7 2.93   8 2.93   1 2.93
  17  0.444  0.778  0.289-  27 2.92  24 2.92  26 2.92  11 2.93  10 2.93   9 2.93  18 2.93  15 2.93
                            16 2.93   2 2.93  14 2.93   8 2.93
  18  0.778  0.778  0.289-  22 2.92  27 2.92  25 2.92  16 2.93  12 2.93  13 2.93  11 2.93  17 2.93
                            15 2.93   7 2.93   3 2.93   9 2.93
  19  0.889  0.222  0.379-  28 2.92  15 2.92  10 2.93  12 2.93  24 2.93  22 2.93  26 2.93  25 2.93
                            20 2.93  21 2.93  32 2.96  31 2.96
  20  0.222  0.222  0.377-  36 2.79  13 2.90  11 2.90  10 2.90  21 2.93  23 2.93  19 2.93  26 2.93
                            27 2.93  22 2.93  31 2.94  29 2.94
  21  0.555  0.222  0.377-  36 2.79  11 2.90  14 2.90  12 2.90  20 2.93  23 2.93  25 2.93  19 2.93
                            27 2.93  24 2.93  30 2.94  32 2.94
  22  0.888  0.556  0.379-  35 2.91  24 2.92  27 2.92  18 2.92  15 2.92  13 2.93  25 2.93  19 2.93
                            23 2.93  20 2.93  33 2.94  31 2.94
  23  0.222  0.555  0.377-  36 2.79  14 2.90  13 2.90  16 2.90  21 2.93  20 2.93  26 2.93  25 2.93
                            22 2.93  24 2.93  34 2.94  33 2.94
  24  0.556  0.556  0.379-  35 2.91  27 2.92  22 2.92  15 2.92  17 2.92  14 2.93  19 2.93  26 2.93
                            23 2.93  21 2.93  32 2.94  34 2.94
  25  0.889  0.889  0.379-  28 2.92  18 2.92  16 2.93  12 2.93  22 2.93  27 2.93  26 2.93  19 2.93
                            23 2.93  21 2.93  33 2.96  30 2.96
  26  0.222  0.889  0.379-  28 2.92  17 2.92  16 2.93  10 2.93  27 2.93  24 2.93  25 2.93  19 2.93
                            23 2.93  20 2.93  34 2.96  29 2.96
  27  0.556  0.888  0.379-  35 2.91  24 2.92  22 2.92  17 2.92  18 2.92  11 2.93  26 2.93  25 2.93
                            20 2.93  21 2.93  29 2.94  30 2.94
  28  0.000  0.000  0.468-  26 2.92  25 2.92  19 2.92  29 2.95  34 2.95  33 2.95  32 2.95  31 2.95
                            30 2.95
  29  0.333  0.005  0.469-  31 2.88  30 2.89  36 2.89  27 2.94  20 2.94  28 2.95  35 2.96  26 2.96
                            34 3.02
  30  0.662  0.005  0.469-  32 2.88  29 2.89  36 2.89  27 2.94  21 2.94  28 2.95  35 2.96  25 2.96
                            33 3.02
  31  0.005  0.333  0.469-  29 2.88  33 2.89  36 2.89  22 2.94  20 2.94  28 2.95  35 2.96  19 2.96
                            32 3.02
  32  0.662  0.333  0.469-  30 2.88  34 2.89  36 2.89  24 2.94  21 2.94  28 2.95  35 2.96  19 2.96
                            31 3.02
  33  0.005  0.662  0.469-  34 2.88  31 2.89  36 2.89  22 2.94  23 2.94  28 2.95  35 2.96  25 2.96
                            30 3.02
  34  0.333  0.662  0.469-  33 2.88  32 2.89  36 2.89  24 2.94  23 2.94  28 2.95  35 2.96  26 2.96
                            29 3.02
  35  0.667  0.667  0.468-  24 2.91  27 2.91  22 2.91  30 2.96  32 2.96  29 2.96  34 2.96  31 2.96
                            33 2.96
  36  0.333  0.333  0.461-  37 1.83  21 2.79  20 2.79  23 2.79  31 2.89  30 2.89  33 2.89  29 2.89
                            34 2.89  32 2.89
  37  0.333  0.333  0.530-  38 1.27  36 1.83
  38  0.333  0.333  0.577-  39 0.96  37 1.27
  39  0.333  0.333  0.613-  38 0.96

  LATTYP: Found a hexagonal cell.
 ALAT       =     8.7913665772
 C/A-ratio  =     3.0233954145

  Lattice vectors:

 A1 = (  -4.3956832886,  -7.6135467898,   0.0000000000)
 A2 = (   8.7913665771,   0.0000000000,   0.0000000000)
 A3 = (   0.0000000000,   0.0000000000,  26.5797773968)

Analysis of symmetry for initial positions (statically):
 Subroutine PRICEL returns:
 Original cell was already a primitive cell.

 Routine SETGRP: Setting up the symmetry group for a
 hexagonal supercell.

 Subroutine GETGRP returns: Found  6 space group operations
 (whereof  6 operations were pure point group operations)
 out of a pool of 24 trial point group operations.

The static configuration has the point symmetry C_3v.

Analysis of symmetry for dynamics (positions and initial velocities):
 Subroutine PRICEL returns:
 Original cell was already a primitive cell.

[...]

The dynamic configuration has the point symmetry C_3v.

Analysis of constrained symmetry for selective dynamics:
 Subroutine PRICEL returns:
[...]
     41      -4.8101      2.00000
     42      -4.7750      2.00000
     43      -4.7456      2.00000
     44      -4.7397      2.00000
     45      -4.7321      2.00000
     46      -4.7236      2.00000
     47      -4.7101      2.00000
     48      -4.6140      2.00000
     49      -4.5915      2.00000
     50      -4.5776      2.00000
     51      -4.5740      2.00000
     52      -4.5725      2.00000
     53      -4.5658      2.00000
     54      -4.5505      2.00000
     55      -4.5483      2.00000
     56      -4.5414      2.00000
     57      -4.5304      2.00000
     58      -4.4626      2.00000
     59      -4.4537      2.00000
     60      -4.4465      2.00000
[...]
    238       5.3309      0.00000
    239       5.4021      0.00000
    240       5.4562      0.00000
    241       5.6007      0.00000
    242       5.6981      0.00000
    243       5.7549      0.00000
    244       5.7753      0.00000
    245       5.8695      0.00000
    246       5.8797      0.00000
    247       5.8997      0.00000
    248       5.9149      0.00000
    249       6.1413      0.00000
    250       6.1899      0.00000
    251       6.6694      0.00000
    252       6.8351      0.00000

 soft charge-density along one line, spin component           1
         0         1         2         3         4         5         6         7         8         9
 total charge-density along one line

------------------------ aborting loop because EDIFF is reached ----------------------------------------

 total charge

# of ion       s       p       d       tot
    1        0.418   0.203   9.179   9.800
    2        0.419   0.204   9.177   9.799
    3        0.419   0.204   9.177   9.799
    4        0.419   0.204   9.177   9.799
    5        0.416   0.204   9.175   9.795
    6        0.419   0.204   9.177   9.799
    7        0.419   0.204   9.177   9.799
    8        0.419   0.204   9.177   9.799
    9        0.415   0.203   9.179   9.797
   10        0.408   0.270   9.164   9.842
   11        0.410   0.268   9.168   9.845
   12        0.408   0.270   9.164   9.842
   13        0.410   0.268   9.168   9.845
   14        0.410   0.268   9.168   9.845
   15        0.402   0.270   9.165   9.837
   16        0.408   0.270   9.164   9.842
   17        0.402   0.270   9.165   9.837
   18        0.402   0.270   9.165   9.837
   19        0.401   0.264   9.167   9.833
   20        0.436   0.295   9.145   9.876
   21        0.436   0.295   9.145   9.876
   22        0.393   0.274   9.165   9.832
   23        0.436   0.295   9.145   9.876
   24        0.393   0.274   9.165   9.832
   25        0.401   0.264   9.167   9.833
   26        0.401   0.264   9.167   9.833
   27        0.393   0.274   9.165   9.832
   28        0.416   0.200   9.177   9.793
   29        0.427   0.219   9.162   9.808
   30        0.427   0.219   9.162   9.808
   31        0.427   0.219   9.162   9.808
   32        0.427   0.219   9.162   9.808
   33        0.427   0.219   9.162   9.808
   34        0.427   0.219   9.162   9.808
   35        0.411   0.203   9.175   9.790
   36        0.451   0.458   4.423   5.332
   37        0.921   1.443   0.000   2.364
   38        1.520   3.763   0.000   5.283
   39        0.567   0.138   0.000   0.705
tot         17.963  14.273 325.257 357.494

  FORCE on cell =-STRESS in cart. coord.  units (eV):
  Direction    XX          YY          ZZ          XY          YZ          ZX
  Alpha Z   647.80879   647.80879   647.80879
  Ewald  184282.12301184282.12300************     0.00002    -0.00001     0.00004
  Hartree194346.42155194346.42154************     0.00001     0.00000     0.00001
  E(xc)   -2104.31798 -2104.31811 -2110.25388     0.00012    -0.00000    -0.00001
  Local  ************************389514.49703     0.00065    -0.00007    -0.00019
  n-local  -372.95015  -354.89395  -365.91447    10.39335    -0.52984     0.67179
  augment  3236.07283  3236.07303  3244.76314    -0.00018    -0.00003    -0.00004
  Kinetic  5056.99553  5062.91654  5025.78702     4.89776     0.77076    -0.12669
  Fock        0.00000     0.00000     0.00000     0.00000     0.00000     0.00000
  Total      -7.66004    -7.66004     0.93899    -0.00000     0.00000     0.00000
  in kB      -6.89837    -6.89837     0.84563    -0.00000     0.00000     0.00000

 VOLUME and BASIS-vectors are now :
  energy-cutoff  :      500.00
  volume of cell :     1779.08
      direct lattice vectors                 reciprocal lattice vectors
     8.791366577  0.000000000  0.000000000     0.113747958 -0.065672414  0.000000000
     4.395683289  7.613546790  0.000000000     0.000000000  0.131344829  0.000000000
     0.000000000  0.000000000 26.579777397     0.000000000  0.000000000  0.037622587

  length of vectors
     8.791366577  8.791366577 26.579777397     0.131344829  0.131344829  0.037622587

 FORCES acting on ions
    electron-ion (+dipol)            ewald-force                    non-local-force                 convergence-correction
   0.455E-04 -.285E-04 0.283E+04   -.953E-04 0.593E-04 -.283E+04   -.919E-17 -.308E-17 -.213E+01   -.836E-04 -.155E-03 -.827E-01
   -.138E+00 0.326E+00 0.283E+04   -.994E-01 -.273E+00 -.283E+04   0.734E-01 0.313E-01 -.151E+01   0.166E+00 -.602E-01 0.339E-02
   0.138E+00 0.326E+00 0.283E+04   0.995E-01 -.273E+00 -.283E+04   -.734E-01 0.313E-01 -.151E+01   -.166E+00 -.584E-01 0.405E-02
   0.213E+00 -.282E+00 0.283E+04   -.286E+00 0.505E-01 -.283E+04   0.638E-01 0.479E-01 -.151E+01   0.308E-01 0.174E+00 0.340E-02
   -.433E-05 -.179E-04 0.283E+04   0.980E-04 -.198E-05 -.283E+04   0.560E-17 -.139E-17 -.127E+01   0.618E-02 0.378E-02 0.136E+00
   -.213E+00 -.282E+00 0.283E+04   0.286E+00 0.504E-01 -.283E+04   -.638E-01 0.479E-01 -.151E+01   -.322E-01 0.175E+00 0.412E-02
   0.351E+00 -.432E-01 0.283E+04   -.187E+00 0.223E+00 -.283E+04   -.962E-02 -.792E-01 -.151E+01   -.133E+00 -.114E+00 0.406E-02
   -.351E+00 -.431E-01 0.283E+04   0.187E+00 0.222E+00 -.283E+04   0.962E-02 -.792E-01 -.151E+01   0.135E+00 -.115E+00 0.413E-02
   0.372E-04 -.125E-04 0.283E+04   0.792E-04 -.643E-04 -.283E+04   -.492E-17 -.573E-17 -.198E+01   -.663E-02 -.341E-02 -.829E-01
   0.231E+01 0.133E+01 0.971E+03   -.210E+01 -.121E+01 -.971E+03   -.363E+00 -.209E+00 -.779E+00   0.148E+00 0.856E-01 0.605E+00
   -.283E-04 0.246E+01 0.972E+03   0.407E-04 -.281E+01 -.972E+03   0.122E-11 0.186E+00 -.426E+00   0.618E-02 0.111E+00 0.501E+00
   -.231E+01 0.133E+01 0.971E+03   0.210E+01 -.121E+01 -.971E+03   0.363E+00 -.209E+00 -.779E+00   -.150E+00 0.863E-01 0.604E+00
   0.213E+01 -.123E+01 0.972E+03   -.243E+01 0.140E+01 -.972E+03   0.161E+00 -.928E-01 -.426E+00   0.988E-01 -.500E-01 0.501E+00
   -.213E+01 -.123E+01 0.972E+03   0.243E+01 0.140E+01 -.972E+03   -.161E+00 -.928E-01 -.426E+00   -.885E-01 -.509E-01 0.499E+00
   0.150E-04 -.202E+00 0.970E+03   -.108E-03 0.668E-01 -.970E+03   0.534E-12 0.813E-01 -.769E+00   -.127E-02 0.461E-01 0.527E+00
   -.724E-05 -.267E+01 0.971E+03   0.206E-04 0.243E+01 -.971E+03   0.275E-11 0.419E+00 -.779E+00   -.930E-04 -.173E+00 0.604E+00
   -.175E+00 0.101E+00 0.970E+03   0.578E-01 -.335E-01 -.970E+03   0.704E-01 -.407E-01 -.769E+00   0.393E-01 -.242E-01 0.527E+00
   0.175E+00 0.101E+00 0.970E+03   -.579E-01 -.334E-01 -.970E+03   -.704E-01 -.407E-01 -.769E+00   -.391E-01 -.226E-01 0.528E+00
   0.387E-04 -.327E+01 -.907E+03   -.127E-03 0.302E+01 0.905E+03   0.812E-12 0.124E+00 0.852E+00   0.104E-02 0.138E+00 0.432E+00
   -.977E+01 -.564E+01 -.900E+03   0.106E+02 0.609E+01 0.900E+03   -.113E+01 -.654E+00 -.854E+00   0.141E+00 0.812E-01 0.548E+00
   0.977E+01 -.564E+01 -.900E+03   -.106E+02 0.609E+01 0.900E+03   0.113E+01 -.654E+00 -.854E+00   -.152E+00 0.808E-01 0.547E+00
   -.564E+01 0.325E+01 -.904E+03   0.524E+01 -.302E+01 0.903E+03   0.344E+00 -.198E+00 0.554E+00   0.875E-01 -.501E-01 0.439E+00
   -.530E-04 0.113E+02 -.900E+03   0.395E-04 -.122E+02 0.900E+03   0.859E-11 0.131E+01 -.854E+00   -.548E-02 -.171E+00 0.547E+00
   0.564E+01 0.325E+01 -.904E+03   -.524E+01 -.303E+01 0.903E+03   -.344E+00 -.198E+00 0.554E+00   -.859E-01 -.495E-01 0.439E+00
   0.284E+01 0.164E+01 -.907E+03   -.261E+01 -.151E+01 0.905E+03   -.107E+00 -.618E-01 0.852E+00   -.120E+00 -.692E-01 0.431E+00
   -.284E+01 0.164E+01 -.907E+03   0.261E+01 -.151E+01 0.905E+03   0.107E+00 -.618E-01 0.852E+00   0.120E+00 -.683E-01 0.432E+00
   0.194E-04 -.651E+01 -.904E+03   0.110E-03 0.605E+01 0.903E+03   0.261E-11 0.397E+00 0.554E+00   -.313E-03 0.101E+00 0.439E+00
   0.536E-04 -.364E-04 -.273E+04   -.115E-03 0.777E-04 0.273E+04   0.715E-17 -.462E-17 0.187E+01   0.229E-03 -.378E-05 0.118E+00
   0.889E+01 0.146E+02 -.271E+04   -.809E+01 -.134E+02 0.271E+04   -.907E+00 -.135E+01 0.177E+01   0.921E-01 0.175E+00 0.633E-02
   -.889E+01 0.146E+02 -.271E+04   0.809E+01 -.134E+02 0.271E+04   0.907E+00 -.135E+01 0.177E+01   -.929E-01 0.176E+00 0.661E-02
   0.171E+02 0.410E+00 -.271E+04   -.157E+02 -.290E+00 0.271E+04   -.162E+01 -.109E+00 0.177E+01   0.198E+00 -.771E-02 0.635E-02
   -.171E+02 0.410E+00 -.271E+04   0.157E+02 -.290E+00 0.271E+04   0.162E+01 -.109E+00 0.177E+01   -.198E+00 -.677E-02 0.739E-02
   0.818E+01 -.150E+02 -.271E+04   -.759E+01 0.137E+02 0.271E+04   -.717E+00 0.146E+01 0.177E+01   0.107E+00 -.168E+00 0.658E-02
   -.818E+01 -.150E+02 -.271E+04   0.759E+01 0.137E+02 0.271E+04   0.717E+00 0.146E+01 0.177E+01   -.105E+00 -.168E+00 0.734E-02
   0.239E-04 -.112E-04 -.273E+04   0.105E-03 -.659E-04 0.273E+04   -.782E-18 -.484E-17 0.196E+01   -.636E-02 -.324E-02 0.379E-01
   -.922E-05 -.409E-05 -.130E+04   0.573E-04 0.696E-05 0.131E+04   -.199E-19 -.134E-18 -.178E+01   0.650E-03 0.400E-03 0.474E-01
   0.793E-06 -.737E-04 -.102E+04   0.178E-04 0.236E-06 0.998E+03   -.217E-17 0.225E-19 0.198E+02   0.105E-02 0.645E-03 -.103E+00
   0.240E-03 -.904E-04 -.170E+04   0.857E-05 0.122E-07 0.171E+04   -.165E-18 -.275E-18 -.362E+01   0.379E-02 0.232E-02 -.163E+00
   0.664E-05 -.143E-04 -.328E+03   0.586E-06 -.236E-08 0.337E+03   -.104E-20 0.308E-19 -.869E+01   0.201E-03 0.123E-03 -.257E-01
   0.618E-03 -.852E-03 -.104E+02   -.369E-13 -.313E-12 0.750E-11   -.314E-17 -.519E-17 0.141E+01   -.912E-03 0.284E-02 0.910E+01

 POSITION                                       TOTAL-FORCE (eV/Angst)
      0.00000      0.00000      5.28219        -0.000000      0.000000     -0.014032
      2.93046      0.00000      5.28219         0.002149      0.024567      0.026246
      5.86091      0.00000      5.28219        -0.002149      0.024567      0.026246
      1.46523      2.53785      5.28219         0.022350     -0.010422      0.026246
      4.39568      2.53785      5.28219        -0.000000      0.000000     -0.014782
      7.32614      2.53785      5.28219        -0.022350     -0.010422      0.026246
      2.93046      5.07570      5.28219         0.020201     -0.014145      0.026246
      5.86091      5.07570      5.28219        -0.020201     -0.014145      0.026246
      8.79137      5.07570      5.28219        -0.000000      0.000000      0.020702
      1.46523      0.84595      7.67490        -0.006261     -0.003615     -0.034159
      4.39568      0.84595      7.67490        -0.000000     -0.057534     -0.051256
      7.32614      0.84595      7.67490         0.006261     -0.003615     -0.034159
      2.93046      3.38380      7.67490        -0.049826      0.028767     -0.051256
      5.86091      3.38380      7.67490         0.049826      0.028767     -0.051256
      8.79137      3.38380      7.67490        -0.000000     -0.007962      0.023482
      4.39568      5.92165      7.67490         0.000000      0.007230     -0.034159
      7.32614      5.92165      7.67490        -0.006895      0.003981      0.023482
     10.25659      5.92165      7.67490         0.006895      0.003981      0.023482
      8.79137      1.69286     10.06155         0.000000      0.005712      0.036768
      2.93202      1.69280     10.03008        -0.204863     -0.118278     -0.277629
      5.85935      1.69280     10.03008         0.204863     -0.118278     -0.277629
     10.25345      4.23157     10.06207         0.033582     -0.019388      0.002760
      4.39568      4.22795     10.03008         0.000000      0.236555     -0.277629
      7.32929      4.23157     10.06207        -0.033582     -0.019388      0.002760
     11.72099      6.76712     10.06155        -0.004947     -0.002856      0.036768
      5.86174      6.76712     10.06155         0.004947     -0.002856      0.036768
      8.79137      6.76396     10.06207         0.000000      0.038777      0.002760
      0.00000      0.00000     12.43674        -0.000000      0.000000     -0.051863
      2.95191      0.04038     12.46589        -0.020149     -0.040175     -0.028141
      5.83946      0.04038     12.46589         0.020149     -0.040175     -0.028141
      1.51092      2.53624     12.46589        -0.044867      0.002638     -0.028141
      7.28044      2.53624     12.46589         0.044867      0.002638     -0.028141
      2.95470      5.03693     12.46589        -0.024718      0.037537     -0.028141
      5.83667      5.03693     12.46589         0.024718      0.037537     -0.028141
      8.79137      5.07570     12.43630        -0.000000      0.000000     -0.040122
      4.39568      2.53785     12.24527        -0.000000      0.000000      1.012047
      4.39568      2.53785     14.07427        -0.000000      0.000000      0.022485
      4.39568      2.53785     15.34735        -0.000000      0.000000     -0.019479
      4.39568      2.53785     16.30328        -0.000000      0.000000     -0.003490
    total drift:                               -0.000293      0.001990      0.125579

  FREE ENERGIE OF THE ION-ELECTRON SYSTEM (eV)
  free  energy   TOTEN  =      -115.47022812 eV

  energy  without entropy=     -115.47022812  energy(sigma->0) =     -115.47022812

 stress matrix after NEB project (eV)
     -7.66004     -0.00000      0.00000
     -0.00000     -7.66004      0.00000
     -0.00000      0.00000      0.93899
  FORCES: max atom, RMS     0.022485    0.004796
  FORCE total and by dimension    0.029954    0.022485
  Stress total and by dimension   10.873549    7.660037
|           W    W    AA    RRRRR   N    N  II  N    N   GGGG   !!!           |
|           W    W   A  A   R    R  NN   N  II  NN   N  G    G  !!!           |
|           W    W  A    A  R    R  N N  N  II  N N  N  G       !!!           |
|           W WW W  AAAAAA  RRRRR   N  N N  II  N  N N  G  GGG   !            |
|           WW  WW  A    A  R   R   N   NN  II  N   NN  G    G                |
|           W    W  A    A  R    R  N    N  II  N    N   GGGG   !!!           |
|     Tetrahedron method does not include variations of the Fermi             |
|     occupations, so forces and stress will be inaccurate. We suggest        |
|     using a different smearing scheme ISMEAR = 1 or 2 for metals in         |
|     relaxations.                                                            |

 total charge

# of ion       s       p       d       tot
    1        0.418   0.203   9.179   9.800
    2        0.419   0.204   9.177   9.799
    3        0.419   0.204   9.177   9.799
    4        0.419   0.204   9.177   9.799
    5        0.416   0.204   9.175   9.795
    6        0.419   0.204   9.177   9.799
    7        0.419   0.204   9.177   9.799
    8        0.419   0.204   9.177   9.799
    9        0.415   0.203   9.179   9.797
   10        0.408   0.270   9.164   9.842
   11        0.410   0.268   9.168   9.845
   12        0.408   0.270   9.164   9.842
   13        0.410   0.268   9.168   9.845
   14        0.410   0.268   9.168   9.845
   15        0.402   0.270   9.165   9.837
   16        0.408   0.270   9.164   9.842
   17        0.402   0.270   9.165   9.837
   18        0.402   0.270   9.165   9.837
   19        0.401   0.264   9.167   9.833
   20        0.436   0.295   9.145   9.876
   21        0.436   0.295   9.145   9.876
   22        0.393   0.274   9.165   9.832
   23        0.436   0.295   9.145   9.876
   24        0.393   0.274   9.165   9.832
   25        0.401   0.264   9.167   9.833
   26        0.401   0.264   9.167   9.833
   27        0.393   0.274   9.165   9.832
   28        0.416   0.200   9.177   9.793
   29        0.427   0.219   9.162   9.808
   30        0.427   0.219   9.162   9.808
   31        0.427   0.219   9.162   9.808
   32        0.427   0.219   9.162   9.808
   33        0.427   0.219   9.162   9.808
   34        0.427   0.219   9.162   9.808
   35        0.411   0.203   9.175   9.790
   36        0.451   0.458   4.423   5.332
   37        0.921   1.443   0.000   2.364
   38        1.520   3.763   0.000   5.283
   39        0.567   0.138   0.000   0.705
tot         17.963  14.273 325.257 357.494

 BZINTS: Fermi energy:    0.418847;  402.000000 electrons
         Band energy:-0.154144E+04;  BLOECHL correction:   -0.025874