 vasp.6.2.0 18Jan21 (build Jun 12 2021 23:27:24) complex

 executed on             LinuxIFC date 2022.05.27  05:12:58

 INCAR:
   ISMEAR = -5
   SIGMA = 0.1
   ISPIN = 1
   EDIFF = 1.d-5
   EDIFFG = -0.01
   NSW = 0
   NELM = 150
   ENCUT = 500
   ISIF = 2
   IBRION = 2
   LREAL = Auto
   ALGO = Fast
   ICHARG = 11
   LORBIT = 10
   LCHARG = .F.
   LWAVE = .F.

 POTCAR:    PAW_PBE Au 04Oct2007
 POTCAR:    PAW_PBE Zr_sv 04Jan2005
 POTCAR:    PAW_PBE H 15Jun2001
|           W    W    AA    RRRRR   N    N  II  N    N   GGGG   !!!           |
|           W    W   A  A   R    R  NN   N  II  NN   N  G    G  !!!           |
|           W    W  A    A  R    R  N N  N  II  N N  N  G       !!!           |
|           W WW W  AAAAAA  RRRRR   N  N N  II  N  N N  G  GGG   !            |
|           WW  WW  A    A  R   R   N   NN  II  N   NN  G    G                |
|           W    W  A    A  R    R  N    N  II  N    N   GGGG   !!!           |
|     For optimal performance we recommend to set                             |
|       NCORE = 2 up to number-of-cores-per-socket                            |
|     This setting can greatly improve the performance of VASP for DFT.       |
|     The default, NCORE=1 might be grossly inefficient on modern             |
|     multi-core architectures or massively parallel machines. Do your        |
|     Unfortunately you need to use the default for GW and RPA                |
|     calculations (for HF NCORE is supported but not extensively tested      |
|     yet).                                                                   |

 POTCAR:    PAW_PBE Au 04Oct2007
   VRHFIN =Au: s1d10

   TITEL  = PAW_PBE Au 04Oct2007
   POMASS =  196.966; ZVAL   =   11.000    mass and valenz
   ENMAX  =  229.943; ENMIN  =  172.457 eV

 POTCAR:    PAW_PBE Zr_sv 04Jan2005
   VRHFIN =Zr: 4s4p5s4d

   TITEL  = PAW_PBE Zr_sv 04Jan2005
   POMASS =   91.224; ZVAL   =   12.000    mass and valenz
   ENMAX  =  229.898; ENMIN  =  172.424 eV

 POTCAR:    PAW_PBE H 15Jun2001
   VRHFIN =H: ultrasoft test

   TITEL  = PAW_PBE H 15Jun2001
   POMASS =    1.000; ZVAL   =    1.000    mass and valenz
   ENMAX  =  250.000; ENMIN  =  200.000 eV

 Optimization of the real space projectors (new method)

 maximal supplied QI-value         = 15.12
 optimisation between [QCUT,QGAM] = [ 11.34, 22.83] = [ 36.00,145.93] Ry
 Optimized for a Real-space Cutoff    1.39 Angstroem

   l    n(q)    QCUT    max X(q) W(low)/X(q) W(high)/X(q)  e(spline)
   2      9    11.338    60.898    0.39E-03    0.42E-03    0.21E-06
   2      9    11.338    58.894    0.40E-03    0.42E-03    0.22E-06
   0      9    11.338   109.617    0.13E-03    0.20E-04    0.13E-06
   0      9    11.338    75.026    0.13E-03    0.20E-04    0.13E-06
   1      9    11.338    16.344    0.33E-04    0.24E-03    0.18E-06
   1      9    11.338    10.160    0.26E-04    0.19E-03    0.15E-06
 Optimization of the real space projectors (new method)

[...]

   l    n(q)    QCUT    max X(q) W(low)/X(q) W(high)/X(q)  e(spline)
   0     10    11.338    12.107    0.38E-04    0.13E-04    0.27E-07
   0     10    11.338     9.948    0.69E-04    0.30E-04    0.38E-07
   1     10    11.338     3.563    0.26E-04    0.18E-04    0.40E-07
   1     10    11.338     4.524    0.25E-03    0.39E-04    0.44E-06
   2      9    11.338    87.261    0.26E-03    0.91E-05    0.26E-06
   2      9    11.338    70.950    0.25E-03    0.91E-05    0.25E-06
 Optimization of the real space projectors (new method)

 maximal supplied QI-value         = 34.20
 optimisation between [QCUT,QGAM] = [ 11.29, 22.57] = [ 35.68,142.71] Ry
 Optimized for a Real-space Cutoff    1.16 Angstroem

   l    n(q)    QCUT    max X(q) W(low)/X(q) W(high)/X(q)  e(spline)
   0      8    11.287    19.460    0.40E-03    0.73E-03    0.16E-06
   0      8    11.287    12.209    0.38E-03    0.70E-03    0.15E-06
   1      7    11.287     4.655    0.22E-03    0.25E-04    0.22E-06
  PAW_PBE Au 04Oct2007                  :
  PAW_PBE Zr_sv 04Jan2005               :
  PAW_PBE H 15Jun2001                   :

 POSCAR: Au-Zr-H2
  positions in direct lattice
  velocities in cartesian coordinates
 exchange correlation table for  LEXCH =        8
   RHO(1)=    0.500       N(1)  =     2000
   RHO(2)=  100.500       N(2)  =     4000

 VTST: version 3.2, (02/03/18)

 CHAIN: initializing optimizer

 OPT: Using VASP Conjugate-Gradient optimizer
 CHAIN: Read ICHAIN            0

 POSCAR: Au-Zr-H2
  positions in direct lattice
  velocities in cartesian coordinates

 ion  position               nearest neighbor table
   1  0.000  0.000  0.217-  16 2.94  12 2.94   6 2.94   8 2.94   7 2.94   3 2.94  10 2.94   4 2.94
                             2 2.94
   2  0.333  0.000  0.217-   9 2.94  11 2.94  17 2.94  10 2.94   8 2.94   4 2.94   5 2.94   1 2.94
                             3 2.94
   3  0.667  0.000  0.217-   7 2.94  18 2.94  12 2.94   1 2.94  11 2.94   5 2.94   6 2.94   9 2.94
                             2 2.94
   4  0.000  0.333  0.217-  10 2.94   6 2.94   5 2.94  13 2.94   2 2.94  15 2.94   9 2.94   1 2.94
                             7 2.94
   5  0.333  0.333  0.217-  13 2.94   7 2.94  11 2.94   4 2.94   2 2.94  14 2.94   3 2.94   8 2.94
                             6 2.94
   6  0.667  0.333  0.217-  15 2.94  14 2.94   1 2.94  12 2.94   4 2.94   9 2.94   8 2.94   3 2.94
                             5 2.94
   7  0.000  0.667  0.217-  18 2.94   3 2.94  16 2.94   5 2.94   1 2.94  13 2.94   8 2.94   4 2.94
                             9 2.94
   8  0.333  0.667  0.217-   9 2.94  17 2.94   1 2.94   2 2.94  14 2.94  16 2.94   6 2.94   7 2.94
                             5 2.94
   9  0.667  0.667  0.217-   2 2.94   8 2.94  17 2.94   6 2.94  15 2.94   4 2.94   3 2.94  18 2.94
                             7 2.94
  10  0.111  0.111  0.316-  20 2.93  26 2.93  19 2.93  11 2.94  17 2.94   2 2.94   4 2.94   1 2.94
                            12 2.94  16 2.94  13 2.94  15 2.94
  11  0.444  0.111  0.316-  20 2.92  21 2.92  27 2.94  13 2.94   2 2.94  10 2.94  17 2.94   5 2.94
                             3 2.94  18 2.94  14 2.94  12 2.94
  12  0.778  0.111  0.316-  21 2.93  25 2.93  19 2.93  16 2.94  18 2.94   1 2.94  14 2.94  15 2.94
                             3 2.94   6 2.94  10 2.94  11 2.94
  13  0.111  0.444  0.316-  23 2.92  20 2.92  22 2.94   5 2.94  18 2.94  11 2.94   7 2.94   4 2.94
                            16 2.94  10 2.94  14 2.94  15 2.94
  14  0.444  0.444  0.316-  21 2.92  23 2.92  24 2.94  15 2.94   6 2.94  12 2.94   8 2.94  17 2.94
                             5 2.94  16 2.94  13 2.94  11 2.94
  15  0.778  0.444  0.316-  24 2.93  22 2.93  19 2.93  14 2.94   6 2.94  17 2.94  12 2.94   9 2.94
                             4 2.94  10 2.94  13 2.94  18 2.94
  16  0.111  0.778  0.316-  23 2.93  25 2.93  26 2.93  18 2.94  12 2.94   7 2.94   1 2.94   8 2.94
                            13 2.94  10 2.94  14 2.94  17 2.94
  17  0.444  0.778  0.316-  27 2.93  24 2.93  26 2.93   9 2.94  15 2.94   2 2.94  10 2.94  11 2.94
                             8 2.94  14 2.94  16 2.94  18 2.94
  18  0.778  0.778  0.316-  22 2.93  27 2.93  25 2.93  16 2.94   7 2.94  13 2.94  12 2.94   3 2.94
                            11 2.94   9 2.94  15 2.94  17 2.94
  19  0.889  0.222  0.414-  10 2.93  12 2.93  15 2.93  26 2.94  25 2.94  24 2.94  22 2.94  21 2.95
                            20 2.95  28 2.96  32 3.04  31 3.04
  20  0.223  0.223  0.414-  36 2.86  23 2.92  21 2.92  11 2.92  13 2.92  10 2.93  27 2.94  22 2.94
                            26 2.95  19 2.95  29 3.00  31 3.00
  21  0.554  0.223  0.414-  36 2.86  20 2.92  23 2.92  14 2.92  11 2.92  12 2.93  27 2.94  24 2.94
                            25 2.95  19 2.95  30 3.00  32 3.00
  22  0.888  0.556  0.414-  24 2.92  27 2.92  18 2.93  15 2.93  13 2.94  25 2.94  19 2.94  23 2.94
                            20 2.94  35 2.96  33 3.01  31 3.01
  23  0.223  0.554  0.414-  36 2.86  20 2.92  21 2.92  13 2.92  14 2.92  16 2.93  22 2.94  24 2.94
                            25 2.95  26 2.95  33 3.00  34 3.00
  24  0.556  0.556  0.414-  27 2.92  22 2.92  15 2.93  17 2.93  14 2.94  26 2.94  19 2.94  21 2.94
                            23 2.94  35 2.96  32 3.01  34 3.01
  25  0.889  0.889  0.414-  16 2.93  12 2.93  18 2.93  19 2.94  26 2.94  22 2.94  27 2.94  23 2.95
                            21 2.95  28 2.96  33 3.04  30 3.04
  26  0.222  0.889  0.414-  10 2.93  16 2.93  17 2.93  19 2.94  25 2.94  27 2.94  24 2.94  20 2.95
                            23 2.95  28 2.96  29 3.04  34 3.04
  27  0.556  0.888  0.414-  24 2.92  22 2.92  17 2.93  18 2.93  11 2.94  26 2.94  25 2.94  20 2.94
                            21 2.94  35 2.96  29 3.01  30 3.01
  28  0.000  0.000  0.514-  25 2.96  19 2.96  26 2.96  34 2.97  32 2.97  33 2.97  30 2.97  31 2.97
                            29 2.97
  29  0.334  0.006  0.517-  30 2.88  31 2.89  36 2.89  35 2.96  28 2.97  20 3.00  27 3.01  26 3.04
                            34 3.04
  30  0.661  0.006  0.517-  29 2.88  32 2.89  36 2.89  35 2.96  28 2.97  21 3.00  27 3.01  25 3.04
                            33 3.04
  31  0.006  0.334  0.517-  33 2.88  29 2.89  36 2.89  35 2.96  28 2.97  20 3.00  22 3.01  19 3.04
                            32 3.04
  32  0.661  0.334  0.517-  34 2.88  30 2.89  36 2.89  35 2.96  28 2.97  21 3.00  24 3.01  19 3.04
                            31 3.04
  33  0.006  0.661  0.517-  31 2.88  34 2.89  36 2.89  35 2.96  28 2.97  23 3.00  22 3.01  25 3.04
                            30 3.04
  34  0.334  0.661  0.517-  32 2.88  33 2.89  36 2.89  35 2.96  28 2.97  23 3.00  24 3.01  26 3.04
                            29 3.04
  35  0.667  0.667  0.515-  24 2.96  27 2.96  22 2.96  29 2.96  34 2.96  32 2.96  31 2.96  30 2.96
                            33 2.96
  36  0.333  0.333  0.509-  37 2.25  38 2.25  20 2.86  23 2.86  21 2.86  33 2.89  31 2.89  29 2.89
                            30 2.89  34 2.89  32 2.89
  37  0.289  0.334  0.600-  38 0.78  36 2.25
  38  0.377  0.334  0.600-  37 0.78  36 2.25

  LATTYP: Found a hexagonal cell.
 ALAT       =     8.8135128021
 C/A-ratio  =     2.7579977726

  Lattice vectors:

 A1 = (  -4.4067569092,  -7.6327256898,   0.0000000000)
 A2 = (   8.8135128021,   0.0000000000,   0.0000000000)
 A3 = (   0.0000000000,   0.0000000000,  24.3076486773)

Analysis of symmetry for initial positions (statically):
 Subroutine PRICEL returns:
 Original cell was already a primitive cell.

 Routine SETGRP: Setting up the symmetry group for a
 hexagonal supercell.

 Subroutine GETGRP returns: Found  2 space group operations
 (whereof  2 operations were pure point group operations)
 out of a pool of 24 trial point group operations.

The static configuration has the point symmetry C_1h.

Analysis of symmetry for dynamics (positions and initial velocities):
 Subroutine PRICEL returns:
 Original cell was already a primitive cell.

[...]

The dynamic configuration has the point symmetry C_1h.

Analysis of constrained symmetry for selective dynamics:
 Subroutine PRICEL returns:
 Original cell was already a primitive cell.

 Routine SETGRP: Setting up the symmetry group for a
 hexagonal supercell.

 Subroutine GETGRP returns: Found  2 space group operations
[...]
     33      -5.2028      2.00000
     34      -5.1505      2.00000
     35      -5.0991      2.00000
     36      -5.0745      2.00000
     37      -5.0378      2.00000
     38      -5.0297      2.00000
     39      -5.0043      2.00000
     40      -4.9970      2.00000
     41      -4.9757      2.00000
     42      -4.8172      2.00000
     43      -4.8041      2.00000
     44      -4.7438      2.00000
     45      -4.6980      2.00000
     46      -4.6781      2.00000
     47      -4.6481      2.00000
     48      -4.6281      2.00000
     49      -4.5911      2.00000
     50      -4.5694      2.00000
     51      -4.4814      2.00000
     52      -4.4725      2.00000
     53      -4.4304      2.00000
     54      -4.4112      2.00000
     55      -4.4042      2.00000
     56      -4.3959      2.00000
     57      -4.3848      2.00000
     58      -4.3553      2.00000
     59      -4.3090      2.00000
     60      -4.2872      2.00000
[...]
    226       4.0525      0.00000
    227       4.1037      0.00000
    228       4.5357      0.00000
    229       4.6628      0.00000
    230       4.8129      0.00000
    231       5.0622      0.00000
    232       5.1284      0.00000
    233       5.2009      0.00000
    234       5.2841      0.00000
    235       5.3729      0.00000
    236       5.5753      0.00000
    237       5.8894      0.00000
    238       5.9107      0.00000
    239       5.9498      0.00000
    240       6.2363      0.00000

 soft charge-density along one line, spin component           1
         0         1         2         3         4         5         6         7         8         9
 total charge-density along one line

------------------------ aborting loop because EDIFF is reached ----------------------------------------

 total charge

# of ion       s       p       d       tot
    1        0.551   0.237   8.767   9.554
    2        0.541   0.241   8.765   9.548
    3        0.541   0.241   8.765   9.548
    4        0.541   0.241   8.766   9.548
    5        0.547   0.242   8.760   9.549
    6        0.541   0.241   8.766   9.548
    7        0.541   0.241   8.765   9.548
    8        0.541   0.241   8.765   9.548
    9        0.545   0.239   8.767   9.551
   10        0.524   0.306   8.769   9.600
   11        0.522   0.306   8.779   9.606
   12        0.524   0.306   8.769   9.600
   13        0.521   0.306   8.779   9.606
   14        0.521   0.306   8.779   9.606
   15        0.517   0.307   8.773   9.597
   16        0.523   0.306   8.769   9.599
   17        0.516   0.308   8.772   9.596
   18        0.516   0.308   8.772   9.596
   19        0.522   0.298   8.766   9.587
   20        0.570   0.330   8.733   9.633
   21        0.570   0.330   8.733   9.633
   22        0.510   0.304   8.775   9.588
   23        0.569   0.330   8.733   9.632
   24        0.510   0.304   8.775   9.588
   25        0.523   0.297   8.768   9.588
   26        0.523   0.297   8.768   9.588
   27        0.510   0.304   8.775   9.589
   28        0.542   0.236   8.752   9.530
   29        0.601   0.249   8.726   9.577
   30        0.601   0.249   8.726   9.577
   31        0.600   0.251   8.725   9.576
   32        0.600   0.251   8.725   9.576
   33        0.601   0.249   8.727   9.576
   34        0.601   0.249   8.727   9.576
   35        0.539   0.236   8.755   9.530
   36        2.183   5.982   1.463   9.628
   37        0.583   0.029   0.000   0.612
   38        0.583   0.029   0.000   0.612
tot         22.416  15.726 308.002 346.143

  FORCE on cell =-STRESS in cart. coord.  units (eV):
  Direction    XX          YY          ZZ          XY          YZ          ZX
  Alpha Z   932.53486   932.53486   932.53486
  Ewald  150717.74010150697.11449************    -0.00033     0.10412    -0.00014
  Hartree159199.26179159195.12014************     0.00000     0.06602    -0.00004
  E(xc)   -1784.22153 -1784.47639 -1791.95239     0.00000     0.00368    -0.00000
  Local  ************************322751.52117     0.00184    -0.14387     0.00010
  n-local   -58.62751   -57.92438   -24.37929     4.56294    -0.16258     0.02163
  augment  2364.99844  2364.85373  2384.25566    -0.00137     0.02827     0.00003
  Kinetic  5580.28590  5585.74260  5642.10193     0.92909     0.00366    -0.07403
  Fock        0.00000     0.00000     0.00000     0.00000     0.00000     0.00000
  Total     -21.37688   -21.24120     2.12433    -0.00000    -0.10071    -0.00000
  in kB     -20.94514   -20.81220     2.08143    -0.00000    -0.09867    -0.00000

 VOLUME and BASIS-vectors are now :
  energy-cutoff  :      500.00
  volume of cell :     1635.20
      direct lattice vectors                 reciprocal lattice vectors
     8.813512802  0.000000000  0.000000000     0.113462137 -0.065507406  0.000000000
     4.406756909  7.632725690  0.000000000     0.000000000  0.131014796  0.000000000
     0.000000000  0.000000000 24.307648677     0.000000000  0.000000000  0.041139314

  length of vectors
     8.813512802  8.813512802 24.307648677     0.131014796  0.131014796  0.041139314

 FORCES acting on ions
    electron-ion (+dipol)            ewald-force                    non-local-force                 convergence-correction
   -.200E-04 0.404E-01 0.266E+04   0.519E-04 -.802E-03 -.266E+04   -.131E-08 -.197E-01 -.527E+00   -.146E-03 -.195E-01 0.715E-01
   0.378E+00 0.474E+00 0.266E+04   -.379E+00 -.494E+00 -.266E+04   0.194E-01 0.771E-01 -.344E+00   -.175E-01 -.632E-01 0.542E-01
   -.378E+00 0.474E+00 0.266E+04   0.379E+00 -.494E+00 -.266E+04   -.194E-01 0.771E-01 -.344E+00   0.177E-01 -.613E-01 0.547E-01
   0.569E+00 0.968E-01 0.266E+04   -.617E+00 -.822E-01 -.266E+04   0.942E-01 -.264E-01 -.365E+00   -.516E-01 0.121E-01 0.444E-01
   0.735E-05 0.467E-02 0.266E+04   0.951E-04 -.181E-03 -.266E+04   -.564E-09 -.846E-02 0.106E+00   0.427E-02 0.431E-02 0.797E-01
   -.569E+00 0.968E-01 0.266E+04   0.617E+00 -.823E-01 -.266E+04   -.942E-01 -.264E-01 -.365E+00   0.501E-01 0.131E-01 0.453E-01
   0.212E+00 -.578E+00 0.266E+04   -.237E+00 0.576E+00 -.266E+04   0.556E-01 -.492E-01 -.348E+00   -.317E-01 0.533E-01 0.543E-01
   -.212E+00 -.578E+00 0.266E+04   0.237E+00 0.576E+00 -.266E+04   -.556E-01 -.492E-01 -.348E+00   0.336E-01 0.523E-01 0.546E-01
   0.196E-04 -.278E-01 0.266E+04   0.166E-03 0.100E-02 -.266E+04   0.120E-08 0.180E-01 -.298E+00   -.466E-02 0.103E-01 0.861E-01
   0.344E+01 0.204E+01 0.901E+03   -.324E+01 -.188E+01 -.901E+03   -.223E+00 -.144E+00 -.623E+00   -.440E-02 -.272E-01 0.750E-01
   0.159E-04 0.596E+01 0.908E+03   0.147E-03 -.580E+01 -.908E+03   -.316E-08 -.474E-01 -.166E+00   0.344E-02 -.149E+00 0.790E-01
   -.344E+01 0.204E+01 0.901E+03   0.324E+01 -.188E+01 -.901E+03   0.223E+00 -.144E+00 -.623E+00   0.343E-02 -.258E-01 0.738E-01
   0.512E+01 -.300E+01 0.908E+03   -.502E+01 0.290E+01 -.908E+03   -.270E-01 0.259E-01 -.155E+00   -.109E+00 0.944E-01 0.778E-01
   -.512E+01 -.300E+01 0.908E+03   0.502E+01 0.290E+01 -.908E+03   0.270E-01 0.259E-01 -.155E+00   0.117E+00 0.943E-01 0.775E-01
   0.309E-04 0.588E+00 0.901E+03   0.236E-03 -.620E+00 -.901E+03   0.286E-10 0.430E-03 -.525E+00   -.220E-02 0.973E-03 0.463E-01
   -.214E-04 -.399E+01 0.901E+03   0.163E-03 0.375E+01 -.901E+03   0.179E-07 0.269E+00 -.593E+00   0.402E-03 0.615E-02 0.721E-01
   0.533E+00 -.319E+00 0.901E+03   -.540E+00 0.316E+00 -.901E+03   0.129E-02 0.656E-02 -.472E+00   -.192E-01 0.612E-02 0.524E-01
   -.533E+00 -.319E+00 0.901E+03   0.540E+00 0.316E+00 -.901E+03   -.129E-02 0.656E-02 -.472E+00   0.189E-01 0.765E-02 0.514E-01
   -.423E-04 -.164E+01 -.882E+03   0.525E-04 0.171E+01 0.882E+03   -.321E-08 -.482E-01 0.529E+00   0.350E-02 -.993E-02 -.380E-01
   0.356E+02 0.207E+02 -.835E+03   -.345E+02 -.200E+02 0.836E+03   -.114E+01 -.673E+00 -.124E+01   -.238E-01 -.279E-01 0.543E-01
   -.356E+02 0.207E+02 -.835E+03   0.345E+02 -.200E+02 0.836E+03   0.114E+01 -.673E+00 -.124E+01   0.233E-01 -.252E-01 0.541E-01
   0.797E+01 -.466E+01 -.874E+03   -.821E+01 0.479E+01 0.873E+03   0.223E+00 -.134E+00 0.614E+00   -.120E-01 0.122E-01 0.886E-02
   -.661E-05 -.412E+02 -.835E+03   0.143E-03 0.399E+02 0.836E+03   0.874E-07 0.131E+01 -.116E+01   0.171E-02 0.341E-01 0.928E-01
   -.797E+01 -.466E+01 -.874E+03   0.821E+01 0.479E+01 0.873E+03   -.223E+00 -.134E+00 0.614E+00   0.483E-02 0.142E-01 0.889E-02
   0.144E+01 0.849E+00 -.882E+03   -.151E+01 -.887E+00 0.882E+03   0.584E-01 0.343E-01 0.558E+00   0.202E-01 0.262E-02 -.333E-01
   -.144E+01 0.849E+00 -.882E+03   0.151E+01 -.887E+00 0.882E+03   -.584E-01 0.343E-01 0.558E+00   -.115E-01 0.194E-02 -.330E-01
   0.120E-04 0.921E+01 -.874E+03   0.195E-03 -.948E+01 0.873E+03   0.177E-07 0.267E+00 0.641E+00   -.578E-02 -.193E-01 0.102E-01
   -.140E-04 0.209E+00 -.260E+04   0.288E-04 -.202E+00 0.260E+04   0.373E-09 0.560E-02 0.438E+00   0.431E-03 -.218E-01 -.212E-01
   0.350E+02 0.577E+02 -.263E+04   -.339E+02 -.558E+02 0.263E+04   -.123E+01 -.195E+01 -.718E+00   0.442E-01 -.107E-01 -.503E-01
   -.350E+02 0.577E+02 -.263E+04   0.339E+02 -.558E+02 0.263E+04   0.123E+01 -.195E+01 -.718E+00   -.446E-01 -.862E-02 -.490E-01
   0.679E+02 0.183E+01 -.262E+04   -.656E+02 -.178E+01 0.263E+04   -.229E+01 -.675E-01 -.757E+00   0.118E-01 0.348E-01 -.613E-01
   -.679E+02 0.183E+01 -.262E+04   0.656E+02 -.178E+01 0.263E+04   0.229E+01 -.675E-01 -.757E+00   -.131E-01 0.363E-01 -.611E-01
   0.319E+02 -.595E+02 -.263E+04   -.309E+02 0.576E+02 0.263E+04   -.111E+01 0.201E+01 -.699E+00   0.643E-02 -.261E-01 -.570E-01
   -.319E+02 -.595E+02 -.263E+04   0.309E+02 0.576E+02 0.263E+04   0.111E+01 0.201E+01 -.699E+00   -.418E-02 -.267E-01 -.581E-01
   0.296E-04 -.234E+00 -.261E+04   0.144E-03 0.237E+00 0.260E+04   -.929E-11 -.140E-03 0.580E+00   -.491E-02 0.789E-02 0.273E-02
   0.208E-03 0.845E-01 -.273E+04   0.120E-03 -.148E+00 0.273E+04   0.194E-09 0.291E-02 0.251E+01   0.526E-02 0.271E-01 -.965E-01
   0.203E+02 -.146E-01 -.286E+03   -.249E+02 0.181E-01 0.287E+03   0.465E+01 -.222E-02 -.661E+00   0.525E-04 0.270E-03 -.387E-02
   -.203E+02 -.146E-01 -.286E+03   0.249E+02 0.181E-01 0.287E+03   -.465E+01 -.222E-02 -.661E+00   0.504E-04 0.279E-03 -.391E-02
   -.545E-03 0.290E-01 0.829E+01   0.249E-13 -.176E-12 0.121E-10   -.223E-08 -.335E-01 -.889E+01   0.100E-01 0.461E-02 0.815E+00

 POSITION                                       TOTAL-FORCE (eV/Angst)
      0.00000      0.00000      5.28038         0.000000      0.000310     -0.134665
      2.93784      0.00000      5.28038         0.000410     -0.004688     -0.046374
      5.87568      0.00000      5.28038        -0.000410     -0.004688     -0.046374
      1.46892      2.54424      5.28038        -0.004216      0.000725     -0.052105
      4.40676      2.54424      5.28038         0.000000      0.000334     -0.040764
      7.34459      2.54424      5.28038         0.004216      0.000725     -0.052105
      2.93784      5.08848      5.28038        -0.002522      0.001946     -0.050096
      5.87568      5.08848      5.28038         0.002522      0.001946     -0.050096
      8.81351      5.08848      5.28038         0.000000      0.001529     -0.058708
      1.46892      0.84808      7.67911        -0.028353     -0.011195      0.019643
      4.40676      0.84808      7.67911        -0.000000     -0.044719     -0.022078
      7.34459      0.84808      7.67911         0.028353     -0.011195      0.019643
      2.93784      3.39232      7.67911        -0.040484      0.027189     -0.025126
      5.87568      3.39232      7.67911         0.040484      0.027189     -0.025126
      8.81351      3.39232      7.67911        -0.000000     -0.030104      0.091934
      4.40676      5.93656      7.67911         0.000000      0.031139      0.020099
      7.34459      5.93656      7.67911        -0.024568      0.010475      0.100826
     10.28243      5.93656      7.67911         0.024568      0.010475      0.100826
      8.81351      1.69571     10.07248         0.000000      0.013574      0.039195
      2.94528      1.70046     10.06340        -0.035533     -0.012494     -0.062570
      5.86824      1.70046     10.06340         0.035533     -0.012494     -0.062570
     10.27570      4.24429     10.07162        -0.022568      0.008641      0.037516
      4.40676      4.23182     10.06340         0.000000      0.045049     -0.057234
      7.35132      4.24429     10.07162         0.022568      0.008641      0.037516
     11.75174      6.78487     10.07248        -0.003854     -0.001971      0.014967
      5.87529      6.78487     10.07248         0.003854     -0.001971      0.014967
      8.81351      6.77688     10.07162        -0.000000     -0.015541      0.040769
      0.00000      0.00000     12.49858        -0.000000     -0.009237     -0.014500
      2.96552      0.04535     12.55994        -0.018154     -0.057761     -0.001285
      5.84799      0.04535     12.55994         0.018154     -0.057761     -0.001285
      1.52204      2.54555     12.55994        -0.008863      0.018042      0.044093
      7.29148      2.54555     12.55994         0.008863      0.018042      0.044093
      2.96327      5.04183     12.55994        -0.052526      0.035029     -0.008307
      5.85025      5.04183     12.55994         0.052526      0.035029     -0.008307
      8.81351      5.08848     12.50663         0.000000      0.010669      0.019055
      4.40676      2.54424     12.37417        -0.000000     -0.034042      0.180956
      4.01623      2.54953     14.58803        -0.020773      0.001583     -0.003212
      4.79728      2.54953     14.58803         0.020773      0.001583     -0.003212
    total drift:                                0.009469      0.000164      0.215329

  FREE ENERGIE OF THE ION-ELECTRON SYSTEM (eV)
  free  energy   TOTEN  =      -123.54345215 eV

  energy  without entropy=     -123.54345215  energy(sigma->0) =     -123.54345215

 stress matrix after NEB project (eV)
    -21.37688     -0.00000     -0.00000
     -0.00000    -21.24120     -0.10071
     -0.00000     -0.10071      2.12433
  FORCES: max atom, RMS     0.021079    0.004836
  FORCE total and by dimension    0.029810    0.020773
  Stress total and by dimension   30.210805   21.376881
|           W    W    AA    RRRRR   N    N  II  N    N   GGGG   !!!           |
|           W    W   A  A   R    R  NN   N  II  NN   N  G    G  !!!           |
|           W    W  A    A  R    R  N N  N  II  N N  N  G       !!!           |
|           W WW W  AAAAAA  RRRRR   N  N N  II  N  N N  G  GGG   !            |
|           WW  WW  A    A  R   R   N   NN  II  N   NN  G    G                |
|           W    W  A    A  R    R  N    N  II  N    N   GGGG   !!!           |
|     Tetrahedron method does not include variations of the Fermi             |
|     occupations, so forces and stress will be inaccurate. We suggest        |
|     using a different smearing scheme ISMEAR = 1 or 2 for metals in         |
|     relaxations.                                                            |

 total charge

# of ion       s       p       d       tot
    1        0.551   0.237   8.767   9.554
    2        0.541   0.241   8.765   9.548
    3        0.541   0.241   8.765   9.548
    4        0.541   0.241   8.766   9.548
    5        0.547   0.242   8.760   9.549
    6        0.541   0.241   8.766   9.548
    7        0.541   0.241   8.765   9.548
    8        0.541   0.241   8.765   9.548
    9        0.545   0.239   8.767   9.551
   10        0.524   0.306   8.769   9.600
   11        0.522   0.306   8.779   9.606
   12        0.524   0.306   8.769   9.600
   13        0.521   0.306   8.779   9.606
   14        0.521   0.306   8.779   9.606
   15        0.517   0.307   8.773   9.597
   16        0.523   0.306   8.769   9.599
   17        0.516   0.308   8.772   9.596
   18        0.516   0.308   8.772   9.596
   19        0.522   0.298   8.766   9.587
   20        0.570   0.330   8.733   9.633
   21        0.570   0.330   8.733   9.633
   22        0.510   0.304   8.775   9.588
   23        0.569   0.330   8.733   9.632
   24        0.510   0.304   8.775   9.588
   25        0.523   0.297   8.768   9.588
   26        0.523   0.297   8.768   9.588
   27        0.510   0.304   8.775   9.589
   28        0.542   0.236   8.752   9.530
   29        0.601   0.249   8.726   9.577
   30        0.601   0.249   8.726   9.577
   31        0.600   0.251   8.725   9.576
   32        0.600   0.251   8.725   9.576
   33        0.601   0.249   8.727   9.576
   34        0.601   0.249   8.727   9.576
   35        0.539   0.236   8.755   9.530
   36        2.183   5.982   1.463   9.628
   37        0.583   0.029   0.000   0.612
   38        0.583   0.029   0.000   0.612
tot         22.416  15.726 308.002 346.143

 BZINTS: Fermi energy:    0.427032;  399.000000 electrons
         Band energy:-0.158271E+04;  BLOECHL correction:   -0.036199