 vasp.6.2.0 18Jan21 (build Jun 12 2021 23:27:24) complex

 executed on             LinuxIFC date 2022.05.27  06:13:44

 INCAR:
   ISMEAR = -5
   SIGMA = 0.1
   ISPIN = 1
   EDIFF = 1.d-5
   EDIFFG = -0.01
   NSW = 0
   NELM = 150
   ENCUT = 500
   ISIF = 2
   IBRION = 2
   LREAL = Auto
   ALGO = Fast
   ICHARG = 11
   LORBIT = 10
   LCHARG = .F.
   LWAVE = .F.

 POTCAR:    PAW_PBE Cu 22Jun2005
 POTCAR:    PAW_PBE Pd 04Jan2005
 POTCAR:    PAW_PBE N 08Apr2002
|           W    W    AA    RRRRR   N    N  II  N    N   GGGG   !!!           |
|           W    W   A  A   R    R  NN   N  II  NN   N  G    G  !!!           |
|           W    W  A    A  R    R  N N  N  II  N N  N  G       !!!           |
|           W WW W  AAAAAA  RRRRR   N  N N  II  N  N N  G  GGG   !            |
|           WW  WW  A    A  R   R   N   NN  II  N   NN  G    G                |
|           W    W  A    A  R    R  N    N  II  N    N   GGGG   !!!           |
|     For optimal performance we recommend to set                             |
|       NCORE = 2 up to number-of-cores-per-socket                            |
|     This setting can greatly improve the performance of VASP for DFT.       |
|     The default, NCORE=1 might be grossly inefficient on modern             |
|     multi-core architectures or massively parallel machines. Do your        |
|     Unfortunately you need to use the default for GW and RPA                |
|     calculations (for HF NCORE is supported but not extensively tested      |
|     yet).                                                                   |

 POTCAR:    PAW_PBE Cu 22Jun2005
   VRHFIN =Cu: d10 p1

   TITEL  = PAW_PBE Cu 22Jun2005
   POMASS =   63.546; ZVAL   =   11.000    mass and valenz
   ENMAX  =  295.446; ENMIN  =  221.585 eV

 POTCAR:    PAW_PBE Pd 04Jan2005
   VRHFIN =Pd : s1 d9

   TITEL  = PAW_PBE Pd 04Jan2005
   POMASS =  106.420; ZVAL   =   10.000    mass and valenz
   ENMAX  =  250.925; ENMIN  =  188.194 eV

 POTCAR:    PAW_PBE N 08Apr2002
   VRHFIN =N: s2p3

   TITEL  = PAW_PBE N 08Apr2002
   POMASS =   14.001; ZVAL   =    5.000    mass and valenz
   ENMAX  =  400.000; ENMIN  =  300.000 eV

 Optimization of the real space projectors (new method)

 maximal supplied QI-value         = 16.25
 optimisation between [QCUT,QGAM] = [ 11.38, 22.75] = [ 36.24,144.96] Ry
 Optimized for a Real-space Cutoff    1.52 Angstroem

   l    n(q)    QCUT    max X(q) W(low)/X(q) W(high)/X(q)  e(spline)
   2      9    11.376     4.610    0.21E-03    0.10E-03    0.26E-06
   2      9    11.376     8.522    0.33E-03    0.16E-03    0.37E-06
   0     10    11.376    51.609    0.62E-04    0.20E-04    0.13E-06
   0     10    11.376    27.747    0.54E-04    0.20E-04    0.13E-06
   1     10    11.376    20.408    0.13E-04    0.99E-04    0.19E-06
   1     10    11.376    13.425    0.12E-04    0.87E-04    0.17E-06
 Optimization of the real space projectors (new method)

[...]

   l    n(q)    QCUT    max X(q) W(low)/X(q) W(high)/X(q)  e(spline)
   2      9    11.346    59.108    0.74E-04    0.81E-04    0.26E-06
   2      9    11.346    58.101    0.74E-04    0.83E-04    0.27E-06
   0     10    11.346   102.235    0.26E-04    0.31E-04    0.16E-06
   0     10    11.346    58.388    0.23E-04    0.29E-04    0.15E-06
   1     10    11.346    22.191    0.23E-03    0.26E-03    0.14E-06
   1     10    11.346    15.590    0.19E-03    0.22E-03    0.12E-06
 Optimization of the real space projectors (new method)

 maximal supplied QI-value         = 25.13
 optimisation between [QCUT,QGAM] = [ 11.31, 22.87] = [ 35.82,146.48] Ry
 Optimized for a Real-space Cutoff    1.27 Angstroem

   l    n(q)    QCUT    max X(q) W(low)/X(q) W(high)/X(q)  e(spline)
   0      9    11.310    79.467    0.75E-04    0.16E-03    0.36E-06
   0      9    11.310    66.151    0.74E-04    0.16E-03    0.36E-06
   1      8    11.310    17.416    0.35E-03    0.12E-03    0.95E-06
   1      8    11.310    12.382    0.37E-03    0.13E-03    0.98E-06
  PAW_PBE Cu 22Jun2005                  :
  PAW_PBE Pd 04Jan2005                  :
  PAW_PBE N 08Apr2002                   :

 POSCAR: Cu-Pd-N2
  positions in direct lattice
  velocities in cartesian coordinates
 exchange correlation table for  LEXCH =        8
   RHO(1)=    0.500       N(1)  =     2000
   RHO(2)=  100.500       N(2)  =     4000

 VTST: version 3.2, (02/03/18)

 CHAIN: initializing optimizer

 OPT: Using VASP Conjugate-Gradient optimizer
 CHAIN: Read ICHAIN            0

 POSCAR: Cu-Pd-N2
  positions in direct lattice
  velocities in cartesian coordinates

 ion  position               nearest neighbor table
   1  0.000  0.000  0.252-   7 2.57   3 2.57   4 2.57   2 2.57   6 2.57   8 2.57  12 2.57  10 2.57
                            16 2.57
   2  0.333  0.000  0.252-   8 2.57   9 2.57   5 2.57   1 2.57   3 2.57  11 2.57   4 2.57  10 2.57
                            17 2.57
   3  0.667  0.000  0.252-   1 2.57   7 2.57   6 2.57   9 2.57   2 2.57  12 2.57   5 2.57  18 2.57
                            11 2.57
   4  0.000  0.333  0.252-   5 2.57   6 2.57   1 2.57   7 2.57   2 2.57  13 2.57   9 2.57  10 2.57
                            15 2.57
   5  0.333  0.333  0.252-   4 2.57   2 2.57   7 2.57  13 2.57   8 2.57   6 2.57   3 2.57  11 2.57
                            14 2.57
   6  0.667  0.333  0.252-   4 2.57   9 2.57  15 2.57   3 2.57   1 2.57   8 2.57  14 2.57   5 2.57
                            12 2.57
   7  0.000  0.667  0.252-   1 2.57   3 2.57  16 2.57  18 2.57   4 2.57   5 2.57   8 2.57   9 2.57
                            13 2.57
   8  0.333  0.667  0.252-   9 2.57   2 2.57  17 2.57   6 2.57   1 2.57   7 2.57   5 2.57  14 2.57
                            16 2.57
   9  0.667  0.667  0.252-   8 2.57   6 2.57   2 2.57  17 2.57   3 2.57   7 2.57   4 2.57  15 2.57
                            18 2.57
  10  0.111  0.111  0.351-  20 2.54  26 2.55  19 2.55  11 2.57  12 2.57  13 2.57   1 2.57   2 2.57
                             4 2.57  15 2.57  16 2.57  17 2.57
  11  0.444  0.111  0.351-  20 2.55  21 2.55  27 2.55  10 2.57  13 2.57   2 2.57  17 2.57  14 2.57
                            12 2.57   5 2.57   3 2.57  18 2.57
  12  0.778  0.111  0.351-  21 2.54  19 2.55  25 2.55  15 2.57  10 2.57  14 2.57  18 2.57   3 2.57
                             1 2.57  16 2.57  11 2.57   6 2.57
  13  0.111  0.444  0.351-  23 2.55  20 2.55  22 2.55  16 2.57  18 2.57  10 2.57  11 2.57  14 2.57
                             5 2.57   4 2.57   7 2.57  15 2.57
  14  0.444  0.444  0.351-  21 2.55  23 2.55  24 2.55  15 2.57  17 2.57  12 2.57  16 2.57  13 2.57
                            11 2.57   6 2.57   8 2.57   5 2.57
  15  0.778  0.444  0.351-  19 2.55  24 2.55  22 2.55  14 2.57  17 2.57  12 2.57   6 2.57  18 2.57
                            10 2.57   9 2.57  13 2.57   4 2.57
  16  0.111  0.778  0.351-  23 2.54  25 2.55  26 2.55  18 2.57  13 2.57   7 2.57  14 2.57  17 2.57
                            12 2.57  10 2.57   8 2.57   1 2.57
  17  0.444  0.778  0.351-  26 2.55  27 2.55  24 2.55  14 2.57  15 2.57   8 2.57   9 2.57  11 2.57
                            16 2.57  18 2.57  10 2.57   2 2.57
  18  0.778  0.778  0.351-  25 2.55  22 2.55  27 2.55  16 2.57  13 2.57   7 2.57  15 2.57  12 2.57
                            17 2.57   9 2.57   3 2.57  11 2.57
  19  0.889  0.222  0.448-  32 2.54  31 2.54  28 2.55  15 2.55  12 2.55  10 2.55  21 2.56  20 2.56
                            22 2.56  24 2.56  25 2.57  26 2.57
  20  0.222  0.222  0.448-  10 2.54  11 2.55  13 2.55  26 2.56  19 2.56  27 2.56  22 2.56  29 2.57
                            31 2.57  23 2.58  21 2.58  36 2.62
  21  0.557  0.222  0.448-  12 2.54  14 2.55  11 2.55  19 2.56  25 2.56  24 2.56  27 2.56  32 2.57
                            30 2.57  20 2.58  23 2.58  36 2.62
  22  0.889  0.555  0.449-  35 2.54  31 2.55  33 2.55  13 2.55  18 2.55  15 2.55  23 2.56  20 2.56
                            19 2.56  25 2.56  24 2.57  27 2.57
  23  0.222  0.557  0.448-  16 2.54  13 2.55  14 2.55  25 2.56  26 2.56  22 2.56  24 2.56  33 2.57
                            34 2.57  20 2.58  21 2.58  36 2.62
  24  0.555  0.555  0.449-  35 2.54  32 2.55  34 2.55  14 2.55  15 2.55  17 2.55  21 2.56  23 2.56
                            19 2.56  26 2.56  22 2.57  27 2.57
  25  0.889  0.889  0.448-  33 2.54  30 2.54  28 2.55  18 2.55  16 2.55  12 2.55  21 2.56  23 2.56
                            22 2.56  27 2.56  19 2.57  26 2.57
  26  0.222  0.889  0.448-  29 2.54  34 2.54  28 2.55  17 2.55  10 2.55  16 2.55  20 2.56  23 2.56
                            27 2.56  24 2.56  25 2.57  19 2.57
  27  0.555  0.889  0.449-  35 2.54  29 2.55  30 2.55  11 2.55  17 2.55  18 2.55  20 2.56  21 2.56
                            26 2.56  25 2.56  24 2.57  22 2.57
  28  0.000  0.000  0.545-  25 2.55  19 2.55  26 2.55  33 2.55  30 2.55  31 2.55  29 2.55  32 2.55
                            34 2.55
  29  0.333  0.996  0.546-  34 2.51  26 2.54  28 2.55  27 2.55  35 2.55  20 2.57  31 2.59  36 2.60
                            30 2.60
  30  0.671  0.996  0.546-  33 2.51  25 2.54  28 2.55  27 2.55  35 2.55  21 2.57  32 2.59  36 2.60
                            29 2.60
  31  0.996  0.333  0.546-  32 2.51  19 2.54  28 2.55  22 2.55  35 2.55  20 2.57  29 2.59  36 2.60
                            33 2.60
  32  0.671  0.333  0.546-  31 2.51  19 2.54  28 2.55  24 2.55  35 2.55  21 2.57  30 2.59  36 2.60
                            34 2.60
  33  0.996  0.671  0.546-  30 2.51  25 2.54  28 2.55  22 2.55  35 2.55  23 2.57  34 2.59  36 2.60
                            31 2.60
  34  0.333  0.671  0.546-  29 2.51  26 2.54  28 2.55  24 2.55  35 2.55  23 2.57  33 2.59  36 2.60
                            32 2.60
  35  0.667  0.667  0.546-  24 2.54  27 2.54  22 2.54  34 2.55  32 2.55  29 2.55  30 2.55  33 2.55
                            31 2.55
  36  0.333  0.333  0.549-  31 2.60  29 2.60  33 2.60  34 2.60  32 2.60  30 2.60  23 2.62  20 2.62
                            21 2.62
  37  0.262  0.332  0.748-  38 1.11
  38  0.406  0.332  0.748-  37 1.11

  LATTYP: Found a hexagonal cell.
 ALAT       =     7.6967864036
 C/A-ratio  =     2.7653617908

  Lattice vectors:

 A1 = (  -3.8483927580,  -6.6656128093,   0.0000000000)
 A2 = (   7.6967864037,   0.0000000000,   0.0000000000)
 A3 = (   0.0000000000,   0.0000000000,  21.2843990326)

Analysis of symmetry for initial positions (statically):
 Subroutine PRICEL returns:
 Original cell was already a primitive cell.

 Routine SETGRP: Setting up the symmetry group for a
 hexagonal supercell.

 Subroutine GETGRP returns: Found  2 space group operations
 (whereof  2 operations were pure point group operations)
 out of a pool of 24 trial point group operations.

The static configuration has the point symmetry C_1h.

Analysis of symmetry for dynamics (positions and initial velocities):
 Subroutine PRICEL returns:
 Original cell was already a primitive cell.

[...]

The dynamic configuration has the point symmetry C_1h.

Analysis of constrained symmetry for selective dynamics:
 Subroutine PRICEL returns:
 Original cell was already a primitive cell.

 Routine SETGRP: Setting up the symmetry group for a
 hexagonal supercell.

[...]
     33      -3.8360      2.00000
     34      -3.8259      2.00000
     35      -3.8220      2.00000
     36      -3.8061      2.00000
     37      -3.8010      2.00000
     38      -3.7699      2.00000
     39      -3.7088      2.00000
     40      -3.6753      2.00000
     41      -3.6098      2.00000
     42      -3.5067      2.00000
     43      -3.5026      2.00000
     44      -3.4466      2.00000
     45      -3.4283      2.00000
     46      -3.4183      2.00000
     47      -3.4009      2.00000
     48      -3.3866      2.00000
     49      -3.3791      2.00000
     50      -3.3764      2.00000
     51      -3.1816      2.00000
     52      -3.1792      2.00000
     53      -3.1654      2.00000
     54      -3.1562      2.00000
     55      -3.1016      2.00000
     56      -3.0932      2.00000
     57      -3.0781      2.00000
     58      -3.0728      2.00000
     59      -3.0680      2.00000
     60      -3.0505      2.00000
[...]
    238       5.9536      0.00000
    239       6.0076      0.00000
    240       6.3055      0.00000
    241       6.3177      0.00000
    242       6.6190      0.00000
    243       6.6837      0.00000
    244       6.7663      0.00000
    245       6.8269      0.00000
    246       6.9135      0.00000
    247       7.0781      0.00000
    248       7.2212      0.00000
    249       7.3230      0.00000
    250       7.5130      0.00000
    251       7.5170      0.00000
    252       7.5999      0.00000

 soft charge-density along one line, spin component           1
         0         1         2         3         4         5         6         7         8         9
 total charge-density along one line

------------------------ aborting loop because EDIFF is reached ----------------------------------------

 total charge

# of ion       s       p       d       tot
    1        0.447   0.286   9.188   9.921
    2        0.450   0.284   9.189   9.922
    3        0.450   0.284   9.189   9.922
    4        0.450   0.284   9.189   9.922
    5        0.445   0.287   9.186   9.918
    6        0.450   0.284   9.189   9.922
    7        0.450   0.284   9.189   9.922
    8        0.450   0.284   9.189   9.922
    9        0.448   0.283   9.187   9.919
   10        0.441   0.374   9.177   9.992
   11        0.443   0.369   9.181   9.993
   12        0.441   0.374   9.177   9.992
   13        0.443   0.369   9.181   9.992
   14        0.443   0.369   9.181   9.992
   15        0.439   0.371   9.180   9.990
   16        0.441   0.374   9.177   9.992
   17        0.439   0.371   9.180   9.990
   18        0.439   0.371   9.180   9.990
   19        0.444   0.376   9.184  10.004
   20        0.439   0.372   9.183   9.994
   21        0.439   0.372   9.183   9.994
   22        0.441   0.375   9.179   9.994
   23        0.439   0.372   9.183   9.994
   24        0.441   0.375   9.179   9.994
   25        0.445   0.376   9.184  10.005
   26        0.445   0.376   9.184  10.005
   27        0.441   0.375   9.179   9.995
   28        0.454   0.292   9.194   9.940
   29        0.453   0.293   9.192   9.938
   30        0.453   0.293   9.192   9.938
   31        0.452   0.293   9.192   9.938
   32        0.452   0.293   9.192   9.938
   33        0.453   0.293   9.192   9.938
   34        0.453   0.293   9.192   9.938
   35        0.451   0.295   9.193   9.939
   36        0.503   0.377   8.576   9.456
   37        1.373   2.469   0.000   3.842
   38        1.373   2.469   0.000   3.842
tot         18.850  16.931 330.062 365.843

  FORCE on cell =-STRESS in cart. coord.  units (eV):
  Direction    XX          YY          ZZ          XY          YZ          ZX
  Alpha Z   903.19904   903.19904   903.19904
  Ewald  167995.36539167673.50434************     0.00038     0.04328     0.00017
  Hartree181172.66326181057.85390************     0.00003     0.04850     0.00007
  E(xc)   -2340.83693 -2342.07718 -2346.89243    -0.00031     0.00000    -0.00004
  Local  ************************362049.12694     0.02020    -0.09195    -0.00074
  n-local  -785.51369  -772.97598  -790.70336     1.74639    -0.00035     0.16312
  augment  3383.29489  3383.01275  3400.15848    -0.01830    -0.00021     0.00025
  Kinetic  3443.52933  3461.60744  3487.23490     0.88666     0.00078    -0.13750
  Fock        0.00000     0.00000     0.00000     0.00000     0.00000     0.00000
  Total       0.34186     0.33809     5.77924    -0.00000     0.00005    -0.00000
  in kB       0.50158     0.49606     8.47950    -0.00000     0.00007    -0.00000

 VOLUME and BASIS-vectors are now :
  energy-cutoff  :      500.00
  volume of cell :     1091.97
      direct lattice vectors                 reciprocal lattice vectors
     7.696786404  0.000000000  0.000000000     0.129924354 -0.075011849  0.000000000
     3.848392758  6.665612809  0.000000000     0.000000000  0.150023716  0.000000000
     0.000000000  0.000000000 21.284399033     0.000000000  0.000000000  0.046982769

  length of vectors
     7.696786404  7.696786404 21.284399033     0.150023716  0.150023716  0.046982769

 FORCES acting on ions
    electron-ion (+dipol)            ewald-force                    non-local-force                 convergence-correction
   -.403E-04 0.413E-02 0.348E+04   0.579E-04 -.320E-02 -.348E+04   0.356E-10 -.534E-03 -.235E+01   -.259E-03 -.551E-03 -.936E+00
   -.455E+00 0.354E-01 0.348E+04   0.400E+00 0.285E+00 -.348E+04   -.116E-01 -.102E+00 -.202E+01   0.656E-01 -.214E+00 -.694E+00
   0.455E+00 0.354E-01 0.348E+04   -.400E+00 0.285E+00 -.348E+04   0.116E-01 -.102E+00 -.202E+01   -.649E-01 -.211E+00 -.693E+00
   -.201E+00 -.418E+00 0.348E+04   0.450E+00 0.203E+00 -.348E+04   -.931E-01 0.401E-01 -.203E+01   -.151E+00 0.169E+00 -.691E+00
   -.615E-04 -.856E-02 0.348E+04   0.116E-03 0.357E-03 -.348E+04   0.366E-09 -.550E-02 -.217E+01   0.122E-01 0.139E-01 -.685E+00
   0.201E+00 -.417E+00 0.348E+04   -.450E+00 0.203E+00 -.348E+04   0.931E-01 0.401E-01 -.203E+01   0.149E+00 0.171E+00 -.689E+00
   0.257E+00 0.381E+00 0.348E+04   0.495E-01 -.488E+00 -.348E+04   -.820E-01 0.613E-01 -.203E+01   -.216E+00 0.440E-01 -.689E+00
   -.257E+00 0.381E+00 0.348E+04   -.497E-01 -.488E+00 -.348E+04   0.820E-01 0.613E-01 -.203E+01   0.220E+00 0.426E-01 -.689E+00
   -.143E-03 0.543E-02 0.348E+04   0.263E-03 0.285E-02 -.348E+04   -.350E-09 0.525E-02 -.222E+01   -.133E-01 -.136E-01 -.681E+00
   -.265E+01 -.152E+01 0.120E+04   0.261E+01 0.149E+01 -.120E+04   -.209E-01 -.125E-01 -.815E+00   0.935E-01 0.583E-01 -.272E+00
   -.921E-04 -.355E+01 0.120E+04   0.191E-03 0.349E+01 -.120E+04   0.317E-08 -.475E-01 -.867E+00   0.113E-01 0.901E-01 -.116E+00
   0.265E+01 -.152E+01 0.120E+04   -.261E+01 0.149E+01 -.120E+04   0.209E-01 -.125E-01 -.815E+00   -.950E-01 0.603E-01 -.273E+00
   -.308E+01 0.176E+01 0.120E+04   0.303E+01 -.174E+01 -.120E+04   -.364E-01 0.161E-01 -.868E+00   0.781E-01 -.271E-01 -.114E+00
   0.308E+01 0.176E+01 0.120E+04   -.303E+01 -.174E+01 -.120E+04   0.364E-01 0.161E-01 -.868E+00   -.539E-01 -.277E-01 -.114E+00
   -.142E-03 -.159E+01 0.120E+04   0.298E-03 0.136E+01 -.120E+04   -.336E-08 0.505E-01 -.689E+00   -.380E-02 0.186E+00 -.324E+00
   -.918E-04 0.306E+01 0.120E+04   0.186E-03 -.301E+01 -.120E+04   -.172E-08 0.259E-01 -.813E+00   -.160E-04 -.118E+00 -.275E+00
   -.137E+01 0.795E+00 0.120E+04   0.117E+01 -.673E+00 -.120E+04   0.446E-01 -.239E-01 -.684E+00   0.158E+00 -.102E+00 -.328E+00
   0.137E+01 0.795E+00 0.120E+04   -.117E+01 -.673E+00 -.120E+04   -.446E-01 -.239E-01 -.684E+00   -.157E+00 -.100E+00 -.328E+00
   -.591E-04 -.200E+01 -.109E+04   0.690E-04 0.184E+01 0.109E+04   0.312E-08 -.469E-01 0.568E+00   0.955E-02 0.198E+00 -.243E+00
   -.290E+02 -.167E+02 -.113E+04   0.285E+02 0.164E+02 0.113E+04   0.840E-01 0.446E-01 0.405E+00   0.366E+00 0.222E+00 -.217E+00
   0.290E+02 -.167E+02 -.113E+04   -.285E+02 0.164E+02 0.113E+04   -.840E-01 0.446E-01 0.405E+00   -.344E+00 0.224E+00 -.218E+00
   -.135E+02 0.773E+01 -.110E+04   0.132E+02 -.750E+01 0.110E+04   0.224E+00 -.130E+00 0.807E+00   0.135E+00 -.878E-01 -.335E+00
   -.777E-04 0.334E+02 -.113E+04   0.149E-03 -.329E+02 0.113E+04   0.684E-08 -.103E+00 0.406E+00   0.119E-01 -.411E+00 -.218E+00
   0.135E+02 0.773E+01 -.110E+04   -.132E+02 -.750E+01 0.110E+04   -.224E+00 -.130E+00 0.807E+00   -.138E+00 -.871E-01 -.335E+00
   0.176E+01 0.106E+01 -.109E+04   -.164E+01 -.990E+00 0.109E+04   0.378E-01 0.173E-01 0.566E+00   -.144E+00 -.839E-01 -.244E+00
   -.176E+01 0.106E+01 -.109E+04   0.164E+01 -.990E+00 0.109E+04   -.378E-01 0.173E-01 0.566E+00   0.167E+00 -.858E-01 -.243E+00
   -.134E-03 -.156E+02 -.110E+04   0.245E-03 0.152E+02 0.110E+04   -.172E-07 0.259E+00 0.806E+00   -.282E-02 0.155E+00 -.335E+00
   -.219E-04 0.576E+00 -.338E+04   0.418E-04 -.580E+00 0.338E+04   -.819E-10 0.123E-02 0.220E+01   0.113E-03 0.139E-02 0.704E+00
   -.221E+02 -.359E+02 -.338E+04   0.221E+02 0.357E+02 0.337E+04   -.415E-01 0.167E+00 0.206E+01   0.153E-01 0.292E-01 0.549E+00
   0.221E+02 -.359E+02 -.338E+04   -.221E+02 0.357E+02 0.337E+04   0.415E-01 0.167E+00 0.206E+01   -.149E-01 0.318E-01 0.550E+00
   -.425E+02 -.911E+00 -.337E+04   0.423E+02 0.103E+01 0.337E+04   0.125E+00 -.119E+00 0.208E+01   0.338E-01 0.555E-02 0.544E+00
   0.425E+02 -.911E+00 -.337E+04   -.423E+02 0.103E+01 0.337E+04   -.125E+00 -.119E+00 0.208E+01   -.352E-01 0.705E-02 0.544E+00
   -.206E+02 0.368E+02 -.338E+04   0.205E+02 -.367E+02 0.337E+04   0.163E+00 -.493E-01 0.206E+01   0.171E-01 -.358E-01 0.548E+00
   0.206E+02 0.368E+02 -.338E+04   -.205E+02 -.367E+02 0.337E+04   -.163E+00 -.493E-01 0.206E+01   -.134E-01 -.368E-01 0.547E+00
   -.148E-03 -.506E+00 -.338E+04   0.255E-03 0.518E+00 0.338E+04   -.267E-09 0.402E-02 0.237E+01   -.135E-01 -.154E-01 0.657E+00
   -.620E-04 -.858E-01 -.308E+04   0.120E-03 0.787E-01 0.308E+04   0.195E-10 -.293E-03 0.289E+01   0.394E-02 0.757E-02 0.454E+00
   0.239E+03 -.700E-02 -.105E+04   -.285E+03 0.421E-02 0.105E+04   0.456E+02 -.387E-03 0.341E-02   0.569E-02 0.274E-02 0.269E-01
   -.239E+03 -.700E-02 -.105E+04   0.285E+03 0.421E-02 0.105E+04   -.456E+02 -.387E-03 0.341E-02   -.382E-02 0.275E-02 0.268E-01
   -.107E-03 -.251E-01 0.659E+01   0.114E-12 0.251E-12 0.227E-12   0.246E-08 -.369E-01 -.799E+00   0.879E-01 0.636E-01 -.583E+01

 POSITION                                       TOTAL-FORCE (eV/Angst)
      0.00000      0.00000      5.37156         0.000000     -0.000195      0.119662
      2.56560      0.00000      5.37156        -0.001555      0.006349      0.077302
      5.13119      0.00000      5.37156         0.001555      0.006349      0.077302
      1.28280      2.22187      5.37156         0.004777     -0.004779      0.077190
      3.84839      2.22187      5.37156        -0.000000      0.000170      0.069398
      6.41399      2.22187      5.37156        -0.004777     -0.004779      0.077190
      2.56560      4.44374      5.37156         0.006502     -0.001706      0.077196
      5.13119      4.44374      5.37156        -0.006502     -0.001706      0.077196
      7.69679      4.44374      5.37156         0.000000     -0.000079      0.070029
      1.28280      0.74062      7.46636         0.033254      0.019356     -0.106991
      3.84839      0.74062      7.46636         0.000000     -0.018261     -0.117572
      6.41399      0.74062      7.46636        -0.033254      0.019356     -0.106991
      2.56560      2.96249      7.46636        -0.016160      0.009643     -0.117691
      5.13119      2.96249      7.46636         0.016160      0.009643     -0.117691
      7.69679      2.96249      7.46636        -0.000000      0.005865     -0.070405
      3.84839      5.18437      7.46636         0.000000     -0.038624     -0.106709
      6.41399      5.18437      7.46636         0.005120     -0.003188     -0.069903
      8.97958      5.18437      7.46636        -0.005120     -0.003188     -0.069903
      7.69679      1.48223      9.53996         0.000000     -0.004176      0.004138
      2.55948      1.47772      9.53985        -0.014024     -0.008027      0.003745
      5.13731      1.47772      9.53985         0.014024     -0.008027      0.003745
      8.98047      3.70261      9.54732        -0.011640      0.006578      0.009081
      3.84839      3.71018      9.53985        -0.000000      0.016386      0.003685
      6.41310      3.70261      9.54732         0.011640      0.006578      0.009081
     10.26153      5.92450      9.53996         0.003819      0.002504      0.003069
      5.13204      5.92450      9.53996        -0.003819      0.002504      0.003069
      7.69679      5.92601      9.54732         0.000000     -0.013256      0.008372
      0.00000      0.00000     11.61018         0.000000     -0.000891     -0.000750
      6.39795      6.64100     11.62214         0.001533     -0.003482      0.012531
      8.99562      6.64100     11.62214        -0.001533     -0.003482      0.012531
      8.95025      2.22029     11.62214        -0.001530      0.002714      0.014049
      6.44333      2.22029     11.62214         0.001530      0.002714      0.014049
     10.24908      4.46994     11.62214        -0.003059      0.000741      0.012680
      5.14449      4.46994     11.62214         0.003059      0.000741      0.012680
      7.69679      4.44374     11.61116        -0.000000      0.000492     -0.000237
      3.84839      2.22187     11.69545        -0.000000      0.000098      0.031069
      3.29155      2.21403     15.92951        -0.000426     -0.000469      0.002402
      4.40523      2.21403     15.92951         0.000426     -0.000469      0.002402
    total drift:                                0.087800      0.001598     -0.036576

  FREE ENERGIE OF THE ION-ELECTRON SYSTEM (eV)
  free  energy   TOTEN  =      -144.46066063 eV

  energy  without entropy=     -144.46066063  energy(sigma->0) =     -144.46066063

 stress matrix after NEB project (eV)
      0.34186     -0.00000     -0.00000
     -0.00000      0.33809      0.00005
     -0.00000      0.00005      5.77924
  FORCES: max atom, RMS     0.002484    0.000570
  FORCE total and by dimension    0.003512    0.002402
  Stress total and by dimension    5.799207    5.779241
|           W    W    AA    RRRRR   N    N  II  N    N   GGGG   !!!           |
|           W    W   A  A   R    R  NN   N  II  NN   N  G    G  !!!           |
|           W    W  A    A  R    R  N N  N  II  N N  N  G       !!!           |
|           W WW W  AAAAAA  RRRRR   N  N N  II  N  N N  G  GGG   !            |
|           WW  WW  A    A  R   R   N   NN  II  N   NN  G    G                |
|           W    W  A    A  R    R  N    N  II  N    N   GGGG   !!!           |
|     Tetrahedron method does not include variations of the Fermi             |
|     occupations, so forces and stress will be inaccurate. We suggest        |
|     using a different smearing scheme ISMEAR = 1 or 2 for metals in         |
|     relaxations.                                                            |

 total charge

# of ion       s       p       d       tot
    1        0.447   0.286   9.188   9.921
    2        0.450   0.284   9.189   9.922
    3        0.450   0.284   9.189   9.922
    4        0.450   0.284   9.189   9.922
    5        0.445   0.287   9.186   9.918
    6        0.450   0.284   9.189   9.922
    7        0.450   0.284   9.189   9.922
    8        0.450   0.284   9.189   9.922
    9        0.448   0.283   9.187   9.919
   10        0.441   0.374   9.177   9.992
   11        0.443   0.369   9.181   9.993
   12        0.441   0.374   9.177   9.992
   13        0.443   0.369   9.181   9.992
   14        0.443   0.369   9.181   9.992
   15        0.439   0.371   9.180   9.990
   16        0.441   0.374   9.177   9.992
   17        0.439   0.371   9.180   9.990
   18        0.439   0.371   9.180   9.990
   19        0.444   0.376   9.184  10.004
   20        0.439   0.372   9.183   9.994
   21        0.439   0.372   9.183   9.994
   22        0.441   0.375   9.179   9.994
   23        0.439   0.372   9.183   9.994
   24        0.441   0.375   9.179   9.994
   25        0.445   0.376   9.184  10.005
   26        0.445   0.376   9.184  10.005
   27        0.441   0.375   9.179   9.995
   28        0.454   0.292   9.194   9.940
   29        0.453   0.293   9.192   9.938
   30        0.453   0.293   9.192   9.938
   31        0.452   0.293   9.192   9.938
   32        0.452   0.293   9.192   9.938
   33        0.453   0.293   9.192   9.938
   34        0.453   0.293   9.192   9.938
   35        0.451   0.295   9.193   9.939
   36        0.503   0.377   8.576   9.456
   37        1.373   2.469   0.000   3.842
   38        1.373   2.469   0.000   3.842
tot         18.850  16.931 330.062 365.843

 BZINTS: Fermi energy:    0.240166;  405.000000 electrons
         Band energy:-0.109156E+04;  BLOECHL correction:   -0.073753