 vasp.6.2.0 18Jan21 (build Jun 12 2021 23:27:24) complex

 executed on             LinuxIFC date 2022.05.30  15:46:09

 INCAR:
   ISMEAR = -5
   SIGMA = 0.1
   ISPIN = 1
   EDIFF = 1.d-5
   EDIFFG = -0.01
   NSW = 0
   NELM = 150
   ENCUT = 500
   ISIF = 2
   IBRION = 2
   LREAL = Auto
   ALGO = Fast
   ICHARG = 11
   LORBIT = 10
   LCHARG = .F.
   LWAVE = .F.

 POTCAR:    PAW_PBE Au 04Oct2007
 POTCAR:    PAW_PBE V 08Apr2002
 POTCAR:    PAW_PBE C 08Apr2002
|           W    W    AA    RRRRR   N    N  II  N    N   GGGG   !!!           |
|           W    W   A  A   R    R  NN   N  II  NN   N  G    G  !!!           |
|           W    W  A    A  R    R  N N  N  II  N N  N  G       !!!           |
|           W WW W  AAAAAA  RRRRR   N  N N  II  N  N N  G  GGG   !            |
|           WW  WW  A    A  R   R   N   NN  II  N   NN  G    G                |
|           W    W  A    A  R    R  N    N  II  N    N   GGGG   !!!           |
|     For optimal performance we recommend to set                             |
|       NCORE = 2 up to number-of-cores-per-socket                            |
|     This setting can greatly improve the performance of VASP for DFT.       |
|     The default, NCORE=1 might be grossly inefficient on modern             |
|     multi-core architectures or massively parallel machines. Do your        |
|     Unfortunately you need to use the default for GW and RPA                |
|     calculations (for HF NCORE is supported but not extensively tested      |
|     yet).                                                                   |

 POTCAR:    PAW_PBE Au 04Oct2007
   VRHFIN =Au: s1d10

   TITEL  = PAW_PBE Au 04Oct2007
   POMASS =  196.966; ZVAL   =   11.000    mass and valenz
   ENMAX  =  229.943; ENMIN  =  172.457 eV

 POTCAR:    PAW_PBE V 08Apr2002
   VRHFIN =V: p6 d4 s1

   TITEL  = PAW_PBE V 08Apr2002
   POMASS =   50.941; ZVAL   =    5.000    mass and valenz
   ENMAX  =  192.543; ENMIN  =  144.408 eV

 POTCAR:    PAW_PBE C 08Apr2002
   VRHFIN =C: s2p2

   TITEL  = PAW_PBE C 08Apr2002
   POMASS =   12.011; ZVAL   =    4.000    mass and valenz
   ENMAX  =  400.000; ENMIN  =  300.000 eV

 Optimization of the real space projectors (new method)

 maximal supplied QI-value         = 15.12
 optimisation between [QCUT,QGAM] = [ 11.34, 22.83] = [ 36.00,145.93] Ry
 Optimized for a Real-space Cutoff    1.39 Angstroem

   l    n(q)    QCUT    max X(q) W(low)/X(q) W(high)/X(q)  e(spline)
   2      9    11.338    60.898    0.39E-03    0.42E-03    0.21E-06
   2      9    11.338    58.894    0.40E-03    0.42E-03    0.22E-06
   0      9    11.338   109.617    0.13E-03    0.20E-04    0.13E-06
   0      9    11.338    75.026    0.13E-03    0.20E-04    0.13E-06
   1      9    11.338    16.344    0.33E-04    0.24E-03    0.18E-06
   1      9    11.338    10.160    0.26E-04    0.19E-03    0.15E-06
 Optimization of the real space projectors (new method)

[...]

   l    n(q)    QCUT    max X(q) W(low)/X(q) W(high)/X(q)  e(spline)
   2     10    11.327    96.114    0.36E-03    0.35E-03    0.42E-06
   2     10    11.327    88.986    0.37E-03    0.35E-03    0.42E-06
   0     11    11.327    20.919    0.40E-04    0.56E-04    0.79E-06
   0     11    11.327     9.593    0.30E-04    0.41E-04    0.60E-06
   1     10    11.327    11.615    0.15E-03    0.10E-03    0.19E-06
   1     10    11.327     7.031    0.11E-03    0.73E-04    0.14E-06
 Optimization of the real space projectors (new method)

 maximal supplied QI-value         = 25.13
 optimisation between [QCUT,QGAM] = [ 11.31, 22.87] = [ 35.82,146.48] Ry
 Optimized for a Real-space Cutoff    1.00 Angstroem

   l    n(q)    QCUT    max X(q) W(low)/X(q) W(high)/X(q)  e(spline)
   0      7    11.310   115.676    0.43E-03    0.13E-02    0.19E-06
   0      7    11.310    87.132    0.43E-03    0.13E-02    0.18E-06
   1      6    11.310     4.429    0.42E-03    0.74E-03    0.11E-06
   1      6    11.310     2.733    0.34E-03    0.55E-03    0.92E-07
  PAW_PBE Au 04Oct2007                  :
  PAW_PBE V 08Apr2002                   :
  PAW_PBE C 08Apr2002                   :

 POSCAR: Au-V-C
  positions in direct lattice
  velocities in cartesian coordinates
 exchange correlation table for  LEXCH =        8
   RHO(1)=    0.500       N(1)  =     2000
   RHO(2)=  100.500       N(2)  =     4000

 VTST: version 3.2, (02/03/18)

 CHAIN: initializing optimizer

 OPT: Using VASP Conjugate-Gradient optimizer
 CHAIN: Read ICHAIN            0

 POSCAR: Au-V-C
  positions in direct lattice
  velocities in cartesian coordinates

 ion  position               nearest neighbor table
   1  0.000  0.000  0.217-  16 2.94  12 2.94   6 2.94   8 2.94   7 2.94   3 2.94  10 2.94   4 2.94
                             2 2.94
   2  0.333  0.000  0.217-   9 2.94  11 2.94  17 2.94  10 2.94   8 2.94   4 2.94   5 2.94   1 2.94
                             3 2.94
   3  0.667  0.000  0.217-   7 2.94  18 2.94  12 2.94   1 2.94  11 2.94   5 2.94   6 2.94   9 2.94
                             2 2.94
   4  0.000  0.333  0.217-  10 2.94   6 2.94   5 2.94  13 2.94   2 2.94  15 2.94   9 2.94   1 2.94
                             7 2.94
   5  0.333  0.333  0.217-  13 2.94   7 2.94  11 2.94   4 2.94   2 2.94  14 2.94   3 2.94   8 2.94
                             6 2.94
   6  0.667  0.333  0.217-  15 2.94  14 2.94   1 2.94  12 2.94   4 2.94   9 2.94   8 2.94   3 2.94
                             5 2.94
   7  0.000  0.667  0.217-  18 2.94   3 2.94  16 2.94   5 2.94   1 2.94  13 2.94   8 2.94   4 2.94
                             9 2.94
   8  0.333  0.667  0.217-   9 2.94  17 2.94   1 2.94   2 2.94  14 2.94  16 2.94   6 2.94   7 2.94
                             5 2.94
   9  0.667  0.667  0.217-   2 2.94   8 2.94  17 2.94   6 2.94  15 2.94   4 2.94   3 2.94  18 2.94
                             7 2.94
  10  0.111  0.111  0.316-  20 2.93  26 2.94  19 2.94  11 2.94  17 2.94   2 2.94   4 2.94   1 2.94
                            12 2.94  16 2.94  13 2.94  15 2.94
  11  0.444  0.111  0.316-  20 2.92  21 2.92  27 2.94  13 2.94   2 2.94  10 2.94  17 2.94   5 2.94
                             3 2.94  18 2.94  14 2.94  12 2.94
  12  0.778  0.111  0.316-  21 2.93  25 2.94  19 2.94  16 2.94  18 2.94   1 2.94  14 2.94  15 2.94
                             3 2.94   6 2.94  10 2.94  11 2.94
  13  0.111  0.444  0.316-  23 2.92  20 2.92  22 2.94   5 2.94  18 2.94  11 2.94   7 2.94   4 2.94
                            16 2.94  10 2.94  14 2.94  15 2.94
  14  0.444  0.444  0.316-  21 2.92  23 2.92  24 2.94  15 2.94   6 2.94  12 2.94   8 2.94  17 2.94
                             5 2.94  16 2.94  13 2.94  11 2.94
  15  0.778  0.444  0.316-  24 2.92  22 2.92  19 2.93  14 2.94   6 2.94  17 2.94  12 2.94   9 2.94
                             4 2.94  10 2.94  13 2.94  18 2.94
  16  0.111  0.778  0.316-  23 2.93  25 2.94  26 2.94  18 2.94  12 2.94   7 2.94   1 2.94   8 2.94
                            13 2.94  10 2.94  14 2.94  17 2.94
  17  0.444  0.778  0.316-  27 2.92  24 2.92  26 2.93   9 2.94  15 2.94   2 2.94  10 2.94  11 2.94
                             8 2.94  14 2.94  16 2.94  18 2.94
  18  0.778  0.778  0.316-  22 2.92  27 2.92  25 2.93  16 2.94   7 2.94  13 2.94  12 2.94   3 2.94
                            11 2.94   9 2.94  15 2.94  17 2.94
  19  0.889  0.222  0.414-  15 2.93  10 2.94  12 2.94  24 2.94  22 2.94  28 2.94  26 2.94  25 2.94
                            21 2.95  20 2.95  32 3.03  31 3.03
  20  0.223  0.223  0.414-  36 2.72  23 2.92  21 2.92  11 2.92  13 2.92  10 2.93  29 2.95  31 2.95
                            26 2.95  19 2.95  27 2.95  22 2.95
  21  0.554  0.223  0.414-  36 2.72  20 2.92  23 2.92  14 2.92  11 2.92  12 2.93  30 2.95  32 2.95
                            25 2.95  19 2.95  27 2.95  24 2.95
  22  0.887  0.557  0.414-  24 2.91  27 2.91  18 2.92  15 2.92  25 2.94  19 2.94  13 2.94  23 2.95
                            20 2.95  35 2.96  33 2.99  31 2.99
  23  0.223  0.554  0.414-  36 2.72  20 2.92  21 2.92  13 2.92  14 2.92  16 2.93  33 2.95  34 2.95
                            25 2.95  26 2.95  22 2.95  24 2.95
  24  0.557  0.557  0.414-  27 2.91  22 2.91  15 2.92  17 2.92  26 2.94  19 2.94  14 2.94  21 2.95
                            23 2.95  35 2.96  32 2.99  34 2.99
  25  0.889  0.889  0.414-  18 2.93  16 2.94  12 2.94  22 2.94  27 2.94  28 2.94  19 2.94  26 2.94
                            23 2.95  21 2.95  33 3.03  30 3.03
  26  0.222  0.889  0.414-  17 2.93  10 2.94  16 2.94  27 2.94  24 2.94  28 2.94  19 2.94  25 2.94
                            20 2.95  23 2.95  29 3.03  34 3.03
  27  0.557  0.887  0.414-  24 2.91  22 2.91  17 2.92  18 2.92  26 2.94  25 2.94  11 2.94  20 2.95
                            21 2.95  35 2.96  29 2.99  30 2.99
  28  0.000  0.000  0.513-  25 2.94  19 2.94  26 2.94  34 2.99  32 2.99  33 2.99  30 2.99  31 2.99
                            29 2.99
  29  0.334  0.011  0.515-  30 2.83  31 2.85  36 2.86  20 2.95  35 2.98  27 2.99  28 2.99  26 3.03
                            34 3.13
  30  0.655  0.011  0.515-  29 2.83  32 2.85  36 2.86  21 2.95  35 2.98  27 2.99  28 2.99  25 3.03
                            33 3.13
  31  0.011  0.334  0.515-  33 2.83  29 2.85  36 2.86  20 2.95  35 2.98  22 2.99  28 2.99  19 3.03
                            32 3.13
  32  0.655  0.334  0.515-  34 2.83  30 2.85  36 2.86  21 2.95  35 2.98  24 2.99  28 2.99  19 3.03
                            31 3.13
  33  0.011  0.655  0.515-  31 2.83  34 2.85  36 2.86  23 2.95  35 2.98  22 2.99  28 2.99  25 3.03
                            30 3.13
  34  0.334  0.655  0.515-  32 2.83  33 2.85  36 2.86  23 2.95  35 2.98  24 2.99  28 2.99  26 3.03
                            29 3.13
  35  0.667  0.667  0.514-  24 2.96  27 2.96  22 2.96  29 2.98  34 2.98  32 2.98  31 2.98  30 2.98
                            33 2.98
  36  0.333  0.333  0.502-  37 1.71  20 2.72  23 2.72  21 2.72  33 2.86  31 2.86  29 2.86  30 2.86
                            34 2.86  32 2.86
  37  0.333  0.333  0.572-  36 1.71

  LATTYP: Found a hexagonal cell.
 ALAT       =     8.8135128021
 C/A-ratio  =     2.7586513333

  Lattice vectors:

 A1 = (  -4.4067569092,  -7.6327256898,   0.0000000000)
 A2 = (   8.8135128021,   0.0000000000,   0.0000000000)
 A3 = (   0.0000000000,   0.0000000000,  24.3134088421)

Analysis of symmetry for initial positions (statically):
 Subroutine PRICEL returns:
 Original cell was already a primitive cell.

 Routine SETGRP: Setting up the symmetry group for a
 hexagonal supercell.

 Subroutine GETGRP returns: Found  6 space group operations
 (whereof  6 operations were pure point group operations)
 out of a pool of 24 trial point group operations.

The static configuration has the point symmetry C_3v.

Analysis of symmetry for dynamics (positions and initial velocities):
 Subroutine PRICEL returns:
 Original cell was already a primitive cell.

[...]

The dynamic configuration has the point symmetry C_3v.

Analysis of constrained symmetry for selective dynamics:
 Subroutine PRICEL returns:
 Original cell was already a primitive cell.

 Routine SETGRP: Setting up the symmetry group for a
 hexagonal supercell.

 Subroutine GETGRP returns: Found  6 space group operations
[...]
     24      -5.6685      2.00000
     25      -5.6391      2.00000
     26      -5.6116      2.00000
     27      -5.5924      2.00000
     28      -5.5233      2.00000
     29      -5.4852      2.00000
     30      -5.3795      2.00000
     31      -5.3714      2.00000
     32      -5.3448      2.00000
     33      -5.3299      2.00000
     34      -5.3142      2.00000
     35      -5.2795      2.00000
     36      -5.1857      2.00000
     37      -5.1778      2.00000
     38      -5.1270      2.00000
     39      -5.1158      2.00000
     40      -5.0593      2.00000
     41      -4.9990      2.00000
     42      -4.9677      2.00000
     43      -4.9188      2.00000
     44      -4.8979      2.00000
     45      -4.8901      2.00000
     46      -4.8689      2.00000
     47      -4.7725      2.00000
     48      -4.7526      2.00000
     49      -4.7296      2.00000
     50      -4.6995      2.00000
     51      -4.6972      2.00000
     52      -4.6924      2.00000
     53      -4.6685      2.00000
     54      -4.6521      2.00000
     55      -4.6066      2.00000
     56      -4.5812      2.00000
     57      -4.5588      2.00000
     58      -4.5566      2.00000
     59      -4.5334      2.00000
     60      -4.5232      2.00000
[...]
    238       5.9380      0.00000
    239       6.0141      0.00000
    240       6.0256      0.00000
    241       6.1732      0.00000
    242       6.1964      0.00000
    243       6.2468      0.00000
    244       6.2677      0.00000
    245       6.4335      0.00000
    246       6.6398      0.00000
    247       6.6891      0.00000
    248       6.7783      0.00000
    249       6.8462      0.00000
    250       6.9097      0.00000
    251       6.9775      0.00000
    252       7.0897      0.00000

 soft charge-density along one line, spin component           1
         0         1         2         3         4         5         6         7         8         9
 total charge-density along one line

------------------------ aborting loop because EDIFF is reached ----------------------------------------

 total charge

# of ion       s       p       d       tot
    1        0.544   0.240   8.764   9.548
    2        0.543   0.241   8.764   9.548
    3        0.543   0.241   8.764   9.548
    4        0.543   0.241   8.764   9.548
    5        0.545   0.239   8.762   9.546
    6        0.543   0.241   8.764   9.548
    7        0.543   0.241   8.764   9.548
    8        0.543   0.241   8.764   9.548
    9        0.542   0.240   8.767   9.550
   10        0.520   0.308   8.770   9.598
   11        0.522   0.306   8.776   9.605
   12        0.520   0.308   8.770   9.598
   13        0.522   0.306   8.776   9.605
   14        0.522   0.306   8.776   9.605
   15        0.516   0.310   8.772   9.598
   16        0.520   0.308   8.770   9.598
   17        0.516   0.310   8.772   9.598
   18        0.516   0.310   8.772   9.598
   19        0.515   0.297   8.774   9.586
   20        0.549   0.328   8.750   9.627
   21        0.549   0.328   8.750   9.627
   22        0.507   0.308   8.777   9.592
   23        0.549   0.328   8.750   9.627
   24        0.507   0.308   8.777   9.592
   25        0.515   0.297   8.774   9.586
   26        0.515   0.297   8.774   9.586
   27        0.507   0.308   8.777   9.592
   28        0.541   0.225   8.761   9.527
   29        0.557   0.238   8.753   9.548
   30        0.557   0.238   8.753   9.548
   31        0.557   0.238   8.753   9.548
   32        0.557   0.238   8.753   9.548
   33        0.557   0.238   8.753   9.548
   34        0.557   0.238   8.753   9.548
   35        0.545   0.224   8.758   9.527
   36        0.480   0.641   3.766   4.887
   37        1.008   1.200   0.000   2.208
tot         20.195  11.451 310.535 342.181

  FORCE on cell =-STRESS in cart. coord.  units (eV):
  Direction    XX          YY          ZZ          XY          YZ          ZX
  Alpha Z   912.66601   912.66601   912.66601
  Ewald  148267.55215148267.55254************    -0.00032    -0.00009    -0.00014
  Hartree156509.71442156509.71442************     0.00000    -0.00002    -0.00004
  E(xc)   -1762.18935 -1762.18934 -1772.56197    -0.00001    -0.00000    -0.00000
  Local  ************************317236.26652     0.00177     0.00004     0.00006
  n-local   -73.42039   -29.61097   -31.49548    21.80154    -1.55347     1.62462
  augment  2383.27407  2383.27556  2405.37217    -0.00129     0.00001     0.00005
  Kinetic  5427.76877  5437.15999  5492.51847     5.75263     0.06905     0.45760
  Fock        0.00000     0.00000     0.00000     0.00000     0.00000     0.00000
  Total     -22.19520   -22.19520     0.90614    -0.00000     0.00000     0.00000
  in kB     -21.74178   -21.74178     0.88763    -0.00000     0.00000     0.00000

 VOLUME and BASIS-vectors are now :
  energy-cutoff  :      500.00
  volume of cell :     1635.59
      direct lattice vectors                 reciprocal lattice vectors
     8.813512802  0.000000000  0.000000000     0.113462137 -0.065507406  0.000000000
     4.406756909  7.632725690  0.000000000     0.000000000  0.131014796  0.000000000
     0.000000000  0.000000000 24.313408842     0.000000000  0.000000000  0.041129568

  length of vectors
     8.813512802  8.813512802 24.313408842     0.131014796  0.131014796  0.041129568

 FORCES acting on ions
    electron-ion (+dipol)            ewald-force                    non-local-force                 convergence-correction
   -.196E-04 -.162E-04 0.263E+04   0.518E-04 0.433E-04 -.263E+04   0.289E-18 -.445E-18 -.671E+00   -.238E-03 -.151E-03 -.253E+00
   0.226E+00 -.322E+00 0.263E+04   -.271E+00 0.133E+00 -.263E+04   0.194E-01 0.642E-01 -.317E+00   0.198E-01 0.112E+00 -.257E+00
   -.226E+00 -.322E+00 0.263E+04   0.271E+00 0.133E+00 -.263E+04   -.194E-01 0.642E-01 -.317E+00   -.195E-01 0.114E+00 -.257E+00
   -.166E+00 0.357E+00 0.263E+04   -.202E-01 -.301E+00 -.263E+04   0.653E-01 -.153E-01 -.317E+00   0.107E+00 -.389E-01 -.257E+00
   0.788E-05 -.237E-04 0.263E+04   0.951E-04 0.173E-05 -.263E+04   0.288E-17 -.304E-17 -.240E+00   0.428E-02 0.260E-02 -.217E+00
   0.166E+00 0.357E+00 0.263E+04   0.201E-01 -.301E+00 -.263E+04   -.653E-01 -.153E-01 -.317E+00   -.108E+00 -.380E-01 -.256E+00
   -.392E+00 -.350E-01 0.263E+04   0.250E+00 0.168E+00 -.263E+04   0.459E-01 -.489E-01 -.317E+00   0.889E-01 -.738E-01 -.257E+00
   0.392E+00 -.350E-01 0.263E+04   -.251E+00 0.168E+00 -.263E+04   -.459E-01 -.489E-01 -.317E+00   -.871E-01 -.749E-01 -.256E+00
   0.196E-04 -.416E-04 0.263E+04   0.166E-03 -.200E-04 -.263E+04   0.158E-17 0.199E-17 -.495E+00   -.458E-02 -.237E-02 -.237E+00
   0.125E+01 0.722E+00 0.859E+03   -.110E+01 -.633E+00 -.858E+03   -.206E+00 -.119E+00 -.540E+00   0.447E-01 0.257E-01 -.204E+00
   0.146E-04 0.353E+00 0.861E+03   0.148E-03 -.467E+00 -.861E+03   0.175E-08 0.262E-01 -.453E+00   0.400E-02 0.624E-01 -.194E+00
   -.125E+01 0.722E+00 0.859E+03   0.110E+01 -.633E+00 -.858E+03   0.206E+00 -.119E+00 -.540E+00   -.462E-01 0.268E-01 -.204E+00
   0.306E+00 -.177E+00 0.861E+03   -.405E+00 0.233E+00 -.861E+03   0.227E-01 -.131E-01 -.453E+00   0.563E-01 -.275E-01 -.194E+00
   -.306E+00 -.177E+00 0.861E+03   0.404E+00 0.233E+00 -.861E+03   -.227E-01 -.131E-01 -.453E+00   -.488E-01 -.283E-01 -.195E+00
   0.322E-04 0.353E+01 0.863E+03   0.235E-03 -.353E+01 -.863E+03   0.143E-08 0.214E-01 -.530E+00   -.228E-02 -.461E-01 -.233E+00
   -.209E-04 -.144E+01 0.859E+03   0.162E-03 0.127E+01 -.858E+03   0.158E-07 0.238E+00 -.540E+00   -.717E-04 -.534E-01 -.204E+00
   0.306E+01 -.176E+01 0.863E+03   -.306E+01 0.177E+01 -.863E+03   0.186E-01 -.107E-01 -.530E+00   -.408E-01 0.215E-01 -.233E+00
   -.306E+01 -.176E+01 0.863E+03   0.306E+01 0.177E+01 -.863E+03   -.186E-01 -.107E-01 -.530E+00   0.411E-01 0.235E-01 -.232E+00
   -.422E-04 -.319E+01 -.927E+03   0.558E-04 0.310E+01 0.926E+03   0.683E-08 0.103E+00 0.831E+00   -.551E-03 -.842E-03 0.309E-01
   -.509E+01 -.294E+01 -.922E+03   0.560E+01 0.323E+01 0.923E+03   -.847E+00 -.489E+00 -.910E+00   0.125E+00 0.723E-01 0.151E+00
   0.509E+01 -.294E+01 -.922E+03   -.560E+01 0.323E+01 0.923E+03   0.847E+00 -.489E+00 -.910E+00   -.125E+00 0.726E-01 0.150E+00
   -.978E+01 0.565E+01 -.917E+03   0.933E+01 -.539E+01 0.916E+03   0.372E+00 -.215E+00 0.700E+00   0.118E+00 -.680E-01 0.697E-01
   -.875E-05 0.588E+01 -.922E+03   0.138E-03 -.646E+01 0.923E+03   0.651E-07 0.978E+00 -.910E+00   0.277E-03 -.144E+00 0.150E+00
   0.978E+01 0.565E+01 -.917E+03   -.933E+01 -.539E+01 0.916E+03   -.372E+00 -.215E+00 0.700E+00   -.118E+00 -.682E-01 0.697E-01
   0.277E+01 0.160E+01 -.927E+03   -.269E+01 -.155E+01 0.926E+03   -.888E-01 -.513E-01 0.831E+00   0.109E-02 0.572E-03 0.305E-01
   -.277E+01 0.160E+01 -.927E+03   0.269E+01 -.155E+01 0.926E+03   0.888E-01 -.513E-01 0.831E+00   -.683E-03 -.238E-04 0.309E-01
   0.949E-05 -.113E+02 -.917E+03   0.198E-03 0.108E+02 0.916E+03   0.286E-07 0.430E+00 0.700E+00   -.357E-03 0.136E+00 0.698E-01
   -.118E-04 -.120E-04 -.261E+04   0.286E-04 0.318E-04 0.261E+04   -.100E-17 0.937E-18 0.500E+00   -.239E-04 -.300E-04 0.155E+00
   0.123E+02 0.125E+02 -.262E+04   -.118E+02 -.117E+02 0.261E+04   -.744E+00 -.114E+01 0.823E+00   0.120E+00 0.220E+00 0.107E+00
   -.123E+02 0.125E+02 -.262E+04   0.118E+02 -.117E+02 0.261E+04   0.744E+00 -.114E+01 0.823E+00   -.120E+00 0.222E+00 0.107E+00
   0.170E+02 0.441E+01 -.262E+04   -.160E+02 -.433E+01 0.261E+04   -.136E+01 -.751E-01 0.823E+00   0.251E+00 -.633E-02 0.107E+00
   -.170E+02 0.441E+01 -.262E+04   0.160E+02 -.434E+01 0.261E+04   0.136E+01 -.751E-01 0.823E+00   -.252E+00 -.555E-02 0.107E+00
   0.467E+01 -.169E+02 -.262E+04   -.425E+01 0.160E+02 0.261E+04   -.614E+00 0.121E+01 0.823E+00   0.132E+00 -.215E+00 0.107E+00
   -.467E+01 -.169E+02 -.262E+04   0.425E+01 0.160E+02 0.261E+04   0.614E+00 0.121E+01 0.823E+00   -.131E+00 -.215E+00 0.107E+00
   0.344E-04 -.314E-04 -.262E+04   0.142E-03 -.474E-04 0.262E+04   0.127E-16 -.891E-17 0.435E+00   -.440E-02 -.224E-02 0.124E+00
   -.195E-04 -.626E-06 -.105E+04   0.527E-04 0.489E-05 0.105E+04   -.380E-17 -.166E-17 0.112E+01   0.879E-03 0.534E-03 0.580E-01
   0.430E-04 -.266E-04 -.114E+04   0.175E-04 0.115E-05 0.115E+04   0.286E-17 0.103E-17 -.518E+01   0.643E-03 0.390E-03 -.253E+00
   -.756E-03 -.799E-03 0.715E+01   0.356E-13 0.325E-12 0.432E-11   0.345E-15 0.213E-15 -.420E+01   0.681E-02 0.452E-02 -.266E+01

 POSITION                                       TOTAL-FORCE (eV/Angst)
      0.00000      0.00000      5.28038        -0.000000      0.000000     -0.076465
      2.93784      0.00000      5.28038        -0.004583     -0.012158     -0.042465
      5.87568      0.00000      5.28038         0.004583     -0.012158     -0.042465
      1.46892      2.54424      5.28038        -0.012820      0.002110     -0.042465
      4.40676      2.54424      5.28038        -0.000000      0.000000     -0.089876
      7.34459      2.54424      5.28038         0.012820      0.002110     -0.042465
      2.93784      5.08848      5.28038        -0.008237      0.010047     -0.042465
      5.87568      5.08848      5.28038         0.008237      0.010047     -0.042465
      8.81351      5.08848      5.28038        -0.000000      0.000000     -0.043281
      1.46892      0.84808      7.67911        -0.005986     -0.003456      0.076309
      4.40676      0.84808      7.67911        -0.000000     -0.026886      0.009047
      7.34459      0.84808      7.67911         0.005986     -0.003456      0.076309
      2.93784      3.39232      7.67911        -0.023284      0.013443      0.009047
      5.87568      3.39232      7.67911         0.023284      0.013443      0.009047
      8.81351      3.39232      7.67911        -0.000000     -0.027596      0.079659
      4.40676      5.93656      7.67911         0.000000      0.006912      0.076309
      7.34459      5.93656      7.67911        -0.023898      0.013798      0.079659
     10.28243      5.93656      7.67911         0.023898      0.013798      0.079659
      8.81351      1.69782     10.07545         0.000000      0.011799      0.116919
      2.94790      1.70197     10.06171        -0.218089     -0.125914     -0.170515
      5.86562      1.70197     10.06171         0.218089     -0.125914     -0.170515
     10.26824      4.24860     10.06503         0.045325     -0.026169      0.080548
      4.40676      4.22879     10.06171         0.000000      0.251828     -0.170515
      7.35878      4.24860     10.06503        -0.045325     -0.026169      0.080548
     11.74991      6.78381     10.07545        -0.010218     -0.005900      0.116919
      5.87712      6.78381     10.07545         0.010218     -0.005900      0.116919
      8.81351      6.76826     10.06503         0.000000      0.052337      0.080548
      0.00000      0.00000     12.47281        -0.000000      0.000000     -0.061930
      2.99055      0.08121     12.52138        -0.067198     -0.108160     -0.099763
      5.82296      0.08121     12.52138         0.067198     -0.108160     -0.099763
      1.56560      2.54929     12.52138        -0.127268     -0.004115     -0.099763
      7.24791      2.54929     12.52138         0.127268     -0.004115     -0.099763
      2.98181      5.00223     12.52138        -0.060070      0.112275     -0.099763
      5.83171      5.00223     12.52138         0.060070      0.112275     -0.099763
      8.81351      5.08848     12.50032        -0.000000      0.000000     -0.028838
      4.40676      2.54424     12.20130        -0.000000      0.000000      0.568426
      4.40676      2.54424     13.91160        -0.000000      0.000000      0.009433
    total drift:                                0.006049      0.003717      0.285193

  FREE ENERGIE OF THE ION-ELECTRON SYSTEM (eV)
  free  energy   TOTEN  =      -120.73067266 eV

  energy  without entropy=     -120.73067266  energy(sigma->0) =     -120.73067266

 stress matrix after NEB project (eV)
    -22.19520     -0.00000      0.00000
     -0.00000    -22.19520      0.00000
      0.00000      0.00000      0.90614
  FORCES: max atom, RMS     0.009433    0.001551
  FORCE total and by dimension    0.009433    0.009433
  Stress total and by dimension   31.401824   22.195197
|           W    W    AA    RRRRR   N    N  II  N    N   GGGG   !!!           |
|           W    W   A  A   R    R  NN   N  II  NN   N  G    G  !!!           |
|           W    W  A    A  R    R  N N  N  II  N N  N  G       !!!           |
|           W WW W  AAAAAA  RRRRR   N  N N  II  N  N N  G  GGG   !            |
|           WW  WW  A    A  R   R   N   NN  II  N   NN  G    G                |
|           W    W  A    A  R    R  N    N  II  N    N   GGGG   !!!           |
|     Tetrahedron method does not include variations of the Fermi             |
|     occupations, so forces and stress will be inaccurate. We suggest        |
|     using a different smearing scheme ISMEAR = 1 or 2 for metals in         |
|     relaxations.                                                            |

 total charge

# of ion       s       p       d       tot
    1        0.544   0.240   8.764   9.548
    2        0.543   0.241   8.764   9.548
    3        0.543   0.241   8.764   9.548
    4        0.543   0.241   8.764   9.548
    5        0.545   0.239   8.762   9.546
    6        0.543   0.241   8.764   9.548
    7        0.543   0.241   8.764   9.548
    8        0.543   0.241   8.764   9.548
    9        0.542   0.240   8.767   9.550
   10        0.520   0.308   8.770   9.598
   11        0.522   0.306   8.776   9.605
   12        0.520   0.308   8.770   9.598
   13        0.522   0.306   8.776   9.605
   14        0.522   0.306   8.776   9.605
   15        0.516   0.310   8.772   9.598
   16        0.520   0.308   8.770   9.598
   17        0.516   0.310   8.772   9.598
   18        0.516   0.310   8.772   9.598
   19        0.515   0.297   8.774   9.586
   20        0.549   0.328   8.750   9.627
   21        0.549   0.328   8.750   9.627
   22        0.507   0.308   8.777   9.592
   23        0.549   0.328   8.750   9.627
   24        0.507   0.308   8.777   9.592
   25        0.515   0.297   8.774   9.586
   26        0.515   0.297   8.774   9.586
   27        0.507   0.308   8.777   9.592
   28        0.541   0.225   8.761   9.527
   29        0.557   0.238   8.753   9.548
   30        0.557   0.238   8.753   9.548
   31        0.557   0.238   8.753   9.548
   32        0.557   0.238   8.753   9.548
   33        0.557   0.238   8.753   9.548
   34        0.557   0.238   8.753   9.548
   35        0.545   0.224   8.758   9.527
   36        0.480   0.641   3.766   4.887
   37        1.008   1.200   0.000   2.208
tot         20.195  11.451 310.535 342.181

 BZINTS: Fermi energy:    0.095480;  394.000000 electrons
         Band energy:-0.143160E+04;  BLOECHL correction:   -0.071282