 vasp.6.2.0 18Jan21 (build Jun 12 2021 23:27:24) complex

 executed on             LinuxIFC date 2022.05.27  05:38:09

 INCAR:
   ISMEAR = -5
   SIGMA = 0.1
   ISPIN = 1
   EDIFF = 1.d-5
   EDIFFG = -0.01
   NSW = 0
   NELM = 150
   ENCUT = 500
   ISIF = 2
   IBRION = 2
   LREAL = Auto
   ALGO = Fast
   ICHARG = 11
   LORBIT = 10
   LCHARG = .F.
   LWAVE = .F.

 POTCAR:    PAW_PBE Ag 02Apr2005
 POTCAR:    PAW_PBE Zr_sv 04Jan2005
 POTCAR:    PAW_PBE O 08Apr2002
 POTCAR:    PAW_PBE H 15Jun2001
|           W    W    AA    RRRRR   N    N  II  N    N   GGGG   !!!           |
|           W    W   A  A   R    R  NN   N  II  NN   N  G    G  !!!           |
|           W    W  A    A  R    R  N N  N  II  N N  N  G       !!!           |
|           W WW W  AAAAAA  RRRRR   N  N N  II  N  N N  G  GGG   !            |
|           WW  WW  A    A  R   R   N   NN  II  N   NN  G    G                |
|           W    W  A    A  R    R  N    N  II  N    N   GGGG   !!!           |
|     For optimal performance we recommend to set                             |
|       NCORE = 2 up to number-of-cores-per-socket                            |
|     This setting can greatly improve the performance of VASP for DFT.       |
|     The default, NCORE=1 might be grossly inefficient on modern             |
|     multi-core architectures or massively parallel machines. Do your        |
|     Unfortunately you need to use the default for GW and RPA                |
|     calculations (for HF NCORE is supported but not extensively tested      |
|     yet).                                                                   |

 POTCAR:    PAW_PBE Ag 02Apr2005
   VRHFIN =Ag : s1 d10

   TITEL  = PAW_PBE Ag 02Apr2005
   POMASS =  107.868; ZVAL   =   11.000    mass and valenz
   ENMAX  =  249.844; ENMIN  =  187.383 eV

 POTCAR:    PAW_PBE Zr_sv 04Jan2005
   VRHFIN =Zr: 4s4p5s4d

   TITEL  = PAW_PBE Zr_sv 04Jan2005
   POMASS =   91.224; ZVAL   =   12.000    mass and valenz
   ENMAX  =  229.898; ENMIN  =  172.424 eV

 POTCAR:    PAW_PBE O 08Apr2002
   VRHFIN =O: s2p4

   TITEL  = PAW_PBE O 08Apr2002
   POMASS =   16.000; ZVAL   =    6.000    mass and valenz
   ENMAX  =  400.000; ENMIN  =  300.000 eV

 POTCAR:    PAW_PBE H 15Jun2001
   VRHFIN =H: ultrasoft test

   TITEL  = PAW_PBE H 15Jun2001
   POMASS =    1.000; ZVAL   =    1.000    mass and valenz
   ENMAX  =  250.000; ENMIN  =  200.000 eV

 Optimization of the real space projectors (new method)

 maximal supplied QI-value         = 15.12
 optimisation between [QCUT,QGAM] = [ 11.34, 22.83] = [ 36.00,145.93] Ry
 Optimized for a Real-space Cutoff    1.43 Angstroem

   l    n(q)    QCUT    max X(q) W(low)/X(q) W(high)/X(q)  e(spline)
   2      9    11.338    53.897    0.16E-03    0.20E-03    0.28E-06
   2      9    11.338    52.416    0.16E-03    0.20E-03    0.29E-06
   0     10    11.338   122.045    0.31E-04    0.76E-04    0.15E-06
   0     10    11.338    73.629    0.30E-04    0.72E-04    0.15E-06
   1      9    11.338    15.255    0.20E-03    0.19E-04    0.17E-06
   1      9    11.338     9.562    0.16E-03    0.15E-04    0.14E-06
 Optimization of the real space projectors (new method)

[...]

   l    n(q)    QCUT    max X(q) W(low)/X(q) W(high)/X(q)  e(spline)
   0      7    11.387    20.381    0.39E-03    0.13E-02    0.15E-06
   0      7    11.387    15.268    0.42E-03    0.14E-02    0.17E-06
   1      6    11.387     5.964    0.41E-03    0.11E-02    0.17E-06
   1      6    11.387     5.382    0.39E-03    0.87E-03    0.15E-06
 Optimization of the real space projectors (new method)

 maximal supplied QI-value         = 34.20
 optimisation between [QCUT,QGAM] = [ 11.29, 22.57] = [ 35.68,142.71] Ry
 Optimized for a Real-space Cutoff    1.16 Angstroem

   l    n(q)    QCUT    max X(q) W(low)/X(q) W(high)/X(q)  e(spline)
   0      8    11.287    19.460    0.40E-03    0.73E-03    0.16E-06
   0      8    11.287    12.209    0.38E-03    0.70E-03    0.15E-06
   1      7    11.287     4.655    0.22E-03    0.25E-04    0.22E-06
  PAW_PBE Ag 02Apr2005                  :
  PAW_PBE Zr_sv 04Jan2005               :
  PAW_PBE O 08Apr2002                   :
  PAW_PBE H 15Jun2001                   :

 POSCAR: Ag-Zr-OH
  positions in direct lattice
  velocities in cartesian coordinates
 exchange correlation table for  LEXCH =        8
   RHO(1)=    0.500       N(1)  =     2000
   RHO(2)=  100.500       N(2)  =     4000

 VTST: version 3.2, (02/03/18)

 CHAIN: initializing optimizer

 OPT: Using VASP Conjugate-Gradient optimizer
 CHAIN: Read ICHAIN            0

 POSCAR: Ag-Zr-OH
  positions in direct lattice
  velocities in cartesian coordinates

 ion  position               nearest neighbor table
   1  0.000  0.000  0.209-   2 2.93   8 2.93   7 2.93   6 2.93   4 2.93  12 2.93  16 2.93  10 2.93
                             3 2.93
   2  0.333  0.000  0.209-   1 2.93   8 2.93   9 2.93   3 2.93   4 2.93   5 2.93  10 2.93  17 2.93
                            11 2.93
   3  0.667  0.000  0.209-   9 2.93   2 2.93   5 2.93  11 2.93   7 2.93  18 2.93   1 2.93   6 2.93
                            12 2.93
   4  0.000  0.333  0.209-   5 2.93   6 2.93   2 2.93   1 2.93   7 2.93  13 2.93  15 2.93   9 2.93
                            10 2.93
   5  0.333  0.333  0.209-   4 2.93   3 2.93   7 2.93   2 2.93   8 2.93  14 2.93  13 2.93  11 2.93
                             6 2.93
   6  0.667  0.333  0.209-   4 2.93   9 2.93   1 2.93  15 2.93   8 2.93  12 2.93   3 2.93   5 2.93
                            14 2.93
   7  0.000  0.667  0.209-   8 2.93   1 2.93   5 2.93   3 2.93   4 2.93  16 2.93  18 2.93  13 2.93
                             9 2.93
   8  0.333  0.667  0.209-   7 2.93   1 2.93   2 2.93   9 2.93   5 2.93  16 2.93   6 2.93  17 2.93
                            14 2.93
   9  0.667  0.667  0.209-   3 2.93   2 2.93   8 2.93   6 2.93  17 2.93   4 2.93  15 2.93   7 2.93
                            18 2.93
  10  0.111  0.111  0.304-  20 2.91  19 2.92  26 2.92  12 2.93  16 2.93  15 2.93  17 2.93  13 2.93
                            11 2.93   2 2.93   1 2.93   4 2.93
  11  0.444  0.111  0.304-  21 2.91  20 2.91  14 2.93  17 2.93  18 2.93   3 2.93  12 2.93  13 2.93
                            10 2.93   5 2.93   2 2.93  27 2.93
  12  0.778  0.111  0.304-  21 2.91  25 2.92  19 2.92  10 2.93  16 2.93  18 2.93  15 2.93  11 2.93
                             1 2.93  14 2.93   6 2.93   3 2.93
  13  0.111  0.444  0.304-  20 2.91  23 2.91  15 2.93  14 2.93  18 2.93  10 2.93  11 2.93  16 2.93
                             4 2.93   5 2.93   7 2.93  22 2.93
  14  0.444  0.444  0.304-  23 2.91  21 2.91  13 2.93  11 2.93  16 2.93   5 2.93  12 2.93  17 2.93
                             8 2.93  15 2.93   6 2.93  24 2.93
  15  0.778  0.444  0.304-  19 2.92  13 2.93  10 2.93  12 2.93  17 2.93  18 2.93   4 2.93   6 2.93
                             9 2.93  14 2.93  24 2.93  22 2.93
  16  0.111  0.778  0.304-  23 2.91  26 2.92  25 2.92  18 2.93  12 2.93  10 2.93  14 2.93  17 2.93
                            13 2.93   7 2.93   8 2.93   1 2.93
  17  0.444  0.778  0.304-  26 2.92  11 2.93  10 2.93   9 2.93  18 2.93  15 2.93  16 2.93   2 2.93
                            14 2.93   8 2.93  27 2.93  24 2.93
  18  0.778  0.778  0.304-  25 2.92  16 2.93  12 2.93  13 2.93  11 2.93  17 2.93  15 2.93   7 2.93
                             3 2.93   9 2.93  22 2.93  27 2.93
  19  0.889  0.222  0.398-  10 2.92  12 2.92  15 2.92  26 2.93  25 2.93  20 2.93  21 2.93  24 2.93
                            22 2.93  28 2.93  32 2.97  31 2.97
  20  0.222  0.222  0.398-  13 2.91  11 2.91  10 2.91  36 2.92  21 2.93  23 2.93  27 2.93  22 2.93
                            19 2.93  26 2.93  31 2.97  29 2.97
  21  0.555  0.222  0.398-  11 2.91  14 2.91  12 2.91  36 2.92  20 2.93  23 2.93  27 2.93  24 2.93
                            25 2.93  19 2.93  30 2.97  32 2.97
  22  0.889  0.556  0.399-  24 2.93  27 2.93  23 2.93  20 2.93  18 2.93  15 2.93  13 2.93  25 2.93
                            19 2.93  35 2.94  33 2.95  31 2.95
  23  0.222  0.555  0.398-  14 2.91  13 2.91  16 2.91  36 2.92  21 2.93  20 2.93  22 2.93  24 2.93
                            26 2.93  25 2.93  34 2.97  33 2.97
  24  0.556  0.556  0.399-  27 2.93  22 2.93  23 2.93  21 2.93  15 2.93  17 2.93  14 2.93  19 2.93
                            26 2.93  35 2.94  32 2.95  34 2.95
  25  0.889  0.889  0.398-  16 2.92  12 2.92  18 2.92  26 2.93  19 2.93  23 2.93  21 2.93  22 2.93
                            27 2.93  28 2.93  33 2.97  30 2.97
  26  0.222  0.889  0.398-  16 2.92  10 2.92  17 2.92  25 2.93  19 2.93  23 2.93  20 2.93  27 2.93
                            24 2.93  28 2.93  34 2.97  29 2.97
  27  0.556  0.889  0.399-  24 2.93  22 2.93  20 2.93  21 2.93  17 2.93  18 2.93  11 2.93  26 2.93
                            25 2.93  35 2.94  29 2.95  30 2.95
  28  0.000  0.000  0.493-  29 2.93  34 2.93  33 2.93  32 2.93  31 2.93  30 2.93  26 2.93  25 2.93
                            19 2.93
  29  0.334  0.000  0.494-  30 2.93  36 2.93  35 2.93  31 2.93  28 2.93  34 2.94  27 2.95  26 2.97
                            20 2.97
  30  0.666  0.000  0.494-  29 2.93  36 2.93  35 2.93  32 2.93  28 2.93  33 2.94  27 2.95  25 2.97
                            21 2.97
  31  0.000  0.334  0.494-  33 2.93  36 2.93  35 2.93  29 2.93  28 2.93  32 2.94  22 2.95  19 2.97
                            20 2.97
  32  0.666  0.334  0.494-  34 2.93  36 2.93  35 2.93  30 2.93  28 2.93  31 2.94  24 2.95  19 2.97
                            21 2.97
  33  0.000  0.666  0.494-  31 2.93  36 2.93  35 2.93  34 2.93  28 2.93  30 2.94  22 2.95  25 2.97
                            23 2.97
  34  0.334  0.666  0.494-  32 2.93  36 2.93  35 2.93  33 2.93  28 2.93  29 2.94  24 2.95  26 2.97
                            23 2.97
  35  0.667  0.667  0.494-  30 2.93  29 2.93  32 2.93  34 2.93  31 2.93  33 2.93  24 2.94  27 2.94
                            22 2.94
  36  0.333  0.333  0.492-  37 1.91  21 2.92  20 2.92  23 2.92  31 2.93  33 2.93  30 2.93  29 2.93
                            34 2.93  32 2.93
  37  0.333  0.333  0.568-  38 0.97  36 1.91
  38  0.333  0.333  0.606-  37 0.97

  LATTYP: Found a hexagonal cell.
 ALAT       =     8.7913665772
 C/A-ratio  =     2.8719070141

  Lattice vectors:

 A1 = (  -4.3956832886,  -7.6135467898,   0.0000000000)
 A2 = (   8.7913665771,   0.0000000000,   0.0000000000)
 A3 = (   0.0000000000,   0.0000000000,  25.2479873362)

Analysis of symmetry for initial positions (statically):
 Subroutine PRICEL returns:
 Original cell was already a primitive cell.

 Routine SETGRP: Setting up the symmetry group for a
 hexagonal supercell.

 Subroutine GETGRP returns: Found  6 space group operations
 (whereof  6 operations were pure point group operations)
 out of a pool of 24 trial point group operations.

The static configuration has the point symmetry C_3v.

Analysis of symmetry for dynamics (positions and initial velocities):
 Subroutine PRICEL returns:
 Original cell was already a primitive cell.

[...]

The dynamic configuration has the point symmetry C_3v.

Analysis of constrained symmetry for selective dynamics:
 Subroutine PRICEL returns:
 Original cell was already a primitive cell.

[...]
     33      -4.9575      2.00000
     34      -4.9374      2.00000
     35      -4.9309      2.00000
     36      -4.9083      2.00000
     37      -4.8896      2.00000
     38      -4.8725      2.00000
     39      -4.8629      2.00000
     40      -4.8483      2.00000
     41      -4.8304      2.00000
     42      -4.7841      2.00000
     43      -4.7724      2.00000
     44      -4.7377      2.00000
     45      -4.7218      2.00000
     46      -4.7066      2.00000
     47      -4.6999      2.00000
     48      -4.6820      2.00000
     49      -4.5899      2.00000
     50      -4.5769      2.00000
     51      -4.5660      2.00000
     52      -4.5516      2.00000
     53      -4.5440      2.00000
     54      -4.5383      2.00000
     55      -4.5300      2.00000
     56      -4.5225      2.00000
     57      -4.5120      2.00000
     58      -4.5028      2.00000
     59      -4.4527      2.00000
     60      -4.4459      2.00000
[...]
    242       5.8633      0.00000
    243       5.9181      0.00000
    244       5.9578      0.00000
    245       6.0028      0.00000
    246       6.1504      0.00000
    247       6.3597      0.00000
    248       6.3687      0.00000
    249       6.4423      0.00000
    250       6.6532      0.00000
    251       6.7895      0.00000
    252       6.8748      0.00000
    253       6.9511      0.00000
    254       6.9978      0.00000
    255       7.1149      0.00000
    256       7.2113      0.00000

 soft charge-density along one line, spin component           1
         0         1         2         3         4         5         6         7         8         9
 total charge-density along one line

------------------------ aborting loop because EDIFF is reached ----------------------------------------

 total charge

# of ion       s       p       d       tot
    1        0.421   0.201   9.177   9.799
    2        0.417   0.204   9.177   9.797
    3        0.417   0.204   9.177   9.797
    4        0.417   0.204   9.177   9.797
    5        0.418   0.204   9.176   9.798
    6        0.417   0.204   9.177   9.797
    7        0.417   0.204   9.177   9.797
    8        0.417   0.204   9.177   9.797
    9        0.415   0.203   9.177   9.795
   10        0.410   0.268   9.163   9.841
   11        0.405   0.268   9.168   9.841
   12        0.410   0.268   9.163   9.841
   13        0.405   0.268   9.168   9.841
   14        0.405   0.268   9.168   9.841
   15        0.401   0.269   9.164   9.835
   16        0.410   0.268   9.163   9.841
   17        0.401   0.269   9.164   9.835
   18        0.401   0.269   9.164   9.835
   19        0.405   0.264   9.167   9.836
   20        0.437   0.293   9.138   9.868
   21        0.437   0.293   9.138   9.868
   22        0.396   0.273   9.162   9.831
   23        0.437   0.293   9.138   9.868
   24        0.396   0.273   9.162   9.831
   25        0.405   0.264   9.167   9.836
   26        0.405   0.264   9.167   9.836
   27        0.396   0.273   9.162   9.831
   28        0.413   0.209   9.170   9.792
   29        0.450   0.220   9.152   9.823
   30        0.450   0.220   9.152   9.823
   31        0.450   0.220   9.152   9.823
   32        0.450   0.220   9.152   9.823
   33        0.450   0.220   9.152   9.823
   34        0.450   0.220   9.152   9.823
   35        0.413   0.212   9.169   9.794
   36        2.214   5.999   1.519   9.733
   37        1.564   3.558   0.000   5.123
   38        0.610   0.124   0.000   0.734
tot         19.029  18.165 322.251 359.445

  FORCE on cell =-STRESS in cart. coord.  units (eV):
  Direction    XX          YY          ZZ          XY          YZ          ZX
  Alpha Z   679.58304   679.58304   679.58304
  Ewald  167860.65946167860.65957************     0.00004     0.00000     0.00005
  Hartree178074.18294178074.18298************     0.00002     0.00000     0.00001
  E(xc)   -2113.53201 -2113.53205 -2118.42907     0.00003    -0.00000    -0.00000
  Local  ************************357297.32132     0.00054    -0.00007    -0.00019
  n-local  -357.72959  -341.82685  -352.69488     9.82419    -0.72072     0.72985
  augment  3227.36026  3227.36052  3238.76723    -0.00022    -0.00002    -0.00002
  Kinetic  5140.76935  5143.59518  5141.16498     1.95795     1.11718    -0.53255
  Fock        0.00000     0.00000     0.00000     0.00000     0.00000     0.00000
  Total      -5.65571    -5.65571     0.42637    -0.00000    -0.00000    -0.00000
  in kB      -5.36201    -5.36201     0.40423    -0.00000    -0.00000    -0.00000

 VOLUME and BASIS-vectors are now :
  energy-cutoff  :      500.00
  volume of cell :     1689.94
      direct lattice vectors                 reciprocal lattice vectors
     8.791366577  0.000000000  0.000000000     0.113747958 -0.065672414  0.000000000
     4.395683289  7.613546790  0.000000000     0.000000000  0.131344829  0.000000000
     0.000000000  0.000000000 25.247987336     0.000000000  0.000000000  0.039607117

  length of vectors
     8.791366577  8.791366577 25.247987336     0.131344829  0.131344829  0.039607117

 FORCES acting on ions
    electron-ion (+dipol)            ewald-force                    non-local-force                 convergence-correction
   0.461E-04 -.281E-04 0.277E+04   -.953E-04 0.593E-04 -.277E+04   -.290E-17 0.993E-17 -.174E+01   -.914E-04 -.161E-03 0.285E+00
   -.576E-01 0.789E+00 0.277E+04   0.946E-02 -.598E+00 -.277E+04   0.248E-01 0.353E-01 -.160E+01   0.188E-01 -.210E+00 0.236E+00
   0.577E-01 0.789E+00 0.277E+04   -.933E-02 -.598E+00 -.277E+04   -.248E-01 0.353E-01 -.160E+01   -.193E-01 -.209E+00 0.236E+00
   0.655E+00 -.445E+00 0.277E+04   -.513E+00 0.307E+00 -.277E+04   0.430E-01 0.380E-02 -.160E+01   -.173E+00 0.122E+00 0.236E+00
   -.486E-05 -.183E-04 0.277E+04   0.981E-04 -.201E-05 -.277E+04   -.356E-17 0.446E-18 -.145E+01   0.616E-02 0.374E-02 0.348E+00
   -.655E+00 -.445E+00 0.277E+04   0.513E+00 0.307E+00 -.277E+04   -.430E-01 0.380E-02 -.160E+01   0.171E+00 0.123E+00 0.236E+00
   0.712E+00 -.345E+00 0.277E+04   -.523E+00 0.291E+00 -.277E+04   0.182E-01 -.391E-01 -.160E+01   -.190E+00 0.881E-01 0.236E+00
   -.712E+00 -.345E+00 0.277E+04   0.523E+00 0.291E+00 -.277E+04   -.182E-01 -.391E-01 -.160E+01   0.191E+00 0.872E-01 0.236E+00
   0.369E-04 -.127E-04 0.277E+04   0.792E-04 -.643E-04 -.276E+04   -.120E-17 -.145E-17 -.173E+01   -.660E-02 -.336E-02 0.159E+00
   0.205E+01 0.118E+01 0.972E+03   -.164E+01 -.947E+00 -.972E+03   -.318E+00 -.184E+00 -.639E+00   -.871E-01 -.505E-01 0.308E+00
   -.282E-04 0.546E+01 0.975E+03   0.410E-04 -.569E+01 -.974E+03   0.113E-11 0.173E+00 -.373E+00   0.619E-02 -.106E-01 0.213E+00
   -.205E+01 0.118E+01 0.972E+03   0.164E+01 -.947E+00 -.972E+03   0.318E+00 -.184E+00 -.639E+00   0.859E-01 -.500E-01 0.307E+00
   0.473E+01 -.273E+01 0.975E+03   -.493E+01 0.284E+01 -.974E+03   0.149E+00 -.863E-01 -.373E+00   -.595E-02 0.106E-01 0.213E+00
   -.473E+01 -.273E+01 0.975E+03   0.493E+01 0.284E+01 -.974E+03   -.149E+00 -.863E-01 -.373E+00   0.160E-01 0.945E-02 0.210E+00
   0.161E-04 -.302E+01 0.968E+03   -.109E-03 0.305E+01 -.967E+03   0.175E-12 0.267E-01 -.616E+00   -.122E-02 -.464E-01 0.220E+00
   -.758E-05 -.236E+01 0.972E+03   0.208E-04 0.189E+01 -.972E+03   0.241E-11 0.367E+00 -.639E+00   -.387E-03 0.994E-01 0.306E+00
   -.261E+01 0.151E+01 0.968E+03   0.264E+01 -.153E+01 -.967E+03   0.231E-01 -.134E-01 -.616E+00   -.409E-01 0.225E-01 0.221E+00
   0.261E+01 0.151E+01 0.968E+03   -.264E+01 -.153E+01 -.967E+03   -.231E-01 -.134E-01 -.616E+00   0.412E-01 0.239E-01 0.222E+00
   0.398E-04 -.189E+01 -.849E+03   -.130E-03 0.181E+01 0.848E+03   0.699E-12 0.106E+00 0.885E+00   0.925E-03 -.535E-01 -.124E+00
   0.217E+02 0.125E+02 -.817E+03   -.207E+02 -.120E+02 0.818E+03   -.935E+00 -.540E+00 -.351E+00   -.140E+00 -.818E-01 -.186E+00
   -.217E+02 0.125E+02 -.817E+03   0.207E+02 -.120E+02 0.818E+03   0.935E+00 -.540E+00 -.351E+00   0.129E+00 -.829E-01 -.186E+00
   0.104E+02 -.603E+01 -.853E+03   -.105E+02 0.606E+01 0.853E+03   0.139E+00 -.803E-01 0.614E+00   -.449E-01 0.332E-01 -.171E+00
   -.550E-04 -.250E+02 -.817E+03   0.460E-04 0.239E+02 0.818E+03   0.709E-11 0.108E+01 -.351E+00   -.676E-02 0.153E+00 -.186E+00
   -.104E+02 -.603E+01 -.853E+03   0.105E+02 0.606E+01 0.853E+03   -.139E+00 -.803E-01 0.614E+00   0.570E-01 0.337E-01 -.171E+00
   0.164E+01 0.946E+00 -.849E+03   -.157E+01 -.904E+00 0.848E+03   -.922E-01 -.532E-01 0.885E+00   0.442E-01 0.261E-01 -.124E+00
   -.164E+01 0.946E+00 -.849E+03   0.157E+01 -.904E+00 0.848E+03   0.922E-01 -.532E-01 0.885E+00   -.348E-01 0.278E-01 -.124E+00
   0.202E-04 0.121E+02 -.853E+03   0.109E-03 -.121E+02 0.853E+03   0.105E-11 0.161E+00 0.614E+00   0.450E-02 -.553E-01 -.171E+00
   0.557E-04 -.353E-04 -.267E+04   -.119E-03 0.788E-04 0.266E+04   -.173E-17 -.143E-17 0.133E+01   0.435E-04 0.920E-04 -.172E+00
   0.358E+02 0.545E+02 -.266E+04   -.350E+02 -.537E+02 0.266E+04   -.719E+00 -.906E+00 0.142E+01   -.204E+00 -.801E-01 -.234E+00
   -.358E+02 0.545E+02 -.266E+04   0.350E+02 -.537E+02 0.266E+04   0.719E+00 -.906E+00 0.142E+01   0.203E+00 -.788E-01 -.234E+00
   0.651E+02 0.374E+01 -.266E+04   -.640E+02 -.342E+01 0.266E+04   -.114E+01 -.170E+00 0.142E+01   -.171E+00 -.136E+00 -.233E+00
   -.651E+02 0.374E+01 -.266E+04   0.640E+02 -.342E+01 0.266E+04   0.114E+01 -.170E+00 0.142E+01   0.170E+00 -.135E+00 -.232E+00
   0.293E+02 -.583E+02 -.266E+04   -.290E+02 0.571E+02 0.266E+04   -.425E+00 0.108E+01 0.142E+01   0.335E-01 0.216E+00 -.233E+00
   -.293E+02 -.583E+02 -.266E+04   0.290E+02 0.571E+02 0.266E+04   0.425E+00 0.108E+01 0.142E+01   -.323E-01 0.215E+00 -.232E+00
   0.188E-04 -.915E-05 -.268E+04   0.106E-03 -.675E-04 0.268E+04   0.184E-16 0.670E-17 0.149E+01   -.631E-02 -.294E-02 -.168E+00
   0.244E-03 -.143E-03 -.262E+04   0.112E-03 0.106E-04 0.262E+04   -.211E-17 -.149E-18 -.280E+01   0.525E-02 0.308E-02 -.242E+00
   0.212E-03 -.100E-03 -.181E+04   0.216E-04 0.238E-06 0.179E+04   0.460E-18 0.645E-18 0.211E+02   0.377E-02 0.229E-02 0.691E-01
   0.907E-05 -.131E-04 -.350E+03   0.153E-05 0.518E-08 0.358E+03   -.108E-19 -.120E-19 -.850E+01   0.204E-03 0.123E-03 0.944E-02
   0.869E-03 -.901E-03 -.606E+01   0.154E-12 -.161E-13 0.296E-11   -.205E-15 -.437E-15 0.513E+01   0.244E-01 0.124E-01 0.108E+01

 POSITION                                       TOTAL-FORCE (eV/Angst)
      0.00000      0.00000      5.28219         0.000000     -0.000000     -0.030905
      2.93046      0.00000      5.28219        -0.004021      0.016707      0.026871
      5.86091      0.00000      5.28219         0.004021      0.016707      0.026871
      1.46523      2.53785      5.28219         0.012458     -0.011836      0.026871
      4.39568      2.53785      5.28219         0.000000     -0.000000      0.006788
      7.32614      2.53785      5.28219        -0.012458     -0.011836      0.026871
      2.93046      5.07570      5.28219         0.016479     -0.004871      0.026871
      5.86091      5.07570      5.28219        -0.016479     -0.004871      0.026871
      8.79137      5.07570      5.28219         0.000000     -0.000000      0.013317
      1.46523      0.84595      7.67490         0.001375      0.000794     -0.066895
      4.39568      0.84595      7.67490        -0.000000     -0.064769     -0.046593
      7.32614      0.84595      7.67490        -0.001375      0.000794     -0.066895
      2.93046      3.38380      7.67490        -0.056091      0.032384     -0.046593
      5.86091      3.38380      7.67490         0.056091      0.032384     -0.046593
      8.79137      3.38380      7.67490         0.000000      0.011709      0.040736
      4.39568      5.92165      7.67490        -0.000000     -0.001588     -0.066895
      7.32614      5.92165      7.67490         0.010140     -0.005854      0.040736
     10.25659      5.92165      7.67490        -0.010140     -0.005854      0.040736
      8.79137      1.69022     10.04930        -0.000000     -0.027394      0.001269
      2.93117      1.69231     10.04246        -0.123185     -0.071121     -0.140274
      5.86019      1.69231     10.04246         0.123185     -0.071121     -0.140274
     10.25641      4.22985     10.06824         0.028067     -0.016204      0.017068
      4.39568      4.22892     10.04246         0.000000      0.142241     -0.140274
      7.32632      4.22985     10.06824        -0.028067     -0.016204      0.017068
     11.72328      6.76844     10.04930         0.023724      0.013697      0.001269
      5.85946      6.76844     10.04930        -0.023724      0.013697      0.001269
      8.79137      6.76739     10.06824         0.000000      0.032409      0.017068
      0.00000      0.00000     12.44689         0.000000     -0.000000     -0.002198
      2.93311      0.00118     12.48352        -0.076083     -0.154233     -0.150158
      5.85826      0.00118     12.48352         0.076083     -0.154233     -0.150158
      1.46758      2.53956     12.48352        -0.171611      0.011227     -0.150158
      7.32379      2.53956     12.48352         0.171611      0.011227     -0.150158
      2.93015      5.07281     12.48352        -0.095528      0.143006     -0.150158
      5.86121      5.07281     12.48352         0.095528      0.143006     -0.150158
      8.79137      5.07570     12.47551        -0.000000     -0.000000      0.003029
      4.39568      2.53785     12.42634        -0.000000     -0.000000      1.327091
      4.39568      2.53785     14.33572        -0.000000     -0.000000      0.011736
      4.39568      2.53785     15.30219         0.000000     -0.000000     -0.005072
    total drift:                                0.025252      0.011479      0.148787

  FREE ENERGIE OF THE ION-ELECTRON SYSTEM (eV)
  free  energy   TOTEN  =      -109.08345877 eV

  energy  without entropy=     -109.08345877  energy(sigma->0) =     -109.08345877

 stress matrix after NEB project (eV)
     -5.65571     -0.00000     -0.00000
     -0.00000     -5.65571     -0.00000
     -0.00000     -0.00000      0.42637
  FORCES: max atom, RMS     0.011736    0.002074
  FORCE total and by dimension    0.012785    0.011736
  Stress total and by dimension    8.009737    5.655709
|           W    W    AA    RRRRR   N    N  II  N    N   GGGG   !!!           |
|           W    W   A  A   R    R  NN   N  II  NN   N  G    G  !!!           |
|           W    W  A    A  R    R  N N  N  II  N N  N  G       !!!           |
|           W WW W  AAAAAA  RRRRR   N  N N  II  N  N N  G  GGG   !            |
|           WW  WW  A    A  R   R   N   NN  II  N   NN  G    G                |
|           W    W  A    A  R    R  N    N  II  N    N   GGGG   !!!           |
|     Tetrahedron method does not include variations of the Fermi             |
|     occupations, so forces and stress will be inaccurate. We suggest        |
|     using a different smearing scheme ISMEAR = 1 or 2 for metals in         |
|     relaxations.                                                            |

 total charge

# of ion       s       p       d       tot
    1        0.421   0.201   9.177   9.799
    2        0.417   0.204   9.177   9.797
    3        0.417   0.204   9.177   9.797
    4        0.417   0.204   9.177   9.797
    5        0.418   0.204   9.176   9.798
    6        0.417   0.204   9.177   9.797
    7        0.417   0.204   9.177   9.797
    8        0.417   0.204   9.177   9.797
    9        0.415   0.203   9.177   9.795
   10        0.410   0.268   9.163   9.841
   11        0.405   0.268   9.168   9.841
   12        0.410   0.268   9.163   9.841
   13        0.405   0.268   9.168   9.841
   14        0.405   0.268   9.168   9.841
   15        0.401   0.269   9.164   9.835
   16        0.410   0.268   9.163   9.841
   17        0.401   0.269   9.164   9.835
   18        0.401   0.269   9.164   9.835
   19        0.405   0.264   9.167   9.836
   20        0.437   0.293   9.138   9.868
   21        0.437   0.293   9.138   9.868
   22        0.396   0.273   9.162   9.831
   23        0.437   0.293   9.138   9.868
   24        0.396   0.273   9.162   9.831
   25        0.405   0.264   9.167   9.836
   26        0.405   0.264   9.167   9.836
   27        0.396   0.273   9.162   9.831
   28        0.413   0.209   9.170   9.792
   29        0.450   0.220   9.152   9.823
   30        0.450   0.220   9.152   9.823
   31        0.450   0.220   9.152   9.823
   32        0.450   0.220   9.152   9.823
   33        0.450   0.220   9.152   9.823
   34        0.450   0.220   9.152   9.823
   35        0.413   0.212   9.169   9.794
   36        2.214   5.999   1.519   9.733
   37        1.564   3.558   0.000   5.123
   38        0.610   0.124   0.000   0.734
tot         19.029  18.165 322.251 359.445

 BZINTS: Fermi energy:    0.504764;  404.000000 electrons
         Band energy:-0.174919E+04;  BLOECHL correction:   -0.048284