 vasp.6.2.0 18Jan21 (build Jun 12 2021 23:27:24) complex

 executed on             LinuxIFC date 2022.05.26  20:04:45

 INCAR:
   ISMEAR = -5
   SIGMA = 0.1
   ISPIN = 1
   EDIFF = 1.d-5
   EDIFFG = -0.01
   NSW = 0
   NELM = 150
   ENCUT = 500
   ISIF = 2
   IBRION = 2
   LREAL = Auto
   ALGO = Fast
   ICHARG = 11
   LORBIT = 10
   LCHARG = .F.
   LWAVE = .F.

 POTCAR:    PAW_PBE Cu 22Jun2005
 POTCAR:    PAW_PBE Rh 04Feb2005
 POTCAR:    PAW_PBE H 15Jun2001
|           W    W    AA    RRRRR   N    N  II  N    N   GGGG   !!!           |
|           W    W   A  A   R    R  NN   N  II  NN   N  G    G  !!!           |
|           W    W  A    A  R    R  N N  N  II  N N  N  G       !!!           |
|           W WW W  AAAAAA  RRRRR   N  N N  II  N  N N  G  GGG   !            |
|           WW  WW  A    A  R   R   N   NN  II  N   NN  G    G                |
|           W    W  A    A  R    R  N    N  II  N    N   GGGG   !!!           |
|     For optimal performance we recommend to set                             |
|       NCORE = 2 up to number-of-cores-per-socket                            |
|     This setting can greatly improve the performance of VASP for DFT.       |
|     The default, NCORE=1 might be grossly inefficient on modern             |
|     multi-core architectures or massively parallel machines. Do your        |
|     Unfortunately you need to use the default for GW and RPA                |
|     calculations (for HF NCORE is supported but not extensively tested      |
|     yet).                                                                   |

 POTCAR:    PAW_PBE Cu 22Jun2005
   VRHFIN =Cu: d10 p1

   TITEL  = PAW_PBE Cu 22Jun2005
   POMASS =   63.546; ZVAL   =   11.000    mass and valenz
   ENMAX  =  295.446; ENMIN  =  221.585 eV

 POTCAR:    PAW_PBE Rh 04Feb2005
   VRHFIN =Rh: s1 d8

   TITEL  = PAW_PBE Rh 04Feb2005
   POMASS =  102.906; ZVAL   =    9.000    mass and valenz
   ENMAX  =  228.996; ENMIN  =  171.747 eV

 POTCAR:    PAW_PBE H 15Jun2001
   VRHFIN =H: ultrasoft test

   TITEL  = PAW_PBE H 15Jun2001
   POMASS =    1.000; ZVAL   =    1.000    mass and valenz
   ENMAX  =  250.000; ENMIN  =  200.000 eV

 Optimization of the real space projectors (new method)

 maximal supplied QI-value         = 16.25
 optimisation between [QCUT,QGAM] = [ 11.38, 22.75] = [ 36.24,144.96] Ry
 Optimized for a Real-space Cutoff    1.52 Angstroem

   l    n(q)    QCUT    max X(q) W(low)/X(q) W(high)/X(q)  e(spline)
   2      9    11.376     4.610    0.21E-03    0.10E-03    0.26E-06
   2      9    11.376     8.522    0.33E-03    0.16E-03    0.37E-06
   0     10    11.376    51.609    0.62E-04    0.20E-04    0.13E-06
   0     10    11.376    27.747    0.54E-04    0.20E-04    0.13E-06
   1     10    11.376    20.408    0.13E-04    0.99E-04    0.19E-06
   1     10    11.376    13.425    0.12E-04    0.87E-04    0.17E-06
 Optimization of the real space projectors (new method)

[...]

   l    n(q)    QCUT    max X(q) W(low)/X(q) W(high)/X(q)  e(spline)
   2      9    11.327    59.645    0.31E-03    0.12E-04    0.28E-06
   2      9    11.327    58.460    0.31E-03    0.12E-04    0.29E-06
   0     10    11.327    97.683    0.32E-04    0.83E-04    0.31E-06
   0     10    11.327    53.223    0.30E-04    0.78E-04    0.29E-06
   1     10    11.327    13.596    0.49E-03    0.95E-03    0.55E-06
   1     10    11.327     7.885    0.36E-03    0.71E-03    0.41E-06
 Optimization of the real space projectors (new method)

 maximal supplied QI-value         = 34.20
 optimisation between [QCUT,QGAM] = [ 11.29, 22.57] = [ 35.68,142.71] Ry
 Optimized for a Real-space Cutoff    1.16 Angstroem

   l    n(q)    QCUT    max X(q) W(low)/X(q) W(high)/X(q)  e(spline)
   0      8    11.287    19.460    0.40E-03    0.73E-03    0.16E-06
   0      8    11.287    12.209    0.38E-03    0.70E-03    0.15E-06
   1      7    11.287     4.655    0.22E-03    0.25E-04    0.22E-06
  PAW_PBE Cu 22Jun2005                  :
  PAW_PBE Rh 04Feb2005                  :
  PAW_PBE H 15Jun2001                   :

 POSCAR: Cu-Rh-H
  positions in direct lattice
  velocities in cartesian coordinates
 exchange correlation table for  LEXCH =        8
   RHO(1)=    0.500       N(1)  =     2000
   RHO(2)=  100.500       N(2)  =     4000

 VTST: version 3.2, (02/03/18)

 CHAIN: initializing optimizer

 OPT: Using VASP Conjugate-Gradient optimizer
 CHAIN: Read ICHAIN            0

 POSCAR: Cu-Rh-H
  positions in direct lattice
  velocities in cartesian coordinates

 ion  position               nearest neighbor table
   1  0.000  0.000  0.252-   7 2.57   3 2.57   4 2.57   2 2.57   6 2.57   8 2.57  12 2.57  10 2.57
                            16 2.57
   2  0.333  0.000  0.252-   8 2.57   9 2.57   5 2.57   1 2.57   3 2.57  11 2.57   4 2.57  10 2.57
                            17 2.57
   3  0.667  0.000  0.252-   1 2.57   7 2.57   6 2.57   9 2.57   2 2.57  12 2.57   5 2.57  18 2.57
                            11 2.57
   4  0.000  0.333  0.252-   5 2.57   6 2.57   1 2.57   7 2.57   2 2.57  13 2.57   9 2.57  10 2.57
                            15 2.57
   5  0.333  0.333  0.252-   4 2.57   2 2.57   7 2.57  13 2.57   8 2.57   6 2.57   3 2.57  11 2.57
                            14 2.57
   6  0.667  0.333  0.252-   4 2.57   9 2.57  15 2.57   3 2.57   1 2.57   8 2.57  14 2.57   5 2.57
                            12 2.57
   7  0.000  0.667  0.252-   1 2.57   3 2.57  16 2.57  18 2.57   4 2.57   5 2.57   8 2.57   9 2.57
                            13 2.57
   8  0.333  0.667  0.252-   9 2.57   2 2.57  17 2.57   6 2.57   1 2.57   7 2.57   5 2.57  14 2.57
                            16 2.57
   9  0.667  0.667  0.252-   8 2.57   6 2.57   2 2.57  17 2.57   3 2.57   7 2.57   4 2.57  15 2.57
                            18 2.57
  10  0.111  0.111  0.351-  20 2.55  26 2.56  19 2.56  11 2.57  12 2.57  13 2.57   1 2.57   2 2.57
                             4 2.57  15 2.57  16 2.57  17 2.57
  11  0.444  0.111  0.351-  20 2.55  21 2.55  27 2.56  10 2.57  13 2.57   2 2.57  17 2.57  14 2.57
                            12 2.57   5 2.57   3 2.57  18 2.57
  12  0.778  0.111  0.351-  21 2.55  19 2.56  25 2.56  15 2.57  10 2.57  14 2.57  18 2.57   3 2.57
                             1 2.57  16 2.57  11 2.57   6 2.57
  13  0.111  0.444  0.351-  23 2.55  20 2.55  22 2.56  16 2.57  18 2.57  10 2.57  11 2.57  14 2.57
                             5 2.57   4 2.57   7 2.57  15 2.57
  14  0.444  0.444  0.351-  21 2.55  23 2.55  24 2.56  15 2.57  17 2.57  12 2.57  16 2.57  13 2.57
                            11 2.57   6 2.57   8 2.57   5 2.57
  15  0.778  0.444  0.351-  19 2.56  24 2.56  22 2.56  14 2.57  17 2.57  12 2.57   6 2.57  18 2.57
                            10 2.57   9 2.57  13 2.57   4 2.57
  16  0.111  0.778  0.351-  23 2.55  25 2.56  26 2.56  18 2.57  13 2.57   7 2.57  14 2.57  17 2.57
                            12 2.57  10 2.57   8 2.57   1 2.57
  17  0.444  0.778  0.351-  26 2.56  27 2.56  24 2.56  14 2.57  15 2.57   8 2.57   9 2.57  11 2.57
                            16 2.57  18 2.57  10 2.57   2 2.57
  18  0.778  0.778  0.351-  25 2.56  22 2.56  27 2.56  16 2.57  13 2.57   7 2.57  15 2.57  12 2.57
                            17 2.57   9 2.57   3 2.57  11 2.57
  19  0.889  0.223  0.449-  28 2.55  32 2.55  31 2.55  15 2.56  12 2.56  10 2.56  21 2.56  20 2.56
                            22 2.56  24 2.56  25 2.57  26 2.57
  20  0.222  0.222  0.448-  10 2.55  11 2.55  13 2.55  26 2.56  19 2.56  27 2.57  22 2.57  36 2.57
                            29 2.58  31 2.58  23 2.58  21 2.58
  21  0.557  0.222  0.448-  12 2.55  14 2.55  11 2.55  19 2.56  25 2.56  24 2.57  27 2.57  36 2.57
                            32 2.58  30 2.58  20 2.58  23 2.58
  22  0.889  0.556  0.449-  35 2.54  31 2.56  33 2.56  18 2.56  15 2.56  19 2.56  25 2.56  13 2.56
                            24 2.56  27 2.56  23 2.57  20 2.57
  23  0.222  0.557  0.448-  16 2.55  13 2.55  14 2.55  25 2.56  26 2.56  22 2.57  24 2.57  36 2.57
                            33 2.58  34 2.58  20 2.58  21 2.58
  24  0.556  0.556  0.449-  35 2.54  32 2.56  34 2.56  15 2.56  17 2.56  19 2.56  26 2.56  14 2.56
                            22 2.56  27 2.56  21 2.57  23 2.57
  25  0.889  0.889  0.449-  28 2.55  33 2.55  30 2.55  18 2.56  16 2.56  12 2.56  21 2.56  23 2.56
                            22 2.56  27 2.56  19 2.57  26 2.57
  26  0.223  0.889  0.449-  28 2.55  29 2.55  34 2.55  17 2.56  10 2.56  16 2.56  20 2.56  23 2.56
                            27 2.56  24 2.56  25 2.57  19 2.57
  27  0.556  0.889  0.449-  35 2.54  29 2.56  30 2.56  17 2.56  18 2.56  26 2.56  25 2.56  11 2.56
                            24 2.56  22 2.56  20 2.57  21 2.57
  28  0.000  0.000  0.546-  25 2.55  19 2.55  26 2.55  33 2.56  30 2.56  31 2.56  29 2.56  32 2.56
                            34 2.56
  29  0.333  0.998  0.547-  34 2.54  26 2.55  28 2.56  27 2.56  35 2.56  31 2.58  20 2.58  36 2.58
                            30 2.59
  30  0.669  0.998  0.547-  33 2.54  25 2.55  28 2.56  27 2.56  35 2.56  32 2.58  21 2.58  36 2.58
                            29 2.59
  31  0.998  0.333  0.547-  32 2.54  19 2.55  28 2.56  22 2.56  35 2.56  29 2.58  20 2.58  36 2.58
                            33 2.59
  32  0.669  0.333  0.547-  31 2.54  19 2.55  28 2.56  24 2.56  35 2.56  30 2.58  21 2.58  36 2.58
                            34 2.59
  33  0.998  0.669  0.547-  30 2.54  25 2.55  28 2.56  22 2.56  35 2.56  34 2.58  23 2.58  36 2.58
                            31 2.59
  34  0.333  0.669  0.547-  29 2.54  26 2.55  28 2.56  24 2.56  35 2.56  33 2.58  23 2.58  36 2.58
                            32 2.59
  35  0.667  0.667  0.546-  24 2.54  27 2.54  22 2.54  34 2.56  32 2.56  29 2.56  30 2.56  33 2.56
                            31 2.56
  36  0.333  0.333  0.547-  37 1.59  23 2.57  20 2.57  21 2.57  31 2.58  29 2.58  33 2.58  34 2.58
                            32 2.58  30 2.58
  37  0.333  0.333  0.621-  36 1.59

  LATTYP: Found a hexagonal cell.
 ALAT       =     7.6967864036
 C/A-ratio  =     2.7653617908

  Lattice vectors:

 A1 = (  -3.8483927580,  -6.6656128093,   0.0000000000)
 A2 = (   7.6967864037,   0.0000000000,   0.0000000000)
 A3 = (   0.0000000000,   0.0000000000,  21.2843990326)

Analysis of symmetry for initial positions (statically):
 Subroutine PRICEL returns:
 Original cell was already a primitive cell.

 Routine SETGRP: Setting up the symmetry group for a
 hexagonal supercell.

 Subroutine GETGRP returns: Found  6 space group operations
 (whereof  6 operations were pure point group operations)
 out of a pool of 24 trial point group operations.

The static configuration has the point symmetry C_3v.

Analysis of symmetry for dynamics (positions and initial velocities):
 Subroutine PRICEL returns:
 Original cell was already a primitive cell.

[...]

The dynamic configuration has the point symmetry C_3v.

Analysis of constrained symmetry for selective dynamics:
 Subroutine PRICEL returns:
 Original cell was already a primitive cell.

 Routine SETGRP: Setting up the symmetry group for a
 hexagonal supercell.

 Subroutine GETGRP returns: Found  6 space group operations
 (whereof  6 operations were pure point group operations)
[...]
     24      -4.1716      2.00000
     25      -4.0979      2.00000
     26      -4.0855      2.00000
     27      -4.0585      2.00000
     28      -4.0418      2.00000
     29      -4.0345      2.00000
     30      -4.0318      2.00000
     31      -4.0200      2.00000
     32      -3.9841      2.00000
     33      -3.9814      2.00000
     34      -3.9513      2.00000
     35      -3.8769      2.00000
     36      -3.8734      2.00000
     37      -3.7821      2.00000
     38      -3.7116      2.00000
     39      -3.6809      2.00000
     40      -3.6382      2.00000
     41      -3.6295      2.00000
     42      -3.6080      2.00000
     43      -3.5951      2.00000
     44      -3.5893      2.00000
     45      -3.5784      2.00000
     46      -3.5006      2.00000
     47      -3.3739      2.00000
     48      -3.3664      2.00000
     49      -3.3623      2.00000
     50      -3.3308      2.00000
     51      -3.2959      2.00000
     52      -3.2886      2.00000
     53      -3.2716      2.00000
     54      -3.2673      2.00000
     55      -3.2458      2.00000
     56      -3.2398      2.00000
     57      -3.2205      2.00000
     58      -3.2120      2.00000
     59      -3.2097      2.00000
     60      -3.2035      2.00000
[...]
    238       6.9274      0.00000
    239       6.9294      0.00000
    240       7.0844      0.00000
    241       7.1254      0.00000
    242       7.2738      0.00000
    243       7.3426      0.00000
    244       7.3548      0.00000
    245       7.4754      0.00000
    246       7.5269      0.00000
    247       7.6942      0.00000
    248       7.8413      0.00000
    249       7.9734      0.00000
    250       8.1565      0.00000
    251       8.2255      0.00000
    252       8.4876      0.00000

 soft charge-density along one line, spin component           1
         0         1         2         3         4         5         6         7         8         9
 total charge-density along one line

------------------------ aborting loop because EDIFF is reached ----------------------------------------

 total charge

# of ion       s       p       d       tot
    1        0.449   0.283   9.189   9.921
    2        0.449   0.285   9.186   9.920
    3        0.449   0.285   9.186   9.920
    4        0.449   0.285   9.186   9.920
    5        0.449   0.287   9.178   9.914
    6        0.449   0.285   9.186   9.920
    7        0.449   0.285   9.186   9.920
    8        0.449   0.285   9.186   9.920
    9        0.448   0.282   9.192   9.922
   10        0.441   0.373   9.174   9.988
   11        0.444   0.365   9.185   9.994
   12        0.441   0.373   9.174   9.988
   13        0.444   0.365   9.185   9.994
   14        0.444   0.365   9.185   9.994
   15        0.438   0.371   9.177   9.986
   16        0.441   0.373   9.174   9.988
   17        0.438   0.371   9.177   9.986
   18        0.438   0.371   9.177   9.986
   19        0.442   0.373   9.181   9.996
   20        0.454   0.377   9.177  10.008
   21        0.454   0.377   9.177  10.008
   22        0.434   0.374   9.181   9.989
   23        0.454   0.377   9.177  10.008
   24        0.434   0.374   9.181   9.989
   25        0.442   0.373   9.181   9.996
   26        0.442   0.373   9.181   9.996
   27        0.434   0.374   9.181   9.989
   28        0.451   0.289   9.195   9.935
   29        0.451   0.296   9.183   9.930
   30        0.451   0.296   9.183   9.930
   31        0.451   0.296   9.183   9.930
   32        0.451   0.296   9.183   9.930
   33        0.451   0.296   9.183   9.930
   34        0.451   0.296   9.183   9.930
   35        0.445   0.292   9.194   9.931
   36        0.515   0.493   7.535   8.543
   37        0.502   0.019   0.000   0.521
tot         16.612  12.135 328.926 357.673

  FORCE on cell =-STRESS in cart. coord.  units (eV):
  Direction    XX          YY          ZZ          XY          YZ          ZX
  Alpha Z   864.90518   864.90518   864.90518
  Ewald  173794.51388173794.51347************     0.00037     0.00011     0.00016
  Hartree186735.52870186735.52868************     0.00003     0.00005     0.00007
  E(xc)   -2292.79032 -2292.78984 -2297.45012    -0.00042    -0.00003    -0.00006
  Local  ************************373955.07256     0.01852    -0.00054    -0.00090
  n-local  -764.80092  -748.02034  -766.56229     9.23641    -0.12206     0.36195
  augment  3366.21123  3366.23148  3383.81069    -0.01754     0.00022     0.00042
  Kinetic  3247.72871  3254.26491  3273.69397     4.66318     1.60669    -1.25664
  Fock        0.00000     0.00000     0.00000     0.00000     0.00000     0.00000
  Total      -5.83200    -5.83200     1.79020     0.00000     0.00000     0.00000
  in kB      -8.55692    -8.55692     2.62665     0.00000     0.00000     0.00000

 VOLUME and BASIS-vectors are now :
  energy-cutoff  :      500.00
  volume of cell :     1091.97
      direct lattice vectors                 reciprocal lattice vectors
     7.696786404  0.000000000  0.000000000     0.129924354 -0.075011849  0.000000000
     3.848392758  6.665612809  0.000000000     0.000000000  0.150023716  0.000000000
     0.000000000  0.000000000 21.284399033     0.000000000  0.000000000  0.046982769

  length of vectors
     7.696786404  7.696786404 21.284399033     0.150023716  0.150023716  0.046982769

 FORCES acting on ions
    electron-ion (+dipol)            ewald-force                    non-local-force                 convergence-correction
   -.415E-04 0.208E-06 0.348E+04   0.580E-04 -.436E-05 -.347E+04   0.202E-17 0.208E-17 -.279E+01   -.410E-03 -.204E-03 -.324E+00
   -.363E+00 -.165E+00 0.348E+04   0.264E+00 0.154E+00 -.347E+04   0.812E-01 0.747E-01 -.189E+01   0.306E-01 -.390E-01 -.325E+00
   0.363E+00 -.165E+00 0.348E+04   -.264E+00 0.154E+00 -.347E+04   -.812E-01 0.747E-01 -.189E+01   -.297E-01 -.364E-01 -.324E+00
   -.325E+00 -.232E+00 0.348E+04   0.266E+00 0.152E+00 -.347E+04   0.105E+00 0.330E-01 -.189E+01   -.184E-01 0.460E-01 -.325E+00
   -.613E-04 -.322E-05 0.347E+04   0.116E-03 -.101E-04 -.347E+04   -.168E-17 0.124E-18 -.145E+01   0.123E-01 0.751E-02 -.186E+00
   0.325E+00 -.232E+00 0.348E+04   -.266E+00 0.152E+00 -.347E+04   -.105E+00 0.330E-01 -.189E+01   0.166E-01 0.471E-01 -.323E+00
   0.384E-01 0.397E+00 0.348E+04   0.135E-02 -.306E+00 -.347E+04   0.241E-01 -.108E+00 -.189E+01   -.463E-01 -.760E-02 -.324E+00
   -.383E-01 0.397E+00 0.348E+04   -.162E-02 -.306E+00 -.347E+04   -.241E-01 -.108E+00 -.189E+01   0.498E-01 -.917E-02 -.323E+00
   -.144E-03 -.330E-04 0.348E+04   0.263E-03 0.205E-04 -.347E+04   0.868E-18 -.103E-17 -.244E+01   -.132E-01 -.684E-02 -.345E+00
   -.542E+00 -.313E+00 0.116E+04   0.867E+00 0.501E+00 -.116E+04   -.361E+00 -.208E+00 -.108E+01   0.277E-01 0.160E-01 -.334E+00
   -.912E-04 -.213E+01 0.115E+04   0.190E-03 0.172E+01 -.115E+04   -.186E-07 0.280E+00 -.422E+00   0.123E-01 0.106E+00 -.247E+00
   0.543E+00 -.313E+00 0.116E+04   -.867E+00 0.501E+00 -.116E+04   0.361E+00 -.208E+00 -.108E+01   -.301E-01 0.181E-01 -.332E+00
   -.184E+01 0.106E+01 0.115E+04   0.149E+01 -.858E+00 -.115E+04   0.242E+00 -.140E+00 -.422E+00   0.983E-01 -.415E-01 -.247E+00
   0.184E+01 0.106E+01 0.115E+04   -.149E+01 -.858E+00 -.115E+04   -.242E+00 -.140E+00 -.422E+00   -.736E-01 -.429E-01 -.247E+00
   -.142E-03 -.123E+01 0.116E+04   0.298E-03 0.942E+00 -.116E+04   -.108E-07 0.162E+00 -.101E+01   -.434E-02 0.116E+00 -.323E+00
   -.920E-04 0.626E+00 0.116E+04   0.186E-03 -.100E+01 -.116E+04   -.277E-07 0.417E+00 -.108E+01   -.287E-03 -.364E-01 -.332E+00
   -.107E+01 0.617E+00 0.116E+04   0.816E+00 -.471E+00 -.116E+04   0.141E+00 -.812E-01 -.101E+01   0.989E-01 -.617E-01 -.324E+00
   0.107E+01 0.617E+00 0.116E+04   -.816E+00 -.471E+00 -.116E+04   -.141E+00 -.812E-01 -.101E+01   -.978E-01 -.581E-01 -.322E+00
   -.601E-04 -.153E+01 -.117E+04   0.692E-04 0.154E+01 0.117E+04   0.214E-08 -.321E-01 0.825E+00   -.146E-01 0.258E-01 -.211E+00
   -.255E+02 -.147E+02 -.120E+04   0.265E+02 0.153E+02 0.120E+04   -.109E+01 -.628E+00 -.609E+00   0.844E-01 0.486E-01 -.136E+00
   0.255E+02 -.147E+02 -.120E+04   -.265E+02 0.153E+02 0.120E+04   0.109E+01 -.628E+00 -.609E+00   -.584E-01 0.491E-01 -.136E+00
   -.153E+02 0.883E+01 -.118E+04   0.148E+02 -.856E+01 0.118E+04   0.405E+00 -.234E+00 0.709E+00   0.908E-01 -.514E-01 -.326E+00
   -.808E-04 0.295E+02 -.120E+04   0.147E-03 -.306E+02 0.120E+04   -.836E-07 0.126E+01 -.609E+00   0.121E-01 -.763E-01 -.136E+00
   0.153E+02 0.883E+01 -.118E+04   -.148E+02 -.856E+01 0.118E+04   -.405E+00 -.234E+00 0.709E+00   -.932E-01 -.547E-01 -.326E+00
   0.133E+01 0.767E+00 -.117E+04   -.133E+01 -.770E+00 0.117E+04   0.278E-01 0.161E-01 0.825E+00   -.372E-01 -.214E-01 -.211E+00
   -.133E+01 0.767E+00 -.117E+04   0.133E+01 -.770E+00 0.117E+04   -.278E-01 0.161E-01 0.825E+00   0.154E-01 -.253E-01 -.211E+00
   -.127E-03 -.177E+02 -.118E+04   0.244E-03 0.171E+02 0.118E+04   -.311E-07 0.467E+00 0.709E+00   0.855E-03 0.104E+00 -.326E+00
   -.353E-04 0.174E-04 -.347E+04   0.422E-04 -.328E-04 0.347E+04   0.575E-17 -.388E-18 0.243E+01   -.672E-03 -.335E-03 0.330E+00
   -.241E+02 -.387E+02 -.348E+04   0.242E+02 0.385E+02 0.348E+04   -.183E+00 0.130E-01 0.206E+01   0.113E+00 0.225E+00 0.219E+00
   0.241E+02 -.387E+02 -.348E+04   -.242E+02 0.385E+02 0.348E+04   0.183E+00 0.130E-01 0.206E+01   -.111E+00 0.227E+00 0.218E+00
   -.456E+02 -.153E+01 -.348E+04   0.455E+02 0.171E+01 0.348E+04   -.803E-01 -.165E+00 0.206E+01   0.251E+00 -.144E-01 0.219E+00
   0.456E+02 -.153E+01 -.348E+04   -.455E+02 0.171E+01 0.348E+04   0.803E-01 -.165E+00 0.206E+01   -.253E+00 -.140E-01 0.217E+00
   -.215E+02 0.402E+02 -.348E+04   0.212E+02 -.402E+02 0.348E+04   0.103E+00 0.152E+00 0.206E+01   0.141E+00 -.210E+00 0.218E+00
   0.215E+02 0.402E+02 -.348E+04   -.212E+02 -.402E+02 0.348E+04   -.103E+00 0.152E+00 0.206E+01   -.138E+00 -.212E+00 0.217E+00
   -.150E-03 -.276E-04 -.348E+04   0.253E-03 0.273E-05 0.347E+04   -.182E-17 -.999E-19 0.270E+01   -.130E-01 -.671E-02 0.345E+00
   -.567E-04 -.287E-04 -.279E+04   0.111E-03 0.224E-04 0.279E+04   0.459E-17 0.145E-17 -.418E+01   0.312E-02 0.187E-02 0.762E-01
   0.406E-05 -.520E-05 -.386E+03   0.352E-05 0.151E-05 0.389E+03   -.239E-19 -.284E-19 -.237E+01   0.124E-03 0.727E-04 -.755E-02
   -.210E-03 0.448E-05 0.173E+02   0.120E-12 -.187E-13 0.938E-11   0.391E-15 0.168E-15 -.118E+02   0.252E-01 0.115E-01 -.548E+01

 POSITION                                       TOTAL-FORCE (eV/Angst)
      0.00000      0.00000      5.37156        -0.000000     -0.000000      0.000636
      2.56560      0.00000      5.37156         0.013493      0.025851      0.066402
      5.13119      0.00000      5.37156        -0.013493      0.025851      0.066402
      1.28280      2.22187      5.37156         0.029134     -0.001240      0.066402
      3.84839      2.22187      5.37156        -0.000000     -0.000000      0.032461
      6.41399      2.22187      5.37156        -0.029134     -0.001240      0.066402
      2.56560      4.44374      5.37156         0.015641     -0.024610      0.066402
      5.13119      4.44374      5.37156        -0.015641     -0.024610      0.066402
      7.69679      4.44374      5.37156        -0.000000     -0.000000      0.023466
      1.28280      0.74062      7.46636        -0.006054     -0.003495     -0.068779
      3.84839      0.74062      7.46636         0.000000     -0.032307     -0.045530
      6.41399      0.74062      7.46636         0.006054     -0.003495     -0.068779
      2.56560      2.96249      7.46636        -0.027979      0.016153     -0.045530
      5.13119      2.96249      7.46636         0.027979      0.016153     -0.045530
      7.69679      2.96249      7.46636         0.000000     -0.013669     -0.041270
      3.84839      5.18437      7.46636        -0.000000      0.006991     -0.068779
      6.41399      5.18437      7.46636        -0.011838      0.006834     -0.041270
      8.97958      5.18437      7.46636         0.011838      0.006834     -0.041270
      7.69679      1.48472      9.55134        -0.000000      0.005076      0.023484
      2.55991      1.47796      9.54139        -0.068854     -0.039753     -0.218417
      5.13688      1.47796      9.54139         0.068854     -0.039753     -0.218417
      8.97851      3.70374      9.55759         0.028102     -0.016224     -0.020432
      3.84839      3.70969      9.54139        -0.000000      0.079505     -0.218417
      6.41506      3.70374      9.55759        -0.028102     -0.016224     -0.020432
     10.25938      5.92325      9.55134        -0.004396     -0.002538      0.023484
      5.13420      5.92325      9.55134         0.004396     -0.002538      0.023484
      7.69679      5.92375      9.55759        -0.000000      0.032449     -0.020432
      0.00000      0.00000     11.61948        -0.000000     -0.000000      0.008834
      6.40389      6.65412     11.64269         0.023617      0.029455      0.066352
      8.98968      6.65412     11.64269        -0.023617      0.029455      0.066352
      8.96459      2.21887     11.64269         0.037317      0.005725      0.066352
      6.42899      2.21887     11.64269        -0.037317      0.005725      0.066352
     10.25748      4.45823     11.64269         0.013700     -0.035180      0.066352
      5.13610      4.45823     11.64269        -0.013700     -0.035180      0.066352
      7.69679      4.44374     11.62337        -0.000000     -0.000000     -0.001205
      3.84839      2.22187     11.63466        -0.000000     -0.000000      0.237711
      3.84839      2.22187     13.22008        -0.000000     -0.000000      0.014407
    total drift:                                0.024940      0.011475      0.042854

  FREE ENERGIE OF THE ION-ELECTRON SYSTEM (eV)
  free  energy   TOTEN  =      -132.83038886 eV

  energy  without entropy=     -132.83038886  energy(sigma->0) =     -132.83038886

 stress matrix after NEB project (eV)
     -5.83200      0.00000      0.00000
      0.00000     -5.83200      0.00000
      0.00000      0.00000      1.79020
  FORCES: max atom, RMS     0.014407    0.002369
  FORCE total and by dimension    0.014407    0.014407
  Stress total and by dimension    8.439746    5.832002
|           W    W    AA    RRRRR   N    N  II  N    N   GGGG   !!!           |
|           W    W   A  A   R    R  NN   N  II  NN   N  G    G  !!!           |
|           W    W  A    A  R    R  N N  N  II  N N  N  G       !!!           |
|           W WW W  AAAAAA  RRRRR   N  N N  II  N  N N  G  GGG   !            |
|           WW  WW  A    A  R   R   N   NN  II  N   NN  G    G                |
|           W    W  A    A  R    R  N    N  II  N    N   GGGG   !!!           |
|     Tetrahedron method does not include variations of the Fermi             |
|     occupations, so forces and stress will be inaccurate. We suggest        |
|     using a different smearing scheme ISMEAR = 1 or 2 for metals in         |
|     relaxations.                                                            |

 total charge

# of ion       s       p       d       tot
    1        0.449   0.283   9.189   9.921
    2        0.449   0.285   9.186   9.920
    3        0.449   0.285   9.186   9.920
    4        0.449   0.285   9.186   9.920
    5        0.449   0.287   9.178   9.914
    6        0.449   0.285   9.186   9.920
    7        0.449   0.285   9.186   9.920
    8        0.449   0.285   9.186   9.920
    9        0.448   0.282   9.192   9.922
   10        0.441   0.373   9.174   9.988
   11        0.444   0.365   9.185   9.994
   12        0.441   0.373   9.174   9.988
   13        0.444   0.365   9.185   9.994
   14        0.444   0.365   9.185   9.994
   15        0.438   0.371   9.177   9.986
   16        0.441   0.373   9.174   9.988
   17        0.438   0.371   9.177   9.986
   18        0.438   0.371   9.177   9.986
   19        0.442   0.373   9.181   9.996
   20        0.454   0.377   9.177  10.008
   21        0.454   0.377   9.177  10.008
   22        0.434   0.374   9.181   9.989
   23        0.454   0.377   9.177  10.008
   24        0.434   0.374   9.181   9.989
   25        0.442   0.373   9.181   9.996
   26        0.442   0.373   9.181   9.996
   27        0.434   0.374   9.181   9.989
   28        0.451   0.289   9.195   9.935
   29        0.451   0.296   9.183   9.930
   30        0.451   0.296   9.183   9.930
   31        0.451   0.296   9.183   9.930
   32        0.451   0.296   9.183   9.930
   33        0.451   0.296   9.183   9.930
   34        0.451   0.296   9.183   9.930
   35        0.445   0.292   9.194   9.931
   36        0.515   0.493   7.535   8.543
   37        0.502   0.019   0.000   0.521
tot         16.612  12.135 328.926 357.673

 BZINTS: Fermi energy:    0.045049;  395.000000 electrons
         Band energy:-0.107469E+04;  BLOECHL correction:   -0.061156