 vasp.6.2.0 18Jan21 (build Jun 12 2021 23:27:24) complex

 executed on             LinuxIFC date 2022.05.30  15:42:47

 INCAR:
   ISMEAR = -5
   SIGMA = 0.1
   ISPIN = 1
   EDIFF = 1.d-5
   EDIFFG = -0.01
   NSW = 0
   NELM = 150
   ENCUT = 500
   ISIF = 2
   IBRION = 2
   LREAL = Auto
   ALGO = Fast
   ICHARG = 11
   LORBIT = 10
   LCHARG = .F.
   LWAVE = .F.

 POTCAR:    PAW_PBE Au 04Oct2007
 POTCAR:    PAW_PBE Ti 08Apr2002
 POTCAR:    PAW_PBE C 08Apr2002
 POTCAR:    PAW_PBE O 08Apr2002
 POTCAR:    PAW_PBE H 15Jun2001
|           W    W    AA    RRRRR   N    N  II  N    N   GGGG   !!!           |
|           W    W   A  A   R    R  NN   N  II  NN   N  G    G  !!!           |
|           W    W  A    A  R    R  N N  N  II  N N  N  G       !!!           |
|           W WW W  AAAAAA  RRRRR   N  N N  II  N  N N  G  GGG   !            |
|           WW  WW  A    A  R   R   N   NN  II  N   NN  G    G                |
|           W    W  A    A  R    R  N    N  II  N    N   GGGG   !!!           |
|     For optimal performance we recommend to set                             |
|       NCORE = 2 up to number-of-cores-per-socket                            |
|     This setting can greatly improve the performance of VASP for DFT.       |
|     The default, NCORE=1 might be grossly inefficient on modern             |
|     multi-core architectures or massively parallel machines. Do your        |
|     Unfortunately you need to use the default for GW and RPA                |
|     calculations (for HF NCORE is supported but not extensively tested      |
|     yet).                                                                   |

 POTCAR:    PAW_PBE Au 04Oct2007
   VRHFIN =Au: s1d10

   TITEL  = PAW_PBE Au 04Oct2007
   POMASS =  196.966; ZVAL   =   11.000    mass and valenz
   ENMAX  =  229.943; ENMIN  =  172.457 eV

 POTCAR:    PAW_PBE Ti 08Apr2002
   VRHFIN =Ti: d3 s1

   TITEL  = PAW_PBE Ti 08Apr2002
   POMASS =   47.880; ZVAL   =    4.000    mass and valenz
   ENMAX  =  178.330; ENMIN  =  133.747 eV

 POTCAR:    PAW_PBE C 08Apr2002
   VRHFIN =C: s2p2

[...]

 POTCAR:    PAW_PBE O 08Apr2002
   VRHFIN =O: s2p4

   TITEL  = PAW_PBE O 08Apr2002
   POMASS =   16.000; ZVAL   =    6.000    mass and valenz
   ENMAX  =  400.000; ENMIN  =  300.000 eV

 POTCAR:    PAW_PBE H 15Jun2001
   VRHFIN =H: ultrasoft test

   TITEL  = PAW_PBE H 15Jun2001
   POMASS =    1.000; ZVAL   =    1.000    mass and valenz
   ENMAX  =  250.000; ENMIN  =  200.000 eV

 Optimization of the real space projectors (new method)

 maximal supplied QI-value         = 15.12
 optimisation between [QCUT,QGAM] = [ 11.34, 22.83] = [ 36.00,145.93] Ry
 Optimized for a Real-space Cutoff    1.39 Angstroem

   l    n(q)    QCUT    max X(q) W(low)/X(q) W(high)/X(q)  e(spline)
   2      9    11.338    60.898    0.39E-03    0.42E-03    0.21E-06
   2      9    11.338    58.894    0.40E-03    0.42E-03    0.22E-06
   0      9    11.338   109.617    0.13E-03    0.20E-04    0.13E-06
   0      9    11.338    75.026    0.13E-03    0.20E-04    0.13E-06
   1      9    11.338    16.344    0.33E-04    0.24E-03    0.18E-06
   1      9    11.338    10.160    0.26E-04    0.19E-03    0.15E-06
 Optimization of the real space projectors (new method)

[...]

   l    n(q)    QCUT    max X(q) W(low)/X(q) W(high)/X(q)  e(spline)
   0      7    11.387    20.381    0.39E-03    0.13E-02    0.15E-06
   0      7    11.387    15.268    0.42E-03    0.14E-02    0.17E-06
   1      6    11.387     5.964    0.41E-03    0.11E-02    0.17E-06
   1      6    11.387     5.382    0.39E-03    0.87E-03    0.15E-06
 Optimization of the real space projectors (new method)

 maximal supplied QI-value         = 34.20
 optimisation between [QCUT,QGAM] = [ 11.29, 22.57] = [ 35.68,142.71] Ry
 Optimized for a Real-space Cutoff    1.16 Angstroem

   l    n(q)    QCUT    max X(q) W(low)/X(q) W(high)/X(q)  e(spline)
   0      8    11.287    19.460    0.40E-03    0.73E-03    0.16E-06
   0      8    11.287    12.209    0.38E-03    0.70E-03    0.15E-06
   1      7    11.287     4.655    0.22E-03    0.25E-04    0.22E-06
  PAW_PBE Au 04Oct2007                  :
  PAW_PBE Ti 08Apr2002                  :
  PAW_PBE C 08Apr2002                   :
  PAW_PBE O 08Apr2002                   :
  PAW_PBE H 15Jun2001                   :

 POSCAR: Au-Ti-COH
  positions in direct lattice
  velocities in cartesian coordinates
 exchange correlation table for  LEXCH =        8
   RHO(1)=    0.500       N(1)  =     2000
   RHO(2)=  100.500       N(2)  =     4000

 VTST: version 3.2, (02/03/18)

 CHAIN: initializing optimizer

 OPT: Using VASP Conjugate-Gradient optimizer
 CHAIN: Read ICHAIN            0

 POSCAR: Au-Ti-COH
  positions in direct lattice
  velocities in cartesian coordinates

 ion  position               nearest neighbor table
   1  0.000  0.000  0.197-  16 2.94  12 2.94   6 2.94   8 2.94   7 2.94   3 2.94  10 2.94   4 2.94
                             2 2.94
   2  0.333  0.000  0.197-   9 2.94  11 2.94  17 2.94  10 2.94   8 2.94   4 2.94   5 2.94   1 2.94
                             3 2.94
   3  0.667  0.000  0.197-   7 2.94  18 2.94  12 2.94   1 2.94  11 2.94   5 2.94   6 2.94   9 2.94
                             2 2.94
   4  0.000  0.333  0.197-  10 2.94   6 2.94   5 2.94  13 2.94   2 2.94  15 2.94   9 2.94   1 2.94
                             7 2.94
   5  0.333  0.333  0.197-  13 2.94   7 2.94  11 2.94   4 2.94   2 2.94  14 2.94   3 2.94   8 2.94
                             6 2.94
   6  0.667  0.333  0.197-  15 2.94  14 2.94   1 2.94  12 2.94   4 2.94   9 2.94   8 2.94   3 2.94
                             5 2.94
   7  0.000  0.667  0.197-  18 2.94   3 2.94  16 2.94   5 2.94   1 2.94  13 2.94   8 2.94   4 2.94
                             9 2.94
   8  0.333  0.667  0.197-   9 2.94  17 2.94   1 2.94   2 2.94  14 2.94  16 2.94   6 2.94   7 2.94
                             5 2.94
   9  0.667  0.667  0.197-   2 2.94   8 2.94  17 2.94   6 2.94  15 2.94   4 2.94   3 2.94  18 2.94
                             7 2.94
  10  0.111  0.111  0.287-  26 2.93  19 2.93  20 2.93  11 2.94  17 2.94   2 2.94   4 2.94   1 2.94
                            12 2.94  16 2.94  13 2.94  15 2.94
  11  0.444  0.111  0.287-  20 2.92  21 2.92  27 2.94  13 2.94   2 2.94  10 2.94  17 2.94   5 2.94
                             3 2.94  18 2.94  14 2.94  12 2.94
  12  0.778  0.111  0.287-  25 2.93  19 2.93  21 2.93  16 2.94  18 2.94   1 2.94  14 2.94  15 2.94
                             3 2.94   6 2.94  10 2.94  11 2.94
  13  0.111  0.444  0.287-  23 2.92  20 2.92  22 2.94   5 2.94  18 2.94  11 2.94   7 2.94   4 2.94
                            16 2.94  10 2.94  14 2.94  15 2.94
  14  0.444  0.444  0.287-  21 2.92  23 2.92  24 2.94  15 2.94   6 2.94  12 2.94   8 2.94  17 2.94
                             5 2.94  16 2.94  13 2.94  11 2.94
  15  0.778  0.444  0.287-  24 2.92  22 2.92  19 2.93  14 2.94   6 2.94  17 2.94  12 2.94   9 2.94
                             4 2.94  10 2.94  13 2.94  18 2.94
  16  0.111  0.778  0.287-  25 2.93  26 2.93  23 2.93  18 2.94  12 2.94   7 2.94   1 2.94   8 2.94
                            13 2.94  10 2.94  14 2.94  17 2.94
  17  0.444  0.778  0.287-  27 2.92  24 2.92  26 2.93   9 2.94  15 2.94   2 2.94  10 2.94  11 2.94
                             8 2.94  14 2.94  16 2.94  18 2.94
  18  0.778  0.778  0.287-  22 2.92  27 2.92  25 2.93  16 2.94   7 2.94  13 2.94  12 2.94   3 2.94
                            11 2.94   9 2.94  15 2.94  17 2.94
  19  0.889  0.222  0.377-  10 2.93  12 2.93  15 2.93  26 2.94  25 2.94  24 2.94  22 2.94  21 2.95
                            20 2.95  28 2.95  32 3.03  31 3.03
  20  0.223  0.223  0.376-  36 2.76  23 2.91  21 2.91  11 2.92  13 2.92  10 2.93  27 2.95  22 2.95
                            26 2.95  19 2.95  29 2.96  31 2.96
  21  0.554  0.223  0.376-  36 2.76  20 2.91  23 2.91  14 2.92  11 2.92  12 2.93  27 2.95  24 2.95
                            25 2.95  19 2.95  30 2.96  32 2.96
  22  0.887  0.556  0.376-  24 2.92  27 2.92  18 2.92  15 2.92  13 2.94  25 2.94  19 2.94  23 2.95
                            20 2.95  35 2.96  33 2.99  31 2.99
  23  0.223  0.554  0.376-  36 2.76  20 2.91  21 2.91  13 2.92  14 2.92  16 2.93  22 2.95  24 2.95
                            25 2.95  26 2.95  33 2.96  34 2.96
  24  0.556  0.556  0.376-  27 2.92  22 2.92  15 2.92  17 2.92  14 2.94  26 2.94  19 2.94  21 2.95
                            23 2.95  35 2.96  32 2.99  34 2.99
  25  0.889  0.889  0.377-  16 2.93  12 2.93  18 2.93  19 2.94  26 2.94  22 2.94  27 2.94  23 2.95
                            21 2.95  28 2.95  33 3.03  30 3.03
  26  0.222  0.889  0.377-  10 2.93  16 2.93  17 2.93  19 2.94  25 2.94  27 2.94  24 2.94  20 2.95
                            23 2.95  28 2.95  29 3.03  34 3.03
  27  0.556  0.887  0.376-  24 2.92  22 2.92  17 2.92  18 2.92  11 2.94  26 2.94  25 2.94  20 2.95
                            21 2.95  35 2.96  29 2.99  30 2.99
  28  0.000  0.000  0.467-  25 2.95  19 2.95  26 2.95  34 2.98  32 2.98  33 2.98  30 2.98  31 2.98
                            29 2.98
  29  0.334  0.009  0.468-  30 2.85  31 2.86  36 2.87  20 2.96  35 2.98  28 2.98  27 2.99  26 3.03
                            34 3.10
  30  0.657  0.009  0.468-  29 2.85  32 2.86  36 2.87  21 2.96  35 2.98  28 2.98  27 2.99  25 3.03
                            33 3.10
  31  0.009  0.334  0.468-  33 2.85  29 2.86  36 2.87  20 2.96  35 2.98  28 2.98  22 2.99  19 3.03
                            32 3.10
  32  0.657  0.334  0.468-  34 2.85  30 2.86  36 2.87  21 2.96  35 2.98  28 2.98  24 2.99  19 3.03
                            31 3.10
  33  0.009  0.657  0.468-  31 2.85  34 2.86  36 2.87  23 2.96  35 2.98  28 2.98  22 2.99  25 3.03
                            30 3.10
  34  0.334  0.657  0.468-  32 2.85  33 2.86  36 2.87  23 2.96  35 2.98  28 2.98  24 2.99  26 3.03
                            29 3.10
  35  0.667  0.667  0.467-  24 2.96  27 2.96  22 2.96  29 2.98  34 2.98  32 2.98  31 2.98  30 2.98
                            33 2.98
  36  0.333  0.333  0.458-  37 1.91  20 2.76  23 2.76  21 2.76  33 2.87  31 2.87  29 2.87  30 2.87
                            34 2.87  32 2.87
  37  0.333  0.333  0.530-  38 1.26  36 1.91
  38  0.333  0.333  0.577-  39 0.96  37 1.26
  39  0.333  0.333  0.612-  38 0.96

  LATTYP: Found a hexagonal cell.
 ALAT       =     8.8135128021
 C/A-ratio  =     3.0356784858

  Lattice vectors:

 A1 = (  -4.4067569092,  -7.6327256898,   0.0000000000)
 A2 = (   8.8135128021,   0.0000000000,   0.0000000000)
 A3 = (   0.0000000000,   0.0000000000,  26.7549911976)

Analysis of symmetry for initial positions (statically):
 Subroutine PRICEL returns:
 Original cell was already a primitive cell.

 Routine SETGRP: Setting up the symmetry group for a
 hexagonal supercell.

 Subroutine GETGRP returns: Found  6 space group operations
 (whereof  6 operations were pure point group operations)
 out of a pool of 24 trial point group operations.

The static configuration has the point symmetry C_3v.

Analysis of symmetry for dynamics (positions and initial velocities):
 Subroutine PRICEL returns:
 Original cell was already a primitive cell.

[...]

[...]
     41      -5.0251      2.00000
     42      -4.9643      2.00000
     43      -4.9391      2.00000
     44      -4.8888      2.00000
     45      -4.8338      2.00000
     46      -4.8092      2.00000
     47      -4.7606      2.00000
     48      -4.7415      2.00000
     49      -4.7275      2.00000
     50      -4.7077      2.00000
     51      -4.6134      2.00000
     52      -4.5865      2.00000
     53      -4.5674      2.00000
     54      -4.5405      2.00000
     55      -4.5354      2.00000
     56      -4.5313      2.00000
     57      -4.5109      2.00000
     58      -4.4903      2.00000
     59      -4.4462      2.00000
     60      -4.4191      2.00000
[...]
    238       5.2290      0.00000
    239       5.2747      0.00000
    240       5.4548      0.00000
    241       5.5404      0.00000
    242       5.6603      0.00000
    243       5.8913      0.00000
    244       5.9068      0.00000
    245       5.9386      0.00000
    246       6.0156      0.00000
    247       6.0474      0.00000
    248       6.0841      0.00000
    249       6.1183      0.00000
    250       6.1742      0.00000
    251       6.2997      0.00000
    252       6.3345      0.00000

 soft charge-density along one line, spin component           1
         0         1         2         3         4         5         6         7         8         9
 total charge-density along one line

------------------------ aborting loop because EDIFF is reached ----------------------------------------

 total charge

# of ion       s       p       d       tot
    1        0.546   0.238   8.769   9.553
    2        0.542   0.241   8.765   9.548
    3        0.542   0.241   8.765   9.548
    4        0.542   0.241   8.765   9.548
    5        0.550   0.241   8.758   9.549
    6        0.542   0.241   8.765   9.548
    7        0.542   0.241   8.765   9.548
    8        0.542   0.241   8.765   9.548
    9        0.542   0.240   8.770   9.552
   10        0.523   0.307   8.770   9.600
   11        0.523   0.305   8.778   9.607
   12        0.523   0.307   8.770   9.600
   13        0.523   0.305   8.778   9.607
   14        0.523   0.305   8.778   9.607
   15        0.517   0.309   8.773   9.599
   16        0.523   0.307   8.770   9.600
   17        0.517   0.309   8.773   9.599
   18        0.517   0.309   8.773   9.599
   19        0.518   0.299   8.769   9.585
   20        0.561   0.326   8.743   9.630
   21        0.561   0.326   8.743   9.630
   22        0.510   0.307   8.776   9.593
   23        0.561   0.326   8.743   9.630
   24        0.510   0.307   8.776   9.593
   25        0.518   0.299   8.769   9.585
   26        0.518   0.299   8.769   9.585
   27        0.510   0.307   8.776   9.593
   28        0.541   0.228   8.761   9.530
   29        0.571   0.241   8.747   9.560
   30        0.571   0.241   8.747   9.560
   31        0.571   0.241   8.747   9.560
   32        0.571   0.241   8.747   9.560
   33        0.571   0.241   8.747   9.560
   34        0.571   0.241   8.747   9.560
   35        0.545   0.227   8.761   9.533
   36        0.454   0.674   2.511   3.639
   37        0.948   1.381   0.000   2.328
   38        1.526   3.760   0.000   5.286
   39        0.563   0.136   0.000   0.699
tot         22.349  15.583 309.227 347.159

  FORCE on cell =-STRESS in cart. coord.  units (eV):
  Direction    XX          YY          ZZ          XY          YZ          ZX
  Alpha Z   853.50050   853.50050   853.50050
  Ewald  182656.50252182656.50292************    -0.00032    -0.00009    -0.00014
  Hartree191117.49635191117.49634************     0.00001    -0.00002    -0.00004
  E(xc)   -1790.30997 -1790.31008 -1797.77679     0.00009    -0.00000    -0.00001
  Local  ************************385715.48123     0.00217     0.00001    -0.00001
  n-local   -99.88168   -56.91699   -54.62737    21.69426    -1.40417     1.37095
  augment  2377.32670  2377.32827  2393.65371    -0.00136     0.00001     0.00002
  Kinetic  5580.26126  5585.64427  5585.12721     4.71301     0.31888     0.27600
  Fock        0.00000     0.00000     0.00000     0.00000     0.00000     0.00000
  Total     -21.75627   -21.75626     2.03760    -0.00000     0.00000    -0.00000
  in kB     -19.36696   -19.36696     1.81383    -0.00000     0.00000    -0.00000

 VOLUME and BASIS-vectors are now :
  energy-cutoff  :      500.00
  volume of cell :     1799.84
      direct lattice vectors                 reciprocal lattice vectors
     8.813512802  0.000000000  0.000000000     0.113462137 -0.065507406  0.000000000
     4.406756909  7.632725690  0.000000000     0.000000000  0.131014796  0.000000000
     0.000000000  0.000000000 26.754991198     0.000000000  0.000000000  0.037376204

  length of vectors
     8.813512802  8.813512802 26.754991198     0.131014796  0.131014796  0.037376204

 FORCES acting on ions
    electron-ion (+dipol)            ewald-force                    non-local-force                 convergence-correction
   -.199E-04 -.164E-04 0.280E+04   0.518E-04 0.433E-04 -.280E+04   0.113E-16 0.196E-17 -.685E+00   -.181E-03 -.118E-03 -.277E+00
   0.655E-01 -.411E+00 0.280E+04   -.133E+00 0.247E+00 -.280E+04   0.608E-01 0.145E+00 -.291E+00   0.839E-02 0.114E-01 -.267E+00
   -.655E-01 -.411E+00 0.280E+04   0.133E+00 0.247E+00 -.280E+04   -.608E-01 0.145E+00 -.291E+00   -.813E-02 0.133E-01 -.267E+00
   -.323E+00 0.262E+00 0.280E+04   0.147E+00 -.239E+00 -.280E+04   0.156E+00 -.199E-01 -.291E+00   0.141E-01 0.151E-02 -.267E+00
   0.104E-04 -.224E-04 0.280E+04   0.951E-04 0.172E-05 -.280E+04   0.203E-17 -.150E-17 0.200E+00   0.424E-02 0.258E-02 -.961E-01
   0.323E+00 0.262E+00 0.280E+04   -.147E+00 -.239E+00 -.280E+04   -.156E+00 -.199E-01 -.291E+00   -.156E-01 0.247E-02 -.266E+00
   -.388E+00 0.149E+00 0.280E+04   0.280E+00 -.813E-02 -.280E+04   0.952E-01 -.125E+00 -.291E+00   0.752E-02 -.137E-01 -.267E+00
   0.388E+00 0.149E+00 0.280E+04   -.280E+00 -.812E-02 -.280E+04   -.952E-01 -.125E+00 -.291E+00   -.566E-02 -.147E-01 -.266E+00
   0.196E-04 -.416E-04 0.280E+04   0.166E-03 -.200E-04 -.280E+04   -.694E-17 0.164E-17 -.489E+00   -.461E-02 -.238E-02 -.283E+00
   -.716E-01 -.414E-01 0.943E+03   0.232E+00 0.134E+00 -.942E+03   -.242E+00 -.140E+00 -.509E+00   0.507E-01 0.292E-01 0.276E-01
   0.146E-04 -.937E+00 0.942E+03   0.148E-03 0.867E+00 -.942E+03   0.201E-08 0.302E-01 -.120E+00   0.363E-02 0.205E-01 0.364E-01
   0.716E-01 -.414E-01 0.943E+03   -.232E+00 0.134E+00 -.942E+03   0.242E+00 -.140E+00 -.509E+00   -.518E-01 0.302E-01 0.266E-01
   -.812E+00 0.469E+00 0.942E+03   0.750E+00 -.433E+00 -.942E+03   0.261E-01 -.151E-01 -.120E+00   0.198E-01 -.683E-02 0.364E-01
   0.812E+00 0.469E+00 0.942E+03   -.751E+00 -.433E+00 -.942E+03   -.261E-01 -.151E-01 -.120E+00   -.125E-01 -.735E-02 0.354E-01
   0.326E-04 0.300E+01 0.947E+03   0.235E-03 -.302E+01 -.946E+03   0.917E-09 0.138E-01 -.542E+00   -.207E-02 -.340E-01 -.409E-01
   -.200E-04 0.827E-01 0.943E+03   0.162E-03 -.268E+00 -.942E+03   0.186E-07 0.280E+00 -.509E+00   0.357E-04 -.600E-01 0.266E-01
   0.260E+01 -.150E+01 0.947E+03   -.262E+01 0.151E+01 -.946E+03   0.119E-01 -.688E-02 -.542E+00   -.302E-01 0.156E-01 -.409E-01
   -.260E+01 -.150E+01 0.947E+03   0.262E+01 0.151E+01 -.946E+03   -.119E-01 -.688E-02 -.542E+00   0.302E-01 0.172E-01 -.410E-01
   -.434E-04 -.359E+01 -.926E+03   0.558E-04 0.369E+01 0.925E+03   0.364E-08 0.547E-01 0.725E+00   0.350E-02 -.974E-01 0.331E+00
   -.152E+02 -.875E+01 -.937E+03   0.160E+02 0.925E+01 0.938E+03   -.107E+01 -.618E+00 -.118E+01   0.102E+00 0.590E-01 0.480E+00
   0.152E+02 -.875E+01 -.937E+03   -.160E+02 0.925E+01 0.938E+03   0.107E+01 -.618E+00 -.118E+01   -.103E+00 0.601E-01 0.480E+00
   -.125E+02 0.724E+01 -.918E+03   0.121E+02 -.701E+01 0.918E+03   0.280E+00 -.162E+00 0.516E+00   0.151E+00 -.884E-01 0.257E+00
   -.849E-05 0.175E+02 -.937E+03   0.138E-03 -.185E+02 0.938E+03   0.823E-07 0.124E+01 -.118E+01   0.159E-03 -.119E+00 0.480E+00
   0.125E+02 0.724E+01 -.918E+03   -.121E+02 -.701E+01 0.918E+03   -.280E+00 -.162E+00 0.516E+00   -.151E+00 -.872E-01 0.257E+00
   0.311E+01 0.180E+01 -.926E+03   -.319E+01 -.184E+01 0.925E+03   -.474E-01 -.273E-01 0.725E+00   0.894E-01 0.516E-01 0.330E+00
   -.311E+01 0.180E+01 -.926E+03   0.319E+01 -.184E+01 0.925E+03   0.474E-01 -.273E-01 0.725E+00   -.823E-01 0.518E-01 0.331E+00
   0.702E-05 -.145E+02 -.918E+03   0.198E-03 0.140E+02 0.918E+03   0.215E-07 0.323E+00 0.516E+00   -.176E-02 0.175E+00 0.257E+00
   -.125E-04 -.123E-04 -.270E+04   0.288E-04 0.327E-04 0.270E+04   -.623E-18 0.142E-18 0.390E+00   0.269E-03 0.139E-03 0.310E+00
   0.878E+01 0.929E+01 -.269E+04   -.814E+01 -.829E+01 0.269E+04   -.841E+00 -.141E+01 0.813E-01   0.135E+00 0.298E+00 0.339E+00
   -.878E+01 0.929E+01 -.269E+04   0.814E+01 -.829E+01 0.269E+04   0.841E+00 -.141E+01 0.813E-01   -.136E+00 0.299E+00 0.340E+00
   0.124E+02 0.295E+01 -.269E+04   -.113E+02 -.290E+01 0.269E+04   -.164E+01 -.242E-01 0.813E-01   0.326E+00 -.317E-01 0.339E+00
   -.124E+02 0.295E+01 -.269E+04   0.113E+02 -.290E+01 0.269E+04   0.164E+01 -.242E-01 0.813E-01   -.326E+00 -.305E-01 0.340E+00
   0.366E+01 -.122E+02 -.269E+04   -.311E+01 0.112E+02 0.269E+04   -.799E+00 0.143E+01 0.813E-01   0.191E+00 -.267E+00 0.340E+00
   -.366E+01 -.122E+02 -.269E+04   0.311E+01 0.112E+02 0.269E+04   0.799E+00 0.143E+01 0.813E-01   -.189E+00 -.267E+00 0.340E+00
   0.335E-04 -.302E-04 -.271E+04   0.143E-03 -.480E-04 0.271E+04   -.656E-17 0.123E-16 0.306E+00   -.457E-02 -.234E-02 0.413E+00
   -.947E-05 0.556E-05 -.865E+03   0.413E-04 0.374E-05 0.866E+03   0.509E-18 -.604E-18 -.747E+00   0.370E-03 0.226E-03 0.227E+00
   -.858E-05 -.782E-04 -.969E+03   0.136E-04 0.909E-06 0.946E+03   -.103E-17 -.274E-18 0.230E+02   0.101E-02 0.618E-03 -.106E+00
   0.243E-03 -.903E-04 -.168E+04   0.439E-05 0.482E-06 0.168E+04   0.132E-18 0.330E-19 -.477E+01   0.379E-02 0.232E-02 -.274E+00
   0.646E-05 -.144E-04 -.324E+03   0.190E-06 0.364E-07 0.333E+03   -.157E-19 -.251E-19 -.871E+01   0.199E-03 0.122E-03 -.405E-01
   -.549E-03 -.944E-03 -.703E+01   0.547E-13 0.361E-13 0.773E-11   0.215E-15 0.233E-15 0.386E+01   0.182E-01 0.113E-01 0.358E+01

 POSITION                                       TOTAL-FORCE (eV/Angst)
      0.00000      0.00000      5.28038         0.000000      0.000000     -0.139608
      2.93784      0.00000      5.28038         0.002076     -0.006441     -0.049270
      5.87568      0.00000      5.28038        -0.002076     -0.006441     -0.049270
      1.46892      2.54424      5.28038        -0.004540      0.005019     -0.049270
      4.40676      2.54424      5.28038         0.000000      0.000000     -0.092650
      7.34459      2.54424      5.28038         0.004540      0.005019     -0.049270
      2.93784      5.08848      5.28038        -0.006616      0.001422     -0.049270
      5.87568      5.08848      5.28038         0.006616      0.001422     -0.049270
      8.81351      5.08848      5.28038         0.000000      0.000000     -0.062554
      1.46892      0.84808      7.67911        -0.030738     -0.017747      0.107407
      4.40676      0.84808      7.67911        -0.000000     -0.021852      0.055390
      7.34459      0.84808      7.67911         0.030738     -0.017747      0.107407
      2.93784      3.39232      7.67911        -0.018925      0.010926      0.055390
      5.87568      3.39232      7.67911         0.018925      0.010926      0.055390
      8.81351      3.39232      7.67911        -0.000000     -0.043764      0.119448
      4.40676      5.93656      7.67911         0.000000      0.035493      0.107407
      7.34459      5.93656      7.67911        -0.037900      0.021882      0.119448
     10.28243      5.93656      7.67911         0.037900      0.021882      0.119448
      8.81351      1.69614     10.07331         0.000000      0.049689      0.088181
      2.94950      1.70289     10.06400        -0.102918     -0.059420     -0.157234
      5.86402      1.70289     10.06400         0.102918     -0.059420     -0.157234
     10.27143      4.24676     10.06599         0.021122     -0.012195      0.041890
      4.40676      4.22694     10.06400         0.000000      0.118839     -0.157234
      7.35560      4.24676     10.06599        -0.021122     -0.012195      0.041890
     11.75137      6.78466     10.07331        -0.043032     -0.024845      0.088181
      5.87566      6.78466     10.07331         0.043032     -0.024845      0.088181
      8.81351      6.77194     10.06599         0.000000      0.024390      0.041890
      0.00000      0.00000     12.49013         0.000000      0.000000     -0.102637
      2.98093      0.06833     12.52966        -0.067868     -0.108458     -0.039827
      5.83259      0.06833     12.52966         0.067868     -0.108458     -0.039827
      1.54964      2.54739     12.52966        -0.127861     -0.004546     -0.039827
      7.26387      2.54739     12.52966         0.127861     -0.004546     -0.039827
      2.97547      5.01700     12.52966        -0.059993      0.113005     -0.039827
      5.83804      5.01700     12.52966         0.059993      0.113005     -0.039827
      8.81351      5.08848     12.50181         0.000000      0.000000     -0.094167
      4.40676      2.54424     12.25739         0.000000      0.000000      0.214213
      4.40676      2.54424     14.16834         0.000000      0.000000      0.062068
      4.40676      2.54424     15.42454         0.000000      0.000000     -0.032323
      4.40676      2.54424     16.38213         0.000000      0.000000      0.016994
    total drift:                                0.017690      0.010315      0.407748

  FREE ENERGIE OF THE ION-ELECTRON SYSTEM (eV)
  free  energy   TOTEN  =      -132.25143278 eV

  energy  without entropy=     -132.25143278  energy(sigma->0) =     -132.25143278

 stress matrix after NEB project (eV)
    -21.75627     -0.00000     -0.00000
     -0.00000    -21.75626      0.00000
      0.00000      0.00000      2.03760
  FORCES: max atom, RMS     0.062068    0.011531
  FORCE total and by dimension    0.072014    0.062068
  Stress total and by dimension   30.835400   21.756265
|           W    W    AA    RRRRR   N    N  II  N    N   GGGG   !!!           |
|           W    W   A  A   R    R  NN   N  II  NN   N  G    G  !!!           |
|           W    W  A    A  R    R  N N  N  II  N N  N  G       !!!           |
|           W WW W  AAAAAA  RRRRR   N  N N  II  N  N N  G  GGG   !            |
|           WW  WW  A    A  R   R   N   NN  II  N   NN  G    G                |
|           W    W  A    A  R    R  N    N  II  N    N   GGGG   !!!           |
|     Tetrahedron method does not include variations of the Fermi             |
|     occupations, so forces and stress will be inaccurate. We suggest        |
|     using a different smearing scheme ISMEAR = 1 or 2 for metals in         |
|     relaxations.                                                            |

 total charge

# of ion       s       p       d       tot
    1        0.546   0.238   8.769   9.553
    2        0.542   0.241   8.765   9.548
    3        0.542   0.241   8.765   9.548
    4        0.542   0.241   8.765   9.548
    5        0.550   0.241   8.758   9.549
    6        0.542   0.241   8.765   9.548
    7        0.542   0.241   8.765   9.548
    8        0.542   0.241   8.765   9.548
    9        0.542   0.240   8.770   9.552
   10        0.523   0.307   8.770   9.600
   11        0.523   0.305   8.778   9.607
   12        0.523   0.307   8.770   9.600
   13        0.523   0.305   8.778   9.607
   14        0.523   0.305   8.778   9.607
   15        0.517   0.309   8.773   9.599
   16        0.523   0.307   8.770   9.600
   17        0.517   0.309   8.773   9.599
   18        0.517   0.309   8.773   9.599
   19        0.518   0.299   8.769   9.585
   20        0.561   0.326   8.743   9.630
   21        0.561   0.326   8.743   9.630
   22        0.510   0.307   8.776   9.593
   23        0.561   0.326   8.743   9.630
   24        0.510   0.307   8.776   9.593
   25        0.518   0.299   8.769   9.585
   26        0.518   0.299   8.769   9.585
   27        0.510   0.307   8.776   9.593
   28        0.541   0.228   8.761   9.530
   29        0.571   0.241   8.747   9.560
   30        0.571   0.241   8.747   9.560
   31        0.571   0.241   8.747   9.560
   32        0.571   0.241   8.747   9.560
   33        0.571   0.241   8.747   9.560
   34        0.571   0.241   8.747   9.560
   35        0.545   0.227   8.761   9.533
   36        0.454   0.674   2.511   3.639
   37        0.948   1.381   0.000   2.328
   38        1.526   3.760   0.000   5.286
   39        0.563   0.136   0.000   0.699
tot         22.349  15.583 309.227 347.159

 BZINTS: Fermi energy:    0.250011;  400.000000 electrons
         Band energy:-0.146979E+04;  BLOECHL correction:   -0.043504