 vasp.6.2.0 18Jan21 (build Jun 12 2021 23:27:24) complex

 executed on             LinuxIFC date 2022.05.28  01:24:16

 INCAR:
   ISMEAR = -5
   SIGMA = 0.1
   ISPIN = 1
   EDIFF = 1.d-5
   EDIFFG = -0.01
   NSW = 0
   NELM = 150
   ENCUT = 500
   ISIF = 2
   IBRION = 2
   LREAL = Auto
   ALGO = Fast
   ICHARG = 11
   LORBIT = 10
   LCHARG = .F.
   LWAVE = .F.

 POTCAR:    PAW_PBE Ag 02Apr2005
 POTCAR:    PAW_PBE V 08Apr2002
 POTCAR:    PAW_PBE C 08Apr2002
 POTCAR:    PAW_PBE O 08Apr2002
|           W    W    AA    RRRRR   N    N  II  N    N   GGGG   !!!           |
|           W    W   A  A   R    R  NN   N  II  NN   N  G    G  !!!           |
|           W    W  A    A  R    R  N N  N  II  N N  N  G       !!!           |
|           W WW W  AAAAAA  RRRRR   N  N N  II  N  N N  G  GGG   !            |
|           WW  WW  A    A  R   R   N   NN  II  N   NN  G    G                |
|           W    W  A    A  R    R  N    N  II  N    N   GGGG   !!!           |
|     For optimal performance we recommend to set                             |
|       NCORE = 2 up to number-of-cores-per-socket                            |
|     This setting can greatly improve the performance of VASP for DFT.       |
|     The default, NCORE=1 might be grossly inefficient on modern             |
|     multi-core architectures or massively parallel machines. Do your        |
|     Unfortunately you need to use the default for GW and RPA                |
|     calculations (for HF NCORE is supported but not extensively tested      |
|     yet).                                                                   |

 POTCAR:    PAW_PBE Ag 02Apr2005
   VRHFIN =Ag : s1 d10

   TITEL  = PAW_PBE Ag 02Apr2005
   POMASS =  107.868; ZVAL   =   11.000    mass and valenz
   ENMAX  =  249.844; ENMIN  =  187.383 eV

 POTCAR:    PAW_PBE V 08Apr2002
   VRHFIN =V: p6 d4 s1

[...]

 POTCAR:    PAW_PBE C 08Apr2002
   VRHFIN =C: s2p2

[...]

 POTCAR:    PAW_PBE O 08Apr2002
   VRHFIN =O: s2p4

   TITEL  = PAW_PBE O 08Apr2002
   POMASS =   16.000; ZVAL   =    6.000    mass and valenz
   ENMAX  =  400.000; ENMIN  =  300.000 eV

 Optimization of the real space projectors (new method)

 maximal supplied QI-value         = 15.12
 optimisation between [QCUT,QGAM] = [ 11.34, 22.83] = [ 36.00,145.93] Ry
 Optimized for a Real-space Cutoff    1.43 Angstroem

   l    n(q)    QCUT    max X(q) W(low)/X(q) W(high)/X(q)  e(spline)
   2      9    11.338    53.897    0.16E-03    0.20E-03    0.28E-06
   2      9    11.338    52.416    0.16E-03    0.20E-03    0.29E-06
   0     10    11.338   122.045    0.31E-04    0.76E-04    0.15E-06
   0     10    11.338    73.629    0.30E-04    0.72E-04    0.15E-06
   1      9    11.338    15.255    0.20E-03    0.19E-04    0.17E-06
   1      9    11.338     9.562    0.16E-03    0.15E-04    0.14E-06
 Optimization of the real space projectors (new method)

[...]

   l    n(q)    QCUT    max X(q) W(low)/X(q) W(high)/X(q)  e(spline)
   0      7    11.310   115.676    0.43E-03    0.13E-02    0.19E-06
   0      7    11.310    87.132    0.43E-03    0.13E-02    0.18E-06
   1      6    11.310     4.429    0.42E-03    0.74E-03    0.11E-06
   1      6    11.310     2.733    0.34E-03    0.55E-03    0.92E-07
 Optimization of the real space projectors (new method)

 maximal supplied QI-value         = 24.76
 optimisation between [QCUT,QGAM] = [ 11.39, 22.77] = [ 36.31,145.25] Ry
 Optimized for a Real-space Cutoff    1.00 Angstroem

   l    n(q)    QCUT    max X(q) W(low)/X(q) W(high)/X(q)  e(spline)
   0      7    11.387    20.381    0.39E-03    0.13E-02    0.15E-06
   0      7    11.387    15.268    0.42E-03    0.14E-02    0.17E-06
   1      6    11.387     5.964    0.41E-03    0.11E-02    0.17E-06
   1      6    11.387     5.382    0.39E-03    0.87E-03    0.15E-06
  PAW_PBE Ag 02Apr2005                  :
  PAW_PBE V 08Apr2002                   :
  PAW_PBE C 08Apr2002                   :
  PAW_PBE O 08Apr2002                   :

 POSCAR: Ag-V-CO2
  positions in direct lattice
  velocities in cartesian coordinates
 exchange correlation table for  LEXCH =        8
   RHO(1)=    0.500       N(1)  =     2000
   RHO(2)=  100.500       N(2)  =     4000

 VTST: version 3.2, (02/03/18)

 CHAIN: initializing optimizer

 OPT: Using VASP Conjugate-Gradient optimizer
 CHAIN: Read ICHAIN            0

 POSCAR: Ag-V-CO2
  positions in direct lattice
  velocities in cartesian coordinates

 ion  position               nearest neighbor table
   1  0.000  0.000  0.217-   2 2.93   8 2.93   7 2.93   6 2.93   4 2.93  12 2.93  16 2.93  10 2.93
                             3 2.93
   2  0.333  0.000  0.217-   1 2.93   8 2.93   9 2.93   3 2.93   4 2.93   5 2.93  10 2.93  17 2.93
                            11 2.93
   3  0.667  0.000  0.217-   9 2.93   2 2.93   5 2.93  11 2.93   7 2.93  18 2.93   1 2.93   6 2.93
                            12 2.93
   4  0.000  0.333  0.217-   5 2.93   6 2.93   2 2.93   1 2.93   7 2.93  13 2.93  15 2.93   9 2.93
                            10 2.93
   5  0.333  0.333  0.217-   4 2.93   3 2.93   7 2.93   2 2.93   8 2.93  14 2.93  13 2.93  11 2.93
                             6 2.93
   6  0.667  0.333  0.217-   4 2.93   9 2.93   1 2.93  15 2.93   8 2.93  12 2.93   3 2.93   5 2.93
                            14 2.93
   7  0.000  0.667  0.217-   8 2.93   1 2.93   5 2.93   3 2.93   4 2.93  16 2.93  18 2.93  13 2.93
                             9 2.93
   8  0.333  0.667  0.217-   7 2.93   1 2.93   2 2.93   9 2.93   5 2.93  16 2.93   6 2.93  17 2.93
                            14 2.93
   9  0.667  0.667  0.217-   3 2.93   2 2.93   8 2.93   6 2.93  17 2.93   4 2.93  15 2.93   7 2.93
                            18 2.93
  10  0.111  0.111  0.315-  20 2.91  19 2.92  26 2.92  12 2.93  16 2.93  15 2.93  17 2.93  13 2.93
                            11 2.93   2 2.93   1 2.93   4 2.93
  11  0.444  0.111  0.315-  21 2.90  20 2.90  27 2.92  14 2.93  17 2.93  18 2.93   3 2.93  12 2.93
                            13 2.93  10 2.93   5 2.93   2 2.93
  12  0.778  0.111  0.315-  21 2.91  25 2.92  19 2.92  10 2.93  16 2.93  18 2.93  15 2.93  11 2.93
                             1 2.93  14 2.93   6 2.93   3 2.93
  13  0.111  0.444  0.315-  20 2.90  23 2.90  22 2.92  15 2.93  14 2.93  18 2.93  10 2.93  11 2.93
                            16 2.93   4 2.93   5 2.93   7 2.93
  14  0.444  0.444  0.315-  23 2.90  21 2.90  24 2.92  13 2.93  11 2.93  16 2.93   5 2.93  12 2.93
                            17 2.93   8 2.93  15 2.93   6 2.93
  15  0.778  0.444  0.315-  24 2.92  22 2.92  19 2.92  13 2.93  10 2.93  12 2.93  17 2.93  18 2.93
                             4 2.93   6 2.93   9 2.93  14 2.93
  16  0.111  0.778  0.315-  23 2.91  26 2.92  25 2.92  18 2.93  12 2.93  10 2.93  14 2.93  17 2.93
                            13 2.93   7 2.93   8 2.93   1 2.93
  17  0.444  0.778  0.315-  27 2.92  24 2.92  26 2.92  11 2.93  10 2.93   9 2.93  18 2.93  15 2.93
                            16 2.93   2 2.93  14 2.93   8 2.93
  18  0.778  0.778  0.315-  22 2.92  27 2.92  25 2.92  16 2.93  12 2.93  13 2.93  11 2.93  17 2.93
                            15 2.93   7 2.93   3 2.93   9 2.93
  19  0.889  0.222  0.413-  28 2.91  15 2.92  10 2.92  12 2.92  24 2.93  22 2.93  26 2.93  25 2.93
                            20 2.94  21 2.94  32 2.96  31 2.96
  20  0.223  0.223  0.412-  36 2.75  13 2.90  11 2.90  10 2.91  21 2.92  23 2.92  31 2.92  29 2.92
                            27 2.93  22 2.93  19 2.94  26 2.94
  21  0.555  0.223  0.412-  36 2.75  11 2.90  14 2.90  12 2.91  20 2.92  23 2.92  30 2.92  32 2.92
                            27 2.93  24 2.93  25 2.94  19 2.94
  22  0.889  0.556  0.413-  18 2.92  15 2.92  35 2.92  13 2.92  24 2.93  27 2.93  25 2.93  19 2.93
                            23 2.93  20 2.93  33 2.94  31 2.94
  23  0.223  0.555  0.412-  36 2.75  14 2.90  13 2.90  16 2.91  21 2.92  20 2.92  34 2.92  33 2.92
                            22 2.93  24 2.93  26 2.94  25 2.94
  24  0.556  0.556  0.413-  15 2.92  17 2.92  35 2.92  14 2.92  27 2.93  22 2.93  19 2.93  26 2.93
                            23 2.93  21 2.93  32 2.94  34 2.94
  25  0.889  0.889  0.413-  28 2.91  18 2.92  16 2.92  12 2.92  22 2.93  27 2.93  26 2.93  19 2.93
                            23 2.94  21 2.94  33 2.96  30 2.96
  26  0.222  0.889  0.413-  28 2.91  17 2.92  16 2.92  10 2.92  27 2.93  24 2.93  25 2.93  19 2.93
                            23 2.94  20 2.94  34 2.96  29 2.96
  27  0.556  0.889  0.413-  17 2.92  18 2.92  35 2.92  11 2.92  24 2.93  22 2.93  26 2.93  25 2.93
                            20 2.93  21 2.93  29 2.94  30 2.94
  28  0.000  0.000  0.510-  26 2.91  25 2.91  19 2.91  29 2.96  34 2.96  33 2.96  32 2.96  31 2.96
                            30 2.96
  29  0.334  0.006  0.511-  30 2.87  31 2.88  36 2.89  20 2.92  27 2.94  35 2.96  28 2.96  26 2.96
                            34 3.04
  30  0.660  0.006  0.511-  29 2.87  32 2.88  36 2.89  21 2.92  27 2.94  35 2.96  28 2.96  25 2.96
                            33 3.04
  31  0.006  0.334  0.511-  37 2.55  38 2.78  33 2.87  29 2.88  36 2.89  20 2.92  22 2.94  35 2.96
                            28 2.96  19 2.96  32 3.04
  32  0.660  0.334  0.511-  34 2.87  30 2.88  36 2.89  21 2.92  24 2.94  35 2.96  28 2.96  19 2.96
                            31 3.04
  33  0.006  0.660  0.511-  31 2.87  34 2.88  36 2.89  23 2.92  22 2.94  35 2.96  28 2.96  25 2.96
                            30 3.04
  34  0.334  0.660  0.511-  32 2.87  33 2.88  36 2.89  23 2.92  24 2.94  35 2.96  28 2.96  26 2.96
                            29 3.04
  35  0.667  0.667  0.511-  24 2.92  27 2.92  22 2.92  30 2.96  32 2.96  29 2.96  34 2.96  31 2.96
                            33 2.96
  36  0.333  0.333  0.502-  39 1.93  37 2.05  21 2.75  20 2.75  23 2.75  31 2.89  33 2.89  30 2.89
                            29 2.89  34 2.89  32 2.89
  37  0.226  0.345  0.577-  38 1.22  39 1.33  36 2.05  31 2.55
  38  0.130  0.350  0.615-  37 1.22  31 2.78
  39  0.375  0.349  0.578-  37 1.33  36 1.93

  LATTYP: Found a hexagonal cell.
 ALAT       =     8.7913665772
 C/A-ratio  =     2.7703738524

  Lattice vectors:

 A1 = (  -4.3956832886,  -7.6135467898,   0.0000000000)
 A2 = (   8.7913665771,   0.0000000000,   0.0000000000)
 A3 = (   0.0000000000,   0.0000000000,  24.3553720923)

Analysis of symmetry for initial positions (statically):
 Subroutine PRICEL returns:
 Original cell was already a primitive cell.

 Routine SETGRP: Setting up the symmetry group for a
 hexagonal supercell.

 Subroutine GETGRP returns: Found  1 space group operations
 (whereof  1 operations were pure point group operations)
 out of a pool of 24 trial point group operations.

The static configuration has the point symmetry C_1 .

Analysis of symmetry for dynamics (positions and initial velocities):
 Subroutine PRICEL returns:
 Original cell was already a primitive cell.

[...]

The dynamic configuration has the point symmetry C_1 .

Analysis of constrained symmetry for selective dynamics:
 Subroutine PRICEL returns:
 Original cell was already a primitive cell.

 Routine SETGRP: Setting up the symmetry group for a
 hexagonal supercell.

 Subroutine GETGRP returns: Found  1 space group operations
[...]
     41      -4.9870      2.00000
     42      -4.9839      2.00000
     43      -4.9465      2.00000
     44      -4.9191      2.00000
     45      -4.9133      2.00000
     46      -4.9019      2.00000
     47      -4.8952      2.00000
     48      -4.8885      2.00000
     49      -4.8013      2.00000
     50      -4.7704      2.00000
     51      -4.7599      2.00000
     52      -4.7556      2.00000
     53      -4.7513      2.00000
     54      -4.7484      2.00000
     55      -4.7354      2.00000
     56      -4.7270      2.00000
     57      -4.7202      2.00000
     58      -4.7084      2.00000
     59      -4.6482      2.00000
     60      -4.6357      2.00000
[...]
    238       5.3340      0.00000
    239       5.4553      0.00000
    240       5.6523      0.00000
    241       5.6710      0.00000
    242       5.7701      0.00000
    243       5.7833      0.00000
    244       5.8811      0.00000
    245       5.9270      0.00000
    246       6.0619      0.00000
    247       6.5632      0.00000
    248       6.5880      0.00000
    249       6.6708      0.00000
    250       6.7077      0.00000
    251       6.7436      0.00000
    252       6.7697      0.00000

 soft charge-density along one line, spin component           1
         0         1         2         3         4         5         6         7         8         9
 total charge-density along one line

------------------------ aborting loop because EDIFF is reached ----------------------------------------

 total charge

# of ion       s       p       d       tot
    1        0.419   0.201   9.178   9.799
    2        0.417   0.204   9.176   9.797
    3        0.416   0.205   9.176   9.796
    4        0.416   0.203   9.178   9.797
    5        0.419   0.202   9.176   9.797
    6        0.416   0.203   9.177   9.797
    7        0.416   0.203   9.178   9.797
    8        0.415   0.204   9.177   9.796
    9        0.414   0.203   9.178   9.795
   10        0.408   0.269   9.165   9.841
   11        0.407   0.269   9.167   9.843
   12        0.408   0.269   9.164   9.841
   13        0.406   0.269   9.167   9.842
   14        0.405   0.270   9.168   9.843
   15        0.402   0.271   9.164   9.837
   16        0.408   0.269   9.163   9.841
   17        0.402   0.271   9.164   9.838
   18        0.402   0.271   9.164   9.838
   19        0.396   0.268   9.166   9.831
   20        0.431   0.300   9.137   9.868
   21        0.435   0.296   9.139   9.870
   22        0.393   0.277   9.163   9.833
   23        0.435   0.295   9.140   9.870
   24        0.395   0.275   9.164   9.834
   25        0.403   0.264   9.169   9.836
   26        0.404   0.264   9.168   9.835
   27        0.395   0.275   9.165   9.835
   28        0.415   0.195   9.179   9.789
   29        0.425   0.213   9.169   9.807
   30        0.427   0.211   9.167   9.804
   31        0.393   0.227   9.180   9.801
   32        0.427   0.198   9.176   9.801
   33        0.423   0.212   9.173   9.808
   34        0.422   0.209   9.172   9.803
   35        0.412   0.199   9.177   9.788
   36        0.452   0.575   3.450   4.477
   37        0.875   1.645   0.000   2.520
   38        1.598   3.512   0.000   5.110
   39        1.595   3.455   0.000   5.049
tot         18.948  17.623 324.334 360.904

  FORCE on cell =-STRESS in cart. coord.  units (eV):
  Direction    XX          YY          ZZ          XY          YZ          ZX
  Alpha Z   706.11704   706.11704   706.11704
  Ewald  151721.37765151185.11854************     4.54184    -3.93003  -119.38601
  Hartree161688.10703161421.08226************     3.40561    -9.63700   -41.07883
  E(xc)   -2125.10604 -2126.21127 -2130.96546    -0.01208     0.05479     0.14727
  Local  ************************323726.41798    -8.38973    14.30153   145.63970
  n-local  -370.52393  -363.41809  -372.16533    -0.01609    -0.26421     1.18009
  augment  3252.28660  3251.89758  3262.10671     0.07617    -0.11147    -0.78008
  Kinetic  5110.52124  5134.98075  5149.73298     0.42619    -0.55746    14.29842
  Fock        0.00000     0.00000     0.00000     0.00000     0.00000     0.00000
  Total      -6.77419    -6.80185    -0.56872     0.03189    -0.14385     0.02056
  in kB      -6.65778    -6.68497    -0.55895     0.03135    -0.14137     0.02021

 VOLUME and BASIS-vectors are now :
  energy-cutoff  :      500.00
  volume of cell :     1630.19
      direct lattice vectors                 reciprocal lattice vectors
     8.791366577  0.000000000  0.000000000     0.113747958 -0.065672414  0.000000000
     4.395683289  7.613546790  0.000000000     0.000000000  0.131344829  0.000000000
     0.000000000  0.000000000 24.355372092     0.000000000  0.000000000  0.041058703

  length of vectors
     8.791366577  8.791366577 24.355372092     0.131344829  0.131344829  0.041058703

 FORCES acting on ions
    electron-ion (+dipol)            ewald-force                    non-local-force                 convergence-correction
   -.272E-01 0.120E+00 0.270E+04   -.555E-01 -.362E-01 -.270E+04   0.465E-01 -.342E-01 -.200E+01   0.318E-01 -.526E-01 -.279E-01
   -.159E+00 0.226E+00 0.270E+04   -.712E-01 -.237E+00 -.270E+04   0.103E+00 0.802E-01 -.164E+01   0.128E+00 -.593E-01 -.631E-01
   0.107E+00 0.115E+00 0.270E+04   0.127E+00 -.130E+00 -.270E+04   -.952E-01 0.959E-01 -.154E+01   -.130E+00 -.659E-01 -.689E-01
   0.181E+00 0.906E-02 0.270E+04   -.238E+00 -.498E-01 -.270E+04   0.611E-01 -.202E-01 -.168E+01   0.669E-02 0.543E-01 -.360E-01
   -.180E+00 -.193E-01 0.270E+04   0.121E+00 -.353E-01 -.270E+04   0.429E-01 0.237E-01 -.144E+01   0.186E-01 0.228E-01 0.368E-01
   0.486E-01 -.189E-01 0.270E+04   0.117E+00 -.446E-01 -.270E+04   -.150E+00 -.250E-01 -.159E+01   -.337E-01 0.778E-01 -.360E-02
   -.931E-02 -.176E+00 0.270E+04   -.455E-01 0.282E+00 -.270E+04   0.769E-01 -.776E-01 -.168E+01   -.207E-01 -.260E-01 -.702E-01
   -.215E-01 -.503E-01 0.270E+04   0.110E+00 0.180E+00 -.270E+04   -.103E+00 -.944E-01 -.166E+01   0.150E-01 -.375E-01 -.110E+00
   0.787E-01 -.164E+00 0.270E+04   -.643E-01 0.708E-01 -.270E+04   -.259E-02 0.207E-01 -.188E+01   -.167E-01 0.718E-01 -.118E+00
   0.186E+01 0.167E+01 0.951E+03   -.154E+01 -.147E+01 -.950E+03   -.346E+00 -.230E+00 -.774E+00   0.253E-01 0.340E-01 0.278E+00
   -.498E+00 0.189E+01 0.951E+03   0.634E+00 -.217E+01 -.951E+03   -.102E+00 0.162E+00 -.352E+00   -.323E-01 0.700E-01 0.256E+00
   -.128E+01 0.106E+01 0.949E+03   0.902E+00 -.881E+00 -.949E+03   0.395E+00 -.216E+00 -.701E+00   -.239E-01 0.406E-01 0.247E+00
   0.763E+00 -.974E+00 0.953E+03   -.105E+01 0.108E+01 -.952E+03   0.199E+00 -.820E-01 -.559E+00   0.421E-01 0.788E-02 0.285E+00
   -.155E+01 -.691E+00 0.951E+03   0.186E+01 0.802E+00 -.951E+03   -.210E+00 -.816E-01 -.320E+00   -.646E-01 -.518E-02 0.273E+00
   0.799E+00 0.173E+00 0.951E+03   -.816E+00 -.222E+00 -.950E+03   -.270E-01 0.310E-01 -.790E+00   0.377E-01 0.326E-02 0.300E+00
   -.236E+00 -.218E+01 0.950E+03   0.184E+00 0.178E+01 -.949E+03   0.272E-01 0.473E+00 -.684E+00   0.247E-01 -.656E-01 0.273E+00
   0.207E+00 -.115E+00 0.950E+03   -.361E+00 0.131E+00 -.949E+03   0.103E+00 -.389E-02 -.702E+00   0.389E-01 -.127E-01 0.232E+00
   -.119E+00 -.826E+00 0.950E+03   0.176E+00 0.951E+00 -.949E+03   -.196E-01 -.569E-01 -.719E+00   -.182E-01 -.647E-01 0.243E+00
   0.556E+01 -.630E-01 -.818E+03   -.551E+01 -.181E+00 0.817E+03   -.241E-01 0.153E+00 0.999E+00   0.110E-01 0.105E+00 0.363E+00
   -.120E+02 -.835E-01 -.807E+03   0.128E+02 0.400E+00 0.808E+03   -.106E+01 -.509E+00 -.839E+00   0.137E+00 0.169E+00 0.503E+00
   0.635E+01 -.290E+01 -.819E+03   -.732E+01 0.334E+01 0.819E+03   0.114E+01 -.567E+00 -.785E+00   -.119E+00 0.851E-01 0.454E+00
   0.101E+01 -.380E+01 -.807E+03   -.129E+01 0.404E+01 0.806E+03   0.264E+00 -.169E+00 0.462E+00   0.514E-01 -.998E-01 0.278E+00
   -.470E+01 0.696E+01 -.813E+03   0.485E+01 -.807E+01 0.813E+03   -.567E-01 0.139E+01 -.806E+00   -.782E-01 -.205E+00 0.464E+00
   0.369E+01 0.285E+00 -.816E+03   -.366E+01 -.154E+00 0.815E+03   -.795E-01 -.103E+00 0.622E+00   -.212E-02 -.486E-01 0.314E+00
   0.288E+01 -.168E+01 -.823E+03   -.281E+01 0.172E+01 0.821E+03   -.465E-01 -.214E-01 0.958E+00   -.275E-01 -.203E-01 0.311E+00
   -.211E+01 0.389E+01 -.821E+03   0.203E+01 -.377E+01 0.820E+03   0.661E-01 -.797E-01 0.886E+00   0.168E-01 -.373E-01 0.275E+00
   -.749E+00 -.286E+01 -.818E+03   0.778E+00 0.266E+01 0.817E+03   -.844E-02 0.223E+00 0.619E+00   -.778E-02 0.220E-01 0.263E+00
   0.129E+02 0.970E+01 -.256E+04   -.128E+02 -.100E+02 0.256E+04   -.688E-01 0.162E+00 0.185E+01   -.471E-01 0.130E+00 0.152E+00
   0.590E+01 0.641E+02 -.252E+04   -.505E+01 -.637E+02 0.252E+04   -.966E+00 -.740E+00 0.201E+01   0.474E-01 0.170E+00 0.133E+00
   -.203E+02 0.271E+02 -.254E+04   0.197E+02 -.267E+02 0.254E+04   0.695E+00 -.784E+00 0.210E+01   -.557E-02 0.183E+00 0.149E+00
   0.941E+02 0.117E+02 -.244E+04   -.940E+02 -.118E+02 0.243E+04   -.539E+00 0.216E-01 0.329E+01   0.129E+00 0.181E-01 0.105E+00
   -.306E+02 0.734E+01 -.253E+04   0.309E+02 -.728E+01 0.253E+04   0.371E+00 -.569E-01 0.258E+01   -.243E+00 -.171E-01 0.101E+00
   0.873E+01 -.807E+02 -.250E+04   -.835E+01 0.805E+02 0.250E+04   -.570E+00 0.644E+00 0.231E+01   0.801E-01 -.166E+00 0.107E+00
   -.264E+02 -.415E+02 -.253E+04   0.264E+02 0.414E+02 0.253E+04   0.224E+00 0.584E+00 0.244E+01   -.642E-01 -.209E+00 0.111E+00
   0.156E+02 -.163E+02 -.256E+04   -.156E+02 0.165E+02 0.256E+04   0.273E-02 -.346E-01 0.197E+01   -.825E-02 -.120E+00 0.137E+00
   -.203E+02 0.110E+02 -.949E+03   0.198E+02 -.111E+02 0.950E+03   0.494E+00 0.504E-02 0.351E+00   0.440E-02 0.141E-01 0.703E-01
   0.966E+01 0.142E+02 -.962E+03   -.140E+02 -.150E+02 0.955E+03   0.430E+01 0.765E+00 0.712E+01   0.862E-01 -.634E-02 -.857E-01
   0.168E+03 -.480E+01 -.172E+04   -.204E+03 0.659E+01 0.176E+04   0.359E+02 -.179E+01 -.406E+02   0.790E-01 -.335E-02 -.131E+00
   -.215E+03 0.124E+01 -.164E+04   0.257E+03 0.557E+00 0.166E+04   -.417E+02 -.178E+01 -.168E+02   -.643E-01 -.202E-01 -.204E+00
   0.168E+01 0.285E+01 0.442E+02   -.114E-12 0.310E-12 -.205E-11   -.169E+01 -.272E+01 -.501E+02   0.483E-02 -.651E-01 0.580E+01

 POSITION                                       TOTAL-FORCE (eV/Angst)
      0.00000      0.00000      5.28219        -0.004281     -0.004118     -0.038666
      2.93046      0.00000      5.28219        -0.000160      0.008209      0.025962
      5.86091      0.00000      5.28219         0.008492      0.013710      0.036471
      1.46523      2.53785      5.28219         0.010912     -0.008263      0.016839
      4.39568      2.53785      5.28219         0.002968     -0.009704     -0.006210
      7.32614      2.53785      5.28219        -0.017289     -0.012309      0.017782
      2.93046      5.07570      5.28219         0.001520      0.000560      0.025830
      5.86091      5.07570      5.28219         0.000933     -0.003744      0.041647
      8.79137      5.07570      5.28219        -0.004818     -0.002133      0.012073
      1.46523      0.84595      7.67490        -0.000469      0.001014     -0.036679
      4.39568      0.84595      7.67490         0.000880     -0.050940     -0.058261
      7.32614      0.84595      7.67490        -0.002394      0.000249     -0.023766
      2.93046      3.38380      7.67490        -0.043051      0.029271     -0.075893
      5.86091      3.38380      7.67490         0.044211      0.022719     -0.050768
      8.79137      3.38380      7.67490        -0.005399     -0.016724     -0.001100
      4.39568      5.92165      7.67490         0.000583      0.003375     -0.028283
      7.32614      5.92165      7.67490        -0.010852     -0.002963      0.015262
     10.25659      5.92165      7.67490         0.019644      0.001400      0.016776
      8.79137      1.69254     10.05636         0.031593      0.012822      0.093625
      2.93602      1.69511     10.03837        -0.088572     -0.026348     -0.083133
      5.85534      1.69511     10.03837         0.052770     -0.042686     -0.132756
     10.25423      4.23112     10.05516         0.040573     -0.026927      0.046641
      4.39568      4.22332     10.03837         0.021179      0.070564     -0.060862
      7.32851      4.23112     10.05516        -0.049791     -0.021457      0.043399
     11.72126      6.76728     10.05636        -0.011961      0.003498      0.024354
      5.86147      6.76728     10.05636         0.000947      0.004970      0.034407
      8.79137      6.76486     10.05516         0.013284      0.046847      0.024206
      0.00000      0.00000     12.42937        -0.034156     -0.040110     -0.008939
      2.95945      0.04653     12.45339        -0.072834     -0.184621     -0.164346
      5.83191      0.04653     12.45339         0.098785     -0.202270     -0.176661
      1.52003      2.53970     12.45339        -0.337247     -0.034989     -0.179093
      7.27134      2.53970     12.45339         0.369724     -0.017116     -0.213018
      2.95626      5.02732     12.45339        -0.108582      0.273854     -0.222897
      5.83511      5.02732     12.45339         0.137371      0.255201     -0.201653
      8.79137      5.07570     12.43676        -0.045470      0.046664     -0.009263
      4.39568      2.53785     12.21669        -0.040010     -0.083844      1.323842
      3.50399      2.62624     14.06084         0.006242      0.003470      0.001983
      2.68754      2.66844     14.97029        -0.004970      0.000577     -0.005269
      4.83322      2.66023     14.08825         0.019696     -0.007706     -0.023583
    total drift:                               -0.004286      0.062300     -0.059185

  FREE ENERGIE OF THE ION-ELECTRON SYSTEM (eV)
  free  energy   TOTEN  =      -118.84256580 eV

  energy  without entropy=     -118.84256580  energy(sigma->0) =     -118.84256580

 stress matrix after NEB project (eV)
     -6.77419      0.03189      0.02056
      0.03189     -6.80185     -0.14385
      0.02056     -0.14385     -0.56872
  FORCES: max atom, RMS     0.031677    0.005338
  FORCE total and by dimension    0.033335    0.023583
  Stress total and by dimension    9.618865    6.801854
|           W    W    AA    RRRRR   N    N  II  N    N   GGGG   !!!           |
|           W    W   A  A   R    R  NN   N  II  NN   N  G    G  !!!           |
|           W    W  A    A  R    R  N N  N  II  N N  N  G       !!!           |
|           W WW W  AAAAAA  RRRRR   N  N N  II  N  N N  G  GGG   !            |
|           WW  WW  A    A  R   R   N   NN  II  N   NN  G    G                |
|           W    W  A    A  R    R  N    N  II  N    N   GGGG   !!!           |
|     Tetrahedron method does not include variations of the Fermi             |
|     occupations, so forces and stress will be inaccurate. We suggest        |
|     using a different smearing scheme ISMEAR = 1 or 2 for metals in         |
|     relaxations.                                                            |

 total charge

# of ion       s       p       d       tot
    1        0.419   0.201   9.178   9.799
    2        0.417   0.204   9.176   9.797
    3        0.416   0.205   9.176   9.796
    4        0.416   0.203   9.178   9.797
    5        0.419   0.202   9.176   9.797
    6        0.416   0.203   9.177   9.797
    7        0.416   0.203   9.178   9.797
    8        0.415   0.204   9.177   9.796
    9        0.414   0.203   9.178   9.795
   10        0.408   0.269   9.165   9.841
   11        0.407   0.269   9.167   9.843
   12        0.408   0.269   9.164   9.841
   13        0.406   0.269   9.167   9.842
   14        0.405   0.270   9.168   9.843
   15        0.402   0.271   9.164   9.837
   16        0.408   0.269   9.163   9.841
   17        0.402   0.271   9.164   9.838
   18        0.402   0.271   9.164   9.838
   19        0.396   0.268   9.166   9.831
   20        0.431   0.300   9.137   9.868
   21        0.435   0.296   9.139   9.870
   22        0.393   0.277   9.163   9.833
   23        0.435   0.295   9.140   9.870
   24        0.395   0.275   9.164   9.834
   25        0.403   0.264   9.169   9.836
   26        0.404   0.264   9.168   9.835
   27        0.395   0.275   9.165   9.835
   28        0.415   0.195   9.179   9.789
   29        0.425   0.213   9.169   9.807
   30        0.427   0.211   9.167   9.804
   31        0.393   0.227   9.180   9.801
   32        0.427   0.198   9.176   9.801
   33        0.423   0.212   9.173   9.808
   34        0.422   0.209   9.172   9.803
   35        0.412   0.199   9.177   9.788
   36        0.452   0.575   3.450   4.477
   37        0.875   1.645   0.000   2.520
   38        1.598   3.512   0.000   5.110
   39        1.595   3.455   0.000   5.049
tot         18.948  17.623 324.334 360.904

 BZINTS: Fermi energy:    0.246613;  406.000000 electrons
         Band energy:-0.164869E+04;  BLOECHL correction:   -0.021979