 vasp.6.2.0 18Jan21 (build Jun 12 2021 23:27:24) complex

 executed on             LinuxIFC date 2022.05.26  20:29:00

 INCAR:
   ISMEAR = -5
   SIGMA = 0.1
   ISPIN = 1
   EDIFF = 1.d-5
   EDIFFG = -0.01
   NSW = 0
   NELM = 150
   ENCUT = 500
   ISIF = 2
   IBRION = 2
   LREAL = Auto
   ALGO = Fast
   ICHARG = 11
   LORBIT = 10
   LCHARG = .F.
   LWAVE = .F.

 POTCAR:    PAW_PBE Cu 22Jun2005
 POTCAR:    PAW_PBE W 08Apr2002
|           W    W    AA    RRRRR   N    N  II  N    N   GGGG   !!!           |
|           W    W   A  A   R    R  NN   N  II  NN   N  G    G  !!!           |
|           W    W  A    A  R    R  N N  N  II  N N  N  G       !!!           |
|           W WW W  AAAAAA  RRRRR   N  N N  II  N  N N  G  GGG   !            |
|           WW  WW  A    A  R   R   N   NN  II  N   NN  G    G                |
|           W    W  A    A  R    R  N    N  II  N    N   GGGG   !!!           |
|     For optimal performance we recommend to set                             |
|       NCORE = 2 up to number-of-cores-per-socket                            |
|     This setting can greatly improve the performance of VASP for DFT.       |
|     The default, NCORE=1 might be grossly inefficient on modern             |
|     multi-core architectures or massively parallel machines. Do your        |
|     Unfortunately you need to use the default for GW and RPA                |
|     calculations (for HF NCORE is supported but not extensively tested      |
|     yet).                                                                   |

 POTCAR:    PAW_PBE Cu 22Jun2005
   VRHFIN =Cu: d10 p1

   TITEL  = PAW_PBE Cu 22Jun2005
   POMASS =   63.546; ZVAL   =   11.000    mass and valenz
   ENMAX  =  295.446; ENMIN  =  221.585 eV

 POTCAR:    PAW_PBE W 08Apr2002
   VRHFIN =W : 6s5d

   TITEL  = PAW_PBE W 08Apr2002
   POMASS =  183.850; ZVAL   =    6.000    mass and valenz
   ENMAX  =  223.057; ENMIN  =  167.293 eV

 Optimization of the real space projectors (new method)

 maximal supplied QI-value         = 16.25
 optimisation between [QCUT,QGAM] = [ 11.38, 22.75] = [ 36.24,144.96] Ry
 Optimized for a Real-space Cutoff    1.52 Angstroem

   l    n(q)    QCUT    max X(q) W(low)/X(q) W(high)/X(q)  e(spline)
   2      9    11.376     4.610    0.21E-03    0.10E-03    0.26E-06
   2      9    11.376     8.522    0.33E-03    0.16E-03    0.37E-06
   0     10    11.376    51.609    0.62E-04    0.20E-04    0.13E-06
   0     10    11.376    27.747    0.54E-04    0.20E-04    0.13E-06
   1     10    11.376    20.408    0.13E-04    0.99E-04    0.19E-06
   1     10    11.376    13.425    0.12E-04    0.87E-04    0.17E-06
 Optimization of the real space projectors (new method)

 maximal supplied QI-value         = 13.61
 optimisation between [QCUT,QGAM] = [ 11.43, 22.86] = [ 36.58,146.31] Ry
 Optimized for a Real-space Cutoff    1.56 Angstroem

   l    n(q)    QCUT    max X(q) W(low)/X(q) W(high)/X(q)  e(spline)
   2     10    11.429   130.855    0.22E-03    0.64E-03    0.11E-05
   2     10    11.429   114.007    0.22E-03    0.64E-03    0.11E-05
   0     11    11.429    84.709    0.39E-04    0.67E-04    0.23E-06
   0     11    11.429    49.163    0.35E-04    0.62E-04    0.21E-06
   1     10    11.429    15.765    0.84E-04    0.15E-03    0.24E-06
   1     10    11.429    10.638    0.58E-04    0.12E-03    0.19E-06
  PAW_PBE Cu 22Jun2005                  :
  PAW_PBE W 08Apr2002                   :

 POSCAR: Cu-W
  positions in direct lattice
  velocities in cartesian coordinates
 exchange correlation table for  LEXCH =        8
   RHO(1)=    0.500       N(1)  =     2000
   RHO(2)=  100.500       N(2)  =     4000

 VTST: version 3.2, (02/03/18)

 CHAIN: initializing optimizer

 OPT: Using VASP Conjugate-Gradient optimizer
 CHAIN: Read ICHAIN            0

 POSCAR: Cu-W
  positions in direct lattice
  velocities in cartesian coordinates

 ion  position               nearest neighbor table
   1  0.000  0.000  0.252-   7 2.57   3 2.57   4 2.57   2 2.57   6 2.57   8 2.57  12 2.57  10 2.57
                            16 2.57
   2  0.333  0.000  0.252-   8 2.57   9 2.57   5 2.57   1 2.57   3 2.57  11 2.57   4 2.57  10 2.57
                            17 2.57
   3  0.667  0.000  0.252-   1 2.57   7 2.57   6 2.57   9 2.57   2 2.57  12 2.57   5 2.57  18 2.57
                            11 2.57
   4  0.000  0.333  0.252-   5 2.57   6 2.57   1 2.57   7 2.57   2 2.57  13 2.57   9 2.57  10 2.57
                            15 2.57
   5  0.333  0.333  0.252-   4 2.57   2 2.57   7 2.57  13 2.57   8 2.57   6 2.57   3 2.57  11 2.57
                            14 2.57
   6  0.667  0.333  0.252-   4 2.57   9 2.57  15 2.57   3 2.57   1 2.57   8 2.57  14 2.57   5 2.57
                            12 2.57
   7  0.000  0.667  0.252-   1 2.57   3 2.57  16 2.57  18 2.57   4 2.57   5 2.57   8 2.57   9 2.57
                            13 2.57
   8  0.333  0.667  0.252-   9 2.57   2 2.57  17 2.57   6 2.57   1 2.57   7 2.57   5 2.57  14 2.57
                            16 2.57
   9  0.667  0.667  0.252-   8 2.57   6 2.57   2 2.57  17 2.57   3 2.57   7 2.57   4 2.57  15 2.57
                            18 2.57
  10  0.111  0.111  0.351-  20 2.54  11 2.57  12 2.57  13 2.57   1 2.57   2 2.57   4 2.57  15 2.57
                            16 2.57  17 2.57  26 2.57  19 2.57
  11  0.444  0.111  0.351-  20 2.55  21 2.55  10 2.57  13 2.57   2 2.57  17 2.57  14 2.57  12 2.57
                             5 2.57   3 2.57  18 2.57  27 2.58
  12  0.778  0.111  0.351-  21 2.54  15 2.57  10 2.57  14 2.57  18 2.57   3 2.57   1 2.57  16 2.57
                            11 2.57   6 2.57  19 2.57  25 2.57
  13  0.111  0.444  0.351-  23 2.55  20 2.55  16 2.57  18 2.57  10 2.57  11 2.57  14 2.57   5 2.57
                             4 2.57   7 2.57  15 2.57  22 2.58
  14  0.444  0.444  0.351-  21 2.55  23 2.55  15 2.57  17 2.57  12 2.57  16 2.57  13 2.57  11 2.57
                             6 2.57   8 2.57   5 2.57  24 2.58
  15  0.778  0.444  0.351-  19 2.57  14 2.57  17 2.57  12 2.57   6 2.57  18 2.57  10 2.57   9 2.57
                            13 2.57   4 2.57  24 2.57  22 2.57
  16  0.111  0.778  0.351-  23 2.54  18 2.57  13 2.57   7 2.57  14 2.57  17 2.57  12 2.57  10 2.57
                             8 2.57   1 2.57  25 2.57  26 2.57
  17  0.444  0.778  0.351-  26 2.57  14 2.57  15 2.57   8 2.57   9 2.57  11 2.57  16 2.57  18 2.57
                            10 2.57   2 2.57  27 2.57  24 2.57
  18  0.778  0.778  0.351-  25 2.57  16 2.57  13 2.57   7 2.57  15 2.57  12 2.57  17 2.57   9 2.57
                             3 2.57  11 2.57  22 2.57  27 2.57
  19  0.889  0.223  0.449-  21 2.55  20 2.55  22 2.56  24 2.56  15 2.57  12 2.57  10 2.57  25 2.57
                            26 2.57  28 2.57  32 2.60  31 2.60
  20  0.221  0.221  0.448-  10 2.54  36 2.54  11 2.55  13 2.55  26 2.55  19 2.55  27 2.57  22 2.57
                            23 2.59  21 2.59  29 2.62  31 2.62
  21  0.558  0.221  0.448-  12 2.54  36 2.54  14 2.55  11 2.55  19 2.55  25 2.55  24 2.57  27 2.57
                            20 2.59  23 2.59  32 2.62  30 2.62
  22  0.888  0.556  0.450-  24 2.56  27 2.56  19 2.56  25 2.56  35 2.56  23 2.57  20 2.57  18 2.57
                            15 2.57  13 2.58  31 2.59  33 2.59
  23  0.221  0.558  0.448-  16 2.54  36 2.54  13 2.55  14 2.55  25 2.55  26 2.55  22 2.57  24 2.57
                            20 2.59  21 2.59  33 2.62  34 2.62
  24  0.556  0.556  0.450-  22 2.56  27 2.56  19 2.56  26 2.56  35 2.56  21 2.57  23 2.57  15 2.57
                            17 2.57  14 2.58  32 2.59  34 2.59
  25  0.889  0.889  0.449-  21 2.55  23 2.55  22 2.56  27 2.56  18 2.57  16 2.57  12 2.57  19 2.57
                            26 2.57  28 2.57  33 2.60  30 2.60
  26  0.223  0.889  0.449-  20 2.55  23 2.55  27 2.56  24 2.56  17 2.57  10 2.57  16 2.57  25 2.57
                            19 2.57  28 2.57  29 2.60  34 2.60
  27  0.556  0.888  0.450-  24 2.56  22 2.56  26 2.56  25 2.56  35 2.56  20 2.57  21 2.57  17 2.57
                            18 2.57  11 2.58  29 2.59  30 2.59
  28  0.000  0.000  0.548-  33 2.56  30 2.56  31 2.56  29 2.56  32 2.56  34 2.56  25 2.57  19 2.57
                            26 2.57
  29  0.333  1.000  0.550-  34 2.56  28 2.56  35 2.57  31 2.57  36 2.57  30 2.57  27 2.59  26 2.60
                            20 2.62
  30  0.667  1.000  0.550-  33 2.56  28 2.56  35 2.57  32 2.57  36 2.57  29 2.57  27 2.59  25 2.60
                            21 2.62
  31  1.000  0.333  0.550-  32 2.56  28 2.56  35 2.57  29 2.57  36 2.57  33 2.57  22 2.59  19 2.60
                            20 2.62
  32  0.667  0.333  0.550-  31 2.56  28 2.56  35 2.57  30 2.57  36 2.57  34 2.57  24 2.59  19 2.60
                            21 2.62
  33  1.000  0.667  0.550-  30 2.56  28 2.56  35 2.57  34 2.57  36 2.57  31 2.57  22 2.59  25 2.60
                            23 2.62
  34  0.333  0.667  0.550-  29 2.56  28 2.56  35 2.57  33 2.57  36 2.57  32 2.57  24 2.59  26 2.60
                            23 2.62
  35  0.667  0.667  0.548-  24 2.56  27 2.56  22 2.56  34 2.57  32 2.57  29 2.57  30 2.57  33 2.57
                            31 2.57
  36  0.333  0.333  0.545-  23 2.54  20 2.54  21 2.54  31 2.57  29 2.57  33 2.57  34 2.57  32 2.57
                            30 2.57

  LATTYP: Found a hexagonal cell.
 ALAT       =     7.6967864036
 C/A-ratio  =     2.7653617908

  Lattice vectors:

 A1 = (  -3.8483927580,  -6.6656128093,   0.0000000000)
 A2 = (   7.6967864037,   0.0000000000,   0.0000000000)
 A3 = (   0.0000000000,   0.0000000000,  21.2843990326)

Analysis of symmetry for initial positions (statically):
 Subroutine PRICEL returns:
 Original cell was already a primitive cell.

 Routine SETGRP: Setting up the symmetry group for a
 hexagonal supercell.

 Subroutine GETGRP returns: Found  6 space group operations
 (whereof  6 operations were pure point group operations)
 out of a pool of 24 trial point group operations.

The static configuration has the point symmetry C_3v.

Analysis of symmetry for dynamics (positions and initial velocities):
 Subroutine PRICEL returns:
 Original cell was already a primitive cell.

[...]

The dynamic configuration has the point symmetry C_3v.

Analysis of constrained symmetry for selective dynamics:
 Subroutine PRICEL returns:
 Original cell was already a primitive cell.

 Routine SETGRP: Setting up the symmetry group for a
 hexagonal supercell.

 Subroutine GETGRP returns: Found  6 space group operations
 (whereof  6 operations were pure point group operations)
 out of a pool of 24 trial point group operations.

The constrained configuration has the point symmetry C_3v.

 Subroutine INISYM returns: Found  6 space group operations
 (whereof  6 operations are pure point group operations),
 and found     1 'primitive' translations

                                     Primitive cell

  volume of cell :    1091.9705

  direct lattice vectors                    reciprocal lattice vectors
     7.696786404  0.000000000  0.000000000     0.129924354 -0.075011849  0.000000000
     3.848392758  6.665612809  0.000000000     0.000000000  0.150023716  0.000000000
[...]
     15      -4.5351      2.00000
     16      -4.5294      2.00000
     17      -4.5035      2.00000
     18      -4.4666      2.00000
     19      -4.4198      2.00000
     20      -4.3964      2.00000
     21      -4.3561      2.00000
     22      -4.3398      2.00000
     23      -4.3220      2.00000
     24      -4.2178      2.00000
     25      -4.1611      2.00000
     26      -4.1232      2.00000
     27      -4.1082      2.00000
     28      -4.0660      2.00000
     29      -4.0421      2.00000
     30      -4.0395      2.00000
     31      -4.0320      2.00000
     32      -4.0155      2.00000
     33      -4.0031      2.00000
     34      -3.9836      2.00000
     35      -3.9116      2.00000
     36      -3.8820      2.00000
     37      -3.7438      2.00000
     38      -3.7247      2.00000
     39      -3.6773      2.00000
     40      -3.6535      2.00000
     41      -3.6431      2.00000
     42      -3.6276      2.00000
     43      -3.6154      2.00000
     44      -3.6012      2.00000
     45      -3.5958      2.00000
     46      -3.4424      2.00000
     47      -3.4146      2.00000
     48      -3.4043      2.00000
     49      -3.3879      2.00000
     50      -3.3421      2.00000
     51      -3.3323      2.00000
     52      -3.3243      2.00000
     53      -3.3100      2.00000
     54      -3.3084      2.00000
     55      -3.2968      2.00000
     56      -3.2683      2.00000
     57      -3.2493      2.00000
     58      -3.2464      2.00000
     59      -3.2407      2.00000
     60      -3.2319      2.00000
[...]
    238       6.9023      0.00000
    239       6.9390      0.00000
    240       6.9986      0.00000
    241       7.0847      0.00000
    242       7.3197      0.00000
    243       7.3358      0.00000
    244       7.3830      0.00000
    245       7.4709      0.00000
    246       7.6433      0.00000
    247       7.7139      0.00000
    248       7.8971      0.00000
    249       8.0700      0.00000
    250       8.2244      0.00000
    251       8.3426      0.00000
    252       8.4889      0.00000

 soft charge-density along one line, spin component           1
         0         1         2         3         4         5         6         7         8         9
 total charge-density along one line

------------------------ aborting loop because EDIFF is reached ----------------------------------------

 total charge

# of ion       s       p       d       tot
    1        0.450   0.283   9.188   9.921
    2        0.447   0.285   9.186   9.918
    3        0.447   0.285   9.186   9.918
    4        0.447   0.285   9.186   9.918
    5        0.448   0.286   9.181   9.915
    6        0.447   0.285   9.186   9.918
    7        0.447   0.285   9.186   9.918
    8        0.447   0.285   9.186   9.918
    9        0.448   0.282   9.189   9.919
   10        0.445   0.372   9.173   9.990
   11        0.442   0.365   9.186   9.992
   12        0.445   0.372   9.173   9.990
   13        0.442   0.365   9.186   9.992
   14        0.442   0.365   9.186   9.992
   15        0.439   0.368   9.177   9.983
   16        0.445   0.372   9.173   9.990
   17        0.439   0.368   9.177   9.983
   18        0.439   0.368   9.177   9.983
   19        0.439   0.367   9.179   9.985
   20        0.469   0.410   9.151  10.030
   21        0.469   0.410   9.151  10.030
   22        0.428   0.368   9.183   9.979
   23        0.469   0.410   9.151  10.030
   24        0.428   0.368   9.183   9.979
   25        0.439   0.367   9.179   9.985
   26        0.439   0.367   9.179   9.985
   27        0.428   0.368   9.183   9.979
   28        0.446   0.290   9.178   9.914
   29        0.475   0.318   9.156   9.949
   30        0.475   0.318   9.156   9.949
   31        0.475   0.318   9.156   9.949
   32        0.475   0.318   9.156   9.949
   33        0.475   0.318   9.156   9.949
   34        0.475   0.318   9.156   9.949
   35        0.437   0.294   9.179   9.910
   36        0.681   0.438   4.010   5.129
tot         16.425  12.241 325.121 353.787

  FORCE on cell =-STRESS in cart. coord.  units (eV):
  Direction    XX          YY          ZZ          XY          YZ          ZX
  Alpha Z   876.70331   876.70331   876.70331
  Ewald  170246.74511170246.74476************     0.00035     0.00011     0.00014
  Hartree183036.49171183036.49173************     0.00002     0.00005     0.00005
  E(xc)   -2272.15700 -2272.15650 -2276.68918    -0.00042    -0.00003    -0.00005
  Local  ************************366305.50431     0.01843    -0.00056    -0.00086
  n-local  -771.96192  -756.90632  -780.07507     7.74042    -0.06345     0.22317
  augment  3312.43536  3312.45553  3337.51416    -0.01748     0.00033     0.00057
  Kinetic  3197.05288  3201.11953  3236.81611     3.03080     1.12926    -0.95181
  Fock        0.00000     0.00000     0.00000     0.00000     0.00000     0.00000
  Total      -8.28287    -8.28287    -0.89205     0.00000    -0.00000     0.00000
  in kB     -12.15291   -12.15291    -1.30885     0.00000    -0.00000     0.00000

 VOLUME and BASIS-vectors are now :
  energy-cutoff  :      500.00
  volume of cell :     1091.97
      direct lattice vectors                 reciprocal lattice vectors
     7.696786404  0.000000000  0.000000000     0.129924354 -0.075011849  0.000000000
     3.848392758  6.665612809  0.000000000     0.000000000  0.150023716  0.000000000
     0.000000000  0.000000000 21.284399033     0.000000000  0.000000000  0.046982769

  length of vectors
     7.696786404  7.696786404 21.284399033     0.150023716  0.150023716  0.046982769

 FORCES acting on ions
    electron-ion (+dipol)            ewald-force                    non-local-force                 convergence-correction
   -.416E-04 0.140E-06 0.344E+04   0.581E-04 -.428E-05 -.344E+04   -.228E-17 -.130E-17 -.257E+01   -.419E-03 -.253E-03 0.742E-01
   -.841E+00 -.379E+00 0.344E+04   0.528E+00 0.240E+00 -.343E+04   0.164E+00 0.183E+00 -.183E+01   0.146E+00 -.326E-01 -.392E-01
   0.841E+00 -.379E+00 0.344E+04   -.528E+00 0.240E+00 -.343E+04   -.164E+00 0.183E+00 -.183E+01   -.145E+00 -.300E-01 -.381E-01
   -.749E+00 -.539E+00 0.344E+04   0.472E+00 0.337E+00 -.343E+04   0.240E+00 0.509E-01 -.183E+01   0.448E-01 0.143E+00 -.392E-01
   -.617E-04 -.349E-05 0.343E+04   0.116E-03 -.101E-04 -.343E+04   -.527E-17 -.340E-17 -.122E+01   0.122E-01 0.748E-02 0.641E-01
   0.749E+00 -.539E+00 0.344E+04   -.472E+00 0.337E+00 -.343E+04   -.240E+00 0.509E-01 -.183E+01   -.465E-01 0.144E+00 -.379E-01
   0.924E-01 0.918E+00 0.344E+04   -.558E-01 -.577E+00 -.343E+04   0.762E-01 -.234E+00 -.183E+01   -.984E-01 -.111E+00 -.379E-01
   -.923E-01 0.918E+00 0.344E+04   0.555E-01 -.577E+00 -.343E+04   -.762E-01 -.234E+00 -.183E+01   0.102E+00 -.112E+00 -.378E-01
   -.144E-03 -.328E-04 0.344E+04   0.263E-03 0.204E-04 -.343E+04   -.318E-18 -.145E-17 -.224E+01   -.132E-01 -.675E-02 -.144E+00
   -.931E+00 -.537E+00 0.111E+04   0.155E+01 0.893E+00 -.111E+04   -.538E+00 -.311E+00 -.120E+01   -.950E-01 -.551E-01 -.274E+00
   -.914E-04 -.296E+01 0.110E+04   0.190E-03 0.268E+01 -.109E+04   -.132E-07 0.198E+00 0.603E-01   0.124E-01 0.158E-01 -.315E+00
   0.931E+00 -.537E+00 0.111E+04   -.155E+01 0.893E+00 -.111E+04   0.538E+00 -.311E+00 -.120E+01   0.927E-01 -.537E-01 -.273E+00
   -.256E+01 0.148E+01 0.110E+04   0.232E+01 -.134E+01 -.109E+04   0.171E+00 -.990E-01 0.603E-01   0.205E-01 0.375E-02 -.315E+00
   0.256E+01 0.148E+01 0.110E+04   -.232E+01 -.134E+01 -.109E+04   -.171E+00 -.990E-01 0.603E-01   0.359E-02 0.206E-02 -.316E+00
   -.142E-03 -.171E+01 0.110E+04   0.297E-03 0.137E+01 -.110E+04   -.117E-07 0.176E+00 -.101E+01   -.379E-02 0.145E+00 -.286E+00
   -.924E-04 0.107E+01 0.111E+04   0.186E-03 -.179E+01 -.111E+04   -.414E-07 0.622E+00 -.120E+01   -.767E-03 0.106E+00 -.273E+00
   -.148E+01 0.855E+00 0.110E+04   0.119E+01 -.686E+00 -.110E+04   0.152E+00 -.878E-01 -.101E+01   0.124E+00 -.759E-01 -.285E+00
   0.148E+01 0.855E+00 0.110E+04   -.119E+01 -.686E+00 -.110E+04   -.152E+00 -.878E-01 -.101E+01   -.123E+00 -.724E-01 -.283E+00
   -.610E-04 -.699E+01 -.123E+04   0.726E-04 0.703E+01 0.123E+04   0.312E-08 -.469E-01 0.963E+00   -.128E-01 0.499E-02 -.176E+00
   -.530E+02 -.306E+02 -.127E+04   0.544E+02 0.314E+02 0.127E+04   -.112E+01 -.645E+00 -.956E+00   -.266E+00 -.154E+00 -.470E+00
   0.530E+02 -.306E+02 -.127E+04   -.544E+02 0.314E+02 0.127E+04   0.112E+01 -.645E+00 -.956E+00   0.269E+00 -.155E+00 -.471E+00
   -.312E+02 0.180E+02 -.124E+04   0.308E+02 -.178E+02 0.124E+04   0.602E+00 -.347E+00 0.629E+00   -.174E+00 0.116E+00 -.184E+00
   -.903E-04 0.612E+02 -.127E+04   0.150E-03 -.628E+02 0.127E+04   -.859E-07 0.129E+01 -.956E+00   -.197E-03 0.310E+00 -.471E+00
   0.312E+02 0.180E+02 -.124E+04   -.308E+02 -.178E+02 0.124E+04   -.602E+00 -.347E+00 0.629E+00   0.173E+00 0.113E+00 -.184E+00
   0.605E+01 0.349E+01 -.123E+04   -.608E+01 -.351E+01 0.123E+04   0.406E-01 0.235E-01 0.963E+00   -.223E-01 -.131E-01 -.177E+00
   -.605E+01 0.349E+01 -.123E+04   0.608E+01 -.351E+01 0.123E+04   -.406E-01 0.235E-01 0.963E+00   -.892E-03 -.148E-01 -.176E+00
   -.113E-03 -.360E+02 -.124E+04   0.238E-03 0.355E+02 0.124E+04   -.463E-07 0.695E+00 0.629E+00   0.130E-01 -.209E+00 -.184E+00
   -.525E-04 0.778E-05 -.345E+04   0.460E-04 -.307E-04 0.345E+04   0.765E-17 -.575E-17 0.166E+01   -.599E-03 -.527E-03 0.813E-01
   -.510E+02 -.887E+02 -.347E+04   0.520E+02 0.901E+02 0.347E+04   -.917E+00 -.114E+01 0.478E+00   -.110E+00 -.340E+00 0.146E+00
   0.510E+02 -.887E+02 -.347E+04   -.520E+02 0.901E+02 0.347E+04   0.917E+00 -.114E+01 0.478E+00   0.111E+00 -.339E+00 0.144E+00
   -.102E+03 0.200E+00 -.347E+04   0.104E+03 -.483E-01 0.347E+04   -.144E+01 -.225E+00 0.478E+00   -.349E+00 0.745E-01 0.146E+00
   0.102E+03 0.200E+00 -.347E+04   -.104E+03 -.484E-01 0.347E+04   0.144E+01 -.225E+00 0.478E+00   0.349E+00 0.749E-01 0.145E+00
   -.513E+02 0.885E+02 -.347E+04   0.521E+02 -.901E+02 0.347E+04   -.527E+00 0.136E+01 0.478E+00   -.238E+00 0.266E+00 0.144E+00
   0.513E+02 0.885E+02 -.347E+04   -.521E+02 -.901E+02 0.347E+04   0.527E+00 0.136E+01 0.478E+00   0.240E+00 0.265E+00 0.144E+00
   -.144E-03 -.276E-04 -.346E+04   0.245E-03 0.126E-05 0.346E+04   0.273E-18 -.886E-18 0.253E+01   -.124E-01 -.598E-02 0.238E+00
   -.406E-04 -.587E-05 -.186E+04   0.757E-04 0.144E-04 0.185E+04   -.155E-17 -.403E-17 0.317E+01   0.655E-03 0.413E-03 0.107E+00
   -.230E-03 0.237E-04 0.153E+02   0.999E-13 0.219E-12 0.159E-11   0.110E-15 -.449E-15 -.113E+02   0.366E-02 0.105E-01 -.406E+01

 POSITION                                       TOTAL-FORCE (eV/Angst)
      0.00000      0.00000      5.37156         0.000000      0.000000     -0.058948
      2.56560      0.00000      5.37156        -0.003134      0.012563      0.050910
      5.13119      0.00000      5.37156         0.003134      0.012563      0.050910
      1.28280      2.22187      5.37156         0.009313     -0.008996      0.050910
      3.84839      2.22187      5.37156        -0.000000     -0.000000      0.046011
      6.41399      2.22187      5.37156        -0.009313     -0.008996      0.050910
      2.56560      4.44374      5.37156         0.012447     -0.003567      0.050910
      5.13119      4.44374      5.37156        -0.012447     -0.003567      0.050910
      7.69679      4.44374      5.37156         0.000000      0.000000      0.021467
      1.28280      0.74062      7.46636        -0.015162     -0.008754     -0.073952
      3.84839      0.74062      7.46636         0.000000     -0.067916     -0.077577
      6.41399      0.74062      7.46636         0.015162     -0.008754     -0.073952
      2.56560      2.96249      7.46636        -0.058817      0.033958     -0.077577
      5.13119      2.96249      7.46636         0.058817      0.033958     -0.077577
      7.69679      2.96249      7.46636         0.000000     -0.016836      0.011814
      3.84839      5.18437      7.46636        -0.000000      0.017508     -0.073952
      6.41399      5.18437      7.46636        -0.014580      0.008418      0.011814
      8.97958      5.18437      7.46636         0.014580      0.008418      0.011814
      7.69679      1.48345      9.56239        -0.000000      0.002917      0.003822
      2.55319      1.47409      9.53589        -0.002222     -0.001283      0.012191
      5.14360      1.47409      9.53589         0.002222     -0.001283      0.012191
      8.97438      3.70612      9.57309         0.005770     -0.003331     -0.004253
      3.84839      3.71744      9.53589        -0.000000      0.002566      0.012191
      6.41919      3.70612      9.57309        -0.005770     -0.003331     -0.004253
     10.26047      5.92389      9.56239        -0.002527     -0.001459      0.003822
      5.13310      5.92389      9.56239         0.002527     -0.001459      0.003822
      7.69679      5.91898      9.57309        -0.000000      0.006663     -0.004253
      0.00000      0.00000     11.66245         0.000000      0.000000     -0.003923
      6.40959      6.66262     11.69844        -0.001447     -0.003304      0.005875
      8.98399      6.66262     11.69844         0.001447     -0.003304      0.005875
      8.97479      2.21956     11.69844        -0.003585      0.000399      0.005875
      6.41878      2.21956     11.69844         0.003585      0.000399      0.005875
     10.26199      4.44905     11.69844        -0.002138      0.002905      0.005875
      5.13158      4.44905     11.69844         0.002138      0.002905      0.005875
      7.69679      4.44374     11.67118         0.000000      0.000000     -0.005330
      3.84839      2.22187     11.59207         0.000000      0.000000      0.043879
    total drift:                                0.003431      0.010526     -0.019850

  FREE ENERGIE OF THE ION-ELECTRON SYSTEM (eV)
  free  energy   TOTEN  =      -132.41067152 eV

  energy  without entropy=     -132.41067152  energy(sigma->0) =     -132.41067152

 stress matrix after NEB project (eV)
     -8.28287      0.00000      0.00000
      0.00000     -8.28287     -0.00000
      0.00000     -0.00000     -0.89205
  FORCES: max atom, RMS     0.043879    0.009093
  FORCE total and by dimension    0.054560    0.043879
  Stress total and by dimension   11.747659    8.282866
|           W    W    AA    RRRRR   N    N  II  N    N   GGGG   !!!           |
|           W    W   A  A   R    R  NN   N  II  NN   N  G    G  !!!           |
|           W    W  A    A  R    R  N N  N  II  N N  N  G       !!!           |
|           W WW W  AAAAAA  RRRRR   N  N N  II  N  N N  G  GGG   !            |
|           WW  WW  A    A  R   R   N   NN  II  N   NN  G    G                |
|           W    W  A    A  R    R  N    N  II  N    N   GGGG   !!!           |
|     Tetrahedron method does not include variations of the Fermi             |
|     occupations, so forces and stress will be inaccurate. We suggest        |
|     using a different smearing scheme ISMEAR = 1 or 2 for metals in         |
|     relaxations.                                                            |

 total charge

# of ion       s       p       d       tot
    1        0.450   0.283   9.188   9.921
    2        0.447   0.285   9.186   9.918
    3        0.447   0.285   9.186   9.918
    4        0.447   0.285   9.186   9.918
    5        0.448   0.286   9.181   9.915
    6        0.447   0.285   9.186   9.918
    7        0.447   0.285   9.186   9.918
    8        0.447   0.285   9.186   9.918
    9        0.448   0.282   9.189   9.919
   10        0.445   0.372   9.173   9.990
   11        0.442   0.365   9.186   9.992
   12        0.445   0.372   9.173   9.990
   13        0.442   0.365   9.186   9.992
   14        0.442   0.365   9.186   9.992
   15        0.439   0.368   9.177   9.983
   16        0.445   0.372   9.173   9.990
   17        0.439   0.368   9.177   9.983
   18        0.439   0.368   9.177   9.983
   19        0.439   0.367   9.179   9.985
   20        0.469   0.410   9.151  10.030
   21        0.469   0.410   9.151  10.030
   22        0.428   0.368   9.183   9.979
   23        0.469   0.410   9.151  10.030
   24        0.428   0.368   9.183   9.979
   25        0.439   0.367   9.179   9.985
   26        0.439   0.367   9.179   9.985
   27        0.428   0.368   9.183   9.979
   28        0.446   0.290   9.178   9.914
   29        0.475   0.318   9.156   9.949
   30        0.475   0.318   9.156   9.949
   31        0.475   0.318   9.156   9.949
   32        0.475   0.318   9.156   9.949
   33        0.475   0.318   9.156   9.949
   34        0.475   0.318   9.156   9.949
   35        0.437   0.294   9.179   9.910
   36        0.681   0.438   4.010   5.129
tot         16.425  12.241 325.121 353.787

 BZINTS: Fermi energy:    0.080315;  391.000000 electrons
         Band energy:-0.108193E+04;  BLOECHL correction:   -0.022278