 vasp.6.2.0 18Jan21 (build Jun 12 2021 23:27:24) complex

 executed on             LinuxIFC date 2022.05.30  17:22:12

 INCAR:
   ISMEAR = -5
   SIGMA = 0.1
   ISPIN = 1
   EDIFF = 1.d-5
   EDIFFG = -0.01
   NSW = 0
   NELM = 150
   ENCUT = 500
   ISIF = 2
   IBRION = 2
   LREAL = Auto
   ALGO = Fast
   ICHARG = 11
   LORBIT = 10
   LCHARG = .F.
   LWAVE = .F.

 POTCAR:    PAW_PBE Ag 02Apr2005
 POTCAR:    PAW_PBE Ru 04Feb2005
 POTCAR:    PAW_PBE O 08Apr2002
|           W    W    AA    RRRRR   N    N  II  N    N   GGGG   !!!           |
|           W    W   A  A   R    R  NN   N  II  NN   N  G    G  !!!           |
|           W    W  A    A  R    R  N N  N  II  N N  N  G       !!!           |
|           W WW W  AAAAAA  RRRRR   N  N N  II  N  N N  G  GGG   !            |
|           WW  WW  A    A  R   R   N   NN  II  N   NN  G    G                |
|           W    W  A    A  R    R  N    N  II  N    N   GGGG   !!!           |
|     For optimal performance we recommend to set                             |
|       NCORE = 2 up to number-of-cores-per-socket                            |
|     This setting can greatly improve the performance of VASP for DFT.       |
|     The default, NCORE=1 might be grossly inefficient on modern             |
|     multi-core architectures or massively parallel machines. Do your        |
|     Unfortunately you need to use the default for GW and RPA                |
|     calculations (for HF NCORE is supported but not extensively tested      |
|     yet).                                                                   |

 POTCAR:    PAW_PBE Ag 02Apr2005
   VRHFIN =Ag : s1 d10

   TITEL  = PAW_PBE Ag 02Apr2005
   POMASS =  107.868; ZVAL   =   11.000    mass and valenz
   ENMAX  =  249.844; ENMIN  =  187.383 eV

 POTCAR:    PAW_PBE Ru 04Feb2005
   VRHFIN =Ru: s1 d7

   TITEL  = PAW_PBE Ru 04Feb2005
   POMASS =  101.070; ZVAL   =    8.000    mass and valenz
   ENMAX  =  213.271; ENMIN  =  159.953 eV

 POTCAR:    PAW_PBE O 08Apr2002
   VRHFIN =O: s2p4

   TITEL  = PAW_PBE O 08Apr2002
   POMASS =   16.000; ZVAL   =    6.000    mass and valenz
   ENMAX  =  400.000; ENMIN  =  300.000 eV

 Optimization of the real space projectors (new method)

 maximal supplied QI-value         = 15.12
 optimisation between [QCUT,QGAM] = [ 11.34, 22.83] = [ 36.00,145.93] Ry
 Optimized for a Real-space Cutoff    1.43 Angstroem

   l    n(q)    QCUT    max X(q) W(low)/X(q) W(high)/X(q)  e(spline)
   2      9    11.338    53.897    0.16E-03    0.20E-03    0.28E-06
   2      9    11.338    52.416    0.16E-03    0.20E-03    0.29E-06
   0     10    11.338   122.045    0.31E-04    0.76E-04    0.15E-06
   0     10    11.338    73.629    0.30E-04    0.72E-04    0.15E-06
   1      9    11.338    15.255    0.20E-03    0.19E-04    0.17E-06
   1      9    11.338     9.562    0.16E-03    0.15E-04    0.14E-06
 Optimization of the real space projectors (new method)

[...]

   l    n(q)    QCUT    max X(q) W(low)/X(q) W(high)/X(q)  e(spline)
   2      9    11.327    61.733    0.26E-03    0.14E-03    0.16E-06
   2      9    11.327    59.886    0.26E-03    0.14E-03    0.17E-06
   0     10    11.327    23.358    0.19E-03    0.14E-04    0.46E-06
   0     10    11.327    11.320    0.15E-03    0.11E-04    0.37E-06
   1     10    11.327    14.765    0.49E-04    0.26E-03    0.24E-06
   1     10    11.327     8.283    0.37E-04    0.20E-03    0.18E-06
 Optimization of the real space projectors (new method)

 maximal supplied QI-value         = 24.76
 optimisation between [QCUT,QGAM] = [ 11.39, 22.77] = [ 36.31,145.25] Ry
 Optimized for a Real-space Cutoff    1.00 Angstroem

   l    n(q)    QCUT    max X(q) W(low)/X(q) W(high)/X(q)  e(spline)
   0      7    11.387    20.381    0.39E-03    0.13E-02    0.15E-06
   0      7    11.387    15.268    0.42E-03    0.14E-02    0.17E-06
   1      6    11.387     5.964    0.41E-03    0.11E-02    0.17E-06
   1      6    11.387     5.382    0.39E-03    0.87E-03    0.15E-06
  PAW_PBE Ag 02Apr2005                  :
  PAW_PBE Ru 04Feb2005                  :
  PAW_PBE O 08Apr2002                   :

 POSCAR: Ag-Ru-O2
  positions in direct lattice
  velocities in cartesian coordinates
 exchange correlation table for  LEXCH =        8
   RHO(1)=    0.500       N(1)  =     2000
   RHO(2)=  100.500       N(2)  =     4000

 VTST: version 3.2, (02/03/18)

 CHAIN: initializing optimizer

 OPT: Using VASP Conjugate-Gradient optimizer
 CHAIN: Read ICHAIN            0

 POSCAR: Ag-Ru-O2
  positions in direct lattice
  velocities in cartesian coordinates

 ion  position               nearest neighbor table
   1  0.000  0.000  0.217-   2 2.93   8 2.93   7 2.93   6 2.93   4 2.93  12 2.93  16 2.93  10 2.93
                             3 2.93
   2  0.333  0.000  0.217-   1 2.93   8 2.93   9 2.93   3 2.93   4 2.93   5 2.93  10 2.93  17 2.93
                            11 2.93
   3  0.667  0.000  0.217-   9 2.93   2 2.93   5 2.93  11 2.93   7 2.93  18 2.93   1 2.93   6 2.93
                            12 2.93
   4  0.000  0.333  0.217-   5 2.93   6 2.93   2 2.93   1 2.93   7 2.93  13 2.93  15 2.93   9 2.93
                            10 2.93
   5  0.333  0.333  0.217-   4 2.93   3 2.93   7 2.93   2 2.93   8 2.93  14 2.93  13 2.93  11 2.93
                             6 2.93
   6  0.667  0.333  0.217-   4 2.93   9 2.93   1 2.93  15 2.93   8 2.93  12 2.93   3 2.93   5 2.93
                            14 2.93
   7  0.000  0.667  0.217-   8 2.93   1 2.93   5 2.93   3 2.93   4 2.93  16 2.93  18 2.93  13 2.93
                             9 2.93
   8  0.333  0.667  0.217-   7 2.93   1 2.93   2 2.93   9 2.93   5 2.93  16 2.93   6 2.93  17 2.93
                            14 2.93
   9  0.667  0.667  0.217-   3 2.93   2 2.93   8 2.93   6 2.93  17 2.93   4 2.93  15 2.93   7 2.93
                            18 2.93
  10  0.111  0.111  0.315-  20 2.90  19 2.93  26 2.93  12 2.93  16 2.93  15 2.93  17 2.93  13 2.93
                            11 2.93   2 2.93   1 2.93   4 2.93
  11  0.444  0.111  0.315-  21 2.90  20 2.90  27 2.92  14 2.93  17 2.93  18 2.93   3 2.93  12 2.93
                            13 2.93  10 2.93   5 2.93   2 2.93
  12  0.778  0.111  0.315-  21 2.90  25 2.93  19 2.93  10 2.93  16 2.93  18 2.93  15 2.93  11 2.93
                             1 2.93  14 2.93   6 2.93   3 2.93
  13  0.111  0.444  0.315-  20 2.90  23 2.90  22 2.92  15 2.93  14 2.93  18 2.93  10 2.93  11 2.93
                            16 2.93   4 2.93   5 2.93   7 2.93
  14  0.444  0.444  0.315-  23 2.90  21 2.90  24 2.92  13 2.93  11 2.93  16 2.93   5 2.93  12 2.93
                            17 2.93   8 2.93  15 2.93   6 2.93
  15  0.778  0.444  0.315-  24 2.92  22 2.92  19 2.93  13 2.93  10 2.93  12 2.93  17 2.93  18 2.93
                             4 2.93   6 2.93   9 2.93  14 2.93
  16  0.111  0.778  0.315-  23 2.90  26 2.93  25 2.93  18 2.93  12 2.93  10 2.93  14 2.93  17 2.93
                            13 2.93   7 2.93   8 2.93   1 2.93
  17  0.444  0.778  0.315-  27 2.92  24 2.92  26 2.93  11 2.93  10 2.93   9 2.93  18 2.93  15 2.93
                            16 2.93   2 2.93  14 2.93   8 2.93
  18  0.778  0.778  0.315-  22 2.92  27 2.92  25 2.93  16 2.93  12 2.93  13 2.93  11 2.93  17 2.93
                            15 2.93   7 2.93   3 2.93   9 2.93
  19  0.889  0.223  0.413-  28 2.91  15 2.93  10 2.93  12 2.93  24 2.93  22 2.93  26 2.93  25 2.93
                            20 2.94  21 2.94  32 2.94  31 2.94
  20  0.223  0.223  0.412-  36 2.77  13 2.90  11 2.90  10 2.90  21 2.92  23 2.92  31 2.92  29 2.92
                            27 2.93  22 2.93  19 2.94  26 2.94
  21  0.555  0.223  0.412-  36 2.77  11 2.90  14 2.90  12 2.90  20 2.92  23 2.92  30 2.92  32 2.92
                            27 2.93  24 2.93  25 2.94  19 2.94
  22  0.888  0.556  0.413-  35 2.91  18 2.92  15 2.92  13 2.92  33 2.92  31 2.92  24 2.92  27 2.92
                            25 2.93  19 2.93  23 2.93  20 2.93
  23  0.223  0.555  0.412-  36 2.77  14 2.90  13 2.90  16 2.90  21 2.92  20 2.92  34 2.92  33 2.92
                            22 2.93  24 2.93  26 2.94  25 2.94
  24  0.556  0.556  0.413-  35 2.91  15 2.92  17 2.92  14 2.92  32 2.92  34 2.92  27 2.92  22 2.92
                            19 2.93  26 2.93  23 2.93  21 2.93
  25  0.889  0.889  0.413-  28 2.91  18 2.93  16 2.93  12 2.93  22 2.93  27 2.93  26 2.93  19 2.93
                            23 2.94  21 2.94  33 2.94  30 2.94
  26  0.223  0.889  0.413-  28 2.91  17 2.93  16 2.93  10 2.93  27 2.93  24 2.93  25 2.93  19 2.93
                            23 2.94  20 2.94  34 2.94  29 2.94
  27  0.556  0.888  0.413-  35 2.91  17 2.92  18 2.92  11 2.92  29 2.92  30 2.92  24 2.92  22 2.92
                            26 2.93  25 2.93  20 2.93  21 2.93
  28  0.000  0.000  0.510-  26 2.91  25 2.91  19 2.91  29 2.95  34 2.95  33 2.95  32 2.95  31 2.95
                            30 2.95
  29  0.333  0.006  0.511-  31 2.88  30 2.88  36 2.89  20 2.92  27 2.92  26 2.94  28 2.95  35 2.96
                            34 3.03
  30  0.661  0.006  0.511-  32 2.88  29 2.88  36 2.89  21 2.92  27 2.92  25 2.94  28 2.95  35 2.96
                            33 3.03
  31  0.006  0.333  0.511-  37 2.76  29 2.88  33 2.88  36 2.89  20 2.92  22 2.92  19 2.94  28 2.95
                            35 2.96  32 3.03
  32  0.661  0.333  0.511-  38 2.76  30 2.88  34 2.88  36 2.89  21 2.92  24 2.92  19 2.94  28 2.95
                            35 2.96  31 3.03
  33  0.006  0.661  0.511-  34 2.88  31 2.88  36 2.89  23 2.92  22 2.92  25 2.94  28 2.95  35 2.96
                            30 3.03
  34  0.333  0.661  0.511-  33 2.88  32 2.88  36 2.89  23 2.92  24 2.92  26 2.94  28 2.95  35 2.96
                            29 3.03
  35  0.667  0.667  0.510-  24 2.91  27 2.91  22 2.91  30 2.96  32 2.96  29 2.96  34 2.96  31 2.96
                            33 2.96
  36  0.333  0.333  0.502-  38 2.03  37 2.03  21 2.77  20 2.77  23 2.77  31 2.89  30 2.89  33 2.89
                            29 2.89  34 2.89  32 2.89
  37  0.255  0.331  0.580-  38 1.40  36 2.03  31 2.76
  38  0.414  0.331  0.580-  37 1.40  36 2.03  32 2.76

  LATTYP: Found a hexagonal cell.
 ALAT       =     8.7913665772
 C/A-ratio  =     2.7711238095

  Lattice vectors:

 A1 = (  -4.3956832886,  -7.6135467898,   0.0000000000)
 A2 = (   8.7913665771,   0.0000000000,   0.0000000000)
 A3 = (   0.0000000000,   0.0000000000,  24.3619652401)

Analysis of symmetry for initial positions (statically):
 Subroutine PRICEL returns:
 Original cell was already a primitive cell.

 Routine SETGRP: Setting up the symmetry group for a
 hexagonal supercell.

 Subroutine GETGRP returns: Found  2 space group operations
 (whereof  2 operations were pure point group operations)
 out of a pool of 24 trial point group operations.

The static configuration has the point symmetry C_1h.

Analysis of symmetry for dynamics (positions and initial velocities):
 Subroutine PRICEL returns:
 Original cell was already a primitive cell.

[...]

The dynamic configuration has the point symmetry C_1h.

Analysis of constrained symmetry for selective dynamics:
 Subroutine PRICEL returns:
 Original cell was already a primitive cell.

 Routine SETGRP: Setting up the symmetry group for a
[...]
     33      -5.0396      2.00000
     34      -5.0144      2.00000
     35      -5.0111      2.00000
     36      -4.9964      2.00000
     37      -4.9570      2.00000
     38      -4.9091      2.00000
     39      -4.8904      2.00000
     40      -4.8723      2.00000
     41      -4.8639      2.00000
     42      -4.8396      2.00000
     43      -4.8119      2.00000
     44      -4.8070      2.00000
     45      -4.7848      2.00000
     46      -4.7789      2.00000
     47      -4.7667      2.00000
     48      -4.6907      2.00000
     49      -4.6644      2.00000
     50      -4.6549      2.00000
     51      -4.6435      2.00000
     52      -4.6387      2.00000
     53      -4.6378      2.00000
     54      -4.6220      2.00000
     55      -4.6189      2.00000
     56      -4.6097      2.00000
     57      -4.6016      2.00000
     58      -4.5282      2.00000
     59      -4.5212      2.00000
     60      -4.5140      2.00000
[...]
    238       5.5877      0.00000
    239       5.6968      0.00000
    240       5.7584      0.00000
    241       5.8563      0.00000
    242       5.9471      0.00000
    243       5.9543      0.00000
    244       6.2910      0.00000
    245       6.5114      0.00000
    246       6.5145      0.00000
    247       6.6813      0.00000
    248       6.6936      0.00000
    249       6.7552      0.00000
    250       6.7840      0.00000
    251       6.8483      0.00000
    252       6.9000      0.00000

 soft charge-density along one line, spin component           1
         0         1         2         3         4         5         6         7         8         9
 total charge-density along one line

------------------------ aborting loop because EDIFF is reached ----------------------------------------

 total charge

# of ion       s       p       d       tot
    1        0.417   0.202   9.178   9.797
    2        0.417   0.203   9.178   9.798
    3        0.417   0.203   9.178   9.798
    4        0.417   0.203   9.177   9.798
    5        0.417   0.204   9.175   9.796
    6        0.417   0.203   9.177   9.798
    7        0.418   0.203   9.177   9.797
    8        0.418   0.203   9.177   9.797
    9        0.413   0.203   9.179   9.795
   10        0.408   0.268   9.163   9.839
   11        0.409   0.267   9.168   9.844
   12        0.408   0.268   9.163   9.839
   13        0.408   0.268   9.168   9.844
   14        0.408   0.268   9.168   9.844
   15        0.401   0.270   9.165   9.836
   16        0.406   0.270   9.164   9.839
   17        0.401   0.270   9.166   9.836
   18        0.401   0.270   9.166   9.836
   19        0.400   0.265   9.170   9.835
   20        0.430   0.292   9.148   9.870
   21        0.430   0.292   9.148   9.870
   22        0.395   0.275   9.166   9.835
   23        0.424   0.302   9.143   9.869
   24        0.395   0.275   9.166   9.835
   25        0.402   0.267   9.166   9.835
   26        0.402   0.267   9.166   9.835
   27        0.395   0.272   9.169   9.836
   28        0.418   0.195   9.181   9.794
   29        0.408   0.207   9.181   9.796
   30        0.408   0.207   9.181   9.796
   31        0.403   0.210   9.185   9.797
   32        0.403   0.210   9.185   9.797
   33        0.408   0.207   9.182   9.796
   34        0.408   0.207   9.182   9.796
   35        0.411   0.198   9.181   9.790
   36        0.478   0.539   6.591   7.608
   37        1.605   3.260   0.000   4.865
   38        1.605   3.260   0.000   4.865
tot         18.028  15.451 327.576 361.055

  FORCE on cell =-STRESS in cart. coord.  units (eV):
  Direction    XX          YY          ZZ          XY          YZ          ZX
  Alpha Z   697.93367   697.93367   697.93367
  Ewald  154630.52636154229.64702************     0.00006     0.19462     0.00008
  Hartree164660.59110164463.83921************     0.00002     0.63825     0.00003
  E(xc)   -2125.52980 -2126.81240 -2131.10177    -0.00002    -0.07111     0.00000
  Local  ************************330098.16805     0.00111    -1.23893    -0.00022
  n-local  -355.36535  -362.79136  -362.13355     2.78571     0.20220     0.14086
  augment  3275.21992  3283.22709  3285.26193    -0.00016     0.18755    -0.00000
  Kinetic  5097.11042  5151.75394  5140.71826     1.39551     0.35751     0.01274
  Fock        0.00000     0.00000     0.00000     0.00000     0.00000     0.00000
  Total      -5.72283    -7.03406    -0.42789    -0.00000     0.27009     0.00000
  in kB      -5.62297    -6.91132    -0.42043    -0.00000     0.26538     0.00000

 VOLUME and BASIS-vectors are now :
  energy-cutoff  :      500.00
  volume of cell :     1630.63
      direct lattice vectors                 reciprocal lattice vectors
     8.791366577  0.000000000  0.000000000     0.113747958 -0.065672414  0.000000000
     4.395683289  7.613546790  0.000000000     0.000000000  0.131344829  0.000000000
     0.000000000  0.000000000 24.361965240     0.000000000  0.000000000  0.041047592

  length of vectors
     8.791366577  8.791366577 24.361965240     0.131344829  0.131344829  0.041047592

 FORCES acting on ions
    electron-ion (+dipol)            ewald-force                    non-local-force                 convergence-correction
   0.461E-04 -.836E-02 0.271E+04   -.954E-04 -.282E-01 -.271E+04   0.232E-12 0.353E-01 -.231E+01   -.106E-03 -.169E-02 -.908E-01
   0.464E+00 0.574E+00 0.271E+04   -.464E+00 -.633E+00 -.271E+04   0.225E-02 0.768E-01 -.161E+01   0.701E-02 -.197E-02 -.689E-01
   -.464E+00 0.574E+00 0.271E+04   0.464E+00 -.633E+00 -.271E+04   -.225E-02 0.768E-01 -.161E+01   -.756E-02 -.478E-04 -.682E-01
   0.583E+00 0.314E-01 0.271E+04   -.757E+00 -.943E-01 -.271E+04   0.145E+00 0.955E-02 -.164E+01   0.371E-01 0.490E-01 -.110E+00
   -.785E-05 -.665E-02 0.271E+04   0.981E-04 0.561E-02 -.271E+04   0.217E-14 0.331E-03 -.143E+01   0.624E-02 0.637E-03 -.370E-01
   -.583E+00 0.314E-01 0.271E+04   0.757E+00 -.943E-01 -.271E+04   -.145E+00 0.955E-02 -.164E+01   -.385E-01 0.500E-01 -.109E+00
   0.367E+00 -.599E+00 0.271E+04   -.291E+00 0.728E+00 -.271E+04   -.623E-02 -.103E+00 -.163E+01   -.470E-01 -.356E-01 -.882E-01
   -.367E+00 -.599E+00 0.271E+04   0.291E+00 0.727E+00 -.271E+04   0.623E-02 -.103E+00 -.163E+01   0.486E-01 -.366E-01 -.881E-01
   0.362E-04 -.930E-02 0.271E+04   0.792E-04 0.227E-01 -.271E+04   0.461E-13 0.703E-02 -.204E+01   -.666E-02 -.207E-01 -.105E+00
   0.537E+01 0.327E+01 0.955E+03   -.496E+01 -.306E+01 -.955E+03   -.440E+00 -.221E+00 -.784E+00   0.340E-01 0.643E-02 0.114E+00
   -.269E-04 0.623E+01 0.963E+03   0.413E-04 -.643E+01 -.963E+03   0.104E-11 0.158E+00 -.330E+00   0.628E-02 -.102E-01 0.120E+00
   -.537E+01 0.327E+01 0.955E+03   0.496E+01 -.306E+01 -.955E+03   0.440E+00 -.221E+00 -.784E+00   -.356E-01 0.750E-02 0.113E+00
   0.524E+01 -.321E+01 0.963E+03   -.538E+01 0.328E+01 -.963E+03   0.114E+00 -.764E-01 -.319E+00   -.505E-02 0.224E-01 0.125E+00
   -.524E+01 -.321E+01 0.963E+03   0.538E+01 0.328E+01 -.963E+03   -.114E+00 -.764E-01 -.319E+00   0.157E-01 0.215E-01 0.124E+00
   0.161E-04 0.314E+00 0.955E+03   -.109E-03 -.370E+00 -.955E+03   0.232E-13 0.354E-02 -.827E+00   -.164E-02 0.374E-01 0.552E-01
   -.833E-05 -.624E+01 0.955E+03   0.206E-04 0.574E+01 -.954E+03   0.343E-11 0.523E+00 -.907E+00   0.120E-03 -.465E-01 0.906E-01
   0.385E+00 -.236E+00 0.955E+03   -.457E+00 0.303E+00 -.954E+03   0.322E-01 -.438E-01 -.672E+00   0.252E-01 -.115E-01 0.745E-01
   -.385E+00 -.236E+00 0.955E+03   0.457E+00 0.303E+00 -.954E+03   -.322E-01 -.438E-01 -.672E+00   -.252E-01 -.964E-02 0.752E-01
   0.408E-04 0.236E+01 -.830E+03   -.129E-03 -.248E+01 0.829E+03   0.930E-12 0.142E+00 0.786E+00   -.377E-03 -.206E-01 0.151E+00
   0.178E+02 0.114E+02 -.786E+03   -.166E+02 -.107E+02 0.787E+03   -.128E+01 -.836E+00 -.132E+01   0.115E+00 0.570E-01 0.219E+00
   -.178E+02 0.114E+02 -.786E+03   0.166E+02 -.107E+02 0.787E+03   0.128E+01 -.836E+00 -.132E+01   -.115E+00 0.573E-01 0.218E+00
   0.847E+01 -.628E+01 -.819E+03   -.868E+01 0.643E+01 0.819E+03   0.187E+00 -.162E+00 0.567E+00   0.698E-01 -.218E-01 0.123E+00
   -.519E-04 -.226E+02 -.788E+03   0.440E-04 0.210E+02 0.789E+03   0.108E-10 0.164E+01 -.122E+01   0.619E-03 -.135E+00 0.263E+00
   -.847E+01 -.628E+01 -.819E+03   0.868E+01 0.643E+01 0.819E+03   -.187E+00 -.162E+00 0.567E+00   -.698E-01 -.219E-01 0.123E+00
   -.160E+01 -.131E+00 -.832E+03   0.162E+01 0.133E+00 0.831E+03   -.415E-01 -.549E-02 0.728E+00   0.782E-03 0.171E-02 0.179E+00
   0.160E+01 -.131E+00 -.832E+03   -.162E+01 0.133E+00 0.831E+03   0.415E-01 -.549E-02 0.728E+00   -.794E-03 0.113E-02 0.179E+00
   0.200E-04 0.989E+01 -.821E+03   0.110E-03 -.104E+02 0.820E+03   0.291E-11 0.442E+00 0.650E+00   -.402E-03 0.680E-01 0.122E+00
   0.543E-04 0.552E+01 -.261E+04   -.117E-03 -.554E+01 0.260E+04   -.178E-13 -.271E-02 0.191E+01   0.110E-03 0.393E-02 0.544E-01
   0.374E+02 0.788E+02 -.257E+04   -.370E+02 -.789E+02 0.257E+04   -.448E+00 -.139E+00 0.242E+01   -.358E-01 0.380E-02 -.639E-01
   -.374E+02 0.788E+02 -.257E+04   0.370E+02 -.789E+02 0.257E+04   0.448E+00 -.139E+00 0.242E+01   0.351E-01 0.513E-02 -.640E-01
   0.959E+02 -.974E+00 -.256E+04   -.963E+02 0.119E+01 0.255E+04   -.156E+00 -.162E+00 0.279E+01   0.733E-01 -.340E-01 -.642E-01
   -.959E+02 -.974E+00 -.256E+04   0.963E+02 0.119E+01 0.255E+04   0.156E+00 -.162E+00 0.279E+01   -.738E-01 -.331E-01 -.643E-01
   0.359E+02 -.766E+02 -.258E+04   -.358E+02 0.765E+02 0.257E+04   -.257E+00 0.297E+00 0.238E+01   0.870E-02 0.363E-02 -.996E-01
   -.359E+02 -.766E+02 -.258E+04   0.358E+02 0.765E+02 0.257E+04   0.257E+00 0.297E+00 0.238E+01   -.729E-02 0.316E-02 -.997E-01
   0.197E-04 -.477E+01 -.261E+04   0.107E-03 0.464E+01 0.261E+04   0.716E-12 0.109E+00 0.202E+01   -.651E-02 0.246E-01 0.645E-01
   -.342E-05 -.313E+01 -.156E+04   0.767E-04 0.304E+01 0.156E+04   0.166E-11 0.253E+00 -.679E+00   0.175E-02 0.194E-01 -.331E+00
   0.219E+03 -.224E+00 -.173E+04   -.255E+03 0.186E+00 0.175E+04   0.356E+02 0.412E-01 -.167E+02   -.161E+00 0.956E-03 -.973E-01
   -.219E+03 -.224E+00 -.173E+04   0.255E+03 0.186E+00 0.175E+04   -.356E+02 0.412E-01 -.167E+02   0.162E+00 0.103E-02 -.978E-01
   0.685E-03 -.608E+00 0.350E+02   0.853E-13 -.137E-12 0.932E-11   0.433E-11 0.660E+00 -.359E+02   0.867E-02 0.501E-02 0.839E+00

 POSITION                                       TOTAL-FORCE (eV/Angst)
      0.00000      0.00000      5.28219        -0.000000     -0.004351     -0.007344
      2.93046      0.00000      5.28219         0.009457      0.015201      0.033801
      5.86091      0.00000      5.28219        -0.009457      0.015201      0.033801
      1.46523      2.53785      5.28219         0.008873     -0.005376      0.034170
      4.39568      2.53785      5.28219        -0.000000     -0.001572      0.009753
      7.32614      2.53785      5.28219        -0.008873     -0.005376      0.034170
      2.93046      5.07570      5.28219         0.021488     -0.012032      0.033485
      5.86091      5.07570      5.28219        -0.021488     -0.012032      0.033485
      8.79137      5.07570      5.28219        -0.000000     -0.001786      0.017322
      1.46523      0.84595      7.67490         0.007722     -0.000210     -0.016766
      4.39568      0.84595      7.67490        -0.000000     -0.055404     -0.100691
      7.32614      0.84595      7.67490        -0.007722     -0.000210     -0.016766
      2.93046      3.38380      7.67490        -0.041522      0.022843     -0.080725
      5.86091      3.38380      7.67490         0.041522      0.022843     -0.080725
      8.79137      3.38380      7.67490        -0.000000     -0.016405      0.003263
      4.39568      5.92165      7.67490        -0.000000     -0.019950      0.006887
      7.32614      5.92165      7.67490        -0.013796      0.010908      0.011780
     10.25659      5.92165      7.67490         0.013796      0.010908      0.011780
      8.79137      1.69450     10.06282         0.000000      0.003911      0.026533
      2.93652      1.69540     10.03056        -0.052209     -0.049779     -0.129964
      5.85484      1.69540     10.03056         0.052209     -0.049779     -0.129964
     10.25378      4.23137     10.05553         0.051838     -0.027884      0.010597
      4.39568      4.22274     10.03056        -0.000000     -0.013440     -0.083953
      7.32895      4.23137     10.05553        -0.051838     -0.027884      0.010597
     11.71957      6.76630     10.06282        -0.016863     -0.003312      0.015313
      5.86316      6.76630     10.06282         0.016863     -0.003312      0.015313
      8.79137      6.76435     10.05553         0.000000      0.024887     -0.003172
      0.00000      0.00000     12.42400        -0.000000     -0.021812      0.028254
      2.95387      0.04433     12.43748        -0.114644     -0.226051     -0.127942
      5.83749      0.04433     12.43748         0.114644     -0.226051     -0.127942
      1.51533      2.53597     12.43748        -0.446365      0.017781     -0.270910
      7.27604      2.53597     12.43748         0.446365      0.017781     -0.270910
      2.95713      5.03325     12.43748        -0.123048      0.215816     -0.107327
      5.83423      5.03325     12.43748         0.123048      0.215816     -0.107327
      8.79137      5.07570     12.42069         0.000000      0.005757      0.027836
      4.39568      2.53785     12.23056         0.000000      0.178752      1.307564
      3.69649      2.51844     14.13159        -0.021886      0.002800     -0.021639
      5.09487      2.51844     14.13159         0.021886      0.002800     -0.021639
    total drift:                                0.009359      0.056984     -0.037329

  FREE ENERGIE OF THE ION-ELECTRON SYSTEM (eV)
  free  energy   TOTEN  =      -106.95613045 eV

  energy  without entropy=     -106.95613045  energy(sigma->0) =     -106.95613045

 stress matrix after NEB project (eV)
     -5.72283     -0.00000      0.00000
     -0.00000     -7.03406      0.27009
      0.00000      0.27009     -0.42789
  FORCES: max atom, RMS     0.030905    0.007090
  FORCE total and by dimension    0.043706    0.021886
  Stress total and by dimension    9.086131    7.034056
|           W    W    AA    RRRRR   N    N  II  N    N   GGGG   !!!           |
|           W    W   A  A   R    R  NN   N  II  NN   N  G    G  !!!           |
|           W    W  A    A  R    R  N N  N  II  N N  N  G       !!!           |
|           W WW W  AAAAAA  RRRRR   N  N N  II  N  N N  G  GGG   !            |
|           WW  WW  A    A  R   R   N   NN  II  N   NN  G    G                |
|           W    W  A    A  R    R  N    N  II  N    N   GGGG   !!!           |
|     Tetrahedron method does not include variations of the Fermi             |
|     occupations, so forces and stress will be inaccurate. We suggest        |
|     using a different smearing scheme ISMEAR = 1 or 2 for metals in         |
|     relaxations.                                                            |

 total charge

# of ion       s       p       d       tot
    1        0.417   0.202   9.178   9.797
    2        0.417   0.203   9.178   9.798
    3        0.417   0.203   9.178   9.798
    4        0.417   0.203   9.177   9.798
    5        0.417   0.204   9.175   9.796
    6        0.417   0.203   9.177   9.798
    7        0.418   0.203   9.177   9.797
    8        0.418   0.203   9.177   9.797
    9        0.413   0.203   9.179   9.795
   10        0.408   0.268   9.163   9.839
   11        0.409   0.267   9.168   9.844
   12        0.408   0.268   9.163   9.839
   13        0.408   0.268   9.168   9.844
   14        0.408   0.268   9.168   9.844
   15        0.401   0.270   9.165   9.836
   16        0.406   0.270   9.164   9.839
   17        0.401   0.270   9.166   9.836
   18        0.401   0.270   9.166   9.836
   19        0.400   0.265   9.170   9.835
   20        0.430   0.292   9.148   9.870
   21        0.430   0.292   9.148   9.870
   22        0.395   0.275   9.166   9.835
   23        0.424   0.302   9.143   9.869
   24        0.395   0.275   9.166   9.835
   25        0.402   0.267   9.166   9.835
   26        0.402   0.267   9.166   9.835
   27        0.395   0.272   9.169   9.836
   28        0.418   0.195   9.181   9.794
   29        0.408   0.207   9.181   9.796
   30        0.408   0.207   9.181   9.796
   31        0.403   0.210   9.185   9.797
   32        0.403   0.210   9.185   9.797
   33        0.408   0.207   9.182   9.796
   34        0.408   0.207   9.182   9.796
   35        0.411   0.198   9.181   9.790
   36        0.478   0.539   6.591   7.608
   37        1.605   3.260   0.000   4.865
   38        1.605   3.260   0.000   4.865
tot         18.028  15.451 327.576 361.055

 BZINTS: Fermi energy:    0.329292;  405.000000 electrons
         Band energy:-0.156944E+04;  BLOECHL correction:   -0.038318