 vasp.6.2.0 18Jan21 (build Jun 12 2021 23:27:24) complex

 executed on             LinuxIFC date 2022.05.27  05:31:02

 INCAR:
   ISMEAR = -5
   SIGMA = 0.1
   ISPIN = 1
   EDIFF = 1.d-5
   EDIFFG = -0.01
   NSW = 0
   NELM = 150
   ENCUT = 500
   ISIF = 2
   IBRION = 2
   LREAL = Auto
   ALGO = Fast
   ICHARG = 11
   LORBIT = 10
   LCHARG = .F.
   LWAVE = .F.

 POTCAR:    PAW_PBE Ag 02Apr2005
 POTCAR:    PAW_PBE Fe 06Sep2000
 POTCAR:    PAW_PBE H 15Jun2001
|           W    W    AA    RRRRR   N    N  II  N    N   GGGG   !!!           |
|           W    W   A  A   R    R  NN   N  II  NN   N  G    G  !!!           |
|           W    W  A    A  R    R  N N  N  II  N N  N  G       !!!           |
|           W WW W  AAAAAA  RRRRR   N  N N  II  N  N N  G  GGG   !            |
|           WW  WW  A    A  R   R   N   NN  II  N   NN  G    G                |
|           W    W  A    A  R    R  N    N  II  N    N   GGGG   !!!           |
|     For optimal performance we recommend to set                             |
|       NCORE = 2 up to number-of-cores-per-socket                            |
|     This setting can greatly improve the performance of VASP for DFT.       |
|     The default, NCORE=1 might be grossly inefficient on modern             |
|     multi-core architectures or massively parallel machines. Do your        |
|     Unfortunately you need to use the default for GW and RPA                |
|     calculations (for HF NCORE is supported but not extensively tested      |
|     yet).                                                                   |

 POTCAR:    PAW_PBE Ag 02Apr2005
   VRHFIN =Ag : s1 d10

   TITEL  = PAW_PBE Ag 02Apr2005
   POMASS =  107.868; ZVAL   =   11.000    mass and valenz
   ENMAX  =  249.844; ENMIN  =  187.383 eV

 POTCAR:    PAW_PBE Fe 06Sep2000
   VRHFIN =Fe:  d7 s1

   TITEL  = PAW_PBE Fe 06Sep2000
   POMASS =   55.847; ZVAL   =    8.000    mass and valenz
   ENMAX  =  267.882; ENMIN  =  200.911 eV

 POTCAR:    PAW_PBE H 15Jun2001
   VRHFIN =H: ultrasoft test

   TITEL  = PAW_PBE H 15Jun2001
   POMASS =    1.000; ZVAL   =    1.000    mass and valenz
   ENMAX  =  250.000; ENMIN  =  200.000 eV

 Optimization of the real space projectors (new method)

 maximal supplied QI-value         = 15.12
 optimisation between [QCUT,QGAM] = [ 11.34, 22.83] = [ 36.00,145.93] Ry
 Optimized for a Real-space Cutoff    1.43 Angstroem

   l    n(q)    QCUT    max X(q) W(low)/X(q) W(high)/X(q)  e(spline)
   2      9    11.338    53.897    0.16E-03    0.20E-03    0.28E-06
   2      9    11.338    52.416    0.16E-03    0.20E-03    0.29E-06
   0     10    11.338   122.045    0.31E-04    0.76E-04    0.15E-06
   0     10    11.338    73.629    0.30E-04    0.72E-04    0.15E-06
   1      9    11.338    15.255    0.20E-03    0.19E-04    0.17E-06
   1      9    11.338     9.562    0.16E-03    0.15E-04    0.14E-06
 Optimization of the real space projectors (new method)

[...]

   l    n(q)    QCUT    max X(q) W(low)/X(q) W(high)/X(q)  e(spline)
   2      8    11.376    80.901    0.45E-03    0.44E-04    0.21E-06
   2      8    11.376    75.754    0.45E-03    0.45E-04    0.22E-06
   0      9    11.376    58.752    0.65E-04    0.95E-04    0.17E-06
   0      9    11.376    30.679    0.59E-04    0.87E-04    0.16E-06
   1      9    11.376    17.977    0.38E-03    0.10E-03    0.14E-06
   1      9    11.376    13.559    0.31E-03    0.90E-04    0.12E-06
 Optimization of the real space projectors (new method)

 maximal supplied QI-value         = 34.20
 optimisation between [QCUT,QGAM] = [ 11.29, 22.57] = [ 35.68,142.71] Ry
 Optimized for a Real-space Cutoff    1.16 Angstroem

   l    n(q)    QCUT    max X(q) W(low)/X(q) W(high)/X(q)  e(spline)
   0      8    11.287    19.460    0.40E-03    0.73E-03    0.16E-06
   0      8    11.287    12.209    0.38E-03    0.70E-03    0.15E-06
   1      7    11.287     4.655    0.22E-03    0.25E-04    0.22E-06
  PAW_PBE Ag 02Apr2005                  :
  PAW_PBE Fe 06Sep2000                  :
  PAW_PBE H 15Jun2001                   :

 POSCAR: Ag-Fe-H2
  positions in direct lattice
  velocities in cartesian coordinates
 exchange correlation table for  LEXCH =        8
   RHO(1)=    0.500       N(1)  =     2000
   RHO(2)=  100.500       N(2)  =     4000

 VTST: version 3.2, (02/03/18)

 CHAIN: initializing optimizer

 OPT: Using VASP Conjugate-Gradient optimizer
 CHAIN: Read ICHAIN            0

 POSCAR: Ag-Fe-H2
  positions in direct lattice
  velocities in cartesian coordinates

 ion  position               nearest neighbor table
   1  0.000  0.000  0.238-   2 2.93   8 2.93   7 2.93   6 2.93   4 2.93  12 2.93  16 2.93  10 2.93
                             3 2.93
   2  0.333  0.000  0.238-   1 2.93   8 2.93   9 2.93   3 2.93   4 2.93   5 2.93  10 2.93  17 2.93
                            11 2.93
   3  0.667  0.000  0.238-   9 2.93   2 2.93   5 2.93  11 2.93   7 2.93  18 2.93   1 2.93   6 2.93
                            12 2.93
   4  0.000  0.333  0.238-   5 2.93   6 2.93   2 2.93   1 2.93   7 2.93  13 2.93  15 2.93   9 2.93
                            10 2.93
   5  0.333  0.333  0.238-   4 2.93   3 2.93   7 2.93   2 2.93   8 2.93  14 2.93  13 2.93  11 2.93
                             6 2.93
   6  0.667  0.333  0.238-   4 2.93   9 2.93   1 2.93  15 2.93   8 2.93  12 2.93   3 2.93   5 2.93
                            14 2.93
   7  0.000  0.667  0.238-   8 2.93   1 2.93   5 2.93   3 2.93   4 2.93  16 2.93  18 2.93  13 2.93
                             9 2.93
   8  0.333  0.667  0.238-   7 2.93   1 2.93   2 2.93   9 2.93   5 2.93  16 2.93   6 2.93  17 2.93
                            14 2.93
   9  0.667  0.667  0.238-   3 2.93   2 2.93   8 2.93   6 2.93  17 2.93   4 2.93  15 2.93   7 2.93
                            18 2.93
  10  0.111  0.111  0.346-  20 2.92  19 2.93  26 2.93  12 2.93  16 2.93  15 2.93  17 2.93  13 2.93
                            11 2.93   2 2.93   1 2.93   4 2.93
  11  0.444  0.111  0.346-  21 2.90  20 2.90  27 2.92  14 2.93  17 2.93  18 2.93   3 2.93  12 2.93
                            13 2.93  10 2.93   5 2.93   2 2.93
  12  0.778  0.111  0.346-  21 2.92  25 2.93  19 2.93  10 2.93  16 2.93  18 2.93  15 2.93  11 2.93
                             1 2.93  14 2.93   6 2.93   3 2.93
  13  0.111  0.444  0.346-  20 2.90  23 2.90  22 2.92  15 2.93  14 2.93  18 2.93  10 2.93  11 2.93
                            16 2.93   4 2.93   5 2.93   7 2.93
  14  0.444  0.444  0.346-  23 2.90  21 2.90  24 2.92  13 2.93  11 2.93  16 2.93   5 2.93  12 2.93
                            17 2.93   8 2.93  15 2.93   6 2.93
  15  0.778  0.444  0.346-  24 2.92  22 2.92  19 2.93  13 2.93  10 2.93  12 2.93  17 2.93  18 2.93
                             4 2.93   6 2.93   9 2.93  14 2.93
  16  0.111  0.778  0.346-  23 2.92  26 2.93  25 2.93  18 2.93  12 2.93  10 2.93  14 2.93  17 2.93
                            13 2.93   7 2.93   8 2.93   1 2.93
  17  0.444  0.778  0.346-  27 2.92  24 2.92  26 2.93  11 2.93  10 2.93   9 2.93  18 2.93  15 2.93
                            16 2.93   2 2.93  14 2.93   8 2.93
  18  0.778  0.778  0.346-  22 2.92  27 2.92  25 2.93  16 2.93  12 2.93  13 2.93  11 2.93  17 2.93
                            15 2.93   7 2.93   3 2.93   9 2.93
  19  0.889  0.222  0.454-  28 2.91  15 2.93  10 2.93  12 2.93  24 2.93  22 2.93  26 2.93  25 2.93
                            20 2.94  21 2.94  32 2.94  31 2.94
  20  0.223  0.223  0.453-  36 2.70  31 2.89  29 2.89  13 2.90  11 2.90  21 2.91  23 2.91  10 2.92
                            27 2.94  22 2.94  19 2.94  26 2.94
  21  0.554  0.223  0.453-  36 2.70  30 2.89  32 2.89  11 2.90  14 2.90  20 2.91  23 2.91  12 2.92
                            27 2.94  24 2.94  25 2.94  19 2.94
  22  0.888  0.556  0.453-  35 2.91  18 2.92  15 2.92  33 2.92  31 2.92  13 2.92  24 2.92  27 2.92
                            25 2.93  19 2.93  23 2.94  20 2.94
  23  0.223  0.554  0.453-  36 2.70  34 2.89  33 2.89  14 2.90  13 2.90  21 2.91  20 2.91  16 2.92
                            22 2.94  24 2.94  26 2.94  25 2.94
  24  0.556  0.556  0.453-  35 2.91  15 2.92  17 2.92  32 2.92  34 2.92  14 2.92  27 2.92  22 2.92
                            19 2.93  26 2.93  23 2.94  21 2.94
  25  0.889  0.889  0.454-  28 2.91  18 2.93  16 2.93  12 2.93  22 2.93  27 2.93  26 2.93  19 2.93
                            23 2.94  21 2.94  33 2.94  30 2.94
  26  0.222  0.889  0.454-  28 2.91  17 2.93  16 2.93  10 2.93  27 2.93  24 2.93  25 2.93  19 2.93
                            23 2.94  20 2.94  34 2.94  29 2.94
  27  0.556  0.888  0.453-  35 2.91  17 2.92  18 2.92  29 2.92  30 2.92  11 2.92  24 2.92  22 2.92
                            26 2.93  25 2.93  20 2.94  21 2.94
  28  0.000  0.000  0.560-  26 2.91  25 2.91  19 2.91  29 2.97  34 2.97  33 2.97  32 2.97  31 2.97
                            30 2.97
  29  0.333  0.008  0.560-  31 2.86  30 2.86  36 2.87  20 2.89  27 2.92  26 2.94  28 2.97  35 2.97
                            34 3.07
  30  0.659  0.008  0.560-  32 2.86  29 2.86  36 2.87  21 2.89  27 2.92  25 2.94  28 2.97  35 2.97
                            33 3.07
  31  0.008  0.333  0.560-  29 2.86  33 2.86  36 2.87  20 2.89  22 2.92  19 2.94  28 2.97  35 2.97
                            32 3.07
  32  0.659  0.333  0.560-  30 2.86  34 2.86  36 2.87  21 2.89  24 2.92  19 2.94  28 2.97  35 2.97
                            31 3.07
  33  0.008  0.659  0.560-  34 2.86  31 2.86  36 2.87  23 2.89  22 2.92  25 2.94  28 2.97  35 2.97
                            30 3.07
  34  0.333  0.659  0.560-  33 2.86  32 2.86  36 2.87  23 2.89  24 2.92  26 2.94  28 2.97  35 2.97
                            29 3.07
  35  0.667  0.667  0.560-  24 2.91  27 2.91  22 2.91  32 2.97  30 2.97  29 2.97  34 2.97  31 2.97
                            33 2.97
  36  0.333  0.333  0.548-  38 1.57  37 1.57  21 2.70  20 2.70  23 2.70  31 2.87  30 2.87  33 2.87
                            29 2.87  34 2.87  32 2.87
  37  0.281  0.329  0.616-  36 1.57
  38  0.390  0.329  0.616-  36 1.57

  LATTYP: Found a hexagonal cell.
 ALAT       =     8.7913665772
 C/A-ratio  =     2.5227160501

  Lattice vectors:

 A1 = (  -4.3956832886,  -7.6135467898,   0.0000000000)
 A2 = (   8.7913665771,   0.0000000000,   0.0000000000)
 A3 = (   0.0000000000,   0.0000000000,  22.1781215668)

Analysis of symmetry for initial positions (statically):
 Subroutine PRICEL returns:
 Original cell was already a primitive cell.

 Routine SETGRP: Setting up the symmetry group for a
 hexagonal supercell.

 Subroutine GETGRP returns: Found  2 space group operations
 (whereof  2 operations were pure point group operations)
 out of a pool of 24 trial point group operations.

The static configuration has the point symmetry C_1h.

Analysis of symmetry for dynamics (positions and initial velocities):
 Subroutine PRICEL returns:
 Original cell was already a primitive cell.

[...]

The dynamic configuration has the point symmetry C_1h.

Analysis of constrained symmetry for selective dynamics:
 Subroutine PRICEL returns:
 Original cell was already a primitive cell.

 Routine SETGRP: Setting up the symmetry group for a
 hexagonal supercell.

 Subroutine GETGRP returns: Found  2 space group operations
[...]
     33      -4.4506      2.00000
     34      -4.3924      2.00000
     35      -4.3744      2.00000
     36      -4.3497      2.00000
     37      -4.3455      2.00000
     38      -4.3098      2.00000
     39      -4.2962      2.00000
     40      -4.2891      2.00000
     41      -4.2703      2.00000
     42      -4.2648      2.00000
     43      -4.2378      2.00000
     44      -4.1807      2.00000
     45      -4.1508      2.00000
     46      -4.1456      2.00000
     47      -4.1349      2.00000
     48      -4.1269      2.00000
     49      -4.1233      2.00000
     50      -4.1059      2.00000
     51      -4.0995      2.00000
     52      -4.0830      2.00000
     53      -4.0800      2.00000
     54      -4.0159      2.00000
     55      -4.0091      2.00000
     56      -3.9962      2.00000
     57      -3.9935      2.00000
     58      -3.9772      2.00000
     59      -3.9595      2.00000
     60      -3.9230      2.00000
[...]
    238       6.9699      0.00000
    239       7.0700      0.00000
    240       7.1654      0.00000
    241       7.1858      0.00000
    242       7.2483      0.00000
    243       7.2738      0.00000
    244       7.2847      0.00000
    245       7.3251      0.00000
    246       7.4379      0.00000
    247       7.4761      0.00000
    248       7.5819      0.00000
    249       7.5962      0.00000
    250       7.8217      0.00000
    251       7.9417      0.00000
    252       8.0463      0.00000

 soft charge-density along one line, spin component           1
         0         1         2         3         4         5         6         7         8         9
 total charge-density along one line

------------------------ aborting loop because EDIFF is reached ----------------------------------------

 total charge

# of ion       s       p       d       tot
    1        0.418   0.202   9.179   9.798
    2        0.418   0.203   9.178   9.799
    3        0.418   0.203   9.178   9.799
    4        0.418   0.203   9.177   9.799
    5        0.419   0.204   9.176   9.798
    6        0.418   0.203   9.177   9.799
    7        0.418   0.203   9.177   9.799
    8        0.418   0.203   9.177   9.799
    9        0.414   0.203   9.179   9.796
   10        0.407   0.269   9.164   9.840
   11        0.410   0.267   9.168   9.846
   12        0.407   0.269   9.164   9.840
   13        0.410   0.268   9.168   9.846
   14        0.410   0.268   9.168   9.846
   15        0.402   0.271   9.165   9.838
   16        0.407   0.269   9.165   9.840
   17        0.402   0.271   9.165   9.838
   18        0.402   0.271   9.165   9.838
   19        0.402   0.266   9.167   9.834
   20        0.428   0.292   9.148   9.867
   21        0.428   0.292   9.148   9.867
   22        0.397   0.276   9.165   9.838
   23        0.427   0.294   9.146   9.867
   24        0.397   0.276   9.165   9.838
   25        0.403   0.265   9.167   9.835
   26        0.403   0.265   9.167   9.835
   27        0.396   0.275   9.166   9.838
   28        0.414   0.193   9.181   9.788
   29        0.418   0.206   9.175   9.799
   30        0.418   0.206   9.175   9.799
   31        0.414   0.213   9.171   9.798
   32        0.414   0.213   9.171   9.798
   33        0.418   0.206   9.175   9.799
   34        0.418   0.206   9.175   9.799
   35        0.408   0.195   9.181   9.785
   36        0.373   0.386   6.378   7.138
   37        0.531   0.031   0.000   0.562
   38        0.531   0.031   0.000   0.562
tot         15.852   8.835 327.312 352.000

  FORCE on cell =-STRESS in cart. coord.  units (eV):
  Direction    XX          YY          ZZ          XY          YZ          ZX
  Alpha Z   744.42715   744.42715   744.42715
  Ewald  121268.72558121244.61297************     0.00002    -1.02348     0.00000
  Hartree131464.64169131457.73139************     0.00001    -0.20250     0.00000
  E(xc)   -2073.78885 -2074.02570 -2079.52159    -0.00002    -0.00607     0.00000
  Local  ************************264158.75447     0.00032     1.00799    -0.00005
  n-local  -354.33127  -354.03787  -358.53357     2.27764     0.09522     0.17575
  augment  3257.57505  3257.84432  3265.59446    -0.00015     0.01265     0.00002
  Kinetic  4856.73989  4860.91756  4880.68719     1.45173     0.19029    -0.04775
  Fock        0.00000     0.00000     0.00000     0.00000     0.00000     0.00000
  Total     -10.32330   -10.02359    -0.94549    -0.00000     0.07411     0.00000
  in kB     -11.14194   -10.81847    -1.02046    -0.00000     0.07998     0.00000

 VOLUME and BASIS-vectors are now :
  energy-cutoff  :      500.00
  volume of cell :     1484.46
      direct lattice vectors                 reciprocal lattice vectors
     8.791366577  0.000000000  0.000000000     0.113747958 -0.065672414  0.000000000
     4.395683289  7.613546790  0.000000000     0.000000000  0.131344829  0.000000000
     0.000000000  0.000000000 22.178121567     0.000000000  0.000000000  0.045089481

  length of vectors
     8.791366577  8.791366577 22.178121567     0.131344829  0.131344829  0.045089481

 FORCES acting on ions
    electron-ion (+dipol)            ewald-force                    non-local-force                 convergence-correction
   0.459E-04 -.258E-01 0.250E+04   -.954E-04 -.414E-02 -.250E+04   0.136E-12 0.207E-01 -.223E+01   -.163E-03 0.682E-02 -.101E+00
   0.388E+00 0.414E+00 0.250E+04   -.485E+00 -.426E+00 -.250E+04   0.585E-01 0.647E-01 -.158E+01   0.449E-01 -.358E-01 -.117E+00
   -.387E+00 0.414E+00 0.250E+04   0.485E+00 -.426E+00 -.250E+04   -.585E-01 0.647E-01 -.158E+01   -.454E-01 -.339E-01 -.116E+00
   0.524E+00 0.827E-01 0.250E+04   -.608E+00 -.207E+00 -.250E+04   0.950E-01 0.289E-01 -.160E+01   0.778E-02 0.892E-01 -.104E+00
   -.775E-05 -.593E-02 0.250E+04   0.981E-04 0.245E-02 -.250E+04   -.101E-14 -.153E-03 -.134E+01   0.628E-02 0.363E-02 -.882E-01
   -.524E+00 0.828E-01 0.250E+04   0.608E+00 -.207E+00 -.250E+04   -.950E-01 0.289E-01 -.160E+01   -.922E-02 0.900E-01 -.104E+00
   0.207E+00 -.497E+00 0.250E+04   -.123E+00 0.633E+00 -.250E+04   0.194E-01 -.101E+00 -.157E+01   -.861E-01 -.465E-01 -.107E+00
   -.207E+00 -.497E+00 0.250E+04   0.122E+00 0.633E+00 -.250E+04   -.194E-01 -.101E+00 -.157E+01   0.877E-01 -.476E-01 -.106E+00
   0.362E-04 0.440E-01 0.250E+04   0.792E-04 0.176E-02 -.250E+04   -.967E-13 -.147E-01 -.200E+01   -.664E-02 -.286E-01 -.152E+00
   0.425E+01 0.243E+01 0.831E+03   -.390E+01 -.227E+01 -.831E+03   -.363E+00 -.189E+00 -.773E+00   0.240E-01 0.372E-01 0.475E+00
   -.290E-04 0.486E+01 0.839E+03   0.416E-04 -.510E+01 -.839E+03   0.104E-11 0.158E+00 -.406E+00   0.665E-02 0.410E-01 0.502E+00
   -.425E+01 0.243E+01 0.831E+03   0.390E+01 -.227E+01 -.831E+03   0.363E+00 -.189E+00 -.773E+00   -.259E-01 0.384E-01 0.476E+00
   0.425E+01 -.245E+01 0.839E+03   -.439E+01 0.257E+01 -.839E+03   0.104E+00 -.961E-01 -.406E+00   0.108E-01 -.173E-02 0.486E+00
   -.425E+01 -.245E+01 0.839E+03   0.439E+01 0.257E+01 -.839E+03   -.104E+00 -.961E-01 -.406E+00   0.537E-04 -.287E-02 0.485E+00
   0.164E-04 0.156E+01 0.833E+03   -.108E-03 -.165E+01 -.832E+03   0.306E-12 0.466E-01 -.789E+00   -.185E-02 0.140E-01 0.405E+00
   -.811E-05 -.488E+01 0.831E+03   0.208E-04 0.449E+01 -.831E+03   0.283E-11 0.430E+00 -.792E+00   0.154E-04 -.584E-01 0.472E+00
   0.138E+01 -.761E+00 0.833E+03   -.145E+01 0.829E+00 -.832E+03   0.344E-01 -.278E-01 -.771E+00   0.109E-01 -.281E-01 0.411E+00
   -.138E+01 -.761E+00 0.833E+03   0.145E+01 0.830E+00 -.832E+03   -.344E-01 -.278E-01 -.771E+00   -.106E-01 -.258E-01 0.412E+00
   0.416E-04 0.545E+00 -.866E+03   -.127E-03 -.684E+00 0.864E+03   0.535E-12 0.815E-01 0.718E+00   -.645E-02 0.609E-01 0.753E+00
   0.183E+02 0.107E+02 -.836E+03   -.175E+02 -.102E+02 0.836E+03   -.120E+01 -.733E+00 -.113E+01   0.379E+00 0.163E+00 0.116E+01
   -.183E+02 0.107E+02 -.836E+03   0.175E+02 -.102E+02 0.836E+03   0.120E+01 -.733E+00 -.113E+01   -.378E+00 0.162E+00 0.116E+01
   0.451E+01 -.277E+01 -.855E+03   -.486E+01 0.298E+01 0.854E+03   0.233E+00 -.155E+00 0.467E+00   0.140E+00 -.779E-01 0.784E+00
   -.593E-04 -.215E+02 -.836E+03   0.437E-04 0.205E+02 0.836E+03   0.975E-11 0.148E+01 -.119E+01   0.735E-03 -.400E+00 0.122E+01
   -.451E+01 -.277E+01 -.855E+03   0.485E+01 0.298E+01 0.854E+03   -.233E+00 -.155E+00 0.467E+00   -.140E+00 -.796E-01 0.785E+00
   -.478E+00 -.113E+00 -.866E+03   0.583E+00 0.172E+00 0.865E+03   -.493E-01 -.270E-01 0.739E+00   -.679E-01 -.347E-01 0.802E+00
   0.478E+00 -.113E+00 -.866E+03   -.584E+00 0.172E+00 0.865E+03   0.493E-01 -.270E-01 0.739E+00   0.571E-01 -.360E-01 0.803E+00
   0.205E-04 0.520E+01 -.855E+03   0.109E-03 -.572E+01 0.854E+03   0.225E-11 0.342E+00 0.472E+00   0.102E-02 0.211E+00 0.819E+00
   0.541E-04 0.726E+00 -.251E+04   -.114E-03 -.629E+00 0.251E+04   -.404E-12 -.615E-01 0.209E+01   -.204E-03 -.498E-01 0.399E+00
   0.127E+02 0.237E+02 -.251E+04   -.122E+02 -.232E+02 0.251E+04   -.718E+00 -.938E+00 0.195E+01   0.211E+00 0.348E+00 0.322E+00
   -.127E+02 0.237E+02 -.251E+04   0.122E+02 -.232E+02 0.251E+04   0.718E+00 -.938E+00 0.195E+01   -.211E+00 0.349E+00 0.321E+00
   0.281E+02 -.421E+00 -.251E+04   -.273E+02 0.541E+00 0.251E+04   -.119E+01 -.809E-01 0.199E+01   0.426E+00 -.270E-01 0.301E+00
   -.281E+02 -.421E+00 -.251E+04   0.273E+02 0.541E+00 0.251E+04   0.119E+01 -.809E-01 0.199E+01   -.427E+00 -.265E-01 0.300E+00
   0.122E+02 -.227E+02 -.251E+04   -.119E+02 0.221E+02 0.251E+04   -.607E+00 0.103E+01 0.193E+01   0.250E+00 -.325E+00 0.315E+00
   -.122E+02 -.227E+02 -.251E+04   0.119E+02 0.221E+02 0.251E+04   0.607E+00 0.103E+01 0.193E+01   -.249E+00 -.326E+00 0.315E+00
   0.242E-04 -.444E+00 -.251E+04   0.105E-03 0.329E+00 0.251E+04   0.504E-12 0.768E-01 0.217E+01   -.635E-02 0.464E-01 0.411E+00
   -.320E-04 -.194E+01 -.168E+04   0.771E-04 0.190E+01 0.168E+04   0.472E-12 0.718E-01 0.158E-01   0.448E-02 0.148E-01 0.234E+00
   0.166E+02 0.196E+00 -.290E+03   -.190E+02 -.231E+00 0.292E+03   0.247E+01 0.309E-01 -.153E+01   0.384E-01 0.166E-02 -.115E+00
   -.166E+02 0.196E+00 -.290E+03   0.190E+02 -.231E+00 0.292E+03   -.247E+01 0.309E-01 -.153E+01   -.382E-01 0.167E-02 -.115E+00
   0.320E-03 -.235E+00 -.619E+01   -.355E-14 0.129E-12 0.341E-12   0.161E-11 0.246E+00 -.784E+01   -.230E-02 -.118E-01 0.141E+02

 POSITION                                       TOTAL-FORCE (eV/Angst)
      0.00000      0.00000      5.28219        -0.000000     -0.002314     -0.003186
      2.93046      0.00000      5.28219         0.005940      0.017644      0.036634
      5.86091      0.00000      5.28219        -0.005940      0.017644      0.036634
      1.46523      2.53785      5.28219         0.019823     -0.005715      0.037404
      4.39568      2.53785      5.28219         0.000000      0.000037      0.007247
      7.32614      2.53785      5.28219        -0.019823     -0.005715      0.037404
      2.93046      5.07570      5.28219         0.016975     -0.012167      0.034559
      5.86091      5.07570      5.28219        -0.016975     -0.012167      0.034559
      8.79137      5.07570      5.28219         0.000000      0.002490      0.026848
      1.46523      0.84595      7.67490         0.011614      0.005748      0.000060
      4.39568      0.84595      7.67490        -0.000000     -0.040082     -0.067873
      7.32614      0.84595      7.67490        -0.011614      0.005748      0.000060
      2.93046      3.38380      7.67490        -0.031183      0.020963     -0.057762
      5.86091      3.38380      7.67490         0.031183      0.020963     -0.057762
      8.79137      3.38380      7.67490        -0.000000     -0.021205     -0.000533
      4.39568      5.92165      7.67490        -0.000000     -0.019310      0.004773
      7.32614      5.92165      7.67490        -0.020014      0.013524      0.007097
     10.25659      5.92165      7.67490         0.020014      0.013524      0.007097
      8.79137      1.69341     10.06265         0.000000      0.003587      0.024601
      2.94295      1.69911     10.03964        -0.012881     -0.020942     -0.109949
      5.84841      1.69911     10.03964         0.012881     -0.020942     -0.109949
     10.25212      4.23233     10.05217         0.032751     -0.017671     -0.004037
      4.39568      4.21532     10.03964         0.000000      0.004564     -0.091104
      7.33061      4.23233     10.05217        -0.032751     -0.017671     -0.004037
     11.72051      6.76684     10.06265        -0.006453     -0.002583      0.002824
      5.86222      6.76684     10.06265         0.006453     -0.002583      0.002824
      8.79137      6.76243     10.05217         0.000000      0.033881     -0.003560
      0.00000      0.00000     12.42704        -0.000000     -0.014674     -0.031426
      2.96539      0.06299     12.42777        -0.017653     -0.044478     -0.032559
      5.82597      0.06299     12.42777         0.017653     -0.044478     -0.032559
      1.53725      2.53661     12.42777         0.014962      0.012095      0.000843
      7.25412      2.53661     12.42777        -0.014962      0.012095      0.000843
      2.96754      5.01395     12.42777        -0.029930      0.033679     -0.025926
      5.82383      5.01395     12.42777         0.029930      0.033679     -0.025926
      8.79137      5.07570     12.42264         0.000000      0.007696     -0.019275
      4.39568      2.53785     12.15183         0.000000      0.048775      0.374570
      3.91594      2.50468     13.65139         0.027979     -0.001817      0.000272
      4.87542      2.50468     13.65139        -0.027979     -0.001817      0.000272
    total drift:                               -0.001982     -0.001288      0.070714

  FREE ENERGIE OF THE ION-ELECTRON SYSTEM (eV)
  free  energy   TOTEN  =      -102.12286830 eV

  energy  without entropy=     -102.12286830  energy(sigma->0) =     -102.12286830

 stress matrix after NEB project (eV)
    -10.32330     -0.00000      0.00000
     -0.00000    -10.02359      0.07411
      0.00000      0.07411     -0.94549
  FORCES: max atom, RMS     0.028039    0.006433
  FORCE total and by dimension    0.039653    0.027979
  Stress total and by dimension   14.420394   10.323296
|           W    W    AA    RRRRR   N    N  II  N    N   GGGG   !!!           |
|           W    W   A  A   R    R  NN   N  II  NN   N  G    G  !!!           |
|           W    W  A    A  R    R  N N  N  II  N N  N  G       !!!           |
|           W WW W  AAAAAA  RRRRR   N  N N  II  N  N N  G  GGG   !            |
|           WW  WW  A    A  R   R   N   NN  II  N   NN  G    G                |
|           W    W  A    A  R    R  N    N  II  N    N   GGGG   !!!           |
|     Tetrahedron method does not include variations of the Fermi             |
|     occupations, so forces and stress will be inaccurate. We suggest        |
|     using a different smearing scheme ISMEAR = 1 or 2 for metals in         |
|     relaxations.                                                            |

 total charge

# of ion       s       p       d       tot
    1        0.418   0.202   9.179   9.798
    2        0.418   0.203   9.178   9.799
    3        0.418   0.203   9.178   9.799
    4        0.418   0.203   9.177   9.799
    5        0.419   0.204   9.176   9.798
    6        0.418   0.203   9.177   9.799
    7        0.418   0.203   9.177   9.799
    8        0.418   0.203   9.177   9.799
    9        0.414   0.203   9.179   9.796
   10        0.407   0.269   9.164   9.840
   11        0.410   0.267   9.168   9.846
   12        0.407   0.269   9.164   9.840
   13        0.410   0.268   9.168   9.846
   14        0.410   0.268   9.168   9.846
   15        0.402   0.271   9.165   9.838
   16        0.407   0.269   9.165   9.840
   17        0.402   0.271   9.165   9.838
   18        0.402   0.271   9.165   9.838
   19        0.402   0.266   9.167   9.834
   20        0.428   0.292   9.148   9.867
   21        0.428   0.292   9.148   9.867
   22        0.397   0.276   9.165   9.838
   23        0.427   0.294   9.146   9.867
   24        0.397   0.276   9.165   9.838
   25        0.403   0.265   9.167   9.835
   26        0.403   0.265   9.167   9.835
   27        0.396   0.275   9.166   9.838
   28        0.414   0.193   9.181   9.788
   29        0.418   0.206   9.175   9.799
   30        0.418   0.206   9.175   9.799
   31        0.414   0.213   9.171   9.798
   32        0.414   0.213   9.171   9.798
   33        0.418   0.206   9.175   9.799
   34        0.418   0.206   9.175   9.799
   35        0.408   0.195   9.181   9.785
   36        0.373   0.386   6.378   7.138
   37        0.531   0.031   0.000   0.562
   38        0.531   0.031   0.000   0.562
tot         15.852   8.835 327.312 352.000

 BZINTS: Fermi energy:    0.834017;  395.000000 electrons
         Band energy:-0.126031E+04;  BLOECHL correction:   -0.027186