 vasp.6.2.0 18Jan21 (build Jun 12 2021 23:27:24) complex

 executed on             LinuxIFC date 2022.05.28  01:49:04

 INCAR:
   ISMEAR = -5
   SIGMA = 0.1
   ISPIN = 1
   EDIFF = 1.d-5
   EDIFFG = -0.01
   NSW = 0
   NELM = 150
   ENCUT = 500
   ISIF = 2
   IBRION = 2
   LREAL = Auto
   ALGO = Fast
   ICHARG = 11
   LORBIT = 10
   LCHARG = .F.
   LWAVE = .F.

 POTCAR:    PAW_PBE Ag 02Apr2005
 POTCAR:    PAW_PBE Ru 04Feb2005
 POTCAR:    PAW_PBE H 15Jun2001
 POTCAR:    PAW_PBE O 08Apr2002
|           W    W    AA    RRRRR   N    N  II  N    N   GGGG   !!!           |
|           W    W   A  A   R    R  NN   N  II  NN   N  G    G  !!!           |
|           W    W  A    A  R    R  N N  N  II  N N  N  G       !!!           |
|           W WW W  AAAAAA  RRRRR   N  N N  II  N  N N  G  GGG   !            |
|           WW  WW  A    A  R   R   N   NN  II  N   NN  G    G                |
|           W    W  A    A  R    R  N    N  II  N    N   GGGG   !!!           |
|     For optimal performance we recommend to set                             |
|       NCORE = 2 up to number-of-cores-per-socket                            |
|     This setting can greatly improve the performance of VASP for DFT.       |
|     The default, NCORE=1 might be grossly inefficient on modern             |
|     multi-core architectures or massively parallel machines. Do your        |
|     Unfortunately you need to use the default for GW and RPA                |
|     calculations (for HF NCORE is supported but not extensively tested      |
|     yet).                                                                   |

 POTCAR:    PAW_PBE Ag 02Apr2005
   VRHFIN =Ag : s1 d10

   TITEL  = PAW_PBE Ag 02Apr2005
   POMASS =  107.868; ZVAL   =   11.000    mass and valenz
   ENMAX  =  249.844; ENMIN  =  187.383 eV

 POTCAR:    PAW_PBE Ru 04Feb2005
   VRHFIN =Ru: s1 d7

   TITEL  = PAW_PBE Ru 04Feb2005
   POMASS =  101.070; ZVAL   =    8.000    mass and valenz
   ENMAX  =  213.271; ENMIN  =  159.953 eV

 POTCAR:    PAW_PBE H 15Jun2001
   VRHFIN =H: ultrasoft test

   TITEL  = PAW_PBE H 15Jun2001
   POMASS =    1.000; ZVAL   =    1.000    mass and valenz
   ENMAX  =  250.000; ENMIN  =  200.000 eV

 POTCAR:    PAW_PBE O 08Apr2002
   VRHFIN =O: s2p4

   TITEL  = PAW_PBE O 08Apr2002
   POMASS =   16.000; ZVAL   =    6.000    mass and valenz
   ENMAX  =  400.000; ENMIN  =  300.000 eV

 Optimization of the real space projectors (new method)

 maximal supplied QI-value         = 15.12
 optimisation between [QCUT,QGAM] = [ 11.34, 22.83] = [ 36.00,145.93] Ry
 Optimized for a Real-space Cutoff    1.43 Angstroem

   l    n(q)    QCUT    max X(q) W(low)/X(q) W(high)/X(q)  e(spline)
   2      9    11.338    53.897    0.16E-03    0.20E-03    0.28E-06
   2      9    11.338    52.416    0.16E-03    0.20E-03    0.29E-06
   0     10    11.338   122.045    0.31E-04    0.76E-04    0.15E-06
   0     10    11.338    73.629    0.30E-04    0.72E-04    0.15E-06
   1      9    11.338    15.255    0.20E-03    0.19E-04    0.17E-06
   1      9    11.338     9.562    0.16E-03    0.15E-04    0.14E-06
 Optimization of the real space projectors (new method)

[...]

   l    n(q)    QCUT    max X(q) W(low)/X(q) W(high)/X(q)  e(spline)
   0      8    11.287    19.460    0.40E-03    0.73E-03    0.16E-06
   0      8    11.287    12.209    0.38E-03    0.70E-03    0.15E-06
   1      7    11.287     4.655    0.22E-03    0.25E-04    0.22E-06
 Optimization of the real space projectors (new method)

 maximal supplied QI-value         = 24.76
 optimisation between [QCUT,QGAM] = [ 11.39, 22.77] = [ 36.31,145.25] Ry
 Optimized for a Real-space Cutoff    1.00 Angstroem

   l    n(q)    QCUT    max X(q) W(low)/X(q) W(high)/X(q)  e(spline)
   0      7    11.387    20.381    0.39E-03    0.13E-02    0.15E-06
   0      7    11.387    15.268    0.42E-03    0.14E-02    0.17E-06
   1      6    11.387     5.964    0.41E-03    0.11E-02    0.17E-06
   1      6    11.387     5.382    0.39E-03    0.87E-03    0.15E-06
  PAW_PBE Ag 02Apr2005                  :
  PAW_PBE Ru 04Feb2005                  :
  PAW_PBE H 15Jun2001                   :
  PAW_PBE O 08Apr2002                   :

 POSCAR: Ag-Ru-H2O
  positions in direct lattice
  velocities in cartesian coordinates
 exchange correlation table for  LEXCH =        8
   RHO(1)=    0.500       N(1)  =     2000
   RHO(2)=  100.500       N(2)  =     4000

 VTST: version 3.2, (02/03/18)

 CHAIN: initializing optimizer

 OPT: Using VASP Conjugate-Gradient optimizer
 CHAIN: Read ICHAIN            0

 POSCAR: Ag-Ru-H2O
  positions in direct lattice
  velocities in cartesian coordinates

 ion  position               nearest neighbor table
   1  0.000  0.000  0.212-   2 2.93   8 2.93   7 2.93   6 2.93   4 2.93  12 2.93  16 2.93  10 2.93
                             3 2.93
   2  0.333  0.000  0.212-   1 2.93   8 2.93   9 2.93   3 2.93   4 2.93   5 2.93  10 2.93  17 2.93
                            11 2.93
   3  0.667  0.000  0.212-   9 2.93   2 2.93   5 2.93  11 2.93   7 2.93  18 2.93   1 2.93   6 2.93
                            12 2.93
   4  0.000  0.333  0.212-   5 2.93   6 2.93   2 2.93   1 2.93   7 2.93  13 2.93  15 2.93   9 2.93
                            10 2.93
   5  0.333  0.333  0.212-   4 2.93   3 2.93   7 2.93   2 2.93   8 2.93  14 2.93  13 2.93  11 2.93
                             6 2.93
   6  0.667  0.333  0.212-   4 2.93   9 2.93   1 2.93  15 2.93   8 2.93  12 2.93   3 2.93   5 2.93
                            14 2.93
   7  0.000  0.667  0.212-   8 2.93   1 2.93   5 2.93   3 2.93   4 2.93  16 2.93  18 2.93  13 2.93
                             9 2.93
   8  0.333  0.667  0.212-   7 2.93   1 2.93   2 2.93   9 2.93   5 2.93  16 2.93   6 2.93  17 2.93
                            14 2.93
   9  0.667  0.667  0.212-   3 2.93   2 2.93   8 2.93   6 2.93  17 2.93   4 2.93  15 2.93   7 2.93
                            18 2.93
  10  0.111  0.111  0.308-  20 2.90  19 2.93  26 2.93  12 2.93  16 2.93  15 2.93  17 2.93  13 2.93
                            11 2.93   2 2.93   1 2.93   4 2.93
  11  0.444  0.111  0.308-  21 2.90  20 2.90  27 2.92  14 2.93  17 2.93  18 2.93   3 2.93  12 2.93
                            13 2.93  10 2.93   5 2.93   2 2.93
  12  0.778  0.111  0.308-  21 2.90  25 2.93  19 2.93  10 2.93  16 2.93  18 2.93  15 2.93  11 2.93
                             1 2.93  14 2.93   6 2.93   3 2.93
  13  0.111  0.444  0.308-  20 2.90  23 2.90  22 2.92  15 2.93  14 2.93  18 2.93  10 2.93  11 2.93
                            16 2.93   4 2.93   5 2.93   7 2.93
  14  0.444  0.444  0.308-  23 2.90  21 2.90  24 2.92  13 2.93  11 2.93  16 2.93   5 2.93  12 2.93
                            17 2.93   8 2.93  15 2.93   6 2.93
  15  0.778  0.444  0.308-  24 2.92  22 2.92  19 2.93  13 2.93  10 2.93  12 2.93  17 2.93  18 2.93
                             4 2.93   6 2.93   9 2.93  14 2.93
  16  0.111  0.778  0.308-  23 2.90  26 2.93  25 2.93  18 2.93  12 2.93  10 2.93  14 2.93  17 2.93
                            13 2.93   7 2.93   8 2.93   1 2.93
  17  0.444  0.778  0.308-  27 2.92  24 2.92  26 2.93  11 2.93  10 2.93   9 2.93  18 2.93  15 2.93
                            16 2.93   2 2.93  14 2.93   8 2.93
  18  0.778  0.778  0.308-  22 2.92  27 2.92  25 2.93  16 2.93  12 2.93  13 2.93  11 2.93  17 2.93
                            15 2.93   7 2.93   3 2.93   9 2.93
  19  0.889  0.223  0.403-  28 2.91  15 2.93  10 2.93  12 2.93  24 2.93  22 2.93  26 2.93  25 2.93
                            20 2.94  21 2.94  32 2.94  31 2.94
  20  0.223  0.223  0.402-  36 2.77  13 2.90  11 2.90  10 2.90  21 2.92  23 2.92  31 2.92  29 2.92
                            27 2.93  22 2.93  19 2.94  26 2.94
  21  0.555  0.223  0.402-  36 2.77  11 2.90  14 2.90  12 2.90  20 2.92  23 2.92  30 2.92  32 2.92
                            27 2.93  24 2.93  25 2.94  19 2.94
  22  0.888  0.556  0.403-  35 2.91  18 2.92  15 2.92  13 2.92  33 2.92  31 2.92  24 2.92  27 2.92
                            25 2.93  19 2.93  23 2.93  20 2.93
  23  0.223  0.555  0.402-  36 2.77  14 2.90  13 2.90  16 2.90  21 2.92  20 2.92  34 2.92  33 2.92
                            22 2.93  24 2.93  26 2.94  25 2.94
  24  0.556  0.556  0.403-  35 2.91  15 2.92  17 2.92  14 2.92  32 2.92  34 2.92  27 2.92  22 2.92
                            19 2.93  26 2.93  23 2.93  21 2.93
  25  0.889  0.889  0.403-  28 2.91  18 2.93  16 2.93  12 2.93  22 2.93  27 2.93  26 2.93  19 2.93
                            23 2.94  21 2.94  33 2.94  30 2.94
  26  0.223  0.889  0.403-  28 2.91  17 2.93  16 2.93  10 2.93  27 2.93  24 2.93  25 2.93  19 2.93
                            23 2.94  20 2.94  34 2.94  29 2.94
  27  0.556  0.888  0.403-  35 2.91  17 2.92  18 2.92  11 2.92  29 2.92  30 2.92  24 2.92  22 2.92
                            26 2.93  25 2.93  20 2.93  21 2.93
  28  0.000  0.000  0.498-  26 2.91  25 2.91  19 2.91  29 2.95  34 2.95  33 2.95  32 2.95  31 2.95
                            30 2.95
  29  0.333  0.006  0.498-  31 2.88  30 2.88  36 2.89  20 2.92  27 2.92  26 2.94  28 2.95  35 2.96
                            34 3.03
  30  0.661  0.006  0.498-  32 2.88  29 2.88  36 2.89  21 2.92  27 2.92  25 2.94  28 2.95  35 2.96
                            33 3.03
  31  0.006  0.333  0.498-  29 2.88  33 2.88  36 2.89  20 2.92  22 2.92  19 2.94  28 2.95  35 2.96
                            32 3.03
  32  0.661  0.333  0.498-  30 2.88  34 2.88  36 2.89  21 2.92  24 2.92  19 2.94  28 2.95  35 2.96
                            31 3.03
  33  0.006  0.661  0.498-  34 2.88  31 2.88  36 2.89  23 2.92  22 2.92  25 2.94  28 2.95  35 2.96
                            30 3.03
  34  0.333  0.661  0.498-  33 2.88  32 2.88  36 2.89  23 2.92  24 2.92  26 2.94  28 2.95  35 2.96
                            29 3.03
  35  0.667  0.667  0.498-  24 2.91  27 2.91  22 2.91  30 2.96  32 2.96  29 2.96  34 2.96  31 2.96
                            33 2.96
  36  0.333  0.333  0.490-  39 2.26  21 2.77  20 2.77  23 2.77  31 2.89  30 2.89  33 2.89  29 2.89
                            34 2.89  32 2.89
  37  0.243  0.333  0.603-  39 0.97
  38  0.424  0.333  0.603-  39 0.97
  39  0.333  0.334  0.581-  37 0.97  38 0.97  36 2.26

  LATTYP: Found a hexagonal cell.
 ALAT       =     8.7913665772
 C/A-ratio  =     2.8382349142

  Lattice vectors:

 A1 = (  -4.3956832886,  -7.6135467898,   0.0000000000)
 A2 = (   8.7913665771,   0.0000000000,   0.0000000000)
 A3 = (   0.0000000000,   0.0000000000,  24.9519635625)

Analysis of symmetry for initial positions (statically):
 Subroutine PRICEL returns:
 Original cell was already a primitive cell.

 Routine SETGRP: Setting up the symmetry group for a
 hexagonal supercell.

 Subroutine GETGRP returns: Found  1 space group operations
 (whereof  1 operations were pure point group operations)
 out of a pool of 24 trial point group operations.

The static configuration has the point symmetry C_1 .

Analysis of symmetry for dynamics (positions and initial velocities):
 Subroutine PRICEL returns:
 Original cell was already a primitive cell.

[...]

The dynamic configuration has the point symmetry C_1 .

Analysis of constrained symmetry for selective dynamics:
 Subroutine PRICEL returns:
[...]
     41      -4.4970      2.00000
     42      -4.4905      2.00000
     43      -4.4796      2.00000
     44      -4.4545      2.00000
     45      -4.4418      2.00000
     46      -4.3684      2.00000
     47      -4.3433      2.00000
     48      -4.3406      2.00000
     49      -4.3220      2.00000
     50      -4.3177      2.00000
     51      -4.3125      2.00000
     52      -4.3059      2.00000
     53      -4.2927      2.00000
     54      -4.2792      2.00000
     55      -4.2723      2.00000
     56      -4.2571      2.00000
     57      -4.1969      2.00000
     58      -4.1944      2.00000
     59      -4.1863      2.00000
     60      -4.1839      2.00000
[...]
    238       5.9244      0.00000
    239       5.9505      0.00000
    240       5.9718      0.00000
    241       6.0537      0.00000
    242       6.1120      0.00000
    243       6.2514      0.00000
    244       6.2976      0.00000
    245       6.3886      0.00000
    246       6.4773      0.00000
    247       6.6522      0.00000
    248       6.6900      0.00000
    249       7.0160      0.00000
    250       7.0580      0.00000
    251       7.1384      0.00000
    252       7.2849      0.00000

 soft charge-density along one line, spin component           1
         0         1         2         3         4         5         6         7         8         9
 total charge-density along one line

------------------------ aborting loop because EDIFF is reached ----------------------------------------

 total charge

# of ion       s       p       d       tot
    1        0.417   0.202   9.177   9.796
    2        0.419   0.203   9.177   9.799
    3        0.419   0.203   9.177   9.799
    4        0.419   0.203   9.177   9.799
    5        0.416   0.205   9.176   9.797
    6        0.419   0.203   9.177   9.799
    7        0.419   0.203   9.177   9.799
    8        0.419   0.203   9.177   9.799
    9        0.413   0.203   9.179   9.795
   10        0.408   0.268   9.163   9.839
   11        0.410   0.267   9.169   9.845
   12        0.408   0.268   9.163   9.839
   13        0.410   0.267   9.168   9.845
   14        0.410   0.267   9.168   9.845
   15        0.402   0.268   9.167   9.837
   16        0.408   0.268   9.163   9.839
   17        0.402   0.269   9.166   9.837
   18        0.402   0.269   9.166   9.837
   19        0.405   0.265   9.166   9.836
   20        0.426   0.294   9.146   9.867
   21        0.426   0.294   9.146   9.867
   22        0.396   0.272   9.168   9.836
   23        0.426   0.295   9.145   9.867
   24        0.396   0.272   9.168   9.836
   25        0.404   0.265   9.166   9.835
   26        0.403   0.265   9.166   9.835
   27        0.396   0.272   9.168   9.836
   28        0.413   0.201   9.178   9.792
   29        0.422   0.213   9.170   9.805
   30        0.422   0.213   9.170   9.805
   31        0.426   0.217   9.166   9.809
   32        0.426   0.217   9.166   9.809
   33        0.422   0.213   9.170   9.805
   34        0.422   0.213   9.170   9.805
   35        0.404   0.204   9.180   9.787
   36        0.423   0.352   6.556   7.332
   37        0.614   0.123   0.000   0.737
   38        0.614   0.123   0.000   0.737
   39        1.549   3.645   0.000   5.194
tot         17.657  12.665 327.455 357.776

  FORCE on cell =-STRESS in cart. coord.  units (eV):
  Direction    XX          YY          ZZ          XY          YZ          ZX
  Alpha Z   670.30990   670.30990   670.30990
  Ewald  161830.12103161702.42579************    -0.07456    -0.64834    -0.01474
  Hartree171898.72227171874.93343************    -0.01509    -0.23808    -0.00032
  E(xc)   -2102.63604 -2103.20088 -2107.74487    -0.00045     0.00065    -0.00005
  Local  ************************344890.84271     0.06926     0.75639     0.01000
  n-local  -344.12658  -345.13620  -350.33404    -0.00014    -0.00203     0.00038
  augment  3272.40629  3275.12578  3281.96937     0.00146    -0.01306     0.00026
  Kinetic  4994.42332  5030.46030  5032.59285     0.02207     0.12571     0.00246
  Fock        0.00000     0.00000     0.00000     0.00000     0.00000     0.00000
  Total      -8.65187    -8.88297     0.13058     0.00254    -0.01876    -0.00201
  in kB      -8.29989    -8.52159     0.12526     0.00244    -0.01799    -0.00193

 VOLUME and BASIS-vectors are now :
  energy-cutoff  :      500.00
  volume of cell :     1670.12
      direct lattice vectors                 reciprocal lattice vectors
     8.791366577  0.000000000  0.000000000     0.113747958 -0.065672414  0.000000000
     4.395683289  7.613546790  0.000000000     0.000000000  0.131344829  0.000000000
     0.000000000  0.000000000 24.951963562     0.000000000  0.000000000  0.040077006

  length of vectors
     8.791366577  8.791366577 24.951963562     0.131344829  0.131344829  0.040077006

 FORCES acting on ions
    electron-ion (+dipol)            ewald-force                    non-local-force                 convergence-correction
   0.123E-02 0.349E-01 0.273E+04   -.916E-04 -.219E-02 -.273E+04   -.163E-04 0.115E-01 -.229E+01   -.114E-02 -.428E-01 0.127E+00
   0.355E+00 0.513E+00 0.273E+04   -.383E+00 -.472E+00 -.273E+04   0.614E-01 0.530E-01 -.150E+01   -.297E-01 -.747E-01 0.114E+00
   -.355E+00 0.503E+00 0.273E+04   0.383E+00 -.472E+00 -.273E+04   -.612E-01 0.527E-01 -.150E+01   0.298E-01 -.645E-01 0.117E+00
   0.635E+00 0.103E+00 0.273E+04   -.598E+00 -.976E-01 -.273E+04   0.527E-01 0.132E-01 -.149E+01   -.687E-01 -.233E-01 0.110E+00
   -.139E-01 -.954E-02 0.273E+04   0.964E-04 -.711E-03 -.273E+04   -.219E-02 0.550E-02 -.145E+01   0.162E-01 0.501E-02 0.105E+00
   -.626E+00 0.991E-01 0.273E+04   0.598E+00 -.977E-01 -.273E+04   -.527E-01 0.131E-01 -.149E+01   0.598E-01 -.190E-01 0.114E+00
   0.169E+00 -.611E+00 0.273E+04   -.215E+00 0.569E+00 -.273E+04   0.345E-01 -.697E-01 -.150E+01   0.218E-01 0.967E-01 0.109E+00
   -.177E+00 -.605E+00 0.273E+04   0.215E+00 0.569E+00 -.273E+04   -.347E-01 -.696E-01 -.150E+01   -.135E-01 0.907E-01 0.111E+00
   0.133E-01 -.285E-01 0.273E+04   0.770E-04 0.288E-02 -.273E+04   0.242E-02 -.873E-02 -.197E+01   -.159E-01 0.328E-01 0.101E+00
   0.461E+01 0.273E+01 0.938E+03   -.409E+01 -.238E+01 -.937E+03   -.450E+00 -.262E+00 -.861E+00   -.465E-01 -.735E-01 0.202E+00
   -.124E-01 0.491E+01 0.943E+03   0.158E-04 -.499E+01 -.943E+03   -.232E-02 0.139E+00 -.325E+00   0.149E-01 -.105E+00 0.223E+00
   -.460E+01 0.273E+01 0.938E+03   0.409E+01 -.238E+01 -.937E+03   0.450E+00 -.262E+00 -.860E+00   0.385E-01 -.667E-01 0.201E+00
   0.418E+01 -.246E+01 0.943E+03   -.430E+01 0.249E+01 -.943E+03   0.125E+00 -.839E-01 -.348E+00   -.402E-01 0.720E-01 0.224E+00
   -.420E+01 -.246E+01 0.943E+03   0.430E+01 0.249E+01 -.943E+03   -.129E+00 -.837E-01 -.348E+00   0.634E-01 0.686E-01 0.220E+00
   0.969E-02 0.610E+00 0.938E+03   -.106E-03 -.709E+00 -.937E+03   0.223E-03 0.684E-01 -.693E+00   -.979E-02 0.845E-02 0.163E+00
   -.196E-02 -.535E+01 0.938E+03   0.424E-04 0.473E+01 -.937E+03   -.668E-05 0.539E+00 -.873E+00   0.194E-02 0.526E-01 0.204E+00
   0.579E+00 -.350E+00 0.938E+03   -.623E+00 0.372E+00 -.937E+03   0.468E-01 -.323E-01 -.732E+00   -.226E-01 0.221E-01 0.162E+00
   -.577E+00 -.360E+00 0.938E+03   0.623E+00 0.372E+00 -.937E+03   -.470E-01 -.326E-01 -.732E+00   0.207E-01 0.323E-01 0.164E+00
   0.387E-02 0.498E+00 -.882E+03   0.166E-04 -.550E+00 0.881E+03   0.717E-04 0.967E-01 0.554E+00   -.398E-02 -.443E-01 0.872E-01
   0.995E+01 0.590E+01 -.853E+03   -.856E+01 -.509E+01 0.854E+03   -.143E+01 -.801E+00 -.134E+01   0.583E-01 -.514E-02 0.221E+00
   -.995E+01 0.590E+01 -.853E+03   0.856E+01 -.509E+01 0.854E+03   0.143E+01 -.801E+00 -.134E+01   -.551E-01 -.195E-02 0.218E+00
   0.266E+01 -.174E+01 -.873E+03   -.305E+01 0.190E+01 0.873E+03   0.366E+00 -.190E+00 0.465E+00   0.358E-01 0.280E-01 0.163E+00
   -.483E-02 -.118E+02 -.853E+03   0.111E-03 0.101E+02 0.854E+03   -.190E-03 0.169E+01 -.141E+01   0.494E-02 -.108E-01 0.201E+00
   -.265E+01 -.174E+01 -.873E+03   0.305E+01 0.190E+01 0.873E+03   -.366E+00 -.190E+00 0.465E+00   -.397E-01 0.263E-01 0.163E+00
   -.288E+00 -.128E+00 -.882E+03   0.381E+00 0.194E+00 0.881E+03   -.982E-01 -.576E-01 0.620E+00   0.755E-02 -.708E-02 0.948E-01
   0.287E+00 -.123E+00 -.882E+03   -.381E+00 0.194E+00 0.881E+03   0.982E-01 -.575E-01 0.620E+00   -.685E-02 -.123E-01 0.969E-01
   0.127E-02 0.307E+01 -.874E+03   -.668E-04 -.351E+01 0.873E+03   0.889E-04 0.426E+00 0.458E+00   -.131E-02 0.325E-01 0.162E+00
   -.969E-03 0.603E+00 -.266E+04   0.868E-03 -.617E+00 0.266E+04   -.637E-04 0.340E-01 0.179E+01   0.150E-03 -.205E-01 -.107E+00
   0.185E+02 0.341E+02 -.265E+04   -.180E+02 -.333E+02 0.265E+04   -.634E+00 -.896E+00 0.153E+01   0.389E-01 0.244E-01 -.951E-01
   -.185E+02 0.341E+02 -.265E+04   0.180E+02 -.333E+02 0.265E+04   0.634E+00 -.896E+00 0.153E+01   -.398E-01 0.326E-01 -.952E-01
   0.394E+02 -.706E-01 -.265E+04   -.383E+02 0.203E+00 0.265E+04   -.130E+01 -.136E+00 0.127E+01   0.740E-01 0.443E-02 -.656E-01
   -.394E+02 -.769E-01 -.265E+04   0.383E+02 0.205E+00 0.265E+04   0.130E+01 -.136E+00 0.127E+01   -.802E-01 0.868E-02 -.663E-01
   0.191E+02 -.341E+02 -.265E+04   -.188E+02 0.332E+02 0.265E+04   -.398E+00 0.103E+01 0.155E+01   0.223E-01 -.325E-01 -.923E-01
   -.191E+02 -.341E+02 -.265E+04   0.188E+02 0.332E+02 0.265E+04   0.398E+00 0.103E+01 0.155E+01   -.150E-01 -.362E-01 -.929E-01
   0.129E-01 -.736E+00 -.267E+04   -.494E-03 0.740E+00 0.266E+04   0.244E-02 -.286E-01 0.199E+01   -.151E-01 0.236E-01 -.340E-01
   -.648E-02 0.338E+00 -.175E+04   -.319E-03 -.350E+00 0.175E+04   0.229E-03 0.136E-01 0.284E+01   0.649E-02 -.338E-02 -.110E+00
   0.718E+02 0.481E+00 -.312E+03   -.789E+02 -.532E+00 0.316E+03   0.714E+01 0.465E-01 -.465E+01   0.356E-02 0.183E-03 -.828E-02
   -.718E+02 0.565E+00 -.312E+03   0.789E+02 -.624E+00 0.316E+03   -.714E+01 0.548E-01 -.465E+01   -.326E-02 0.219E-03 -.880E-02
   -.518E-02 -.536E+00 -.164E+04   0.146E-02 0.112E+01 0.160E+04   0.491E-03 -.597E+00 0.371E+02   0.681E-02 0.314E-02 -.931E-01
   -.159E-01 0.331E+00 -.252E+02   -.147E-15 0.193E-12 -.705E-11   -.169E-02 -.373E+00 0.217E+02   0.176E-01 0.220E-01 0.331E+01

 POSITION                                       TOTAL-FORCE (eV/Angst)
      0.00000      0.00000      5.28219        -0.000014      0.002016     -0.000247
      2.93046      0.00000      5.28219         0.003367      0.019813      0.027656
      5.86091      0.00000      5.28219        -0.003389      0.019777      0.027651
      1.46523      2.53785      5.28219         0.020666     -0.003812      0.027751
      4.39568      2.53785      5.28219         0.000174      0.000780      0.001391
      7.32614      2.53785      5.28219        -0.020624     -0.003848      0.027771
      2.93046      5.07570      5.28219         0.010495     -0.014267      0.027719
      5.86091      5.07570      5.28219        -0.010542     -0.014240      0.027739
      8.79137      5.07570      5.28219        -0.000187     -0.001010      0.011339
      1.46523      0.84595      7.67490         0.027633      0.017150     -0.000438
      4.39568      0.84595      7.67490         0.000213     -0.044429     -0.077543
      7.32614      0.84595      7.67490        -0.027616      0.017157     -0.000444
      2.93046      3.38380      7.67490        -0.037036      0.022183     -0.075487
      5.86091      3.38380      7.67490         0.037481      0.022204     -0.075493
      8.79137      3.38380      7.67490         0.000013     -0.022171      0.014857
      4.39568      5.92165      7.67490         0.000010     -0.032216     -0.000672
      7.32614      5.92165      7.67490        -0.019646      0.011990      0.013926
     10.25659      5.92165      7.67490         0.019637      0.011968      0.013915
      8.79137      1.69450     10.06282        -0.000025      0.000639     -0.021443
      2.93652      1.69540     10.03056         0.021363      0.008855     -0.069217
      5.85484      1.69540     10.03056        -0.021374      0.008867     -0.069215
     10.25378      4.23137     10.05553         0.011113     -0.007795     -0.025531
      4.39568      4.22274     10.03056         0.000023     -0.021297     -0.053224
      7.32895      4.23137     10.05553        -0.011113     -0.007808     -0.025506
     11.71957      6.76630     10.06282         0.001980      0.002327     -0.012967
      5.86316      6.76630     10.06282        -0.002011      0.002309     -0.012935
      8.79137      6.76435     10.05553        -0.000015      0.017693     -0.017891
      0.00000      0.00000     12.42400        -0.000015     -0.000181      0.045787
      2.95387      0.04433     12.43748        -0.056889     -0.079491     -0.038290
      5.83749      0.04433     12.43748         0.056904     -0.079458     -0.038187
      1.51533      2.53597     12.43748        -0.090488      0.002125     -0.038934
      7.27604      2.53597     12.43748         0.090522      0.001968     -0.038951
      2.95713      5.03325     12.43748        -0.062586      0.080580     -0.041359
      5.83423      5.03325     12.43748         0.062510      0.080654     -0.041466
      8.79137      5.07570     12.42069        -0.000181     -0.000056      0.035589
      4.39568      2.53785     12.23056        -0.000080     -0.001131      0.522690
      3.60040      2.53841     15.04148        -0.009597     -0.003321     -0.006162
      5.19117      2.53748     15.04131         0.005741     -0.003734     -0.008704
      4.39567      2.54415     14.48644         0.003579     -0.010788     -0.035479
    total drift:                                0.000023     -0.020372     -0.156510

  FREE ENERGIE OF THE ION-ELECTRON SYSTEM (eV)
  free  energy   TOTEN  =      -110.23277096 eV

  energy  without entropy=     -110.23277096  energy(sigma->0) =     -110.23277096

 stress matrix after NEB project (eV)
     -8.65187      0.00254     -0.00201
      0.00254     -8.88297     -0.01876
     -0.00201     -0.01876      0.13058
  FORCES: max atom, RMS     0.037255    0.006508
  FORCE total and by dimension    0.040641    0.035479
  Stress total and by dimension   12.400795    8.882971
|           W    W    AA    RRRRR   N    N  II  N    N   GGGG   !!!           |
|           W    W   A  A   R    R  NN   N  II  NN   N  G    G  !!!           |
|           W    W  A    A  R    R  N N  N  II  N N  N  G       !!!           |
|           W WW W  AAAAAA  RRRRR   N  N N  II  N  N N  G  GGG   !            |
|           WW  WW  A    A  R   R   N   NN  II  N   NN  G    G                |
|           W    W  A    A  R    R  N    N  II  N    N   GGGG   !!!           |
|     Tetrahedron method does not include variations of the Fermi             |
|     occupations, so forces and stress will be inaccurate. We suggest        |
|     using a different smearing scheme ISMEAR = 1 or 2 for metals in         |
|     relaxations.                                                            |

 total charge

# of ion       s       p       d       tot
    1        0.417   0.202   9.177   9.796
    2        0.419   0.203   9.177   9.799
    3        0.419   0.203   9.177   9.799
    4        0.419   0.203   9.177   9.799
    5        0.416   0.205   9.176   9.797
    6        0.419   0.203   9.177   9.799
    7        0.419   0.203   9.177   9.799
    8        0.419   0.203   9.177   9.799
    9        0.413   0.203   9.179   9.795
   10        0.408   0.268   9.163   9.839
   11        0.410   0.267   9.169   9.845
   12        0.408   0.268   9.163   9.839
   13        0.410   0.267   9.168   9.845
   14        0.410   0.267   9.168   9.845
   15        0.402   0.268   9.167   9.837
   16        0.408   0.268   9.163   9.839
   17        0.402   0.269   9.166   9.837
   18        0.402   0.269   9.166   9.837
   19        0.405   0.265   9.166   9.836
   20        0.426   0.294   9.146   9.867
   21        0.426   0.294   9.146   9.867
   22        0.396   0.272   9.168   9.836
   23        0.426   0.295   9.145   9.867
   24        0.396   0.272   9.168   9.836
   25        0.404   0.265   9.166   9.835
   26        0.403   0.265   9.166   9.835
   27        0.396   0.272   9.168   9.836
   28        0.413   0.201   9.178   9.792
   29        0.422   0.213   9.170   9.805
   30        0.422   0.213   9.170   9.805
   31        0.426   0.217   9.166   9.809
   32        0.426   0.217   9.166   9.809
   33        0.422   0.213   9.170   9.805
   34        0.422   0.213   9.170   9.805
   35        0.404   0.204   9.180   9.787
   36        0.423   0.352   6.556   7.332
   37        0.614   0.123   0.000   0.737
   38        0.614   0.123   0.000   0.737
   39        1.549   3.645   0.000   5.194
tot         17.657  12.665 327.455 357.776

 BZINTS: Fermi energy:    0.635542;  401.000000 electrons
         Band energy:-0.141054E+04;  BLOECHL correction:   -0.044728