 vasp.6.2.0 18Jan21 (build Jun 12 2021 23:27:24) complex

 executed on             LinuxIFC date 2022.05.28  00:42:51

 INCAR:
   ISMEAR = -5
   SIGMA = 0.1
   ISPIN = 1
   EDIFF = 1.d-5
   EDIFFG = -0.01
   NSW = 0
   NELM = 150
   ENCUT = 500
   ISIF = 2
   IBRION = 2
   LREAL = Auto
   ALGO = Fast
   ICHARG = 11
   LORBIT = 10
   LCHARG = .F.
   LWAVE = .F.

 POTCAR:    PAW_PBE Au 04Oct2007
 POTCAR:    PAW_PBE Fe 06Sep2000
 POTCAR:    PAW_PBE C 08Apr2002
 POTCAR:    PAW_PBE O 08Apr2002
|           W    W    AA    RRRRR   N    N  II  N    N   GGGG   !!!           |
|           W    W   A  A   R    R  NN   N  II  NN   N  G    G  !!!           |
|           W    W  A    A  R    R  N N  N  II  N N  N  G       !!!           |
|           W WW W  AAAAAA  RRRRR   N  N N  II  N  N N  G  GGG   !            |
|           WW  WW  A    A  R   R   N   NN  II  N   NN  G    G                |
|           W    W  A    A  R    R  N    N  II  N    N   GGGG   !!!           |
|     For optimal performance we recommend to set                             |
|       NCORE = 2 up to number-of-cores-per-socket                            |
|     This setting can greatly improve the performance of VASP for DFT.       |
|     The default, NCORE=1 might be grossly inefficient on modern             |
|     multi-core architectures or massively parallel machines. Do your        |
|     Unfortunately you need to use the default for GW and RPA                |
|     calculations (for HF NCORE is supported but not extensively tested      |
|     yet).                                                                   |

 POTCAR:    PAW_PBE Au 04Oct2007
   VRHFIN =Au: s1d10

   TITEL  = PAW_PBE Au 04Oct2007
   POMASS =  196.966; ZVAL   =   11.000    mass and valenz
   ENMAX  =  229.943; ENMIN  =  172.457 eV

 POTCAR:    PAW_PBE Fe 06Sep2000
   VRHFIN =Fe:  d7 s1

   TITEL  = PAW_PBE Fe 06Sep2000
   POMASS =   55.847; ZVAL   =    8.000    mass and valenz
   ENMAX  =  267.882; ENMIN  =  200.911 eV

 POTCAR:    PAW_PBE C 08Apr2002
   VRHFIN =C: s2p2

   TITEL  = PAW_PBE C 08Apr2002
   POMASS =   12.011; ZVAL   =    4.000    mass and valenz
   ENMAX  =  400.000; ENMIN  =  300.000 eV

 POTCAR:    PAW_PBE O 08Apr2002
   VRHFIN =O: s2p4

   TITEL  = PAW_PBE O 08Apr2002
   POMASS =   16.000; ZVAL   =    6.000    mass and valenz
   ENMAX  =  400.000; ENMIN  =  300.000 eV

 Optimization of the real space projectors (new method)

 maximal supplied QI-value         = 15.12
 optimisation between [QCUT,QGAM] = [ 11.34, 22.83] = [ 36.00,145.93] Ry
 Optimized for a Real-space Cutoff    1.39 Angstroem

   l    n(q)    QCUT    max X(q) W(low)/X(q) W(high)/X(q)  e(spline)
   2      9    11.338    60.898    0.39E-03    0.42E-03    0.21E-06
   2      9    11.338    58.894    0.40E-03    0.42E-03    0.22E-06
   0      9    11.338   109.617    0.13E-03    0.20E-04    0.13E-06
   0      9    11.338    75.026    0.13E-03    0.20E-04    0.13E-06
   1      9    11.338    16.344    0.33E-04    0.24E-03    0.18E-06
   1      9    11.338    10.160    0.26E-04    0.19E-03    0.15E-06
 Optimization of the real space projectors (new method)

[...]

   l    n(q)    QCUT    max X(q) W(low)/X(q) W(high)/X(q)  e(spline)
   0      7    11.310   115.676    0.43E-03    0.13E-02    0.19E-06
   0      7    11.310    87.132    0.43E-03    0.13E-02    0.18E-06
   1      6    11.310     4.429    0.42E-03    0.74E-03    0.11E-06
   1      6    11.310     2.733    0.34E-03    0.55E-03    0.92E-07
 Optimization of the real space projectors (new method)

 maximal supplied QI-value         = 24.76
 optimisation between [QCUT,QGAM] = [ 11.39, 22.77] = [ 36.31,145.25] Ry
 Optimized for a Real-space Cutoff    1.00 Angstroem

   l    n(q)    QCUT    max X(q) W(low)/X(q) W(high)/X(q)  e(spline)
   0      7    11.387    20.381    0.39E-03    0.13E-02    0.15E-06
   0      7    11.387    15.268    0.42E-03    0.14E-02    0.17E-06
   1      6    11.387     5.964    0.41E-03    0.11E-02    0.17E-06
   1      6    11.387     5.382    0.39E-03    0.87E-03    0.15E-06
  PAW_PBE Au 04Oct2007                  :
  PAW_PBE Fe 06Sep2000                  :
  PAW_PBE C 08Apr2002                   :
  PAW_PBE O 08Apr2002                   :

 POSCAR: Au-Fe-CO2
  positions in direct lattice
  velocities in cartesian coordinates
 exchange correlation table for  LEXCH =        8
   RHO(1)=    0.500       N(1)  =     2000
   RHO(2)=  100.500       N(2)  =     4000

 VTST: version 3.2, (02/03/18)

 CHAIN: initializing optimizer

 OPT: Using VASP Conjugate-Gradient optimizer
 CHAIN: Read ICHAIN            0

 POSCAR: Au-Fe-CO2
  positions in direct lattice
  velocities in cartesian coordinates

 ion  position               nearest neighbor table
   1  0.000  0.000  0.217-  16 2.94  12 2.94   6 2.94   8 2.94   7 2.94   3 2.94  10 2.94   4 2.94
                             2 2.94
   2  0.333  0.000  0.217-   9 2.94  11 2.94  17 2.94  10 2.94   8 2.94   4 2.94   5 2.94   1 2.94
                             3 2.94
   3  0.667  0.000  0.217-   7 2.94  18 2.94  12 2.94   1 2.94  11 2.94   5 2.94   6 2.94   9 2.94
                             2 2.94
   4  0.000  0.333  0.217-  10 2.94   6 2.94   5 2.94  13 2.94   2 2.94  15 2.94   9 2.94   1 2.94
                             7 2.94
   5  0.333  0.333  0.217-  13 2.94   7 2.94  11 2.94   4 2.94   2 2.94  14 2.94   3 2.94   8 2.94
                             6 2.94
   6  0.667  0.333  0.217-  15 2.94  14 2.94   1 2.94  12 2.94   4 2.94   9 2.94   8 2.94   3 2.94
                             5 2.94
   7  0.000  0.667  0.217-  18 2.94   3 2.94  16 2.94   5 2.94   1 2.94  13 2.94   8 2.94   4 2.94
                             9 2.94
   8  0.333  0.667  0.217-   9 2.94  17 2.94   1 2.94   2 2.94  14 2.94  16 2.94   6 2.94   7 2.94
                             5 2.94
   9  0.667  0.667  0.217-   2 2.94   8 2.94  17 2.94   6 2.94  15 2.94   4 2.94   3 2.94  18 2.94
                             7 2.94
  10  0.111  0.111  0.315-  20 2.93  26 2.94  19 2.94  11 2.94  17 2.94   2 2.94   4 2.94   1 2.94
                            12 2.94  16 2.94  13 2.94  15 2.94
  11  0.444  0.111  0.315-  20 2.91  21 2.91  27 2.93  13 2.94   2 2.94  10 2.94  17 2.94   5 2.94
                             3 2.94  18 2.94  14 2.94  12 2.94
  12  0.778  0.111  0.315-  21 2.93  25 2.94  19 2.94  16 2.94  18 2.94   1 2.94  14 2.94  15 2.94
                             3 2.94   6 2.94  10 2.94  11 2.94
  13  0.111  0.444  0.315-  23 2.91  20 2.91  22 2.93   5 2.94  18 2.94  11 2.94   7 2.94   4 2.94
                            16 2.94  10 2.94  14 2.94  15 2.94
  14  0.444  0.444  0.315-  21 2.91  23 2.91  24 2.93  15 2.94   6 2.94  12 2.94   8 2.94  17 2.94
                             5 2.94  16 2.94  13 2.94  11 2.94
  15  0.778  0.444  0.315-  24 2.92  22 2.92  19 2.94  14 2.94   6 2.94  17 2.94  12 2.94   9 2.94
                             4 2.94  10 2.94  13 2.94  18 2.94
  16  0.111  0.778  0.315-  23 2.93  25 2.94  26 2.94  18 2.94  12 2.94   7 2.94   1 2.94   8 2.94
                            13 2.94  10 2.94  14 2.94  17 2.94
  17  0.444  0.778  0.315-  27 2.92  24 2.92  26 2.94   9 2.94  15 2.94   2 2.94  10 2.94  11 2.94
                             8 2.94  14 2.94  16 2.94  18 2.94
  18  0.778  0.778  0.315-  22 2.92  27 2.92  25 2.94  16 2.94   7 2.94  13 2.94  12 2.94   3 2.94
                            11 2.94   9 2.94  15 2.94  17 2.94
  19  0.889  0.222  0.413-  10 2.94  12 2.94  15 2.94  26 2.94  25 2.94  24 2.94  22 2.94  28 2.95
                            21 2.95  20 2.95  32 2.98  31 2.98
  20  0.223  0.223  0.412-  36 2.70  23 2.91  21 2.91  11 2.91  13 2.91  29 2.92  31 2.92  10 2.93
                            27 2.95  22 2.95  26 2.95  19 2.95
  21  0.553  0.223  0.412-  36 2.70  20 2.91  23 2.91  14 2.91  11 2.91  30 2.92  32 2.92  12 2.93
                            27 2.95  24 2.95  25 2.95  19 2.95
  22  0.887  0.557  0.413-  24 2.91  27 2.91  18 2.92  15 2.92  13 2.93  25 2.94  19 2.94  33 2.95
                            31 2.95  23 2.95  20 2.95  35 2.95
  23  0.223  0.553  0.412-  36 2.70  20 2.91  21 2.91  13 2.91  14 2.91  33 2.92  34 2.92  16 2.93
                            22 2.95  24 2.95  25 2.95  26 2.95
  24  0.557  0.557  0.413-  27 2.91  22 2.91  15 2.92  17 2.92  14 2.93  26 2.94  19 2.94  32 2.95
                            34 2.95  21 2.95  23 2.95  35 2.95
  25  0.889  0.889  0.413-  16 2.94  12 2.94  18 2.94  19 2.94  26 2.94  22 2.94  27 2.94  28 2.95
                            23 2.95  21 2.95  33 2.98  30 2.98
  26  0.222  0.889  0.413-  10 2.94  16 2.94  17 2.94  19 2.94  25 2.94  27 2.94  24 2.94  28 2.95
                            20 2.95  23 2.95  29 2.98  34 2.98
  27  0.557  0.887  0.413-  24 2.91  22 2.91  17 2.92  18 2.92  11 2.93  26 2.94  25 2.94  29 2.95
                            30 2.95  20 2.95  21 2.95  35 2.95
  28  0.000  0.000  0.512-  25 2.95  19 2.95  26 2.95  34 2.98  32 2.98  33 2.98  30 2.98  31 2.98
                            29 2.98
  29  0.333  0.010  0.512-  30 2.85  31 2.85  36 2.87  20 2.92  27 2.95  26 2.98  35 2.98  28 2.98
                            34 3.11
  30  0.657  0.010  0.512-  29 2.85  32 2.85  36 2.87  21 2.92  27 2.95  25 2.98  35 2.98  28 2.98
                            33 3.11
  31  0.010  0.333  0.512-  33 2.85  29 2.85  36 2.87  20 2.92  22 2.95  19 2.98  35 2.98  28 2.98
                            32 3.11
  32  0.657  0.333  0.512-  34 2.85  30 2.85  36 2.87  21 2.92  24 2.95  19 2.98  35 2.98  28 2.98
                            31 3.11
  33  0.010  0.657  0.512-  31 2.85  34 2.85  36 2.87  23 2.92  22 2.95  25 2.98  35 2.98  28 2.98
                            30 3.11
  34  0.333  0.657  0.512-  32 2.85  33 2.85  36 2.87  23 2.92  24 2.95  26 2.98  35 2.98  28 2.98
                            29 3.11
  35  0.667  0.667  0.513-  24 2.95  27 2.95  22 2.95  29 2.98  34 2.98  32 2.98  31 2.98  30 2.98
                            33 2.98
  36  0.333  0.333  0.499-  20 2.70  23 2.70  21 2.70  33 2.87  31 2.87  29 2.87  30 2.87  34 2.87
                            32 2.87
  37  0.329  0.330  0.662-  39 1.18  38 1.18
  38  0.199  0.322  0.662-  37 1.18
  39  0.458  0.337  0.662-  37 1.18

  LATTYP: Found a hexagonal cell.
 ALAT       =     8.8135128021
 C/A-ratio  =     2.7649717827

  Lattice vectors:

 A1 = (  -4.4067569092,  -7.6327256898,   0.0000000000)
 A2 = (   8.8135128021,   0.0000000000,   0.0000000000)
 A3 = (   0.0000000000,   0.0000000000,  24.3691142040)

Analysis of symmetry for initial positions (statically):
 Subroutine PRICEL returns:
 Original cell was already a primitive cell.

 Routine SETGRP: Setting up the symmetry group for a
 hexagonal supercell.

 Subroutine GETGRP returns: Found  1 space group operations
 (whereof  1 operations were pure point group operations)
 out of a pool of 24 trial point group operations.

The static configuration has the point symmetry C_1 .

Analysis of symmetry for dynamics (positions and initial velocities):
 Subroutine PRICEL returns:
 Original cell was already a primitive cell.

[...]

The dynamic configuration has the point symmetry C_1 .

Analysis of constrained symmetry for selective dynamics:
 Subroutine PRICEL returns:
[...]
     41      -4.9947      2.00000
     42      -4.9635      2.00000
     43      -4.9609      2.00000
     44      -4.9522      2.00000
     45      -4.8972      2.00000
     46      -4.8161      2.00000
     47      -4.7838      2.00000
     48      -4.7258      2.00000
     49      -4.7052      2.00000
     50      -4.7035      2.00000
     51      -4.6948      2.00000
     52      -4.5884      2.00000
     53      -4.5796      2.00000
     54      -4.5457      2.00000
     55      -4.5239      2.00000
     56      -4.5216      2.00000
     57      -4.5133      2.00000
     58      -4.4901      2.00000
     59      -4.4609      2.00000
     60      -4.4166      2.00000
[...]
    238       5.0287      0.00000
    239       5.2491      0.00000
    240       5.3227      0.00000
    241       5.5340      0.00000
    242       5.7159      0.00000
    243       5.7670      0.00000
    244       5.8546      0.00000
    245       6.0180      0.00000
    246       6.0410      0.00000
    247       6.0651      0.00000
    248       6.1511      0.00000
    249       6.3645      0.00000
    250       6.4070      0.00000
    251       6.4266      0.00000
    252       6.4890      0.00000

 soft charge-density along one line, spin component           1
         0         1         2         3         4         5         6         7         8         9
 total charge-density along one line

------------------------ aborting loop because EDIFF is reached ----------------------------------------

 total charge

# of ion       s       p       d       tot
    1        0.546   0.239   8.765   9.550
    2        0.544   0.241   8.764   9.549
    3        0.544   0.241   8.764   9.549
    4        0.544   0.241   8.764   9.549
    5        0.542   0.242   8.762   9.545
    6        0.544   0.241   8.764   9.549
    7        0.544   0.241   8.764   9.549
    8        0.544   0.241   8.764   9.549
    9        0.544   0.239   8.768   9.550
   10        0.523   0.308   8.768   9.599
   11        0.521   0.308   8.780   9.609
   12        0.523   0.308   8.768   9.599
   13        0.521   0.308   8.780   9.609
   14        0.521   0.308   8.780   9.609
   15        0.518   0.308   8.776   9.602
   16        0.523   0.308   8.768   9.599
   17        0.518   0.308   8.776   9.602
   18        0.518   0.308   8.776   9.602
   19        0.516   0.301   8.775   9.591
   20        0.544   0.331   8.751   9.626
   21        0.544   0.331   8.751   9.626
   22        0.511   0.309   8.776   9.597
   23        0.544   0.331   8.751   9.626
   24        0.511   0.309   8.776   9.597
   25        0.516   0.300   8.775   9.592
   26        0.516   0.300   8.775   9.592
   27        0.511   0.309   8.777   9.597
   28        0.538   0.224   8.765   9.527
   29        0.560   0.240   8.749   9.549
   30        0.560   0.240   8.749   9.549
   31        0.558   0.239   8.750   9.547
   32        0.558   0.238   8.750   9.547
   33        0.560   0.240   8.749   9.549
   34        0.559   0.240   8.749   9.548
   35        0.534   0.224   8.766   9.524
   36        0.318   0.240   6.212   6.770
   37        0.933   1.800   0.000   2.733
   38        1.607   3.529   0.000   5.136
   39        1.607   3.529   0.000   5.136
tot         23.184  18.742 312.999 354.925

  FORCE on cell =-STRESS in cart. coord.  units (eV):
  Direction    XX          YY          ZZ          XY          YZ          ZX
  Alpha Z   962.88960   962.88960   962.88960
  Ewald  145928.93265145139.28715************    36.46432     0.72659     1.83945
  Hartree154445.13432154072.71634************    16.84850     0.58096     1.23988
  E(xc)   -1838.87574 -1840.97523 -1848.12976     0.09894     0.00025     0.00260
  Local  ************************311648.82139   -49.93898    -1.31712    -3.01982
  n-local  -138.59829  -132.66693  -107.90308    -0.29668     0.03075     0.01009
  augment  2413.21742  2415.90471  2432.56395    -0.12822     0.00296    -0.00525
  Kinetic  5693.81669  5758.89397  5814.71997    -3.06420     0.00624    -0.06012
  Fock        0.00000     0.00000     0.00000     0.00000     0.00000     0.00000
  Total     -25.20708   -25.22207     1.03958    -0.01632     0.03063     0.00683
  in kB     -24.63568   -24.65034     1.01601    -0.01595     0.02993     0.00668

 VOLUME and BASIS-vectors are now :
  energy-cutoff  :      500.00
  volume of cell :     1639.34
      direct lattice vectors                 reciprocal lattice vectors
     8.813512802  0.000000000  0.000000000     0.113462137 -0.065507406  0.000000000
     4.406756909  7.632725690  0.000000000     0.000000000  0.131014796  0.000000000
     0.000000000  0.000000000 24.369114204     0.000000000  0.000000000  0.041035550

  length of vectors
     8.813512802  8.813512802 24.369114204     0.131014796  0.131014796  0.041035550

 FORCES acting on ions
    electron-ion (+dipol)            ewald-force                    non-local-force                 convergence-correction
   0.523E-02 0.159E-01 0.267E+04   -.322E-02 -.161E-01 -.266E+04   -.216E-03 -.192E-02 -.745E+00   -.184E-02 0.120E-02 -.138E+00
   0.565E+00 0.358E+00 0.267E+04   -.594E+00 -.382E+00 -.267E+04   0.250E-01 0.293E-01 -.304E+00   -.152E-03 -.164E-02 -.211E+00
   -.570E+00 0.344E+00 0.267E+04   0.597E+00 -.379E+00 -.267E+04   -.248E-01 0.292E-01 -.303E+00   0.203E-02 0.952E-02 -.208E+00
   0.581E+00 0.318E+00 0.267E+04   -.615E+00 -.330E+00 -.267E+04   0.398E-01 0.637E-02 -.311E+00   -.418E-02 0.339E-03 -.210E+00
   -.179E-01 -.874E-02 0.267E+04   0.392E-02 0.225E-02 -.267E+04   -.206E-03 -.467E-03 -.233E+00   0.145E-01 0.712E-02 -.204E+00
   -.567E+00 0.315E+00 0.267E+04   0.611E+00 -.332E+00 -.267E+04   -.398E-01 0.625E-02 -.311E+00   -.559E-02 0.486E-02 -.205E+00
   0.232E-02 -.673E+00 0.267E+04   -.179E-01 0.714E+00 -.267E+04   0.137E-01 -.358E-01 -.303E+00   0.744E-02 -.283E-02 -.205E+00
   -.124E-01 -.662E+00 0.267E+04   0.183E-01 0.710E+00 -.267E+04   -.137E-01 -.359E-01 -.304E+00   0.217E-02 -.957E-02 -.203E+00
   0.144E-01 -.772E-02 0.267E+04   -.376E-03 0.138E-01 -.267E+04   0.166E-03 0.295E-02 -.431E+00   -.144E-01 -.873E-02 -.201E+00
   0.460E+01 0.276E+01 0.935E+03   -.423E+01 -.255E+01 -.934E+03   -.247E+00 -.142E+00 -.720E+00   -.783E-01 -.437E-01 0.199E+00
   -.384E-01 0.547E+01 0.943E+03   0.259E-01 -.555E+01 -.943E+03   -.248E-04 0.226E-01 -.366E+00   0.127E-01 0.730E-02 0.288E+00
   -.456E+01 0.274E+01 0.935E+03   0.421E+01 -.254E+01 -.934E+03   0.246E+00 -.141E+00 -.719E+00   0.703E-01 -.355E-01 0.198E+00
   0.463E+01 -.279E+01 0.943E+03   -.470E+01 0.281E+01 -.943E+03   0.182E-01 -.924E-02 -.368E+00   0.105E-01 0.901E-02 0.289E+00
   -.467E+01 -.277E+01 0.943E+03   0.472E+01 0.280E+01 -.943E+03   -.179E-01 -.949E-02 -.369E+00   0.114E-01 0.550E-02 0.285E+00
   0.325E-01 0.317E+01 0.938E+03   -.196E-01 -.327E+01 -.938E+03   -.341E-03 0.273E-01 -.537E+00   -.127E-01 0.306E-01 0.231E+00
   0.339E-02 -.530E+01 0.935E+03   -.552E-02 0.489E+01 -.934E+03   0.357E-04 0.283E+00 -.715E+00   0.211E-02 0.784E-01 0.198E+00
   0.281E+01 -.162E+01 0.938E+03   -.290E+01 0.169E+01 -.938E+03   0.242E-01 -.152E-01 -.525E+00   0.214E-01 -.276E-01 0.229E+00
   -.282E+01 -.166E+01 0.938E+03   0.290E+01 0.171E+01 -.938E+03   -.244E-01 -.151E-01 -.524E+00   -.230E-01 -.158E-01 0.231E+00
   0.204E+00 0.234E+01 -.825E+03   -.194E+00 -.250E+01 0.823E+03   -.148E-03 0.424E-01 0.518E+00   -.958E-02 0.117E+00 0.882E+00
   0.221E+02 0.133E+02 -.787E+03   -.217E+02 -.131E+02 0.786E+03   -.816E+00 -.466E+00 -.721E+00   0.424E+00 0.248E+00 0.158E+01
   -.223E+02 0.133E+02 -.787E+03   0.219E+02 -.131E+02 0.786E+03   0.814E+00 -.465E+00 -.721E+00   -.427E+00 0.253E+00 0.157E+01
   0.226E+01 -.213E+01 -.811E+03   -.277E+01 0.244E+01 0.810E+03   0.336E+00 -.202E+00 0.525E+00   0.172E+00 -.109E+00 0.100E+01
   -.873E-01 -.265E+02 -.788E+03   0.851E-01 0.261E+02 0.787E+03   0.731E-03 0.933E+00 -.721E+00   0.120E-02 -.496E+00 0.158E+01
   -.216E+01 -.196E+01 -.811E+03   0.268E+01 0.227E+01 0.810E+03   -.336E+00 -.201E+00 0.526E+00   -.186E+00 -.111E+00 0.100E+01
   -.163E+01 -.666E+00 -.826E+03   0.176E+01 0.742E+00 0.825E+03   -.287E-01 -.148E-01 0.498E+00   -.991E-01 -.586E-01 0.880E+00
   0.174E+01 -.498E+00 -.826E+03   -.186E+01 0.582E+00 0.825E+03   0.295E-01 -.162E-01 0.500E+00   0.928E-01 -.652E-01 0.882E+00
   -.917E-01 0.287E+01 -.812E+03   0.983E-01 -.345E+01 0.811E+03   -.292E-03 0.387E+00 0.521E+00   -.633E-02 0.200E+00 0.100E+01
   0.955E+00 0.472E+01 -.253E+04   -.955E+00 -.472E+01 0.253E+04   0.994E-04 -.162E-02 0.566E+00   -.148E-03 0.134E-02 0.682E+00
   0.193E+02 0.390E+02 -.251E+04   -.189E+02 -.385E+02 0.251E+04   -.774E+00 -.118E+01 0.171E+00   0.405E+00 0.618E+00 0.607E+00
   -.203E+02 0.379E+02 -.251E+04   0.199E+02 -.373E+02 0.251E+04   0.773E+00 -.118E+01 0.165E+00   -.405E+00 0.627E+00 0.607E+00
   0.416E+02 0.269E+00 -.250E+04   -.410E+02 -.236E+00 0.250E+04   -.139E+01 -.740E-01 0.287E+00   0.735E+00 0.429E-01 0.605E+00
   -.403E+02 0.106E+01 -.250E+04   0.397E+02 -.104E+01 0.250E+04   0.139E+01 -.724E-01 0.285E+00   -.741E+00 0.474E-01 0.603E+00
   0.172E+02 -.396E+02 -.251E+04   -.169E+02 0.390E+02 0.251E+04   -.647E+00 0.126E+01 0.158E+00   0.341E+00 -.665E+00 0.606E+00
   -.174E+02 -.385E+02 -.251E+04   0.171E+02 0.379E+02 0.251E+04   0.645E+00 0.125E+01 0.176E+00   -.333E+00 -.669E+00 0.605E+00
   0.145E+00 -.413E+01 -.253E+04   -.132E+00 0.413E+01 0.253E+04   0.376E-03 0.258E-02 0.678E+00   -.132E-01 -.942E-02 0.604E+00
   -.795E+00 -.509E+00 -.171E+04   0.785E+00 0.507E+00 0.170E+04   0.177E-02 -.733E-03 0.302E+01   0.103E-01 0.730E-02 0.786E+00
   -.131E+00 -.774E-01 -.845E+03   0.108E+00 0.748E-01 0.845E+03   0.178E-01 0.292E-03 -.602E-01   0.422E-02 0.141E-02 -.204E+00
   0.261E+03 0.122E+02 -.127E+04   -.325E+03 -.152E+02 0.127E+04   0.637E+02 0.300E+01 0.190E+00   0.732E-01 0.565E-02 -.259E+00
   -.261E+03 -.124E+02 -.127E+04   0.325E+03 0.154E+02 0.127E+04   -.637E+02 -.300E+01 0.809E-01   -.755E-01 -.212E-02 -.278E+00
   0.301E-01 0.872E-02 -.145E+02   0.568E-13 0.227E-12 0.637E-11   -.439E-02 -.434E-02 -.144E+01   -.209E-01 -.730E-02 0.157E+02

 POSITION                                       TOTAL-FORCE (eV/Angst)
      0.00000      0.00000      5.28038        -0.000168     -0.000745     -0.099246
      2.93784      0.00000      5.28038        -0.004154      0.003491     -0.058983
      5.87568      0.00000      5.28038         0.003944      0.003472     -0.058933
      1.46892      2.54424      5.28038         0.001251     -0.005320     -0.060044
      4.40676      2.54424      5.28038         0.000095      0.000241     -0.090916
      7.34459      2.54424      5.28038        -0.001536     -0.005370     -0.060138
      2.93784      5.08848      5.28038         0.005461      0.002077     -0.060165
      5.87568      5.08848      5.28038        -0.005754      0.002020     -0.060159
      8.81351      5.08848      5.28038        -0.000260      0.000422     -0.080391
      1.46892      0.84808      7.67911         0.040702      0.024090      0.093299
      4.40676      0.84808      7.67911         0.000043     -0.045074     -0.008397
      7.34459      0.84808      7.67911        -0.040926      0.024158      0.093257
      2.93784      3.39232      7.67911        -0.039764      0.023142     -0.009364
      5.87568      3.39232      7.67911         0.040061      0.023191     -0.009478
      8.81351      3.39232      7.67911        -0.000230     -0.041146      0.062869
      4.40676      5.93656      7.67911        -0.000100     -0.047774      0.093753
      7.34459      5.93656      7.67911        -0.035819      0.020047      0.063499
     10.28243      5.93656      7.67911         0.035591      0.020135      0.063577
      8.81351      1.69603     10.07519        -0.000283     -0.004022      0.053219
      2.95264      1.70471     10.05068        -0.021237     -0.012444     -0.012354
      5.86088      1.70471     10.05068         0.020646     -0.012626     -0.013062
     10.26798      4.24875     10.06116         0.004738     -0.002133      0.011473
      4.40676      4.22331     10.05068        -0.000410      0.022284     -0.014497
      7.35905      4.24875     10.06116        -0.005603     -0.002293      0.012104
     11.75147      6.78471     10.07519         0.001807      0.002000      0.048593
      5.87556      6.78471     10.07519        -0.002594      0.001949      0.049046
      8.81351      6.76796     10.06116        -0.000151      0.004554      0.007213
      0.00000      0.00000     12.48698        -0.000255     -0.000531     -0.050226
      2.98147      0.07441     12.46921        -0.012512     -0.026644      0.011738
      5.83205      0.07441     12.46921         0.012413     -0.026376      0.011980
      1.55518      2.54482     12.46921        -0.032608      0.001436      0.008958
      7.25833      2.54482     12.46921         0.032452      0.001016      0.008494
      2.98047      5.01349     12.46921        -0.012466      0.025206      0.012858
      5.83305      5.01349     12.46921         0.012475      0.025703      0.012249
      8.81351      5.08848     12.49182        -0.000326      0.000827      0.020943
      4.40676      2.54424     12.16047         0.001835      0.003766      0.003718
      4.34808      2.51536     16.12822        -0.001014     -0.000847      0.001877
      3.17247      2.46016     16.12468        -0.003855      0.002390      0.000482
      5.52355      2.57059     16.12647         0.008511     -0.004273      0.001154
    total drift:                                0.004750     -0.002915     -0.265015

  FREE ENERGIE OF THE ION-ELECTRON SYSTEM (eV)
  free  energy   TOTEN  =      -135.58625241 eV

  energy  without entropy=     -135.58625241  energy(sigma->0) =     -135.58625241

 stress matrix after NEB project (eV)
    -25.20708     -0.01632      0.00683
     -0.01632    -25.22207      0.03063
      0.00683      0.03063      1.03958
  FORCES: max atom, RMS     0.009593    0.001740
  FORCE total and by dimension    0.010867    0.008511
  Stress total and by dimension   35.673978   25.222069
|           W    W    AA    RRRRR   N    N  II  N    N   GGGG   !!!           |
|           W    W   A  A   R    R  NN   N  II  NN   N  G    G  !!!           |
|           W    W  A    A  R    R  N N  N  II  N N  N  G       !!!           |
|           W WW W  AAAAAA  RRRRR   N  N N  II  N  N N  G  GGG   !            |
|           WW  WW  A    A  R   R   N   NN  II  N   NN  G    G                |
|           W    W  A    A  R    R  N    N  II  N    N   GGGG   !!!           |
|     Tetrahedron method does not include variations of the Fermi             |
|     occupations, so forces and stress will be inaccurate. We suggest        |
|     using a different smearing scheme ISMEAR = 1 or 2 for metals in         |
|     relaxations.                                                            |

 total charge

# of ion       s       p       d       tot
    1        0.546   0.239   8.765   9.550
    2        0.544   0.241   8.764   9.549
    3        0.544   0.241   8.764   9.549
    4        0.544   0.241   8.764   9.549
    5        0.542   0.242   8.762   9.545
    6        0.544   0.241   8.764   9.549
    7        0.544   0.241   8.764   9.549
    8        0.544   0.241   8.764   9.549
    9        0.544   0.239   8.768   9.550
   10        0.523   0.308   8.768   9.599
   11        0.521   0.308   8.780   9.609
   12        0.523   0.308   8.768   9.599
   13        0.521   0.308   8.780   9.609
   14        0.521   0.308   8.780   9.609
   15        0.518   0.308   8.776   9.602
   16        0.523   0.308   8.768   9.599
   17        0.518   0.308   8.776   9.602
   18        0.518   0.308   8.776   9.602
   19        0.516   0.301   8.775   9.591
   20        0.544   0.331   8.751   9.626
   21        0.544   0.331   8.751   9.626
   22        0.511   0.309   8.776   9.597
   23        0.544   0.331   8.751   9.626
   24        0.511   0.309   8.776   9.597
   25        0.516   0.300   8.775   9.592
   26        0.516   0.300   8.775   9.592
   27        0.511   0.309   8.777   9.597
   28        0.538   0.224   8.765   9.527
   29        0.560   0.240   8.749   9.549
   30        0.560   0.240   8.749   9.549
   31        0.558   0.239   8.750   9.547
   32        0.558   0.238   8.750   9.547
   33        0.560   0.240   8.749   9.549
   34        0.559   0.240   8.749   9.548
   35        0.534   0.224   8.766   9.524
   36        0.318   0.240   6.212   6.770
   37        0.933   1.800   0.000   2.733
   38        1.607   3.529   0.000   5.136
   39        1.607   3.529   0.000   5.136
tot         23.184  18.742 312.999 354.925

 BZINTS: Fermi energy:    0.257620;  409.000000 electrons
         Band energy:-0.150401E+04;  BLOECHL correction:   -0.051366