 vasp.6.2.0 18Jan21 (build Jun 12 2021 23:27:24) complex

 executed on             LinuxIFC date 2022.05.26  20:10:25

 INCAR:
   ISMEAR = -5
   SIGMA = 0.1
   ISPIN = 1
   EDIFF = 1.d-5
   EDIFFG = -0.01
   NSW = 0
   NELM = 150
   ENCUT = 500
   ISIF = 2
   IBRION = 2
   LREAL = Auto
   ALGO = Fast
   ICHARG = 11
   LORBIT = 10
   LCHARG = .F.
   LWAVE = .F.

 POTCAR:    PAW_PBE Cu 22Jun2005
 POTCAR:    PAW_PBE Pt 04Feb2005
 POTCAR:    PAW_PBE H 15Jun2001
|           W    W    AA    RRRRR   N    N  II  N    N   GGGG   !!!           |
|           W    W   A  A   R    R  NN   N  II  NN   N  G    G  !!!           |
|           W    W  A    A  R    R  N N  N  II  N N  N  G       !!!           |
|           W WW W  AAAAAA  RRRRR   N  N N  II  N  N N  G  GGG   !            |
|           WW  WW  A    A  R   R   N   NN  II  N   NN  G    G                |
|           W    W  A    A  R    R  N    N  II  N    N   GGGG   !!!           |
|     For optimal performance we recommend to set                             |
|       NCORE = 2 up to number-of-cores-per-socket                            |
|     This setting can greatly improve the performance of VASP for DFT.       |
|     The default, NCORE=1 might be grossly inefficient on modern             |
|     multi-core architectures or massively parallel machines. Do your        |
|     Unfortunately you need to use the default for GW and RPA                |
|     calculations (for HF NCORE is supported but not extensively tested      |
|     yet).                                                                   |

 POTCAR:    PAW_PBE Cu 22Jun2005
   VRHFIN =Cu: d10 p1

   TITEL  = PAW_PBE Cu 22Jun2005
   POMASS =   63.546; ZVAL   =   11.000    mass and valenz
   ENMAX  =  295.446; ENMIN  =  221.585 eV

 POTCAR:    PAW_PBE Pt 04Feb2005
   VRHFIN =Pt: s1d9

   TITEL  = PAW_PBE Pt 04Feb2005
   POMASS =  195.080; ZVAL   =   10.000    mass and valenz
   ENMAX  =  230.283; ENMIN  =  172.712 eV

 POTCAR:    PAW_PBE H 15Jun2001
   VRHFIN =H: ultrasoft test

   TITEL  = PAW_PBE H 15Jun2001
   POMASS =    1.000; ZVAL   =    1.000    mass and valenz
   ENMAX  =  250.000; ENMIN  =  200.000 eV

 Optimization of the real space projectors (new method)

 maximal supplied QI-value         = 16.25
 optimisation between [QCUT,QGAM] = [ 11.38, 22.75] = [ 36.24,144.96] Ry
 Optimized for a Real-space Cutoff    1.52 Angstroem

   l    n(q)    QCUT    max X(q) W(low)/X(q) W(high)/X(q)  e(spline)
   2      9    11.376     4.610    0.21E-03    0.10E-03    0.26E-06
   2      9    11.376     8.522    0.33E-03    0.16E-03    0.37E-06
   0     10    11.376    51.609    0.62E-04    0.20E-04    0.13E-06
   0     10    11.376    27.747    0.54E-04    0.20E-04    0.13E-06
   1     10    11.376    20.408    0.13E-04    0.99E-04    0.19E-06
   1     10    11.376    13.425    0.12E-04    0.87E-04    0.17E-06
 Optimization of the real space projectors (new method)

[...]

   l    n(q)    QCUT    max X(q) W(low)/X(q) W(high)/X(q)  e(spline)
   2      9    11.346    66.195    0.31E-03    0.12E-04    0.29E-06
   2      9    11.346    64.643    0.32E-03    0.12E-04    0.29E-06
   0     10    11.346    95.520    0.90E-04    0.16E-04    0.19E-06
   0     10    11.346    63.403    0.87E-04    0.15E-04    0.19E-06
   1     10    11.346    19.961    0.17E-03    0.21E-03    0.11E-06
   1     10    11.346    13.289    0.14E-03    0.18E-03    0.89E-07
 Optimization of the real space projectors (new method)

 maximal supplied QI-value         = 34.20
 optimisation between [QCUT,QGAM] = [ 11.29, 22.57] = [ 35.68,142.71] Ry
 Optimized for a Real-space Cutoff    1.16 Angstroem

   l    n(q)    QCUT    max X(q) W(low)/X(q) W(high)/X(q)  e(spline)
   0      8    11.287    19.460    0.40E-03    0.73E-03    0.16E-06
   0      8    11.287    12.209    0.38E-03    0.70E-03    0.15E-06
   1      7    11.287     4.655    0.22E-03    0.25E-04    0.22E-06
  PAW_PBE Cu 22Jun2005                  :
  PAW_PBE Pt 04Feb2005                  :
  PAW_PBE H 15Jun2001                   :

 POSCAR: Cu-Pt-H
  positions in direct lattice
  velocities in cartesian coordinates
 exchange correlation table for  LEXCH =        8
   RHO(1)=    0.500       N(1)  =     2000
   RHO(2)=  100.500       N(2)  =     4000

 VTST: version 3.2, (02/03/18)

 CHAIN: initializing optimizer

 OPT: Using VASP Conjugate-Gradient optimizer
 CHAIN: Read ICHAIN            0

 POSCAR: Cu-Pt-H
  positions in direct lattice
  velocities in cartesian coordinates

 ion  position               nearest neighbor table
   1  0.000  0.000  0.252-   7 2.57   3 2.57   4 2.57   2 2.57   6 2.57   8 2.57  12 2.57  10 2.57
                            16 2.57
   2  0.333  0.000  0.252-   8 2.57   9 2.57   5 2.57   1 2.57   3 2.57  11 2.57   4 2.57  10 2.57
                            17 2.57
   3  0.667  0.000  0.252-   1 2.57   7 2.57   6 2.57   9 2.57   2 2.57  12 2.57   5 2.57  18 2.57
                            11 2.57
   4  0.000  0.333  0.252-   5 2.57   6 2.57   1 2.57   7 2.57   2 2.57  13 2.57   9 2.57  10 2.57
                            15 2.57
   5  0.333  0.333  0.252-   4 2.57   2 2.57   7 2.57  13 2.57   8 2.57   6 2.57   3 2.57  11 2.57
                            14 2.57
   6  0.667  0.333  0.252-   4 2.57   9 2.57  15 2.57   3 2.57   1 2.57   8 2.57  14 2.57   5 2.57
                            12 2.57
   7  0.000  0.667  0.252-   1 2.57   3 2.57  16 2.57  18 2.57   4 2.57   5 2.57   8 2.57   9 2.57
                            13 2.57
   8  0.333  0.667  0.252-   9 2.57   2 2.57  17 2.57   6 2.57   1 2.57   7 2.57   5 2.57  14 2.57
                            16 2.57
   9  0.667  0.667  0.252-   8 2.57   6 2.57   2 2.57  17 2.57   3 2.57   7 2.57   4 2.57  15 2.57
                            18 2.57
  10  0.111  0.111  0.351-  20 2.53  26 2.56  19 2.56  11 2.57  12 2.57  13 2.57   1 2.57   2 2.57
                             4 2.57  15 2.57  16 2.57  17 2.57
  11  0.444  0.111  0.351-  20 2.55  21 2.55  27 2.56  10 2.57  13 2.57   2 2.57  17 2.57  14 2.57
                            12 2.57   5 2.57   3 2.57  18 2.57
  12  0.778  0.111  0.351-  21 2.53  19 2.56  25 2.56  15 2.57  10 2.57  14 2.57  18 2.57   3 2.57
                             1 2.57  16 2.57  11 2.57   6 2.57
  13  0.111  0.444  0.351-  23 2.55  20 2.55  22 2.56  16 2.57  18 2.57  10 2.57  11 2.57  14 2.57
                             5 2.57   4 2.57   7 2.57  15 2.57
  14  0.444  0.444  0.351-  21 2.55  23 2.55  24 2.56  15 2.57  17 2.57  12 2.57  16 2.57  13 2.57
                            11 2.57   6 2.57   8 2.57   5 2.57
  15  0.778  0.444  0.351-  19 2.56  24 2.56  22 2.56  14 2.57  17 2.57  12 2.57   6 2.57  18 2.57
                            10 2.57   9 2.57  13 2.57   4 2.57
  16  0.111  0.778  0.351-  23 2.53  25 2.56  26 2.56  18 2.57  13 2.57   7 2.57  14 2.57  17 2.57
                            12 2.57  10 2.57   8 2.57   1 2.57
  17  0.444  0.778  0.351-  26 2.56  27 2.56  24 2.56  14 2.57  15 2.57   8 2.57   9 2.57  11 2.57
                            16 2.57  18 2.57  10 2.57   2 2.57
  18  0.778  0.778  0.351-  25 2.56  22 2.56  27 2.56  16 2.57  13 2.57   7 2.57  15 2.57  12 2.57
                            17 2.57   9 2.57   3 2.57  11 2.57
  19  0.888  0.223  0.449-  28 2.54  32 2.55  31 2.55  21 2.55  20 2.55  15 2.56  12 2.56  10 2.56
                            22 2.56  24 2.56  25 2.58  26 2.58
  20  0.221  0.221  0.448-  10 2.53  11 2.55  13 2.55  26 2.55  19 2.55  27 2.57  22 2.57  29 2.59
                            31 2.59  36 2.60  23 2.60  21 2.60
  21  0.558  0.221  0.448-  12 2.53  14 2.55  11 2.55  19 2.55  25 2.55  24 2.57  27 2.57  32 2.59
                            30 2.59  36 2.60  20 2.60  23 2.60
  22  0.889  0.556  0.449-  35 2.54  18 2.56  15 2.56  13 2.56  19 2.56  25 2.56  24 2.56  27 2.56
                            31 2.57  33 2.57  23 2.57  20 2.57
  23  0.221  0.558  0.448-  16 2.53  13 2.55  14 2.55  25 2.55  26 2.55  22 2.57  24 2.57  33 2.59
                            34 2.59  36 2.60  20 2.60  21 2.60
  24  0.556  0.556  0.449-  35 2.54  15 2.56  17 2.56  14 2.56  19 2.56  26 2.56  22 2.56  27 2.56
                            32 2.57  34 2.57  21 2.57  23 2.57
  25  0.888  0.888  0.449-  28 2.54  33 2.55  30 2.55  21 2.55  23 2.55  18 2.56  16 2.56  12 2.56
                            22 2.56  27 2.56  19 2.58  26 2.58
  26  0.223  0.888  0.449-  28 2.54  29 2.55  34 2.55  20 2.55  23 2.55  17 2.56  10 2.56  16 2.56
                            27 2.56  24 2.56  25 2.58  19 2.58
  27  0.556  0.889  0.449-  35 2.54  17 2.56  18 2.56  11 2.56  26 2.56  25 2.56  24 2.56  22 2.56
                            29 2.57  30 2.57  20 2.57  21 2.57
  28  0.000  0.000  0.546-  25 2.54  19 2.54  26 2.54  33 2.55  30 2.55  31 2.55  29 2.55  32 2.55
                            34 2.55
  29  0.333  0.997  0.547-  34 2.52  26 2.55  28 2.55  35 2.56  27 2.57  31 2.59  20 2.59  36 2.59
                            30 2.59
  30  0.670  0.997  0.547-  33 2.52  25 2.55  28 2.55  35 2.56  27 2.57  32 2.59  21 2.59  36 2.59
                            29 2.59
  31  0.997  0.333  0.547-  32 2.52  19 2.55  28 2.55  35 2.56  22 2.57  29 2.59  20 2.59  36 2.59
                            33 2.59
  32  0.670  0.333  0.547-  31 2.52  19 2.55  28 2.55  35 2.56  24 2.57  30 2.59  21 2.59  36 2.59
                            34 2.59
  33  0.997  0.670  0.547-  30 2.52  25 2.55  28 2.55  35 2.56  22 2.57  34 2.59  23 2.59  36 2.59
                            31 2.59
  34  0.333  0.670  0.547-  29 2.52  26 2.55  28 2.55  35 2.56  24 2.57  33 2.59  23 2.59  36 2.59
                            32 2.59
  35  0.667  0.667  0.546-  24 2.54  27 2.54  22 2.54  34 2.56  32 2.56  29 2.56  30 2.56  33 2.56
                            31 2.56
  36  0.333  0.333  0.547-  37 1.59  31 2.59  29 2.59  33 2.59  34 2.59  32 2.59  30 2.59  23 2.60
                            20 2.60  21 2.60
  37  0.333  0.333  0.622-  36 1.59

  LATTYP: Found a hexagonal cell.
 ALAT       =     7.6967864036
 C/A-ratio  =     2.7653617908

  Lattice vectors:

 A1 = (  -3.8483927580,  -6.6656128093,   0.0000000000)
 A2 = (   7.6967864037,   0.0000000000,   0.0000000000)
 A3 = (   0.0000000000,   0.0000000000,  21.2843990326)

Analysis of symmetry for initial positions (statically):
 Subroutine PRICEL returns:
 Original cell was already a primitive cell.

 Routine SETGRP: Setting up the symmetry group for a
 hexagonal supercell.

 Subroutine GETGRP returns: Found  6 space group operations
 (whereof  6 operations were pure point group operations)
 out of a pool of 24 trial point group operations.

The static configuration has the point symmetry C_3v.

Analysis of symmetry for dynamics (positions and initial velocities):
 Subroutine PRICEL returns:
 Original cell was already a primitive cell.

[...]

The dynamic configuration has the point symmetry C_3v.

Analysis of constrained symmetry for selective dynamics:
 Subroutine PRICEL returns:
 Original cell was already a primitive cell.

 Routine SETGRP: Setting up the symmetry group for a
 hexagonal supercell.

 Subroutine GETGRP returns: Found  6 space group operations
 (whereof  6 operations were pure point group operations)
[...]
     24      -4.2064      2.00000
     25      -4.1854      2.00000
     26      -4.1461      2.00000
     27      -4.0406      2.00000
     28      -4.0135      2.00000
     29      -3.9838      2.00000
     30      -3.9668      2.00000
     31      -3.9570      2.00000
     32      -3.9471      2.00000
     33      -3.9242      2.00000
     34      -3.9004      2.00000
     35      -3.8726      2.00000
     36      -3.8456      2.00000
     37      -3.7833      2.00000
     38      -3.6490      2.00000
     39      -3.6240      2.00000
     40      -3.6166      2.00000
     41      -3.6009      2.00000
     42      -3.5604      2.00000
     43      -3.5344      2.00000
     44      -3.5189      2.00000
     45      -3.5128      2.00000
     46      -3.4662      2.00000
     47      -3.3530      2.00000
     48      -3.3046      2.00000
     49      -3.2929      2.00000
     50      -3.2738      2.00000
     51      -3.2584      2.00000
     52      -3.2383      2.00000
     53      -3.2213      2.00000
     54      -3.2183      2.00000
     55      -3.1923      2.00000
     56      -3.1869      2.00000
     57      -3.1694      2.00000
     58      -3.1518      2.00000
     59      -3.1502      2.00000
     60      -3.1345      2.00000
[...]
    238       6.8920      0.00000
    239       6.9240      0.00000
    240       7.0909      0.00000
    241       7.0955      0.00000
    242       7.3029      0.00000
    243       7.3563      0.00000
    244       7.4156      0.00000
    245       7.4593      0.00000
    246       7.5678      0.00000
    247       7.7093      0.00000
    248       7.8909      0.00000
    249       8.0227      0.00000
    250       8.2006      0.00000
    251       8.2600      0.00000
    252       8.4822      0.00000

 soft charge-density along one line, spin component           1
         0         1         2         3         4         5         6         7         8         9
 total charge-density along one line

------------------------ aborting loop because EDIFF is reached ----------------------------------------

 total charge

# of ion       s       p       d       tot
    1        0.447   0.284   9.189   9.921
    2        0.450   0.285   9.187   9.921
    3        0.450   0.285   9.187   9.921
    4        0.450   0.285   9.187   9.921
    5        0.449   0.287   9.182   9.918
    6        0.450   0.285   9.187   9.921
    7        0.450   0.285   9.187   9.921
    8        0.450   0.285   9.187   9.921
    9        0.446   0.284   9.192   9.922
   10        0.440   0.374   9.175   9.989
   11        0.445   0.368   9.183   9.996
   12        0.440   0.374   9.175   9.989
   13        0.445   0.368   9.183   9.996
   14        0.445   0.368   9.183   9.996
   15        0.437   0.373   9.178   9.987
   16        0.440   0.374   9.175   9.989
   17        0.437   0.373   9.178   9.987
   18        0.437   0.373   9.178   9.987
   19        0.443   0.376   9.180   9.998
   20        0.447   0.381   9.179  10.007
   21        0.447   0.381   9.179  10.007
   22        0.436   0.375   9.180   9.991
   23        0.447   0.381   9.179  10.007
   24        0.436   0.375   9.180   9.991
   25        0.443   0.376   9.180   9.998
   26        0.443   0.376   9.180   9.998
   27        0.436   0.375   9.180   9.991
   28        0.453   0.291   9.196   9.940
   29        0.446   0.299   9.190   9.936
   30        0.446   0.299   9.190   9.936
   31        0.446   0.299   9.190   9.936
   32        0.446   0.299   9.190   9.936
   33        0.446   0.299   9.190   9.936
   34        0.446   0.299   9.190   9.936
   35        0.449   0.293   9.197   9.938
   36        0.755   0.632   8.103   9.491
   37        0.506   0.023   0.000   0.528
tot         16.823  12.339 329.543 358.705

  FORCE on cell =-STRESS in cart. coord.  units (eV):
  Direction    XX          YY          ZZ          XY          YZ          ZX
  Alpha Z   879.21891   879.21891   879.21891
  Ewald  174454.95190174454.95148************     0.00038     0.00011     0.00017
  Hartree187451.41983187451.41980************     0.00003     0.00005     0.00006
  E(xc)   -2294.86343 -2294.86295 -2299.38806    -0.00042    -0.00003    -0.00006
  Local  ************************375428.37564     0.01849    -0.00054    -0.00089
  n-local  -756.48340  -739.59506  -762.12534     8.47646    -0.09201     0.19243
  augment  3360.16067  3360.18074  3374.87661    -0.01738     0.00022     0.00040
  Kinetic  3283.41926  3288.15078  3303.15883     3.43086     1.95451    -1.55394
  Fock        0.00000     0.00000     0.00000     0.00000     0.00000     0.00000
  Total      -3.03662    -3.03662     2.62256     0.00000    -0.00000    -0.00000
  in kB      -4.45543    -4.45543     3.84791     0.00000    -0.00000    -0.00000

 VOLUME and BASIS-vectors are now :
  energy-cutoff  :      500.00
  volume of cell :     1091.97
      direct lattice vectors                 reciprocal lattice vectors
     7.696786404  0.000000000  0.000000000     0.129924354 -0.075011849  0.000000000
     3.848392758  6.665612809  0.000000000     0.000000000  0.150023716  0.000000000
     0.000000000  0.000000000 21.284399033     0.000000000  0.000000000  0.046982769

  length of vectors
     7.696786404  7.696786404 21.284399033     0.150023716  0.150023716  0.046982769

 FORCES acting on ions
    electron-ion (+dipol)            ewald-force                    non-local-force                 convergence-correction
   -.415E-04 0.247E-06 0.349E+04   0.580E-04 -.440E-05 -.348E+04   -.487E-17 0.460E-17 -.304E+01   -.327E-03 -.156E-03 -.599E+00
   -.156E+00 -.141E+00 0.348E+04   0.159E+00 0.142E+00 -.348E+04   0.500E-01 0.604E-01 -.199E+01   -.394E-01 -.378E-01 -.530E+00
   0.156E+00 -.141E+00 0.348E+04   -.159E+00 0.142E+00 -.348E+04   -.500E-01 0.604E-01 -.199E+01   0.402E-01 -.354E-01 -.529E+00
   -.200E+00 -.649E-01 0.348E+04   0.202E+00 0.668E-01 -.348E+04   0.773E-01 0.131E-01 -.199E+01   -.524E-01 -.153E-01 -.530E+00
   -.610E-04 -.300E-05 0.348E+04   0.116E-03 -.101E-04 -.348E+04   -.717E-17 0.119E-17 -.158E+01   0.121E-01 0.738E-02 -.388E+00
   0.200E+00 -.648E-01 0.348E+04   -.203E+00 0.666E-01 -.348E+04   -.773E-01 0.131E-01 -.199E+01   0.509E-01 -.141E-01 -.529E+00
   -.439E-01 0.206E+00 0.348E+04   0.434E-01 -.209E+00 -.348E+04   0.273E-01 -.735E-01 -.199E+01   -.105E-01 0.525E-01 -.529E+00
   0.440E-01 0.206E+00 0.348E+04   -.437E-01 -.209E+00 -.348E+04   -.273E-01 -.735E-01 -.199E+01   0.139E-01 0.511E-01 -.529E+00
   -.144E-03 -.329E-04 0.348E+04   0.263E-03 0.206E-04 -.348E+04   -.262E-17 0.271E-17 -.262E+01   -.131E-01 -.675E-02 -.613E+00
   0.160E+01 0.924E+00 0.117E+04   -.117E+01 -.677E+00 -.117E+04   -.400E+00 -.231E+00 -.109E+01   -.389E-01 -.225E-01 -.252E+00
   -.917E-04 -.234E+01 0.116E+04   0.191E-03 0.226E+01 -.116E+04   -.943E-08 0.142E+00 -.558E+00   0.118E-01 -.823E-01 -.217E+00
   -.160E+01 0.924E+00 0.117E+04   0.117E+01 -.677E+00 -.117E+04   0.400E+00 -.231E+00 -.109E+01   0.375E-01 -.219E-01 -.253E+00
   -.203E+01 0.117E+01 0.116E+04   0.196E+01 -.113E+01 -.116E+04   0.123E+00 -.708E-01 -.558E+00   -.649E-01 0.522E-01 -.217E+00
   0.203E+01 0.117E+01 0.116E+04   -.196E+01 -.113E+01 -.116E+04   -.123E+00 -.708E-01 -.558E+00   0.881E-01 0.505E-01 -.220E+00
   -.143E-03 -.105E+00 0.117E+04   0.298E-03 -.344E-01 -.117E+04   -.598E-08 0.898E-01 -.948E+00   -.298E-02 0.340E-01 -.266E+00
   -.922E-04 -.185E+01 0.117E+04   0.186E-03 0.135E+01 -.117E+04   -.308E-07 0.462E+00 -.109E+01   -.118E-02 0.422E-01 -.253E+00
   -.914E-01 0.526E-01 0.117E+04   -.297E-01 0.174E-01 -.117E+04   0.778E-01 -.449E-01 -.948E+00   0.287E-01 -.196E-01 -.266E+00
   0.914E-01 0.526E-01 0.117E+04   0.295E-01 0.174E-01 -.117E+04   -.778E-01 -.449E-01 -.948E+00   -.271E-01 -.173E-01 -.264E+00
   -.533E-04 0.971E-01 -.117E+04   0.692E-04 -.278E-01 0.117E+04   0.284E-08 -.427E-01 0.783E+00   0.107E-02 -.359E-01 -.995E-01
   -.283E+02 -.163E+02 -.118E+04   0.291E+02 0.168E+02 0.118E+04   -.757E+00 -.437E+00 -.282E+00   -.430E-01 -.250E-01 -.259E-01
   0.283E+02 -.163E+02 -.118E+04   -.291E+02 0.168E+02 0.118E+04   0.757E+00 -.437E+00 -.282E+00   0.220E-01 -.274E-01 -.264E-01
   -.167E+02 0.961E+01 -.117E+04   0.162E+02 -.937E+01 0.117E+04   0.391E+00 -.226E+00 0.860E+00   0.676E-01 -.259E-01 -.180E+00
   -.820E-04 0.326E+02 -.118E+04   0.148E-03 -.336E+02 0.118E+04   -.582E-07 0.874E+00 -.282E+00   -.139E-01 0.315E-01 -.265E-01
   0.167E+02 0.961E+01 -.117E+04   -.162E+02 -.937E+01 0.117E+04   -.391E+00 -.226E+00 0.860E+00   -.440E-01 -.263E-01 -.180E+00
   -.840E-01 -.485E-01 -.117E+04   0.239E-01 0.138E-01 0.117E+04   0.370E-01 0.214E-01 0.783E+00   0.294E-01 0.170E-01 -.999E-01
   0.841E-01 -.485E-01 -.117E+04   -.241E-01 0.138E-01 0.117E+04   -.370E-01 0.214E-01 0.783E+00   -.302E-01 0.191E-01 -.994E-01
   -.125E-03 -.192E+02 -.117E+04   0.245E-03 0.187E+02 0.117E+04   -.301E-07 0.452E+00 0.860E+00   0.113E-01 0.715E-01 -.180E+00
   -.371E-04 0.169E-04 -.347E+04   0.420E-04 -.326E-04 0.346E+04   -.264E-17 0.575E-17 0.238E+01   -.120E-03 -.164E-04 0.462E+00
   -.209E+02 -.334E+02 -.348E+04   0.208E+02 0.328E+02 0.348E+04   0.141E+00 0.573E+00 0.228E+01   -.417E-01 0.602E-01 0.319E+00
   0.209E+02 -.334E+02 -.348E+04   -.208E+02 0.328E+02 0.348E+04   -.141E+00 0.573E+00 0.228E+01   0.422E-01 0.613E-01 0.319E+00
   -.394E+02 -.135E+01 -.348E+04   0.388E+02 0.160E+01 0.348E+04   0.566E+00 -.165E+00 0.228E+01   0.313E-01 -.663E-01 0.319E+00
   0.394E+02 -.135E+01 -.348E+04   -.388E+02 0.160E+01 0.348E+04   -.566E+00 -.165E+00 0.228E+01   -.314E-01 -.655E-01 0.320E+00
   -.185E+02 0.348E+02 -.348E+04   0.180E+02 -.344E+02 0.348E+04   0.426E+00 -.408E+00 0.228E+01   0.742E-01 0.589E-02 0.319E+00
   0.185E+02 0.348E+02 -.348E+04   -.180E+02 -.344E+02 0.348E+04   -.426E+00 -.408E+00 0.228E+01   -.717E-01 0.557E-02 0.321E+00
   -.159E-03 -.314E-04 -.347E+04   0.254E-03 0.243E-05 0.347E+04   -.107E-17 -.552E-18 0.254E+01   -.124E-01 -.632E-02 0.464E+00
   -.459E-04 -.395E-04 -.310E+04   0.123E-03 0.248E-04 0.310E+04   0.145E-17 -.140E-17 -.441E+01   0.211E-02 0.128E-02 0.159E+00
   0.460E-05 -.544E-05 -.390E+03   0.345E-05 0.147E-05 0.393E+03   -.127E-18 -.368E-19 -.271E+01   0.982E-04 0.583E-04 0.148E-01
   -.181E-03 0.945E-05 0.163E+02   0.164E-12 0.241E-12 -.375E-11   -.111E-15 0.387E-15 -.114E+02   0.252E-01 0.115E-01 -.488E+01

 POSITION                                       TOTAL-FORCE (eV/Angst)
      0.00000      0.00000      5.37156        -0.000000     -0.000000      0.038965
      2.56560      0.00000      5.37156         0.013741      0.024657      0.090028
      5.13119      0.00000      5.37156        -0.013741      0.024657      0.090028
      1.28280      2.22187      5.37156         0.028225     -0.000428      0.090028
      3.84839      2.22187      5.37156         0.000000     -0.000000      0.072132
      6.41399      2.22187      5.37156        -0.028225     -0.000428      0.090028
      2.56560      4.44374      5.37156         0.014483     -0.024229      0.090028
      5.13119      4.44374      5.37156        -0.014483     -0.024229      0.090028
      7.69679      4.44374      5.37156        -0.000000     -0.000000      0.054207
      1.28280      0.74062      7.46636        -0.010577     -0.006106     -0.096127
      3.84839      0.74062      7.46636         0.000000     -0.024542     -0.099973
      6.41399      0.74062      7.46636         0.010577     -0.006106     -0.096127
      2.56560      2.96249      7.46636        -0.021254      0.012271     -0.099973
      5.13119      2.96249      7.46636         0.021254      0.012271     -0.099973
      7.69679      2.96249      7.46636         0.000000     -0.016415     -0.062701
      3.84839      5.18437      7.46636        -0.000000      0.012213     -0.096127
      6.41399      5.18437      7.46636        -0.014216      0.008208     -0.062701
      8.97958      5.18437      7.46636         0.014216      0.008208     -0.062701
      7.69679      1.48680      9.55287         0.000000     -0.008586      0.017199
      2.54973      1.47208      9.52995         0.019579      0.011304     -0.179496
      5.14706      1.47208      9.52995        -0.019579      0.011304     -0.179496
      8.97744      3.70436      9.55084         0.027296     -0.015760      0.004574
      3.84839      3.72144      9.52995         0.000000     -0.022607     -0.179496
      6.41613      3.70436      9.55084        -0.027296     -0.015760      0.004574
     10.25757      5.92221      9.55287         0.007436      0.004293      0.017199
      5.13600      5.92221      9.55287        -0.007436      0.004293      0.017199
      7.69679      5.92251      9.55084        -0.000000      0.031519      0.004574
      0.00000      0.00000     11.61595         0.000000     -0.000000     -0.016062
      6.40108      6.64688     11.64473        -0.007128     -0.039318      0.010573
      8.99249      6.64688     11.64473         0.007128     -0.039318      0.010573
      8.95691      2.22006     11.64473        -0.037614      0.013486      0.010573
      6.43666      2.22006     11.64473         0.037614      0.013486      0.010573
     10.25261      4.46428     11.64473        -0.030487      0.025832      0.010573
      5.14096      4.46428     11.64473         0.030487      0.025832      0.010573
      7.69679      4.44374     11.61500        -0.000000      0.000000     -0.000277
      3.84839      2.22187     11.65010        -0.000000     -0.000000      0.536782
      3.84839      2.22187     13.24398         0.000000     -0.000000     -0.039780
    total drift:                                0.025053      0.011520      0.019565

  FREE ENERGIE OF THE ION-ELECTRON SYSTEM (eV)
  free  energy   TOTEN  =      -132.53533759 eV

  energy  without entropy=     -132.53533759  energy(sigma->0) =     -132.53533759

 stress matrix after NEB project (eV)
     -3.03662      0.00000     -0.00000
      0.00000     -3.03662     -0.00000
     -0.00000     -0.00000      2.62256
  FORCES: max atom, RMS     0.039780    0.006540
  FORCE total and by dimension    0.039780    0.039780
  Stress total and by dimension    5.031891    3.036620
|           W    W    AA    RRRRR   N    N  II  N    N   GGGG   !!!           |
|           W    W   A  A   R    R  NN   N  II  NN   N  G    G  !!!           |
|           W    W  A    A  R    R  N N  N  II  N N  N  G       !!!           |
|           W WW W  AAAAAA  RRRRR   N  N N  II  N  N N  G  GGG   !            |
|           WW  WW  A    A  R   R   N   NN  II  N   NN  G    G                |
|           W    W  A    A  R    R  N    N  II  N    N   GGGG   !!!           |
|     Tetrahedron method does not include variations of the Fermi             |
|     occupations, so forces and stress will be inaccurate. We suggest        |
|     using a different smearing scheme ISMEAR = 1 or 2 for metals in         |
|     relaxations.                                                            |

 total charge

# of ion       s       p       d       tot
    1        0.447   0.284   9.189   9.921
    2        0.450   0.285   9.187   9.921
    3        0.450   0.285   9.187   9.921
    4        0.450   0.285   9.187   9.921
    5        0.449   0.287   9.182   9.918
    6        0.450   0.285   9.187   9.921
    7        0.450   0.285   9.187   9.921
    8        0.450   0.285   9.187   9.921
    9        0.446   0.284   9.192   9.922
   10        0.440   0.374   9.175   9.989
   11        0.445   0.368   9.183   9.996
   12        0.440   0.374   9.175   9.989
   13        0.445   0.368   9.183   9.996
   14        0.445   0.368   9.183   9.996
   15        0.437   0.373   9.178   9.987
   16        0.440   0.374   9.175   9.989
   17        0.437   0.373   9.178   9.987
   18        0.437   0.373   9.178   9.987
   19        0.443   0.376   9.180   9.998
   20        0.447   0.381   9.179  10.007
   21        0.447   0.381   9.179  10.007
   22        0.436   0.375   9.180   9.991
   23        0.447   0.381   9.179  10.007
   24        0.436   0.375   9.180   9.991
   25        0.443   0.376   9.180   9.998
   26        0.443   0.376   9.180   9.998
   27        0.436   0.375   9.180   9.991
   28        0.453   0.291   9.196   9.940
   29        0.446   0.299   9.190   9.936
   30        0.446   0.299   9.190   9.936
   31        0.446   0.299   9.190   9.936
   32        0.446   0.299   9.190   9.936
   33        0.446   0.299   9.190   9.936
   34        0.446   0.299   9.190   9.936
   35        0.449   0.293   9.197   9.938
   36        0.755   0.632   8.103   9.491
   37        0.506   0.023   0.000   0.528
tot         16.823  12.339 329.543 358.705

 BZINTS: Fermi energy:    0.108816;  396.000000 electrons
         Band energy:-0.105751E+04;  BLOECHL correction:   -0.063911