 vasp.6.2.0 18Jan21 (build Jun 12 2021 23:27:24) complex

 executed on             LinuxIFC date 2022.05.27  06:12:39

 INCAR:
   ISMEAR = -5
   SIGMA = 0.1
   ISPIN = 1
   EDIFF = 1.d-5
   EDIFFG = -0.01
   NSW = 0
   NELM = 150
   ENCUT = 500
   ISIF = 2
   IBRION = 2
   LREAL = Auto
   ALGO = Fast
   ICHARG = 11
   LORBIT = 10
   LCHARG = .F.
   LWAVE = .F.

 POTCAR:    PAW_PBE Cu 22Jun2005
 POTCAR:    PAW_PBE Rh 04Feb2005
 POTCAR:    PAW_PBE H 15Jun2001
|           W    W    AA    RRRRR   N    N  II  N    N   GGGG   !!!           |
|           W    W   A  A   R    R  NN   N  II  NN   N  G    G  !!!           |
|           W    W  A    A  R    R  N N  N  II  N N  N  G       !!!           |
|           W WW W  AAAAAA  RRRRR   N  N N  II  N  N N  G  GGG   !            |
|           WW  WW  A    A  R   R   N   NN  II  N   NN  G    G                |
|           W    W  A    A  R    R  N    N  II  N    N   GGGG   !!!           |
|     For optimal performance we recommend to set                             |
|       NCORE = 2 up to number-of-cores-per-socket                            |
|     This setting can greatly improve the performance of VASP for DFT.       |
|     The default, NCORE=1 might be grossly inefficient on modern             |
|     multi-core architectures or massively parallel machines. Do your        |
|     Unfortunately you need to use the default for GW and RPA                |
|     calculations (for HF NCORE is supported but not extensively tested      |
|     yet).                                                                   |

 POTCAR:    PAW_PBE Cu 22Jun2005
   VRHFIN =Cu: d10 p1

   TITEL  = PAW_PBE Cu 22Jun2005
   POMASS =   63.546; ZVAL   =   11.000    mass and valenz
   ENMAX  =  295.446; ENMIN  =  221.585 eV

 POTCAR:    PAW_PBE Rh 04Feb2005
   VRHFIN =Rh: s1 d8

   TITEL  = PAW_PBE Rh 04Feb2005
   POMASS =  102.906; ZVAL   =    9.000    mass and valenz
   ENMAX  =  228.996; ENMIN  =  171.747 eV

 POTCAR:    PAW_PBE H 15Jun2001
   VRHFIN =H: ultrasoft test

   TITEL  = PAW_PBE H 15Jun2001
   POMASS =    1.000; ZVAL   =    1.000    mass and valenz
   ENMAX  =  250.000; ENMIN  =  200.000 eV

 Optimization of the real space projectors (new method)

 maximal supplied QI-value         = 16.25
 optimisation between [QCUT,QGAM] = [ 11.38, 22.75] = [ 36.24,144.96] Ry
 Optimized for a Real-space Cutoff    1.52 Angstroem

   l    n(q)    QCUT    max X(q) W(low)/X(q) W(high)/X(q)  e(spline)
   2      9    11.376     4.610    0.21E-03    0.10E-03    0.26E-06
   2      9    11.376     8.522    0.33E-03    0.16E-03    0.37E-06
   0     10    11.376    51.609    0.62E-04    0.20E-04    0.13E-06
   0     10    11.376    27.747    0.54E-04    0.20E-04    0.13E-06
   1     10    11.376    20.408    0.13E-04    0.99E-04    0.19E-06
   1     10    11.376    13.425    0.12E-04    0.87E-04    0.17E-06
 Optimization of the real space projectors (new method)

[...]

   l    n(q)    QCUT    max X(q) W(low)/X(q) W(high)/X(q)  e(spline)
   2      9    11.327    59.645    0.31E-03    0.12E-04    0.28E-06
   2      9    11.327    58.460    0.31E-03    0.12E-04    0.29E-06
   0     10    11.327    97.683    0.32E-04    0.83E-04    0.31E-06
   0     10    11.327    53.223    0.30E-04    0.78E-04    0.29E-06
   1     10    11.327    13.596    0.49E-03    0.95E-03    0.55E-06
   1     10    11.327     7.885    0.36E-03    0.71E-03    0.41E-06
 Optimization of the real space projectors (new method)

 maximal supplied QI-value         = 34.20
 optimisation between [QCUT,QGAM] = [ 11.29, 22.57] = [ 35.68,142.71] Ry
 Optimized for a Real-space Cutoff    1.16 Angstroem

   l    n(q)    QCUT    max X(q) W(low)/X(q) W(high)/X(q)  e(spline)
   0      8    11.287    19.460    0.40E-03    0.73E-03    0.16E-06
   0      8    11.287    12.209    0.38E-03    0.70E-03    0.15E-06
   1      7    11.287     4.655    0.22E-03    0.25E-04    0.22E-06
  PAW_PBE Cu 22Jun2005                  :
  PAW_PBE Rh 04Feb2005                  :
  PAW_PBE H 15Jun2001                   :

 POSCAR: Cu-Rh-H2
  positions in direct lattice
  velocities in cartesian coordinates
 exchange correlation table for  LEXCH =        8
   RHO(1)=    0.500       N(1)  =     2000
   RHO(2)=  100.500       N(2)  =     4000

 VTST: version 3.2, (02/03/18)

 CHAIN: initializing optimizer

 OPT: Using VASP Conjugate-Gradient optimizer
 CHAIN: Read ICHAIN            0

 POSCAR: Cu-Rh-H2
  positions in direct lattice
  velocities in cartesian coordinates

 ion  position               nearest neighbor table
   1  0.000  0.000  0.252-   7 2.57   3 2.57   4 2.57   2 2.57   6 2.57   8 2.57  12 2.57  10 2.57
                            16 2.57
   2  0.333  0.000  0.252-   8 2.57   9 2.57   5 2.57   1 2.57   3 2.57  11 2.57   4 2.57  10 2.57
                            17 2.57
   3  0.667  0.000  0.252-   1 2.57   7 2.57   6 2.57   9 2.57   2 2.57  12 2.57   5 2.57  18 2.57
                            11 2.57
   4  0.000  0.333  0.252-   5 2.57   6 2.57   1 2.57   7 2.57   2 2.57  13 2.57   9 2.57  10 2.57
                            15 2.57
   5  0.333  0.333  0.252-   4 2.57   2 2.57   7 2.57  13 2.57   8 2.57   6 2.57   3 2.57  11 2.57
                            14 2.57
   6  0.667  0.333  0.252-   4 2.57   9 2.57  15 2.57   3 2.57   1 2.57   8 2.57  14 2.57   5 2.57
                            12 2.57
   7  0.000  0.667  0.252-   1 2.57   3 2.57  16 2.57  18 2.57   4 2.57   5 2.57   8 2.57   9 2.57
                            13 2.57
   8  0.333  0.667  0.252-   9 2.57   2 2.57  17 2.57   6 2.57   1 2.57   7 2.57   5 2.57  14 2.57
                            16 2.57
   9  0.667  0.667  0.252-   8 2.57   6 2.57   2 2.57  17 2.57   3 2.57   7 2.57   4 2.57  15 2.57
                            18 2.57
  10  0.111  0.111  0.351-  20 2.55  26 2.56  19 2.56  11 2.57  12 2.57  13 2.57   1 2.57   2 2.57
                             4 2.57  15 2.57  16 2.57  17 2.57
  11  0.444  0.111  0.351-  20 2.55  21 2.55  27 2.56  10 2.57  13 2.57   2 2.57  17 2.57  14 2.57
                            12 2.57   5 2.57   3 2.57  18 2.57
  12  0.778  0.111  0.351-  21 2.55  19 2.56  25 2.56  15 2.57  10 2.57  14 2.57  18 2.57   3 2.57
                             1 2.57  16 2.57  11 2.57   6 2.57
  13  0.111  0.444  0.351-  23 2.55  20 2.55  22 2.56  16 2.57  18 2.57  10 2.57  11 2.57  14 2.57
                             5 2.57   4 2.57   7 2.57  15 2.57
  14  0.444  0.444  0.351-  21 2.55  23 2.55  24 2.56  15 2.57  17 2.57  12 2.57  16 2.57  13 2.57
                            11 2.57   6 2.57   8 2.57   5 2.57
  15  0.778  0.444  0.351-  19 2.56  24 2.56  22 2.56  14 2.57  17 2.57  12 2.57   6 2.57  18 2.57
                            10 2.57   9 2.57  13 2.57   4 2.57
  16  0.111  0.778  0.351-  23 2.55  25 2.56  26 2.56  18 2.57  13 2.57   7 2.57  14 2.57  17 2.57
                            12 2.57  10 2.57   8 2.57   1 2.57
  17  0.444  0.778  0.351-  26 2.56  27 2.56  24 2.56  14 2.57  15 2.57   8 2.57   9 2.57  11 2.57
                            16 2.57  18 2.57  10 2.57   2 2.57
  18  0.778  0.778  0.351-  25 2.56  22 2.56  27 2.56  16 2.57  13 2.57   7 2.57  15 2.57  12 2.57
                            17 2.57   9 2.57   3 2.57  11 2.57
  19  0.889  0.223  0.449-  28 2.55  32 2.55  31 2.55  15 2.56  12 2.56  10 2.56  21 2.56  20 2.56
                            22 2.56  24 2.56  25 2.57  26 2.57
  20  0.222  0.222  0.448-  10 2.55  11 2.55  13 2.55  26 2.56  19 2.56  27 2.57  22 2.57  36 2.57
                            29 2.58  31 2.58  23 2.58  21 2.58
  21  0.557  0.222  0.448-  12 2.55  14 2.55  11 2.55  19 2.56  25 2.56  24 2.57  27 2.57  36 2.57
                            32 2.58  30 2.58  20 2.58  23 2.58
  22  0.889  0.556  0.449-  35 2.54  31 2.56  33 2.56  18 2.56  15 2.56  19 2.56  25 2.56  13 2.56
                            24 2.56  27 2.56  23 2.57  20 2.57
  23  0.222  0.557  0.448-  16 2.55  13 2.55  14 2.55  25 2.56  26 2.56  22 2.57  24 2.57  36 2.57
                            33 2.58  34 2.58  20 2.58  21 2.58
  24  0.556  0.556  0.449-  35 2.54  32 2.56  34 2.56  15 2.56  17 2.56  19 2.56  26 2.56  14 2.56
                            22 2.56  27 2.56  21 2.57  23 2.57
  25  0.889  0.889  0.449-  28 2.55  33 2.55  30 2.55  18 2.56  16 2.56  12 2.56  21 2.56  23 2.56
                            22 2.56  27 2.56  19 2.57  26 2.57
  26  0.223  0.889  0.449-  28 2.55  29 2.55  34 2.55  17 2.56  10 2.56  16 2.56  20 2.56  23 2.56
                            27 2.56  24 2.56  25 2.57  19 2.57
  27  0.556  0.889  0.449-  35 2.54  29 2.56  30 2.56  17 2.56  18 2.56  26 2.56  25 2.56  11 2.56
                            24 2.56  22 2.56  20 2.57  21 2.57
  28  0.000  0.000  0.546-  25 2.55  19 2.55  26 2.55  33 2.56  30 2.56  31 2.56  29 2.56  32 2.56
                            34 2.56
  29  0.333  0.998  0.547-  34 2.54  26 2.55  28 2.56  27 2.56  35 2.56  31 2.58  20 2.58  36 2.58
                            30 2.59
  30  0.669  0.998  0.547-  33 2.54  25 2.55  28 2.56  27 2.56  35 2.56  32 2.58  21 2.58  36 2.58
                            29 2.59
  31  0.998  0.333  0.547-  32 2.54  19 2.55  28 2.56  22 2.56  35 2.56  29 2.58  20 2.58  36 2.58
                            33 2.59
  32  0.669  0.333  0.547-  31 2.54  19 2.55  28 2.56  24 2.56  35 2.56  30 2.58  21 2.58  36 2.58
                            34 2.59
  33  0.998  0.669  0.547-  30 2.54  25 2.55  28 2.56  22 2.56  35 2.56  34 2.58  23 2.58  36 2.58
                            31 2.59
  34  0.333  0.669  0.547-  29 2.54  26 2.55  28 2.56  24 2.56  35 2.56  33 2.58  23 2.58  36 2.58
                            32 2.59
  35  0.667  0.667  0.546-  24 2.54  27 2.54  22 2.54  34 2.56  32 2.56  29 2.56  30 2.56  33 2.56
                            31 2.56
  36  0.333  0.333  0.547-  37 1.68  38 1.68  23 2.57  20 2.57  21 2.57  31 2.58  29 2.58  33 2.58
                            34 2.58  32 2.58  30 2.58
  37  0.274  0.329  0.622-  36 1.68
  38  0.397  0.329  0.622-  36 1.68

  LATTYP: Found a hexagonal cell.
 ALAT       =     7.6967864036
 C/A-ratio  =     2.7653617908

  Lattice vectors:

 A1 = (  -3.8483927580,  -6.6656128093,   0.0000000000)
 A2 = (   7.6967864037,   0.0000000000,   0.0000000000)
 A3 = (   0.0000000000,   0.0000000000,  21.2843990326)

Analysis of symmetry for initial positions (statically):
 Subroutine PRICEL returns:
 Original cell was already a primitive cell.

 Routine SETGRP: Setting up the symmetry group for a
 hexagonal supercell.

 Subroutine GETGRP returns: Found  2 space group operations
 (whereof  2 operations were pure point group operations)
 out of a pool of 24 trial point group operations.

The static configuration has the point symmetry C_1h.

Analysis of symmetry for dynamics (positions and initial velocities):
 Subroutine PRICEL returns:
 Original cell was already a primitive cell.

[...]

The dynamic configuration has the point symmetry C_1h.

Analysis of constrained symmetry for selective dynamics:
 Subroutine PRICEL returns:
 Original cell was already a primitive cell.

 Routine SETGRP: Setting up the symmetry group for a
 hexagonal supercell.

 Subroutine GETGRP returns: Found  2 space group operations
[...]
     33      -3.7914      2.00000
     34      -3.7831      2.00000
     35      -3.7314      2.00000
     36      -3.6914      2.00000
     37      -3.6071      2.00000
     38      -3.5092      2.00000
     39      -3.4994      2.00000
     40      -3.4641      2.00000
     41      -3.4577      2.00000
     42      -3.4277      2.00000
     43      -3.4133      2.00000
     44      -3.3888      2.00000
     45      -3.3809      2.00000
     46      -3.3781      2.00000
     47      -3.1907      2.00000
     48      -3.1761      2.00000
     49      -3.1681      2.00000
     50      -3.1609      2.00000
     51      -3.1071      2.00000
     52      -3.1001      2.00000
     53      -3.0914      2.00000
     54      -3.0826      2.00000
     55      -3.0773      2.00000
     56      -3.0588      2.00000
     57      -3.0405      2.00000
     58      -3.0233      2.00000
     59      -3.0131      2.00000
     60      -3.0103      2.00000
[...]
    238       6.7642      0.00000
    239       6.8676      0.00000
    240       6.9532      0.00000
    241       7.0816      0.00000
    242       7.1085      0.00000
    243       7.2953      0.00000
    244       7.4156      0.00000
    245       7.4698      0.00000
    246       7.5806      0.00000
    247       7.6615      0.00000
    248       7.8130      0.00000
    249       7.9876      0.00000
    250       8.2226      0.00000
    251       8.2790      0.00000
    252       8.3863      0.00000

 soft charge-density along one line, spin component           1
         0         1         2         3         4         5         6         7         8         9
 total charge-density along one line

------------------------ aborting loop because EDIFF is reached ----------------------------------------

 total charge

# of ion       s       p       d       tot
    1        0.446   0.285   9.187   9.919
    2        0.450   0.285   9.187   9.921
    3        0.450   0.285   9.187   9.921
    4        0.450   0.285   9.186   9.921
    5        0.447   0.289   9.182   9.917
    6        0.450   0.285   9.186   9.921
    7        0.450   0.285   9.186   9.921
    8        0.450   0.285   9.186   9.921
    9        0.446   0.284   9.190   9.920
   10        0.440   0.374   9.174   9.987
   11        0.445   0.366   9.183   9.994
   12        0.440   0.374   9.174   9.987
   13        0.444   0.366   9.184   9.994
   14        0.444   0.366   9.184   9.994
   15        0.436   0.372   9.177   9.985
   16        0.440   0.373   9.175   9.987
   17        0.436   0.372   9.177   9.985
   18        0.436   0.372   9.177   9.985
   19        0.444   0.372   9.181   9.997
   20        0.450   0.384   9.174  10.008
   21        0.450   0.384   9.174  10.008
   22        0.434   0.376   9.179   9.988
   23        0.449   0.386   9.172  10.007
   24        0.434   0.376   9.179   9.988
   25        0.444   0.373   9.181   9.997
   26        0.444   0.373   9.181   9.997
   27        0.434   0.375   9.179   9.989
   28        0.453   0.290   9.195   9.938
   29        0.450   0.298   9.191   9.939
   30        0.450   0.298   9.191   9.939
   31        0.449   0.302   9.188   9.939
   32        0.449   0.302   9.188   9.939
   33        0.450   0.298   9.190   9.939
   34        0.450   0.298   9.190   9.939
   35        0.447   0.292   9.196   9.936
   36        0.487   0.582   7.571   8.641
   37        0.520   0.031   0.000   0.551
   38        0.520   0.031   0.000   0.551
tot         17.108  12.323 328.982 358.413

  FORCE on cell =-STRESS in cart. coord.  units (eV):
  Direction    XX          YY          ZZ          XY          YZ          ZX
  Alpha Z   867.97828   867.97828   867.97828
  Ewald  173885.68975173863.84005************     0.00038    -0.62056     0.00017
  Hartree186909.85323186905.27548************     0.00004     0.16805     0.00007
  E(xc)   -2296.01962 -2296.32425 -2300.47069    -0.00031    -0.01403    -0.00004
  Local  ************************374218.32150     0.01964     0.07027    -0.00068
  n-local  -755.87679  -756.62096  -770.05974     1.88691    -0.03296     0.07126
  augment  3367.51845  3368.40431  3380.87769    -0.01842     0.12239     0.00023
  Kinetic  3261.05291  3266.72364  3277.46380     1.08645     0.43358    -0.21103
  Fock        0.00000     0.00000     0.00000     0.00000     0.00000     0.00000
  Total      -3.44432    -3.76214     2.02386     0.00000     0.12674    -0.00000
  in kB      -5.05363    -5.51994     2.96948     0.00000     0.18595    -0.00000

 VOLUME and BASIS-vectors are now :
  energy-cutoff  :      500.00
  volume of cell :     1091.97
      direct lattice vectors                 reciprocal lattice vectors
     7.696786404  0.000000000  0.000000000     0.129924354 -0.075011849  0.000000000
     3.848392758  6.665612809  0.000000000     0.000000000  0.150023716  0.000000000
     0.000000000  0.000000000 21.284399033     0.000000000  0.000000000  0.046982769

  length of vectors
     7.696786404  7.696786404 21.284399033     0.150023716  0.150023716  0.046982769

 FORCES acting on ions
    electron-ion (+dipol)            ewald-force                    non-local-force                 convergence-correction
   -.407E-04 -.125E-01 0.348E+04   0.580E-04 -.397E-02 -.348E+04   -.672E-09 0.101E-01 -.315E+01   -.410E-03 0.582E-02 -.576E+00
   -.189E+00 0.239E-01 0.348E+04   0.249E+00 0.126E+00 -.348E+04   0.200E-01 -.250E-02 -.195E+01   -.680E-01 -.123E+00 -.484E+00
   0.189E+00 0.239E-01 0.348E+04   -.249E+00 0.126E+00 -.348E+04   -.200E-01 -.250E-02 -.195E+01   0.689E-01 -.121E+00 -.483E+00
   -.104E+00 -.195E+00 0.348E+04   0.237E+00 0.153E+00 -.348E+04   0.253E-01 0.192E-01 -.194E+01   -.134E+00 0.203E-01 -.477E+00
   -.615E-04 -.297E-01 0.348E+04   0.116E-03 0.200E-02 -.348E+04   0.187E-10 -.280E-03 -.172E+01   0.123E-01 0.284E-01 -.346E+00
   0.104E+00 -.195E+00 0.348E+04   -.237E+00 0.153E+00 -.348E+04   -.253E-01 0.192E-01 -.194E+01   0.132E+00 0.215E-01 -.476E+00
   0.119E+00 0.181E+00 0.348E+04   -.123E-01 -.278E+00 -.348E+04   -.120E-01 -.235E-01 -.194E+01   -.749E-01 0.101E+00 -.472E+00
   -.118E+00 0.181E+00 0.348E+04   0.120E-01 -.278E+00 -.348E+04   0.120E-01 -.235E-01 -.194E+01   0.784E-01 0.994E-01 -.472E+00
   -.143E-03 0.118E-01 0.348E+04   0.263E-03 0.202E-02 -.348E+04   -.429E-09 0.644E-02 -.265E+01   -.132E-01 -.224E-01 -.574E+00
   -.182E+00 -.119E+00 0.117E+04   0.706E+00 0.386E+00 -.117E+04   -.449E+00 -.238E+00 -.106E+01   -.574E-01 -.166E-01 -.427E+00
   -.907E-04 -.149E+01 0.116E+04   0.190E-03 0.147E+01 -.116E+04   -.684E-08 0.103E+00 -.638E+00   0.123E-01 -.111E+00 -.323E+00
   0.182E+00 -.119E+00 0.117E+04   -.706E+00 0.386E+00 -.117E+04   0.449E+00 -.238E+00 -.106E+01   0.549E-01 -.144E-01 -.425E+00
   -.131E+01 0.742E+00 0.116E+04   0.129E+01 -.717E+00 -.116E+04   0.950E-01 -.826E-01 -.623E+00   -.933E-01 0.733E-01 -.331E+00
   0.131E+01 0.742E+00 0.116E+04   -.129E+01 -.717E+00 -.116E+04   -.950E-01 -.826E-01 -.623E+00   0.118E+00 0.719E-01 -.331E+00
   -.142E-03 -.120E+01 0.117E+04   0.298E-03 0.100E+01 -.116E+04   -.906E-08 0.136E+00 -.875E+00   -.433E-02 0.576E-01 -.429E+00
   -.922E-04 0.251E+00 0.117E+04   0.186E-03 -.822E+00 -.117E+04   -.339E-07 0.510E+00 -.107E+01   -.287E-03 0.340E-01 -.424E+00
   -.973E+00 0.590E+00 0.117E+04   0.844E+00 -.491E+00 -.116E+04   0.806E-01 -.549E-01 -.860E+00   0.369E-01 -.390E-01 -.446E+00
   0.973E+00 0.590E+00 0.117E+04   -.844E+00 -.491E+00 -.116E+04   -.806E-01 -.549E-01 -.860E+00   -.358E-01 -.354E-01 -.444E+00
   -.621E-04 -.123E+01 -.116E+04   0.689E-04 0.122E+01 0.116E+04   0.542E-09 -.814E-02 0.830E+00   -.145E-01 0.167E-01 -.368E+00
   -.240E+02 -.137E+02 -.118E+04   0.250E+02 0.144E+02 0.119E+04   -.993E+00 -.664E+00 -.929E+00   0.268E-01 0.306E-01 -.265E+00
   0.240E+02 -.137E+02 -.118E+04   -.250E+02 0.144E+02 0.119E+04   0.993E+00 -.664E+00 -.929E+00   -.820E-03 0.311E-01 -.266E+00
   -.143E+02 0.812E+01 -.117E+04   0.138E+02 -.778E+01 0.117E+04   0.457E+00 -.285E+00 0.885E+00   0.565E-01 -.745E-01 -.445E+00
   -.821E-04 0.275E+02 -.118E+04   0.147E-03 -.286E+02 0.119E+04   -.788E-07 0.118E+01 -.917E+00   0.121E-01 -.215E-01 -.259E+00
   0.143E+02 0.812E+01 -.117E+04   -.138E+02 -.778E+01 0.117E+04   -.457E+00 -.285E+00 0.885E+00   -.588E-01 -.778E-01 -.445E+00
   0.102E+01 0.776E+00 -.116E+04   -.108E+01 -.774E+00 0.116E+04   0.278E-01 0.943E-02 0.845E+00   0.135E-01 -.113E-01 -.393E+00
   -.102E+01 0.776E+00 -.116E+04   0.108E+01 -.774E+00 0.116E+04   -.278E-01 0.943E-02 0.845E+00   -.353E-01 -.151E-01 -.393E+00
   -.126E-03 -.165E+02 -.117E+04   0.244E-03 0.158E+02 0.117E+04   -.395E-07 0.594E+00 0.870E+00   0.854E-03 0.962E-01 -.454E+00
   -.349E-04 0.785E+00 -.346E+04   0.412E-04 -.787E+00 0.346E+04   0.271E-08 -.407E-01 0.224E+01   -.662E-03 0.260E-01 0.502E+00
   -.200E+02 -.305E+02 -.347E+04   0.201E+02 0.299E+02 0.346E+04   -.127E+00 0.261E+00 0.242E+01   0.130E-01 0.167E+00 0.307E+00
   0.200E+02 -.305E+02 -.347E+04   -.201E+02 0.299E+02 0.346E+04   0.127E+00 0.261E+00 0.242E+01   -.114E-01 0.169E+00 0.305E+00
   -.357E+02 -.173E+01 -.347E+04   0.353E+02 0.199E+01 0.346E+04   0.116E+00 -.188E+00 0.248E+01   0.116E+00 -.572E-01 0.300E+00
   0.357E+02 -.173E+01 -.347E+04   -.353E+02 0.199E+01 0.346E+04   -.116E+00 -.188E+00 0.248E+01   -.117E+00 -.568E-01 0.297E+00
   -.181E+02 0.326E+02 -.347E+04   0.178E+02 -.323E+02 0.346E+04   0.117E+00 -.361E-01 0.237E+01   0.117E+00 -.107E+00 0.290E+00
   0.181E+02 0.326E+02 -.347E+04   -.178E+02 -.323E+02 0.346E+04   -.117E+00 -.361E-01 0.237E+01   -.114E+00 -.108E+00 0.289E+00
   -.151E-03 -.457E+00 -.347E+04   0.254E-03 0.456E+00 0.346E+04   -.381E-08 0.572E-01 0.259E+01   -.130E-01 -.457E-01 0.430E+00
   -.524E-04 -.160E+01 -.275E+04   0.111E-03 0.161E+01 0.275E+04   -.346E-08 0.519E-01 -.415E+00   0.305E-02 0.405E-02 0.166E+00
   0.164E+02 0.174E+00 -.381E+03   -.190E+02 -.200E+00 0.383E+03   0.257E+01 0.248E-01 -.146E+01   0.108E-01 0.324E-03 0.790E-02
   -.164E+02 0.174E+00 -.381E+03   0.190E+02 -.200E+00 0.383E+03   -.257E+01 0.248E-01 -.146E+01   -.107E-01 0.334E-03 0.781E-02
   -.213E-03 -.795E-01 0.168E+02   0.131E-12 -.278E-14 0.136E-11   -.554E-08 0.831E-01 -.842E+01   0.252E-01 -.345E-02 -.833E+01

 POSITION                                       TOTAL-FORCE (eV/Angst)
      0.00000      0.00000      5.37156         0.000000     -0.000573      0.050559
      2.56560      0.00000      5.37156         0.011287      0.024765      0.087876
      5.13119      0.00000      5.37156        -0.011287      0.024765      0.087876
      1.28280      2.22187      5.37156         0.025228     -0.002409      0.088469
      3.84839      2.22187      5.37156        -0.000000      0.000429      0.063630
      6.41399      2.22187      5.37156        -0.025228     -0.002409      0.088469
      2.56560      4.44374      5.37156         0.017683     -0.020733      0.087136
      5.13119      4.44374      5.37156        -0.017683     -0.020733      0.087136
      7.69679      4.44374      5.37156         0.000000     -0.002125      0.053986
      1.28280      0.74062      7.46636         0.018584      0.013175     -0.075521
      3.84839      0.74062      7.46636         0.000000     -0.035531     -0.106564
      6.41399      0.74062      7.46636        -0.018584      0.013175     -0.075521
      2.56560      2.96249      7.46636        -0.029129      0.014767     -0.102492
      5.13119      2.96249      7.46636         0.029129      0.014767     -0.102492
      7.69679      2.96249      7.46636         0.000000     -0.007733     -0.031961
      3.84839      5.18437      7.46636         0.000000     -0.026948     -0.072743
      6.41399      5.18437      7.46636        -0.011996      0.006475     -0.026034
      8.97958      5.18437      7.46636         0.011996      0.006475     -0.026034
      7.69679      1.48472      9.55134         0.000000     -0.001775      0.034456
      2.55991      1.47796      9.54139        -0.030362     -0.024020     -0.238311
      5.13688      1.47796      9.54139         0.030362     -0.024020     -0.238311
      8.97851      3.70374      9.55759         0.036073     -0.021046      0.003906
      3.84839      3.70969      9.54139        -0.000000      0.003317     -0.206020
      6.41506      3.70374      9.55759        -0.036073     -0.021046      0.003906
     10.25938      5.92325      9.55134        -0.003723     -0.002160      0.023825
      5.13420      5.92325      9.55134         0.003723     -0.002160      0.023825
      7.69679      5.92375      9.55759        -0.000000      0.031468     -0.002148
      0.00000      0.00000     11.61948         0.000000     -0.016939     -0.037693
      6.40389      6.65412     11.64269        -0.052842     -0.107834     -0.041157
      8.98968      6.65412     11.64269         0.052842     -0.107834     -0.041157
      8.96459      2.21887     11.64269        -0.097644      0.017662     -0.008891
      6.42899      2.21887     11.64269         0.097644      0.017662     -0.008891
     10.25748      4.45823     11.64269        -0.073111      0.094949     -0.032108
      5.13610      4.45823     11.64269         0.073111      0.094949     -0.032108
      7.69679      4.44374     11.62337        -0.000000      0.010768     -0.024029
      3.84839      2.22187     11.63466        -0.000000      0.061587      0.756540
      3.37343      2.19095     13.24424        -0.002022     -0.001562     -0.005704
      4.32336      2.19095     13.24424         0.002022     -0.001562     -0.005704
    total drift:                                0.024972      0.000192      0.040692

  FREE ENERGIE OF THE ION-ELECTRON SYSTEM (eV)
  free  energy   TOTEN  =      -136.64853917 eV

  energy  without entropy=     -136.64853917  energy(sigma->0) =     -136.64853917

 stress matrix after NEB project (eV)
     -3.44432      0.00000     -0.00000
      0.00000     -3.76214      0.12674
     -0.00000      0.12674      2.02386
  FORCES: max atom, RMS     0.006250    0.001434
  FORCE total and by dimension    0.008839    0.005704
  Stress total and by dimension    5.490458    3.762136
|           W    W    AA    RRRRR   N    N  II  N    N   GGGG   !!!           |
|           W    W   A  A   R    R  NN   N  II  NN   N  G    G  !!!           |
|           W    W  A    A  R    R  N N  N  II  N N  N  G       !!!           |
|           W WW W  AAAAAA  RRRRR   N  N N  II  N  N N  G  GGG   !            |
|           WW  WW  A    A  R   R   N   NN  II  N   NN  G    G                |
|           W    W  A    A  R    R  N    N  II  N    N   GGGG   !!!           |
|     Tetrahedron method does not include variations of the Fermi             |
|     occupations, so forces and stress will be inaccurate. We suggest        |
|     using a different smearing scheme ISMEAR = 1 or 2 for metals in         |
|     relaxations.                                                            |

 total charge

# of ion       s       p       d       tot
    1        0.446   0.285   9.187   9.919
    2        0.450   0.285   9.187   9.921
    3        0.450   0.285   9.187   9.921
    4        0.450   0.285   9.186   9.921
    5        0.447   0.289   9.182   9.917
    6        0.450   0.285   9.186   9.921
    7        0.450   0.285   9.186   9.921
    8        0.450   0.285   9.186   9.921
    9        0.446   0.284   9.190   9.920
   10        0.440   0.374   9.174   9.987
   11        0.445   0.366   9.183   9.994
   12        0.440   0.374   9.174   9.987
   13        0.444   0.366   9.184   9.994
   14        0.444   0.366   9.184   9.994
   15        0.436   0.372   9.177   9.985
   16        0.440   0.373   9.175   9.987
   17        0.436   0.372   9.177   9.985
   18        0.436   0.372   9.177   9.985
   19        0.444   0.372   9.181   9.997
   20        0.450   0.384   9.174  10.008
   21        0.450   0.384   9.174  10.008
   22        0.434   0.376   9.179   9.988
   23        0.449   0.386   9.172  10.007
   24        0.434   0.376   9.179   9.988
   25        0.444   0.373   9.181   9.997
   26        0.444   0.373   9.181   9.997
   27        0.434   0.375   9.179   9.989
   28        0.453   0.290   9.195   9.938
   29        0.450   0.298   9.191   9.939
   30        0.450   0.298   9.191   9.939
   31        0.449   0.302   9.188   9.939
   32        0.449   0.302   9.188   9.939
   33        0.450   0.298   9.190   9.939
   34        0.450   0.298   9.190   9.939
   35        0.447   0.292   9.196   9.936
   36        0.487   0.582   7.571   8.641
   37        0.520   0.031   0.000   0.551
   38        0.520   0.031   0.000   0.551
tot         17.108  12.323 328.982 358.413

 BZINTS: Fermi energy:    0.243154;  396.000000 electrons
         Band energy:-0.100936E+04;  BLOECHL correction:   -0.058467