 vasp.6.2.0 18Jan21 (build Jun 12 2021 23:27:24) complex

 executed on             LinuxIFC date 2022.05.26  20:01:38

 INCAR:
   ISMEAR = -5
   SIGMA = 0.1
   ISPIN = 1
   EDIFF = 1.d-5
   EDIFFG = -0.01
   NSW = 0
   NELM = 150
   ENCUT = 500
   ISIF = 2
   IBRION = 2
   LREAL = Auto
   ALGO = Fast
   ICHARG = 11
   LORBIT = 10
   LCHARG = .F.
   LWAVE = .F.

 POTCAR:    PAW_PBE Cu 22Jun2005
 POTCAR:    PAW_PBE Mo 08Apr2002
 POTCAR:    PAW_PBE O 08Apr2002
|           W    W    AA    RRRRR   N    N  II  N    N   GGGG   !!!           |
|           W    W   A  A   R    R  NN   N  II  NN   N  G    G  !!!           |
|           W    W  A    A  R    R  N N  N  II  N N  N  G       !!!           |
|           W WW W  AAAAAA  RRRRR   N  N N  II  N  N N  G  GGG   !            |
|           WW  WW  A    A  R   R   N   NN  II  N   NN  G    G                |
|           W    W  A    A  R    R  N    N  II  N    N   GGGG   !!!           |
|     For optimal performance we recommend to set                             |
|       NCORE = 2 up to number-of-cores-per-socket                            |
|     This setting can greatly improve the performance of VASP for DFT.       |
|     The default, NCORE=1 might be grossly inefficient on modern             |
|     multi-core architectures or massively parallel machines. Do your        |
|     Unfortunately you need to use the default for GW and RPA                |
|     calculations (for HF NCORE is supported but not extensively tested      |
|     yet).                                                                   |

 POTCAR:    PAW_PBE Cu 22Jun2005
   VRHFIN =Cu: d10 p1

   TITEL  = PAW_PBE Cu 22Jun2005
   POMASS =   63.546; ZVAL   =   11.000    mass and valenz
   ENMAX  =  295.446; ENMIN  =  221.585 eV

 POTCAR:    PAW_PBE Mo 08Apr2002
   VRHFIN =Mo: 4p5s4d

   TITEL  = PAW_PBE Mo 08Apr2002
   POMASS =   95.940; ZVAL   =    6.000    mass and valenz
   ENMAX  =  224.584; ENMIN  =  168.438 eV

 POTCAR:    PAW_PBE O 08Apr2002
   VRHFIN =O: s2p4

   TITEL  = PAW_PBE O 08Apr2002
   POMASS =   16.000; ZVAL   =    6.000    mass and valenz
   ENMAX  =  400.000; ENMIN  =  300.000 eV

 Optimization of the real space projectors (new method)

 maximal supplied QI-value         = 16.25
 optimisation between [QCUT,QGAM] = [ 11.38, 22.75] = [ 36.24,144.96] Ry
 Optimized for a Real-space Cutoff    1.52 Angstroem

   l    n(q)    QCUT    max X(q) W(low)/X(q) W(high)/X(q)  e(spline)
   2      9    11.376     4.610    0.21E-03    0.10E-03    0.26E-06
   2      9    11.376     8.522    0.33E-03    0.16E-03    0.37E-06
   0     10    11.376    51.609    0.62E-04    0.20E-04    0.13E-06
   0     10    11.376    27.747    0.54E-04    0.20E-04    0.13E-06
   1     10    11.376    20.408    0.13E-04    0.99E-04    0.19E-06
   1     10    11.376    13.425    0.12E-04    0.87E-04    0.17E-06
 Optimization of the real space projectors (new method)

[...]

   l    n(q)    QCUT    max X(q) W(low)/X(q) W(high)/X(q)  e(spline)
   2     10    11.429    80.908    0.27E-03    0.78E-03    0.13E-05
   2     10    11.429    79.000    0.27E-03    0.78E-03    0.13E-05
   0     11    11.429    52.066    0.33E-04    0.97E-04    0.72E-06
   0     11    11.429    24.514    0.27E-04    0.80E-04    0.60E-06
   1     10    11.429    16.033    0.31E-04    0.17E-03    0.36E-06
   1     10    11.429    11.179    0.22E-04    0.13E-03    0.29E-06
 Optimization of the real space projectors (new method)

 maximal supplied QI-value         = 24.76
 optimisation between [QCUT,QGAM] = [ 11.39, 22.77] = [ 36.31,145.25] Ry
 Optimized for a Real-space Cutoff    1.00 Angstroem

   l    n(q)    QCUT    max X(q) W(low)/X(q) W(high)/X(q)  e(spline)
   0      7    11.387    20.381    0.39E-03    0.13E-02    0.15E-06
   0      7    11.387    15.268    0.42E-03    0.14E-02    0.17E-06
   1      6    11.387     5.964    0.41E-03    0.11E-02    0.17E-06
   1      6    11.387     5.382    0.39E-03    0.87E-03    0.15E-06
  PAW_PBE Cu 22Jun2005                  :
  PAW_PBE Mo 08Apr2002                  :
  PAW_PBE O 08Apr2002                   :

 POSCAR: Cu-Mo-O
  positions in direct lattice
  velocities in cartesian coordinates
 exchange correlation table for  LEXCH =        8
   RHO(1)=    0.500       N(1)  =     2000
   RHO(2)=  100.500       N(2)  =     4000

 VTST: version 3.2, (02/03/18)

 CHAIN: initializing optimizer

 OPT: Using VASP Conjugate-Gradient optimizer
 CHAIN: Read ICHAIN            0

 POSCAR: Cu-Mo-O
  positions in direct lattice
  velocities in cartesian coordinates

 ion  position               nearest neighbor table
   1  0.000  0.000  0.252-   7 2.57   3 2.57   4 2.57   2 2.57   6 2.57   8 2.57  12 2.57  10 2.57
                            16 2.57
   2  0.333  0.000  0.252-   8 2.57   9 2.57   5 2.57   1 2.57   3 2.57  11 2.57   4 2.57  10 2.57
                            17 2.57
   3  0.667  0.000  0.252-   1 2.57   7 2.57   6 2.57   9 2.57   2 2.57  12 2.57   5 2.57  18 2.57
                            11 2.57
   4  0.000  0.333  0.252-   5 2.57   6 2.57   1 2.57   7 2.57   2 2.57  13 2.57   9 2.57  10 2.57
                            15 2.57
   5  0.333  0.333  0.252-   4 2.57   2 2.57   7 2.57  13 2.57   8 2.57   6 2.57   3 2.57  11 2.57
                            14 2.57
   6  0.667  0.333  0.252-   4 2.57   9 2.57  15 2.57   3 2.57   1 2.57   8 2.57  14 2.57   5 2.57
                            12 2.57
   7  0.000  0.667  0.252-   1 2.57   3 2.57  16 2.57  18 2.57   4 2.57   5 2.57   8 2.57   9 2.57
                            13 2.57
   8  0.333  0.667  0.252-   9 2.57   2 2.57  17 2.57   6 2.57   1 2.57   7 2.57   5 2.57  14 2.57
                            16 2.57
   9  0.667  0.667  0.252-   8 2.57   6 2.57   2 2.57  17 2.57   3 2.57   7 2.57   4 2.57  15 2.57
                            18 2.57
  10  0.111  0.111  0.351-  20 2.55  26 2.56  19 2.56  11 2.57  12 2.57  13 2.57   1 2.57   2 2.57
                             4 2.57  15 2.57  16 2.57  17 2.57
  11  0.444  0.111  0.351-  20 2.56  21 2.56  10 2.57  13 2.57   2 2.57  17 2.57  14 2.57  12 2.57
                             5 2.57   3 2.57  18 2.57  27 2.57
  12  0.778  0.111  0.351-  21 2.55  19 2.56  25 2.56  15 2.57  10 2.57  14 2.57  18 2.57   3 2.57
                             1 2.57  16 2.57  11 2.57   6 2.57
  13  0.111  0.444  0.351-  23 2.56  20 2.56  16 2.57  18 2.57  10 2.57  11 2.57  14 2.57   5 2.57
                             4 2.57   7 2.57  15 2.57  22 2.57
  14  0.444  0.444  0.351-  21 2.56  23 2.56  15 2.57  17 2.57  12 2.57  16 2.57  13 2.57  11 2.57
                             6 2.57   8 2.57   5 2.57  24 2.57
  15  0.778  0.444  0.351-  19 2.56  14 2.57  17 2.57  12 2.57   6 2.57  18 2.57  10 2.57   9 2.57
                            13 2.57   4 2.57  24 2.57  22 2.57
  16  0.111  0.778  0.351-  23 2.55  25 2.56  26 2.56  18 2.57  13 2.57   7 2.57  14 2.57  17 2.57
                            12 2.57  10 2.57   8 2.57   1 2.57
  17  0.444  0.778  0.351-  26 2.56  14 2.57  15 2.57   8 2.57   9 2.57  11 2.57  16 2.57  18 2.57
                            10 2.57   2 2.57  27 2.57  24 2.57
  18  0.778  0.778  0.351-  25 2.56  16 2.57  13 2.57   7 2.57  15 2.57  12 2.57  17 2.57   9 2.57
                             3 2.57  11 2.57  22 2.57  27 2.57
  19  0.889  0.222  0.449-  15 2.56  12 2.56  10 2.56  21 2.56  20 2.56  22 2.57  24 2.57  25 2.57
                            26 2.57  28 2.57  32 2.58  31 2.58
  20  0.222  0.222  0.449-  10 2.55  11 2.56  13 2.56  26 2.56  19 2.56  27 2.57  22 2.57  23 2.57
                            21 2.57  36 2.58  29 2.60  31 2.60
  21  0.556  0.222  0.449-  12 2.55  14 2.56  11 2.56  19 2.56  25 2.56  24 2.57  27 2.57  20 2.57
                            23 2.57  36 2.58  32 2.60  30 2.60
  22  0.888  0.556  0.450-  24 2.56  27 2.56  35 2.56  19 2.57  25 2.57  23 2.57  20 2.57  18 2.57
                            15 2.57  13 2.57  31 2.58  33 2.58
  23  0.222  0.556  0.449-  16 2.55  13 2.56  14 2.56  25 2.56  26 2.56  22 2.57  24 2.57  20 2.57
                            21 2.57  36 2.58  33 2.60  34 2.60
  24  0.556  0.556  0.450-  22 2.56  27 2.56  35 2.56  19 2.57  26 2.57  21 2.57  23 2.57  15 2.57
                            17 2.57  14 2.57  32 2.58  34 2.58
  25  0.889  0.889  0.449-  18 2.56  12 2.56  16 2.56  21 2.56  23 2.56  22 2.57  27 2.57  19 2.57
                            26 2.57  28 2.57  33 2.58  30 2.58
  26  0.222  0.889  0.449-  17 2.56  10 2.56  16 2.56  20 2.56  23 2.56  27 2.57  24 2.57  25 2.57
                            19 2.57  28 2.57  29 2.58  34 2.58
  27  0.556  0.888  0.450-  24 2.56  22 2.56  35 2.56  26 2.57  25 2.57  20 2.57  21 2.57  17 2.57
                            18 2.57  11 2.57  29 2.58  30 2.58
  28  0.000  0.000  0.547-  33 2.56  30 2.56  31 2.56  29 2.56  32 2.56  34 2.56  25 2.57  19 2.57
                            26 2.57
  29  0.333  0.998  0.548-  34 2.54  28 2.56  35 2.56  27 2.58  31 2.58  26 2.58  36 2.58  30 2.58
                            20 2.60
  30  0.669  0.998  0.548-  33 2.54  28 2.56  35 2.56  27 2.58  32 2.58  25 2.58  36 2.58  29 2.58
                            21 2.60
  31  0.998  0.333  0.548-  32 2.54  28 2.56  35 2.56  22 2.58  29 2.58  19 2.58  36 2.58  33 2.58
                            20 2.60
  32  0.669  0.333  0.548-  31 2.54  28 2.56  35 2.56  24 2.58  30 2.58  19 2.58  36 2.58  34 2.58
                            21 2.60
  33  0.998  0.669  0.548-  30 2.54  28 2.56  35 2.56  22 2.58  34 2.58  25 2.58  36 2.58  31 2.58
                            23 2.60
  34  0.333  0.669  0.548-  29 2.54  28 2.56  35 2.56  24 2.58  33 2.58  26 2.58  36 2.58  32 2.58
                            23 2.60
  35  0.667  0.667  0.548-  34 2.56  32 2.56  29 2.56  30 2.56  33 2.56  31 2.56  24 2.56  27 2.56
                            22 2.56
  36  0.333  0.333  0.547-  37 1.74  23 2.58  20 2.58  21 2.58  31 2.58  29 2.58  33 2.58  34 2.58
                            32 2.58  30 2.58
  37  0.333  0.333  0.629-  36 1.74

  LATTYP: Found a hexagonal cell.
 ALAT       =     7.6967864036
 C/A-ratio  =     2.7653617908

  Lattice vectors:

 A1 = (  -3.8483927580,  -6.6656128093,   0.0000000000)
 A2 = (   7.6967864037,   0.0000000000,   0.0000000000)
 A3 = (   0.0000000000,   0.0000000000,  21.2843990326)

Analysis of symmetry for initial positions (statically):
 Subroutine PRICEL returns:
 Original cell was already a primitive cell.

 Routine SETGRP: Setting up the symmetry group for a
 hexagonal supercell.

 Subroutine GETGRP returns: Found  6 space group operations
 (whereof  6 operations were pure point group operations)
 out of a pool of 24 trial point group operations.

The static configuration has the point symmetry C_3v.

Analysis of symmetry for dynamics (positions and initial velocities):
 Subroutine PRICEL returns:
 Original cell was already a primitive cell.

[...]

The dynamic configuration has the point symmetry C_3v.

Analysis of constrained symmetry for selective dynamics:
 Subroutine PRICEL returns:
 Original cell was already a primitive cell.

 Routine SETGRP: Setting up the symmetry group for a
 hexagonal supercell.

 Subroutine GETGRP returns: Found  6 space group operations
[...]
     24      -4.3719      2.00000
     25      -4.3100      2.00000
     26      -4.3021      2.00000
     27      -4.2795      2.00000
     28      -4.2118      2.00000
     29      -4.1585      2.00000
     30      -4.1468      2.00000
     31      -4.1270      2.00000
     32      -4.0966      2.00000
     33      -4.0807      2.00000
     34      -4.0757      2.00000
     35      -4.0652      2.00000
     36      -4.0303      2.00000
     37      -4.0017      2.00000
     38      -3.9566      2.00000
     39      -3.9027      2.00000
     40      -3.8852      2.00000
     41      -3.7769      2.00000
     42      -3.7577      2.00000
     43      -3.6958      2.00000
     44      -3.6798      2.00000
     45      -3.6567      2.00000
     46      -3.6509      2.00000
     47      -3.6348      2.00000
     48      -3.5990      2.00000
     49      -3.5981      2.00000
     50      -3.4500      2.00000
     51      -3.4442      2.00000
     52      -3.4294      2.00000
     53      -3.4125      2.00000
     54      -3.3841      2.00000
     55      -3.3706      2.00000
     56      -3.3471      2.00000
     57      -3.3373      2.00000
     58      -3.3311      2.00000
     59      -3.3217      2.00000
     60      -3.2990      2.00000
[...]
    238       6.2825      0.00000
    239       6.4316      0.00000
    240       6.4935      0.00000
    241       7.0053      0.00000
    242       7.0230      0.00000
    243       7.0890      0.00000
    244       7.1413      0.00000
    245       7.2742      0.00000
    246       7.3660      0.00000
    247       7.3980      0.00000
    248       7.4707      0.00000
    249       7.5631      0.00000
    250       7.7719      0.00000
    251       7.8286      0.00000
    252       8.0241      0.00000

 soft charge-density along one line, spin component           1
         0         1         2         3         4         5         6         7         8         9
 total charge-density along one line

------------------------ aborting loop because EDIFF is reached ----------------------------------------

 total charge

# of ion       s       p       d       tot
    1        0.451   0.282   9.189   9.923
    2        0.448   0.285   9.186   9.920
    3        0.448   0.285   9.186   9.920
    4        0.448   0.285   9.186   9.920
    5        0.449   0.285   9.185   9.918
    6        0.448   0.285   9.186   9.920
    7        0.448   0.285   9.186   9.920
    8        0.448   0.285   9.186   9.920
    9        0.448   0.285   9.187   9.919
   10        0.443   0.370   9.179   9.992
   11        0.440   0.369   9.182   9.990
   12        0.443   0.370   9.179   9.992
   13        0.440   0.369   9.182   9.990
   14        0.440   0.369   9.182   9.990
   15        0.438   0.368   9.178   9.985
   16        0.443   0.370   9.179   9.992
   17        0.438   0.368   9.178   9.985
   18        0.438   0.368   9.178   9.985
   19        0.443   0.365   9.183   9.991
   20        0.467   0.394   9.164  10.026
   21        0.467   0.394   9.164  10.026
   22        0.431   0.373   9.177   9.981
   23        0.467   0.394   9.164  10.026
   24        0.431   0.373   9.177   9.981
   25        0.443   0.365   9.183   9.991
   26        0.443   0.365   9.183   9.991
   27        0.431   0.373   9.177   9.981
   28        0.455   0.289   9.184   9.927
   29        0.462   0.310   9.177   9.950
   30        0.462   0.310   9.177   9.950
   31        0.462   0.310   9.177   9.950
   32        0.462   0.310   9.177   9.950
   33        0.462   0.310   9.177   9.950
   34        0.462   0.310   9.177   9.950
   35        0.447   0.294   9.183   9.924
   36        0.573   0.609   4.480   5.661
   37        1.607   3.275   0.000   4.882
tot         17.879  15.609 325.780 359.267

  FORCE on cell =-STRESS in cart. coord.  units (eV):
  Direction    XX          YY          ZZ          XY          YZ          ZX
  Alpha Z   896.00629   896.00629   896.00629
  Ewald  170941.22727170941.22689************     0.00037     0.00013     0.00017
  Hartree183919.18503183919.18503************     0.00003     0.00007     0.00006
  E(xc)   -2304.59645 -2304.59597 -2309.38497    -0.00041    -0.00003    -0.00006
  Local  ************************367921.40603     0.01877    -0.00061    -0.00096
  n-local  -799.28699  -785.94903  -798.58181     7.37933    -0.12576     0.24361
  augment  3323.31954  3323.33984  3340.86159    -0.01758     0.00026     0.00046
  Kinetic  3339.80092  3342.00674  3344.00290     2.78031     1.76680    -1.38138
  Fock        0.00000     0.00000     0.00000     0.00000     0.00000     0.00000
  Total      -1.75070    -1.75070     1.23416     0.00000     0.00000    -0.00000
  in kB      -2.56868    -2.56868     1.81080     0.00000     0.00000    -0.00000

 VOLUME and BASIS-vectors are now :
  energy-cutoff  :      500.00
  volume of cell :     1091.97
      direct lattice vectors                 reciprocal lattice vectors
     7.696786404  0.000000000  0.000000000     0.129924354 -0.075011849  0.000000000
     3.848392758  6.665612809  0.000000000     0.000000000  0.150023716  0.000000000
     0.000000000  0.000000000 21.284399033     0.000000000  0.000000000  0.046982769

  length of vectors
     7.696786404  7.696786404 21.284399033     0.150023716  0.150023716  0.046982769

 FORCES acting on ions
    electron-ion (+dipol)            ewald-force                    non-local-force                 convergence-correction
   -.416E-04 0.160E-06 0.347E+04   0.580E-04 -.430E-05 -.347E+04   -.642E-17 -.124E-17 -.223E+01   -.354E-03 -.171E-03 -.203E+00
   -.663E+00 -.378E+00 0.347E+04   0.630E+00 0.334E+00 -.347E+04   -.243E-01 0.994E-01 -.198E+01   0.603E-01 -.490E-01 -.150E+00
   0.663E+00 -.378E+00 0.347E+04   -.630E+00 0.334E+00 -.347E+04   0.243E-01 0.994E-01 -.198E+01   -.594E-01 -.465E-01 -.149E+00
   -.659E+00 -.385E+00 0.347E+04   0.604E+00 0.378E+00 -.347E+04   0.739E-01 -.708E-01 -.198E+01   -.122E-01 0.766E-01 -.150E+00
   -.653E-04 -.542E-05 0.347E+04   0.116E-03 -.101E-04 -.347E+04   0.206E-17 0.686E-18 -.188E+01   0.121E-01 0.743E-02 -.154E+00
   0.659E+00 -.385E+00 0.347E+04   -.604E+00 0.378E+00 -.347E+04   -.739E-01 -.708E-01 -.198E+01   0.106E-01 0.778E-01 -.149E+00
   0.409E-02 0.763E+00 0.347E+04   -.252E-01 -.712E+00 -.347E+04   0.983E-01 -.286E-01 -.198E+01   -.699E-01 -.283E-01 -.149E+00
   -.399E-02 0.763E+00 0.347E+04   0.249E-01 -.712E+00 -.347E+04   -.983E-01 -.286E-01 -.198E+01   0.734E-01 -.297E-01 -.149E+00
   -.144E-03 -.328E-04 0.347E+04   0.263E-03 0.204E-04 -.347E+04   -.304E-18 0.413E-18 -.212E+01   -.131E-01 -.678E-02 -.154E+00
   -.362E+01 -.209E+01 0.116E+04   0.388E+01 0.224E+01 -.116E+04   -.346E+00 -.200E+00 -.787E+00   0.584E-01 0.337E-01 -.523E-01
   -.910E-04 -.340E+01 0.115E+04   0.190E-03 0.329E+01 -.115E+04   -.138E-07 0.207E+00 -.449E+00   0.120E-01 -.138E+00 -.619E-01
   0.362E+01 -.209E+01 0.116E+04   -.388E+01 0.224E+01 -.116E+04   0.346E+00 -.200E+00 -.787E+00   -.601E-01 0.348E-01 -.523E-01
   -.294E+01 0.170E+01 0.115E+04   0.285E+01 -.165E+01 -.115E+04   0.180E+00 -.104E+00 -.449E+00   -.113E+00 0.802E-01 -.618E-01
   0.294E+01 0.170E+01 0.115E+04   -.285E+01 -.165E+01 -.115E+04   -.180E+00 -.104E+00 -.449E+00   0.137E+00 0.786E-01 -.638E-01
   -.141E-03 -.245E+01 0.116E+04   0.297E-03 0.222E+01 -.116E+04   -.631E-08 0.947E-01 -.824E+00   -.338E-02 0.139E+00 -.354E-01
   -.919E-04 0.418E+01 0.116E+04   0.186E-03 -.448E+01 -.116E+04   -.266E-07 0.399E+00 -.787E+00   -.835E-03 -.707E-01 -.524E-01
   -.213E+01 0.123E+01 0.116E+04   0.192E+01 -.111E+01 -.116E+04   0.820E-01 -.473E-01 -.824E+00   0.119E+00 -.724E-01 -.355E-01
   0.213E+01 0.123E+01 0.116E+04   -.192E+01 -.111E+01 -.116E+04   -.820E-01 -.473E-01 -.824E+00   -.118E+00 -.697E-01 -.336E-01
   -.650E-04 -.618E+01 -.115E+04   0.707E-04 0.611E+01 0.115E+04   0.393E-08 -.591E-01 0.101E+01   -.108E-01 0.894E-01 -.541E-01
   -.454E+02 -.262E+02 -.120E+04   0.460E+02 0.265E+02 0.120E+04   -.733E+00 -.423E+00 -.174E-01   -.610E-01 -.353E-01 -.905E-01
   0.454E+02 -.262E+02 -.120E+04   -.460E+02 0.265E+02 0.120E+04   0.733E+00 -.423E+00 -.174E-01   0.422E-01 -.369E-01 -.913E-01
   -.233E+02 0.134E+02 -.117E+04   0.230E+02 -.133E+02 0.117E+04   0.409E+00 -.236E+00 0.994E+00   -.870E-01 0.516E-01 -.179E+00
   -.830E-04 0.524E+02 -.120E+04   0.149E-03 -.531E+02 0.120E+04   -.563E-07 0.846E+00 -.174E-01   -.121E-01 0.538E-01 -.914E-01
   0.233E+02 0.134E+02 -.117E+04   -.230E+02 -.133E+02 0.117E+04   -.409E+00 -.236E+00 0.994E+00   0.886E-01 0.503E-01 -.179E+00
   0.535E+01 0.309E+01 -.115E+04   -.530E+01 -.306E+01 0.115E+04   0.512E-01 0.295E-01 0.101E+01   -.937E-01 -.541E-01 -.545E-01
   -.535E+01 0.309E+01 -.115E+04   0.530E+01 -.306E+01 0.115E+04   -.512E-01 0.295E-01 0.101E+01   0.724E-01 -.539E-01 -.540E-01
   -.121E-03 -.269E+02 -.117E+04   0.240E-03 0.266E+02 0.117E+04   -.314E-07 0.472E+00 0.994E+00   0.109E-02 -.101E+00 -.179E+00
   -.394E-04 0.156E-04 -.341E+04   0.413E-04 -.323E-04 0.341E+04   -.108E-16 0.523E-17 0.178E+01   -.246E-03 -.896E-04 0.109E+00
   -.270E+02 -.485E+02 -.340E+04   0.270E+02 0.483E+02 0.340E+04   -.241E+00 0.695E-01 0.232E+01   0.670E-02 -.102E+00 0.925E-01
   0.270E+02 -.485E+02 -.340E+04   -.270E+02 0.483E+02 0.340E+04   0.241E+00 0.695E-01 0.232E+01   -.571E-02 -.100E+00 0.918E-01
   -.555E+02 0.925E+00 -.340E+04   0.554E+02 -.742E+00 0.340E+04   -.601E-01 -.243E+00 0.232E+01   -.845E-01 0.565E-01 0.925E-01
   0.555E+02 0.925E+00 -.340E+04   -.554E+02 -.742E+00 0.340E+04   0.601E-01 -.243E+00 0.232E+01   0.844E-01 0.572E-01 0.928E-01
   -.286E+02 0.476E+02 -.340E+04   0.283E+02 -.476E+02 0.340E+04   0.180E+00 0.174E+00 0.232E+01   -.896E-01 0.451E-01 0.918E-01
   0.286E+02 0.476E+02 -.340E+04   -.283E+02 -.476E+02 0.340E+04   -.180E+00 0.174E+00 0.232E+01   0.924E-01 0.445E-01 0.929E-01
   -.146E-03 -.242E-04 -.342E+04   0.252E-03 0.194E-05 0.342E+04   0.112E-17 0.263E-17 0.225E+01   -.125E-01 -.642E-02 0.177E+00
   -.297E-04 -.113E-04 -.170E+04   0.738E-04 0.151E-04 0.170E+04   0.112E-17 -.435E-17 0.470E-01   0.739E-03 0.438E-03 0.290E-01
   0.172E-03 -.846E-04 -.213E+04   0.176E-04 0.805E-05 0.216E+04   0.116E-17 0.520E-18 -.291E+02   0.299E-02 0.182E-02 0.254E-01
   -.126E-03 -.103E-03 0.314E+02   0.499E-13 0.159E-12 -.500E-11   -.243E-16 -.567E-16 -.295E+02   -.331E-01 -.221E-01 -.193E+01

 POSITION                                       TOTAL-FORCE (eV/Angst)
      0.00000      0.00000      5.37156         0.000000      0.000000      0.007912
      2.56560      0.00000      5.37156         0.003095      0.008009      0.065959
      5.13119      0.00000      5.37156        -0.003095      0.008009      0.065959
      1.28280      2.22187      5.37156         0.008484     -0.001324      0.065959
      3.84839      2.22187      5.37156         0.000000      0.000000      0.066914
      6.41399      2.22187      5.37156        -0.008484     -0.001324      0.065959
      2.56560      4.44374      5.37156         0.005388     -0.006685      0.065959
      5.13119      4.44374      5.37156        -0.005388     -0.006685      0.065959
      7.69679      4.44374      5.37156         0.000000      0.000000      0.032769
      1.28280      0.74062      7.46636        -0.029141     -0.016825     -0.089174
      3.84839      0.74062      7.46636         0.000000     -0.042485     -0.042367
      6.41399      0.74062      7.46636         0.029141     -0.016825     -0.089174
      2.56560      2.96249      7.46636        -0.036793      0.021242     -0.042367
      5.13119      2.96249      7.46636         0.036793      0.021242     -0.042367
      7.69679      2.96249      7.46636         0.000000     -0.000729      0.015604
      3.84839      5.18437      7.46636        -0.000000      0.033649     -0.089174
      6.41399      5.18437      7.46636        -0.000632      0.000365      0.015604
      8.97958      5.18437      7.46636         0.000632      0.000365      0.015604
      7.69679      1.48128      9.55134         0.000000     -0.024009      0.024124
      2.56091      1.47854      9.54628        -0.241216     -0.139266     -0.351483
      5.13587      1.47854      9.54628         0.241216     -0.139266     -0.351483
      8.97673      3.70477      9.56818         0.067280     -0.038844      0.020656
      3.84839      3.70853      9.54628        -0.000000      0.278532     -0.351483
      6.41684      3.70477      9.56818        -0.067280     -0.038844      0.020656
     10.26235      5.92497      9.55134         0.020792      0.012004      0.024124
      5.13122      5.92497      9.55134        -0.020792      0.012004      0.024124
      7.69679      5.92169      9.56818        -0.000000      0.077689      0.020656
      0.00000      0.00000     11.64671         0.000000      0.000000     -0.046225
      6.40484      6.65345     11.67351        -0.153059     -0.258406     -0.247390
      8.98873      6.65345     11.67351         0.153059     -0.258406     -0.247390
      8.96447      2.22003     11.67351        -0.300316     -0.003350     -0.247390
      6.42910      2.22003     11.67351         0.300316     -0.003350     -0.247390
     10.25642      4.45775     11.67351        -0.147257      0.261756     -0.247390
      5.13715      4.45775     11.67351         0.147257      0.261756     -0.247390
      7.69679      4.44374     11.65978         0.000000      0.000000     -0.013535
      3.84839      2.22187     11.64991         0.000000      0.000000      2.299588
      3.84839      2.22187     13.38889         0.000000      0.000000      0.009084
    total drift:                               -0.033200     -0.022199      0.001689

  FREE ENERGIE OF THE ION-ELECTRON SYSTEM (eV)
  free  energy   TOTEN  =      -138.90618683 eV

  energy  without entropy=     -138.90618683  energy(sigma->0) =     -138.90618683

 stress matrix after NEB project (eV)
     -1.75070      0.00000     -0.00000
      0.00000     -1.75070     -0.00000
     -0.00000      0.00000      1.23416
  FORCES: max atom, RMS     0.009084    0.001493
  FORCE total and by dimension    0.009084    0.009084
  Stress total and by dimension    2.766411    1.750697
|           W    W    AA    RRRRR   N    N  II  N    N   GGGG   !!!           |
|           W    W   A  A   R    R  NN   N  II  NN   N  G    G  !!!           |
|           W    W  A    A  R    R  N N  N  II  N N  N  G       !!!           |
|           W WW W  AAAAAA  RRRRR   N  N N  II  N  N N  G  GGG   !            |
|           WW  WW  A    A  R   R   N   NN  II  N   NN  G    G                |
|           W    W  A    A  R    R  N    N  II  N    N   GGGG   !!!           |
|     Tetrahedron method does not include variations of the Fermi             |
|     occupations, so forces and stress will be inaccurate. We suggest        |
|     using a different smearing scheme ISMEAR = 1 or 2 for metals in         |
|     relaxations.                                                            |

 total charge

# of ion       s       p       d       tot
    1        0.451   0.282   9.189   9.923
    2        0.448   0.285   9.186   9.920
    3        0.448   0.285   9.186   9.920
    4        0.448   0.285   9.186   9.920
    5        0.449   0.285   9.185   9.918
    6        0.448   0.285   9.186   9.920
    7        0.448   0.285   9.186   9.920
    8        0.448   0.285   9.186   9.920
    9        0.448   0.285   9.187   9.919
   10        0.443   0.370   9.179   9.992
   11        0.440   0.369   9.182   9.990
   12        0.443   0.370   9.179   9.992
   13        0.440   0.369   9.182   9.990
   14        0.440   0.369   9.182   9.990
   15        0.438   0.368   9.178   9.985
   16        0.443   0.370   9.179   9.992
   17        0.438   0.368   9.178   9.985
   18        0.438   0.368   9.178   9.985
   19        0.443   0.365   9.183   9.991
   20        0.467   0.394   9.164  10.026
   21        0.467   0.394   9.164  10.026
   22        0.431   0.373   9.177   9.981
   23        0.467   0.394   9.164  10.026
   24        0.431   0.373   9.177   9.981
   25        0.443   0.365   9.183   9.991
   26        0.443   0.365   9.183   9.991
   27        0.431   0.373   9.177   9.981
   28        0.455   0.289   9.184   9.927
   29        0.462   0.310   9.177   9.950
   30        0.462   0.310   9.177   9.950
   31        0.462   0.310   9.177   9.950
   32        0.462   0.310   9.177   9.950
   33        0.462   0.310   9.177   9.950
   34        0.462   0.310   9.177   9.950
   35        0.447   0.294   9.183   9.924
   36        0.573   0.609   4.480   5.661
   37        1.607   3.275   0.000   4.882
tot         17.879  15.609 325.780 359.267

 BZINTS: Fermi energy:    0.033164;  397.000000 electrons
         Band energy:-0.115491E+04;  BLOECHL correction:   -0.030106