 vasp.6.2.0 18Jan21 (build Jun 12 2021 23:27:24) complex

 executed on             LinuxIFC date 2022.05.28  00:41:58

 INCAR:
   ISMEAR = -5
   SIGMA = 0.1
   ISPIN = 1
   EDIFF = 1.d-5
   EDIFFG = -0.01
   NSW = 0
   NELM = 150
   ENCUT = 500
   ISIF = 2
   IBRION = 2
   LREAL = Auto
   ALGO = Fast
   ICHARG = 11
   LORBIT = 10
   LCHARG = .F.
   LWAVE = .F.

 POTCAR:    PAW_PBE Au 04Oct2007
 POTCAR:    PAW_PBE Cr 06Sep2000
 POTCAR:    PAW_PBE O 08Apr2002
 POTCAR:    PAW_PBE H 15Jun2001
|           W    W    AA    RRRRR   N    N  II  N    N   GGGG   !!!           |
|           W    W   A  A   R    R  NN   N  II  NN   N  G    G  !!!           |
|           W    W  A    A  R    R  N N  N  II  N N  N  G       !!!           |
|           W WW W  AAAAAA  RRRRR   N  N N  II  N  N N  G  GGG   !            |
|           WW  WW  A    A  R   R   N   NN  II  N   NN  G    G                |
|           W    W  A    A  R    R  N    N  II  N    N   GGGG   !!!           |
|     For optimal performance we recommend to set                             |
|       NCORE = 2 up to number-of-cores-per-socket                            |
|     This setting can greatly improve the performance of VASP for DFT.       |
|     The default, NCORE=1 might be grossly inefficient on modern             |
|     multi-core architectures or massively parallel machines. Do your        |
|     Unfortunately you need to use the default for GW and RPA                |
|     calculations (for HF NCORE is supported but not extensively tested      |
|     yet).                                                                   |

 POTCAR:    PAW_PBE Au 04Oct2007
   VRHFIN =Au: s1d10

   TITEL  = PAW_PBE Au 04Oct2007
   POMASS =  196.966; ZVAL   =   11.000    mass and valenz
   ENMAX  =  229.943; ENMIN  =  172.457 eV

 POTCAR:    PAW_PBE Cr 06Sep2000
   VRHFIN =Cr : d5 s1

   TITEL  = PAW_PBE Cr 06Sep2000
   POMASS =   51.996; ZVAL   =    6.000    mass and valenz
   ENMAX  =  227.080; ENMIN  =  170.310 eV

 POTCAR:    PAW_PBE O 08Apr2002
   VRHFIN =O: s2p4

   TITEL  = PAW_PBE O 08Apr2002
   POMASS =   16.000; ZVAL   =    6.000    mass and valenz
   ENMAX  =  400.000; ENMIN  =  300.000 eV

 POTCAR:    PAW_PBE H 15Jun2001
   VRHFIN =H: ultrasoft test

   TITEL  = PAW_PBE H 15Jun2001
   POMASS =    1.000; ZVAL   =    1.000    mass and valenz
   ENMAX  =  250.000; ENMIN  =  200.000 eV

 Optimization of the real space projectors (new method)

 maximal supplied QI-value         = 15.12
 optimisation between [QCUT,QGAM] = [ 11.34, 22.83] = [ 36.00,145.93] Ry
 Optimized for a Real-space Cutoff    1.39 Angstroem

   l    n(q)    QCUT    max X(q) W(low)/X(q) W(high)/X(q)  e(spline)
   2      9    11.338    60.898    0.39E-03    0.42E-03    0.21E-06
   2      9    11.338    58.894    0.40E-03    0.42E-03    0.22E-06
   0      9    11.338   109.617    0.13E-03    0.20E-04    0.13E-06
   0      9    11.338    75.026    0.13E-03    0.20E-04    0.13E-06
   1      9    11.338    16.344    0.33E-04    0.24E-03    0.18E-06
   1      9    11.338    10.160    0.26E-04    0.19E-03    0.15E-06
 Optimization of the real space projectors (new method)

[...]

   l    n(q)    QCUT    max X(q) W(low)/X(q) W(high)/X(q)  e(spline)
   0      7    11.387    20.381    0.39E-03    0.13E-02    0.15E-06
   0      7    11.387    15.268    0.42E-03    0.14E-02    0.17E-06
   1      6    11.387     5.964    0.41E-03    0.11E-02    0.17E-06
   1      6    11.387     5.382    0.39E-03    0.87E-03    0.15E-06
 Optimization of the real space projectors (new method)

 maximal supplied QI-value         = 34.20
 optimisation between [QCUT,QGAM] = [ 11.29, 22.57] = [ 35.68,142.71] Ry
 Optimized for a Real-space Cutoff    1.16 Angstroem

   l    n(q)    QCUT    max X(q) W(low)/X(q) W(high)/X(q)  e(spline)
   0      8    11.287    19.460    0.40E-03    0.73E-03    0.16E-06
   0      8    11.287    12.209    0.38E-03    0.70E-03    0.15E-06
   1      7    11.287     4.655    0.22E-03    0.25E-04    0.22E-06
  PAW_PBE Au 04Oct2007                  :
  PAW_PBE Cr 06Sep2000                  :
  PAW_PBE O 08Apr2002                   :
  PAW_PBE H 15Jun2001                   :

 POSCAR: Au-Cr-OOH
  positions in direct lattice
  velocities in cartesian coordinates
 exchange correlation table for  LEXCH =        8
   RHO(1)=    0.500       N(1)  =     2000
   RHO(2)=  100.500       N(2)  =     4000

 VTST: version 3.2, (02/03/18)

 CHAIN: initializing optimizer

 OPT: Using VASP Conjugate-Gradient optimizer
 CHAIN: Read ICHAIN            0

 POSCAR: Au-Cr-OOH
  positions in direct lattice
  velocities in cartesian coordinates

 ion  position               nearest neighbor table
   1  0.000  0.000  0.204-  16 2.94  12 2.94   6 2.94   8 2.94   7 2.94   3 2.94  10 2.94   4 2.94
                             2 2.94
   2  0.333  0.000  0.204-   9 2.94  11 2.94  17 2.94  10 2.94   8 2.94   4 2.94   5 2.94   1 2.94
                             3 2.94
   3  0.667  0.000  0.204-   7 2.94  18 2.94  12 2.94   1 2.94  11 2.94   5 2.94   6 2.94   9 2.94
                             2 2.94
   4  0.000  0.333  0.204-  10 2.94   6 2.94   5 2.94  13 2.94   2 2.94  15 2.94   9 2.94   1 2.94
                             7 2.94
   5  0.333  0.333  0.204-  13 2.94   7 2.94  11 2.94   4 2.94   2 2.94  14 2.94   3 2.94   8 2.94
                             6 2.94
   6  0.667  0.333  0.204-  15 2.94  14 2.94   1 2.94  12 2.94   4 2.94   9 2.94   8 2.94   3 2.94
                             5 2.94
   7  0.000  0.667  0.204-  18 2.94   3 2.94  16 2.94   5 2.94   1 2.94  13 2.94   8 2.94   4 2.94
                             9 2.94
   8  0.333  0.667  0.204-   9 2.94  17 2.94   1 2.94   2 2.94  14 2.94  16 2.94   6 2.94   7 2.94
                             5 2.94
   9  0.667  0.667  0.204-   2 2.94   8 2.94  17 2.94   6 2.94  15 2.94   4 2.94   3 2.94  18 2.94
                             7 2.94
  10  0.111  0.111  0.296-  20 2.92  26 2.94  19 2.94  11 2.94  17 2.94   2 2.94   4 2.94   1 2.94
                            12 2.94  16 2.94  13 2.94  15 2.94
  11  0.444  0.111  0.296-  20 2.91  21 2.91  27 2.93  13 2.94   2 2.94  10 2.94  17 2.94   5 2.94
                             3 2.94  18 2.94  14 2.94  12 2.94
  12  0.778  0.111  0.296-  21 2.92  25 2.94  19 2.94  16 2.94  18 2.94   1 2.94  14 2.94  15 2.94
                             3 2.94   6 2.94  10 2.94  11 2.94
  13  0.111  0.444  0.296-  23 2.91  20 2.91  22 2.93   5 2.94  18 2.94  11 2.94   7 2.94   4 2.94
                            16 2.94  10 2.94  14 2.94  15 2.94
  14  0.444  0.444  0.296-  21 2.91  23 2.91  24 2.93  15 2.94   6 2.94  12 2.94   8 2.94  17 2.94
                             5 2.94  16 2.94  13 2.94  11 2.94
  15  0.778  0.444  0.296-  24 2.92  22 2.92  19 2.94  14 2.94   6 2.94  17 2.94  12 2.94   9 2.94
                             4 2.94  10 2.94  13 2.94  18 2.94
  16  0.111  0.778  0.296-  23 2.92  25 2.94  26 2.94  18 2.94  12 2.94   7 2.94   1 2.94   8 2.94
                            13 2.94  10 2.94  14 2.94  17 2.94
  17  0.444  0.778  0.296-  27 2.92  24 2.92  26 2.94   9 2.94  15 2.94   2 2.94  10 2.94  11 2.94
                             8 2.94  14 2.94  16 2.94  18 2.94
  18  0.778  0.778  0.296-  22 2.92  27 2.92  25 2.94  16 2.94   7 2.94  13 2.94  12 2.94   3 2.94
                            11 2.94   9 2.94  15 2.94  17 2.94
  19  0.889  0.222  0.389-  10 2.94  12 2.94  15 2.94  26 2.94  25 2.94  24 2.94  22 2.94  28 2.95
                            21 2.95  20 2.95  32 3.00  31 3.00
  20  0.223  0.223  0.388-  36 2.71  11 2.91  13 2.91  23 2.91  21 2.91  29 2.92  31 2.92  10 2.92
                            26 2.95  19 2.95  27 2.96  22 2.96
  21  0.553  0.223  0.388-  36 2.71  14 2.91  11 2.91  20 2.91  23 2.91  30 2.92  32 2.92  12 2.92
                            25 2.95  19 2.95  27 2.96  24 2.96
  22  0.886  0.557  0.388-  24 2.90  27 2.90  18 2.92  15 2.92  13 2.93  25 2.94  19 2.94  23 2.96
                            20 2.96  35 2.96  33 2.96  31 2.96
  23  0.223  0.553  0.388-  36 2.71  13 2.91  14 2.91  20 2.91  21 2.91  33 2.92  34 2.92  16 2.92
                            25 2.95  26 2.95  22 2.96  24 2.96
  24  0.557  0.557  0.388-  27 2.90  22 2.90  15 2.92  17 2.92  14 2.93  26 2.94  19 2.94  21 2.96
                            23 2.96  35 2.96  32 2.96  34 2.96
  25  0.889  0.889  0.389-  16 2.94  12 2.94  18 2.94  19 2.94  26 2.94  22 2.94  27 2.94  28 2.95
                            23 2.95  21 2.95  33 3.00  30 3.00
  26  0.222  0.889  0.389-  10 2.94  16 2.94  17 2.94  19 2.94  25 2.94  27 2.94  24 2.94  28 2.95
                            20 2.95  23 2.95  29 3.00  34 3.00
  27  0.557  0.886  0.388-  24 2.90  22 2.90  17 2.92  18 2.92  11 2.93  26 2.94  25 2.94  20 2.96
                            21 2.96  35 2.96  29 2.96  30 2.96
  28  0.000  0.000  0.482-  25 2.95  19 2.95  26 2.95  34 2.99  32 2.99  33 2.99  30 2.99  31 2.99
                            29 2.99
  29  0.334  0.011  0.481-  38 2.28  30 2.84  31 2.84  36 2.86  20 2.92  27 2.96  35 2.99  28 2.99
                            26 3.00  34 3.13
  30  0.655  0.011  0.481-  29 2.84  32 2.84  36 2.86  21 2.92  27 2.96  35 2.99  28 2.99  25 3.00
                            33 3.13
  31  0.011  0.334  0.481-  38 2.28  33 2.84  29 2.84  36 2.86  20 2.92  22 2.96  35 2.99  28 2.99
                            19 3.00  32 3.13
  32  0.655  0.334  0.481-  34 2.84  30 2.84  36 2.86  21 2.92  24 2.96  35 2.99  28 2.99  19 3.00
                            31 3.13
  33  0.011  0.655  0.481-  31 2.84  34 2.84  36 2.86  23 2.92  22 2.96  35 2.99  28 2.99  25 3.00
                            30 3.13
  34  0.334  0.655  0.481-  32 2.84  33 2.84  36 2.86  23 2.92  24 2.96  35 2.99  28 2.99  26 3.00
                            29 3.13
  35  0.667  0.667  0.482-  24 2.96  27 2.96  22 2.96  29 2.99  34 2.99  32 2.99  31 2.99  30 2.99
                            33 2.99
  36  0.333  0.333  0.470-  37 1.61  20 2.71  23 2.71  21 2.71  33 2.86  31 2.86  29 2.86  30 2.86
                            34 2.86  32 2.86
  37  0.336  0.337  0.532-  36 1.61
  38  0.154  0.155  0.549-  39 0.98  31 2.28  29 2.28
  39  0.212  0.213  0.566-  38 0.98

  LATTYP: Found a hexagonal cell.
 ALAT       =     8.8135128021
 C/A-ratio  =     2.9412617888

  Lattice vectors:

 A1 = (  -4.4067569092,  -7.6327256898,   0.0000000000)
 A2 = (   8.8135128021,   0.0000000000,   0.0000000000)
 A3 = (   0.0000000000,   0.0000000000,  25.9228484302)

Analysis of symmetry for initial positions (statically):
 Subroutine PRICEL returns:
 Original cell was already a primitive cell.

 Routine SETGRP: Setting up the symmetry group for a
 hexagonal supercell.

 Subroutine GETGRP returns: Found  1 space group operations
 (whereof  1 operations were pure point group operations)
 out of a pool of 24 trial point group operations.

The static configuration has the point symmetry C_1 .

Analysis of symmetry for dynamics (positions and initial velocities):
 Subroutine PRICEL returns:
 Original cell was already a primitive cell.

[...]

The dynamic configuration has the point symmetry C_1 .

Analysis of constrained symmetry for selective dynamics:
 Subroutine PRICEL returns:
[...]
     41      -5.3983      2.00000
     42      -5.3710      2.00000
     43      -5.3353      2.00000
     44      -5.2779      2.00000
     45      -5.2509      2.00000
     46      -5.1957      2.00000
     47      -5.1885      2.00000
     48      -5.1454      2.00000
     49      -5.0965      2.00000
     50      -5.0697      2.00000
     51      -5.0259      2.00000
     52      -5.0148      2.00000
     53      -5.0049      2.00000
     54      -4.9905      2.00000
     55      -4.9686      2.00000
     56      -4.9509      2.00000
     57      -4.9365      2.00000
     58      -4.8948      2.00000
     59      -4.8767      2.00000
     60      -4.8540      2.00000
[...]
    238       5.3047      0.00000
    239       5.3528      0.00000
    240       5.5543      0.00000
    241       5.6252      0.00000
    242       5.6465      0.00000
    243       5.6663      0.00000
    244       5.6940      0.00000
    245       5.8177      0.00000
    246       5.9422      0.00000
    247       5.9908      0.00000
    248       6.0212      0.00000
    249       6.1217      0.00000
    250       6.3470      0.00000
    251       6.4204      0.00000
    252       6.4537      0.00000

 soft charge-density along one line, spin component           1
         0         1         2         3         4         5         6         7         8         9
 total charge-density along one line

------------------------ aborting loop because EDIFF is reached ----------------------------------------

 total charge

# of ion       s       p       d       tot
    1        0.547   0.238   8.766   9.551
    2        0.543   0.241   8.764   9.548
    3        0.543   0.241   8.763   9.546
    4        0.543   0.241   8.764   9.548
    5        0.545   0.240   8.762   9.548
    6        0.543   0.241   8.764   9.548
    7        0.543   0.241   8.763   9.546
    8        0.543   0.241   8.764   9.548
    9        0.545   0.239   8.766   9.550
   10        0.522   0.307   8.773   9.602
   11        0.521   0.309   8.777   9.607
   12        0.521   0.308   8.770   9.598
   13        0.521   0.309   8.777   9.607
   14        0.515   0.312   8.776   9.602
   15        0.517   0.310   8.771   9.598
   16        0.520   0.308   8.770   9.598
   17        0.517   0.310   8.771   9.598
   18        0.515   0.314   8.766   9.595
   19        0.515   0.300   8.773   9.588
   20        0.554   0.338   8.741   9.633
   21        0.554   0.336   8.743   9.632
   22        0.510   0.319   8.763   9.592
   23        0.554   0.336   8.743   9.632
   24        0.507   0.309   8.778   9.595
   25        0.513   0.297   8.780   9.591
   26        0.515   0.300   8.773   9.588
   27        0.510   0.319   8.763   9.592
   28        0.533   0.209   8.785   9.526
   29        0.520   0.291   8.735   9.546
   30        0.551   0.237   8.768   9.556
   31        0.521   0.292   8.734   9.547
   32        0.551   0.237   8.767   9.554
   33        0.551   0.237   8.768   9.556
   34        0.551   0.237   8.767   9.554
   35        0.534   0.221   8.770   9.525
   36        0.472   0.658   4.537   5.667
   37        1.613   3.279   0.000   4.892
   38        1.580   3.413   0.000   4.993
   39        0.611   0.118   0.000   0.729
tot         22.882  17.235 311.312 351.429

  FORCE on cell =-STRESS in cart. coord.  units (eV):
  Direction    XX          YY          ZZ          XY          YZ          ZX
  Alpha Z   885.86173   885.86173   885.86173
  Ewald  175985.79939175929.96577************    48.48673     5.73594    10.90178
  Hartree184357.80108184315.29220************    36.77879    -4.13159    -6.71099
  E(xc)   -1816.38542 -1816.48330 -1822.87539     0.08458     0.03734     0.06894
  Local  ************************372546.76670   -80.01729     2.63459     3.26169
  n-local  -109.62283  -110.25106   -87.43209     0.53026     0.15358     0.24176
  augment  2409.18157  2409.67611  2417.41553    -0.42645    -0.28803    -0.52456
  Kinetic  5669.54140  5675.09804  5701.44075    -4.83956    -4.11342    -7.18400
  Fock        0.00000     0.00000     0.00000     0.00000     0.00000     0.00000
  Total     -17.88753   -18.58952     0.07409     0.59706     0.02842     0.05462
  in kB     -16.43424   -17.07919     0.06807     0.54855     0.02611     0.05018

 VOLUME and BASIS-vectors are now :
  energy-cutoff  :      500.00
  volume of cell :     1743.86
      direct lattice vectors                 reciprocal lattice vectors
     8.813512802  0.000000000  0.000000000     0.113462137 -0.065507406  0.000000000
     4.406756909  7.632725690  0.000000000     0.000000000  0.131014796  0.000000000
     0.000000000  0.000000000 25.922848430     0.000000000  0.000000000  0.038576008

  length of vectors
     8.813512802  8.813512802 25.922848430     0.131014796  0.131014796  0.038576008

 FORCES acting on ions
    electron-ion (+dipol)            ewald-force                    non-local-force                 convergence-correction
   0.291E+00 0.167E+00 0.279E+04   -.182E+00 -.105E+00 -.279E+04   -.252E-01 -.143E-01 -.584E+00   -.706E-01 -.396E-01 -.279E+00
   0.403E+00 0.378E+00 0.279E+04   -.468E+00 -.359E+00 -.279E+04   0.238E-01 0.251E-01 -.270E+00   0.395E-01 -.320E-01 -.252E+00
   -.703E+00 0.151E+00 0.279E+04   0.649E+00 -.263E+00 -.279E+04   0.136E-01 0.626E-01 -.493E+00   0.326E-01 0.350E-01 -.295E+00
   0.530E+00 0.161E+00 0.279E+04   -.545E+00 -.226E+00 -.279E+04   0.335E-01 0.849E-02 -.270E+00   -.865E-02 0.495E-01 -.252E+00
   -.252E+00 -.143E+00 0.279E+04   0.173E+00 0.989E-01 -.279E+04   0.798E-02 0.437E-02 -.284E+00   0.694E-01 0.393E-01 -.282E+00
   -.270E+00 0.370E+00 0.279E+04   0.372E+00 -.338E+00 -.279E+04   -.534E-01 -.328E-01 -.403E+00   -.566E-01 0.805E-02 -.292E+00
   -.219E+00 -.686E+00 0.279E+04   0.972E-01 0.695E+00 -.279E+04   0.606E-01 -.194E-01 -.490E+00   0.460E-01 0.113E-01 -.295E+00
   0.184E+00 -.419E+00 0.279E+04   -.106E+00 0.492E+00 -.279E+04   -.550E-01 -.296E-01 -.404E+00   -.204E-01 -.535E-01 -.292E+00
   0.448E-01 0.245E-01 0.279E+04   0.857E-02 0.582E-02 -.279E+04   -.898E-02 -.536E-02 -.458E+00   -.326E-01 -.181E-01 -.203E+00
   0.472E+01 0.273E+01 0.976E+03   -.446E+01 -.258E+01 -.975E+03   -.250E+00 -.144E+00 -.582E+00   -.358E-01 -.204E-01 -.391E+00
   -.161E+01 0.436E+01 0.981E+03   0.147E+01 -.443E+01 -.980E+03   0.536E-01 0.694E-01 -.446E+00   0.806E-01 -.426E-01 -.479E+00
   -.307E+01 0.252E+01 0.973E+03   0.299E+01 -.237E+01 -.972E+03   0.151E+00 -.172E+00 -.563E+00   -.379E-01 0.337E-01 -.448E+00
   0.296E+01 -.356E+01 0.981E+03   -.309E+01 0.348E+01 -.980E+03   0.877E-01 0.103E-01 -.446E+00   0.390E-02 0.901E-01 -.479E+00
   -.395E+01 -.228E+01 0.980E+03   0.398E+01 0.230E+01 -.979E+03   -.535E-01 -.306E-01 -.354E+00   0.635E-01 0.351E-01 -.509E+00
   0.101E+01 0.313E+01 0.978E+03   -.887E+00 -.331E+01 -.976E+03   -.560E-01 0.689E-01 -.533E+00   -.681E-01 0.670E-01 -.419E+00
   0.647E+00 -.393E+01 0.973E+03   -.549E+00 0.378E+01 -.972E+03   -.727E-01 0.217E+00 -.563E+00   0.967E-02 -.485E-01 -.448E+00
   0.321E+01 -.700E+00 0.978E+03   -.331E+01 0.892E+00 -.976E+03   0.318E-01 -.826E-01 -.534E+00   0.255E-01 -.912E-01 -.419E+00
   -.394E+01 -.228E+01 0.977E+03   0.386E+01 0.223E+01 -.975E+03   0.107E+00 0.637E-01 -.631E+00   -.235E-01 -.124E-01 -.435E+00
   0.111E+02 -.167E+01 -.864E+03   -.109E+02 0.153E+01 0.864E+03   -.896E-01 0.668E-01 0.474E+00   -.281E-01 0.481E-01 -.163E+00
   0.620E+01 0.364E+01 -.819E+03   -.513E+01 -.302E+01 0.821E+03   -.973E+00 -.563E+00 -.101E+01   -.176E+00 -.101E+00 -.332E+00
   -.172E+02 0.686E+01 -.841E+03   0.161E+02 -.621E+01 0.842E+03   0.101E+01 -.594E+00 -.639E+00   0.192E+00 -.102E+00 -.411E+00
   0.368E+00 -.797E+01 -.855E+03   -.595E+00 0.784E+01 0.855E+03   0.390E+00 -.160E+00 0.395E+00   -.985E-01 0.631E-01 -.197E+00
   -.271E+01 -.184E+02 -.841E+03   0.272E+01 0.171E+02 0.842E+03   -.104E-01 0.117E+01 -.639E+00   0.641E-02 0.216E+00 -.409E+00
   0.230E+01 0.131E+01 -.861E+03   -.214E+01 -.121E+01 0.860E+03   -.311E+00 -.180E+00 0.878E+00   0.854E-01 0.490E-01 -.244E+00
   0.262E+01 0.150E+01 -.878E+03   -.260E+01 -.148E+01 0.877E+03   0.574E-01 0.324E-01 0.915E+00   -.268E-01 -.155E-01 -.169E+00
   0.404E+01 0.104E+02 -.865E+03   -.408E+01 -.102E+02 0.864E+03   0.140E-01 -.110E+00 0.476E+00   0.280E-01 -.480E-01 -.163E+00
   -.668E+01 0.426E+01 -.855E+03   0.646E+01 -.439E+01 0.855E+03   0.519E-01 0.418E+00 0.404E+00   0.455E-02 -.117E+00 -.198E+00
   0.648E+02 0.376E+02 -.264E+04   -.662E+02 -.383E+02 0.264E+04   0.809E+00 0.470E+00 0.151E+01   0.830E-01 0.478E-01 0.180E+00
   -.404E+02 0.135E+03 -.254E+04   0.422E+02 -.135E+03 0.254E+04   -.147E+01 -.189E+00 0.105E+01   -.207E+00 -.210E+00 0.193E+00
   -.485E+02 0.575E+02 -.266E+04   0.480E+02 -.567E+02 0.266E+04   0.729E+00 -.953E+00 0.653E+00   0.107E+00 -.209E+00 0.167E+00
   0.969E+02 -.103E+03 -.254E+04   -.963E+02 0.104E+03 0.254E+04   -.906E+00 -.116E+01 0.101E+01   -.285E+00 -.730E-01 0.193E+00
   -.400E+02 -.687E+01 -.266E+04   0.389E+02 0.706E+01 0.266E+04   0.108E+01 -.152E+00 0.804E+00   0.337E+00 0.666E-02 0.239E+00
   0.255E+02 -.711E+02 -.266E+04   -.251E+02 0.702E+02 0.266E+04   -.458E+00 0.110E+01 0.658E+00   -.127E+00 0.195E+00 0.167E+00
   -.261E+02 -.314E+02 -.266E+04   0.258E+02 0.304E+02 0.266E+04   0.404E+00 0.100E+01 0.804E+00   0.173E+00 0.288E+00 0.239E+00
   -.112E+01 -.845E+00 -.269E+04   0.112E+01 0.845E+00 0.269E+04   0.181E-01 0.110E-01 0.543E+00   -.366E-01 -.214E-01 0.127E+00
   -.200E+02 -.113E+02 -.119E+04   0.205E+02 0.115E+02 0.119E+04   -.151E+00 -.851E-01 0.411E+00   -.319E-01 -.171E-01 0.857E-01
   -.582E+02 -.335E+02 -.181E+04   0.596E+02 0.343E+02 0.184E+04   -.136E+01 -.815E+00 -.275E+02   0.209E-01 0.172E-01 0.483E+00
   0.763E+02 0.443E+02 -.180E+04   -.108E+03 -.625E+02 0.180E+04   0.314E+02 0.182E+02 -.118E+00   -.414E-01 -.245E-01 0.315E-01
   -.531E+02 -.307E+02 -.331E+03   0.594E+02 0.343E+02 0.334E+03   -.625E+01 -.361E+01 -.355E+01   -.265E-01 -.152E-01 0.148E-01
   -.240E+02 -.139E+02 0.375E+02   -.711E-13 0.213E-12 0.102E-11   0.240E+02 0.140E+02 -.308E+02   -.317E-01 -.130E-01 -.663E+01

 POSITION                                       TOTAL-FORCE (eV/Angst)
      0.00000      0.00000      5.28038         0.013907      0.008096     -0.114163
      2.93784      0.00000      5.28038        -0.001435      0.012291     -0.063676
      5.87568      0.00000      5.28038        -0.007125     -0.013531     -0.027959
      1.46892      2.54424      5.28038         0.009867     -0.007372     -0.063969
      4.40676      2.54424      5.28038        -0.001216     -0.000637     -0.085707
      7.34459      2.54424      5.28038        -0.007141      0.008025     -0.048583
      2.93784      5.08848      5.28038        -0.015268      0.000612     -0.028356
      5.87568      5.08848      5.28038         0.003311     -0.010187     -0.048552
      8.81351      5.08848      5.28038         0.012230      0.007085     -0.097368
      1.46892      0.84808      7.67911        -0.028964     -0.016804      0.060855
      4.40676      0.84808      7.67911        -0.005291     -0.043360      0.007183
      7.34459      0.84808      7.67911         0.038178      0.019242      0.106053
      2.93784      3.39232      7.67911        -0.040275      0.017637      0.007008
      5.87568      3.39232      7.67911         0.039502      0.022711      0.047625
      8.81351      3.39232      7.67911        -0.005332     -0.045449      0.077168
      4.40676      5.93656      7.67911         0.035346      0.023269      0.106396
      7.34459      5.93656      7.67911        -0.042185      0.018275      0.077480
     10.28243      5.93656      7.67911         0.003078      0.001167      0.183053
      8.81351      1.69581     10.07501         0.049734     -0.025684      0.045440
      2.95207      1.70438     10.04871        -0.070168     -0.040698     -0.021305
      5.86144      1.70438     10.04871         0.084004     -0.043057     -0.036635
     10.26527      4.25031     10.05786         0.064865     -0.222696      0.236378
      4.40676      4.22397     10.04871         0.004764      0.093850     -0.036176
      7.36176      4.25031     10.05786        -0.060999     -0.035380      0.040695
     11.75166      6.78482     10.07501         0.057196      0.033245     -0.034010
      5.87537      6.78482     10.07501         0.002394      0.056287      0.045755
      8.81351      6.76483     10.05786        -0.159032      0.167085      0.234325
      0.00000      0.00000     12.48798        -0.450417     -0.261410     -0.322832
      2.98892      0.08359     12.48152         0.111914     -0.740058     -0.139716
      5.82460      0.08359     12.48152         0.301337     -0.367932     -0.233960
      1.56685      2.54668     12.48152        -0.587415      0.471963     -0.146827
      7.24666      2.54668     12.48152         0.371297      0.042832     -0.265290
      2.98469      5.00245     12.48152        -0.168155      0.448168     -0.234887
      5.82882      5.00245     12.48152         0.224243      0.302133     -0.265242
      8.81351      5.08848     12.49580        -0.021067     -0.010570     -0.087257
      4.40676      2.54424     12.17616         0.234459      0.134563      1.200654
      4.44933      2.57080     13.78357         0.013909      0.001779     -0.049883
      2.03535      1.18030     14.24027        -0.019181     -0.012368     -0.016116
      2.80270      1.62381     14.66189         0.015129      0.006879     -0.007601
    total drift:                               -0.016063     -0.009975      0.118077

  FREE ENERGIE OF THE ION-ELECTRON SYSTEM (eV)
  free  energy   TOTEN  =      -131.10840138 eV

  energy  without entropy=     -131.10840138  energy(sigma->0) =     -131.10840138

 stress matrix after NEB project (eV)
    -17.88753      0.59706      0.05462
      0.59706    -18.58952      0.02842
      0.05462      0.02842      0.07409
  FORCES: max atom, RMS     0.051816    0.009870
  FORCE total and by dimension    0.061640    0.049883
  Stress total and by dimension   25.812014   18.589522
|           W    W    AA    RRRRR   N    N  II  N    N   GGGG   !!!           |
|           W    W   A  A   R    R  NN   N  II  NN   N  G    G  !!!           |
|           W    W  A    A  R    R  N N  N  II  N N  N  G       !!!           |
|           W WW W  AAAAAA  RRRRR   N  N N  II  N  N N  G  GGG   !            |
|           WW  WW  A    A  R   R   N   NN  II  N   NN  G    G                |
|           W    W  A    A  R    R  N    N  II  N    N   GGGG   !!!           |
|     Tetrahedron method does not include variations of the Fermi             |
|     occupations, so forces and stress will be inaccurate. We suggest        |
|     using a different smearing scheme ISMEAR = 1 or 2 for metals in         |
|     relaxations.                                                            |

 total charge

# of ion       s       p       d       tot
    1        0.547   0.238   8.766   9.551
    2        0.543   0.241   8.764   9.548
    3        0.543   0.241   8.763   9.546
    4        0.543   0.241   8.764   9.548
    5        0.545   0.240   8.762   9.548
    6        0.543   0.241   8.764   9.548
    7        0.543   0.241   8.763   9.546
    8        0.543   0.241   8.764   9.548
    9        0.545   0.239   8.766   9.550
   10        0.522   0.307   8.773   9.602
   11        0.521   0.309   8.777   9.607
   12        0.521   0.308   8.770   9.598
   13        0.521   0.309   8.777   9.607
   14        0.515   0.312   8.776   9.602
   15        0.517   0.310   8.771   9.598
   16        0.520   0.308   8.770   9.598
   17        0.517   0.310   8.771   9.598
   18        0.515   0.314   8.766   9.595
   19        0.515   0.300   8.773   9.588
   20        0.554   0.338   8.741   9.633
   21        0.554   0.336   8.743   9.632
   22        0.510   0.319   8.763   9.592
   23        0.554   0.336   8.743   9.632
   24        0.507   0.309   8.778   9.595
   25        0.513   0.297   8.780   9.591
   26        0.515   0.300   8.773   9.588
   27        0.510   0.319   8.763   9.592
   28        0.533   0.209   8.785   9.526
   29        0.520   0.291   8.735   9.546
   30        0.551   0.237   8.768   9.556
   31        0.521   0.292   8.734   9.547
   32        0.551   0.237   8.767   9.554
   33        0.551   0.237   8.768   9.556
   34        0.551   0.237   8.767   9.554
   35        0.534   0.221   8.770   9.525
   36        0.472   0.658   4.537   5.667
   37        1.613   3.279   0.000   4.892
   38        1.580   3.413   0.000   4.993
   39        0.611   0.118   0.000   0.729
tot         22.882  17.235 311.312 351.429

 BZINTS: Fermi energy:   -0.169703;  404.000000 electrons
         Band energy:-0.163760E+04;  BLOECHL correction:   -0.030233