 vasp.6.2.0 18Jan21 (build Jun 12 2021 23:27:24) complex

 executed on             LinuxIFC date 2022.05.26  20:08:34

 INCAR:
   ISMEAR = -5
   SIGMA = 0.1
   ISPIN = 1
   EDIFF = 1.d-5
   EDIFFG = -0.01
   NSW = 0
   NELM = 150
   ENCUT = 500
   ISIF = 2
   IBRION = 2
   LREAL = Auto
   ALGO = Fast
   ICHARG = 11
   LORBIT = 10
   LCHARG = .F.
   LWAVE = .F.

 POTCAR:    PAW_PBE Cu 22Jun2005
 POTCAR:    PAW_PBE Re 17Jan2003
 POTCAR:    PAW_PBE O 08Apr2002
|           W    W    AA    RRRRR   N    N  II  N    N   GGGG   !!!           |
|           W    W   A  A   R    R  NN   N  II  NN   N  G    G  !!!           |
|           W    W  A    A  R    R  N N  N  II  N N  N  G       !!!           |
|           W WW W  AAAAAA  RRRRR   N  N N  II  N  N N  G  GGG   !            |
|           WW  WW  A    A  R   R   N   NN  II  N   NN  G    G                |
|           W    W  A    A  R    R  N    N  II  N    N   GGGG   !!!           |
|     For optimal performance we recommend to set                             |
|       NCORE = 2 up to number-of-cores-per-socket                            |
|     This setting can greatly improve the performance of VASP for DFT.       |
|     The default, NCORE=1 might be grossly inefficient on modern             |
|     multi-core architectures or massively parallel machines. Do your        |
|     Unfortunately you need to use the default for GW and RPA                |
|     calculations (for HF NCORE is supported but not extensively tested      |
|     yet).                                                                   |

 POTCAR:    PAW_PBE Cu 22Jun2005
   VRHFIN =Cu: d10 p1

   TITEL  = PAW_PBE Cu 22Jun2005
   POMASS =   63.546; ZVAL   =   11.000    mass and valenz
   ENMAX  =  295.446; ENMIN  =  221.585 eV

 POTCAR:    PAW_PBE Re 17Jan2003
   VRHFIN =Re: 5p6s5d

   TITEL  = PAW_PBE Re 17Jan2003
   POMASS =  186.207; ZVAL   =    7.000    mass and valenz
   ENMAX  =  226.216; ENMIN  =  169.662 eV

 POTCAR:    PAW_PBE O 08Apr2002
   VRHFIN =O: s2p4

   TITEL  = PAW_PBE O 08Apr2002
   POMASS =   16.000; ZVAL   =    6.000    mass and valenz
   ENMAX  =  400.000; ENMIN  =  300.000 eV

 Optimization of the real space projectors (new method)

 maximal supplied QI-value         = 16.25
 optimisation between [QCUT,QGAM] = [ 11.38, 22.75] = [ 36.24,144.96] Ry
 Optimized for a Real-space Cutoff    1.52 Angstroem

   l    n(q)    QCUT    max X(q) W(low)/X(q) W(high)/X(q)  e(spline)
   2      9    11.376     4.610    0.21E-03    0.10E-03    0.26E-06
   2      9    11.376     8.522    0.33E-03    0.16E-03    0.37E-06
   0     10    11.376    51.609    0.62E-04    0.20E-04    0.13E-06
   0     10    11.376    27.747    0.54E-04    0.20E-04    0.13E-06
   1     10    11.376    20.408    0.13E-04    0.99E-04    0.19E-06
   1     10    11.376    13.425    0.12E-04    0.87E-04    0.17E-06
 Optimization of the real space projectors (new method)

[...]

   l    n(q)    QCUT    max X(q) W(low)/X(q) W(high)/X(q)  e(spline)
   2     10    11.327   884.633    0.22E-03    0.51E-03    0.88E-06
   2     10    11.327   796.723    0.22E-03    0.51E-03    0.88E-06
   0     11    11.327    65.348    0.44E-04    0.11E-03    0.75E-06
   0     11    11.327    39.642    0.40E-04    0.10E-03    0.69E-06
   1     10    11.327    13.988    0.15E-03    0.10E-03    0.19E-06
   1     10    11.327     8.682    0.11E-03    0.76E-04    0.14E-06
 Optimization of the real space projectors (new method)

 maximal supplied QI-value         = 24.76
 optimisation between [QCUT,QGAM] = [ 11.39, 22.77] = [ 36.31,145.25] Ry
 Optimized for a Real-space Cutoff    1.00 Angstroem

   l    n(q)    QCUT    max X(q) W(low)/X(q) W(high)/X(q)  e(spline)
   0      7    11.387    20.381    0.39E-03    0.13E-02    0.15E-06
   0      7    11.387    15.268    0.42E-03    0.14E-02    0.17E-06
   1      6    11.387     5.964    0.41E-03    0.11E-02    0.17E-06
   1      6    11.387     5.382    0.39E-03    0.87E-03    0.15E-06
  PAW_PBE Cu 22Jun2005                  :
  PAW_PBE Re 17Jan2003                  :
  PAW_PBE O 08Apr2002                   :

 POSCAR: Cu-Re-O
  positions in direct lattice
  velocities in cartesian coordinates
 exchange correlation table for  LEXCH =        8
   RHO(1)=    0.500       N(1)  =     2000
   RHO(2)=  100.500       N(2)  =     4000

 VTST: version 3.2, (02/03/18)

 CHAIN: initializing optimizer

 OPT: Using VASP Conjugate-Gradient optimizer
 CHAIN: Read ICHAIN            0

 POSCAR: Cu-Re-O
  positions in direct lattice
  velocities in cartesian coordinates

 ion  position               nearest neighbor table
   1  0.000  0.000  0.252-   7 2.57   3 2.57   4 2.57   2 2.57   6 2.57   8 2.57  12 2.57  10 2.57
                            16 2.57
   2  0.333  0.000  0.252-   8 2.57   9 2.57   5 2.57   1 2.57   3 2.57  11 2.57   4 2.57  10 2.57
                            17 2.57
   3  0.667  0.000  0.252-   1 2.57   7 2.57   6 2.57   9 2.57   2 2.57  12 2.57   5 2.57  18 2.57
                            11 2.57
   4  0.000  0.333  0.252-   5 2.57   6 2.57   1 2.57   7 2.57   2 2.57  13 2.57   9 2.57  10 2.57
                            15 2.57
   5  0.333  0.333  0.252-   4 2.57   2 2.57   7 2.57  13 2.57   8 2.57   6 2.57   3 2.57  11 2.57
                            14 2.57
   6  0.667  0.333  0.252-   4 2.57   9 2.57  15 2.57   3 2.57   1 2.57   8 2.57  14 2.57   5 2.57
                            12 2.57
   7  0.000  0.667  0.252-   1 2.57   3 2.57  16 2.57  18 2.57   4 2.57   5 2.57   8 2.57   9 2.57
                            13 2.57
   8  0.333  0.667  0.252-   9 2.57   2 2.57  17 2.57   6 2.57   1 2.57   7 2.57   5 2.57  14 2.57
                            16 2.57
   9  0.667  0.667  0.252-   8 2.57   6 2.57   2 2.57  17 2.57   3 2.57   7 2.57   4 2.57  15 2.57
                            18 2.57
  10  0.111  0.111  0.351-  20 2.53  11 2.57  12 2.57  13 2.57   1 2.57   2 2.57   4 2.57  15 2.57
                            16 2.57  17 2.57  26 2.57  19 2.57
  11  0.444  0.111  0.351-  20 2.55  21 2.55  10 2.57  13 2.57   2 2.57  17 2.57  14 2.57  12 2.57
                             5 2.57   3 2.57  18 2.57  27 2.58
  12  0.778  0.111  0.351-  21 2.53  15 2.57  10 2.57  14 2.57  18 2.57   3 2.57   1 2.57  16 2.57
                            11 2.57   6 2.57  19 2.57  25 2.57
  13  0.111  0.444  0.351-  23 2.55  20 2.55  16 2.57  18 2.57  10 2.57  11 2.57  14 2.57   5 2.57
                             4 2.57   7 2.57  15 2.57  22 2.58
  14  0.444  0.444  0.351-  21 2.55  23 2.55  15 2.57  17 2.57  12 2.57  16 2.57  13 2.57  11 2.57
                             6 2.57   8 2.57   5 2.57  24 2.58
  15  0.778  0.444  0.351-  19 2.57  14 2.57  17 2.57  12 2.57   6 2.57  18 2.57  10 2.57   9 2.57
                            13 2.57   4 2.57  24 2.57  22 2.57
  16  0.111  0.778  0.351-  23 2.53  18 2.57  13 2.57   7 2.57  14 2.57  17 2.57  12 2.57  10 2.57
                             8 2.57   1 2.57  25 2.57  26 2.57
  17  0.444  0.778  0.351-  26 2.57  14 2.57  15 2.57   8 2.57   9 2.57  11 2.57  16 2.57  18 2.57
                            10 2.57   2 2.57  27 2.57  24 2.57
  18  0.778  0.778  0.351-  25 2.57  16 2.57  13 2.57   7 2.57  15 2.57  12 2.57  17 2.57   9 2.57
                             3 2.57  11 2.57  22 2.57  27 2.57
  19  0.889  0.223  0.449-  21 2.55  20 2.55  22 2.56  24 2.56  28 2.56  15 2.57  12 2.57  10 2.57
                            25 2.57  26 2.57  32 2.59  31 2.59
  20  0.221  0.221  0.448-  36 2.53  10 2.53  11 2.55  13 2.55  26 2.55  19 2.55  27 2.57  22 2.57
                            23 2.59  21 2.59  29 2.61  31 2.61
  21  0.558  0.221  0.448-  36 2.53  12 2.53  14 2.55  11 2.55  19 2.55  25 2.55  24 2.57  27 2.57
                            20 2.59  23 2.59  32 2.61  30 2.61
  22  0.888  0.556  0.450-  24 2.55  27 2.55  35 2.55  19 2.56  25 2.56  18 2.57  15 2.57  23 2.57
                            20 2.57  13 2.58  31 2.59  33 2.59
  23  0.221  0.558  0.448-  36 2.53  16 2.53  13 2.55  14 2.55  25 2.55  26 2.55  22 2.57  24 2.57
                            20 2.59  21 2.59  33 2.61  34 2.61
  24  0.556  0.556  0.450-  22 2.55  27 2.55  35 2.55  19 2.56  26 2.56  15 2.57  17 2.57  21 2.57
                            23 2.57  14 2.58  32 2.59  34 2.59
  25  0.889  0.889  0.449-  21 2.55  23 2.55  22 2.56  27 2.56  28 2.56  18 2.57  16 2.57  12 2.57
                            19 2.57  26 2.57  33 2.59  30 2.59
  26  0.223  0.889  0.449-  20 2.55  23 2.55  27 2.56  24 2.56  28 2.56  17 2.57  10 2.57  16 2.57
                            25 2.57  19 2.57  29 2.59  34 2.59
  27  0.556  0.888  0.450-  24 2.55  22 2.55  35 2.55  26 2.56  25 2.56  17 2.57  18 2.57  20 2.57
                            21 2.57  11 2.58  29 2.59  30 2.59
  28  0.000  0.000  0.548-  33 2.56  30 2.56  31 2.56  29 2.56  32 2.56  34 2.56  25 2.56  19 2.56
                            26 2.56
  29  0.333  0.000  0.549-  31 2.56  28 2.56  36 2.57  34 2.57  35 2.57  30 2.57  26 2.59  27 2.59
                            20 2.61
  30  0.667  0.000  0.549-  32 2.56  28 2.56  36 2.57  33 2.57  35 2.57  29 2.57  25 2.59  27 2.59
                            21 2.61
  31  0.000  0.333  0.549-  29 2.56  28 2.56  36 2.57  32 2.57  35 2.57  33 2.57  19 2.59  22 2.59
                            20 2.61
  32  0.667  0.333  0.549-  30 2.56  28 2.56  36 2.57  31 2.57  35 2.57  34 2.57  19 2.59  24 2.59
                            21 2.61
  33  0.000  0.667  0.549-  34 2.56  28 2.56  36 2.57  30 2.57  35 2.57  31 2.57  25 2.59  22 2.59
                            23 2.61
  34  0.333  0.667  0.549-  33 2.56  28 2.56  36 2.57  29 2.57  35 2.57  32 2.57  26 2.59  24 2.59
                            23 2.61
  35  0.667  0.667  0.548-  24 2.55  27 2.55  22 2.55  34 2.57  32 2.57  29 2.57  30 2.57  33 2.57
                            31 2.57
  36  0.333  0.333  0.544-  37 1.74  23 2.53  20 2.53  21 2.53  31 2.57  29 2.57  33 2.57  34 2.57
                            32 2.57  30 2.57
  37  0.333  0.333  0.626-  36 1.74

  LATTYP: Found a hexagonal cell.
 ALAT       =     7.6967864036
 C/A-ratio  =     2.7653617908

  Lattice vectors:

 A1 = (  -3.8483927580,  -6.6656128093,   0.0000000000)
 A2 = (   7.6967864037,   0.0000000000,   0.0000000000)
 A3 = (   0.0000000000,   0.0000000000,  21.2843990326)

Analysis of symmetry for initial positions (statically):
 Subroutine PRICEL returns:
 Original cell was already a primitive cell.

 Routine SETGRP: Setting up the symmetry group for a
 hexagonal supercell.

 Subroutine GETGRP returns: Found  6 space group operations
 (whereof  6 operations were pure point group operations)
 out of a pool of 24 trial point group operations.

The static configuration has the point symmetry C_3v.

Analysis of symmetry for dynamics (positions and initial velocities):
 Subroutine PRICEL returns:
 Original cell was already a primitive cell.

[...]

The dynamic configuration has the point symmetry C_3v.

Analysis of constrained symmetry for selective dynamics:
 Subroutine PRICEL returns:
 Original cell was already a primitive cell.

 Routine SETGRP: Setting up the symmetry group for a
 hexagonal supercell.

 Subroutine GETGRP returns: Found  6 space group operations
[...]
     24      -4.3712      2.00000
     25      -4.3480      2.00000
     26      -4.3016      2.00000
     27      -4.2748      2.00000
     28      -4.2210      2.00000
     29      -4.1707      2.00000
     30      -4.1141      2.00000
     31      -4.1031      2.00000
     32      -4.0606      2.00000
     33      -4.0377      2.00000
     34      -4.0338      2.00000
     35      -4.0215      2.00000
     36      -4.0118      2.00000
     37      -3.9713      2.00000
     38      -3.9344      2.00000
     39      -3.8746      2.00000
     40      -3.8548      2.00000
     41      -3.7338      2.00000
     42      -3.7226      2.00000
     43      -3.6505      2.00000
     44      -3.6397      2.00000
     45      -3.6235      2.00000
     46      -3.6065      2.00000
     47      -3.5939      2.00000
     48      -3.5644      2.00000
     49      -3.5609      2.00000
     50      -3.4163      2.00000
     51      -3.4014      2.00000
     52      -3.3846      2.00000
     53      -3.3594      2.00000
     54      -3.3382      2.00000
     55      -3.3332      2.00000
     56      -3.2982      2.00000
     57      -3.2960      2.00000
     58      -3.2845      2.00000
     59      -3.2698      2.00000
     60      -3.2586      2.00000
[...]
    238       6.1981      0.00000
    239       6.4359      0.00000
    240       6.5142      0.00000
    241       6.8826      0.00000
    242       6.9287      0.00000
    243       7.0758      0.00000
    244       7.1201      0.00000
    245       7.2745      0.00000
    246       7.3433      0.00000
    247       7.4033      0.00000
    248       7.4653      0.00000
    249       7.5588      0.00000
    250       7.8248      0.00000
    251       7.8475      0.00000
    252       7.9842      0.00000

 soft charge-density along one line, spin component           1
         0         1         2         3         4         5         6         7         8         9
 total charge-density along one line

------------------------ aborting loop because EDIFF is reached ----------------------------------------

 total charge

# of ion       s       p       d       tot
    1        0.451   0.281   9.191   9.922
    2        0.448   0.285   9.187   9.920
    3        0.448   0.285   9.187   9.920
    4        0.448   0.285   9.187   9.920
    5        0.451   0.284   9.185   9.920
    6        0.448   0.285   9.187   9.920
    7        0.448   0.285   9.187   9.920
    8        0.448   0.285   9.187   9.920
    9        0.447   0.285   9.187   9.919
   10        0.444   0.369   9.179   9.992
   11        0.440   0.370   9.183   9.992
   12        0.444   0.369   9.179   9.992
   13        0.440   0.370   9.183   9.992
   14        0.440   0.370   9.183   9.992
   15        0.438   0.367   9.180   9.985
   16        0.444   0.369   9.179   9.992
   17        0.438   0.367   9.180   9.985
   18        0.438   0.367   9.180   9.985
   19        0.442   0.364   9.183   9.988
   20        0.472   0.406   9.161  10.039
   21        0.472   0.406   9.161  10.039
   22        0.429   0.371   9.181   9.980
   23        0.472   0.406   9.161  10.039
   24        0.429   0.371   9.181   9.980
   25        0.442   0.364   9.183   9.988
   26        0.442   0.364   9.183   9.988
   27        0.429   0.371   9.181   9.980
   28        0.453   0.285   9.187   9.926
   29        0.453   0.314   9.181   9.948
   30        0.453   0.314   9.181   9.948
   31        0.453   0.314   9.181   9.948
   32        0.453   0.314   9.181   9.948
   33        0.453   0.314   9.181   9.948
   34        0.453   0.314   9.181   9.948
   35        0.444   0.289   9.189   9.922
   36        0.684   0.667   4.893   6.244
   37        1.607   3.285   0.000   4.893
tot         17.938  15.706 326.238 359.883

  FORCE on cell =-STRESS in cart. coord.  units (eV):
  Direction    XX          YY          ZZ          XY          YZ          ZX
  Alpha Z   905.86781   905.86781   905.86781
  Ewald  171664.13697171664.13655************     0.00039     0.00012     0.00017
  Hartree184690.61036184690.61035************     0.00004     0.00006     0.00006
  E(xc)   -2309.15548 -2309.15500 -2313.26801    -0.00042    -0.00003    -0.00006
  Local  ************************369517.33458     0.01866    -0.00060    -0.00096
  n-local  -800.85051  -786.00238  -800.88127     8.28637    -0.07684     0.29186
  augment  3323.60635  3323.62655  3339.41021    -0.01749     0.00030     0.00052
  Kinetic  3362.39150  3364.96188  3360.81403     3.29908     1.55755    -1.28416
  Fock        0.00000     0.00000     0.00000     0.00000     0.00000     0.00000
  Total      -0.22689    -0.22689     3.03050     0.00000     0.00000    -0.00000
  in kB      -0.33289    -0.33289     4.44645     0.00000     0.00000    -0.00000

 VOLUME and BASIS-vectors are now :
  energy-cutoff  :      500.00
  volume of cell :     1091.97
      direct lattice vectors                 reciprocal lattice vectors
     7.696786404  0.000000000  0.000000000     0.129924354 -0.075011849  0.000000000
     3.848392758  6.665612809  0.000000000     0.000000000  0.150023716  0.000000000
     0.000000000  0.000000000 21.284399033     0.000000000  0.000000000  0.046982769

  length of vectors
     7.696786404  7.696786404 21.284399033     0.150023716  0.150023716  0.046982769

 FORCES acting on ions
    electron-ion (+dipol)            ewald-force                    non-local-force                 convergence-correction
   -.416E-04 0.144E-06 0.348E+04   0.580E-04 -.434E-05 -.347E+04   0.543E-17 -.132E-18 -.251E+01   -.400E-03 -.198E-03 -.434E+00
   -.237E+00 -.737E-01 0.348E+04   0.196E+00 -.912E-01 -.347E+04   0.134E-01 0.215E+00 -.196E+01   0.335E-01 -.395E-01 -.418E+00
   0.237E+00 -.736E-01 0.348E+04   -.196E+00 -.912E-01 -.347E+04   -.134E-01 0.215E+00 -.196E+01   -.326E-01 -.371E-01 -.417E+00
   -.182E+00 -.168E+00 0.348E+04   0.188E-01 0.215E+00 -.347E+04   0.193E+00 -.961E-01 -.196E+01   -.174E-01 0.487E-01 -.418E+00
   -.652E-04 -.547E-05 0.348E+04   0.116E-03 -.101E-04 -.347E+04   -.210E-18 0.119E-17 -.165E+01   0.121E-01 0.741E-02 -.391E+00
   0.182E+00 -.168E+00 0.348E+04   -.189E-01 0.215E+00 -.347E+04   -.193E+00 -.961E-01 -.196E+01   0.159E-01 0.498E-01 -.417E+00
   0.546E-01 0.242E+00 0.348E+04   -.177E+00 -.124E+00 -.347E+04   0.180E+00 -.119E+00 -.196E+01   -.484E-01 -.972E-02 -.417E+00
   -.545E-01 0.242E+00 0.348E+04   0.177E+00 -.124E+00 -.347E+04   -.180E+00 -.119E+00 -.196E+01   0.517E-01 -.112E-01 -.417E+00
   -.144E-03 -.328E-04 0.348E+04   0.263E-03 0.205E-04 -.347E+04   -.279E-17 -.127E-17 -.222E+01   -.131E-01 -.674E-02 -.426E+00
   0.211E+01 0.122E+01 0.117E+04   -.153E+01 -.884E+00 -.117E+04   -.534E+00 -.308E+00 -.904E+00   -.927E-01 -.535E-01 -.195E+00
   -.912E-04 0.472E+00 0.117E+04   0.190E-03 -.609E+00 -.117E+04   -.155E-07 0.233E+00 -.282E+00   0.123E-01 -.144E+00 -.202E+00
   -.211E+01 0.122E+01 0.117E+04   0.153E+01 -.884E+00 -.117E+04   0.534E+00 -.308E+00 -.904E+00   0.908E-01 -.529E-01 -.194E+00
   0.409E+00 -.236E+00 0.117E+04   -.528E+00 0.305E+00 -.117E+04   0.202E+00 -.116E+00 -.282E+00   -.118E+00 0.833E-01 -.202E+00
   -.409E+00 -.236E+00 0.117E+04   0.527E+00 0.305E+00 -.117E+04   -.202E+00 -.116E+00 -.282E+00   0.141E+00 0.812E-01 -.204E+00
   -.142E-03 -.990E+00 0.117E+04   0.298E-03 0.800E+00 -.117E+04   -.525E-08 0.788E-01 -.887E+00   -.323E-02 0.872E-01 -.182E+00
   -.919E-04 -.244E+01 0.117E+04   0.186E-03 0.177E+01 -.117E+04   -.410E-07 0.616E+00 -.904E+00   -.131E-02 0.104E+00 -.194E+00
   -.858E+00 0.495E+00 0.117E+04   0.693E+00 -.400E+00 -.117E+04   0.682E-01 -.394E-01 -.887E+00   0.746E-01 -.464E-01 -.182E+00
   0.858E+00 0.495E+00 0.117E+04   -.693E+00 -.400E+00 -.117E+04   -.682E-01 -.394E-01 -.887E+00   -.726E-01 -.436E-01 -.179E+00
   -.576E-04 -.281E+01 -.115E+04   0.696E-04 0.290E+01 0.115E+04   0.488E-08 -.732E-01 0.933E+00   -.110E-01 -.526E-01 0.131E+00
   -.310E+02 -.179E+02 -.116E+04   0.321E+02 0.185E+02 0.116E+04   -.102E+01 -.588E+00 -.488E+00   -.214E+00 -.124E+00 -.922E-02
   0.310E+02 -.179E+02 -.116E+04   -.321E+02 0.185E+02 0.116E+04   0.102E+01 -.588E+00 -.488E+00   0.195E+00 -.127E+00 -.984E-02
   -.195E+02 0.113E+02 -.116E+04   0.192E+02 -.111E+02 0.116E+04   0.637E+00 -.368E+00 0.993E+00   -.176E+00 0.117E+00 0.456E-01
   -.885E-04 0.358E+02 -.116E+04   0.145E-03 -.371E+02 0.116E+04   -.783E-07 0.118E+01 -.488E+00   -.138E-01 0.231E+00 -.993E-02
   0.195E+02 0.113E+02 -.116E+04   -.192E+02 -.111E+02 0.116E+04   -.637E+00 -.368E+00 0.993E+00   0.200E+00 0.114E+00 0.457E-01
   0.244E+01 0.141E+01 -.115E+04   -.251E+01 -.145E+01 0.115E+04   0.634E-01 0.366E-01 0.933E+00   0.274E-01 0.158E-01 0.130E+00
   -.243E+01 0.141E+01 -.115E+04   0.251E+01 -.145E+01 0.115E+04   -.634E-01 0.366E-01 0.933E+00   -.506E-01 0.170E-01 0.131E+00
   -.114E-03 -.226E+02 -.116E+04   0.241E-03 0.221E+02 0.116E+04   -.490E-07 0.736E+00 0.993E+00   0.132E-01 -.211E+00 0.458E-01
   -.472E-04 0.105E-04 -.341E+04   0.377E-04 -.329E-04 0.341E+04   -.995E-17 -.854E-17 0.174E+01   -.522E-03 -.250E-03 0.393E+00
   -.130E+02 -.186E+02 -.340E+04   0.128E+02 0.179E+02 0.340E+04   0.217E-01 0.550E+00 0.239E+01   -.692E-01 -.205E+00 0.395E+00
   0.130E+02 -.186E+02 -.340E+04   -.128E+02 0.179E+02 0.340E+04   -.217E-01 0.550E+00 0.239E+01   0.704E-01 -.204E+00 0.393E+00
   -.226E+02 -.193E+01 -.340E+04   0.219E+02 0.215E+01 0.340E+04   0.487E+00 -.256E+00 0.239E+01   -.212E+00 0.425E-01 0.395E+00
   0.226E+02 -.193E+01 -.340E+04   -.219E+02 0.215E+01 0.340E+04   -.487E+00 -.256E+00 0.239E+01   0.212E+00 0.427E-01 0.395E+00
   -.963E+01 0.205E+02 -.340E+04   0.907E+01 -.200E+02 0.340E+04   0.465E+00 -.294E+00 0.239E+01   -.142E+00 0.163E+00 0.393E+00
   0.963E+01 0.205E+02 -.340E+04   -.907E+01 -.200E+02 0.340E+04   -.465E+00 -.294E+00 0.239E+01   0.144E+00 0.162E+00 0.395E+00
   -.155E-03 -.298E-04 -.342E+04   0.253E-03 0.400E-05 0.341E+04   -.126E-17 -.122E-17 0.231E+01   -.122E-01 -.620E-02 0.466E+00
   -.267E-04 -.129E-04 -.195E+04   0.892E-04 0.167E-04 0.195E+04   -.352E-17 0.294E-17 0.192E+01   0.837E-03 0.502E-03 0.264E+00
   0.174E-03 -.845E-04 -.217E+04   0.195E-04 0.869E-05 0.220E+04   -.205E-17 0.562E-18 -.326E+02   0.302E-02 0.184E-02 0.213E+00
   -.108E-03 -.951E-04 0.336E+02   0.203E-12 0.122E-12 -.455E-11   0.104E-15 0.280E-15 -.323E+02   -.310E-02 -.479E-02 -.128E+01

 POSITION                                       TOTAL-FORCE (eV/Angst)
      0.00000      0.00000      5.37156        -0.000000      0.000000     -0.017934
      2.56560      0.00000      5.37156         0.006159      0.012159      0.073507
      5.13119      0.00000      5.37156        -0.006159      0.012159      0.073507
      1.28280      2.22187      5.37156         0.013610     -0.000745      0.073507
      3.84839      2.22187      5.37156        -0.000000      0.000000      0.063941
      6.41399      2.22187      5.37156        -0.013610     -0.000745      0.073507
      2.56560      4.44374      5.37156         0.007450     -0.011414      0.073507
      5.13119      4.44374      5.37156        -0.007450     -0.011414      0.073507
      7.69679      4.44374      5.37156        -0.000000     -0.000000      0.033918
      1.28280      0.74062      7.46636        -0.046383     -0.026779     -0.073451
      3.84839      0.74062      7.46636         0.000000     -0.054603     -0.075050
      6.41399      0.74062      7.46636         0.046383     -0.026779     -0.073451
      2.56560      2.96249      7.46636        -0.047288      0.027302     -0.075050
      5.13119      2.96249      7.46636         0.047288      0.027302     -0.075050
      7.69679      2.96249      7.46636         0.000000     -0.024942      0.010486
      3.84839      5.18437      7.46636        -0.000000      0.053558     -0.073451
      6.41399      5.18437      7.46636        -0.021601      0.012471      0.010486
      8.97958      5.18437      7.46636         0.021601      0.012471      0.010486
      7.69679      1.48486      9.56345         0.000000     -0.029414      0.023722
      2.55359      1.47432      9.53212        -0.154620     -0.089270     -0.293102
      5.14319      1.47432      9.53212         0.154620     -0.089270     -0.293102
      8.97343      3.70667      9.56919         0.089263     -0.051536      0.023998
      3.84839      3.71698      9.53212        -0.000000      0.178540     -0.293102
      6.42014      3.70667      9.56919        -0.089263     -0.051536      0.023998
     10.25925      5.92318      9.56345         0.025473      0.014707      0.023722
      5.13432      5.92318      9.56345        -0.025473      0.014707      0.023722
      7.69679      5.91789      9.56919        -0.000000      0.103072      0.023998
      0.00000      0.00000     11.65394        -0.000000     -0.000000     -0.033977
      2.56263      0.00314     11.68588        -0.219397     -0.401003     -0.326928
      5.13415      0.00314     11.68588         0.219397     -0.401003     -0.326928
      1.28404      2.21774     11.68588        -0.456977      0.010498     -0.326928
      6.41275      2.21774     11.68588         0.456977      0.010498     -0.326928
      2.56979      4.44474     11.68588        -0.237580      0.390504     -0.326928
      5.12699      4.44474     11.68588         0.237580      0.390504     -0.326928
      7.69679      4.44374     11.65455        -0.000000      0.000000      0.028620
      3.84839      2.22187     11.57229        -0.000000     -0.000000      2.600503
      3.84839      2.22187     13.31712        -0.000000     -0.000000     -0.004349
    total drift:                               -0.003210     -0.004887      0.008051

  FREE ENERGIE OF THE ION-ELECTRON SYSTEM (eV)
  free  energy   TOTEN  =      -139.98193257 eV

  energy  without entropy=     -139.98193257  energy(sigma->0) =     -139.98193257

 stress matrix after NEB project (eV)
     -0.22689      0.00000     -0.00000
      0.00000     -0.22689     -0.00000
      0.00000      0.00000      3.03050
  FORCES: max atom, RMS     0.004349    0.000715
  FORCE total and by dimension    0.004349    0.004349
  Stress total and by dimension    3.047436    3.030497
|           W    W    AA    RRRRR   N    N  II  N    N   GGGG   !!!           |
|           W    W   A  A   R    R  NN   N  II  NN   N  G    G  !!!           |
|           W    W  A    A  R    R  N N  N  II  N N  N  G       !!!           |
|           W WW W  AAAAAA  RRRRR   N  N N  II  N  N N  G  GGG   !            |
|           WW  WW  A    A  R   R   N   NN  II  N   NN  G    G                |
|           W    W  A    A  R    R  N    N  II  N    N   GGGG   !!!           |
|     Tetrahedron method does not include variations of the Fermi             |
|     occupations, so forces and stress will be inaccurate. We suggest        |
|     using a different smearing scheme ISMEAR = 1 or 2 for metals in         |
|     relaxations.                                                            |

 total charge

# of ion       s       p       d       tot
    1        0.451   0.281   9.191   9.922
    2        0.448   0.285   9.187   9.920
    3        0.448   0.285   9.187   9.920
    4        0.448   0.285   9.187   9.920
    5        0.451   0.284   9.185   9.920
    6        0.448   0.285   9.187   9.920
    7        0.448   0.285   9.187   9.920
    8        0.448   0.285   9.187   9.920
    9        0.447   0.285   9.187   9.919
   10        0.444   0.369   9.179   9.992
   11        0.440   0.370   9.183   9.992
   12        0.444   0.369   9.179   9.992
   13        0.440   0.370   9.183   9.992
   14        0.440   0.370   9.183   9.992
   15        0.438   0.367   9.180   9.985
   16        0.444   0.369   9.179   9.992
   17        0.438   0.367   9.180   9.985
   18        0.438   0.367   9.180   9.985
   19        0.442   0.364   9.183   9.988
   20        0.472   0.406   9.161  10.039
   21        0.472   0.406   9.161  10.039
   22        0.429   0.371   9.181   9.980
   23        0.472   0.406   9.161  10.039
   24        0.429   0.371   9.181   9.980
   25        0.442   0.364   9.183   9.988
   26        0.442   0.364   9.183   9.988
   27        0.429   0.371   9.181   9.980
   28        0.453   0.285   9.187   9.926
   29        0.453   0.314   9.181   9.948
   30        0.453   0.314   9.181   9.948
   31        0.453   0.314   9.181   9.948
   32        0.453   0.314   9.181   9.948
   33        0.453   0.314   9.181   9.948
   34        0.453   0.314   9.181   9.948
   35        0.444   0.289   9.189   9.922
   36        0.684   0.667   4.893   6.244
   37        1.607   3.285   0.000   4.893
tot         17.938  15.706 326.238 359.883

 BZINTS: Fermi energy:    0.078495;  398.000000 electrons
         Band energy:-0.114364E+04;  BLOECHL correction:   -0.043530