 vasp.6.2.0 18Jan21 (build Jun 12 2021 23:27:24) complex

 executed on             LinuxIFC date 2022.05.27  05:46:58

 INCAR:
   ISMEAR = -5
   SIGMA = 0.1
   ISPIN = 1
   EDIFF = 1.d-5
   EDIFFG = -0.01
   NSW = 0
   NELM = 150
   ENCUT = 500
   ISIF = 2
   IBRION = 2
   LREAL = Auto
   ALGO = Fast
   ICHARG = 11
   LORBIT = 10
   LCHARG = .F.
   LWAVE = .F.

 POTCAR:    PAW_PBE Ag 02Apr2005
 POTCAR:    PAW_PBE Hf 20Jan2003
 POTCAR:    PAW_PBE O 08Apr2002
 POTCAR:    PAW_PBE H 15Jun2001
|           W    W    AA    RRRRR   N    N  II  N    N   GGGG   !!!           |
|           W    W   A  A   R    R  NN   N  II  NN   N  G    G  !!!           |
|           W    W  A    A  R    R  N N  N  II  N N  N  G       !!!           |
|           W WW W  AAAAAA  RRRRR   N  N N  II  N  N N  G  GGG   !            |
|           WW  WW  A    A  R   R   N   NN  II  N   NN  G    G                |
|           W    W  A    A  R    R  N    N  II  N    N   GGGG   !!!           |
|     For optimal performance we recommend to set                             |
|       NCORE = 2 up to number-of-cores-per-socket                            |
|     This setting can greatly improve the performance of VASP for DFT.       |
|     The default, NCORE=1 might be grossly inefficient on modern             |
|     multi-core architectures or massively parallel machines. Do your        |
|     Unfortunately you need to use the default for GW and RPA                |
|     calculations (for HF NCORE is supported but not extensively tested      |
|     yet).                                                                   |

 POTCAR:    PAW_PBE Ag 02Apr2005
   VRHFIN =Ag : s1 d10

   TITEL  = PAW_PBE Ag 02Apr2005
   POMASS =  107.868; ZVAL   =   11.000    mass and valenz
   ENMAX  =  249.844; ENMIN  =  187.383 eV

 POTCAR:    PAW_PBE Hf 20Jan2003
   VRHFIN =Hf: 6s5d

   TITEL  = PAW_PBE Hf 20Jan2003
   POMASS =  178.490; ZVAL   =    4.000    mass and valenz
   ENMAX  =  220.334; ENMIN  =  165.250 eV

 POTCAR:    PAW_PBE O 08Apr2002
   VRHFIN =O: s2p4

   TITEL  = PAW_PBE O 08Apr2002
   POMASS =   16.000; ZVAL   =    6.000    mass and valenz
   ENMAX  =  400.000; ENMIN  =  300.000 eV

 POTCAR:    PAW_PBE H 15Jun2001
   VRHFIN =H: ultrasoft test

   TITEL  = PAW_PBE H 15Jun2001
   POMASS =    1.000; ZVAL   =    1.000    mass and valenz
   ENMAX  =  250.000; ENMIN  =  200.000 eV

 Optimization of the real space projectors (new method)

 maximal supplied QI-value         = 15.12
 optimisation between [QCUT,QGAM] = [ 11.34, 22.83] = [ 36.00,145.93] Ry
 Optimized for a Real-space Cutoff    1.43 Angstroem

   l    n(q)    QCUT    max X(q) W(low)/X(q) W(high)/X(q)  e(spline)
   2      9    11.338    53.897    0.16E-03    0.20E-03    0.28E-06
   2      9    11.338    52.416    0.16E-03    0.20E-03    0.29E-06
   0     10    11.338   122.045    0.31E-04    0.76E-04    0.15E-06
   0     10    11.338    73.629    0.30E-04    0.72E-04    0.15E-06
   1      9    11.338    15.255    0.20E-03    0.19E-04    0.17E-06
   1      9    11.338     9.562    0.16E-03    0.15E-04    0.14E-06
 Optimization of the real space projectors (new method)

[...]

   l    n(q)    QCUT    max X(q) W(low)/X(q) W(high)/X(q)  e(spline)
   0      7    11.387    20.381    0.39E-03    0.13E-02    0.15E-06
   0      7    11.387    15.268    0.42E-03    0.14E-02    0.17E-06
   1      6    11.387     5.964    0.41E-03    0.11E-02    0.17E-06
   1      6    11.387     5.382    0.39E-03    0.87E-03    0.15E-06
 Optimization of the real space projectors (new method)

 maximal supplied QI-value         = 34.20
 optimisation between [QCUT,QGAM] = [ 11.29, 22.57] = [ 35.68,142.71] Ry
 Optimized for a Real-space Cutoff    1.16 Angstroem

   l    n(q)    QCUT    max X(q) W(low)/X(q) W(high)/X(q)  e(spline)
   0      8    11.287    19.460    0.40E-03    0.73E-03    0.16E-06
   0      8    11.287    12.209    0.38E-03    0.70E-03    0.15E-06
   1      7    11.287     4.655    0.22E-03    0.25E-04    0.22E-06
  PAW_PBE Ag 02Apr2005                  :
  PAW_PBE Hf 20Jan2003                  :
  PAW_PBE O 08Apr2002                   :
  PAW_PBE H 15Jun2001                   :

 POSCAR: Ag-Hf-OH
  positions in direct lattice
  velocities in cartesian coordinates
 exchange correlation table for  LEXCH =        8
   RHO(1)=    0.500       N(1)  =     2000
   RHO(2)=  100.500       N(2)  =     4000

 VTST: version 3.2, (02/03/18)

 CHAIN: initializing optimizer

 OPT: Using VASP Conjugate-Gradient optimizer
 CHAIN: Read ICHAIN            0

 POSCAR: Ag-Hf-OH
  positions in direct lattice
  velocities in cartesian coordinates

 ion  position               nearest neighbor table
   1  0.000  0.000  0.209-   2 2.93   8 2.93   7 2.93   6 2.93   4 2.93  12 2.93  16 2.93  10 2.93
                             3 2.93
   2  0.333  0.000  0.209-   1 2.93   8 2.93   9 2.93   3 2.93   4 2.93   5 2.93  10 2.93  17 2.93
                            11 2.93
   3  0.667  0.000  0.209-   9 2.93   2 2.93   5 2.93  11 2.93   7 2.93  18 2.93   1 2.93   6 2.93
                            12 2.93
   4  0.000  0.333  0.209-   5 2.93   6 2.93   2 2.93   1 2.93   7 2.93  13 2.93  15 2.93   9 2.93
                            10 2.93
   5  0.333  0.333  0.209-   4 2.93   3 2.93   7 2.93   2 2.93   8 2.93  14 2.93  13 2.93  11 2.93
                             6 2.93
   6  0.667  0.333  0.209-   4 2.93   9 2.93   1 2.93  15 2.93   8 2.93  12 2.93   3 2.93   5 2.93
                            14 2.93
   7  0.000  0.667  0.209-   8 2.93   1 2.93   5 2.93   3 2.93   4 2.93  16 2.93  18 2.93  13 2.93
                             9 2.93
   8  0.333  0.667  0.209-   7 2.93   1 2.93   2 2.93   9 2.93   5 2.93  16 2.93   6 2.93  17 2.93
                            14 2.93
   9  0.667  0.667  0.209-   3 2.93   2 2.93   8 2.93   6 2.93  17 2.93   4 2.93  15 2.93   7 2.93
                            18 2.93
  10  0.111  0.111  0.304-  20 2.90  19 2.92  26 2.92  12 2.93  16 2.93  15 2.93  17 2.93  13 2.93
                            11 2.93   2 2.93   1 2.93   4 2.93
  11  0.444  0.111  0.304-  21 2.90  20 2.90  14 2.93  17 2.93  18 2.93   3 2.93  12 2.93  13 2.93
                            10 2.93   5 2.93   2 2.93  27 2.93
  12  0.778  0.111  0.304-  21 2.90  25 2.92  19 2.92  10 2.93  16 2.93  18 2.93  15 2.93  11 2.93
                             1 2.93  14 2.93   6 2.93   3 2.93
  13  0.111  0.444  0.304-  20 2.90  23 2.90  15 2.93  14 2.93  18 2.93  10 2.93  11 2.93  16 2.93
                             4 2.93   5 2.93   7 2.93  22 2.93
  14  0.444  0.444  0.304-  23 2.90  21 2.90  13 2.93  11 2.93  16 2.93   5 2.93  12 2.93  17 2.93
                             8 2.93  15 2.93   6 2.93  24 2.93
  15  0.778  0.444  0.304-  19 2.92  24 2.93  22 2.93  13 2.93  10 2.93  12 2.93  17 2.93  18 2.93
                             4 2.93   6 2.93   9 2.93  14 2.93
  16  0.111  0.778  0.304-  23 2.90  26 2.92  25 2.92  18 2.93  12 2.93  10 2.93  14 2.93  17 2.93
                            13 2.93   7 2.93   8 2.93   1 2.93
  17  0.444  0.778  0.304-  26 2.92  27 2.93  24 2.93  11 2.93  10 2.93   9 2.93  18 2.93  15 2.93
                            16 2.93   2 2.93  14 2.93   8 2.93
  18  0.778  0.778  0.304-  25 2.92  22 2.93  27 2.93  16 2.93  12 2.93  13 2.93  11 2.93  17 2.93
                            15 2.93   7 2.93   3 2.93   9 2.93
  19  0.889  0.222  0.398-  10 2.92  12 2.92  15 2.92  20 2.93  21 2.93  26 2.93  25 2.93  24 2.93
                            22 2.93  28 2.94  32 2.98  31 2.98
  20  0.222  0.222  0.397-  36 2.86  10 2.90  13 2.90  11 2.90  19 2.93  26 2.93  27 2.93  22 2.93
                            21 2.94  23 2.94  31 2.97  29 2.97
  21  0.556  0.222  0.397-  36 2.86  12 2.90  11 2.90  14 2.90  25 2.93  19 2.93  27 2.93  24 2.93
                            20 2.94  23 2.94  30 2.97  32 2.97
  22  0.889  0.556  0.399-  24 2.93  27 2.93  18 2.93  15 2.93  25 2.93  19 2.93  13 2.93  23 2.93
                            20 2.93  35 2.94  33 2.96  31 2.96
  23  0.222  0.556  0.397-  36 2.86  16 2.90  14 2.90  13 2.90  26 2.93  25 2.93  22 2.93  24 2.93
                            21 2.94  20 2.94  34 2.97  33 2.97
  24  0.556  0.556  0.399-  27 2.93  22 2.93  15 2.93  17 2.93  19 2.93  26 2.93  14 2.93  23 2.93
                            21 2.93  35 2.94  32 2.96  34 2.96
  25  0.889  0.889  0.398-  16 2.92  12 2.92  18 2.92  23 2.93  21 2.93  26 2.93  19 2.93  22 2.93
                            27 2.93  28 2.94  33 2.98  30 2.98
  26  0.222  0.889  0.398-  16 2.92  10 2.92  17 2.92  23 2.93  20 2.93  25 2.93  19 2.93  27 2.93
                            24 2.93  28 2.94  34 2.98  29 2.98
  27  0.556  0.889  0.399-  24 2.93  22 2.93  17 2.93  18 2.93  26 2.93  25 2.93  11 2.93  20 2.93
                            21 2.93  35 2.94  29 2.96  30 2.96
  28  0.000  0.000  0.493-  26 2.94  25 2.94  19 2.94  29 2.94  34 2.94  33 2.94  32 2.94  31 2.94
                            30 2.94
  29  0.333  0.003  0.495-  30 2.90  31 2.91  36 2.91  35 2.94  28 2.94  27 2.96  20 2.97  26 2.98
                            34 2.98
  30  0.664  0.003  0.495-  29 2.90  32 2.91  36 2.91  35 2.94  28 2.94  27 2.96  21 2.97  25 2.98
                            33 2.98
  31  0.003  0.333  0.495-  33 2.90  29 2.91  36 2.91  35 2.94  28 2.94  22 2.96  20 2.97  19 2.98
                            32 2.98
  32  0.664  0.333  0.495-  34 2.90  30 2.91  36 2.91  35 2.94  28 2.94  24 2.96  21 2.97  19 2.98
                            31 2.98
  33  0.003  0.664  0.495-  31 2.90  34 2.91  36 2.91  35 2.94  28 2.94  22 2.96  23 2.97  25 2.98
                            30 2.98
  34  0.333  0.664  0.495-  32 2.90  33 2.91  36 2.91  35 2.94  28 2.94  24 2.96  23 2.97  26 2.98
                            29 2.98
  35  0.667  0.667  0.494-  30 2.94  29 2.94  32 2.94  34 2.94  31 2.94  33 2.94  24 2.94  27 2.94
                            22 2.94
  36  0.333  0.333  0.489-  37 1.89  21 2.86  20 2.86  23 2.86  31 2.91  33 2.91  30 2.91  29 2.91
                            34 2.91  32 2.91
  37  0.333  0.333  0.563-  38 0.97  36 1.89
  38  0.333  0.333  0.602-  37 0.97

  LATTYP: Found a hexagonal cell.
 ALAT       =     8.7913665772
 C/A-ratio  =     2.8719070141

  Lattice vectors:

 A1 = (  -4.3956832886,  -7.6135467898,   0.0000000000)
 A2 = (   8.7913665771,   0.0000000000,   0.0000000000)
 A3 = (   0.0000000000,   0.0000000000,  25.2479873362)

Analysis of symmetry for initial positions (statically):
 Subroutine PRICEL returns:
 Original cell was already a primitive cell.

 Routine SETGRP: Setting up the symmetry group for a
 hexagonal supercell.

 Subroutine GETGRP returns: Found  6 space group operations
 (whereof  6 operations were pure point group operations)
 out of a pool of 24 trial point group operations.

The static configuration has the point symmetry C_3v.

Analysis of symmetry for dynamics (positions and initial velocities):
 Subroutine PRICEL returns:
 Original cell was already a primitive cell.

[...]

The dynamic configuration has the point symmetry C_3v.

Analysis of constrained symmetry for selective dynamics:
 Subroutine PRICEL returns:
 Original cell was already a primitive cell.

[...]
     33      -4.9479      2.00000
     34      -4.9293      2.00000
     35      -4.9219      2.00000
     36      -4.9071      2.00000
     37      -4.8846      2.00000
     38      -4.8452      2.00000
     39      -4.8329      2.00000
     40      -4.7984      2.00000
     41      -4.7789      2.00000
     42      -4.7708      2.00000
     43      -4.7482      2.00000
     44      -4.7371      2.00000
     45      -4.6558      2.00000
     46      -4.6366      2.00000
     47      -4.6311      2.00000
     48      -4.6147      2.00000
     49      -4.6058      2.00000
     50      -4.6023      2.00000
     51      -4.5871      2.00000
     52      -4.5825      2.00000
     53      -4.5678      2.00000
     54      -4.5595      2.00000
     55      -4.5197      2.00000
     56      -4.5150      2.00000
     57      -4.4930      2.00000
     58      -4.4839      2.00000
     59      -4.4765      2.00000
     60      -4.4505      2.00000
[...]
    226       4.5970      0.00000
    227       4.8977      0.00000
    228       5.0359      0.00000
    229       5.0892      0.00000
    230       5.1751      0.00000
    231       5.2244      0.00000
    232       5.2554      0.00000
    233       5.3608      0.00000
    234       5.4268      0.00000
    235       5.4808      0.00000
    236       5.5247      0.00000
    237       5.7396      0.00000
    238       5.8143      0.00000
    239       5.8660      0.00000
    240       5.9370      0.00000

 soft charge-density along one line, spin component           1
         0         1         2         3         4         5         6         7         8         9
 total charge-density along one line

------------------------ aborting loop because EDIFF is reached ----------------------------------------

 total charge

# of ion       s       p       d       tot
    1        0.421   0.202   9.177   9.800
    2        0.416   0.204   9.177   9.797
    3        0.416   0.204   9.177   9.797
    4        0.416   0.204   9.177   9.797
    5        0.418   0.203   9.176   9.797
    6        0.416   0.204   9.177   9.797
    7        0.416   0.204   9.177   9.797
    8        0.416   0.204   9.177   9.797
    9        0.416   0.203   9.177   9.796
   10        0.410   0.269   9.163   9.842
   11        0.405   0.270   9.167   9.842
   12        0.410   0.269   9.163   9.842
   13        0.405   0.270   9.167   9.842
   14        0.405   0.270   9.167   9.842
   15        0.402   0.269   9.164   9.835
   16        0.410   0.269   9.163   9.842
   17        0.402   0.269   9.164   9.835
   18        0.402   0.269   9.164   9.835
   19        0.403   0.264   9.166   9.833
   20        0.439   0.301   9.134   9.874
   21        0.439   0.301   9.134   9.874
   22        0.396   0.271   9.163   9.830
   23        0.439   0.301   9.134   9.874
   24        0.396   0.271   9.163   9.830
   25        0.403   0.264   9.166   9.833
   26        0.403   0.264   9.166   9.833
   27        0.396   0.271   9.163   9.830
   28        0.412   0.207   9.169   9.788
   29        0.448   0.221   9.152   9.820
   30        0.448   0.221   9.152   9.820
   31        0.448   0.221   9.152   9.820
   32        0.448   0.221   9.152   9.820
   33        0.448   0.221   9.152   9.820
   34        0.448   0.221   9.152   9.820
   35        0.411   0.210   9.168   9.789
   36        0.596   0.597   1.993   3.185
   37        1.560   3.563   0.000   5.123
   38        0.609   0.125   0.000   0.735
tot         17.392  12.791 322.705 352.888

  FORCE on cell =-STRESS in cart. coord.  units (eV):
  Direction    XX          YY          ZZ          XY          YZ          ZX
  Alpha Z   659.52103   659.52103   659.52103
  Ewald  162693.23685162693.23676************    -0.00000    -0.00001     0.00003
  Hartree172609.09319172609.09315************    -0.00000    -0.00000     0.00000
  E(xc)   -2078.08410 -2078.08412 -2084.75845     0.00002     0.00000     0.00000
  Local  ************************346362.09170     0.00056    -0.00005    -0.00015
  n-local  -341.14169  -324.54484  -331.68730     9.63376    -0.46985     0.49576
  augment  3226.30018  3226.30039  3238.31331    -0.00018    -0.00001    -0.00001
  Kinetic  4947.31880  4948.23461  4945.24000     2.24726     1.01063    -0.51568
  Fock        0.00000     0.00000     0.00000     0.00000     0.00000     0.00000
  Total      -6.24329    -6.24329     0.48677    -0.00000     0.00000    -0.00000
  in kB      -5.91908    -5.91908     0.46149    -0.00000     0.00000    -0.00000

 VOLUME and BASIS-vectors are now :
  energy-cutoff  :      500.00
  volume of cell :     1689.94
      direct lattice vectors                 reciprocal lattice vectors
     8.791366577  0.000000000  0.000000000     0.113747958 -0.065672414  0.000000000
     4.395683289  7.613546790  0.000000000     0.000000000  0.131344829  0.000000000
     0.000000000  0.000000000 25.247987336     0.000000000  0.000000000  0.039607117

  length of vectors
     8.791366577  8.791366577 25.247987336     0.131344829  0.131344829  0.039607117

 FORCES acting on ions
    electron-ion (+dipol)            ewald-force                    non-local-force                 convergence-correction
   0.460E-04 -.282E-04 0.272E+04   -.953E-04 0.592E-04 -.271E+04   -.107E-16 -.523E-17 -.173E+01   -.834E-04 -.155E-03 0.194E+00
   -.382E+00 -.157E-01 0.272E+04   0.301E+00 0.756E-01 -.271E+04   0.256E-01 0.568E-01 -.160E+01   0.505E-01 -.106E+00 0.153E+00
   0.383E+00 -.157E-01 0.272E+04   -.301E+00 0.757E-01 -.271E+04   -.256E-01 0.568E-01 -.160E+01   -.510E-01 -.104E+00 0.154E+00
   -.205E+00 -.323E+00 0.272E+04   0.216E+00 0.223E+00 -.271E+04   0.620E-01 -.624E-02 -.160E+01   -.665E-01 0.970E-01 0.153E+00
   -.510E-05 -.183E-04 0.271E+04   0.980E-04 -.199E-05 -.271E+04   -.167E-17 -.124E-17 -.145E+01   0.618E-02 0.378E-02 0.244E+00
   0.205E+00 -.323E+00 0.272E+04   -.216E+00 0.223E+00 -.271E+04   -.620E-01 -.624E-02 -.160E+01   0.652E-01 0.979E-01 0.154E+00
   0.178E+00 0.339E+00 0.272E+04   -.851E-01 -.298E+00 -.271E+04   0.364E-01 -.506E-01 -.160E+01   -.115E+00 0.849E-02 0.154E+00
   -.178E+00 0.339E+00 0.272E+04   0.850E-01 -.299E+00 -.271E+04   -.364E-01 -.506E-01 -.160E+01   0.117E+00 0.754E-02 0.154E+00
   0.369E-04 -.128E-04 0.272E+04   0.792E-04 -.642E-04 -.271E+04   -.249E-17 -.445E-18 -.170E+01   -.663E-02 -.341E-02 0.119E+00
   -.652E+00 -.376E+00 0.900E+03   0.101E+01 0.585E+00 -.900E+03   -.324E+00 -.187E+00 -.613E+00   -.560E-01 -.323E-01 0.392E+00
   -.279E-04 -.132E+01 0.894E+03   0.400E-04 0.101E+01 -.894E+03   0.116E-11 0.176E+00 -.368E+00   0.617E-02 0.603E-01 0.285E+00
   0.652E+00 -.376E+00 0.900E+03   -.101E+01 0.586E+00 -.900E+03   0.324E+00 -.187E+00 -.613E+00   0.547E-01 -.317E-01 0.391E+00
   -.114E+01 0.658E+00 0.894E+03   0.874E+00 -.505E+00 -.894E+03   0.152E+00 -.880E-01 -.368E+00   0.552E-01 -.248E-01 0.285E+00
   0.114E+01 0.658E+00 0.894E+03   -.874E+00 -.505E+00 -.894E+03   -.152E+00 -.880E-01 -.368E+00   -.449E-01 -.257E-01 0.284E+00
   0.154E-04 -.107E+01 0.898E+03   -.108E-03 0.108E+01 -.898E+03   0.133E-12 0.203E-01 -.589E+00   -.126E-02 -.312E-01 0.322E+00
   -.754E-05 0.753E+00 0.900E+03   0.206E-04 -.117E+01 -.900E+03   0.245E-11 0.374E+00 -.613E+00   -.960E-04 0.631E-01 0.392E+00
   -.924E+00 0.534E+00 0.898E+03   0.934E+00 -.540E+00 -.898E+03   0.176E-01 -.101E-01 -.589E+00   -.277E-01 0.145E-01 0.322E+00
   0.924E+00 0.534E+00 0.898E+03   -.934E+00 -.539E+00 -.898E+03   -.176E-01 -.101E-01 -.589E+00   0.278E-01 0.161E-01 0.322E+00
   0.380E-04 -.642E+01 -.923E+03   -.125E-03 0.638E+01 0.922E+03   0.678E-12 0.103E+00 0.892E+00   0.109E-02 -.875E-01 0.789E-01
   -.361E+02 -.209E+02 -.953E+03   0.370E+02 0.213E+02 0.953E+03   -.861E+00 -.497E+00 -.287E+00   -.946E-01 -.546E-01 0.615E-01
   0.361E+02 -.209E+02 -.953E+03   -.370E+02 0.213E+02 0.953E+03   0.861E+00 -.497E+00 -.287E+00   0.837E-01 -.551E-01 0.608E-01
   -.156E+02 0.901E+01 -.930E+03   0.156E+02 -.898E+01 0.929E+03   0.160E+00 -.925E-01 0.615E+00   -.796E-01 0.464E-01 0.364E-01
   -.498E-04 0.417E+02 -.953E+03   0.355E-04 -.427E+02 0.953E+03   0.653E-11 0.995E+00 -.287E+00   -.555E-02 0.101E+00 0.608E-01
   0.156E+02 0.901E+01 -.930E+03   -.156E+02 -.898E+01 0.929E+03   -.160E+00 -.925E-01 0.615E+00   0.812E-01 0.470E-01 0.365E-01
   0.556E+01 0.321E+01 -.923E+03   -.553E+01 -.319E+01 0.922E+03   -.894E-01 -.516E-01 0.892E+00   0.757E-01 0.436E-01 0.786E-01
   -.556E+01 0.321E+01 -.923E+03   0.553E+01 -.319E+01 0.922E+03   0.894E-01 -.516E-01 0.892E+00   -.756E-01 0.446E-01 0.790E-01
   0.187E-04 -.180E+02 -.930E+03   0.110E-03 0.180E+02 0.929E+03   0.122E-11 0.185E+00 0.615E+00   -.310E-03 -.921E-01 0.365E-01
   0.545E-04 -.355E-04 -.267E+04   -.115E-03 0.768E-04 0.267E+04   -.317E-18 0.110E-17 0.127E+01   0.261E-03 0.159E-04 -.143E+00
   -.142E+02 -.297E+02 -.266E+04   0.149E+02 0.305E+02 0.266E+04   -.737E+00 -.944E+00 0.151E+01   -.149E+00 -.165E-02 -.185E+00
   0.142E+02 -.297E+02 -.266E+04   -.149E+02 0.305E+02 0.266E+04   0.737E+00 -.944E+00 0.151E+01   0.148E+00 -.688E-03 -.184E+00
   -.328E+02 0.261E+01 -.266E+04   0.339E+02 -.230E+01 0.266E+04   -.119E+01 -.166E+00 0.151E+01   -.756E-01 -.128E+00 -.185E+00
   0.328E+02 0.261E+01 -.266E+04   -.339E+02 -.230E+01 0.266E+04   0.119E+01 -.166E+00 0.151E+01   0.756E-01 -.127E+00 -.184E+00
   -.187E+02 0.271E+02 -.266E+04   0.189E+02 -.282E+02 0.266E+04   -.449E+00 0.111E+01 0.151E+01   0.738E-01 0.129E+00 -.184E+00
   0.187E+02 0.271E+02 -.266E+04   -.189E+02 -.282E+02 0.266E+04   0.449E+00 0.111E+01 0.151E+01   -.725E-01 0.129E+00 -.184E+00
   0.254E-04 -.124E-04 -.268E+04   0.103E-03 -.654E-04 0.268E+04   0.140E-16 0.452E-17 0.143E+01   -.633E-02 -.322E-02 -.176E+00
   -.891E-05 0.264E-05 -.855E+03   0.378E-04 0.404E-05 0.858E+03   0.131E-17 -.132E-18 -.160E+01   0.162E-03 0.102E-03 -.537E-01
   0.197E-03 -.930E-04 -.162E+04   0.239E-04 0.281E-06 0.160E+04   0.320E-18 0.431E-18 0.204E+02   0.341E-02 0.209E-02 -.312E-01
   0.839E-05 -.128E-04 -.337E+03   0.170E-05 0.597E-08 0.346E+03   -.893E-20 -.298E-20 -.855E+01   0.188E-03 0.115E-03 0.559E-02
   0.567E-03 -.776E-03 -.996E+01   0.125E-12 0.315E-12 0.887E-11   -.151E-15 0.482E-17 0.653E+01   -.251E-02 0.186E-02 0.350E+01

 POSITION                                       TOTAL-FORCE (eV/Angst)
      0.00000      0.00000      5.28219        -0.000000      0.000000     -0.023497
      2.93046      0.00000      5.28219        -0.004856      0.011557      0.029134
      5.86091      0.00000      5.28219         0.004856      0.011557      0.029134
      1.46523      2.53785      5.28219         0.007580     -0.009983      0.029134
      4.39568      2.53785      5.28219        -0.000000      0.000000      0.007912
      7.32614      2.53785      5.28219        -0.007580     -0.009983      0.029134
      2.93046      5.07570      5.28219         0.012436     -0.001573      0.029134
      5.86091      5.07570      5.28219        -0.012436     -0.001573      0.029134
      8.79137      5.07570      5.28219        -0.000000      0.000000      0.014793
      1.46523      0.84595      7.67490        -0.016538     -0.009548     -0.063940
      4.39568      0.84595      7.67490        -0.000000     -0.072284     -0.061786
      7.32614      0.84595      7.67490         0.016538     -0.009548     -0.063940
      2.93046      3.38380      7.67490        -0.062599      0.036142     -0.061786
      5.86091      3.38380      7.67490         0.062599      0.036142     -0.061786
      8.79137      3.38380      7.67490         0.000000      0.000292      0.043665
      4.39568      5.92165      7.67490         0.000000      0.019096     -0.063940
      7.32614      5.92165      7.67490         0.000253     -0.000146      0.043665
     10.25659      5.92165      7.67490        -0.000253     -0.000146      0.043665
      8.79137      1.69178     10.05827        -0.000000     -0.025275      0.016354
      2.92613      1.68940     10.03306        -0.136433     -0.078769     -0.140542
      5.86523      1.68940     10.03306         0.136433     -0.078769     -0.140542
     10.25456      4.23092     10.06776         0.031242     -0.018037      0.032892
      4.39568      4.23474     10.03306         0.000000      0.157539     -0.140542
      7.32817      4.23092     10.06776        -0.031242     -0.018037      0.032892
     11.72193      6.76766     10.05827         0.021889      0.012637      0.016354
      5.86080      6.76766     10.05827        -0.021889      0.012637      0.016354
      8.79137      6.76525     10.06776         0.000000      0.036075      0.032892
      0.00000      0.00000     12.45716        -0.000000      0.000000     -0.016134
      2.94326      0.02074     12.49530        -0.104207     -0.208336     -0.181969
      5.84810      0.02074     12.49530         0.104207     -0.208336     -0.181969
      1.48959      2.53857     12.49530        -0.232528      0.013922     -0.181969
      7.30177      2.53857     12.49530         0.232528      0.013922     -0.181969
      2.94201      5.05424     12.49530        -0.128321      0.194414     -0.181969
      5.84935      5.05424     12.49530         0.128321      0.194414     -0.181969
      8.79137      5.07570     12.47846        -0.000000      0.000000      0.002762
      4.39568      2.53785     12.33403        -0.000000      0.000000      1.448226
      4.39568      2.53785     14.22722        -0.000000      0.000000      0.014801
      4.39568      2.53785     15.19256        -0.000000      0.000000     -0.011778
    total drift:                               -0.001943      0.001085      0.075035

  FREE ENERGIE OF THE ION-ELECTRON SYSTEM (eV)
  free  energy   TOTEN  =      -110.49561419 eV

  energy  without entropy=     -110.49561419  energy(sigma->0) =     -110.49561419

 stress matrix after NEB project (eV)
     -6.24329     -0.00000     -0.00000
     -0.00000     -6.24329     -0.00000
      0.00000      0.00000      0.48677
  FORCES: max atom, RMS     0.014801    0.003069
  FORCE total and by dimension    0.018916    0.014801
  Stress total and by dimension    8.842759    6.243294
|           W    W    AA    RRRRR   N    N  II  N    N   GGGG   !!!           |
|           W    W   A  A   R    R  NN   N  II  NN   N  G    G  !!!           |
|           W    W  A    A  R    R  N N  N  II  N N  N  G       !!!           |
|           W WW W  AAAAAA  RRRRR   N  N N  II  N  N N  G  GGG   !            |
|           WW  WW  A    A  R   R   N   NN  II  N   NN  G    G                |
|           W    W  A    A  R    R  N    N  II  N    N   GGGG   !!!           |
|     Tetrahedron method does not include variations of the Fermi             |
|     occupations, so forces and stress will be inaccurate. We suggest        |
|     using a different smearing scheme ISMEAR = 1 or 2 for metals in         |
|     relaxations.                                                            |

 total charge

# of ion       s       p       d       tot
    1        0.421   0.202   9.177   9.800
    2        0.416   0.204   9.177   9.797
    3        0.416   0.204   9.177   9.797
    4        0.416   0.204   9.177   9.797
    5        0.418   0.203   9.176   9.797
    6        0.416   0.204   9.177   9.797
    7        0.416   0.204   9.177   9.797
    8        0.416   0.204   9.177   9.797
    9        0.416   0.203   9.177   9.796
   10        0.410   0.269   9.163   9.842
   11        0.405   0.270   9.167   9.842
   12        0.410   0.269   9.163   9.842
   13        0.405   0.270   9.167   9.842
   14        0.405   0.270   9.167   9.842
   15        0.402   0.269   9.164   9.835
   16        0.410   0.269   9.163   9.842
   17        0.402   0.269   9.164   9.835
   18        0.402   0.269   9.164   9.835
   19        0.403   0.264   9.166   9.833
   20        0.439   0.301   9.134   9.874
   21        0.439   0.301   9.134   9.874
   22        0.396   0.271   9.163   9.830
   23        0.439   0.301   9.134   9.874
   24        0.396   0.271   9.163   9.830
   25        0.403   0.264   9.166   9.833
   26        0.403   0.264   9.166   9.833
   27        0.396   0.271   9.163   9.830
   28        0.412   0.207   9.169   9.788
   29        0.448   0.221   9.152   9.820
   30        0.448   0.221   9.152   9.820
   31        0.448   0.221   9.152   9.820
   32        0.448   0.221   9.152   9.820
   33        0.448   0.221   9.152   9.820
   34        0.448   0.221   9.152   9.820
   35        0.411   0.210   9.168   9.789
   36        0.596   0.597   1.993   3.185
   37        1.560   3.563   0.000   5.123
   38        0.609   0.125   0.000   0.735
tot         17.392  12.791 322.705 352.888

 BZINTS: Fermi energy:    0.464493;  396.000000 electrons
         Band energy:-0.151060E+04;  BLOECHL correction:   -0.056882