 vasp.6.2.0 18Jan21 (build Jun 12 2021 23:27:24) complex

 executed on             LinuxIFC date 2022.05.27  05:41:43

 INCAR:
   ISMEAR = -5
   SIGMA = 0.1
   ISPIN = 1
   EDIFF = 1.d-5
   EDIFFG = -0.01
   NSW = 0
   NELM = 150
   ENCUT = 500
   ISIF = 2
   IBRION = 2
   LREAL = Auto
   ALGO = Fast
   ICHARG = 11
   LORBIT = 10
   LCHARG = .F.
   LWAVE = .F.

 POTCAR:    PAW_PBE Ag 02Apr2005
 POTCAR:    PAW_PBE Ru 04Feb2005
 POTCAR:    PAW_PBE C 08Apr2002
 POTCAR:    PAW_PBE O 08Apr2002
|           W    W    AA    RRRRR   N    N  II  N    N   GGGG   !!!           |
|           W    W   A  A   R    R  NN   N  II  NN   N  G    G  !!!           |
|           W    W  A    A  R    R  N N  N  II  N N  N  G       !!!           |
|           W WW W  AAAAAA  RRRRR   N  N N  II  N  N N  G  GGG   !            |
|           WW  WW  A    A  R   R   N   NN  II  N   NN  G    G                |
|           W    W  A    A  R    R  N    N  II  N    N   GGGG   !!!           |
|     For optimal performance we recommend to set                             |
|       NCORE = 2 up to number-of-cores-per-socket                            |
|     This setting can greatly improve the performance of VASP for DFT.       |
|     The default, NCORE=1 might be grossly inefficient on modern             |
|     multi-core architectures or massively parallel machines. Do your        |
|     Unfortunately you need to use the default for GW and RPA                |
|     calculations (for HF NCORE is supported but not extensively tested      |
|     yet).                                                                   |

 POTCAR:    PAW_PBE Ag 02Apr2005
   VRHFIN =Ag : s1 d10

   TITEL  = PAW_PBE Ag 02Apr2005
   POMASS =  107.868; ZVAL   =   11.000    mass and valenz
   ENMAX  =  249.844; ENMIN  =  187.383 eV

 POTCAR:    PAW_PBE Ru 04Feb2005
   VRHFIN =Ru: s1 d7

   TITEL  = PAW_PBE Ru 04Feb2005
   POMASS =  101.070; ZVAL   =    8.000    mass and valenz
   ENMAX  =  213.271; ENMIN  =  159.953 eV

 POTCAR:    PAW_PBE C 08Apr2002
   VRHFIN =C: s2p2

[...]

 POTCAR:    PAW_PBE O 08Apr2002
   VRHFIN =O: s2p4

   TITEL  = PAW_PBE O 08Apr2002
   POMASS =   16.000; ZVAL   =    6.000    mass and valenz
   ENMAX  =  400.000; ENMIN  =  300.000 eV

 Optimization of the real space projectors (new method)

 maximal supplied QI-value         = 15.12
 optimisation between [QCUT,QGAM] = [ 11.34, 22.83] = [ 36.00,145.93] Ry
 Optimized for a Real-space Cutoff    1.43 Angstroem

   l    n(q)    QCUT    max X(q) W(low)/X(q) W(high)/X(q)  e(spline)
   2      9    11.338    53.897    0.16E-03    0.20E-03    0.28E-06
   2      9    11.338    52.416    0.16E-03    0.20E-03    0.29E-06
   0     10    11.338   122.045    0.31E-04    0.76E-04    0.15E-06
   0     10    11.338    73.629    0.30E-04    0.72E-04    0.15E-06
   1      9    11.338    15.255    0.20E-03    0.19E-04    0.17E-06
   1      9    11.338     9.562    0.16E-03    0.15E-04    0.14E-06
 Optimization of the real space projectors (new method)

[...]

   l    n(q)    QCUT    max X(q) W(low)/X(q) W(high)/X(q)  e(spline)
   0      7    11.310   115.676    0.43E-03    0.13E-02    0.19E-06
   0      7    11.310    87.132    0.43E-03    0.13E-02    0.18E-06
   1      6    11.310     4.429    0.42E-03    0.74E-03    0.11E-06
   1      6    11.310     2.733    0.34E-03    0.55E-03    0.92E-07
 Optimization of the real space projectors (new method)

 maximal supplied QI-value         = 24.76
 optimisation between [QCUT,QGAM] = [ 11.39, 22.77] = [ 36.31,145.25] Ry
 Optimized for a Real-space Cutoff    1.00 Angstroem

   l    n(q)    QCUT    max X(q) W(low)/X(q) W(high)/X(q)  e(spline)
   0      7    11.387    20.381    0.39E-03    0.13E-02    0.15E-06
   0      7    11.387    15.268    0.42E-03    0.14E-02    0.17E-06
   1      6    11.387     5.964    0.41E-03    0.11E-02    0.17E-06
   1      6    11.387     5.382    0.39E-03    0.87E-03    0.15E-06
  PAW_PBE Ag 02Apr2005                  :
  PAW_PBE Ru 04Feb2005                  :
  PAW_PBE C 08Apr2002                   :
  PAW_PBE O 08Apr2002                   :

 POSCAR: Ag-Ru-CO
  positions in direct lattice
  velocities in cartesian coordinates
 exchange correlation table for  LEXCH =        8
   RHO(1)=    0.500       N(1)  =     2000
   RHO(2)=  100.500       N(2)  =     4000

 VTST: version 3.2, (02/03/18)

 CHAIN: initializing optimizer

 OPT: Using VASP Conjugate-Gradient optimizer
 CHAIN: Read ICHAIN            0

 POSCAR: Ag-Ru-CO
  positions in direct lattice
  velocities in cartesian coordinates

 ion  position               nearest neighbor table
   1  0.000  0.000  0.238-   2 2.93   8 2.93   7 2.93   6 2.93   4 2.93  12 2.93  16 2.93  10 2.93
                             3 2.93
   2  0.333  0.000  0.238-   1 2.93   8 2.93   9 2.93   3 2.93   4 2.93   5 2.93  10 2.93  17 2.93
                            11 2.93
   3  0.667  0.000  0.238-   9 2.93   2 2.93   5 2.93  11 2.93   7 2.93  18 2.93   1 2.93   6 2.93
                            12 2.93
   4  0.000  0.333  0.238-   5 2.93   6 2.93   2 2.93   1 2.93   7 2.93  13 2.93  15 2.93   9 2.93
                            10 2.93
   5  0.333  0.333  0.238-   4 2.93   3 2.93   7 2.93   2 2.93   8 2.93  14 2.93  13 2.93  11 2.93
                             6 2.93
   6  0.667  0.333  0.238-   4 2.93   9 2.93   1 2.93  15 2.93   8 2.93  12 2.93   3 2.93   5 2.93
                            14 2.93
   7  0.000  0.667  0.238-   8 2.93   1 2.93   5 2.93   3 2.93   4 2.93  16 2.93  18 2.93  13 2.93
                             9 2.93
   8  0.333  0.667  0.238-   7 2.93   1 2.93   2 2.93   9 2.93   5 2.93  16 2.93   6 2.93  17 2.93
                            14 2.93
   9  0.667  0.667  0.238-   3 2.93   2 2.93   8 2.93   6 2.93  17 2.93   4 2.93  15 2.93   7 2.93
                            18 2.93
  10  0.111  0.111  0.346-  20 2.90  19 2.93  26 2.93  12 2.93  16 2.93  15 2.93  17 2.93  13 2.93
                            11 2.93   2 2.93   1 2.93   4 2.93
  11  0.444  0.111  0.346-  21 2.90  20 2.90  27 2.92  14 2.93  17 2.93  18 2.93   3 2.93  12 2.93
                            13 2.93  10 2.93   5 2.93   2 2.93
  12  0.778  0.111  0.346-  21 2.90  25 2.93  19 2.93  10 2.93  16 2.93  18 2.93  15 2.93  11 2.93
                             1 2.93  14 2.93   6 2.93   3 2.93
  13  0.111  0.444  0.346-  20 2.90  23 2.90  22 2.92  15 2.93  14 2.93  18 2.93  10 2.93  11 2.93
                            16 2.93   4 2.93   5 2.93   7 2.93
  14  0.444  0.444  0.346-  23 2.90  21 2.90  24 2.92  13 2.93  11 2.93  16 2.93   5 2.93  12 2.93
                            17 2.93   8 2.93  15 2.93   6 2.93
  15  0.778  0.444  0.346-  24 2.92  22 2.92  19 2.93  13 2.93  10 2.93  12 2.93  17 2.93  18 2.93
                             4 2.93   6 2.93   9 2.93  14 2.93
  16  0.111  0.778  0.346-  23 2.90  26 2.93  25 2.93  18 2.93  12 2.93  10 2.93  14 2.93  17 2.93
                            13 2.93   7 2.93   8 2.93   1 2.93
  17  0.444  0.778  0.346-  27 2.92  24 2.92  26 2.93  11 2.93  10 2.93   9 2.93  18 2.93  15 2.93
                            16 2.93   2 2.93  14 2.93   8 2.93
  18  0.778  0.778  0.346-  22 2.92  27 2.92  25 2.93  16 2.93  12 2.93  13 2.93  11 2.93  17 2.93
                            15 2.93   7 2.93   3 2.93   9 2.93
  19  0.889  0.223  0.454-  28 2.91  15 2.93  10 2.93  12 2.93  24 2.93  22 2.93  26 2.93  25 2.93
                            20 2.94  21 2.94  32 2.94  31 2.94
  20  0.223  0.223  0.452-  36 2.77  13 2.90  11 2.90  10 2.90  21 2.92  23 2.92  31 2.92  29 2.92
                            27 2.93  22 2.93  19 2.94  26 2.94
  21  0.555  0.223  0.452-  36 2.77  11 2.90  14 2.90  12 2.90  20 2.92  23 2.92  30 2.92  32 2.92
                            27 2.93  24 2.93  25 2.94  19 2.94
  22  0.888  0.556  0.453-  35 2.91  18 2.92  15 2.92  13 2.92  33 2.92  31 2.92  24 2.92  27 2.92
                            25 2.93  19 2.93  23 2.93  20 2.93
  23  0.223  0.555  0.452-  36 2.77  14 2.90  13 2.90  16 2.90  21 2.92  20 2.92  34 2.92  33 2.92
                            22 2.93  24 2.93  26 2.94  25 2.94
  24  0.556  0.556  0.453-  35 2.91  15 2.92  17 2.92  14 2.92  32 2.92  34 2.92  27 2.92  22 2.92
                            19 2.93  26 2.93  23 2.93  21 2.93
  25  0.889  0.889  0.454-  28 2.91  18 2.93  16 2.93  12 2.93  22 2.93  27 2.93  26 2.93  19 2.93
                            23 2.94  21 2.94  33 2.94  30 2.94
  26  0.223  0.889  0.454-  28 2.91  17 2.93  16 2.93  10 2.93  27 2.93  24 2.93  25 2.93  19 2.93
                            23 2.94  20 2.94  34 2.94  29 2.94
  27  0.556  0.888  0.453-  35 2.91  17 2.92  18 2.92  11 2.92  29 2.92  30 2.92  24 2.92  22 2.92
                            26 2.93  25 2.93  20 2.93  21 2.93
  28  0.000  0.000  0.560-  26 2.91  25 2.91  19 2.91  29 2.95  34 2.95  33 2.95  32 2.95  31 2.95
                            30 2.95
  29  0.333  0.006  0.561-  31 2.88  30 2.88  36 2.89  20 2.92  27 2.92  26 2.94  28 2.95  35 2.96
                            34 3.03
  30  0.661  0.006  0.561-  32 2.88  29 2.88  36 2.89  21 2.92  27 2.92  25 2.94  28 2.95  35 2.96
                            33 3.03
  31  0.006  0.333  0.561-  29 2.88  33 2.88  36 2.89  20 2.92  22 2.92  19 2.94  28 2.95  35 2.96
                            32 3.03
  32  0.661  0.333  0.561-  30 2.88  34 2.88  36 2.89  21 2.92  24 2.92  19 2.94  28 2.95  35 2.96
                            31 3.03
  33  0.006  0.661  0.561-  34 2.88  31 2.88  36 2.89  23 2.92  22 2.92  25 2.94  28 2.95  35 2.96
                            30 3.03
  34  0.333  0.661  0.561-  33 2.88  32 2.88  36 2.89  23 2.92  24 2.92  26 2.94  28 2.95  35 2.96
                            29 3.03
  35  0.667  0.667  0.560-  24 2.91  27 2.91  22 2.91  30 2.96  32 2.96  29 2.96  34 2.96  31 2.96
                            33 2.96
  36  0.333  0.333  0.551-  37 1.84  21 2.77  20 2.77  23 2.77  31 2.89  30 2.89  33 2.89  29 2.89
                            34 2.89  32 2.89
  37  0.333  0.333  0.634-  38 1.18  36 1.84
  38  0.333  0.333  0.688-  37 1.18

  LATTYP: Found a hexagonal cell.
 ALAT       =     8.7913665772
 C/A-ratio  =     2.5227160501

  Lattice vectors:

 A1 = (  -4.3956832886,  -7.6135467898,   0.0000000000)
 A2 = (   8.7913665771,   0.0000000000,   0.0000000000)
 A3 = (   0.0000000000,   0.0000000000,  22.1781215668)

Analysis of symmetry for initial positions (statically):
 Subroutine PRICEL returns:
 Original cell was already a primitive cell.

 Routine SETGRP: Setting up the symmetry group for a
 hexagonal supercell.

 Subroutine GETGRP returns: Found  6 space group operations
 (whereof  6 operations were pure point group operations)
 out of a pool of 24 trial point group operations.

The static configuration has the point symmetry C_3v.

Analysis of symmetry for dynamics (positions and initial velocities):
 Subroutine PRICEL returns:
 Original cell was already a primitive cell.

[...]

The dynamic configuration has the point symmetry C_3v.

Analysis of constrained symmetry for selective dynamics:
 Subroutine PRICEL returns:
 Original cell was already a primitive cell.

 Routine SETGRP: Setting up the symmetry group for a
 hexagonal supercell.

[...]
     33      -4.5634      2.00000
     34      -4.5342      2.00000
     35      -4.5251      2.00000
     36      -4.5060      2.00000
     37      -4.4760      2.00000
     38      -4.4249      2.00000
     39      -4.4170      2.00000
     40      -4.3816      2.00000
     41      -4.3783      2.00000
     42      -4.3586      2.00000
     43      -4.3330      2.00000
     44      -4.3274      2.00000
     45      -4.3056      2.00000
     46      -4.2957      2.00000
     47      -4.2711      2.00000
     48      -4.2104      2.00000
     49      -4.1821      2.00000
     50      -4.1774      2.00000
     51      -4.1634      2.00000
     52      -4.1601      2.00000
     53      -4.1552      2.00000
     54      -4.1404      2.00000
     55      -4.1328      2.00000
     56      -4.1181      2.00000
     57      -4.1128      2.00000
     58      -4.0472      2.00000
     59      -4.0399      2.00000
     60      -4.0344      2.00000
[...]
    238       6.0991      0.00000
    239       6.1821      0.00000
    240       6.2445      0.00000
    241       6.3788      0.00000
    242       6.4163      0.00000
    243       6.4186      0.00000
    244       7.2184      0.00000
    245       7.2710      0.00000
    246       7.3372      0.00000
    247       7.4237      0.00000
    248       7.4429      0.00000
    249       7.4523      0.00000
    250       7.4642      0.00000
    251       7.6131      0.00000
    252       7.6837      0.00000

 soft charge-density along one line, spin component           1
         0         1         2         3         4         5         6         7         8         9
 total charge-density along one line

------------------------ aborting loop because EDIFF is reached ----------------------------------------

 total charge

# of ion       s       p       d       tot
    1        0.417   0.201   9.179   9.797
    2        0.418   0.202   9.178   9.798
    3        0.418   0.202   9.178   9.798
    4        0.418   0.202   9.178   9.798
    5        0.419   0.203   9.175   9.798
    6        0.418   0.202   9.178   9.798
    7        0.418   0.202   9.178   9.798
    8        0.418   0.202   9.178   9.798
    9        0.412   0.202   9.180   9.794
   10        0.407   0.269   9.165   9.840
   11        0.410   0.268   9.168   9.846
   12        0.407   0.269   9.165   9.840
   13        0.410   0.268   9.168   9.846
   14        0.410   0.268   9.168   9.846
   15        0.402   0.270   9.165   9.837
   16        0.407   0.269   9.165   9.840
   17        0.402   0.270   9.165   9.837
   18        0.402   0.270   9.165   9.837
   19        0.403   0.266   9.166   9.835
   20        0.431   0.289   9.153   9.872
   21        0.431   0.289   9.153   9.872
   22        0.395   0.275   9.166   9.836
   23        0.431   0.289   9.153   9.872
   24        0.395   0.275   9.166   9.836
   25        0.403   0.266   9.166   9.835
   26        0.403   0.266   9.166   9.835
   27        0.395   0.275   9.166   9.836
   28        0.415   0.194   9.183   9.792
   29        0.413   0.212   9.174   9.799
   30        0.413   0.212   9.174   9.799
   31        0.413   0.212   9.174   9.799
   32        0.413   0.212   9.174   9.799
   33        0.413   0.212   9.174   9.799
   34        0.413   0.212   9.174   9.799
   35        0.407   0.198   9.183   9.788
   36        0.537   0.579   6.801   7.917
   37        0.952   1.557   0.000   2.509
   38        1.609   3.530   0.000   5.139
tot         17.494  14.059 327.763 359.316

  FORCE on cell =-STRESS in cart. coord.  units (eV):
  Direction    XX          YY          ZZ          XY          YZ          ZX
  Alpha Z   762.16017   762.16017   762.16017
  Ewald  119099.20092119099.20097************     0.00004    -0.00000     0.00005
  Hartree129509.69349129509.69351************     0.00002     0.00000     0.00002
  E(xc)   -2111.90860 -2111.90868 -2116.32443     0.00007    -0.00000    -0.00001
  Local  ************************259517.25698     0.00054    -0.00006    -0.00019
  n-local  -346.77199  -325.23519  -339.38704    12.17119    -0.51235     0.69545
  augment  3273.41090  3273.41111  3277.77950    -0.00018    -0.00000     0.00002
  Kinetic  5059.19171  5066.08446  5050.08780     5.83643     0.80647    -0.21612
  Fock        0.00000     0.00000     0.00000     0.00000     0.00000     0.00000
  Total      -8.01746    -8.01746     0.69104    -0.00000     0.00000     0.00000
  in kB      -8.65325    -8.65325     0.74584    -0.00000     0.00000     0.00000

 VOLUME and BASIS-vectors are now :
  energy-cutoff  :      500.00
  volume of cell :     1484.46
      direct lattice vectors                 reciprocal lattice vectors
     8.791366577  0.000000000  0.000000000     0.113747958 -0.065672414  0.000000000
     4.395683289  7.613546790  0.000000000     0.000000000  0.131344829  0.000000000
     0.000000000  0.000000000 22.178121567     0.000000000  0.000000000  0.045089481

  length of vectors
     8.791366577  8.791366577 22.178121567     0.131344829  0.131344829  0.045089481

 FORCES acting on ions
    electron-ion (+dipol)            ewald-force                    non-local-force                 convergence-correction
   0.460E-04 -.282E-04 0.251E+04   -.954E-04 0.593E-04 -.251E+04   0.157E-17 0.108E-17 -.226E+01   -.106E-03 -.168E-03 -.223E+00
   0.340E+00 0.489E+00 0.251E+04   -.410E+00 -.515E+00 -.251E+04   0.593E-01 0.955E-01 -.159E+01   0.194E-01 -.490E-01 -.203E+00
   -.340E+00 0.489E+00 0.251E+04   0.410E+00 -.515E+00 -.251E+04   -.593E-01 0.955E-01 -.159E+01   -.199E-01 -.470E-01 -.202E+00
   0.593E+00 0.494E-01 0.251E+04   -.651E+00 -.973E-01 -.251E+04   0.112E+00 0.361E-02 -.159E+01   -.325E-01 0.415E-01 -.203E+00
   -.610E-05 -.190E-04 0.252E+04   0.981E-04 -.198E-05 -.251E+04   0.243E-17 0.451E-18 -.131E+01   0.624E-02 0.381E-02 -.173E+00
   -.593E+00 0.495E-01 0.251E+04   0.650E+00 -.973E-01 -.251E+04   -.112E+00 0.361E-02 -.159E+01   0.311E-01 0.424E-01 -.202E+00
   0.254E+00 -.539E+00 0.251E+04   -.241E+00 0.612E+00 -.251E+04   0.531E-01 -.991E-01 -.159E+01   -.503E-01 0.679E-02 -.202E+00
   -.254E+00 -.539E+00 0.251E+04   0.241E+00 0.612E+00 -.251E+04   -.531E-01 -.991E-01 -.159E+01   0.519E-01 0.579E-02 -.202E+00
   0.368E-04 -.127E-04 0.251E+04   0.792E-04 -.643E-04 -.251E+04   -.912E-18 -.211E-17 -.209E+01   -.666E-02 -.344E-02 -.278E+00
   0.463E+01 0.267E+01 0.871E+03   -.430E+01 -.248E+01 -.870E+03   -.355E+00 -.205E+00 -.767E+00   0.186E-01 0.108E-01 0.214E+00
   -.288E-04 0.513E+01 0.877E+03   0.412E-04 -.529E+01 -.877E+03   0.105E-11 0.159E+00 -.347E+00   0.629E-02 -.401E-01 0.238E+00
   -.463E+01 0.267E+01 0.871E+03   0.430E+01 -.248E+01 -.870E+03   0.355E+00 -.205E+00 -.767E+00   -.202E-01 0.118E-01 0.213E+00
   0.444E+01 -.256E+01 0.877E+03   -.458E+01 0.264E+01 -.877E+03   0.138E+00 -.797E-01 -.347E+00   -.317E-01 0.255E-01 0.238E+00
   -.444E+01 -.256E+01 0.877E+03   0.458E+01 0.264E+01 -.877E+03   -.138E+00 -.797E-01 -.347E+00   0.423E-01 0.247E-01 0.238E+00
   0.161E-04 0.531E+00 0.871E+03   -.108E-03 -.669E+00 -.870E+03   0.406E-12 0.618E-01 -.801E+00   -.165E-02 0.519E-01 0.156E+00
   -.789E-05 -.535E+01 0.871E+03   0.206E-04 0.497E+01 -.870E+03   0.269E-11 0.410E+00 -.767E+00   0.121E-03 -.234E-01 0.213E+00
   0.460E+00 -.266E+00 0.871E+03   -.579E+00 0.334E+00 -.870E+03   0.535E-01 -.309E-01 -.801E+00   0.441E-01 -.274E-01 0.156E+00
   -.460E+00 -.266E+00 0.871E+03   0.579E+00 0.335E+00 -.870E+03   -.535E-01 -.309E-01 -.801E+00   -.441E-01 -.255E-01 0.156E+00
   0.396E-04 0.747E+00 -.801E+03   -.128E-03 -.753E+00 0.800E+03   0.155E-12 0.236E-01 0.695E+00   -.409E-03 0.169E-02 0.545E+00
   0.117E+02 0.678E+01 -.772E+03   -.107E+02 -.618E+01 0.772E+03   -.130E+01 -.749E+00 -.106E+01   0.158E+00 0.910E-01 0.639E+00
   -.117E+02 0.678E+01 -.772E+03   0.107E+02 -.618E+01 0.772E+03   0.130E+01 -.749E+00 -.106E+01   -.158E+00 0.914E-01 0.639E+00
   0.415E+01 -.240E+01 -.793E+03   -.440E+01 0.254E+01 0.792E+03   0.250E+00 -.144E+00 0.486E+00   0.291E-01 -.165E-01 0.508E+00
   -.561E-04 -.136E+02 -.772E+03   0.431E-04 0.124E+02 0.772E+03   0.984E-11 0.150E+01 -.106E+01   0.650E-03 -.182E+00 0.639E+00
   -.415E+01 -.240E+01 -.793E+03   0.440E+01 0.254E+01 0.792E+03   -.250E+00 -.144E+00 0.486E+00   -.291E-01 -.167E-01 0.509E+00
   -.647E+00 -.374E+00 -.801E+03   0.652E+00 0.376E+00 0.800E+03   -.205E-01 -.118E-01 0.695E+00   -.972E-03 -.714E-03 0.544E+00
   0.647E+00 -.374E+00 -.801E+03   -.652E+00 0.376E+00 0.800E+03   0.205E-01 -.118E-01 0.695E+00   0.953E-03 -.132E-02 0.545E+00
   0.201E-04 0.479E+01 -.793E+03   0.110E-03 -.508E+01 0.792E+03   0.189E-11 0.288E+00 0.486E+00   -.395E-03 0.335E-01 0.508E+00
   0.546E-04 -.367E-04 -.244E+04   -.116E-03 0.783E-04 0.244E+04   -.606E-17 -.298E-17 0.218E+01   0.453E-04 -.111E-03 0.382E+00
   0.243E+02 0.422E+02 -.242E+04   -.237E+02 -.416E+02 0.242E+04   -.678E+00 -.911E+00 0.202E+01   0.337E-01 0.214E+00 0.264E+00
   -.243E+02 0.422E+02 -.242E+04   0.237E+02 -.416E+02 0.242E+04   0.678E+00 -.911E+00 0.202E+01   -.343E-01 0.216E+00 0.264E+00
   0.487E+02 -.792E-01 -.242E+04   -.479E+02 0.297E+00 0.242E+04   -.113E+01 -.132E+00 0.202E+01   0.202E+00 -.777E-01 0.264E+00
   -.487E+02 -.791E-01 -.242E+04   0.479E+02 0.297E+00 0.242E+04   0.113E+01 -.132E+00 0.202E+01   -.203E+00 -.768E-01 0.264E+00
   0.244E+02 -.422E+02 -.242E+04   -.242E+02 0.413E+02 0.242E+04   -.450E+00 0.104E+01 0.202E+01   0.170E+00 -.137E+00 0.264E+00
   -.244E+02 -.422E+02 -.242E+04   0.242E+02 0.413E+02 0.242E+04   0.450E+00 0.104E+01 0.202E+01   -.169E+00 -.138E+00 0.264E+00
   0.214E-04 -.115E-04 -.244E+04   0.106E-03 -.664E-04 0.244E+04   -.243E-18 -.729E-18 0.228E+01   -.658E-02 -.337E-02 0.326E+00
   -.377E-05 -.110E-04 -.154E+04   0.767E-04 0.950E-05 0.155E+04   0.206E-17 0.269E-19 -.718E+01   0.207E-02 0.126E-02 0.262E+00
   0.240E-05 -.793E-04 -.861E+03   0.175E-04 0.230E-06 0.847E+03   0.105E-17 0.726E-18 0.146E+02   0.120E-02 0.733E-03 -.116E+00
   0.235E-03 -.933E-04 -.152E+04   0.918E-05 0.146E-07 0.158E+04   -.848E-19 -.392E-20 -.574E+02   0.372E-02 0.228E-02 -.162E+00
   0.624E-03 -.853E-03 0.468E+02   0.653E-14 0.122E-14 0.205E-11   0.114E-15 0.444E-15 -.540E+02   0.132E-01 0.110E-01 0.729E+01

 POSITION                                       TOTAL-FORCE (eV/Angst)
      0.00000      0.00000      5.28219        -0.000000     -0.000000     -0.004913
      2.93046      0.00000      5.28219         0.009421      0.022023      0.035634
      5.86091      0.00000      5.28219        -0.009421      0.022023      0.035634
      1.46523      2.53785      5.28219         0.023783     -0.002853      0.035634
      4.39568      2.53785      5.28219        -0.000000     -0.000000      0.011302
      7.32614      2.53785      5.28219        -0.023783     -0.002853      0.035634
      2.93046      5.07570      5.28219         0.014362     -0.019171      0.035634
      5.86091      5.07570      5.28219        -0.014362     -0.019171      0.035634
      8.79137      5.07570      5.28219        -0.000000     -0.000000      0.026306
      1.46523      0.84595      7.67490        -0.006380     -0.003684     -0.011840
      4.39568      0.84595      7.67490        -0.000000     -0.043762     -0.063975
      7.32614      0.84595      7.67490         0.006380     -0.003684     -0.011840
      2.93046      3.38380      7.67490        -0.037899      0.021881     -0.063975
      5.86091      3.38380      7.67490         0.037899      0.021881     -0.063975
      8.79137      3.38380      7.67490        -0.000000     -0.024316      0.001275
      4.39568      5.92165      7.67490         0.000000      0.007367     -0.011840
      7.32614      5.92165      7.67490        -0.021058      0.012158      0.001275
     10.25659      5.92165      7.67490         0.021058      0.012158      0.001275
      8.79137      1.69450     10.06282         0.000000      0.019414      0.018279
      2.93652      1.69540     10.03056        -0.106727     -0.061619     -0.232661
      5.85484      1.69540     10.03056         0.106727     -0.061619     -0.232661
     10.25378      4.23137     10.05553         0.028943     -0.016710     -0.012765
      4.39568      4.22274     10.03056         0.000000      0.123238     -0.232661
      7.32895      4.23137     10.05553        -0.028943     -0.016710     -0.012765
     11.71957      6.76630     10.06282        -0.016813     -0.009707      0.018279
      5.86316      6.76630     10.06282         0.016813     -0.009707      0.018279
      8.79137      6.76435     10.05553         0.000000      0.033420     -0.012765
      0.00000      0.00000     12.42400        -0.000000     -0.000000     -0.019339
      2.95387      0.04433     12.43748        -0.018228     -0.049106     -0.021942
      5.83749      0.04433     12.43748         0.018228     -0.049106     -0.021942
      1.51533      2.53597     12.43748        -0.051641      0.008767     -0.021942
      7.27604      2.53597     12.43748         0.051641      0.008767     -0.021942
      2.95713      5.03325     12.43748        -0.033413      0.040339     -0.021942
      5.83423      5.03325     12.43748         0.033413      0.040339     -0.021942
      8.79137      5.07570     12.42069        -0.000000     -0.000000     -0.007778
      4.39568      2.53785     12.23056        -0.000000     -0.000000      0.763290
      4.39568      2.53785     14.06931        -0.000000     -0.000000      0.086236
      4.39568      2.53785     15.24771        -0.000000     -0.000000     -0.032197
    total drift:                                0.013807      0.010148      0.124098

  FREE ENERGIE OF THE ION-ELECTRON SYSTEM (eV)
  free  energy   TOTEN  =      -113.18670083 eV

  energy  without entropy=     -113.18670083  energy(sigma->0) =     -113.18670083

 stress matrix after NEB project (eV)
     -8.01746     -0.00000      0.00000
     -0.00000     -8.01746      0.00000
      0.00000      0.00000      0.69104
  FORCES: max atom, RMS     0.086236    0.014933
  FORCE total and by dimension    0.092050    0.086236
  Stress total and by dimension   11.359439    8.017459
|           W    W    AA    RRRRR   N    N  II  N    N   GGGG   !!!           |
|           W    W   A  A   R    R  NN   N  II  NN   N  G    G  !!!           |
|           W    W  A    A  R    R  N N  N  II  N N  N  G       !!!           |
|           W WW W  AAAAAA  RRRRR   N  N N  II  N  N N  G  GGG   !            |
|           WW  WW  A    A  R   R   N   NN  II  N   NN  G    G                |
|           W    W  A    A  R    R  N    N  II  N    N   GGGG   !!!           |
|     Tetrahedron method does not include variations of the Fermi             |
|     occupations, so forces and stress will be inaccurate. We suggest        |
|     using a different smearing scheme ISMEAR = 1 or 2 for metals in         |
|     relaxations.                                                            |

 total charge

# of ion       s       p       d       tot
    1        0.417   0.201   9.179   9.797
    2        0.418   0.202   9.178   9.798
    3        0.418   0.202   9.178   9.798
    4        0.418   0.202   9.178   9.798
    5        0.419   0.203   9.175   9.798
    6        0.418   0.202   9.178   9.798
    7        0.418   0.202   9.178   9.798
    8        0.418   0.202   9.178   9.798
    9        0.412   0.202   9.180   9.794
   10        0.407   0.269   9.165   9.840
   11        0.410   0.268   9.168   9.846
   12        0.407   0.269   9.165   9.840
   13        0.410   0.268   9.168   9.846
   14        0.410   0.268   9.168   9.846
   15        0.402   0.270   9.165   9.837
   16        0.407   0.269   9.165   9.840
   17        0.402   0.270   9.165   9.837
   18        0.402   0.270   9.165   9.837
   19        0.403   0.266   9.166   9.835
   20        0.431   0.289   9.153   9.872
   21        0.431   0.289   9.153   9.872
   22        0.395   0.275   9.166   9.836
   23        0.431   0.289   9.153   9.872
   24        0.395   0.275   9.166   9.836
   25        0.403   0.266   9.166   9.835
   26        0.403   0.266   9.166   9.835
   27        0.395   0.275   9.166   9.836
   28        0.415   0.194   9.183   9.792
   29        0.413   0.212   9.174   9.799
   30        0.413   0.212   9.174   9.799
   31        0.413   0.212   9.174   9.799
   32        0.413   0.212   9.174   9.799
   33        0.413   0.212   9.174   9.799
   34        0.413   0.212   9.174   9.799
   35        0.407   0.198   9.183   9.788
   36        0.537   0.579   6.801   7.917
   37        0.952   1.557   0.000   2.509
   38        1.609   3.530   0.000   5.139
tot         17.494  14.059 327.763 359.316

 BZINTS: Fermi energy:    0.778257;  403.000000 electrons
         Band energy:-0.135370E+04;  BLOECHL correction:   -0.042759