 vasp.6.2.0 18Jan21 (build Jun 12 2021 23:27:24) complex

 executed on             LinuxIFC date 2022.05.28  02:08:11

 INCAR:
   ISMEAR = -5
   SIGMA = 0.1
   ISPIN = 1
   EDIFF = 1.d-5
   EDIFFG = -0.01
   NSW = 0
   NELM = 150
   ENCUT = 500
   ISIF = 2
   IBRION = 2
   LREAL = Auto
   ALGO = Fast
   ICHARG = 11
   LORBIT = 10
   LCHARG = .F.
   LWAVE = .F.

 POTCAR:    PAW_PBE Ag 02Apr2005
 POTCAR:    PAW_PBE Os 17Jan2003
 POTCAR:    PAW_PBE O 08Apr2002
 POTCAR:    PAW_PBE H 15Jun2001
|           W    W    AA    RRRRR   N    N  II  N    N   GGGG   !!!           |
|           W    W   A  A   R    R  NN   N  II  NN   N  G    G  !!!           |
|           W    W  A    A  R    R  N N  N  II  N N  N  G       !!!           |
|           W WW W  AAAAAA  RRRRR   N  N N  II  N  N N  G  GGG   !            |
|           WW  WW  A    A  R   R   N   NN  II  N   NN  G    G                |
|           W    W  A    A  R    R  N    N  II  N    N   GGGG   !!!           |
|     For optimal performance we recommend to set                             |
|       NCORE = 2 up to number-of-cores-per-socket                            |
|     This setting can greatly improve the performance of VASP for DFT.       |
|     The default, NCORE=1 might be grossly inefficient on modern             |
|     multi-core architectures or massively parallel machines. Do your        |
|     Unfortunately you need to use the default for GW and RPA                |
|     calculations (for HF NCORE is supported but not extensively tested      |
|     yet).                                                                   |

 POTCAR:    PAW_PBE Ag 02Apr2005
   VRHFIN =Ag : s1 d10

   TITEL  = PAW_PBE Ag 02Apr2005
   POMASS =  107.868; ZVAL   =   11.000    mass and valenz
   ENMAX  =  249.844; ENMIN  =  187.383 eV

 POTCAR:    PAW_PBE Os 17Jan2003
   VRHFIN =Os: 6s5d

   TITEL  = PAW_PBE Os 17Jan2003
   POMASS =  190.200; ZVAL   =    8.000    mass and valenz
   ENMAX  =  228.022; ENMIN  =  171.017 eV

 POTCAR:    PAW_PBE O 08Apr2002
   VRHFIN =O: s2p4

   TITEL  = PAW_PBE O 08Apr2002
   POMASS =   16.000; ZVAL   =    6.000    mass and valenz
   ENMAX  =  400.000; ENMIN  =  300.000 eV

 POTCAR:    PAW_PBE H 15Jun2001
   VRHFIN =H: ultrasoft test

   TITEL  = PAW_PBE H 15Jun2001
   POMASS =    1.000; ZVAL   =    1.000    mass and valenz
   ENMAX  =  250.000; ENMIN  =  200.000 eV

 Optimization of the real space projectors (new method)

 maximal supplied QI-value         = 15.12
 optimisation between [QCUT,QGAM] = [ 11.34, 22.83] = [ 36.00,145.93] Ry
 Optimized for a Real-space Cutoff    1.43 Angstroem

   l    n(q)    QCUT    max X(q) W(low)/X(q) W(high)/X(q)  e(spline)
   2      9    11.338    53.897    0.16E-03    0.20E-03    0.28E-06
   2      9    11.338    52.416    0.16E-03    0.20E-03    0.29E-06
   0     10    11.338   122.045    0.31E-04    0.76E-04    0.15E-06
   0     10    11.338    73.629    0.30E-04    0.72E-04    0.15E-06
   1      9    11.338    15.255    0.20E-03    0.19E-04    0.17E-06
   1      9    11.338     9.562    0.16E-03    0.15E-04    0.14E-06
 Optimization of the real space projectors (new method)

[...]

   l    n(q)    QCUT    max X(q) W(low)/X(q) W(high)/X(q)  e(spline)
   0      7    11.387    20.381    0.39E-03    0.13E-02    0.15E-06
   0      7    11.387    15.268    0.42E-03    0.14E-02    0.17E-06
   1      6    11.387     5.964    0.41E-03    0.11E-02    0.17E-06
   1      6    11.387     5.382    0.39E-03    0.87E-03    0.15E-06
 Optimization of the real space projectors (new method)

 maximal supplied QI-value         = 34.20
 optimisation between [QCUT,QGAM] = [ 11.29, 22.57] = [ 35.68,142.71] Ry
 Optimized for a Real-space Cutoff    1.16 Angstroem

   l    n(q)    QCUT    max X(q) W(low)/X(q) W(high)/X(q)  e(spline)
   0      8    11.287    19.460    0.40E-03    0.73E-03    0.16E-06
   0      8    11.287    12.209    0.38E-03    0.70E-03    0.15E-06
   1      7    11.287     4.655    0.22E-03    0.25E-04    0.22E-06
  PAW_PBE Ag 02Apr2005                  :
  PAW_PBE Os 17Jan2003                  :
  PAW_PBE O 08Apr2002                   :
  PAW_PBE H 15Jun2001                   :

 POSCAR: Ag-Os-OOH
  positions in direct lattice
  velocities in cartesian coordinates
 exchange correlation table for  LEXCH =        8
   RHO(1)=    0.500       N(1)  =     2000
   RHO(2)=  100.500       N(2)  =     4000

 VTST: version 3.2, (02/03/18)

 CHAIN: initializing optimizer

 OPT: Using VASP Conjugate-Gradient optimizer
 CHAIN: Read ICHAIN            0

 POSCAR: Ag-Os-OOH
  positions in direct lattice
  velocities in cartesian coordinates

 ion  position               nearest neighbor table
   1  0.000  0.000  0.204-   2 2.93   8 2.93   7 2.93   6 2.93   4 2.93  12 2.93  16 2.93  10 2.93
                             3 2.93
   2  0.333  0.000  0.204-   1 2.93   8 2.93   9 2.93   3 2.93   4 2.93   5 2.93  10 2.93  17 2.93
                            11 2.93
   3  0.667  0.000  0.204-   9 2.93   2 2.93   5 2.93  11 2.93   7 2.93  18 2.93   1 2.93   6 2.93
                            12 2.93
   4  0.000  0.333  0.204-   5 2.93   6 2.93   2 2.93   1 2.93   7 2.93  13 2.93  15 2.93   9 2.93
                            10 2.93
   5  0.333  0.333  0.204-   4 2.93   3 2.93   7 2.93   2 2.93   8 2.93  14 2.93  13 2.93  11 2.93
                             6 2.93
   6  0.667  0.333  0.204-   4 2.93   9 2.93   1 2.93  15 2.93   8 2.93  12 2.93   3 2.93   5 2.93
                            14 2.93
   7  0.000  0.667  0.204-   8 2.93   1 2.93   5 2.93   3 2.93   4 2.93  16 2.93  18 2.93  13 2.93
                             9 2.93
   8  0.333  0.667  0.204-   7 2.93   1 2.93   2 2.93   9 2.93   5 2.93  16 2.93   6 2.93  17 2.93
                            14 2.93
   9  0.667  0.667  0.204-   3 2.93   2 2.93   8 2.93   6 2.93  17 2.93   4 2.93  15 2.93   7 2.93
                            18 2.93
  10  0.111  0.111  0.296-  20 2.89  12 2.93  16 2.93  15 2.93  17 2.93  13 2.93  11 2.93   2 2.93
                             1 2.93   4 2.93  19 2.93  26 2.93
  11  0.444  0.111  0.296-  21 2.89  20 2.89  27 2.92  14 2.93  17 2.93  18 2.93   3 2.93  12 2.93
                            13 2.93  10 2.93   5 2.93   2 2.93
  12  0.778  0.111  0.296-  21 2.89  10 2.93  16 2.93  18 2.93  15 2.93  11 2.93   1 2.93  14 2.93
                             6 2.93   3 2.93  25 2.93  19 2.93
  13  0.111  0.444  0.296-  20 2.89  23 2.89  22 2.92  15 2.93  14 2.93  18 2.93  10 2.93  11 2.93
                            16 2.93   4 2.93   5 2.93   7 2.93
  14  0.444  0.444  0.296-  23 2.89  21 2.89  24 2.92  13 2.93  11 2.93  16 2.93   5 2.93  12 2.93
                            17 2.93   8 2.93  15 2.93   6 2.93
  15  0.778  0.444  0.296-  24 2.92  22 2.92  19 2.93  13 2.93  10 2.93  12 2.93  17 2.93  18 2.93
                             4 2.93   6 2.93   9 2.93  14 2.93
  16  0.111  0.778  0.296-  23 2.89  18 2.93  12 2.93  10 2.93  14 2.93  17 2.93  13 2.93   7 2.93
                             8 2.93   1 2.93  26 2.93  25 2.93
  17  0.444  0.778  0.296-  27 2.92  24 2.92  26 2.93  11 2.93  10 2.93   9 2.93  18 2.93  15 2.93
                            16 2.93   2 2.93  14 2.93   8 2.93
  18  0.778  0.778  0.296-  22 2.92  27 2.92  25 2.93  16 2.93  12 2.93  13 2.93  11 2.93  17 2.93
                            15 2.93   7 2.93   3 2.93   9 2.93
  19  0.888  0.223  0.389-  28 2.90  24 2.93  22 2.93  15 2.93  20 2.93  21 2.93  10 2.93  12 2.93
                            26 2.94  25 2.94  32 2.95  31 2.95
  20  0.222  0.222  0.387-  36 2.76  13 2.89  11 2.89  10 2.89  31 2.93  29 2.93  21 2.93  23 2.93
                            19 2.93  26 2.93  27 2.94  22 2.94
  21  0.556  0.222  0.387-  36 2.76  11 2.89  14 2.89  12 2.89  30 2.93  32 2.93  20 2.93  23 2.93
                            25 2.93  19 2.93  27 2.94  24 2.94
  22  0.888  0.556  0.388-  35 2.90  18 2.92  15 2.92  24 2.92  27 2.92  13 2.92  25 2.93  19 2.93
                            33 2.94  31 2.94  23 2.94  20 2.94
  23  0.222  0.556  0.387-  36 2.76  14 2.89  13 2.89  16 2.89  34 2.93  33 2.93  21 2.93  20 2.93
                            26 2.93  25 2.93  22 2.94  24 2.94
  24  0.556  0.556  0.388-  35 2.90  15 2.92  17 2.92  27 2.92  22 2.92  14 2.92  19 2.93  26 2.93
                            32 2.94  34 2.94  23 2.94  21 2.94
  25  0.888  0.888  0.389-  28 2.90  22 2.93  27 2.93  18 2.93  23 2.93  21 2.93  16 2.93  12 2.93
                            26 2.94  19 2.94  33 2.95  30 2.95
  26  0.223  0.888  0.389-  28 2.90  27 2.93  24 2.93  17 2.93  23 2.93  20 2.93  16 2.93  10 2.93
                            25 2.94  19 2.94  34 2.95  29 2.95
  27  0.556  0.888  0.388-  35 2.90  17 2.92  18 2.92  24 2.92  22 2.92  11 2.92  26 2.93  25 2.93
                            29 2.94  30 2.94  20 2.94  21 2.94
  28  0.000  0.000  0.480-  38 2.31  26 2.90  25 2.90  19 2.90  29 2.96  34 2.96  33 2.96  32 2.96
                            31 2.96  30 2.96
  29  0.333  0.008  0.480-  31 2.86  30 2.87  36 2.88  20 2.93  27 2.94  26 2.95  28 2.96  35 2.97
                            34 3.06
  30  0.659  0.008  0.480-  32 2.86  29 2.87  36 2.88  21 2.93  27 2.94  25 2.95  28 2.96  35 2.97
                            33 3.06
  31  0.008  0.333  0.480-  38 2.28  29 2.86  33 2.87  36 2.88  20 2.93  22 2.94  19 2.95  28 2.96
                            35 2.97  32 3.06
  32  0.659  0.333  0.480-  38 2.28  30 2.86  34 2.87  36 2.88  21 2.93  24 2.94  19 2.95  28 2.96
                            35 2.97  31 3.06
  33  0.008  0.659  0.480-  34 2.86  31 2.87  36 2.88  23 2.93  22 2.94  25 2.95  28 2.96  35 2.97
                            30 3.06
  34  0.333  0.659  0.480-  33 2.86  32 2.87  36 2.88  23 2.93  24 2.94  26 2.95  28 2.96  35 2.97
                            29 3.06
  35  0.667  0.667  0.479-  24 2.90  27 2.90  22 2.90  30 2.97  32 2.97  29 2.97  34 2.97  31 2.97
                            33 2.97
  36  0.333  0.333  0.471-  37 1.74  21 2.76  20 2.76  23 2.76  31 2.88  30 2.88  33 2.88  29 2.88
                            34 2.88  32 2.88
  37  0.322  0.324  0.538-  36 1.74
  38  0.885  0.229  0.538-  39 0.97  32 2.28  31 2.28  28 2.31
  39  0.880  0.236  0.576-  38 0.97

  LATTYP: Found a hexagonal cell.
 ALAT       =     8.7913665772
 C/A-ratio  =     2.9469639759

  Lattice vectors:

 A1 = (  -4.3956832886,  -7.6135467898,   0.0000000000)
 A2 = (   8.7913665771,   0.0000000000,   0.0000000000)
 A3 = (   0.0000000000,   0.0000000000,  25.9078406020)

Analysis of symmetry for initial positions (statically):
 Subroutine PRICEL returns:
 Original cell was already a primitive cell.

 Routine SETGRP: Setting up the symmetry group for a
 hexagonal supercell.

 Subroutine GETGRP returns: Found  1 space group operations
 (whereof  1 operations were pure point group operations)
 out of a pool of 24 trial point group operations.

The static configuration has the point symmetry C_1 .

Analysis of symmetry for dynamics (positions and initial velocities):
 Subroutine PRICEL returns:
 Original cell was already a primitive cell.

[...]

The dynamic configuration has the point symmetry C_1 .

Analysis of constrained symmetry for selective dynamics:
 Subroutine PRICEL returns:
[...]
     41      -5.0847      2.00000
     42      -5.0450      2.00000
     43      -5.0255      2.00000
     44      -5.0180      2.00000
     45      -4.9977      2.00000
     46      -4.9765      2.00000
     47      -4.9452      2.00000
     48      -4.9012      2.00000
     49      -4.8857      2.00000
     50      -4.8624      2.00000
     51      -4.8496      2.00000
     52      -4.8459      2.00000
     53      -4.8366      2.00000
     54      -4.8255      2.00000
     55      -4.8204      2.00000
     56      -4.8101      2.00000
     57      -4.7971      2.00000
     58      -4.7847      2.00000
     59      -4.7442      2.00000
     60      -4.7180      2.00000
[...]
    238       5.2533      0.00000
    239       5.2862      0.00000
    240       5.5308      0.00000
    241       5.6013      0.00000
    242       5.7302      0.00000
    243       5.8461      0.00000
    244       5.9676      0.00000
    245       5.9879      0.00000
    246       6.0563      0.00000
    247       6.2076      0.00000
    248       6.2545      0.00000
    249       6.3152      0.00000
    250       6.5230      0.00000
    251       6.5769      0.00000
    252       6.6549      0.00000

 soft charge-density along one line, spin component           1
         0         1         2         3         4         5         6         7         8         9
 total charge-density along one line

------------------------ aborting loop because EDIFF is reached ----------------------------------------

 total charge

# of ion       s       p       d       tot
    1        0.418   0.201   9.179   9.798
    2        0.417   0.204   9.178   9.798
    3        0.417   0.204   9.177   9.798
    4        0.419   0.203   9.177   9.798
    5        0.420   0.203   9.175   9.798
    6        0.418   0.203   9.177   9.798
    7        0.416   0.203   9.178   9.797
    8        0.416   0.203   9.178   9.797
    9        0.411   0.204   9.178   9.793
   10        0.412   0.267   9.163   9.842
   11        0.404   0.274   9.165   9.843
   12        0.414   0.266   9.164   9.843
   13        0.405   0.272   9.167   9.844
   14        0.404   0.273   9.167   9.844
   15        0.405   0.266   9.167   9.839
   16        0.412   0.268   9.162   9.842
   17        0.401   0.271   9.164   9.836
   18        0.401   0.271   9.164   9.836
   19        0.411   0.263   9.166   9.840
   20        0.430   0.312   9.135   9.878
   21        0.434   0.309   9.136   9.879
   22        0.393   0.276   9.165   9.834
   23        0.442   0.302   9.141   9.885
   24        0.393   0.276   9.165   9.834
   25        0.401   0.268   9.165   9.833
   26        0.400   0.269   9.164   9.833
   27        0.393   0.270   9.173   9.836
   28        0.376   0.223   9.191   9.791
   29        0.399   0.211   9.191   9.801
   30        0.400   0.213   9.188   9.801
   31        0.368   0.244   9.195   9.807
   32        0.373   0.249   9.186   9.808
   33        0.403   0.216   9.183   9.802
   34        0.405   0.218   9.180   9.802
   35        0.409   0.191   9.190   9.790
   36        0.657   0.601   5.976   7.234
   37        1.607   3.268   0.000   4.876
   38        1.556   3.493   0.000   5.048
   39        0.616   0.120   0.000   0.736
tot         18.676  16.045 326.972 361.693

  FORCE on cell =-STRESS in cart. coord.  units (eV):
  Direction    XX          YY          ZZ          XY          YZ          ZX
  Alpha Z   676.73059   676.73059   676.73059
  Ewald  179429.47948179288.46916************     3.47145     4.26678   -10.03083
  Hartree189480.35778189360.40671************     2.93092     5.42247     1.97178
  E(xc)   -2129.25609 -2129.37822 -2132.92085     0.01537     0.00247    -0.08802
  Local  ************************380039.46387    -6.26270    -9.65444     5.51492
  n-local  -393.67231  -393.92401  -391.17619    -0.01763    -0.26008    -0.88652
  augment  3251.26408  3251.49899  3254.98552    -0.00431     0.04723     0.47752
  Kinetic  5170.09040  5171.60526  5140.86172    -0.21542     0.16579     2.93809
  Fock        0.00000     0.00000     0.00000     0.00000     0.00000     0.00000
  Total      -5.04008    -5.23914     0.07437    -0.08233    -0.00978    -0.10305
  in kB      -4.65664    -4.84056     0.06872    -0.07607    -0.00903    -0.09521

 VOLUME and BASIS-vectors are now :
  energy-cutoff  :      500.00
  volume of cell :     1734.10
      direct lattice vectors                 reciprocal lattice vectors
     8.791366577  0.000000000  0.000000000     0.113747958 -0.065672414  0.000000000
     4.395683289  7.613546790  0.000000000     0.000000000  0.131344829  0.000000000
     0.000000000  0.000000000 25.907840602     0.000000000  0.000000000  0.038598354

  length of vectors
     8.791366577  8.791366577 25.907840602     0.131344829  0.131344829  0.038598354

 FORCES acting on ions
    electron-ion (+dipol)            ewald-force                    non-local-force                 convergence-correction
   -.208E-02 0.246E+00 0.282E+04   -.123E-01 -.257E+00 -.282E+04   0.570E-02 0.431E-02 -.206E+01   0.684E-02 0.155E-01 -.342E-01
   0.207E+00 0.589E+00 0.282E+04   -.408E+00 -.698E+00 -.282E+04   0.159E+00 0.143E+00 -.163E+01   0.387E-01 -.249E-01 -.518E-01
   -.196E+00 0.564E+00 0.282E+04   0.421E+00 -.677E+00 -.282E+04   -.172E+00 0.146E+00 -.163E+01   -.478E-01 -.218E-01 -.480E-01
   0.479E+00 -.578E-01 0.282E+04   -.592E+00 -.859E-01 -.282E+04   0.128E+00 0.314E-01 -.143E+01   -.647E-02 0.102E+00 -.338E-02
   -.246E-02 -.536E-01 0.283E+04   0.245E-01 0.545E-01 -.282E+04   -.217E-01 -.235E-01 -.158E+01   0.235E-02 0.260E-01 -.756E-02
   -.468E+00 -.657E-01 0.282E+04   0.567E+00 -.865E-01 -.282E+04   -.125E+00 0.401E-01 -.139E+01   0.131E-01 0.104E+00 -.344E-02
   0.119E+00 -.555E+00 0.282E+04   -.163E+00 0.786E+00 -.282E+04   0.126E+00 -.166E+00 -.162E+01   -.770E-01 -.700E-01 -.449E-01
   -.140E+00 -.577E+00 0.282E+04   0.174E+00 0.765E+00 -.282E+04   -.116E+00 -.141E+00 -.160E+01   0.806E-01 -.559E-01 -.452E-01
   -.256E-02 -.100E+00 0.282E+04   -.113E-01 0.200E+00 -.282E+04   0.236E-01 -.249E-01 -.190E+01   -.111E-01 -.736E-01 -.616E-01
   0.547E+01 0.492E+01 0.100E+04   -.494E+01 -.471E+01 -.100E+04   -.501E+00 -.269E+00 -.950E+00   -.192E-01 0.513E-01 0.333E+00
   -.158E+00 0.621E+01 0.101E+04   0.139E+00 -.637E+01 -.101E+04   0.160E-01 0.121E+00 -.197E+00   0.160E-02 0.149E-01 0.371E+00
   -.529E+01 0.484E+01 0.100E+04   0.480E+01 -.460E+01 -.100E+04   0.450E+00 -.295E+00 -.939E+00   0.294E-01 0.398E-01 0.342E+00
   0.365E+01 -.376E+01 0.101E+04   -.393E+01 0.384E+01 -.101E+04   0.267E+00 -.799E-01 -.357E+00   -.330E-01 0.205E-01 0.333E+00
   -.383E+01 -.369E+01 0.101E+04   0.409E+01 0.377E+01 -.101E+04   -.253E+00 -.726E-01 -.335E+00   0.410E-01 0.159E-01 0.326E+00
   0.119E+00 -.176E+00 0.100E+04   -.157E+00 0.760E-01 -.100E+04   0.347E-01 0.218E-01 -.638E+00   0.358E-02 0.523E-01 0.298E+00
   0.329E-02 -.634E+01 0.100E+04   0.286E-01 0.598E+01 -.100E+04   -.267E-01 0.396E+00 -.854E+00   -.802E-02 -.305E-01 0.343E+00
   0.113E+01 -.931E+00 0.100E+04   -.133E+01 0.927E+00 -.100E+04   0.932E-01 0.885E-01 -.735E+00   0.502E-01 -.698E-01 0.323E+00
   -.110E+01 -.105E+01 0.100E+04   0.130E+01 0.109E+01 -.100E+04   -.109E+00 0.464E-01 -.737E+00   -.433E-01 -.758E-01 0.328E+00
   0.110E+01 0.286E+01 -.826E+03   -.101E+01 -.285E+01 0.825E+03   -.747E-01 -.560E-01 -.219E-01   -.861E-02 0.284E-01 0.404E+00
   0.247E+01 0.801E+01 -.806E+03   -.117E+01 -.728E+01 0.806E+03   -.146E+01 -.776E+00 -.995E+00   0.849E-01 0.678E-01 0.595E+00
   -.325E+01 0.732E+01 -.809E+03   0.208E+01 -.664E+01 0.809E+03   0.136E+01 -.757E+00 -.102E+01   -.819E-01 0.617E-01 0.608E+00
   -.267E+01 -.122E+02 -.839E+03   0.203E+01 0.123E+02 0.838E+03   0.615E+00 -.145E+00 0.483E+00   0.264E-01 -.537E-01 0.351E+00
   -.958E+00 -.162E+02 -.817E+03   0.102E+01 0.146E+02 0.818E+03   -.545E-01 0.179E+01 -.103E+01   -.811E-02 -.113E+00 0.569E+00
   0.357E+01 -.113E+02 -.840E+03   -.305E+01 0.114E+02 0.840E+03   -.510E+00 -.151E+00 0.473E+00   -.290E-01 -.552E-01 0.353E+00
   0.342E+01 0.838E+01 -.855E+03   -.326E+01 -.825E+01 0.854E+03   -.563E-01 -.852E-01 0.379E+00   -.226E-01 0.754E-03 0.393E+00
   -.312E+01 0.944E+01 -.855E+03   0.301E+01 -.928E+01 0.854E+03   0.292E-01 -.110E+00 0.372E+00   0.644E-02 0.207E-02 0.394E+00
   -.266E+00 0.367E+01 -.849E+03   0.255E+00 -.415E+01 0.848E+03   0.164E-01 0.458E+00 0.973E+00   -.553E-02 0.447E-01 0.389E+00
   0.162E+01 0.129E+03 -.260E+04   -.158E+01 -.131E+03 0.260E+04   -.264E-01 0.132E+01 0.225E+01   -.277E-02 0.184E-01 0.242E+00
   -.821E+01 0.737E+02 -.268E+04   0.839E+01 -.745E+02 0.268E+04   -.456E+00 0.113E+00 0.247E+01   0.143E+00 0.218E+00 0.223E+00
   0.709E+01 0.652E+02 -.269E+04   -.738E+01 -.656E+02 0.268E+04   0.547E+00 -.140E+00 0.237E+01   -.151E+00 0.211E+00 0.216E+00
   -.567E+02 -.629E+02 -.259E+04   0.578E+02 0.636E+02 0.258E+04   -.129E+01 -.458E+00 0.187E+01   0.237E+00 -.569E-02 0.198E+00
   0.700E+02 -.629E+02 -.259E+04   -.716E+02 0.636E+02 0.259E+04   0.168E+01 -.470E+00 0.164E+01   -.245E+00 -.823E-02 0.189E+00
   0.176E+02 -.469E+02 -.270E+04   -.179E+02 0.472E+02 0.269E+04   -.534E-01 0.263E+00 0.206E+01   0.936E-01 -.222E+00 0.230E+00
   -.188E+02 -.392E+02 -.270E+04   0.190E+02 0.392E+02 0.270E+04   0.130E+00 0.512E+00 0.194E+01   -.108E+00 -.226E+00 0.227E+00
   0.166E+01 -.427E+02 -.269E+04   -.159E+01 0.435E+02 0.269E+04   -.601E-01 -.582E+00 0.235E+01   -.843E-02 0.882E-02 0.254E+00
   -.177E+02 -.125E+02 -.168E+04   0.179E+02 0.127E+02 0.168E+04   -.456E-01 -.683E-01 0.175E+01   -.432E-02 -.124E-01 0.308E+00
   -.269E+01 -.367E+01 -.186E+04   0.479E+00 0.257E+01 0.189E+04   0.218E+01 0.109E+01 -.328E+02   0.346E-01 0.142E-01 -.305E+00
   0.248E+01 0.357E+01 -.181E+04   -.189E+01 -.602E+01 0.179E+04   -.589E+00 0.247E+01 0.263E+02   -.667E-03 -.120E-01 -.774E-02
   0.143E+01 -.407E+01 -.368E+03   -.153E+01 0.450E+01 0.376E+03   0.965E-01 -.430E+00 -.812E+01   0.130E-03 0.425E-03 -.232E-02
   -.194E+01 -.378E+01 0.833E+01   0.717E-13 0.400E-13 0.921E-11   0.196E+01 0.374E+01 -.168E+02   -.280E-01 -.118E-01 0.853E+01

 POSITION                                       TOTAL-FORCE (eV/Angst)
      0.00000      0.00000      5.28219        -0.001674      0.010082     -0.042788
      2.93046      0.00000      5.28219        -0.003534      0.009750      0.031039
      5.86091      0.00000      5.28219         0.005711      0.011978      0.032160
      1.46523      2.53785      5.28219         0.009393     -0.009205      0.006235
      4.39568      2.53785      5.28219         0.002896      0.004432     -0.002467
      7.32614      2.53785      5.28219        -0.012572     -0.007012      0.009998
      2.93046      5.07570      5.28219         0.005280     -0.003747      0.023122
      5.86091      5.07570      5.28219        -0.001393     -0.007547      0.024401
      8.79137      5.07570      5.28219        -0.001151      0.001911      0.015396
      1.46523      0.84595      7.67490         0.007034     -0.005637     -0.015407
      4.39568      0.84595      7.67490        -0.001242     -0.027485     -0.051046
      7.32614      0.84595      7.67490        -0.004200     -0.009011     -0.028277
      2.93046      3.38380      7.67490        -0.042993      0.025275     -0.071568
      5.86091      3.38380      7.67490         0.048910      0.027342     -0.062454
      8.79137      3.38380      7.67490         0.000745     -0.024819     -0.017861
      4.39568      5.92165      7.67490        -0.002672      0.004466     -0.010847
      7.32614      5.92165      7.67490        -0.050436      0.015257      0.019633
     10.25659      5.92165      7.67490         0.050330      0.011508      0.019318
      8.79137      1.69824     10.07044         0.002312     -0.011255     -0.116794
      2.93075      1.69207     10.02201        -0.073332      0.022703     -0.036561
      5.86061      1.69207     10.02201         0.107369     -0.004099     -0.079315
     10.25044      4.23330     10.05478         0.003020     -0.069334      0.023154
      4.39568      4.22940     10.02201        -0.001675      0.047297     -0.170430
      7.33230      4.23330     10.05478        -0.015000     -0.070405      0.016260
     11.71633      6.76443     10.07044         0.075674      0.046165      0.047753
      5.86640      6.76443     10.07044        -0.078773      0.046049      0.055500
      8.79137      6.76048     10.05478         0.000418      0.020154     -0.027938
      0.00000      0.00000     12.42728         0.004147     -0.495100      0.044207
      2.96092      0.05748     12.44843        -0.131735     -0.483709     -0.220295
      5.83045      0.05748     12.44843         0.114844     -0.417152     -0.221178
      1.53024      2.53549     12.44843         0.078675      0.222549     -0.095384
      7.26113      2.53549     12.44843        -0.230226      0.207125     -0.065514
      2.96500      5.02058     12.44843        -0.215737      0.370732     -0.216563
      5.82636      5.02058     12.44843         0.209890      0.308325     -0.216481
      8.79137      5.07570     12.42122         0.003005      0.184329     -0.043778
      4.39568      2.53785     12.20312         0.132923      0.047838      1.526290
      4.25413      2.46888     13.93326         0.006108      0.000780     -0.072583
      8.78839      1.74537     13.94299         0.001286      0.002722     -0.006724
      8.77644      1.79766     14.91454        -0.001626     -0.003251     -0.002213
    total drift:                               -0.008369     -0.042580      0.013318

  FREE ENERGIE OF THE ION-ELECTRON SYSTEM (eV)
  free  energy   TOTEN  =      -114.41683688 eV

  energy  without entropy=     -114.41683688  energy(sigma->0) =     -114.41683688

 stress matrix after NEB project (eV)
     -5.04008     -0.08233     -0.10305
     -0.08233     -5.23914     -0.00978
     -0.10305     -0.00978      0.07437
  FORCES: max atom, RMS     0.072844    0.011744
  FORCE total and by dimension    0.073339    0.072583
  Stress total and by dimension    7.272650    5.239136
|           W    W    AA    RRRRR   N    N  II  N    N   GGGG   !!!           |
|           W    W   A  A   R    R  NN   N  II  NN   N  G    G  !!!           |
|           W    W  A    A  R    R  N N  N  II  N N  N  G       !!!           |
|           W WW W  AAAAAA  RRRRR   N  N N  II  N  N N  G  GGG   !            |
|           WW  WW  A    A  R   R   N   NN  II  N   NN  G    G                |
|           W    W  A    A  R    R  N    N  II  N    N   GGGG   !!!           |
|     Tetrahedron method does not include variations of the Fermi             |
|     occupations, so forces and stress will be inaccurate. We suggest        |
|     using a different smearing scheme ISMEAR = 1 or 2 for metals in         |
|     relaxations.                                                            |

 total charge

# of ion       s       p       d       tot
    1        0.418   0.201   9.179   9.798
    2        0.417   0.204   9.178   9.798
    3        0.417   0.204   9.177   9.798
    4        0.419   0.203   9.177   9.798
    5        0.420   0.203   9.175   9.798
    6        0.418   0.203   9.177   9.798
    7        0.416   0.203   9.178   9.797
    8        0.416   0.203   9.178   9.797
    9        0.411   0.204   9.178   9.793
   10        0.412   0.267   9.163   9.842
   11        0.404   0.274   9.165   9.843
   12        0.414   0.266   9.164   9.843
   13        0.405   0.272   9.167   9.844
   14        0.404   0.273   9.167   9.844
   15        0.405   0.266   9.167   9.839
   16        0.412   0.268   9.162   9.842
   17        0.401   0.271   9.164   9.836
   18        0.401   0.271   9.164   9.836
   19        0.411   0.263   9.166   9.840
   20        0.430   0.312   9.135   9.878
   21        0.434   0.309   9.136   9.879
   22        0.393   0.276   9.165   9.834
   23        0.442   0.302   9.141   9.885
   24        0.393   0.276   9.165   9.834
   25        0.401   0.268   9.165   9.833
   26        0.400   0.269   9.164   9.833
   27        0.393   0.270   9.173   9.836
   28        0.376   0.223   9.191   9.791
   29        0.399   0.211   9.191   9.801
   30        0.400   0.213   9.188   9.801
   31        0.368   0.244   9.195   9.807
   32        0.373   0.249   9.186   9.808
   33        0.403   0.216   9.183   9.802
   34        0.405   0.218   9.180   9.802
   35        0.409   0.191   9.190   9.790
   36        0.657   0.601   5.976   7.234
   37        1.607   3.268   0.000   4.876
   38        1.556   3.493   0.000   5.048
   39        0.616   0.120   0.000   0.736
tot         18.676  16.045 326.972 361.693

 BZINTS: Fermi energy:    0.158249;  406.000000 electrons
         Band energy:-0.165934E+04;  BLOECHL correction:   -0.035938