 vasp.6.2.0 18Jan21 (build Jun 12 2021 23:27:24) complex

 executed on             LinuxIFC date 2022.05.28  02:19:46

 INCAR:
   ISMEAR = -5
   SIGMA = 0.1
   ISPIN = 1
   EDIFF = 1.d-5
   EDIFFG = -0.01
   NSW = 0
   NELM = 150
   ENCUT = 500
   ISIF = 2
   IBRION = 2
   LREAL = Auto
   ALGO = Fast
   ICHARG = 11
   LORBIT = 10
   LCHARG = .F.
   LWAVE = .F.

 POTCAR:    PAW_PBE Cu 22Jun2005
 POTCAR:    PAW_PBE Mn 06Sep2000
 POTCAR:    PAW_PBE H 15Jun2001
 POTCAR:    PAW_PBE O 08Apr2002
|           W    W    AA    RRRRR   N    N  II  N    N   GGGG   !!!           |
|           W    W   A  A   R    R  NN   N  II  NN   N  G    G  !!!           |
|           W    W  A    A  R    R  N N  N  II  N N  N  G       !!!           |
|           W WW W  AAAAAA  RRRRR   N  N N  II  N  N N  G  GGG   !            |
|           WW  WW  A    A  R   R   N   NN  II  N   NN  G    G                |
|           W    W  A    A  R    R  N    N  II  N    N   GGGG   !!!           |
|     For optimal performance we recommend to set                             |
|       NCORE = 2 up to number-of-cores-per-socket                            |
|     This setting can greatly improve the performance of VASP for DFT.       |
|     The default, NCORE=1 might be grossly inefficient on modern             |
|     multi-core architectures or massively parallel machines. Do your        |
|     Unfortunately you need to use the default for GW and RPA                |
|     calculations (for HF NCORE is supported but not extensively tested      |
|     yet).                                                                   |

 POTCAR:    PAW_PBE Cu 22Jun2005
   VRHFIN =Cu: d10 p1

   TITEL  = PAW_PBE Cu 22Jun2005
   POMASS =   63.546; ZVAL   =   11.000    mass and valenz
   ENMAX  =  295.446; ENMIN  =  221.585 eV

 POTCAR:    PAW_PBE Mn 06Sep2000
   VRHFIN =Mn: d6 s1

   TITEL  = PAW_PBE Mn 06Sep2000
   POMASS =   54.938; ZVAL   =    7.000    mass and valenz
   ENMAX  =  269.864; ENMIN  =  202.398 eV

 POTCAR:    PAW_PBE H 15Jun2001
   VRHFIN =H: ultrasoft test

   TITEL  = PAW_PBE H 15Jun2001
   POMASS =    1.000; ZVAL   =    1.000    mass and valenz
   ENMAX  =  250.000; ENMIN  =  200.000 eV

 POTCAR:    PAW_PBE O 08Apr2002
   VRHFIN =O: s2p4

   TITEL  = PAW_PBE O 08Apr2002
   POMASS =   16.000; ZVAL   =    6.000    mass and valenz
   ENMAX  =  400.000; ENMIN  =  300.000 eV

 Optimization of the real space projectors (new method)

 maximal supplied QI-value         = 16.25
 optimisation between [QCUT,QGAM] = [ 11.38, 22.75] = [ 36.24,144.96] Ry
 Optimized for a Real-space Cutoff    1.52 Angstroem

   l    n(q)    QCUT    max X(q) W(low)/X(q) W(high)/X(q)  e(spline)
   2      9    11.376     4.610    0.21E-03    0.10E-03    0.26E-06
   2      9    11.376     8.522    0.33E-03    0.16E-03    0.37E-06
   0     10    11.376    51.609    0.62E-04    0.20E-04    0.13E-06
   0     10    11.376    27.747    0.54E-04    0.20E-04    0.13E-06
   1     10    11.376    20.408    0.13E-04    0.99E-04    0.19E-06
   1     10    11.376    13.425    0.12E-04    0.87E-04    0.17E-06
 Optimization of the real space projectors (new method)

[...]

   l    n(q)    QCUT    max X(q) W(low)/X(q) W(high)/X(q)  e(spline)
   0      8    11.287    19.460    0.40E-03    0.73E-03    0.16E-06
   0      8    11.287    12.209    0.38E-03    0.70E-03    0.15E-06
   1      7    11.287     4.655    0.22E-03    0.25E-04    0.22E-06
 Optimization of the real space projectors (new method)

 maximal supplied QI-value         = 24.76
 optimisation between [QCUT,QGAM] = [ 11.39, 22.77] = [ 36.31,145.25] Ry
 Optimized for a Real-space Cutoff    1.00 Angstroem

   l    n(q)    QCUT    max X(q) W(low)/X(q) W(high)/X(q)  e(spline)
   0      7    11.387    20.381    0.39E-03    0.13E-02    0.15E-06
   0      7    11.387    15.268    0.42E-03    0.14E-02    0.17E-06
   1      6    11.387     5.964    0.41E-03    0.11E-02    0.17E-06
   1      6    11.387     5.382    0.39E-03    0.87E-03    0.15E-06
  PAW_PBE Cu 22Jun2005                  :
  PAW_PBE Mn 06Sep2000                  :
  PAW_PBE H 15Jun2001                   :
  PAW_PBE O 08Apr2002                   :

 POSCAR: Cu-Mn-H2O
  positions in direct lattice
  velocities in cartesian coordinates
 exchange correlation table for  LEXCH =        8
   RHO(1)=    0.500       N(1)  =     2000
   RHO(2)=  100.500       N(2)  =     4000

 VTST: version 3.2, (02/03/18)

 CHAIN: initializing optimizer

 OPT: Using VASP Conjugate-Gradient optimizer
 CHAIN: Read ICHAIN            0

 POSCAR: Cu-Mn-H2O
  positions in direct lattice
  velocities in cartesian coordinates

 ion  position               nearest neighbor table
   1  0.000  0.000  0.221-   7 2.57   3 2.57   4 2.57   2 2.57   6 2.57   8 2.57  12 2.57  10 2.57
                            16 2.57
   2  0.333  0.000  0.221-   8 2.57   9 2.57   5 2.57   1 2.57   3 2.57  11 2.57   4 2.57  10 2.57
                            17 2.57
   3  0.667  0.000  0.221-   1 2.57   7 2.57   6 2.57   9 2.57   2 2.57  12 2.57   5 2.57  18 2.57
                            11 2.57
   4  0.000  0.333  0.221-   5 2.57   6 2.57   1 2.57   7 2.57   2 2.57  13 2.57   9 2.57  10 2.57
                            15 2.57
   5  0.333  0.333  0.221-   4 2.57   2 2.57   7 2.57  13 2.57   8 2.57   6 2.57   3 2.57  11 2.57
                            14 2.57
   6  0.667  0.333  0.221-   4 2.57   9 2.57  15 2.57   3 2.57   1 2.57   8 2.57  14 2.57   5 2.57
                            12 2.57
   7  0.000  0.667  0.221-   1 2.57   3 2.57  16 2.57  18 2.57   4 2.57   5 2.57   8 2.57   9 2.57
                            13 2.57
   8  0.333  0.667  0.221-   9 2.57   2 2.57  17 2.57   6 2.57   1 2.57   7 2.57   5 2.57  14 2.57
                            16 2.57
   9  0.667  0.667  0.221-   8 2.57   6 2.57   2 2.57  17 2.57   3 2.57   7 2.57   4 2.57  15 2.57
                            18 2.57
  10  0.111  0.111  0.308-  20 2.55  26 2.56  19 2.56  11 2.57  12 2.57  13 2.57   1 2.57   2 2.57
                             4 2.57  15 2.57  16 2.57  17 2.57
  11  0.444  0.111  0.308-  20 2.55  21 2.55  27 2.56  10 2.57  13 2.57   2 2.57  17 2.57  14 2.57
                            12 2.57   5 2.57   3 2.57  18 2.57
  12  0.778  0.111  0.308-  21 2.55  19 2.56  25 2.56  15 2.57  10 2.57  14 2.57  18 2.57   3 2.57
                             1 2.57  16 2.57  11 2.57   6 2.57
  13  0.111  0.444  0.308-  23 2.55  20 2.55  22 2.56  16 2.57  18 2.57  10 2.57  11 2.57  14 2.57
                             5 2.57   4 2.57   7 2.57  15 2.57
  14  0.444  0.444  0.308-  21 2.55  23 2.55  24 2.56  15 2.57  17 2.57  12 2.57  16 2.57  13 2.57
                            11 2.57   6 2.57   8 2.57   5 2.57
  15  0.778  0.444  0.308-  19 2.56  24 2.56  22 2.56  14 2.57  17 2.57  12 2.57   6 2.57  18 2.57
                            10 2.57   9 2.57  13 2.57   4 2.57
  16  0.111  0.778  0.308-  23 2.55  25 2.56  26 2.56  18 2.57  13 2.57   7 2.57  14 2.57  17 2.57
                            12 2.57  10 2.57   8 2.57   1 2.57
  17  0.444  0.778  0.308-  26 2.56  27 2.56  24 2.56  14 2.57  15 2.57   8 2.57   9 2.57  11 2.57
                            16 2.57  18 2.57  10 2.57   2 2.57
  18  0.778  0.778  0.308-  25 2.56  22 2.56  27 2.56  16 2.57  13 2.57   7 2.57  15 2.57  12 2.57
                            17 2.57   9 2.57   3 2.57  11 2.57
  19  0.889  0.222  0.394-  28 2.55  15 2.56  12 2.56  10 2.56  22 2.56  24 2.56  21 2.57  20 2.57
                            25 2.57  26 2.57  32 2.57  31 2.57
  20  0.222  0.222  0.393-  36 2.48  11 2.55  13 2.55  10 2.55  29 2.56  31 2.56  23 2.56  21 2.56
                            26 2.57  19 2.57  27 2.57  22 2.57
  21  0.555  0.222  0.393-  36 2.48  14 2.55  11 2.55  12 2.55  32 2.56  30 2.56  20 2.56  23 2.56
                            19 2.57  25 2.57  24 2.57  27 2.57
  22  0.888  0.556  0.394-  35 2.55  24 2.56  27 2.56  31 2.56  33 2.56  18 2.56  15 2.56  13 2.56
                            19 2.56  25 2.56  23 2.57  20 2.57
  23  0.222  0.555  0.393-  36 2.48  13 2.55  14 2.55  16 2.55  33 2.56  34 2.56  20 2.56  21 2.56
                            25 2.57  26 2.57  22 2.57  24 2.57
  24  0.556  0.556  0.394-  35 2.55  22 2.56  27 2.56  32 2.56  34 2.56  15 2.56  17 2.56  14 2.56
                            19 2.56  26 2.56  21 2.57  23 2.57
  25  0.889  0.889  0.394-  28 2.55  18 2.56  16 2.56  12 2.56  22 2.56  27 2.56  21 2.57  23 2.57
                            19 2.57  26 2.57  33 2.57  30 2.57
  26  0.222  0.889  0.394-  28 2.55  17 2.56  10 2.56  16 2.56  27 2.56  24 2.56  20 2.57  23 2.57
                            25 2.57  19 2.57  29 2.57  34 2.57
  27  0.556  0.888  0.394-  35 2.55  24 2.56  22 2.56  29 2.56  30 2.56  17 2.56  18 2.56  11 2.56
                            26 2.56  25 2.56  20 2.57  21 2.57
  28  0.000  0.000  0.479-  25 2.55  19 2.55  26 2.55  33 2.58  30 2.58  31 2.58  29 2.58  32 2.58
                            34 2.58
  29  0.333  0.003  0.480-  31 2.54  36 2.55  30 2.55  20 2.56  27 2.56  26 2.57  28 2.58  35 2.58
                            34 2.61
  30  0.664  0.003  0.480-  32 2.54  36 2.55  29 2.55  21 2.56  27 2.56  25 2.57  28 2.58  35 2.58
                            33 2.61
  31  0.003  0.333  0.480-  29 2.54  36 2.55  33 2.55  20 2.56  22 2.56  19 2.57  28 2.58  35 2.58
                            32 2.61
  32  0.664  0.333  0.480-  30 2.54  36 2.55  34 2.55  21 2.56  24 2.56  19 2.57  28 2.58  35 2.58
                            31 2.61
  33  0.003  0.664  0.480-  34 2.54  36 2.55  31 2.55  23 2.56  22 2.56  25 2.57  28 2.58  35 2.58
                            30 2.61
  34  0.333  0.664  0.480-  33 2.54  36 2.55  32 2.55  23 2.56  24 2.56  26 2.57  28 2.58  35 2.58
                            29 2.61
  35  0.667  0.667  0.479-  24 2.55  27 2.55  22 2.55  34 2.58  32 2.58  29 2.58  30 2.58  33 2.58
                            31 2.58
  36  0.333  0.333  0.475-  39 2.17  23 2.48  20 2.48  21 2.48  31 2.55  29 2.55  33 2.55  34 2.55
                            32 2.55  30 2.55
  37  0.272  0.252  0.573-  39 0.98
  38  0.475  0.253  0.573-  39 0.98
  39  0.332  0.336  0.564-  38 0.98  37 0.98  36 2.17

  LATTYP: Found a hexagonal cell.
 ALAT       =     7.6967864036
 C/A-ratio  =     3.1535378041

  Lattice vectors:

 A1 = (  -3.8483927580,  -6.6656128093,   0.0000000000)
 A2 = (   7.6967864037,   0.0000000000,   0.0000000000)
 A3 = (   0.0000000000,   0.0000000000,  24.2721068937)

Analysis of symmetry for initial positions (statically):
 Subroutine PRICEL returns:
 Original cell was already a primitive cell.

 Routine SETGRP: Setting up the symmetry group for a
 hexagonal supercell.

 Subroutine GETGRP returns: Found  1 space group operations
 (whereof  1 operations were pure point group operations)
 out of a pool of 24 trial point group operations.

The static configuration has the point symmetry C_1 .

Analysis of symmetry for dynamics (positions and initial velocities):
 Subroutine PRICEL returns:
 Original cell was already a primitive cell.

[...]

The dynamic configuration has the point symmetry C_1 .

Analysis of constrained symmetry for selective dynamics:
 Subroutine PRICEL returns:
[...]
     41      -3.9949      2.00000
     42      -3.9880      2.00000
     43      -3.9091      2.00000
     44      -3.9066      2.00000
     45      -3.8954      2.00000
     46      -3.8686      2.00000
     47      -3.8625      2.00000
     48      -3.8500      2.00000
     49      -3.8381      2.00000
     50      -3.6614      2.00000
     51      -3.6444      2.00000
     52      -3.6415      2.00000
     53      -3.6322      2.00000
     54      -3.5823      2.00000
     55      -3.5776      2.00000
     56      -3.5640      2.00000
     57      -3.5452      2.00000
     58      -3.5425      2.00000
     59      -3.5177      2.00000
     60      -3.5018      2.00000
[...]
    238       5.5867      0.00000
    239       5.7373      0.00000
    240       5.7571      0.00000
    241       5.8535      0.00000
    242       5.9430      0.00000
    243       6.0067      0.00000
    244       6.0762      0.00000
    245       6.0930      0.00000
    246       6.3570      0.00000
    247       6.6251      0.00000
    248       6.7158      0.00000
    249       6.9666      0.00000
    250       7.0528      0.00000
    251       7.1767      0.00000
    252       7.4341      0.00000

 soft charge-density along one line, spin component           1
         0         1         2         3         4         5         6         7         8         9
 total charge-density along one line

------------------------ aborting loop because EDIFF is reached ----------------------------------------

 total charge

# of ion       s       p       d       tot
    1        0.449   0.284   9.187   9.920
    2        0.448   0.285   9.185   9.919
    3        0.448   0.285   9.185   9.919
    4        0.449   0.285   9.185   9.919
    5        0.449   0.286   9.179   9.913
    6        0.449   0.285   9.185   9.919
    7        0.448   0.285   9.186   9.919
    8        0.448   0.285   9.186   9.919
    9        0.447   0.282   9.189   9.919
   10        0.443   0.372   9.174   9.989
   11        0.443   0.366   9.184   9.993
   12        0.443   0.372   9.174   9.989
   13        0.443   0.367   9.184   9.993
   14        0.443   0.367   9.184   9.993
   15        0.439   0.369   9.177   9.986
   16        0.443   0.372   9.174   9.989
   17        0.439   0.370   9.177   9.986
   18        0.439   0.370   9.177   9.986
   19        0.441   0.368   9.181   9.991
   20        0.460   0.396   9.160  10.016
   21        0.460   0.396   9.160  10.016
   22        0.433   0.374   9.180   9.988
   23        0.460   0.396   9.160  10.017
   24        0.433   0.374   9.181   9.988
   25        0.441   0.368   9.181   9.990
   26        0.441   0.368   9.181   9.990
   27        0.434   0.374   9.181   9.989
   28        0.445   0.288   9.180   9.914
   29        0.462   0.304   9.173   9.940
   30        0.462   0.304   9.173   9.940
   31        0.463   0.303   9.173   9.939
   32        0.463   0.303   9.173   9.938
   33        0.460   0.296   9.176   9.932
   34        0.460   0.296   9.176   9.932
   35        0.439   0.291   9.182   9.913
   36        0.327   0.288   5.137   5.752
   37        0.604   0.118   0.000   0.722
   38        0.604   0.118   0.000   0.722
   39        1.569   3.603   0.000   5.173
tot         18.772  15.814 326.383 360.969

  FORCE on cell =-STRESS in cart. coord.  units (eV):
  Direction    XX          YY          ZZ          XY          YZ          ZX
  Alpha Z   781.80267   781.80267   781.80267
  Ewald  232564.22149232501.02570************     0.19558   -14.07341     0.80051
  Hartree245379.59388245367.76334************     0.02918     2.11728     0.32636
  E(xc)   -2314.61159 -2314.85731 -2319.17208     0.00071    -0.03561     0.00279
  Local  ************************491068.90113    -0.14201     5.43843    -0.96593
  n-local  -811.71329  -812.60952  -823.43759     0.01548     0.05728    -0.00108
  augment  3342.71709  3343.78515  3364.58947    -0.02318     0.31296    -0.01009
  Kinetic  3331.94680  3349.61507  3384.43525    -0.05564     6.22985    -0.15052
  Fock        0.00000     0.00000     0.00000     0.00000     0.00000     0.00000
  Total      -8.87764    -9.16618    -0.55024     0.02011     0.04677     0.00204
  in kB     -11.42223   -11.79348    -0.70796     0.02588     0.06018     0.00263

 VOLUME and BASIS-vectors are now :
  energy-cutoff  :      500.00
  volume of cell :     1245.25
      direct lattice vectors                 reciprocal lattice vectors
     7.696786404  0.000000000  0.000000000     0.129924354 -0.075011849  0.000000000
     3.848392758  6.665612809  0.000000000     0.000000000  0.150023716  0.000000000
     0.000000000  0.000000000 24.272106894     0.000000000  0.000000000  0.041199555

  length of vectors
     7.696786404  7.696786404 24.272106894     0.150023716  0.150023716  0.041199555

 FORCES acting on ions
    electron-ion (+dipol)            ewald-force                    non-local-force                 convergence-correction
   0.197E-02 0.479E-02 0.378E+04   -.329E-03 -.972E-02 -.377E+04   0.202E-03 0.163E-01 -.263E+01   -.182E-02 -.538E-02 -.310E+00
   -.295E+00 -.613E-01 0.378E+04   0.408E-01 -.390E-02 -.377E+04   0.118E+00 0.109E+00 -.179E+01   0.137E+00 -.274E-01 -.318E+00
   0.293E+00 -.725E-01 0.378E+04   -.405E-01 -.340E-02 -.377E+04   -.118E+00 0.107E+00 -.179E+01   -.135E+00 -.156E-01 -.316E+00
   -.181E+00 -.192E+00 0.378E+04   0.252E-01 0.475E-01 -.377E+04   0.138E+00 0.219E-01 -.177E+01   0.342E-01 0.113E+00 -.294E+00
   -.151E-01 -.223E-01 0.378E+04   0.788E-03 0.154E-01 -.377E+04   -.886E-02 -.102E-02 -.163E+01   0.235E-01 0.579E-02 -.257E+00
   0.191E+00 -.196E+00 0.378E+04   -.260E-01 0.472E-01 -.377E+04   -.137E+00 0.213E-01 -.177E+01   -.440E-01 0.118E+00 -.291E+00
   0.162E-01 0.255E+00 0.378E+04   -.149E-01 -.435E-01 -.377E+04   0.613E-01 -.138E+00 -.185E+01   -.541E-01 -.825E-01 -.315E+00
   -.260E-01 0.263E+00 0.378E+04   0.149E-01 -.441E-01 -.377E+04   -.634E-01 -.137E+00 -.185E+01   0.660E-01 -.896E-01 -.315E+00
   0.148E-01 0.403E-01 0.378E+04   -.108E-04 -.550E-02 -.377E+04   0.948E-02 -.197E-01 -.229E+01   -.246E-01 -.172E-01 -.305E+00
   0.698E+00 0.397E+00 0.129E+04   -.226E+00 -.128E+00 -.129E+04   -.457E+00 -.260E+00 -.107E+01   -.410E-02 -.780E-03 -.799E+00
   -.138E-01 0.123E+00 0.129E+04   0.425E-02 -.407E+00 -.129E+04   -.828E-02 0.236E+00 -.300E+00   0.182E-01 0.189E-02 -.922E+00
   -.689E+00 0.392E+00 0.129E+04   0.222E+00 -.125E+00 -.129E+04   0.457E+00 -.260E+00 -.107E+01   -.460E-03 0.175E-02 -.809E+00
   0.596E-01 -.110E+00 0.129E+04   -.350E+00 0.301E+00 -.129E+04   0.242E+00 -.161E+00 -.340E+00   0.157E-01 -.943E-02 -.924E+00
   -.792E-01 -.105E+00 0.129E+04   0.354E+00 0.299E+00 -.129E+04   -.260E+00 -.161E+00 -.338E+00   0.184E-01 -.133E-01 -.940E+00
   0.103E-01 -.381E+00 0.129E+04   -.398E-02 -.317E-01 -.129E+04   0.181E-02 0.203E+00 -.897E+00   -.810E-02 0.187E+00 -.766E+00
   0.613E-03 -.720E+00 0.129E+04   0.596E-03 0.159E+00 -.129E+04   0.555E-03 0.533E+00 -.112E+01   -.176E-02 0.136E-01 -.828E+00
   -.192E+00 0.208E+00 0.129E+04   -.109E+00 -.359E-01 -.129E+04   0.136E+00 -.769E-01 -.930E+00   0.141E+00 -.830E-01 -.781E+00
   0.193E+00 0.197E+00 0.129E+04   0.108E+00 -.312E-01 -.129E+04   -.136E+00 -.780E-01 -.931E+00   -.140E+00 -.762E-01 -.776E+00
   0.176E-01 -.179E+01 -.122E+04   -.311E-01 0.165E+01 0.122E+04   -.964E-02 0.534E-01 0.699E+00   0.236E-01 0.655E-01 -.449E+00
   -.153E+02 -.936E+01 -.122E+04   0.171E+02 0.104E+02 0.123E+04   -.132E+01 -.741E+00 -.110E+01   -.496E+00 -.293E+00 -.974E+00
   0.153E+02 -.937E+01 -.122E+04   -.171E+02 0.104E+02 0.123E+04   0.134E+01 -.741E+00 -.110E+01   0.459E+00 -.300E+00 -.980E+00
   -.943E+01 0.516E+01 -.122E+04   0.914E+01 -.501E+01 0.122E+04   0.496E+00 -.266E+00 0.564E+00   -.185E+00 0.992E-01 -.670E+00
   -.860E-02 0.174E+02 -.123E+04   0.254E-01 -.196E+02 0.123E+04   0.948E-02 0.162E+01 -.108E+01   -.267E-01 0.544E+00 -.103E+01
   0.943E+01 0.518E+01 -.122E+04   -.917E+01 -.504E+01 0.122E+04   -.513E+00 -.267E+00 0.563E+00   0.224E+00 0.107E+00 -.669E+00
   0.113E+01 0.141E+01 -.122E+04   -.101E+01 -.132E+01 0.122E+04   -.440E-01 -.830E-01 0.829E+00   -.564E-01 -.358E-02 -.456E+00
   -.113E+01 0.143E+01 -.122E+04   0.100E+01 -.135E+01 0.122E+04   0.269E-01 -.847E-01 0.828E+00   0.861E-01 0.734E-02 -.455E+00
   -.129E-01 -.101E+02 -.122E+04   0.979E-02 0.977E+01 0.122E+04   -.699E-02 0.593E+00 0.516E+00   0.105E-01 -.179E+00 -.677E+00
   0.844E-01 0.229E+01 -.368E+04   -.828E-01 -.238E+01 0.368E+04   0.843E-03 0.741E-01 0.187E+01   -.231E-02 0.237E-01 -.684E-01
   0.213E+01 0.413E+01 -.365E+04   -.126E+01 -.283E+01 0.365E+04   -.575E+00 -.764E+00 0.122E+01   -.361E+00 -.644E+00 -.238E+00
   -.222E+01 0.387E+01 -.365E+04   0.134E+01 -.257E+01 0.365E+04   0.559E+00 -.764E+00 0.122E+01   0.389E+00 -.641E+00 -.236E+00
   0.175E+01 -.308E+01 -.366E+04   -.799E-01 0.319E+01 0.366E+04   -.107E+01 -.150E+00 0.125E+01   -.720E+00 0.311E-01 -.210E+00
   -.142E+01 -.304E+01 -.366E+04   -.270E+00 0.315E+01 0.366E+04   0.106E+01 -.151E+00 0.125E+01   0.753E+00 0.358E-01 -.201E+00
   -.229E+01 0.114E+01 -.366E+04   0.282E+01 -.244E+01 0.366E+04   -.238E+00 0.787E+00 0.189E+01   -.374E+00 0.619E+00 -.196E+00
   0.222E+01 0.135E+01 -.366E+04   -.277E+01 -.266E+01 0.366E+04   0.220E+00 0.789E+00 0.188E+01   0.411E+00 0.622E+00 -.188E+00
   0.674E-01 0.126E+01 -.369E+04   -.529E-01 -.121E+01 0.368E+04   0.947E-02 -.505E-02 0.238E+01   -.243E-01 -.380E-01 -.318E-01
   -.253E+00 -.473E+01 -.217E+04   0.259E+00 0.470E+01 0.217E+04   -.427E-02 -.858E-02 0.201E+01   -.116E-02 0.995E-02 -.249E+00
   0.675E+02 0.442E+02 -.394E+03   -.741E+02 -.486E+02 0.396E+03   0.671E+01 0.445E+01 -.162E+01   -.394E-01 -.250E-01 0.820E-01
   -.675E+02 0.440E+02 -.395E+03   0.742E+02 -.484E+02 0.396E+03   -.671E+01 0.443E+01 -.169E+01   0.389E-01 -.247E-01 0.820E-01
   -.113E+00 -.568E+02 -.229E+04   0.648E-01 0.100E+03 0.228E+04   0.549E-01 -.434E+02 0.712E+01   0.145E-03 0.137E-01 0.773E+00
   -.977E-01 0.346E+02 0.223E+02   -.569E-13 -.284E-13 0.773E-11   -.392E-01 -.346E+02 -.486E+01   0.149E+00 0.503E-01 -.173E+02

 POSITION                                       TOTAL-FORCE (eV/Angst)
      0.00000      0.00000      5.37156        -0.000270      0.006455     -0.023139
      2.56560      0.00000      5.37156         0.000492      0.016348      0.054822
      5.13119      0.00000      5.37156        -0.001101      0.016224      0.054752
      1.28280      2.22187      5.37156         0.015530     -0.009509      0.056625
      3.84839      2.22187      5.37156         0.000069     -0.001759      0.025187
      6.41399      2.22187      5.37156        -0.016016     -0.009581      0.056658
      2.56560      4.44374      5.37156         0.008156     -0.007869      0.057038
      5.13119      4.44374      5.37156        -0.008839     -0.007775      0.057156
      7.69679      4.44374      5.37156        -0.000698     -0.001666      0.007687
      1.28280      0.74062      7.46636         0.010533      0.008647     -0.062860
      3.84839      0.74062      7.46636         0.000156     -0.045715     -0.072348
      6.41399      0.74062      7.46636        -0.011055      0.008603     -0.062929
      2.56560      2.96249      7.46636        -0.032357      0.020891     -0.072055
      5.13119      2.96249      7.46636         0.032769      0.020909     -0.071943
      7.69679      2.96249      7.46636        -0.000239     -0.021415     -0.028350
      3.84839      5.18437      7.46636        -0.000293     -0.013864     -0.070968
      6.41399      5.18437      7.46636        -0.024771      0.012308     -0.026584
      8.97958      5.18437      7.46636         0.024272      0.012204     -0.026590
      7.69679      1.48275      9.55327         0.000109     -0.014265     -0.014478
      2.56715      1.48214      9.54261         0.009031      0.010611     -0.052165
      5.12964      1.48214      9.54261        -0.010206      0.010601     -0.051758
      8.97640      3.70496      9.55687         0.028866     -0.017885     -0.006270
      3.84839      3.70133      9.54261        -0.000670      0.004151     -0.028187
      6.41717      3.70496      9.55687        -0.028674     -0.018004     -0.006324
     10.26108      5.92424      9.55327         0.016104      0.006718      0.000711
      5.13249      5.92424      9.55327        -0.015686      0.006580      0.000624
      7.69679      5.92131      9.55687         0.000175      0.038075     -0.018630
      0.00000      0.00000     11.63217        -0.000193      0.010534      0.037309
      2.57513      0.01976     11.64308        -0.067889     -0.101867     -0.092097
      5.12165      0.01976     11.64308         0.067843     -0.101210     -0.091357
      1.30468      2.22025     11.64308        -0.120460     -0.008890     -0.090763
      6.39211      2.22025     11.64308         0.118973     -0.008619     -0.089218
      2.57794      4.42560     11.64308        -0.079700      0.100535     -0.080326
      5.11885      4.42560     11.64308         0.079842      0.099629     -0.080212
      7.69679      4.44374     11.63403        -0.000632      0.001342      0.028069
      3.84839      2.22187     11.52902         0.000276     -0.025657      0.821313
      3.06189      1.68167     13.89591         0.009503      0.006017     -0.004451
      4.62730      1.68449     13.90401        -0.009918      0.006126     -0.008725
      3.84473      2.23659     13.69509         0.006967     -0.007956     -0.025222
    total drift:                                0.011624     -0.016379      0.109866

  FREE ENERGIE OF THE ION-ELECTRON SYSTEM (eV)
  free  energy   TOTEN  =      -143.84486986 eV

  energy  without entropy=     -143.84486986  energy(sigma->0) =     -143.84486986

 stress matrix after NEB project (eV)
     -8.87764      0.02011      0.00204
      0.02011     -9.16618      0.04677
      0.00204      0.04677     -0.55024
  FORCES: max atom, RMS     0.027349    0.005326
  FORCE total and by dimension    0.033261    0.025222
  Stress total and by dimension   12.772597    9.166177
|           W    W    AA    RRRRR   N    N  II  N    N   GGGG   !!!           |
|           W    W   A  A   R    R  NN   N  II  NN   N  G    G  !!!           |
|           W    W  A    A  R    R  N N  N  II  N N  N  G       !!!           |
|           W WW W  AAAAAA  RRRRR   N  N N  II  N  N N  G  GGG   !            |
|           WW  WW  A    A  R   R   N   NN  II  N   NN  G    G                |
|           W    W  A    A  R    R  N    N  II  N    N   GGGG   !!!           |
|     Tetrahedron method does not include variations of the Fermi             |
|     occupations, so forces and stress will be inaccurate. We suggest        |
|     using a different smearing scheme ISMEAR = 1 or 2 for metals in         |
|     relaxations.                                                            |

 total charge

# of ion       s       p       d       tot
    1        0.449   0.284   9.187   9.920
    2        0.448   0.285   9.185   9.919
    3        0.448   0.285   9.185   9.919
    4        0.449   0.285   9.185   9.919
    5        0.449   0.286   9.179   9.913
    6        0.449   0.285   9.185   9.919
    7        0.448   0.285   9.186   9.919
    8        0.448   0.285   9.186   9.919
    9        0.447   0.282   9.189   9.919
   10        0.443   0.372   9.174   9.989
   11        0.443   0.366   9.184   9.993
   12        0.443   0.372   9.174   9.989
   13        0.443   0.367   9.184   9.993
   14        0.443   0.367   9.184   9.993
   15        0.439   0.369   9.177   9.986
   16        0.443   0.372   9.174   9.989
   17        0.439   0.370   9.177   9.986
   18        0.439   0.370   9.177   9.986
   19        0.441   0.368   9.181   9.991
   20        0.460   0.396   9.160  10.016
   21        0.460   0.396   9.160  10.016
   22        0.433   0.374   9.180   9.988
   23        0.460   0.396   9.160  10.017
   24        0.433   0.374   9.181   9.988
   25        0.441   0.368   9.181   9.990
   26        0.441   0.368   9.181   9.990
   27        0.434   0.374   9.181   9.989
   28        0.445   0.288   9.180   9.914
   29        0.462   0.304   9.173   9.940
   30        0.462   0.304   9.173   9.940
   31        0.463   0.303   9.173   9.939
   32        0.463   0.303   9.173   9.938
   33        0.460   0.296   9.176   9.932
   34        0.460   0.296   9.176   9.932
   35        0.439   0.291   9.182   9.913
   36        0.327   0.288   5.137   5.752
   37        0.604   0.118   0.000   0.722
   38        0.604   0.118   0.000   0.722
   39        1.569   3.603   0.000   5.173
tot         18.772  15.814 326.383 360.969

 BZINTS: Fermi energy:   -0.219693;  400.000000 electrons
         Band energy:-0.126654E+04;  BLOECHL correction:   -0.032379