 vasp.6.2.0 18Jan21 (build Jun 12 2021 23:27:24) complex

 executed on             LinuxIFC date 2022.05.26  20:00:56

 INCAR:
   ISMEAR = -5
   SIGMA = 0.1
   ISPIN = 1
   EDIFF = 1.d-5
   EDIFFG = -0.01
   NSW = 0
   NELM = 150
   ENCUT = 500
   ISIF = 2
   IBRION = 2
   LREAL = Auto
   ALGO = Fast
   ICHARG = 11
   LORBIT = 10
   LCHARG = .F.
   LWAVE = .F.

 POTCAR:    PAW_PBE Cu 22Jun2005
 POTCAR:    PAW_PBE Mo 08Apr2002
 POTCAR:    PAW_PBE N 08Apr2002
|           W    W    AA    RRRRR   N    N  II  N    N   GGGG   !!!           |
|           W    W   A  A   R    R  NN   N  II  NN   N  G    G  !!!           |
|           W    W  A    A  R    R  N N  N  II  N N  N  G       !!!           |
|           W WW W  AAAAAA  RRRRR   N  N N  II  N  N N  G  GGG   !            |
|           WW  WW  A    A  R   R   N   NN  II  N   NN  G    G                |
|           W    W  A    A  R    R  N    N  II  N    N   GGGG   !!!           |
|     For optimal performance we recommend to set                             |
|       NCORE = 2 up to number-of-cores-per-socket                            |
|     This setting can greatly improve the performance of VASP for DFT.       |
|     The default, NCORE=1 might be grossly inefficient on modern             |
|     multi-core architectures or massively parallel machines. Do your        |
|     Unfortunately you need to use the default for GW and RPA                |
|     calculations (for HF NCORE is supported but not extensively tested      |
|     yet).                                                                   |

 POTCAR:    PAW_PBE Cu 22Jun2005
   VRHFIN =Cu: d10 p1

   TITEL  = PAW_PBE Cu 22Jun2005
   POMASS =   63.546; ZVAL   =   11.000    mass and valenz
   ENMAX  =  295.446; ENMIN  =  221.585 eV

 POTCAR:    PAW_PBE Mo 08Apr2002
   VRHFIN =Mo: 4p5s4d

   TITEL  = PAW_PBE Mo 08Apr2002
   POMASS =   95.940; ZVAL   =    6.000    mass and valenz
   ENMAX  =  224.584; ENMIN  =  168.438 eV

 POTCAR:    PAW_PBE N 08Apr2002
   VRHFIN =N: s2p3

   TITEL  = PAW_PBE N 08Apr2002
   POMASS =   14.001; ZVAL   =    5.000    mass and valenz
   ENMAX  =  400.000; ENMIN  =  300.000 eV

 Optimization of the real space projectors (new method)

 maximal supplied QI-value         = 16.25
 optimisation between [QCUT,QGAM] = [ 11.38, 22.75] = [ 36.24,144.96] Ry
 Optimized for a Real-space Cutoff    1.52 Angstroem

   l    n(q)    QCUT    max X(q) W(low)/X(q) W(high)/X(q)  e(spline)
   2      9    11.376     4.610    0.21E-03    0.10E-03    0.26E-06
   2      9    11.376     8.522    0.33E-03    0.16E-03    0.37E-06
   0     10    11.376    51.609    0.62E-04    0.20E-04    0.13E-06
   0     10    11.376    27.747    0.54E-04    0.20E-04    0.13E-06
   1     10    11.376    20.408    0.13E-04    0.99E-04    0.19E-06
   1     10    11.376    13.425    0.12E-04    0.87E-04    0.17E-06
 Optimization of the real space projectors (new method)

[...]

   l    n(q)    QCUT    max X(q) W(low)/X(q) W(high)/X(q)  e(spline)
   2     10    11.429    80.908    0.27E-03    0.78E-03    0.13E-05
   2     10    11.429    79.000    0.27E-03    0.78E-03    0.13E-05
   0     11    11.429    52.066    0.33E-04    0.97E-04    0.72E-06
   0     11    11.429    24.514    0.27E-04    0.80E-04    0.60E-06
   1     10    11.429    16.033    0.31E-04    0.17E-03    0.36E-06
   1     10    11.429    11.179    0.22E-04    0.13E-03    0.29E-06
 Optimization of the real space projectors (new method)

 maximal supplied QI-value         = 25.13
 optimisation between [QCUT,QGAM] = [ 11.31, 22.87] = [ 35.82,146.48] Ry
 Optimized for a Real-space Cutoff    1.27 Angstroem

   l    n(q)    QCUT    max X(q) W(low)/X(q) W(high)/X(q)  e(spline)
   0      9    11.310    79.467    0.75E-04    0.16E-03    0.36E-06
   0      9    11.310    66.151    0.74E-04    0.16E-03    0.36E-06
   1      8    11.310    17.416    0.35E-03    0.12E-03    0.95E-06
   1      8    11.310    12.382    0.37E-03    0.13E-03    0.98E-06
  PAW_PBE Cu 22Jun2005                  :
  PAW_PBE Mo 08Apr2002                  :
  PAW_PBE N 08Apr2002                   :

 POSCAR: Cu-Mo-N
  positions in direct lattice
  velocities in cartesian coordinates
 exchange correlation table for  LEXCH =        8
   RHO(1)=    0.500       N(1)  =     2000
   RHO(2)=  100.500       N(2)  =     4000

 VTST: version 3.2, (02/03/18)

 CHAIN: initializing optimizer

 OPT: Using VASP Conjugate-Gradient optimizer
 CHAIN: Read ICHAIN            0

 POSCAR: Cu-Mo-N
  positions in direct lattice
  velocities in cartesian coordinates

 ion  position               nearest neighbor table
   1  0.000  0.000  0.252-   7 2.57   3 2.57   4 2.57   2 2.57   6 2.57   8 2.57  12 2.57  10 2.57
                            16 2.57
   2  0.333  0.000  0.252-   8 2.57   9 2.57   5 2.57   1 2.57   3 2.57  11 2.57   4 2.57  10 2.57
                            17 2.57
   3  0.667  0.000  0.252-   1 2.57   7 2.57   6 2.57   9 2.57   2 2.57  12 2.57   5 2.57  18 2.57
                            11 2.57
   4  0.000  0.333  0.252-   5 2.57   6 2.57   1 2.57   7 2.57   2 2.57  13 2.57   9 2.57  10 2.57
                            15 2.57
   5  0.333  0.333  0.252-   4 2.57   2 2.57   7 2.57  13 2.57   8 2.57   6 2.57   3 2.57  11 2.57
                            14 2.57
   6  0.667  0.333  0.252-   4 2.57   9 2.57  15 2.57   3 2.57   1 2.57   8 2.57  14 2.57   5 2.57
                            12 2.57
   7  0.000  0.667  0.252-   1 2.57   3 2.57  16 2.57  18 2.57   4 2.57   5 2.57   8 2.57   9 2.57
                            13 2.57
   8  0.333  0.667  0.252-   9 2.57   2 2.57  17 2.57   6 2.57   1 2.57   7 2.57   5 2.57  14 2.57
                            16 2.57
   9  0.667  0.667  0.252-   8 2.57   6 2.57   2 2.57  17 2.57   3 2.57   7 2.57   4 2.57  15 2.57
                            18 2.57
  10  0.111  0.111  0.351-  20 2.55  26 2.56  19 2.56  11 2.57  12 2.57  13 2.57   1 2.57   2 2.57
                             4 2.57  15 2.57  16 2.57  17 2.57
  11  0.444  0.111  0.351-  20 2.56  21 2.56  10 2.57  13 2.57   2 2.57  17 2.57  14 2.57  12 2.57
                             5 2.57   3 2.57  18 2.57  27 2.57
  12  0.778  0.111  0.351-  21 2.55  19 2.56  25 2.56  15 2.57  10 2.57  14 2.57  18 2.57   3 2.57
                             1 2.57  16 2.57  11 2.57   6 2.57
  13  0.111  0.444  0.351-  23 2.56  20 2.56  16 2.57  18 2.57  10 2.57  11 2.57  14 2.57   5 2.57
                             4 2.57   7 2.57  15 2.57  22 2.57
  14  0.444  0.444  0.351-  21 2.56  23 2.56  15 2.57  17 2.57  12 2.57  16 2.57  13 2.57  11 2.57
                             6 2.57   8 2.57   5 2.57  24 2.57
  15  0.778  0.444  0.351-  19 2.56  14 2.57  17 2.57  12 2.57   6 2.57  18 2.57  10 2.57   9 2.57
                            13 2.57   4 2.57  24 2.57  22 2.57
  16  0.111  0.778  0.351-  23 2.55  25 2.56  26 2.56  18 2.57  13 2.57   7 2.57  14 2.57  17 2.57
                            12 2.57  10 2.57   8 2.57   1 2.57
  17  0.444  0.778  0.351-  26 2.56  14 2.57  15 2.57   8 2.57   9 2.57  11 2.57  16 2.57  18 2.57
                            10 2.57   2 2.57  27 2.57  24 2.57
  18  0.778  0.778  0.351-  25 2.56  16 2.57  13 2.57   7 2.57  15 2.57  12 2.57  17 2.57   9 2.57
                             3 2.57  11 2.57  22 2.57  27 2.57
  19  0.889  0.222  0.449-  15 2.56  12 2.56  10 2.56  21 2.56  20 2.56  22 2.57  24 2.57  25 2.57
                            26 2.57  28 2.57  32 2.58  31 2.58
  20  0.222  0.222  0.449-  10 2.55  11 2.56  13 2.56  26 2.56  19 2.56  27 2.57  22 2.57  23 2.57
                            21 2.57  36 2.58  29 2.60  31 2.60
  21  0.556  0.222  0.449-  12 2.55  14 2.56  11 2.56  19 2.56  25 2.56  24 2.57  27 2.57  20 2.57
                            23 2.57  36 2.58  32 2.60  30 2.60
  22  0.888  0.556  0.450-  24 2.56  27 2.56  35 2.56  19 2.57  25 2.57  23 2.57  20 2.57  18 2.57
                            15 2.57  13 2.57  31 2.58  33 2.58
  23  0.222  0.556  0.449-  16 2.55  13 2.56  14 2.56  25 2.56  26 2.56  22 2.57  24 2.57  20 2.57
                            21 2.57  36 2.58  33 2.60  34 2.60
  24  0.556  0.556  0.450-  22 2.56  27 2.56  35 2.56  19 2.57  26 2.57  21 2.57  23 2.57  15 2.57
                            17 2.57  14 2.57  32 2.58  34 2.58
  25  0.889  0.889  0.449-  18 2.56  12 2.56  16 2.56  21 2.56  23 2.56  22 2.57  27 2.57  19 2.57
                            26 2.57  28 2.57  33 2.58  30 2.58
  26  0.222  0.889  0.449-  17 2.56  10 2.56  16 2.56  20 2.56  23 2.56  27 2.57  24 2.57  25 2.57
                            19 2.57  28 2.57  29 2.58  34 2.58
  27  0.556  0.888  0.450-  24 2.56  22 2.56  35 2.56  26 2.57  25 2.57  20 2.57  21 2.57  17 2.57
                            18 2.57  11 2.57  29 2.58  30 2.58
  28  0.000  0.000  0.547-  33 2.56  30 2.56  31 2.56  29 2.56  32 2.56  34 2.56  25 2.57  19 2.57
                            26 2.57
  29  0.333  0.998  0.548-  34 2.54  28 2.56  35 2.56  27 2.58  31 2.58  26 2.58  36 2.58  30 2.58
                            20 2.60
  30  0.669  0.998  0.548-  33 2.54  28 2.56  35 2.56  27 2.58  32 2.58  25 2.58  36 2.58  29 2.58
                            21 2.60
  31  0.998  0.333  0.548-  32 2.54  28 2.56  35 2.56  22 2.58  29 2.58  19 2.58  36 2.58  33 2.58
                            20 2.60
  32  0.669  0.333  0.548-  31 2.54  28 2.56  35 2.56  24 2.58  30 2.58  19 2.58  36 2.58  34 2.58
                            21 2.60
  33  0.998  0.669  0.548-  30 2.54  28 2.56  35 2.56  22 2.58  34 2.58  25 2.58  36 2.58  31 2.58
                            23 2.60
  34  0.333  0.669  0.548-  29 2.54  28 2.56  35 2.56  24 2.58  33 2.58  26 2.58  36 2.58  32 2.58
                            23 2.60
  35  0.667  0.667  0.548-  34 2.56  32 2.56  29 2.56  30 2.56  33 2.56  31 2.56  24 2.56  27 2.56
                            22 2.56
  36  0.333  0.333  0.547-  37 1.72  23 2.58  20 2.58  21 2.58  31 2.58  29 2.58  33 2.58  34 2.58
                            32 2.58  30 2.58
  37  0.333  0.333  0.628-  36 1.72

  LATTYP: Found a hexagonal cell.
 ALAT       =     7.6967864036
 C/A-ratio  =     2.7653617908

  Lattice vectors:

 A1 = (  -3.8483927580,  -6.6656128093,   0.0000000000)
 A2 = (   7.6967864037,   0.0000000000,   0.0000000000)
 A3 = (   0.0000000000,   0.0000000000,  21.2843990326)

Analysis of symmetry for initial positions (statically):
 Subroutine PRICEL returns:
 Original cell was already a primitive cell.

 Routine SETGRP: Setting up the symmetry group for a
 hexagonal supercell.

 Subroutine GETGRP returns: Found  6 space group operations
 (whereof  6 operations were pure point group operations)
 out of a pool of 24 trial point group operations.

The static configuration has the point symmetry C_3v.

Analysis of symmetry for dynamics (positions and initial velocities):
 Subroutine PRICEL returns:
 Original cell was already a primitive cell.

[...]

The dynamic configuration has the point symmetry C_3v.

Analysis of constrained symmetry for selective dynamics:
 Subroutine PRICEL returns:
 Original cell was already a primitive cell.

 Routine SETGRP: Setting up the symmetry group for a
 hexagonal supercell.

 Subroutine GETGRP returns: Found  6 space group operations
[...]
     24      -4.3780      2.00000
     25      -4.2583      2.00000
     26      -4.2338      2.00000
     27      -4.1951      2.00000
     28      -4.1791      2.00000
     29      -4.1349      2.00000
     30      -4.1316      2.00000
     31      -4.1272      2.00000
     32      -4.1179      2.00000
     33      -4.1021      2.00000
     34      -4.0872      2.00000
     35      -4.0491      2.00000
     36      -4.0125      2.00000
     37      -3.9495      2.00000
     38      -3.8404      2.00000
     39      -3.8302      2.00000
     40      -3.8036      2.00000
     41      -3.7939      2.00000
     42      -3.7413      2.00000
     43      -3.7254      2.00000
     44      -3.7052      2.00000
     45      -3.6858      2.00000
     46      -3.6800      2.00000
     47      -3.5389      2.00000
     48      -3.5129      2.00000
     49      -3.5108      2.00000
     50      -3.4808      2.00000
     51      -3.4533      2.00000
     52      -3.4365      2.00000
     53      -3.4167      2.00000
     54      -3.4104      2.00000
     55      -3.3955      2.00000
     56      -3.3793      2.00000
     57      -3.3661      2.00000
     58      -3.3515      2.00000
     59      -3.3462      2.00000
     60      -3.3248      2.00000
[...]
    238       6.3654      0.00000
    239       6.4184      0.00000
    240       6.4751      0.00000
    241       7.0315      0.00000
    242       7.0406      0.00000
    243       7.0873      0.00000
    244       7.1400      0.00000
    245       7.2550      0.00000
    246       7.3650      0.00000
    247       7.4216      0.00000
    248       7.4665      0.00000
    249       7.5718      0.00000
    250       7.7600      0.00000
    251       7.8581      0.00000
    252       8.0260      0.00000

 soft charge-density along one line, spin component           1
         0         1         2         3         4         5         6         7         8         9
 total charge-density along one line

------------------------ aborting loop because EDIFF is reached ----------------------------------------

 total charge

# of ion       s       p       d       tot
    1        0.449   0.284   9.189   9.922
    2        0.449   0.285   9.186   9.920
    3        0.449   0.285   9.186   9.920
    4        0.449   0.285   9.186   9.920
    5        0.446   0.286   9.185   9.916
    6        0.449   0.285   9.186   9.920
    7        0.449   0.285   9.186   9.920
    8        0.449   0.285   9.186   9.920
    9        0.447   0.285   9.187   9.919
   10        0.441   0.371   9.177   9.989
   11        0.440   0.369   9.181   9.990
   12        0.441   0.371   9.177   9.989
   13        0.440   0.369   9.181   9.990
   14        0.440   0.369   9.181   9.990
   15        0.438   0.369   9.177   9.984
   16        0.441   0.371   9.177   9.989
   17        0.438   0.369   9.177   9.984
   18        0.438   0.369   9.177   9.984
   19        0.443   0.365   9.184   9.991
   20        0.460   0.391   9.172  10.023
   21        0.460   0.391   9.172  10.023
   22        0.432   0.374   9.177   9.983
   23        0.460   0.391   9.172  10.023
   24        0.432   0.374   9.177   9.983
   25        0.443   0.365   9.184   9.991
   26        0.443   0.365   9.184   9.991
   27        0.432   0.374   9.177   9.983
   28        0.452   0.290   9.184   9.927
   29        0.464   0.307   9.177   9.948
   30        0.464   0.307   9.177   9.948
   31        0.464   0.307   9.177   9.948
   32        0.464   0.307   9.177   9.948
   33        0.464   0.307   9.177   9.948
   34        0.464   0.307   9.177   9.948
   35        0.449   0.296   9.180   9.925
   36        0.570   0.592   4.670   5.832
   37        1.343   2.202   0.000   3.545
tot         17.597  14.498 325.979 358.074

  FORCE on cell =-STRESS in cart. coord.  units (eV):
  Direction    XX          YY          ZZ          XY          YZ          ZX
  Alpha Z   893.16553   893.16553   893.16553
  Ewald  170950.89853170950.89815************     0.00037     0.00013     0.00017
  Hartree183848.00397183848.00397************     0.00003     0.00006     0.00006
  E(xc)   -2295.60225 -2295.60177 -2301.92754    -0.00042    -0.00003    -0.00006
  Local  ************************367900.24075     0.01871    -0.00060    -0.00095
  n-local  -786.71377  -773.85233  -792.14751     6.64195    -0.09308     0.21524
  augment  3316.60121  3316.62149  3337.18993    -0.01756     0.00025     0.00047
  Kinetic  3300.84289  3303.63301  3317.12356     2.64875     1.81943    -1.26354
  Fock        0.00000     0.00000     0.00000     0.00000     0.00000     0.00000
  Total      -3.10609    -3.10609     0.14082     0.00000    -0.00000    -0.00000
  in kB      -4.55736    -4.55736     0.20662     0.00000    -0.00000    -0.00000

 VOLUME and BASIS-vectors are now :
  energy-cutoff  :      500.00
  volume of cell :     1091.97
      direct lattice vectors                 reciprocal lattice vectors
     7.696786404  0.000000000  0.000000000     0.129924354 -0.075011849  0.000000000
     3.848392758  6.665612809  0.000000000     0.000000000  0.150023716  0.000000000
     0.000000000  0.000000000 21.284399033     0.000000000  0.000000000  0.046982769

  length of vectors
     7.696786404  7.696786404 21.284399033     0.150023716  0.150023716  0.046982769

 FORCES acting on ions
    electron-ion (+dipol)            ewald-force                    non-local-force                 convergence-correction
   -.416E-04 0.166E-06 0.347E+04   0.581E-04 -.430E-05 -.346E+04   -.314E-17 0.163E-17 -.216E+01   -.354E-03 -.171E-03 -.169E-01
   -.703E+00 -.313E+00 0.346E+04   0.643E+00 0.358E+00 -.346E+04   -.280E-01 -.175E-01 -.194E+01   0.875E-01 -.244E-01 -.108E-01
   0.703E+00 -.313E+00 0.346E+04   -.643E+00 0.358E+00 -.346E+04   0.280E-01 -.175E-01 -.194E+01   -.867E-01 -.219E-01 -.984E-02
   -.623E+00 -.453E+00 0.346E+04   0.632E+00 0.378E+00 -.346E+04   -.291E-01 -.155E-01 -.194E+01   0.227E-01 0.879E-01 -.108E-01
   -.647E-04 -.499E-05 0.346E+04   0.116E-03 -.101E-04 -.346E+04   0.266E-17 -.625E-18 -.211E+01   0.121E-01 0.743E-02 -.393E-01
   0.623E+00 -.453E+00 0.346E+04   -.632E+00 0.378E+00 -.346E+04   0.291E-01 -.155E-01 -.194E+01   -.243E-01 0.891E-01 -.960E-02
   0.809E-01 0.766E+00 0.346E+04   -.115E-01 -.736E+00 -.346E+04   -.119E-02 0.330E-01 -.194E+01   -.622E-01 -.642E-01 -.968E-02
   -.808E-01 0.766E+00 0.346E+04   0.113E-01 -.736E+00 -.346E+04   0.119E-02 0.330E-01 -.194E+01   0.656E-01 -.656E-01 -.964E-02
   -.144E-03 -.328E-04 0.346E+04   0.263E-03 0.204E-04 -.346E+04   -.244E-17 0.339E-18 -.212E+01   -.131E-01 -.678E-02 0.297E-02
   -.393E+01 -.227E+01 0.115E+04   0.403E+01 0.232E+01 -.115E+04   -.209E+00 -.120E+00 -.695E+00   0.994E-01 0.574E-01 -.548E-01
   -.910E-04 -.375E+01 0.114E+04   0.190E-03 0.351E+01 -.114E+04   -.104E-07 0.156E+00 -.713E+00   0.120E-01 0.415E-01 -.131E+00
   0.393E+01 -.227E+01 0.115E+04   -.403E+01 0.232E+01 -.115E+04   0.209E+00 -.120E+00 -.695E+00   -.101E+00 0.585E-01 -.548E-01
   -.325E+01 0.187E+01 0.114E+04   0.304E+01 -.176E+01 -.114E+04   0.135E+00 -.781E-01 -.713E+00   0.424E-01 -.953E-02 -.131E+00
   0.325E+01 0.187E+01 0.114E+04   -.304E+01 -.176E+01 -.114E+04   -.135E+00 -.781E-01 -.713E+00   -.186E-01 -.111E-01 -.133E+00
   -.141E-03 -.232E+01 0.115E+04   0.297E-03 0.218E+01 -.115E+04   -.523E-08 0.786E-01 -.702E+00   -.338E-02 0.744E-01 -.948E-01
   -.918E-04 0.454E+01 0.115E+04   0.186E-03 -.465E+01 -.115E+04   -.160E-07 0.241E+00 -.695E+00   -.835E-03 -.118E+00 -.549E-01
   -.201E+01 0.116E+01 0.115E+04   0.189E+01 -.109E+01 -.115E+04   0.681E-01 -.393E-01 -.702E+00   0.635E-01 -.401E-01 -.949E-01
   0.201E+01 0.116E+01 0.115E+04   -.189E+01 -.109E+01 -.115E+04   -.681E-01 -.393E-01 -.702E+00   -.619E-01 -.374E-01 -.929E-01
   -.654E-04 -.640E+01 -.116E+04   0.710E-04 0.634E+01 0.116E+04   0.109E-08 -.163E-01 0.111E+01   -.108E-01 0.546E-01 -.237E+00
   -.476E+02 -.275E+02 -.122E+04   0.474E+02 0.273E+02 0.121E+04   -.217E+00 -.125E+00 0.586E+00   0.352E-01 0.202E-01 -.226E+00
   0.476E+02 -.275E+02 -.122E+04   -.474E+02 0.273E+02 0.121E+04   0.217E+00 -.125E+00 0.586E+00   -.540E-01 0.186E-01 -.227E+00
   -.245E+02 0.141E+02 -.118E+04   0.240E+02 -.139E+02 0.118E+04   0.475E+00 -.275E+00 0.113E+01   0.459E-01 -.252E-01 -.363E+00
   -.830E-04 0.549E+02 -.122E+04   0.150E-03 -.547E+02 0.121E+04   -.167E-07 0.250E+00 0.586E+00   -.121E-01 -.572E-01 -.227E+00
   0.245E+02 0.141E+02 -.118E+04   -.240E+02 -.139E+02 0.118E+04   -.475E+00 -.275E+00 0.113E+01   -.444E-01 -.265E-01 -.363E+00
   0.555E+01 0.320E+01 -.116E+04   -.549E+01 -.317E+01 0.116E+04   0.141E-01 0.816E-02 0.111E+01   -.635E-01 -.367E-01 -.237E+00
   -.555E+01 0.320E+01 -.116E+04   0.549E+01 -.317E+01 0.116E+04   -.141E-01 0.816E-02 0.111E+01   0.422E-01 -.365E-01 -.237E+00
   -.120E-03 -.282E+02 -.118E+04   0.240E-03 0.277E+02 0.118E+04   -.366E-07 0.549E+00 0.113E+01   0.109E-02 0.523E-01 -.363E+00
   -.400E-04 0.154E-04 -.342E+04   0.422E-04 -.321E-04 0.341E+04   0.161E-16 0.103E-18 0.187E+01   -.237E-03 -.842E-04 -.220E-01
   -.310E+02 -.557E+02 -.341E+04   0.312E+02 0.555E+02 0.341E+04   -.317E+00 -.208E+00 0.256E+01   0.376E-01 0.136E+00 0.336E-01
   0.310E+02 -.557E+02 -.341E+04   -.312E+02 0.555E+02 0.341E+04   0.317E+00 -.208E+00 0.256E+01   -.366E-01 0.138E+00 0.328E-01
   -.637E+02 0.951E+00 -.341E+04   0.637E+02 -.735E+00 0.341E+04   -.339E+00 -.170E+00 0.256E+01   0.137E+00 -.357E-01 0.336E-01
   0.637E+02 0.951E+00 -.341E+04   -.637E+02 -.736E+00 0.341E+04   0.339E+00 -.170E+00 0.256E+01   -.137E+00 -.350E-01 0.338E-01
   -.327E+02 0.547E+02 -.341E+04   0.325E+02 -.548E+02 0.341E+04   -.221E-01 0.378E+00 0.256E+01   0.101E+00 -.101E+00 0.328E-01
   0.327E+02 0.547E+02 -.341E+04   -.325E+02 -.548E+02 0.341E+04   0.221E-01 0.378E+00 0.256E+01   -.981E-01 -.101E+00 0.339E-01
   -.144E-03 -.242E-04 -.343E+04   0.251E-03 0.173E-05 0.343E+04   -.801E-18 0.432E-17 0.227E+01   -.125E-01 -.642E-02 0.950E-01
   -.307E-04 -.117E-04 -.173E+04   0.738E-04 0.151E-04 0.173E+04   -.751E-17 0.437E-17 0.860E+00   0.694E-03 0.411E-03 -.209E-02
   0.105E-03 -.490E-04 -.179E+04   0.151E-04 0.684E-05 0.181E+04   -.303E-18 -.135E-18 -.190E+02   0.137E-02 0.829E-03 -.105E+00
   -.179E-03 -.598E-04 0.177E+02   0.503E-13 0.145E-12 0.136E-10   0.295E-16 -.102E-15 -.145E+02   -.347E-01 -.231E-01 -.327E+01

 POSITION                                       TOTAL-FORCE (eV/Angst)
      0.00000      0.00000      5.37156         0.000000     -0.000000      0.030865
      2.56560      0.00000      5.37156        -0.000283      0.004533      0.055871
      5.13119      0.00000      5.37156         0.000283      0.004533      0.055871
      1.28280      2.22187      5.37156         0.003785     -0.002511      0.055871
      3.84839      2.22187      5.37156         0.000000     -0.000000      0.045419
      6.41399      2.22187      5.37156        -0.003785     -0.002511      0.055871
      2.56560      4.44374      5.37156         0.004067     -0.002022      0.055871
      5.13119      4.44374      5.37156        -0.004067     -0.002022      0.055871
      7.69679      4.44374      5.37156         0.000000     -0.000000      0.037436
      1.28280      0.74062      7.46636        -0.012416     -0.007168     -0.078637
      3.84839      0.74062      7.46636         0.000000     -0.047064     -0.043802
      6.41399      0.74062      7.46636         0.012416     -0.007168     -0.078637
      2.56560      2.96249      7.46636        -0.040759      0.023532     -0.043802
      5.13119      2.96249      7.46636         0.040759      0.023532     -0.043802
      7.69679      2.96249      7.46636        -0.000000      0.011952      0.034271
      3.84839      5.18437      7.46636        -0.000000      0.014337     -0.078637
      6.41399      5.18437      7.46636         0.010351     -0.005976      0.034271
      8.97958      5.18437      7.46636        -0.010351     -0.005976      0.034271
      7.69679      1.48128      9.55134         0.000000     -0.020639      0.038496
      2.56091      1.47854      9.54628        -0.365039     -0.210756     -0.433486
      5.13587      1.47854      9.54628         0.365039     -0.210756     -0.433486
      8.97673      3.70477      9.56818         0.063176     -0.036475      0.027220
      3.84839      3.70853      9.54628        -0.000000      0.421511     -0.433486
      6.41684      3.70477      9.56818        -0.063176     -0.036475      0.027220
     10.26235      5.92497      9.55134         0.017874      0.010319      0.038496
      5.13122      5.92497      9.55134        -0.017874      0.010319      0.038496
      7.69679      5.92169      9.56818        -0.000000      0.072950      0.027220
      0.00000      0.00000     11.64671         0.000000     -0.000000     -0.076358
      6.40484      6.65345     11.67351        -0.119253     -0.226420     -0.128639
      8.98873      6.65345     11.67351         0.119253     -0.226420     -0.128639
      8.96447      2.22003     11.67351        -0.255712      0.009934     -0.128639
      6.42910      2.22003     11.67351         0.255712      0.009934     -0.128639
     10.25642      4.45775     11.67351        -0.136459      0.216486     -0.128639
      5.13715      4.45775     11.67351         0.136459      0.216486     -0.128639
      7.69679      4.44374     11.65978         0.000000     -0.000000     -0.064185
      3.84839      2.22187     11.64991         0.000000     -0.000000      1.851805
      3.84839      2.22187     13.36602         0.000000     -0.000000     -0.020560
    total drift:                               -0.034860     -0.023140     -0.021669

  FREE ENERGIE OF THE ION-ELECTRON SYSTEM (eV)
  free  energy   TOTEN  =      -139.39465060 eV

  energy  without entropy=     -139.39465060  energy(sigma->0) =     -139.39465060

 stress matrix after NEB project (eV)
     -3.10609      0.00000     -0.00000
      0.00000     -3.10609     -0.00000
      0.00000     -0.00000      0.14082
  FORCES: max atom, RMS     0.020560    0.003380
  FORCE total and by dimension    0.020560    0.020560
  Stress total and by dimension    4.394929    3.106089
|           W    W    AA    RRRRR   N    N  II  N    N   GGGG   !!!           |
|           W    W   A  A   R    R  NN   N  II  NN   N  G    G  !!!           |
|           W    W  A    A  R    R  N N  N  II  N N  N  G       !!!           |
|           W WW W  AAAAAA  RRRRR   N  N N  II  N  N N  G  GGG   !            |
|           WW  WW  A    A  R   R   N   NN  II  N   NN  G    G                |
|           W    W  A    A  R    R  N    N  II  N    N   GGGG   !!!           |
|     Tetrahedron method does not include variations of the Fermi             |
|     occupations, so forces and stress will be inaccurate. We suggest        |
|     using a different smearing scheme ISMEAR = 1 or 2 for metals in         |
|     relaxations.                                                            |

 total charge

# of ion       s       p       d       tot
    1        0.449   0.284   9.189   9.922
    2        0.449   0.285   9.186   9.920
    3        0.449   0.285   9.186   9.920
    4        0.449   0.285   9.186   9.920
    5        0.446   0.286   9.185   9.916
    6        0.449   0.285   9.186   9.920
    7        0.449   0.285   9.186   9.920
    8        0.449   0.285   9.186   9.920
    9        0.447   0.285   9.187   9.919
   10        0.441   0.371   9.177   9.989
   11        0.440   0.369   9.181   9.990
   12        0.441   0.371   9.177   9.989
   13        0.440   0.369   9.181   9.990
   14        0.440   0.369   9.181   9.990
   15        0.438   0.369   9.177   9.984
   16        0.441   0.371   9.177   9.989
   17        0.438   0.369   9.177   9.984
   18        0.438   0.369   9.177   9.984
   19        0.443   0.365   9.184   9.991
   20        0.460   0.391   9.172  10.023
   21        0.460   0.391   9.172  10.023
   22        0.432   0.374   9.177   9.983
   23        0.460   0.391   9.172  10.023
   24        0.432   0.374   9.177   9.983
   25        0.443   0.365   9.184   9.991
   26        0.443   0.365   9.184   9.991
   27        0.432   0.374   9.177   9.983
   28        0.452   0.290   9.184   9.927
   29        0.464   0.307   9.177   9.948
   30        0.464   0.307   9.177   9.948
   31        0.464   0.307   9.177   9.948
   32        0.464   0.307   9.177   9.948
   33        0.464   0.307   9.177   9.948
   34        0.464   0.307   9.177   9.948
   35        0.449   0.296   9.180   9.925
   36        0.570   0.592   4.670   5.832
   37        1.343   2.202   0.000   3.545
tot         17.597  14.498 325.979 358.074

 BZINTS: Fermi energy:    0.010013;  396.000000 electrons
         Band energy:-0.114810E+04;  BLOECHL correction:   -0.035786