 vasp.6.2.0 18Jan21 (build Jun 12 2021 23:27:24) complex

 executed on             LinuxIFC date 2022.05.28  02:25:10

 INCAR:
   ISMEAR = -5
   SIGMA = 0.1
   ISPIN = 1
   EDIFF = 1.d-5
   EDIFFG = -0.01
   NSW = 0
   NELM = 150
   ENCUT = 500
   ISIF = 2
   IBRION = 2
   LREAL = Auto
   ALGO = Fast
   ICHARG = 11
   LORBIT = 10
   LCHARG = .F.
   LWAVE = .F.

 POTCAR:    PAW_PBE Cu 22Jun2005
 POTCAR:    PAW_PBE Ni 02Aug2007
 POTCAR:    PAW_PBE C 08Apr2002
 POTCAR:    PAW_PBE O 08Apr2002
|           W    W    AA    RRRRR   N    N  II  N    N   GGGG   !!!           |
|           W    W   A  A   R    R  NN   N  II  NN   N  G    G  !!!           |
|           W    W  A    A  R    R  N N  N  II  N N  N  G       !!!           |
|           W WW W  AAAAAA  RRRRR   N  N N  II  N  N N  G  GGG   !            |
|           WW  WW  A    A  R   R   N   NN  II  N   NN  G    G                |
|           W    W  A    A  R    R  N    N  II  N    N   GGGG   !!!           |
|     For optimal performance we recommend to set                             |
|       NCORE = 2 up to number-of-cores-per-socket                            |
|     This setting can greatly improve the performance of VASP for DFT.       |
|     The default, NCORE=1 might be grossly inefficient on modern             |
|     multi-core architectures or massively parallel machines. Do your        |
|     Unfortunately you need to use the default for GW and RPA                |
|     calculations (for HF NCORE is supported but not extensively tested      |
|     yet).                                                                   |

 POTCAR:    PAW_PBE Cu 22Jun2005
   VRHFIN =Cu: d10 p1

   TITEL  = PAW_PBE Cu 22Jun2005
   POMASS =   63.546; ZVAL   =   11.000    mass and valenz
   ENMAX  =  295.446; ENMIN  =  221.585 eV

 POTCAR:    PAW_PBE Ni 02Aug2007
   VRHFIN =Ni:

   TITEL  = PAW_PBE Ni 02Aug2007
   POMASS =   58.690; ZVAL   =   10.000    mass and valenz
   ENMAX  =  269.532; ENMIN  =  202.149 eV

 POTCAR:    PAW_PBE C 08Apr2002
   VRHFIN =C: s2p2

   TITEL  = PAW_PBE C 08Apr2002
   POMASS =   12.011; ZVAL   =    4.000    mass and valenz
   ENMAX  =  400.000; ENMIN  =  300.000 eV

 POTCAR:    PAW_PBE O 08Apr2002
   VRHFIN =O: s2p4

   TITEL  = PAW_PBE O 08Apr2002
   POMASS =   16.000; ZVAL   =    6.000    mass and valenz
   ENMAX  =  400.000; ENMIN  =  300.000 eV

 Optimization of the real space projectors (new method)

 maximal supplied QI-value         = 16.25
 optimisation between [QCUT,QGAM] = [ 11.38, 22.75] = [ 36.24,144.96] Ry
 Optimized for a Real-space Cutoff    1.52 Angstroem

   l    n(q)    QCUT    max X(q) W(low)/X(q) W(high)/X(q)  e(spline)
   2      9    11.376     4.610    0.21E-03    0.10E-03    0.26E-06
   2      9    11.376     8.522    0.33E-03    0.16E-03    0.37E-06
   0     10    11.376    51.609    0.62E-04    0.20E-04    0.13E-06
   0     10    11.376    27.747    0.54E-04    0.20E-04    0.13E-06
   1     10    11.376    20.408    0.13E-04    0.99E-04    0.19E-06
   1     10    11.376    13.425    0.12E-04    0.87E-04    0.17E-06
 Optimization of the real space projectors (new method)

[...]

   l    n(q)    QCUT    max X(q) W(low)/X(q) W(high)/X(q)  e(spline)
   0      7    11.310   115.676    0.43E-03    0.13E-02    0.19E-06
   0      7    11.310    87.132    0.43E-03    0.13E-02    0.18E-06
   1      6    11.310     4.429    0.42E-03    0.74E-03    0.11E-06
   1      6    11.310     2.733    0.34E-03    0.55E-03    0.92E-07
 Optimization of the real space projectors (new method)

 maximal supplied QI-value         = 24.76
 optimisation between [QCUT,QGAM] = [ 11.39, 22.77] = [ 36.31,145.25] Ry
 Optimized for a Real-space Cutoff    1.00 Angstroem

   l    n(q)    QCUT    max X(q) W(low)/X(q) W(high)/X(q)  e(spline)
   0      7    11.387    20.381    0.39E-03    0.13E-02    0.15E-06
   0      7    11.387    15.268    0.42E-03    0.14E-02    0.17E-06
   1      6    11.387     5.964    0.41E-03    0.11E-02    0.17E-06
   1      6    11.387     5.382    0.39E-03    0.87E-03    0.15E-06
  PAW_PBE Cu 22Jun2005                  :
  PAW_PBE Ni 02Aug2007                  :
  PAW_PBE C 08Apr2002                   :
  PAW_PBE O 08Apr2002                   :

 POSCAR: Cu-Ni-CO2
  positions in direct lattice
  velocities in cartesian coordinates
 exchange correlation table for  LEXCH =        8
   RHO(1)=    0.500       N(1)  =     2000
   RHO(2)=  100.500       N(2)  =     4000

 VTST: version 3.2, (02/03/18)

 CHAIN: initializing optimizer

 OPT: Using VASP Conjugate-Gradient optimizer
 CHAIN: Read ICHAIN            0

 POSCAR: Cu-Ni-CO2
  positions in direct lattice
  velocities in cartesian coordinates

 ion  position               nearest neighbor table
   1  0.000  0.000  0.229-   7 2.57   3 2.57   4 2.57   2 2.57   6 2.57   8 2.57  12 2.57  10 2.57
                            16 2.57
   2  0.333  0.000  0.229-   8 2.57   9 2.57   5 2.57   1 2.57   3 2.57  11 2.57   4 2.57  10 2.57
                            17 2.57
   3  0.667  0.000  0.229-   1 2.57   7 2.57   6 2.57   9 2.57   2 2.57  12 2.57   5 2.57  18 2.57
                            11 2.57
   4  0.000  0.333  0.229-   5 2.57   6 2.57   1 2.57   7 2.57   2 2.57  13 2.57   9 2.57  10 2.57
                            15 2.57
   5  0.333  0.333  0.229-   4 2.57   2 2.57   7 2.57  13 2.57   8 2.57   6 2.57   3 2.57  11 2.57
                            14 2.57
   6  0.667  0.333  0.229-   4 2.57   9 2.57  15 2.57   3 2.57   1 2.57   8 2.57  14 2.57   5 2.57
                            12 2.57
   7  0.000  0.667  0.229-   1 2.57   3 2.57  16 2.57  18 2.57   4 2.57   5 2.57   8 2.57   9 2.57
                            13 2.57
   8  0.333  0.667  0.229-   9 2.57   2 2.57  17 2.57   6 2.57   1 2.57   7 2.57   5 2.57  14 2.57
                            16 2.57
   9  0.667  0.667  0.229-   8 2.57   6 2.57   2 2.57  17 2.57   3 2.57   7 2.57   4 2.57  15 2.57
                            18 2.57
  10  0.111  0.111  0.318-  20 2.55  26 2.56  19 2.56  11 2.57  12 2.57  13 2.57   1 2.57   2 2.57
                             4 2.57  15 2.57  16 2.57  17 2.57
  11  0.444  0.111  0.318-  20 2.55  21 2.55  27 2.56  10 2.57  13 2.57   2 2.57  17 2.57  14 2.57
                            12 2.57   5 2.57   3 2.57  18 2.57
  12  0.778  0.111  0.318-  21 2.55  19 2.56  25 2.56  15 2.57  10 2.57  14 2.57  18 2.57   3 2.57
                             1 2.57  16 2.57  11 2.57   6 2.57
  13  0.111  0.444  0.318-  23 2.55  20 2.55  22 2.56  16 2.57  18 2.57  10 2.57  11 2.57  14 2.57
                             5 2.57   4 2.57   7 2.57  15 2.57
  14  0.444  0.444  0.318-  21 2.55  23 2.55  24 2.56  15 2.57  17 2.57  12 2.57  16 2.57  13 2.57
                            11 2.57   6 2.57   8 2.57   5 2.57
  15  0.778  0.444  0.318-  24 2.55  22 2.55  19 2.56  14 2.57  17 2.57  12 2.57   6 2.57  18 2.57
                            10 2.57   9 2.57  13 2.57   4 2.57
  16  0.111  0.778  0.318-  23 2.55  25 2.56  26 2.56  18 2.57  13 2.57   7 2.57  14 2.57  17 2.57
                            12 2.57  10 2.57   8 2.57   1 2.57
  17  0.444  0.778  0.318-  27 2.55  24 2.55  26 2.56  14 2.57  15 2.57   8 2.57   9 2.57  11 2.57
                            16 2.57  18 2.57  10 2.57   2 2.57
  18  0.778  0.778  0.318-  22 2.55  27 2.55  25 2.56  16 2.57  13 2.57   7 2.57  15 2.57  12 2.57
                            17 2.57   9 2.57   3 2.57  11 2.57
  19  0.889  0.223  0.407-  28 2.54  32 2.55  31 2.55  15 2.56  12 2.56  10 2.56  22 2.56  24 2.56
                            21 2.57  20 2.57  25 2.57  26 2.57
  20  0.222  0.222  0.407-  36 2.48  29 2.54  31 2.54  10 2.55  11 2.55  13 2.55  26 2.57  19 2.57
                            27 2.57  22 2.57  23 2.57  21 2.57
  21  0.556  0.222  0.407-  36 2.48  32 2.54  30 2.54  12 2.55  14 2.55  11 2.55  19 2.57  25 2.57
                            24 2.57  27 2.57  20 2.57  23 2.57
  22  0.889  0.556  0.407-  35 2.54  31 2.55  33 2.55  18 2.55  15 2.55  13 2.56  19 2.56  25 2.56
                            24 2.57  27 2.57  23 2.57  20 2.57
  23  0.222  0.556  0.407-  36 2.48  33 2.54  34 2.54  16 2.55  13 2.55  14 2.55  25 2.57  26 2.57
                            22 2.57  24 2.57  20 2.57  21 2.57
  24  0.556  0.556  0.407-  35 2.54  32 2.55  34 2.55  15 2.55  17 2.55  14 2.56  19 2.56  26 2.56
                            22 2.57  27 2.57  21 2.57  23 2.57
  25  0.889  0.889  0.407-  28 2.54  33 2.55  30 2.55  18 2.56  16 2.56  12 2.56  22 2.56  27 2.56
                            21 2.57  23 2.57  19 2.57  26 2.57
  26  0.223  0.889  0.407-  28 2.54  29 2.55  34 2.55  17 2.56  10 2.56  16 2.56  27 2.56  24 2.56
                            20 2.57  23 2.57  25 2.57  19 2.57
  27  0.556  0.889  0.407-  35 2.54  29 2.55  30 2.55  17 2.55  18 2.55  11 2.56  26 2.56  25 2.56
                            24 2.57  22 2.57  20 2.57  21 2.57
  28  0.000  0.000  0.495-  25 2.54  19 2.54  26 2.54  33 2.57  30 2.57  31 2.57  29 2.57  32 2.57
                            34 2.57
  29  0.333  0.002  0.495-  20 2.54  27 2.55  31 2.55  36 2.55  30 2.55  26 2.55  28 2.57  35 2.57
                            34 2.60
  30  0.665  0.002  0.495-  21 2.54  27 2.55  32 2.55  36 2.55  29 2.55  25 2.55  28 2.57  35 2.57
                            33 2.60
  31  0.002  0.333  0.495-  20 2.54  22 2.55  29 2.55  36 2.55  33 2.55  19 2.55  28 2.57  35 2.57
                            32 2.60
  32  0.665  0.333  0.495-  21 2.54  24 2.55  30 2.55  36 2.55  34 2.55  19 2.55  28 2.57  35 2.57
                            31 2.60
  33  0.002  0.665  0.495-  23 2.54  22 2.55  34 2.55  36 2.55  31 2.55  25 2.55  28 2.57  35 2.57
                            30 2.60
  34  0.333  0.665  0.495-  23 2.54  24 2.55  33 2.55  36 2.55  32 2.55  26 2.55  28 2.57  35 2.57
                            29 2.60
  35  0.667  0.667  0.495-  24 2.54  27 2.54  22 2.54  34 2.57  32 2.57  29 2.57  30 2.57  33 2.57
                            31 2.57
  36  0.333  0.333  0.492-  23 2.48  20 2.48  21 2.48  31 2.55  29 2.55  33 2.55  34 2.55  32 2.55
                            30 2.55
  37  0.320  0.360  0.649-  38 1.18  39 1.18
  38  0.167  0.360  0.649-  37 1.18
  39  0.473  0.360  0.649-  37 1.18

  LATTYP: Found a hexagonal cell.
 ALAT       =     7.6967864036
 C/A-ratio  =     3.0484540560

  Lattice vectors:

 A1 = (  -3.8483927580,  -6.6656128093,   0.0000000000)
 A2 = (   7.6967864037,   0.0000000000,   0.0000000000)
 A3 = (   0.0000000000,   0.0000000000,  23.4632997305)

Analysis of symmetry for initial positions (statically):
 Subroutine PRICEL returns:
 Original cell was already a primitive cell.

 Routine SETGRP: Setting up the symmetry group for a
 hexagonal supercell.

 Subroutine GETGRP returns: Found  2 space group operations
 (whereof  2 operations were pure point group operations)
 out of a pool of 24 trial point group operations.

The static configuration has the point symmetry C_1h.

Analysis of symmetry for dynamics (positions and initial velocities):
 Subroutine PRICEL returns:
 Original cell was already a primitive cell.

[...]

The dynamic configuration has the point symmetry C_1h.

Analysis of constrained symmetry for selective dynamics:
 Subroutine PRICEL returns:
[...]
     41      -4.1763      2.00000
     42      -4.1568      2.00000
     43      -4.0629      2.00000
     44      -4.0494      2.00000
     45      -3.9684      2.00000
     46      -3.9656      2.00000
     47      -3.8841      2.00000
     48      -3.8789      2.00000
     49      -3.8550      2.00000
     50      -3.8399      2.00000
     51      -3.8345      2.00000
     52      -3.8065      2.00000
     53      -3.7923      2.00000
     54      -3.6315      2.00000
     55      -3.6107      2.00000
     56      -3.6057      2.00000
     57      -3.5998      2.00000
     58      -3.5487      2.00000
     59      -3.5436      2.00000
     60      -3.5327      2.00000
[...]
    238       5.1400      0.00000
    239       5.2445      0.00000
    240       5.3528      0.00000
    241       5.4174      0.00000
    242       5.5458      0.00000
    243       5.7975      0.00000
    244       5.8259      0.00000
    245       6.0013      0.00000
    246       6.0980      0.00000
    247       6.1330      0.00000
    248       6.1664      0.00000
    249       6.2274      0.00000
    250       6.2823      0.00000
    251       6.3156      0.00000
    252       6.5349      0.00000

 soft charge-density along one line, spin component           1
         0         1         2         3         4         5         6         7         8         9
 total charge-density along one line

------------------------ aborting loop because EDIFF is reached ----------------------------------------

 total charge

# of ion       s       p       d       tot
    1        0.447   0.286   9.190   9.923
    2        0.449   0.284   9.188   9.922
    3        0.449   0.284   9.188   9.922
    4        0.449   0.284   9.189   9.922
    5        0.446   0.286   9.185   9.917
    6        0.449   0.284   9.189   9.922
    7        0.449   0.284   9.189   9.922
    8        0.449   0.284   9.189   9.922
    9        0.449   0.283   9.188   9.920
   10        0.441   0.373   9.176   9.990
   11        0.443   0.368   9.182   9.993
   12        0.441   0.373   9.176   9.990
   13        0.443   0.368   9.182   9.993
   14        0.443   0.368   9.182   9.993
   15        0.440   0.370   9.180   9.990
   16        0.441   0.373   9.176   9.990
   17        0.440   0.370   9.180   9.990
   18        0.440   0.370   9.180   9.990
   19        0.442   0.373   9.183   9.998
   20        0.446   0.381   9.177  10.004
   21        0.446   0.381   9.177  10.004
   22        0.440   0.376   9.179   9.995
   23        0.446   0.381   9.177  10.004
   24        0.440   0.376   9.179   9.995
   25        0.442   0.373   9.183   9.998
   26        0.442   0.373   9.183   9.998
   27        0.440   0.376   9.179   9.995
   28        0.449   0.283   9.193   9.926
   29        0.451   0.290   9.187   9.928
   30        0.451   0.290   9.187   9.928
   31        0.450   0.288   9.188   9.926
   32        0.450   0.288   9.188   9.926
   33        0.451   0.290   9.187   9.928
   34        0.451   0.290   9.187   9.928
   35        0.447   0.285   9.193   9.925
   36        0.453   0.317   8.386   9.156
   37        0.933   1.798   0.000   2.731
   38        1.607   3.529   0.000   5.136
   39        1.607   3.529   0.000   5.136
tot         20.189  20.760 329.825 370.774

  FORCE on cell =-STRESS in cart. coord.  units (eV):
  Direction    XX          YY          ZZ          XY          YZ          ZX
  Alpha Z   834.73344   834.73344   834.73344
  Ewald  212565.66638211765.46974************     0.00041    -1.85139     0.00016
  Hartree225618.43671225238.34936************     0.00005    -1.65824     0.00007
  E(xc)   -2374.74028 -2376.84936 -2381.42238    -0.00031    -0.00051    -0.00003
  Local  ************************450359.59737     0.02061     3.50111    -0.00075
  n-local  -819.98962  -814.06349  -829.22163     1.70208    -0.01761     0.16210
  augment  3495.11394  3497.80431  3514.34503    -0.01881     0.00605     0.00037
  Kinetic  3485.48592  3550.79815  3574.51418     0.84932     0.00585    -0.13169
  Fock        0.00000     0.00000     0.00000     0.00000     0.00000     0.00000
  Total      -3.06938    -3.04968     5.18469     0.00000    -0.01475     0.00000
  in kB      -4.08529    -4.05907     6.90073     0.00000    -0.01963     0.00000

 VOLUME and BASIS-vectors are now :
  energy-cutoff  :      500.00
  volume of cell :     1203.76
      direct lattice vectors                 reciprocal lattice vectors
     7.696786404  0.000000000  0.000000000     0.129924354 -0.075011849  0.000000000
     3.848392758  6.665612809  0.000000000     0.000000000  0.150023716  0.000000000
     0.000000000  0.000000000 23.463299730     0.000000000  0.000000000  0.042619751

  length of vectors
     7.696786404  7.696786404 23.463299730     0.150023716  0.150023716  0.042619751

 FORCES acting on ions
    electron-ion (+dipol)            ewald-force                    non-local-force                 convergence-correction
   -.418E-04 0.149E-01 0.374E+04   0.578E-04 -.929E-02 -.374E+04   0.405E-09 -.609E-02 -.241E+01   -.307E-03 -.313E-03 -.908E+00
   -.487E-01 0.353E+00 0.374E+04   -.174E+00 -.196E+00 -.374E+04   0.286E-01 -.576E-01 -.198E+01   0.192E+00 -.968E-01 -.707E+00
   0.487E-01 0.353E+00 0.374E+04   0.174E+00 -.196E+00 -.374E+04   -.286E-01 -.576E-01 -.198E+01   -.191E+00 -.943E-01 -.706E+00
   0.265E+00 -.201E+00 0.374E+04   -.249E+00 -.706E-01 -.374E+04   -.277E-01 0.518E-01 -.201E+01   0.128E-01 0.214E+00 -.713E+00
   -.628E-04 0.122E-01 0.374E+04   0.116E-03 -.131E-01 -.374E+04   0.382E-09 -.573E-02 -.198E+01   0.122E-01 0.640E-02 -.714E+00
   -.265E+00 -.201E+00 0.374E+04   0.249E+00 -.707E-01 -.374E+04   0.277E-01 0.518E-01 -.201E+01   -.144E-01 0.215E+00 -.712E+00
   0.324E+00 -.153E+00 0.374E+04   -.746E-01 0.267E+00 -.374E+04   -.624E-01 0.550E-02 -.199E+01   -.180E+00 -.117E+00 -.709E+00
   -.324E+00 -.153E+00 0.374E+04   0.743E-01 0.267E+00 -.374E+04   0.624E-01 0.550E-02 -.199E+01   0.183E+00 -.118E+00 -.709E+00
   -.144E-03 -.242E-01 0.374E+04   0.263E-03 0.223E-01 -.374E+04   -.663E-09 0.996E-02 -.216E+01   -.132E-01 -.747E-02 -.648E+00
   0.195E+01 0.126E+01 0.134E+04   -.196E+01 -.128E+01 -.134E+04   -.882E-01 -.488E-01 -.849E+00   0.123E+00 0.767E-01 -.956E-01
   -.853E-04 0.177E+01 0.134E+04   0.190E-03 -.194E+01 -.134E+04   -.931E-09 0.140E-01 -.682E+00   0.117E-01 0.141E+00 -.627E-02
   -.195E+01 0.126E+01 0.134E+04   0.196E+01 -.128E+01 -.134E+04   0.882E-01 -.488E-01 -.849E+00   -.124E+00 0.782E-01 -.958E-01
   0.141E+01 -.828E+00 0.134E+04   -.155E+01 0.910E+00 -.134E+04   0.166E-01 -.139E-01 -.686E+00   0.122E+00 -.584E-01 -.279E-02
   -.141E+01 -.828E+00 0.134E+04   0.155E+01 0.910E+00 -.134E+04   -.166E-01 -.139E-01 -.686E+00   -.974E-01 -.594E-01 -.378E-02
   -.140E-03 -.452E-02 0.134E+04   0.300E-03 -.234E+00 -.134E+04   -.420E-08 0.631E-01 -.800E+00   -.353E-02 0.166E+00 -.196E+00
   -.903E-04 -.238E+01 0.134E+04   0.185E-03 0.240E+01 -.134E+04   -.674E-08 0.101E+00 -.833E+00   -.355E-03 -.145E+00 -.874E-01
   -.659E-03 -.128E+00 0.134E+04   -.213E+00 0.253E+00 -.134E+04   0.581E-01 -.321E-01 -.768E+00   0.147E+00 -.903E-01 -.191E+00
   0.760E-03 -.128E+00 0.134E+04   0.212E+00 0.253E+00 -.134E+04   -.581E-01 -.321E-01 -.768E+00   -.146E+00 -.877E-01 -.191E+00
   -.572E-04 0.195E+01 -.110E+04   0.667E-04 -.206E+01 0.110E+04   0.204E-08 -.307E-01 0.608E+00   -.108E-01 0.140E+00 0.178E-01
   0.522E+01 0.413E+01 -.108E+04   -.533E+01 -.420E+01 0.108E+04   -.307E+00 -.166E+00 -.155E+00   0.391E+00 0.228E+00 0.701E-01
   -.522E+01 0.413E+01 -.108E+04   0.533E+01 -.420E+01 0.108E+04   0.307E+00 -.166E+00 -.155E+00   -.410E+00 0.229E+00 0.698E-01
   0.237E+01 -.212E+01 -.109E+04   -.277E+01 0.237E+01 0.109E+04   0.227E+00 -.140E+00 0.598E+00   0.154E+00 -.975E-01 -.281E-02
   -.711E-04 -.687E+01 -.108E+04   0.142E-03 0.700E+01 0.108E+04   -.233E-07 0.351E+00 -.145E+00   -.101E-01 -.465E+00 0.771E-01
   -.237E+01 -.212E+01 -.109E+04   0.277E+01 0.237E+01 0.109E+04   -.227E+00 -.140E+00 0.598E+00   -.175E+00 -.979E-01 -.275E-02
   -.797E+00 -.728E+00 -.110E+04   0.881E+00 0.789E+00 0.110E+04   0.410E-01 0.308E-01 0.585E+00   -.133E+00 -.888E-01 0.235E-01
   0.797E+00 -.728E+00 -.110E+04   -.881E+00 0.789E+00 0.110E+04   -.410E-01 0.308E-01 0.585E+00   0.114E+00 -.897E-01 0.240E-01
   -.133E-03 0.238E+01 -.109E+04   0.244E-03 -.284E+01 0.109E+04   -.182E-07 0.273E+00 0.597E+00   -.110E-01 0.173E+00 -.373E-02
   -.259E-04 0.313E+01 -.352E+04   0.341E-04 -.313E+01 0.352E+04   0.909E-10 -.137E-02 0.243E+01   0.216E-04 -.361E-02 0.919E+00
   0.653E+01 0.200E+02 -.351E+04   -.624E+01 -.196E+02 0.351E+04   -.402E+00 -.505E+00 0.211E+01   0.111E+00 0.116E+00 0.806E+00
   -.653E+01 0.200E+02 -.351E+04   0.624E+01 -.196E+02 0.351E+04   0.402E+00 -.505E+00 0.211E+01   -.110E+00 0.118E+00 0.806E+00
   0.200E+02 0.226E+01 -.350E+04   -.195E+02 -.221E+01 0.349E+04   -.603E+00 -.828E-01 0.229E+01   0.161E+00 0.353E-01 0.808E+00
   -.200E+02 0.226E+01 -.350E+04   0.195E+02 -.221E+01 0.349E+04   0.603E+00 -.828E-01 0.229E+01   -.162E+00 0.364E-01 0.807E+00
   0.105E+02 -.229E+02 -.350E+04   -.103E+02 0.225E+02 0.350E+04   -.261E+00 0.588E+00 0.211E+01   0.503E-01 -.153E+00 0.806E+00
   -.105E+02 -.229E+02 -.350E+04   0.103E+02 0.225E+02 0.350E+04   0.261E+00 0.588E+00 0.211E+01   -.470E-01 -.154E+00 0.806E+00
   -.132E-03 -.695E+01 -.352E+04   0.258E-03 0.695E+01 0.351E+04   -.629E-09 0.944E-02 0.254E+01   -.129E-01 -.137E-02 0.723E+00
   -.581E-04 0.446E+01 -.309E+04   0.130E-03 -.446E+01 0.309E+04   0.290E-09 -.435E-02 0.170E+01   0.842E-02 0.917E-02 0.729E+00
   -.106E-04 0.123E+00 -.118E+04   0.309E-06 -.120E+00 0.118E+04   -.203E-09 0.304E-02 0.180E-01   0.105E-02 -.401E-02 -.305E-01
   0.256E+03 0.239E+00 -.178E+04   -.320E+03 -.244E+00 0.178E+04   0.637E+02 0.167E-01 -.166E-01   0.353E-01 -.688E-02 -.401E-01
   -.256E+03 0.239E+00 -.178E+04   0.320E+03 -.244E+00 0.178E+04   -.637E+02 0.167E-01 -.166E-01   -.410E-01 -.685E-02 -.402E-01
   0.101E-03 0.526E-02 0.261E+01   0.171E-12 0.178E-13 0.227E-12   -.456E-08 0.685E-01 -.264E+01   -.635E-01 -.628E-01 -.235E-01

 POSITION                                       TOTAL-FORCE (eV/Angst)
      0.00000      0.00000      5.37156         0.000000     -0.001095      0.101339
      2.56560      0.00000      5.37156        -0.002965      0.003554      0.081707
      5.13119      0.00000      5.37156         0.002965      0.003554      0.081707
      1.28280      2.22187      5.37156         0.002212     -0.005610      0.080689
      3.84839      2.22187      5.37156         0.000000     -0.000486      0.074446
      6.41399      2.22187      5.37156        -0.002212     -0.005610      0.080689
      2.56560      4.44374      5.37156         0.005512      0.001103      0.081298
      5.13119      4.44374      5.37156        -0.005512      0.001103      0.081298
      7.69679      4.44374      5.37156        -0.000000      0.000337      0.065536
      1.28280      0.74062      7.46636         0.022984      0.013207     -0.080799
      3.84839      0.74062      7.46636         0.000000     -0.016658     -0.110785
      6.41399      0.74062      7.46636        -0.022984      0.013207     -0.080799
      2.56560      2.96249      7.46636        -0.014777      0.009387     -0.111529
      5.13119      2.96249      7.46636         0.014777      0.009387     -0.111529
      7.69679      2.96249      7.46636         0.000000     -0.009543     -0.063956
      3.84839      5.18437      7.46636         0.000000     -0.027826     -0.078864
      6.41399      5.18437      7.46636        -0.008723      0.003642     -0.060823
      8.97958      5.18437      7.46636         0.008723      0.003642     -0.060823
      7.69679      1.48353      9.55071         0.000000     -0.003697      0.000964
      2.56540      1.48114      9.54275        -0.014420     -0.010149     -0.009222
      5.13138      1.48114      9.54275         0.014420     -0.010149     -0.009222
      8.97935      3.70325      9.54809        -0.013721      0.006700      0.002012
      3.84839      3.70334      9.54275        -0.000000      0.013621     -0.007800
      6.41422      3.70325      9.54809         0.013721      0.006700      0.002012
     10.26040      5.92385      9.55071         0.001545      0.002336     -0.004814
      5.13317      5.92385      9.55071        -0.001545      0.002336     -0.004814
      7.69679      5.92472      9.54809         0.000000     -0.015247     -0.001081
      0.00000      0.00000     11.61525         0.000000     -0.005399      0.014774
      2.57297      0.01446     11.62005         0.000215     -0.003610      0.006493
      5.12381      0.01446     11.62005        -0.000215     -0.003610      0.006493
      1.29901      2.22103     11.62005        -0.000664     -0.001984      0.016023
      6.39777      2.22103     11.62005         0.000664     -0.001984      0.016023
      2.57443      4.43012     11.62005         0.004636      0.005571      0.007189
      5.12235      4.43012     11.62005        -0.004636      0.005571      0.007189
      7.69679      4.44374     11.61370        -0.000000      0.004265      0.000596
      3.84839      2.22187     11.53520        -0.000000      0.001195     -0.027120
      3.84839      2.39784     15.22366        -0.000000      0.002036      0.007413
      2.67138      2.39769     15.22554         0.001230      0.005102      0.004045
      5.02541      2.39769     15.22554        -0.001230      0.005102      0.004045
    total drift:                               -0.063441      0.010927     -0.046628

  FREE ENERGIE OF THE ION-ELECTRON SYSTEM (eV)
  free  energy   TOTEN  =      -150.37131771 eV

  energy  without entropy=     -150.37131771  energy(sigma->0) =     -150.37131771

 stress matrix after NEB project (eV)
     -3.06938      0.00000      0.00000
      0.00000     -3.04968     -0.01474
      0.00000     -0.01475      5.18469
  FORCES: max atom, RMS     0.007687    0.001941
  FORCE total and by dimension    0.012120    0.007413
  Stress total and by dimension    6.753007    5.184692
|           W    W    AA    RRRRR   N    N  II  N    N   GGGG   !!!           |
|           W    W   A  A   R    R  NN   N  II  NN   N  G    G  !!!           |
|           W    W  A    A  R    R  N N  N  II  N N  N  G       !!!           |
|           W WW W  AAAAAA  RRRRR   N  N N  II  N  N N  G  GGG   !            |
|           WW  WW  A    A  R   R   N   NN  II  N   NN  G    G                |
|           W    W  A    A  R    R  N    N  II  N    N   GGGG   !!!           |
|     Tetrahedron method does not include variations of the Fermi             |
|     occupations, so forces and stress will be inaccurate. We suggest        |
|     using a different smearing scheme ISMEAR = 1 or 2 for metals in         |
|     relaxations.                                                            |

 total charge

# of ion       s       p       d       tot
    1        0.447   0.286   9.190   9.923
    2        0.449   0.284   9.188   9.922
    3        0.449   0.284   9.188   9.922
    4        0.449   0.284   9.189   9.922
    5        0.446   0.286   9.185   9.917
    6        0.449   0.284   9.189   9.922
    7        0.449   0.284   9.189   9.922
    8        0.449   0.284   9.189   9.922
    9        0.449   0.283   9.188   9.920
   10        0.441   0.373   9.176   9.990
   11        0.443   0.368   9.182   9.993
   12        0.441   0.373   9.176   9.990
   13        0.443   0.368   9.182   9.993
   14        0.443   0.368   9.182   9.993
   15        0.440   0.370   9.180   9.990
   16        0.441   0.373   9.176   9.990
   17        0.440   0.370   9.180   9.990
   18        0.440   0.370   9.180   9.990
   19        0.442   0.373   9.183   9.998
   20        0.446   0.381   9.177  10.004
   21        0.446   0.381   9.177  10.004
   22        0.440   0.376   9.179   9.995
   23        0.446   0.381   9.177  10.004
   24        0.440   0.376   9.179   9.995
   25        0.442   0.373   9.183   9.998
   26        0.442   0.373   9.183   9.998
   27        0.440   0.376   9.179   9.995
   28        0.449   0.283   9.193   9.926
   29        0.451   0.290   9.187   9.928
   30        0.451   0.290   9.187   9.928
   31        0.450   0.288   9.188   9.926
   32        0.450   0.288   9.188   9.926
   33        0.451   0.290   9.187   9.928
   34        0.451   0.290   9.187   9.928
   35        0.447   0.285   9.193   9.925
   36        0.453   0.317   8.386   9.156
   37        0.933   1.798   0.000   2.731
   38        1.607   3.529   0.000   5.136
   39        1.607   3.529   0.000   5.136
tot         20.189  20.760 329.825 370.774

 BZINTS: Fermi energy:   -0.223665;  411.000000 electrons
         Band energy:-0.134518E+04;  BLOECHL correction:   -0.070884