 vasp.6.2.0 18Jan21 (build Jun 12 2021 23:27:24) complex

 executed on             LinuxIFC date 2022.05.27  06:17:42

 INCAR:
   ISMEAR = -5
   SIGMA = 0.1
   ISPIN = 1
   EDIFF = 1.d-5
   EDIFFG = -0.01
   NSW = 0
   NELM = 150
   ENCUT = 500
   ISIF = 2
   IBRION = 2
   LREAL = Auto
   ALGO = Fast
   ICHARG = 11
   LORBIT = 10
   LCHARG = .F.
   LWAVE = .F.

 POTCAR:    PAW_PBE Cu 22Jun2005
 POTCAR:    PAW_PBE W 08Apr2002
 POTCAR:    PAW_PBE H 15Jun2001
|           W    W    AA    RRRRR   N    N  II  N    N   GGGG   !!!           |
|           W    W   A  A   R    R  NN   N  II  NN   N  G    G  !!!           |
|           W    W  A    A  R    R  N N  N  II  N N  N  G       !!!           |
|           W WW W  AAAAAA  RRRRR   N  N N  II  N  N N  G  GGG   !            |
|           WW  WW  A    A  R   R   N   NN  II  N   NN  G    G                |
|           W    W  A    A  R    R  N    N  II  N    N   GGGG   !!!           |
|     For optimal performance we recommend to set                             |
|       NCORE = 2 up to number-of-cores-per-socket                            |
|     This setting can greatly improve the performance of VASP for DFT.       |
|     The default, NCORE=1 might be grossly inefficient on modern             |
|     multi-core architectures or massively parallel machines. Do your        |
|     Unfortunately you need to use the default for GW and RPA                |
|     calculations (for HF NCORE is supported but not extensively tested      |
|     yet).                                                                   |

 POTCAR:    PAW_PBE Cu 22Jun2005
   VRHFIN =Cu: d10 p1

   TITEL  = PAW_PBE Cu 22Jun2005
   POMASS =   63.546; ZVAL   =   11.000    mass and valenz
   ENMAX  =  295.446; ENMIN  =  221.585 eV

 POTCAR:    PAW_PBE W 08Apr2002
   VRHFIN =W : 6s5d

   TITEL  = PAW_PBE W 08Apr2002
   POMASS =  183.850; ZVAL   =    6.000    mass and valenz
   ENMAX  =  223.057; ENMIN  =  167.293 eV

 POTCAR:    PAW_PBE H 15Jun2001
   VRHFIN =H: ultrasoft test

   TITEL  = PAW_PBE H 15Jun2001
   POMASS =    1.000; ZVAL   =    1.000    mass and valenz
   ENMAX  =  250.000; ENMIN  =  200.000 eV

 Optimization of the real space projectors (new method)

 maximal supplied QI-value         = 16.25
 optimisation between [QCUT,QGAM] = [ 11.38, 22.75] = [ 36.24,144.96] Ry
 Optimized for a Real-space Cutoff    1.52 Angstroem

   l    n(q)    QCUT    max X(q) W(low)/X(q) W(high)/X(q)  e(spline)
   2      9    11.376     4.610    0.21E-03    0.10E-03    0.26E-06
   2      9    11.376     8.522    0.33E-03    0.16E-03    0.37E-06
   0     10    11.376    51.609    0.62E-04    0.20E-04    0.13E-06
   0     10    11.376    27.747    0.54E-04    0.20E-04    0.13E-06
   1     10    11.376    20.408    0.13E-04    0.99E-04    0.19E-06
   1     10    11.376    13.425    0.12E-04    0.87E-04    0.17E-06
 Optimization of the real space projectors (new method)

[...]

   l    n(q)    QCUT    max X(q) W(low)/X(q) W(high)/X(q)  e(spline)
   2     10    11.429   130.855    0.22E-03    0.64E-03    0.11E-05
   2     10    11.429   114.007    0.22E-03    0.64E-03    0.11E-05
   0     11    11.429    84.709    0.39E-04    0.67E-04    0.23E-06
   0     11    11.429    49.163    0.35E-04    0.62E-04    0.21E-06
   1     10    11.429    15.765    0.84E-04    0.15E-03    0.24E-06
   1     10    11.429    10.638    0.58E-04    0.12E-03    0.19E-06
 Optimization of the real space projectors (new method)

 maximal supplied QI-value         = 34.20
 optimisation between [QCUT,QGAM] = [ 11.29, 22.57] = [ 35.68,142.71] Ry
 Optimized for a Real-space Cutoff    1.16 Angstroem

   l    n(q)    QCUT    max X(q) W(low)/X(q) W(high)/X(q)  e(spline)
   0      8    11.287    19.460    0.40E-03    0.73E-03    0.16E-06
   0      8    11.287    12.209    0.38E-03    0.70E-03    0.15E-06
   1      7    11.287     4.655    0.22E-03    0.25E-04    0.22E-06
  PAW_PBE Cu 22Jun2005                  :
  PAW_PBE W 08Apr2002                   :
  PAW_PBE H 15Jun2001                   :

 POSCAR: Cu-W-H2
  positions in direct lattice
  velocities in cartesian coordinates
 exchange correlation table for  LEXCH =        8
   RHO(1)=    0.500       N(1)  =     2000
   RHO(2)=  100.500       N(2)  =     4000

 VTST: version 3.2, (02/03/18)

 CHAIN: initializing optimizer

 OPT: Using VASP Conjugate-Gradient optimizer
 CHAIN: Read ICHAIN            0

 POSCAR: Cu-W-H2
  positions in direct lattice
  velocities in cartesian coordinates

 ion  position               nearest neighbor table
   1  0.000  0.000  0.252-   7 2.57   3 2.57   4 2.57   2 2.57   6 2.57   8 2.57  12 2.57  10 2.57
                            16 2.57
   2  0.333  0.000  0.252-   8 2.57   9 2.57   5 2.57   1 2.57   3 2.57  11 2.57   4 2.57  10 2.57
                            17 2.57
   3  0.667  0.000  0.252-   1 2.57   7 2.57   6 2.57   9 2.57   2 2.57  12 2.57   5 2.57  18 2.57
                            11 2.57
   4  0.000  0.333  0.252-   5 2.57   6 2.57   1 2.57   7 2.57   2 2.57  13 2.57   9 2.57  10 2.57
                            15 2.57
   5  0.333  0.333  0.252-   4 2.57   2 2.57   7 2.57  13 2.57   8 2.57   6 2.57   3 2.57  11 2.57
                            14 2.57
   6  0.667  0.333  0.252-   4 2.57   9 2.57  15 2.57   3 2.57   1 2.57   8 2.57  14 2.57   5 2.57
                            12 2.57
   7  0.000  0.667  0.252-   1 2.57   3 2.57  16 2.57  18 2.57   4 2.57   5 2.57   8 2.57   9 2.57
                            13 2.57
   8  0.333  0.667  0.252-   9 2.57   2 2.57  17 2.57   6 2.57   1 2.57   7 2.57   5 2.57  14 2.57
                            16 2.57
   9  0.667  0.667  0.252-   8 2.57   6 2.57   2 2.57  17 2.57   3 2.57   7 2.57   4 2.57  15 2.57
                            18 2.57
  10  0.111  0.111  0.351-  20 2.54  11 2.57  12 2.57  13 2.57   1 2.57   2 2.57   4 2.57  15 2.57
                            16 2.57  17 2.57  26 2.57  19 2.57
  11  0.444  0.111  0.351-  20 2.55  21 2.55  10 2.57  13 2.57   2 2.57  17 2.57  14 2.57  12 2.57
                             5 2.57   3 2.57  18 2.57  27 2.58
  12  0.778  0.111  0.351-  21 2.54  15 2.57  10 2.57  14 2.57  18 2.57   3 2.57   1 2.57  16 2.57
                            11 2.57   6 2.57  19 2.57  25 2.57
  13  0.111  0.444  0.351-  23 2.55  20 2.55  16 2.57  18 2.57  10 2.57  11 2.57  14 2.57   5 2.57
                             4 2.57   7 2.57  15 2.57  22 2.58
  14  0.444  0.444  0.351-  21 2.55  23 2.55  15 2.57  17 2.57  12 2.57  16 2.57  13 2.57  11 2.57
                             6 2.57   8 2.57   5 2.57  24 2.58
  15  0.778  0.444  0.351-  19 2.57  14 2.57  17 2.57  12 2.57   6 2.57  18 2.57  10 2.57   9 2.57
                            13 2.57   4 2.57  24 2.57  22 2.57
  16  0.111  0.778  0.351-  23 2.54  18 2.57  13 2.57   7 2.57  14 2.57  17 2.57  12 2.57  10 2.57
                             8 2.57   1 2.57  25 2.57  26 2.57
  17  0.444  0.778  0.351-  26 2.57  14 2.57  15 2.57   8 2.57   9 2.57  11 2.57  16 2.57  18 2.57
                            10 2.57   2 2.57  27 2.57  24 2.57
  18  0.778  0.778  0.351-  25 2.57  16 2.57  13 2.57   7 2.57  15 2.57  12 2.57  17 2.57   9 2.57
                             3 2.57  11 2.57  22 2.57  27 2.57
  19  0.889  0.223  0.449-  21 2.55  20 2.55  22 2.56  24 2.56  15 2.57  12 2.57  10 2.57  25 2.57
                            26 2.57  28 2.57  32 2.60  31 2.60
  20  0.221  0.221  0.448-  10 2.54  36 2.54  11 2.55  13 2.55  26 2.55  19 2.55  27 2.57  22 2.57
                            23 2.59  21 2.59  29 2.62  31 2.62
  21  0.558  0.221  0.448-  12 2.54  36 2.54  14 2.55  11 2.55  19 2.55  25 2.55  24 2.57  27 2.57
                            20 2.59  23 2.59  32 2.62  30 2.62
  22  0.888  0.556  0.450-  24 2.56  27 2.56  19 2.56  25 2.56  35 2.56  23 2.57  20 2.57  18 2.57
                            15 2.57  13 2.58  31 2.59  33 2.59
  23  0.221  0.558  0.448-  16 2.54  36 2.54  13 2.55  14 2.55  25 2.55  26 2.55  22 2.57  24 2.57
                            20 2.59  21 2.59  33 2.62  34 2.62
  24  0.556  0.556  0.450-  22 2.56  27 2.56  19 2.56  26 2.56  35 2.56  21 2.57  23 2.57  15 2.57
                            17 2.57  14 2.58  32 2.59  34 2.59
  25  0.889  0.889  0.449-  21 2.55  23 2.55  22 2.56  27 2.56  18 2.57  16 2.57  12 2.57  19 2.57
                            26 2.57  28 2.57  33 2.60  30 2.60
  26  0.223  0.889  0.449-  20 2.55  23 2.55  27 2.56  24 2.56  17 2.57  10 2.57  16 2.57  25 2.57
                            19 2.57  28 2.57  29 2.60  34 2.60
  27  0.556  0.888  0.450-  24 2.56  22 2.56  26 2.56  25 2.56  35 2.56  20 2.57  21 2.57  17 2.57
                            18 2.57  11 2.58  29 2.59  30 2.59
  28  0.000  0.000  0.548-  33 2.56  30 2.56  31 2.56  29 2.56  32 2.56  34 2.56  25 2.57  19 2.57
                            26 2.57
  29  0.333  1.000  0.550-  34 2.56  28 2.56  35 2.57  31 2.57  36 2.57  30 2.57  27 2.59  26 2.60
                            20 2.62
  30  0.667  1.000  0.550-  33 2.56  28 2.56  35 2.57  32 2.57  36 2.57  29 2.57  27 2.59  25 2.60
                            21 2.62
  31  1.000  0.333  0.550-  32 2.56  28 2.56  35 2.57  29 2.57  36 2.57  33 2.57  22 2.59  19 2.60
                            20 2.62
  32  0.667  0.333  0.550-  31 2.56  28 2.56  35 2.57  30 2.57  36 2.57  34 2.57  24 2.59  19 2.60
                            21 2.62
  33  1.000  0.667  0.550-  30 2.56  28 2.56  35 2.57  34 2.57  36 2.57  31 2.57  22 2.59  25 2.60
                            23 2.62
  34  0.333  0.667  0.550-  29 2.56  28 2.56  35 2.57  33 2.57  36 2.57  32 2.57  24 2.59  26 2.60
                            23 2.62
  35  0.667  0.667  0.548-  24 2.56  27 2.56  22 2.56  34 2.57  32 2.57  29 2.57  30 2.57  33 2.57
                            31 2.57
  36  0.333  0.333  0.545-  37 1.83  38 1.83  23 2.54  20 2.54  21 2.54  31 2.57  29 2.57  33 2.57
                            34 2.57  32 2.57  30 2.57
  37  0.273  0.333  0.628-  36 1.83
  38  0.394  0.333  0.628-  36 1.83

  LATTYP: Found a hexagonal cell.
 ALAT       =     7.6967864036
 C/A-ratio  =     2.7653617908

  Lattice vectors:

 A1 = (  -3.8483927580,  -6.6656128093,   0.0000000000)
 A2 = (   7.6967864037,   0.0000000000,   0.0000000000)
 A3 = (   0.0000000000,   0.0000000000,  21.2843990326)

Analysis of symmetry for initial positions (statically):
 Subroutine PRICEL returns:
 Original cell was already a primitive cell.

 Routine SETGRP: Setting up the symmetry group for a
 hexagonal supercell.

 Subroutine GETGRP returns: Found  2 space group operations
 (whereof  2 operations were pure point group operations)
 out of a pool of 24 trial point group operations.

The static configuration has the point symmetry C_1h.

Analysis of symmetry for dynamics (positions and initial velocities):
 Subroutine PRICEL returns:
 Original cell was already a primitive cell.

[...]

The dynamic configuration has the point symmetry C_1h.

Analysis of constrained symmetry for selective dynamics:
 Subroutine PRICEL returns:
 Original cell was already a primitive cell.

 Routine SETGRP: Setting up the symmetry group for a
 hexagonal supercell.

 Subroutine GETGRP returns: Found  2 space group operations
[...]
     33      -3.9416      2.00000
     34      -3.9224      2.00000
     35      -3.9022      2.00000
     36      -3.8400      2.00000
     37      -3.8050      2.00000
     38      -3.6587      2.00000
     39      -3.6507      2.00000
     40      -3.5988      2.00000
     41      -3.5744      2.00000
     42      -3.5701      2.00000
     43      -3.5515      2.00000
     44      -3.5420      2.00000
     45      -3.5242      2.00000
     46      -3.5204      2.00000
     47      -3.3529      2.00000
     48      -3.3294      2.00000
     49      -3.3247      2.00000
     50      -3.3067      2.00000
     51      -3.2647      2.00000
     52      -3.2571      2.00000
     53      -3.2407      2.00000
     54      -3.2320      2.00000
     55      -3.2266      2.00000
     56      -3.2200      2.00000
     57      -3.1953      2.00000
     58      -3.1773      2.00000
     59      -3.1703      2.00000
     60      -3.1673      2.00000
[...]
    238       6.7637      0.00000
    239       6.8889      0.00000
    240       6.9348      0.00000
    241       7.0138      0.00000
    242       7.0852      0.00000
    243       7.2742      0.00000
    244       7.3675      0.00000
    245       7.4450      0.00000
    246       7.5147      0.00000
    247       7.5634      0.00000
    248       7.8281      0.00000
    249       7.9239      0.00000
    250       8.1390      0.00000
    251       8.1817      0.00000
    252       8.2583      0.00000

 soft charge-density along one line, spin component           1
         0         1         2         3         4         5         6         7         8         9
 total charge-density along one line

------------------------ aborting loop because EDIFF is reached ----------------------------------------

 total charge

# of ion       s       p       d       tot
    1        0.450   0.282   9.190   9.923
    2        0.447   0.286   9.186   9.919
    3        0.447   0.286   9.186   9.919
    4        0.448   0.285   9.186   9.919
    5        0.450   0.284   9.181   9.915
    6        0.448   0.285   9.186   9.919
    7        0.447   0.285   9.187   9.919
    8        0.447   0.285   9.187   9.919
    9        0.448   0.282   9.190   9.921
   10        0.444   0.372   9.174   9.990
   11        0.444   0.364   9.185   9.993
   12        0.444   0.372   9.174   9.990
   13        0.444   0.365   9.183   9.992
   14        0.444   0.365   9.183   9.992
   15        0.438   0.369   9.176   9.982
   16        0.445   0.372   9.173   9.991
   17        0.438   0.369   9.177   9.984
   18        0.438   0.369   9.177   9.984
   19        0.440   0.366   9.179   9.985
   20        0.469   0.405   9.156  10.030
   21        0.469   0.405   9.156  10.030
   22        0.426   0.370   9.182   9.978
   23        0.473   0.405   9.155  10.033
   24        0.426   0.370   9.182   9.978
   25        0.440   0.366   9.180   9.987
   26        0.440   0.366   9.180   9.987
   27        0.428   0.368   9.184   9.980
   28        0.445   0.290   9.182   9.918
   29        0.474   0.316   9.162   9.951
   30        0.474   0.316   9.162   9.951
   31        0.469   0.318   9.162   9.948
   32        0.469   0.318   9.162   9.948
   33        0.473   0.315   9.163   9.951
   34        0.473   0.315   9.163   9.951
   35        0.441   0.291   9.184   9.916
   36        0.661   0.586   4.164   5.411
   37        0.529   0.029   0.000   0.558
   38        0.529   0.029   0.000   0.558
tot         17.461  12.419 325.338 355.218

  FORCE on cell =-STRESS in cart. coord.  units (eV):
  Direction    XX          YY          ZZ          XY          YZ          ZX
  Alpha Z   882.94128   882.94128   882.94128
  Ewald  170334.91789170318.65770************     0.00036     0.06512     0.00015
  Hartree183166.94302183164.81138************     0.00002     0.23127     0.00005
  E(xc)   -2278.58313 -2278.60626 -2283.80228    -0.00032     0.04552    -0.00003
  Local  ************************366567.23814     0.01954    -0.05217    -0.00065
  n-local  -768.74142  -767.89567  -783.47978     1.78809     0.17348     0.03320
  augment  3311.75658  3311.48281  3338.30955    -0.01833    -0.06539     0.00040
  Kinetic  3217.86816  3220.46225  3253.14645     1.12752    -0.44453    -0.09626
  Fock        0.00000     0.00000     0.00000     0.00000     0.00000     0.00000
  Total      -6.65714    -6.68373     0.40283     0.00000    -0.04670     0.00000
  in kB      -9.76758    -9.80660     0.59105     0.00000    -0.06852     0.00000

 VOLUME and BASIS-vectors are now :
  energy-cutoff  :      500.00
  volume of cell :     1091.97
      direct lattice vectors                 reciprocal lattice vectors
     7.696786404  0.000000000  0.000000000     0.129924354 -0.075011849  0.000000000
     3.848392758  6.665612809  0.000000000     0.000000000  0.150023716  0.000000000
     0.000000000  0.000000000 21.284399033     0.000000000  0.000000000  0.046982769

  length of vectors
     7.696786404  7.696786404 21.284399033     0.150023716  0.150023716  0.046982769

 FORCES acting on ions
    electron-ion (+dipol)            ewald-force                    non-local-force                 convergence-correction
   -.409E-04 -.606E-01 0.345E+04   0.581E-04 -.266E-02 -.344E+04   -.213E-08 0.321E-01 -.267E+01   -.419E-03 0.324E-01 -.254E-01
   -.834E+00 -.440E+00 0.345E+04   0.498E+00 0.187E+00 -.344E+04   0.234E+00 0.217E+00 -.177E+01   0.104E+00 0.480E-01 -.501E-01
   0.834E+00 -.440E+00 0.345E+04   -.499E+00 0.187E+00 -.344E+04   -.234E+00 0.217E+00 -.177E+01   -.103E+00 0.506E-01 -.490E-01
   -.798E+00 -.518E+00 0.345E+04   0.413E+00 0.337E+00 -.344E+04   0.252E+00 0.386E-01 -.176E+01   0.144E+00 0.136E+00 -.161E-01
   -.614E-04 -.115E+00 0.344E+04   0.116E-03 0.985E-04 -.344E+04   -.358E-08 0.538E-01 -.115E+01   0.122E-01 0.542E-01 0.832E-01
   0.798E+00 -.518E+00 0.345E+04   -.414E+00 0.337E+00 -.344E+04   -.252E+00 0.386E-01 -.176E+01   -.146E+00 0.137E+00 -.148E-01
   -.123E-01 0.101E+01 0.345E+04   -.849E-01 -.524E+00 -.344E+04   0.181E+00 -.291E+00 -.179E+01   -.767E-01 -.199E+00 -.779E-01
   0.124E-01 0.101E+01 0.345E+04   0.846E-01 -.524E+00 -.344E+04   -.181E+00 -.291E+00 -.179E+01   0.801E-01 -.201E+00 -.778E-01
   -.143E-03 0.733E-01 0.345E+04   0.263E-03 0.257E-02 -.344E+04   0.109E-08 -.163E-01 -.235E+01   -.132E-01 -.627E-01 -.113E+00
   -.752E+00 -.528E+00 0.112E+04   0.123E+01 0.690E+00 -.112E+04   -.585E+00 -.306E+00 -.117E+01   0.684E-01 0.129E+00 -.118E+00
   -.912E-04 -.269E+01 0.111E+04   0.190E-03 0.220E+01 -.111E+04   -.183E-07 0.275E+00 0.547E-02   0.124E-01 0.165E+00 -.136E+00
   0.752E+00 -.528E+00 0.112E+04   -.123E+01 0.690E+00 -.112E+04   0.585E+00 -.306E+00 -.117E+01   -.707E-01 0.131E+00 -.116E+00
   -.226E+01 0.142E+01 0.111E+04   0.193E+01 -.110E+01 -.111E+04   0.280E+00 -.192E+00 -.109E+00   0.335E-01 -.105E+00 -.121E+00
   0.226E+01 0.142E+01 0.111E+04   -.193E+01 -.110E+01 -.111E+04   -.280E+00 -.192E+00 -.109E+00   -.938E-02 -.106E+00 -.122E+00
   -.142E-03 -.173E+01 0.112E+04   0.297E-03 0.147E+01 -.112E+04   -.136E-07 0.205E+00 -.101E+01   -.379E-02 0.442E-01 -.143E+00
   -.924E-04 0.824E+00 0.112E+04   0.186E-03 -.142E+01 -.112E+04   -.464E-07 0.697E+00 -.113E+01   -.767E-03 -.692E-01 -.183E+00
   -.147E+01 0.905E+00 0.112E+04   0.126E+01 -.718E+00 -.112E+04   0.155E+00 -.960E-01 -.102E+01   0.485E-01 -.862E-01 -.181E+00
   0.147E+01 0.905E+00 0.112E+04   -.126E+01 -.719E+00 -.112E+04   -.155E+00 -.960E-01 -.102E+01   -.471E-01 -.828E-01 -.178E+00
   -.642E-04 -.662E+01 -.120E+04   0.720E-04 0.646E+01 0.120E+04   -.362E-08 0.543E-01 0.108E+01   -.128E-01 0.102E+00 -.172E+00
   -.501E+02 -.291E+02 -.124E+04   0.514E+02 0.295E+02 0.124E+04   -.138E+01 -.593E+00 -.963E+00   0.128E-01 0.971E-01 -.203E+00
   0.501E+02 -.291E+02 -.124E+04   -.514E+02 0.295E+02 0.124E+04   0.138E+01 -.593E+00 -.963E+00   -.921E-02 0.955E-01 -.204E+00
   -.294E+02 0.170E+02 -.122E+04   0.286E+02 -.164E+02 0.122E+04   0.687E+00 -.472E+00 0.703E+00   0.700E-01 -.107E+00 -.179E+00
   -.939E-04 0.577E+02 -.124E+04   0.149E-03 -.591E+02 0.124E+04   -.114E-06 0.171E+01 -.129E+01   -.197E-03 -.125E+00 -.244E+00
   0.294E+02 0.170E+02 -.122E+04   -.286E+02 -.164E+02 0.122E+04   -.687E+00 -.472E+00 0.703E+00   -.703E-01 -.110E+00 -.179E+00
   0.582E+01 0.335E+01 -.120E+04   -.566E+01 -.333E+01 0.120E+04   -.721E-01 -.408E-03 0.108E+01   -.900E-01 -.953E-02 -.163E+00
   -.582E+01 0.335E+01 -.120E+04   0.566E+01 -.333E+01 0.120E+04   0.721E-01 -.408E-03 0.108E+01   0.668E-01 -.113E-01 -.162E+00
   -.111E-03 -.340E+02 -.122E+04   0.239E-03 0.330E+02 0.122E+04   -.588E-07 0.883E+00 0.664E+00   0.130E-01 0.899E-01 -.159E+00
   -.507E-04 0.470E+00 -.343E+04   0.440E-04 -.589E+00 0.343E+04   -.126E-08 0.189E-01 0.203E+01   -.598E-03 0.709E-01 0.122E+00
   -.424E+02 -.728E+02 -.345E+04   0.434E+02 0.738E+02 0.345E+04   -.104E+01 -.117E+01 0.675E+00   0.227E-01 0.893E-01 0.111E+00
   0.424E+02 -.728E+02 -.345E+04   -.434E+02 0.738E+02 0.345E+04   0.104E+01 -.117E+01 0.675E+00   -.214E-01 0.906E-01 0.109E+00
   -.832E+02 0.113E+00 -.345E+04   0.847E+02 -.525E-01 0.344E+04   -.152E+01 -.116E+00 0.114E+01   0.562E-01 0.662E-01 0.965E-01
   0.832E+02 0.113E+00 -.345E+04   -.847E+02 -.525E-01 0.344E+04   0.152E+01 -.116E+00 0.114E+01   -.566E-01 0.665E-01 0.954E-01
   -.429E+02 0.727E+02 -.345E+04   0.436E+02 -.738E+02 0.345E+04   -.705E+00 0.126E+01 0.802E+00   -.351E-01 -.136E+00 0.156E+00
   0.429E+02 0.727E+02 -.345E+04   -.436E+02 -.738E+02 0.345E+04   0.705E+00 0.126E+01 0.802E+00   0.377E-01 -.137E+00 0.156E+00
   -.146E-03 -.495E+00 -.345E+04   0.247E-03 0.573E+00 0.344E+04   -.482E-08 0.725E-01 0.262E+01   -.124E-01 -.111E+00 0.234E+00
   -.390E-04 -.117E+00 -.180E+04   0.757E-04 0.493E-01 0.180E+04   -.414E-09 0.622E-02 0.235E+00   0.655E-03 0.340E-02 0.286E-01
   0.115E+02 -.276E-01 -.358E+03   -.141E+02 0.162E-01 0.359E+03   0.268E+01 0.600E-02 -.140E+01   -.645E-02 0.354E-02 0.136E-02
   -.115E+02 -.276E-01 -.358E+03   0.141E+02 0.162E-01 0.359E+03   -.268E+01 0.600E-02 -.140E+01   0.654E-02 0.354E-02 0.132E-02
   -.221E-03 -.623E+00 0.163E+02   0.888E-13 0.252E-12 -.119E-11   -.381E-07 0.573E+00 -.141E+02   0.375E-02 0.493E-01 -.219E+01

 POSITION                                       TOTAL-FORCE (eV/Angst)
      0.00000      0.00000      5.37156        -0.000000      0.001181     -0.066143
      2.56560      0.00000      5.37156         0.002555      0.013696      0.054139
      5.13119      0.00000      5.37156        -0.002555      0.013696      0.054139
      1.28280      2.22187      5.37156         0.012434     -0.006229      0.045627
      3.84839      2.22187      5.37156         0.000000     -0.007359      0.031547
      6.41399      2.22187      5.37156        -0.012434     -0.006229      0.045627
      2.56560      4.44374      5.37156         0.005556     -0.003347      0.063917
      5.13119      4.44374      5.37156        -0.005556     -0.003347      0.063917
      7.69679      4.44374      5.37156         0.000000     -0.003066      0.010984
      1.28280      0.74062      7.46636        -0.035685     -0.012767     -0.074306
      3.84839      0.74062      7.46636         0.000000     -0.052894     -0.064345
      6.41399      0.74062      7.46636         0.035685     -0.012767     -0.074306
      2.56560      2.96249      7.46636        -0.036407      0.023946     -0.064830
      5.13119      2.96249      7.46636         0.036407      0.023946     -0.064830
      7.69679      2.96249      7.46636         0.000000     -0.017832      0.007631
      3.84839      5.18437      7.46636        -0.000000      0.034767     -0.071204
      6.41399      5.18437      7.46636        -0.014640      0.005975      0.013623
      8.97958      5.18437      7.46636         0.014640      0.005975      0.013623
      7.69679      1.48345      9.56239         0.000000     -0.008602      0.074706
      2.55319      1.47409      9.53589        -0.118205     -0.083585     -0.213262
      5.14360      1.47409      9.53589         0.118205     -0.083585     -0.213262
      8.97438      3.70612      9.57309         0.021543     -0.015694      0.021389
      3.84839      3.71744      9.53589        -0.000000      0.181938     -0.188307
      6.41919      3.70612      9.57309        -0.021543     -0.015694      0.021389
     10.26047      5.92389      9.56239         0.007004      0.002885      0.040777
      5.13310      5.92389      9.56239        -0.007004      0.002885      0.040777
      7.69679      5.91898      9.57309        -0.000000      0.050275      0.011983
      0.00000      0.00000     11.66245         0.000000     -0.029248     -0.074273
      6.40959      6.66262     11.69844        -0.016431     -0.044204     -0.025642
      8.98399      6.66262     11.69844         0.016431     -0.044204     -0.025642
      8.97479      2.21956     11.69844        -0.003412      0.010731      0.059000
      6.41878      2.21956     11.69844         0.003412      0.010731      0.059000
     10.26199      4.44905     11.69844        -0.036661      0.045253     -0.049750
      5.13158      4.44905     11.69844         0.036661      0.045253     -0.049750
      7.69679      4.44374     11.67118        -0.000000      0.039501     -0.068031
      3.84839      2.22187     11.59207         0.000000     -0.058418      0.674790
      3.38147      2.22001     13.35917         0.024208     -0.001783     -0.010351
      4.31531      2.22001     13.35917        -0.024208     -0.001783     -0.010351
    total drift:                                0.003529     -0.000488     -0.039971

  FREE ENERGIE OF THE ION-ELECTRON SYSTEM (eV)
  free  energy   TOTEN  =      -140.04422944 eV

  energy  without entropy=     -140.04422944  energy(sigma->0) =     -140.04422944

 stress matrix after NEB project (eV)
     -6.65714      0.00000      0.00000
      0.00000     -6.68373     -0.04670
      0.00000     -0.04670      0.40283
  FORCES: max atom, RMS     0.026389    0.006054
  FORCE total and by dimension    0.037319    0.024208
  Stress total and by dimension    9.442264    6.683730
|           W    W    AA    RRRRR   N    N  II  N    N   GGGG   !!!           |
|           W    W   A  A   R    R  NN   N  II  NN   N  G    G  !!!           |
|           W    W  A    A  R    R  N N  N  II  N N  N  G       !!!           |
|           W WW W  AAAAAA  RRRRR   N  N N  II  N  N N  G  GGG   !            |
|           WW  WW  A    A  R   R   N   NN  II  N   NN  G    G                |
|           W    W  A    A  R    R  N    N  II  N    N   GGGG   !!!           |
|     Tetrahedron method does not include variations of the Fermi             |
|     occupations, so forces and stress will be inaccurate. We suggest        |
|     using a different smearing scheme ISMEAR = 1 or 2 for metals in         |
|     relaxations.                                                            |

 total charge

# of ion       s       p       d       tot
    1        0.450   0.282   9.190   9.923
    2        0.447   0.286   9.186   9.919
    3        0.447   0.286   9.186   9.919
    4        0.448   0.285   9.186   9.919
    5        0.450   0.284   9.181   9.915
    6        0.448   0.285   9.186   9.919
    7        0.447   0.285   9.187   9.919
    8        0.447   0.285   9.187   9.919
    9        0.448   0.282   9.190   9.921
   10        0.444   0.372   9.174   9.990
   11        0.444   0.364   9.185   9.993
   12        0.444   0.372   9.174   9.990
   13        0.444   0.365   9.183   9.992
   14        0.444   0.365   9.183   9.992
   15        0.438   0.369   9.176   9.982
   16        0.445   0.372   9.173   9.991
   17        0.438   0.369   9.177   9.984
   18        0.438   0.369   9.177   9.984
   19        0.440   0.366   9.179   9.985
   20        0.469   0.405   9.156  10.030
   21        0.469   0.405   9.156  10.030
   22        0.426   0.370   9.182   9.978
   23        0.473   0.405   9.155  10.033
   24        0.426   0.370   9.182   9.978
   25        0.440   0.366   9.180   9.987
   26        0.440   0.366   9.180   9.987
   27        0.428   0.368   9.184   9.980
   28        0.445   0.290   9.182   9.918
   29        0.474   0.316   9.162   9.951
   30        0.474   0.316   9.162   9.951
   31        0.469   0.318   9.162   9.948
   32        0.469   0.318   9.162   9.948
   33        0.473   0.315   9.163   9.951
   34        0.473   0.315   9.163   9.951
   35        0.441   0.291   9.184   9.916
   36        0.661   0.586   4.164   5.411
   37        0.529   0.029   0.000   0.558
   38        0.529   0.029   0.000   0.558
tot         17.461  12.419 325.338 355.218

 BZINTS: Fermi energy:    0.163572;  393.000000 electrons
         Band energy:-0.106664E+04;  BLOECHL correction:   -0.024476