 vasp.6.2.0 18Jan21 (build Jun 12 2021 23:27:24) complex

 executed on             LinuxIFC date 2022.05.27  05:52:44

 INCAR:
   ISMEAR = -5
   SIGMA = 0.1
   ISPIN = 1
   EDIFF = 1.d-5
   EDIFFG = -0.01
   NSW = 0
   NELM = 150
   ENCUT = 500
   ISIF = 2
   IBRION = 2
   LREAL = Auto
   ALGO = Fast
   ICHARG = 11
   LORBIT = 10
   LCHARG = .F.
   LWAVE = .F.

 POTCAR:    PAW_PBE Ag 02Apr2005
 POTCAR:    PAW_PBE Os 17Jan2003
 POTCAR:    PAW_PBE O 08Apr2002
 POTCAR:    PAW_PBE H 15Jun2001
|           W    W    AA    RRRRR   N    N  II  N    N   GGGG   !!!           |
|           W    W   A  A   R    R  NN   N  II  NN   N  G    G  !!!           |
|           W    W  A    A  R    R  N N  N  II  N N  N  G       !!!           |
|           W WW W  AAAAAA  RRRRR   N  N N  II  N  N N  G  GGG   !            |
|           WW  WW  A    A  R   R   N   NN  II  N   NN  G    G                |
|           W    W  A    A  R    R  N    N  II  N    N   GGGG   !!!           |
|     For optimal performance we recommend to set                             |
|       NCORE = 2 up to number-of-cores-per-socket                            |
|     This setting can greatly improve the performance of VASP for DFT.       |
|     The default, NCORE=1 might be grossly inefficient on modern             |
|     multi-core architectures or massively parallel machines. Do your        |
|     Unfortunately you need to use the default for GW and RPA                |
|     calculations (for HF NCORE is supported but not extensively tested      |
|     yet).                                                                   |

 POTCAR:    PAW_PBE Ag 02Apr2005
   VRHFIN =Ag : s1 d10

   TITEL  = PAW_PBE Ag 02Apr2005
   POMASS =  107.868; ZVAL   =   11.000    mass and valenz
   ENMAX  =  249.844; ENMIN  =  187.383 eV

 POTCAR:    PAW_PBE Os 17Jan2003
   VRHFIN =Os: 6s5d

   TITEL  = PAW_PBE Os 17Jan2003
   POMASS =  190.200; ZVAL   =    8.000    mass and valenz
   ENMAX  =  228.022; ENMIN  =  171.017 eV

 POTCAR:    PAW_PBE O 08Apr2002
   VRHFIN =O: s2p4

   TITEL  = PAW_PBE O 08Apr2002
   POMASS =   16.000; ZVAL   =    6.000    mass and valenz
   ENMAX  =  400.000; ENMIN  =  300.000 eV

 POTCAR:    PAW_PBE H 15Jun2001
   VRHFIN =H: ultrasoft test

   TITEL  = PAW_PBE H 15Jun2001
   POMASS =    1.000; ZVAL   =    1.000    mass and valenz
   ENMAX  =  250.000; ENMIN  =  200.000 eV

 Optimization of the real space projectors (new method)

 maximal supplied QI-value         = 15.12
 optimisation between [QCUT,QGAM] = [ 11.34, 22.83] = [ 36.00,145.93] Ry
 Optimized for a Real-space Cutoff    1.43 Angstroem

   l    n(q)    QCUT    max X(q) W(low)/X(q) W(high)/X(q)  e(spline)
   2      9    11.338    53.897    0.16E-03    0.20E-03    0.28E-06
   2      9    11.338    52.416    0.16E-03    0.20E-03    0.29E-06
   0     10    11.338   122.045    0.31E-04    0.76E-04    0.15E-06
   0     10    11.338    73.629    0.30E-04    0.72E-04    0.15E-06
   1      9    11.338    15.255    0.20E-03    0.19E-04    0.17E-06
   1      9    11.338     9.562    0.16E-03    0.15E-04    0.14E-06
 Optimization of the real space projectors (new method)

[...]

   l    n(q)    QCUT    max X(q) W(low)/X(q) W(high)/X(q)  e(spline)
   0      7    11.387    20.381    0.39E-03    0.13E-02    0.15E-06
   0      7    11.387    15.268    0.42E-03    0.14E-02    0.17E-06
   1      6    11.387     5.964    0.41E-03    0.11E-02    0.17E-06
   1      6    11.387     5.382    0.39E-03    0.87E-03    0.15E-06
 Optimization of the real space projectors (new method)

 maximal supplied QI-value         = 34.20
 optimisation between [QCUT,QGAM] = [ 11.29, 22.57] = [ 35.68,142.71] Ry
 Optimized for a Real-space Cutoff    1.16 Angstroem

   l    n(q)    QCUT    max X(q) W(low)/X(q) W(high)/X(q)  e(spline)
   0      8    11.287    19.460    0.40E-03    0.73E-03    0.16E-06
   0      8    11.287    12.209    0.38E-03    0.70E-03    0.15E-06
   1      7    11.287     4.655    0.22E-03    0.25E-04    0.22E-06
  PAW_PBE Ag 02Apr2005                  :
  PAW_PBE Os 17Jan2003                  :
  PAW_PBE O 08Apr2002                   :
  PAW_PBE H 15Jun2001                   :

 POSCAR: Ag-Os-OH
  positions in direct lattice
  velocities in cartesian coordinates
 exchange correlation table for  LEXCH =        8
   RHO(1)=    0.500       N(1)  =     2000
   RHO(2)=  100.500       N(2)  =     4000

 VTST: version 3.2, (02/03/18)

 CHAIN: initializing optimizer

 OPT: Using VASP Conjugate-Gradient optimizer
 CHAIN: Read ICHAIN            0

 POSCAR: Ag-Os-OH
  positions in direct lattice
  velocities in cartesian coordinates

 ion  position               nearest neighbor table
   1  0.000  0.000  0.209-   2 2.93   8 2.93   7 2.93   6 2.93   4 2.93  12 2.93  16 2.93  10 2.93
                             3 2.93
   2  0.333  0.000  0.209-   1 2.93   8 2.93   9 2.93   3 2.93   4 2.93   5 2.93  10 2.93  17 2.93
                            11 2.93
   3  0.667  0.000  0.209-   9 2.93   2 2.93   5 2.93  11 2.93   7 2.93  18 2.93   1 2.93   6 2.93
                            12 2.93
   4  0.000  0.333  0.209-   5 2.93   6 2.93   2 2.93   1 2.93   7 2.93  13 2.93  15 2.93   9 2.93
                            10 2.93
   5  0.333  0.333  0.209-   4 2.93   3 2.93   7 2.93   2 2.93   8 2.93  14 2.93  13 2.93  11 2.93
                             6 2.93
   6  0.667  0.333  0.209-   4 2.93   9 2.93   1 2.93  15 2.93   8 2.93  12 2.93   3 2.93   5 2.93
                            14 2.93
   7  0.000  0.667  0.209-   8 2.93   1 2.93   5 2.93   3 2.93   4 2.93  16 2.93  18 2.93  13 2.93
                             9 2.93
   8  0.333  0.667  0.209-   7 2.93   1 2.93   2 2.93   9 2.93   5 2.93  16 2.93   6 2.93  17 2.93
                            14 2.93
   9  0.667  0.667  0.209-   3 2.93   2 2.93   8 2.93   6 2.93  17 2.93   4 2.93  15 2.93   7 2.93
                            18 2.93
  10  0.111  0.111  0.304-  20 2.89  12 2.93  16 2.93  15 2.93  17 2.93  13 2.93  11 2.93   2 2.93
                             1 2.93   4 2.93  19 2.93  26 2.93
  11  0.444  0.111  0.304-  21 2.89  20 2.89  27 2.92  14 2.93  17 2.93  18 2.93   3 2.93  12 2.93
                            13 2.93  10 2.93   5 2.93   2 2.93
  12  0.778  0.111  0.304-  21 2.89  10 2.93  16 2.93  18 2.93  15 2.93  11 2.93   1 2.93  14 2.93
                             6 2.93   3 2.93  25 2.93  19 2.93
  13  0.111  0.444  0.304-  20 2.89  23 2.89  22 2.92  15 2.93  14 2.93  18 2.93  10 2.93  11 2.93
                            16 2.93   4 2.93   5 2.93   7 2.93
  14  0.444  0.444  0.304-  23 2.89  21 2.89  24 2.92  13 2.93  11 2.93  16 2.93   5 2.93  12 2.93
                            17 2.93   8 2.93  15 2.93   6 2.93
  15  0.778  0.444  0.304-  24 2.92  22 2.92  19 2.93  13 2.93  10 2.93  12 2.93  17 2.93  18 2.93
                             4 2.93   6 2.93   9 2.93  14 2.93
  16  0.111  0.778  0.304-  23 2.89  18 2.93  12 2.93  10 2.93  14 2.93  17 2.93  13 2.93   7 2.93
                             8 2.93   1 2.93  26 2.93  25 2.93
  17  0.444  0.778  0.304-  27 2.92  24 2.92  26 2.93  11 2.93  10 2.93   9 2.93  18 2.93  15 2.93
                            16 2.93   2 2.93  14 2.93   8 2.93
  18  0.778  0.778  0.304-  22 2.92  27 2.92  25 2.93  16 2.93  12 2.93  13 2.93  11 2.93  17 2.93
                            15 2.93   7 2.93   3 2.93   9 2.93
  19  0.888  0.223  0.399-  28 2.90  24 2.93  22 2.93  15 2.93  20 2.93  21 2.93  10 2.93  12 2.93
                            26 2.94  25 2.94  32 2.95  31 2.95
  20  0.222  0.222  0.397-  36 2.76  13 2.89  11 2.89  10 2.89  31 2.93  29 2.93  21 2.93  23 2.93
                            19 2.93  26 2.93  27 2.94  22 2.94
  21  0.556  0.222  0.397-  36 2.76  11 2.89  14 2.89  12 2.89  30 2.93  32 2.93  20 2.93  23 2.93
                            25 2.93  19 2.93  27 2.94  24 2.94
  22  0.888  0.556  0.398-  35 2.90  18 2.92  15 2.92  24 2.92  27 2.92  13 2.92  25 2.93  19 2.93
                            33 2.94  31 2.94  23 2.94  20 2.94
  23  0.222  0.556  0.397-  36 2.76  14 2.89  13 2.89  16 2.89  34 2.93  33 2.93  21 2.93  20 2.93
                            26 2.93  25 2.93  22 2.94  24 2.94
  24  0.556  0.556  0.398-  35 2.90  15 2.92  17 2.92  27 2.92  22 2.92  14 2.92  19 2.93  26 2.93
                            32 2.94  34 2.94  23 2.94  21 2.94
  25  0.888  0.888  0.399-  28 2.90  22 2.93  27 2.93  18 2.93  23 2.93  21 2.93  16 2.93  12 2.93
                            26 2.94  19 2.94  33 2.95  30 2.95
  26  0.223  0.888  0.399-  28 2.90  27 2.93  24 2.93  17 2.93  23 2.93  20 2.93  16 2.93  10 2.93
                            25 2.94  19 2.94  34 2.95  29 2.95
  27  0.556  0.888  0.398-  35 2.90  17 2.92  18 2.92  24 2.92  22 2.92  11 2.92  26 2.93  25 2.93
                            29 2.94  30 2.94  20 2.94  21 2.94
  28  0.000  0.000  0.492-  26 2.90  25 2.90  19 2.90  29 2.96  34 2.96  33 2.96  32 2.96  31 2.96
                            30 2.96
  29  0.333  0.008  0.493-  31 2.86  30 2.87  36 2.88  20 2.93  27 2.94  26 2.95  28 2.96  35 2.97
                            34 3.06
  30  0.659  0.008  0.493-  32 2.86  29 2.87  36 2.88  21 2.93  27 2.94  25 2.95  28 2.96  35 2.97
                            33 3.06
  31  0.008  0.333  0.493-  29 2.86  33 2.87  36 2.88  20 2.93  22 2.94  19 2.95  28 2.96  35 2.97
                            32 3.06
  32  0.659  0.333  0.493-  30 2.86  34 2.87  36 2.88  21 2.93  24 2.94  19 2.95  28 2.96  35 2.97
                            31 3.06
  33  0.008  0.659  0.493-  34 2.86  31 2.87  36 2.88  23 2.93  22 2.94  25 2.95  28 2.96  35 2.97
                            30 3.06
  34  0.333  0.659  0.493-  33 2.86  32 2.87  36 2.88  23 2.93  24 2.94  26 2.95  28 2.96  35 2.97
                            29 3.06
  35  0.667  0.667  0.492-  24 2.90  27 2.90  22 2.90  30 2.97  32 2.97  29 2.97  34 2.97  31 2.97
                            33 2.97
  36  0.333  0.333  0.483-  37 1.91  21 2.76  20 2.76  23 2.76  31 2.88  30 2.88  33 2.88  29 2.88
                            34 2.88  32 2.88
  37  0.333  0.333  0.559-  38 0.96  36 1.91
  38  0.333  0.333  0.597-  37 0.96

  LATTYP: Found a hexagonal cell.
 ALAT       =     8.7913665772
 C/A-ratio  =     2.8719070141

  Lattice vectors:

 A1 = (  -4.3956832886,  -7.6135467898,   0.0000000000)
 A2 = (   8.7913665771,   0.0000000000,   0.0000000000)
 A3 = (   0.0000000000,   0.0000000000,  25.2479873362)

Analysis of symmetry for initial positions (statically):
 Subroutine PRICEL returns:
 Original cell was already a primitive cell.

 Routine SETGRP: Setting up the symmetry group for a
 hexagonal supercell.

 Subroutine GETGRP returns: Found  6 space group operations
 (whereof  6 operations were pure point group operations)
 out of a pool of 24 trial point group operations.

The static configuration has the point symmetry C_3v.

Analysis of symmetry for dynamics (positions and initial velocities):
 Subroutine PRICEL returns:
 Original cell was already a primitive cell.

[...]

The dynamic configuration has the point symmetry C_3v.

Analysis of constrained symmetry for selective dynamics:
 Subroutine PRICEL returns:
 Original cell was already a primitive cell.

[...]
     33      -4.9508      2.00000
     34      -4.9272      2.00000
     35      -4.9223      2.00000
     36      -4.8677      2.00000
     37      -4.8514      2.00000
     38      -4.8447      2.00000
     39      -4.8185      2.00000
     40      -4.7894      2.00000
     41      -4.7624      2.00000
     42      -4.7563      2.00000
     43      -4.7536      2.00000
     44      -4.7290      2.00000
     45      -4.6432      2.00000
     46      -4.6215      2.00000
     47      -4.6084      2.00000
     48      -4.6018      2.00000
     49      -4.5919      2.00000
     50      -4.5837      2.00000
     51      -4.5786      2.00000
     52      -4.5719      2.00000
     53      -4.5642      2.00000
     54      -4.5521      2.00000
     55      -4.5028      2.00000
     56      -4.4933      2.00000
     57      -4.4658      2.00000
     58      -4.4623      2.00000
     59      -4.4534      2.00000
     60      -4.4429      2.00000
[...]
    238       5.7784      0.00000
    239       5.8314      0.00000
    240       5.8625      0.00000
    241       5.8911      0.00000
    242       6.0474      0.00000
    243       6.2587      0.00000
    244       6.3028      0.00000
    245       6.3664      0.00000
    246       6.5631      0.00000
    247       6.6465      0.00000
    248       6.7908      0.00000
    249       6.8405      0.00000
    250       6.8963      0.00000
    251       7.0029      0.00000
    252       7.1844      0.00000

 soft charge-density along one line, spin component           1
         0         1         2         3         4         5         6         7         8         9
 total charge-density along one line

------------------------ aborting loop because EDIFF is reached ----------------------------------------

 total charge

# of ion       s       p       d       tot
    1        0.419   0.201   9.178   9.798
    2        0.418   0.203   9.177   9.798
    3        0.418   0.203   9.177   9.798
    4        0.418   0.203   9.177   9.798
    5        0.417   0.204   9.176   9.796
    6        0.418   0.203   9.177   9.798
    7        0.418   0.203   9.177   9.798
    8        0.418   0.203   9.177   9.798
    9        0.413   0.202   9.178   9.794
   10        0.410   0.269   9.162   9.840
   11        0.408   0.269   9.168   9.845
   12        0.410   0.269   9.162   9.840
   13        0.408   0.269   9.168   9.845
   14        0.408   0.269   9.168   9.845
   15        0.402   0.268   9.167   9.837
   16        0.410   0.269   9.162   9.840
   17        0.402   0.268   9.167   9.837
   18        0.402   0.268   9.167   9.837
   19        0.402   0.264   9.168   9.833
   20        0.432   0.308   9.138   9.879
   21        0.432   0.308   9.138   9.879
   22        0.394   0.270   9.170   9.834
   23        0.432   0.308   9.138   9.879
   24        0.394   0.270   9.170   9.834
   25        0.402   0.264   9.168   9.833
   26        0.402   0.264   9.168   9.833
   27        0.394   0.270   9.170   9.834
   28        0.415   0.198   9.177   9.790
   29        0.410   0.215   9.175   9.800
   30        0.410   0.215   9.175   9.800
   31        0.410   0.215   9.175   9.800
   32        0.410   0.215   9.175   9.800
   33        0.410   0.215   9.175   9.800
   34        0.410   0.215   9.175   9.800
   35        0.405   0.201   9.178   9.784
   36        0.558   0.463   5.946   6.967
   37        1.542   3.546   0.000   5.088
   38        0.602   0.128   0.000   0.730
tot         17.084  12.596 326.864 356.544

  FORCE on cell =-STRESS in cart. coord.  units (eV):
  Direction    XX          YY          ZZ          XY          YZ          ZX
  Alpha Z   678.67291   678.67291   678.67291
  Ewald  166895.10859166895.10864************     0.00003    -0.00000     0.00004
  Hartree176925.89651176925.89653************     0.00001     0.00000     0.00001
  E(xc)   -2098.99580 -2098.99583 -2103.09925     0.00003     0.00000     0.00000
  Local  ************************355149.78566     0.00050    -0.00006    -0.00017
  n-local  -384.32400  -364.24502  -373.59675    11.67362    -0.10464     0.35346
  augment  3244.67574  3244.67587  3250.91971    -0.00011     0.00003     0.00006
  Kinetic  5034.26535  5041.21475  5021.35100     5.56440     0.82970     0.01362
  Fock        0.00000     0.00000     0.00000     0.00000     0.00000     0.00000
  Total      -7.76061    -7.76061     0.15786    -0.00000     0.00000    -0.00000
  in kB      -7.35760    -7.35760     0.14966    -0.00000     0.00000    -0.00000

 VOLUME and BASIS-vectors are now :
  energy-cutoff  :      500.00
  volume of cell :     1689.94
      direct lattice vectors                 reciprocal lattice vectors
     8.791366577  0.000000000  0.000000000     0.113747958 -0.065672414  0.000000000
     4.395683289  7.613546790  0.000000000     0.000000000  0.131344829  0.000000000
     0.000000000  0.000000000 25.247987336     0.000000000  0.000000000  0.039607117

  length of vectors
     8.791366577  8.791366577 25.247987336     0.131344829  0.131344829  0.039607117

 FORCES acting on ions
    electron-ion (+dipol)            ewald-force                    non-local-force                 convergence-correction
   0.460E-04 -.282E-04 0.275E+04   -.954E-04 0.593E-04 -.275E+04   0.609E-17 -.543E-18 -.234E+01   -.126E-03 -.179E-03 0.369E-01
   0.467E+00 0.529E+00 0.275E+04   -.571E+00 -.573E+00 -.275E+04   0.667E-01 0.112E+00 -.150E+01   0.358E-01 -.570E-01 0.811E-01
   -.467E+00 0.529E+00 0.275E+04   0.571E+00 -.573E+00 -.275E+04   -.667E-01 0.112E+00 -.150E+01   -.364E-01 -.550E-01 0.819E-01
   0.692E+00 0.140E+00 0.275E+04   -.782E+00 -.208E+00 -.275E+04   0.130E+00 0.194E-02 -.150E+01   -.312E-01 0.597E-01 0.812E-01
   -.484E-05 -.183E-04 0.275E+04   0.980E-04 -.197E-05 -.275E+04   0.684E-18 -.788E-18 -.141E+01   0.630E-02 0.385E-02 0.203E-01
   -.692E+00 0.140E+00 0.275E+04   0.781E+00 -.209E+00 -.275E+04   -.130E+00 0.194E-02 -.150E+01   0.298E-01 0.606E-01 0.821E-01
   0.225E+00 -.669E+00 0.275E+04   -.210E+00 0.781E+00 -.275E+04   0.634E-01 -.114E+00 -.150E+01   -.653E-01 -.347E-02 0.819E-01
   -.225E+00 -.669E+00 0.275E+04   0.210E+00 0.781E+00 -.275E+04   -.634E-01 -.114E+00 -.150E+01   0.670E-01 -.451E-02 0.821E-01
   0.364E-04 -.129E-04 0.275E+04   0.792E-04 -.643E-04 -.275E+04   0.492E-18 0.414E-18 -.193E+01   -.670E-02 -.346E-02 0.121E+00
   0.700E+01 0.404E+01 0.940E+03   -.633E+01 -.365E+01 -.939E+03   -.597E+00 -.345E+00 -.970E+00   -.532E-01 -.307E-01 0.211E+00
   -.283E-04 0.600E+01 0.947E+03   0.410E-04 -.596E+01 -.947E+03   0.755E-12 0.115E+00 -.293E+00   0.644E-02 -.193E+00 0.163E+00
   -.700E+01 0.404E+01 0.940E+03   0.633E+01 -.365E+01 -.939E+03   0.597E+00 -.345E+00 -.970E+00   0.515E-01 -.292E-01 0.212E+00
   0.520E+01 -.300E+01 0.947E+03   -.516E+01 0.298E+01 -.947E+03   0.996E-01 -.575E-01 -.293E+00   -.164E+00 0.102E+00 0.163E+00
   -.520E+01 -.300E+01 0.947E+03   0.516E+01 0.298E+01 -.947E+03   -.996E-01 -.575E-01 -.293E+00   0.175E+00 0.101E+00 0.163E+00
   0.161E-04 0.153E+01 0.940E+03   -.109E-03 -.174E+01 -.940E+03   0.543E-12 0.826E-01 -.736E+00   -.195E-02 0.987E-01 0.208E+00
   -.735E-05 -.808E+01 0.940E+03   0.205E-04 0.730E+01 -.939E+03   0.453E-11 0.689E+00 -.970E+00   0.387E-03 0.591E-01 0.212E+00
   0.133E+01 -.765E+00 0.940E+03   -.151E+01 0.872E+00 -.940E+03   0.716E-01 -.413E-01 -.736E+00   0.845E-01 -.511E-01 0.208E+00
   -.133E+01 -.765E+00 0.940E+03   0.151E+01 0.872E+00 -.940E+03   -.716E-01 -.413E-01 -.736E+00   -.846E-01 -.489E-01 0.209E+00
   0.393E-04 0.204E+01 -.903E+03   -.129E-03 -.225E+01 0.902E+03   0.960E-12 0.146E+00 0.677E+00   -.616E-02 0.264E-01 0.252E+00
   0.134E+02 0.776E+01 -.857E+03   -.114E+02 -.660E+01 0.858E+03   -.168E+01 -.971E+00 -.162E+01   -.267E+00 -.154E+00 0.571E-01
   -.134E+02 0.776E+01 -.857E+03   0.114E+02 -.660E+01 0.858E+03   0.168E+01 -.971E+00 -.162E+01   0.269E+00 -.153E+00 0.571E-01
   0.278E+01 -.160E+01 -.889E+03   -.309E+01 0.178E+01 0.888E+03   0.467E+00 -.270E+00 0.667E+00   -.122E+00 0.658E-01 0.170E+00
   -.547E-04 -.155E+02 -.857E+03   0.431E-04 0.132E+02 0.858E+03   0.127E-10 0.194E+01 -.162E+01   0.231E-02 0.310E+00 0.572E-01
   -.278E+01 -.160E+01 -.889E+03   0.309E+01 0.178E+01 0.888E+03   -.467E+00 -.270E+00 0.667E+00   0.112E+00 0.646E-01 0.170E+00
   -.177E+01 -.102E+01 -.903E+03   0.194E+01 0.112E+01 0.902E+03   -.127E+00 -.731E-01 0.677E+00   -.288E-01 -.168E-01 0.252E+00
   0.177E+01 -.102E+01 -.903E+03   -.194E+01 0.112E+01 0.902E+03   0.127E+00 -.731E-01 0.677E+00   0.194E-01 -.186E-01 0.252E+00
   0.202E-04 0.321E+01 -.889E+03   0.110E-03 -.357E+01 0.888E+03   0.354E-11 0.540E+00 0.667E+00   -.488E-02 -.139E+00 0.170E+00
   0.537E-04 -.365E-04 -.270E+04   -.115E-03 0.780E-04 0.269E+04   0.958E-17 0.800E-17 0.166E+01   0.114E-02 0.521E-03 -.402E-01
   0.263E+02 0.468E+02 -.268E+04   -.258E+02 -.465E+02 0.268E+04   -.448E+00 -.404E+00 0.187E+01   -.124E+00 -.175E+00 0.422E-01
   -.263E+02 0.468E+02 -.268E+04   0.258E+02 -.465E+02 0.268E+04   0.448E+00 -.404E+00 0.187E+01   0.114E+00 -.173E+00 0.421E-01
   0.536E+02 -.636E+00 -.268E+04   -.532E+02 0.862E+00 0.268E+04   -.574E+00 -.187E+00 0.187E+01   -.214E+00 -.197E-01 0.422E-01
   -.536E+02 -.636E+00 -.268E+04   0.532E+02 0.862E+00 0.268E+04   0.574E+00 -.187E+00 0.187E+01   0.202E+00 -.189E-01 0.414E-01
   0.274E+02 -.461E+02 -.268E+04   -.273E+02 0.456E+02 0.268E+04   -.125E+00 0.590E+00 0.187E+01   -.929E-01 0.186E+00 0.421E-01
   -.274E+02 -.461E+02 -.268E+04   0.273E+02 0.456E+02 0.268E+04   0.125E+00 0.590E+00 0.187E+01   0.843E-01 0.185E+00 0.414E-01
   0.217E-04 -.119E-04 -.270E+04   0.106E-03 -.660E-04 0.269E+04   -.347E-17 -.741E-18 0.193E+01   -.552E-02 -.276E-02 0.278E-02
   -.454E-05 -.147E-04 -.171E+04   0.774E-04 0.978E-05 0.171E+04   0.276E-17 0.301E-17 0.255E+01   0.281E-02 0.167E-02 0.135E+00
   0.196E-03 -.956E-04 -.174E+04   0.256E-04 0.312E-06 0.172E+04   -.141E-17 -.546E-18 0.182E+02   0.400E-02 0.244E-02 0.195E+00
   0.779E-05 -.132E-04 -.350E+03   0.181E-05 0.455E-08 0.358E+03   -.291E-18 -.719E-19 -.844E+01   0.221E-03 0.135E-03 0.231E-01
   0.584E-03 -.791E-03 -.101E+02   0.177E-12 0.175E-12 0.148E-11   -.242E-17 0.165E-17 0.565E+01   -.421E-01 -.209E-01 0.442E+01

 POSITION                                       TOTAL-FORCE (eV/Angst)
      0.00000      0.00000      5.28219        -0.000000     -0.000000     -0.016970
      2.93046      0.00000      5.28219        -0.001265      0.012187      0.029636
      5.86091      0.00000      5.28219         0.001265      0.012187      0.029636
      1.46523      2.53785      5.28219         0.009922     -0.007189      0.029636
      4.39568      2.53785      5.28219        -0.000000     -0.000000      0.009526
      7.32614      2.53785      5.28219        -0.009922     -0.007189      0.029636
      2.93046      5.07570      5.28219         0.011187     -0.004998      0.029636
      5.86091      5.07570      5.28219        -0.011187     -0.004998      0.029636
      8.79137      5.07570      5.28219        -0.000000     -0.000000     -0.003278
      1.46523      0.84595      7.67490         0.025026      0.014449      0.017149
      4.39568      0.84595      7.67490        -0.000000     -0.044022     -0.076843
      7.32614      0.84595      7.67490        -0.025026      0.014449      0.017149
      2.93046      3.38380      7.67490        -0.038124      0.022011     -0.076843
      5.86091      3.38380      7.67490         0.038124      0.022011     -0.076843
      8.79137      3.38380      7.67490        -0.000000     -0.031828      0.022124
      4.39568      5.92165      7.67490        -0.000000     -0.028898      0.017149
      7.32614      5.92165      7.67490        -0.027564      0.015914      0.022124
     10.25659      5.92165      7.67490         0.027564      0.015914      0.022124
      8.79137      1.69824     10.07044        -0.000000     -0.028534     -0.021313
      2.93075      1.69207     10.02201         0.060871      0.035144     -0.057103
      5.86061      1.69207     10.02201        -0.060871      0.035144     -0.057103
     10.25044      4.23330     10.05478         0.035448     -0.020466     -0.013468
      4.39568      4.22940     10.02201        -0.000000     -0.070287     -0.057103
      7.33230      4.23330     10.05478        -0.035448     -0.020466     -0.013468
     11.71633      6.76443     10.07044         0.024712      0.014267     -0.021313
      5.86640      6.76443     10.07044        -0.024712      0.014267     -0.021313
      8.79137      6.76048     10.05478         0.000000      0.040932     -0.013468
      0.00000      0.00000     12.42728        -0.000000     -0.000000      0.052734
      2.96092      0.05748     12.44843        -0.136246     -0.281892     -0.139723
      5.83045      0.05748     12.44843         0.136246     -0.281892     -0.139723
      1.53024      2.53549     12.44843        -0.312249      0.022954     -0.139723
      7.26113      2.53549     12.44843         0.312249      0.022954     -0.139723
      2.96500      5.02058     12.44843        -0.176003      0.258939     -0.139723
      5.82636      5.02058     12.44843         0.176003      0.258939     -0.139723
      8.79137      5.07570     12.42122        -0.000000     -0.000000      0.053660
      4.39568      2.53785     12.20312        -0.000000     -0.000000      0.923019
      4.39568      2.53785     14.11211        -0.000000     -0.000000      0.062939
      4.39568      2.53785     15.07670        -0.000000     -0.000000     -0.032751
    total drift:                               -0.041482     -0.021738      0.006256

  FREE ENERGIE OF THE ION-ELECTRON SYSTEM (eV)
  free  energy   TOTEN  =      -107.26056738 eV

  energy  without entropy=     -107.26056738  energy(sigma->0) =     -107.26056738

 stress matrix after NEB project (eV)
     -7.76061     -0.00000     -0.00000
     -0.00000     -7.76061      0.00000
     -0.00000      0.00000      0.15786
  FORCES: max atom, RMS     0.062939    0.011510
  FORCE total and by dimension    0.070950    0.062939
  Stress total and by dimension   10.976297    7.760611
|           W    W    AA    RRRRR   N    N  II  N    N   GGGG   !!!           |
|           W    W   A  A   R    R  NN   N  II  NN   N  G    G  !!!           |
|           W    W  A    A  R    R  N N  N  II  N N  N  G       !!!           |
|           W WW W  AAAAAA  RRRRR   N  N N  II  N  N N  G  GGG   !            |
|           WW  WW  A    A  R   R   N   NN  II  N   NN  G    G                |
|           W    W  A    A  R    R  N    N  II  N    N   GGGG   !!!           |
|     Tetrahedron method does not include variations of the Fermi             |
|     occupations, so forces and stress will be inaccurate. We suggest        |
|     using a different smearing scheme ISMEAR = 1 or 2 for metals in         |
|     relaxations.                                                            |

 total charge

# of ion       s       p       d       tot
    1        0.419   0.201   9.178   9.798
    2        0.418   0.203   9.177   9.798
    3        0.418   0.203   9.177   9.798
    4        0.418   0.203   9.177   9.798
    5        0.417   0.204   9.176   9.796
    6        0.418   0.203   9.177   9.798
    7        0.418   0.203   9.177   9.798
    8        0.418   0.203   9.177   9.798
    9        0.413   0.202   9.178   9.794
   10        0.410   0.269   9.162   9.840
   11        0.408   0.269   9.168   9.845
   12        0.410   0.269   9.162   9.840
   13        0.408   0.269   9.168   9.845
   14        0.408   0.269   9.168   9.845
   15        0.402   0.268   9.167   9.837
   16        0.410   0.269   9.162   9.840
   17        0.402   0.268   9.167   9.837
   18        0.402   0.268   9.167   9.837
   19        0.402   0.264   9.168   9.833
   20        0.432   0.308   9.138   9.879
   21        0.432   0.308   9.138   9.879
   22        0.394   0.270   9.170   9.834
   23        0.432   0.308   9.138   9.879
   24        0.394   0.270   9.170   9.834
   25        0.402   0.264   9.168   9.833
   26        0.402   0.264   9.168   9.833
   27        0.394   0.270   9.170   9.834
   28        0.415   0.198   9.177   9.790
   29        0.410   0.215   9.175   9.800
   30        0.410   0.215   9.175   9.800
   31        0.410   0.215   9.175   9.800
   32        0.410   0.215   9.175   9.800
   33        0.410   0.215   9.175   9.800
   34        0.410   0.215   9.175   9.800
   35        0.405   0.201   9.178   9.784
   36        0.558   0.463   5.946   6.967
   37        1.542   3.546   0.000   5.088
   38        0.602   0.128   0.000   0.730
tot         17.084  12.596 326.864 356.544

 BZINTS: Fermi energy:    0.389550;  400.000000 electrons
         Band energy:-0.150444E+04;  BLOECHL correction:   -0.035245