 vasp.6.2.0 18Jan21 (build Jun 12 2021 23:27:24) complex

 executed on             LinuxIFC date 2022.05.26  20:13:52

 INCAR:
   ISMEAR = -5
   SIGMA = 0.1
   ISPIN = 1
   EDIFF = 1.d-5
   EDIFFG = -0.01
   NSW = 0
   NELM = 150
   ENCUT = 500
   ISIF = 2
   IBRION = 2
   LREAL = Auto
   ALGO = Fast
   ICHARG = 11
   LORBIT = 10
   LCHARG = .F.
   LWAVE = .F.

 POTCAR:    PAW_PBE Au 04Oct2007
 POTCAR:    PAW_PBE Nb_sv 25May2007
|           W    W    AA    RRRRR   N    N  II  N    N   GGGG   !!!           |
|           W    W   A  A   R    R  NN   N  II  NN   N  G    G  !!!           |
|           W    W  A    A  R    R  N N  N  II  N N  N  G       !!!           |
|           W WW W  AAAAAA  RRRRR   N  N N  II  N  N N  G  GGG   !            |
|           WW  WW  A    A  R   R   N   NN  II  N   NN  G    G                |
|           W    W  A    A  R    R  N    N  II  N    N   GGGG   !!!           |
|     For optimal performance we recommend to set                             |
|       NCORE = 2 up to number-of-cores-per-socket                            |
|     This setting can greatly improve the performance of VASP for DFT.       |
|     The default, NCORE=1 might be grossly inefficient on modern             |
|     multi-core architectures or massively parallel machines. Do your        |
|     Unfortunately you need to use the default for GW and RPA                |
|     calculations (for HF NCORE is supported but not extensively tested      |
|     yet).                                                                   |

 POTCAR:    PAW_PBE Au 04Oct2007
   VRHFIN =Au: s1d10

   TITEL  = PAW_PBE Au 04Oct2007
   POMASS =  196.966; ZVAL   =   11.000    mass and valenz
   ENMAX  =  229.943; ENMIN  =  172.457 eV

 POTCAR:    PAW_PBE Nb_sv 25May2007
   VRHFIN =Nb: 4p5s4d

   TITEL  = PAW_PBE Nb_sv 25May2007
   POMASS =   92.910; ZVAL   =   13.000    mass and valenz
   ENMAX  =  293.235; ENMIN  =  219.927 eV

 Optimization of the real space projectors (new method)

 maximal supplied QI-value         = 15.12
 optimisation between [QCUT,QGAM] = [ 11.34, 22.83] = [ 36.00,145.93] Ry
 Optimized for a Real-space Cutoff    1.39 Angstroem

   l    n(q)    QCUT    max X(q) W(low)/X(q) W(high)/X(q)  e(spline)
   2      9    11.338    60.898    0.39E-03    0.42E-03    0.21E-06
   2      9    11.338    58.894    0.40E-03    0.42E-03    0.22E-06
   0      9    11.338   109.617    0.13E-03    0.20E-04    0.13E-06
   0      9    11.338    75.026    0.13E-03    0.20E-04    0.13E-06
   1      9    11.338    16.344    0.33E-04    0.24E-03    0.18E-06
   1      9    11.338    10.160    0.26E-04    0.19E-03    0.15E-06
 Optimization of the real space projectors (new method)

 maximal supplied QI-value         = 15.68
 optimisation between [QCUT,QGAM] = [ 11.45, 22.90] = [ 36.71,146.85] Ry
 Optimized for a Real-space Cutoff    1.56 Angstroem

   l    n(q)    QCUT    max X(q) W(low)/X(q) W(high)/X(q)  e(spline)
   0     11    11.450    10.201    0.21E-04    0.96E-05    0.78E-07
   0     11    11.450     8.174    0.31E-04    0.18E-04    0.14E-06
   1     10    11.450     3.488    0.27E-04    0.12E-04    0.96E-07
   1     10    11.450     4.917    0.11E-03    0.11E-03    0.37E-06
   2     10    11.450   153.744    0.37E-03    0.81E-03    0.10E-05
   2     10    11.450   126.342    0.37E-03    0.81E-03    0.10E-05
  PAW_PBE Au 04Oct2007                  :
  PAW_PBE Nb_sv 25May2007               :

 POSCAR: Au-Nb
  positions in direct lattice
  velocities in cartesian coordinates
 exchange correlation table for  LEXCH =        8
   RHO(1)=    0.500       N(1)  =     2000
   RHO(2)=  100.500       N(2)  =     4000

 VTST: version 3.2, (02/03/18)

 CHAIN: initializing optimizer

 OPT: Using VASP Conjugate-Gradient optimizer
 CHAIN: Read ICHAIN            0

 POSCAR: Au-Nb
  positions in direct lattice
  velocities in cartesian coordinates

 ion  position               nearest neighbor table
   1  0.000  0.000  0.238-  16 2.94  12 2.94   6 2.94   8 2.94   7 2.94   3 2.94  10 2.94   4 2.94
                             2 2.94
   2  0.333  0.000  0.238-   9 2.94  11 2.94  17 2.94  10 2.94   8 2.94   4 2.94   5 2.94   1 2.94
                             3 2.94
   3  0.667  0.000  0.238-   7 2.94  18 2.94  12 2.94   1 2.94  11 2.94   5 2.94   6 2.94   9 2.94
                             2 2.94
   4  0.000  0.333  0.238-  10 2.94   6 2.94   5 2.94  13 2.94   2 2.94  15 2.94   9 2.94   1 2.94
                             7 2.94
   5  0.333  0.333  0.238-  13 2.94   7 2.94  11 2.94   4 2.94   2 2.94  14 2.94   3 2.94   8 2.94
                             6 2.94
   6  0.667  0.333  0.238-  15 2.94  14 2.94   1 2.94  12 2.94   4 2.94   9 2.94   8 2.94   3 2.94
                             5 2.94
   7  0.000  0.667  0.238-  18 2.94   3 2.94  16 2.94   5 2.94   1 2.94  13 2.94   8 2.94   4 2.94
                             9 2.94
   8  0.333  0.667  0.238-   9 2.94  17 2.94   1 2.94   2 2.94  14 2.94  16 2.94   6 2.94   7 2.94
                             5 2.94
   9  0.667  0.667  0.238-   2 2.94   8 2.94  17 2.94   6 2.94  15 2.94   4 2.94   3 2.94  18 2.94
                             7 2.94
  10  0.111  0.111  0.346-  20 2.91  11 2.94  17 2.94   2 2.94   4 2.94   1 2.94  12 2.94  16 2.94
                            13 2.94  15 2.94  26 2.95  19 2.95
  11  0.444  0.111  0.346-  20 2.91  21 2.91  13 2.94   2 2.94  10 2.94  17 2.94   5 2.94   3 2.94
                            18 2.94  14 2.94  12 2.94  27 2.94
  12  0.778  0.111  0.346-  21 2.91  16 2.94  18 2.94   1 2.94  14 2.94  15 2.94   3 2.94   6 2.94
                            10 2.94  11 2.94  25 2.95  19 2.95
  13  0.111  0.444  0.346-  23 2.91  20 2.91   5 2.94  18 2.94  11 2.94   7 2.94   4 2.94  16 2.94
                            10 2.94  14 2.94  15 2.94  22 2.94
  14  0.444  0.444  0.346-  21 2.91  23 2.91  15 2.94   6 2.94  12 2.94   8 2.94  17 2.94   5 2.94
                            16 2.94  13 2.94  11 2.94  24 2.94
  15  0.778  0.444  0.346-  24 2.93  22 2.93  14 2.94   6 2.94  17 2.94  12 2.94   9 2.94   4 2.94
                            10 2.94  13 2.94  18 2.94  19 2.94
  16  0.111  0.778  0.346-  23 2.91  18 2.94  12 2.94   7 2.94   1 2.94   8 2.94  13 2.94  10 2.94
                            14 2.94  17 2.94  25 2.95  26 2.95
  17  0.444  0.778  0.346-  27 2.93  24 2.93   9 2.94  15 2.94   2 2.94  10 2.94  11 2.94   8 2.94
                            14 2.94  16 2.94  18 2.94  26 2.94
  18  0.778  0.778  0.346-  22 2.93  27 2.93  16 2.94   7 2.94  13 2.94  12 2.94   3 2.94  11 2.94
                             9 2.94  15 2.94  17 2.94  25 2.94
  19  0.889  0.223  0.454-  24 2.93  22 2.93  21 2.94  20 2.94  15 2.94  26 2.94  25 2.94  10 2.95
                            12 2.95  28 2.95  32 3.04  31 3.04
  20  0.222  0.222  0.453-  36 2.78  10 2.91  11 2.91  13 2.91  26 2.94  19 2.94  23 2.94  21 2.94
                            27 2.95  22 2.95  29 2.99  31 2.99
  21  0.556  0.222  0.453-  36 2.78  12 2.91  14 2.91  11 2.91  25 2.94  19 2.94  20 2.94  23 2.94
                            27 2.95  24 2.95  30 2.99  32 2.99
  22  0.887  0.557  0.454-  24 2.91  27 2.91  18 2.93  15 2.93  25 2.93  19 2.93  13 2.94  23 2.95
                            20 2.95  35 2.96  33 3.02  31 3.02
  23  0.222  0.556  0.453-  36 2.78  16 2.91  13 2.91  14 2.91  25 2.94  26 2.94  20 2.94  21 2.94
                            22 2.95  24 2.95  33 2.99  34 2.99
  24  0.557  0.557  0.454-  27 2.91  22 2.91  15 2.93  17 2.93  26 2.93  19 2.93  14 2.94  21 2.95
                            23 2.95  35 2.96  32 3.02  34 3.02
  25  0.889  0.889  0.454-  22 2.93  27 2.93  23 2.94  21 2.94  18 2.94  19 2.94  26 2.94  16 2.95
                            12 2.95  28 2.95  33 3.04  30 3.04
  26  0.223  0.889  0.454-  27 2.93  24 2.93  20 2.94  23 2.94  17 2.94  19 2.94  25 2.94  10 2.95
                            16 2.95  28 2.95  29 3.04  34 3.04
  27  0.557  0.887  0.454-  24 2.91  22 2.91  17 2.93  18 2.93  26 2.93  25 2.93  11 2.94  20 2.95
                            21 2.95  35 2.96  29 3.02  30 3.02
  28  0.000  0.000  0.563-  25 2.95  19 2.95  26 2.95  34 2.98  32 2.98  33 2.98  30 2.98  31 2.98
                            29 2.98
  29  0.334  0.009  0.566-  30 2.85  31 2.86  36 2.87  35 2.98  28 2.98  20 2.99  27 3.02  26 3.04
                            34 3.10
  30  0.657  0.009  0.566-  29 2.85  32 2.86  36 2.87  35 2.98  28 2.98  21 2.99  27 3.02  25 3.04
                            33 3.10
  31  0.009  0.334  0.566-  33 2.85  29 2.86  36 2.87  35 2.98  28 2.98  20 2.99  22 3.02  19 3.04
                            32 3.10
  32  0.657  0.334  0.566-  34 2.85  30 2.86  36 2.87  35 2.98  28 2.98  21 2.99  24 3.02  19 3.04
                            31 3.10
  33  0.009  0.657  0.566-  31 2.85  34 2.86  36 2.87  35 2.98  28 2.98  23 2.99  22 3.02  25 3.04
                            30 3.10
  34  0.334  0.657  0.566-  32 2.85  33 2.86  36 2.87  35 2.98  28 2.98  23 2.99  24 3.02  26 3.04
                            29 3.10
  35  0.667  0.667  0.563-  24 2.96  27 2.96  22 2.96  29 2.98  34 2.98  32 2.98  31 2.98  30 2.98
                            33 2.98
  36  0.333  0.333  0.552-  20 2.78  23 2.78  21 2.78  33 2.87  31 2.87  29 2.87  30 2.87  34 2.87
                            32 2.87

  LATTYP: Found a hexagonal cell.
 ALAT       =     8.8135128021
 C/A-ratio  =     2.5184286595

  Lattice vectors:

 A1 = (  -4.4067569092,  -7.6327256898,   0.0000000000)
 A2 = (   8.8135128021,   0.0000000000,   0.0000000000)
 A3 = (   0.0000000000,   0.0000000000,  22.1962032318)

Analysis of symmetry for initial positions (statically):
 Subroutine PRICEL returns:
 Original cell was already a primitive cell.

 Routine SETGRP: Setting up the symmetry group for a
 hexagonal supercell.

 Subroutine GETGRP returns: Found  6 space group operations
 (whereof  6 operations were pure point group operations)
 out of a pool of 24 trial point group operations.

The static configuration has the point symmetry C_3v.

Analysis of symmetry for dynamics (positions and initial velocities):
 Subroutine PRICEL returns:
 Original cell was already a primitive cell.

[...]

The dynamic configuration has the point symmetry C_3v.

Analysis of constrained symmetry for selective dynamics:
 Subroutine PRICEL returns:
 Original cell was already a primitive cell.

 Routine SETGRP: Setting up the symmetry group for a
 hexagonal supercell.

 Subroutine GETGRP returns: Found  6 space group operations
 (whereof  6 operations were pure point group operations)
 out of a pool of 24 trial point group operations.

The constrained configuration has the point symmetry C_3v.

 Subroutine INISYM returns: Found  6 space group operations
 (whereof  6 operations are pure point group operations),
 and found     1 'primitive' translations

                                     Primitive cell

  volume of cell :    1493.1636

  direct lattice vectors                    reciprocal lattice vectors
     8.813512802  0.000000000  0.000000000     0.113462137 -0.065507406  0.000000000
     4.406756909  7.632725690  0.000000000     0.000000000  0.131014796  0.000000000
[...]
     15      -5.3210      2.00000
     16      -5.2768      2.00000
     17      -5.2539      2.00000
     18      -5.1958      2.00000
     19      -5.1416      2.00000
     20      -5.1161      2.00000
     21      -5.1108      2.00000
     22      -5.0855      2.00000
     23      -5.0758      2.00000
     24      -5.0594      2.00000
     25      -5.0387      2.00000
     26      -5.0265      2.00000
     27      -4.9586      2.00000
     28      -4.9281      2.00000
     29      -4.9055      2.00000
     30      -4.8827      2.00000
     31      -4.8363      2.00000
     32      -4.8065      2.00000
     33      -4.7494      2.00000
     34      -4.7090      2.00000
     35      -4.6863      2.00000
     36      -4.6329      2.00000
     37      -4.6204      2.00000
     38      -4.6054      2.00000
     39      -4.5874      2.00000
     40      -4.5840      2.00000
     41      -4.4323      2.00000
     42      -4.4027      2.00000
     43      -4.3498      2.00000
     44      -4.3020      2.00000
     45      -4.2748      2.00000
     46      -4.2490      2.00000
     47      -4.2233      2.00000
     48      -4.1947      2.00000
     49      -4.1716      2.00000
     50      -4.0842      2.00000
     51      -4.0771      2.00000
     52      -4.0362      2.00000
     53      -4.0110      2.00000
     54      -4.0068      2.00000
     55      -4.0012      2.00000
     56      -3.9791      2.00000
     57      -3.9600      2.00000
     58      -3.9188      2.00000
     59      -3.8895      2.00000
     60      -3.8774      2.00000
[...]
    238       6.5193      0.00000
    239       6.5255      0.00000
    240       6.5888      0.00000
    241       6.6398      0.00000
    242       6.8387      0.00000
    243       6.8497      0.00000
    244       6.8997      0.00000
    245       6.9559      0.00000
    246       7.1377      0.00000
    247       7.2532      0.00000
    248       7.3400      0.00000
    249       7.4282      0.00000
    250       7.6604      0.00000
    251       7.7043      0.00000
    252       7.8533      0.00000

 soft charge-density along one line, spin component           1
         0         1         2         3         4         5         6         7         8         9
 total charge-density along one line

------------------------ aborting loop because EDIFF is reached ----------------------------------------

 total charge

# of ion       s       p       d       tot
    1        0.548   0.237   8.767   9.552
    2        0.541   0.241   8.766   9.548
    3        0.541   0.241   8.766   9.548
    4        0.541   0.241   8.766   9.548
    5        0.546   0.241   8.761   9.549
    6        0.541   0.241   8.766   9.548
    7        0.541   0.241   8.766   9.548
    8        0.541   0.241   8.766   9.548
    9        0.544   0.239   8.767   9.551
   10        0.528   0.307   8.766   9.602
   11        0.521   0.307   8.781   9.608
   12        0.528   0.307   8.766   9.602
   13        0.521   0.307   8.781   9.608
   14        0.521   0.307   8.781   9.608
   15        0.516   0.307   8.775   9.599
   16        0.528   0.307   8.766   9.602
   17        0.516   0.307   8.775   9.599
   18        0.516   0.307   8.775   9.599
   19        0.518   0.297   8.770   9.585
   20        0.576   0.341   8.721   9.638
   21        0.576   0.341   8.721   9.638
   22        0.507   0.305   8.779   9.591
   23        0.576   0.341   8.721   9.638
   24        0.507   0.305   8.779   9.591
   25        0.518   0.297   8.770   9.585
   26        0.518   0.297   8.770   9.585
   27        0.507   0.305   8.779   9.591
   28        0.540   0.230   8.752   9.521
   29        0.592   0.249   8.724   9.565
   30        0.592   0.249   8.724   9.565
   31        0.592   0.249   8.724   9.565
   32        0.592   0.249   8.724   9.565
   33        0.592   0.249   8.724   9.565
   34        0.592   0.249   8.724   9.565
   35        0.539   0.230   8.755   9.524
   36        2.177   5.975   2.257  10.409
tot         21.192  15.688 308.773 345.652

  FORCE on cell =-STRESS in cart. coord.  units (eV):
  Direction    XX          YY          ZZ          XY          YZ          ZX
  Alpha Z  1018.43441  1018.43441  1018.43441
  Ewald  120339.81073120339.81118************    -0.00032    -0.00008    -0.00015
  Hartree129146.30038129146.30039************     0.00001    -0.00002    -0.00004
  E(xc)   -1786.01330 -1786.01328 -1793.89294    -0.00001    -0.00000    -0.00000
  Local  ************************262305.66581     0.00166     0.00004     0.00008
  n-local   -72.62308   -28.38633   -18.34071    21.60345    -1.63943     1.39762
  augment  2381.25283  2381.25431  2401.98249    -0.00129     0.00003     0.00003
  Kinetic  5578.05581  5586.45932  5647.63127     4.62754     0.44913    -0.33141
  Fock        0.00000     0.00000     0.00000     0.00000     0.00000     0.00000
  Total     -23.21696   -23.21696     2.79999    -0.00000     0.00000     0.00000
  in kB     -24.91200   -24.91200     3.00441    -0.00000     0.00000     0.00000

 VOLUME and BASIS-vectors are now :
  energy-cutoff  :      500.00
  volume of cell :     1493.16
      direct lattice vectors                 reciprocal lattice vectors
     8.813512802  0.000000000  0.000000000     0.113462137 -0.065507406  0.000000000
     4.406756909  7.632725690  0.000000000     0.000000000  0.131014796  0.000000000
     0.000000000  0.000000000 22.196203232     0.000000000  0.000000000  0.045052750

  length of vectors
     8.813512802  8.813512802 22.196203232     0.131014796  0.131014796  0.045052750

 FORCES acting on ions
    electron-ion (+dipol)            ewald-force                    non-local-force                 convergence-correction
   -.199E-04 -.163E-04 0.249E+04   0.520E-04 0.434E-04 -.249E+04   -.484E-17 0.485E-17 -.751E+00   -.240E-03 -.152E-03 -.227E+00
   0.804E+00 0.610E+00 0.249E+04   -.808E+00 -.794E+00 -.249E+04   0.404E-01 0.142E+00 -.318E+00   -.381E-01 0.295E-01 -.236E+00
   -.804E+00 0.610E+00 0.249E+04   0.808E+00 -.794E+00 -.249E+04   -.404E-01 0.142E+00 -.318E+00   0.384E-01 0.315E-01 -.236E+00
   0.930E+00 0.391E+00 0.249E+04   -.109E+01 -.303E+00 -.249E+04   0.143E+00 -.359E-01 -.318E+00   0.656E-02 -.478E-01 -.236E+00
   0.777E-05 -.240E-04 0.249E+04   0.951E-04 0.173E-05 -.249E+04   0.129E-17 0.366E-17 0.133E+00   0.428E-02 0.261E-02 -.141E+00
   -.930E+00 0.391E+00 0.249E+04   0.109E+01 -.303E+00 -.249E+04   -.143E+00 -.359E-01 -.318E+00   -.811E-02 -.469E-01 -.235E+00
   0.126E+00 -.100E+01 0.249E+04   -.284E+00 0.110E+01 -.249E+04   0.103E+00 -.106E+00 -.318E+00   0.465E-01 0.176E-01 -.236E+00
   -.126E+00 -.100E+01 0.249E+04   0.284E+00 0.110E+01 -.249E+04   -.103E+00 -.106E+00 -.318E+00   -.447E-01 0.165E-01 -.235E+00
   0.198E-04 -.415E-04 0.249E+04   0.166E-03 -.201E-04 -.249E+04   0.132E-17 -.980E-18 -.398E+00   -.459E-02 -.237E-02 -.161E+00
   0.837E+01 0.483E+01 0.842E+03   -.794E+01 -.458E+01 -.841E+03   -.394E+00 -.227E+00 -.676E+00   -.471E-01 -.273E-01 0.964E-01
   0.158E-04 0.890E+01 0.853E+03   0.147E-03 -.893E+01 -.853E+03   -.127E-08 -.190E-01 -.584E-01   0.402E-02 -.182E-01 0.118E+00
   -.837E+01 0.483E+01 0.842E+03   0.794E+01 -.458E+01 -.841E+03   0.394E+00 -.227E+00 -.676E+00   0.456E-01 -.261E-01 0.962E-01
   0.771E+01 -.445E+01 0.853E+03   -.773E+01 0.446E+01 -.853E+03   -.165E-01 0.951E-02 -.584E-01   -.135E-01 0.128E-01 0.118E+00
   -.771E+01 -.445E+01 0.853E+03   0.773E+01 0.446E+01 -.853E+03   0.165E-01 0.951E-02 -.584E-01   0.210E-01 0.120E-01 0.117E+00
   0.304E-04 0.261E+01 0.843E+03   0.236E-03 -.271E+01 -.842E+03   0.352E-09 0.529E-02 -.517E+00   -.230E-02 0.269E-01 0.805E-01
   -.218E-04 -.967E+01 0.842E+03   0.163E-03 0.917E+01 -.841E+03   0.303E-07 0.455E+00 -.676E+00   -.673E-04 0.525E-01 0.962E-01
   0.226E+01 -.131E+01 0.843E+03   -.235E+01 0.136E+01 -.842E+03   0.458E-02 -.264E-02 -.517E+00   0.224E-01 -.150E-01 0.805E-01
   -.226E+01 -.131E+01 0.843E+03   0.235E+01 0.136E+01 -.842E+03   -.458E-02 -.264E-02 -.517E+00   -.221E-01 -.130E-01 0.811E-01
   -.421E-04 0.218E+01 -.851E+03   0.520E-04 -.204E+01 0.850E+03   -.310E-08 -.466E-01 0.496E+00   -.651E-03 -.865E-01 0.489E+00
   0.520E+02 0.300E+02 -.765E+03   -.510E+02 -.295E+02 0.766E+03   -.108E+01 -.623E+00 -.135E+01   0.925E-01 0.533E-01 0.628E+00
   -.520E+02 0.300E+02 -.765E+03   0.510E+02 -.295E+02 0.766E+03   0.108E+01 -.623E+00 -.135E+01   -.918E-01 0.538E-01 0.628E+00
   0.106E+02 -.612E+01 -.832E+03   -.110E+02 0.637E+01 0.831E+03   0.391E+00 -.226E+00 0.583E+00   0.529E-01 -.303E-01 0.422E+00
   -.949E-05 -.601E+02 -.765E+03   0.144E-03 0.589E+02 0.766E+03   0.829E-07 0.125E+01 -.135E+01   0.452E-03 -.106E+00 0.628E+00
   -.106E+02 -.612E+01 -.832E+03   0.110E+02 0.637E+01 0.831E+03   -.391E+00 -.226E+00 0.583E+00   -.532E-01 -.307E-01 0.422E+00
   -.189E+01 -.109E+01 -.851E+03   0.176E+01 0.102E+01 0.850E+03   0.404E-01 0.233E-01 0.496E+00   0.753E-01 0.434E-01 0.488E+00
   0.189E+01 -.109E+01 -.851E+03   -.176E+01 0.102E+01 0.850E+03   -.404E-01 0.233E-01 0.496E+00   -.749E-01 0.427E-01 0.489E+00
   0.141E-04 0.122E+02 -.832E+03   0.194E-03 -.127E+02 0.831E+03   0.300E-07 0.451E+00 0.583E+00   -.330E-03 0.609E-01 0.422E+00
   -.146E-04 -.134E-04 -.246E+04   0.296E-04 0.345E-04 0.246E+04   0.411E-17 -.512E-18 0.462E+00   -.781E-04 -.632E-04 0.216E+00
   0.444E+02 0.715E+02 -.249E+04   -.431E+02 -.697E+02 0.249E+04   -.129E+01 -.199E+01 -.527E+00   0.389E-01 0.200E+00 0.181E+00
   -.444E+02 0.715E+02 -.249E+04   0.431E+02 -.697E+02 0.249E+04   0.129E+01 -.199E+01 -.527E+00   -.386E-01 0.202E+00 0.181E+00
   0.841E+02 0.268E+01 -.249E+04   -.819E+02 -.249E+01 0.249E+04   -.237E+01 -.122E+00 -.527E+00   0.193E+00 -.664E-01 0.181E+00
   -.841E+02 0.269E+01 -.249E+04   0.819E+02 -.249E+01 0.249E+04   0.237E+01 -.122E+00 -.527E+00   -.194E+00 -.657E-01 0.181E+00
   0.397E+02 -.742E+02 -.249E+04   -.388E+02 0.722E+02 0.249E+04   -.108E+01 0.211E+01 -.527E+00   0.155E+00 -.134E+00 0.181E+00
   -.397E+02 -.742E+02 -.249E+04   0.388E+02 0.722E+02 0.249E+04   0.108E+01 0.211E+01 -.527E+00   -.154E+00 -.135E+00 0.181E+00
   0.326E-04 -.279E-04 -.247E+04   0.141E-03 -.500E-04 0.246E+04   0.432E-17 -.267E-17 0.647E+00   -.445E-02 -.228E-02 0.226E+00
   0.226E-03 -.149E-03 -.280E+04   0.135E-03 0.122E-04 0.279E+04   -.193E-18 0.874E-19 0.355E+01   0.695E-02 0.425E-02 0.339E+00
   -.530E-03 -.903E-03 0.825E+00   0.727E-13 0.127E-12 0.364E-11   0.670E-15 0.886E-15 -.600E+01   0.114E-01 0.733E-02 0.542E+01

 POSITION                                       TOTAL-FORCE (eV/Angst)
      0.00000      0.00000      5.28038         0.000000      0.000000     -0.158504
      2.93784      0.00000      5.28038        -0.001776     -0.012226     -0.060029
      5.87568      0.00000      5.28038         0.001776     -0.012226     -0.060029
      1.46892      2.54424      5.28038        -0.011476      0.004575     -0.060029
      4.40676      2.54424      5.28038         0.000000      0.000000     -0.070139
      7.34459      2.54424      5.28038         0.011476      0.004575     -0.060029
      2.93784      5.08848      5.28038        -0.009700      0.007651     -0.060029
      5.87568      5.08848      5.28038         0.009700      0.007651     -0.060029
      8.81351      5.08848      5.28038         0.000000      0.000000     -0.083172
      1.46892      0.84808      7.67911        -0.008526     -0.004923      0.103434
      4.40676      0.84808      7.67911        -0.000000     -0.060851     -0.011345
      7.34459      0.84808      7.67911         0.008526     -0.004923      0.103434
      2.93784      3.39232      7.67911        -0.052698      0.030425     -0.011345
      5.87568      3.39232      7.67911         0.052698      0.030425     -0.011345
      8.81351      3.39232      7.67911        -0.000000     -0.068382      0.110856
      4.40676      5.93656      7.67911         0.000000      0.009845      0.103434
      7.34459      5.93656      7.67911        -0.059220      0.034191      0.110856
     10.28243      5.93656      7.67911         0.059220      0.034191      0.110856
      8.81351      1.70030     10.08698         0.000000      0.008754     -0.005610
      2.93503      1.69454     10.04736        -0.006337     -0.003658     -0.015295
      5.87848      1.69454     10.04736         0.006337     -0.003658     -0.015295
     10.26776      4.24887     10.06889         0.013529     -0.007811      0.004728
      4.40676      4.24365     10.04736         0.000000      0.007317     -0.015295
      7.35926      4.24887     10.06889        -0.013529     -0.007811      0.004728
     11.74777      6.78258     10.08698        -0.007581     -0.004377     -0.005610
      5.87926      6.78258     10.08698         0.007581     -0.004377     -0.005610
      8.81351      6.76771     10.06889         0.000000      0.015622      0.004728
      0.00000      0.00000     12.49943         0.000000      0.000000     -0.000653
      2.98194      0.07009     12.55649         0.004568     -0.000392      0.013719
      5.83157      0.07009     12.55649        -0.004568     -0.000392      0.013719
      1.55167      2.54739     12.55649         0.001945      0.004152      0.013719
      7.26184      2.54739     12.55649        -0.001945      0.004152      0.013719
      2.97649      5.01524     12.55649        -0.002623     -0.003760      0.013719
      5.83702      5.01524     12.55649         0.002623     -0.003760      0.013719
      8.81351      5.08848     12.50498         0.000000      0.000000      0.019661
      4.40676      2.54424     12.24418         0.000000      0.000000      0.010369
    total drift:                                0.010875      0.006428      0.250131

  FREE ENERGIE OF THE ION-ELECTRON SYSTEM (eV)
  free  energy   TOTEN  =      -116.16506097 eV

  energy  without entropy=     -116.16506097  energy(sigma->0) =     -116.16506097

 stress matrix after NEB project (eV)
    -23.21696     -0.00000      0.00000
     -0.00000    -23.21696      0.00000
     -0.00000      0.00000      2.79999
  FORCES: max atom, RMS     0.019661    0.010187
  FORCE total and by dimension    0.061121    0.019661
  Stress total and by dimension   32.952913   23.216962
|           W    W    AA    RRRRR   N    N  II  N    N   GGGG   !!!           |
|           W    W   A  A   R    R  NN   N  II  NN   N  G    G  !!!           |
|           W    W  A    A  R    R  N N  N  II  N N  N  G       !!!           |
|           W WW W  AAAAAA  RRRRR   N  N N  II  N  N N  G  GGG   !            |
|           WW  WW  A    A  R   R   N   NN  II  N   NN  G    G                |
|           W    W  A    A  R    R  N    N  II  N    N   GGGG   !!!           |
|     Tetrahedron method does not include variations of the Fermi             |
|     occupations, so forces and stress will be inaccurate. We suggest        |
|     using a different smearing scheme ISMEAR = 1 or 2 for metals in         |
|     relaxations.                                                            |

 total charge

# of ion       s       p       d       tot
    1        0.548   0.237   8.767   9.552
    2        0.541   0.241   8.766   9.548
    3        0.541   0.241   8.766   9.548
    4        0.541   0.241   8.766   9.548
    5        0.546   0.241   8.761   9.549
    6        0.541   0.241   8.766   9.548
    7        0.541   0.241   8.766   9.548
    8        0.541   0.241   8.766   9.548
    9        0.544   0.239   8.767   9.551
   10        0.528   0.307   8.766   9.602
   11        0.521   0.307   8.781   9.608
   12        0.528   0.307   8.766   9.602
   13        0.521   0.307   8.781   9.608
   14        0.521   0.307   8.781   9.608
   15        0.516   0.307   8.775   9.599
   16        0.528   0.307   8.766   9.602
   17        0.516   0.307   8.775   9.599
   18        0.516   0.307   8.775   9.599
   19        0.518   0.297   8.770   9.585
   20        0.576   0.341   8.721   9.638
   21        0.576   0.341   8.721   9.638
   22        0.507   0.305   8.779   9.591
   23        0.576   0.341   8.721   9.638
   24        0.507   0.305   8.779   9.591
   25        0.518   0.297   8.770   9.585
   26        0.518   0.297   8.770   9.585
   27        0.507   0.305   8.779   9.591
   28        0.540   0.230   8.752   9.521
   29        0.592   0.249   8.724   9.565
   30        0.592   0.249   8.724   9.565
   31        0.592   0.249   8.724   9.565
   32        0.592   0.249   8.724   9.565
   33        0.592   0.249   8.724   9.565
   34        0.592   0.249   8.724   9.565
   35        0.539   0.230   8.755   9.524
   36        2.177   5.975   2.257  10.409
tot         21.192  15.688 308.773 345.652

 BZINTS: Fermi energy:    0.812622;  398.000000 electrons
         Band energy:-0.144475E+04;  BLOECHL correction:   -0.028575