 vasp.6.2.0 18Jan21 (build Jun 12 2021 23:27:24) complex

 executed on             LinuxIFC date 2022.05.28  02:30:22

 INCAR:
   ISMEAR = -5
   SIGMA = 0.1
   ISPIN = 1
   EDIFF = 1.d-5
   EDIFFG = -0.01
   NSW = 0
   NELM = 150
   ENCUT = 500
   ISIF = 2
   IBRION = 2
   LREAL = Auto
   ALGO = Fast
   ICHARG = 11
   LORBIT = 10
   LCHARG = .F.
   LWAVE = .F.

 POTCAR:    PAW_PBE Cu 22Jun2005
 POTCAR:    PAW_PBE Zr_sv 04Jan2005
 POTCAR:    PAW_PBE O 08Apr2002
 POTCAR:    PAW_PBE H 15Jun2001
|           W    W    AA    RRRRR   N    N  II  N    N   GGGG   !!!           |
|           W    W   A  A   R    R  NN   N  II  NN   N  G    G  !!!           |
|           W    W  A    A  R    R  N N  N  II  N N  N  G       !!!           |
|           W WW W  AAAAAA  RRRRR   N  N N  II  N  N N  G  GGG   !            |
|           WW  WW  A    A  R   R   N   NN  II  N   NN  G    G                |
|           W    W  A    A  R    R  N    N  II  N    N   GGGG   !!!           |
|     For optimal performance we recommend to set                             |
|       NCORE = 2 up to number-of-cores-per-socket                            |
|     This setting can greatly improve the performance of VASP for DFT.       |
|     The default, NCORE=1 might be grossly inefficient on modern             |
|     multi-core architectures or massively parallel machines. Do your        |
|     Unfortunately you need to use the default for GW and RPA                |
|     calculations (for HF NCORE is supported but not extensively tested      |
|     yet).                                                                   |

 POTCAR:    PAW_PBE Cu 22Jun2005
   VRHFIN =Cu: d10 p1

   TITEL  = PAW_PBE Cu 22Jun2005
   POMASS =   63.546; ZVAL   =   11.000    mass and valenz
   ENMAX  =  295.446; ENMIN  =  221.585 eV

 POTCAR:    PAW_PBE Zr_sv 04Jan2005
   VRHFIN =Zr: 4s4p5s4d

   TITEL  = PAW_PBE Zr_sv 04Jan2005
   POMASS =   91.224; ZVAL   =   12.000    mass and valenz
   ENMAX  =  229.898; ENMIN  =  172.424 eV

 POTCAR:    PAW_PBE O 08Apr2002
   VRHFIN =O: s2p4

   TITEL  = PAW_PBE O 08Apr2002
   POMASS =   16.000; ZVAL   =    6.000    mass and valenz
   ENMAX  =  400.000; ENMIN  =  300.000 eV

 POTCAR:    PAW_PBE H 15Jun2001
   VRHFIN =H: ultrasoft test

   TITEL  = PAW_PBE H 15Jun2001
   POMASS =    1.000; ZVAL   =    1.000    mass and valenz
   ENMAX  =  250.000; ENMIN  =  200.000 eV

 Optimization of the real space projectors (new method)

 maximal supplied QI-value         = 16.25
 optimisation between [QCUT,QGAM] = [ 11.38, 22.75] = [ 36.24,144.96] Ry
 Optimized for a Real-space Cutoff    1.52 Angstroem

   l    n(q)    QCUT    max X(q) W(low)/X(q) W(high)/X(q)  e(spline)
   2      9    11.376     4.610    0.21E-03    0.10E-03    0.26E-06
   2      9    11.376     8.522    0.33E-03    0.16E-03    0.37E-06
   0     10    11.376    51.609    0.62E-04    0.20E-04    0.13E-06
   0     10    11.376    27.747    0.54E-04    0.20E-04    0.13E-06
   1     10    11.376    20.408    0.13E-04    0.99E-04    0.19E-06
   1     10    11.376    13.425    0.12E-04    0.87E-04    0.17E-06
 Optimization of the real space projectors (new method)

[...]

   l    n(q)    QCUT    max X(q) W(low)/X(q) W(high)/X(q)  e(spline)
   0      7    11.387    20.381    0.39E-03    0.13E-02    0.15E-06
   0      7    11.387    15.268    0.42E-03    0.14E-02    0.17E-06
   1      6    11.387     5.964    0.41E-03    0.11E-02    0.17E-06
   1      6    11.387     5.382    0.39E-03    0.87E-03    0.15E-06
 Optimization of the real space projectors (new method)

 maximal supplied QI-value         = 34.20
 optimisation between [QCUT,QGAM] = [ 11.29, 22.57] = [ 35.68,142.71] Ry
 Optimized for a Real-space Cutoff    1.16 Angstroem

   l    n(q)    QCUT    max X(q) W(low)/X(q) W(high)/X(q)  e(spline)
   0      8    11.287    19.460    0.40E-03    0.73E-03    0.16E-06
   0      8    11.287    12.209    0.38E-03    0.70E-03    0.15E-06
   1      7    11.287     4.655    0.22E-03    0.25E-04    0.22E-06
  PAW_PBE Cu 22Jun2005                  :
  PAW_PBE Zr_sv 04Jan2005               :
  PAW_PBE O 08Apr2002                   :
  PAW_PBE H 15Jun2001                   :

 POSCAR: Cu-Zr-OOH
  positions in direct lattice
  velocities in cartesian coordinates
 exchange correlation table for  LEXCH =        8
   RHO(1)=    0.500       N(1)  =     2000
   RHO(2)=  100.500       N(2)  =     4000

 VTST: version 3.2, (02/03/18)

 CHAIN: initializing optimizer

 OPT: Using VASP Conjugate-Gradient optimizer
 CHAIN: Read ICHAIN            0

 POSCAR: Cu-Zr-OOH
  positions in direct lattice
  velocities in cartesian coordinates

 ion  position               nearest neighbor table
   1  0.000  0.000  0.212-   7 2.57   3 2.57   4 2.57   2 2.57   6 2.57   8 2.57  12 2.57  10 2.57
                            16 2.57
   2  0.333  0.000  0.212-   8 2.57   9 2.57   5 2.57   1 2.57   3 2.57  11 2.57   4 2.57  10 2.57
                            17 2.57
   3  0.667  0.000  0.212-   1 2.57   7 2.57   6 2.57   9 2.57   2 2.57  12 2.57   5 2.57  18 2.57
                            11 2.57
   4  0.000  0.333  0.212-   5 2.57   6 2.57   1 2.57   7 2.57   2 2.57  13 2.57   9 2.57  10 2.57
                            15 2.57
   5  0.333  0.333  0.212-   4 2.57   2 2.57   7 2.57  13 2.57   8 2.57   6 2.57   3 2.57  11 2.57
                            14 2.57
   6  0.667  0.333  0.212-   4 2.57   9 2.57  15 2.57   3 2.57   1 2.57   8 2.57  14 2.57   5 2.57
                            12 2.57
   7  0.000  0.667  0.212-   1 2.57   3 2.57  16 2.57  18 2.57   4 2.57   5 2.57   8 2.57   9 2.57
                            13 2.57
   8  0.333  0.667  0.212-   9 2.57   2 2.57  17 2.57   6 2.57   1 2.57   7 2.57   5 2.57  14 2.57
                            16 2.57
   9  0.667  0.667  0.212-   8 2.57   6 2.57   2 2.57  17 2.57   3 2.57   7 2.57   4 2.57  15 2.57
                            18 2.57
  10  0.111  0.111  0.294-  26 2.54  19 2.54  11 2.57  12 2.57  13 2.57   1 2.57   2 2.57   4 2.57
                            15 2.57  16 2.57  17 2.57  20 2.59
  11  0.444  0.111  0.294-  27 2.56  10 2.57  13 2.57   2 2.57  17 2.57  14 2.57  12 2.57   5 2.57
                             3 2.57  18 2.57  20 2.58  21 2.58
  12  0.778  0.111  0.294-  19 2.54  25 2.54  15 2.57  10 2.57  14 2.57  18 2.57   3 2.57   1 2.57
                            16 2.57  11 2.57   6 2.57  21 2.59
  13  0.111  0.444  0.294-  22 2.56  16 2.57  18 2.57  10 2.57  11 2.57  14 2.57   5 2.57   4 2.57
                             7 2.57  15 2.57  23 2.58  20 2.58
  14  0.444  0.444  0.294-  24 2.56  15 2.57  17 2.57  12 2.57  16 2.57  13 2.57  11 2.57   6 2.57
                             8 2.57   5 2.57  21 2.58  23 2.58
  15  0.778  0.444  0.294-  19 2.54  24 2.56  22 2.56  14 2.57  17 2.57  12 2.57   6 2.57  18 2.57
                            10 2.57   9 2.57  13 2.57   4 2.57
  16  0.111  0.778  0.294-  25 2.54  26 2.54  18 2.57  13 2.57   7 2.57  14 2.57  17 2.57  12 2.57
                            10 2.57   8 2.57   1 2.57  23 2.59
  17  0.444  0.778  0.294-  26 2.54  27 2.56  24 2.56  14 2.57  15 2.57   8 2.57   9 2.57  11 2.57
                            16 2.57  18 2.57  10 2.57   2 2.57
  18  0.778  0.778  0.294-  25 2.54  22 2.56  27 2.56  16 2.57  13 2.57   7 2.57  15 2.57  12 2.57
                            17 2.57   9 2.57   3 2.57  11 2.57
  19  0.889  0.221  0.375-  12 2.54  10 2.54  15 2.54  25 2.55  26 2.55  32 2.56  31 2.56  22 2.57
                            24 2.57  28 2.57  21 2.58  20 2.58
  20  0.223  0.223  0.378-  23 2.55  21 2.55  29 2.57  31 2.57  27 2.57  22 2.57  26 2.58  19 2.58
                            11 2.58  13 2.58  10 2.59  36 2.86
  21  0.554  0.223  0.378-  20 2.55  23 2.55  32 2.57  30 2.57  24 2.57  27 2.57  19 2.58  25 2.58
                            14 2.58  11 2.58  12 2.59  36 2.86
  22  0.889  0.556  0.376-  18 2.56  15 2.56  13 2.56  31 2.56  33 2.56  24 2.57  27 2.57  23 2.57
                            20 2.57  19 2.57  25 2.57  35 2.58
  23  0.223  0.554  0.378-  20 2.55  21 2.55  33 2.57  34 2.57  22 2.57  24 2.57  25 2.58  26 2.58
                            13 2.58  14 2.58  16 2.59  36 2.86
  24  0.556  0.556  0.376-  15 2.56  17 2.56  14 2.56  32 2.56  34 2.56  22 2.57  27 2.57  21 2.57
                            23 2.57  19 2.57  26 2.57  35 2.58
  25  0.889  0.889  0.375-  12 2.54  16 2.54  18 2.54  19 2.55  26 2.55  33 2.56  30 2.56  22 2.57
                            27 2.57  28 2.57  21 2.58  23 2.58
  26  0.221  0.889  0.375-  10 2.54  16 2.54  17 2.54  25 2.55  19 2.55  29 2.56  34 2.56  27 2.57
                            24 2.57  28 2.57  20 2.58  23 2.58
  27  0.556  0.889  0.376-  17 2.56  18 2.56  11 2.56  29 2.56  30 2.56  24 2.57  22 2.57  20 2.57
                            21 2.57  26 2.57  25 2.57  35 2.58
  28  0.000  0.000  0.459-  33 2.55  30 2.55  31 2.55  29 2.55  32 2.55  34 2.55  25 2.57  19 2.57
                            26 2.57
  29  0.334  0.994  0.459-  34 2.47  35 2.54  28 2.55  27 2.56  26 2.56  20 2.57  30 2.60  31 2.62
                            36 2.64
  30  0.672  0.994  0.459-  33 2.47  35 2.54  28 2.55  27 2.56  25 2.56  21 2.57  29 2.60  32 2.62
                            36 2.64
  31  0.994  0.334  0.459-  32 2.47  35 2.54  28 2.55  22 2.56  19 2.56  20 2.57  33 2.60  29 2.62
                            36 2.64
  32  0.672  0.334  0.459-  31 2.47  35 2.54  28 2.55  24 2.56  19 2.56  21 2.57  34 2.60  30 2.62
                            36 2.64
  33  0.994  0.672  0.459-  30 2.47  35 2.54  28 2.55  22 2.56  25 2.56  23 2.57  31 2.60  34 2.62
                            36 2.64
  34  0.334  0.672  0.459-  29 2.47  35 2.54  28 2.55  24 2.56  26 2.56  23 2.57  32 2.60  33 2.62
                            36 2.64
  35  0.667  0.667  0.460-  34 2.54  32 2.54  29 2.54  30 2.54  33 2.54  31 2.54  24 2.58  27 2.58
                            22 2.58
  36  0.333  0.333  0.474-  37 1.91  31 2.64  29 2.64  33 2.64  32 2.64  34 2.64  30 2.64  23 2.86
                            20 2.86  21 2.86
  37  0.334  0.333  0.549-  38 1.42  36 1.91
  38  0.316  0.333  0.605-  39 0.98  37 1.42
  39  0.439  0.333  0.616-  38 0.98

  LATTYP: Found a hexagonal cell.
 ALAT       =     7.6967864036
 C/A-ratio  =     3.2973366172

  Lattice vectors:

 A1 = (  -3.8483927580,  -6.6656128093,   0.0000000000)
 A2 = (   7.6967864037,   0.0000000000,   0.0000000000)
 A3 = (   0.0000000000,   0.0000000000,  25.3788956434)

Analysis of symmetry for initial positions (statically):
 Subroutine PRICEL returns:
 Original cell was already a primitive cell.

 Routine SETGRP: Setting up the symmetry group for a
 hexagonal supercell.

 Subroutine GETGRP returns: Found  1 space group operations
 (whereof  1 operations were pure point group operations)
 out of a pool of 24 trial point group operations.

The static configuration has the point symmetry C_1 .

Analysis of symmetry for dynamics (positions and initial velocities):
 Subroutine PRICEL returns:
 Original cell was already a primitive cell.

[...]

The dynamic configuration has the point symmetry C_1 .

Analysis of constrained symmetry for selective dynamics:
 Subroutine PRICEL returns:
[...]
     41      -4.5029      2.00000
     42      -4.4548      2.00000
     43      -4.4081      2.00000
     44      -4.3824      2.00000
     45      -4.3496      2.00000
     46      -4.2101      2.00000
     47      -4.1906      2.00000
     48      -4.1509      2.00000
     49      -4.1451      2.00000
     50      -4.1367      2.00000
     51      -4.1066      2.00000
     52      -4.0976      2.00000
     53      -4.0879      2.00000
     54      -4.0707      2.00000
     55      -3.9538      2.00000
     56      -3.9285      2.00000
     57      -3.9112      2.00000
     58      -3.8900      2.00000
     59      -3.8295      2.00000
     60      -3.8165      2.00000
[...]
    238       4.9133      0.00000
    239       4.9779      0.00000
    240       5.2278      0.00000
    241       5.2798      0.00000
    242       5.3821      0.00000
    243       5.4825      0.00000
    244       5.5481      0.00000
    245       5.6064      0.00000
    246       5.6566      0.00000
    247       5.7009      0.00000
    248       5.8164      0.00000
    249       5.9150      0.00000
    250       6.0026      0.00000
    251       6.1417      0.00000
    252       6.2377      0.00000

 soft charge-density along one line, spin component           1
         0         1         2         3         4         5         6         7         8         9
 total charge-density along one line

------------------------ aborting loop because EDIFF is reached ----------------------------------------

 total charge

# of ion       s       p       d       tot
    1        0.448   0.284   9.186   9.918
    2        0.448   0.285   9.185   9.919
    3        0.448   0.285   9.185   9.919
    4        0.448   0.285   9.185   9.919
    5        0.447   0.286   9.184   9.917
    6        0.448   0.285   9.185   9.919
    7        0.448   0.285   9.185   9.919
    8        0.448   0.285   9.185   9.919
    9        0.448   0.284   9.188   9.920
   10        0.442   0.371   9.178   9.991
   11        0.441   0.365   9.182   9.987
   12        0.442   0.371   9.178   9.991
   13        0.441   0.364   9.182   9.987
   14        0.441   0.364   9.182   9.987
   15        0.439   0.373   9.177   9.989
   16        0.442   0.371   9.178   9.991
   17        0.439   0.373   9.177   9.989
   18        0.439   0.373   9.177   9.989
   19        0.447   0.372   9.181  10.000
   20        0.453   0.379   9.166   9.998
   21        0.453   0.378   9.167   9.999
   22        0.436   0.376   9.178   9.989
   23        0.453   0.379   9.167   9.998
   24        0.436   0.376   9.177   9.989
   25        0.447   0.372   9.181   9.999
   26        0.447   0.372   9.181   9.999
   27        0.436   0.376   9.177   9.989
   28        0.446   0.300   9.179   9.924
   29        0.487   0.317   9.169   9.973
   30        0.487   0.318   9.169   9.973
   31        0.487   0.318   9.168   9.973
   32        0.487   0.319   9.168   9.974
   33        0.487   0.317   9.169   9.973
   34        0.487   0.318   9.168   9.973
   35        0.448   0.304   9.178   9.930
   36        2.227   6.002   1.658   9.887
   37        1.575   3.385   0.000   4.960
   38        1.588   3.397   0.000   4.985
   39        0.616   0.113   0.000   0.729
tot         21.828  24.674 322.879 369.380

  FORCE on cell =-STRESS in cart. coord.  units (eV):
  Direction    XX          YY          ZZ          XY          YZ          ZX
  Alpha Z   782.95665   782.95665   782.95665
  Ewald  255390.34330255297.11145************     0.01144     0.06442     6.42379
  Hartree268477.53156268458.35361************    -0.03740     0.01724    -7.25379
  E(xc)   -2360.56131 -2360.94876 -2364.22737     0.00024     0.00026     0.05953
  Local  ************************536515.09376     0.07415    -0.08025     4.91849
  n-local  -818.19752  -818.21262  -817.78960    -0.00826     0.00667    -0.25847
  augment  3322.55675  3324.43553  3340.22537    -0.02416     0.00020    -0.11696
  Kinetic  3636.29598  3661.35184  3620.37826    -0.01705     0.00082    -3.78934
  Fock        0.00000     0.00000     0.00000     0.00000     0.00000     0.00000
  Total      -3.26453    -3.26274     0.28763    -0.00104     0.00936    -0.01675
  in kB      -4.01707    -4.01486     0.35394    -0.00127     0.01152    -0.02061

 VOLUME and BASIS-vectors are now :
  energy-cutoff  :      500.00
  volume of cell :     1302.03
      direct lattice vectors                 reciprocal lattice vectors
     7.696786404  0.000000000  0.000000000     0.129924354 -0.075011849  0.000000000
     3.848392758  6.665612809  0.000000000     0.000000000  0.150023716  0.000000000
     0.000000000  0.000000000 25.378895643     0.000000000  0.000000000  0.039402818

  length of vectors
     7.696786404  7.696786404 25.378895643     0.150023716  0.150023716  0.039402818

 FORCES acting on ions
    electron-ion (+dipol)            ewald-force                    non-local-force                 convergence-correction
   0.179E-02 -.647E-02 0.392E+04   -.276E-03 -.537E-03 -.392E+04   -.459E-02 0.302E-02 -.217E+01   0.318E-02 0.433E-02 -.466E+00
   -.868E+00 -.880E+00 0.392E+04   0.859E+00 0.892E+00 -.392E+04   0.274E-01 0.441E-01 -.191E+01   -.160E-01 -.483E-01 -.398E+00
   0.867E+00 -.892E+00 0.392E+04   -.859E+00 0.893E+00 -.392E+04   -.238E-01 0.454E-01 -.190E+01   0.133E-01 -.379E-01 -.383E+00
   -.121E+01 -.312E+00 0.392E+04   0.120E+01 0.297E+00 -.392E+04   0.600E-01 0.517E-02 -.189E+01   -.498E-01 0.719E-02 -.395E+00
   -.830E-02 -.601E-02 0.392E+04   0.790E-03 -.401E-04 -.391E+04   -.112E-01 -.551E-02 -.190E+01   0.199E-01 0.116E-01 -.382E+00
   0.121E+01 -.320E+00 0.392E+04   -.120E+01 0.297E+00 -.392E+04   -.572E-01 0.403E-02 -.189E+01   0.436E-01 0.171E-01 -.376E+00
   -.328E+00 0.120E+01 0.392E+04   0.344E+00 -.119E+01 -.392E+04   0.173E-01 -.504E-01 -.190E+01   -.267E-01 0.310E-01 -.384E+00
   0.311E+00 0.121E+01 0.392E+04   -.344E+00 -.119E+01 -.392E+04   -.140E-01 -.504E-01 -.190E+01   0.408E-01 0.280E-01 -.380E+00
   0.192E-01 0.582E-02 0.392E+04   -.706E-04 0.583E-03 -.392E+04   0.749E-02 0.401E-02 -.208E+01   -.269E-01 -.114E-01 -.379E+00
   -.101E+02 -.581E+01 0.141E+04   0.103E+02 0.595E+01 -.141E+04   -.205E+00 -.125E+00 -.817E+00   0.465E-02 0.323E-02 -.673E+00
   -.193E-01 -.804E+01 0.140E+04   0.396E-02 0.780E+01 -.139E+04   -.928E-02 0.229E+00 -.500E+00   0.247E-01 0.905E-04 -.650E+00
   0.101E+02 -.582E+01 0.141E+04   -.103E+02 0.596E+01 -.141E+04   0.205E+00 -.122E+00 -.792E+00   -.168E-01 0.157E-01 -.663E+00
   -.698E+01 0.400E+01 0.140E+04   0.676E+01 -.390E+01 -.139E+04   0.197E+00 -.124E+00 -.486E+00   0.105E-01 0.227E-01 -.647E+00
   0.694E+01 0.401E+01 0.140E+04   -.675E+01 -.390E+01 -.139E+04   -.209E+00 -.121E+00 -.484E+00   0.332E-01 0.167E-01 -.641E+00
   0.218E-01 -.206E+01 0.141E+04   -.424E-02 0.201E+01 -.141E+04   0.101E-02 0.388E-01 -.833E+00   -.178E-01 0.176E-01 -.649E+00
   -.499E-02 0.116E+02 0.141E+04   0.106E-02 -.119E+02 -.141E+04   0.119E-02 0.242E+00 -.817E+00   0.265E-02 -.216E-01 -.666E+00
   -.177E+01 0.104E+01 0.141E+04   0.174E+01 -.101E+01 -.141E+04   0.307E-01 -.114E-01 -.836E+00   0.985E-02 -.254E-01 -.654E+00
   0.178E+01 0.102E+01 0.141E+04   -.174E+01 -.100E+01 -.141E+04   -.356E-01 -.157E-01 -.840E+00   -.115E-01 -.935E-02 -.649E+00
   0.329E-01 -.438E+01 -.110E+04   -.306E-01 0.435E+01 0.110E+04   0.138E-01 -.196E-01 0.104E+01   -.164E-01 0.359E-01 -.416E+00
   -.231E+02 -.133E+02 -.117E+04   0.240E+02 0.138E+02 0.117E+04   -.998E+00 -.597E+00 -.267E+00   0.461E-02 0.787E-02 -.471E+00
   0.231E+02 -.133E+02 -.117E+04   -.240E+02 0.138E+02 0.117E+04   0.942E+00 -.585E+00 -.235E+00   0.392E-01 0.160E-01 -.479E+00
   -.877E+01 0.502E+01 -.112E+04   0.865E+01 -.496E+01 0.112E+04   0.186E+00 -.995E-01 0.847E+00   -.408E-01 0.241E-01 -.451E+00
   -.448E-01 0.266E+02 -.117E+04   0.289E-01 -.277E+02 0.117E+04   -.123E-01 0.113E+01 -.216E+00   0.270E-01 0.282E-01 -.474E+00
   0.880E+01 0.504E+01 -.112E+04   -.868E+01 -.498E+01 0.112E+04   -.178E+00 -.927E-01 0.839E+00   0.264E-01 0.144E-01 -.454E+00
   0.381E+01 0.221E+01 -.110E+04   -.379E+01 -.218E+01 0.110E+04   0.134E-01 -.232E-02 0.105E+01   -.197E-01 -.159E-01 -.414E+00
   -.380E+01 0.224E+01 -.110E+04   0.378E+01 -.221E+01 0.110E+04   -.127E-01 0.100E-01 0.106E+01   0.187E-01 -.334E-01 -.409E+00
   -.718E-02 -.101E+02 -.112E+04   0.695E-02 0.999E+01 0.112E+04   0.321E-03 0.210E+00 0.858E+00   -.521E-04 -.552E-01 -.449E+00
   0.873E-01 0.198E+00 -.366E+04   -.874E-01 -.180E+00 0.366E+04   0.495E-03 -.889E-02 0.162E+01   -.582E-03 -.628E-02 0.176E+00
   0.123E+02 0.777E+01 -.361E+04   -.120E+02 -.772E+01 0.361E+04   -.258E+00 -.119E+00 0.124E+01   -.666E-01 -.874E-01 -.514E-01
   -.123E+02 0.753E+01 -.361E+04   0.121E+02 -.748E+01 0.361E+04   0.264E+00 -.125E+00 0.121E+01   0.681E-01 -.772E-01 -.607E-01
   0.128E+02 0.694E+01 -.361E+04   -.127E+02 -.677E+01 0.361E+04   -.210E+00 -.161E+00 0.119E+01   -.104E+00 -.139E-01 -.583E-01
   -.125E+02 0.694E+01 -.361E+04   0.124E+02 -.677E+01 0.361E+04   0.229E+00 -.163E+00 0.111E+01   0.976E-01 -.901E-02 -.752E-01
   0.230E+00 -.147E+02 -.361E+04   -.316E+00 0.145E+02 0.361E+04   0.227E-01 0.276E+00 0.123E+01   -.271E-01 0.980E-01 -.600E-01
   -.319E+00 -.145E+02 -.361E+04   0.390E+00 0.143E+02 0.361E+04   -.179E-01 0.284E+00 0.120E+01   0.383E-01 0.934E-01 -.664E-01
   0.106E+00 -.199E+00 -.368E+04   -.887E-01 0.193E+00 0.368E+04   0.682E-02 0.149E-01 0.172E+01   -.246E-01 -.112E-01 0.640E-01
   -.644E+00 0.331E-01 -.395E+04   0.530E+00 -.332E-01 0.395E+04   0.991E-01 -.793E-03 -.458E+00   0.109E-01 0.929E-02 0.363E-01
   -.119E+02 0.210E-01 -.223E+04   0.138E+02 -.241E-01 0.221E+04   -.186E+01 0.322E-02 0.209E+02   -.161E-02 0.773E-04 0.172E+00
   0.668E+02 -.148E-01 -.217E+04   -.109E+03 0.294E-02 0.219E+04   0.426E+02 0.112E-01 -.249E+02   -.183E-02 0.181E-02 0.108E+00
   -.876E+02 -.260E-01 -.357E+03   0.955E+02 0.292E-01 0.359E+03   -.786E+01 -.274E-02 -.247E+01   -.772E-04 0.583E-04 0.182E-01
   -.331E+02 0.125E-01 0.284E+02   0.284E-13 0.291E-12 0.455E-12   0.330E+02 -.474E-01 -.153E+02   0.678E-01 0.408E-01 -.132E+02

 POSITION                                       TOTAL-FORCE (eV/Angst)
      0.00000      0.00000      5.37156         0.000123      0.000192      0.017398
      2.56560      0.00000      5.37156         0.001846      0.007919      0.058491
      5.13119      0.00000      5.37156        -0.001741      0.008144      0.059367
      1.28280      2.22187      5.37156         0.006498     -0.002782      0.060116
      3.84839      2.22187      5.37156         0.001138     -0.000067      0.065818
      6.41399      2.22187      5.37156        -0.007110     -0.002645      0.060423
      2.56560      4.44374      5.37156         0.006557     -0.005206      0.059171
      5.13119      4.44374      5.37156        -0.006441     -0.005860      0.059110
      7.69679      4.44374      5.37156        -0.000194     -0.001096      0.032540
      1.28280      0.74062      7.46636         0.044011      0.024805     -0.105568
      3.84839      0.74062      7.46636         0.000069     -0.012100     -0.022231
      6.41399      0.74062      7.46636        -0.043316      0.024314     -0.104280
      2.56560      2.96249      7.46636        -0.010525      0.006530     -0.022560
      5.13119      2.96249      7.46636         0.011459      0.006988     -0.021639
      7.69679      2.96249      7.46636         0.000818      0.011963     -0.034675
      3.84839      5.18437      7.46636        -0.000068     -0.050574     -0.105505
      6.41399      5.18437      7.46636         0.009892     -0.005282     -0.034404
      8.97958      5.18437      7.46636        -0.009888     -0.006198     -0.034819
      7.69679      1.47435      9.52922        -0.000300     -0.014081      0.013639
      2.57570      1.48708      9.58099        -0.095360     -0.053737     -0.165652
      5.12109      1.48708      9.58099         0.100791     -0.059059     -0.179054
      8.97941      3.70322      9.55185         0.024125     -0.014864      0.023032
      3.84839      3.69145      9.58099        -0.001142      0.109860     -0.168633
      6.41416      3.70322      9.55185        -0.024310     -0.014970      0.019889
     10.26835      5.92844      9.52922         0.011859      0.007200      0.017328
      5.12522      5.92844      9.52922        -0.012042      0.006768      0.018149
      7.69679      5.92479      9.55185         0.000052      0.026356      0.024114
      0.00000      0.00000     11.63765        -0.000126      0.001941     -0.050115
      6.39598      6.62341     11.64088        -0.091144     -0.156279     -0.135842
      8.99759      6.62341     11.64088         0.092996     -0.154731     -0.137198
      8.93403      2.22738     11.64088        -0.181357     -0.000261     -0.140771
      6.45955      2.22738     11.64088         0.180580     -0.000965     -0.147193
     10.23483      4.48044     11.64088        -0.090057      0.156576     -0.134348
      5.15874      4.48044     11.64088         0.090983      0.154819     -0.136844
      7.69679      4.44374     11.66679        -0.000825     -0.003274     -0.045054
      3.84839      2.22187     12.03290        -0.004534      0.008279      1.345521
      3.85081      2.22205     13.94315         0.001977      0.000042     -0.001594
      3.71703      2.22223     15.35704        -0.004344      0.001032     -0.008963
      4.65959      2.22256     15.63297        -0.000948      0.000304      0.002834
    total drift:                               -0.000594      0.005915     -0.133865

  FREE ENERGIE OF THE ION-ELECTRON SYSTEM (eV)
  free  energy   TOTEN  =      -146.77024695 eV

  energy  without entropy=     -146.77024695  energy(sigma->0) =     -146.77024695

 stress matrix after NEB project (eV)
     -3.26453     -0.00104     -0.01675
     -0.00104     -3.26274      0.00936
     -0.01675      0.00936      0.28763
  FORCES: max atom, RMS     0.010014    0.001723
  FORCE total and by dimension    0.010759    0.008963
  Stress total and by dimension    4.624508    3.264531
|           W    W    AA    RRRRR   N    N  II  N    N   GGGG   !!!           |
|           W    W   A  A   R    R  NN   N  II  NN   N  G    G  !!!           |
|           W    W  A    A  R    R  N N  N  II  N N  N  G       !!!           |
|           W WW W  AAAAAA  RRRRR   N  N N  II  N  N N  G  GGG   !            |
|           WW  WW  A    A  R   R   N   NN  II  N   NN  G    G                |
|           W    W  A    A  R    R  N    N  II  N    N   GGGG   !!!           |
|     Tetrahedron method does not include variations of the Fermi             |
|     occupations, so forces and stress will be inaccurate. We suggest        |
|     using a different smearing scheme ISMEAR = 1 or 2 for metals in         |
|     relaxations.                                                            |

 total charge

# of ion       s       p       d       tot
    1        0.448   0.284   9.186   9.918
    2        0.448   0.285   9.185   9.919
    3        0.448   0.285   9.185   9.919
    4        0.448   0.285   9.185   9.919
    5        0.447   0.286   9.184   9.917
    6        0.448   0.285   9.185   9.919
    7        0.448   0.285   9.185   9.919
    8        0.448   0.285   9.185   9.919
    9        0.448   0.284   9.188   9.920
   10        0.442   0.371   9.178   9.991
   11        0.441   0.365   9.182   9.987
   12        0.442   0.371   9.178   9.991
   13        0.441   0.364   9.182   9.987
   14        0.441   0.364   9.182   9.987
   15        0.439   0.373   9.177   9.989
   16        0.442   0.371   9.178   9.991
   17        0.439   0.373   9.177   9.989
   18        0.439   0.373   9.177   9.989
   19        0.447   0.372   9.181  10.000
   20        0.453   0.379   9.166   9.998
   21        0.453   0.378   9.167   9.999
   22        0.436   0.376   9.178   9.989
   23        0.453   0.379   9.167   9.998
   24        0.436   0.376   9.177   9.989
   25        0.447   0.372   9.181   9.999
   26        0.447   0.372   9.181   9.999
   27        0.436   0.376   9.177   9.989
   28        0.446   0.300   9.179   9.924
   29        0.487   0.317   9.169   9.973
   30        0.487   0.318   9.169   9.973
   31        0.487   0.318   9.168   9.973
   32        0.487   0.319   9.168   9.974
   33        0.487   0.317   9.169   9.973
   34        0.487   0.318   9.168   9.973
   35        0.448   0.304   9.178   9.930
   36        2.227   6.002   1.658   9.887
   37        1.575   3.385   0.000   4.960
   38        1.588   3.397   0.000   4.985
   39        0.616   0.113   0.000   0.729
tot         21.828  24.674 322.879 369.380

 BZINTS: Fermi energy:   -0.363844;  410.000000 electrons
         Band energy:-0.167083E+04;  BLOECHL correction:   -0.064683