 vasp.6.2.0 18Jan21 (build Jun 12 2021 23:27:24) complex

 executed on             LinuxIFC date 2022.05.28  01:59:20

 INCAR:
   ISMEAR = -5
   SIGMA = 0.1
   ISPIN = 1
   EDIFF = 1.d-5
   EDIFFG = -0.01
   NSW = 0
   NELM = 150
   ENCUT = 500
   ISIF = 2
   IBRION = 2
   LREAL = Auto
   ALGO = Fast
   ICHARG = 11
   LORBIT = 10
   LCHARG = .F.
   LWAVE = .F.

 POTCAR:    PAW_PBE Ag 02Apr2005
 POTCAR:    PAW_PBE Ta 17Jan2003
 POTCAR:    PAW_PBE H 15Jun2001
 POTCAR:    PAW_PBE O 08Apr2002
|           W    W    AA    RRRRR   N    N  II  N    N   GGGG   !!!           |
|           W    W   A  A   R    R  NN   N  II  NN   N  G    G  !!!           |
|           W    W  A    A  R    R  N N  N  II  N N  N  G       !!!           |
|           W WW W  AAAAAA  RRRRR   N  N N  II  N  N N  G  GGG   !            |
|           WW  WW  A    A  R   R   N   NN  II  N   NN  G    G                |
|           W    W  A    A  R    R  N    N  II  N    N   GGGG   !!!           |
|     For optimal performance we recommend to set                             |
|       NCORE = 2 up to number-of-cores-per-socket                            |
|     This setting can greatly improve the performance of VASP for DFT.       |
|     The default, NCORE=1 might be grossly inefficient on modern             |
|     multi-core architectures or massively parallel machines. Do your        |
|     Unfortunately you need to use the default for GW and RPA                |
|     calculations (for HF NCORE is supported but not extensively tested      |
|     yet).                                                                   |

 POTCAR:    PAW_PBE Ag 02Apr2005
   VRHFIN =Ag : s1 d10

   TITEL  = PAW_PBE Ag 02Apr2005
   POMASS =  107.868; ZVAL   =   11.000    mass and valenz
   ENMAX  =  249.844; ENMIN  =  187.383 eV

 POTCAR:    PAW_PBE Ta 17Jan2003
   VRHFIN =Ta:  6s5d

   TITEL  = PAW_PBE Ta 17Jan2003
   POMASS =  180.948; ZVAL   =    5.000    mass and valenz
   ENMAX  =  223.667; ENMIN  =  167.750 eV

 POTCAR:    PAW_PBE H 15Jun2001
   VRHFIN =H: ultrasoft test

   TITEL  = PAW_PBE H 15Jun2001
   POMASS =    1.000; ZVAL   =    1.000    mass and valenz
   ENMAX  =  250.000; ENMIN  =  200.000 eV

 POTCAR:    PAW_PBE O 08Apr2002
   VRHFIN =O: s2p4

   TITEL  = PAW_PBE O 08Apr2002
   POMASS =   16.000; ZVAL   =    6.000    mass and valenz
   ENMAX  =  400.000; ENMIN  =  300.000 eV

 Optimization of the real space projectors (new method)

 maximal supplied QI-value         = 15.12
 optimisation between [QCUT,QGAM] = [ 11.34, 22.83] = [ 36.00,145.93] Ry
 Optimized for a Real-space Cutoff    1.43 Angstroem

   l    n(q)    QCUT    max X(q) W(low)/X(q) W(high)/X(q)  e(spline)
   2      9    11.338    53.897    0.16E-03    0.20E-03    0.28E-06
   2      9    11.338    52.416    0.16E-03    0.20E-03    0.29E-06
   0     10    11.338   122.045    0.31E-04    0.76E-04    0.15E-06
   0     10    11.338    73.629    0.30E-04    0.72E-04    0.15E-06
   1      9    11.338    15.255    0.20E-03    0.19E-04    0.17E-06
   1      9    11.338     9.562    0.16E-03    0.15E-04    0.14E-06
 Optimization of the real space projectors (new method)

[...]

   l    n(q)    QCUT    max X(q) W(low)/X(q) W(high)/X(q)  e(spline)
   0      8    11.287    19.460    0.40E-03    0.73E-03    0.16E-06
   0      8    11.287    12.209    0.38E-03    0.70E-03    0.15E-06
   1      7    11.287     4.655    0.22E-03    0.25E-04    0.22E-06
 Optimization of the real space projectors (new method)

 maximal supplied QI-value         = 24.76
 optimisation between [QCUT,QGAM] = [ 11.39, 22.77] = [ 36.31,145.25] Ry
 Optimized for a Real-space Cutoff    1.00 Angstroem

   l    n(q)    QCUT    max X(q) W(low)/X(q) W(high)/X(q)  e(spline)
   0      7    11.387    20.381    0.39E-03    0.13E-02    0.15E-06
   0      7    11.387    15.268    0.42E-03    0.14E-02    0.17E-06
   1      6    11.387     5.964    0.41E-03    0.11E-02    0.17E-06
   1      6    11.387     5.382    0.39E-03    0.87E-03    0.15E-06
  PAW_PBE Ag 02Apr2005                  :
  PAW_PBE Ta 17Jan2003                  :
  PAW_PBE H 15Jun2001                   :
  PAW_PBE O 08Apr2002                   :

 POSCAR: Ag-Ta-H2O
  positions in direct lattice
  velocities in cartesian coordinates
 exchange correlation table for  LEXCH =        8
   RHO(1)=    0.500       N(1)  =     2000
   RHO(2)=  100.500       N(2)  =     4000

 VTST: version 3.2, (02/03/18)

 CHAIN: initializing optimizer

 OPT: Using VASP Conjugate-Gradient optimizer
 CHAIN: Read ICHAIN            0

 POSCAR: Ag-Ta-H2O
  positions in direct lattice
  velocities in cartesian coordinates

 ion  position               nearest neighbor table
   1  0.000  0.000  0.212-   2 2.93   8 2.93   7 2.93   6 2.93   4 2.93  12 2.93  16 2.93  10 2.93
                             3 2.93
   2  0.333  0.000  0.212-   1 2.93   8 2.93   9 2.93   3 2.93   4 2.93   5 2.93  10 2.93  17 2.93
                            11 2.93
   3  0.667  0.000  0.212-   9 2.93   2 2.93   5 2.93  11 2.93   7 2.93  18 2.93   1 2.93   6 2.93
                            12 2.93
   4  0.000  0.333  0.212-   5 2.93   6 2.93   2 2.93   1 2.93   7 2.93  13 2.93  15 2.93   9 2.93
                            10 2.93
   5  0.333  0.333  0.212-   4 2.93   3 2.93   7 2.93   2 2.93   8 2.93  14 2.93  13 2.93  11 2.93
                             6 2.93
   6  0.667  0.333  0.212-   4 2.93   9 2.93   1 2.93  15 2.93   8 2.93  12 2.93   3 2.93   5 2.93
                            14 2.93
   7  0.000  0.667  0.212-   8 2.93   1 2.93   5 2.93   3 2.93   4 2.93  16 2.93  18 2.93  13 2.93
                             9 2.93
   8  0.333  0.667  0.212-   7 2.93   1 2.93   2 2.93   9 2.93   5 2.93  16 2.93   6 2.93  17 2.93
                            14 2.93
   9  0.667  0.667  0.212-   3 2.93   2 2.93   8 2.93   6 2.93  17 2.93   4 2.93  15 2.93   7 2.93
                            18 2.93
  10  0.111  0.111  0.308-  20 2.89  12 2.93  16 2.93  15 2.93  17 2.93  13 2.93  11 2.93   2 2.93
                             1 2.93   4 2.93  19 2.93  26 2.93
  11  0.444  0.111  0.308-  21 2.90  20 2.90  14 2.93  17 2.93  18 2.93   3 2.93  12 2.93  13 2.93
                            10 2.93   5 2.93   2 2.93  27 2.93
  12  0.778  0.111  0.308-  21 2.89  10 2.93  16 2.93  18 2.93  15 2.93  11 2.93   1 2.93  14 2.93
                             6 2.93   3 2.93  25 2.93  19 2.93
  13  0.111  0.444  0.308-  20 2.90  23 2.90  15 2.93  14 2.93  18 2.93  10 2.93  11 2.93  16 2.93
                             4 2.93   5 2.93   7 2.93  22 2.93
  14  0.444  0.444  0.308-  23 2.90  21 2.90  13 2.93  11 2.93  16 2.93   5 2.93  12 2.93  17 2.93
                             8 2.93  15 2.93   6 2.93  24 2.93
  15  0.778  0.444  0.308-  19 2.93  24 2.93  22 2.93  13 2.93  10 2.93  12 2.93  17 2.93  18 2.93
                             4 2.93   6 2.93   9 2.93  14 2.93
  16  0.111  0.778  0.308-  23 2.89  18 2.93  12 2.93  10 2.93  14 2.93  17 2.93  13 2.93   7 2.93
                             8 2.93   1 2.93  26 2.93  25 2.93
  17  0.444  0.778  0.308-  26 2.93  27 2.93  24 2.93  11 2.93  10 2.93   9 2.93  18 2.93  15 2.93
                            16 2.93   2 2.93  14 2.93   8 2.93
  18  0.778  0.778  0.308-  25 2.93  22 2.93  27 2.93  16 2.93  12 2.93  13 2.93  11 2.93  17 2.93
                            15 2.93   7 2.93   3 2.93   9 2.93
  19  0.889  0.223  0.404-  20 2.92  21 2.92  24 2.93  22 2.93  28 2.93  15 2.93  10 2.93  12 2.93
                            26 2.94  25 2.94  32 2.99  31 2.99
  20  0.222  0.222  0.402-  36 2.78  10 2.89  13 2.90  11 2.90  19 2.92  26 2.92  27 2.93  22 2.93
                            21 2.95  23 2.95  31 2.97  29 2.97
  21  0.557  0.222  0.402-  36 2.78  12 2.89  11 2.90  14 2.90  25 2.92  19 2.92  27 2.93  24 2.93
                            20 2.95  23 2.95  30 2.97  32 2.97
  22  0.888  0.556  0.404-  24 2.92  27 2.92  25 2.93  19 2.93  18 2.93  15 2.93  13 2.93  23 2.93
                            20 2.93  35 2.94  33 2.96  31 2.96
  23  0.222  0.557  0.402-  36 2.78  16 2.89  14 2.90  13 2.90  26 2.92  25 2.92  22 2.93  24 2.93
                            21 2.95  20 2.95  34 2.97  33 2.97
  24  0.556  0.556  0.404-  27 2.92  22 2.92  19 2.93  26 2.93  15 2.93  17 2.93  14 2.93  23 2.93
                            21 2.93  35 2.94  32 2.96  34 2.96
  25  0.889  0.889  0.404-  23 2.92  21 2.92  22 2.93  27 2.93  28 2.93  18 2.93  16 2.93  12 2.93
                            26 2.94  19 2.94  33 2.99  30 2.99
  26  0.223  0.889  0.404-  23 2.92  20 2.92  27 2.93  24 2.93  28 2.93  17 2.93  16 2.93  10 2.93
                            25 2.94  19 2.94  34 2.99  29 2.99
  27  0.556  0.888  0.404-  24 2.92  22 2.92  26 2.93  25 2.93  17 2.93  18 2.93  11 2.93  20 2.93
                            21 2.93  35 2.94  29 2.96  30 2.96
  28  0.000  0.000  0.499-  26 2.93  25 2.93  19 2.93  29 2.96  34 2.96  33 2.96  32 2.96  31 2.96
                            30 2.96
  29  0.334  0.006  0.501-  30 2.88  31 2.88  36 2.89  35 2.96  28 2.96  27 2.96  20 2.97  26 2.99
                            34 3.03
  30  0.661  0.006  0.501-  29 2.88  32 2.88  36 2.89  35 2.96  28 2.96  27 2.96  21 2.97  25 2.99
                            33 3.03
  31  0.006  0.334  0.501-  33 2.88  29 2.88  36 2.89  35 2.96  28 2.96  22 2.96  20 2.97  19 2.99
                            32 3.03
  32  0.661  0.334  0.501-  34 2.88  30 2.88  36 2.89  35 2.96  28 2.96  24 2.96  21 2.97  19 2.99
                            31 3.03
  33  0.006  0.661  0.501-  31 2.88  34 2.88  36 2.89  35 2.96  28 2.96  22 2.96  23 2.97  25 2.99
                            30 3.03
  34  0.334  0.661  0.501-  32 2.88  33 2.88  36 2.89  35 2.96  28 2.96  24 2.96  23 2.97  26 2.99
                            29 3.03
  35  0.667  0.667  0.500-  24 2.94  27 2.94  22 2.94  30 2.96  32 2.96  29 2.96  34 2.96  31 2.96
                            33 2.96
  36  0.333  0.333  0.490-  39 2.26  21 2.78  20 2.78  23 2.78  31 2.89  33 2.89  30 2.89  29 2.89
                            34 2.89  32 2.89
  37  0.276  0.267  0.591-  39 0.98
  38  0.455  0.268  0.591-  39 0.98
  39  0.331  0.335  0.581-  37 0.98  38 0.98  36 2.26

  LATTYP: Found a hexagonal cell.
 ALAT       =     8.7913665772
 C/A-ratio  =     2.8382349142

  Lattice vectors:

 A1 = (  -4.3956832886,  -7.6135467898,   0.0000000000)
 A2 = (   8.7913665771,   0.0000000000,   0.0000000000)
 A3 = (   0.0000000000,   0.0000000000,  24.9519635625)

Analysis of symmetry for initial positions (statically):
 Subroutine PRICEL returns:
 Original cell was already a primitive cell.

 Routine SETGRP: Setting up the symmetry group for a
 hexagonal supercell.

 Subroutine GETGRP returns: Found  1 space group operations
 (whereof  1 operations were pure point group operations)
 out of a pool of 24 trial point group operations.

The static configuration has the point symmetry C_1 .

Analysis of symmetry for dynamics (positions and initial velocities):
 Subroutine PRICEL returns:
 Original cell was already a primitive cell.

[...]

The dynamic configuration has the point symmetry C_1 .

Analysis of constrained symmetry for selective dynamics:
 Subroutine PRICEL returns:
[...]
     41      -4.6659      2.00000
     42      -4.6452      2.00000
     43      -4.6385      2.00000
     44      -4.6287      2.00000
     45      -4.6156      2.00000
     46      -4.6005      2.00000
     47      -4.5135      2.00000
     48      -4.4933      2.00000
     49      -4.4776      2.00000
     50      -4.4733      2.00000
     51      -4.4677      2.00000
     52      -4.4609      2.00000
     53      -4.4550      2.00000
     54      -4.4481      2.00000
     55      -4.4335      2.00000
     56      -4.4316      2.00000
     57      -4.3725      2.00000
     58      -4.3607      2.00000
     59      -4.3500      2.00000
     60      -4.3337      2.00000
[...]
    238       5.7199      0.00000
    239       5.8616      0.00000
    240       5.8749      0.00000
    241       6.0406      0.00000
    242       6.1754      0.00000
    243       6.2641      0.00000
    244       6.3551      0.00000
    245       6.3856      0.00000
    246       6.4769      0.00000
    247       6.6002      0.00000
    248       6.7059      0.00000
    249       6.9075      0.00000
    250       6.9671      0.00000
    251       6.9971      0.00000
    252       7.1353      0.00000

 soft charge-density along one line, spin component           1
         0         1         2         3         4         5         6         7         8         9
 total charge-density along one line

------------------------ aborting loop because EDIFF is reached ----------------------------------------

 total charge

# of ion       s       p       d       tot
    1        0.423   0.199   9.178   9.800
    2        0.415   0.204   9.177   9.796
    3        0.415   0.204   9.177   9.795
    4        0.414   0.204   9.177   9.796
    5        0.421   0.201   9.176   9.798
    6        0.414   0.204   9.177   9.796
    7        0.414   0.204   9.178   9.795
    8        0.414   0.204   9.177   9.795
    9        0.416   0.202   9.177   9.795
   10        0.412   0.268   9.162   9.842
   11        0.407   0.267   9.168   9.843
   12        0.412   0.268   9.162   9.842
   13        0.405   0.268   9.169   9.842
   14        0.405   0.268   9.169   9.842
   15        0.404   0.266   9.165   9.835
   16        0.411   0.268   9.162   9.842
   17        0.403   0.266   9.165   9.835
   18        0.403   0.266   9.165   9.835
   19        0.404   0.263   9.165   9.831
   20        0.454   0.311   9.123   9.888
   21        0.454   0.311   9.123   9.888
   22        0.392   0.270   9.166   9.829
   23        0.452   0.311   9.123   9.886
   24        0.392   0.270   9.166   9.829
   25        0.402   0.263   9.166   9.831
   26        0.402   0.263   9.166   9.831
   27        0.393   0.270   9.166   9.829
   28        0.406   0.204   9.170   9.780
   29        0.451   0.231   9.141   9.823
   30        0.450   0.231   9.141   9.822
   31        0.451   0.230   9.142   9.823
   32        0.451   0.230   9.142   9.823
   33        0.447   0.224   9.147   9.817
   34        0.447   0.224   9.147   9.817
   35        0.401   0.204   9.173   9.778
   36        0.650   0.525   2.920   4.094
   37        0.596   0.117   0.000   0.713
   38        0.596   0.117   0.000   0.713
   39        1.566   3.623   0.000   5.189
tot         18.067  12.923 323.568 354.558

  FORCE on cell =-STRESS in cart. coord.  units (eV):
  Direction    XX          YY          ZZ          XY          YZ          ZX
  Alpha Z   678.05872   678.05872   678.05872
  Ewald  158685.70532158614.15168************     0.65679   -16.31950     1.01968
  Hartree168608.59624168595.84834************     0.09704     2.91745     0.72748
  E(xc)   -2086.26052 -2086.33044 -2092.02094     0.00180    -0.03220    -0.00173
  Local  ************************338334.49741    -0.55834     5.64750    -1.64727
  n-local  -346.66828  -346.54856  -347.99629    -0.00213    -0.17225     0.00117
  augment  3226.93822  3228.13011  3241.59367    -0.01204     0.47025    -0.00477
  Kinetic  4953.97441  4972.52169  5005.85852    -0.18563     7.33078    -0.06110
  Fock        0.00000     0.00000     0.00000     0.00000     0.00000     0.00000
  Total      -8.78054    -8.77534     0.01074    -0.00251    -0.15798     0.03345
  in kB      -8.42332    -8.41834     0.01031    -0.00241    -0.15156     0.03209

 VOLUME and BASIS-vectors are now :
  energy-cutoff  :      500.00
  volume of cell :     1670.12
      direct lattice vectors                 reciprocal lattice vectors
     8.791366577  0.000000000  0.000000000     0.113747958 -0.065672414  0.000000000
     4.395683289  7.613546790  0.000000000     0.000000000  0.131344829  0.000000000
     0.000000000  0.000000000 24.951963562     0.000000000  0.000000000  0.040077006

  length of vectors
     8.791366577  8.791366577 24.951963562     0.131344829  0.131344829  0.040077006

 FORCES acting on ions
    electron-ion (+dipol)            ewald-force                    non-local-force                 convergence-correction
   0.216E-02 0.375E-01 0.270E+04   -.702E-03 -.784E-02 -.270E+04   -.229E-03 -.165E-01 -.195E+01   -.119E-02 -.884E-02 -.741E-01
   -.796E-01 0.902E-01 0.270E+04   -.580E-02 -.233E+00 -.270E+04   0.586E-01 0.212E+00 -.158E+01   0.315E-01 -.714E-01 0.600E-02
   0.781E-01 0.789E-01 0.270E+04   0.653E-02 -.232E+00 -.270E+04   -.580E-01 0.211E+00 -.158E+01   -.313E-01 -.604E-01 0.918E-02
   0.363E-02 -.117E+00 0.270E+04   -.198E+00 0.119E+00 -.270E+04   0.230E+00 -.562E-01 -.161E+01   -.417E-01 0.538E-01 -.649E-02
   -.134E-01 -.210E-01 0.270E+04   0.118E-02 0.122E-01 -.270E+04   -.367E-02 0.460E-02 -.111E+01   0.162E-01 -.134E-02 0.975E-01
   0.499E-02 -.119E+00 0.270E+04   0.197E+00 0.119E+00 -.270E+04   -.229E+00 -.567E-01 -.161E+01   0.327E-01 0.574E-01 -.240E-02
   0.106E+00 0.243E-01 0.270E+04   -.191E+00 0.114E+00 -.270E+04   0.152E+00 -.154E+00 -.168E+01   -.728E-01 0.177E-01 -.107E-01
   -.114E+00 0.292E-01 0.270E+04   0.191E+00 0.113E+00 -.270E+04   -.153E+00 -.153E+00 -.168E+01   0.811E-01 0.124E-01 -.103E-01
   0.129E-01 -.840E-03 0.270E+04   -.376E-03 -.424E-02 -.270E+04   0.308E-02 0.246E-02 -.171E+01   -.158E-01 0.319E-02 0.456E-01
   0.287E+01 0.168E+01 0.907E+03   -.244E+01 -.141E+01 -.906E+03   -.449E+00 -.276E+00 -.753E+00   -.482E-02 -.708E-02 -.334E+00
   -.194E-01 0.192E+01 0.905E+03   0.648E-02 -.179E+01 -.905E+03   -.218E-02 -.208E-02 -.155E+00   0.155E-01 -.181E+00 -.419E+00
   -.285E+01 0.167E+01 0.907E+03   0.243E+01 -.140E+01 -.906E+03   0.449E+00 -.277E+00 -.751E+00   -.413E-02 -.153E-02 -.334E+00
   0.160E+01 -.104E+01 0.905E+03   -.154E+01 0.971E+00 -.905E+03   0.279E-01 0.163E-02 -.159E+00   -.125E+00 0.986E-01 -.414E+00
   -.163E+01 -.104E+01 0.905E+03   0.155E+01 0.968E+00 -.905E+03   -.319E-01 0.232E-02 -.159E+00   0.148E+00 0.941E-01 -.420E+00
   0.159E-01 -.591E+00 0.905E+03   -.699E-02 0.323E+00 -.904E+03   0.674E-03 0.908E-01 -.762E+00   -.948E-02 0.153E+00 -.336E+00
   -.112E-02 -.324E+01 0.907E+03   0.812E-03 0.273E+01 -.906E+03   -.234E-03 0.542E+00 -.762E+00   0.448E-03 0.285E-02 -.329E+00
   -.451E+00 0.331E+00 0.905E+03   0.214E+00 -.203E+00 -.904E+03   0.667E-01 -.395E-01 -.756E+00   0.147E+00 -.773E-01 -.341E+00
   0.454E+00 0.314E+00 0.905E+03   -.215E+00 -.195E+00 -.904E+03   -.669E-01 -.405E-01 -.756E+00   -.148E+00 -.671E-01 -.336E+00
   0.487E-01 -.436E+01 -.909E+03   -.492E-01 0.431E+01 0.909E+03   -.191E-02 0.523E-01 0.712E+00   0.255E-02 -.104E-01 -.311E+00
   -.221E+02 -.131E+02 -.906E+03   0.239E+02 0.142E+02 0.908E+03   -.138E+01 -.817E+00 -.150E+01   -.446E+00 -.286E+00 -.876E+00
   0.220E+02 -.131E+02 -.906E+03   -.239E+02 0.142E+02 0.908E+03   0.137E+01 -.815E+00 -.150E+01   0.463E+00 -.286E+00 -.875E+00
   -.103E+02 0.565E+01 -.907E+03   0.104E+02 -.581E+01 0.907E+03   0.205E+00 -.942E-01 0.410E+00   -.353E+00 0.227E+00 -.462E+00
   -.389E-01 0.254E+02 -.907E+03   0.411E-01 -.274E+02 0.909E+03   -.160E-02 0.160E+01 -.128E+01   -.364E-03 0.504E+00 -.830E+00
   0.103E+02 0.570E+01 -.907E+03   -.105E+02 -.585E+01 0.907E+03   -.208E+00 -.943E-01 0.407E+00   0.367E+00 0.223E+00 -.461E+00
   0.345E+01 0.260E+01 -.909E+03   -.342E+01 -.254E+01 0.909E+03   -.324E-01 -.633E-01 0.837E+00   0.318E-02 0.137E-01 -.295E+00
   -.345E+01 0.265E+01 -.909E+03   0.340E+01 -.259E+01 0.909E+03   0.277E-01 -.628E-01 0.835E+00   0.953E-02 0.110E-01 -.293E+00
   -.201E-01 -.112E+02 -.906E+03   0.148E-01 0.115E+02 0.906E+03   -.169E-02 0.220E+00 0.367E+00   0.706E-02 -.411E+00 -.457E+00
   0.118E+00 0.167E+01 -.264E+04   -.120E+00 -.179E+01 0.264E+04   0.180E-02 0.833E-01 0.159E+01   -.946E-04 0.338E-01 -.153E+00
   0.221E+01 -.786E+00 -.263E+04   -.920E+00 0.276E+01 0.263E+04   -.114E+01 -.165E+01 0.453E+00   -.208E+00 -.425E+00 -.642E-01
   -.232E+01 -.123E+01 -.263E+04   0.102E+01 0.320E+01 0.263E+04   0.114E+01 -.165E+01 0.458E+00   0.208E+00 -.416E+00 -.659E-01
   -.167E+01 0.211E+00 -.263E+04   0.427E+01 -.216E-01 0.263E+04   -.213E+01 -.192E+00 0.412E+00   -.561E+00 0.169E-02 -.214E-01
   0.228E+01 0.268E+00 -.263E+04   -.486E+01 -.800E-01 0.263E+04   0.213E+01 -.193E+00 0.405E+00   0.538E+00 0.491E-02 -.219E-01
   -.619E+01 0.273E+01 -.263E+04   0.707E+01 -.476E+01 0.263E+04   -.720E+00 0.172E+01 0.960E+00   -.246E+00 0.408E+00 -.498E-01
   0.611E+01 0.310E+01 -.263E+04   -.700E+01 -.514E+01 0.263E+04   0.724E+00 0.173E+01 0.947E+00   0.253E+00 0.404E+00 -.480E-01
   0.932E-01 0.890E+00 -.265E+04   -.806E-01 -.833E+00 0.264E+04   0.148E-02 -.267E-01 0.184E+01   -.141E-01 -.251E-01 -.289E+00
   -.319E+00 -.274E+01 -.107E+04   0.315E+00 0.268E+01 0.107E+04   -.531E-02 0.288E-01 0.185E+01   0.290E-02 -.462E-03 0.309E-01
   0.666E+02 0.409E+02 -.290E+03   -.733E+02 -.451E+02 0.292E+03   0.672E+01 0.418E+01 -.216E+01   -.179E-01 -.128E-01 0.463E-01
   -.673E+02 0.398E+02 -.290E+03   0.740E+02 -.438E+02 0.292E+03   -.678E+01 0.406E+01 -.219E+01   0.181E-01 -.124E-01 0.463E-01
   0.934E-01 -.527E+02 -.161E+04   -.456E+00 0.929E+02 0.160E+04   0.358E+00 -.403E+02 0.904E+01   0.625E-03 0.127E-02 0.424E+00
   -.333E+00 0.323E+02 0.147E+02   -.144E-13 0.227E-12 0.205E-11   0.275E+00 -.322E+02 -.664E+01   0.442E-01 -.361E-01 -.823E+01

 POSITION                                       TOTAL-FORCE (eV/Angst)
      0.00000      0.00000      5.28219         0.000406      0.003644     -0.041133
      2.93046      0.00000      5.28219         0.005027     -0.002474      0.028785
      5.86091      0.00000      5.28219        -0.004348     -0.002480      0.028726
      1.46523      2.53785      5.28219        -0.005248     -0.000747      0.030818
      4.39568      2.53785      5.28219         0.000693     -0.006082      0.017368
      7.32614      2.53785      5.28219         0.005878     -0.000593      0.030671
      2.93046      5.07570      5.28219        -0.005327      0.001100      0.036672
      5.86091      5.07570      5.28219         0.006059      0.000954      0.036562
      8.79137      5.07570      5.28219         0.000135     -0.000049      0.007084
      1.46523      0.84595      7.67490        -0.026876     -0.015945     -0.044600
      4.39568      0.84595      7.67490         0.000723     -0.049092     -0.081799
      7.32614      0.84595      7.67490         0.027640     -0.016010     -0.044970
      2.93046      3.38380      7.67490        -0.036491      0.026083     -0.082081
      5.86091      3.38380      7.67490         0.037620      0.025876     -0.082198
      8.79137      3.38380      7.67490         0.000498     -0.026206      0.017016
      4.39568      5.92165      7.67490         0.000267      0.034534     -0.048209
      7.32614      5.92165      7.67490        -0.022625      0.010741      0.024173
     10.25659      5.92165      7.67490         0.023456      0.010502      0.024328
      8.79137      1.69476     10.06939         0.000531     -0.002692      0.003125
      2.92162      1.68680     10.02387        -0.008211      0.004066     -0.039593
      5.86975      1.68680     10.02387         0.010667      0.004062     -0.038923
     10.25272      4.23198     10.06895         0.020330     -0.019419      0.008166
      4.39568      4.23995     10.02387         0.000533      0.024916     -0.011347
      7.33001      4.23198     10.06895        -0.019361     -0.019399      0.007931
     11.71935      6.76617     10.06939         0.007513      0.007176     -0.000536
      5.86339      6.76617     10.06939        -0.006320      0.006989     -0.000537
      8.79137      6.76312     10.06895         0.000487      0.028182     -0.001038
      0.00000      0.00000     12.45783         0.000411     -0.003291      0.023426
      2.95723      0.04373     12.49962        -0.058407     -0.095471     -0.074508
      5.83413      0.04373     12.49962         0.058509     -0.093110     -0.073134
      1.51649      2.53918     12.49962        -0.086774     -0.000853     -0.068489
      7.27488      2.53918     12.49962         0.082040     -0.000737     -0.064619
      2.95494      5.03064     12.49962        -0.090210      0.096010     -0.103875
      5.83643      5.03064     12.49962         0.090225      0.093041     -0.102080
      8.79137      5.07570     12.47105         0.000321      0.004632      0.040900
      4.39568      2.53785     12.22632        -0.006345     -0.030443      0.653123
      3.59957      2.02986     14.75382         0.009539      0.004958     -0.006233
      5.18285      2.04401     14.75724        -0.009112      0.004096     -0.000545
      4.38717      2.55298     14.48819        -0.003853     -0.006470     -0.008427
    total drift:                               -0.014217      0.024028     -0.129638

  FREE ENERGIE OF THE ION-ELECTRON SYSTEM (eV)
  free  energy   TOTEN  =      -112.92873635 eV

  energy  without entropy=     -112.92873635  energy(sigma->0) =     -112.92873635

 stress matrix after NEB project (eV)
     -8.78054     -0.00251      0.03345
     -0.00251     -8.77534     -0.15798
      0.03345     -0.15798      0.01074
  FORCES: max atom, RMS     0.012427    0.003131
  FORCE total and by dimension    0.019551    0.009539
  Stress total and by dimension   12.415987    8.780535
|           W    W    AA    RRRRR   N    N  II  N    N   GGGG   !!!           |
|           W    W   A  A   R    R  NN   N  II  NN   N  G    G  !!!           |
|           W    W  A    A  R    R  N N  N  II  N N  N  G       !!!           |
|           W WW W  AAAAAA  RRRRR   N  N N  II  N  N N  G  GGG   !            |
|           WW  WW  A    A  R   R   N   NN  II  N   NN  G    G                |
|           W    W  A    A  R    R  N    N  II  N    N   GGGG   !!!           |
|     Tetrahedron method does not include variations of the Fermi             |
|     occupations, so forces and stress will be inaccurate. We suggest        |
|     using a different smearing scheme ISMEAR = 1 or 2 for metals in         |
|     relaxations.                                                            |

 total charge

# of ion       s       p       d       tot
    1        0.423   0.199   9.178   9.800
    2        0.415   0.204   9.177   9.796
    3        0.415   0.204   9.177   9.795
    4        0.414   0.204   9.177   9.796
    5        0.421   0.201   9.176   9.798
    6        0.414   0.204   9.177   9.796
    7        0.414   0.204   9.178   9.795
    8        0.414   0.204   9.177   9.795
    9        0.416   0.202   9.177   9.795
   10        0.412   0.268   9.162   9.842
   11        0.407   0.267   9.168   9.843
   12        0.412   0.268   9.162   9.842
   13        0.405   0.268   9.169   9.842
   14        0.405   0.268   9.169   9.842
   15        0.404   0.266   9.165   9.835
   16        0.411   0.268   9.162   9.842
   17        0.403   0.266   9.165   9.835
   18        0.403   0.266   9.165   9.835
   19        0.404   0.263   9.165   9.831
   20        0.454   0.311   9.123   9.888
   21        0.454   0.311   9.123   9.888
   22        0.392   0.270   9.166   9.829
   23        0.452   0.311   9.123   9.886
   24        0.392   0.270   9.166   9.829
   25        0.402   0.263   9.166   9.831
   26        0.402   0.263   9.166   9.831
   27        0.393   0.270   9.166   9.829
   28        0.406   0.204   9.170   9.780
   29        0.451   0.231   9.141   9.823
   30        0.450   0.231   9.141   9.822
   31        0.451   0.230   9.142   9.823
   32        0.451   0.230   9.142   9.823
   33        0.447   0.224   9.147   9.817
   34        0.447   0.224   9.147   9.817
   35        0.401   0.204   9.173   9.778
   36        0.650   0.525   2.920   4.094
   37        0.596   0.117   0.000   0.713
   38        0.596   0.117   0.000   0.713
   39        1.566   3.623   0.000   5.189
tot         18.067  12.923 323.568 354.558

 BZINTS: Fermi energy:    0.547859;  398.000000 electrons
         Band energy:-0.147976E+04;  BLOECHL correction:   -0.021925