 vasp.6.2.0 18Jan21 (build Jun 12 2021 23:27:24) complex

 executed on             LinuxIFC date 2022.05.28  02:41:25

 INCAR:
   ISMEAR = -5
   SIGMA = 0.1
   ISPIN = 1
   EDIFF = 1.d-5
   EDIFFG = -0.01
   NSW = 0
   NELM = 150
   ENCUT = 500
   ISIF = 2
   IBRION = 2
   LREAL = Auto
   ALGO = Fast
   ICHARG = 11
   LORBIT = 10
   LCHARG = .F.
   LWAVE = .F.

 POTCAR:    PAW_PBE Cu 22Jun2005
 POTCAR:    PAW_PBE Pd 04Jan2005
 POTCAR:    PAW_PBE O 08Apr2002
 POTCAR:    PAW_PBE H 15Jun2001
|           W    W    AA    RRRRR   N    N  II  N    N   GGGG   !!!           |
|           W    W   A  A   R    R  NN   N  II  NN   N  G    G  !!!           |
|           W    W  A    A  R    R  N N  N  II  N N  N  G       !!!           |
|           W WW W  AAAAAA  RRRRR   N  N N  II  N  N N  G  GGG   !            |
|           WW  WW  A    A  R   R   N   NN  II  N   NN  G    G                |
|           W    W  A    A  R    R  N    N  II  N    N   GGGG   !!!           |
|     For optimal performance we recommend to set                             |
|       NCORE = 2 up to number-of-cores-per-socket                            |
|     This setting can greatly improve the performance of VASP for DFT.       |
|     The default, NCORE=1 might be grossly inefficient on modern             |
|     multi-core architectures or massively parallel machines. Do your        |
|     Unfortunately you need to use the default for GW and RPA                |
|     calculations (for HF NCORE is supported but not extensively tested      |
|     yet).                                                                   |

 POTCAR:    PAW_PBE Cu 22Jun2005
   VRHFIN =Cu: d10 p1

   TITEL  = PAW_PBE Cu 22Jun2005
   POMASS =   63.546; ZVAL   =   11.000    mass and valenz
   ENMAX  =  295.446; ENMIN  =  221.585 eV

 POTCAR:    PAW_PBE Pd 04Jan2005
   VRHFIN =Pd : s1 d9

   TITEL  = PAW_PBE Pd 04Jan2005
   POMASS =  106.420; ZVAL   =   10.000    mass and valenz
   ENMAX  =  250.925; ENMIN  =  188.194 eV

 POTCAR:    PAW_PBE O 08Apr2002
   VRHFIN =O: s2p4

   TITEL  = PAW_PBE O 08Apr2002
   POMASS =   16.000; ZVAL   =    6.000    mass and valenz
   ENMAX  =  400.000; ENMIN  =  300.000 eV

 POTCAR:    PAW_PBE H 15Jun2001
   VRHFIN =H: ultrasoft test

   TITEL  = PAW_PBE H 15Jun2001
   POMASS =    1.000; ZVAL   =    1.000    mass and valenz
   ENMAX  =  250.000; ENMIN  =  200.000 eV

 Optimization of the real space projectors (new method)

 maximal supplied QI-value         = 16.25
 optimisation between [QCUT,QGAM] = [ 11.38, 22.75] = [ 36.24,144.96] Ry
 Optimized for a Real-space Cutoff    1.52 Angstroem

   l    n(q)    QCUT    max X(q) W(low)/X(q) W(high)/X(q)  e(spline)
   2      9    11.376     4.610    0.21E-03    0.10E-03    0.26E-06
   2      9    11.376     8.522    0.33E-03    0.16E-03    0.37E-06
   0     10    11.376    51.609    0.62E-04    0.20E-04    0.13E-06
   0     10    11.376    27.747    0.54E-04    0.20E-04    0.13E-06
   1     10    11.376    20.408    0.13E-04    0.99E-04    0.19E-06
   1     10    11.376    13.425    0.12E-04    0.87E-04    0.17E-06
 Optimization of the real space projectors (new method)

[...]

   l    n(q)    QCUT    max X(q) W(low)/X(q) W(high)/X(q)  e(spline)
   0      7    11.387    20.381    0.39E-03    0.13E-02    0.15E-06
   0      7    11.387    15.268    0.42E-03    0.14E-02    0.17E-06
   1      6    11.387     5.964    0.41E-03    0.11E-02    0.17E-06
   1      6    11.387     5.382    0.39E-03    0.87E-03    0.15E-06
 Optimization of the real space projectors (new method)

 maximal supplied QI-value         = 34.20
 optimisation between [QCUT,QGAM] = [ 11.29, 22.57] = [ 35.68,142.71] Ry
 Optimized for a Real-space Cutoff    1.16 Angstroem

   l    n(q)    QCUT    max X(q) W(low)/X(q) W(high)/X(q)  e(spline)
   0      8    11.287    19.460    0.40E-03    0.73E-03    0.16E-06
   0      8    11.287    12.209    0.38E-03    0.70E-03    0.15E-06
   1      7    11.287     4.655    0.22E-03    0.25E-04    0.22E-06
  PAW_PBE Cu 22Jun2005                  :
  PAW_PBE Pd 04Jan2005                  :
  PAW_PBE O 08Apr2002                   :
  PAW_PBE H 15Jun2001                   :

 POSCAR: Cu-Pd-OOH
  positions in direct lattice
  velocities in cartesian coordinates
 exchange correlation table for  LEXCH =        8
   RHO(1)=    0.500       N(1)  =     2000
   RHO(2)=  100.500       N(2)  =     4000

 VTST: version 3.2, (02/03/18)

 CHAIN: initializing optimizer

 OPT: Using VASP Conjugate-Gradient optimizer
 CHAIN: Read ICHAIN            0

 POSCAR: Cu-Pd-OOH
  positions in direct lattice
  velocities in cartesian coordinates

 ion  position               nearest neighbor table
   1  0.000  0.000  0.212-   7 2.57   3 2.57   4 2.57   2 2.57   6 2.57   8 2.57  12 2.57  10 2.57
                            16 2.57
   2  0.333  0.000  0.212-   8 2.57   9 2.57   5 2.57   1 2.57   3 2.57  11 2.57   4 2.57  10 2.57
                            17 2.57
   3  0.667  0.000  0.212-   1 2.57   7 2.57   6 2.57   9 2.57   2 2.57  12 2.57   5 2.57  18 2.57
                            11 2.57
   4  0.000  0.333  0.212-   5 2.57   6 2.57   1 2.57   7 2.57   2 2.57  13 2.57   9 2.57  10 2.57
                            15 2.57
   5  0.333  0.333  0.212-   4 2.57   2 2.57   7 2.57  13 2.57   8 2.57   6 2.57   3 2.57  11 2.57
                            14 2.57
   6  0.667  0.333  0.212-   4 2.57   9 2.57  15 2.57   3 2.57   1 2.57   8 2.57  14 2.57   5 2.57
                            12 2.57
   7  0.000  0.667  0.212-   1 2.57   3 2.57  16 2.57  18 2.57   4 2.57   5 2.57   8 2.57   9 2.57
                            13 2.57
   8  0.333  0.667  0.212-   9 2.57   2 2.57  17 2.57   6 2.57   1 2.57   7 2.57   5 2.57  14 2.57
                            16 2.57
   9  0.667  0.667  0.212-   8 2.57   6 2.57   2 2.57  17 2.57   3 2.57   7 2.57   4 2.57  15 2.57
                            18 2.57
  10  0.111  0.111  0.294-  20 2.54  26 2.55  19 2.55  11 2.57  12 2.57  13 2.57   1 2.57   2 2.57
                             4 2.57  15 2.57  16 2.57  17 2.57
  11  0.444  0.111  0.294-  20 2.55  21 2.55  27 2.55  10 2.57  13 2.57   2 2.57  17 2.57  14 2.57
                            12 2.57   5 2.57   3 2.57  18 2.57
  12  0.778  0.111  0.294-  21 2.54  19 2.55  25 2.55  15 2.57  10 2.57  14 2.57  18 2.57   3 2.57
                             1 2.57  16 2.57  11 2.57   6 2.57
  13  0.111  0.444  0.294-  23 2.55  20 2.55  22 2.55  16 2.57  18 2.57  10 2.57  11 2.57  14 2.57
                             5 2.57   4 2.57   7 2.57  15 2.57
  14  0.444  0.444  0.294-  21 2.55  23 2.55  24 2.55  15 2.57  17 2.57  12 2.57  16 2.57  13 2.57
                            11 2.57   6 2.57   8 2.57   5 2.57
  15  0.778  0.444  0.294-  19 2.55  24 2.55  22 2.55  14 2.57  17 2.57  12 2.57   6 2.57  18 2.57
                            10 2.57   9 2.57  13 2.57   4 2.57
  16  0.111  0.778  0.294-  23 2.54  25 2.55  26 2.55  18 2.57  13 2.57   7 2.57  14 2.57  17 2.57
                            12 2.57  10 2.57   8 2.57   1 2.57
  17  0.444  0.778  0.294-  26 2.55  27 2.55  24 2.55  14 2.57  15 2.57   8 2.57   9 2.57  11 2.57
                            16 2.57  18 2.57  10 2.57   2 2.57
  18  0.778  0.778  0.294-  25 2.55  22 2.55  27 2.55  16 2.57  13 2.57   7 2.57  15 2.57  12 2.57
                            17 2.57   9 2.57   3 2.57  11 2.57
  19  0.889  0.222  0.376-  32 2.54  31 2.54  28 2.55  15 2.55  12 2.55  10 2.55  21 2.56  20 2.56
                            22 2.56  24 2.56  25 2.57  26 2.57
  20  0.222  0.222  0.376-  10 2.54  11 2.55  13 2.55  26 2.56  19 2.56  27 2.56  22 2.56  29 2.57
                            31 2.57  23 2.58  21 2.58  36 2.62
  21  0.557  0.222  0.376-  12 2.54  14 2.55  11 2.55  19 2.56  25 2.56  24 2.56  27 2.56  32 2.57
                            30 2.57  20 2.58  23 2.58  36 2.62
  22  0.889  0.555  0.376-  35 2.54  31 2.55  33 2.55  13 2.55  18 2.55  15 2.55  23 2.56  20 2.56
                            19 2.56  25 2.56  24 2.57  27 2.57
  23  0.222  0.557  0.376-  16 2.54  13 2.55  14 2.55  25 2.56  26 2.56  22 2.56  24 2.56  33 2.57
                            34 2.57  20 2.58  21 2.58  36 2.62
  24  0.555  0.555  0.376-  35 2.54  32 2.55  34 2.55  14 2.55  15 2.55  17 2.55  21 2.56  23 2.56
                            19 2.56  26 2.56  22 2.57  27 2.57
  25  0.889  0.889  0.376-  33 2.54  30 2.54  28 2.55  18 2.55  16 2.55  12 2.55  21 2.56  23 2.56
                            22 2.56  27 2.56  19 2.57  26 2.57
  26  0.222  0.889  0.376-  29 2.54  34 2.54  28 2.55  17 2.55  10 2.55  16 2.55  20 2.56  23 2.56
                            27 2.56  24 2.56  25 2.57  19 2.57
  27  0.555  0.889  0.376-  35 2.54  29 2.55  30 2.55  11 2.55  17 2.55  18 2.55  20 2.56  21 2.56
                            26 2.56  25 2.56  24 2.57  22 2.57
  28  0.000  0.000  0.457-  25 2.55  19 2.55  26 2.55  33 2.55  30 2.55  31 2.55  29 2.55  32 2.55
                            34 2.55
  29  0.333  0.996  0.458-  34 2.51  26 2.54  28 2.55  27 2.55  35 2.55  20 2.57  31 2.59  36 2.60
                            30 2.60
  30  0.671  0.996  0.458-  33 2.51  25 2.54  28 2.55  27 2.55  35 2.55  21 2.57  32 2.59  36 2.60
                            29 2.60
  31  0.996  0.333  0.458-  32 2.51  19 2.54  28 2.55  22 2.55  35 2.55  20 2.57  29 2.59  36 2.60
                            33 2.60
  32  0.671  0.333  0.458-  37 2.05  31 2.51  19 2.54  28 2.55  24 2.55  35 2.55  21 2.57  30 2.59
                            36 2.60  34 2.60
  33  0.996  0.671  0.458-  30 2.51  25 2.54  28 2.55  22 2.55  35 2.55  23 2.57  34 2.59  36 2.60
                            31 2.60
  34  0.333  0.671  0.458-  37 1.99  29 2.51  26 2.54  28 2.55  24 2.55  35 2.55  23 2.57  33 2.59
                            36 2.60  32 2.60
  35  0.667  0.667  0.458-  24 2.54  27 2.54  22 2.54  34 2.55  32 2.55  29 2.55  30 2.55  33 2.55
                            31 2.55
  36  0.333  0.333  0.461-  37 2.30  31 2.60  29 2.60  33 2.60  34 2.60  32 2.60  30 2.60  23 2.62
                            20 2.62  21 2.62
  37  0.464  0.475  0.517-  38 1.53  34 1.99  32 2.05  36 2.30
  38  0.453  0.534  0.575-  39 0.98  37 1.53
  39  0.516  0.400  0.590-  38 0.98

  LATTYP: Found a hexagonal cell.
 ALAT       =     7.6967864036
 C/A-ratio  =     3.2973366172

  Lattice vectors:

 A1 = (  -3.8483927580,  -6.6656128093,   0.0000000000)
 A2 = (   7.6967864037,   0.0000000000,   0.0000000000)
 A3 = (   0.0000000000,   0.0000000000,  25.3788956434)

Analysis of symmetry for initial positions (statically):
 Subroutine PRICEL returns:
 Original cell was already a primitive cell.

 Routine SETGRP: Setting up the symmetry group for a
 hexagonal supercell.

 Subroutine GETGRP returns: Found  1 space group operations
 (whereof  1 operations were pure point group operations)
 out of a pool of 24 trial point group operations.

The static configuration has the point symmetry C_1 .

Analysis of symmetry for dynamics (positions and initial velocities):
 Subroutine PRICEL returns:
 Original cell was already a primitive cell.

[...]

The dynamic configuration has the point symmetry C_1 .

Analysis of constrained symmetry for selective dynamics:
 Subroutine PRICEL returns:
[...]
     41      -4.4740      2.00000
     42      -4.3755      2.00000
     43      -4.3325      2.00000
     44      -4.3145      2.00000
     45      -4.2620      2.00000
     46      -4.2508      2.00000
     47      -4.2436      2.00000
     48      -4.2219      2.00000
     49      -4.2117      2.00000
     50      -4.2018      2.00000
     51      -4.1463      2.00000
     52      -4.0313      2.00000
     53      -4.0178      2.00000
     54      -4.0025      2.00000
     55      -3.9869      2.00000
     56      -3.9421      2.00000
     57      -3.9271      2.00000
     58      -3.9125      2.00000
     59      -3.9065      2.00000
     60      -3.9029      2.00000
[...]
    238       5.1748      0.00000
    239       5.2168      0.00000
    240       5.3428      0.00000
    241       5.5005      0.00000
    242       5.5421      0.00000
    243       5.6174      0.00000
    244       5.6789      0.00000
    245       5.8551      0.00000
    246       5.8704      0.00000
    247       5.9494      0.00000
    248       6.1254      0.00000
    249       6.2095      0.00000
    250       6.3244      0.00000
    251       6.3983      0.00000
    252       6.7328      0.00000

 soft charge-density along one line, spin component           1
         0         1         2         3         4         5         6         7         8         9
 total charge-density along one line

------------------------ aborting loop because EDIFF is reached ----------------------------------------

 total charge

# of ion       s       p       d       tot
    1        0.447   0.286   9.188   9.921
    2        0.450   0.284   9.187   9.921
    3        0.448   0.284   9.187   9.919
    4        0.450   0.284   9.186   9.920
    5        0.445   0.286   9.184   9.915
    6        0.448   0.285   9.187   9.919
    7        0.448   0.284   9.187   9.919
    8        0.448   0.285   9.187   9.919
    9        0.447   0.284   9.188   9.919
   10        0.441   0.377   9.174   9.992
   11        0.443   0.369   9.182   9.994
   12        0.441   0.374   9.179   9.995
   13        0.444   0.369   9.182   9.995
   14        0.443   0.370   9.183   9.995
   15        0.441   0.371   9.181   9.994
   16        0.442   0.374   9.180   9.995
   17        0.441   0.371   9.181   9.994
   18        0.439   0.371   9.182   9.993
   19        0.443   0.380   9.181  10.004
   20        0.442   0.376   9.179   9.996
   21        0.440   0.374   9.183   9.997
   22        0.439   0.374   9.181   9.995
   23        0.440   0.373   9.184   9.998
   24        0.441   0.379   9.179   9.999
   25        0.443   0.374   9.184  10.001
   26        0.443   0.382   9.178  10.003
   27        0.439   0.374   9.182   9.995
   28        0.455   0.289   9.198   9.941
   29        0.452   0.292   9.195   9.939
   30        0.450   0.290   9.196   9.936
   31        0.452   0.292   9.196   9.939
   32        0.432   0.338   9.186   9.956
   33        0.448   0.289   9.198   9.935
   34        0.431   0.360   9.177   9.968
   35        0.441   0.288   9.206   9.934
   36        0.481   0.409   8.571   9.461
   37        1.589   3.260   0.000   4.849
   38        1.594   3.361   0.000   4.955
   39        0.623   0.115   0.000   0.738
tot         19.823  18.876 330.057 368.757

  FORCE on cell =-STRESS in cart. coord.  units (eV):
  Direction    XX          YY          ZZ          XY          YZ          ZX
  Alpha Z   764.86499   764.86499   764.86499
  Ewald  259388.17226259532.19966************   -28.64363     4.15443    -7.13050
  Hartree272417.14979272476.91357************   -25.96451     6.69829   -21.30236
  E(xc)   -2362.89306 -2362.43871 -2366.46650    -0.00326     0.03850     0.14225
  Local  ************************544796.58734    55.58243   -11.37502    32.58492
  n-local  -808.32331  -808.68995  -818.73191     0.07669     1.37875     0.34715
  augment  3397.01397  3394.69442  3407.52626     0.14181    -0.37147    -0.43626
  Kinetic  3562.46394  3537.34400  3536.79375    -1.18315    -0.61982    -4.20790
  Fock        0.00000     0.00000     0.00000     0.00000     0.00000     0.00000
  Total      -0.37337    -0.72358     2.59978     0.00638    -0.09634    -0.00270
  in kB      -0.45944    -0.89038     3.19908     0.00785    -0.11855    -0.00332

 VOLUME and BASIS-vectors are now :
  energy-cutoff  :      500.00
  volume of cell :     1302.03
      direct lattice vectors                 reciprocal lattice vectors
     7.696786404  0.000000000  0.000000000     0.129924354 -0.075011849  0.000000000
     3.848392758  6.665612809  0.000000000     0.000000000  0.150023716  0.000000000
     0.000000000  0.000000000 25.378895643     0.000000000  0.000000000  0.039402818

  length of vectors
     7.696786404  7.696786404 25.378895643     0.150023716  0.150023716  0.039402818

 FORCES acting on ions
    electron-ion (+dipol)            ewald-force                    non-local-force                 convergence-correction
   0.135E+00 0.445E-01 0.393E+04   0.149E-01 0.367E-01 -.392E+04   -.297E-01 -.301E-01 -.235E+01   -.972E-01 -.399E-01 -.911E+00
   -.663E+00 -.452E+00 0.393E+04   0.412E+00 0.448E+00 -.392E+04   0.506E-01 -.291E-01 -.192E+01   0.188E+00 0.417E-01 -.763E+00
   0.488E+00 -.256E-01 0.393E+04   -.426E+00 0.116E+00 -.392E+04   0.542E-02 -.372E-01 -.203E+01   -.733E-01 -.487E-01 -.860E+00
   -.676E+00 -.335E+00 0.393E+04   0.569E+00 0.131E+00 -.392E+04   0.813E-03 0.534E-01 -.199E+01   0.110E+00 0.138E+00 -.815E+00
   0.423E+00 0.265E+00 0.393E+04   -.298E+00 -.188E+00 -.392E+04   -.161E+00 -.101E+00 -.209E+01   0.356E-01 0.271E-01 -.800E+00
   0.250E+00 0.343E-01 0.393E+04   -.271E+00 -.259E-01 -.392E+04   0.148E+00 -.643E-01 -.209E+01   -.131E+00 0.554E-01 -.943E+00
   0.214E+00 0.417E+00 0.393E+04   -.138E+00 -.425E+00 -.392E+04   -.473E-02 0.411E-01 -.199E+01   -.701E-01 -.428E-01 -.880E+00
   0.137E+00 0.221E+00 0.393E+04   -.144E+00 -.242E+00 -.392E+04   0.282E-01 0.177E+00 -.206E+01   -.214E-01 -.157E+00 -.923E+00
   -.327E+00 -.160E+00 0.393E+04   0.282E+00 0.150E+00 -.392E+04   -.202E-01 -.111E-01 -.218E+01   0.619E-01 0.174E-01 -.910E+00
   -.301E+01 -.196E+01 0.141E+04   0.296E+01 0.185E+01 -.140E+04   -.924E-01 0.657E-02 -.991E+00   0.152E+00 0.953E-01 -.514E+00
   0.107E+01 -.237E+01 0.140E+04   -.916E+00 0.232E+01 -.140E+04   -.106E+00 -.823E-01 -.665E+00   -.323E-01 0.948E-01 -.443E+00
   0.200E+01 0.302E+00 0.141E+04   -.205E+01 -.348E+00 -.141E+04   0.132E+00 -.330E-01 -.744E+00   -.121E+00 0.738E-01 -.450E+00
   -.148E+01 0.228E+01 0.140E+04   0.143E+01 -.207E+01 -.140E+04   -.645E-01 -.688E-01 -.683E+00   0.976E-01 -.101E+00 -.467E+00
   0.406E+01 0.255E+01 0.140E+04   -.382E+01 -.241E+01 -.140E+04   -.789E-01 -.354E-01 -.104E+01   -.150E+00 -.101E+00 -.491E+00
   -.256E+01 -.106E+01 0.141E+04   0.240E+01 0.100E+01 -.141E+04   0.119E+00 0.946E-02 -.694E+00   0.592E-01 0.747E-01 -.561E+00
   0.146E+01 0.148E+01 0.141E+04   -.145E+01 -.147E+01 -.141E+04   -.195E-01 0.962E-01 -.707E+00   -.963E-02 -.126E+00 -.412E+00
   -.238E+01 -.160E+01 0.141E+04   0.224E+01 0.153E+01 -.141E+04   0.756E-01 0.470E-01 -.680E+00   0.874E-01 0.152E-01 -.496E+00
   0.824E+00 0.373E+00 0.140E+04   -.784E+00 -.405E+00 -.140E+04   0.704E-02 0.331E-01 -.624E+00   -.396E-01 0.171E-02 -.542E+00
   -.106E+02 0.567E+01 -.113E+04   0.106E+02 -.541E+01 0.113E+04   -.299E-01 -.145E+00 0.387E+00   -.258E-01 -.636E-01 0.578E+00
   -.221E+02 -.128E+02 -.117E+04   0.222E+02 0.129E+02 0.117E+04   -.286E+00 -.166E+00 -.202E+00   0.240E+00 0.103E+00 0.522E+00
   0.329E+02 0.142E+01 -.115E+04   -.327E+02 -.126E+01 0.115E+04   0.404E-01 -.107E+00 0.929E-01   -.191E+00 -.301E-02 0.678E+00
   -.184E+02 0.648E+01 -.115E+04   0.179E+02 -.647E+01 0.115E+04   0.229E+00 -.757E-01 0.953E+00   0.220E+00 0.335E-01 0.539E+00
   0.180E+02 0.291E+02 -.115E+04   -.178E+02 -.289E+02 0.115E+04   -.112E+00 0.265E-01 0.107E+00   -.763E-01 -.163E+00 0.710E+00
   -.617E-01 0.139E+01 -.111E+04   0.109E+00 -.139E+01 0.111E+04   0.289E-01 -.132E-02 0.258E+00   -.990E-01 -.826E-02 0.642E+00
   0.495E+01 0.182E+01 -.114E+04   -.490E+01 -.177E+01 0.114E+04   0.508E-01 -.455E-02 0.944E+00   -.766E-01 -.429E-01 0.668E+00
   -.347E+00 -.135E+02 -.113E+04   0.506E+00 0.132E+02 0.113E+04   -.128E+00 0.146E+00 0.205E+00   -.389E-01 -.175E-01 0.581E+00
   -.458E+01 -.198E+02 -.115E+04   0.440E+01 0.193E+02 0.115E+04   0.191E-01 0.293E+00 0.967E+00   0.119E+00 0.209E+00 0.510E+00
   -.973E+00 -.788E+01 -.370E+04   0.105E+01 0.789E+01 0.370E+04   0.566E-01 0.741E-01 0.217E+01   -.121E+00 -.697E-01 0.860E+00
   -.277E+02 -.719E+02 -.371E+04   0.277E+02 0.717E+02 0.371E+04   -.861E-01 0.169E+00 0.209E+01   0.907E-01 0.115E+00 0.782E+00
   0.278E+02 0.162E+00 -.371E+04   -.279E+02 -.125E+01 0.370E+04   0.151E-01 0.757E+00 0.237E+01   0.213E-01 0.171E+00 0.826E+00
   -.692E+02 0.120E+02 -.371E+04   0.690E+02 -.118E+02 0.371E+04   0.100E+00 -.202E+00 0.204E+01   0.145E+00 0.100E-01 0.814E+00
   -.674E+02 0.116E+03 -.354E+04   0.705E+02 -.117E+03 0.354E+04   -.228E+01 0.146E+01 0.328E+01   -.330E+00 -.282E-01 0.975E+00
   0.216E+02 0.230E+02 -.370E+04   -.228E+02 -.224E+02 0.370E+04   0.847E+00 -.426E+00 0.260E+01   0.167E+00 -.746E-01 0.808E+00
   0.626E+02 -.119E+03 -.351E+04   -.625E+02 0.122E+03 0.351E+04   0.228E-01 -.232E+01 0.251E+01   -.193E+00 -.271E+00 0.933E+00
   -.759E+02 -.397E+02 -.367E+04   0.774E+02 0.405E+02 0.367E+04   -.130E+01 -.721E+00 0.366E+01   0.548E-02 0.175E-01 0.889E+00
   0.115E+03 0.724E+02 -.332E+04   -.117E+03 -.735E+02 0.332E+04   0.952E+00 0.661E+00 0.339E+01   0.157E+00 0.100E+00 0.660E+00
   0.334E+02 0.563E+02 -.237E+04   -.351E+02 -.626E+02 0.236E+04   0.191E+01 0.632E+01 0.110E+02   -.166E+00 -.414E-01 0.176E+00
   -.172E+02 -.901E+02 -.235E+04   0.206E+02 0.134E+03 0.236E+04   -.341E+01 -.433E+02 -.877E+01   -.494E-01 -.595E-01 -.112E+00
   0.152E+01 0.794E+02 -.398E+03   -.175E+01 -.869E+02 0.402E+03   0.243E+00 0.747E+01 -.343E+01   -.347E-02 0.115E-01 -.159E-01
   0.326E+01 0.302E+02 -.205E+01   0.866E-14 0.355E-12 0.921E-11   -.313E+01 -.301E+02 0.110E+01   -.160E+00 -.523E-01 0.844E+00

 POSITION                                       TOTAL-FORCE (eV/Angst)
      0.00000      0.00000      5.37156         0.023527      0.010257      0.099890
      2.56560      0.00000      5.37156        -0.011962      0.007482      0.070128
      5.13119      0.00000      5.37156        -0.005534      0.003120      0.078045
      1.28280      2.22187      5.37156         0.005016     -0.013685      0.069975
      3.84839      2.22187      5.37156         0.000962      0.001532      0.068717
      6.41399      2.22187      5.37156        -0.004050     -0.001370      0.089797
      2.56560      4.44374      5.37156         0.001994     -0.010613      0.078306
      5.13119      4.44374      5.37156         0.000611     -0.001761      0.086837
      7.69679      4.44374      5.37156        -0.002825     -0.004323      0.067471
      1.28280      0.74062      7.46636         0.012300     -0.002615     -0.054012
      3.84839      0.74062      7.46636         0.018551     -0.038853     -0.105002
      6.41399      0.74062      7.46636        -0.032879     -0.006949     -0.117156
      2.56560      2.96249      7.46636        -0.019576      0.033237     -0.102368
      5.13119      2.96249      7.46636         0.010889      0.002636     -0.163651
      7.69679      2.96249      7.46636         0.011226      0.031477     -0.098468
      3.84839      5.18437      7.46636        -0.019691     -0.023157     -0.121019
      6.41399      5.18437      7.46636         0.020352     -0.007873     -0.103830
      8.97958      5.18437      7.46636         0.008135      0.001547     -0.053138
      7.69679      1.48223      9.53996        -0.086233      0.046865      0.062295
      2.55948      1.47772      9.53985         0.072041      0.042057      0.068776
      5.13731      1.47772      9.53985         0.027702      0.051304     -0.036944
      8.98047      3.70261      9.54732        -0.011095     -0.031815      0.014954
      3.84839      3.71018      9.53985         0.054222     -0.002681     -0.046717
      6.41310      3.70261      9.54732        -0.021909     -0.011221     -0.050884
     10.26153      5.92450      9.53996         0.025352      0.004470      0.014031
      5.13204      5.92450      9.53996        -0.007356     -0.119209      0.093786
      7.69679      5.92601      9.54732        -0.035061      0.003987      0.018243
      0.00000      0.00000     11.61018         0.010154      0.018856     -0.047908
      6.39795      6.64100     11.62214         0.014239      0.064986     -0.048428
      8.99562      6.64100     11.62214        -0.021735     -0.165431     -0.055909
      8.95025      2.22029     11.62214         0.031315     -0.020815     -0.029980
      6.44333      2.22029     11.62214         0.451022     -0.277058      0.178124
     10.24908      4.46994     11.62214        -0.170241      0.061197     -0.056908
      5.14449      4.46994     11.62214        -0.033753      0.543437      0.140042
      7.69679      4.44374     11.61116         0.212432      0.108434     -0.070639
      3.84839      2.22187     11.69545        -0.516165     -0.289198      0.131983
      5.39941      3.16931     13.10967        -0.000987     -0.000509     -0.032910
      5.54057      3.55995     14.58213        -0.017023      0.003780     -0.041879
      5.51098      2.66437     14.97844         0.006034     -0.011525      0.006349
    total drift:                               -0.028811      0.036064     -0.113877

  FREE ENERGIE OF THE ION-ELECTRON SYSTEM (eV)
  free  energy   TOTEN  =      -142.31229433 eV

  energy  without entropy=     -142.31229433  energy(sigma->0) =     -142.31229433

 stress matrix after NEB project (eV)
     -0.37337      0.00638     -0.00270
      0.00638     -0.72358     -0.09634
     -0.00270     -0.09634      2.59978
  FORCES: max atom, RMS     0.045364    0.009271
  FORCE total and by dimension    0.057894    0.041879
  Stress total and by dimension    2.727724    2.599778
|           W    W    AA    RRRRR   N    N  II  N    N   GGGG   !!!           |
|           W    W   A  A   R    R  NN   N  II  NN   N  G    G  !!!           |
|           W    W  A    A  R    R  N N  N  II  N N  N  G       !!!           |
|           W WW W  AAAAAA  RRRRR   N  N N  II  N  N N  G  GGG   !            |
|           WW  WW  A    A  R   R   N   NN  II  N   NN  G    G                |
|           W    W  A    A  R    R  N    N  II  N    N   GGGG   !!!           |
|     Tetrahedron method does not include variations of the Fermi             |
|     occupations, so forces and stress will be inaccurate. We suggest        |
|     using a different smearing scheme ISMEAR = 1 or 2 for metals in         |
|     relaxations.                                                            |

 total charge

# of ion       s       p       d       tot
    1        0.447   0.286   9.188   9.921
    2        0.450   0.284   9.187   9.921
    3        0.448   0.284   9.187   9.919
    4        0.450   0.284   9.186   9.920
    5        0.445   0.286   9.184   9.915
    6        0.448   0.285   9.187   9.919
    7        0.448   0.284   9.187   9.919
    8        0.448   0.285   9.187   9.919
    9        0.447   0.284   9.188   9.919
   10        0.441   0.377   9.174   9.992
   11        0.443   0.369   9.182   9.994
   12        0.441   0.374   9.179   9.995
   13        0.444   0.369   9.182   9.995
   14        0.443   0.370   9.183   9.995
   15        0.441   0.371   9.181   9.994
   16        0.442   0.374   9.180   9.995
   17        0.441   0.371   9.181   9.994
   18        0.439   0.371   9.182   9.993
   19        0.443   0.380   9.181  10.004
   20        0.442   0.376   9.179   9.996
   21        0.440   0.374   9.183   9.997
   22        0.439   0.374   9.181   9.995
   23        0.440   0.373   9.184   9.998
   24        0.441   0.379   9.179   9.999
   25        0.443   0.374   9.184  10.001
   26        0.443   0.382   9.178  10.003
   27        0.439   0.374   9.182   9.995
   28        0.455   0.289   9.198   9.941
   29        0.452   0.292   9.195   9.939
   30        0.450   0.290   9.196   9.936
   31        0.452   0.292   9.196   9.939
   32        0.432   0.338   9.186   9.956
   33        0.448   0.289   9.198   9.935
   34        0.431   0.360   9.177   9.968
   35        0.441   0.288   9.206   9.934
   36        0.481   0.409   8.571   9.461
   37        1.589   3.260   0.000   4.849
   38        1.594   3.361   0.000   4.955
   39        0.623   0.115   0.000   0.738
tot         19.823  18.876 330.057 368.757

 BZINTS: Fermi energy:   -0.577279;  408.000000 electrons
         Band energy:-0.145330E+04;  BLOECHL correction:   -0.055721