 vasp.6.2.0 18Jan21 (build Jun 12 2021 23:27:24) complex

 executed on             LinuxIFC date 2022.05.26  19:58:11

 INCAR:
   ISMEAR = -5
   SIGMA = 0.1
   ISPIN = 1
   EDIFF = 1.d-5
   EDIFFG = -0.01
   NSW = 0
   NELM = 150
   ENCUT = 500
   ISIF = 2
   IBRION = 2
   LREAL = Auto
   ALGO = Fast
   ICHARG = 11
   LORBIT = 10
   LCHARG = .F.
   LWAVE = .F.

 POTCAR:    PAW_PBE Cu 22Jun2005
 POTCAR:    PAW_PBE Cr 06Sep2000
 POTCAR:    PAW_PBE O 08Apr2002
|           W    W    AA    RRRRR   N    N  II  N    N   GGGG   !!!           |
|           W    W   A  A   R    R  NN   N  II  NN   N  G    G  !!!           |
|           W    W  A    A  R    R  N N  N  II  N N  N  G       !!!           |
|           W WW W  AAAAAA  RRRRR   N  N N  II  N  N N  G  GGG   !            |
|           WW  WW  A    A  R   R   N   NN  II  N   NN  G    G                |
|           W    W  A    A  R    R  N    N  II  N    N   GGGG   !!!           |
|     For optimal performance we recommend to set                             |
|       NCORE = 2 up to number-of-cores-per-socket                            |
|     This setting can greatly improve the performance of VASP for DFT.       |
|     The default, NCORE=1 might be grossly inefficient on modern             |
|     multi-core architectures or massively parallel machines. Do your        |
|     Unfortunately you need to use the default for GW and RPA                |
|     calculations (for HF NCORE is supported but not extensively tested      |
|     yet).                                                                   |

 POTCAR:    PAW_PBE Cu 22Jun2005
   VRHFIN =Cu: d10 p1

   TITEL  = PAW_PBE Cu 22Jun2005
   POMASS =   63.546; ZVAL   =   11.000    mass and valenz
   ENMAX  =  295.446; ENMIN  =  221.585 eV

 POTCAR:    PAW_PBE Cr 06Sep2000
   VRHFIN =Cr : d5 s1

   TITEL  = PAW_PBE Cr 06Sep2000
   POMASS =   51.996; ZVAL   =    6.000    mass and valenz
   ENMAX  =  227.080; ENMIN  =  170.310 eV

 POTCAR:    PAW_PBE O 08Apr2002
   VRHFIN =O: s2p4

   TITEL  = PAW_PBE O 08Apr2002
   POMASS =   16.000; ZVAL   =    6.000    mass and valenz
   ENMAX  =  400.000; ENMIN  =  300.000 eV

 Optimization of the real space projectors (new method)

 maximal supplied QI-value         = 16.25
 optimisation between [QCUT,QGAM] = [ 11.38, 22.75] = [ 36.24,144.96] Ry
 Optimized for a Real-space Cutoff    1.52 Angstroem

   l    n(q)    QCUT    max X(q) W(low)/X(q) W(high)/X(q)  e(spline)
   2      9    11.376     4.610    0.21E-03    0.10E-03    0.26E-06
   2      9    11.376     8.522    0.33E-03    0.16E-03    0.37E-06
   0     10    11.376    51.609    0.62E-04    0.20E-04    0.13E-06
   0     10    11.376    27.747    0.54E-04    0.20E-04    0.13E-06
   1     10    11.376    20.408    0.13E-04    0.99E-04    0.19E-06
   1     10    11.376    13.425    0.12E-04    0.87E-04    0.17E-06
 Optimization of the real space projectors (new method)

[...]

   l    n(q)    QCUT    max X(q) W(low)/X(q) W(high)/X(q)  e(spline)
   2      9    11.338    94.395    0.18E-03    0.10E-02    0.64E-06
   2      9    11.338    88.078    0.18E-03    0.10E-02    0.65E-06
   0     10    11.338    50.173    0.13E-03    0.16E-03    0.96E-07
   0     10    11.338    24.906    0.12E-03    0.14E-03    0.88E-07
   1      9    11.338    12.133    0.13E-03    0.15E-03    0.24E-06
   1      9    11.338     7.290    0.10E-03    0.10E-03    0.18E-06
 Optimization of the real space projectors (new method)

 maximal supplied QI-value         = 24.76
 optimisation between [QCUT,QGAM] = [ 11.39, 22.77] = [ 36.31,145.25] Ry
 Optimized for a Real-space Cutoff    1.00 Angstroem

   l    n(q)    QCUT    max X(q) W(low)/X(q) W(high)/X(q)  e(spline)
   0      7    11.387    20.381    0.39E-03    0.13E-02    0.15E-06
   0      7    11.387    15.268    0.42E-03    0.14E-02    0.17E-06
   1      6    11.387     5.964    0.41E-03    0.11E-02    0.17E-06
   1      6    11.387     5.382    0.39E-03    0.87E-03    0.15E-06
  PAW_PBE Cu 22Jun2005                  :
  PAW_PBE Cr 06Sep2000                  :
  PAW_PBE O 08Apr2002                   :

 POSCAR: Cu-Cr-O
  positions in direct lattice
  velocities in cartesian coordinates
 exchange correlation table for  LEXCH =        8
   RHO(1)=    0.500       N(1)  =     2000
   RHO(2)=  100.500       N(2)  =     4000

 VTST: version 3.2, (02/03/18)

 CHAIN: initializing optimizer

 OPT: Using VASP Conjugate-Gradient optimizer
 CHAIN: Read ICHAIN            0

 POSCAR: Cu-Cr-O
  positions in direct lattice
  velocities in cartesian coordinates

 ion  position               nearest neighbor table
   1  0.000  0.000  0.252-   7 2.57   3 2.57   4 2.57   2 2.57   6 2.57   8 2.57  12 2.57  10 2.57
                            16 2.57
   2  0.333  0.000  0.252-   8 2.57   9 2.57   5 2.57   1 2.57   3 2.57  11 2.57   4 2.57  10 2.57
                            17 2.57
   3  0.667  0.000  0.252-   1 2.57   7 2.57   6 2.57   9 2.57   2 2.57  12 2.57   5 2.57  18 2.57
                            11 2.57
   4  0.000  0.333  0.252-   5 2.57   6 2.57   1 2.57   7 2.57   2 2.57  13 2.57   9 2.57  10 2.57
                            15 2.57
   5  0.333  0.333  0.252-   4 2.57   2 2.57   7 2.57  13 2.57   8 2.57   6 2.57   3 2.57  11 2.57
                            14 2.57
   6  0.667  0.333  0.252-   4 2.57   9 2.57  15 2.57   3 2.57   1 2.57   8 2.57  14 2.57   5 2.57
                            12 2.57
   7  0.000  0.667  0.252-   1 2.57   3 2.57  16 2.57  18 2.57   4 2.57   5 2.57   8 2.57   9 2.57
                            13 2.57
   8  0.333  0.667  0.252-   9 2.57   2 2.57  17 2.57   6 2.57   1 2.57   7 2.57   5 2.57  14 2.57
                            16 2.57
   9  0.667  0.667  0.252-   8 2.57   6 2.57   2 2.57  17 2.57   3 2.57   7 2.57   4 2.57  15 2.57
                            18 2.57
  10  0.111  0.111  0.351-  20 2.55  26 2.56  19 2.56  11 2.57  12 2.57  13 2.57   1 2.57   2 2.57
                             4 2.57  15 2.57  16 2.57  17 2.57
  11  0.444  0.111  0.351-  20 2.55  21 2.55  10 2.57  13 2.57   2 2.57  17 2.57  14 2.57  12 2.57
                             5 2.57   3 2.57  18 2.57  27 2.57
  12  0.778  0.111  0.351-  21 2.55  19 2.56  25 2.56  15 2.57  10 2.57  14 2.57  18 2.57   3 2.57
                             1 2.57  16 2.57  11 2.57   6 2.57
  13  0.111  0.444  0.351-  23 2.55  20 2.55  16 2.57  18 2.57  10 2.57  11 2.57  14 2.57   5 2.57
                             4 2.57   7 2.57  15 2.57  22 2.57
  14  0.444  0.444  0.351-  21 2.55  23 2.55  15 2.57  17 2.57  12 2.57  16 2.57  13 2.57  11 2.57
                             6 2.57   8 2.57   5 2.57  24 2.57
  15  0.778  0.444  0.351-  19 2.56  24 2.56  22 2.56  14 2.57  17 2.57  12 2.57   6 2.57  18 2.57
                            10 2.57   9 2.57  13 2.57   4 2.57
  16  0.111  0.778  0.351-  23 2.55  25 2.56  26 2.56  18 2.57  13 2.57   7 2.57  14 2.57  17 2.57
                            12 2.57  10 2.57   8 2.57   1 2.57
  17  0.444  0.778  0.351-  26 2.56  27 2.56  24 2.56  14 2.57  15 2.57   8 2.57   9 2.57  11 2.57
                            16 2.57  18 2.57  10 2.57   2 2.57
  18  0.778  0.778  0.351-  25 2.56  22 2.56  27 2.56  16 2.57  13 2.57   7 2.57  15 2.57  12 2.57
                            17 2.57   9 2.57   3 2.57  11 2.57
  19  0.889  0.222  0.449-  12 2.56  10 2.56  15 2.56  28 2.56  25 2.57  26 2.57  22 2.57  24 2.57
                            21 2.57  20 2.57  32 2.58  31 2.58
  20  0.222  0.222  0.448-  36 2.50  11 2.55  13 2.55  10 2.55  23 2.56  21 2.56  26 2.57  19 2.57
                            29 2.57  31 2.57  27 2.57  22 2.57
  21  0.555  0.222  0.448-  36 2.50  14 2.55  11 2.55  12 2.55  20 2.56  23 2.56  19 2.57  25 2.57
                            32 2.57  30 2.57  24 2.57  27 2.57
  22  0.888  0.556  0.449-  35 2.56  24 2.56  27 2.56  18 2.56  15 2.56  31 2.56  33 2.56  19 2.57
                            25 2.57  13 2.57  23 2.57  20 2.57
  23  0.222  0.555  0.448-  36 2.50  13 2.55  14 2.55  16 2.55  20 2.56  21 2.56  25 2.57  26 2.57
                            33 2.57  34 2.57  22 2.57  24 2.57
  24  0.556  0.556  0.449-  35 2.56  22 2.56  27 2.56  15 2.56  17 2.56  32 2.56  34 2.56  19 2.57
                            26 2.57  14 2.57  21 2.57  23 2.57
  25  0.889  0.889  0.449-  12 2.56  16 2.56  18 2.56  28 2.56  19 2.57  26 2.57  22 2.57  27 2.57
                            21 2.57  23 2.57  33 2.58  30 2.58
  26  0.222  0.889  0.449-  10 2.56  16 2.56  17 2.56  28 2.56  25 2.57  19 2.57  27 2.57  24 2.57
                            20 2.57  23 2.57  29 2.58  34 2.58
  27  0.556  0.888  0.449-  35 2.56  24 2.56  22 2.56  17 2.56  18 2.56  29 2.56  30 2.56  26 2.57
                            25 2.57  11 2.57  20 2.57  21 2.57
  28  0.000  0.000  0.547-  25 2.56  19 2.56  26 2.56  33 2.57  30 2.57  31 2.57  29 2.57  32 2.57
                            34 2.57
  29  0.333  0.002  0.547-  31 2.55  30 2.55  36 2.55  27 2.56  20 2.57  28 2.57  35 2.57  26 2.58
                            34 2.60
  30  0.665  0.002  0.547-  32 2.55  29 2.55  36 2.55  27 2.56  21 2.57  28 2.57  35 2.57  25 2.58
                            33 2.60
  31  0.002  0.333  0.547-  29 2.55  33 2.55  36 2.55  22 2.56  20 2.57  28 2.57  35 2.57  19 2.58
                            32 2.60
  32  0.665  0.333  0.547-  30 2.55  34 2.55  36 2.55  24 2.56  21 2.57  28 2.57  35 2.57  19 2.58
                            31 2.60
  33  0.002  0.665  0.547-  34 2.55  31 2.55  36 2.55  22 2.56  23 2.57  28 2.57  35 2.57  25 2.58
                            30 2.60
  34  0.333  0.665  0.547-  33 2.55  32 2.55  36 2.55  24 2.56  23 2.57  28 2.57  35 2.57  26 2.58
                            29 2.60
  35  0.667  0.667  0.547-  24 2.56  27 2.56  22 2.56  34 2.57  32 2.57  29 2.57  30 2.57  33 2.57
                            31 2.57
  36  0.333  0.333  0.543-  37 1.62  23 2.50  20 2.50  21 2.50  31 2.55  29 2.55  33 2.55  34 2.55
                            32 2.55  30 2.55
  37  0.333  0.333  0.619-  36 1.62

  LATTYP: Found a hexagonal cell.
 ALAT       =     7.6967864036
 C/A-ratio  =     2.7653617908

  Lattice vectors:

 A1 = (  -3.8483927580,  -6.6656128093,   0.0000000000)
 A2 = (   7.6967864037,   0.0000000000,   0.0000000000)
 A3 = (   0.0000000000,   0.0000000000,  21.2843990326)

Analysis of symmetry for initial positions (statically):
 Subroutine PRICEL returns:
 Original cell was already a primitive cell.

 Routine SETGRP: Setting up the symmetry group for a
 hexagonal supercell.

 Subroutine GETGRP returns: Found  6 space group operations
 (whereof  6 operations were pure point group operations)
 out of a pool of 24 trial point group operations.

The static configuration has the point symmetry C_3v.

Analysis of symmetry for dynamics (positions and initial velocities):
 Subroutine PRICEL returns:
 Original cell was already a primitive cell.

[...]

The dynamic configuration has the point symmetry C_3v.

Analysis of constrained symmetry for selective dynamics:
 Subroutine PRICEL returns:
 Original cell was already a primitive cell.

 Routine SETGRP: Setting up the symmetry group for a
 hexagonal supercell.

 Subroutine GETGRP returns: Found  6 space group operations
[...]
     24      -4.3747      2.00000
     25      -4.3276      2.00000
     26      -4.2856      2.00000
     27      -4.2770      2.00000
     28      -4.1391      2.00000
     29      -4.1211      2.00000
     30      -4.0947      2.00000
     31      -4.0783      2.00000
     32      -4.0729      2.00000
     33      -4.0609      2.00000
     34      -4.0392      2.00000
     35      -4.0235      2.00000
     36      -3.9861      2.00000
     37      -3.9649      2.00000
     38      -3.9453      2.00000
     39      -3.8627      2.00000
     40      -3.8534      2.00000
     41      -3.7628      2.00000
     42      -3.7435      2.00000
     43      -3.6774      2.00000
     44      -3.6684      2.00000
     45      -3.6380      2.00000
     46      -3.6324      2.00000
     47      -3.6180      2.00000
     48      -3.5910      2.00000
     49      -3.5708      2.00000
     50      -3.4269      2.00000
     51      -3.4036      2.00000
     52      -3.3965      2.00000
     53      -3.3935      2.00000
     54      -3.3533      2.00000
     55      -3.3519      2.00000
     56      -3.3257      2.00000
     57      -3.3053      2.00000
     58      -3.2967      2.00000
     59      -3.2835      2.00000
     60      -3.2678      2.00000
[...]
    238       6.1794      0.00000
    239       6.3371      0.00000
    240       6.4136      0.00000
    241       6.9325      0.00000
    242       6.9599      0.00000
    243       7.0764      0.00000
    244       7.1251      0.00000
    245       7.2151      0.00000
    246       7.2754      0.00000
    247       7.3710      0.00000
    248       7.4667      0.00000
    249       7.4950      0.00000
    250       7.7104      0.00000
    251       7.7784      0.00000
    252       7.9331      0.00000

 soft charge-density along one line, spin component           1
         0         1         2         3         4         5         6         7         8         9
 total charge-density along one line

------------------------ aborting loop because EDIFF is reached ----------------------------------------

 total charge

# of ion       s       p       d       tot
    1        0.451   0.282   9.189   9.922
    2        0.449   0.285   9.186   9.920
    3        0.449   0.285   9.186   9.920
    4        0.449   0.285   9.186   9.920
    5        0.449   0.285   9.184   9.919
    6        0.449   0.285   9.186   9.920
    7        0.449   0.285   9.186   9.920
    8        0.449   0.285   9.186   9.920
    9        0.447   0.284   9.188   9.919
   10        0.442   0.370   9.179   9.991
   11        0.441   0.369   9.182   9.992
   12        0.442   0.370   9.179   9.991
   13        0.441   0.369   9.182   9.992
   14        0.441   0.369   9.182   9.992
   15        0.439   0.369   9.178   9.986
   16        0.442   0.370   9.179   9.991
   17        0.439   0.369   9.178   9.986
   18        0.439   0.369   9.178   9.986
   19        0.442   0.366   9.182   9.990
   20        0.463   0.394   9.163  10.020
   21        0.463   0.394   9.163  10.020
   22        0.433   0.374   9.178   9.985
   23        0.463   0.394   9.163  10.020
   24        0.433   0.374   9.178   9.985
   25        0.442   0.366   9.182   9.990
   26        0.442   0.366   9.182   9.990
   27        0.433   0.374   9.178   9.985
   28        0.452   0.282   9.186   9.921
   29        0.452   0.297   9.184   9.933
   30        0.452   0.297   9.184   9.933
   31        0.452   0.297   9.184   9.933
   32        0.452   0.297   9.184   9.933
   33        0.452   0.297   9.184   9.933
   34        0.452   0.297   9.184   9.933
   35        0.446   0.287   9.185   9.918
   36        0.573   0.755   4.592   5.920
   37        1.611   3.267   0.000   4.878
tot         17.811  15.659 325.934 359.404

  FORCE on cell =-STRESS in cart. coord.  units (eV):
  Direction    XX          YY          ZZ          XY          YZ          ZX
  Alpha Z   879.45712   879.45712   879.45712
  Ewald  172165.02283172165.02243************     0.00039     0.00013     0.00018
  Hartree185179.60113185179.60111************     0.00004     0.00006     0.00007
  E(xc)   -2302.51510 -2302.51463 -2307.11774    -0.00041    -0.00003    -0.00006
  Local  ************************370462.03916     0.01869    -0.00060    -0.00098
  n-local  -792.99251  -779.40587  -795.99907     7.39671    -0.14310     0.30098
  augment  3343.00296  3343.02312  3355.80197    -0.01746     0.00024     0.00042
  Kinetic  3312.34836  3314.27321  3322.27747     2.66666     1.76717    -1.35685
  Fock        0.00000     0.00000     0.00000     0.00000     0.00000     0.00000
  Total      -4.87815    -4.87815     0.23946     0.00000    -0.00000    -0.00000
  in kB      -7.15739    -7.15739     0.35135     0.00000    -0.00000    -0.00000

 VOLUME and BASIS-vectors are now :
  energy-cutoff  :      500.00
  volume of cell :     1091.97
      direct lattice vectors                 reciprocal lattice vectors
     7.696786404  0.000000000  0.000000000     0.129924354 -0.075011849  0.000000000
     3.848392758  6.665612809  0.000000000     0.000000000  0.150023716  0.000000000
     0.000000000  0.000000000 21.284399033     0.000000000  0.000000000  0.046982769

  length of vectors
     7.696786404  7.696786404 21.284399033     0.150023716  0.150023716  0.046982769

 FORCES acting on ions
    electron-ion (+dipol)            ewald-force                    non-local-force                 convergence-correction
   -.416E-04 0.142E-06 0.348E+04   0.580E-04 -.436E-05 -.347E+04   0.662E-17 -.325E-17 -.235E+01   -.156E-03 -.571E-04 -.160E+00
   -.268E+00 -.138E+00 0.348E+04   0.252E+00 0.157E+00 -.347E+04   -.154E-02 0.963E-01 -.194E+01   0.207E-01 -.102E+00 -.107E+00
   0.268E+00 -.138E+00 0.348E+04   -.253E+00 0.157E+00 -.347E+04   0.154E-02 0.963E-01 -.194E+01   -.201E-01 -.991E-01 -.106E+00
   -.254E+00 -.163E+00 0.348E+04   0.262E+00 0.140E+00 -.347E+04   0.827E-01 -.495E-01 -.194E+01   -.776E-01 0.687E-01 -.107E+00
   -.658E-04 -.578E-05 0.347E+04   0.116E-03 -.101E-04 -.347E+04   -.339E-18 0.939E-18 -.179E+01   0.121E-01 0.739E-02 -.130E+00
   0.254E+00 -.163E+00 0.348E+04   -.262E+00 0.140E+00 -.347E+04   -.827E-01 -.495E-01 -.194E+01   0.761E-01 0.701E-01 -.106E+00
   0.143E-01 0.301E+00 0.348E+04   0.927E-02 -.297E+00 -.347E+04   0.842E-01 -.468E-01 -.194E+01   -.959E-01 0.322E-01 -.106E+00
   -.142E-01 0.301E+00 0.348E+04   -.954E-02 -.297E+00 -.347E+04   -.842E-01 -.468E-01 -.194E+01   0.994E-01 0.309E-01 -.106E+00
   -.144E-03 -.329E-04 0.348E+04   0.263E-03 0.205E-04 -.347E+04   0.189E-18 -.367E-18 -.216E+01   -.133E-01 -.686E-02 -.119E+00
   -.119E+01 -.686E+00 0.117E+04   0.155E+01 0.893E+00 -.116E+04   -.365E+00 -.211E+00 -.828E+00   -.121E-01 -.702E-02 -.900E-01
   -.904E-04 -.123E+01 0.116E+04   0.189E-03 0.119E+01 -.116E+04   -.142E-07 0.213E+00 -.484E+00   0.108E-01 -.204E+00 -.997E-01
   0.119E+01 -.686E+00 0.117E+04   -.155E+01 0.893E+00 -.116E+04   0.365E+00 -.211E+00 -.828E+00   0.116E-01 -.571E-02 -.925E-01
   -.106E+01 0.614E+00 0.116E+04   0.103E+01 -.596E+00 -.116E+04   0.185E+00 -.107E+00 -.484E+00   -.171E+00 0.112E+00 -.997E-01
   0.106E+01 0.614E+00 0.116E+04   -.103E+01 -.596E+00 -.116E+04   -.185E+00 -.107E+00 -.484E+00   0.194E+00 0.112E+00 -.101E+00
   -.142E-03 -.728E+00 0.117E+04   0.298E-03 0.482E+00 -.116E+04   -.586E-08 0.881E-01 -.849E+00   -.299E-02 0.147E+00 -.657E-01
   -.916E-04 0.137E+01 0.117E+04   0.186E-03 -.179E+01 -.116E+04   -.281E-07 0.421E+00 -.828E+00   -.880E-04 0.117E-01 -.926E-01
   -.630E+00 0.364E+00 0.117E+04   0.418E+00 -.241E+00 -.116E+04   0.763E-01 -.440E-01 -.849E+00   0.127E+00 -.762E-01 -.658E-01
   0.631E+00 0.364E+00 0.117E+04   -.418E+00 -.241E+00 -.116E+04   -.763E-01 -.440E-01 -.849E+00   -.126E+00 -.747E-01 -.668E-01
   -.619E-04 -.372E+01 -.116E+04   0.698E-04 0.359E+01 0.116E+04   -.205E-08 0.307E-01 0.102E+01   0.134E-01 0.868E-01 -.124E+00
   -.279E+02 -.161E+02 -.118E+04   0.287E+02 0.166E+02 0.118E+04   -.869E+00 -.502E+00 -.262E+00   -.130E+00 -.752E-01 -.207E+00
   0.279E+02 -.161E+02 -.118E+04   -.287E+02 0.166E+02 0.118E+04   0.869E+00 -.502E+00 -.262E+00   0.108E+00 -.728E-01 -.208E+00
   -.134E+02 0.772E+01 -.116E+04   0.132E+02 -.765E+01 0.116E+04   0.363E+00 -.210E+00 0.867E+00   -.183E+00 0.888E-01 -.258E+00
   -.810E-04 0.322E+02 -.118E+04   0.147E-03 -.332E+02 0.118E+04   -.668E-07 0.100E+01 -.262E+00   -.104E-01 0.128E+00 -.208E+00
   0.134E+02 0.772E+01 -.116E+04   -.132E+02 -.765E+01 0.116E+04   -.363E+00 -.210E+00 0.867E+00   0.162E+00 0.924E-01 -.258E+00
   0.322E+01 0.186E+01 -.116E+04   -.311E+01 -.180E+01 0.116E+04   -.266E-01 -.154E-01 0.102E+01   -.567E-01 -.327E-01 -.125E+00
   -.322E+01 0.186E+01 -.116E+04   0.311E+01 -.180E+01 0.116E+04   0.266E-01 -.154E-01 0.102E+01   0.822E-01 -.316E-01 -.124E+00
   -.124E-03 -.154E+02 -.116E+04   0.240E-03 0.153E+02 0.116E+04   -.279E-07 0.420E+00 0.867E+00   -.146E-01 -.203E+00 -.257E+00
   -.343E-04 0.171E-04 -.343E+04   0.369E-04 -.335E-04 0.343E+04   0.153E-16 -.651E-17 0.202E+01   0.809E-03 0.518E-03 0.210E-01
   -.684E+01 -.141E+02 -.341E+04   0.694E+01 0.139E+02 0.341E+04   -.137E+00 0.148E+00 0.293E+01   -.976E-01 -.205E+00 -.416E-01
   0.684E+01 -.141E+02 -.341E+04   -.694E+01 0.139E+02 0.341E+04   0.137E+00 0.148E+00 0.293E+01   0.973E-01 -.203E+00 -.392E-01
   -.156E+02 0.112E+01 -.341E+04   0.155E+02 -.959E+00 0.341E+04   0.593E-01 -.193E+00 0.293E+01   -.227E+00 0.182E-01 -.416E-01
   0.156E+02 0.112E+01 -.341E+04   -.155E+02 -.959E+00 0.341E+04   -.593E-01 -.193E+00 0.293E+01   0.226E+00 0.203E-01 -.397E-01
   -.879E+01 0.130E+02 -.341E+04   0.860E+01 -.130E+02 0.341E+04   0.197E+00 0.450E-01 0.293E+01   -.128E+00 0.186E+00 -.392E-01
   0.879E+01 0.130E+02 -.341E+04   -.860E+01 -.130E+02 0.341E+04   -.197E+00 0.450E-01 0.293E+01   0.131E+00 0.186E+00 -.396E-01
   -.129E-03 -.168E-04 -.344E+04   0.253E-03 0.498E-05 0.344E+04   0.106E-17 -.133E-17 0.233E+01   -.134E-01 -.690E-02 0.404E-01
   -.442E-04 -.159E-04 -.167E+04   0.773E-04 0.145E-04 0.167E+04   0.525E-18 -.466E-17 0.506E+00   0.131E-02 0.795E-03 -.492E-01
   0.170E-03 -.834E-04 -.220E+04   0.221E-04 0.959E-05 0.223E+04   -.112E-17 -.576E-18 -.280E+02   0.301E-02 0.183E-02 0.537E-01
   -.132E-03 -.110E-03 0.290E+02   0.188E-12 0.337E-12 -.728E-11   -.828E-16 0.836E-16 -.252E+02   -.243E-02 -.438E-02 -.376E+01

 POSITION                                       TOTAL-FORCE (eV/Angst)
      0.00000      0.00000      5.37156         0.000000      0.000000     -0.001438
      2.56560      0.00000      5.37156         0.004365      0.014118      0.061289
      5.13119      0.00000      5.37156        -0.004365      0.014118      0.061289
      1.28280      2.22187      5.37156         0.014409     -0.003279      0.061289
      3.84839      2.22187      5.37156        -0.000000      0.000000      0.054725
      6.41399      2.22187      5.37156        -0.014409     -0.003279      0.061289
      2.56560      4.44374      5.37156         0.010044     -0.010839      0.061289
      5.13119      4.44374      5.37156        -0.010044     -0.010839      0.061289
      7.69679      4.44374      5.37156         0.000000      0.000000      0.028931
      1.28280      0.74062      7.46636        -0.016914     -0.009765     -0.071784
      3.84839      0.74062      7.46636         0.000000     -0.032598     -0.056722
      6.41399      0.74062      7.46636         0.016914     -0.009765     -0.071784
      2.56560      2.96249      7.46636        -0.028231      0.016299     -0.056722
      5.13119      2.96249      7.46636         0.028231      0.016299     -0.056722
      7.69679      2.96249      7.46636         0.000000     -0.010104     -0.009566
      3.84839      5.18437      7.46636        -0.000000      0.019531     -0.071784
      6.41399      5.18437      7.46636        -0.008751      0.005052     -0.009566
      8.97958      5.18437      7.46636         0.008751      0.005052     -0.009566
      7.69679      1.48113      9.55176         0.000000     -0.016346      0.050508
      2.56610      1.48154      9.54462        -0.130001     -0.075056     -0.178996
      5.13069      1.48154      9.54462         0.130001     -0.075056     -0.178996
      8.97635      3.70498      9.55922         0.061803     -0.035682      0.030339
      3.84839      3.70254      9.54462        -0.000000      0.150112     -0.178996
      6.41722      3.70498      9.55922        -0.061803     -0.035682      0.030339
     10.26248      5.92505      9.55176         0.014156      0.008173      0.050508
      5.13109      5.92505      9.55176        -0.014156      0.008173      0.050508
      7.69679      5.92126      9.55922        -0.000000      0.071364      0.030339
      0.00000      0.00000     11.63975         0.000000      0.000000     -0.061236
      2.57267      0.01383     11.65039        -0.136245     -0.213287     -0.195992
      5.12411      0.01383     11.65039         0.136245     -0.213287     -0.195992
      1.29831      2.22109     11.65039        -0.252835     -0.011348     -0.195992
      6.39847      2.22109     11.65039         0.252835     -0.011348     -0.195992
      2.57403      4.43070     11.65039        -0.116590      0.224635     -0.195992
      5.12275      4.43070     11.65039         0.116589      0.224635     -0.195992
      7.69679      4.44374     11.64501        -0.000000      0.000000     -0.015002
      3.84839      2.22187     11.55740         0.000000      0.000000      1.499369
      3.84839      2.22187     13.17442         0.000000      0.000000      0.011532
    total drift:                               -0.002565     -0.004493      0.017301

  FREE ENERGIE OF THE ION-ELECTRON SYSTEM (eV)
  free  energy   TOTEN  =      -137.56728649 eV

  energy  without entropy=     -137.56728649  energy(sigma->0) =     -137.56728649

 stress matrix after NEB project (eV)
     -4.87815      0.00000     -0.00000
      0.00000     -4.87815      0.00000
      0.00000     -0.00000      0.23946
  FORCES: max atom, RMS     0.011532    0.001896
  FORCE total and by dimension    0.011532    0.011532
  Stress total and by dimension    6.902894    4.878146
|           W    W    AA    RRRRR   N    N  II  N    N   GGGG   !!!           |
|           W    W   A  A   R    R  NN   N  II  NN   N  G    G  !!!           |
|           W    W  A    A  R    R  N N  N  II  N N  N  G       !!!           |
|           W WW W  AAAAAA  RRRRR   N  N N  II  N  N N  G  GGG   !            |
|           WW  WW  A    A  R   R   N   NN  II  N   NN  G    G                |
|           W    W  A    A  R    R  N    N  II  N    N   GGGG   !!!           |
|     Tetrahedron method does not include variations of the Fermi             |
|     occupations, so forces and stress will be inaccurate. We suggest        |
|     using a different smearing scheme ISMEAR = 1 or 2 for metals in         |
|     relaxations.                                                            |

 total charge

# of ion       s       p       d       tot
    1        0.451   0.282   9.189   9.922
    2        0.449   0.285   9.186   9.920
    3        0.449   0.285   9.186   9.920
    4        0.449   0.285   9.186   9.920
    5        0.449   0.285   9.184   9.919
    6        0.449   0.285   9.186   9.920
    7        0.449   0.285   9.186   9.920
    8        0.449   0.285   9.186   9.920
    9        0.447   0.284   9.188   9.919
   10        0.442   0.370   9.179   9.991
   11        0.441   0.369   9.182   9.992
   12        0.442   0.370   9.179   9.991
   13        0.441   0.369   9.182   9.992
   14        0.441   0.369   9.182   9.992
   15        0.439   0.369   9.178   9.986
   16        0.442   0.370   9.179   9.991
   17        0.439   0.369   9.178   9.986
   18        0.439   0.369   9.178   9.986
   19        0.442   0.366   9.182   9.990
   20        0.463   0.394   9.163  10.020
   21        0.463   0.394   9.163  10.020
   22        0.433   0.374   9.178   9.985
   23        0.463   0.394   9.163  10.020
   24        0.433   0.374   9.178   9.985
   25        0.442   0.366   9.182   9.990
   26        0.442   0.366   9.182   9.990
   27        0.433   0.374   9.178   9.985
   28        0.452   0.282   9.186   9.921
   29        0.452   0.297   9.184   9.933
   30        0.452   0.297   9.184   9.933
   31        0.452   0.297   9.184   9.933
   32        0.452   0.297   9.184   9.933
   33        0.452   0.297   9.184   9.933
   34        0.452   0.297   9.184   9.933
   35        0.446   0.287   9.185   9.918
   36        0.573   0.755   4.592   5.920
   37        1.611   3.267   0.000   4.878
tot         17.811  15.659 325.934 359.404

 BZINTS: Fermi energy:    0.034392;  397.000000 electrons
         Band energy:-0.114288E+04;  BLOECHL correction:   -0.030039