 vasp.6.2.0 18Jan21 (build Jun 12 2021 23:27:24) complex

 executed on             LinuxIFC date 2022.05.30  17:44:04

 INCAR:
   ISMEAR = -5
   SIGMA = 0.1
   ISPIN = 1
   EDIFF = 1.d-5
   EDIFFG = -0.01
   NSW = 0
   NELM = 150
   ENCUT = 500
   ISIF = 2
   IBRION = 2
   LREAL = Auto
   ALGO = Fast
   ICHARG = 11
   LORBIT = 10
   LCHARG = .F.
   LWAVE = .F.

 POTCAR:    PAW_PBE Ag 02Apr2005
 POTCAR:    PAW_PBE Ir 06Sep2000
 POTCAR:    PAW_PBE C 08Apr2002
 POTCAR:    PAW_PBE O 08Apr2002
 POTCAR:    PAW_PBE H 15Jun2001
|           W    W    AA    RRRRR   N    N  II  N    N   GGGG   !!!           |
|           W    W   A  A   R    R  NN   N  II  NN   N  G    G  !!!           |
|           W    W  A    A  R    R  N N  N  II  N N  N  G       !!!           |
|           W WW W  AAAAAA  RRRRR   N  N N  II  N  N N  G  GGG   !            |
|           WW  WW  A    A  R   R   N   NN  II  N   NN  G    G                |
|           W    W  A    A  R    R  N    N  II  N    N   GGGG   !!!           |
|     For optimal performance we recommend to set                             |
|       NCORE = 2 up to number-of-cores-per-socket                            |
|     This setting can greatly improve the performance of VASP for DFT.       |
|     The default, NCORE=1 might be grossly inefficient on modern             |
|     multi-core architectures or massively parallel machines. Do your        |
|     Unfortunately you need to use the default for GW and RPA                |
|     calculations (for HF NCORE is supported but not extensively tested      |
|     yet).                                                                   |

 POTCAR:    PAW_PBE Ag 02Apr2005
   VRHFIN =Ag : s1 d10

   TITEL  = PAW_PBE Ag 02Apr2005
   POMASS =  107.868; ZVAL   =   11.000    mass and valenz
   ENMAX  =  249.844; ENMIN  =  187.383 eV

 POTCAR:    PAW_PBE Ir 06Sep2000
   VRHFIN =Ir: s1d8

   TITEL  = PAW_PBE Ir 06Sep2000
   POMASS =  192.220; ZVAL   =    9.000    mass and valenz
   ENMAX  =  210.864; ENMIN  =  158.148 eV

 POTCAR:    PAW_PBE C 08Apr2002
   VRHFIN =C: s2p2

[...]

 POTCAR:    PAW_PBE O 08Apr2002
   VRHFIN =O: s2p4

   TITEL  = PAW_PBE O 08Apr2002
   POMASS =   16.000; ZVAL   =    6.000    mass and valenz
   ENMAX  =  400.000; ENMIN  =  300.000 eV

 POTCAR:    PAW_PBE H 15Jun2001
   VRHFIN =H: ultrasoft test

   TITEL  = PAW_PBE H 15Jun2001
   POMASS =    1.000; ZVAL   =    1.000    mass and valenz
   ENMAX  =  250.000; ENMIN  =  200.000 eV

 Optimization of the real space projectors (new method)

 maximal supplied QI-value         = 15.12
 optimisation between [QCUT,QGAM] = [ 11.34, 22.83] = [ 36.00,145.93] Ry
 Optimized for a Real-space Cutoff    1.43 Angstroem

   l    n(q)    QCUT    max X(q) W(low)/X(q) W(high)/X(q)  e(spline)
   2      9    11.338    53.897    0.16E-03    0.20E-03    0.28E-06
   2      9    11.338    52.416    0.16E-03    0.20E-03    0.29E-06
   0     10    11.338   122.045    0.31E-04    0.76E-04    0.15E-06
   0     10    11.338    73.629    0.30E-04    0.72E-04    0.15E-06
   1      9    11.338    15.255    0.20E-03    0.19E-04    0.17E-06
   1      9    11.338     9.562    0.16E-03    0.15E-04    0.14E-06
 Optimization of the real space projectors (new method)

[...]

   l    n(q)    QCUT    max X(q) W(low)/X(q) W(high)/X(q)  e(spline)
   0      7    11.387    20.381    0.39E-03    0.13E-02    0.15E-06
   0      7    11.387    15.268    0.42E-03    0.14E-02    0.17E-06
   1      6    11.387     5.964    0.41E-03    0.11E-02    0.17E-06
   1      6    11.387     5.382    0.39E-03    0.87E-03    0.15E-06
 Optimization of the real space projectors (new method)

 maximal supplied QI-value         = 34.20
 optimisation between [QCUT,QGAM] = [ 11.29, 22.57] = [ 35.68,142.71] Ry
 Optimized for a Real-space Cutoff    1.16 Angstroem

   l    n(q)    QCUT    max X(q) W(low)/X(q) W(high)/X(q)  e(spline)
   0      8    11.287    19.460    0.40E-03    0.73E-03    0.16E-06
   0      8    11.287    12.209    0.38E-03    0.70E-03    0.15E-06
   1      7    11.287     4.655    0.22E-03    0.25E-04    0.22E-06
  PAW_PBE Ag 02Apr2005                  :
  PAW_PBE Ir 06Sep2000                  :
  PAW_PBE C 08Apr2002                   :
  PAW_PBE O 08Apr2002                   :
  PAW_PBE H 15Jun2001                   :

 POSCAR: Ag-Ir-COH
  positions in direct lattice
  velocities in cartesian coordinates
 exchange correlation table for  LEXCH =        8
   RHO(1)=    0.500       N(1)  =     2000
   RHO(2)=  100.500       N(2)  =     4000

 VTST: version 3.2, (02/03/18)

 CHAIN: initializing optimizer

 OPT: Using VASP Conjugate-Gradient optimizer
 CHAIN: Read ICHAIN            0

 POSCAR: Ag-Ir-COH
  positions in direct lattice
  velocities in cartesian coordinates

 ion  position               nearest neighbor table
   1  0.000  0.000  0.199-   2 2.93   8 2.93   7 2.93   6 2.93   4 2.93  12 2.93  16 2.93  10 2.93
                             3 2.93
   2  0.333  0.000  0.199-   1 2.93   8 2.93   9 2.93   3 2.93   4 2.93   5 2.93  10 2.93  17 2.93
                            11 2.93
   3  0.667  0.000  0.199-   9 2.93   2 2.93   5 2.93  11 2.93   7 2.93  18 2.93   1 2.93   6 2.93
                            12 2.93
   4  0.000  0.333  0.199-   5 2.93   6 2.93   2 2.93   1 2.93   7 2.93  13 2.93  15 2.93   9 2.93
                            10 2.93
   5  0.333  0.333  0.199-   4 2.93   3 2.93   7 2.93   2 2.93   8 2.93  14 2.93  13 2.93  11 2.93
                             6 2.93
   6  0.667  0.333  0.199-   4 2.93   9 2.93   1 2.93  15 2.93   8 2.93  12 2.93   3 2.93   5 2.93
                            14 2.93
   7  0.000  0.667  0.199-   8 2.93   1 2.93   5 2.93   3 2.93   4 2.93  16 2.93  18 2.93  13 2.93
                             9 2.93
   8  0.333  0.667  0.199-   7 2.93   1 2.93   2 2.93   9 2.93   5 2.93  16 2.93   6 2.93  17 2.93
                            14 2.93
   9  0.667  0.667  0.199-   3 2.93   2 2.93   8 2.93   6 2.93  17 2.93   4 2.93  15 2.93   7 2.93
                            18 2.93
  10  0.111  0.111  0.289-  20 2.89  12 2.93  16 2.93  15 2.93  17 2.93  13 2.93  11 2.93   2 2.93
                             1 2.93   4 2.93  19 2.93  26 2.93
  11  0.444  0.111  0.289-  21 2.90  20 2.90  27 2.92  14 2.93  17 2.93  18 2.93   3 2.93  12 2.93
                            13 2.93  10 2.93   5 2.93   2 2.93
  12  0.778  0.111  0.289-  21 2.89  10 2.93  16 2.93  18 2.93  15 2.93  11 2.93   1 2.93  14 2.93
                             6 2.93   3 2.93  25 2.93  19 2.93
  13  0.111  0.444  0.289-  20 2.90  23 2.90  22 2.92  15 2.93  14 2.93  18 2.93  10 2.93  11 2.93
                            16 2.93   4 2.93   5 2.93   7 2.93
  14  0.444  0.444  0.289-  23 2.90  21 2.90  24 2.92  13 2.93  11 2.93  16 2.93   5 2.93  12 2.93
                            17 2.93   8 2.93  15 2.93   6 2.93
  15  0.778  0.444  0.289-  24 2.92  22 2.92  19 2.93  13 2.93  10 2.93  12 2.93  17 2.93  18 2.93
                             4 2.93   6 2.93   9 2.93  14 2.93
  16  0.111  0.778  0.289-  23 2.89  18 2.93  12 2.93  10 2.93  14 2.93  17 2.93  13 2.93   7 2.93
                             8 2.93   1 2.93  26 2.93  25 2.93
  17  0.444  0.778  0.289-  27 2.92  24 2.92  26 2.93  11 2.93  10 2.93   9 2.93  18 2.93  15 2.93
                            16 2.93   2 2.93  14 2.93   8 2.93
  18  0.778  0.778  0.289-  22 2.92  27 2.92  25 2.93  16 2.93  12 2.93  13 2.93  11 2.93  17 2.93
                            15 2.93   7 2.93   3 2.93   9 2.93
  19  0.888  0.223  0.379-  28 2.90  24 2.92  22 2.92  15 2.93  20 2.93  21 2.93  10 2.93  12 2.93
                            32 2.94  31 2.94  26 2.94  25 2.94
  20  0.222  0.222  0.377-  36 2.77  10 2.89  13 2.90  11 2.90  31 2.92  29 2.92  19 2.93  26 2.93
                            27 2.93  22 2.93  21 2.94  23 2.94
  21  0.556  0.222  0.377-  36 2.77  12 2.89  11 2.90  14 2.90  30 2.92  32 2.92  25 2.93  19 2.93
                            27 2.93  24 2.93  20 2.94  23 2.94
  22  0.888  0.556  0.378-  35 2.90  18 2.92  15 2.92  13 2.92  24 2.92  27 2.92  25 2.92  19 2.92
                            33 2.93  31 2.93  23 2.93  20 2.93
  23  0.222  0.556  0.377-  36 2.77  16 2.89  14 2.90  13 2.90  34 2.92  33 2.92  26 2.93  25 2.93
                            22 2.93  24 2.93  21 2.94  20 2.94
  24  0.556  0.556  0.378-  35 2.90  15 2.92  17 2.92  14 2.92  27 2.92  22 2.92  19 2.92  26 2.92
                            32 2.93  34 2.93  23 2.93  21 2.93
  25  0.888  0.888  0.379-  28 2.90  22 2.92  27 2.92  18 2.93  23 2.93  21 2.93  16 2.93  12 2.93
                            33 2.94  30 2.94  26 2.94  19 2.94
  26  0.223  0.888  0.379-  28 2.90  27 2.92  24 2.92  17 2.93  23 2.93  20 2.93  16 2.93  10 2.93
                            34 2.94  29 2.94  25 2.94  19 2.94
  27  0.556  0.888  0.378-  35 2.90  17 2.92  18 2.92  11 2.92  24 2.92  22 2.92  26 2.92  25 2.92
                            29 2.93  30 2.93  20 2.93  21 2.93
  28  0.000  0.000  0.467-  26 2.90  25 2.90  19 2.90  29 2.96  34 2.96  33 2.96  32 2.96  31 2.96
                            30 2.96
  29  0.333  0.007  0.468-  31 2.87  30 2.88  36 2.88  20 2.92  27 2.93  26 2.94  28 2.96  35 2.96
                            34 3.04
  30  0.660  0.007  0.468-  32 2.87  29 2.88  36 2.88  21 2.92  27 2.93  25 2.94  28 2.96  35 2.96
                            33 3.04
  31  0.007  0.333  0.468-  29 2.87  33 2.88  36 2.88  20 2.92  22 2.93  19 2.94  28 2.96  35 2.96
                            32 3.04
  32  0.660  0.333  0.468-  30 2.87  34 2.88  36 2.88  21 2.92  24 2.93  19 2.94  28 2.96  35 2.96
                            31 3.04
  33  0.007  0.660  0.468-  34 2.87  31 2.88  36 2.88  23 2.92  22 2.93  25 2.94  28 2.96  35 2.96
                            30 3.04
  34  0.333  0.660  0.468-  33 2.87  32 2.88  36 2.88  23 2.92  24 2.93  26 2.94  28 2.96  35 2.96
                            29 3.04
  35  0.667  0.667  0.467-  24 2.90  27 2.90  22 2.90  30 2.96  32 2.96  29 2.96  34 2.96  31 2.96
                            33 2.96
  36  0.333  0.333  0.460-  37 1.77  21 2.77  20 2.77  23 2.77  31 2.88  30 2.88  33 2.88  29 2.88
                            34 2.88  32 2.88
  37  0.333  0.333  0.526-  38 1.26  36 1.77
  38  0.333  0.333  0.573-  39 0.96  37 1.26
  39  0.333  0.333  0.610-  38 0.96

  LATTYP: Found a hexagonal cell.
 ALAT       =     8.7913665772
 C/A-ratio  =     3.0233954145

  Lattice vectors:

 A1 = (  -4.3956832886,  -7.6135467898,   0.0000000000)
 A2 = (   8.7913665771,   0.0000000000,   0.0000000000)
 A3 = (   0.0000000000,   0.0000000000,  26.5797773968)

Analysis of symmetry for initial positions (statically):
 Subroutine PRICEL returns:
 Original cell was already a primitive cell.

 Routine SETGRP: Setting up the symmetry group for a
 hexagonal supercell.

 Subroutine GETGRP returns: Found  6 space group operations
 (whereof  6 operations were pure point group operations)
 out of a pool of 24 trial point group operations.

The static configuration has the point symmetry C_3v.

Analysis of symmetry for dynamics (positions and initial velocities):
 Subroutine PRICEL returns:
 Original cell was already a primitive cell.

[...]

[...]
     41      -4.6409      2.00000
     42      -4.6316      2.00000
     43      -4.5968      2.00000
     44      -4.5837      2.00000
     45      -4.5746      2.00000
     46      -4.5638      2.00000
     47      -4.5403      2.00000
     48      -4.4560      2.00000
     49      -4.4262      2.00000
     50      -4.4143      2.00000
     51      -4.4137      2.00000
     52      -4.4047      2.00000
     53      -4.4023      2.00000
     54      -4.3901      2.00000
     55      -4.3829      2.00000
     56      -4.3762      2.00000
     57      -4.3663      2.00000
     58      -4.2997      2.00000
     59      -4.2844      2.00000
     60      -4.2776      2.00000
[...]
    238       5.3030      0.00000
    239       5.3760      0.00000
    240       5.4972      0.00000
    241       5.5622      0.00000
    242       5.7267      0.00000
    243       5.7738      0.00000
    244       5.8242      0.00000
    245       5.8373      0.00000
    246       5.8848      0.00000
    247       5.9143      0.00000
    248       5.9620      0.00000
    249       6.0302      0.00000
    250       6.1332      0.00000
    251       6.5417      0.00000
    252       6.8435      0.00000

 soft charge-density along one line, spin component           1
         0         1         2         3         4         5         6         7         8         9
 total charge-density along one line

------------------------ aborting loop because EDIFF is reached ----------------------------------------

 total charge

# of ion       s       p       d       tot
    1        0.416   0.203   9.177   9.796
    2        0.419   0.204   9.177   9.799
    3        0.419   0.204   9.177   9.799
    4        0.419   0.204   9.177   9.799
    5        0.418   0.203   9.176   9.797
    6        0.419   0.204   9.177   9.799
    7        0.419   0.204   9.177   9.799
    8        0.419   0.204   9.177   9.799
    9        0.413   0.206   9.177   9.796
   10        0.408   0.269   9.163   9.840
   11        0.409   0.270   9.166   9.844
   12        0.408   0.269   9.163   9.840
   13        0.409   0.270   9.166   9.844
   14        0.409   0.270   9.166   9.844
   15        0.400   0.271   9.165   9.837
   16        0.408   0.269   9.163   9.840
   17        0.400   0.271   9.165   9.837
   18        0.400   0.271   9.165   9.837
   19        0.406   0.267   9.166   9.839
   20        0.425   0.301   9.148   9.874
   21        0.425   0.301   9.148   9.874
   22        0.396   0.276   9.165   9.837
   23        0.425   0.301   9.148   9.874
   24        0.396   0.276   9.165   9.837
   25        0.406   0.267   9.166   9.839
   26        0.406   0.267   9.166   9.839
   27        0.396   0.276   9.165   9.837
   28        0.419   0.199   9.180   9.798
   29        0.404   0.220   9.180   9.803
   30        0.404   0.220   9.180   9.803
   31        0.404   0.220   9.180   9.803
   32        0.404   0.220   9.180   9.803
   33        0.404   0.220   9.180   9.803
   34        0.404   0.220   9.180   9.803
   35        0.417   0.199   9.180   9.796
   36        0.665   0.651   7.155   8.470
   37        0.920   1.462   0.000   2.382
   38        1.528   3.756   0.000   5.285
   39        0.554   0.131   0.000   0.685
tot         18.015  14.513 328.102 360.630

  FORCE on cell =-STRESS in cart. coord.  units (eV):
  Direction    XX          YY          ZZ          XY          YZ          ZX
  Alpha Z   655.44075   655.44075   655.44075
  Ewald  187670.70815187670.70824************     0.00005     0.00000     0.00005
  Hartree197899.97136197899.97139************     0.00002     0.00000     0.00002
  E(xc)   -2118.76710 -2118.76728 -2122.31981     0.00015    -0.00001    -0.00002
  Local  ************************396596.39190     0.00061    -0.00007    -0.00020
  n-local  -364.23960  -347.05696  -358.36661    10.37555    -0.30205     0.31352
  augment  3269.65366  3269.65386  3267.88205    -0.00018    -0.00002     0.00000
  Kinetic  5108.19752  5109.72837  5050.77777     3.54959     1.28739    -0.61919
  Fock        0.00000     0.00000     0.00000     0.00000     0.00000     0.00000
  Total      -6.46504    -6.46504    -0.05111    -0.00000    -0.00000    -0.00000
  in kB      -5.82220    -5.82220    -0.04603    -0.00000    -0.00000    -0.00000

 VOLUME and BASIS-vectors are now :
  energy-cutoff  :      500.00
  volume of cell :     1779.08
      direct lattice vectors                 reciprocal lattice vectors
     8.791366577  0.000000000  0.000000000     0.113747958 -0.065672414  0.000000000
     4.395683289  7.613546790  0.000000000     0.000000000  0.131344829  0.000000000
     0.000000000  0.000000000 26.579777397     0.000000000  0.000000000  0.037622587

  length of vectors
     8.791366577  8.791366577 26.579777397     0.131344829  0.131344829  0.037622587

 FORCES acting on ions
    electron-ion (+dipol)            ewald-force                    non-local-force                 convergence-correction
   0.455E-04 -.285E-04 0.285E+04   -.954E-04 0.593E-04 -.285E+04   0.814E-18 0.241E-17 -.238E+01   -.127E-03 -.180E-03 -.806E-01
   0.526E+00 0.428E+00 0.286E+04   -.598E+00 -.603E+00 -.285E+04   0.212E-01 0.663E-01 -.157E+01   0.561E-01 0.118E+00 -.127E+00
   -.526E+00 0.428E+00 0.286E+04   0.599E+00 -.603E+00 -.285E+04   -.212E-01 0.663E-01 -.157E+01   -.566E-01 0.120E+00 -.126E+00
   0.633E+00 0.241E+00 0.286E+04   -.821E+00 -.217E+00 -.285E+04   0.680E-01 -.148E-01 -.157E+01   0.130E+00 -.102E-01 -.126E+00
   -.413E-05 -.179E-04 0.286E+04   0.981E-04 -.197E-05 -.286E+04   -.417E-17 0.142E-17 -.150E+01   0.630E-02 0.385E-02 -.189E+00
   -.633E+00 0.241E+00 0.286E+04   0.821E+00 -.217E+00 -.285E+04   -.680E-01 -.148E-01 -.157E+01   -.132E+00 -.927E-02 -.126E+00
   0.108E+00 -.669E+00 0.286E+04   -.223E+00 0.820E+00 -.285E+04   0.468E-01 -.515E-01 -.157E+01   0.760E-01 -.108E+00 -.126E+00
   -.108E+00 -.669E+00 0.286E+04   0.223E+00 0.819E+00 -.285E+04   -.468E-01 -.515E-01 -.157E+01   -.743E-01 -.110E+00 -.126E+00
   0.371E-04 -.125E-04 0.286E+04   0.792E-04 -.643E-04 -.285E+04   0.232E-17 -.216E-17 -.196E+01   -.670E-02 -.346E-02 -.120E-01
   0.731E+01 0.422E+01 0.100E+04   -.680E+01 -.393E+01 -.100E+04   -.506E+00 -.292E+00 -.840E+00   0.138E-01 0.801E-02 0.549E-01
   -.291E-04 0.569E+01 0.101E+04   0.411E-04 -.590E+01 -.101E+04   0.524E-12 0.799E-01 -.494E+00   0.644E-02 0.754E-01 0.712E-01
   -.731E+01 0.422E+01 0.100E+04   0.680E+01 -.393E+01 -.100E+04   0.506E+00 -.292E+00 -.840E+00   -.156E-01 0.950E-02 0.554E-01
   0.493E+01 -.284E+01 0.101E+04   -.511E+01 0.295E+01 -.101E+04   0.692E-01 -.399E-01 -.494E+00   0.684E-01 -.321E-01 0.712E-01
   -.493E+01 -.284E+01 0.101E+04   0.511E+01 0.295E+01 -.101E+04   -.692E-01 -.399E-01 -.494E+00   -.573E-01 -.328E-01 0.713E-01
   0.159E-04 0.148E+01 0.100E+04   -.109E-03 -.150E+01 -.100E+04   -.126E-12 -.191E-01 -.691E+00   -.196E-02 0.142E-01 0.680E-01
   -.744E-05 -.844E+01 0.100E+04   0.205E-04 0.786E+01 -.100E+04   0.384E-11 0.585E+00 -.840E+00   0.386E-03 -.183E-01 0.554E-01
   0.128E+01 -.741E+00 0.100E+04   -.130E+01 0.750E+00 -.100E+04   -.166E-01 0.957E-02 -.691E+00   0.112E-01 -.879E-02 0.680E-01
   -.128E+01 -.741E+00 0.100E+04   0.130E+01 0.750E+00 -.100E+04   0.166E-01 0.957E-02 -.691E+00   -.113E-01 -.656E-02 0.684E-01
   0.400E-04 0.426E+01 -.887E+03   -.130E-03 -.435E+01 0.887E+03   -.243E-12 -.371E-01 0.568E+00   -.641E-02 0.106E+00 0.619E-01
   0.176E+02 0.101E+02 -.833E+03   -.166E+02 -.959E+01 0.834E+03   -.111E+01 -.640E+00 -.122E+01   0.117E+00 0.678E-01 0.195E+00
   -.176E+02 0.101E+02 -.833E+03   0.166E+02 -.959E+01 0.834E+03   0.111E+01 -.640E+00 -.122E+01   -.116E+00 0.689E-01 0.195E+00
   0.668E+01 -.385E+01 -.872E+03   -.698E+01 0.403E+01 0.871E+03   0.337E+00 -.194E+00 0.679E+00   -.165E-02 -.410E-02 0.966E-01
   -.561E-04 -.203E+02 -.833E+03   0.444E-04 0.192E+02 0.834E+03   0.841E-11 0.128E+01 -.122E+01   0.219E-02 -.134E+00 0.195E+00
   -.668E+01 -.385E+01 -.872E+03   0.698E+01 0.403E+01 0.871E+03   -.337E+00 -.194E+00 0.679E+00   -.897E-02 -.508E-02 0.967E-01
   -.369E+01 -.213E+01 -.887E+03   0.376E+01 0.217E+01 0.887E+03   0.321E-01 0.185E-01 0.568E+00   -.980E-01 -.567E-01 0.616E-01
   0.369E+01 -.213E+01 -.887E+03   -.376E+01 0.217E+01 0.887E+03   -.321E-01 0.185E-01 0.568E+00   0.886E-01 -.589E-01 0.620E-01
   0.202E-04 0.771E+01 -.872E+03   0.110E-03 -.807E+01 0.871E+03   0.255E-11 0.389E+00 0.679E+00   -.504E-02 0.593E-03 0.966E-01
   0.537E-04 -.371E-04 -.275E+04   -.116E-03 0.786E-04 0.274E+04   -.743E-17 0.413E-18 0.165E+01   -.803E-04 -.184E-03 0.160E+00
   0.339E+02 0.601E+02 -.273E+04   -.338E+02 -.601E+02 0.272E+04   -.278E+00 -.355E+00 0.201E+01   0.859E-01 0.895E-01 0.136E+00
   -.339E+02 0.601E+02 -.273E+04   0.338E+02 -.601E+02 0.272E+04   0.278E+00 -.355E+00 0.201E+01   -.862E-01 0.915E-01 0.136E+00
   0.690E+02 -.711E+00 -.273E+04   -.690E+02 0.767E+00 0.272E+04   -.447E+00 -.627E-01 0.201E+01   0.121E+00 0.298E-01 0.136E+00
   -.690E+02 -.711E+00 -.273E+04   0.690E+02 0.767E+00 0.272E+04   0.447E+00 -.627E-01 0.201E+01   -.122E+00 0.306E-01 0.136E+00
   0.351E+02 -.594E+02 -.273E+04   -.352E+02 0.594E+02 0.272E+04   -.169E+00 0.418E+00 0.201E+01   0.366E-01 -.120E+00 0.136E+00
   -.351E+02 -.594E+02 -.273E+04   0.352E+02 0.594E+02 0.272E+04   0.169E+00 0.418E+00 0.201E+01   -.349E-01 -.121E+00 0.136E+00
   0.216E-04 -.105E-04 -.274E+04   0.107E-03 -.666E-04 0.274E+04   0.843E-17 -.170E-19 0.179E+01   -.674E-02 -.346E-02 0.736E-01
   -.176E-04 -.257E-04 -.195E+04   0.867E-04 0.108E-04 0.195E+04   -.141E-16 -.730E-17 0.973E+00   0.269E-02 0.163E-02 0.603E-01
   0.366E-06 -.766E-04 -.108E+04   0.188E-04 0.263E-06 0.106E+04   -.222E-17 0.684E-18 0.178E+02   0.126E-02 0.772E-03 -.327E-01
   0.241E-03 -.909E-04 -.176E+04   0.926E-05 0.102E-07 0.177E+04   -.272E-18 -.178E-17 -.641E+01   0.388E-02 0.238E-02 -.519E-01
   0.657E-05 -.141E-04 -.334E+03   0.626E-06 -.317E-08 0.343E+03   0.473E-19 0.261E-19 -.841E+01   0.204E-03 0.125E-03 -.882E-02
   0.631E-03 -.868E-03 0.317E+00   -.203E-12 -.256E-13 0.904E-11   -.358E-16 -.175E-15 -.175E+01   -.130E-01 -.408E-02 0.162E+01

 POSITION                                       TOTAL-FORCE (eV/Angst)
      0.00000      0.00000      5.28219        -0.000000      0.000000      0.037347
      2.93046      0.00000      5.28219         0.005111      0.010465      0.042454
      5.86091      0.00000      5.28219        -0.005111      0.010465      0.042454
      1.46523      2.53785      5.28219         0.011619     -0.000806      0.042454
      4.39568      2.53785      5.28219        -0.000000      0.000000      0.024526
      7.32614      2.53785      5.28219        -0.011619     -0.000806      0.042454
      2.93046      5.07570      5.28219         0.006507     -0.009659      0.042454
      5.86091      5.07570      5.28219        -0.006507     -0.009659      0.042454
      8.79137      5.07570      5.28219        -0.000000      0.000000      0.039585
      1.46523      0.84595      7.67490         0.016735      0.009662     -0.003069
      4.39568      0.84595      7.67490        -0.000000     -0.058085     -0.119776
      7.32614      0.84595      7.67490        -0.016735      0.009662     -0.003069
      2.93046      3.38380      7.67490        -0.050303      0.029043     -0.119776
      5.86091      3.38380      7.67490         0.050303      0.029043     -0.119776
      8.79137      3.38380      7.67490        -0.000000     -0.023855      0.005692
      4.39568      5.92165      7.67490        -0.000000     -0.019324     -0.003069
      7.32614      5.92165      7.67490        -0.020659      0.011927      0.005692
     10.25659      5.92165      7.67490         0.020659      0.011927      0.005692
      8.79137      1.70006     10.06849        -0.000000     -0.016403     -0.018513
      2.92657      1.68966     10.02287        -0.051290     -0.029612     -0.204146
      5.86479      1.68966     10.02287         0.051290     -0.029612     -0.204146
     10.25237      4.23218     10.05185         0.032297     -0.018647     -0.019025
      4.39568      4.23423     10.02287         0.000000      0.059225     -0.204146
      7.33036      4.23218     10.05185        -0.032297     -0.018647     -0.019025
     11.71475      6.76352     10.06849         0.014205      0.008202     -0.018513
      5.86798      6.76352     10.06849        -0.014205      0.008202     -0.018513
      8.79137      6.76272     10.05185         0.000000      0.037294     -0.019025
      0.00000      0.00000     12.42216        -0.000000      0.000000      0.020590
      2.95716      0.04978     12.43839        -0.137544     -0.284500     -0.088863
      5.83420      0.04978     12.43839         0.137544     -0.284500     -0.088863
      1.52169      2.53609     12.43839        -0.315156      0.023133     -0.088863
      7.26967      2.53609     12.43839         0.315156      0.023133     -0.088863
      2.96021      5.02768     12.43839        -0.177612      0.261367     -0.088863
      5.83115      5.02768     12.43839         0.177612      0.261367     -0.088863
      8.79137      5.07570     12.41166        -0.000000      0.000000      0.048302
      4.39568      2.53785     12.21369        -0.000000      0.000000      1.202972
      4.39568      2.53785     13.98050        -0.000000      0.000000     -0.005122
      4.39568      2.53785     15.23763        -0.000000      0.000000     -0.007202
      4.39568      2.53785     16.20174        -0.000000      0.000000     -0.006035
    total drift:                               -0.012333     -0.004947      0.190417

  FREE ENERGIE OF THE ION-ELECTRON SYSTEM (eV)
  free  energy   TOTEN  =      -114.50128513 eV

  energy  without entropy=     -114.50128513  energy(sigma->0) =     -114.50128513

 stress matrix after NEB project (eV)
     -6.46504     -0.00000     -0.00000
     -0.00000     -6.46504      0.00000
     -0.00000     -0.00000     -0.05111
  FORCES: max atom, RMS     0.007202    0.001714
  FORCE total and by dimension    0.010702    0.007202
  Stress total and by dimension    9.143092    6.465041
|           W    W    AA    RRRRR   N    N  II  N    N   GGGG   !!!           |
|           W    W   A  A   R    R  NN   N  II  NN   N  G    G  !!!           |
|           W    W  A    A  R    R  N N  N  II  N N  N  G       !!!           |
|           W WW W  AAAAAA  RRRRR   N  N N  II  N  N N  G  GGG   !            |
|           WW  WW  A    A  R   R   N   NN  II  N   NN  G    G                |
|           W    W  A    A  R    R  N    N  II  N    N   GGGG   !!!           |
|     Tetrahedron method does not include variations of the Fermi             |
|     occupations, so forces and stress will be inaccurate. We suggest        |
|     using a different smearing scheme ISMEAR = 1 or 2 for metals in         |
|     relaxations.                                                            |

 total charge

# of ion       s       p       d       tot
    1        0.416   0.203   9.177   9.796
    2        0.419   0.204   9.177   9.799
    3        0.419   0.204   9.177   9.799
    4        0.419   0.204   9.177   9.799
    5        0.418   0.203   9.176   9.797
    6        0.419   0.204   9.177   9.799
    7        0.419   0.204   9.177   9.799
    8        0.419   0.204   9.177   9.799
    9        0.413   0.206   9.177   9.796
   10        0.408   0.269   9.163   9.840
   11        0.409   0.270   9.166   9.844
   12        0.408   0.269   9.163   9.840
   13        0.409   0.270   9.166   9.844
   14        0.409   0.270   9.166   9.844
   15        0.400   0.271   9.165   9.837
   16        0.408   0.269   9.163   9.840
   17        0.400   0.271   9.165   9.837
   18        0.400   0.271   9.165   9.837
   19        0.406   0.267   9.166   9.839
   20        0.425   0.301   9.148   9.874
   21        0.425   0.301   9.148   9.874
   22        0.396   0.276   9.165   9.837
   23        0.425   0.301   9.148   9.874
   24        0.396   0.276   9.165   9.837
   25        0.406   0.267   9.166   9.839
   26        0.406   0.267   9.166   9.839
   27        0.396   0.276   9.165   9.837
   28        0.419   0.199   9.180   9.798
   29        0.404   0.220   9.180   9.803
   30        0.404   0.220   9.180   9.803
   31        0.404   0.220   9.180   9.803
   32        0.404   0.220   9.180   9.803
   33        0.404   0.220   9.180   9.803
   34        0.404   0.220   9.180   9.803
   35        0.417   0.199   9.180   9.796
   36        0.665   0.651   7.155   8.470
   37        0.920   1.462   0.000   2.382
   38        1.528   3.756   0.000   5.285
   39        0.554   0.131   0.000   0.685
tot         18.015  14.513 328.102 360.630

 BZINTS: Fermi energy:    0.604833;  405.000000 electrons
         Band energy:-0.149882E+04;  BLOECHL correction:   -0.054160