 vasp.6.2.0 18Jan21 (build Jun 12 2021 23:27:24) complex

 executed on             LinuxIFC date 2022.05.27  05:37:08

 INCAR:
   ISMEAR = -5
   SIGMA = 0.1
   ISPIN = 1
   EDIFF = 1.d-5
   EDIFFG = -0.01
   NSW = 0
   NELM = 150
   ENCUT = 500
   ISIF = 2
   IBRION = 2
   LREAL = Auto
   ALGO = Fast
   ICHARG = 11
   LORBIT = 10
   LCHARG = .F.
   LWAVE = .F.

 POTCAR:    PAW_PBE Ag 02Apr2005
 POTCAR:    PAW_PBE Mo 08Apr2002
 POTCAR:    PAW_PBE O 08Apr2002
 POTCAR:    PAW_PBE H 15Jun2001
|           W    W    AA    RRRRR   N    N  II  N    N   GGGG   !!!           |
|           W    W   A  A   R    R  NN   N  II  NN   N  G    G  !!!           |
|           W    W  A    A  R    R  N N  N  II  N N  N  G       !!!           |
|           W WW W  AAAAAA  RRRRR   N  N N  II  N  N N  G  GGG   !            |
|           WW  WW  A    A  R   R   N   NN  II  N   NN  G    G                |
|           W    W  A    A  R    R  N    N  II  N    N   GGGG   !!!           |
|     For optimal performance we recommend to set                             |
|       NCORE = 2 up to number-of-cores-per-socket                            |
|     This setting can greatly improve the performance of VASP for DFT.       |
|     The default, NCORE=1 might be grossly inefficient on modern             |
|     multi-core architectures or massively parallel machines. Do your        |
|     Unfortunately you need to use the default for GW and RPA                |
|     calculations (for HF NCORE is supported but not extensively tested      |
|     yet).                                                                   |

 POTCAR:    PAW_PBE Ag 02Apr2005
   VRHFIN =Ag : s1 d10

   TITEL  = PAW_PBE Ag 02Apr2005
   POMASS =  107.868; ZVAL   =   11.000    mass and valenz
   ENMAX  =  249.844; ENMIN  =  187.383 eV

 POTCAR:    PAW_PBE Mo 08Apr2002
   VRHFIN =Mo: 4p5s4d

[...]

 POTCAR:    PAW_PBE O 08Apr2002
   VRHFIN =O: s2p4

   TITEL  = PAW_PBE O 08Apr2002
   POMASS =   16.000; ZVAL   =    6.000    mass and valenz
   ENMAX  =  400.000; ENMIN  =  300.000 eV

 POTCAR:    PAW_PBE H 15Jun2001
   VRHFIN =H: ultrasoft test

   TITEL  = PAW_PBE H 15Jun2001
   POMASS =    1.000; ZVAL   =    1.000    mass and valenz
   ENMAX  =  250.000; ENMIN  =  200.000 eV

 Optimization of the real space projectors (new method)

 maximal supplied QI-value         = 15.12
 optimisation between [QCUT,QGAM] = [ 11.34, 22.83] = [ 36.00,145.93] Ry
 Optimized for a Real-space Cutoff    1.43 Angstroem

   l    n(q)    QCUT    max X(q) W(low)/X(q) W(high)/X(q)  e(spline)
   2      9    11.338    53.897    0.16E-03    0.20E-03    0.28E-06
   2      9    11.338    52.416    0.16E-03    0.20E-03    0.29E-06
   0     10    11.338   122.045    0.31E-04    0.76E-04    0.15E-06
   0     10    11.338    73.629    0.30E-04    0.72E-04    0.15E-06
   1      9    11.338    15.255    0.20E-03    0.19E-04    0.17E-06
   1      9    11.338     9.562    0.16E-03    0.15E-04    0.14E-06
 Optimization of the real space projectors (new method)

[...]

   l    n(q)    QCUT    max X(q) W(low)/X(q) W(high)/X(q)  e(spline)
   0      7    11.387    20.381    0.39E-03    0.13E-02    0.15E-06
   0      7    11.387    15.268    0.42E-03    0.14E-02    0.17E-06
   1      6    11.387     5.964    0.41E-03    0.11E-02    0.17E-06
   1      6    11.387     5.382    0.39E-03    0.87E-03    0.15E-06
 Optimization of the real space projectors (new method)

 maximal supplied QI-value         = 34.20
 optimisation between [QCUT,QGAM] = [ 11.29, 22.57] = [ 35.68,142.71] Ry
 Optimized for a Real-space Cutoff    1.16 Angstroem

   l    n(q)    QCUT    max X(q) W(low)/X(q) W(high)/X(q)  e(spline)
   0      8    11.287    19.460    0.40E-03    0.73E-03    0.16E-06
   0      8    11.287    12.209    0.38E-03    0.70E-03    0.15E-06
   1      7    11.287     4.655    0.22E-03    0.25E-04    0.22E-06
  PAW_PBE Ag 02Apr2005                  :
  PAW_PBE Mo 08Apr2002                  :
  PAW_PBE O 08Apr2002                   :
  PAW_PBE H 15Jun2001                   :

 POSCAR: Ag-Mo-OH
  positions in direct lattice
  velocities in cartesian coordinates
 exchange correlation table for  LEXCH =        8
   RHO(1)=    0.500       N(1)  =     2000
   RHO(2)=  100.500       N(2)  =     4000

 VTST: version 3.2, (02/03/18)

 CHAIN: initializing optimizer

 OPT: Using VASP Conjugate-Gradient optimizer
 CHAIN: Read ICHAIN            0

 POSCAR: Ag-Mo-OH
  positions in direct lattice
  velocities in cartesian coordinates

 ion  position               nearest neighbor table
   1  0.000  0.000  0.209-   2 2.93   8 2.93   7 2.93   6 2.93   4 2.93  12 2.93  16 2.93  10 2.93
                             3 2.93
   2  0.333  0.000  0.209-   1 2.93   8 2.93   9 2.93   3 2.93   4 2.93   5 2.93  10 2.93  17 2.93
                            11 2.93
   3  0.667  0.000  0.209-   9 2.93   2 2.93   5 2.93  11 2.93   7 2.93  18 2.93   1 2.93   6 2.93
                            12 2.93
   4  0.000  0.333  0.209-   5 2.93   6 2.93   2 2.93   1 2.93   7 2.93  13 2.93  15 2.93   9 2.93
                            10 2.93
   5  0.333  0.333  0.209-   4 2.93   3 2.93   7 2.93   2 2.93   8 2.93  14 2.93  13 2.93  11 2.93
                             6 2.93
   6  0.667  0.333  0.209-   4 2.93   9 2.93   1 2.93  15 2.93   8 2.93  12 2.93   3 2.93   5 2.93
                            14 2.93
   7  0.000  0.667  0.209-   8 2.93   1 2.93   5 2.93   3 2.93   4 2.93  16 2.93  18 2.93  13 2.93
                             9 2.93
   8  0.333  0.667  0.209-   7 2.93   1 2.93   2 2.93   9 2.93   5 2.93  16 2.93   6 2.93  17 2.93
                            14 2.93
   9  0.667  0.667  0.209-   3 2.93   2 2.93   8 2.93   6 2.93  17 2.93   4 2.93  15 2.93   7 2.93
                            18 2.93
  10  0.111  0.111  0.304-  20 2.90  19 2.93  26 2.93  12 2.93  16 2.93  15 2.93  17 2.93  13 2.93
                            11 2.93   2 2.93   1 2.93   4 2.93
  11  0.444  0.111  0.304-  21 2.90  20 2.90  27 2.93  14 2.93  17 2.93  18 2.93   3 2.93  12 2.93
                            13 2.93  10 2.93   5 2.93   2 2.93
  12  0.778  0.111  0.304-  21 2.90  25 2.93  19 2.93  10 2.93  16 2.93  18 2.93  15 2.93  11 2.93
                             1 2.93  14 2.93   6 2.93   3 2.93
  13  0.111  0.444  0.304-  20 2.90  23 2.90  22 2.93  15 2.93  14 2.93  18 2.93  10 2.93  11 2.93
                            16 2.93   4 2.93   5 2.93   7 2.93
  14  0.444  0.444  0.304-  23 2.90  21 2.90  24 2.93  13 2.93  11 2.93  16 2.93   5 2.93  12 2.93
                            17 2.93   8 2.93  15 2.93   6 2.93
  15  0.778  0.444  0.304-  24 2.92  22 2.92  19 2.92  13 2.93  10 2.93  12 2.93  17 2.93  18 2.93
                             4 2.93   6 2.93   9 2.93  14 2.93
  16  0.111  0.778  0.304-  23 2.90  26 2.93  25 2.93  18 2.93  12 2.93  10 2.93  14 2.93  17 2.93
                            13 2.93   7 2.93   8 2.93   1 2.93
  17  0.444  0.778  0.304-  27 2.92  24 2.92  26 2.92  11 2.93  10 2.93   9 2.93  18 2.93  15 2.93
                            16 2.93   2 2.93  14 2.93   8 2.93
  18  0.778  0.778  0.304-  22 2.92  27 2.92  25 2.92  16 2.93  12 2.93  13 2.93  11 2.93  17 2.93
                            15 2.93   7 2.93   3 2.93   9 2.93
  19  0.889  0.222  0.399-  28 2.92  15 2.92  10 2.93  12 2.93  24 2.93  22 2.93  26 2.93  25 2.93
                            20 2.93  21 2.93  32 2.96  31 2.96
  20  0.222  0.222  0.397-  36 2.79  13 2.90  11 2.90  10 2.90  21 2.93  23 2.93  19 2.93  26 2.93
                            27 2.93  22 2.93  31 2.94  29 2.94
  21  0.555  0.222  0.397-  36 2.79  11 2.90  14 2.90  12 2.90  20 2.93  23 2.93  25 2.93  19 2.93
                            27 2.93  24 2.93  30 2.94  32 2.94
  22  0.888  0.556  0.399-  35 2.91  24 2.92  27 2.92  18 2.92  15 2.92  13 2.93  25 2.93  19 2.93
                            23 2.93  20 2.93  33 2.94  31 2.94
  23  0.222  0.555  0.397-  36 2.79  14 2.90  13 2.90  16 2.90  21 2.93  20 2.93  26 2.93  25 2.93
                            22 2.93  24 2.93  34 2.94  33 2.94
  24  0.556  0.556  0.399-  35 2.91  27 2.92  22 2.92  15 2.92  17 2.92  14 2.93  19 2.93  26 2.93
                            23 2.93  21 2.93  32 2.94  34 2.94
  25  0.889  0.889  0.399-  28 2.92  18 2.92  16 2.93  12 2.93  22 2.93  27 2.93  26 2.93  19 2.93
                            23 2.93  21 2.93  33 2.96  30 2.96
  26  0.222  0.889  0.399-  28 2.92  17 2.92  16 2.93  10 2.93  27 2.93  24 2.93  25 2.93  19 2.93
                            23 2.93  20 2.93  34 2.96  29 2.96
  27  0.556  0.888  0.399-  35 2.91  24 2.92  22 2.92  17 2.92  18 2.92  11 2.93  26 2.93  25 2.93
                            20 2.93  21 2.93  29 2.94  30 2.94
  28  0.000  0.000  0.493-  26 2.92  25 2.92  19 2.92  29 2.95  34 2.95  33 2.95  32 2.95  31 2.95
                            30 2.95
  29  0.333  0.005  0.494-  31 2.88  30 2.89  36 2.89  27 2.94  20 2.94  28 2.95  35 2.96  26 2.96
                            34 3.02
  30  0.662  0.005  0.494-  32 2.88  29 2.89  36 2.89  27 2.94  21 2.94  28 2.95  35 2.96  25 2.96
                            33 3.02
  31  0.005  0.333  0.494-  29 2.88  33 2.89  36 2.89  22 2.94  20 2.94  28 2.95  35 2.96  19 2.96
                            32 3.02
  32  0.662  0.333  0.494-  30 2.88  34 2.89  36 2.89  24 2.94  21 2.94  28 2.95  35 2.96  19 2.96
                            31 3.02
  33  0.005  0.662  0.494-  34 2.88  31 2.89  36 2.89  22 2.94  23 2.94  28 2.95  35 2.96  25 2.96
                            30 3.02
  34  0.333  0.662  0.494-  33 2.88  32 2.89  36 2.89  24 2.94  23 2.94  28 2.95  35 2.96  26 2.96
                            29 3.02
  35  0.667  0.667  0.493-  24 2.91  27 2.91  22 2.91  30 2.96  32 2.96  29 2.96  34 2.96  31 2.96
                            33 2.96
  36  0.333  0.333  0.485-  37 1.87  21 2.79  20 2.79  23 2.79  31 2.89  30 2.89  33 2.89  29 2.89
                            34 2.89  32 2.89
  37  0.333  0.333  0.559-  38 0.97  36 1.87
  38  0.333  0.333  0.597-  37 0.97

  LATTYP: Found a hexagonal cell.
 ALAT       =     8.7913665772
 C/A-ratio  =     2.8719070141

  Lattice vectors:

 A1 = (  -4.3956832886,  -7.6135467898,   0.0000000000)
 A2 = (   8.7913665771,   0.0000000000,   0.0000000000)
 A3 = (   0.0000000000,   0.0000000000,  25.2479873362)

Analysis of symmetry for initial positions (statically):
 Subroutine PRICEL returns:
 Original cell was already a primitive cell.

 Routine SETGRP: Setting up the symmetry group for a
 hexagonal supercell.

 Subroutine GETGRP returns: Found  6 space group operations
 (whereof  6 operations were pure point group operations)
 out of a pool of 24 trial point group operations.

The static configuration has the point symmetry C_3v.

Analysis of symmetry for dynamics (positions and initial velocities):
 Subroutine PRICEL returns:
 Original cell was already a primitive cell.

[...]

The dynamic configuration has the point symmetry C_3v.

Analysis of constrained symmetry for selective dynamics:
 Subroutine PRICEL returns:
 Original cell was already a primitive cell.

 Routine SETGRP: Setting up the symmetry group for a
 hexagonal supercell.

 Subroutine GETGRP returns: Found  6 space group operations
[...]
     33      -4.9152      2.00000
     34      -4.9088      2.00000
     35      -4.8805      2.00000
     36      -4.8499      2.00000
     37      -4.8239      2.00000
     38      -4.8161      2.00000
     39      -4.7859      2.00000
     40      -4.7656      2.00000
     41      -4.7394      2.00000
     42      -4.7220      2.00000
     43      -4.7112      2.00000
     44      -4.6890      2.00000
     45      -4.6326      2.00000
     46      -4.5925      2.00000
     47      -4.5833      2.00000
     48      -4.5620      2.00000
     49      -4.5574      2.00000
     50      -4.5517      2.00000
     51      -4.5467      2.00000
     52      -4.5413      2.00000
     53      -4.5224      2.00000
     54      -4.5195      2.00000
     55      -4.5040      2.00000
     56      -4.4983      2.00000
     57      -4.4380      2.00000
     58      -4.4338      2.00000
     59      -4.4246      2.00000
     60      -4.4123      2.00000
[...]
    226       4.5342      0.00000
    227       4.7542      0.00000
    228       4.8601      0.00000
    229       5.0592      0.00000
    230       5.1013      0.00000
    231       5.1767      0.00000
    232       5.1879      0.00000
    233       5.2109      0.00000
    234       5.3249      0.00000
    235       5.4325      0.00000
    236       5.4803      0.00000
    237       5.7349      0.00000
    238       5.7938      0.00000
    239       5.8278      0.00000
    240       5.9111      0.00000

 soft charge-density along one line, spin component           1
         0         1         2         3         4         5         6         7         8         9
 total charge-density along one line

------------------------ aborting loop because EDIFF is reached ----------------------------------------

 total charge

# of ion       s       p       d       tot
    1        0.421   0.199   9.178   9.799
    2        0.417   0.204   9.177   9.797
    3        0.417   0.204   9.177   9.797
    4        0.417   0.204   9.177   9.797
    5        0.420   0.203   9.177   9.799
    6        0.417   0.204   9.177   9.797
    7        0.417   0.204   9.177   9.797
    8        0.417   0.204   9.177   9.797
    9        0.413   0.205   9.177   9.795
   10        0.410   0.267   9.164   9.841
   11        0.405   0.270   9.167   9.843
   12        0.410   0.267   9.164   9.841
   13        0.405   0.270   9.167   9.843
   14        0.405   0.270   9.167   9.843
   15        0.402   0.268   9.166   9.836
   16        0.410   0.267   9.164   9.841
   17        0.402   0.268   9.166   9.836
   18        0.402   0.268   9.166   9.836
   19        0.405   0.263   9.168   9.836
   20        0.443   0.304   9.132   9.879
   21        0.443   0.304   9.132   9.879
   22        0.391   0.274   9.165   9.830
   23        0.443   0.304   9.132   9.879
   24        0.391   0.274   9.165   9.830
   25        0.405   0.263   9.168   9.836
   26        0.405   0.263   9.168   9.836
   27        0.391   0.274   9.165   9.830
   28        0.419   0.200   9.175   9.793
   29        0.424   0.219   9.167   9.810
   30        0.424   0.219   9.167   9.810
   31        0.424   0.219   9.167   9.810
   32        0.424   0.219   9.167   9.810
   33        0.424   0.219   9.167   9.810
   34        0.424   0.219   9.167   9.810
   35        0.408   0.203   9.177   9.788
   36        0.436   0.436   4.165   5.036
   37        1.557   3.532   0.000   5.089
   38        0.604   0.124   0.000   0.728
tot         17.087  12.583 324.998 354.669

  FORCE on cell =-STRESS in cart. coord.  units (eV):
  Direction    XX          YY          ZZ          XY          YZ          ZX
  Alpha Z   670.35715   670.35715   670.35715
  Ewald  165053.80755165053.80754************     0.00002    -0.00001     0.00003
  Hartree175048.82192175048.82191************     0.00001    -0.00000     0.00001
  E(xc)   -2089.99048 -2089.99050 -2094.02875     0.00002     0.00000     0.00000
  Local  ************************351340.18154     0.00052    -0.00006    -0.00016
  n-local  -372.09708  -353.70599  -358.39113    10.86432    -0.36384     0.49604
  augment  3236.58381  3236.58399  3243.04942    -0.00016     0.00001     0.00001
  Kinetic  4994.34293  4998.42750  4974.42761     5.14215     0.71418    -0.34631
  Fock        0.00000     0.00000     0.00000     0.00000     0.00000     0.00000
  Total      -6.79906    -6.79906    -0.15527    -0.00000     0.00000    -0.00000
  in kB      -6.44599    -6.44599    -0.14721    -0.00000     0.00000    -0.00000

 VOLUME and BASIS-vectors are now :
  energy-cutoff  :      500.00
  volume of cell :     1689.94
      direct lattice vectors                 reciprocal lattice vectors
     8.791366577  0.000000000  0.000000000     0.113747958 -0.065672414  0.000000000
     4.395683289  7.613546790  0.000000000     0.000000000  0.131344829  0.000000000
     0.000000000  0.000000000 25.247987336     0.000000000  0.000000000  0.039607117

  length of vectors
     8.791366577  8.791366577 25.247987336     0.131344829  0.131344829  0.039607117

 FORCES acting on ions
    electron-ion (+dipol)            ewald-force                    non-local-force                 convergence-correction
   0.461E-04 -.281E-04 0.273E+04   -.953E-04 0.593E-04 -.273E+04   0.597E-17 0.210E-17 -.204E+01   -.836E-04 -.155E-03 0.423E-03
   0.128E+00 0.918E-01 0.273E+04   -.993E-01 -.273E+00 -.273E+04   0.228E-01 0.203E+00 -.159E+01   -.487E-01 -.210E-01 -.313E-01
   -.128E+00 0.918E-01 0.273E+04   0.995E-01 -.273E+00 -.273E+04   -.228E-01 0.203E+00 -.159E+01   0.481E-01 -.191E-01 -.306E-01
   0.144E+00 0.652E-01 0.273E+04   -.286E+00 0.505E-01 -.273E+04   0.187E+00 -.817E-01 -.159E+01   -.423E-01 -.315E-01 -.312E-01
   -.490E-05 -.183E-04 0.273E+04   0.980E-04 -.198E-05 -.273E+04   -.161E-17 -.111E-17 -.141E+01   0.618E-02 0.378E-02 -.648E-01
   -.144E+00 0.652E-01 0.273E+04   0.286E+00 0.504E-01 -.273E+04   -.187E+00 -.817E-01 -.159E+01   0.410E-01 -.305E-01 -.305E-01
   0.154E-01 -.157E+00 0.273E+04   -.187E+00 0.223E+00 -.273E+04   0.164E+00 -.121E+00 -.159E+01   0.793E-02 0.517E-01 -.306E-01
   -.153E-01 -.157E+00 0.273E+04   0.187E+00 0.222E+00 -.273E+04   -.164E+00 -.121E+00 -.159E+01   -.632E-02 0.508E-01 -.305E-01
   0.366E-04 -.128E-04 0.273E+04   0.792E-04 -.643E-04 -.273E+04   -.140E-17 -.212E-17 -.183E+01   -.663E-02 -.341E-02 0.501E-02
   0.270E+01 0.156E+01 0.921E+03   -.210E+01 -.121E+01 -.921E+03   -.535E+00 -.309E+00 -.749E+00   -.629E-01 -.363E-01 0.949E-01
   -.282E-04 0.277E+01 0.922E+03   0.407E-04 -.281E+01 -.922E+03   0.810E-12 0.123E+00 -.294E+00   0.618E-02 -.122E+00 0.148E+00
   -.270E+01 0.156E+01 0.921E+03   0.210E+01 -.121E+01 -.921E+03   0.535E+00 -.309E+00 -.749E+00   0.617E-01 -.357E-01 0.940E-01
   0.240E+01 -.138E+01 0.922E+03   -.244E+01 0.141E+01 -.922E+03   0.107E+00 -.617E-01 -.294E+00   -.103E+00 0.666E-01 0.148E+00
   -.240E+01 -.138E+01 0.922E+03   0.244E+01 0.141E+01 -.922E+03   -.107E+00 -.617E-01 -.294E+00   0.113E+00 0.657E-01 0.146E+00
   0.160E-04 -.213E+00 0.920E+03   -.108E-03 0.639E-01 -.920E+03   0.350E-12 0.533E-01 -.736E+00   -.127E-02 0.719E-01 0.141E+00
   -.753E-05 -.312E+01 0.921E+03   0.206E-04 0.242E+01 -.921E+03   0.406E-11 0.618E+00 -.749E+00   -.930E-04 0.712E-01 0.940E-01
   -.185E+00 0.107E+00 0.920E+03   0.553E-01 -.320E-01 -.920E+03   0.462E-01 -.266E-01 -.736E+00   0.616E-01 -.370E-01 0.141E+00
   0.185E+00 0.107E+00 0.920E+03   -.553E-01 -.319E-01 -.920E+03   -.462E-01 -.266E-01 -.736E+00   -.614E-01 -.355E-01 0.142E+00
   0.390E-04 -.316E+01 -.911E+03   -.127E-03 0.308E+01 0.910E+03   0.375E-12 0.571E-01 0.783E+00   0.105E-02 0.197E-01 0.716E-01
   -.903E+01 -.521E+01 -.904E+03   0.104E+02 0.600E+01 0.905E+03   -.146E+01 -.841E+00 -.132E+01   0.405E-01 0.234E-01 0.108E+00
   0.903E+01 -.521E+01 -.904E+03   -.104E+02 0.600E+01 0.905E+03   0.146E+01 -.841E+00 -.132E+01   -.513E-01 0.229E-01 0.107E+00
   -.540E+01 0.312E+01 -.908E+03   0.536E+01 -.309E+01 0.908E+03   0.244E+00 -.141E+00 0.568E+00   -.136E+00 0.790E-01 0.465E-01
   -.525E-04 0.104E+02 -.904E+03   0.396E-04 -.120E+02 0.905E+03   0.110E-10 0.168E+01 -.132E+01   -.548E-02 -.553E-01 0.107E+00
   0.540E+01 0.312E+01 -.908E+03   -.536E+01 -.309E+01 0.908E+03   -.244E+00 -.141E+00 0.568E+00   0.138E+00 0.796E-01 0.466E-01
   0.274E+01 0.158E+01 -.911E+03   -.267E+01 -.154E+01 0.910E+03   -.495E-01 -.286E-01 0.783E+00   -.171E-01 -.100E-01 0.713E-01
   -.274E+01 0.158E+01 -.911E+03   0.267E+01 -.154E+01 0.910E+03   0.495E-01 -.286E-01 0.783E+00   0.173E-01 -.907E-02 0.717E-01
   0.194E-04 -.624E+01 -.908E+03   0.110E-03 0.619E+01 0.908E+03   0.185E-11 0.282E+00 0.568E+00   -.312E-03 -.157E+00 0.466E-01
   0.541E-04 -.362E-04 -.268E+04   -.115E-03 0.775E-04 0.268E+04   0.757E-17 0.176E-17 0.154E+01   0.237E-03 0.126E-05 0.139E+00
   0.696E+01 0.111E+02 -.267E+04   -.643E+01 -.106E+02 0.267E+04   -.678E+00 -.758E+00 0.181E+01   0.297E-01 -.126E-01 0.146E+00
   -.696E+01 0.111E+02 -.267E+04   0.643E+01 -.106E+02 0.267E+04   0.678E+00 -.758E+00 0.181E+01   -.306E-01 -.115E-01 0.146E+00
   0.131E+02 0.476E+00 -.267E+04   -.124E+02 -.288E+00 0.267E+04   -.996E+00 -.208E+00 0.181E+01   0.414E-02 0.322E-01 0.146E+00
   -.131E+02 0.476E+00 -.267E+04   0.124E+02 -.288E+00 0.267E+04   0.996E+00 -.208E+00 0.181E+01   -.444E-02 0.331E-01 0.147E+00
   0.613E+01 -.116E+02 -.267E+04   -.593E+01 0.109E+02 0.267E+04   -.317E+00 0.966E+00 0.181E+01   -.248E-01 -.202E-01 0.146E+00
   -.613E+01 -.116E+02 -.267E+04   0.593E+01 0.109E+02 0.267E+04   0.317E+00 0.966E+00 0.181E+01   0.261E-01 -.203E-01 0.147E+00
   0.236E-04 -.118E-04 -.269E+04   0.105E-03 -.658E-04 0.268E+04   0.118E-17 -.273E-18 0.188E+01   -.635E-02 -.324E-02 0.102E+00
   -.116E-04 -.489E-05 -.128E+04   0.573E-04 0.696E-05 0.128E+04   0.122E-18 -.143E-17 0.286E+00   0.692E-03 0.425E-03 0.859E-01
   0.197E-03 -.936E-04 -.169E+04   0.259E-04 0.331E-06 0.167E+04   -.172E-17 -.312E-18 0.194E+02   0.352E-02 0.216E-02 -.567E-02
   0.817E-05 -.128E-04 -.345E+03   0.184E-05 0.620E-08 0.353E+03   -.124E-18 0.480E-20 -.845E+01   0.192E-03 0.118E-03 -.182E-01
   0.581E-03 -.776E-03 -.820E+01   0.928E-13 0.148E-12 0.341E-12   0.110E-15 0.331E-15 0.544E+01   -.222E-02 0.204E-02 0.276E+01

 POSITION                                       TOTAL-FORCE (eV/Angst)
      0.00000      0.00000      5.28219        -0.000000     -0.000000     -0.035775
      2.93046      0.00000      5.28219         0.003768      0.001611      0.043054
      5.86091      0.00000      5.28219        -0.003768      0.001611      0.043054
      1.46523      2.53785      5.28219         0.003279      0.002458      0.043054
      4.39568      2.53785      5.28219         0.000000     -0.000000      0.031890
      7.32614      2.53785      5.28219        -0.003279      0.002458      0.043054
      2.93046      5.07570      5.28219        -0.000489     -0.004068      0.043054
      5.86091      5.07570      5.28219         0.000489     -0.004068      0.043054
      8.79137      5.07570      5.28219        -0.000000     -0.000000      0.012605
      1.46523      0.84595      7.67490         0.004787      0.002764     -0.017114
      4.39568      0.84595      7.67490        -0.000000     -0.049443     -0.069026
      7.32614      0.84595      7.67490        -0.004787      0.002764     -0.017114
      2.93046      3.38380      7.67490        -0.042819      0.024722     -0.069026
      5.86091      3.38380      7.67490         0.042819      0.024722     -0.069026
      8.79137      3.38380      7.67490        -0.000000     -0.024726      0.027638
      4.39568      5.92165      7.67490        -0.000000     -0.005528     -0.017114
      7.32614      5.92165      7.67490        -0.021413      0.012363      0.027638
     10.25659      5.92165      7.67490         0.021413      0.012363      0.027638
      8.79137      1.69286     10.06155        -0.000000     -0.003820      0.004929
      2.93202      1.69280     10.03008        -0.045633     -0.026346     -0.088903
      5.85935      1.69280     10.03008         0.045633     -0.026346     -0.088903
     10.25345      4.23157     10.06207         0.065833     -0.038009      0.008327
      4.39568      4.22795     10.03008         0.000000      0.052692     -0.088903
      7.32929      4.23157     10.06207        -0.065833     -0.038009      0.008327
     11.72099      6.76712     10.06155         0.003308      0.001910      0.004929
      5.86174      6.76712     10.06155        -0.003308      0.001910      0.004929
      8.79137      6.76396     10.06207         0.000000      0.076017      0.008327
      0.00000      0.00000     12.43674        -0.000000     -0.000000      0.030038
      2.95191      0.04038     12.46589        -0.124844     -0.240424     -0.204915
      5.83946      0.04038     12.46589         0.124844     -0.240424     -0.204915
      1.51092      2.53624     12.46589        -0.270635      0.012094     -0.204915
      7.28044      2.53624     12.46589         0.270635      0.012094     -0.204915
      2.95470      5.03693     12.46589        -0.145791      0.228330     -0.204915
      5.83667      5.03693     12.46589         0.145791      0.228330     -0.204915
      8.79137      5.07570     12.43630         0.000000     -0.000000      0.065691
      4.39568      2.53785     12.24527        -0.000000     -0.000000      1.335618
      4.39568      2.53785     14.11064         0.000000     -0.000000     -0.068601
      4.39568      2.53785     15.07845        -0.000000     -0.000000      0.002150
    total drift:                               -0.001642      0.001261     -0.008771

  FREE ENERGIE OF THE ION-ELECTRON SYSTEM (eV)
  free  energy   TOTEN  =      -107.99583936 eV

  energy  without entropy=     -107.99583936  energy(sigma->0) =     -107.99583936

 stress matrix after NEB project (eV)
     -6.79906     -0.00000     -0.00000
     -0.00000     -6.79906     -0.00000
     -0.00000      0.00000     -0.15527
  FORCES: max atom, RMS     0.068601    0.011134
  FORCE total and by dimension    0.068634    0.068601
  Stress total and by dimension    9.616579    6.799062
|           W    W    AA    RRRRR   N    N  II  N    N   GGGG   !!!           |
|           W    W   A  A   R    R  NN   N  II  NN   N  G    G  !!!           |
|           W    W  A    A  R    R  N N  N  II  N N  N  G       !!!           |
|           W WW W  AAAAAA  RRRRR   N  N N  II  N  N N  G  GGG   !            |
|           WW  WW  A    A  R   R   N   NN  II  N   NN  G    G                |
|           W    W  A    A  R    R  N    N  II  N    N   GGGG   !!!           |
|     Tetrahedron method does not include variations of the Fermi             |
|     occupations, so forces and stress will be inaccurate. We suggest        |
|     using a different smearing scheme ISMEAR = 1 or 2 for metals in         |
|     relaxations.                                                            |

 total charge

# of ion       s       p       d       tot
    1        0.421   0.199   9.178   9.799
    2        0.417   0.204   9.177   9.797
    3        0.417   0.204   9.177   9.797
    4        0.417   0.204   9.177   9.797
    5        0.420   0.203   9.177   9.799
    6        0.417   0.204   9.177   9.797
    7        0.417   0.204   9.177   9.797
    8        0.417   0.204   9.177   9.797
    9        0.413   0.205   9.177   9.795
   10        0.410   0.267   9.164   9.841
   11        0.405   0.270   9.167   9.843
   12        0.410   0.267   9.164   9.841
   13        0.405   0.270   9.167   9.843
   14        0.405   0.270   9.167   9.843
   15        0.402   0.268   9.166   9.836
   16        0.410   0.267   9.164   9.841
   17        0.402   0.268   9.166   9.836
   18        0.402   0.268   9.166   9.836
   19        0.405   0.263   9.168   9.836
   20        0.443   0.304   9.132   9.879
   21        0.443   0.304   9.132   9.879
   22        0.391   0.274   9.165   9.830
   23        0.443   0.304   9.132   9.879
   24        0.391   0.274   9.165   9.830
   25        0.405   0.263   9.168   9.836
   26        0.405   0.263   9.168   9.836
   27        0.391   0.274   9.165   9.830
   28        0.419   0.200   9.175   9.793
   29        0.424   0.219   9.167   9.810
   30        0.424   0.219   9.167   9.810
   31        0.424   0.219   9.167   9.810
   32        0.424   0.219   9.167   9.810
   33        0.424   0.219   9.167   9.810
   34        0.424   0.219   9.167   9.810
   35        0.408   0.203   9.177   9.788
   36        0.436   0.436   4.165   5.036
   37        1.557   3.532   0.000   5.089
   38        0.604   0.124   0.000   0.728
tot         17.087  12.583 324.998 354.669

 BZINTS: Fermi energy:    0.431443;  398.000000 electrons
         Band energy:-0.149236E+04;  BLOECHL correction:   -0.023161