 vasp.6.2.0 18Jan21 (build Jun 12 2021 23:27:24) complex

 executed on             LinuxIFC date 2022.05.27  04:58:55

 INCAR:
   ISMEAR = -5
   SIGMA = 0.1
   ISPIN = 1
   EDIFF = 1.d-5
   EDIFFG = -0.01
   NSW = 0
   NELM = 150
   ENCUT = 500
   ISIF = 2
   IBRION = 2
   LREAL = Auto
   ALGO = Fast
   ICHARG = 11
   LORBIT = 10
   LCHARG = .F.
   LWAVE = .F.

 POTCAR:    PAW_PBE Au 04Oct2007
 POTCAR:    PAW_PBE Ti 08Apr2002
 POTCAR:    PAW_PBE O 08Apr2002
 POTCAR:    PAW_PBE H 15Jun2001
|           W    W    AA    RRRRR   N    N  II  N    N   GGGG   !!!           |
|           W    W   A  A   R    R  NN   N  II  NN   N  G    G  !!!           |
|           W    W  A    A  R    R  N N  N  II  N N  N  G       !!!           |
|           W WW W  AAAAAA  RRRRR   N  N N  II  N  N N  G  GGG   !            |
|           WW  WW  A    A  R   R   N   NN  II  N   NN  G    G                |
|           W    W  A    A  R    R  N    N  II  N    N   GGGG   !!!           |
|     For optimal performance we recommend to set                             |
|       NCORE = 2 up to number-of-cores-per-socket                            |
|     This setting can greatly improve the performance of VASP for DFT.       |
|     The default, NCORE=1 might be grossly inefficient on modern             |
|     multi-core architectures or massively parallel machines. Do your        |
|     Unfortunately you need to use the default for GW and RPA                |
|     calculations (for HF NCORE is supported but not extensively tested      |
|     yet).                                                                   |

 POTCAR:    PAW_PBE Au 04Oct2007
   VRHFIN =Au: s1d10

   TITEL  = PAW_PBE Au 04Oct2007
   POMASS =  196.966; ZVAL   =   11.000    mass and valenz
   ENMAX  =  229.943; ENMIN  =  172.457 eV

 POTCAR:    PAW_PBE Ti 08Apr2002
   VRHFIN =Ti: d3 s1

   TITEL  = PAW_PBE Ti 08Apr2002
   POMASS =   47.880; ZVAL   =    4.000    mass and valenz
   ENMAX  =  178.330; ENMIN  =  133.747 eV

 POTCAR:    PAW_PBE O 08Apr2002
   VRHFIN =O: s2p4

   TITEL  = PAW_PBE O 08Apr2002
   POMASS =   16.000; ZVAL   =    6.000    mass and valenz
   ENMAX  =  400.000; ENMIN  =  300.000 eV

 POTCAR:    PAW_PBE H 15Jun2001
   VRHFIN =H: ultrasoft test

   TITEL  = PAW_PBE H 15Jun2001
   POMASS =    1.000; ZVAL   =    1.000    mass and valenz
   ENMAX  =  250.000; ENMIN  =  200.000 eV

 Optimization of the real space projectors (new method)

 maximal supplied QI-value         = 15.12
 optimisation between [QCUT,QGAM] = [ 11.34, 22.83] = [ 36.00,145.93] Ry
 Optimized for a Real-space Cutoff    1.39 Angstroem

   l    n(q)    QCUT    max X(q) W(low)/X(q) W(high)/X(q)  e(spline)
   2      9    11.338    60.898    0.39E-03    0.42E-03    0.21E-06
   2      9    11.338    58.894    0.40E-03    0.42E-03    0.22E-06
   0      9    11.338   109.617    0.13E-03    0.20E-04    0.13E-06
   0      9    11.338    75.026    0.13E-03    0.20E-04    0.13E-06
   1      9    11.338    16.344    0.33E-04    0.24E-03    0.18E-06
   1      9    11.338    10.160    0.26E-04    0.19E-03    0.15E-06
 Optimization of the real space projectors (new method)

[...]

   l    n(q)    QCUT    max X(q) W(low)/X(q) W(high)/X(q)  e(spline)
   0      7    11.387    20.381    0.39E-03    0.13E-02    0.15E-06
   0      7    11.387    15.268    0.42E-03    0.14E-02    0.17E-06
   1      6    11.387     5.964    0.41E-03    0.11E-02    0.17E-06
   1      6    11.387     5.382    0.39E-03    0.87E-03    0.15E-06
 Optimization of the real space projectors (new method)

 maximal supplied QI-value         = 34.20
 optimisation between [QCUT,QGAM] = [ 11.29, 22.57] = [ 35.68,142.71] Ry
 Optimized for a Real-space Cutoff    1.16 Angstroem

   l    n(q)    QCUT    max X(q) W(low)/X(q) W(high)/X(q)  e(spline)
   0      8    11.287    19.460    0.40E-03    0.73E-03    0.16E-06
   0      8    11.287    12.209    0.38E-03    0.70E-03    0.15E-06
   1      7    11.287     4.655    0.22E-03    0.25E-04    0.22E-06
  PAW_PBE Au 04Oct2007                  :
  PAW_PBE Ti 08Apr2002                  :
  PAW_PBE O 08Apr2002                   :
  PAW_PBE H 15Jun2001                   :

 POSCAR: Au-Ti-OH
  positions in direct lattice
  velocities in cartesian coordinates
 exchange correlation table for  LEXCH =        8
   RHO(1)=    0.500       N(1)  =     2000
   RHO(2)=  100.500       N(2)  =     4000

 VTST: version 3.2, (02/03/18)

 CHAIN: initializing optimizer

 OPT: Using VASP Conjugate-Gradient optimizer
 CHAIN: Read ICHAIN            0

 POSCAR: Au-Ti-OH
  positions in direct lattice
  velocities in cartesian coordinates

 ion  position               nearest neighbor table
   1  0.000  0.000  0.214-  16 2.94  12 2.94   6 2.94   8 2.94   7 2.94   3 2.94  10 2.94   4 2.94
                             2 2.94
   2  0.333  0.000  0.214-   9 2.94  11 2.94  17 2.94  10 2.94   8 2.94   4 2.94   5 2.94   1 2.94
                             3 2.94
   3  0.667  0.000  0.214-   7 2.94  18 2.94  12 2.94   1 2.94  11 2.94   5 2.94   6 2.94   9 2.94
                             2 2.94
   4  0.000  0.333  0.214-  10 2.94   6 2.94   5 2.94  13 2.94   2 2.94  15 2.94   9 2.94   1 2.94
                             7 2.94
   5  0.333  0.333  0.214-  13 2.94   7 2.94  11 2.94   4 2.94   2 2.94  14 2.94   3 2.94   8 2.94
                             6 2.94
   6  0.667  0.333  0.214-  15 2.94  14 2.94   1 2.94  12 2.94   4 2.94   9 2.94   8 2.94   3 2.94
                             5 2.94
   7  0.000  0.667  0.214-  18 2.94   3 2.94  16 2.94   5 2.94   1 2.94  13 2.94   8 2.94   4 2.94
                             9 2.94
   8  0.333  0.667  0.214-   9 2.94  17 2.94   1 2.94   2 2.94  14 2.94  16 2.94   6 2.94   7 2.94
                             5 2.94
   9  0.667  0.667  0.214-   2 2.94   8 2.94  17 2.94   6 2.94  15 2.94   4 2.94   3 2.94  18 2.94
                             7 2.94
  10  0.111  0.111  0.311-  26 2.93  19 2.93  20 2.93  11 2.94  17 2.94   2 2.94   4 2.94   1 2.94
                            12 2.94  16 2.94  13 2.94  15 2.94
  11  0.444  0.111  0.311-  20 2.92  21 2.92  27 2.94  13 2.94   2 2.94  10 2.94  17 2.94   5 2.94
                             3 2.94  18 2.94  14 2.94  12 2.94
  12  0.778  0.111  0.311-  25 2.93  19 2.93  21 2.93  16 2.94  18 2.94   1 2.94  14 2.94  15 2.94
                             3 2.94   6 2.94  10 2.94  11 2.94
  13  0.111  0.444  0.311-  23 2.92  20 2.92  22 2.94   5 2.94  18 2.94  11 2.94   7 2.94   4 2.94
                            16 2.94  10 2.94  14 2.94  15 2.94
  14  0.444  0.444  0.311-  21 2.92  23 2.92  24 2.94  15 2.94   6 2.94  12 2.94   8 2.94  17 2.94
                             5 2.94  16 2.94  13 2.94  11 2.94
  15  0.778  0.444  0.311-  24 2.92  22 2.92  19 2.93  14 2.94   6 2.94  17 2.94  12 2.94   9 2.94
                             4 2.94  10 2.94  13 2.94  18 2.94
  16  0.111  0.778  0.311-  25 2.93  26 2.93  23 2.93  18 2.94  12 2.94   7 2.94   1 2.94   8 2.94
                            13 2.94  10 2.94  14 2.94  17 2.94
  17  0.444  0.778  0.311-  27 2.92  24 2.92  26 2.93   9 2.94  15 2.94   2 2.94  10 2.94  11 2.94
                             8 2.94  14 2.94  16 2.94  18 2.94
  18  0.778  0.778  0.311-  22 2.92  27 2.92  25 2.93  16 2.94   7 2.94  13 2.94  12 2.94   3 2.94
                            11 2.94   9 2.94  15 2.94  17 2.94
  19  0.889  0.222  0.407-  10 2.93  12 2.93  15 2.93  26 2.94  25 2.94  24 2.94  22 2.94  21 2.95
                            20 2.95  28 2.95  32 3.03  31 3.03
  20  0.223  0.223  0.407-  36 2.76  23 2.91  21 2.91  11 2.92  13 2.92  10 2.93  27 2.95  22 2.95
                            26 2.95  19 2.95  29 2.96  31 2.96
  21  0.554  0.223  0.407-  36 2.76  20 2.91  23 2.91  14 2.92  11 2.92  12 2.93  27 2.95  24 2.95
                            25 2.95  19 2.95  30 2.96  32 2.96
  22  0.887  0.556  0.407-  24 2.92  27 2.92  18 2.92  15 2.92  13 2.94  25 2.94  19 2.94  23 2.95
                            20 2.95  35 2.96  33 2.99  31 2.99
  23  0.223  0.554  0.407-  36 2.76  20 2.91  21 2.91  13 2.92  14 2.92  16 2.93  22 2.95  24 2.95
                            25 2.95  26 2.95  33 2.96  34 2.96
  24  0.556  0.556  0.407-  27 2.92  22 2.92  15 2.92  17 2.92  14 2.94  26 2.94  19 2.94  21 2.95
                            23 2.95  35 2.96  32 2.99  34 2.99
  25  0.889  0.889  0.407-  16 2.93  12 2.93  18 2.93  19 2.94  26 2.94  22 2.94  27 2.94  23 2.95
                            21 2.95  28 2.95  33 3.03  30 3.03
  26  0.222  0.889  0.407-  10 2.93  16 2.93  17 2.93  19 2.94  25 2.94  27 2.94  24 2.94  20 2.95
                            23 2.95  28 2.95  29 3.03  34 3.03
  27  0.556  0.887  0.407-  24 2.92  22 2.92  17 2.92  18 2.92  11 2.94  26 2.94  25 2.94  20 2.95
                            21 2.95  35 2.96  29 2.99  30 2.99
  28  0.000  0.000  0.505-  25 2.95  19 2.95  26 2.95  34 2.98  32 2.98  33 2.98  30 2.98  31 2.98
                            29 2.98
  29  0.334  0.009  0.507-  30 2.85  31 2.86  36 2.87  20 2.96  35 2.98  28 2.98  27 2.99  26 3.03
                            34 3.10
  30  0.657  0.009  0.507-  29 2.85  32 2.86  36 2.87  21 2.96  35 2.98  28 2.98  27 2.99  25 3.03
                            33 3.10
  31  0.009  0.334  0.507-  33 2.85  29 2.86  36 2.87  20 2.96  35 2.98  28 2.98  22 2.99  19 3.03
                            32 3.10
  32  0.657  0.334  0.507-  34 2.85  30 2.86  36 2.87  21 2.96  35 2.98  28 2.98  24 2.99  19 3.03
                            31 3.10
  33  0.009  0.657  0.507-  31 2.85  34 2.86  36 2.87  23 2.96  35 2.98  28 2.98  22 2.99  25 3.03
                            30 3.10
  34  0.334  0.657  0.507-  32 2.85  33 2.86  36 2.87  23 2.96  35 2.98  28 2.98  24 2.99  26 3.03
                            29 3.10
  35  0.667  0.667  0.506-  24 2.96  27 2.96  22 2.96  29 2.98  34 2.98  32 2.98  31 2.98  30 2.98
                            33 2.98
  36  0.333  0.333  0.496-  37 1.81  20 2.76  23 2.76  21 2.76  33 2.87  31 2.87  29 2.87  30 2.87
                            34 2.87  32 2.87
  37  0.333  0.333  0.569-  38 0.97  36 1.81
  38  0.333  0.333  0.608-  37 0.97

  LATTYP: Found a hexagonal cell.
 ALAT       =     8.8135128021
 C/A-ratio  =     2.8055668076

  Lattice vectors:

 A1 = (  -4.4067569092,  -7.6327256898,   0.0000000000)
 A2 = (   8.8135128021,   0.0000000000,   0.0000000000)
 A3 = (   0.0000000000,   0.0000000000,  24.7268989762)

Analysis of symmetry for initial positions (statically):
 Subroutine PRICEL returns:
 Original cell was already a primitive cell.

 Routine SETGRP: Setting up the symmetry group for a
 hexagonal supercell.

 Subroutine GETGRP returns: Found  6 space group operations
 (whereof  6 operations were pure point group operations)
 out of a pool of 24 trial point group operations.

The static configuration has the point symmetry C_3v.

Analysis of symmetry for dynamics (positions and initial velocities):
 Subroutine PRICEL returns:
 Original cell was already a primitive cell.

[...]

The dynamic configuration has the point symmetry C_3v.

Analysis of constrained symmetry for selective dynamics:
 Subroutine PRICEL returns:
 Original cell was already a primitive cell.

[...]
     33      -5.1476      2.00000
     34      -5.1265      2.00000
     35      -5.1076      2.00000
     36      -5.1034      2.00000
     37      -5.0222      2.00000
     38      -5.0176      2.00000
     39      -4.9204      2.00000
     40      -4.9064      2.00000
     41      -4.8464      2.00000
     42      -4.7965      2.00000
     43      -4.7715      2.00000
     44      -4.7442      2.00000
     45      -4.7172      2.00000
     46      -4.6845      2.00000
     47      -4.6546      2.00000
     48      -4.5681      2.00000
     49      -4.5575      2.00000
     50      -4.5283      2.00000
     51      -4.5050      2.00000
     52      -4.4955      2.00000
     53      -4.4863      2.00000
     54      -4.4656      2.00000
     55      -4.4493      2.00000
     56      -4.4172      2.00000
     57      -4.3872      2.00000
     58      -4.3652      2.00000
     59      -4.3483      2.00000
     60      -4.3381      2.00000
[...]
    226       3.9007      0.00000
    227       4.1974      0.00000
    228       4.4221      0.00000
    229       4.6963      0.00000
    230       4.9443      0.00000
    231       4.9877      0.00000
    232       5.0121      0.00000
    233       5.1871      0.00000
    234       5.3648      0.00000
    235       5.6052      0.00000
    236       5.6719      0.00000
    237       5.7382      0.00000
    238       5.9218      0.00000
    239       6.0297      0.00000
    240       6.0462      0.00000

 soft charge-density along one line, spin component           1
         0         1         2         3         4         5         6         7         8         9
 total charge-density along one line

------------------------ aborting loop because EDIFF is reached ----------------------------------------

 total charge

# of ion       s       p       d       tot
    1        0.549   0.238   8.765   9.551
    2        0.543   0.241   8.765   9.549
    3        0.543   0.241   8.765   9.549
    4        0.543   0.241   8.765   9.549
    5        0.544   0.242   8.763   9.548
    6        0.543   0.241   8.765   9.549
    7        0.543   0.241   8.765   9.549
    8        0.543   0.241   8.765   9.549
    9        0.541   0.240   8.767   9.548
   10        0.523   0.306   8.771   9.600
   11        0.520   0.308   8.779   9.606
   12        0.523   0.306   8.771   9.600
   13        0.520   0.308   8.779   9.606
   14        0.520   0.308   8.779   9.606
   15        0.515   0.309   8.772   9.596
   16        0.523   0.306   8.771   9.600
   17        0.515   0.309   8.772   9.596
   18        0.515   0.309   8.772   9.596
   19        0.520   0.296   8.773   9.589
   20        0.558   0.332   8.739   9.629
   21        0.558   0.332   8.739   9.629
   22        0.511   0.307   8.773   9.591
   23        0.558   0.332   8.739   9.629
   24        0.511   0.307   8.773   9.591
   25        0.520   0.296   8.773   9.589
   26        0.520   0.296   8.773   9.589
   27        0.511   0.307   8.773   9.591
   28        0.543   0.229   8.756   9.528
   29        0.575   0.237   8.748   9.560
   30        0.575   0.237   8.748   9.560
   31        0.575   0.237   8.748   9.560
   32        0.575   0.237   8.748   9.560
   33        0.575   0.237   8.748   9.560
   34        0.575   0.237   8.748   9.560
   35        0.540   0.232   8.755   9.527
   36        0.474   0.703   2.407   3.585
   37        1.564   3.527   0.000   5.091
   38        0.604   0.124   0.000   0.729
tot         21.507  13.980 309.110 344.597

  FORCE on cell =-STRESS in cart. coord.  units (eV):
  Direction    XX          YY          ZZ          XY          YZ          ZX
  Alpha Z   909.38021   909.38021   909.38021
  Ewald  153541.99269153541.99308************    -0.00032    -0.00009    -0.00013
  Hartree161958.89170161958.89169************     0.00001    -0.00002    -0.00004
  E(xc)   -1776.06157 -1776.06159 -1783.51847     0.00001     0.00000     0.00000
  Local  ************************327776.99238     0.00204     0.00001     0.00000
  n-local  -100.26343   -54.07881   -50.24697    22.54320    -1.78051     1.52910
  augment  2376.85592  2376.85745  2392.68601    -0.00132     0.00001     0.00002
  Kinetic  5514.82431  5522.15522  5542.21231     4.34767     0.44198    -0.03812
  Fock        0.00000     0.00000     0.00000     0.00000     0.00000     0.00000
  Total     -20.44629   -20.44629     0.33693    -0.00000     0.00000     0.00000
  in kB     -19.69368   -19.69368     0.32453    -0.00000     0.00000     0.00000

 VOLUME and BASIS-vectors are now :
  energy-cutoff  :      500.00
  volume of cell :     1663.41
      direct lattice vectors                 reciprocal lattice vectors
     8.813512802  0.000000000  0.000000000     0.113462137 -0.065507406  0.000000000
     4.406756909  7.632725690  0.000000000     0.000000000  0.131014796  0.000000000
     0.000000000  0.000000000 24.726898976     0.000000000  0.000000000  0.040441788

  length of vectors
     8.813512802  8.813512802 24.726898976     0.131014796  0.131014796  0.040441788

 FORCES acting on ions
    electron-ion (+dipol)            ewald-force                    non-local-force                 convergence-correction
   -.197E-04 -.162E-04 0.266E+04   0.518E-04 0.433E-04 -.266E+04   0.438E-17 0.133E-17 -.530E+00   -.181E-03 -.118E-03 -.427E-02
   0.127E+00 -.226E+00 0.266E+04   -.144E+00 0.228E+00 -.266E+04   -.177E-02 0.686E-01 -.234E+00   0.132E-01 -.660E-01 -.754E-01
   -.127E+00 -.226E+00 0.266E+04   0.144E+00 0.228E+00 -.266E+04   0.177E-02 0.686E-01 -.234E+00   -.129E-01 -.640E-01 -.748E-01
   -.132E+00 0.223E+00 0.266E+04   0.126E+00 -.239E+00 -.266E+04   0.585E-01 -.358E-01 -.234E+00   -.505E-01 0.443E-01 -.754E-01
   0.971E-05 -.226E-04 0.266E+04   0.951E-04 0.172E-05 -.266E+04   -.176E-17 -.101E-17 -.139E+00   0.424E-02 0.258E-02 -.122E+00
   0.132E+00 0.223E+00 0.266E+04   -.126E+00 -.239E+00 -.266E+04   -.585E-01 -.358E-01 -.234E+00   0.490E-01 0.453E-01 -.746E-01
   -.259E+00 0.289E-02 0.266E+04   0.270E+00 0.103E-01 -.266E+04   0.603E-01 -.327E-01 -.234E+00   -.619E-01 0.208E-01 -.748E-01
   0.259E+00 0.289E-02 0.266E+04   -.270E+00 0.103E-01 -.266E+04   -.603E-01 -.327E-01 -.234E+00   0.637E-01 0.198E-01 -.746E-01
   0.194E-04 -.417E-04 0.266E+04   0.166E-03 -.200E-04 -.266E+04   0.789E-18 0.739E-18 -.401E+00   -.461E-02 -.238E-02 -.766E-01
   0.266E+00 0.153E+00 0.878E+03   0.123E+00 0.713E-01 -.878E+03   -.292E+00 -.169E+00 -.540E+00   -.859E-01 -.497E-01 -.394E-01
   0.140E-04 -.626E+00 0.878E+03   0.148E-03 0.690E+00 -.878E+03   0.308E-08 0.462E-01 -.292E+00   0.363E-02 -.170E+00 0.503E-01
   -.266E+00 0.153E+00 0.878E+03   -.123E+00 0.712E-01 -.878E+03   0.292E+00 -.169E+00 -.540E+00   0.848E-01 -.486E-01 -.405E-01
   -.542E+00 0.313E+00 0.878E+03   0.597E+00 -.345E+00 -.878E+03   0.400E-01 -.231E-01 -.292E+00   -.145E+00 0.884E-01 0.503E-01
   0.542E+00 0.313E+00 0.878E+03   -.597E+00 -.345E+00 -.878E+03   -.400E-01 -.231E-01 -.292E+00   0.152E+00 0.879E-01 0.493E-01
   0.320E-04 0.291E+01 0.882E+03   0.235E-03 -.300E+01 -.881E+03   -.117E-09 -.176E-02 -.450E+00   -.207E-02 0.585E-01 0.360E-01
   -.204E-04 -.307E+00 0.878E+03   0.162E-03 -.142E+00 -.878E+03   0.225E-07 0.337E+00 -.540E+00   0.358E-04 0.977E-01 -.405E-01
   0.252E+01 -.146E+01 0.882E+03   -.260E+01 0.150E+01 -.881E+03   -.152E-02 0.878E-03 -.450E+00   0.499E-01 -.306E-01 0.360E-01
   -.252E+01 -.146E+01 0.882E+03   0.260E+01 0.150E+01 -.881E+03   0.152E-02 0.878E-03 -.450E+00   -.499E-01 -.290E-01 0.359E-01
   -.428E-04 -.383E+01 -.916E+03   0.557E-04 0.361E+01 0.915E+03   0.418E-08 0.628E-01 0.712E+00   0.350E-02 0.121E+00 0.744E-01
   -.137E+02 -.791E+01 -.925E+03   0.147E+02 0.846E+01 0.926E+03   -.111E+01 -.640E+00 -.871E+00   0.666E-01 0.383E-01 0.334E+00
   0.137E+02 -.791E+01 -.925E+03   -.147E+02 0.846E+01 0.926E+03   0.111E+01 -.640E+00 -.871E+00   -.673E-01 0.394E-01 0.334E+00
   -.118E+02 0.682E+01 -.908E+03   0.116E+02 -.668E+01 0.907E+03   0.326E+00 -.188E+00 0.689E+00   -.457E-01 0.250E-01 0.931E-01
   -.777E-05 0.158E+02 -.925E+03   0.138E-03 -.169E+02 0.926E+03   0.853E-07 0.128E+01 -.871E+00   0.163E-03 -.780E-01 0.334E+00
   0.118E+02 0.682E+01 -.908E+03   -.116E+02 -.668E+01 0.907E+03   -.326E+00 -.188E+00 0.689E+00   0.454E-01 0.262E-01 0.930E-01
   0.332E+01 0.192E+01 -.916E+03   -.313E+01 -.181E+01 0.915E+03   -.544E-01 -.314E-01 0.712E+00   -.993E-01 -.574E-01 0.740E-01
   -.332E+01 0.192E+01 -.916E+03   0.313E+01 -.181E+01 0.915E+03   0.544E-01 -.314E-01 0.712E+00   0.106E+00 -.572E-01 0.744E-01
   0.824E-05 -.136E+02 -.908E+03   0.198E-03 0.134E+02 0.907E+03   0.251E-07 0.377E+00 0.689E+00   -.176E-02 -.520E-01 0.931E-01
   -.117E-04 -.119E-04 -.261E+04   0.284E-04 0.323E-04 0.261E+04   0.354E-17 0.194E-17 0.221E+00   0.275E-03 0.142E-03 0.156E+00
   0.943E+01 0.103E+02 -.260E+04   -.882E+01 -.947E+01 0.260E+04   -.893E+00 -.130E+01 0.170E+00   0.156E+00 0.157E+00 0.474E-01
   -.943E+01 0.103E+02 -.260E+04   0.882E+01 -.947E+01 0.260E+04   0.893E+00 -.130E+01 0.170E+00   -.157E+00 0.158E+00 0.483E-01
   0.137E+02 0.299E+01 -.260E+04   -.126E+02 -.290E+01 0.260E+04   -.158E+01 -.121E+00 0.170E+00   0.214E+00 0.570E-01 0.475E-01
   -.137E+02 0.299E+01 -.260E+04   0.126E+02 -.290E+01 0.260E+04   0.158E+01 -.121E+00 0.170E+00   -.215E+00 0.582E-01 0.483E-01
   0.424E+01 -.133E+02 -.260E+04   -.379E+01 0.124E+02 0.260E+04   -.683E+00 0.143E+01 0.170E+00   0.587E-01 -.215E+00 0.483E-01
   -.424E+01 -.133E+02 -.260E+04   0.379E+01 0.124E+02 0.260E+04   0.683E+00 0.143E+01 0.170E+00   -.569E-01 -.215E+00 0.483E-01
   0.328E-04 -.309E-04 -.262E+04   0.143E-03 -.476E-04 0.262E+04   0.746E-17 -.751E-17 0.335E+00   -.457E-02 -.234E-02 0.515E-01
   -.101E-04 0.343E-05 -.816E+03   0.413E-04 0.374E-05 0.817E+03   0.525E-17 0.225E-17 0.671E+00   0.416E-03 0.254E-03 0.418E-01
   0.196E-03 -.929E-04 -.161E+04   0.227E-04 0.148E-05 0.159E+04   -.180E-18 -.420E-18 0.215E+02   0.348E-02 0.213E-02 -.260E+00
   0.813E-05 -.129E-04 -.336E+03   0.123E-05 0.111E-06 0.345E+03   -.801E-20 -.198E-21 -.848E+01   0.191E-03 0.117E-03 -.120E-01
   -.580E-03 -.866E-03 -.114E+02   -.342E-13 0.332E-12 0.523E-11   0.124E-15 -.569E-17 0.105E+02   0.169E-01 0.104E-01 0.125E+01

 POSITION                                       TOTAL-FORCE (eV/Angst)
      0.00000      0.00000      5.28038         0.000000     -0.000000     -0.094141
      2.93784      0.00000      5.28038        -0.004869      0.006128     -0.004404
      5.87568      0.00000      5.28038         0.004869      0.006128     -0.004404
      1.46892      2.54424      5.28038         0.002873     -0.007281     -0.004404
      4.40676      2.54424      5.28038         0.000000     -0.000000     -0.015049
      7.34459      2.54424      5.28038        -0.002873     -0.007281     -0.004404
      2.93784      5.08848      5.28038         0.007742      0.001152     -0.004404
      5.87568      5.08848      5.28038        -0.007742      0.001152     -0.004404
      8.81351      5.08848      5.28038         0.000000     -0.000000     -0.013991
      1.46892      0.84808      7.67911         0.011979      0.006916      0.043971
      4.40676      0.84808      7.67911        -0.000000     -0.061683     -0.007042
      7.34459      0.84808      7.67911        -0.011979      0.006916      0.043971
      2.93784      3.39232      7.67911        -0.053419      0.030841     -0.007042
      5.87568      3.39232      7.67911         0.053419      0.030841     -0.007042
      8.81351      3.39232      7.67911        -0.000000     -0.029937      0.081200
      4.40676      5.93656      7.67911        -0.000000     -0.013832      0.043971
      7.34459      5.93656      7.67911        -0.025926      0.014969      0.081200
     10.28243      5.93656      7.67911         0.025926      0.014969      0.081200
      8.81351      1.69614     10.07331        -0.000000     -0.040473     -0.022416
      2.94950      1.70289     10.06400        -0.093445     -0.053951     -0.080263
      5.86402      1.70289     10.06400         0.093445     -0.053951     -0.080263
     10.27143      4.24676     10.06599         0.039938     -0.023058      0.038867
      4.40676      4.22694     10.06400         0.000000      0.107901     -0.080263
      7.35560      4.24676     10.06599        -0.039938     -0.023058      0.038867
     11.75137      6.78466     10.07331         0.035051      0.020237     -0.022416
      5.87566      6.78466     10.07331        -0.035051      0.020237     -0.022416
      8.81351      6.77194     10.06599         0.000000      0.046117      0.038867
      0.00000      0.00000     12.49013         0.000000     -0.000000     -0.051200
      2.98093      0.06833     12.52966        -0.127769     -0.269696     -0.278875
      5.83259      0.06833     12.52966         0.127769     -0.269696     -0.278875
      1.54964      2.54739     12.52966        -0.297448      0.024197     -0.278875
      7.26387      2.54739     12.52966         0.297448      0.024197     -0.278875
      2.97547      5.01700     12.52966        -0.169679      0.245499     -0.278875
      5.83804      5.01700     12.52966         0.169679      0.245499     -0.278875
      8.81351      5.08848     12.50181         0.000000     -0.000000      0.028116
      4.40676      2.54424     12.25739         0.000000     -0.000000      1.663419
      4.40676      2.54424     14.06696         0.000000     -0.000000      0.036498
      4.40676      2.54424     15.03450         0.000000     -0.000000     -0.016931
    total drift:                                0.016288      0.009554      0.347318

  FREE ENERGIE OF THE ION-ELECTRON SYSTEM (eV)
  free  energy   TOTEN  =      -126.51962496 eV

  energy  without entropy=     -126.51962496  energy(sigma->0) =     -126.51962496

 stress matrix after NEB project (eV)
    -20.44629     -0.00000      0.00000
     -0.00000    -20.44629      0.00000
     -0.00000      0.00000      0.33693
  FORCES: max atom, RMS     0.036498    0.006527
  FORCE total and by dimension    0.040234    0.036498
  Stress total and by dimension   28.917386   20.446293
|           W    W    AA    RRRRR   N    N  II  N    N   GGGG   !!!           |
|           W    W   A  A   R    R  NN   N  II  NN   N  G    G  !!!           |
|           W    W  A    A  R    R  N N  N  II  N N  N  G       !!!           |
|           W WW W  AAAAAA  RRRRR   N  N N  II  N  N N  G  GGG   !            |
|           WW  WW  A    A  R   R   N   NN  II  N   NN  G    G                |
|           W    W  A    A  R    R  N    N  II  N    N   GGGG   !!!           |
|     Tetrahedron method does not include variations of the Fermi             |
|     occupations, so forces and stress will be inaccurate. We suggest        |
|     using a different smearing scheme ISMEAR = 1 or 2 for metals in         |
|     relaxations.                                                            |

 total charge

# of ion       s       p       d       tot
    1        0.549   0.238   8.765   9.551
    2        0.543   0.241   8.765   9.549
    3        0.543   0.241   8.765   9.549
    4        0.543   0.241   8.765   9.549
    5        0.544   0.242   8.763   9.548
    6        0.543   0.241   8.765   9.549
    7        0.543   0.241   8.765   9.549
    8        0.543   0.241   8.765   9.549
    9        0.541   0.240   8.767   9.548
   10        0.523   0.306   8.771   9.600
   11        0.520   0.308   8.779   9.606
   12        0.523   0.306   8.771   9.600
   13        0.520   0.308   8.779   9.606
   14        0.520   0.308   8.779   9.606
   15        0.515   0.309   8.772   9.596
   16        0.523   0.306   8.771   9.600
   17        0.515   0.309   8.772   9.596
   18        0.515   0.309   8.772   9.596
   19        0.520   0.296   8.773   9.589
   20        0.558   0.332   8.739   9.629
   21        0.558   0.332   8.739   9.629
   22        0.511   0.307   8.773   9.591
   23        0.558   0.332   8.739   9.629
   24        0.511   0.307   8.773   9.591
   25        0.520   0.296   8.773   9.589
   26        0.520   0.296   8.773   9.589
   27        0.511   0.307   8.773   9.591
   28        0.543   0.229   8.756   9.528
   29        0.575   0.237   8.748   9.560
   30        0.575   0.237   8.748   9.560
   31        0.575   0.237   8.748   9.560
   32        0.575   0.237   8.748   9.560
   33        0.575   0.237   8.748   9.560
   34        0.575   0.237   8.748   9.560
   35        0.540   0.232   8.755   9.527
   36        0.474   0.703   2.407   3.585
   37        1.564   3.527   0.000   5.091
   38        0.604   0.124   0.000   0.729
tot         21.507  13.980 309.110 344.597

 BZINTS: Fermi energy:    0.311421;  396.000000 electrons
         Band energy:-0.140246E+04;  BLOECHL correction:   -0.056489