 vasp.6.2.0 18Jan21 (build Jun 12 2021 23:27:24) complex

 executed on             LinuxIFC date 2022.05.26  20:03:49

 INCAR:
   ISMEAR = -5
   SIGMA = 0.1
   ISPIN = 1
   EDIFF = 1.d-5
   EDIFFG = -0.01
   NSW = 0
   NELM = 150
   ENCUT = 500
   ISIF = 2
   IBRION = 2
   LREAL = Auto
   ALGO = Fast
   ICHARG = 11
   LORBIT = 10
   LCHARG = .F.
   LWAVE = .F.

 POTCAR:    PAW_PBE Cu 22Jun2005
 POTCAR:    PAW_PBE Ru 04Feb2005
 POTCAR:    PAW_PBE N 08Apr2002
|           W    W    AA    RRRRR   N    N  II  N    N   GGGG   !!!           |
|           W    W   A  A   R    R  NN   N  II  NN   N  G    G  !!!           |
|           W    W  A    A  R    R  N N  N  II  N N  N  G       !!!           |
|           W WW W  AAAAAA  RRRRR   N  N N  II  N  N N  G  GGG   !            |
|           WW  WW  A    A  R   R   N   NN  II  N   NN  G    G                |
|           W    W  A    A  R    R  N    N  II  N    N   GGGG   !!!           |
|     For optimal performance we recommend to set                             |
|       NCORE = 2 up to number-of-cores-per-socket                            |
|     This setting can greatly improve the performance of VASP for DFT.       |
|     The default, NCORE=1 might be grossly inefficient on modern             |
|     multi-core architectures or massively parallel machines. Do your        |
|     Unfortunately you need to use the default for GW and RPA                |
|     calculations (for HF NCORE is supported but not extensively tested      |
|     yet).                                                                   |

 POTCAR:    PAW_PBE Cu 22Jun2005
   VRHFIN =Cu: d10 p1

   TITEL  = PAW_PBE Cu 22Jun2005
   POMASS =   63.546; ZVAL   =   11.000    mass and valenz
   ENMAX  =  295.446; ENMIN  =  221.585 eV

 POTCAR:    PAW_PBE Ru 04Feb2005
   VRHFIN =Ru: s1 d7

   TITEL  = PAW_PBE Ru 04Feb2005
   POMASS =  101.070; ZVAL   =    8.000    mass and valenz
   ENMAX  =  213.271; ENMIN  =  159.953 eV

 POTCAR:    PAW_PBE N 08Apr2002
   VRHFIN =N: s2p3

   TITEL  = PAW_PBE N 08Apr2002
   POMASS =   14.001; ZVAL   =    5.000    mass and valenz
   ENMAX  =  400.000; ENMIN  =  300.000 eV

 Optimization of the real space projectors (new method)

 maximal supplied QI-value         = 16.25
 optimisation between [QCUT,QGAM] = [ 11.38, 22.75] = [ 36.24,144.96] Ry
 Optimized for a Real-space Cutoff    1.52 Angstroem

   l    n(q)    QCUT    max X(q) W(low)/X(q) W(high)/X(q)  e(spline)
   2      9    11.376     4.610    0.21E-03    0.10E-03    0.26E-06
   2      9    11.376     8.522    0.33E-03    0.16E-03    0.37E-06
   0     10    11.376    51.609    0.62E-04    0.20E-04    0.13E-06
   0     10    11.376    27.747    0.54E-04    0.20E-04    0.13E-06
   1     10    11.376    20.408    0.13E-04    0.99E-04    0.19E-06
   1     10    11.376    13.425    0.12E-04    0.87E-04    0.17E-06
 Optimization of the real space projectors (new method)

[...]

   l    n(q)    QCUT    max X(q) W(low)/X(q) W(high)/X(q)  e(spline)
   2      9    11.327    61.733    0.26E-03    0.14E-03    0.16E-06
   2      9    11.327    59.886    0.26E-03    0.14E-03    0.17E-06
   0     10    11.327    23.358    0.19E-03    0.14E-04    0.46E-06
   0     10    11.327    11.320    0.15E-03    0.11E-04    0.37E-06
   1     10    11.327    14.765    0.49E-04    0.26E-03    0.24E-06
   1     10    11.327     8.283    0.37E-04    0.20E-03    0.18E-06
 Optimization of the real space projectors (new method)

 maximal supplied QI-value         = 25.13
 optimisation between [QCUT,QGAM] = [ 11.31, 22.87] = [ 35.82,146.48] Ry
 Optimized for a Real-space Cutoff    1.27 Angstroem

   l    n(q)    QCUT    max X(q) W(low)/X(q) W(high)/X(q)  e(spline)
   0      9    11.310    79.467    0.75E-04    0.16E-03    0.36E-06
   0      9    11.310    66.151    0.74E-04    0.16E-03    0.36E-06
   1      8    11.310    17.416    0.35E-03    0.12E-03    0.95E-06
   1      8    11.310    12.382    0.37E-03    0.13E-03    0.98E-06
  PAW_PBE Cu 22Jun2005                  :
  PAW_PBE Ru 04Feb2005                  :
  PAW_PBE N 08Apr2002                   :

 POSCAR: Cu-Ru-N
  positions in direct lattice
  velocities in cartesian coordinates
 exchange correlation table for  LEXCH =        8
   RHO(1)=    0.500       N(1)  =     2000
   RHO(2)=  100.500       N(2)  =     4000

 VTST: version 3.2, (02/03/18)

 CHAIN: initializing optimizer

 OPT: Using VASP Conjugate-Gradient optimizer
 CHAIN: Read ICHAIN            0

 POSCAR: Cu-Ru-N
  positions in direct lattice
  velocities in cartesian coordinates

 ion  position               nearest neighbor table
   1  0.000  0.000  0.252-   7 2.57   3 2.57   4 2.57   2 2.57   6 2.57   8 2.57  12 2.57  10 2.57
                            16 2.57
   2  0.333  0.000  0.252-   8 2.57   9 2.57   5 2.57   1 2.57   3 2.57  11 2.57   4 2.57  10 2.57
                            17 2.57
   3  0.667  0.000  0.252-   1 2.57   7 2.57   6 2.57   9 2.57   2 2.57  12 2.57   5 2.57  18 2.57
                            11 2.57
   4  0.000  0.333  0.252-   5 2.57   6 2.57   1 2.57   7 2.57   2 2.57  13 2.57   9 2.57  10 2.57
                            15 2.57
   5  0.333  0.333  0.252-   4 2.57   2 2.57   7 2.57  13 2.57   8 2.57   6 2.57   3 2.57  11 2.57
                            14 2.57
   6  0.667  0.333  0.252-   4 2.57   9 2.57  15 2.57   3 2.57   1 2.57   8 2.57  14 2.57   5 2.57
                            12 2.57
   7  0.000  0.667  0.252-   1 2.57   3 2.57  16 2.57  18 2.57   4 2.57   5 2.57   8 2.57   9 2.57
                            13 2.57
   8  0.333  0.667  0.252-   9 2.57   2 2.57  17 2.57   6 2.57   1 2.57   7 2.57   5 2.57  14 2.57
                            16 2.57
   9  0.667  0.667  0.252-   8 2.57   6 2.57   2 2.57  17 2.57   3 2.57   7 2.57   4 2.57  15 2.57
                            18 2.57
  10  0.111  0.111  0.351-  20 2.55  26 2.56  19 2.56  11 2.57  12 2.57  13 2.57   1 2.57   2 2.57
                             4 2.57  15 2.57  16 2.57  17 2.57
  11  0.444  0.111  0.351-  20 2.55  21 2.55  10 2.57  13 2.57   2 2.57  17 2.57  14 2.57  12 2.57
                             5 2.57   3 2.57  18 2.57  27 2.57
  12  0.778  0.111  0.351-  21 2.55  19 2.56  25 2.56  15 2.57  10 2.57  14 2.57  18 2.57   3 2.57
                             1 2.57  16 2.57  11 2.57   6 2.57
  13  0.111  0.444  0.351-  23 2.55  20 2.55  16 2.57  18 2.57  10 2.57  11 2.57  14 2.57   5 2.57
                             4 2.57   7 2.57  15 2.57  22 2.57
  14  0.444  0.444  0.351-  21 2.55  23 2.55  15 2.57  17 2.57  12 2.57  16 2.57  13 2.57  11 2.57
                             6 2.57   8 2.57   5 2.57  24 2.57
  15  0.778  0.444  0.351-  19 2.56  14 2.57  17 2.57  12 2.57   6 2.57  18 2.57  10 2.57   9 2.57
                            13 2.57   4 2.57  24 2.57  22 2.57
  16  0.111  0.778  0.351-  23 2.55  25 2.56  26 2.56  18 2.57  13 2.57   7 2.57  14 2.57  17 2.57
                            12 2.57  10 2.57   8 2.57   1 2.57
  17  0.444  0.778  0.351-  26 2.56  14 2.57  15 2.57   8 2.57   9 2.57  11 2.57  16 2.57  18 2.57
                            10 2.57   2 2.57  27 2.57  24 2.57
  18  0.778  0.778  0.351-  25 2.56  16 2.57  13 2.57   7 2.57  15 2.57  12 2.57  17 2.57   9 2.57
                             3 2.57  11 2.57  22 2.57  27 2.57
  19  0.889  0.223  0.449-  28 2.55  15 2.56  21 2.56  20 2.56  12 2.56  10 2.56  22 2.56  24 2.56
                            32 2.56  31 2.56  25 2.57  26 2.57
  20  0.222  0.222  0.448-  10 2.55  11 2.55  13 2.55  36 2.55  26 2.56  19 2.56  27 2.57  22 2.57
                            23 2.57  21 2.57  29 2.58  31 2.58
  21  0.556  0.222  0.448-  12 2.55  14 2.55  11 2.55  36 2.55  19 2.56  25 2.56  24 2.57  27 2.57
                            20 2.57  23 2.57  32 2.58  30 2.58
  22  0.888  0.556  0.449-  35 2.55  24 2.56  27 2.56  19 2.56  25 2.56  18 2.57  15 2.57  31 2.57
                            33 2.57  23 2.57  20 2.57  13 2.57
  23  0.222  0.556  0.448-  16 2.55  13 2.55  14 2.55  36 2.55  25 2.56  26 2.56  22 2.57  24 2.57
                            20 2.57  21 2.57  33 2.58  34 2.58
  24  0.556  0.556  0.449-  35 2.55  22 2.56  27 2.56  19 2.56  26 2.56  15 2.57  17 2.57  32 2.57
                            34 2.57  21 2.57  23 2.57  14 2.57
  25  0.889  0.889  0.449-  28 2.55  18 2.56  21 2.56  23 2.56  16 2.56  12 2.56  22 2.56  27 2.56
                            33 2.56  30 2.56  19 2.57  26 2.57
  26  0.223  0.889  0.449-  28 2.55  17 2.56  20 2.56  23 2.56  10 2.56  16 2.56  27 2.56  24 2.56
                            29 2.56  34 2.56  25 2.57  19 2.57
  27  0.556  0.888  0.449-  35 2.55  24 2.56  22 2.56  26 2.56  25 2.56  17 2.57  18 2.57  29 2.57
                            30 2.57  20 2.57  21 2.57  11 2.57
  28  0.000  0.000  0.546-  25 2.55  19 2.55  26 2.55  33 2.56  30 2.56  31 2.56  29 2.56  32 2.56
                            34 2.56
  29  0.333  0.999  0.548-  34 2.55  28 2.56  26 2.56  35 2.56  27 2.57  31 2.57  36 2.57  30 2.58
                            20 2.58
  30  0.668  0.999  0.548-  33 2.55  28 2.56  25 2.56  35 2.56  27 2.57  32 2.57  36 2.57  29 2.58
                            21 2.58
  31  0.999  0.333  0.548-  32 2.55  28 2.56  19 2.56  35 2.56  22 2.57  29 2.57  36 2.57  33 2.58
                            20 2.58
  32  0.668  0.333  0.548-  31 2.55  28 2.56  19 2.56  35 2.56  24 2.57  30 2.57  36 2.57  34 2.58
                            21 2.58
  33  0.999  0.668  0.548-  30 2.55  28 2.56  25 2.56  35 2.56  22 2.57  34 2.57  36 2.57  31 2.58
                            23 2.58
  34  0.333  0.668  0.548-  29 2.55  28 2.56  26 2.56  35 2.56  24 2.57  33 2.57  36 2.57  32 2.58
                            23 2.58
  35  0.667  0.667  0.547-  24 2.55  27 2.55  22 2.55  34 2.56  32 2.56  29 2.56  30 2.56  33 2.56
                            31 2.56
  36  0.333  0.333  0.546-  37 1.66  23 2.55  20 2.55  21 2.55  31 2.57  29 2.57  33 2.57  34 2.57
                            32 2.57  30 2.57
  37  0.333  0.333  0.624-  36 1.66

  LATTYP: Found a hexagonal cell.
 ALAT       =     7.6967864036
 C/A-ratio  =     2.7653617908

  Lattice vectors:

 A1 = (  -3.8483927580,  -6.6656128093,   0.0000000000)
 A2 = (   7.6967864037,   0.0000000000,   0.0000000000)
 A3 = (   0.0000000000,   0.0000000000,  21.2843990326)

Analysis of symmetry for initial positions (statically):
 Subroutine PRICEL returns:
 Original cell was already a primitive cell.

 Routine SETGRP: Setting up the symmetry group for a
 hexagonal supercell.

 Subroutine GETGRP returns: Found  6 space group operations
 (whereof  6 operations were pure point group operations)
 out of a pool of 24 trial point group operations.

The static configuration has the point symmetry C_3v.

Analysis of symmetry for dynamics (positions and initial velocities):
 Subroutine PRICEL returns:
 Original cell was already a primitive cell.

[...]

The dynamic configuration has the point symmetry C_3v.

Analysis of constrained symmetry for selective dynamics:
 Subroutine PRICEL returns:
 Original cell was already a primitive cell.

 Routine SETGRP: Setting up the symmetry group for a
 hexagonal supercell.

 Subroutine GETGRP returns: Found  6 space group operations
[...]
     24      -4.2491      2.00000
     25      -4.1912      2.00000
     26      -4.1841      2.00000
     27      -4.1240      2.00000
     28      -4.0700      2.00000
     29      -4.0281      2.00000
     30      -4.0188      2.00000
     31      -3.9790      2.00000
     32      -3.9615      2.00000
     33      -3.9546      2.00000
     34      -3.9448      2.00000
     35      -3.9167      2.00000
     36      -3.8723      2.00000
     37      -3.8434      2.00000
     38      -3.8150      2.00000
     39      -3.7688      2.00000
     40      -3.7336      2.00000
     41      -3.6405      2.00000
     42      -3.6202      2.00000
     43      -3.5620      2.00000
     44      -3.5467      2.00000
     45      -3.5211      2.00000
     46      -3.5143      2.00000
     47      -3.4776      2.00000
     48      -3.4424      2.00000
     49      -3.4381      2.00000
     50      -3.3082      2.00000
     51      -3.2929      2.00000
     52      -3.2714      2.00000
     53      -3.2690      2.00000
     54      -3.2334      2.00000
     55      -3.2257      2.00000
     56      -3.1973      2.00000
     57      -3.1948      2.00000
     58      -3.1848      2.00000
     59      -3.1666      2.00000
     60      -3.1494      2.00000
[...]
    238       6.2869      0.00000
    239       6.4796      0.00000
    240       6.5622      0.00000
    241       7.0308      0.00000
    242       7.0508      0.00000
    243       7.1564      0.00000
    244       7.2138      0.00000
    245       7.3672      0.00000
    246       7.4349      0.00000
    247       7.4768      0.00000
    248       7.5595      0.00000
    249       7.6397      0.00000
    250       7.8907      0.00000
    251       7.9010      0.00000
    252       8.0655      0.00000

 soft charge-density along one line, spin component           1
         0         1         2         3         4         5         6         7         8         9
 total charge-density along one line

------------------------ aborting loop because EDIFF is reached ----------------------------------------

 total charge

# of ion       s       p       d       tot
    1        0.450   0.282   9.191   9.923
    2        0.448   0.285   9.187   9.920
    3        0.448   0.285   9.187   9.920
    4        0.448   0.285   9.187   9.920
    5        0.451   0.284   9.187   9.922
    6        0.448   0.285   9.187   9.920
    7        0.448   0.285   9.187   9.920
    8        0.448   0.285   9.187   9.920
    9        0.447   0.285   9.186   9.919
   10        0.442   0.370   9.180   9.992
   11        0.439   0.371   9.181   9.991
   12        0.442   0.370   9.180   9.992
   13        0.439   0.371   9.181   9.991
   14        0.439   0.371   9.181   9.991
   15        0.439   0.368   9.181   9.988
   16        0.442   0.370   9.180   9.992
   17        0.439   0.368   9.181   9.988
   18        0.439   0.368   9.181   9.988
   19        0.443   0.368   9.183   9.993
   20        0.460   0.390   9.172  10.022
   21        0.460   0.390   9.172  10.022
   22        0.433   0.373   9.180   9.986
   23        0.460   0.390   9.172  10.022
   24        0.433   0.373   9.180   9.986
   25        0.443   0.368   9.183   9.993
   26        0.443   0.368   9.183   9.993
   27        0.433   0.373   9.180   9.986
   28        0.457   0.286   9.193   9.935
   29        0.446   0.304   9.190   9.940
   30        0.446   0.304   9.190   9.940
   31        0.446   0.304   9.190   9.940
   32        0.446   0.304   9.190   9.940
   33        0.446   0.304   9.190   9.940
   34        0.446   0.304   9.190   9.940
   35        0.451   0.287   9.194   9.932
   36        0.730   0.900   6.937   8.567
   37        1.357   2.175   0.000   3.532
tot         17.679  14.749 328.376 360.804

  FORCE on cell =-STRESS in cart. coord.  units (eV):
  Direction    XX          YY          ZZ          XY          YZ          ZX
  Alpha Z   876.88269   876.88269   876.88269
  Ewald  173067.40973173067.40931************     0.00039     0.00012     0.00018
  Hartree186102.19365186102.19362************     0.00004     0.00006     0.00007
  E(xc)   -2306.18603 -2306.18554 -2310.59157    -0.00042    -0.00003    -0.00006
  Local  ************************372452.20034     0.01870    -0.00058    -0.00096
  n-local  -757.21768  -741.41838  -753.49139     8.47081    -0.00835     0.23274
  augment  3356.49557  3356.51604  3362.25514    -0.01772     0.00024     0.00040
  Kinetic  3323.74206  3326.24834  3323.71355     2.90338     1.81166    -1.35680
  Fock        0.00000     0.00000     0.00000     0.00000     0.00000     0.00000
  Total      -0.75582    -0.75582     2.25291     0.00000    -0.00000    -0.00000
  in kB      -1.10896    -1.10896     3.30555     0.00000    -0.00000    -0.00000

 VOLUME and BASIS-vectors are now :
  energy-cutoff  :      500.00
  volume of cell :     1091.97
      direct lattice vectors                 reciprocal lattice vectors
     7.696786404  0.000000000  0.000000000     0.129924354 -0.075011849  0.000000000
     3.848392758  6.665612809  0.000000000     0.000000000  0.150023716  0.000000000
     0.000000000  0.000000000 21.284399033     0.000000000  0.000000000  0.046982769

  length of vectors
     7.696786404  7.696786404 21.284399033     0.150023716  0.150023716  0.046982769

 FORCES acting on ions
    electron-ion (+dipol)            ewald-force                    non-local-force                 convergence-correction
   -.417E-04 0.120E-06 0.349E+04   0.580E-04 -.436E-05 -.348E+04   0.191E-17 0.269E-17 -.233E+01   -.354E-03 -.172E-03 -.436E+00
   -.227E+00 -.399E-01 0.349E+04   0.195E+00 0.116E-02 -.348E+04   0.903E-02 0.902E-01 -.201E+01   0.276E-01 -.402E-01 -.457E+00
   0.227E+00 -.399E-01 0.349E+04   -.195E+00 0.112E-02 -.348E+04   -.903E-02 0.902E-01 -.201E+01   -.268E-01 -.377E-01 -.456E+00
   -.148E+00 -.177E+00 0.349E+04   0.985E-01 0.168E+00 -.348E+04   0.826E-01 -.373E-01 -.201E+01   -.209E-01 0.440E-01 -.457E+00
   -.645E-04 -.503E-05 0.348E+04   0.116E-03 -.101E-04 -.348E+04   -.481E-17 -.239E-17 -.186E+01   0.121E-01 0.743E-02 -.315E+00
   0.148E+00 -.177E+00 0.349E+04   -.986E-01 0.168E+00 -.348E+04   -.826E-01 -.373E-01 -.201E+01   0.193E-01 0.452E-01 -.456E+00
   0.790E-01 0.217E+00 0.349E+04   -.966E-01 -.170E+00 -.348E+04   0.736E-01 -.529E-01 -.201E+01   -.460E-01 -.438E-02 -.456E+00
   -.789E-01 0.217E+00 0.349E+04   0.963E-01 -.169E+00 -.348E+04   -.736E-01 -.529E-01 -.201E+01   0.495E-01 -.583E-02 -.456E+00
   -.144E-03 -.330E-04 0.348E+04   0.263E-03 0.205E-04 -.348E+04   0.984E-17 0.343E-18 -.214E+01   -.131E-01 -.678E-02 -.414E+00
   0.396E+00 0.229E+00 0.118E+04   -.359E-01 -.208E-01 -.118E+04   -.322E+00 -.186E+00 -.844E+00   -.590E-01 -.341E-01 0.139E-01
   -.910E-04 -.197E+00 0.117E+04   0.190E-03 -.367E-01 -.117E+04   -.119E-07 0.178E+00 -.522E+00   0.119E-01 0.255E-01 0.521E-02
   -.396E+00 0.229E+00 0.118E+04   0.358E-01 -.209E-01 -.118E+04   0.322E+00 -.186E+00 -.844E+00   0.572E-01 -.330E-01 0.140E-01
   -.171E+00 0.987E-01 0.117E+04   -.317E-01 0.182E-01 -.117E+04   0.154E+00 -.891E-01 -.522E+00   0.285E-01 -.160E-02 0.524E-02
   0.171E+00 0.987E-01 0.117E+04   0.314E-01 0.182E-01 -.117E+04   -.154E+00 -.891E-01 -.522E+00   -.487E-02 -.319E-02 0.332E-02
   -.142E-03 -.109E+01 0.118E+04   0.298E-03 0.950E+00 -.118E+04   -.398E-08 0.598E-01 -.767E+00   -.346E-02 0.702E-01 -.249E-01
   -.916E-04 -.457E+00 0.118E+04   0.186E-03 0.416E-01 -.118E+04   -.248E-07 0.372E+00 -.844E+00   -.900E-03 0.648E-01 0.139E-01
   -.948E+00 0.547E+00 0.118E+04   0.822E+00 -.475E+00 -.118E+04   0.518E-01 -.299E-01 -.767E+00   0.597E-01 -.381E-01 -.250E-01
   0.948E+00 0.547E+00 0.118E+04   -.823E+00 -.475E+00 -.118E+04   -.518E-01 -.299E-01 -.767E+00   -.583E-01 -.354E-01 -.231E-01
   -.606E-04 -.151E+01 -.114E+04   0.686E-04 0.156E+01 0.114E+04   0.469E-08 -.704E-01 0.762E+00   -.990E-03 -.279E-02 0.223E+00
   -.232E+02 -.134E+02 -.116E+04   0.237E+02 0.137E+02 0.116E+04   -.695E+00 -.401E+00 0.918E-01   0.522E-01 0.300E-01 0.313E+00
   0.232E+02 -.134E+02 -.116E+04   -.237E+02 0.137E+02 0.116E+04   0.695E+00 -.401E+00 0.918E-01   -.507E-01 0.282E-01 0.312E+00
   -.143E+02 0.826E+01 -.115E+04   0.139E+02 -.803E+01 0.115E+04   0.486E+00 -.281E+00 0.972E+00   -.227E-01 0.258E-01 0.285E+00
   -.831E-04 0.268E+02 -.116E+04   0.146E-03 -.273E+02 0.116E+04   -.534E-07 0.802E+00 0.918E-01   -.211E-02 -.592E-01 0.312E+00
   0.143E+02 0.826E+01 -.115E+04   -.139E+02 -.803E+01 0.115E+04   -.486E+00 -.281E+00 0.972E+00   0.445E-01 0.248E-01 0.285E+00
   0.130E+01 0.753E+00 -.114E+04   -.135E+01 -.780E+00 0.114E+04   0.609E-01 0.352E-01 0.762E+00   0.158E-02 0.929E-03 0.223E+00
   -.130E+01 0.753E+00 -.114E+04   0.135E+01 -.781E+00 0.114E+04   -.609E-01 0.352E-01 0.762E+00   -.256E-02 0.741E-03 0.223E+00
   -.122E-03 -.165E+02 -.115E+04   0.243E-03 0.161E+02 0.115E+04   -.374E-07 0.561E+00 0.972E+00   0.110E-01 -.326E-01 0.285E+00
   -.381E-04 0.158E-04 -.343E+04   0.384E-04 -.334E-04 0.343E+04   0.115E-18 -.162E-17 0.211E+01   -.191E-02 -.105E-02 0.437E+00
   -.105E+02 -.160E+02 -.343E+04   0.101E+02 0.150E+02 0.342E+04   0.177E+00 0.595E+00 0.273E+01   0.606E-01 0.805E-01 0.412E+00
   0.105E+02 -.160E+02 -.343E+04   -.101E+02 0.150E+02 0.342E+04   -.177E+00 0.595E+00 0.273E+01   -.379E-01 0.820E-01 0.411E+00
   -.191E+02 -.113E+01 -.343E+04   0.181E+02 0.128E+01 0.342E+04   0.603E+00 -.144E+00 0.273E+01   0.100E+00 0.121E-01 0.412E+00
   0.191E+02 -.113E+01 -.343E+04   -.181E+02 0.128E+01 0.342E+04   -.603E+00 -.144E+00 0.273E+01   -.789E-01 0.128E-01 0.412E+00
   -.859E+01 0.171E+02 -.343E+04   0.792E+01 -.163E+02 0.342E+04   0.427E+00 -.450E+00 0.273E+01   0.521E-01 -.739E-01 0.411E+00
   0.859E+01 0.171E+02 -.343E+04   -.792E+01 -.163E+02 0.342E+04   -.427E+00 -.450E+00 0.273E+01   -.277E-01 -.747E-01 0.412E+00
   -.151E-03 -.273E-04 -.344E+04   0.255E-03 0.381E-05 0.344E+04   -.481E-17 0.459E-17 0.244E+01   -.142E-01 -.737E-02 0.436E+00
   -.396E-04 -.245E-04 -.228E+04   0.100E-03 0.198E-04 0.229E+04   -.121E-16 -.644E-17 -.730E+01   0.728E-03 0.465E-03 0.272E+00
   0.106E-03 -.497E-04 -.186E+04   0.166E-04 0.732E-05 0.189E+04   -.318E-18 -.944E-18 -.223E+02   0.124E-02 0.757E-03 -.488E-01
   -.166E-03 -.683E-04 0.259E+02   0.140E-12 0.488E-12 -.682E-11   -.295E-15 0.330E-15 -.280E+02   0.116E+00 0.642E-01 0.211E+01

 POSITION                                       TOTAL-FORCE (eV/Angst)
      0.00000      0.00000      5.37156         0.000000     -0.000000      0.011464
      2.56560      0.00000      5.37156         0.005069      0.012307      0.074863
      5.13119      0.00000      5.37156        -0.005069      0.012307      0.074863
      1.28280      2.22187      5.37156         0.013193     -0.001763      0.074863
      3.84839      2.22187      5.37156         0.000000      0.000000      0.049396
      6.41399      2.22187      5.37156        -0.013193     -0.001763      0.074863
      2.56560      4.44374      5.37156         0.008124     -0.010544      0.074863
      5.13119      4.44374      5.37156        -0.008124     -0.010544      0.074863
      7.69679      4.44374      5.37156         0.000000      0.000000      0.059806
      1.28280      0.74062      7.46636        -0.019712     -0.011381     -0.064046
      3.84839      0.74062      7.46636         0.000000     -0.036726     -0.056684
      6.41399      0.74062      7.46636         0.019712     -0.011381     -0.064046
      2.56560      2.96249      7.46636        -0.031806      0.018363     -0.056684
      5.13119      2.96249      7.46636         0.031806      0.018363     -0.056684
      7.69679      2.96249      7.46636         0.000000     -0.015033     -0.016971
      3.84839      5.18437      7.46636        -0.000000      0.022762     -0.064046
      6.41399      5.18437      7.46636        -0.013019      0.007517     -0.016971
      8.97958      5.18437      7.46636         0.013019      0.007517     -0.016971
      7.69679      1.48414      9.55535         0.000000     -0.017352      0.018200
      2.56128      1.47875      9.53998        -0.187734     -0.108388     -0.289684
      5.13551      1.47875      9.53998         0.187734     -0.108388     -0.289684
      8.97644      3.70493      9.56275         0.051982     -0.030012      0.015456
      3.84839      3.70811      9.53998        -0.000000      0.216776     -0.289684
      6.41713      3.70493      9.56275        -0.051982     -0.030012      0.015456
     10.25987      5.92354      9.55535         0.015027      0.008676      0.018200
      5.13370      5.92354      9.55535        -0.015027      0.008676      0.018200
      7.69679      5.92136      9.56275        -0.000000      0.060024      0.015456
      0.00000      0.00000     11.63109         0.000000      0.000000     -0.021642
      6.40750      6.66078     11.65531        -0.187767     -0.337094     -0.196762
      8.98608      6.66078     11.65531         0.187767     -0.337094     -0.196762
      8.97216      2.21866     11.65531        -0.385815      0.005936     -0.196762
      6.42142      2.21866     11.65531         0.385815      0.005936     -0.196762
     10.26144      4.45178     11.65531        -0.198048      0.331158     -0.196762
      5.13213      4.45178     11.65531         0.198048      0.331158     -0.196762
      7.69679      4.44374     11.63516         0.000000      0.000000      0.002736
      3.84839      2.22187     11.61289         0.000000     -0.000000      1.832446
      3.84839      2.22187     13.27503         0.000000      0.000000     -0.021624
    total drift:                                0.116204      0.064084      0.024642

  FREE ENERGIE OF THE ION-ELECTRON SYSTEM (eV)
  free  energy   TOTEN  =      -137.91096717 eV

  energy  without entropy=     -137.91096717  energy(sigma->0) =     -137.91096717

 stress matrix after NEB project (eV)
     -0.75582      0.00000     -0.00000
      0.00000     -0.75582     -0.00000
      0.00000     -0.00000      2.25291
  FORCES: max atom, RMS     0.021624    0.003555
  FORCE total and by dimension    0.021624    0.021624
  Stress total and by dimension    2.493617    2.252911
|           W    W    AA    RRRRR   N    N  II  N    N   GGGG   !!!           |
|           W    W   A  A   R    R  NN   N  II  NN   N  G    G  !!!           |
|           W    W  A    A  R    R  N N  N  II  N N  N  G       !!!           |
|           W WW W  AAAAAA  RRRRR   N  N N  II  N  N N  G  GGG   !            |
|           WW  WW  A    A  R   R   N   NN  II  N   NN  G    G                |
|           W    W  A    A  R    R  N    N  II  N    N   GGGG   !!!           |
|     Tetrahedron method does not include variations of the Fermi             |
|     occupations, so forces and stress will be inaccurate. We suggest        |
|     using a different smearing scheme ISMEAR = 1 or 2 for metals in         |
|     relaxations.                                                            |

 total charge

# of ion       s       p       d       tot
    1        0.450   0.282   9.191   9.923
    2        0.448   0.285   9.187   9.920
    3        0.448   0.285   9.187   9.920
    4        0.448   0.285   9.187   9.920
    5        0.451   0.284   9.187   9.922
    6        0.448   0.285   9.187   9.920
    7        0.448   0.285   9.187   9.920
    8        0.448   0.285   9.187   9.920
    9        0.447   0.285   9.186   9.919
   10        0.442   0.370   9.180   9.992
   11        0.439   0.371   9.181   9.991
   12        0.442   0.370   9.180   9.992
   13        0.439   0.371   9.181   9.991
   14        0.439   0.371   9.181   9.991
   15        0.439   0.368   9.181   9.988
   16        0.442   0.370   9.180   9.992
   17        0.439   0.368   9.181   9.988
   18        0.439   0.368   9.181   9.988
   19        0.443   0.368   9.183   9.993
   20        0.460   0.390   9.172  10.022
   21        0.460   0.390   9.172  10.022
   22        0.433   0.373   9.180   9.986
   23        0.460   0.390   9.172  10.022
   24        0.433   0.373   9.180   9.986
   25        0.443   0.368   9.183   9.993
   26        0.443   0.368   9.183   9.993
   27        0.433   0.373   9.180   9.986
   28        0.457   0.286   9.193   9.935
   29        0.446   0.304   9.190   9.940
   30        0.446   0.304   9.190   9.940
   31        0.446   0.304   9.190   9.940
   32        0.446   0.304   9.190   9.940
   33        0.446   0.304   9.190   9.940
   34        0.446   0.304   9.190   9.940
   35        0.451   0.287   9.194   9.932
   36        0.730   0.900   6.937   8.567
   37        1.357   2.175   0.000   3.532
tot         17.679  14.749 328.376 360.804

 BZINTS: Fermi energy:    0.131828;  398.000000 electrons
         Band energy:-0.108978E+04;  BLOECHL correction:   -0.075920