 vasp.6.2.0 18Jan21 (build Jun 12 2021 23:27:24) complex

 executed on             LinuxIFC date 2022.05.30  16:57:23

 INCAR:
   ISMEAR = -5
   SIGMA = 0.1
   ISPIN = 1
   EDIFF = 1.d-5
   EDIFFG = -0.01
   NSW = 0
   NELM = 150
   ENCUT = 500
   ISIF = 2
   IBRION = 2
   LREAL = Auto
   ALGO = Fast
   ICHARG = 11
   LORBIT = 10
   LCHARG = .F.
   LWAVE = .F.

 POTCAR:    PAW_PBE Ag 02Apr2005
 POTCAR:    PAW_PBE Mn 06Sep2000
 POTCAR:    PAW_PBE C 08Apr2002
|           W    W    AA    RRRRR   N    N  II  N    N   GGGG   !!!           |
|           W    W   A  A   R    R  NN   N  II  NN   N  G    G  !!!           |
|           W    W  A    A  R    R  N N  N  II  N N  N  G       !!!           |
|           W WW W  AAAAAA  RRRRR   N  N N  II  N  N N  G  GGG   !            |
|           WW  WW  A    A  R   R   N   NN  II  N   NN  G    G                |
|           W    W  A    A  R    R  N    N  II  N    N   GGGG   !!!           |
|     For optimal performance we recommend to set                             |
|       NCORE = 2 up to number-of-cores-per-socket                            |
|     This setting can greatly improve the performance of VASP for DFT.       |
|     The default, NCORE=1 might be grossly inefficient on modern             |
|     multi-core architectures or massively parallel machines. Do your        |
|     Unfortunately you need to use the default for GW and RPA                |
|     calculations (for HF NCORE is supported but not extensively tested      |
|     yet).                                                                   |

 POTCAR:    PAW_PBE Ag 02Apr2005
   VRHFIN =Ag : s1 d10

   TITEL  = PAW_PBE Ag 02Apr2005
   POMASS =  107.868; ZVAL   =   11.000    mass and valenz
   ENMAX  =  249.844; ENMIN  =  187.383 eV

 POTCAR:    PAW_PBE Mn 06Sep2000
   VRHFIN =Mn: d6 s1

   TITEL  = PAW_PBE Mn 06Sep2000
   POMASS =   54.938; ZVAL   =    7.000    mass and valenz
   ENMAX  =  269.864; ENMIN  =  202.398 eV

 POTCAR:    PAW_PBE C 08Apr2002
   VRHFIN =C: s2p2

   TITEL  = PAW_PBE C 08Apr2002
   POMASS =   12.011; ZVAL   =    4.000    mass and valenz
   ENMAX  =  400.000; ENMIN  =  300.000 eV

 Optimization of the real space projectors (new method)

 maximal supplied QI-value         = 15.12
 optimisation between [QCUT,QGAM] = [ 11.34, 22.83] = [ 36.00,145.93] Ry
 Optimized for a Real-space Cutoff    1.43 Angstroem

   l    n(q)    QCUT    max X(q) W(low)/X(q) W(high)/X(q)  e(spline)
   2      9    11.338    53.897    0.16E-03    0.20E-03    0.28E-06
   2      9    11.338    52.416    0.16E-03    0.20E-03    0.29E-06
   0     10    11.338   122.045    0.31E-04    0.76E-04    0.15E-06
   0     10    11.338    73.629    0.30E-04    0.72E-04    0.15E-06
   1      9    11.338    15.255    0.20E-03    0.19E-04    0.17E-06
   1      9    11.338     9.562    0.16E-03    0.15E-04    0.14E-06
 Optimization of the real space projectors (new method)

[...]

   l    n(q)    QCUT    max X(q) W(low)/X(q) W(high)/X(q)  e(spline)
   2      8    11.376   110.144    0.49E-03    0.27E-04    0.26E-06
   2      8    11.376   103.200    0.49E-03    0.28E-04    0.27E-06
   0      9    11.376    68.437    0.57E-04    0.92E-04    0.15E-06
   0      9    11.376    33.971    0.51E-04    0.83E-04    0.14E-06
   1      9    11.376    17.065    0.34E-03    0.68E-04    0.14E-06
   1      9    11.376    12.540    0.27E-03    0.59E-04    0.11E-06
 Optimization of the real space projectors (new method)

 maximal supplied QI-value         = 25.13
 optimisation between [QCUT,QGAM] = [ 11.31, 22.87] = [ 35.82,146.48] Ry
 Optimized for a Real-space Cutoff    1.00 Angstroem

   l    n(q)    QCUT    max X(q) W(low)/X(q) W(high)/X(q)  e(spline)
   0      7    11.310   115.676    0.43E-03    0.13E-02    0.19E-06
   0      7    11.310    87.132    0.43E-03    0.13E-02    0.18E-06
   1      6    11.310     4.429    0.42E-03    0.74E-03    0.11E-06
   1      6    11.310     2.733    0.34E-03    0.55E-03    0.92E-07
  PAW_PBE Ag 02Apr2005                  :
  PAW_PBE Mn 06Sep2000                  :
  PAW_PBE C 08Apr2002                   :

 POSCAR: Ag-Mn-C
  positions in direct lattice
  velocities in cartesian coordinates
 exchange correlation table for  LEXCH =        8
   RHO(1)=    0.500       N(1)  =     2000
   RHO(2)=  100.500       N(2)  =     4000

 VTST: version 3.2, (02/03/18)

 CHAIN: initializing optimizer

 OPT: Using VASP Conjugate-Gradient optimizer
 CHAIN: Read ICHAIN            0

 POSCAR: Ag-Mn-C
  positions in direct lattice
  velocities in cartesian coordinates

 ion  position               nearest neighbor table
   1  0.000  0.000  0.217-   2 2.93   8 2.93   7 2.93   6 2.93   4 2.93  12 2.93  16 2.93  10 2.93
                             3 2.93
   2  0.333  0.000  0.217-   1 2.93   8 2.93   9 2.93   3 2.93   4 2.93   5 2.93  10 2.93  17 2.93
                            11 2.93
   3  0.667  0.000  0.217-   9 2.93   2 2.93   5 2.93  11 2.93   7 2.93  18 2.93   1 2.93   6 2.93
                            12 2.93
   4  0.000  0.333  0.217-   5 2.93   6 2.93   2 2.93   1 2.93   7 2.93  13 2.93  15 2.93   9 2.93
                            10 2.93
   5  0.333  0.333  0.217-   4 2.93   3 2.93   7 2.93   2 2.93   8 2.93  14 2.93  13 2.93  11 2.93
                             6 2.93
   6  0.667  0.333  0.217-   4 2.93   9 2.93   1 2.93  15 2.93   8 2.93  12 2.93   3 2.93   5 2.93
                            14 2.93
   7  0.000  0.667  0.217-   8 2.93   1 2.93   5 2.93   3 2.93   4 2.93  16 2.93  18 2.93  13 2.93
                             9 2.93
   8  0.333  0.667  0.217-   7 2.93   1 2.93   2 2.93   9 2.93   5 2.93  16 2.93   6 2.93  17 2.93
                            14 2.93
   9  0.667  0.667  0.217-   3 2.93   2 2.93   8 2.93   6 2.93  17 2.93   4 2.93  15 2.93   7 2.93
                            18 2.93
  10  0.111  0.111  0.315-  20 2.92  19 2.93  26 2.93  12 2.93  16 2.93  15 2.93  17 2.93  13 2.93
                            11 2.93   2 2.93   1 2.93   4 2.93
  11  0.444  0.111  0.315-  21 2.90  20 2.90  27 2.92  14 2.93  17 2.93  18 2.93   3 2.93  12 2.93
                            13 2.93  10 2.93   5 2.93   2 2.93
  12  0.778  0.111  0.315-  21 2.92  25 2.93  19 2.93  10 2.93  16 2.93  18 2.93  15 2.93  11 2.93
                             1 2.93  14 2.93   6 2.93   3 2.93
  13  0.111  0.444  0.315-  20 2.90  23 2.90  22 2.92  15 2.93  14 2.93  18 2.93  10 2.93  11 2.93
                            16 2.93   4 2.93   5 2.93   7 2.93
  14  0.444  0.444  0.315-  23 2.90  21 2.90  24 2.92  13 2.93  11 2.93  16 2.93   5 2.93  12 2.93
                            17 2.93   8 2.93  15 2.93   6 2.93
  15  0.778  0.444  0.315-  24 2.92  22 2.92  19 2.92  13 2.93  10 2.93  12 2.93  17 2.93  18 2.93
                             4 2.93   6 2.93   9 2.93  14 2.93
  16  0.111  0.778  0.315-  23 2.92  26 2.93  25 2.93  18 2.93  12 2.93  10 2.93  14 2.93  17 2.93
                            13 2.93   7 2.93   8 2.93   1 2.93
  17  0.444  0.778  0.315-  27 2.92  24 2.92  26 2.92  11 2.93  10 2.93   9 2.93  18 2.93  15 2.93
                            16 2.93   2 2.93  14 2.93   8 2.93
  18  0.778  0.778  0.315-  22 2.92  27 2.92  25 2.92  16 2.93  12 2.93  13 2.93  11 2.93  17 2.93
                            15 2.93   7 2.93   3 2.93   9 2.93
  19  0.889  0.223  0.413-  28 2.91  15 2.92  10 2.93  12 2.93  24 2.93  22 2.93  26 2.94  25 2.94
                            20 2.94  21 2.94  32 2.95  31 2.95
  20  0.223  0.223  0.412-  36 2.71  31 2.90  29 2.90  13 2.90  11 2.90  21 2.91  23 2.91  10 2.92
                            27 2.93  22 2.93  19 2.94  26 2.94
  21  0.554  0.223  0.412-  36 2.71  30 2.90  32 2.90  11 2.90  14 2.90  20 2.91  23 2.91  12 2.92
                            27 2.93  24 2.93  25 2.94  19 2.94
  22  0.888  0.556  0.413-  35 2.91  18 2.92  15 2.92  13 2.92  24 2.93  27 2.93  33 2.93  31 2.93
                            25 2.93  19 2.93  23 2.93  20 2.93
  23  0.223  0.554  0.412-  36 2.71  34 2.90  33 2.90  14 2.90  13 2.90  21 2.91  20 2.91  16 2.92
                            22 2.93  24 2.93  26 2.94  25 2.94
  24  0.556  0.556  0.413-  35 2.91  15 2.92  17 2.92  14 2.92  27 2.93  22 2.93  32 2.93  34 2.93
                            19 2.93  26 2.93  23 2.93  21 2.93
  25  0.889  0.889  0.413-  28 2.91  18 2.92  16 2.93  12 2.93  22 2.93  27 2.93  26 2.94  19 2.94
                            23 2.94  21 2.94  33 2.95  30 2.95
  26  0.223  0.889  0.413-  28 2.91  17 2.92  16 2.93  10 2.93  27 2.93  24 2.93  25 2.94  19 2.94
                            23 2.94  20 2.94  34 2.95  29 2.95
  27  0.556  0.888  0.413-  35 2.91  17 2.92  18 2.92  11 2.92  24 2.93  22 2.93  29 2.93  30 2.93
                            26 2.93  25 2.93  20 2.93  21 2.93
  28  0.000  0.000  0.510-  26 2.91  25 2.91  19 2.91  29 2.97  34 2.97  33 2.97  32 2.97  31 2.97
                            30 2.97
  29  0.333  0.008  0.511-  31 2.86  30 2.86  36 2.87  20 2.90  27 2.93  26 2.95  28 2.97  35 2.97
                            34 3.07
  30  0.659  0.008  0.511-  32 2.86  29 2.86  36 2.87  21 2.90  27 2.93  25 2.95  28 2.97  35 2.97
                            33 3.07
  31  0.008  0.333  0.511-  29 2.86  33 2.86  36 2.87  20 2.90  22 2.93  19 2.95  28 2.97  35 2.97
                            32 3.07
  32  0.659  0.333  0.511-  30 2.86  34 2.86  36 2.87  21 2.90  24 2.93  19 2.95  28 2.97  35 2.97
                            31 3.07
  33  0.008  0.659  0.511-  34 2.86  31 2.86  36 2.87  23 2.90  22 2.93  25 2.95  28 2.97  35 2.97
                            30 3.07
  34  0.333  0.659  0.511-  33 2.86  32 2.86  36 2.87  23 2.90  24 2.93  26 2.95  28 2.97  35 2.97
                            29 3.07
  35  0.667  0.667  0.510-  24 2.91  27 2.91  22 2.91  32 2.97  30 2.97  29 2.97  34 2.97  31 2.97
                            33 2.97
  36  0.333  0.333  0.500-  37 1.60  21 2.71  20 2.71  23 2.71  31 2.87  30 2.87  33 2.87  29 2.87
                            34 2.87  32 2.87
  37  0.333  0.333  0.565-  36 1.60

  LATTYP: Found a hexagonal cell.
 ALAT       =     8.7913665772
 C/A-ratio  =     2.7711238095

  Lattice vectors:

 A1 = (  -4.3956832886,  -7.6135467898,   0.0000000000)
 A2 = (   8.7913665771,   0.0000000000,   0.0000000000)
 A3 = (   0.0000000000,   0.0000000000,  24.3619652401)

Analysis of symmetry for initial positions (statically):
 Subroutine PRICEL returns:
 Original cell was already a primitive cell.

 Routine SETGRP: Setting up the symmetry group for a
 hexagonal supercell.

 Subroutine GETGRP returns: Found  6 space group operations
 (whereof  6 operations were pure point group operations)
 out of a pool of 24 trial point group operations.

The static configuration has the point symmetry C_3v.

Analysis of symmetry for dynamics (positions and initial velocities):
 Subroutine PRICEL returns:
 Original cell was already a primitive cell.

[...]

The dynamic configuration has the point symmetry C_3v.

Analysis of constrained symmetry for selective dynamics:
 Subroutine PRICEL returns:
 Original cell was already a primitive cell.

 Routine SETGRP: Setting up the symmetry group for a
 hexagonal supercell.

 Subroutine GETGRP returns: Found  6 space group operations
[...]
     24      -5.1740      2.00000
     25      -5.1550      2.00000
     26      -5.1364      2.00000
     27      -5.1182      2.00000
     28      -5.1047      2.00000
     29      -5.0988      2.00000
     30      -5.0722      2.00000
     31      -5.0686      2.00000
     32      -5.0641      2.00000
     33      -5.0301      2.00000
     34      -4.9700      2.00000
     35      -4.9621      2.00000
     36      -4.9319      2.00000
     37      -4.9225      2.00000
     38      -4.9016      2.00000
     39      -4.8726      2.00000
     40      -4.8643      2.00000
     41      -4.8556      2.00000
     42      -4.8433      2.00000
     43      -4.8264      2.00000
     44      -4.7568      2.00000
     45      -4.7227      2.00000
     46      -4.7192      2.00000
     47      -4.7124      2.00000
     48      -4.7055      2.00000
     49      -4.6992      2.00000
     50      -4.6814      2.00000
     51      -4.6769      2.00000
     52      -4.6625      2.00000
     53      -4.6592      2.00000
     54      -4.5948      2.00000
     55      -4.5861      2.00000
     56      -4.5754      2.00000
     57      -4.5689      2.00000
     58      -4.5535      2.00000
     59      -4.5359      2.00000
     60      -4.5031      2.00000
[...]
    238       5.7869      0.00000
    239       5.8864      0.00000
    240       5.9429      0.00000
    241       6.4182      0.00000
    242       6.4295      0.00000
    243       6.5857      0.00000
    244       6.6246      0.00000
    245       6.6536      0.00000
    246       6.6827      0.00000
    247       6.7596      0.00000
    248       6.8402      0.00000
    249       6.9201      0.00000
    250       7.0801      0.00000
    251       7.1390      0.00000
    252       7.1805      0.00000

 soft charge-density along one line, spin component           1
         0         1         2         3         4         5         6         7         8         9
 total charge-density along one line

------------------------ aborting loop because EDIFF is reached ----------------------------------------

 total charge

# of ion       s       p       d       tot
    1        0.415   0.204   9.177   9.796
    2        0.417   0.203   9.176   9.796
    3        0.417   0.203   9.176   9.796
    4        0.417   0.203   9.176   9.796
    5        0.418   0.202   9.178   9.797
    6        0.417   0.203   9.176   9.796
    7        0.417   0.203   9.176   9.796
    8        0.417   0.203   9.176   9.796
    9        0.412   0.204   9.176   9.793
   10        0.404   0.270   9.164   9.838
   11        0.405   0.271   9.165   9.842
   12        0.404   0.270   9.164   9.838
   13        0.405   0.271   9.165   9.842
   14        0.405   0.271   9.165   9.842
   15        0.402   0.271   9.164   9.836
   16        0.404   0.270   9.164   9.838
   17        0.402   0.271   9.164   9.836
   18        0.402   0.271   9.164   9.836
   19        0.402   0.263   9.168   9.833
   20        0.423   0.295   9.149   9.866
   21        0.423   0.295   9.149   9.866
   22        0.396   0.277   9.163   9.836
   23        0.423   0.295   9.149   9.866
   24        0.396   0.277   9.163   9.836
   25        0.402   0.263   9.168   9.833
   26        0.402   0.263   9.168   9.833
   27        0.396   0.277   9.163   9.836
   28        0.418   0.192   9.178   9.789
   29        0.410   0.207   9.177   9.793
   30        0.410   0.207   9.177   9.793
   31        0.410   0.207   9.177   9.793
   32        0.410   0.207   9.177   9.793
   33        0.410   0.207   9.177   9.793
   34        0.410   0.207   9.177   9.793
   35        0.416   0.195   9.179   9.789
   36        0.357   0.343   5.416   6.116
   37        1.009   1.243   0.000   2.252
tot         15.701   9.979 326.343 352.023

  FORCE on cell =-STRESS in cart. coord.  units (eV):
  Direction    XX          YY          ZZ          XY          YZ          ZX
  Alpha Z   681.38800   681.38800   681.38800
  Ewald  153079.46880153079.46881************     0.00002    -0.00000     0.00002
  Hartree163000.25765163000.25766************     0.00001    -0.00000     0.00001
  E(xc)   -2075.26502 -2075.26500 -2081.45574    -0.00001     0.00000     0.00000
  Local  ************************327513.01834     0.00027    -0.00003    -0.00010
  n-local  -352.66968  -336.49418  -351.48779     9.90651    -0.39325     0.52131
  augment  3249.25629  3249.25640  3256.87219    -0.00009     0.00001     0.00009
  Kinetic  4893.77600  4896.88768  4911.17161     4.26631     0.69845    -0.21370
  Fock        0.00000     0.00000     0.00000     0.00000     0.00000     0.00000
  Total      -7.76116    -7.76116     0.41255    -0.00000     0.00000    -0.00000
  in kB      -7.62573    -7.62573     0.40535    -0.00000     0.00000    -0.00000

 VOLUME and BASIS-vectors are now :
  energy-cutoff  :      500.00
  volume of cell :     1630.63
      direct lattice vectors                 reciprocal lattice vectors
     8.791366577  0.000000000  0.000000000     0.113747958 -0.065672414  0.000000000
     4.395683289  7.613546790  0.000000000     0.000000000  0.131344829  0.000000000
     0.000000000  0.000000000 24.361965240     0.000000000  0.000000000  0.041047592

  length of vectors
     8.791366577  8.791366577 24.361965240     0.131344829  0.131344829  0.041047592

 FORCES acting on ions
    electron-ion (+dipol)            ewald-force                    non-local-force                 convergence-correction
   0.464E-04 -.280E-04 0.267E+04   -.954E-04 0.593E-04 -.267E+04   0.136E-16 0.505E-17 -.194E+01   -.105E-03 -.168E-03 -.439E+00
   0.336E+00 0.537E+00 0.267E+04   -.391E+00 -.343E+00 -.267E+04   0.653E-02 -.212E-01 -.171E+01   0.462E-01 -.164E+00 -.415E+00
   -.336E+00 0.537E+00 0.267E+04   0.391E+00 -.343E+00 -.267E+04   -.653E-02 -.212E-01 -.171E+01   -.468E-01 -.162E+00 -.415E+00
   0.634E+00 0.224E-01 0.267E+04   -.493E+00 -.167E+00 -.267E+04   -.151E-01 0.163E-01 -.171E+01   -.119E+00 0.122E+00 -.415E+00
   -.689E-05 -.194E-04 0.267E+04   0.981E-04 -.200E-05 -.267E+04   0.156E-17 -.105E-17 -.171E+01   0.624E-02 0.381E-02 -.317E+00
   -.634E+00 0.225E-01 0.267E+04   0.493E+00 -.167E+00 -.267E+04   0.151E-01 0.163E-01 -.171E+01   0.118E+00 0.123E+00 -.415E+00
   0.297E+00 -.560E+00 0.267E+04   -.102E+00 0.510E+00 -.267E+04   -.217E-01 0.497E-02 -.171E+01   -.164E+00 0.412E-01 -.415E+00
   -.297E+00 -.560E+00 0.267E+04   0.102E+00 0.510E+00 -.267E+04   0.217E-01 0.497E-02 -.171E+01   0.165E+00 0.403E-01 -.415E+00
   0.362E-04 -.131E-04 0.267E+04   0.792E-04 -.643E-04 -.267E+04   0.346E-17 0.108E-17 -.188E+01   -.666E-02 -.343E-02 -.528E+00
   0.344E+01 0.198E+01 0.892E+03   -.325E+01 -.187E+01 -.891E+03   -.174E+00 -.101E+00 -.593E+00   -.172E-01 -.993E-02 -.398E+00
   -.289E-04 0.406E+01 0.899E+03   0.414E-04 -.407E+01 -.898E+03   0.326E-12 0.496E-01 -.760E+00   0.629E-02 -.666E-01 -.485E+00
   -.344E+01 0.198E+01 0.892E+03   0.325E+01 -.187E+01 -.891E+03   0.174E+00 -.101E+00 -.593E+00   0.157E-01 -.885E-02 -.398E+00
   0.352E+01 -.203E+01 0.899E+03   -.353E+01 0.204E+01 -.898E+03   0.429E-01 -.248E-01 -.760E+00   -.547E-01 0.388E-01 -.485E+00
   -.352E+01 -.203E+01 0.899E+03   0.353E+01 0.204E+01 -.898E+03   -.429E-01 -.248E-01 -.760E+00   0.653E-01 0.380E-01 -.486E+00
   0.162E-04 0.115E+01 0.894E+03   -.108E-03 -.124E+01 -.893E+03   0.161E-12 0.245E-01 -.602E+00   -.163E-02 0.425E-01 -.427E+00
   -.783E-05 -.397E+01 0.892E+03   0.207E-04 0.375E+01 -.891E+03   0.132E-11 0.201E+00 -.593E+00   0.124E-03 0.179E-01 -.398E+00
   0.998E+00 -.576E+00 0.894E+03   -.107E+01 0.618E+00 -.893E+03   0.212E-01 -.123E-01 -.602E+00   0.360E-01 -.227E-01 -.427E+00
   -.999E+00 -.577E+00 0.894E+03   0.107E+01 0.618E+00 -.893E+03   -.212E-01 -.123E-01 -.602E+00   -.360E-01 -.208E-01 -.426E+00
   0.395E-04 0.223E+00 -.912E+03   -.127E-03 -.159E+00 0.911E+03   0.132E-12 0.201E-01 0.845E+00   -.154E-03 -.820E-01 -.115E+00
   0.107E+02 0.619E+01 -.889E+03   -.988E+01 -.570E+01 0.890E+03   -.638E+00 -.368E+00 -.569E+00   -.365E+00 -.211E+00 -.616E+00
   -.107E+02 0.619E+01 -.889E+03   0.988E+01 -.570E+01 0.890E+03   0.638E+00 -.368E+00 -.569E+00   0.365E+00 -.210E+00 -.616E+00
   0.313E+01 -.181E+01 -.902E+03   -.320E+01 0.185E+01 0.901E+03   0.281E+00 -.162E+00 0.659E+00   -.182E+00 0.106E+00 -.267E+00
   -.567E-04 -.124E+02 -.889E+03   0.424E-04 0.114E+02 0.890E+03   0.484E-11 0.737E+00 -.569E+00   0.788E-03 0.421E+00 -.616E+00
   -.313E+01 -.181E+01 -.902E+03   0.320E+01 0.185E+01 0.901E+03   -.281E+00 -.162E+00 0.659E+00   0.182E+00 0.105E+00 -.268E+00
   -.193E+00 -.112E+00 -.912E+03   0.138E+00 0.796E-01 0.911E+03   -.174E-01 -.101E-01 0.845E+00   0.714E-01 0.410E-01 -.116E+00
   0.193E+00 -.112E+00 -.912E+03   -.138E+00 0.795E-01 0.911E+03   0.174E-01 -.101E-01 0.845E+00   -.714E-01 0.408E-01 -.115E+00
   0.205E-04 0.361E+01 -.902E+03   0.110E-03 -.369E+01 0.901E+03   0.213E-11 0.324E+00 0.659E+00   -.240E-03 -.211E+00 -.267E+00
   0.541E-04 -.367E-04 -.266E+04   -.114E-03 0.774E-04 0.266E+04   -.151E-16 -.657E-17 0.197E+01   0.128E-02 0.602E-03 0.142E+00
   0.161E+02 0.264E+02 -.266E+04   -.151E+02 -.251E+02 0.266E+04   -.530E+00 -.795E+00 0.248E+01   -.416E+00 -.581E+00 0.124E+00
   -.161E+02 0.264E+02 -.266E+04   0.151E+02 -.251E+02 0.266E+04   0.530E+00 -.795E+00 0.248E+01   0.405E+00 -.579E+00 0.124E+00
   0.309E+02 0.680E+00 -.266E+04   -.293E+02 -.550E+00 0.266E+04   -.954E+00 -.617E-01 0.248E+01   -.711E+00 -.699E-01 0.124E+00
   -.309E+02 0.680E+00 -.266E+04   0.293E+02 -.551E+00 0.266E+04   0.954E+00 -.617E-01 0.248E+01   0.699E+00 -.690E-01 0.124E+00
   0.149E+02 -.271E+02 -.266E+04   -.142E+02 0.257E+02 0.266E+04   -.424E+00 0.857E+00 0.248E+01   -.298E+00 0.641E+00 0.123E+00
   -.149E+02 -.271E+02 -.266E+04   0.142E+02 0.257E+02 0.266E+04   0.424E+00 0.857E+00 0.248E+01   0.290E+00 0.640E+00 0.123E+00
   0.235E-04 -.133E-04 -.266E+04   0.105E-03 -.655E-04 0.266E+04   -.175E-17 0.171E-17 0.210E+01   -.534E-02 -.265E-02 0.164E+00
   -.229E-04 -.144E-04 -.149E+04   0.674E-04 0.931E-05 0.149E+04   0.126E-17 0.559E-19 0.345E+01   0.370E-02 0.223E-02 0.403E-01
   0.480E-04 -.246E-04 -.121E+04   0.221E-04 0.389E-06 0.122E+04   0.938E-18 -.725E-18 -.695E+01   0.101E-02 0.610E-03 0.600E+00
   0.378E-03 -.732E-03 0.123E+02   0.498E-13 -.301E-12 -.682E-12   0.454E-18 0.334E-15 -.338E+01   -.172E-01 -.663E-02 -.901E+01

 POSITION                                       TOTAL-FORCE (eV/Angst)
      0.00000      0.00000      5.28219        -0.000000      0.000000      0.028516
      2.93046      0.00000      5.28219        -0.001037      0.009346      0.027318
      5.86091      0.00000      5.28219         0.001037      0.009346      0.027318
      1.46523      2.53785      5.28219         0.007575     -0.005571      0.027318
      4.39568      2.53785      5.28219        -0.000000      0.000000     -0.014405
      7.32614      2.53785      5.28219        -0.007575     -0.005571      0.027318
      2.93046      5.07570      5.28219         0.008612     -0.003775      0.027318
      5.86091      5.07570      5.28219        -0.008612     -0.003775      0.027318
      8.79137      5.07570      5.28219        -0.000000      0.000000      0.049440
      1.46523      0.84595      7.67490         0.001663      0.000960      0.000392
      4.39568      0.84595      7.67490        -0.000000     -0.030869     -0.056910
      7.32614      0.84595      7.67490        -0.001663      0.000960      0.000392
      2.93046      3.38380      7.67490        -0.026733      0.015434     -0.056910
      5.86091      3.38380      7.67490         0.026733      0.015434     -0.056910
      8.79137      3.38380      7.67490        -0.000000     -0.015699      0.017242
      4.39568      5.92165      7.67490        -0.000000     -0.001920      0.000392
      7.32614      5.92165      7.67490        -0.013596      0.007849      0.017242
     10.25659      5.92165      7.67490         0.013596      0.007849      0.017242
      8.79137      1.69455     10.06139         0.000000      0.002268      0.028471
      2.94158      1.69832     10.04035        -0.152425     -0.088003     -0.082641
      5.84978      1.69832     10.04035         0.152425     -0.088003     -0.082641
     10.25392      4.23129     10.05365         0.028648     -0.016540      0.025489
      4.39568      4.21690     10.04035         0.000000      0.176005     -0.082641
      7.32881      4.23129     10.05365        -0.028648     -0.016540      0.025489
     11.71953      6.76627     10.06139        -0.001964     -0.001134      0.028471
      5.86321      6.76627     10.06139         0.001964     -0.001134      0.028471
      8.79137      6.76451     10.05365         0.000000      0.033079      0.025489
      0.00000      0.00000     12.42536        -0.000000      0.000000     -0.006490
      2.96459      0.05999     12.43855        -0.015458     -0.029006     -0.044905
      5.82677      0.05999     12.43855         0.015458     -0.029006     -0.044905
      1.53425      2.53742     12.43855        -0.032849      0.001116     -0.044905
      7.25712      2.53742     12.43855         0.032849      0.001116     -0.044905
      2.96534      5.01614     12.43855        -0.017391      0.027890     -0.044905
      5.82603      5.01614     12.43855         0.017391      0.027890     -0.044905
      8.79137      5.07570     12.42471        -0.000000      0.000000     -0.013345
      4.39568      2.53785     12.16969        -0.000000      0.000000      0.318963
      4.39568      2.53785     13.77317        -0.000000      0.000000     -0.053287
    total drift:                               -0.016783     -0.007358     -0.099840

  FREE ENERGIE OF THE ION-ELECTRON SYSTEM (eV)
  free  energy   TOTEN  =      -102.67644571 eV

  energy  without entropy=     -102.67644571  energy(sigma->0) =     -102.67644571

 stress matrix after NEB project (eV)
     -7.76116     -0.00000     -0.00000
     -0.00000     -7.76116      0.00000
      0.00000      0.00000      0.41255
  FORCES: max atom, RMS     0.053287    0.008760
  FORCE total and by dimension    0.053287    0.053287
  Stress total and by dimension   10.983691    7.761162
|           W    W    AA    RRRRR   N    N  II  N    N   GGGG   !!!           |
|           W    W   A  A   R    R  NN   N  II  NN   N  G    G  !!!           |
|           W    W  A    A  R    R  N N  N  II  N N  N  G       !!!           |
|           W WW W  AAAAAA  RRRRR   N  N N  II  N  N N  G  GGG   !            |
|           WW  WW  A    A  R   R   N   NN  II  N   NN  G    G                |
|           W    W  A    A  R    R  N    N  II  N    N   GGGG   !!!           |
|     Tetrahedron method does not include variations of the Fermi             |
|     occupations, so forces and stress will be inaccurate. We suggest        |
|     using a different smearing scheme ISMEAR = 1 or 2 for metals in         |
|     relaxations.                                                            |

 total charge

# of ion       s       p       d       tot
    1        0.415   0.204   9.177   9.796
    2        0.417   0.203   9.176   9.796
    3        0.417   0.203   9.176   9.796
    4        0.417   0.203   9.176   9.796
    5        0.418   0.202   9.178   9.797
    6        0.417   0.203   9.176   9.796
    7        0.417   0.203   9.176   9.796
    8        0.417   0.203   9.176   9.796
    9        0.412   0.204   9.176   9.793
   10        0.404   0.270   9.164   9.838
   11        0.405   0.271   9.165   9.842
   12        0.404   0.270   9.164   9.838
   13        0.405   0.271   9.165   9.842
   14        0.405   0.271   9.165   9.842
   15        0.402   0.271   9.164   9.836
   16        0.404   0.270   9.164   9.838
   17        0.402   0.271   9.164   9.836
   18        0.402   0.271   9.164   9.836
   19        0.402   0.263   9.168   9.833
   20        0.423   0.295   9.149   9.866
   21        0.423   0.295   9.149   9.866
   22        0.396   0.277   9.163   9.836
   23        0.423   0.295   9.149   9.866
   24        0.396   0.277   9.163   9.836
   25        0.402   0.263   9.168   9.833
   26        0.402   0.263   9.168   9.833
   27        0.396   0.277   9.163   9.836
   28        0.418   0.192   9.178   9.789
   29        0.410   0.207   9.177   9.793
   30        0.410   0.207   9.177   9.793
   31        0.410   0.207   9.177   9.793
   32        0.410   0.207   9.177   9.793
   33        0.410   0.207   9.177   9.793
   34        0.410   0.207   9.177   9.793
   35        0.416   0.195   9.179   9.789
   36        0.357   0.343   5.416   6.116
   37        1.009   1.243   0.000   2.252
tot         15.701   9.979 326.343 352.023

 BZINTS: Fermi energy:    0.276338;  396.000000 electrons
         Band energy:-0.149751E+04;  BLOECHL correction:   -0.028494