 vasp.6.2.0 18Jan21 (build Jun 12 2021 23:27:24) complex

 executed on             LinuxIFC date 2022.05.26  20:06:13

 INCAR:
   ISMEAR = -5
   SIGMA = 0.1
   ISPIN = 1
   EDIFF = 1.d-5
   EDIFFG = -0.01
   NSW = 0
   NELM = 150
   ENCUT = 500
   ISIF = 2
   IBRION = 2
   LREAL = Auto
   ALGO = Fast
   ICHARG = 11
   LORBIT = 10
   LCHARG = .F.
   LWAVE = .F.

 POTCAR:    PAW_PBE Cu 22Jun2005
 POTCAR:    PAW_PBE Hf 20Jan2003
 POTCAR:    PAW_PBE N 08Apr2002
|           W    W    AA    RRRRR   N    N  II  N    N   GGGG   !!!           |
|           W    W   A  A   R    R  NN   N  II  NN   N  G    G  !!!           |
|           W    W  A    A  R    R  N N  N  II  N N  N  G       !!!           |
|           W WW W  AAAAAA  RRRRR   N  N N  II  N  N N  G  GGG   !            |
|           WW  WW  A    A  R   R   N   NN  II  N   NN  G    G                |
|           W    W  A    A  R    R  N    N  II  N    N   GGGG   !!!           |
|     For optimal performance we recommend to set                             |
|       NCORE = 2 up to number-of-cores-per-socket                            |
|     This setting can greatly improve the performance of VASP for DFT.       |
|     The default, NCORE=1 might be grossly inefficient on modern             |
|     multi-core architectures or massively parallel machines. Do your        |
|     Unfortunately you need to use the default for GW and RPA                |
|     calculations (for HF NCORE is supported but not extensively tested      |
|     yet).                                                                   |

 POTCAR:    PAW_PBE Cu 22Jun2005
   VRHFIN =Cu: d10 p1

   TITEL  = PAW_PBE Cu 22Jun2005
   POMASS =   63.546; ZVAL   =   11.000    mass and valenz
   ENMAX  =  295.446; ENMIN  =  221.585 eV

 POTCAR:    PAW_PBE Hf 20Jan2003
   VRHFIN =Hf: 6s5d

   TITEL  = PAW_PBE Hf 20Jan2003
   POMASS =  178.490; ZVAL   =    4.000    mass and valenz
   ENMAX  =  220.334; ENMIN  =  165.250 eV

 POTCAR:    PAW_PBE N 08Apr2002
   VRHFIN =N: s2p3

   TITEL  = PAW_PBE N 08Apr2002
   POMASS =   14.001; ZVAL   =    5.000    mass and valenz
   ENMAX  =  400.000; ENMIN  =  300.000 eV

 Optimization of the real space projectors (new method)

 maximal supplied QI-value         = 16.25
 optimisation between [QCUT,QGAM] = [ 11.38, 22.75] = [ 36.24,144.96] Ry
 Optimized for a Real-space Cutoff    1.52 Angstroem

   l    n(q)    QCUT    max X(q) W(low)/X(q) W(high)/X(q)  e(spline)
   2      9    11.376     4.610    0.21E-03    0.10E-03    0.26E-06
   2      9    11.376     8.522    0.33E-03    0.16E-03    0.37E-06
   0     10    11.376    51.609    0.62E-04    0.20E-04    0.13E-06
   0     10    11.376    27.747    0.54E-04    0.20E-04    0.13E-06
   1     10    11.376    20.408    0.13E-04    0.99E-04    0.19E-06
   1     10    11.376    13.425    0.12E-04    0.87E-04    0.17E-06
 Optimization of the real space projectors (new method)

[...]

   l    n(q)    QCUT    max X(q) W(low)/X(q) W(high)/X(q)  e(spline)
   2     10    11.350    48.111    0.20E-03    0.11E-03    0.41E-06
   2     10    11.350    40.545    0.19E-03    0.10E-03    0.39E-06
   0     11    11.350   121.658    0.22E-04    0.19E-04    0.24E-06
   0     11    11.350    71.177    0.17E-04    0.17E-04    0.23E-06
   1     11    11.350    14.183    0.25E-03    0.43E-03    0.12E-05
   1     11    11.350     8.257    0.17E-03    0.29E-03    0.81E-06
 Optimization of the real space projectors (new method)

 maximal supplied QI-value         = 25.13
 optimisation between [QCUT,QGAM] = [ 11.31, 22.87] = [ 35.82,146.48] Ry
 Optimized for a Real-space Cutoff    1.27 Angstroem

   l    n(q)    QCUT    max X(q) W(low)/X(q) W(high)/X(q)  e(spline)
   0      9    11.310    79.467    0.75E-04    0.16E-03    0.36E-06
   0      9    11.310    66.151    0.74E-04    0.16E-03    0.36E-06
   1      8    11.310    17.416    0.35E-03    0.12E-03    0.95E-06
   1      8    11.310    12.382    0.37E-03    0.13E-03    0.98E-06
  PAW_PBE Cu 22Jun2005                  :
  PAW_PBE Hf 20Jan2003                  :
  PAW_PBE N 08Apr2002                   :

 POSCAR: Cu-Hf-N
  positions in direct lattice
  velocities in cartesian coordinates
 exchange correlation table for  LEXCH =        8
   RHO(1)=    0.500       N(1)  =     2000
   RHO(2)=  100.500       N(2)  =     4000

 VTST: version 3.2, (02/03/18)

 CHAIN: initializing optimizer

 OPT: Using VASP Conjugate-Gradient optimizer
 CHAIN: Read ICHAIN            0

 POSCAR: Cu-Hf-N
  positions in direct lattice
  velocities in cartesian coordinates

 ion  position               nearest neighbor table
   1  0.000  0.000  0.252-   7 2.57   3 2.57   4 2.57   2 2.57   6 2.57   8 2.57  12 2.57  10 2.57
                            16 2.57
   2  0.333  0.000  0.252-   8 2.57   9 2.57   5 2.57   1 2.57   3 2.57  11 2.57   4 2.57  10 2.57
                            17 2.57
   3  0.667  0.000  0.252-   1 2.57   7 2.57   6 2.57   9 2.57   2 2.57  12 2.57   5 2.57  18 2.57
                            11 2.57
   4  0.000  0.333  0.252-   5 2.57   6 2.57   1 2.57   7 2.57   2 2.57  13 2.57   9 2.57  10 2.57
                            15 2.57
   5  0.333  0.333  0.252-   4 2.57   2 2.57   7 2.57  13 2.57   8 2.57   6 2.57   3 2.57  11 2.57
                            14 2.57
   6  0.667  0.333  0.252-   4 2.57   9 2.57  15 2.57   3 2.57   1 2.57   8 2.57  14 2.57   5 2.57
                            12 2.57
   7  0.000  0.667  0.252-   1 2.57   3 2.57  16 2.57  18 2.57   4 2.57   5 2.57   8 2.57   9 2.57
                            13 2.57
   8  0.333  0.667  0.252-   9 2.57   2 2.57  17 2.57   6 2.57   1 2.57   7 2.57   5 2.57  14 2.57
                            16 2.57
   9  0.667  0.667  0.252-   8 2.57   6 2.57   2 2.57  17 2.57   3 2.57   7 2.57   4 2.57  15 2.57
                            18 2.57
  10  0.111  0.111  0.351-  26 2.54  19 2.54  11 2.57  12 2.57  13 2.57   1 2.57   2 2.57   4 2.57
                            15 2.57  16 2.57  17 2.57  20 2.58
  11  0.444  0.111  0.351-  27 2.56  10 2.57  13 2.57   2 2.57  17 2.57  14 2.57  12 2.57   5 2.57
                             3 2.57  18 2.57  20 2.57  21 2.57
  12  0.778  0.111  0.351-  19 2.54  25 2.54  15 2.57  10 2.57  14 2.57  18 2.57   3 2.57   1 2.57
                            16 2.57  11 2.57   6 2.57  21 2.58
  13  0.111  0.444  0.351-  22 2.56  16 2.57  18 2.57  10 2.57  11 2.57  14 2.57   5 2.57   4 2.57
                             7 2.57  15 2.57  23 2.57  20 2.57
  14  0.444  0.444  0.351-  24 2.56  15 2.57  17 2.57  12 2.57  16 2.57  13 2.57  11 2.57   6 2.57
                             8 2.57   5 2.57  21 2.57  23 2.57
  15  0.778  0.444  0.351-  19 2.55  24 2.56  22 2.56  14 2.57  17 2.57  12 2.57   6 2.57  18 2.57
                            10 2.57   9 2.57  13 2.57   4 2.57
  16  0.111  0.778  0.351-  25 2.54  26 2.54  18 2.57  13 2.57   7 2.57  14 2.57  17 2.57  12 2.57
                            10 2.57   8 2.57   1 2.57  23 2.58
  17  0.444  0.778  0.351-  26 2.55  27 2.56  24 2.56  14 2.57  15 2.57   8 2.57   9 2.57  11 2.57
                            16 2.57  18 2.57  10 2.57   2 2.57
  18  0.778  0.778  0.351-  25 2.55  22 2.56  27 2.56  16 2.57  13 2.57   7 2.57  15 2.57  12 2.57
                            17 2.57   9 2.57   3 2.57  11 2.57
  19  0.889  0.221  0.448-  12 2.54  10 2.54  15 2.55  25 2.56  26 2.56  32 2.57  31 2.57  22 2.57
                            24 2.57  21 2.57  20 2.57  28 2.57
  20  0.223  0.223  0.450-  23 2.55  21 2.55  27 2.57  22 2.57  26 2.57  19 2.57  11 2.57  13 2.57
                            10 2.58  29 2.58  31 2.58  36 2.77
  21  0.555  0.223  0.450-  20 2.55  23 2.55  24 2.57  27 2.57  19 2.57  25 2.57  14 2.57  11 2.57
                            12 2.58  32 2.58  30 2.58  36 2.77
  22  0.889  0.556  0.449-  18 2.56  15 2.56  13 2.56  24 2.56  27 2.56  23 2.57  20 2.57  31 2.57
                            33 2.57  19 2.57  25 2.57  35 2.58
  23  0.223  0.555  0.450-  20 2.55  21 2.55  22 2.57  24 2.57  25 2.57  26 2.57  13 2.57  14 2.57
                            16 2.58  33 2.58  34 2.58  36 2.77
  24  0.556  0.556  0.449-  15 2.56  17 2.56  14 2.56  22 2.56  27 2.56  21 2.57  23 2.57  32 2.57
                            34 2.57  19 2.57  26 2.57  35 2.58
  25  0.889  0.889  0.448-  12 2.54  16 2.54  18 2.55  19 2.56  26 2.56  33 2.57  30 2.57  22 2.57
                            27 2.57  21 2.57  23 2.57  28 2.57
  26  0.221  0.889  0.448-  10 2.54  16 2.54  17 2.55  25 2.56  19 2.56  29 2.57  34 2.57  27 2.57
                            24 2.57  20 2.57  23 2.57  28 2.57
  27  0.556  0.889  0.449-  17 2.56  18 2.56  11 2.56  24 2.56  22 2.56  20 2.57  21 2.57  29 2.57
                            30 2.57  26 2.57  25 2.57  35 2.58
  28  0.000  0.000  0.547-  33 2.55  30 2.55  31 2.55  29 2.55  32 2.55  34 2.55  25 2.57  19 2.57
                            26 2.57
  29  0.334  0.994  0.548-  34 2.48  35 2.54  28 2.55  26 2.57  27 2.57  20 2.58  30 2.60  31 2.61
                            36 2.62
  30  0.672  0.994  0.548-  33 2.48  35 2.54  28 2.55  25 2.57  27 2.57  21 2.58  29 2.60  32 2.61
                            36 2.62
  31  0.994  0.334  0.548-  32 2.48  35 2.54  28 2.55  19 2.57  22 2.57  20 2.58  33 2.60  29 2.61
                            36 2.62
  32  0.672  0.334  0.548-  31 2.48  35 2.54  28 2.55  19 2.57  24 2.57  21 2.58  34 2.60  30 2.61
                            36 2.62
  33  0.994  0.672  0.548-  30 2.48  35 2.54  28 2.55  25 2.57  22 2.57  23 2.58  31 2.60  34 2.61
                            36 2.62
  34  0.334  0.672  0.548-  29 2.48  35 2.54  28 2.55  26 2.57  24 2.57  23 2.58  32 2.60  33 2.61
                            36 2.62
  35  0.667  0.667  0.548-  34 2.54  32 2.54  29 2.54  30 2.54  33 2.54  31 2.54  24 2.58  27 2.58
                            22 2.58
  36  0.333  0.333  0.560-  37 1.84  31 2.62  29 2.62  33 2.62  32 2.62  34 2.62  30 2.62  23 2.77
                            20 2.77  21 2.77
  37  0.333  0.333  0.646-  36 1.84

  LATTYP: Found a hexagonal cell.
 ALAT       =     7.6967864036
 C/A-ratio  =     2.7653617908

  Lattice vectors:

 A1 = (  -3.8483927580,  -6.6656128093,   0.0000000000)
 A2 = (   7.6967864037,   0.0000000000,   0.0000000000)
 A3 = (   0.0000000000,   0.0000000000,  21.2843990326)

Analysis of symmetry for initial positions (statically):
 Subroutine PRICEL returns:
 Original cell was already a primitive cell.

 Routine SETGRP: Setting up the symmetry group for a
 hexagonal supercell.

 Subroutine GETGRP returns: Found  6 space group operations
 (whereof  6 operations were pure point group operations)
 out of a pool of 24 trial point group operations.

The static configuration has the point symmetry C_3v.

Analysis of symmetry for dynamics (positions and initial velocities):
 Subroutine PRICEL returns:
 Original cell was already a primitive cell.

[...]

The dynamic configuration has the point symmetry C_3v.

Analysis of constrained symmetry for selective dynamics:
 Subroutine PRICEL returns:
 Original cell was already a primitive cell.

 Routine SETGRP: Setting up the symmetry group for a
 hexagonal supercell.

 Subroutine GETGRP returns: Found  6 space group operations
[...]
     24      -4.6109      2.00000
     25      -4.4501      2.00000
     26      -4.4327      2.00000
     27      -4.4129      2.00000
     28      -4.3709      2.00000
     29      -4.3630      2.00000
     30      -4.3526      2.00000
     31      -4.3510      2.00000
     32      -4.3425      2.00000
     33      -4.3410      2.00000
     34      -4.2989      2.00000
     35      -4.2708      2.00000
     36      -4.2063      2.00000
     37      -4.1877      2.00000
     38      -4.0402      2.00000
     39      -4.0262      2.00000
     40      -3.9782      2.00000
     41      -3.9662      2.00000
     42      -3.9443      2.00000
     43      -3.9311      2.00000
     44      -3.9209      2.00000
     45      -3.9184      2.00000
     46      -3.9082      2.00000
     47      -3.7588      2.00000
     48      -3.7289      2.00000
     49      -3.7105      2.00000
     50      -3.6939      2.00000
     51      -3.6477      2.00000
     52      -3.6413      2.00000
     53      -3.6281      2.00000
     54      -3.6194      2.00000
     55      -3.6051      2.00000
     56      -3.6036      2.00000
     57      -3.5748      2.00000
     58      -3.5552      2.00000
     59      -3.5501      2.00000
     60      -3.5401      2.00000
[...]
    238       6.5499      0.00000
    239       6.6625      0.00000
    240       6.8992      0.00000
    241       7.1120      0.00000
    242       7.1219      0.00000
    243       7.1557      0.00000
    244       7.1607      0.00000
    245       7.1844      0.00000
    246       7.2417      0.00000
    247       7.4074      0.00000
    248       7.5464      0.00000
    249       7.5884      0.00000
    250       7.6086      0.00000
    251       7.7649      0.00000
    252       7.8710      0.00000

 soft charge-density along one line, spin component           1
         0         1         2         3         4         5         6         7         8         9
 total charge-density along one line

------------------------ aborting loop because EDIFF is reached ----------------------------------------

 total charge

# of ion       s       p       d       tot
    1        0.449   0.284   9.187   9.921
    2        0.447   0.285   9.187   9.919
    3        0.447   0.285   9.187   9.919
    4        0.447   0.285   9.187   9.919
    5        0.450   0.283   9.186   9.919
    6        0.447   0.285   9.187   9.919
    7        0.447   0.285   9.187   9.919
    8        0.447   0.285   9.187   9.919
    9        0.449   0.284   9.188   9.921
   10        0.440   0.372   9.180   9.992
   11        0.441   0.366   9.180   9.987
   12        0.440   0.372   9.180   9.992
   13        0.441   0.366   9.180   9.987
   14        0.441   0.366   9.180   9.987
   15        0.440   0.373   9.177   9.990
   16        0.440   0.372   9.180   9.992
   17        0.440   0.373   9.177   9.990
   18        0.440   0.373   9.177   9.990
   19        0.442   0.371   9.181   9.994
   20        0.448   0.377   9.175  10.000
   21        0.448   0.377   9.175  10.000
   22        0.433   0.373   9.180   9.986
   23        0.448   0.377   9.175  10.000
   24        0.433   0.373   9.180   9.986
   25        0.442   0.371   9.181   9.994
   26        0.442   0.371   9.181   9.994
   27        0.433   0.373   9.180   9.986
   28        0.449   0.292   9.187   9.928
   29        0.478   0.303   9.181   9.961
   30        0.478   0.303   9.181   9.961
   31        0.478   0.303   9.181   9.961
   32        0.478   0.303   9.181   9.961
   33        0.478   0.303   9.181   9.961
   34        0.478   0.303   9.181   9.961
   35        0.449   0.293   9.186   9.928
   36        0.652   0.618   2.695   3.965
   37        1.330   2.179   0.000   3.509
tot         17.712  14.454 324.048 356.214

  FORCE on cell =-STRESS in cart. coord.  units (eV):
  Direction    XX          YY          ZZ          XY          YZ          ZX
  Alpha Z   877.15626   877.15626   877.15626
  Ewald  168981.20980168981.20949************     0.00034     0.00014     0.00016
  Hartree181761.85854181761.85858************     0.00001     0.00007     0.00005
  E(xc)   -2284.04157 -2284.04112 -2291.36262    -0.00038    -0.00004    -0.00006
  Local  ************************363546.52902     0.01853    -0.00060    -0.00092
  n-local  -765.54320  -754.56671  -775.58313     6.36406    -0.09114     0.26660
  augment  3308.17996  3308.19976  3330.17221    -0.01716     0.00021     0.00038
  Kinetic  3260.59351  3262.13577  3290.82484     3.09476     1.76523    -1.30143
  Fock        0.00000     0.00000     0.00000     0.00000     0.00000     0.00000
  Total      -0.81791    -0.81791    -1.57069     0.00000    -0.00000     0.00000
  in kB      -1.20006    -1.20006    -2.30457     0.00000    -0.00000     0.00000

 VOLUME and BASIS-vectors are now :
  energy-cutoff  :      500.00
  volume of cell :     1091.97
      direct lattice vectors                 reciprocal lattice vectors
     7.696786404  0.000000000  0.000000000     0.129924354 -0.075011849  0.000000000
     3.848392758  6.665612809  0.000000000     0.000000000  0.150023716  0.000000000
     0.000000000  0.000000000 21.284399033     0.000000000  0.000000000  0.046982769

  length of vectors
     7.696786404  7.696786404 21.284399033     0.150023716  0.150023716  0.046982769

 FORCES acting on ions
    electron-ion (+dipol)            ewald-force                    non-local-force                 convergence-correction
   -.413E-04 0.314E-06 0.345E+04   0.581E-04 -.423E-05 -.344E+04   -.280E-17 -.342E-17 -.216E+01   -.222E-03 -.147E-03 -.270E+00
   -.128E+01 -.176E+01 0.345E+04   0.116E+01 0.146E+01 -.344E+04   0.401E-01 0.140E+00 -.205E+01   0.836E-01 0.154E+00 -.337E+00
   0.128E+01 -.176E+01 0.345E+04   -.116E+01 0.146E+01 -.344E+04   -.401E-01 0.140E+00 -.205E+01   -.829E-01 0.157E+00 -.337E+00
   -.217E+01 -.228E+00 0.345E+04   0.184E+01 0.273E+00 -.344E+04   0.142E+00 -.354E-01 -.205E+01   0.176E+00 -.480E-02 -.337E+00
   -.636E-04 -.443E-05 0.344E+04   0.116E-03 -.101E-04 -.344E+04   -.597E-18 0.372E-17 -.189E+01   0.122E-01 0.744E-02 -.382E+00
   0.217E+01 -.228E+00 0.345E+04   -.184E+01 0.273E+00 -.344E+04   -.142E+00 -.354E-01 -.205E+01   -.177E+00 -.349E-02 -.336E+00
   -.886E+00 0.199E+01 0.345E+04   0.683E+00 -.173E+01 -.344E+04   0.101E+00 -.105E+00 -.205E+01   0.945E-01 -.150E+00 -.336E+00
   0.886E+00 0.199E+01 0.345E+04   -.684E+00 -.173E+01 -.344E+04   -.101E+00 -.105E+00 -.205E+01   -.909E-01 -.152E+00 -.336E+00
   -.143E-03 -.327E-04 0.345E+04   0.263E-03 0.204E-04 -.344E+04   0.939E-17 -.487E-17 -.220E+01   -.133E-01 -.683E-02 -.246E+00
   -.127E+02 -.730E+01 0.113E+04   0.126E+02 0.729E+01 -.113E+04   -.880E-01 -.508E-01 -.719E+00   0.117E+00 0.672E-01 -.618E-02
   -.906E-04 -.134E+02 0.111E+04   0.189E-03 0.134E+02 -.111E+04   -.754E-08 0.113E+00 -.615E+00   0.113E-01 -.234E-02 -.517E-02
   0.127E+02 -.730E+01 0.113E+04   -.126E+02 0.729E+01 -.113E+04   0.880E-01 -.508E-01 -.719E+00   -.118E+00 0.688E-01 -.747E-02
   -.116E+02 0.672E+01 0.111E+04   0.116E+02 -.668E+01 -.111E+04   0.980E-01 -.566E-01 -.615E+00   0.412E-02 0.118E-01 -.573E-02
   0.116E+02 0.672E+01 0.111E+04   -.116E+02 -.668E+01 -.111E+04   -.980E-01 -.566E-01 -.615E+00   0.199E-01 0.115E-01 -.618E-02
   -.139E-03 -.710E+00 0.113E+04   0.295E-03 0.671E+00 -.113E+04   -.345E-08 0.518E-01 -.956E+00   -.345E-02 -.290E-02 -.620E-01
   -.929E-04 0.146E+02 0.113E+04   0.187E-03 -.146E+02 -.113E+04   -.676E-08 0.102E+00 -.719E+00   0.848E-04 -.138E+00 -.672E-02
   -.615E+00 0.355E+00 0.113E+04   0.581E+00 -.335E+00 -.113E+04   0.448E-01 -.259E-01 -.956E+00   -.381E-02 -.146E-02 -.619E-01
   0.615E+00 0.355E+00 0.113E+04   -.581E+00 -.335E+00 -.113E+04   -.448E-01 -.259E-01 -.956E+00   0.428E-02 0.838E-03 -.622E-01
   -.715E-04 -.984E+01 -.117E+04   0.738E-04 0.979E+01 0.116E+04   -.444E-09 0.666E-02 0.127E+01   0.104E-02 0.611E-01 0.113E+00
   -.773E+02 -.446E+02 -.130E+04   0.773E+02 0.446E+02 0.130E+04   -.242E+00 -.139E+00 0.551E+00   0.700E-01 0.393E-01 0.107E+00
   0.773E+02 -.446E+02 -.130E+04   -.773E+02 0.446E+02 0.130E+04   0.242E+00 -.139E+00 0.551E+00   -.904E-01 0.413E-01 0.105E+00
   -.373E+02 0.215E+02 -.119E+04   0.370E+02 -.214E+02 0.119E+04   0.166E+00 -.959E-01 0.860E+00   0.129E+00 -.896E-01 0.969E-01
   -.692E-04 0.893E+02 -.130E+04   0.157E-03 -.893E+02 0.130E+04   -.186E-07 0.279E+00 0.551E+00   0.131E-02 -.804E-01 0.105E+00
   0.373E+02 0.215E+02 -.119E+04   -.370E+02 -.214E+02 0.119E+04   -.166E+00 -.959E-01 0.860E+00   -.152E+00 -.875E-01 0.973E-01
   0.852E+01 0.492E+01 -.117E+04   -.848E+01 -.490E+01 0.116E+04   -.577E-02 -.333E-02 0.127E+01   -.501E-01 -.299E-01 0.113E+00
   -.852E+01 0.492E+01 -.117E+04   0.848E+01 -.490E+01 0.116E+04   0.577E-02 -.333E-02 0.127E+01   0.533E-01 -.309E-01 0.113E+00
   -.138E-03 -.430E+02 -.119E+04   0.239E-03 0.427E+02 0.119E+04   -.128E-07 0.192E+00 0.860E+00   -.132E-01 0.157E+00 0.971E-01
   -.292E-04 0.229E-04 -.341E+04   0.494E-04 -.306E-04 0.341E+04   -.542E-17 -.194E-17 0.228E+01   -.106E-02 -.933E-03 0.860E-01
   -.615E+02 -.116E+03 -.340E+04   0.614E+02 0.115E+03 0.340E+04   -.729E-01 0.103E+00 0.221E+01   0.113E+00 0.121E+00 0.157E+00
   0.615E+02 -.116E+03 -.340E+04   -.614E+02 0.115E+03 0.340E+04   0.729E-01 0.103E+00 0.221E+01   -.905E-01 0.123E+00 0.158E+00
   -.131E+03 0.459E+01 -.340E+04   0.131E+03 -.452E+01 0.340E+04   0.529E-01 -.115E+00 0.221E+01   0.161E+00 0.369E-01 0.157E+00
   0.131E+03 0.459E+01 -.340E+04   -.131E+03 -.452E+01 0.340E+04   -.529E-01 -.115E+00 0.221E+01   -.139E+00 0.387E-01 0.158E+00
   -.695E+02 0.111E+03 -.340E+04   0.692E+02 -.111E+03 0.340E+04   0.126E+00 0.116E-01 0.221E+01   0.613E-01 -.139E+00 0.158E+00
   0.695E+02 0.111E+03 -.340E+04   -.692E+02 -.111E+03 0.340E+04   -.126E+00 0.116E-01 0.221E+01   -.358E-01 -.140E+00 0.157E+00
   -.124E-03 -.122E-04 -.343E+04   0.248E-03 -.217E-05 0.343E+04   0.193E-17 -.620E-17 0.252E+01   -.149E-01 -.760E-02 0.171E+00
   -.217E-04 -.576E-05 -.121E+04   0.434E-04 0.109E-04 0.121E+04   0.391E-17 0.170E-17 -.333E+01   -.828E-04 -.839E-04 -.150E-01
   0.102E-03 -.496E-04 -.166E+04   0.886E-05 0.474E-05 0.167E+04   -.193E-18 -.624E-18 -.116E+02   0.112E-02 0.685E-03 -.819E-01
   -.168E-03 -.507E-04 0.153E+02   0.115E-12 0.223E-12 -.114E-10   0.564E-17 -.346E-16 -.142E+02   0.363E-01 0.296E-01 -.109E+01

 POSITION                                       TOTAL-FORCE (eV/Angst)
      0.00000      0.00000      5.37156        -0.000000     -0.000000      0.038909
      2.56560      0.00000      5.37156        -0.000715     -0.009907      0.063442
      5.13119      0.00000      5.37156         0.000715     -0.009907      0.063442
      1.28280      2.22187      5.37156        -0.008937      0.004334      0.063442
      3.84839      2.22187      5.37156        -0.000000     -0.000000      0.071946
      6.41399      2.22187      5.37156         0.008937      0.004334      0.063442
      2.56560      4.44374      5.37156        -0.008222      0.005572      0.063442
      5.13119      4.44374      5.37156         0.008222      0.005572      0.063442
      7.69679      4.44374      5.37156        -0.000000     -0.000000      0.041437
      1.28280      0.74062      7.46636         0.012196      0.007041     -0.076055
      3.84839      0.74062      7.46636        -0.000000      0.026620     -0.018029
      6.41399      0.74062      7.46636        -0.012196      0.007041     -0.076055
      2.56560      2.96249      7.46636         0.023054     -0.013310     -0.018029
      5.13119      2.96249      7.46636        -0.023054     -0.013310     -0.018029
      7.69679      2.96249      7.46636        -0.000000      0.009577     -0.038889
      3.84839      5.18437      7.46636         0.000000     -0.014082     -0.076055
      6.41399      5.18437      7.46636         0.008294     -0.004789     -0.038889
      8.97958      5.18437      7.46636        -0.008294     -0.004789     -0.038889
      7.69679      1.47625      9.53578        -0.000000      0.025026      0.112573
      2.57143      1.48462      9.57247        -0.202968     -0.117184     -0.220870
      5.12535      1.48462      9.57247         0.202968     -0.117184     -0.220870
      8.97869      3.70363      9.55450         0.018247     -0.010535      0.081462
      3.84839      3.69638      9.57247        -0.000000      0.234367     -0.220870
      6.41488      3.70363      9.55450        -0.018247     -0.010535      0.081462
     10.26671      5.92749      9.53578        -0.021673     -0.012513      0.112573
      5.12686      5.92749      9.53578         0.021673     -0.012513      0.112573
      7.69679      5.92396      9.55450        -0.000000      0.021070      0.081462
      0.00000      0.00000     11.64309        -0.000000     -0.000000     -0.113486
      6.39641      6.62889     11.65568        -0.161603     -0.249799     -0.016896
      8.99717      6.62889     11.65568         0.161603     -0.249799     -0.016896
      8.93899      2.22500     11.65568        -0.297134     -0.015053     -0.016896
      6.45458      2.22500     11.65568         0.297134     -0.015053     -0.016896
     10.23937      4.47733     11.65568        -0.135530      0.264852     -0.016896
      5.15420      4.47733     11.65568         0.135530      0.264852     -0.016896
      7.69679      4.44374     11.66757        -0.000000     -0.000000     -0.137992
      3.84839      2.22187     11.91603        -0.000000     -0.000000      0.362390
      3.84839      2.22187     13.75683        -0.000000     -0.000000     -0.063054
    total drift:                                0.036173      0.029569     -0.009078

  FREE ENERGIE OF THE ION-ELECTRON SYSTEM (eV)
  free  energy   TOTEN  =      -138.22648016 eV

  energy  without entropy=     -138.22648016  energy(sigma->0) =     -138.22648016

 stress matrix after NEB project (eV)
     -0.81791      0.00000      0.00000
      0.00000     -0.81791      0.00000
      0.00000     -0.00000     -1.57069
  FORCES: max atom, RMS     0.063054    0.010366
  FORCE total and by dimension    0.063054    0.063054
  Stress total and by dimension    1.950643    1.570689
|           W    W    AA    RRRRR   N    N  II  N    N   GGGG   !!!           |
|           W    W   A  A   R    R  NN   N  II  NN   N  G    G  !!!           |
|           W    W  A    A  R    R  N N  N  II  N N  N  G       !!!           |
|           W WW W  AAAAAA  RRRRR   N  N N  II  N  N N  G  GGG   !            |
|           WW  WW  A    A  R   R   N   NN  II  N   NN  G    G                |
|           W    W  A    A  R    R  N    N  II  N    N   GGGG   !!!           |
|     Tetrahedron method does not include variations of the Fermi             |
|     occupations, so forces and stress will be inaccurate. We suggest        |
|     using a different smearing scheme ISMEAR = 1 or 2 for metals in         |
|     relaxations.                                                            |

 total charge

# of ion       s       p       d       tot
    1        0.449   0.284   9.187   9.921
    2        0.447   0.285   9.187   9.919
    3        0.447   0.285   9.187   9.919
    4        0.447   0.285   9.187   9.919
    5        0.450   0.283   9.186   9.919
    6        0.447   0.285   9.187   9.919
    7        0.447   0.285   9.187   9.919
    8        0.447   0.285   9.187   9.919
    9        0.449   0.284   9.188   9.921
   10        0.440   0.372   9.180   9.992
   11        0.441   0.366   9.180   9.987
   12        0.440   0.372   9.180   9.992
   13        0.441   0.366   9.180   9.987
   14        0.441   0.366   9.180   9.987
   15        0.440   0.373   9.177   9.990
   16        0.440   0.372   9.180   9.992
   17        0.440   0.373   9.177   9.990
   18        0.440   0.373   9.177   9.990
   19        0.442   0.371   9.181   9.994
   20        0.448   0.377   9.175  10.000
   21        0.448   0.377   9.175  10.000
   22        0.433   0.373   9.180   9.986
   23        0.448   0.377   9.175  10.000
   24        0.433   0.373   9.180   9.986
   25        0.442   0.371   9.181   9.994
   26        0.442   0.371   9.181   9.994
   27        0.433   0.373   9.180   9.986
   28        0.449   0.292   9.187   9.928
   29        0.478   0.303   9.181   9.961
   30        0.478   0.303   9.181   9.961
   31        0.478   0.303   9.181   9.961
   32        0.478   0.303   9.181   9.961
   33        0.478   0.303   9.181   9.961
   34        0.478   0.303   9.181   9.961
   35        0.449   0.293   9.186   9.928
   36        0.652   0.618   2.695   3.965
   37        1.330   2.179   0.000   3.509
tot         17.712  14.454 324.048 356.214

 BZINTS: Fermi energy:   -0.234427;  394.000000 electrons
         Band energy:-0.122519E+04;  BLOECHL correction:   -0.071392