 vasp.6.2.0 18Jan21 (build Jun 12 2021 23:27:24) complex

 executed on             LinuxIFC date 2022.05.30  16:58:57

 INCAR:
   ISMEAR = -5
   SIGMA = 0.1
   ISPIN = 1
   EDIFF = 1.d-5
   EDIFFG = -0.01
   NSW = 0
   NELM = 150
   ENCUT = 500
   ISIF = 2
   IBRION = 2
   LREAL = Auto
   ALGO = Fast
   ICHARG = 11
   LORBIT = 10
   LCHARG = .F.
   LWAVE = .F.

 POTCAR:    PAW_PBE Ag 02Apr2005
 POTCAR:    PAW_PBE Fe 06Sep2000
 POTCAR:    PAW_PBE C 08Apr2002
 POTCAR:    PAW_PBE O 08Apr2002
 POTCAR:    PAW_PBE H 15Jun2001
|           W    W    AA    RRRRR   N    N  II  N    N   GGGG   !!!           |
|           W    W   A  A   R    R  NN   N  II  NN   N  G    G  !!!           |
|           W    W  A    A  R    R  N N  N  II  N N  N  G       !!!           |
|           W WW W  AAAAAA  RRRRR   N  N N  II  N  N N  G  GGG   !            |
|           WW  WW  A    A  R   R   N   NN  II  N   NN  G    G                |
|           W    W  A    A  R    R  N    N  II  N    N   GGGG   !!!           |
|     For optimal performance we recommend to set                             |
|       NCORE = 2 up to number-of-cores-per-socket                            |
|     This setting can greatly improve the performance of VASP for DFT.       |
|     The default, NCORE=1 might be grossly inefficient on modern             |
|     multi-core architectures or massively parallel machines. Do your        |
|     Unfortunately you need to use the default for GW and RPA                |
|     calculations (for HF NCORE is supported but not extensively tested      |
|     yet).                                                                   |

 POTCAR:    PAW_PBE Ag 02Apr2005
   VRHFIN =Ag : s1 d10

   TITEL  = PAW_PBE Ag 02Apr2005
   POMASS =  107.868; ZVAL   =   11.000    mass and valenz
   ENMAX  =  249.844; ENMIN  =  187.383 eV

 POTCAR:    PAW_PBE Fe 06Sep2000
   VRHFIN =Fe:  d7 s1

   TITEL  = PAW_PBE Fe 06Sep2000
   POMASS =   55.847; ZVAL   =    8.000    mass and valenz
   ENMAX  =  267.882; ENMIN  =  200.911 eV

 POTCAR:    PAW_PBE C 08Apr2002
   VRHFIN =C: s2p2

[...]

 POTCAR:    PAW_PBE O 08Apr2002
   VRHFIN =O: s2p4

   TITEL  = PAW_PBE O 08Apr2002
   POMASS =   16.000; ZVAL   =    6.000    mass and valenz
   ENMAX  =  400.000; ENMIN  =  300.000 eV

 POTCAR:    PAW_PBE H 15Jun2001
   VRHFIN =H: ultrasoft test

   TITEL  = PAW_PBE H 15Jun2001
   POMASS =    1.000; ZVAL   =    1.000    mass and valenz
   ENMAX  =  250.000; ENMIN  =  200.000 eV

 Optimization of the real space projectors (new method)

 maximal supplied QI-value         = 15.12
 optimisation between [QCUT,QGAM] = [ 11.34, 22.83] = [ 36.00,145.93] Ry
 Optimized for a Real-space Cutoff    1.43 Angstroem

   l    n(q)    QCUT    max X(q) W(low)/X(q) W(high)/X(q)  e(spline)
   2      9    11.338    53.897    0.16E-03    0.20E-03    0.28E-06
   2      9    11.338    52.416    0.16E-03    0.20E-03    0.29E-06
   0     10    11.338   122.045    0.31E-04    0.76E-04    0.15E-06
   0     10    11.338    73.629    0.30E-04    0.72E-04    0.15E-06
   1      9    11.338    15.255    0.20E-03    0.19E-04    0.17E-06
   1      9    11.338     9.562    0.16E-03    0.15E-04    0.14E-06
 Optimization of the real space projectors (new method)

[...]

   l    n(q)    QCUT    max X(q) W(low)/X(q) W(high)/X(q)  e(spline)
   0      7    11.387    20.381    0.39E-03    0.13E-02    0.15E-06
   0      7    11.387    15.268    0.42E-03    0.14E-02    0.17E-06
   1      6    11.387     5.964    0.41E-03    0.11E-02    0.17E-06
   1      6    11.387     5.382    0.39E-03    0.87E-03    0.15E-06
 Optimization of the real space projectors (new method)

 maximal supplied QI-value         = 34.20
 optimisation between [QCUT,QGAM] = [ 11.29, 22.57] = [ 35.68,142.71] Ry
 Optimized for a Real-space Cutoff    1.16 Angstroem

   l    n(q)    QCUT    max X(q) W(low)/X(q) W(high)/X(q)  e(spline)
   0      8    11.287    19.460    0.40E-03    0.73E-03    0.16E-06
   0      8    11.287    12.209    0.38E-03    0.70E-03    0.15E-06
   1      7    11.287     4.655    0.22E-03    0.25E-04    0.22E-06
  PAW_PBE Ag 02Apr2005                  :
  PAW_PBE Fe 06Sep2000                  :
  PAW_PBE C 08Apr2002                   :
  PAW_PBE O 08Apr2002                   :
  PAW_PBE H 15Jun2001                   :

 POSCAR: Ag-Fe-COH
  positions in direct lattice
  velocities in cartesian coordinates
 exchange correlation table for  LEXCH =        8
   RHO(1)=    0.500       N(1)  =     2000
   RHO(2)=  100.500       N(2)  =     4000

 VTST: version 3.2, (02/03/18)

 CHAIN: initializing optimizer

 OPT: Using VASP Conjugate-Gradient optimizer
 CHAIN: Read ICHAIN            0

 POSCAR: Ag-Fe-COH
  positions in direct lattice
  velocities in cartesian coordinates

 ion  position               nearest neighbor table
   1  0.000  0.000  0.199-   2 2.93   8 2.93   7 2.93   6 2.93   4 2.93  12 2.93  16 2.93  10 2.93
                             3 2.93
   2  0.333  0.000  0.199-   1 2.93   8 2.93   9 2.93   3 2.93   4 2.93   5 2.93  10 2.93  17 2.93
                            11 2.93
   3  0.667  0.000  0.199-   9 2.93   2 2.93   5 2.93  11 2.93   7 2.93  18 2.93   1 2.93   6 2.93
                            12 2.93
   4  0.000  0.333  0.199-   5 2.93   6 2.93   2 2.93   1 2.93   7 2.93  13 2.93  15 2.93   9 2.93
                            10 2.93
   5  0.333  0.333  0.199-   4 2.93   3 2.93   7 2.93   2 2.93   8 2.93  14 2.93  13 2.93  11 2.93
                             6 2.93
   6  0.667  0.333  0.199-   4 2.93   9 2.93   1 2.93  15 2.93   8 2.93  12 2.93   3 2.93   5 2.93
                            14 2.93
   7  0.000  0.667  0.199-   8 2.93   1 2.93   5 2.93   3 2.93   4 2.93  16 2.93  18 2.93  13 2.93
                             9 2.93
   8  0.333  0.667  0.199-   7 2.93   1 2.93   2 2.93   9 2.93   5 2.93  16 2.93   6 2.93  17 2.93
                            14 2.93
   9  0.667  0.667  0.199-   3 2.93   2 2.93   8 2.93   6 2.93  17 2.93   4 2.93  15 2.93   7 2.93
                            18 2.93
  10  0.111  0.111  0.289-  20 2.92  19 2.93  26 2.93  12 2.93  16 2.93  15 2.93  17 2.93  13 2.93
                            11 2.93   2 2.93   1 2.93   4 2.93
  11  0.444  0.111  0.289-  21 2.90  20 2.90  27 2.92  14 2.93  17 2.93  18 2.93   3 2.93  12 2.93
                            13 2.93  10 2.93   5 2.93   2 2.93
  12  0.778  0.111  0.289-  21 2.92  25 2.93  19 2.93  10 2.93  16 2.93  18 2.93  15 2.93  11 2.93
                             1 2.93  14 2.93   6 2.93   3 2.93
  13  0.111  0.444  0.289-  20 2.90  23 2.90  22 2.92  15 2.93  14 2.93  18 2.93  10 2.93  11 2.93
                            16 2.93   4 2.93   5 2.93   7 2.93
  14  0.444  0.444  0.289-  23 2.90  21 2.90  24 2.92  13 2.93  11 2.93  16 2.93   5 2.93  12 2.93
                            17 2.93   8 2.93  15 2.93   6 2.93
  15  0.778  0.444  0.289-  24 2.92  22 2.92  19 2.93  13 2.93  10 2.93  12 2.93  17 2.93  18 2.93
                             4 2.93   6 2.93   9 2.93  14 2.93
  16  0.111  0.778  0.289-  23 2.92  26 2.93  25 2.93  18 2.93  12 2.93  10 2.93  14 2.93  17 2.93
                            13 2.93   7 2.93   8 2.93   1 2.93
  17  0.444  0.778  0.289-  27 2.92  24 2.92  26 2.93  11 2.93  10 2.93   9 2.93  18 2.93  15 2.93
                            16 2.93   2 2.93  14 2.93   8 2.93
  18  0.778  0.778  0.289-  22 2.92  27 2.92  25 2.93  16 2.93  12 2.93  13 2.93  11 2.93  17 2.93
                            15 2.93   7 2.93   3 2.93   9 2.93
  19  0.889  0.222  0.379-  28 2.91  15 2.93  10 2.93  12 2.93  24 2.93  22 2.93  26 2.93  25 2.93
                            20 2.94  21 2.94  32 2.94  31 2.94
  20  0.223  0.223  0.378-  36 2.70  31 2.89  29 2.89  13 2.90  11 2.90  21 2.91  23 2.91  10 2.92
                            27 2.94  22 2.94  19 2.94  26 2.94
  21  0.554  0.223  0.378-  36 2.70  30 2.89  32 2.89  11 2.90  14 2.90  20 2.91  23 2.91  12 2.92
                            27 2.94  24 2.94  25 2.94  19 2.94
  22  0.888  0.556  0.378-  35 2.91  18 2.92  15 2.92  33 2.92  31 2.92  13 2.92  24 2.92  27 2.92
                            25 2.93  19 2.93  23 2.94  20 2.94
  23  0.223  0.554  0.378-  36 2.70  34 2.89  33 2.89  14 2.90  13 2.90  21 2.91  20 2.91  16 2.92
                            22 2.94  24 2.94  26 2.94  25 2.94
  24  0.556  0.556  0.378-  35 2.91  15 2.92  17 2.92  32 2.92  34 2.92  14 2.92  27 2.92  22 2.92
                            19 2.93  26 2.93  23 2.94  21 2.94
  25  0.889  0.889  0.379-  28 2.91  18 2.93  16 2.93  12 2.93  22 2.93  27 2.93  26 2.93  19 2.93
                            23 2.94  21 2.94  33 2.94  30 2.94
  26  0.222  0.889  0.379-  28 2.91  17 2.93  16 2.93  10 2.93  27 2.93  24 2.93  25 2.93  19 2.93
                            23 2.94  20 2.94  34 2.94  29 2.94
  27  0.556  0.888  0.378-  35 2.91  17 2.92  18 2.92  29 2.92  30 2.92  11 2.92  24 2.92  22 2.92
                            26 2.93  25 2.93  20 2.94  21 2.94
  28  0.000  0.000  0.468-  26 2.91  25 2.91  19 2.91  29 2.97  34 2.97  33 2.97  32 2.97  31 2.97
                            30 2.97
  29  0.333  0.008  0.468-  31 2.86  30 2.86  36 2.87  20 2.89  27 2.92  26 2.94  28 2.97  35 2.97
                            34 3.07
  30  0.659  0.008  0.468-  32 2.86  29 2.86  36 2.87  21 2.89  27 2.92  25 2.94  28 2.97  35 2.97
                            33 3.07
  31  0.008  0.333  0.468-  29 2.86  33 2.86  36 2.87  20 2.89  22 2.92  19 2.94  28 2.97  35 2.97
                            32 3.07
  32  0.659  0.333  0.468-  30 2.86  34 2.86  36 2.87  21 2.89  24 2.92  19 2.94  28 2.97  35 2.97
                            31 3.07
  33  0.008  0.659  0.468-  34 2.86  31 2.86  36 2.87  23 2.89  22 2.92  25 2.94  28 2.97  35 2.97
                            30 3.07
  34  0.333  0.659  0.468-  33 2.86  32 2.86  36 2.87  23 2.89  24 2.92  26 2.94  28 2.97  35 2.97
                            29 3.07
  35  0.667  0.667  0.467-  24 2.91  27 2.91  22 2.91  32 2.97  30 2.97  29 2.97  34 2.97  31 2.97
                            33 2.97
  36  0.333  0.333  0.457-  37 1.64  21 2.70  20 2.70  23 2.70  31 2.87  30 2.87  33 2.87  29 2.87
                            34 2.87  32 2.87
  37  0.333  0.333  0.519-  38 1.27  36 1.64
  38  0.333  0.333  0.567-  39 0.96  37 1.27
  39  0.333  0.333  0.603-  38 0.96

  LATTYP: Found a hexagonal cell.
 ALAT       =     8.7913665772
 C/A-ratio  =     3.0233954145

  Lattice vectors:

 A1 = (  -4.3956832886,  -7.6135467898,   0.0000000000)
 A2 = (   8.7913665771,   0.0000000000,   0.0000000000)
 A3 = (   0.0000000000,   0.0000000000,  26.5797773968)

Analysis of symmetry for initial positions (statically):
 Subroutine PRICEL returns:
 Original cell was already a primitive cell.

 Routine SETGRP: Setting up the symmetry group for a
 hexagonal supercell.

 Subroutine GETGRP returns: Found  6 space group operations
 (whereof  6 operations were pure point group operations)
 out of a pool of 24 trial point group operations.

The static configuration has the point symmetry C_3v.

Analysis of symmetry for dynamics (positions and initial velocities):
 Subroutine PRICEL returns:
 Original cell was already a primitive cell.

[...]

[...]
     41      -4.7370      2.00000
     42      -4.7134      2.00000
     43      -4.6882      2.00000
     44      -4.6832      2.00000
     45      -4.6626      2.00000
     46      -4.6573      2.00000
     47      -4.6297      2.00000
     48      -4.5737      2.00000
     49      -4.5434      2.00000
     50      -4.5368      2.00000
     51      -4.5286      2.00000
     52      -4.5213      2.00000
     53      -4.5155      2.00000
     54      -4.4966      2.00000
     55      -4.4934      2.00000
     56      -4.4776      2.00000
     57      -4.4750      2.00000
     58      -4.4102      2.00000
     59      -4.4013      2.00000
     60      -4.3890      2.00000
[...]
    238       5.2270      0.00000
    239       5.3283      0.00000
    240       5.4279      0.00000
    241       5.5335      0.00000
    242       5.6963      0.00000
    243       5.7363      0.00000
    244       5.7560      0.00000
    245       5.7955      0.00000
    246       5.8317      0.00000
    247       5.8584      0.00000
    248       5.8792      0.00000
    249       6.0735      0.00000
    250       6.1307      0.00000
    251       6.6128      0.00000
    252       6.8006      0.00000

 soft charge-density along one line, spin component           1
         0         1         2         3         4         5         6         7         8         9
 total charge-density along one line

------------------------ aborting loop because EDIFF is reached ----------------------------------------

 total charge

# of ion       s       p       d       tot
    1        0.417   0.202   9.178   9.797
    2        0.418   0.203   9.176   9.798
    3        0.418   0.203   9.176   9.798
    4        0.418   0.203   9.176   9.798
    5        0.419   0.204   9.175   9.799
    6        0.418   0.203   9.176   9.798
    7        0.418   0.203   9.176   9.798
    8        0.418   0.203   9.176   9.798
    9        0.413   0.204   9.178   9.795
   10        0.406   0.267   9.164   9.838
   11        0.408   0.268   9.167   9.843
   12        0.406   0.267   9.164   9.838
   13        0.408   0.268   9.167   9.843
   14        0.408   0.268   9.167   9.843
   15        0.400   0.271   9.165   9.836
   16        0.406   0.267   9.164   9.838
   17        0.400   0.271   9.165   9.836
   18        0.400   0.271   9.165   9.836
   19        0.403   0.265   9.166   9.834
   20        0.429   0.292   9.148   9.870
   21        0.429   0.292   9.148   9.870
   22        0.396   0.277   9.164   9.837
   23        0.429   0.292   9.148   9.870
   24        0.396   0.277   9.164   9.837
   25        0.403   0.265   9.166   9.834
   26        0.403   0.265   9.166   9.834
   27        0.396   0.277   9.164   9.837
   28        0.417   0.195   9.180   9.791
   29        0.409   0.212   9.177   9.797
   30        0.409   0.212   9.177   9.797
   31        0.409   0.212   9.177   9.797
   32        0.409   0.212   9.177   9.797
   33        0.409   0.212   9.177   9.797
   34        0.409   0.212   9.177   9.797
   35        0.414   0.196   9.180   9.790
   36        0.437   0.512   6.528   7.477
   37        0.930   1.445   0.000   2.375
   38        1.526   3.758   0.000   5.284
   39        0.562   0.135   0.000   0.697
tot         17.828  14.263 327.459 359.550

  FORCE on cell =-STRESS in cart. coord.  units (eV):
  Direction    XX          YY          ZZ          XY          YZ          ZX
  Alpha Z   644.67091   644.67091   644.67091
  Ewald  187638.06624187638.06632************     0.00005    -0.00000     0.00005
  Hartree197871.18981197871.18985************     0.00002    -0.00000     0.00002
  E(xc)   -2116.28312 -2116.28330 -2120.03359     0.00016    -0.00001    -0.00003
  Local  ************************396473.68195     0.00063    -0.00007    -0.00021
  n-local  -384.32787  -368.69429  -380.79750    10.03131    -0.38360     0.49810
  augment  3267.74733  3267.74755  3267.24832    -0.00020    -0.00005    -0.00003
  Kinetic  5061.11116  5064.44222  5015.32728     4.96022     0.90129    -0.36897
  Fock        0.00000     0.00000     0.00000     0.00000     0.00000     0.00000
  Total      -7.35570    -7.35570     0.93719    -0.00000     0.00000    -0.00000
  in kB      -6.62430    -6.62430     0.84400    -0.00000     0.00000    -0.00000

 VOLUME and BASIS-vectors are now :
  energy-cutoff  :      500.00
  volume of cell :     1779.08
      direct lattice vectors                 reciprocal lattice vectors
     8.791366577  0.000000000  0.000000000     0.113747958 -0.065672414  0.000000000
     4.395683289  7.613546790  0.000000000     0.000000000  0.131344829  0.000000000
     0.000000000  0.000000000 26.579777397     0.000000000  0.000000000  0.037622587

  length of vectors
     8.791366577  8.791366577 26.579777397     0.131344829  0.131344829  0.037622587

 FORCES acting on ions
    electron-ion (+dipol)            ewald-force                    non-local-force                 convergence-correction
   0.457E-04 -.284E-04 0.285E+04   -.954E-04 0.593E-04 -.285E+04   0.951E-17 0.171E-17 -.227E+01   -.164E-03 -.201E-03 -.423E+00
   0.550E+00 0.573E+00 0.285E+04   -.566E+00 -.564E+00 -.285E+04   0.420E-01 0.749E-01 -.162E+01   -.180E-01 -.651E-01 -.459E+00
   -.550E+00 0.573E+00 0.285E+04   0.566E+00 -.564E+00 -.285E+04   -.420E-01 0.749E-01 -.162E+01   0.175E-01 -.631E-01 -.458E+00
   0.772E+00 0.190E+00 0.285E+04   -.772E+00 -.208E+00 -.285E+04   0.858E-01 -.110E-02 -.162E+01   -.651E-01 0.171E-01 -.459E+00
   -.365E-05 -.176E-04 0.285E+04   0.981E-04 -.199E-05 -.285E+04   0.381E-17 -.155E-17 -.141E+01   0.628E-02 0.384E-02 -.417E+00
   -.772E+00 0.190E+00 0.285E+04   0.772E+00 -.208E+00 -.285E+04   -.858E-01 -.110E-02 -.162E+01   0.637E-01 0.180E-01 -.458E+00
   0.221E+00 -.763E+00 0.285E+04   -.206E+00 0.773E+00 -.285E+04   0.439E-01 -.738E-01 -.162E+01   -.455E-01 0.473E-01 -.458E+00
   -.221E+00 -.763E+00 0.285E+04   0.206E+00 0.772E+00 -.285E+04   -.439E-01 -.738E-01 -.162E+01   0.471E-01 0.462E-01 -.458E+00
   0.367E-04 -.127E-04 0.285E+04   0.792E-04 -.643E-04 -.285E+04   -.256E-17 0.261E-17 -.200E+01   -.664E-02 -.342E-02 -.457E+00
   0.526E+01 0.304E+01 0.995E+03   -.478E+01 -.276E+01 -.994E+03   -.395E+00 -.228E+00 -.764E+00   -.735E-01 -.424E-01 -.303E+00
   -.296E-04 0.633E+01 0.100E+04   0.417E-04 -.638E+01 -.100E+04   0.754E-12 0.115E+00 -.443E+00   0.665E-02 -.933E-01 -.350E+00
   -.526E+01 0.304E+01 0.995E+03   0.478E+01 -.276E+01 -.994E+03   0.395E+00 -.228E+00 -.764E+00   0.715E-01 -.412E-01 -.303E+00
   0.548E+01 -.316E+01 0.100E+04   -.553E+01 0.319E+01 -.100E+04   0.994E-01 -.574E-01 -.443E+00   -.776E-01 0.524E-01 -.350E+00
   -.548E+01 -.316E+01 0.100E+04   0.553E+01 0.319E+01 -.100E+04   -.994E-01 -.574E-01 -.443E+00   0.884E-01 0.513E-01 -.350E+00
   0.160E-04 0.140E+01 0.997E+03   -.109E-03 -.144E+01 -.996E+03   0.394E-13 0.600E-02 -.784E+00   -.186E-02 0.165E-01 -.320E+00
   -.752E-05 -.608E+01 0.995E+03   0.208E-04 0.552E+01 -.994E+03   0.299E-11 0.456E+00 -.764E+00   0.166E-04 0.825E-01 -.303E+00
   0.121E+01 -.700E+00 0.997E+03   -.125E+01 0.721E+00 -.996E+03   0.519E-02 -.300E-02 -.784E+00   0.133E-01 -.986E-02 -.320E+00
   -.121E+01 -.700E+00 0.997E+03   0.125E+01 0.721E+00 -.996E+03   -.519E-02 -.300E-02 -.784E+00   -.130E-01 -.755E-02 -.318E+00
   0.409E-04 0.213E+01 -.892E+03   -.129E-03 -.195E+01 0.892E+03   -.101E-12 -.153E-01 0.718E+00   -.649E-02 -.137E+00 -.309E+00
   0.274E+02 0.158E+02 -.844E+03   -.260E+02 -.150E+02 0.846E+03   -.115E+01 -.665E+00 -.115E+01   -.313E+00 -.180E+00 -.650E+00
   -.274E+02 0.158E+02 -.844E+03   0.260E+02 -.150E+02 0.846E+03   0.115E+01 -.665E+00 -.115E+01   0.314E+00 -.181E+00 -.651E+00
   0.108E+02 -.621E+01 -.878E+03   -.108E+02 0.621E+01 0.878E+03   0.201E+00 -.116E+00 0.518E+00   -.161E+00 0.947E-01 -.364E+00
   -.597E-04 -.317E+02 -.844E+03   0.453E-04 0.301E+02 0.846E+03   0.873E-11 0.133E+01 -.115E+01   0.773E-03 0.363E+00 -.651E+00
   -.108E+02 -.621E+01 -.878E+03   0.107E+02 0.621E+01 0.878E+03   -.201E+00 -.116E+00 0.518E+00   0.161E+00 0.929E-01 -.363E+00
   -.184E+01 -.106E+01 -.892E+03   0.169E+01 0.977E+00 0.892E+03   0.133E-01 0.767E-02 0.718E+00   0.112E+00 0.643E-01 -.309E+00
   0.184E+01 -.106E+01 -.892E+03   -.169E+01 0.977E+00 0.892E+03   -.133E-01 0.767E-02 0.718E+00   -.122E+00 0.629E-01 -.309E+00
   0.207E-04 0.124E+02 -.878E+03   0.109E-03 -.124E+02 0.878E+03   0.152E-11 0.232E+00 0.518E+00   0.103E-02 -.186E+00 -.363E+00
   0.539E-04 -.373E-04 -.276E+04   -.115E-03 0.781E-04 0.275E+04   0.765E-18 0.166E-17 0.182E+01   -.276E-03 -.296E-03 0.179E+00
   0.384E+02 0.667E+02 -.273E+04   -.377E+02 -.657E+02 0.273E+04   -.412E+00 -.602E+00 0.217E+01   -.274E+00 -.441E+00 0.206E+00
   -.384E+02 0.667E+02 -.273E+04   0.377E+02 -.657E+02 0.273E+04   0.412E+00 -.602E+00 0.217E+01   0.274E+00 -.439E+00 0.205E+00
   0.769E+02 -.115E+00 -.273E+04   -.758E+02 0.200E+00 0.273E+04   -.728E+00 -.556E-01 0.217E+01   -.519E+00 -.167E-01 0.206E+00
   -.769E+02 -.115E+00 -.273E+04   0.758E+02 0.200E+00 0.273E+04   0.728E+00 -.556E-01 0.217E+01   0.518E+00 -.162E-01 0.206E+00
   0.386E+02 -.666E+02 -.273E+04   -.381E+02 0.655E+02 0.273E+04   -.316E+00 0.658E+00 0.217E+01   -.243E+00 0.458E+00 0.205E+00
   -.386E+02 -.666E+02 -.273E+04   0.381E+02 0.655E+02 0.273E+04   0.316E+00 0.658E+00 0.217E+01   0.244E+00 0.456E+00 0.206E+00
   0.216E-04 -.118E-04 -.276E+04   0.107E-03 -.663E-04 0.275E+04   -.879E-17 -.165E-17 0.193E+01   -.642E-02 -.328E-02 0.198E+00
   -.365E-04 -.253E-04 -.170E+04   0.771E-04 0.110E-04 0.170E+04   -.601E-18 0.283E-18 0.128E+01   0.490E-02 0.299E-02 0.118E-01
   0.901E-06 -.724E-04 -.110E+04   0.216E-04 0.373E-06 0.108E+04   0.436E-18 0.124E-18 0.199E+02   0.128E-02 0.786E-03 0.516E+00
   0.240E-03 -.898E-04 -.179E+04   0.108E-04 0.292E-07 0.179E+04   0.380E-18 0.949E-19 -.436E+01   0.387E-02 0.237E-02 0.313E+00
   0.640E-05 -.142E-04 -.341E+03   0.726E-06 -.282E-08 0.349E+03   0.163E-21 0.704E-20 -.856E+01   0.205E-03 0.126E-03 0.306E-01
   0.596E-03 -.881E-03 0.454E+01   -.143E-12 -.101E-13 0.568E-12   0.158E-15 0.110E-15 0.388E+01   0.286E-02 0.514E-02 -.845E+01

 POSITION                                       TOTAL-FORCE (eV/Angst)
      0.00000      0.00000      5.28219         0.000000      0.000000      0.017686
      2.93046      0.00000      5.28219         0.008700      0.020005      0.054216
      5.86091      0.00000      5.28219        -0.008700      0.020005      0.054216
      1.46523      2.53785      5.28219         0.021674     -0.002468      0.054216
      4.39568      2.53785      5.28219        -0.000000     -0.000000      0.032046
      7.32614      2.53785      5.28219        -0.021674     -0.002468      0.054216
      2.93046      5.07570      5.28219         0.012975     -0.017537      0.054216
      5.86091      5.07570      5.28219        -0.012975     -0.017537      0.054216
      8.79137      5.07570      5.28219         0.000000      0.000000      0.047851
      1.46523      0.84595      7.67490         0.014293      0.008252     -0.001004
      4.39568      0.84595      7.67490        -0.000000     -0.040603     -0.073146
      7.32614      0.84595      7.67490        -0.014293      0.008252     -0.001004
      2.93046      3.38380      7.67490        -0.035163      0.020302     -0.073146
      5.86091      3.38380      7.67490         0.035163      0.020302     -0.073146
      8.79137      3.38380      7.67490        -0.000000     -0.020480      0.004685
      4.39568      5.92165      7.67490        -0.000000     -0.016504     -0.001004
      7.32614      5.92165      7.67490        -0.017736      0.010240      0.004685
     10.25659      5.92165      7.67490         0.017736      0.010240      0.004685
      8.79137      1.69341     10.06265         0.000000      0.026059      0.029901
      2.94295      1.69911     10.03964        -0.059045     -0.034090     -0.140971
      5.84841      1.69911     10.03964         0.059045     -0.034090     -0.140971
     10.25212      4.23233     10.05217         0.045923     -0.026514      0.003071
      4.39568      4.21532     10.03964         0.000000      0.068180     -0.140971
      7.33061      4.23233     10.05217        -0.045923     -0.026514      0.003071
     11.72051      6.76684     10.06265        -0.022567     -0.013029      0.029901
      5.86222      6.76684     10.06265         0.022567     -0.013029      0.029901
      8.79137      6.76243     10.05217         0.000000      0.053028      0.003071
      0.00000      0.00000     12.42704         0.000000     -0.000000     -0.002334
      2.96539      0.06299     12.42777        -0.026768     -0.070251     -0.065067
      5.82597      0.06299     12.42777         0.026768     -0.070251     -0.065067
      1.53725      2.53661     12.42777        -0.074224      0.011944     -0.065067
      7.25412      2.53661     12.42777         0.074224      0.011944     -0.065067
      2.96754      5.01395     12.42777        -0.047455      0.058308     -0.065067
      5.82383      5.01395     12.42777         0.047455      0.058308     -0.065067
      8.79137      5.07570     12.42264         0.000000     -0.000000     -0.010633
      4.39568      2.53785     12.15183        -0.000000     -0.000000      0.564371
      4.39568      2.53785     13.79607         0.000000      0.000000     -0.052044
      4.39568      2.53785     15.06301         0.000000      0.000000      0.011690
      4.39568      2.53785     16.02279         0.000000      0.000000     -0.011135
    total drift:                                0.003451      0.004262     -0.022717

  FREE ENERGIE OF THE ION-ELECTRON SYSTEM (eV)
  free  energy   TOTEN  =      -113.27565912 eV

  energy  without entropy=     -113.27565912  energy(sigma->0) =     -113.27565912

 stress matrix after NEB project (eV)
     -7.35570     -0.00000     -0.00000
     -0.00000     -7.35570     -0.00000
     -0.00000      0.00000      0.93719
  FORCES: max atom, RMS     0.052044    0.008725
  FORCE total and by dimension    0.054491    0.052044
  Stress total and by dimension   10.444664    7.355701
|           W    W    AA    RRRRR   N    N  II  N    N   GGGG   !!!           |
|           W    W   A  A   R    R  NN   N  II  NN   N  G    G  !!!           |
|           W    W  A    A  R    R  N N  N  II  N N  N  G       !!!           |
|           W WW W  AAAAAA  RRRRR   N  N N  II  N  N N  G  GGG   !            |
|           WW  WW  A    A  R   R   N   NN  II  N   NN  G    G                |
|           W    W  A    A  R    R  N    N  II  N    N   GGGG   !!!           |
|     Tetrahedron method does not include variations of the Fermi             |
|     occupations, so forces and stress will be inaccurate. We suggest        |
|     using a different smearing scheme ISMEAR = 1 or 2 for metals in         |
|     relaxations.                                                            |

 total charge

# of ion       s       p       d       tot
    1        0.417   0.202   9.178   9.797
    2        0.418   0.203   9.176   9.798
    3        0.418   0.203   9.176   9.798
    4        0.418   0.203   9.176   9.798
    5        0.419   0.204   9.175   9.799
    6        0.418   0.203   9.176   9.798
    7        0.418   0.203   9.176   9.798
    8        0.418   0.203   9.176   9.798
    9        0.413   0.204   9.178   9.795
   10        0.406   0.267   9.164   9.838
   11        0.408   0.268   9.167   9.843
   12        0.406   0.267   9.164   9.838
   13        0.408   0.268   9.167   9.843
   14        0.408   0.268   9.167   9.843
   15        0.400   0.271   9.165   9.836
   16        0.406   0.267   9.164   9.838
   17        0.400   0.271   9.165   9.836
   18        0.400   0.271   9.165   9.836
   19        0.403   0.265   9.166   9.834
   20        0.429   0.292   9.148   9.870
   21        0.429   0.292   9.148   9.870
   22        0.396   0.277   9.164   9.837
   23        0.429   0.292   9.148   9.870
   24        0.396   0.277   9.164   9.837
   25        0.403   0.265   9.166   9.834
   26        0.403   0.265   9.166   9.834
   27        0.396   0.277   9.164   9.837
   28        0.417   0.195   9.180   9.791
   29        0.409   0.212   9.177   9.797
   30        0.409   0.212   9.177   9.797
   31        0.409   0.212   9.177   9.797
   32        0.409   0.212   9.177   9.797
   33        0.409   0.212   9.177   9.797
   34        0.409   0.212   9.177   9.797
   35        0.414   0.196   9.180   9.790
   36        0.437   0.512   6.528   7.477
   37        0.930   1.445   0.000   2.375
   38        1.526   3.758   0.000   5.284
   39        0.562   0.135   0.000   0.697
tot         17.828  14.263 327.459 359.550

 BZINTS: Fermi energy:    0.466343;  404.000000 electrons
         Band energy:-0.152513E+04;  BLOECHL correction:   -0.035127