 vasp.6.2.0 18Jan21 (build Jun 12 2021 23:27:24) complex

 executed on             LinuxIFC date 2022.05.27  05:31:45

 INCAR:
   ISMEAR = -5
   SIGMA = 0.1
   ISPIN = 1
   EDIFF = 1.d-5
   EDIFFG = -0.01
   NSW = 0
   NELM = 150
   ENCUT = 500
   ISIF = 2
   IBRION = 2
   LREAL = Auto
   ALGO = Fast
   ICHARG = 11
   LORBIT = 10
   LCHARG = .F.
   LWAVE = .F.

 POTCAR:    PAW_PBE Ag 02Apr2005
 POTCAR:    PAW_PBE Co 02Aug2007
 POTCAR:    PAW_PBE O 08Apr2002
 POTCAR:    PAW_PBE H 15Jun2001
|           W    W    AA    RRRRR   N    N  II  N    N   GGGG   !!!           |
|           W    W   A  A   R    R  NN   N  II  NN   N  G    G  !!!           |
|           W    W  A    A  R    R  N N  N  II  N N  N  G       !!!           |
|           W WW W  AAAAAA  RRRRR   N  N N  II  N  N N  G  GGG   !            |
|           WW  WW  A    A  R   R   N   NN  II  N   NN  G    G                |
|           W    W  A    A  R    R  N    N  II  N    N   GGGG   !!!           |
|     For optimal performance we recommend to set                             |
|       NCORE = 2 up to number-of-cores-per-socket                            |
|     This setting can greatly improve the performance of VASP for DFT.       |
|     The default, NCORE=1 might be grossly inefficient on modern             |
|     multi-core architectures or massively parallel machines. Do your        |
|     Unfortunately you need to use the default for GW and RPA                |
|     calculations (for HF NCORE is supported but not extensively tested      |
|     yet).                                                                   |

 POTCAR:    PAW_PBE Ag 02Apr2005
   VRHFIN =Ag : s1 d10

   TITEL  = PAW_PBE Ag 02Apr2005
   POMASS =  107.868; ZVAL   =   11.000    mass and valenz
   ENMAX  =  249.844; ENMIN  =  187.383 eV

 POTCAR:    PAW_PBE Co 02Aug2007
   VRHFIN =Co: d8 s1

   TITEL  = PAW_PBE Co 02Aug2007
   POMASS =   58.933; ZVAL   =    9.000    mass and valenz
   ENMAX  =  267.968; ENMIN  =  200.976 eV

 POTCAR:    PAW_PBE O 08Apr2002
   VRHFIN =O: s2p4

   TITEL  = PAW_PBE O 08Apr2002
   POMASS =   16.000; ZVAL   =    6.000    mass and valenz
   ENMAX  =  400.000; ENMIN  =  300.000 eV

 POTCAR:    PAW_PBE H 15Jun2001
   VRHFIN =H: ultrasoft test

   TITEL  = PAW_PBE H 15Jun2001
   POMASS =    1.000; ZVAL   =    1.000    mass and valenz
   ENMAX  =  250.000; ENMIN  =  200.000 eV

 Optimization of the real space projectors (new method)

 maximal supplied QI-value         = 15.12
 optimisation between [QCUT,QGAM] = [ 11.34, 22.83] = [ 36.00,145.93] Ry
 Optimized for a Real-space Cutoff    1.43 Angstroem

   l    n(q)    QCUT    max X(q) W(low)/X(q) W(high)/X(q)  e(spline)
   2      9    11.338    53.897    0.16E-03    0.20E-03    0.28E-06
   2      9    11.338    52.416    0.16E-03    0.20E-03    0.29E-06
   0     10    11.338   122.045    0.31E-04    0.76E-04    0.15E-06
   0     10    11.338    73.629    0.30E-04    0.72E-04    0.15E-06
   1      9    11.338    15.255    0.20E-03    0.19E-04    0.17E-06
   1      9    11.338     9.562    0.16E-03    0.15E-04    0.14E-06
 Optimization of the real space projectors (new method)

[...]

   l    n(q)    QCUT    max X(q) W(low)/X(q) W(high)/X(q)  e(spline)
   0      7    11.387    20.381    0.39E-03    0.13E-02    0.15E-06
   0      7    11.387    15.268    0.42E-03    0.14E-02    0.17E-06
   1      6    11.387     5.964    0.41E-03    0.11E-02    0.17E-06
   1      6    11.387     5.382    0.39E-03    0.87E-03    0.15E-06
 Optimization of the real space projectors (new method)

 maximal supplied QI-value         = 34.20
 optimisation between [QCUT,QGAM] = [ 11.29, 22.57] = [ 35.68,142.71] Ry
 Optimized for a Real-space Cutoff    1.16 Angstroem

   l    n(q)    QCUT    max X(q) W(low)/X(q) W(high)/X(q)  e(spline)
   0      8    11.287    19.460    0.40E-03    0.73E-03    0.16E-06
   0      8    11.287    12.209    0.38E-03    0.70E-03    0.15E-06
   1      7    11.287     4.655    0.22E-03    0.25E-04    0.22E-06
  PAW_PBE Ag 02Apr2005                  :
  PAW_PBE Co 02Aug2007                  :
  PAW_PBE O 08Apr2002                   :
  PAW_PBE H 15Jun2001                   :

 POSCAR: Ag-Co-OH
  positions in direct lattice
  velocities in cartesian coordinates
 exchange correlation table for  LEXCH =        8
   RHO(1)=    0.500       N(1)  =     2000
   RHO(2)=  100.500       N(2)  =     4000

 VTST: version 3.2, (02/03/18)

 CHAIN: initializing optimizer

 OPT: Using VASP Conjugate-Gradient optimizer
 CHAIN: Read ICHAIN            0

 POSCAR: Ag-Co-OH
  positions in direct lattice
  velocities in cartesian coordinates

 ion  position               nearest neighbor table
   1  0.000  0.000  0.238-   2 2.93   8 2.93   7 2.93   6 2.93   4 2.93  12 2.93  16 2.93  10 2.93
                             3 2.93
   2  0.333  0.000  0.238-   1 2.93   8 2.93   9 2.93   3 2.93   4 2.93   5 2.93  10 2.93  17 2.93
                            11 2.93
   3  0.667  0.000  0.238-   9 2.93   2 2.93   5 2.93  11 2.93   7 2.93  18 2.93   1 2.93   6 2.93
                            12 2.93
   4  0.000  0.333  0.238-   5 2.93   6 2.93   2 2.93   1 2.93   7 2.93  13 2.93  15 2.93   9 2.93
                            10 2.93
   5  0.333  0.333  0.238-   4 2.93   3 2.93   7 2.93   2 2.93   8 2.93  14 2.93  13 2.93  11 2.93
                             6 2.93
   6  0.667  0.333  0.238-   4 2.93   9 2.93   1 2.93  15 2.93   8 2.93  12 2.93   3 2.93   5 2.93
                            14 2.93
   7  0.000  0.667  0.238-   8 2.93   1 2.93   5 2.93   3 2.93   4 2.93  16 2.93  18 2.93  13 2.93
                             9 2.93
   8  0.333  0.667  0.238-   7 2.93   1 2.93   2 2.93   9 2.93   5 2.93  16 2.93   6 2.93  17 2.93
                            14 2.93
   9  0.667  0.667  0.238-   3 2.93   2 2.93   8 2.93   6 2.93  17 2.93   4 2.93  15 2.93   7 2.93
                            18 2.93
  10  0.111  0.111  0.346-  20 2.92  19 2.93  26 2.93  12 2.93  16 2.93  15 2.93  17 2.93  13 2.93
                            11 2.93   2 2.93   1 2.93   4 2.93
  11  0.444  0.111  0.346-  21 2.90  20 2.90  27 2.92  14 2.93  17 2.93  18 2.93   3 2.93  12 2.93
                            13 2.93  10 2.93   5 2.93   2 2.93
  12  0.778  0.111  0.346-  21 2.92  25 2.93  19 2.93  10 2.93  16 2.93  18 2.93  15 2.93  11 2.93
                             1 2.93  14 2.93   6 2.93   3 2.93
  13  0.111  0.444  0.346-  20 2.90  23 2.90  22 2.92  15 2.93  14 2.93  18 2.93  10 2.93  11 2.93
                            16 2.93   4 2.93   5 2.93   7 2.93
  14  0.444  0.444  0.346-  23 2.90  21 2.90  24 2.92  13 2.93  11 2.93  16 2.93   5 2.93  12 2.93
                            17 2.93   8 2.93  15 2.93   6 2.93
  15  0.778  0.444  0.346-  24 2.91  22 2.91  19 2.92  13 2.93  10 2.93  12 2.93  17 2.93  18 2.93
                             4 2.93   6 2.93   9 2.93  14 2.93
  16  0.111  0.778  0.346-  23 2.92  26 2.93  25 2.93  18 2.93  12 2.93  10 2.93  14 2.93  17 2.93
                            13 2.93   7 2.93   8 2.93   1 2.93
  17  0.444  0.778  0.346-  27 2.91  24 2.91  26 2.92  11 2.93  10 2.93   9 2.93  18 2.93  15 2.93
                            16 2.93   2 2.93  14 2.93   8 2.93
  18  0.778  0.778  0.346-  22 2.91  27 2.91  25 2.92  16 2.93  12 2.93  13 2.93  11 2.93  17 2.93
                            15 2.93   7 2.93   3 2.93   9 2.93
  19  0.889  0.222  0.454-  28 2.91  15 2.92  10 2.93  12 2.93  24 2.93  22 2.93  26 2.93  25 2.93
                            32 2.94  31 2.94  20 2.94  21 2.94
  20  0.223  0.223  0.453-  36 2.69  31 2.89  29 2.89  13 2.90  11 2.90  21 2.91  23 2.91  10 2.92
                            27 2.93  22 2.93  19 2.94  26 2.94
  21  0.554  0.223  0.453-  36 2.69  30 2.89  32 2.89  11 2.90  14 2.90  20 2.91  23 2.91  12 2.92
                            27 2.93  24 2.93  25 2.94  19 2.94
  22  0.888  0.556  0.453-  35 2.91  33 2.91  31 2.91  18 2.91  15 2.91  13 2.92  24 2.92  27 2.92
                            25 2.93  19 2.93  23 2.93  20 2.93
  23  0.223  0.554  0.453-  36 2.69  34 2.89  33 2.89  14 2.90  13 2.90  21 2.91  20 2.91  16 2.92
                            22 2.93  24 2.93  26 2.94  25 2.94
  24  0.556  0.556  0.453-  35 2.91  32 2.91  34 2.91  15 2.91  17 2.91  14 2.92  27 2.92  22 2.92
                            19 2.93  26 2.93  23 2.93  21 2.93
  25  0.889  0.889  0.454-  28 2.91  18 2.92  16 2.93  12 2.93  22 2.93  27 2.93  26 2.93  19 2.93
                            33 2.94  30 2.94  23 2.94  21 2.94
  26  0.222  0.889  0.454-  28 2.91  17 2.92  16 2.93  10 2.93  27 2.93  24 2.93  25 2.93  19 2.93
                            34 2.94  29 2.94  23 2.94  20 2.94
  27  0.556  0.888  0.453-  35 2.91  29 2.91  30 2.91  17 2.91  18 2.91  11 2.92  24 2.92  22 2.92
                            26 2.93  25 2.93  20 2.93  21 2.93
  28  0.000  0.000  0.560-  26 2.91  25 2.91  19 2.91  29 2.97  34 2.97  33 2.97  32 2.97  31 2.97
                            30 2.97
  29  0.333  0.008  0.560-  31 2.86  30 2.86  36 2.87  20 2.89  27 2.91  26 2.94  28 2.97  35 2.97
                            34 3.07
  30  0.659  0.008  0.560-  32 2.86  29 2.86  36 2.87  21 2.89  27 2.91  25 2.94  28 2.97  35 2.97
                            33 3.07
  31  0.008  0.333  0.560-  29 2.86  33 2.86  36 2.87  20 2.89  22 2.91  19 2.94  28 2.97  35 2.97
                            32 3.07
  32  0.659  0.333  0.560-  30 2.86  34 2.86  36 2.87  21 2.89  24 2.91  19 2.94  28 2.97  35 2.97
                            31 3.07
  33  0.008  0.659  0.560-  34 2.86  31 2.86  36 2.87  23 2.89  22 2.91  25 2.94  28 2.97  35 2.97
                            30 3.07
  34  0.333  0.659  0.560-  33 2.86  32 2.86  36 2.87  23 2.89  24 2.91  26 2.94  28 2.97  35 2.97
                            29 3.07
  35  0.667  0.667  0.560-  24 2.91  27 2.91  22 2.91  32 2.97  30 2.97  29 2.97  34 2.97  31 2.97
                            33 2.97
  36  0.333  0.333  0.547-  37 1.77  21 2.69  20 2.69  23 2.69  31 2.87  30 2.87  33 2.87  29 2.87
                            34 2.87  32 2.87
  37  0.333  0.333  0.627-  38 0.97  36 1.77
  38  0.333  0.333  0.671-  37 0.97

  LATTYP: Found a hexagonal cell.
 ALAT       =     8.7913665772
 C/A-ratio  =     2.5227160501

  Lattice vectors:

 A1 = (  -4.3956832886,  -7.6135467898,   0.0000000000)
 A2 = (   8.7913665771,   0.0000000000,   0.0000000000)
 A3 = (   0.0000000000,   0.0000000000,  22.1781215668)

Analysis of symmetry for initial positions (statically):
 Subroutine PRICEL returns:
 Original cell was already a primitive cell.

 Routine SETGRP: Setting up the symmetry group for a
 hexagonal supercell.

 Subroutine GETGRP returns: Found  6 space group operations
 (whereof  6 operations were pure point group operations)
 out of a pool of 24 trial point group operations.

The static configuration has the point symmetry C_3v.

Analysis of symmetry for dynamics (positions and initial velocities):
 Subroutine PRICEL returns:
 Original cell was already a primitive cell.

[...]

The dynamic configuration has the point symmetry C_3v.

Analysis of constrained symmetry for selective dynamics:
 Subroutine PRICEL returns:
 Original cell was already a primitive cell.

[...]
     33      -4.3504      2.00000
     34      -4.3263      2.00000
     35      -4.2650      2.00000
     36      -4.2517      2.00000
     37      -4.2211      2.00000
     38      -4.2134      2.00000
     39      -4.1922      2.00000
     40      -4.1580      2.00000
     41      -4.1520      2.00000
     42      -4.1458      2.00000
     43      -4.1221      2.00000
     44      -4.1154      2.00000
     45      -4.0422      2.00000
     46      -4.0135      2.00000
     47      -4.0051      2.00000
     48      -3.9948      2.00000
     49      -3.9892      2.00000
     50      -3.9849      2.00000
     51      -3.9717      2.00000
     52      -3.9653      2.00000
     53      -3.9451      2.00000
     54      -3.9386      2.00000
     55      -3.8767      2.00000
     56      -3.8662      2.00000
     57      -3.8544      2.00000
     58      -3.8503      2.00000
     59      -3.8376      2.00000
     60      -3.8219      2.00000
[...]
    238       6.3738      0.00000
    239       6.4494      0.00000
    240       6.4638      0.00000
    241       6.7310      0.00000
    242       7.1851      0.00000
    243       7.2361      0.00000
    244       7.3190      0.00000
    245       7.3357      0.00000
    246       7.3734      0.00000
    247       7.4165      0.00000
    248       7.4934      0.00000
    249       7.5435      0.00000
    250       7.5992      0.00000
    251       7.6897      0.00000
    252       7.8167      0.00000

 soft charge-density along one line, spin component           1
         0         1         2         3         4         5         6         7         8         9
 total charge-density along one line

------------------------ aborting loop because EDIFF is reached ----------------------------------------

 total charge

# of ion       s       p       d       tot
    1        0.416   0.203   9.178   9.796
    2        0.418   0.203   9.177   9.798
    3        0.418   0.203   9.177   9.798
    4        0.418   0.203   9.177   9.798
    5        0.415   0.204   9.176   9.795
    6        0.418   0.203   9.177   9.798
    7        0.418   0.203   9.177   9.798
    8        0.418   0.203   9.177   9.798
    9        0.413   0.203   9.179   9.794
   10        0.406   0.269   9.164   9.838
   11        0.408   0.268   9.167   9.843
   12        0.406   0.269   9.164   9.838
   13        0.408   0.268   9.167   9.843
   14        0.408   0.268   9.167   9.843
   15        0.402   0.269   9.165   9.836
   16        0.406   0.269   9.164   9.838
   17        0.402   0.269   9.165   9.836
   18        0.402   0.269   9.165   9.836
   19        0.402   0.267   9.165   9.834
   20        0.422   0.293   9.150   9.865
   21        0.422   0.293   9.150   9.865
   22        0.401   0.272   9.167   9.839
   23        0.422   0.293   9.150   9.865
   24        0.401   0.272   9.167   9.839
   25        0.402   0.267   9.165   9.834
   26        0.402   0.267   9.165   9.834
   27        0.401   0.272   9.167   9.839
   28        0.415   0.195   9.179   9.789
   29        0.404   0.201   9.185   9.790
   30        0.404   0.201   9.185   9.790
   31        0.404   0.201   9.185   9.790
   32        0.404   0.201   9.185   9.790
   33        0.404   0.201   9.185   9.790
   34        0.404   0.201   9.185   9.790
   35        0.409   0.199   9.177   9.785
   36        0.371   0.375   7.374   8.120
   37        1.549   3.531   0.000   5.080
   38        0.610   0.127   0.000   0.737
tot         16.846  12.376 328.365 357.588

  FORCE on cell =-STRESS in cart. coord.  units (eV):
  Direction    XX          YY          ZZ          XY          YZ          ZX
  Alpha Z   750.70903   750.70903   750.70903
  Ewald  121790.44781121790.44791************     0.00005     0.00000     0.00004
  Hartree132275.47064132275.47069************     0.00002    -0.00000     0.00003
  E(xc)   -2108.35156 -2108.35155 -2112.59736    -0.00000     0.00000     0.00000
  Local  ************************265161.54124     0.00056    -0.00007    -0.00018
  n-local  -365.27767  -347.67735  -361.17084    10.14204    -0.24975     0.38492
  augment  3387.67637  3387.67657  3386.96696    -0.00018     0.00002     0.00004
  Kinetic  4992.07779  4997.45645  4983.99362     5.23237     1.07597    -0.31192
  Fock        0.00000     0.00000     0.00000     0.00000     0.00000     0.00000
  Total      -5.52140    -5.52140     1.47718    -0.00000     0.00000     0.00000
  in kB      -5.95925    -5.95925     1.59432    -0.00000     0.00000     0.00000

 VOLUME and BASIS-vectors are now :
  energy-cutoff  :      500.00
  volume of cell :     1484.46
      direct lattice vectors                 reciprocal lattice vectors
     8.791366577  0.000000000  0.000000000     0.113747958 -0.065672414  0.000000000
     4.395683289  7.613546790  0.000000000     0.000000000  0.131344829  0.000000000
     0.000000000  0.000000000 22.178121567     0.000000000  0.000000000  0.045089481

  length of vectors
     8.791366577  8.791366577 22.178121567     0.131344829  0.131344829  0.045089481

 FORCES acting on ions
    electron-ion (+dipol)            ewald-force                    non-local-force                 convergence-correction
   0.458E-04 -.283E-04 0.252E+04   -.954E-04 0.593E-04 -.252E+04   -.530E-17 -.344E-17 -.230E+01   -.201E-03 -.223E-03 -.152E+00
   0.602E+00 0.606E+00 0.252E+04   -.657E+00 -.680E+00 -.252E+04   0.243E-01 0.643E-01 -.160E+01   0.355E-01 0.210E-01 -.150E+00
   -.602E+00 0.606E+00 0.252E+04   0.657E+00 -.680E+00 -.252E+04   -.243E-01 0.643E-01 -.160E+01   -.359E-01 0.229E-01 -.150E+00
   0.826E+00 0.218E+00 0.252E+04   -.918E+00 -.229E+00 -.252E+04   0.678E-01 -.111E-01 -.160E+01   0.361E-01 0.204E-01 -.150E+00
   -.532E-05 -.185E-04 0.252E+04   0.981E-04 -.199E-05 -.252E+04   0.259E-18 0.110E-17 -.149E+01   0.626E-02 0.382E-02 -.146E+00
   -.826E+00 0.218E+00 0.252E+04   0.918E+00 -.229E+00 -.252E+04   -.678E-01 -.111E-01 -.160E+01   -.376E-01 0.212E-01 -.150E+00
   0.224E+00 -.824E+00 0.252E+04   -.261E+00 0.909E+00 -.252E+04   0.435E-01 -.532E-01 -.160E+01   0.232E-02 -.420E-01 -.150E+00
   -.224E+00 -.824E+00 0.252E+04   0.261E+00 0.909E+00 -.252E+04   -.435E-01 -.532E-01 -.160E+01   -.758E-03 -.431E-01 -.150E+00
   0.363E-04 -.130E-04 0.252E+04   0.792E-04 -.643E-04 -.252E+04   0.210E-17 0.101E-17 -.201E+01   -.659E-02 -.339E-02 -.111E+00
   0.602E+01 0.348E+01 0.871E+03   -.563E+01 -.325E+01 -.870E+03   -.362E+00 -.209E+00 -.748E+00   -.124E-01 -.715E-02 -.251E+00
   -.295E-04 0.746E+01 0.882E+03   0.419E-04 -.744E+01 -.882E+03   0.465E-12 0.708E-01 -.360E+00   0.686E-02 -.122E+00 -.313E+00
   -.602E+01 0.348E+01 0.871E+03   0.563E+01 -.325E+01 -.870E+03   0.362E+00 -.209E+00 -.748E+00   0.103E-01 -.632E-02 -.250E+00
   0.646E+01 -.373E+01 0.882E+03   -.644E+01 0.372E+01 -.882E+03   0.613E-01 -.354E-01 -.360E+00   -.103E+00 0.671E-01 -.313E+00
   -.646E+01 -.373E+01 0.882E+03   0.644E+01 0.372E+01 -.882E+03   -.613E-01 -.354E-01 -.360E+00   0.113E+00 0.655E-01 -.314E+00
   0.164E-04 0.122E+01 0.872E+03   -.109E-03 -.139E+01 -.871E+03   0.332E-12 0.506E-01 -.695E+00   -.175E-02 0.929E-01 -.256E+00
   -.802E-05 -.695E+01 0.871E+03   0.208E-04 0.650E+01 -.870E+03   0.274E-11 0.418E+00 -.748E+00   -.348E-03 0.120E-01 -.250E+00
   0.106E+01 -.611E+00 0.872E+03   -.120E+01 0.695E+00 -.871E+03   0.438E-01 -.253E-01 -.695E+00   0.796E-01 -.480E-01 -.256E+00
   -.106E+01 -.611E+00 0.872E+03   0.120E+01 0.695E+00 -.871E+03   -.438E-01 -.253E-01 -.695E+00   -.789E-01 -.456E-01 -.253E+00
   0.420E-04 0.310E+01 -.817E+03   -.129E-03 -.331E+01 0.816E+03   0.116E-11 0.176E+00 0.721E+00   -.659E-02 0.304E-01 -.336E+00
   0.378E+02 0.218E+02 -.759E+03   -.362E+02 -.209E+02 0.761E+03   -.114E+01 -.655E+00 -.109E+01   -.444E+00 -.256E+00 -.844E+00
   -.378E+02 0.218E+02 -.759E+03   0.362E+02 -.209E+02 0.761E+03   0.114E+01 -.655E+00 -.109E+01   0.445E+00 -.258E+00 -.844E+00
   0.151E+02 -.871E+01 -.801E+03   -.151E+02 0.870E+01 0.801E+03   0.215E+00 -.124E+00 0.549E+00   -.194E+00 0.121E+00 -.482E+00
   -.618E-04 -.436E+02 -.759E+03   0.472E-04 0.417E+02 0.761E+03   0.861E-11 0.131E+01 -.109E+01   -.612E-03 0.515E+00 -.844E+00
   -.151E+02 -.871E+01 -.801E+03   0.151E+02 0.870E+01 0.801E+03   -.215E+00 -.124E+00 0.549E+00   0.205E+00 0.118E+00 -.482E+00
   -.269E+01 -.155E+01 -.817E+03   0.287E+01 0.166E+01 0.816E+03   -.153E+00 -.881E-01 0.721E+00   -.351E-01 -.204E-01 -.336E+00
   0.269E+01 -.155E+01 -.817E+03   -.287E+01 0.166E+01 0.816E+03   0.153E+00 -.881E-01 0.721E+00   0.227E-01 -.210E-01 -.336E+00
   0.214E-04 0.174E+02 -.801E+03   0.109E-03 -.174E+02 0.801E+03   0.163E-11 0.248E+00 0.549E+00   0.711E-02 -.229E+00 -.482E+00
   0.546E-04 -.374E-04 -.249E+04   -.115E-03 0.781E-04 0.248E+04   -.198E-17 -.250E-17 0.178E+01   -.472E-03 -.409E-03 -.127E+00
   0.417E+02 0.719E+02 -.247E+04   -.413E+02 -.716E+02 0.247E+04   -.547E-01 0.157E+00 0.243E+01   -.431E+00 -.626E+00 -.288E+00
   -.417E+02 0.719E+02 -.247E+04   0.413E+02 -.716E+02 0.247E+04   0.547E-01 0.157E+00 0.243E+01   0.431E+00 -.625E+00 -.289E+00
   0.831E+02 0.129E+00 -.247E+04   -.827E+02 0.744E-01 0.247E+04   0.108E+00 -.126E+00 0.243E+01   -.757E+00 -.604E-01 -.288E+00
   -.831E+02 0.129E+00 -.247E+04   0.827E+02 0.743E-01 0.247E+04   -.108E+00 -.126E+00 0.243E+01   0.756E+00 -.603E-01 -.288E+00
   0.414E+02 -.720E+02 -.247E+04   -.414E+02 0.716E+02 0.247E+04   0.163E+00 -.311E-01 0.243E+01   -.325E+00 0.686E+00 -.289E+00
   -.414E+02 -.720E+02 -.247E+04   0.414E+02 0.716E+02 0.247E+04   -.163E+00 -.311E-01 0.243E+01   0.326E+00 0.685E+00 -.288E+00
   0.212E-04 -.124E-04 -.249E+04   0.107E-03 -.663E-04 0.248E+04   0.223E-17 0.371E-17 0.184E+01   -.610E-02 -.309E-02 -.168E+00
   -.307E-04 -.147E-04 -.171E+04   0.866E-04 0.126E-04 0.171E+04   -.451E-18 -.154E-17 -.503E-01   0.638E-02 0.390E-02 -.702E+00
   0.195E-03 -.926E-04 -.164E+04   0.296E-04 0.455E-06 0.162E+04   -.288E-17 -.172E-17 0.221E+02   0.385E-02 0.236E-02 0.830E+00
   0.757E-05 -.131E-04 -.324E+03   0.213E-05 0.898E-08 0.332E+03   0.115E-18 0.126E-18 -.841E+01   0.211E-03 0.129E-03 0.158E+00
   0.566E-03 -.799E-03 -.102E+01   0.116E-12 0.181E-12 0.665E-11   0.545E-16 0.101E-15 0.116E+02   0.164E-01 0.130E-01 -.105E+02

 POSITION                                       TOTAL-FORCE (eV/Angst)
      0.00000      0.00000      5.28219         0.000000     -0.000000      0.033784
      2.93046      0.00000      5.28219         0.004712      0.012204      0.046384
      5.86091      0.00000      5.28219        -0.004712      0.012204      0.046384
      1.46523      2.53785      5.28219         0.012924     -0.002021      0.046384
      4.39568      2.53785      5.28219         0.000000     -0.000000      0.033768
      7.32614      2.53785      5.28219        -0.012924     -0.002021      0.046384
      2.93046      5.07570      5.28219         0.008213     -0.010182      0.046384
      5.86091      5.07570      5.28219        -0.008213     -0.010182      0.046384
      8.79137      5.07570      5.28219         0.000000     -0.000000      0.025160
      1.46523      0.84595      7.67490         0.022336      0.012895      0.008806
      4.39568      0.84595      7.67490        -0.000000     -0.031433     -0.078039
      7.32614      0.84595      7.67490        -0.022336      0.012895      0.008806
      2.93046      3.38380      7.67490        -0.027222      0.015717     -0.078039
      5.86091      3.38380      7.67490         0.027222      0.015717     -0.078039
      8.79137      3.38380      7.67490        -0.000000     -0.025256     -0.009092
      4.39568      5.92165      7.67490        -0.000000     -0.025791      0.008806
      7.32614      5.92165      7.67490        -0.021872      0.012628     -0.009092
     10.25659      5.92165      7.67490         0.021872      0.012628     -0.009092
      8.79137      1.69398     10.06180        -0.000000     -0.001305      0.006299
      2.94231      1.69874     10.03918         0.026034      0.015031     -0.064895
      5.84906      1.69874     10.03918        -0.026034      0.015031     -0.064895
     10.25255      4.23208     10.04993         0.029134     -0.016820     -0.015446
      4.39568      4.21606     10.03918        -0.000000     -0.030061     -0.064895
      7.33018      4.23208     10.04993        -0.029134     -0.016820     -0.015446
     11.72002      6.76656     10.06180         0.001130      0.000652      0.006299
      5.86271      6.76656     10.06180        -0.001130      0.000652      0.006299
      8.79137      6.76293     10.04993         0.000000      0.033641     -0.015446
      0.00000      0.00000     12.42562         0.000000     -0.000000     -0.015728
      2.96563      0.06260     12.41952        -0.098444     -0.203114     -0.083390
      5.82574      0.06260     12.41952         0.098444     -0.203114     -0.083390
      1.53702      2.53701     12.41952        -0.225124      0.016302     -0.083390
      7.25434      2.53701     12.41952         0.225124      0.016302     -0.083390
      2.96708      5.01394     12.41952        -0.126680      0.186812     -0.083390
      5.82429      5.01394     12.41952         0.126680      0.186812     -0.083390
      8.79137      5.07570     12.42127         0.000000     -0.000000      0.016601
      4.39568      2.53785     12.13550         0.000000     -0.000000      0.508497
      4.39568      2.53785     13.90726         0.000000     -0.000000      0.176608
      4.39568      2.53785     14.87263         0.000000     -0.000000     -0.099558
    total drift:                                0.016948      0.012160      0.052502

  FREE ENERGIE OF THE ION-ELECTRON SYSTEM (eV)
  free  energy   TOTEN  =      -104.57417711 eV

  energy  without entropy=     -104.57417711  energy(sigma->0) =     -104.57417711

 stress matrix after NEB project (eV)
     -5.52140     -0.00000      0.00000
     -0.00000     -5.52140      0.00000
      0.00000      0.00000      1.47718
  FORCES: max atom, RMS     0.176608    0.032888
  FORCE total and by dimension    0.202737    0.176608
  Stress total and by dimension    7.946932    5.521398
|           W    W    AA    RRRRR   N    N  II  N    N   GGGG   !!!           |
|           W    W   A  A   R    R  NN   N  II  NN   N  G    G  !!!           |
|           W    W  A    A  R    R  N N  N  II  N N  N  G       !!!           |
|           W WW W  AAAAAA  RRRRR   N  N N  II  N  N N  G  GGG   !            |
|           WW  WW  A    A  R   R   N   NN  II  N   NN  G    G                |
|           W    W  A    A  R    R  N    N  II  N    N   GGGG   !!!           |
|     Tetrahedron method does not include variations of the Fermi             |
|     occupations, so forces and stress will be inaccurate. We suggest        |
|     using a different smearing scheme ISMEAR = 1 or 2 for metals in         |
|     relaxations.                                                            |

 total charge

# of ion       s       p       d       tot
    1        0.416   0.203   9.178   9.796
    2        0.418   0.203   9.177   9.798
    3        0.418   0.203   9.177   9.798
    4        0.418   0.203   9.177   9.798
    5        0.415   0.204   9.176   9.795
    6        0.418   0.203   9.177   9.798
    7        0.418   0.203   9.177   9.798
    8        0.418   0.203   9.177   9.798
    9        0.413   0.203   9.179   9.794
   10        0.406   0.269   9.164   9.838
   11        0.408   0.268   9.167   9.843
   12        0.406   0.269   9.164   9.838
   13        0.408   0.268   9.167   9.843
   14        0.408   0.268   9.167   9.843
   15        0.402   0.269   9.165   9.836
   16        0.406   0.269   9.164   9.838
   17        0.402   0.269   9.165   9.836
   18        0.402   0.269   9.165   9.836
   19        0.402   0.267   9.165   9.834
   20        0.422   0.293   9.150   9.865
   21        0.422   0.293   9.150   9.865
   22        0.401   0.272   9.167   9.839
   23        0.422   0.293   9.150   9.865
   24        0.401   0.272   9.167   9.839
   25        0.402   0.267   9.165   9.834
   26        0.402   0.267   9.165   9.834
   27        0.401   0.272   9.167   9.839
   28        0.415   0.195   9.179   9.789
   29        0.404   0.201   9.185   9.790
   30        0.404   0.201   9.185   9.790
   31        0.404   0.201   9.185   9.790
   32        0.404   0.201   9.185   9.790
   33        0.404   0.201   9.185   9.790
   34        0.404   0.201   9.185   9.790
   35        0.409   0.199   9.177   9.785
   36        0.371   0.375   7.374   8.120
   37        1.549   3.531   0.000   5.080
   38        0.610   0.127   0.000   0.737
tot         16.846  12.376 328.365 357.588

 BZINTS: Fermi energy:    0.996240;  401.000000 electrons
         Band energy:-0.125290E+04;  BLOECHL correction:   -0.028812