 vasp.6.2.0 18Jan21 (build Jun 12 2021 23:27:24) complex

 executed on             LinuxIFC date 2022.05.27  05:10:33

 INCAR:
   ISMEAR = -5
   SIGMA = 0.1
   ISPIN = 1
   EDIFF = 1.d-5
   EDIFFG = -0.01
   NSW = 0
   NELM = 150
   ENCUT = 500
   ISIF = 2
   IBRION = 2
   LREAL = Auto
   ALGO = Fast
   ICHARG = 11
   LORBIT = 10
   LCHARG = .F.
   LWAVE = .F.

 POTCAR:    PAW_PBE Au 04Oct2007
 POTCAR:    PAW_PBE Ru 04Feb2005
 POTCAR:    PAW_PBE N 08Apr2002
|           W    W    AA    RRRRR   N    N  II  N    N   GGGG   !!!           |
|           W    W   A  A   R    R  NN   N  II  NN   N  G    G  !!!           |
|           W    W  A    A  R    R  N N  N  II  N N  N  G       !!!           |
|           W WW W  AAAAAA  RRRRR   N  N N  II  N  N N  G  GGG   !            |
|           WW  WW  A    A  R   R   N   NN  II  N   NN  G    G                |
|           W    W  A    A  R    R  N    N  II  N    N   GGGG   !!!           |
|     For optimal performance we recommend to set                             |
|       NCORE = 2 up to number-of-cores-per-socket                            |
|     This setting can greatly improve the performance of VASP for DFT.       |
|     The default, NCORE=1 might be grossly inefficient on modern             |
|     multi-core architectures or massively parallel machines. Do your        |
|     Unfortunately you need to use the default for GW and RPA                |
|     calculations (for HF NCORE is supported but not extensively tested      |
|     yet).                                                                   |

 POTCAR:    PAW_PBE Au 04Oct2007
   VRHFIN =Au: s1d10

   TITEL  = PAW_PBE Au 04Oct2007
   POMASS =  196.966; ZVAL   =   11.000    mass and valenz
   ENMAX  =  229.943; ENMIN  =  172.457 eV

 POTCAR:    PAW_PBE Ru 04Feb2005
   VRHFIN =Ru: s1 d7

   TITEL  = PAW_PBE Ru 04Feb2005
   POMASS =  101.070; ZVAL   =    8.000    mass and valenz
   ENMAX  =  213.271; ENMIN  =  159.953 eV

 POTCAR:    PAW_PBE N 08Apr2002
   VRHFIN =N: s2p3

   TITEL  = PAW_PBE N 08Apr2002
   POMASS =   14.001; ZVAL   =    5.000    mass and valenz
   ENMAX  =  400.000; ENMIN  =  300.000 eV

 Optimization of the real space projectors (new method)

 maximal supplied QI-value         = 15.12
 optimisation between [QCUT,QGAM] = [ 11.34, 22.83] = [ 36.00,145.93] Ry
 Optimized for a Real-space Cutoff    1.39 Angstroem

   l    n(q)    QCUT    max X(q) W(low)/X(q) W(high)/X(q)  e(spline)
   2      9    11.338    60.898    0.39E-03    0.42E-03    0.21E-06
   2      9    11.338    58.894    0.40E-03    0.42E-03    0.22E-06
   0      9    11.338   109.617    0.13E-03    0.20E-04    0.13E-06
   0      9    11.338    75.026    0.13E-03    0.20E-04    0.13E-06
   1      9    11.338    16.344    0.33E-04    0.24E-03    0.18E-06
   1      9    11.338    10.160    0.26E-04    0.19E-03    0.15E-06
 Optimization of the real space projectors (new method)

[...]

   l    n(q)    QCUT    max X(q) W(low)/X(q) W(high)/X(q)  e(spline)
   2      9    11.327    61.733    0.26E-03    0.14E-03    0.16E-06
   2      9    11.327    59.886    0.26E-03    0.14E-03    0.17E-06
   0     10    11.327    23.358    0.19E-03    0.14E-04    0.46E-06
   0     10    11.327    11.320    0.15E-03    0.11E-04    0.37E-06
   1     10    11.327    14.765    0.49E-04    0.26E-03    0.24E-06
   1     10    11.327     8.283    0.37E-04    0.20E-03    0.18E-06
 Optimization of the real space projectors (new method)

 maximal supplied QI-value         = 25.13
 optimisation between [QCUT,QGAM] = [ 11.31, 22.87] = [ 35.82,146.48] Ry
 Optimized for a Real-space Cutoff    1.27 Angstroem

   l    n(q)    QCUT    max X(q) W(low)/X(q) W(high)/X(q)  e(spline)
   0      9    11.310    79.467    0.75E-04    0.16E-03    0.36E-06
   0      9    11.310    66.151    0.74E-04    0.16E-03    0.36E-06
   1      8    11.310    17.416    0.35E-03    0.12E-03    0.95E-06
   1      8    11.310    12.382    0.37E-03    0.13E-03    0.98E-06
  PAW_PBE Au 04Oct2007                  :
  PAW_PBE Ru 04Feb2005                  :
  PAW_PBE N 08Apr2002                   :

 POSCAR: Au-Ru-N2
  positions in direct lattice
  velocities in cartesian coordinates
 exchange correlation table for  LEXCH =        8
   RHO(1)=    0.500       N(1)  =     2000
   RHO(2)=  100.500       N(2)  =     4000

 VTST: version 3.2, (02/03/18)

 CHAIN: initializing optimizer

 OPT: Using VASP Conjugate-Gradient optimizer
 CHAIN: Read ICHAIN            0

 POSCAR: Au-Ru-N2
  positions in direct lattice
  velocities in cartesian coordinates

 ion  position               nearest neighbor table
   1  0.000  0.000  0.238-  16 2.94  12 2.94   6 2.94   8 2.94   7 2.94   3 2.94  10 2.94   4 2.94
                             2 2.94
   2  0.333  0.000  0.238-   9 2.94  11 2.94  17 2.94  10 2.94   8 2.94   4 2.94   5 2.94   1 2.94
                             3 2.94
   3  0.667  0.000  0.238-   7 2.94  18 2.94  12 2.94   1 2.94  11 2.94   5 2.94   6 2.94   9 2.94
                             2 2.94
   4  0.000  0.333  0.238-  10 2.94   6 2.94   5 2.94  13 2.94   2 2.94  15 2.94   9 2.94   1 2.94
                             7 2.94
   5  0.333  0.333  0.238-  13 2.94   7 2.94  11 2.94   4 2.94   2 2.94  14 2.94   3 2.94   8 2.94
                             6 2.94
   6  0.667  0.333  0.238-  15 2.94  14 2.94   1 2.94  12 2.94   4 2.94   9 2.94   8 2.94   3 2.94
                             5 2.94
   7  0.000  0.667  0.238-  18 2.94   3 2.94  16 2.94   5 2.94   1 2.94  13 2.94   8 2.94   4 2.94
                             9 2.94
   8  0.333  0.667  0.238-   9 2.94  17 2.94   1 2.94   2 2.94  14 2.94  16 2.94   6 2.94   7 2.94
                             5 2.94
   9  0.667  0.667  0.238-   2 2.94   8 2.94  17 2.94   6 2.94  15 2.94   4 2.94   3 2.94  18 2.94
                             7 2.94
  10  0.111  0.111  0.346-  20 2.91  26 2.94  19 2.94  11 2.94  17 2.94   2 2.94   4 2.94   1 2.94
                            12 2.94  16 2.94  13 2.94  15 2.94
  11  0.444  0.111  0.346-  20 2.91  21 2.91  27 2.94  13 2.94   2 2.94  10 2.94  17 2.94   5 2.94
                             3 2.94  18 2.94  14 2.94  12 2.94
  12  0.778  0.111  0.346-  21 2.91  25 2.94  19 2.94  16 2.94  18 2.94   1 2.94  14 2.94  15 2.94
                             3 2.94   6 2.94  10 2.94  11 2.94
  13  0.111  0.444  0.346-  23 2.91  20 2.91  22 2.94   5 2.94  18 2.94  11 2.94   7 2.94   4 2.94
                            16 2.94  10 2.94  14 2.94  15 2.94
  14  0.444  0.444  0.346-  21 2.91  23 2.91  24 2.94  15 2.94   6 2.94  12 2.94   8 2.94  17 2.94
                             5 2.94  16 2.94  13 2.94  11 2.94
  15  0.778  0.444  0.346-  24 2.92  22 2.92  19 2.94  14 2.94   6 2.94  17 2.94  12 2.94   9 2.94
                             4 2.94  10 2.94  13 2.94  18 2.94
  16  0.111  0.778  0.346-  23 2.91  25 2.94  26 2.94  18 2.94  12 2.94   7 2.94   1 2.94   8 2.94
                            13 2.94  10 2.94  14 2.94  17 2.94
  17  0.444  0.778  0.346-  27 2.92  24 2.92  26 2.94   9 2.94  15 2.94   2 2.94  10 2.94  11 2.94
                             8 2.94  14 2.94  16 2.94  18 2.94
  18  0.778  0.778  0.346-  22 2.92  27 2.92  25 2.94  16 2.94   7 2.94  13 2.94  12 2.94   3 2.94
                            11 2.94   9 2.94  15 2.94  17 2.94
  19  0.889  0.222  0.454-  15 2.94  10 2.94  12 2.94  24 2.94  22 2.94  26 2.94  25 2.94  21 2.94
                            20 2.94  28 2.95  32 2.97  31 2.97
  20  0.223  0.223  0.452-  36 2.78  11 2.91  13 2.91  10 2.91  23 2.93  21 2.93  29 2.94  31 2.94
                            26 2.94  19 2.94  27 2.95  22 2.95
  21  0.555  0.223  0.452-  36 2.78  14 2.91  11 2.91  12 2.91  20 2.93  23 2.93  30 2.94  32 2.94
                            25 2.94  19 2.94  27 2.95  24 2.95
  22  0.887  0.557  0.453-  24 2.91  27 2.91  18 2.92  15 2.92  13 2.94  25 2.94  19 2.94  23 2.95
                            20 2.95  35 2.96  33 2.96  31 2.96
  23  0.223  0.555  0.452-  36 2.78  13 2.91  14 2.91  16 2.91  20 2.93  21 2.93  33 2.94  34 2.94
                            25 2.94  26 2.94  22 2.95  24 2.95
  24  0.557  0.557  0.453-  27 2.91  22 2.91  15 2.92  17 2.92  14 2.94  26 2.94  19 2.94  21 2.95
                            23 2.95  35 2.96  32 2.96  34 2.96
  25  0.889  0.889  0.454-  18 2.94  16 2.94  12 2.94  22 2.94  27 2.94  19 2.94  26 2.94  23 2.94
                            21 2.94  28 2.95  33 2.97  30 2.97
  26  0.222  0.889  0.454-  17 2.94  10 2.94  16 2.94  27 2.94  24 2.94  19 2.94  25 2.94  20 2.94
                            23 2.94  28 2.95  29 2.97  34 2.97
  27  0.557  0.887  0.453-  24 2.91  22 2.91  17 2.92  18 2.92  11 2.94  26 2.94  25 2.94  20 2.95
                            21 2.95  35 2.96  29 2.96  30 2.96
  28  0.000  0.000  0.563-  25 2.95  19 2.95  26 2.95  34 2.97  32 2.97  33 2.97  30 2.97  31 2.97
                            29 2.97
  29  0.333  0.007  0.562-  31 2.88  30 2.88  36 2.89  20 2.94  27 2.96  28 2.97  35 2.97  26 2.97
                            34 3.05
  30  0.660  0.007  0.562-  32 2.88  29 2.88  36 2.89  21 2.94  27 2.96  28 2.97  35 2.97  25 2.97
                            33 3.05
  31  0.007  0.333  0.562-  29 2.88  33 2.88  36 2.89  20 2.94  22 2.96  28 2.97  35 2.97  19 2.97
                            32 3.05
  32  0.660  0.333  0.562-  30 2.88  34 2.88  36 2.89  21 2.94  24 2.96  28 2.97  35 2.97  19 2.97
                            31 3.05
  33  0.007  0.660  0.562-  34 2.88  31 2.88  36 2.89  23 2.94  22 2.96  28 2.97  35 2.97  25 2.97
                            30 3.05
  34  0.333  0.660  0.562-  33 2.88  32 2.88  36 2.89  23 2.94  24 2.96  28 2.97  35 2.97  26 2.97
                            29 3.05
  35  0.667  0.667  0.563-  24 2.96  27 2.96  22 2.96  29 2.97  34 2.97  32 2.97  31 2.97  30 2.97
                            33 2.97
  36  0.333  0.333  0.552-  38 2.42  37 2.42  20 2.78  23 2.78  21 2.78  33 2.89  31 2.89  29 2.89
                            30 2.89  34 2.89  32 2.89
  37  0.269  0.332  0.658-  38 1.14  36 2.42
  38  0.398  0.332  0.658-  37 1.14  36 2.42

  LATTYP: Found a hexagonal cell.
 ALAT       =     8.8135128021
 C/A-ratio  =     2.5184286595

  Lattice vectors:

 A1 = (  -4.4067569092,  -7.6327256898,   0.0000000000)
 A2 = (   8.8135128021,   0.0000000000,   0.0000000000)
 A3 = (   0.0000000000,   0.0000000000,  22.1962032318)

Analysis of symmetry for initial positions (statically):
 Subroutine PRICEL returns:
 Original cell was already a primitive cell.

 Routine SETGRP: Setting up the symmetry group for a
 hexagonal supercell.

 Subroutine GETGRP returns: Found  2 space group operations
 (whereof  2 operations were pure point group operations)
 out of a pool of 24 trial point group operations.

The static configuration has the point symmetry C_1h.

Analysis of symmetry for dynamics (positions and initial velocities):
 Subroutine PRICEL returns:
 Original cell was already a primitive cell.

[...]

The dynamic configuration has the point symmetry C_1h.

Analysis of constrained symmetry for selective dynamics:
 Subroutine PRICEL returns:
 Original cell was already a primitive cell.

 Routine SETGRP: Setting up the symmetry group for a
 hexagonal supercell.

[...]
     33      -4.6482      2.00000
     34      -4.6052      2.00000
     35      -4.5975      2.00000
     36      -4.5707      2.00000
     37      -4.5643      2.00000
     38      -4.5420      2.00000
     39      -4.4362      2.00000
     40      -4.4131      2.00000
     41      -4.3907      2.00000
     42      -4.3584      2.00000
     43      -4.3353      2.00000
     44      -4.2864      2.00000
     45      -4.2213      2.00000
     46      -4.1944      2.00000
     47      -4.1447      2.00000
     48      -4.1221      2.00000
     49      -4.1089      2.00000
     50      -4.1038      2.00000
     51      -3.9952      2.00000
     52      -3.9738      2.00000
     53      -3.9426      2.00000
     54      -3.9311      2.00000
     55      -3.9266      2.00000
     56      -3.9213      2.00000
     57      -3.9101      2.00000
     58      -3.8668      2.00000
     59      -3.8251      2.00000
     60      -3.7889      2.00000
[...]
    238       6.2945      0.00000
    239       6.4441      0.00000
    240       6.4785      0.00000
    241       6.5198      0.00000
    242       6.6267      0.00000
    243       6.7056      0.00000
    244       6.7451      0.00000
    245       6.8126      0.00000
    246       6.9611      0.00000
    247       7.0384      0.00000
    248       7.0742      0.00000
    249       7.3374      0.00000
    250       7.3660      0.00000
    251       7.4750      0.00000
    252       7.5005      0.00000

 soft charge-density along one line, spin component           1
         0         1         2         3         4         5         6         7         8         9
 total charge-density along one line

------------------------ aborting loop because EDIFF is reached ----------------------------------------

 total charge

# of ion       s       p       d       tot
    1        0.545   0.239   8.767   9.550
    2        0.545   0.241   8.763   9.549
    3        0.545   0.241   8.763   9.549
    4        0.545   0.240   8.764   9.550
    5        0.541   0.243   8.760   9.544
    6        0.545   0.240   8.764   9.550
    7        0.546   0.241   8.764   9.550
    8        0.546   0.241   8.764   9.550
    9        0.541   0.239   8.770   9.550
   10        0.521   0.310   8.767   9.598
   11        0.524   0.306   8.781   9.612
   12        0.521   0.310   8.767   9.598
   13        0.524   0.307   8.781   9.611
   14        0.524   0.307   8.781   9.611
   15        0.515   0.309   8.777   9.600
   16        0.523   0.310   8.765   9.598
   17        0.514   0.309   8.777   9.600
   18        0.514   0.309   8.777   9.600
   19        0.515   0.302   8.776   9.592
   20        0.544   0.330   8.751   9.625
   21        0.544   0.330   8.751   9.625
   22        0.507   0.309   8.776   9.592
   23        0.545   0.332   8.748   9.625
   24        0.507   0.309   8.776   9.592
   25        0.518   0.301   8.776   9.595
   26        0.518   0.301   8.776   9.595
   27        0.508   0.309   8.777   9.593
   28        0.539   0.228   8.766   9.534
   29        0.557   0.243   8.754   9.554
   30        0.557   0.243   8.754   9.554
   31        0.551   0.242   8.757   9.550
   32        0.551   0.242   8.757   9.550
   33        0.557   0.243   8.754   9.554
   34        0.557   0.243   8.754   9.554
   35        0.533   0.229   8.768   9.530
   36        0.400   0.413   6.525   7.338
   37        1.363   2.449   0.000   3.812
   38        1.363   2.449   0.000   3.812
tot         21.815  14.983 313.346 350.145

  FORCE on cell =-STRESS in cart. coord.  units (eV):
  Direction    XX          YY          ZZ          XY          YZ          ZX
  Alpha Z  1027.39437  1027.39437  1027.39437
  Ewald  118369.81974118051.30842************    -0.00032     0.32142    -0.00013
  Hartree127088.69852126975.54905************     0.00001     0.38650    -0.00003
  E(xc)   -1806.55179 -1807.77373 -1814.16781     0.00012    -0.02681    -0.00001
  Local  ************************257493.91718     0.00244    -1.10563     0.00002
  n-local   -76.87626   -64.60922   -44.30658     5.25492     0.15258     0.23830
  augment  2414.12399  2413.50304  2429.96101    -0.00140     0.10011     0.00002
  Kinetic  5619.88097  5636.10965  5685.96581     1.80321     0.29406     0.16697
  Fock        0.00000     0.00000     0.00000     0.00000     0.00000     0.00000
  Total     -20.61276   -20.90263     3.22043    -0.00000     0.12222     0.00000
  in kB     -22.11767   -22.42870     3.45555    -0.00000     0.13115     0.00000

 VOLUME and BASIS-vectors are now :
  energy-cutoff  :      500.00
  volume of cell :     1493.16
      direct lattice vectors                 reciprocal lattice vectors
     8.813512802  0.000000000  0.000000000     0.113462137 -0.065507406  0.000000000
     4.406756909  7.632725690  0.000000000     0.000000000  0.131014796  0.000000000
     0.000000000  0.000000000 22.196203232     0.000000000  0.000000000  0.045052750

  length of vectors
     8.813512802  8.813512802 22.196203232     0.131014796  0.131014796  0.045052750

 FORCES acting on ions
    electron-ion (+dipol)            ewald-force                    non-local-force                 convergence-correction
   -.200E-04 -.172E-01 0.250E+04   0.519E-04 -.109E-01 -.249E+04   0.519E-09 0.779E-02 -.107E+01   -.182E-03 0.173E-01 -.352E+00
   0.427E+00 0.294E+00 0.250E+04   -.487E+00 -.371E+00 -.250E+04   0.432E-01 0.456E-01 -.263E+00   0.167E-01 0.476E-01 -.476E+00
   -.427E+00 0.294E+00 0.250E+04   0.487E+00 -.371E+00 -.250E+04   -.432E-01 0.456E-01 -.263E+00   -.164E-01 0.496E-01 -.476E+00
   0.451E+00 0.236E+00 0.250E+04   -.556E+00 -.240E+00 -.250E+04   0.708E-01 0.103E-01 -.279E+00   0.464E-01 -.159E-01 -.469E+00
   0.741E-05 0.724E-04 0.250E+04   0.951E-04 0.157E-02 -.250E+04   0.807E-09 0.121E-01 -.183E+00   0.424E-02 -.132E-01 -.472E+00
   -.451E+00 0.236E+00 0.250E+04   0.556E+00 -.240E+00 -.250E+04   -.708E-01 0.103E-01 -.279E+00   -.479E-01 -.149E-01 -.468E+00
   0.513E-01 -.525E+00 0.250E+04   -.682E-01 0.611E+00 -.250E+04   0.214E-01 -.602E-01 -.247E+00   0.134E-01 -.318E-01 -.475E+00
   -.513E-01 -.525E+00 0.250E+04   0.681E-01 0.611E+00 -.250E+04   -.214E-01 -.602E-01 -.247E+00   -.116E-01 -.328E-01 -.475E+00
   0.197E-04 -.328E-03 0.250E+04   0.166E-03 0.936E-02 -.250E+04   -.435E-09 -.653E-02 -.611E+00   -.461E-02 -.336E-02 -.443E+00
   0.492E+01 0.290E+01 0.864E+03   -.444E+01 -.264E+01 -.863E+03   -.370E+00 -.194E+00 -.774E+00   -.584E-01 -.327E-01 -.772E-01
   0.141E-04 0.482E+01 0.870E+03   0.148E-03 -.487E+01 -.869E+03   0.388E-08 0.583E-01 -.306E+00   0.364E-02 -.718E-01 -.510E-01
   -.492E+01 0.290E+01 0.864E+03   0.444E+01 -.264E+01 -.863E+03   0.370E+00 -.194E+00 -.774E+00   0.572E-01 -.316E-01 -.782E-01
   0.411E+01 -.239E+01 0.870E+03   -.415E+01 0.246E+01 -.869E+03   0.553E-01 -.487E-01 -.305E+00   -.683E-01 0.129E-01 -.496E-01
   -.411E+01 -.239E+01 0.870E+03   0.415E+01 0.246E+01 -.869E+03   -.553E-01 -.487E-01 -.305E+00   0.757E-01 0.124E-01 -.506E-01
   0.312E-04 0.260E+01 0.866E+03   0.236E-03 -.271E+01 -.865E+03   0.256E-08 0.385E-01 -.523E+00   -.209E-02 0.355E-01 -.259E-01
   -.215E-04 -.577E+01 0.864E+03   0.163E-03 0.514E+01 -.863E+03   0.302E-07 0.454E+00 -.795E+00   0.381E-04 0.971E-01 -.745E-01
   0.232E+01 -.136E+01 0.865E+03   -.240E+01 0.140E+01 -.865E+03   0.180E-01 -.220E-01 -.482E+00   0.303E-01 -.697E-02 -.312E-01
   -.232E+01 -.136E+01 0.865E+03   0.240E+01 0.140E+01 -.865E+03   -.180E-01 -.220E-01 -.482E+00   -.302E-01 -.537E-02 -.312E-01
   -.409E-04 0.273E+01 -.800E+03   0.535E-04 -.293E+01 0.798E+03   0.523E-08 0.786E-01 0.656E+00   0.343E-02 0.104E+00 0.466E+00
   0.127E+02 0.774E+01 -.763E+03   -.119E+02 -.727E+01 0.763E+03   -.912E+00 -.549E+00 -.951E+00   0.141E+00 0.712E-01 0.807E+00
   -.127E+02 0.774E+01 -.763E+03   0.119E+02 -.727E+01 0.763E+03   0.912E+00 -.549E+00 -.951E+00   -.142E+00 0.724E-01 0.806E+00
   -.105E+00 -.441E+00 -.789E+03   -.261E+00 0.691E+00 0.788E+03   0.403E+00 -.259E+00 0.631E+00   0.380E-03 -.844E-02 0.554E+00
   -.114E-04 -.154E+02 -.764E+03   0.142E-03 0.144E+02 0.764E+03   0.728E-07 0.109E+01 -.991E+00   0.263E-03 -.179E+00 0.853E+00
   0.105E+00 -.441E+00 -.789E+03   0.261E+00 0.691E+00 0.788E+03   -.403E+00 -.259E+00 0.631E+00   -.757E-03 -.722E-02 0.554E+00
   -.217E+01 -.985E+00 -.800E+03   0.231E+01 0.105E+01 0.799E+03   -.336E-01 -.173E-01 0.563E+00   -.894E-01 -.434E-01 0.470E+00
   0.217E+01 -.985E+00 -.800E+03   -.231E+01 0.105E+01 0.799E+03   0.336E-01 -.173E-01 0.563E+00   0.966E-01 -.433E-01 0.471E+00
   0.108E-04 -.783E-01 -.789E+03   0.199E-03 -.434E+00 0.788E+03   0.346E-07 0.520E+00 0.622E+00   -.175E-02 0.271E-01 0.550E+00
   -.134E-04 0.247E+01 -.243E+04   0.293E-04 -.244E+01 0.242E+04   -.223E-08 -.335E-01 0.490E+00   0.216E-03 -.445E-02 0.544E+00
   0.260E+02 0.498E+02 -.239E+04   -.256E+02 -.494E+02 0.239E+04   -.647E+00 -.835E+00 0.285E+00   0.164E+00 0.218E+00 0.506E+00
   -.260E+02 0.498E+02 -.239E+04   0.256E+02 -.494E+02 0.239E+04   0.647E+00 -.835E+00 0.285E+00   -.164E+00 0.220E+00 0.507E+00
   0.583E+02 0.114E+00 -.238E+04   -.580E+02 -.319E-01 0.238E+04   -.810E+00 -.942E-01 0.719E+00   0.286E+00 0.328E-01 0.493E+00
   -.583E+02 0.114E+00 -.238E+04   0.580E+02 -.319E-01 0.238E+04   0.810E+00 -.942E-01 0.719E+00   -.287E+00 0.340E-01 0.494E+00
   0.249E+02 -.496E+02 -.239E+04   -.246E+02 0.491E+02 0.239E+04   -.483E+00 0.933E+00 0.283E+00   0.104E+00 -.252E+00 0.498E+00
   -.249E+02 -.496E+02 -.239E+04   0.246E+02 0.491E+02 0.239E+04   0.483E+00 0.933E+00 0.283E+00   -.103E+00 -.253E+00 0.498E+00
   0.314E-04 -.219E+01 -.243E+04   0.143E-03 0.216E+01 0.243E+04   0.272E-08 0.409E-01 0.621E+00   -.462E-02 -.103E-02 0.446E+00
   -.146E-04 -.632E+00 -.155E+04   0.824E-04 0.652E+00 0.154E+04   0.370E-08 0.556E-01 0.357E+01   0.184E-02 0.259E-02 0.404E+00
   0.226E+03 -.103E+00 -.124E+04   -.270E+03 0.105E+00 0.124E+04   0.435E+02 -.508E-02 -.510E+01   0.849E-01 -.353E-02 -.164E+00
   -.226E+03 -.103E+00 -.124E+04   0.270E+03 0.105E+00 0.124E+04   -.435E+02 -.508E-02 -.510E+01   -.826E-01 -.348E-02 -.164E+00
   -.634E-03 -.126E+00 0.571E+01   0.568E-13 -.543E-13 -.523E-11   0.858E-08 0.129E+00 -.104E+02   0.164E-01 -.431E-02 0.502E+01

 POSITION                                       TOTAL-FORCE (eV/Angst)
      0.00000      0.00000      5.28038        -0.000000     -0.002896     -0.091668
      2.93784      0.00000      5.28038        -0.000388      0.017463     -0.055211
      5.87568      0.00000      5.28038         0.000388      0.017463     -0.055211
      1.46892      2.54424      5.28038         0.013162     -0.009479     -0.061817
      4.40676      2.54424      5.28038         0.000000      0.000561     -0.100548
      7.34459      2.54424      5.28038        -0.013162     -0.009479     -0.061817
      2.93784      5.08848      5.28038         0.017051     -0.005457     -0.060985
      5.87568      5.08848      5.28038        -0.017051     -0.005457     -0.060985
      8.81351      5.08848      5.28038        -0.000000     -0.000826     -0.081266
      1.46892      0.84808      7.67911         0.049775      0.034731      0.139370
      4.40676      0.84808      7.67911        -0.000000     -0.068903      0.020594
      7.34459      0.84808      7.67911        -0.049775      0.034731      0.139370
      2.93784      3.39232      7.67911        -0.052464      0.032721      0.029341
      5.87568      3.39232      7.67911         0.052464      0.032721      0.029341
      8.81351      3.39232      7.67911        -0.000000     -0.035381      0.108384
      4.40676      5.93656      7.67911        -0.000000     -0.074506      0.146507
      7.34459      5.93656      7.67911        -0.031536      0.017421      0.114467
     10.28243      5.93656      7.67911         0.031536      0.017421      0.114467
      8.81351      1.69681     10.07567        -0.000000     -0.021051     -0.011704
      2.94232      1.69875     10.04120         0.014457     -0.010393     -0.119470
      5.87120      1.69875     10.04120        -0.014457     -0.010393     -0.119470
     10.26751      4.24902     10.06295         0.036992     -0.016245     -0.017728
      4.40676      4.23523     10.04120        -0.000000     -0.035636     -0.100162
      7.35952      4.24902     10.06295        -0.036992     -0.016245     -0.017728
     11.75079      6.78432     10.07567         0.011950      0.008897     -0.034355
      5.87624      6.78432     10.07567        -0.011950      0.008897     -0.034355
      8.81351      6.76742     10.06295         0.000000      0.035203     -0.025268
      0.00000      0.00000     12.49459        -0.000000     -0.010843     -0.021817
      2.96623      0.05046     12.47837        -0.065011     -0.181765     -0.117146
      5.84728      0.05046     12.47837         0.065011     -0.181765     -0.117146
      1.52682      2.54360     12.47837        -0.244265      0.021497     -0.164302
      7.28669      2.54360     12.47837         0.244265      0.021497     -0.164302
      2.96734      5.03866     12.47837        -0.090308      0.160869     -0.102325
      5.84617      5.03866     12.47837         0.090308      0.160869     -0.102325
      8.81351      5.08848     12.49555         0.000000      0.006879      0.006120
      4.40676      2.54424     12.24198         0.000000      0.079004      1.100760
      3.83882      2.53532     14.59932        -0.000246     -0.006060     -0.024807
      4.97470      2.53532     14.59932         0.000246     -0.006060     -0.024807
    total drift:                                0.015811     -0.001145      0.370009

  FREE ENERGIE OF THE ION-ELECTRON SYSTEM (eV)
  free  energy   TOTEN  =      -130.47801321 eV

  energy  without entropy=     -130.47801321  energy(sigma->0) =     -130.47801321

 stress matrix after NEB project (eV)
    -20.61276     -0.00000      0.00000
     -0.00000    -20.90263      0.12222
      0.00000      0.12222      3.22043
  FORCES: max atom, RMS     0.025538    0.005859
  FORCE total and by dimension    0.036116    0.024807
  Stress total and by dimension   29.533149   20.902632
|           W    W    AA    RRRRR   N    N  II  N    N   GGGG   !!!           |
|           W    W   A  A   R    R  NN   N  II  NN   N  G    G  !!!           |
|           W    W  A    A  R    R  N N  N  II  N N  N  G       !!!           |
|           W WW W  AAAAAA  RRRRR   N  N N  II  N  N N  G  GGG   !            |
|           WW  WW  A    A  R   R   N   NN  II  N   NN  G    G                |
|           W    W  A    A  R    R  N    N  II  N    N   GGGG   !!!           |
|     Tetrahedron method does not include variations of the Fermi             |
|     occupations, so forces and stress will be inaccurate. We suggest        |
|     using a different smearing scheme ISMEAR = 1 or 2 for metals in         |
|     relaxations.                                                            |

 total charge

# of ion       s       p       d       tot
    1        0.545   0.239   8.767   9.550
    2        0.545   0.241   8.763   9.549
    3        0.545   0.241   8.763   9.549
    4        0.545   0.240   8.764   9.550
    5        0.541   0.243   8.760   9.544
    6        0.545   0.240   8.764   9.550
    7        0.546   0.241   8.764   9.550
    8        0.546   0.241   8.764   9.550
    9        0.541   0.239   8.770   9.550
   10        0.521   0.310   8.767   9.598
   11        0.524   0.306   8.781   9.612
   12        0.521   0.310   8.767   9.598
   13        0.524   0.307   8.781   9.611
   14        0.524   0.307   8.781   9.611
   15        0.515   0.309   8.777   9.600
   16        0.523   0.310   8.765   9.598
   17        0.514   0.309   8.777   9.600
   18        0.514   0.309   8.777   9.600
   19        0.515   0.302   8.776   9.592
   20        0.544   0.330   8.751   9.625
   21        0.544   0.330   8.751   9.625
   22        0.507   0.309   8.776   9.592
   23        0.545   0.332   8.748   9.625
   24        0.507   0.309   8.776   9.592
   25        0.518   0.301   8.776   9.595
   26        0.518   0.301   8.776   9.595
   27        0.508   0.309   8.777   9.593
   28        0.539   0.228   8.766   9.534
   29        0.557   0.243   8.754   9.554
   30        0.557   0.243   8.754   9.554
   31        0.551   0.242   8.757   9.550
   32        0.551   0.242   8.757   9.550
   33        0.557   0.243   8.754   9.554
   34        0.557   0.243   8.754   9.554
   35        0.533   0.229   8.768   9.530
   36        0.400   0.413   6.525   7.338
   37        1.363   2.449   0.000   3.812
   38        1.363   2.449   0.000   3.812
tot         21.815  14.983 313.346 350.145

 BZINTS: Fermi energy:    0.851052;  403.000000 electrons
         Band energy:-0.120272E+04;  BLOECHL correction:   -0.076829