 vasp.6.2.0 18Jan21 (build Jun 12 2021 23:27:24) complex

 executed on             LinuxIFC date 2022.05.27  06:04:30

 INCAR:
   ISMEAR = -5
   SIGMA = 0.1
   ISPIN = 1
   EDIFF = 1.d-5
   EDIFFG = -0.01
   NSW = 0
   NELM = 150
   ENCUT = 500
   ISIF = 2
   IBRION = 2
   LREAL = Auto
   ALGO = Fast
   ICHARG = 11
   LORBIT = 10
   LCHARG = .F.
   LWAVE = .F.

 POTCAR:    PAW_PBE Cu 22Jun2005
 POTCAR:    PAW_PBE Ni 02Aug2007
 POTCAR:    PAW_PBE H 15Jun2001
|           W    W    AA    RRRRR   N    N  II  N    N   GGGG   !!!           |
|           W    W   A  A   R    R  NN   N  II  NN   N  G    G  !!!           |
|           W    W  A    A  R    R  N N  N  II  N N  N  G       !!!           |
|           W WW W  AAAAAA  RRRRR   N  N N  II  N  N N  G  GGG   !            |
|           WW  WW  A    A  R   R   N   NN  II  N   NN  G    G                |
|           W    W  A    A  R    R  N    N  II  N    N   GGGG   !!!           |
|     For optimal performance we recommend to set                             |
|       NCORE = 2 up to number-of-cores-per-socket                            |
|     This setting can greatly improve the performance of VASP for DFT.       |
|     The default, NCORE=1 might be grossly inefficient on modern             |
|     multi-core architectures or massively parallel machines. Do your        |
|     Unfortunately you need to use the default for GW and RPA                |
|     calculations (for HF NCORE is supported but not extensively tested      |
|     yet).                                                                   |

 POTCAR:    PAW_PBE Cu 22Jun2005
   VRHFIN =Cu: d10 p1

   TITEL  = PAW_PBE Cu 22Jun2005
   POMASS =   63.546; ZVAL   =   11.000    mass and valenz
   ENMAX  =  295.446; ENMIN  =  221.585 eV

 POTCAR:    PAW_PBE Ni 02Aug2007
   VRHFIN =Ni:

   TITEL  = PAW_PBE Ni 02Aug2007
   POMASS =   58.690; ZVAL   =   10.000    mass and valenz
   ENMAX  =  269.532; ENMIN  =  202.149 eV

 POTCAR:    PAW_PBE H 15Jun2001
   VRHFIN =H: ultrasoft test

   TITEL  = PAW_PBE H 15Jun2001
   POMASS =    1.000; ZVAL   =    1.000    mass and valenz
   ENMAX  =  250.000; ENMIN  =  200.000 eV

 Optimization of the real space projectors (new method)

 maximal supplied QI-value         = 16.25
 optimisation between [QCUT,QGAM] = [ 11.38, 22.75] = [ 36.24,144.96] Ry
 Optimized for a Real-space Cutoff    1.52 Angstroem

   l    n(q)    QCUT    max X(q) W(low)/X(q) W(high)/X(q)  e(spline)
   2      9    11.376     4.610    0.21E-03    0.10E-03    0.26E-06
   2      9    11.376     8.522    0.33E-03    0.16E-03    0.37E-06
   0     10    11.376    51.609    0.62E-04    0.20E-04    0.13E-06
   0     10    11.376    27.747    0.54E-04    0.20E-04    0.13E-06
   1     10    11.376    20.408    0.13E-04    0.99E-04    0.19E-06
   1     10    11.376    13.425    0.12E-04    0.87E-04    0.17E-06
 Optimization of the real space projectors (new method)

[...]

   l    n(q)    QCUT    max X(q) W(low)/X(q) W(high)/X(q)  e(spline)
   2      8    11.376    60.317    0.19E-03    0.33E-04    0.13E-06
   2      8    11.376    55.921    0.20E-03    0.34E-04    0.14E-06
   0      9    11.376    51.690    0.82E-04    0.12E-03    0.20E-06
   0      9    11.376    30.015    0.74E-04    0.11E-03    0.18E-06
   1      9    11.376    18.849    0.39E-03    0.12E-03    0.13E-06
   1      9    11.376    14.624    0.33E-03    0.10E-03    0.11E-06
 Optimization of the real space projectors (new method)

 maximal supplied QI-value         = 34.20
 optimisation between [QCUT,QGAM] = [ 11.29, 22.57] = [ 35.68,142.71] Ry
 Optimized for a Real-space Cutoff    1.16 Angstroem

   l    n(q)    QCUT    max X(q) W(low)/X(q) W(high)/X(q)  e(spline)
   0      8    11.287    19.460    0.40E-03    0.73E-03    0.16E-06
   0      8    11.287    12.209    0.38E-03    0.70E-03    0.15E-06
   1      7    11.287     4.655    0.22E-03    0.25E-04    0.22E-06
  PAW_PBE Cu 22Jun2005                  :
  PAW_PBE Ni 02Aug2007                  :
  PAW_PBE H 15Jun2001                   :

 POSCAR: Cu-Ni-H2
  positions in direct lattice
  velocities in cartesian coordinates
 exchange correlation table for  LEXCH =        8
   RHO(1)=    0.500       N(1)  =     2000
   RHO(2)=  100.500       N(2)  =     4000

 VTST: version 3.2, (02/03/18)

 CHAIN: initializing optimizer

 OPT: Using VASP Conjugate-Gradient optimizer
 CHAIN: Read ICHAIN            0

 POSCAR: Cu-Ni-H2
  positions in direct lattice
  velocities in cartesian coordinates

 ion  position               nearest neighbor table
   1  0.000  0.000  0.252-   7 2.57   3 2.57   4 2.57   2 2.57   6 2.57   8 2.57  12 2.57  10 2.57
                            16 2.57
   2  0.333  0.000  0.252-   8 2.57   9 2.57   5 2.57   1 2.57   3 2.57  11 2.57   4 2.57  10 2.57
                            17 2.57
   3  0.667  0.000  0.252-   1 2.57   7 2.57   6 2.57   9 2.57   2 2.57  12 2.57   5 2.57  18 2.57
                            11 2.57
   4  0.000  0.333  0.252-   5 2.57   6 2.57   1 2.57   7 2.57   2 2.57  13 2.57   9 2.57  10 2.57
                            15 2.57
   5  0.333  0.333  0.252-   4 2.57   2 2.57   7 2.57  13 2.57   8 2.57   6 2.57   3 2.57  11 2.57
                            14 2.57
   6  0.667  0.333  0.252-   4 2.57   9 2.57  15 2.57   3 2.57   1 2.57   8 2.57  14 2.57   5 2.57
                            12 2.57
   7  0.000  0.667  0.252-   1 2.57   3 2.57  16 2.57  18 2.57   4 2.57   5 2.57   8 2.57   9 2.57
                            13 2.57
   8  0.333  0.667  0.252-   9 2.57   2 2.57  17 2.57   6 2.57   1 2.57   7 2.57   5 2.57  14 2.57
                            16 2.57
   9  0.667  0.667  0.252-   8 2.57   6 2.57   2 2.57  17 2.57   3 2.57   7 2.57   4 2.57  15 2.57
                            18 2.57
  10  0.111  0.111  0.351-  20 2.55  26 2.56  19 2.56  11 2.57  12 2.57  13 2.57   1 2.57   2 2.57
                             4 2.57  15 2.57  16 2.57  17 2.57
  11  0.444  0.111  0.351-  20 2.55  21 2.55  27 2.56  10 2.57  13 2.57   2 2.57  17 2.57  14 2.57
                            12 2.57   5 2.57   3 2.57  18 2.57
  12  0.778  0.111  0.351-  21 2.55  19 2.56  25 2.56  15 2.57  10 2.57  14 2.57  18 2.57   3 2.57
                             1 2.57  16 2.57  11 2.57   6 2.57
  13  0.111  0.444  0.351-  23 2.55  20 2.55  22 2.56  16 2.57  18 2.57  10 2.57  11 2.57  14 2.57
                             5 2.57   4 2.57   7 2.57  15 2.57
  14  0.444  0.444  0.351-  21 2.55  23 2.55  24 2.56  15 2.57  17 2.57  12 2.57  16 2.57  13 2.57
                            11 2.57   6 2.57   8 2.57   5 2.57
  15  0.778  0.444  0.351-  24 2.55  22 2.55  19 2.56  14 2.57  17 2.57  12 2.57   6 2.57  18 2.57
                            10 2.57   9 2.57  13 2.57   4 2.57
  16  0.111  0.778  0.351-  23 2.55  25 2.56  26 2.56  18 2.57  13 2.57   7 2.57  14 2.57  17 2.57
                            12 2.57  10 2.57   8 2.57   1 2.57
  17  0.444  0.778  0.351-  27 2.55  24 2.55  26 2.56  14 2.57  15 2.57   8 2.57   9 2.57  11 2.57
                            16 2.57  18 2.57  10 2.57   2 2.57
  18  0.778  0.778  0.351-  22 2.55  27 2.55  25 2.56  16 2.57  13 2.57   7 2.57  15 2.57  12 2.57
                            17 2.57   9 2.57   3 2.57  11 2.57
  19  0.889  0.223  0.449-  28 2.54  32 2.55  31 2.55  15 2.56  12 2.56  10 2.56  22 2.56  24 2.56
                            21 2.57  20 2.57  25 2.57  26 2.57
  20  0.222  0.222  0.448-  36 2.48  29 2.54  31 2.54  10 2.55  11 2.55  13 2.55  26 2.57  19 2.57
                            27 2.57  22 2.57  23 2.57  21 2.57
  21  0.556  0.222  0.448-  36 2.48  32 2.54  30 2.54  12 2.55  14 2.55  11 2.55  19 2.57  25 2.57
                            24 2.57  27 2.57  20 2.57  23 2.57
  22  0.889  0.556  0.449-  35 2.54  31 2.55  33 2.55  18 2.55  15 2.55  13 2.56  19 2.56  25 2.56
                            24 2.57  27 2.57  23 2.57  20 2.57
  23  0.222  0.556  0.448-  36 2.48  33 2.54  34 2.54  16 2.55  13 2.55  14 2.55  25 2.57  26 2.57
                            22 2.57  24 2.57  20 2.57  21 2.57
  24  0.556  0.556  0.449-  35 2.54  32 2.55  34 2.55  15 2.55  17 2.55  14 2.56  19 2.56  26 2.56
                            22 2.57  27 2.57  21 2.57  23 2.57
  25  0.889  0.889  0.449-  28 2.54  33 2.55  30 2.55  18 2.56  16 2.56  12 2.56  22 2.56  27 2.56
                            21 2.57  23 2.57  19 2.57  26 2.57
  26  0.223  0.889  0.449-  28 2.54  29 2.55  34 2.55  17 2.56  10 2.56  16 2.56  27 2.56  24 2.56
                            20 2.57  23 2.57  25 2.57  19 2.57
  27  0.556  0.889  0.449-  35 2.54  29 2.55  30 2.55  17 2.55  18 2.55  11 2.56  26 2.56  25 2.56
                            24 2.57  22 2.57  20 2.57  21 2.57
  28  0.000  0.000  0.546-  25 2.54  19 2.54  26 2.54  33 2.57  30 2.57  31 2.57  29 2.57  32 2.57
                            34 2.57
  29  0.333  0.002  0.546-  20 2.54  27 2.55  31 2.55  36 2.55  30 2.55  26 2.55  28 2.57  35 2.57
                            34 2.60
  30  0.665  0.002  0.546-  21 2.54  27 2.55  32 2.55  36 2.55  29 2.55  25 2.55  28 2.57  35 2.57
                            33 2.60
  31  0.002  0.333  0.546-  20 2.54  22 2.55  29 2.55  36 2.55  33 2.55  19 2.55  28 2.57  35 2.57
                            32 2.60
  32  0.665  0.333  0.546-  21 2.54  24 2.55  30 2.55  36 2.55  34 2.55  19 2.55  28 2.57  35 2.57
                            31 2.60
  33  0.002  0.665  0.546-  23 2.54  22 2.55  34 2.55  36 2.55  31 2.55  25 2.55  28 2.57  35 2.57
                            30 2.60
  34  0.333  0.665  0.546-  23 2.54  24 2.55  33 2.55  36 2.55  32 2.55  26 2.55  28 2.57  35 2.57
                            29 2.60
  35  0.667  0.667  0.546-  24 2.54  27 2.54  22 2.54  34 2.57  32 2.57  29 2.57  30 2.57  33 2.57
                            31 2.57
  36  0.333  0.333  0.542-  37 1.60  38 1.60  23 2.48  20 2.48  21 2.48  31 2.55  29 2.55  33 2.55
                            34 2.55  32 2.55  30 2.55
  37  0.276  0.333  0.614-  36 1.60
  38  0.391  0.333  0.614-  36 1.60

  LATTYP: Found a hexagonal cell.
 ALAT       =     7.6967864036
 C/A-ratio  =     2.7653617908

  Lattice vectors:

 A1 = (  -3.8483927580,  -6.6656128093,   0.0000000000)
 A2 = (   7.6967864037,   0.0000000000,   0.0000000000)
 A3 = (   0.0000000000,   0.0000000000,  21.2843990326)

Analysis of symmetry for initial positions (statically):
 Subroutine PRICEL returns:
 Original cell was already a primitive cell.

 Routine SETGRP: Setting up the symmetry group for a
 hexagonal supercell.

 Subroutine GETGRP returns: Found  2 space group operations
 (whereof  2 operations were pure point group operations)
 out of a pool of 24 trial point group operations.

The static configuration has the point symmetry C_1h.

Analysis of symmetry for dynamics (positions and initial velocities):
 Subroutine PRICEL returns:
 Original cell was already a primitive cell.

[...]

The dynamic configuration has the point symmetry C_1h.

Analysis of constrained symmetry for selective dynamics:
 Subroutine PRICEL returns:
 Original cell was already a primitive cell.

 Routine SETGRP: Setting up the symmetry group for a
 hexagonal supercell.

 Subroutine GETGRP returns: Found  2 space group operations
[...]
     33      -3.7697      2.00000
     34      -3.7662      2.00000
     35      -3.7430      2.00000
     36      -3.6451      2.00000
     37      -3.6438      2.00000
     38      -3.5508      2.00000
     39      -3.5462      2.00000
     40      -3.4650      2.00000
     41      -3.4629      2.00000
     42      -3.4484      2.00000
     43      -3.4235      2.00000
     44      -3.4175      2.00000
     45      -3.3995      2.00000
     46      -3.3892      2.00000
     47      -3.2150      2.00000
     48      -3.1978      2.00000
     49      -3.1908      2.00000
     50      -3.1861      2.00000
     51      -3.1314      2.00000
     52      -3.1291      2.00000
     53      -3.1194      2.00000
     54      -3.0881      2.00000
     55      -3.0827      2.00000
     56      -3.0670      2.00000
     57      -3.0536      2.00000
     58      -3.0479      2.00000
     59      -3.0437      2.00000
     60      -3.0358      2.00000
[...]
    238       6.6533      0.00000
    239       6.8094      0.00000
    240       6.9401      0.00000
    241       7.0300      0.00000
    242       7.0350      0.00000
    243       7.2201      0.00000
    244       7.2933      0.00000
    245       7.4099      0.00000
    246       7.4610      0.00000
    247       7.6024      0.00000
    248       7.6768      0.00000
    249       7.9023      0.00000
    250       8.1200      0.00000
    251       8.2188      0.00000
    252       8.3627      0.00000

 soft charge-density along one line, spin component           1
         0         1         2         3         4         5         6         7         8         9
 total charge-density along one line

------------------------ aborting loop because EDIFF is reached ----------------------------------------

 total charge

# of ion       s       p       d       tot
    1        0.445   0.285   9.187   9.917
    2        0.449   0.284   9.188   9.921
    3        0.449   0.284   9.188   9.921
    4        0.449   0.285   9.188   9.921
    5        0.447   0.287   9.186   9.920
    6        0.449   0.285   9.188   9.921
    7        0.449   0.285   9.187   9.921
    8        0.449   0.285   9.187   9.921
    9        0.446   0.285   9.187   9.919
   10        0.440   0.373   9.178   9.991
   11        0.444   0.370   9.182   9.995
   12        0.440   0.373   9.178   9.991
   13        0.444   0.370   9.182   9.995
   14        0.444   0.370   9.182   9.995
   15        0.438   0.373   9.180   9.991
   16        0.441   0.372   9.179   9.992
   17        0.438   0.373   9.181   9.991
   18        0.438   0.373   9.181   9.991
   19        0.443   0.372   9.182   9.997
   20        0.447   0.388   9.172  10.008
   21        0.447   0.388   9.172  10.008
   22        0.439   0.377   9.179   9.995
   23        0.447   0.388   9.173  10.007
   24        0.439   0.377   9.179   9.995
   25        0.443   0.372   9.183   9.997
   26        0.443   0.372   9.183   9.997
   27        0.439   0.377   9.180   9.996
   28        0.450   0.285   9.191   9.926
   29        0.448   0.289   9.194   9.931
   30        0.448   0.289   9.194   9.931
   31        0.446   0.293   9.191   9.931
   32        0.446   0.293   9.191   9.931
   33        0.448   0.288   9.194   9.931
   34        0.448   0.288   9.194   9.931
   35        0.448   0.286   9.192   9.926
   36        0.458   0.520   8.410   9.388
   37        0.538   0.032   0.000   0.570
   38        0.538   0.032   0.000   0.570
tot         17.101  12.217 329.863 359.181

  FORCE on cell =-STRESS in cart. coord.  units (eV):
  Direction    XX          YY          ZZ          XY          YZ          ZX
  Alpha Z   866.30669   866.30669   866.30669
  Ewald  175551.22336175526.40167************     0.00040    -0.01390     0.00018
  Hartree188750.88457188745.43931************     0.00005    -0.00748     0.00008
  E(xc)   -2307.93593 -2308.20649 -2312.36665    -0.00031    -0.00076    -0.00004
  Local  ************************377688.08341     0.01986    -0.02740    -0.00072
  n-local  -768.73425  -768.18518  -784.93159     1.66922    -0.01159     0.08866
  augment  3486.57419  3488.31464  3494.69997    -0.01861     0.04810     0.00027
  Kinetic  3226.33460  3232.06743  3244.92714     0.89223     0.02382    -0.10148
  Fock        0.00000     0.00000     0.00000     0.00000     0.00000     0.00000
  Total      -2.24055    -2.15888     4.58872     0.00000     0.01079    -0.00000
  in kB      -3.28741    -3.16758     6.73273     0.00000     0.01584    -0.00000

 VOLUME and BASIS-vectors are now :
  energy-cutoff  :      500.00
  volume of cell :     1091.97
      direct lattice vectors                 reciprocal lattice vectors
     7.696786404  0.000000000  0.000000000     0.129924354 -0.075011849  0.000000000
     3.848392758  6.665612809  0.000000000     0.000000000  0.150023716  0.000000000
     0.000000000  0.000000000 21.284399033     0.000000000  0.000000000  0.046982769

  length of vectors
     7.696786404  7.696786404 21.284399033     0.150023716  0.150023716  0.046982769

 FORCES acting on ions
    electron-ion (+dipol)            ewald-force                    non-local-force                 convergence-correction
   -.407E-04 -.142E-01 0.350E+04   0.578E-04 -.317E-02 -.349E+04   -.677E-09 0.102E-01 -.291E+01   -.307E-03 0.807E-02 -.128E+01
   0.302E+00 0.311E+00 0.349E+04   -.187E+00 -.202E+00 -.349E+04   -.840E-02 -.293E-01 -.203E+01   -.985E-01 -.662E-01 -.110E+01
   -.302E+00 0.312E+00 0.349E+04   0.187E+00 -.202E+00 -.349E+04   0.840E-02 -.293E-01 -.203E+01   0.993E-01 -.636E-01 -.110E+01
   0.448E+00 0.128E+00 0.349E+04   -.266E+00 -.625E-01 -.349E+04   -.441E-01 0.251E-02 -.203E+01   -.121E+00 -.684E-01 -.112E+01
   -.622E-04 0.478E-01 0.350E+04   0.116E-03 0.134E-03 -.349E+04   0.178E-08 -.267E-01 -.200E+01   0.122E-01 -.198E-01 -.925E+00
   -.448E+00 0.128E+00 0.349E+04   0.266E+00 -.626E-01 -.349E+04   0.441E-01 0.251E-02 -.203E+01   0.119E+00 -.671E-01 -.112E+01
   0.120E+00 -.456E+00 0.349E+04   -.786E-01 0.264E+00 -.349E+04   -.191E-01 0.348E-01 -.203E+01   -.114E-01 0.141E+00 -.110E+01
   -.120E+00 -.456E+00 0.349E+04   0.784E-01 0.264E+00 -.349E+04   0.191E-01 0.348E-01 -.203E+01   0.149E-01 0.140E+00 -.109E+01
   -.143E-03 -.218E-01 0.350E+04   0.263E-03 0.304E-02 -.349E+04   -.889E-09 0.134E-01 -.246E+01   -.132E-01 0.601E-02 -.115E+01
   0.251E+01 0.149E+01 0.118E+04   -.208E+01 -.123E+01 -.118E+04   -.331E+00 -.207E+00 -.899E+00   -.687E-01 -.367E-01 -.445E+00
   -.900E-04 0.190E+01 0.118E+04   0.190E-03 -.196E+01 -.118E+04   -.204E-09 0.306E-02 -.799E+00   0.117E-01 0.322E-01 -.295E+00
   -.251E+01 0.149E+01 0.118E+04   0.208E+01 -.123E+01 -.118E+04   0.331E+00 -.207E+00 -.899E+00   0.672E-01 -.351E-01 -.445E+00
   0.163E+01 -.936E+00 0.118E+04   -.168E+01 0.986E+00 -.118E+04   0.122E-01 -.173E-01 -.792E+00   0.247E-01 -.175E-01 -.253E+00
   -.163E+01 -.936E+00 0.118E+04   0.168E+01 0.986E+00 -.118E+04   -.122E-01 -.173E-01 -.792E+00   -.622E-03 -.186E-01 -.254E+00
   -.144E-03 0.195E+00 0.118E+04   0.300E-03 -.250E+00 -.118E+04   -.329E-08 0.494E-01 -.682E+00   -.353E-02 -.842E-02 -.444E+00
   -.913E-04 -.291E+01 0.118E+04   0.185E-03 0.241E+01 -.118E+04   -.254E-07 0.382E+00 -.888E+00   -.355E-03 0.870E-01 -.434E+00
   0.180E+00 -.142E+00 0.118E+04   -.230E+00 0.142E+00 -.118E+04   0.301E-01 -.316E-03 -.692E+00   0.817E-02 0.587E-02 -.462E+00
   -.180E+00 -.142E+00 0.118E+04   0.230E+00 0.142E+00 -.118E+04   -.301E-01 -.316E-03 -.692E+00   -.708E-02 0.849E-02 -.462E+00
   -.573E-04 0.135E+01 -.116E+04   0.667E-04 -.141E+01 0.116E+04   -.349E-08 0.524E-01 0.829E+00   -.108E-01 -.337E-02 0.462E+00
   0.724E+01 0.431E+01 -.114E+04   -.663E+01 -.399E+01 0.114E+04   -.705E+00 -.424E+00 -.820E+00   0.111E+00 0.111E+00 0.538E+00
   -.724E+01 0.431E+01 -.114E+04   0.663E+01 -.399E+01 0.114E+04   0.705E+00 -.424E+00 -.820E+00   -.129E+00 0.111E+00 0.537E+00
   0.271E+01 -.171E+01 -.116E+04   -.307E+01 0.194E+01 0.116E+04   0.335E+00 -.186E+00 0.892E+00   0.481E-01 -.683E-01 0.496E+00
   -.728E-04 -.851E+01 -.114E+04   0.142E-03 0.788E+01 0.115E+04   -.523E-07 0.786E+00 -.785E+00   -.101E-01 -.180E+00 0.565E+00
   -.271E+01 -.171E+01 -.116E+04   0.307E+01 0.194E+01 0.116E+04   -.335E+00 -.186E+00 0.892E+00   -.690E-01 -.687E-01 0.496E+00
   -.113E+01 -.542E+00 -.116E+04   0.115E+01 0.587E+00 0.116E+04   -.372E-01 -.366E-01 0.898E+00   0.241E-01 -.512E-02 0.451E+00
   0.113E+01 -.542E+00 -.116E+04   -.115E+01 0.587E+00 0.116E+04   0.372E-01 -.366E-01 0.898E+00   -.434E-01 -.601E-02 0.452E+00
   -.132E-03 0.321E+01 -.116E+04   0.244E-03 -.355E+01 0.116E+04   -.238E-07 0.357E+00 0.873E+00   -.110E-01 0.332E-01 0.473E+00
   -.278E-04 0.637E+00 -.349E+04   0.356E-04 -.608E+00 0.348E+04   0.283E-08 -.425E-01 0.218E+01   0.110E-04 0.430E-02 0.987E+00
   0.825E+01 0.169E+02 -.348E+04   -.822E+01 -.172E+02 0.348E+04   -.113E+00 0.524E-01 0.284E+01   0.678E-02 0.133E+00 0.886E+00
   -.825E+01 0.169E+02 -.348E+04   0.822E+01 -.172E+02 0.348E+04   0.113E+00 0.524E-01 0.284E+01   -.596E-02 0.135E+00 0.886E+00
   0.201E+02 -.548E+00 -.348E+04   -.203E+02 0.635E+00 0.348E+04   -.756E-01 -.592E-01 0.271E+01   0.147E+00 -.108E-01 0.920E+00
   -.201E+02 -.547E+00 -.348E+04   0.203E+02 0.635E+00 0.348E+04   0.756E-01 -.592E-01 0.271E+01   -.148E+00 -.975E-02 0.920E+00
   0.908E+01 -.163E+02 -.348E+04   -.925E+01 0.165E+02 0.348E+04   -.198E-01 0.106E-01 0.284E+01   0.815E-01 -.117E+00 0.883E+00
   -.908E+01 -.163E+02 -.348E+04   0.925E+01 0.165E+02 0.348E+04   0.198E-01 0.106E-01 0.284E+01   -.781E-01 -.118E+00 0.883E+00
   -.130E-03 -.576E+00 -.349E+04   0.256E-03 0.586E+00 0.348E+04   -.337E-08 0.506E-01 0.233E+01   -.129E-01 -.528E-01 0.959E+00
   -.571E-04 -.145E+00 -.303E+04   0.130E-03 0.127E+00 0.303E+04   -.320E-10 0.480E-03 0.441E+01   0.843E-02 0.274E-01 0.655E+00
   0.200E+02 0.634E-02 -.397E+03   -.231E+02 -.111E-01 0.399E+03   0.311E+01 0.782E-03 -.126E+01   0.171E-01 0.115E-02 0.962E-02
   -.200E+02 0.634E-02 -.397E+03   0.231E+02 -.111E-01 0.399E+03   -.311E+01 0.782E-03 -.126E+01   -.169E-01 0.116E-02 0.950E-02
   -.146E-03 0.134E+00 0.161E+01   0.817E-13 0.246E-13 0.148E-11   0.542E-08 -.815E-01 -.628E+00   -.587E-01 -.548E-01 -.102E+01

 POSITION                                       TOTAL-FORCE (eV/Angst)
      0.00000      0.00000      5.37156        -0.000000      0.000920      0.090326
      2.56560      0.00000      5.37156         0.007656      0.015447      0.097725
      5.13119      0.00000      5.37156        -0.007656      0.015447      0.097725
      1.28280      2.22187      5.37156         0.018464      0.000715      0.099817
      3.84839      2.22187      5.37156        -0.000000      0.001497      0.074337
      6.41399      2.22187      5.37156        -0.018464      0.000715      0.099817
      2.56560      4.44374      5.37156         0.009445     -0.016211      0.099236
      5.13119      4.44374      5.37156        -0.009445     -0.016211      0.099236
      7.69679      4.44374      5.37156        -0.000000      0.000639      0.081969
      1.28280      0.74062      7.46636         0.029040      0.017677     -0.067563
      3.84839      0.74062      7.46636         0.000000     -0.026872     -0.138055
      6.41399      0.74062      7.46636        -0.029040      0.017677     -0.067563
      2.56560      2.96249      7.46636        -0.023809      0.014613     -0.138450
      5.13119      2.96249      7.46636         0.023809      0.014613     -0.138450
      7.69679      2.96249      7.46636         0.000000     -0.013718     -0.052473
      3.84839      5.18437      7.46636         0.000000     -0.037279     -0.068603
      6.41399      5.18437      7.46636        -0.012898      0.006985     -0.050077
      8.97958      5.18437      7.46636         0.012898      0.006985     -0.050077
      7.69679      1.48353      9.55071         0.000000     -0.008528      0.009179
      2.56540      1.48114      9.54275         0.022217      0.008150     -0.103210
      5.13138      1.48114      9.54275        -0.022217      0.008150     -0.103210
      8.97935      3.70325      9.54809         0.034347     -0.023427      0.018239
      3.84839      3.70334      9.54275         0.000000     -0.024498     -0.104299
      6.41422      3.70325      9.54809        -0.034347     -0.023427      0.018239
     10.26040      5.92385      9.55071         0.009459      0.002564      0.006687
      5.13317      5.92385      9.55071        -0.009459      0.002564      0.006687
      7.69679      5.92472      9.54809        -0.000000      0.046147      0.021266
      0.00000      0.00000     11.61525         0.000000     -0.009414     -0.022651
      2.57297      0.01446     11.62005        -0.078351     -0.153652     -0.076919
      5.12381      0.01446     11.62005         0.078351     -0.153652     -0.076919
      1.29901      2.22103     11.62005        -0.122970      0.018210     -0.034291
      6.39777      2.22103     11.62005         0.122970      0.018210     -0.034291
      2.57443      4.43012     11.62005        -0.109394      0.138155     -0.074681
      5.12235      4.43012     11.62005         0.109394      0.138155     -0.074681
      7.69679      4.44374     11.61370        -0.000000      0.008136     -0.001105
      3.84839      2.22187     11.53520        -0.000000      0.010103      0.610280
      3.40334      2.21999     13.07104        -0.020118     -0.002794     -0.026599
      4.29345      2.21999     13.07104         0.020118     -0.002794     -0.026599
    total drift:                               -0.058874     -0.002197     -0.030338

  FREE ENERGIE OF THE ION-ELECTRON SYSTEM (eV)
  free  energy   TOTEN  =      -134.55634043 eV

  energy  without entropy=     -134.55634043  energy(sigma->0) =     -134.55634043

 stress matrix after NEB project (eV)
     -2.24055      0.00000     -0.00000
      0.00000     -2.15888      0.01079
     -0.00000      0.01079      4.58872
  FORCES: max atom, RMS     0.033467    0.007678
  FORCE total and by dimension    0.047329    0.026599
  Stress total and by dimension    5.544127    4.588717
|           W    W    AA    RRRRR   N    N  II  N    N   GGGG   !!!           |
|           W    W   A  A   R    R  NN   N  II  NN   N  G    G  !!!           |
|           W    W  A    A  R    R  N N  N  II  N N  N  G       !!!           |
|           W WW W  AAAAAA  RRRRR   N  N N  II  N  N N  G  GGG   !            |
|           WW  WW  A    A  R   R   N   NN  II  N   NN  G    G                |
|           W    W  A    A  R    R  N    N  II  N    N   GGGG   !!!           |
|     Tetrahedron method does not include variations of the Fermi             |
|     occupations, so forces and stress will be inaccurate. We suggest        |
|     using a different smearing scheme ISMEAR = 1 or 2 for metals in         |
|     relaxations.                                                            |

 total charge

# of ion       s       p       d       tot
    1        0.445   0.285   9.187   9.917
    2        0.449   0.284   9.188   9.921
    3        0.449   0.284   9.188   9.921
    4        0.449   0.285   9.188   9.921
    5        0.447   0.287   9.186   9.920
    6        0.449   0.285   9.188   9.921
    7        0.449   0.285   9.187   9.921
    8        0.449   0.285   9.187   9.921
    9        0.446   0.285   9.187   9.919
   10        0.440   0.373   9.178   9.991
   11        0.444   0.370   9.182   9.995
   12        0.440   0.373   9.178   9.991
   13        0.444   0.370   9.182   9.995
   14        0.444   0.370   9.182   9.995
   15        0.438   0.373   9.180   9.991
   16        0.441   0.372   9.179   9.992
   17        0.438   0.373   9.181   9.991
   18        0.438   0.373   9.181   9.991
   19        0.443   0.372   9.182   9.997
   20        0.447   0.388   9.172  10.008
   21        0.447   0.388   9.172  10.008
   22        0.439   0.377   9.179   9.995
   23        0.447   0.388   9.173  10.007
   24        0.439   0.377   9.179   9.995
   25        0.443   0.372   9.183   9.997
   26        0.443   0.372   9.183   9.997
   27        0.439   0.377   9.180   9.996
   28        0.450   0.285   9.191   9.926
   29        0.448   0.289   9.194   9.931
   30        0.448   0.289   9.194   9.931
   31        0.446   0.293   9.191   9.931
   32        0.446   0.293   9.191   9.931
   33        0.448   0.288   9.194   9.931
   34        0.448   0.288   9.194   9.931
   35        0.448   0.286   9.192   9.926
   36        0.458   0.520   8.410   9.388
   37        0.538   0.032   0.000   0.570
   38        0.538   0.032   0.000   0.570
tot         17.101  12.217 329.863 359.181

 BZINTS: Fermi energy:    0.196703;  397.000000 electrons
         Band energy:-0.102223E+04;  BLOECHL correction:   -0.058944