 vasp.6.2.0 18Jan21 (build Jun 12 2021 23:27:24) complex

 executed on             LinuxIFC date 2022.05.26  20:03:45

 INCAR:
   ISMEAR = -5
   SIGMA = 0.1
   ISPIN = 1
   EDIFF = 1.d-5
   EDIFFG = -0.01
   NSW = 0
   NELM = 150
   ENCUT = 500
   ISIF = 2
   IBRION = 2
   LREAL = Auto
   ALGO = Fast
   ICHARG = 11
   LORBIT = 10
   LCHARG = .F.
   LWAVE = .F.

 POTCAR:    PAW_PBE Cu 22Jun2005
 POTCAR:    PAW_PBE Ru 04Feb2005
 POTCAR:    PAW_PBE H 15Jun2001
|           W    W    AA    RRRRR   N    N  II  N    N   GGGG   !!!           |
|           W    W   A  A   R    R  NN   N  II  NN   N  G    G  !!!           |
|           W    W  A    A  R    R  N N  N  II  N N  N  G       !!!           |
|           W WW W  AAAAAA  RRRRR   N  N N  II  N  N N  G  GGG   !            |
|           WW  WW  A    A  R   R   N   NN  II  N   NN  G    G                |
|           W    W  A    A  R    R  N    N  II  N    N   GGGG   !!!           |
|     For optimal performance we recommend to set                             |
|       NCORE = 2 up to number-of-cores-per-socket                            |
|     This setting can greatly improve the performance of VASP for DFT.       |
|     The default, NCORE=1 might be grossly inefficient on modern             |
|     multi-core architectures or massively parallel machines. Do your        |
|     Unfortunately you need to use the default for GW and RPA                |
|     calculations (for HF NCORE is supported but not extensively tested      |
|     yet).                                                                   |

 POTCAR:    PAW_PBE Cu 22Jun2005
   VRHFIN =Cu: d10 p1

   TITEL  = PAW_PBE Cu 22Jun2005
   POMASS =   63.546; ZVAL   =   11.000    mass and valenz
   ENMAX  =  295.446; ENMIN  =  221.585 eV

 POTCAR:    PAW_PBE Ru 04Feb2005
   VRHFIN =Ru: s1 d7

   TITEL  = PAW_PBE Ru 04Feb2005
   POMASS =  101.070; ZVAL   =    8.000    mass and valenz
   ENMAX  =  213.271; ENMIN  =  159.953 eV

 POTCAR:    PAW_PBE H 15Jun2001
   VRHFIN =H: ultrasoft test

   TITEL  = PAW_PBE H 15Jun2001
   POMASS =    1.000; ZVAL   =    1.000    mass and valenz
   ENMAX  =  250.000; ENMIN  =  200.000 eV

 Optimization of the real space projectors (new method)

 maximal supplied QI-value         = 16.25
 optimisation between [QCUT,QGAM] = [ 11.38, 22.75] = [ 36.24,144.96] Ry
 Optimized for a Real-space Cutoff    1.52 Angstroem

   l    n(q)    QCUT    max X(q) W(low)/X(q) W(high)/X(q)  e(spline)
   2      9    11.376     4.610    0.21E-03    0.10E-03    0.26E-06
   2      9    11.376     8.522    0.33E-03    0.16E-03    0.37E-06
   0     10    11.376    51.609    0.62E-04    0.20E-04    0.13E-06
   0     10    11.376    27.747    0.54E-04    0.20E-04    0.13E-06
   1     10    11.376    20.408    0.13E-04    0.99E-04    0.19E-06
   1     10    11.376    13.425    0.12E-04    0.87E-04    0.17E-06
 Optimization of the real space projectors (new method)

[...]

   l    n(q)    QCUT    max X(q) W(low)/X(q) W(high)/X(q)  e(spline)
   2      9    11.327    61.733    0.26E-03    0.14E-03    0.16E-06
   2      9    11.327    59.886    0.26E-03    0.14E-03    0.17E-06
   0     10    11.327    23.358    0.19E-03    0.14E-04    0.46E-06
   0     10    11.327    11.320    0.15E-03    0.11E-04    0.37E-06
   1     10    11.327    14.765    0.49E-04    0.26E-03    0.24E-06
   1     10    11.327     8.283    0.37E-04    0.20E-03    0.18E-06
 Optimization of the real space projectors (new method)

 maximal supplied QI-value         = 34.20
 optimisation between [QCUT,QGAM] = [ 11.29, 22.57] = [ 35.68,142.71] Ry
 Optimized for a Real-space Cutoff    1.16 Angstroem

   l    n(q)    QCUT    max X(q) W(low)/X(q) W(high)/X(q)  e(spline)
   0      8    11.287    19.460    0.40E-03    0.73E-03    0.16E-06
   0      8    11.287    12.209    0.38E-03    0.70E-03    0.15E-06
   1      7    11.287     4.655    0.22E-03    0.25E-04    0.22E-06
  PAW_PBE Cu 22Jun2005                  :
  PAW_PBE Ru 04Feb2005                  :
  PAW_PBE H 15Jun2001                   :

 POSCAR: Cu-Ru-H
  positions in direct lattice
  velocities in cartesian coordinates
 exchange correlation table for  LEXCH =        8
   RHO(1)=    0.500       N(1)  =     2000
   RHO(2)=  100.500       N(2)  =     4000

 VTST: version 3.2, (02/03/18)

 CHAIN: initializing optimizer

 OPT: Using VASP Conjugate-Gradient optimizer
 CHAIN: Read ICHAIN            0

 POSCAR: Cu-Ru-H
  positions in direct lattice
  velocities in cartesian coordinates

 ion  position               nearest neighbor table
   1  0.000  0.000  0.252-   7 2.57   3 2.57   4 2.57   2 2.57   6 2.57   8 2.57  12 2.57  10 2.57
                            16 2.57
   2  0.333  0.000  0.252-   8 2.57   9 2.57   5 2.57   1 2.57   3 2.57  11 2.57   4 2.57  10 2.57
                            17 2.57
   3  0.667  0.000  0.252-   1 2.57   7 2.57   6 2.57   9 2.57   2 2.57  12 2.57   5 2.57  18 2.57
                            11 2.57
   4  0.000  0.333  0.252-   5 2.57   6 2.57   1 2.57   7 2.57   2 2.57  13 2.57   9 2.57  10 2.57
                            15 2.57
   5  0.333  0.333  0.252-   4 2.57   2 2.57   7 2.57  13 2.57   8 2.57   6 2.57   3 2.57  11 2.57
                            14 2.57
   6  0.667  0.333  0.252-   4 2.57   9 2.57  15 2.57   3 2.57   1 2.57   8 2.57  14 2.57   5 2.57
                            12 2.57
   7  0.000  0.667  0.252-   1 2.57   3 2.57  16 2.57  18 2.57   4 2.57   5 2.57   8 2.57   9 2.57
                            13 2.57
   8  0.333  0.667  0.252-   9 2.57   2 2.57  17 2.57   6 2.57   1 2.57   7 2.57   5 2.57  14 2.57
                            16 2.57
   9  0.667  0.667  0.252-   8 2.57   6 2.57   2 2.57  17 2.57   3 2.57   7 2.57   4 2.57  15 2.57
                            18 2.57
  10  0.111  0.111  0.351-  20 2.55  26 2.56  19 2.56  11 2.57  12 2.57  13 2.57   1 2.57   2 2.57
                             4 2.57  15 2.57  16 2.57  17 2.57
  11  0.444  0.111  0.351-  20 2.55  21 2.55  10 2.57  13 2.57   2 2.57  17 2.57  14 2.57  12 2.57
                             5 2.57   3 2.57  18 2.57  27 2.57
  12  0.778  0.111  0.351-  21 2.55  19 2.56  25 2.56  15 2.57  10 2.57  14 2.57  18 2.57   3 2.57
                             1 2.57  16 2.57  11 2.57   6 2.57
  13  0.111  0.444  0.351-  23 2.55  20 2.55  16 2.57  18 2.57  10 2.57  11 2.57  14 2.57   5 2.57
                             4 2.57   7 2.57  15 2.57  22 2.57
  14  0.444  0.444  0.351-  21 2.55  23 2.55  15 2.57  17 2.57  12 2.57  16 2.57  13 2.57  11 2.57
                             6 2.57   8 2.57   5 2.57  24 2.57
  15  0.778  0.444  0.351-  19 2.56  14 2.57  17 2.57  12 2.57   6 2.57  18 2.57  10 2.57   9 2.57
                            13 2.57   4 2.57  24 2.57  22 2.57
  16  0.111  0.778  0.351-  23 2.55  25 2.56  26 2.56  18 2.57  13 2.57   7 2.57  14 2.57  17 2.57
                            12 2.57  10 2.57   8 2.57   1 2.57
  17  0.444  0.778  0.351-  26 2.56  14 2.57  15 2.57   8 2.57   9 2.57  11 2.57  16 2.57  18 2.57
                            10 2.57   2 2.57  27 2.57  24 2.57
  18  0.778  0.778  0.351-  25 2.56  16 2.57  13 2.57   7 2.57  15 2.57  12 2.57  17 2.57   9 2.57
                             3 2.57  11 2.57  22 2.57  27 2.57
  19  0.889  0.223  0.449-  28 2.55  15 2.56  21 2.56  20 2.56  12 2.56  10 2.56  22 2.56  24 2.56
                            32 2.56  31 2.56  25 2.57  26 2.57
  20  0.222  0.222  0.448-  10 2.55  11 2.55  13 2.55  36 2.55  26 2.56  19 2.56  27 2.57  22 2.57
                            23 2.57  21 2.57  29 2.58  31 2.58
  21  0.556  0.222  0.448-  12 2.55  14 2.55  11 2.55  36 2.55  19 2.56  25 2.56  24 2.57  27 2.57
                            20 2.57  23 2.57  32 2.58  30 2.58
  22  0.888  0.556  0.449-  35 2.55  24 2.56  27 2.56  19 2.56  25 2.56  18 2.57  15 2.57  31 2.57
                            33 2.57  23 2.57  20 2.57  13 2.57
  23  0.222  0.556  0.448-  16 2.55  13 2.55  14 2.55  36 2.55  25 2.56  26 2.56  22 2.57  24 2.57
                            20 2.57  21 2.57  33 2.58  34 2.58
  24  0.556  0.556  0.449-  35 2.55  22 2.56  27 2.56  19 2.56  26 2.56  15 2.57  17 2.57  32 2.57
                            34 2.57  21 2.57  23 2.57  14 2.57
  25  0.889  0.889  0.449-  28 2.55  18 2.56  21 2.56  23 2.56  16 2.56  12 2.56  22 2.56  27 2.56
                            33 2.56  30 2.56  19 2.57  26 2.57
  26  0.223  0.889  0.449-  28 2.55  17 2.56  20 2.56  23 2.56  10 2.56  16 2.56  27 2.56  24 2.56
                            29 2.56  34 2.56  25 2.57  19 2.57
  27  0.556  0.888  0.449-  35 2.55  24 2.56  22 2.56  26 2.56  25 2.56  17 2.57  18 2.57  29 2.57
                            30 2.57  20 2.57  21 2.57  11 2.57
  28  0.000  0.000  0.546-  25 2.55  19 2.55  26 2.55  33 2.56  30 2.56  31 2.56  29 2.56  32 2.56
                            34 2.56
  29  0.333  0.999  0.548-  34 2.55  28 2.56  26 2.56  35 2.56  27 2.57  31 2.57  36 2.57  30 2.58
                            20 2.58
  30  0.668  0.999  0.548-  33 2.55  28 2.56  25 2.56  35 2.56  27 2.57  32 2.57  36 2.57  29 2.58
                            21 2.58
  31  0.999  0.333  0.548-  32 2.55  28 2.56  19 2.56  35 2.56  22 2.57  29 2.57  36 2.57  33 2.58
                            20 2.58
  32  0.668  0.333  0.548-  31 2.55  28 2.56  19 2.56  35 2.56  24 2.57  30 2.57  36 2.57  34 2.58
                            21 2.58
  33  0.999  0.668  0.548-  30 2.55  28 2.56  25 2.56  35 2.56  22 2.57  34 2.57  36 2.57  31 2.58
                            23 2.58
  34  0.333  0.668  0.548-  29 2.55  28 2.56  26 2.56  35 2.56  24 2.57  33 2.57  36 2.57  32 2.58
                            23 2.58
  35  0.667  0.667  0.547-  24 2.55  27 2.55  22 2.55  34 2.56  32 2.56  29 2.56  30 2.56  33 2.56
                            31 2.56
  36  0.333  0.333  0.546-  37 1.62  23 2.55  20 2.55  21 2.55  31 2.57  29 2.57  33 2.57  34 2.57
                            32 2.57  30 2.57
  37  0.333  0.333  0.622-  36 1.62

  LATTYP: Found a hexagonal cell.
 ALAT       =     7.6967864036
 C/A-ratio  =     2.7653617908

  Lattice vectors:

 A1 = (  -3.8483927580,  -6.6656128093,   0.0000000000)
 A2 = (   7.6967864037,   0.0000000000,   0.0000000000)
 A3 = (   0.0000000000,   0.0000000000,  21.2843990326)

Analysis of symmetry for initial positions (statically):
 Subroutine PRICEL returns:
 Original cell was already a primitive cell.

 Routine SETGRP: Setting up the symmetry group for a
 hexagonal supercell.

 Subroutine GETGRP returns: Found  6 space group operations
 (whereof  6 operations were pure point group operations)
 out of a pool of 24 trial point group operations.

The static configuration has the point symmetry C_3v.

Analysis of symmetry for dynamics (positions and initial velocities):
 Subroutine PRICEL returns:
 Original cell was already a primitive cell.

[...]

The dynamic configuration has the point symmetry C_3v.

Analysis of constrained symmetry for selective dynamics:
 Subroutine PRICEL returns:
 Original cell was already a primitive cell.

 Routine SETGRP: Setting up the symmetry group for a
 hexagonal supercell.

 Subroutine GETGRP returns: Found  6 space group operations
 (whereof  6 operations were pure point group operations)
[...]
     24      -4.1737      2.00000
     25      -4.1306      2.00000
     26      -4.1078      2.00000
     27      -4.0823      2.00000
     28      -4.0706      2.00000
     29      -4.0660      2.00000
     30      -4.0617      2.00000
     31      -4.0495      2.00000
     32      -4.0143      2.00000
     33      -4.0099      2.00000
     34      -3.9717      2.00000
     35      -3.9066      2.00000
     36      -3.8770      2.00000
     37      -3.7947      2.00000
     38      -3.7455      2.00000
     39      -3.7008      2.00000
     40      -3.6659      2.00000
     41      -3.6643      2.00000
     42      -3.6370      2.00000
     43      -3.6250      2.00000
     44      -3.6169      2.00000
     45      -3.6110      2.00000
     46      -3.4936      2.00000
     47      -3.4073      2.00000
     48      -3.3956      2.00000
     49      -3.3931      2.00000
     50      -3.3548      2.00000
     51      -3.3310      2.00000
     52      -3.3242      2.00000
     53      -3.3074      2.00000
     54      -3.3009      2.00000
     55      -3.2809      2.00000
     56      -3.2686      2.00000
     57      -3.2561      2.00000
     58      -3.2479      2.00000
     59      -3.2386      2.00000
     60      -3.2344      2.00000
[...]
    238       6.9551      0.00000
    239       6.9612      0.00000
    240       7.0835      0.00000
    241       7.1447      0.00000
    242       7.2597      0.00000
    243       7.3395      0.00000
    244       7.3726      0.00000
    245       7.4914      0.00000
    246       7.5059      0.00000
    247       7.6976      0.00000
    248       7.8246      0.00000
    249       7.9704      0.00000
    250       8.1431      0.00000
    251       8.2258      0.00000
    252       8.5049      0.00000

 soft charge-density along one line, spin component           1
         0         1         2         3         4         5         6         7         8         9
 total charge-density along one line

------------------------ aborting loop because EDIFF is reached ----------------------------------------

 total charge

# of ion       s       p       d       tot
    1        0.449   0.282   9.191   9.922
    2        0.448   0.285   9.186   9.919
    3        0.448   0.285   9.186   9.919
    4        0.448   0.285   9.186   9.919
    5        0.450   0.286   9.178   9.913
    6        0.448   0.285   9.186   9.919
    7        0.448   0.285   9.186   9.919
    8        0.448   0.285   9.186   9.919
    9        0.447   0.281   9.192   9.921
   10        0.443   0.372   9.174   9.989
   11        0.444   0.365   9.185   9.995
   12        0.443   0.372   9.174   9.989
   13        0.444   0.365   9.185   9.995
   14        0.444   0.365   9.185   9.995
   15        0.439   0.370   9.178   9.986
   16        0.443   0.372   9.174   9.989
   17        0.439   0.370   9.178   9.986
   18        0.439   0.370   9.178   9.986
   19        0.440   0.370   9.182   9.992
   20        0.460   0.384   9.173  10.016
   21        0.460   0.384   9.173  10.016
   22        0.431   0.372   9.183   9.986
   23        0.460   0.384   9.173  10.016
   24        0.431   0.372   9.183   9.986
   25        0.440   0.370   9.182   9.992
   26        0.440   0.370   9.182   9.992
   27        0.431   0.372   9.183   9.986
   28        0.448   0.288   9.191   9.926
   29        0.455   0.301   9.176   9.932
   30        0.455   0.301   9.176   9.932
   31        0.455   0.301   9.176   9.932
   32        0.455   0.301   9.176   9.932
   33        0.455   0.301   9.176   9.932
   34        0.455   0.301   9.176   9.932
   35        0.440   0.291   9.190   9.922
   36        0.605   0.586   6.729   7.921
   37        0.509   0.017   0.000   0.526
tot         16.740  12.243 328.064 357.047

  FORCE on cell =-STRESS in cart. coord.  units (eV):
  Direction    XX          YY          ZZ          XY          YZ          ZX
  Alpha Z   861.17352   861.17352   861.17352
  Ewald  172809.44626172809.44586************     0.00037     0.00011     0.00016
  Hartree185683.27958185683.27957************     0.00003     0.00005     0.00006
  E(xc)   -2287.26448 -2287.26399 -2292.23040    -0.00043    -0.00003    -0.00006
  Local  ************************371810.73183     0.01850    -0.00055    -0.00089
  n-local  -758.14810  -740.14811  -758.49039     9.17691    -0.10204     0.33008
  augment  3352.28985  3352.31027  3373.93348    -0.01768     0.00025     0.00039
  Kinetic  3226.21215  3234.13035  3258.33675     4.79662     1.54693    -1.09943
  Fock        0.00000     0.00000     0.00000     0.00000     0.00000     0.00000
  Total      -5.70311    -5.70311     2.17049     0.00000    -0.00000     0.00000
  in kB      -8.36780    -8.36780     3.18462     0.00000    -0.00000     0.00000

 VOLUME and BASIS-vectors are now :
  energy-cutoff  :      500.00
  volume of cell :     1091.97
      direct lattice vectors                 reciprocal lattice vectors
     7.696786404  0.000000000  0.000000000     0.129924354 -0.075011849  0.000000000
     3.848392758  6.665612809  0.000000000     0.000000000  0.150023716  0.000000000
     0.000000000  0.000000000 21.284399033     0.000000000  0.000000000  0.046982769

  length of vectors
     7.696786404  7.696786404 21.284399033     0.150023716  0.150023716  0.046982769

 FORCES acting on ions
    electron-ion (+dipol)            ewald-force                    non-local-force                 convergence-correction
   -.416E-04 0.141E-06 0.347E+04   0.580E-04 -.434E-05 -.346E+04   0.737E-17 -.301E-17 -.265E+01   -.354E-03 -.172E-03 -.236E+00
   -.446E+00 -.232E+00 0.346E+04   0.262E+00 0.118E+00 -.346E+04   0.977E-01 0.109E+00 -.181E+01   0.970E-01 0.283E-01 -.249E+00
   0.446E+00 -.232E+00 0.346E+04   -.262E+00 0.118E+00 -.346E+04   -.977E-01 0.109E+00 -.181E+01   -.961E-01 0.308E-01 -.248E+00
   -.424E+00 -.270E+00 0.346E+04   0.233E+00 0.168E+00 -.346E+04   0.143E+00 0.303E-01 -.181E+01   0.731E-01 0.698E-01 -.249E+00
   -.613E-04 -.324E-05 0.346E+04   0.116E-03 -.101E-04 -.346E+04   -.737E-17 0.277E-17 -.138E+01   0.121E-01 0.743E-02 -.836E-01
   0.424E+00 -.270E+00 0.346E+04   -.233E+00 0.168E+00 -.346E+04   -.143E+00 0.303E-01 -.181E+01   -.747E-01 0.709E-01 -.248E+00
   0.218E-01 0.502E+00 0.346E+04   -.293E-01 -.286E+00 -.346E+04   0.453E-01 -.139E+00 -.181E+01   -.213E-01 -.987E-01 -.248E+00
   -.217E-01 0.502E+00 0.346E+04   0.291E-01 -.286E+00 -.346E+04   -.453E-01 -.139E+00 -.181E+01   0.247E-01 -.100E+00 -.248E+00
   -.144E-03 -.330E-04 0.347E+04   0.263E-03 0.205E-04 -.346E+04   0.241E-18 0.973E-18 -.235E+01   -.131E-01 -.678E-02 -.339E+00
   -.253E+00 -.146E+00 0.114E+04   0.687E+00 0.397E+00 -.114E+04   -.435E+00 -.251E+00 -.114E+01   -.136E-01 -.789E-02 -.141E+00
   -.911E-04 -.158E+01 0.114E+04   0.190E-03 0.103E+01 -.114E+04   -.242E-07 0.363E+00 -.304E+00   0.119E-01 0.154E+00 -.164E+00
   0.253E+00 -.146E+00 0.114E+04   -.687E+00 0.397E+00 -.114E+04   0.435E+00 -.251E+00 -.114E+01   0.118E-01 -.679E-02 -.141E+00
   -.137E+01 0.791E+00 0.114E+04   0.893E+00 -.516E+00 -.114E+04   0.315E+00 -.182E+00 -.304E+00   0.140E+00 -.657E-01 -.164E+00
   0.137E+01 0.791E+00 0.114E+04   -.893E+00 -.516E+00 -.114E+04   -.315E+00 -.182E+00 -.304E+00   -.116E+00 -.673E-01 -.166E+00
   -.142E-03 -.107E+01 0.114E+04   0.298E-03 0.769E+00 -.114E+04   -.142E-07 0.214E+00 -.102E+01   -.345E-02 0.748E-01 -.138E+00
   -.921E-04 0.292E+00 0.114E+04   0.186E-03 -.794E+00 -.114E+04   -.334E-07 0.502E+00 -.114E+01   -.901E-03 0.124E-01 -.141E+00
   -.929E+00 0.536E+00 0.114E+04   0.666E+00 -.384E+00 -.114E+04   0.185E+00 -.107E+00 -.102E+01   0.637E-01 -.404E-01 -.139E+00
   0.929E+00 0.536E+00 0.114E+04   -.666E+00 -.384E+00 -.114E+04   -.185E+00 -.107E+00 -.102E+01   -.623E-01 -.377E-01 -.137E+00
   -.617E-04 -.266E+01 -.119E+04   0.700E-04 0.263E+01 0.119E+04   0.348E-09 -.523E-02 0.835E+00   -.970E-03 0.296E-01 0.820E-01
   -.295E+02 -.170E+02 -.122E+04   0.307E+02 0.177E+02 0.122E+04   -.126E+01 -.729E+00 -.881E+00   -.293E-01 -.171E-01 0.178E+00
   0.295E+02 -.170E+02 -.122E+04   -.307E+02 0.177E+02 0.122E+04   0.126E+01 -.729E+00 -.881E+00   0.308E-01 -.189E-01 0.177E+00
   -.192E+02 0.111E+02 -.120E+04   0.187E+02 -.108E+02 0.120E+04   0.528E+00 -.305E+00 0.608E+00   0.195E-01 0.142E-02 0.112E+00
   -.845E-04 0.341E+02 -.122E+04   0.147E-03 -.354E+02 0.122E+04   -.970E-07 0.146E+01 -.881E+00   -.213E-02 0.349E-01 0.177E+00
   0.192E+02 0.111E+02 -.120E+04   -.187E+02 -.108E+02 0.120E+04   -.528E+00 -.305E+00 0.608E+00   0.230E-02 0.450E-03 0.113E+00
   0.230E+01 0.133E+01 -.119E+04   -.228E+01 -.132E+01 0.119E+04   0.453E-02 0.261E-02 0.835E+00   -.265E-01 -.153E-01 0.821E-01
   -.230E+01 0.133E+01 -.119E+04   0.228E+01 -.132E+01 0.119E+04   -.453E-02 0.261E-02 0.835E+00   0.255E-01 -.154E-01 0.821E-01
   -.122E-03 -.222E+02 -.120E+04   0.242E-03 0.216E+02 0.120E+04   -.406E-07 0.609E+00 0.608E+00   0.110E-01 0.161E-01 0.112E+00
   -.403E-04 0.145E-04 -.346E+04   0.425E-04 -.324E-04 0.346E+04   -.204E-16 -.146E-17 0.243E+01   -.187E-02 -.103E-02 0.335E+00
   -.291E+02 -.482E+02 -.348E+04   0.296E+02 0.485E+02 0.347E+04   -.483E+00 -.464E+00 0.167E+01   0.115E+00 0.152E+00 0.295E+00
   0.291E+02 -.482E+02 -.348E+04   -.296E+02 0.485E+02 0.347E+04   0.483E+00 -.464E+00 0.167E+01   -.923E-01 0.154E+00 0.294E+00
   -.563E+02 -.116E+01 -.348E+04   0.568E+02 0.133E+01 0.347E+04   -.643E+00 -.186E+00 0.167E+01   0.189E+00 0.233E-01 0.295E+00
   0.563E+02 -.116E+01 -.348E+04   -.568E+02 0.133E+01 0.347E+04   0.643E+00 -.186E+00 0.167E+01   -.168E+00 0.240E-01 0.295E+00
   -.271E+02 0.493E+02 -.348E+04   0.273E+02 -.499E+02 0.347E+04   -.161E+00 0.650E+00 0.167E+01   0.868E-01 -.157E+00 0.294E+00
   0.271E+02 0.493E+02 -.348E+04   -.273E+02 -.499E+02 0.347E+04   0.161E+00 0.650E+00 0.167E+01   -.624E-01 -.157E+00 0.296E+00
   -.146E-03 -.269E-04 -.347E+04   0.251E-03 0.291E-05 0.347E+04   -.148E-17 -.100E-18 0.277E+01   -.142E-01 -.735E-02 0.397E+00
   -.601E-04 -.248E-04 -.246E+04   0.100E-03 0.198E-04 0.247E+04   -.245E-18 -.148E-17 -.368E+01   0.468E-03 0.306E-03 0.155E+00
   0.399E-05 -.513E-05 -.378E+03   0.351E-05 0.152E-05 0.381E+03   -.172E-18 -.337E-19 -.231E+01   0.374E-04 0.224E-04 -.230E-01
   -.222E-03 0.587E-05 0.135E+02   0.137E-12 0.484E-12 0.705E-11   -.252E-15 0.665E-15 -.137E+02   0.115E+00 0.634E-01 0.273E+00

 POSITION                                       TOTAL-FORCE (eV/Angst)
      0.00000      0.00000      5.37156        -0.000000      0.000000     -0.027929
      2.56560      0.00000      5.37156         0.011825      0.023642      0.057023
      5.13119      0.00000      5.37156        -0.011825      0.023642      0.057023
      1.28280      2.22187      5.37156         0.026387     -0.001580      0.057023
      3.84839      2.22187      5.37156        -0.000000      0.000000      0.007763
      6.41399      2.22187      5.37156        -0.026387     -0.001580      0.057023
      2.56560      4.44374      5.37156         0.014562     -0.022062      0.057023
      5.13119      4.44374      5.37156        -0.014562     -0.022062      0.057023
      7.69679      4.44374      5.37156        -0.000000      0.000000      0.007082
      1.28280      0.74062      7.46636        -0.012536     -0.007238     -0.061575
      3.84839      0.74062      7.46636         0.000000     -0.041299     -0.026763
      6.41399      0.74062      7.46636         0.012536     -0.007238     -0.061575
      2.56560      2.96249      7.46636        -0.035766      0.020649     -0.026763
      5.13119      2.96249      7.46636         0.035766      0.020649     -0.026763
      7.69679      2.96249      7.46636         0.000000     -0.015812     -0.024696
      3.84839      5.18437      7.46636        -0.000000      0.014475     -0.061575
      6.41399      5.18437      7.46636        -0.013693      0.007906     -0.024696
      8.97958      5.18437      7.46636         0.013693      0.007906     -0.024696
      7.69679      1.48414      9.55535         0.000000     -0.000295      0.023333
      2.56128      1.47875      9.53998        -0.123261     -0.071165     -0.186030
      5.13551      1.47875      9.53998         0.123261     -0.071165     -0.186030
      8.97644      3.70493      9.56275         0.051898     -0.029963     -0.011153
      3.84839      3.70811      9.53998        -0.000000      0.142330     -0.186030
      6.41713      3.70493      9.56275        -0.051898     -0.029963     -0.011153
     10.25987      5.92354      9.55535         0.000255      0.000147      0.023333
      5.13370      5.92354      9.55535        -0.000255      0.000147      0.023333
      7.69679      5.92136      9.56275        -0.000000      0.059927     -0.011153
      0.00000      0.00000     11.63109        -0.000000      0.000000      0.005933
      6.40750      6.66078     11.65531         0.023976      0.043636      0.054365
      8.98608      6.66078     11.65531        -0.023976      0.043636      0.054365
      8.97216      2.21866     11.65531         0.049778     -0.001054      0.054365
      6.42142      2.21866     11.65531        -0.049778     -0.001054      0.054365
     10.26144      4.45178     11.65531         0.025802     -0.042582      0.054365
      5.13213      4.45178     11.65531        -0.025802     -0.042582      0.054365
      7.69679      4.44374     11.63516        -0.000000      0.000000      0.001903
      3.84839      2.22187     11.61289        -0.000000      0.000000      0.172623
      3.84839      2.22187     13.23023        -0.000000      0.000000      0.024945
    total drift:                                0.114950      0.063427      0.018713

  FREE ENERGIE OF THE ION-ELECTRON SYSTEM (eV)
  free  energy   TOTEN  =      -133.67304066 eV

  energy  without entropy=     -133.67304066  energy(sigma->0) =     -133.67304066

 stress matrix after NEB project (eV)
     -5.70311      0.00000      0.00000
      0.00000     -5.70311     -0.00000
      0.00000     -0.00000      2.17049
  FORCES: max atom, RMS     0.024945    0.004101
  FORCE total and by dimension    0.024945    0.024945
  Stress total and by dimension    8.352361    5.703110
|           W    W    AA    RRRRR   N    N  II  N    N   GGGG   !!!           |
|           W    W   A  A   R    R  NN   N  II  NN   N  G    G  !!!           |
|           W    W  A    A  R    R  N N  N  II  N N  N  G       !!!           |
|           W WW W  AAAAAA  RRRRR   N  N N  II  N  N N  G  GGG   !            |
|           WW  WW  A    A  R   R   N   NN  II  N   NN  G    G                |
|           W    W  A    A  R    R  N    N  II  N    N   GGGG   !!!           |
|     Tetrahedron method does not include variations of the Fermi             |
|     occupations, so forces and stress will be inaccurate. We suggest        |
|     using a different smearing scheme ISMEAR = 1 or 2 for metals in         |
|     relaxations.                                                            |

 total charge

# of ion       s       p       d       tot
    1        0.449   0.282   9.191   9.922
    2        0.448   0.285   9.186   9.919
    3        0.448   0.285   9.186   9.919
    4        0.448   0.285   9.186   9.919
    5        0.450   0.286   9.178   9.913
    6        0.448   0.285   9.186   9.919
    7        0.448   0.285   9.186   9.919
    8        0.448   0.285   9.186   9.919
    9        0.447   0.281   9.192   9.921
   10        0.443   0.372   9.174   9.989
   11        0.444   0.365   9.185   9.995
   12        0.443   0.372   9.174   9.989
   13        0.444   0.365   9.185   9.995
   14        0.444   0.365   9.185   9.995
   15        0.439   0.370   9.178   9.986
   16        0.443   0.372   9.174   9.989
   17        0.439   0.370   9.178   9.986
   18        0.439   0.370   9.178   9.986
   19        0.440   0.370   9.182   9.992
   20        0.460   0.384   9.173  10.016
   21        0.460   0.384   9.173  10.016
   22        0.431   0.372   9.183   9.986
   23        0.460   0.384   9.173  10.016
   24        0.431   0.372   9.183   9.986
   25        0.440   0.370   9.182   9.992
   26        0.440   0.370   9.182   9.992
   27        0.431   0.372   9.183   9.986
   28        0.448   0.288   9.191   9.926
   29        0.455   0.301   9.176   9.932
   30        0.455   0.301   9.176   9.932
   31        0.455   0.301   9.176   9.932
   32        0.455   0.301   9.176   9.932
   33        0.455   0.301   9.176   9.932
   34        0.455   0.301   9.176   9.932
   35        0.440   0.291   9.190   9.922
   36        0.605   0.586   6.729   7.921
   37        0.509   0.017   0.000   0.526
tot         16.740  12.243 328.064 357.047

 BZINTS: Fermi energy:    0.016061;  394.000000 electrons
         Band energy:-0.108499E+04;  BLOECHL correction:   -0.047784