 vasp.6.2.0 18Jan21 (build Jun 12 2021 23:27:24) complex

 executed on             LinuxIFC date 2022.05.26  20:03:33

 INCAR:
   ISMEAR = -5
   SIGMA = 0.1
   ISPIN = 1
   EDIFF = 1.d-5
   EDIFFG = -0.01
   NSW = 0
   NELM = 150
   ENCUT = 500
   ISIF = 2
   IBRION = 2
   LREAL = Auto
   ALGO = Fast
   ICHARG = 11
   LORBIT = 10
   LCHARG = .F.
   LWAVE = .F.

 POTCAR:    PAW_PBE Cu 22Jun2005
 POTCAR:    PAW_PBE Nb_sv 25May2007
 POTCAR:    PAW_PBE O 08Apr2002
|           W    W    AA    RRRRR   N    N  II  N    N   GGGG   !!!           |
|           W    W   A  A   R    R  NN   N  II  NN   N  G    G  !!!           |
|           W    W  A    A  R    R  N N  N  II  N N  N  G       !!!           |
|           W WW W  AAAAAA  RRRRR   N  N N  II  N  N N  G  GGG   !            |
|           WW  WW  A    A  R   R   N   NN  II  N   NN  G    G                |
|           W    W  A    A  R    R  N    N  II  N    N   GGGG   !!!           |
|     For optimal performance we recommend to set                             |
|       NCORE = 2 up to number-of-cores-per-socket                            |
|     This setting can greatly improve the performance of VASP for DFT.       |
|     The default, NCORE=1 might be grossly inefficient on modern             |
|     multi-core architectures or massively parallel machines. Do your        |
|     Unfortunately you need to use the default for GW and RPA                |
|     calculations (for HF NCORE is supported but not extensively tested      |
|     yet).                                                                   |

 POTCAR:    PAW_PBE Cu 22Jun2005
   VRHFIN =Cu: d10 p1

   TITEL  = PAW_PBE Cu 22Jun2005
   POMASS =   63.546; ZVAL   =   11.000    mass and valenz
   ENMAX  =  295.446; ENMIN  =  221.585 eV

 POTCAR:    PAW_PBE Nb_sv 25May2007
   VRHFIN =Nb: 4p5s4d

   TITEL  = PAW_PBE Nb_sv 25May2007
   POMASS =   92.910; ZVAL   =   13.000    mass and valenz
   ENMAX  =  293.235; ENMIN  =  219.927 eV

 POTCAR:    PAW_PBE O 08Apr2002
   VRHFIN =O: s2p4

   TITEL  = PAW_PBE O 08Apr2002
   POMASS =   16.000; ZVAL   =    6.000    mass and valenz
   ENMAX  =  400.000; ENMIN  =  300.000 eV

 Optimization of the real space projectors (new method)

 maximal supplied QI-value         = 16.25
 optimisation between [QCUT,QGAM] = [ 11.38, 22.75] = [ 36.24,144.96] Ry
 Optimized for a Real-space Cutoff    1.52 Angstroem

   l    n(q)    QCUT    max X(q) W(low)/X(q) W(high)/X(q)  e(spline)
   2      9    11.376     4.610    0.21E-03    0.10E-03    0.26E-06
   2      9    11.376     8.522    0.33E-03    0.16E-03    0.37E-06
   0     10    11.376    51.609    0.62E-04    0.20E-04    0.13E-06
   0     10    11.376    27.747    0.54E-04    0.20E-04    0.13E-06
   1     10    11.376    20.408    0.13E-04    0.99E-04    0.19E-06
   1     10    11.376    13.425    0.12E-04    0.87E-04    0.17E-06
 Optimization of the real space projectors (new method)

[...]

   l    n(q)    QCUT    max X(q) W(low)/X(q) W(high)/X(q)  e(spline)
   0     11    11.450    10.201    0.21E-04    0.96E-05    0.78E-07
   0     11    11.450     8.174    0.31E-04    0.18E-04    0.14E-06
   1     10    11.450     3.488    0.27E-04    0.12E-04    0.96E-07
   1     10    11.450     4.917    0.11E-03    0.11E-03    0.37E-06
   2     10    11.450   153.744    0.37E-03    0.81E-03    0.10E-05
   2     10    11.450   126.342    0.37E-03    0.81E-03    0.10E-05
 Optimization of the real space projectors (new method)

 maximal supplied QI-value         = 24.76
 optimisation between [QCUT,QGAM] = [ 11.39, 22.77] = [ 36.31,145.25] Ry
 Optimized for a Real-space Cutoff    1.00 Angstroem

   l    n(q)    QCUT    max X(q) W(low)/X(q) W(high)/X(q)  e(spline)
   0      7    11.387    20.381    0.39E-03    0.13E-02    0.15E-06
   0      7    11.387    15.268    0.42E-03    0.14E-02    0.17E-06
   1      6    11.387     5.964    0.41E-03    0.11E-02    0.17E-06
   1      6    11.387     5.382    0.39E-03    0.87E-03    0.15E-06
  PAW_PBE Cu 22Jun2005                  :
  PAW_PBE Nb_sv 25May2007               :
  PAW_PBE O 08Apr2002                   :

 POSCAR: Cu-Nb-O
  positions in direct lattice
  velocities in cartesian coordinates
 exchange correlation table for  LEXCH =        8
   RHO(1)=    0.500       N(1)  =     2000
   RHO(2)=  100.500       N(2)  =     4000

 VTST: version 3.2, (02/03/18)

 CHAIN: initializing optimizer

 OPT: Using VASP Conjugate-Gradient optimizer
 CHAIN: Read ICHAIN            0

 POSCAR: Cu-Nb-O
  positions in direct lattice
  velocities in cartesian coordinates

 ion  position               nearest neighbor table
   1  0.000  0.000  0.252-   7 2.57   3 2.57   4 2.57   2 2.57   6 2.57   8 2.57  12 2.57  10 2.57
                            16 2.57
   2  0.333  0.000  0.252-   8 2.57   9 2.57   5 2.57   1 2.57   3 2.57  11 2.57   4 2.57  10 2.57
                            17 2.57
   3  0.667  0.000  0.252-   1 2.57   7 2.57   6 2.57   9 2.57   2 2.57  12 2.57   5 2.57  18 2.57
                            11 2.57
   4  0.000  0.333  0.252-   5 2.57   6 2.57   1 2.57   7 2.57   2 2.57  13 2.57   9 2.57  10 2.57
                            15 2.57
   5  0.333  0.333  0.252-   4 2.57   2 2.57   7 2.57  13 2.57   8 2.57   6 2.57   3 2.57  11 2.57
                            14 2.57
   6  0.667  0.333  0.252-   4 2.57   9 2.57  15 2.57   3 2.57   1 2.57   8 2.57  14 2.57   5 2.57
                            12 2.57
   7  0.000  0.667  0.252-   1 2.57   3 2.57  16 2.57  18 2.57   4 2.57   5 2.57   8 2.57   9 2.57
                            13 2.57
   8  0.333  0.667  0.252-   9 2.57   2 2.57  17 2.57   6 2.57   1 2.57   7 2.57   5 2.57  14 2.57
                            16 2.57
   9  0.667  0.667  0.252-   8 2.57   6 2.57   2 2.57  17 2.57   3 2.57   7 2.57   4 2.57  15 2.57
                            18 2.57
  10  0.111  0.111  0.351-  26 2.55  19 2.55  11 2.57  12 2.57  13 2.57   1 2.57   2 2.57   4 2.57
                            15 2.57  16 2.57  17 2.57  20 2.57
  11  0.444  0.111  0.351-  20 2.57  21 2.57  10 2.57  13 2.57   2 2.57  17 2.57  14 2.57  12 2.57
                             5 2.57   3 2.57  18 2.57  27 2.57
  12  0.778  0.111  0.351-  19 2.55  25 2.55  15 2.57  10 2.57  14 2.57  18 2.57   3 2.57   1 2.57
                            16 2.57  11 2.57   6 2.57  21 2.57
  13  0.111  0.444  0.351-  23 2.57  20 2.57  16 2.57  18 2.57  10 2.57  11 2.57  14 2.57   5 2.57
                             4 2.57   7 2.57  15 2.57  22 2.57
  14  0.444  0.444  0.351-  21 2.57  23 2.57  15 2.57  17 2.57  12 2.57  16 2.57  13 2.57  11 2.57
                             6 2.57   8 2.57   5 2.57  24 2.57
  15  0.778  0.444  0.351-  19 2.55  14 2.57  17 2.57  12 2.57   6 2.57  18 2.57  10 2.57   9 2.57
                            13 2.57   4 2.57  24 2.57  22 2.57
  16  0.111  0.778  0.351-  25 2.55  26 2.55  18 2.57  13 2.57   7 2.57  14 2.57  17 2.57  12 2.57
                            10 2.57   8 2.57   1 2.57  23 2.57
  17  0.444  0.778  0.351-  26 2.55  14 2.57  15 2.57   8 2.57   9 2.57  11 2.57  16 2.57  18 2.57
                            10 2.57   2 2.57  27 2.57  24 2.57
  18  0.778  0.778  0.351-  25 2.55  16 2.57  13 2.57   7 2.57  15 2.57  12 2.57  17 2.57   9 2.57
                             3 2.57  11 2.57  22 2.57  27 2.57
  19  0.889  0.222  0.448-  12 2.55  10 2.55  15 2.55  25 2.56  26 2.56  21 2.57  20 2.57  22 2.57
                            24 2.57  28 2.57  32 2.58  31 2.58
  20  0.222  0.222  0.449-  23 2.56  21 2.56  11 2.57  13 2.57  10 2.57  26 2.57  19 2.57  27 2.57
                            22 2.57  29 2.59  31 2.59  36 2.66
  21  0.555  0.222  0.449-  20 2.56  23 2.56  14 2.57  11 2.57  12 2.57  19 2.57  25 2.57  24 2.57
                            27 2.57  32 2.59  30 2.59  36 2.66
  22  0.889  0.556  0.449-  24 2.56  27 2.56  18 2.57  15 2.57  23 2.57  20 2.57  19 2.57  25 2.57
                            13 2.57  35 2.57  31 2.57  33 2.57
  23  0.222  0.555  0.449-  20 2.56  21 2.56  13 2.57  14 2.57  16 2.57  25 2.57  26 2.57  22 2.57
                            24 2.57  33 2.59  34 2.59  36 2.66
  24  0.556  0.556  0.449-  22 2.56  27 2.56  15 2.57  17 2.57  21 2.57  23 2.57  19 2.57  26 2.57
                            14 2.57  35 2.57  32 2.57  34 2.57
  25  0.889  0.889  0.448-  12 2.55  16 2.55  18 2.55  19 2.56  26 2.56  21 2.57  23 2.57  22 2.57
                            27 2.57  28 2.57  33 2.58  30 2.58
  26  0.222  0.889  0.448-  10 2.55  16 2.55  17 2.55  25 2.56  19 2.56  20 2.57  23 2.57  27 2.57
                            24 2.57  28 2.57  29 2.58  34 2.58
  27  0.556  0.889  0.449-  24 2.56  22 2.56  17 2.57  18 2.57  20 2.57  21 2.57  26 2.57  25 2.57
                            11 2.57  35 2.57  29 2.57  30 2.57
  28  0.000  0.000  0.547-  33 2.55  30 2.55  31 2.55  29 2.55  32 2.55  34 2.55  25 2.57  19 2.57
                            26 2.57
  29  0.334  0.996  0.548-  34 2.51  35 2.55  28 2.55  27 2.57  26 2.58  20 2.59  30 2.59  36 2.60
                            31 2.60
  30  0.670  0.996  0.548-  33 2.51  35 2.55  28 2.55  27 2.57  25 2.58  21 2.59  29 2.59  36 2.60
                            32 2.60
  31  0.996  0.334  0.548-  32 2.51  35 2.55  28 2.55  22 2.57  19 2.58  20 2.59  33 2.59  36 2.60
                            29 2.60
  32  0.670  0.334  0.548-  31 2.51  35 2.55  28 2.55  24 2.57  19 2.58  21 2.59  34 2.59  36 2.60
                            30 2.60
  33  0.996  0.670  0.548-  30 2.51  35 2.55  28 2.55  22 2.57  25 2.58  23 2.59  31 2.59  36 2.60
                            34 2.60
  34  0.334  0.670  0.548-  29 2.51  35 2.55  28 2.55  24 2.57  26 2.58  23 2.59  32 2.59  36 2.60
                            33 2.60
  35  0.667  0.667  0.548-  34 2.55  32 2.55  29 2.55  30 2.55  33 2.55  31 2.55  24 2.57  27 2.57
                            22 2.57
  36  0.333  0.333  0.553-  37 1.74  31 2.60  29 2.60  33 2.60  32 2.60  34 2.60  30 2.60  23 2.66
                            20 2.66  21 2.66
  37  0.333  0.333  0.635-  36 1.74

  LATTYP: Found a hexagonal cell.
 ALAT       =     7.6967864036
 C/A-ratio  =     2.7653617908

  Lattice vectors:

 A1 = (  -3.8483927580,  -6.6656128093,   0.0000000000)
 A2 = (   7.6967864037,   0.0000000000,   0.0000000000)
 A3 = (   0.0000000000,   0.0000000000,  21.2843990326)

Analysis of symmetry for initial positions (statically):
 Subroutine PRICEL returns:
 Original cell was already a primitive cell.

 Routine SETGRP: Setting up the symmetry group for a
 hexagonal supercell.

 Subroutine GETGRP returns: Found  6 space group operations
 (whereof  6 operations were pure point group operations)
 out of a pool of 24 trial point group operations.

The static configuration has the point symmetry C_3v.

Analysis of symmetry for dynamics (positions and initial velocities):
 Subroutine PRICEL returns:
 Original cell was already a primitive cell.

[...]

The dynamic configuration has the point symmetry C_3v.

Analysis of constrained symmetry for selective dynamics:
 Subroutine PRICEL returns:
 Original cell was already a primitive cell.

 Routine SETGRP: Setting up the symmetry group for a
 hexagonal supercell.

 Subroutine GETGRP returns: Found  6 space group operations
[...]
     24      -4.4579      2.00000
     25      -4.4463      2.00000
     26      -4.3892      2.00000
     27      -4.3483      2.00000
     28      -4.3222      2.00000
     29      -4.2247      2.00000
     30      -4.1855      2.00000
     31      -4.1517      2.00000
     32      -4.1352      2.00000
     33      -4.1151      2.00000
     34      -4.0937      2.00000
     35      -4.0752      2.00000
     36      -4.0697      2.00000
     37      -4.0507      2.00000
     38      -4.0396      2.00000
     39      -4.0182      2.00000
     40      -3.9916      2.00000
     41      -3.9158      2.00000
     42      -3.8499      2.00000
     43      -3.8319      2.00000
     44      -3.8048      2.00000
     45      -3.7483      2.00000
     46      -3.7117      2.00000
     47      -3.6777      2.00000
     48      -3.6488      2.00000
     49      -3.6364      2.00000
     50      -3.6305      2.00000
     51      -3.5623      2.00000
     52      -3.5501      2.00000
     53      -3.5383      2.00000
     54      -3.4627      2.00000
     55      -3.4350      2.00000
     56      -3.4066      2.00000
     57      -3.3989      2.00000
     58      -3.3621      2.00000
     59      -3.3443      2.00000
     60      -3.3355      2.00000
[...]
    238       5.9574      0.00000
    239       6.1278      0.00000
    240       6.1728      0.00000
    241       6.2402      0.00000
    242       6.4695      0.00000
    243       6.5932      0.00000
    244       6.6129      0.00000
    245       7.1387      0.00000
    246       7.1398      0.00000
    247       7.2042      0.00000
    248       7.2241      0.00000
    249       7.3381      0.00000
    250       7.4401      0.00000
    251       7.4999      0.00000
    252       7.5919      0.00000

 soft charge-density along one line, spin component           1
         0         1         2         3         4         5         6         7         8         9
 total charge-density along one line

------------------------ aborting loop because EDIFF is reached ----------------------------------------

 total charge

# of ion       s       p       d       tot
    1        0.450   0.283   9.188   9.921
    2        0.449   0.285   9.186   9.920
    3        0.449   0.285   9.186   9.920
    4        0.449   0.285   9.186   9.920
    5        0.446   0.286   9.185   9.917
    6        0.449   0.285   9.186   9.920
    7        0.449   0.285   9.186   9.920
    8        0.449   0.285   9.186   9.920
    9        0.448   0.284   9.188   9.920
   10        0.442   0.370   9.178   9.990
   11        0.440   0.367   9.182   9.988
   12        0.442   0.370   9.178   9.990
   13        0.440   0.367   9.182   9.988
   14        0.440   0.367   9.182   9.988
   15        0.438   0.370   9.177   9.986
   16        0.442   0.370   9.178   9.990
   17        0.438   0.370   9.177   9.986
   18        0.438   0.370   9.177   9.986
   19        0.444   0.367   9.183   9.994
   20        0.461   0.386   9.169  10.017
   21        0.461   0.386   9.169  10.017
   22        0.434   0.374   9.177   9.984
   23        0.461   0.386   9.169  10.017
   24        0.434   0.374   9.177   9.984
   25        0.444   0.367   9.183   9.994
   26        0.444   0.367   9.183   9.994
   27        0.434   0.374   9.177   9.984
   28        0.449   0.295   9.181   9.925
   29        0.477   0.311   9.172   9.961
   30        0.477   0.311   9.172   9.961
   31        0.477   0.311   9.172   9.961
   32        0.477   0.311   9.172   9.961
   33        0.477   0.311   9.172   9.961
   34        0.477   0.311   9.172   9.961
   35        0.449   0.301   9.178   9.927
   36        2.247   6.051   2.540  10.838
   37        1.612   3.321   0.000   4.933
tot         19.632  21.098 323.805 364.535

  FORCE on cell =-STRESS in cart. coord.  units (eV):
  Direction    XX          YY          ZZ          XY          YZ          ZX
  Alpha Z   911.89914   911.89914   911.89914
  Ewald  174926.84188174926.84136************     0.00042     0.00012     0.00022
  Hartree188209.93013188209.93007************     0.00005     0.00006     0.00008
  E(xc)   -2336.13253 -2336.13206 -2340.05485    -0.00041    -0.00004    -0.00006
  Local  ************************376523.93108     0.01862    -0.00060    -0.00102
  n-local  -790.33243  -778.63616  -802.99274     6.62578    -0.33877     0.41580
  augment  3329.67660  3329.69656  3353.29334    -0.01728     0.00022     0.00046
  Kinetic  3512.78448  3515.23821  3538.76935     1.56718     2.08370    -1.40532
  Fock        0.00000     0.00000     0.00000     0.00000     0.00000     0.00000
  Total      -1.92187    -1.92187     0.92723     0.00000     0.00000    -0.00000
  in kB      -2.81984    -2.81984     1.36047     0.00000     0.00000    -0.00000

 VOLUME and BASIS-vectors are now :
  energy-cutoff  :      500.00
  volume of cell :     1091.97
      direct lattice vectors                 reciprocal lattice vectors
     7.696786404  0.000000000  0.000000000     0.129924354 -0.075011849  0.000000000
     3.848392758  6.665612809  0.000000000     0.000000000  0.150023716  0.000000000
     0.000000000  0.000000000 21.284399033     0.000000000  0.000000000  0.046982769

  length of vectors
     7.696786404  7.696786404 21.284399033     0.150023716  0.150023716  0.046982769

 FORCES acting on ions
    electron-ion (+dipol)            ewald-force                    non-local-force                 convergence-correction
   -.412E-04 0.351E-06 0.352E+04   0.578E-04 -.436E-05 -.352E+04   -.857E-17 0.321E-17 -.208E+01   -.336E-03 -.161E-03 0.354E-01
   -.405E+00 0.114E+00 0.352E+04   0.396E+00 -.562E-01 -.352E+04   -.746E-02 0.190E-01 -.195E+01   0.140E-01 -.725E-01 0.115E-01
   0.405E+00 0.114E+00 0.352E+04   -.396E+00 -.562E-01 -.352E+04   0.746E-02 0.190E-01 -.195E+01   -.132E-01 -.699E-01 0.124E-01
   -.103E+00 -.407E+00 0.352E+04   0.149E+00 0.371E+00 -.352E+04   0.128E-01 -.160E-01 -.195E+01   -.557E-01 0.484E-01 0.115E-01
   -.657E-04 -.570E-05 0.352E+04   0.116E-03 -.101E-04 -.352E+04   0.345E-17 -.203E-17 -.209E+01   0.122E-01 0.749E-02 -.315E-01
   0.103E+00 -.407E+00 0.352E+04   -.149E+00 0.371E+00 -.352E+04   -.128E-01 -.160E-01 -.195E+01   0.540E-01 0.496E-01 0.129E-01
   0.301E+00 0.293E+00 0.352E+04   -.247E+00 -.315E+00 -.352E+04   0.202E-01 -.306E-02 -.195E+01   -.671E-01 0.235E-01 0.126E-01
   -.301E+00 0.293E+00 0.352E+04   0.246E+00 -.315E+00 -.352E+04   -.202E-01 -.306E-02 -.195E+01   0.707E-01 0.220E-01 0.129E-01
   -.144E-03 -.328E-04 0.352E+04   0.263E-03 0.205E-04 -.352E+04   0.141E-18 0.671E-18 -.204E+01   -.133E-01 -.685E-02 -.316E-01
   -.285E+01 -.165E+01 0.124E+04   0.306E+01 0.177E+01 -.124E+04   -.214E+00 -.124E+00 -.735E+00   0.936E-02 0.539E-02 -.189E+00
   -.906E-04 0.662E+00 0.123E+04   0.190E-03 -.891E+00 -.123E+04   -.158E-07 0.237E+00 -.546E+00   0.118E-01 -.407E-01 -.235E+00
   0.285E+01 -.165E+01 0.124E+04   -.306E+01 0.177E+01 -.124E+04   0.214E+00 -.124E+00 -.735E+00   -.114E-01 0.746E-02 -.188E+00
   0.573E+00 -.331E+00 0.123E+04   -.772E+00 0.445E+00 -.123E+04   0.205E+00 -.119E+00 -.546E+00   -.289E-01 0.314E-01 -.235E+00
   -.573E+00 -.331E+00 0.123E+04   0.771E+00 0.445E+00 -.123E+04   -.205E+00 -.119E+00 -.546E+00   0.534E-01 0.304E-01 -.235E+00
   -.143E-03 -.332E+01 0.123E+04   0.298E-03 0.324E+01 -.123E+04   -.493E-08 0.741E-01 -.778E+00   -.407E-02 0.283E-01 -.208E+00
   -.909E-04 0.329E+01 0.124E+04   0.185E-03 -.353E+01 -.124E+04   -.165E-07 0.247E+00 -.735E+00   -.151E-03 -.148E-01 -.189E+00
   -.288E+01 0.166E+01 0.123E+04   0.280E+01 -.162E+01 -.123E+04   0.641E-01 -.370E-01 -.778E+00   0.232E-01 -.177E-01 -.208E+00
   0.288E+01 0.166E+01 0.123E+04   -.280E+01 -.162E+01 -.123E+04   -.641E-01 -.370E-01 -.778E+00   -.224E-01 -.146E-01 -.207E+00
   -.668E-04 -.192E+01 -.106E+04   0.636E-04 0.188E+01 0.106E+04   0.337E-09 -.506E-02 0.115E+01   -.236E-02 0.147E-01 -.419E+00
   0.930E+01 0.537E+01 -.106E+04   -.901E+01 -.520E+01 0.106E+04   -.529E+00 -.305E+00 0.441E+00   -.428E-01 -.249E-01 -.412E+00
   -.930E+01 0.537E+01 -.106E+04   0.901E+01 -.520E+01 0.106E+04   0.529E+00 -.305E+00 0.441E+00   0.669E-01 -.230E-01 -.411E+00
   0.284E+01 -.164E+01 -.108E+04   -.307E+01 0.177E+01 0.108E+04   0.338E+00 -.195E+00 0.104E+01   -.571E-01 0.322E-01 -.437E+00
   -.583E-04 -.107E+02 -.106E+04   0.141E-03 0.104E+02 0.106E+04   -.407E-07 0.611E+00 0.441E+00   0.123E-01 0.682E-01 -.412E+00
   -.284E+01 -.164E+01 -.108E+04   0.307E+01 0.177E+01 0.108E+04   -.338E+00 -.195E+00 0.104E+01   0.543E-01 0.305E-01 -.437E+00
   0.166E+01 0.960E+00 -.106E+04   -.163E+01 -.942E+00 0.106E+04   0.438E-02 0.253E-02 0.115E+01   -.114E-01 -.659E-02 -.420E+00
   -.166E+01 0.960E+00 -.106E+04   0.163E+01 -.942E+00 0.106E+04   -.438E-02 0.253E-02 0.115E+01   0.119E-01 -.921E-02 -.419E+00
   -.131E-03 0.328E+01 -.108E+04   0.244E-03 -.354E+01 0.108E+04   -.260E-07 0.391E+00 0.104E+01   -.705E-03 -.656E-01 -.437E+00
   -.268E-04 0.233E-04 -.340E+04   0.330E-04 -.342E-04 0.339E+04   0.158E-17 -.115E-18 0.163E+01   0.121E-02 0.746E-03 -.583E-02
   0.306E+02 0.439E+02 -.338E+04   -.303E+02 -.441E+02 0.338E+04   -.305E+00 -.124E+00 0.199E+01   -.535E-01 0.421E-01 -.327E-01
   -.306E+02 0.439E+02 -.338E+04   0.303E+02 -.441E+02 0.338E+04   0.305E+00 -.124E+00 0.199E+01   0.327E-01 0.449E-01 -.327E-01
   0.533E+02 0.449E+01 -.338E+04   -.534E+02 -.421E+01 0.338E+04   -.260E+00 -.202E+00 0.199E+01   0.977E-02 -.674E-01 -.327E-01
   -.533E+02 0.449E+01 -.338E+04   0.534E+02 -.421E+01 0.338E+04   0.260E+00 -.202E+00 0.199E+01   -.336E-01 -.664E-01 -.336E-01
   0.228E+02 -.484E+02 -.338E+04   -.230E+02 0.483E+02 0.338E+04   0.453E-01 0.326E+00 0.199E+01   0.552E-01 0.586E-02 -.327E-01
   -.228E+02 -.484E+02 -.338E+04   0.230E+02 0.483E+02 0.338E+04   -.453E-01 0.326E+00 0.199E+01   -.736E-01 0.409E-02 -.335E-01
   -.151E-03 -.185E-04 -.341E+04   0.262E-03 0.232E-05 0.341E+04   0.145E-16 0.103E-16 0.194E+01   -.118E-01 -.598E-02 0.317E-02
   0.164E-03 -.179E-03 -.376E+04   0.151E-03 0.344E-04 0.377E+04   0.108E-17 0.160E-17 -.448E+01   0.885E-02 0.531E-02 0.114E-01
   0.191E-03 -.887E-04 -.232E+04   0.149E-04 0.714E-05 0.235E+04   -.962E-18 -.381E-18 -.281E+02   0.367E-02 0.223E-02 0.230E-01
   0.126E-03 -.233E-03 0.390E+02   0.157E-12 0.119E-12 -.136E-10   0.840E-16 0.670E-16 -.332E+02   0.199E-02 -.169E-02 -.582E+01

 POSITION                                       TOTAL-FORCE (eV/Angst)
      0.00000      0.00000      5.37156         0.000000      0.000000      0.008977
      2.56560      0.00000      5.37156        -0.001609      0.005531      0.054228
      5.13119      0.00000      5.37156         0.001609      0.005531      0.054228
      1.28280      2.22187      5.37156         0.003986     -0.004159      0.054228
      3.84839      2.22187      5.37156         0.000000      0.000000      0.063173
      6.41399      2.22187      5.37156        -0.003986     -0.004159      0.054228
      2.56560      4.44374      5.37156         0.005594     -0.001372      0.054228
      5.13119      4.44374      5.37156        -0.005594     -0.001372      0.054228
      7.69679      4.44374      5.37156         0.000000      0.000000      0.026202
      1.28280      0.74062      7.46636         0.004749      0.002742     -0.095325
      3.84839      0.74062      7.46636         0.000000     -0.039468     -0.023797
      6.41399      0.74062      7.46636        -0.004749      0.002742     -0.095325
      2.56560      2.96249      7.46636        -0.034180      0.019734     -0.023797
      5.13119      2.96249      7.46636         0.034180      0.019734     -0.023797
      7.69679      2.96249      7.46636        -0.000000      0.014495      0.015915
      3.84839      5.18437      7.46636         0.000000     -0.005484     -0.095325
      6.41399      5.18437      7.46636         0.012553     -0.007248      0.015915
      8.97958      5.18437      7.46636        -0.012553     -0.007248      0.015915
      7.69679      1.47855      9.54201         0.000000     -0.026391      0.021317
      2.56706      1.48209      9.56134        -0.290612     -0.167785     -0.369692
      5.12972      1.48209      9.56134         0.290612     -0.167785     -0.369692
      8.97774      3.70418      9.56312         0.058598     -0.033832      0.028210
      3.84839      3.70142      9.56134        -0.000000      0.335569     -0.369692
      6.41583      3.70418      9.56312        -0.058598     -0.033832      0.028210
     10.26471      5.92634      9.54201         0.022855      0.013195      0.021317
      5.12886      5.92634      9.54201        -0.022855      0.013195      0.021317
      7.69679      5.92286      9.56312        -0.000000      0.067663      0.028210
      0.00000      0.00000     11.64396         0.000000      0.000000     -0.051717
      6.40056      6.63873     11.66709        -0.123998     -0.232919     -0.177195
      8.99302      6.63873     11.66709         0.123998     -0.232919     -0.177195
      8.94959      2.22368     11.66709        -0.263713      0.009074     -0.177195
      6.44399      2.22368     11.66709         0.263713      0.009074     -0.177195
     10.24582      4.46882     11.66709        -0.139715      0.223845     -0.177195
      5.14776      4.46882     11.66709         0.139715      0.223845     -0.177195
      7.69679      4.44374     11.66626         0.000000      0.000000     -0.038090
      3.84839      2.22187     11.77465         0.000000      0.000000      2.001355
      3.84839      2.22187     13.51319         0.000000      0.000000     -0.001983
    total drift:                                0.002117     -0.001924     -0.025040

  FREE ENERGIE OF THE ION-ELECTRON SYSTEM (eV)
  free  energy   TOTEN  =      -139.41689701 eV

  energy  without entropy=     -139.41689701  energy(sigma->0) =     -139.41689701

 stress matrix after NEB project (eV)
     -1.92187      0.00000     -0.00000
      0.00000     -1.92187      0.00000
      0.00000      0.00000      0.92723
  FORCES: max atom, RMS     0.001983    0.000326
  FORCE total and by dimension    0.001983    0.001983
  Stress total and by dimension    2.871750    1.921873
|           W    W    AA    RRRRR   N    N  II  N    N   GGGG   !!!           |
|           W    W   A  A   R    R  NN   N  II  NN   N  G    G  !!!           |
|           W    W  A    A  R    R  N N  N  II  N N  N  G       !!!           |
|           W WW W  AAAAAA  RRRRR   N  N N  II  N  N N  G  GGG   !            |
|           WW  WW  A    A  R   R   N   NN  II  N   NN  G    G                |
|           W    W  A    A  R    R  N    N  II  N    N   GGGG   !!!           |
|     Tetrahedron method does not include variations of the Fermi             |
|     occupations, so forces and stress will be inaccurate. We suggest        |
|     using a different smearing scheme ISMEAR = 1 or 2 for metals in         |
|     relaxations.                                                            |

 total charge

# of ion       s       p       d       tot
    1        0.450   0.283   9.188   9.921
    2        0.449   0.285   9.186   9.920
    3        0.449   0.285   9.186   9.920
    4        0.449   0.285   9.186   9.920
    5        0.446   0.286   9.185   9.917
    6        0.449   0.285   9.186   9.920
    7        0.449   0.285   9.186   9.920
    8        0.449   0.285   9.186   9.920
    9        0.448   0.284   9.188   9.920
   10        0.442   0.370   9.178   9.990
   11        0.440   0.367   9.182   9.988
   12        0.442   0.370   9.178   9.990
   13        0.440   0.367   9.182   9.988
   14        0.440   0.367   9.182   9.988
   15        0.438   0.370   9.177   9.986
   16        0.442   0.370   9.178   9.990
   17        0.438   0.370   9.177   9.986
   18        0.438   0.370   9.177   9.986
   19        0.444   0.367   9.183   9.994
   20        0.461   0.386   9.169  10.017
   21        0.461   0.386   9.169  10.017
   22        0.434   0.374   9.177   9.984
   23        0.461   0.386   9.169  10.017
   24        0.434   0.374   9.177   9.984
   25        0.444   0.367   9.183   9.994
   26        0.444   0.367   9.183   9.994
   27        0.434   0.374   9.177   9.984
   28        0.449   0.295   9.181   9.925
   29        0.477   0.311   9.172   9.961
   30        0.477   0.311   9.172   9.961
   31        0.477   0.311   9.172   9.961
   32        0.477   0.311   9.172   9.961
   33        0.477   0.311   9.172   9.961
   34        0.477   0.311   9.172   9.961
   35        0.449   0.301   9.178   9.927
   36        2.247   6.051   2.540  10.838
   37        1.612   3.321   0.000   4.933
tot         19.632  21.098 323.805 364.535

 BZINTS: Fermi energy:    0.090976;  404.000000 electrons
         Band energy:-0.144019E+04;  BLOECHL correction:   -0.044363