 vasp.6.2.0 18Jan21 (build Jun 12 2021 23:27:24) complex

 executed on             LinuxIFC date 2022.05.27  05:28:08

 INCAR:
   ISMEAR = -5
   SIGMA = 0.1
   ISPIN = 1
   EDIFF = 1.d-5
   EDIFFG = -0.01
   NSW = 0
   NELM = 150
   ENCUT = 500
   ISIF = 2
   IBRION = 2
   LREAL = Auto
   ALGO = Fast
   ICHARG = 11
   LORBIT = 10
   LCHARG = .F.
   LWAVE = .F.

 POTCAR:    PAW_PBE Ag 02Apr2005
 POTCAR:    PAW_PBE Cr 06Sep2000
 POTCAR:    PAW_PBE C 08Apr2002
 POTCAR:    PAW_PBE O 08Apr2002
|           W    W    AA    RRRRR   N    N  II  N    N   GGGG   !!!           |
|           W    W   A  A   R    R  NN   N  II  NN   N  G    G  !!!           |
|           W    W  A    A  R    R  N N  N  II  N N  N  G       !!!           |
|           W WW W  AAAAAA  RRRRR   N  N N  II  N  N N  G  GGG   !            |
|           WW  WW  A    A  R   R   N   NN  II  N   NN  G    G                |
|           W    W  A    A  R    R  N    N  II  N    N   GGGG   !!!           |
|     For optimal performance we recommend to set                             |
|       NCORE = 2 up to number-of-cores-per-socket                            |
|     This setting can greatly improve the performance of VASP for DFT.       |
|     The default, NCORE=1 might be grossly inefficient on modern             |
|     multi-core architectures or massively parallel machines. Do your        |
|     Unfortunately you need to use the default for GW and RPA                |
|     calculations (for HF NCORE is supported but not extensively tested      |
|     yet).                                                                   |

 POTCAR:    PAW_PBE Ag 02Apr2005
   VRHFIN =Ag : s1 d10

   TITEL  = PAW_PBE Ag 02Apr2005
   POMASS =  107.868; ZVAL   =   11.000    mass and valenz
   ENMAX  =  249.844; ENMIN  =  187.383 eV

 POTCAR:    PAW_PBE Cr 06Sep2000
   VRHFIN =Cr : d5 s1

   TITEL  = PAW_PBE Cr 06Sep2000
   POMASS =   51.996; ZVAL   =    6.000    mass and valenz
   ENMAX  =  227.080; ENMIN  =  170.310 eV

 POTCAR:    PAW_PBE C 08Apr2002
   VRHFIN =C: s2p2

[...]

 POTCAR:    PAW_PBE O 08Apr2002
   VRHFIN =O: s2p4

   TITEL  = PAW_PBE O 08Apr2002
   POMASS =   16.000; ZVAL   =    6.000    mass and valenz
   ENMAX  =  400.000; ENMIN  =  300.000 eV

 Optimization of the real space projectors (new method)

 maximal supplied QI-value         = 15.12
 optimisation between [QCUT,QGAM] = [ 11.34, 22.83] = [ 36.00,145.93] Ry
 Optimized for a Real-space Cutoff    1.43 Angstroem

   l    n(q)    QCUT    max X(q) W(low)/X(q) W(high)/X(q)  e(spline)
   2      9    11.338    53.897    0.16E-03    0.20E-03    0.28E-06
   2      9    11.338    52.416    0.16E-03    0.20E-03    0.29E-06
   0     10    11.338   122.045    0.31E-04    0.76E-04    0.15E-06
   0     10    11.338    73.629    0.30E-04    0.72E-04    0.15E-06
   1      9    11.338    15.255    0.20E-03    0.19E-04    0.17E-06
   1      9    11.338     9.562    0.16E-03    0.15E-04    0.14E-06
 Optimization of the real space projectors (new method)

[...]

   l    n(q)    QCUT    max X(q) W(low)/X(q) W(high)/X(q)  e(spline)
   0      7    11.310   115.676    0.43E-03    0.13E-02    0.19E-06
   0      7    11.310    87.132    0.43E-03    0.13E-02    0.18E-06
   1      6    11.310     4.429    0.42E-03    0.74E-03    0.11E-06
   1      6    11.310     2.733    0.34E-03    0.55E-03    0.92E-07
 Optimization of the real space projectors (new method)

 maximal supplied QI-value         = 24.76
 optimisation between [QCUT,QGAM] = [ 11.39, 22.77] = [ 36.31,145.25] Ry
 Optimized for a Real-space Cutoff    1.00 Angstroem

   l    n(q)    QCUT    max X(q) W(low)/X(q) W(high)/X(q)  e(spline)
   0      7    11.387    20.381    0.39E-03    0.13E-02    0.15E-06
   0      7    11.387    15.268    0.42E-03    0.14E-02    0.17E-06
   1      6    11.387     5.964    0.41E-03    0.11E-02    0.17E-06
   1      6    11.387     5.382    0.39E-03    0.87E-03    0.15E-06
  PAW_PBE Ag 02Apr2005                  :
  PAW_PBE Cr 06Sep2000                  :
  PAW_PBE C 08Apr2002                   :
  PAW_PBE O 08Apr2002                   :

 POSCAR: Ag-Cr-CO
  positions in direct lattice
  velocities in cartesian coordinates
 exchange correlation table for  LEXCH =        8
   RHO(1)=    0.500       N(1)  =     2000
   RHO(2)=  100.500       N(2)  =     4000

 VTST: version 3.2, (02/03/18)

 CHAIN: initializing optimizer

 OPT: Using VASP Conjugate-Gradient optimizer
 CHAIN: Read ICHAIN            0

 POSCAR: Ag-Cr-CO
  positions in direct lattice
  velocities in cartesian coordinates

 ion  position               nearest neighbor table
   1  0.000  0.000  0.212-   2 2.93   8 2.93   7 2.93   6 2.93   4 2.93  12 2.93  16 2.93  10 2.93
                             3 2.93
   2  0.333  0.000  0.212-   1 2.93   8 2.93   9 2.93   3 2.93   4 2.93   5 2.93  10 2.93  17 2.93
                            11 2.93
   3  0.667  0.000  0.212-   9 2.93   2 2.93   5 2.93  11 2.93   7 2.93  18 2.93   1 2.93   6 2.93
                            12 2.93
   4  0.000  0.333  0.212-   5 2.93   6 2.93   2 2.93   1 2.93   7 2.93  13 2.93  15 2.93   9 2.93
                            10 2.93
   5  0.333  0.333  0.212-   4 2.93   3 2.93   7 2.93   2 2.93   8 2.93  14 2.93  13 2.93  11 2.93
                             6 2.93
   6  0.667  0.333  0.212-   4 2.93   9 2.93   1 2.93  15 2.93   8 2.93  12 2.93   3 2.93   5 2.93
                            14 2.93
   7  0.000  0.667  0.212-   8 2.93   1 2.93   5 2.93   3 2.93   4 2.93  16 2.93  18 2.93  13 2.93
                             9 2.93
   8  0.333  0.667  0.212-   7 2.93   1 2.93   2 2.93   9 2.93   5 2.93  16 2.93   6 2.93  17 2.93
                            14 2.93
   9  0.667  0.667  0.212-   3 2.93   2 2.93   8 2.93   6 2.93  17 2.93   4 2.93  15 2.93   7 2.93
                            18 2.93
  10  0.111  0.111  0.308-  20 2.91  19 2.92  26 2.92  12 2.93  16 2.93  15 2.93  17 2.93  13 2.93
                            11 2.93   2 2.93   1 2.93   4 2.93
  11  0.444  0.111  0.308-  21 2.90  20 2.90  27 2.92  14 2.93  17 2.93  18 2.93   3 2.93  12 2.93
                            13 2.93  10 2.93   5 2.93   2 2.93
  12  0.778  0.111  0.308-  21 2.91  25 2.92  19 2.92  10 2.93  16 2.93  18 2.93  15 2.93  11 2.93
                             1 2.93  14 2.93   6 2.93   3 2.93
  13  0.111  0.444  0.308-  20 2.90  23 2.90  22 2.92  15 2.93  14 2.93  18 2.93  10 2.93  11 2.93
                            16 2.93   4 2.93   5 2.93   7 2.93
  14  0.444  0.444  0.308-  23 2.90  21 2.90  24 2.92  13 2.93  11 2.93  16 2.93   5 2.93  12 2.93
                            17 2.93   8 2.93  15 2.93   6 2.93
  15  0.778  0.444  0.308-  24 2.92  22 2.92  19 2.92  13 2.93  10 2.93  12 2.93  17 2.93  18 2.93
                             4 2.93   6 2.93   9 2.93  14 2.93
  16  0.111  0.778  0.308-  23 2.91  26 2.92  25 2.92  18 2.93  12 2.93  10 2.93  14 2.93  17 2.93
                            13 2.93   7 2.93   8 2.93   1 2.93
  17  0.444  0.778  0.308-  27 2.92  24 2.92  26 2.92  11 2.93  10 2.93   9 2.93  18 2.93  15 2.93
                            16 2.93   2 2.93  14 2.93   8 2.93
  18  0.778  0.778  0.308-  22 2.92  27 2.92  25 2.92  16 2.93  12 2.93  13 2.93  11 2.93  17 2.93
                            15 2.93   7 2.93   3 2.93   9 2.93
  19  0.889  0.222  0.404-  28 2.91  15 2.92  10 2.92  12 2.92  24 2.93  22 2.93  26 2.93  25 2.93
                            20 2.94  21 2.94  32 2.96  31 2.96
  20  0.223  0.223  0.403-  36 2.73  13 2.90  11 2.90  21 2.91  23 2.91  10 2.91  31 2.91  29 2.91
                            27 2.93  22 2.93  19 2.94  26 2.94
  21  0.554  0.223  0.403-  36 2.73  11 2.90  14 2.90  20 2.91  23 2.91  12 2.91  30 2.91  32 2.91
                            27 2.93  24 2.93  25 2.94  19 2.94
  22  0.888  0.556  0.404-  35 2.91  18 2.92  15 2.92  13 2.92  24 2.92  27 2.92  25 2.93  19 2.93
                            33 2.93  31 2.93  23 2.93  20 2.93
  23  0.223  0.554  0.403-  36 2.73  14 2.90  13 2.90  21 2.91  20 2.91  16 2.91  34 2.91  33 2.91
                            22 2.93  24 2.93  26 2.94  25 2.94
  24  0.556  0.556  0.404-  35 2.91  15 2.92  17 2.92  14 2.92  27 2.92  22 2.92  19 2.93  26 2.93
                            32 2.93  34 2.93  23 2.93  21 2.93
  25  0.889  0.889  0.404-  28 2.91  18 2.92  16 2.92  12 2.92  22 2.93  27 2.93  26 2.93  19 2.93
                            23 2.94  21 2.94  33 2.96  30 2.96
  26  0.222  0.889  0.404-  28 2.91  17 2.92  16 2.92  10 2.92  27 2.93  24 2.93  25 2.93  19 2.93
                            23 2.94  20 2.94  34 2.96  29 2.96
  27  0.556  0.888  0.404-  35 2.91  17 2.92  18 2.92  11 2.92  24 2.92  22 2.92  26 2.93  25 2.93
                            29 2.93  30 2.93  20 2.93  21 2.93
  28  0.000  0.000  0.499-  26 2.91  25 2.91  19 2.91  29 2.96  34 2.96  33 2.96  32 2.96  31 2.96
                            30 2.96
  29  0.333  0.007  0.500-  30 2.87  31 2.87  36 2.88  20 2.91  27 2.93  26 2.96  35 2.96  28 2.96
                            34 3.06
  30  0.659  0.007  0.500-  29 2.87  32 2.87  36 2.88  21 2.91  27 2.93  25 2.96  35 2.96  28 2.96
                            33 3.06
  31  0.007  0.333  0.500-  33 2.87  29 2.87  36 2.88  20 2.91  22 2.93  19 2.96  35 2.96  28 2.96
                            32 3.06
  32  0.659  0.333  0.500-  34 2.87  30 2.87  36 2.88  21 2.91  24 2.93  19 2.96  35 2.96  28 2.96
                            31 3.06
  33  0.007  0.659  0.500-  31 2.87  34 2.87  36 2.88  23 2.91  22 2.93  25 2.96  35 2.96  28 2.96
                            30 3.06
  34  0.333  0.659  0.500-  32 2.87  33 2.87  36 2.88  23 2.91  24 2.93  26 2.96  35 2.96  28 2.96
                            29 3.06
  35  0.667  0.667  0.499-  24 2.91  27 2.91  22 2.91  30 2.96  32 2.96  29 2.96  34 2.96  31 2.96
                            33 2.96
  36  0.333  0.333  0.489-  37 1.84  21 2.73  20 2.73  23 2.73  31 2.88  33 2.88  30 2.88  29 2.88
                            34 2.88  32 2.88
  37  0.333  0.333  0.563-  38 1.18  36 1.84
  38  0.333  0.333  0.610-  37 1.18

  LATTYP: Found a hexagonal cell.
 ALAT       =     8.7913665772
 C/A-ratio  =     2.8342746266

  Lattice vectors:

 A1 = (  -4.3956832886,  -7.6135467898,   0.0000000000)
 A2 = (   8.7913665771,   0.0000000000,   0.0000000000)
 A3 = (   0.0000000000,   0.0000000000,  24.9171472230)

Analysis of symmetry for initial positions (statically):
 Subroutine PRICEL returns:
 Original cell was already a primitive cell.

 Routine SETGRP: Setting up the symmetry group for a
 hexagonal supercell.

 Subroutine GETGRP returns: Found  6 space group operations
 (whereof  6 operations were pure point group operations)
 out of a pool of 24 trial point group operations.

The static configuration has the point symmetry C_3v.

Analysis of symmetry for dynamics (positions and initial velocities):
 Subroutine PRICEL returns:
 Original cell was already a primitive cell.

[...]

The dynamic configuration has the point symmetry C_3v.

Analysis of constrained symmetry for selective dynamics:
 Subroutine PRICEL returns:
 Original cell was already a primitive cell.

 Routine SETGRP: Setting up the symmetry group for a
 hexagonal supercell.

[...]
     33      -5.2666      2.00000
     34      -5.2371      2.00000
     35      -5.2296      2.00000
     36      -5.2031      2.00000
     37      -5.1768      2.00000
     38      -5.1298      2.00000
     39      -5.1043      2.00000
     40      -5.0797      2.00000
     41      -5.0655      2.00000
     42      -5.0354      2.00000
     43      -5.0344      2.00000
     44      -5.0209      2.00000
     45      -5.0112      2.00000
     46      -5.0041      2.00000
     47      -4.9804      2.00000
     48      -4.9129      2.00000
     49      -4.8840      2.00000
     50      -4.8771      2.00000
     51      -4.8721      2.00000
     52      -4.8700      2.00000
     53      -4.8512      2.00000
     54      -4.8423      2.00000
     55      -4.8402      2.00000
     56      -4.8293      2.00000
     57      -4.8245      2.00000
     58      -4.7565      2.00000
     59      -4.7523      2.00000
     60      -4.7403      2.00000
[...]
    238       5.4675      0.00000
    239       5.4791      0.00000
    240       5.5391      0.00000
    241       5.6786      0.00000
    242       5.7293      0.00000
    243       5.7906      0.00000
    244       6.2936      0.00000
    245       6.3157      0.00000
    246       6.4486      0.00000
    247       6.4826      0.00000
    248       6.5068      0.00000
    249       6.5243      0.00000
    250       6.6288      0.00000
    251       6.6493      0.00000
    252       6.7894      0.00000

 soft charge-density along one line, spin component           1
         0         1         2         3         4         5         6         7         8         9
 total charge-density along one line

------------------------ aborting loop because EDIFF is reached ----------------------------------------

 total charge

# of ion       s       p       d       tot
    1        0.419   0.202   9.179   9.800
    2        0.416   0.204   9.177   9.797
    3        0.416   0.204   9.177   9.797
    4        0.416   0.204   9.177   9.797
    5        0.420   0.202   9.174   9.796
    6        0.416   0.204   9.177   9.797
    7        0.416   0.204   9.177   9.797
    8        0.416   0.204   9.177   9.797
    9        0.417   0.201   9.179   9.797
   10        0.408   0.269   9.163   9.840
   11        0.409   0.266   9.168   9.843
   12        0.408   0.269   9.163   9.840
   13        0.409   0.266   9.168   9.843
   14        0.409   0.266   9.168   9.843
   15        0.404   0.270   9.164   9.838
   16        0.408   0.269   9.163   9.840
   17        0.404   0.270   9.164   9.838
   18        0.404   0.270   9.164   9.838
   19        0.402   0.266   9.167   9.834
   20        0.434   0.294   9.143   9.871
   21        0.434   0.294   9.143   9.871
   22        0.395   0.275   9.166   9.836
   23        0.434   0.294   9.143   9.871
   24        0.395   0.275   9.166   9.836
   25        0.402   0.266   9.167   9.834
   26        0.402   0.266   9.167   9.834
   27        0.395   0.275   9.166   9.836
   28        0.412   0.196   9.180   9.788
   29        0.424   0.207   9.168   9.800
   30        0.424   0.207   9.168   9.800
   31        0.424   0.207   9.168   9.800
   32        0.424   0.207   9.168   9.800
   33        0.424   0.207   9.168   9.800
   34        0.424   0.207   9.168   9.800
   35        0.409   0.196   9.181   9.786
   36        0.422   0.482   4.364   5.268
   37        0.962   1.543   0.000   2.505
   38        1.608   3.531   0.000   5.140
tot         17.465  13.939 325.239 356.643

  FORCE on cell =-STRESS in cart. coord.  units (eV):
  Direction    XX          YY          ZZ          XY          YZ          ZX
  Alpha Z   677.78539   677.78539   677.78539
  Ewald  159451.97808159451.97809************     0.00003    -0.00001     0.00004
  Hartree169436.53545169436.53545************     0.00001    -0.00000     0.00001
  E(xc)   -2098.95190 -2098.95197 -2104.75985     0.00006    -0.00000    -0.00001
  Local  ************************339804.02544     0.00053    -0.00005    -0.00018
  n-local  -359.59856  -341.09080  -358.78342    10.30358    -0.51876     0.48773
  augment  3252.25525  3252.25544  3265.78093    -0.00016     0.00001     0.00002
  Kinetic  5006.46265  5011.11518  5016.81364     4.16020     0.76911     0.14938
  Fock        0.00000     0.00000     0.00000     0.00000     0.00000     0.00000
  Total     -10.12565   -10.12565    -0.71111    -0.00000    -0.00000    -0.00000
  in kB      -9.72729    -9.72729    -0.68313    -0.00000    -0.00000    -0.00000

 VOLUME and BASIS-vectors are now :
  energy-cutoff  :      500.00
  volume of cell :     1667.79
      direct lattice vectors                 reciprocal lattice vectors
     8.791366577  0.000000000  0.000000000     0.113747958 -0.065672414  0.000000000
     4.395683289  7.613546790  0.000000000     0.000000000  0.131344829  0.000000000
     0.000000000  0.000000000 24.917147223     0.000000000  0.000000000  0.040133005

  length of vectors
     8.791366577  8.791366577 24.917147223     0.131344829  0.131344829  0.040133005

 FORCES acting on ions
    electron-ion (+dipol)            ewald-force                    non-local-force                 convergence-correction
   0.467E-04 -.278E-04 0.272E+04   -.953E-04 0.593E-04 -.272E+04   0.405E-17 0.327E-17 -.199E+01   -.120E-03 -.176E-03 0.302E+00
   -.984E-01 0.303E+00 0.272E+04   -.243E+00 -.220E+00 -.272E+04   0.122E+00 0.694E-01 -.155E+01   0.215E+00 -.137E+00 0.396E+00
   0.985E-01 0.303E+00 0.272E+04   0.244E+00 -.220E+00 -.272E+04   -.122E+00 0.694E-01 -.155E+01   -.215E+00 -.135E+00 0.397E+00
   0.213E+00 -.237E+00 0.272E+04   -.313E+00 -.101E+00 -.272E+04   0.121E+00 0.709E-01 -.155E+01   -.113E-01 0.255E+00 0.396E+00
   -.514E-05 -.185E-04 0.272E+04   0.981E-04 -.200E-05 -.272E+04   -.168E-18 -.606E-18 -.115E+01   0.616E-02 0.377E-02 0.626E+00
   -.213E+00 -.237E+00 0.272E+04   0.312E+00 -.101E+00 -.272E+04   -.121E+00 0.709E-01 -.155E+01   0.995E-02 0.255E+00 0.397E+00
   0.312E+00 -.663E-01 0.272E+04   -.691E-01 0.321E+00 -.272E+04   -.900E-03 -.140E+00 -.155E+01   -.224E+00 -.118E+00 0.397E+00
   -.312E+00 -.663E-01 0.272E+04   0.690E-01 0.321E+00 -.272E+04   0.900E-03 -.140E+00 -.155E+01   0.226E+00 -.119E+00 0.397E+00
   0.365E-04 -.131E-04 0.272E+04   0.792E-04 -.642E-04 -.272E+04   0.122E-17 -.930E-18 -.185E+01   -.657E-02 -.338E-02 0.273E+00
   0.221E+01 0.128E+01 0.930E+03   -.214E+01 -.123E+01 -.929E+03   -.287E+00 -.166E+00 -.739E+00   0.202E+00 0.117E+00 0.364E+00
   -.284E-04 0.243E+01 0.933E+03   0.412E-04 -.271E+01 -.933E+03   0.120E-11 0.182E+00 -.312E+00   0.638E-02 0.663E-01 0.397E+00
   -.221E+01 0.128E+01 0.930E+03   0.214E+01 -.123E+01 -.929E+03   0.287E+00 -.166E+00 -.739E+00   -.204E+00 0.117E+00 0.363E+00
   0.211E+01 -.122E+01 0.933E+03   -.235E+01 0.135E+01 -.933E+03   0.158E+00 -.910E-01 -.312E+00   0.605E-01 -.276E-01 0.397E+00
   -.211E+01 -.122E+01 0.933E+03   0.235E+01 0.135E+01 -.933E+03   -.158E+00 -.910E-01 -.312E+00   -.504E-01 -.289E-01 0.394E+00
   0.160E-04 0.683E+00 0.930E+03   -.108E-03 -.895E+00 -.930E+03   0.684E-12 0.104E+00 -.739E+00   -.117E-02 0.913E-01 0.344E+00
   -.725E-05 -.255E+01 0.930E+03   0.207E-04 0.247E+01 -.929E+03   0.218E-11 0.332E+00 -.739E+00   -.454E-03 -.235E+00 0.363E+00
   0.591E+00 -.341E+00 0.930E+03   -.775E+00 0.447E+00 -.930E+03   0.902E-01 -.521E-01 -.739E+00   0.784E-01 -.467E-01 0.344E+00
   -.591E+00 -.341E+00 0.930E+03   0.775E+00 0.447E+00 -.930E+03   -.902E-01 -.521E-01 -.739E+00   -.779E-01 -.450E-01 0.346E+00
   0.385E-04 -.151E+01 -.882E+03   -.127E-03 0.114E+01 0.881E+03   0.844E-12 0.129E+00 0.806E+00   0.945E-03 0.236E+00 0.452E+00
   -.677E-01 -.392E-01 -.871E+03   0.940E+00 0.543E+00 0.871E+03   -.122E+01 -.707E+00 -.973E+00   0.284E+00 0.164E+00 0.830E+00
   0.678E-01 -.392E-01 -.871E+03   -.940E+00 0.543E+00 0.871E+03   0.122E+01 -.707E+00 -.973E+00   -.295E+00 0.162E+00 0.829E+00
   -.903E+00 0.521E+00 -.875E+03   0.428E+00 -.247E+00 0.874E+03   0.275E+00 -.159E+00 0.390E+00   0.211E+00 -.114E+00 0.419E+00
   -.552E-04 0.782E-01 -.871E+03   0.406E-04 -.109E+01 0.871E+03   0.928E-11 0.141E+01 -.973E+00   -.689E-02 -.336E+00 0.829E+00
   0.903E+00 0.521E+00 -.875E+03   -.428E+00 -.247E+00 0.874E+03   -.275E+00 -.159E+00 0.390E+00   -.198E+00 -.114E+00 0.419E+00
   0.131E+01 0.754E+00 -.882E+03   -.992E+00 -.572E+00 0.881E+03   -.111E+00 -.643E-01 0.806E+00   -.206E+00 -.119E+00 0.452E+00
   -.131E+01 0.754E+00 -.882E+03   0.992E+00 -.572E+00 0.881E+03   0.111E+00 -.643E-01 0.806E+00   0.204E+00 -.117E+00 0.452E+00
   0.191E-04 -.104E+01 -.875E+03   0.110E-03 0.494E+00 0.874E+03   0.209E-11 0.317E+00 0.390E+00   0.576E-02 0.240E+00 0.419E+00
   0.538E-04 -.366E-04 -.264E+04   -.115E-03 0.776E-04 0.264E+04   -.453E-17 0.252E-19 0.205E+01   0.330E-04 -.116E-03 0.107E+00
   0.167E+02 0.265E+02 -.262E+04   -.164E+02 -.259E+02 0.262E+04   -.761E+00 -.124E+01 0.180E+01   0.470E+00 0.624E+00 0.113E+00
   -.167E+02 0.265E+02 -.262E+04   0.164E+02 -.259E+02 0.262E+04   0.761E+00 -.124E+01 0.180E+01   -.470E+00 0.625E+00 0.113E+00
   0.313E+02 0.117E+01 -.262E+04   -.306E+02 -.123E+01 0.262E+04   -.146E+01 -.364E-01 0.180E+01   0.775E+00 0.950E-01 0.113E+00
   -.313E+02 0.117E+01 -.262E+04   0.306E+02 -.123E+01 0.262E+04   0.146E+01 -.364E-01 0.180E+01   -.775E+00 0.956E-01 0.114E+00
   0.146E+02 -.277E+02 -.262E+04   -.143E+02 0.271E+02 0.262E+04   -.698E+00 0.128E+01 0.180E+01   0.306E+00 -.719E+00 0.113E+00
   -.146E+02 -.277E+02 -.262E+04   0.143E+02 0.271E+02 0.262E+04   0.698E+00 0.128E+01 0.180E+01   -.305E+00 -.719E+00 0.114E+00
   0.229E-04 -.124E-04 -.265E+04   0.106E-03 -.659E-04 0.264E+04   -.806E-17 -.369E-17 0.213E+01   -.605E-02 -.306E-02 0.116E+00
   -.191E-04 -.429E-05 -.125E+04   0.576E-04 0.774E-05 0.126E+04   0.109E-17 -.660E-18 -.253E+01   0.131E-02 0.808E-03 0.189E+00
   0.132E-05 -.774E-04 -.941E+03   0.183E-04 0.250E-06 0.924E+03   0.101E-17 -.974E-20 0.167E+02   0.108E-02 0.666E-03 -.485E+00
   0.233E-03 -.937E-04 -.171E+04   0.959E-05 0.183E-07 0.177E+04   -.890E-18 -.130E-17 -.570E+02   0.366E-02 0.225E-02 -.309E+00
   0.589E-03 -.856E-03 0.345E+02   0.538E-13 0.198E-12 -.227E-12   0.104E-15 -.566E-17 -.469E+02   0.129E-01 0.108E-01 0.123E+02

 POSITION                                       TOTAL-FORCE (eV/Angst)
      0.00000      0.00000      5.28219         0.000000     -0.000000     -0.039409
      2.93046      0.00000      5.28219        -0.004737      0.015964      0.016796
      5.86091      0.00000      5.28219         0.004737      0.015964      0.016796
      1.46523      2.53785      5.28219         0.011457     -0.012084      0.016796
      4.39568      2.53785      5.28219        -0.000000     -0.000000     -0.037800
      7.32614      2.53785      5.28219        -0.011457     -0.012084      0.016796
      2.93046      5.07570      5.28219         0.016194     -0.003880      0.016796
      5.86091      5.07570      5.28219        -0.016194     -0.003880      0.016796
      8.79137      5.07570      5.28219         0.000000      0.000000      0.005660
      1.46523      0.84595      7.67490        -0.009643     -0.005567     -0.023951
      4.39568      0.84595      7.67490        -0.000000     -0.031014     -0.049064
      7.32614      0.84595      7.67490         0.009643     -0.005567     -0.023951
      2.93046      3.38380      7.67490        -0.026858      0.015507     -0.049064
      5.86091      3.38380      7.67490         0.026858      0.015507     -0.049064
      8.79137      3.38380      7.67490        -0.000000     -0.016842     -0.007458
      4.39568      5.92165      7.67490         0.000000      0.011134     -0.023951
      7.32614      5.92165      7.67490        -0.014586      0.008421     -0.007458
     10.25659      5.92165      7.67490         0.014586      0.008421     -0.007458
      8.79137      1.69374     10.05841         0.000000      0.001636      0.045109
      2.93927      1.69699     10.03909        -0.062929     -0.036332     -0.082514
      5.85210      1.69699     10.03909         0.062929     -0.036332     -0.082514
     10.25385      4.23133     10.05420         0.004600     -0.002656      0.020405
      4.39568      4.21957     10.03909         0.000000      0.072664     -0.082514
      7.32888      4.23133     10.05420        -0.004600     -0.002656      0.020405
     11.72023      6.76668     10.05841        -0.001416     -0.000818      0.045109
      5.86251      6.76668     10.05841         0.001416     -0.000818      0.045109
      8.79137      6.76443     10.05420         0.000000      0.005312      0.020405
      0.00000      0.00000     12.42643         0.000000     -0.000000     -0.010832
      2.96234      0.05459     12.44639        -0.010533     -0.013522     -0.004362
      5.82903      0.05459     12.44639         0.010533     -0.013522     -0.004362
      1.52844      2.53816     12.44639        -0.016977     -0.002361     -0.004362
      7.26292      2.53816     12.44639         0.016977     -0.002361     -0.004362
      2.96179      5.02079     12.44639        -0.006444      0.015883     -0.004362
      5.82958      5.02079     12.44639         0.006444      0.015883     -0.004362
      8.79137      5.07570     12.42906         0.000000      0.000000     -0.017337
      4.39568      2.53785     12.18689         0.000000     -0.000000      0.354793
      4.39568      2.53785     14.02499         0.000000     -0.000000     -0.008183
      4.39568      2.53785     15.20398         0.000000      0.000000     -0.029078
    total drift:                                0.013506      0.009985     -0.055579

  FREE ENERGIE OF THE ION-ELECTRON SYSTEM (eV)
  free  energy   TOTEN  =      -112.06932583 eV

  energy  without entropy=     -112.06932583  energy(sigma->0) =     -112.06932583

 stress matrix after NEB project (eV)
    -10.12565     -0.00000     -0.00000
     -0.00000    -10.12565     -0.00000
     -0.00000     -0.00000     -0.71111
  FORCES: max atom, RMS     0.029078    0.004900
  FORCE total and by dimension    0.030207    0.029078
  Stress total and by dimension   14.337482   10.125653
|           W    W    AA    RRRRR   N    N  II  N    N   GGGG   !!!           |
|           W    W   A  A   R    R  NN   N  II  NN   N  G    G  !!!           |
|           W    W  A    A  R    R  N N  N  II  N N  N  G       !!!           |
|           W WW W  AAAAAA  RRRRR   N  N N  II  N  N N  G  GGG   !            |
|           WW  WW  A    A  R   R   N   NN  II  N   NN  G    G                |
|           W    W  A    A  R    R  N    N  II  N    N   GGGG   !!!           |
|     Tetrahedron method does not include variations of the Fermi             |
|     occupations, so forces and stress will be inaccurate. We suggest        |
|     using a different smearing scheme ISMEAR = 1 or 2 for metals in         |
|     relaxations.                                                            |

 total charge

# of ion       s       p       d       tot
    1        0.419   0.202   9.179   9.800
    2        0.416   0.204   9.177   9.797
    3        0.416   0.204   9.177   9.797
    4        0.416   0.204   9.177   9.797
    5        0.420   0.202   9.174   9.796
    6        0.416   0.204   9.177   9.797
    7        0.416   0.204   9.177   9.797
    8        0.416   0.204   9.177   9.797
    9        0.417   0.201   9.179   9.797
   10        0.408   0.269   9.163   9.840
   11        0.409   0.266   9.168   9.843
   12        0.408   0.269   9.163   9.840
   13        0.409   0.266   9.168   9.843
   14        0.409   0.266   9.168   9.843
   15        0.404   0.270   9.164   9.838
   16        0.408   0.269   9.163   9.840
   17        0.404   0.270   9.164   9.838
   18        0.404   0.270   9.164   9.838
   19        0.402   0.266   9.167   9.834
   20        0.434   0.294   9.143   9.871
   21        0.434   0.294   9.143   9.871
   22        0.395   0.275   9.166   9.836
   23        0.434   0.294   9.143   9.871
   24        0.395   0.275   9.166   9.836
   25        0.402   0.266   9.167   9.834
   26        0.402   0.266   9.167   9.834
   27        0.395   0.275   9.166   9.836
   28        0.412   0.196   9.180   9.788
   29        0.424   0.207   9.168   9.800
   30        0.424   0.207   9.168   9.800
   31        0.424   0.207   9.168   9.800
   32        0.424   0.207   9.168   9.800
   33        0.424   0.207   9.168   9.800
   34        0.424   0.207   9.168   9.800
   35        0.409   0.196   9.181   9.786
   36        0.422   0.482   4.364   5.268
   37        0.962   1.543   0.000   2.505
   38        1.608   3.531   0.000   5.140
tot         17.465  13.939 325.239 356.643

 BZINTS: Fermi energy:    0.113835;  401.000000 electrons
         Band energy:-0.163033E+04;  BLOECHL correction:   -0.018220