 vasp.6.2.0 18Jan21 (build Jun 12 2021 23:27:24) complex

 executed on             LinuxIFC date 2022.05.27  05:04:32

 INCAR:
   ISMEAR = -5
   SIGMA = 0.1
   ISPIN = 1
   EDIFF = 1.d-5
   EDIFFG = -0.01
   NSW = 0
   NELM = 150
   ENCUT = 500
   ISIF = 2
   IBRION = 2
   LREAL = Auto
   ALGO = Fast
   ICHARG = 11
   LORBIT = 10
   LCHARG = .F.
   LWAVE = .F.

 POTCAR:    PAW_PBE Au 04Oct2007
 POTCAR:    PAW_PBE Co 02Aug2007
 POTCAR:    PAW_PBE O 08Apr2002
 POTCAR:    PAW_PBE H 15Jun2001
|           W    W    AA    RRRRR   N    N  II  N    N   GGGG   !!!           |
|           W    W   A  A   R    R  NN   N  II  NN   N  G    G  !!!           |
|           W    W  A    A  R    R  N N  N  II  N N  N  G       !!!           |
|           W WW W  AAAAAA  RRRRR   N  N N  II  N  N N  G  GGG   !            |
|           WW  WW  A    A  R   R   N   NN  II  N   NN  G    G                |
|           W    W  A    A  R    R  N    N  II  N    N   GGGG   !!!           |
|     For optimal performance we recommend to set                             |
|       NCORE = 2 up to number-of-cores-per-socket                            |
|     This setting can greatly improve the performance of VASP for DFT.       |
|     The default, NCORE=1 might be grossly inefficient on modern             |
|     multi-core architectures or massively parallel machines. Do your        |
|     Unfortunately you need to use the default for GW and RPA                |
|     calculations (for HF NCORE is supported but not extensively tested      |
|     yet).                                                                   |

 POTCAR:    PAW_PBE Au 04Oct2007
   VRHFIN =Au: s1d10

   TITEL  = PAW_PBE Au 04Oct2007
   POMASS =  196.966; ZVAL   =   11.000    mass and valenz
   ENMAX  =  229.943; ENMIN  =  172.457 eV

 POTCAR:    PAW_PBE Co 02Aug2007
   VRHFIN =Co: d8 s1

   TITEL  = PAW_PBE Co 02Aug2007
   POMASS =   58.933; ZVAL   =    9.000    mass and valenz
   ENMAX  =  267.968; ENMIN  =  200.976 eV

 POTCAR:    PAW_PBE O 08Apr2002
   VRHFIN =O: s2p4

   TITEL  = PAW_PBE O 08Apr2002
   POMASS =   16.000; ZVAL   =    6.000    mass and valenz
   ENMAX  =  400.000; ENMIN  =  300.000 eV

 POTCAR:    PAW_PBE H 15Jun2001
   VRHFIN =H: ultrasoft test

   TITEL  = PAW_PBE H 15Jun2001
   POMASS =    1.000; ZVAL   =    1.000    mass and valenz
   ENMAX  =  250.000; ENMIN  =  200.000 eV

 Optimization of the real space projectors (new method)

 maximal supplied QI-value         = 15.12
 optimisation between [QCUT,QGAM] = [ 11.34, 22.83] = [ 36.00,145.93] Ry
 Optimized for a Real-space Cutoff    1.39 Angstroem

   l    n(q)    QCUT    max X(q) W(low)/X(q) W(high)/X(q)  e(spline)
   2      9    11.338    60.898    0.39E-03    0.42E-03    0.21E-06
   2      9    11.338    58.894    0.40E-03    0.42E-03    0.22E-06
   0      9    11.338   109.617    0.13E-03    0.20E-04    0.13E-06
   0      9    11.338    75.026    0.13E-03    0.20E-04    0.13E-06
   1      9    11.338    16.344    0.33E-04    0.24E-03    0.18E-06
   1      9    11.338    10.160    0.26E-04    0.19E-03    0.15E-06
 Optimization of the real space projectors (new method)

[...]

   l    n(q)    QCUT    max X(q) W(low)/X(q) W(high)/X(q)  e(spline)
   0      7    11.387    20.381    0.39E-03    0.13E-02    0.15E-06
   0      7    11.387    15.268    0.42E-03    0.14E-02    0.17E-06
   1      6    11.387     5.964    0.41E-03    0.11E-02    0.17E-06
   1      6    11.387     5.382    0.39E-03    0.87E-03    0.15E-06
 Optimization of the real space projectors (new method)

 maximal supplied QI-value         = 34.20
 optimisation between [QCUT,QGAM] = [ 11.29, 22.57] = [ 35.68,142.71] Ry
 Optimized for a Real-space Cutoff    1.16 Angstroem

   l    n(q)    QCUT    max X(q) W(low)/X(q) W(high)/X(q)  e(spline)
   0      8    11.287    19.460    0.40E-03    0.73E-03    0.16E-06
   0      8    11.287    12.209    0.38E-03    0.70E-03    0.15E-06
   1      7    11.287     4.655    0.22E-03    0.25E-04    0.22E-06
  PAW_PBE Au 04Oct2007                  :
  PAW_PBE Co 02Aug2007                  :
  PAW_PBE O 08Apr2002                   :
  PAW_PBE H 15Jun2001                   :

 POSCAR: Au-Co-OH
  positions in direct lattice
  velocities in cartesian coordinates
 exchange correlation table for  LEXCH =        8
   RHO(1)=    0.500       N(1)  =     2000
   RHO(2)=  100.500       N(2)  =     4000

 VTST: version 3.2, (02/03/18)

 CHAIN: initializing optimizer

 OPT: Using VASP Conjugate-Gradient optimizer
 CHAIN: Read ICHAIN            0

 POSCAR: Au-Co-OH
  positions in direct lattice
  velocities in cartesian coordinates

 ion  position               nearest neighbor table
   1  0.000  0.000  0.238-  16 2.94  12 2.94   6 2.94   8 2.94   7 2.94   3 2.94  10 2.94   4 2.94
                             2 2.94
   2  0.333  0.000  0.238-   9 2.94  11 2.94  17 2.94  10 2.94   8 2.94   4 2.94   5 2.94   1 2.94
                             3 2.94
   3  0.667  0.000  0.238-   7 2.94  18 2.94  12 2.94   1 2.94  11 2.94   5 2.94   6 2.94   9 2.94
                             2 2.94
   4  0.000  0.333  0.238-  10 2.94   6 2.94   5 2.94  13 2.94   2 2.94  15 2.94   9 2.94   1 2.94
                             7 2.94
   5  0.333  0.333  0.238-  13 2.94   7 2.94  11 2.94   4 2.94   2 2.94  14 2.94   3 2.94   8 2.94
                             6 2.94
   6  0.667  0.333  0.238-  15 2.94  14 2.94   1 2.94  12 2.94   4 2.94   9 2.94   8 2.94   3 2.94
                             5 2.94
   7  0.000  0.667  0.238-  18 2.94   3 2.94  16 2.94   5 2.94   1 2.94  13 2.94   8 2.94   4 2.94
                             9 2.94
   8  0.333  0.667  0.238-   9 2.94  17 2.94   1 2.94   2 2.94  14 2.94  16 2.94   6 2.94   7 2.94
                             5 2.94
   9  0.667  0.667  0.238-   2 2.94   8 2.94  17 2.94   6 2.94  15 2.94   4 2.94   3 2.94  18 2.94
                             7 2.94
  10  0.111  0.111  0.346-  20 2.92  26 2.93  19 2.93  11 2.94  17 2.94   2 2.94   4 2.94   1 2.94
                            12 2.94  16 2.94  13 2.94  15 2.94
  11  0.444  0.111  0.346-  20 2.91  21 2.91  27 2.93  13 2.94   2 2.94  10 2.94  17 2.94   5 2.94
                             3 2.94  18 2.94  14 2.94  12 2.94
  12  0.778  0.111  0.346-  21 2.92  25 2.93  19 2.93  16 2.94  18 2.94   1 2.94  14 2.94  15 2.94
                             3 2.94   6 2.94  10 2.94  11 2.94
  13  0.111  0.444  0.346-  23 2.91  20 2.91  22 2.93   5 2.94  18 2.94  11 2.94   7 2.94   4 2.94
                            16 2.94  10 2.94  14 2.94  15 2.94
  14  0.444  0.444  0.346-  21 2.91  23 2.91  24 2.93  15 2.94   6 2.94  12 2.94   8 2.94  17 2.94
                             5 2.94  16 2.94  13 2.94  11 2.94
  15  0.778  0.444  0.346-  24 2.92  22 2.92  19 2.93  14 2.94   6 2.94  17 2.94  12 2.94   9 2.94
                             4 2.94  10 2.94  13 2.94  18 2.94
  16  0.111  0.778  0.346-  23 2.92  25 2.93  26 2.93  18 2.94  12 2.94   7 2.94   1 2.94   8 2.94
                            13 2.94  10 2.94  14 2.94  17 2.94
  17  0.444  0.778  0.346-  27 2.92  24 2.92  26 2.93   9 2.94  15 2.94   2 2.94  10 2.94  11 2.94
                             8 2.94  14 2.94  16 2.94  18 2.94
  18  0.778  0.778  0.346-  22 2.92  27 2.92  25 2.93  16 2.94   7 2.94  13 2.94  12 2.94   3 2.94
                            11 2.94   9 2.94  15 2.94  17 2.94
  19  0.889  0.222  0.454-  10 2.93  12 2.93  15 2.93  26 2.94  25 2.94  24 2.94  22 2.94  28 2.94
                            21 2.95  20 2.95  32 2.96  31 2.96
  20  0.223  0.223  0.453-  36 2.69  29 2.91  31 2.91  11 2.91  13 2.91  23 2.91  21 2.91  10 2.92
                            27 2.95  22 2.95  26 2.95  19 2.95
  21  0.554  0.223  0.453-  36 2.69  30 2.91  32 2.91  14 2.91  11 2.91  20 2.91  23 2.91  12 2.92
                            27 2.95  24 2.95  25 2.95  19 2.95
  22  0.887  0.557  0.453-  24 2.91  27 2.91  18 2.92  15 2.92  13 2.93  25 2.94  19 2.94  33 2.94
                            31 2.94  23 2.95  20 2.95  35 2.96
  23  0.223  0.554  0.453-  36 2.69  33 2.91  34 2.91  13 2.91  14 2.91  20 2.91  21 2.91  16 2.92
                            22 2.95  24 2.95  25 2.95  26 2.95
  24  0.557  0.557  0.453-  27 2.91  22 2.91  15 2.92  17 2.92  14 2.93  26 2.94  19 2.94  32 2.94
                            34 2.94  21 2.95  23 2.95  35 2.96
  25  0.889  0.889  0.454-  16 2.93  12 2.93  18 2.93  19 2.94  26 2.94  22 2.94  27 2.94  28 2.94
                            23 2.95  21 2.95  33 2.96  30 2.96
  26  0.222  0.889  0.454-  10 2.93  16 2.93  17 2.93  19 2.94  25 2.94  27 2.94  24 2.94  28 2.94
                            20 2.95  23 2.95  29 2.96  34 2.96
  27  0.557  0.887  0.453-  24 2.91  22 2.91  17 2.92  18 2.92  11 2.93  26 2.94  25 2.94  29 2.94
                            30 2.94  20 2.95  21 2.95  35 2.96
  28  0.000  0.000  0.562-  25 2.94  19 2.94  26 2.94  34 2.98  32 2.98  33 2.98  30 2.98  31 2.98
                            29 2.98
  29  0.334  0.008  0.561-  30 2.86  31 2.87  36 2.88  20 2.91  27 2.94  26 2.96  35 2.98  28 2.98
                            34 3.09
  30  0.658  0.008  0.561-  29 2.86  32 2.87  36 2.88  21 2.91  27 2.94  25 2.96  35 2.98  28 2.98
                            33 3.09
  31  0.008  0.334  0.561-  33 2.86  29 2.87  36 2.88  20 2.91  22 2.94  19 2.96  35 2.98  28 2.98
                            32 3.09
  32  0.658  0.334  0.561-  34 2.86  30 2.87  36 2.88  21 2.91  24 2.94  19 2.96  35 2.98  28 2.98
                            31 3.09
  33  0.008  0.658  0.561-  31 2.86  34 2.87  36 2.88  23 2.91  22 2.94  25 2.96  35 2.98  28 2.98
                            30 3.09
  34  0.334  0.658  0.561-  32 2.86  33 2.87  36 2.88  23 2.91  24 2.94  26 2.96  35 2.98  28 2.98
                            29 3.09
  35  0.667  0.667  0.563-  24 2.96  27 2.96  22 2.96  29 2.98  34 2.98  32 2.98  31 2.98  30 2.98
                            33 2.98
  36  0.333  0.333  0.547-  37 1.77  20 2.69  23 2.69  21 2.69  33 2.88  31 2.88  29 2.88  30 2.88
                            34 2.88  32 2.88
  37  0.333  0.333  0.627-  38 0.97  36 1.77
  38  0.333  0.333  0.671-  37 0.97

  LATTYP: Found a hexagonal cell.
 ALAT       =     8.8135128021
 C/A-ratio  =     2.5184286595

  Lattice vectors:

 A1 = (  -4.4067569092,  -7.6327256898,   0.0000000000)
 A2 = (   8.8135128021,   0.0000000000,   0.0000000000)
 A3 = (   0.0000000000,   0.0000000000,  22.1962032318)

Analysis of symmetry for initial positions (statically):
 Subroutine PRICEL returns:
 Original cell was already a primitive cell.

 Routine SETGRP: Setting up the symmetry group for a
 hexagonal supercell.

 Subroutine GETGRP returns: Found  6 space group operations
 (whereof  6 operations were pure point group operations)
 out of a pool of 24 trial point group operations.

The static configuration has the point symmetry C_3v.

Analysis of symmetry for dynamics (positions and initial velocities):
 Subroutine PRICEL returns:
 Original cell was already a primitive cell.

[...]

The dynamic configuration has the point symmetry C_3v.

Analysis of constrained symmetry for selective dynamics:
 Subroutine PRICEL returns:
 Original cell was already a primitive cell.

[...]
     33      -4.5930      2.00000
     34      -4.5871      2.00000
     35      -4.5675      2.00000
     36      -4.4791      2.00000
     37      -4.3991      2.00000
     38      -4.3875      2.00000
     39      -4.3855      2.00000
     40      -4.3716      2.00000
     41      -4.3187      2.00000
     42      -4.2403      2.00000
     43      -4.2115      2.00000
     44      -4.1577      2.00000
     45      -4.1311      2.00000
     46      -4.1249      2.00000
     47      -4.1188      2.00000
     48      -4.0111      2.00000
     49      -4.0020      2.00000
     50      -3.9648      2.00000
     51      -3.9500      2.00000
     52      -3.9452      2.00000
     53      -3.9369      2.00000
     54      -3.9174      2.00000
     55      -3.8848      2.00000
     56      -3.8467      2.00000
     57      -3.8198      2.00000
     58      -3.7999      2.00000
     59      -3.7877      2.00000
     60      -3.7719      2.00000
[...]
    238       6.4836      0.00000
    239       6.5941      0.00000
    240       6.6170      0.00000
    241       6.6443      0.00000
    242       6.7001      0.00000
    243       6.9442      0.00000
    244       6.9852      0.00000
    245       7.0077      0.00000
    246       7.1144      0.00000
    247       7.3188      0.00000
    248       7.3315      0.00000
    249       7.4056      0.00000
    250       7.5860      0.00000
    251       7.6598      0.00000
    252       7.6791      0.00000

 soft charge-density along one line, spin component           1
         0         1         2         3         4         5         6         7         8         9
 total charge-density along one line

------------------------ aborting loop because EDIFF is reached ----------------------------------------

 total charge

# of ion       s       p       d       tot
    1        0.544   0.239   8.769   9.552
    2        0.545   0.241   8.764   9.550
    3        0.545   0.241   8.764   9.550
    4        0.545   0.241   8.764   9.550
    5        0.542   0.242   8.763   9.547
    6        0.545   0.241   8.764   9.550
    7        0.545   0.241   8.764   9.550
    8        0.545   0.241   8.764   9.550
    9        0.540   0.241   8.766   9.547
   10        0.521   0.309   8.771   9.601
   11        0.521   0.309   8.776   9.606
   12        0.521   0.309   8.771   9.601
   13        0.521   0.309   8.776   9.606
   14        0.521   0.309   8.776   9.606
   15        0.516   0.309   8.777   9.602
   16        0.521   0.309   8.771   9.601
   17        0.516   0.309   8.777   9.602
   18        0.516   0.309   8.777   9.602
   19        0.515   0.303   8.773   9.592
   20        0.541   0.330   8.755   9.626
   21        0.541   0.330   8.755   9.626
   22        0.512   0.310   8.776   9.598
   23        0.541   0.330   8.755   9.626
   24        0.512   0.310   8.776   9.598
   25        0.515   0.303   8.773   9.592
   26        0.515   0.303   8.773   9.592
   27        0.512   0.310   8.776   9.598
   28        0.541   0.226   8.768   9.535
   29        0.539   0.231   8.772   9.542
   30        0.539   0.231   8.772   9.542
   31        0.539   0.231   8.772   9.542
   32        0.539   0.231   8.772   9.542
   33        0.539   0.231   8.772   9.542
   34        0.539   0.231   8.772   9.542
   35        0.536   0.226   8.765   9.527
   36        0.353   0.399   7.273   8.025
   37        1.549   3.526   0.000   5.075
   38        0.605   0.127   0.000   0.733
tot         21.092  13.670 314.206 348.968

  FORCE on cell =-STRESS in cart. coord.  units (eV):
  Direction    XX          YY          ZZ          XY          YZ          ZX
  Alpha Z  1014.83206  1014.83206  1014.83206
  Ewald  120419.34738120419.34783************    -0.00031    -0.00008    -0.00012
  Hartree129376.89300129376.89302************     0.00001    -0.00003    -0.00002
  E(xc)   -1806.83463 -1806.83462 -1812.56788    -0.00002     0.00000     0.00000
  Local  ************************262033.07960     0.00214     0.00001    -0.00003
  n-local  -117.64656   -68.15082   -70.17534    23.01962    -1.26135     1.44465
  augment  2533.63068  2533.63224  2538.10097    -0.00135     0.00003     0.00006
  Kinetic  5568.56191  5582.43666  5587.90027     6.83200     0.18124     0.48684
  Fock        0.00000     0.00000     0.00000     0.00000     0.00000     0.00000
  Total     -20.91058   -20.91058     1.16575    -0.00000     0.00000    -0.00000
  in kB     -22.43723   -22.43723     1.25086    -0.00000     0.00000    -0.00000

 VOLUME and BASIS-vectors are now :
  energy-cutoff  :      500.00
  volume of cell :     1493.16
      direct lattice vectors                 reciprocal lattice vectors
     8.813512802  0.000000000  0.000000000     0.113462137 -0.065507406  0.000000000
     4.406756909  7.632725690  0.000000000     0.000000000  0.131014796  0.000000000
     0.000000000  0.000000000 22.196203232     0.000000000  0.000000000  0.045052750

  length of vectors
     8.813512802  8.813512802 22.196203232     0.131014796  0.131014796  0.045052750

 FORCES acting on ions
    electron-ion (+dipol)            ewald-force                    non-local-force                 convergence-correction
   -.195E-04 -.162E-04 0.250E+04   0.519E-04 0.434E-04 -.250E+04   -.719E-17 -.483E-17 -.952E+00   -.175E-03 -.113E-03 -.510E+00
   0.601E+00 0.471E+00 0.250E+04   -.691E+00 -.570E+00 -.250E+04   0.202E-01 0.731E-01 -.295E+00   0.666E-01 0.352E-01 -.499E+00
   -.601E+00 0.471E+00 0.250E+04   0.691E+00 -.570E+00 -.250E+04   -.202E-01 0.731E-01 -.295E+00   -.663E-01 0.372E-01 -.498E+00
   0.708E+00 0.284E+00 0.250E+04   -.839E+00 -.313E+00 -.250E+04   0.734E-01 -.190E-01 -.295E+00   0.638E-01 0.400E-01 -.499E+00
   0.946E-05 -.227E-04 0.250E+04   0.951E-04 0.173E-05 -.250E+04   0.822E-18 0.738E-19 -.245E+00   0.427E-02 0.263E-02 -.474E+00
   -.708E+00 0.285E+00 0.250E+04   0.839E+00 -.313E+00 -.250E+04   -.734E-01 -.190E-01 -.295E+00   -.654E-01 0.410E-01 -.498E+00
   0.108E+00 -.756E+00 0.250E+04   -.148E+00 0.883E+00 -.250E+04   0.532E-01 -.540E-01 -.295E+00   -.883E-03 -.760E-01 -.498E+00
   -.108E+00 -.756E+00 0.250E+04   0.148E+00 0.883E+00 -.250E+04   -.532E-01 -.540E-01 -.295E+00   0.278E-02 -.771E-01 -.498E+00
   0.194E-04 -.415E-04 0.250E+04   0.166E-03 -.201E-04 -.250E+04   -.300E-18 0.188E-17 -.557E+00   -.464E-02 -.244E-02 -.462E+00
   0.557E+01 0.322E+01 0.862E+03   -.528E+01 -.305E+01 -.862E+03   -.297E+00 -.171E+00 -.642E+00   0.477E-01 0.277E-01 0.791E-01
   0.151E-04 0.719E+01 0.873E+03   0.147E-03 -.716E+01 -.873E+03   0.725E-09 0.109E-01 -.314E+00   0.365E-02 -.731E-01 0.111E+00
   -.557E+01 0.322E+01 0.862E+03   0.528E+01 -.305E+01 -.862E+03   0.297E+00 -.171E+00 -.642E+00   -.490E-01 0.290E-01 0.781E-01
   0.623E+01 -.360E+01 0.873E+03   -.620E+01 0.358E+01 -.873E+03   0.943E-02 -.544E-02 -.314E+00   -.614E-01 0.400E-01 0.111E+00
   -.623E+01 -.360E+01 0.873E+03   0.620E+01 0.358E+01 -.873E+03   -.943E-02 -.544E-02 -.314E+00   0.690E-01 0.397E-01 0.111E+00
   0.307E-04 0.268E+01 0.864E+03   0.237E-03 -.279E+01 -.864E+03   0.324E-09 0.486E-02 -.513E+00   -.217E-02 0.726E-01 0.364E-01
   -.218E-04 -.643E+01 0.862E+03   0.163E-03 0.609E+01 -.862E+03   0.228E-07 0.342E+00 -.642E+00   0.341E-03 -.569E-01 0.786E-01
   0.232E+01 -.134E+01 0.864E+03   -.241E+01 0.139E+01 -.864E+03   0.421E-02 -.243E-02 -.513E+00   0.621E-01 -.381E-01 0.357E-01
   -.232E+01 -.134E+01 0.864E+03   0.241E+01 0.139E+01 -.864E+03   -.421E-02 -.243E-02 -.513E+00   -.622E-01 -.363E-01 0.354E-01
   -.399E-04 0.294E+01 -.816E+03   0.532E-04 -.323E+01 0.815E+03   0.988E-08 0.148E+00 0.659E+00   0.344E-02 0.134E+00 0.629E+00
   0.392E+02 0.226E+02 -.757E+03   -.385E+02 -.222E+02 0.757E+03   -.880E+00 -.508E+00 -.808E+00   0.180E+00 0.105E+00 0.923E+00
   -.392E+02 0.226E+02 -.757E+03   0.385E+02 -.222E+02 0.757E+03   0.880E+00 -.508E+00 -.808E+00   -.180E+00 0.107E+00 0.923E+00
   0.123E+02 -.709E+01 -.801E+03   -.126E+02 0.729E+01 0.799E+03   0.306E+00 -.176E+00 0.580E+00   0.858E-01 -.554E-01 0.648E+00
   -.121E-04 -.453E+02 -.757E+03   0.144E-03 0.444E+02 0.757E+03   0.677E-07 0.102E+01 -.808E+00   0.168E-02 -.209E+00 0.923E+00
   -.123E+02 -.709E+01 -.801E+03   0.126E+02 0.729E+01 0.799E+03   -.306E+00 -.176E+00 0.580E+00   -.927E-01 -.542E-01 0.648E+00
   -.254E+01 -.147E+01 -.816E+03   0.280E+01 0.161E+01 0.815E+03   -.129E+00 -.742E-01 0.659E+00   -.109E+00 -.634E-01 0.628E+00
   0.254E+01 -.147E+01 -.816E+03   -.280E+01 0.161E+01 0.815E+03   0.129E+00 -.742E-01 0.659E+00   0.110E+00 -.641E-01 0.629E+00
   0.118E-04 0.142E+02 -.801E+03   0.196E-03 -.146E+02 0.799E+03   0.235E-07 0.353E+00 0.580E+00   -.451E-02 0.102E+00 0.648E+00
   -.134E-04 -.145E-04 -.247E+04   0.303E-04 0.354E-04 0.247E+04   0.172E-17 -.675E-18 0.447E+00   0.342E-03 -.229E-04 0.606E+00
   0.433E+02 0.724E+02 -.244E+04   -.433E+02 -.727E+02 0.244E+04   -.254E+00 -.220E+00 0.842E+00   0.100E+00 0.197E+00 0.409E+00
   -.433E+02 0.724E+02 -.244E+04   0.433E+02 -.727E+02 0.244E+04   0.254E+00 -.220E+00 0.842E+00   -.100E+00 0.199E+00 0.410E+00
   0.844E+02 0.133E+01 -.244E+04   -.846E+02 -.118E+01 0.244E+04   -.318E+00 -.109E+00 0.842E+00   0.220E+00 -.115E-01 0.409E+00
   -.844E+02 0.133E+01 -.244E+04   0.846E+02 -.118E+01 0.244E+04   0.318E+00 -.109E+00 0.842E+00   -.222E+00 -.102E-01 0.409E+00
   0.410E+02 -.737E+02 -.244E+04   -.413E+02 0.739E+02 0.244E+04   -.640E-01 0.330E+00 0.842E+00   0.122E+00 -.186E+00 0.410E+00
   -.410E+02 -.737E+02 -.244E+04   0.413E+02 0.739E+02 0.244E+04   0.640E-01 0.330E+00 0.842E+00   -.120E+00 -.187E+00 0.409E+00
   0.346E-04 -.270E-04 -.247E+04   0.142E-03 -.508E-04 0.247E+04   -.143E-17 -.276E-17 0.465E+00   -.474E-02 -.272E-02 0.488E+00
   -.248E-04 -.709E-05 -.169E+04   0.951E-04 0.891E-05 0.169E+04   -.729E-18 0.179E-17 -.109E+01   0.638E-02 0.403E-02 0.127E+00
   0.197E-03 -.932E-04 -.163E+04   0.244E-04 0.161E-05 0.161E+04   -.352E-17 0.341E-17 0.213E+02   0.384E-02 0.238E-02 -.538E+00
   0.759E-05 -.133E-04 -.322E+03   0.136E-05 0.121E-06 0.331E+03   -.582E-19 -.255E-18 -.843E+01   0.210E-03 0.130E-03 0.308E-01
   -.537E-03 -.864E-03 -.166E+02   0.405E-14 -.419E-13 0.108E-10   -.751E-16 0.577E-16 0.111E+02   0.999E-02 0.950E-02 0.601E+01

 POSITION                                       TOTAL-FORCE (eV/Angst)
      0.00000      0.00000      5.28038         0.000000      0.000000     -0.074061
      2.93784      0.00000      5.28038        -0.002739      0.010488     -0.052501
      5.87568      0.00000      5.28038         0.002739      0.010488     -0.052501
      1.46892      2.54424      5.28038         0.007713     -0.007616     -0.052501
      4.40676      2.54424      5.28038         0.000000      0.000000     -0.069234
      7.34459      2.54424      5.28038        -0.007713     -0.007616     -0.052501
      2.93784      5.08848      5.28038         0.010452     -0.002872     -0.052501
      5.87568      5.08848      5.28038        -0.010452     -0.002872     -0.052501
      8.81351      5.08848      5.28038         0.000000      0.000000     -0.080892
      1.46892      0.84808      7.67911         0.044602      0.025751      0.135473
      4.40676      0.84808      7.67911        -0.000000     -0.033812      0.033261
      7.34459      0.84808      7.67911        -0.044602      0.025751      0.135473
      2.93784      3.39232      7.67911        -0.029282      0.016906      0.033261
      5.87568      3.39232      7.67911         0.029282      0.016906      0.033261
      8.81351      3.39232      7.67911        -0.000000     -0.027870      0.092245
      4.40676      5.93656      7.67911        -0.000000     -0.051501      0.135473
      7.34459      5.93656      7.67911        -0.024137      0.013935      0.092245
     10.28243      5.93656      7.67911         0.024137      0.013935      0.092245
      8.81351      1.69524     10.07173        -0.000000     -0.016156     -0.004386
      2.95099      1.70376     10.05075         0.028847      0.016655     -0.063593
      5.86252      1.70376     10.05075        -0.028847      0.016655     -0.063593
     10.26977      4.24772     10.05674         0.036587     -0.021124     -0.016926
      4.40676      4.22522     10.05075        -0.000000     -0.033310     -0.063593
      7.35726      4.24772     10.05674        -0.036587     -0.021124     -0.016926
     11.75215      6.78511     10.07173         0.013992      0.008078     -0.004386
      5.87488      6.78511     10.07173        -0.013992      0.008078     -0.004386
      8.81351      6.77002     10.05674         0.000000      0.042247     -0.016926
      0.00000      0.00000     12.47665         0.000000      0.000000     -0.004925
      2.97645      0.06424     12.45579        -0.140090     -0.297417     -0.120236
      5.83706      0.06424     12.45579         0.140090     -0.297417     -0.120236
      1.54386      2.54556     12.45579        -0.327615      0.027387     -0.120236
      7.26966      2.54556     12.45579         0.327615      0.027387     -0.120236
      2.97417      5.02293     12.45579        -0.187525      0.270030     -0.120236
      5.83935      5.02293     12.45579         0.187525      0.270030     -0.120236
      8.81351      5.08848     12.49078         0.000000      0.000000      0.028683
      4.40676      2.54424     12.15093         0.000000      0.000000      0.684408
      4.40676      2.54424     13.92463         0.000000      0.000000      0.108442
      4.40676      2.54424     14.89007         0.000000      0.000000     -0.084216
    total drift:                                0.009455      0.008636      0.474322

  FREE ENERGIE OF THE ION-ELECTRON SYSTEM (eV)
  free  energy   TOTEN  =      -122.17561788 eV

  energy  without entropy=     -122.17561788  energy(sigma->0) =     -122.17561788

 stress matrix after NEB project (eV)
    -20.91058     -0.00000     -0.00000
     -0.00000    -20.91058      0.00000
     -0.00000      0.00000      1.16575
  FORCES: max atom, RMS     0.108442    0.022273
  FORCE total and by dimension    0.137302    0.108442
  Stress total and by dimension   29.594989   20.910577
|           W    W    AA    RRRRR   N    N  II  N    N   GGGG   !!!           |
|           W    W   A  A   R    R  NN   N  II  NN   N  G    G  !!!           |
|           W    W  A    A  R    R  N N  N  II  N N  N  G       !!!           |
|           W WW W  AAAAAA  RRRRR   N  N N  II  N  N N  G  GGG   !            |
|           WW  WW  A    A  R   R   N   NN  II  N   NN  G    G                |
|           W    W  A    A  R    R  N    N  II  N    N   GGGG   !!!           |
|     Tetrahedron method does not include variations of the Fermi             |
|     occupations, so forces and stress will be inaccurate. We suggest        |
|     using a different smearing scheme ISMEAR = 1 or 2 for metals in         |
|     relaxations.                                                            |

 total charge

# of ion       s       p       d       tot
    1        0.544   0.239   8.769   9.552
    2        0.545   0.241   8.764   9.550
    3        0.545   0.241   8.764   9.550
    4        0.545   0.241   8.764   9.550
    5        0.542   0.242   8.763   9.547
    6        0.545   0.241   8.764   9.550
    7        0.545   0.241   8.764   9.550
    8        0.545   0.241   8.764   9.550
    9        0.540   0.241   8.766   9.547
   10        0.521   0.309   8.771   9.601
   11        0.521   0.309   8.776   9.606
   12        0.521   0.309   8.771   9.601
   13        0.521   0.309   8.776   9.606
   14        0.521   0.309   8.776   9.606
   15        0.516   0.309   8.777   9.602
   16        0.521   0.309   8.771   9.601
   17        0.516   0.309   8.777   9.602
   18        0.516   0.309   8.777   9.602
   19        0.515   0.303   8.773   9.592
   20        0.541   0.330   8.755   9.626
   21        0.541   0.330   8.755   9.626
   22        0.512   0.310   8.776   9.598
   23        0.541   0.330   8.755   9.626
   24        0.512   0.310   8.776   9.598
   25        0.515   0.303   8.773   9.592
   26        0.515   0.303   8.773   9.592
   27        0.512   0.310   8.776   9.598
   28        0.541   0.226   8.768   9.535
   29        0.539   0.231   8.772   9.542
   30        0.539   0.231   8.772   9.542
   31        0.539   0.231   8.772   9.542
   32        0.539   0.231   8.772   9.542
   33        0.539   0.231   8.772   9.542
   34        0.539   0.231   8.772   9.542
   35        0.536   0.226   8.765   9.527
   36        0.353   0.399   7.273   8.025
   37        1.549   3.526   0.000   5.075
   38        0.605   0.127   0.000   0.733
tot         21.092  13.670 314.206 348.968

 BZINTS: Fermi energy:    0.840636;  401.000000 electrons
         Band energy:-0.116882E+04;  BLOECHL correction:   -0.044639