 vasp.6.2.0 18Jan21 (build Jun 12 2021 23:27:24) complex

 executed on             LinuxIFC date 2022.05.30  18:21:47

 INCAR:
   ISMEAR = -5
   SIGMA = 0.1
   ISPIN = 1
   EDIFF = 1.d-5
   EDIFFG = -0.01
   NSW = 0
   NELM = 150
   ENCUT = 500
   ISIF = 2
   IBRION = 2
   LREAL = Auto
   ALGO = Fast
   ICHARG = 11
   LORBIT = 10
   LCHARG = .F.
   LWAVE = .F.

 POTCAR:    PAW_PBE Cu 22Jun2005
 POTCAR:    PAW_PBE Ru 04Feb2005
 POTCAR:    PAW_PBE C 08Apr2002
|           W    W    AA    RRRRR   N    N  II  N    N   GGGG   !!!           |
|           W    W   A  A   R    R  NN   N  II  NN   N  G    G  !!!           |
|           W    W  A    A  R    R  N N  N  II  N N  N  G       !!!           |
|           W WW W  AAAAAA  RRRRR   N  N N  II  N  N N  G  GGG   !            |
|           WW  WW  A    A  R   R   N   NN  II  N   NN  G    G                |
|           W    W  A    A  R    R  N    N  II  N    N   GGGG   !!!           |
|     For optimal performance we recommend to set                             |
|       NCORE = 2 up to number-of-cores-per-socket                            |
|     This setting can greatly improve the performance of VASP for DFT.       |
|     The default, NCORE=1 might be grossly inefficient on modern             |
|     multi-core architectures or massively parallel machines. Do your        |
|     Unfortunately you need to use the default for GW and RPA                |
|     calculations (for HF NCORE is supported but not extensively tested      |
|     yet).                                                                   |

 POTCAR:    PAW_PBE Cu 22Jun2005
   VRHFIN =Cu: d10 p1

   TITEL  = PAW_PBE Cu 22Jun2005
   POMASS =   63.546; ZVAL   =   11.000    mass and valenz
   ENMAX  =  295.446; ENMIN  =  221.585 eV

 POTCAR:    PAW_PBE Ru 04Feb2005
   VRHFIN =Ru: s1 d7

   TITEL  = PAW_PBE Ru 04Feb2005
   POMASS =  101.070; ZVAL   =    8.000    mass and valenz
   ENMAX  =  213.271; ENMIN  =  159.953 eV

 POTCAR:    PAW_PBE C 08Apr2002
   VRHFIN =C: s2p2

   TITEL  = PAW_PBE C 08Apr2002
   POMASS =   12.011; ZVAL   =    4.000    mass and valenz
   ENMAX  =  400.000; ENMIN  =  300.000 eV

 Optimization of the real space projectors (new method)

 maximal supplied QI-value         = 16.25
 optimisation between [QCUT,QGAM] = [ 11.38, 22.75] = [ 36.24,144.96] Ry
 Optimized for a Real-space Cutoff    1.52 Angstroem

   l    n(q)    QCUT    max X(q) W(low)/X(q) W(high)/X(q)  e(spline)
   2      9    11.376     4.610    0.21E-03    0.10E-03    0.26E-06
   2      9    11.376     8.522    0.33E-03    0.16E-03    0.37E-06
   0     10    11.376    51.609    0.62E-04    0.20E-04    0.13E-06
   0     10    11.376    27.747    0.54E-04    0.20E-04    0.13E-06
   1     10    11.376    20.408    0.13E-04    0.99E-04    0.19E-06
   1     10    11.376    13.425    0.12E-04    0.87E-04    0.17E-06
 Optimization of the real space projectors (new method)

[...]

   l    n(q)    QCUT    max X(q) W(low)/X(q) W(high)/X(q)  e(spline)
   2      9    11.327    61.733    0.26E-03    0.14E-03    0.16E-06
   2      9    11.327    59.886    0.26E-03    0.14E-03    0.17E-06
   0     10    11.327    23.358    0.19E-03    0.14E-04    0.46E-06
   0     10    11.327    11.320    0.15E-03    0.11E-04    0.37E-06
   1     10    11.327    14.765    0.49E-04    0.26E-03    0.24E-06
   1     10    11.327     8.283    0.37E-04    0.20E-03    0.18E-06
 Optimization of the real space projectors (new method)

 maximal supplied QI-value         = 25.13
 optimisation between [QCUT,QGAM] = [ 11.31, 22.87] = [ 35.82,146.48] Ry
 Optimized for a Real-space Cutoff    1.00 Angstroem

   l    n(q)    QCUT    max X(q) W(low)/X(q) W(high)/X(q)  e(spline)
   0      7    11.310   115.676    0.43E-03    0.13E-02    0.19E-06
   0      7    11.310    87.132    0.43E-03    0.13E-02    0.18E-06
   1      6    11.310     4.429    0.42E-03    0.74E-03    0.11E-06
   1      6    11.310     2.733    0.34E-03    0.55E-03    0.92E-07
  PAW_PBE Cu 22Jun2005                  :
  PAW_PBE Ru 04Feb2005                  :
  PAW_PBE C 08Apr2002                   :

 POSCAR: Cu-Ru-C
  positions in direct lattice
  velocities in cartesian coordinates
 exchange correlation table for  LEXCH =        8
   RHO(1)=    0.500       N(1)  =     2000
   RHO(2)=  100.500       N(2)  =     4000

 VTST: version 3.2, (02/03/18)

 CHAIN: initializing optimizer

 OPT: Using VASP Conjugate-Gradient optimizer
 CHAIN: Read ICHAIN            0

 POSCAR: Cu-Ru-C
  positions in direct lattice
  velocities in cartesian coordinates

 ion  position               nearest neighbor table
   1  0.000  0.000  0.226-   7 2.57   3 2.57   4 2.57   2 2.57   6 2.57   8 2.57  12 2.57  10 2.57
                            16 2.57
   2  0.333  0.000  0.226-   8 2.57   9 2.57   5 2.57   1 2.57   3 2.57  11 2.57   4 2.57  10 2.57
                            17 2.57
   3  0.667  0.000  0.226-   1 2.57   7 2.57   6 2.57   9 2.57   2 2.57  12 2.57   5 2.57  18 2.57
                            11 2.57
   4  0.000  0.333  0.226-   5 2.57   6 2.57   1 2.57   7 2.57   2 2.57  13 2.57   9 2.57  10 2.57
                            15 2.57
   5  0.333  0.333  0.226-   4 2.57   2 2.57   7 2.57  13 2.57   8 2.57   6 2.57   3 2.57  11 2.57
                            14 2.57
   6  0.667  0.333  0.226-   4 2.57   9 2.57  15 2.57   3 2.57   1 2.57   8 2.57  14 2.57   5 2.57
                            12 2.57
   7  0.000  0.667  0.226-   1 2.57   3 2.57  16 2.57  18 2.57   4 2.57   5 2.57   8 2.57   9 2.57
                            13 2.57
   8  0.333  0.667  0.226-   9 2.57   2 2.57  17 2.57   6 2.57   1 2.57   7 2.57   5 2.57  14 2.57
                            16 2.57
   9  0.667  0.667  0.226-   8 2.57   6 2.57   2 2.57  17 2.57   3 2.57   7 2.57   4 2.57  15 2.57
                            18 2.57
  10  0.111  0.111  0.314-  20 2.55  26 2.56  19 2.56  11 2.57  12 2.57  13 2.57   1 2.57   2 2.57
                             4 2.57  15 2.57  16 2.57  17 2.57
  11  0.444  0.111  0.314-  20 2.55  21 2.55  10 2.57  13 2.57   2 2.57  17 2.57  14 2.57  12 2.57
                             5 2.57   3 2.57  18 2.57  27 2.57
  12  0.778  0.111  0.314-  21 2.55  19 2.56  25 2.56  15 2.57  10 2.57  14 2.57  18 2.57   3 2.57
                             1 2.57  16 2.57  11 2.57   6 2.57
  13  0.111  0.444  0.314-  23 2.55  20 2.55  16 2.57  18 2.57  10 2.57  11 2.57  14 2.57   5 2.57
                             4 2.57   7 2.57  15 2.57  22 2.57
  14  0.444  0.444  0.314-  21 2.55  23 2.55  15 2.57  17 2.57  12 2.57  16 2.57  13 2.57  11 2.57
                             6 2.57   8 2.57   5 2.57  24 2.57
  15  0.778  0.444  0.314-  19 2.56  14 2.57  17 2.57  12 2.57   6 2.57  18 2.57  10 2.57   9 2.57
                            13 2.57   4 2.57  24 2.57  22 2.57
  16  0.111  0.778  0.314-  23 2.55  25 2.56  26 2.56  18 2.57  13 2.57   7 2.57  14 2.57  17 2.57
                            12 2.57  10 2.57   8 2.57   1 2.57
  17  0.444  0.778  0.314-  26 2.56  14 2.57  15 2.57   8 2.57   9 2.57  11 2.57  16 2.57  18 2.57
                            10 2.57   2 2.57  27 2.57  24 2.57
  18  0.778  0.778  0.314-  25 2.56  16 2.57  13 2.57   7 2.57  15 2.57  12 2.57  17 2.57   9 2.57
                             3 2.57  11 2.57  22 2.57  27 2.57
  19  0.889  0.223  0.402-  28 2.55  15 2.56  21 2.56  20 2.56  12 2.56  10 2.56  22 2.56  24 2.56
                            32 2.56  31 2.56  25 2.57  26 2.57
  20  0.222  0.222  0.401-  10 2.55  11 2.55  13 2.55  36 2.55  26 2.56  19 2.56  27 2.57  22 2.57
                            23 2.57  21 2.57  29 2.58  31 2.58
  21  0.556  0.222  0.401-  12 2.55  14 2.55  11 2.55  36 2.55  19 2.56  25 2.56  24 2.57  27 2.57
                            20 2.57  23 2.57  32 2.58  30 2.58
  22  0.888  0.556  0.402-  35 2.55  24 2.56  27 2.56  19 2.56  25 2.56  18 2.57  15 2.57  31 2.57
                            33 2.57  23 2.57  20 2.57  13 2.57
  23  0.222  0.556  0.401-  16 2.55  13 2.55  14 2.55  36 2.55  25 2.56  26 2.56  22 2.57  24 2.57
                            20 2.57  21 2.57  33 2.58  34 2.58
  24  0.556  0.556  0.402-  35 2.55  22 2.56  27 2.56  19 2.56  26 2.56  15 2.57  17 2.57  32 2.57
                            34 2.57  21 2.57  23 2.57  14 2.57
  25  0.889  0.889  0.402-  28 2.55  18 2.56  21 2.56  23 2.56  16 2.56  12 2.56  22 2.56  27 2.56
                            33 2.56  30 2.56  19 2.57  26 2.57
  26  0.223  0.889  0.402-  28 2.55  17 2.56  20 2.56  23 2.56  10 2.56  16 2.56  27 2.56  24 2.56
                            29 2.56  34 2.56  25 2.57  19 2.57
  27  0.556  0.888  0.402-  35 2.55  24 2.56  22 2.56  26 2.56  25 2.56  17 2.57  18 2.57  29 2.57
                            30 2.57  20 2.57  21 2.57  11 2.57
  28  0.000  0.000  0.489-  25 2.55  19 2.55  26 2.55  33 2.56  30 2.56  31 2.56  29 2.56  32 2.56
                            34 2.56
  29  0.333  0.999  0.490-  34 2.55  28 2.56  26 2.56  35 2.56  27 2.57  31 2.57  36 2.57  30 2.58
                            20 2.58
  30  0.668  0.999  0.490-  33 2.55  28 2.56  25 2.56  35 2.56  27 2.57  32 2.57  36 2.57  29 2.58
                            21 2.58
  31  0.999  0.333  0.490-  32 2.55  28 2.56  19 2.56  35 2.56  22 2.57  29 2.57  36 2.57  33 2.58
                            20 2.58
  32  0.668  0.333  0.490-  31 2.55  28 2.56  19 2.56  35 2.56  24 2.57  30 2.57  36 2.57  34 2.58
                            21 2.58
  33  0.999  0.668  0.490-  30 2.55  28 2.56  25 2.56  35 2.56  22 2.57  34 2.57  36 2.57  31 2.58
                            23 2.58
  34  0.333  0.668  0.490-  29 2.55  28 2.56  26 2.56  35 2.56  24 2.57  33 2.57  36 2.57  32 2.58
                            23 2.58
  35  0.667  0.667  0.489-  24 2.55  27 2.55  22 2.55  34 2.56  32 2.56  29 2.56  30 2.56  33 2.56
                            31 2.56
  36  0.333  0.333  0.488-  37 1.70  23 2.55  20 2.55  21 2.55  31 2.57  29 2.57  33 2.57  34 2.57
                            32 2.57  30 2.57
  37  0.333  0.333  0.560-  36 1.70

  LATTYP: Found a hexagonal cell.
 ALAT       =     7.6967864036
 C/A-ratio  =     3.0908716217

  Lattice vectors:

 A1 = (  -3.8483927580,  -6.6656128093,   0.0000000000)
 A2 = (   7.6967864037,   0.0000000000,   0.0000000000)
 A3 = (   0.0000000000,   0.0000000000,  23.7897786731)

Analysis of symmetry for initial positions (statically):
 Subroutine PRICEL returns:
 Original cell was already a primitive cell.

 Routine SETGRP: Setting up the symmetry group for a
 hexagonal supercell.

 Subroutine GETGRP returns: Found  6 space group operations
 (whereof  6 operations were pure point group operations)
 out of a pool of 24 trial point group operations.

The static configuration has the point symmetry C_3v.

Analysis of symmetry for dynamics (positions and initial velocities):
 Subroutine PRICEL returns:
 Original cell was already a primitive cell.

[...]

The dynamic configuration has the point symmetry C_3v.

Analysis of constrained symmetry for selective dynamics:
 Subroutine PRICEL returns:
 Original cell was already a primitive cell.

 Routine SETGRP: Setting up the symmetry group for a
 hexagonal supercell.

 Subroutine GETGRP returns: Found  6 space group operations
[...]
     24      -4.7670      2.00000
     25      -4.6364      2.00000
     26      -4.6072      2.00000
     27      -4.5746      2.00000
     28      -4.5580      2.00000
     29      -4.5341      2.00000
     30      -4.5166      2.00000
     31      -4.5124      2.00000
     32      -4.4999      2.00000
     33      -4.4839      2.00000
     34      -4.4598      2.00000
     35      -4.4578      2.00000
     36      -4.3905      2.00000
     37      -4.3055      2.00000
     38      -4.2587      2.00000
     39      -4.2243      2.00000
     40      -4.2036      2.00000
     41      -4.1834      2.00000
     42      -4.1221      2.00000
     43      -4.1080      2.00000
     44      -4.0867      2.00000
     45      -4.0627      2.00000
     46      -4.0622      2.00000
     47      -3.9295      2.00000
     48      -3.9134      2.00000
     49      -3.9003      2.00000
     50      -3.8492      2.00000
     51      -3.8260      2.00000
     52      -3.8108      2.00000
     53      -3.7912      2.00000
     54      -3.7791      2.00000
     55      -3.7692      2.00000
     56      -3.7407      2.00000
     57      -3.7321      2.00000
     58      -3.7256      2.00000
     59      -3.7180      2.00000
     60      -3.6947      2.00000
[...]
    238       5.7661      0.00000
    239       5.9325      0.00000
    240       6.0239      0.00000
    241       6.0639      0.00000
    242       6.1444      0.00000
    243       6.3320      0.00000
    244       6.3667      0.00000
    245       6.5646      0.00000
    246       6.7357      0.00000
    247       6.8562      0.00000
    248       6.9303      0.00000
    249       7.0876      0.00000
    250       7.3284      0.00000
    251       7.3833      0.00000
    252       7.5593      0.00000

 soft charge-density along one line, spin component           1
         0         1         2         3         4         5         6         7         8         9
 total charge-density along one line

------------------------ aborting loop because EDIFF is reached ----------------------------------------

 total charge

# of ion       s       p       d       tot
    1        0.449   0.285   9.188   9.921
    2        0.448   0.285   9.186   9.919
    3        0.448   0.285   9.186   9.919
    4        0.448   0.285   9.186   9.919
    5        0.448   0.284   9.187   9.920
    6        0.448   0.285   9.186   9.919
    7        0.448   0.285   9.186   9.919
    8        0.448   0.285   9.186   9.919
    9        0.446   0.285   9.187   9.918
   10        0.440   0.371   9.178   9.989
   11        0.440   0.370   9.180   9.990
   12        0.440   0.371   9.178   9.989
   13        0.440   0.370   9.180   9.990
   14        0.440   0.370   9.180   9.990
   15        0.438   0.369   9.177   9.984
   16        0.440   0.371   9.178   9.989
   17        0.438   0.369   9.177   9.984
   18        0.438   0.369   9.177   9.984
   19        0.443   0.367   9.183   9.993
   20        0.454   0.388   9.176  10.018
   21        0.454   0.388   9.176  10.018
   22        0.433   0.375   9.178   9.986
   23        0.454   0.388   9.176  10.018
   24        0.433   0.375   9.178   9.986
   25        0.443   0.367   9.183   9.993
   26        0.443   0.367   9.183   9.993
   27        0.433   0.375   9.178   9.986
   28        0.456   0.287   9.191   9.935
   29        0.448   0.303   9.188   9.940
   30        0.448   0.303   9.188   9.940
   31        0.448   0.303   9.188   9.940
   32        0.448   0.303   9.188   9.940
   33        0.448   0.303   9.188   9.940
   34        0.448   0.303   9.188   9.940
   35        0.450   0.289   9.193   9.933
   36        0.692   0.782   7.052   8.525
   37        1.018   1.215   0.000   2.232
tot         17.284  13.676 328.459 359.419

  FORCE on cell =-STRESS in cart. coord.  units (eV):
  Direction    XX          YY          ZZ          XY          YZ          ZX
  Alpha Z   782.23475   782.23475   782.23475
  Ewald  223253.48296223253.48254************     0.00038     0.00012     0.00017
  Hartree235921.02189235921.02187************     0.00004     0.00006     0.00007
  E(xc)   -2299.08775 -2299.08726 -2304.00254    -0.00043    -0.00004    -0.00006
  Local  ************************472586.20944     0.01858    -0.00056    -0.00091
  n-local  -749.25625  -733.97068  -748.54443     8.31961    -0.00121     0.13182
  augment  3355.00967  3355.03024  3364.52756    -0.01781     0.00031     0.00052
  Kinetic  3283.74418  3286.80030  3290.92604     3.20704     1.69909    -1.46551
  Fock        0.00000     0.00000     0.00000     0.00000     0.00000     0.00000
  Total      -2.79673    -2.79673     0.95418     0.00000     0.00000     0.00000
  in kB      -3.67131    -3.67131     1.25256     0.00000     0.00000     0.00000

 VOLUME and BASIS-vectors are now :
  energy-cutoff  :      500.00
  volume of cell :     1220.51
      direct lattice vectors                 reciprocal lattice vectors
     7.696786404  0.000000000  0.000000000     0.129924354 -0.075011849  0.000000000
     3.848392758  6.665612809  0.000000000     0.000000000  0.150023716  0.000000000
     0.000000000  0.000000000 23.789778673     0.000000000  0.000000000  0.042034859

  length of vectors
     7.696786404  7.696786404 23.789778673     0.150023716  0.150023716  0.042034859

 FORCES acting on ions
    electron-ion (+dipol)            ewald-force                    non-local-force                 convergence-correction
   -.423E-04 -.248E-06 0.372E+04   0.580E-04 -.435E-05 -.372E+04   -.102E-17 -.435E-18 -.218E+01   -.354E-03 -.172E-03 -.393E+00
   -.243E+00 -.414E-02 0.372E+04   0.215E+00 0.353E-01 -.372E+04   -.232E-01 0.128E-01 -.202E+01   0.502E-01 -.446E-01 -.375E+00
   0.243E+00 -.411E-02 0.372E+04   -.215E+00 0.353E-01 -.372E+04   0.232E-01 0.128E-01 -.202E+01   -.493E-01 -.421E-01 -.374E+00
   -.125E+00 -.208E+00 0.372E+04   0.138E+00 0.168E+00 -.372E+04   -.481E-03 -.265E-01 -.202E+01   -.134E-01 0.657E-01 -.375E+00
   -.637E-04 -.454E-05 0.372E+04   0.116E-03 -.101E-04 -.372E+04   0.352E-17 0.222E-17 -.208E+01   0.121E-01 0.743E-02 -.339E+00
   0.125E+00 -.208E+00 0.372E+04   -.138E+00 0.168E+00 -.372E+04   0.481E-03 -.265E-01 -.202E+01   0.118E-01 0.669E-01 -.373E+00
   0.118E+00 0.212E+00 0.372E+04   -.769E-01 -.204E+00 -.372E+04   0.227E-01 0.137E-01 -.202E+01   -.611E-01 -.217E-01 -.373E+00
   -.118E+00 0.212E+00 0.372E+04   0.766E-01 -.204E+00 -.372E+04   -.227E-01 0.137E-01 -.202E+01   0.645E-01 -.232E-01 -.373E+00
   -.145E-03 -.333E-04 0.372E+04   0.263E-03 0.205E-04 -.372E+04   0.355E-17 0.109E-17 -.218E+01   -.131E-01 -.678E-02 -.342E+00
   -.991E-01 -.572E-01 0.125E+04   0.173E+00 0.997E-01 -.125E+04   -.176E+00 -.102E+00 -.695E+00   0.790E-01 0.456E-01 -.349E+00
   -.888E-04 -.247E+00 0.125E+04   0.190E-03 0.273E+00 -.125E+04   -.439E-08 0.659E-01 -.834E+00   0.119E-01 -.104E+00 -.423E+00
   0.992E-01 -.571E-01 0.125E+04   -.173E+00 0.996E-01 -.125E+04   0.176E+00 -.102E+00 -.695E+00   -.809E-01 0.467E-01 -.348E+00
   -.214E+00 0.124E+00 0.125E+04   0.236E+00 -.137E+00 -.125E+04   0.571E-01 -.329E-01 -.834E+00   -.837E-01 0.632E-01 -.423E+00
   0.214E+00 0.124E+00 0.125E+04   -.236E+00 -.137E+00 -.125E+04   -.571E-01 -.329E-01 -.834E+00   0.107E+00 0.616E-01 -.425E+00
   -.140E-03 -.114E+01 0.125E+04   0.298E-03 0.898E+00 -.125E+04   -.431E-08 0.647E-01 -.691E+00   -.346E-02 0.171E+00 -.416E+00
   -.890E-04 0.114E+00 0.125E+04   0.186E-03 -.199E+00 -.125E+04   -.136E-07 0.204E+00 -.695E+00   -.900E-03 -.946E-01 -.349E+00
   -.990E+00 0.572E+00 0.125E+04   0.778E+00 -.449E+00 -.125E+04   0.560E-01 -.323E-01 -.691E+00   0.147E+00 -.884E-01 -.417E+00
   0.990E+00 0.572E+00 0.125E+04   -.778E+00 -.449E+00 -.125E+04   -.560E-01 -.323E-01 -.691E+00   -.145E+00 -.856E-01 -.415E+00
   -.594E-04 -.187E+01 -.123E+04   0.690E-04 0.186E+01 0.123E+04   0.523E-08 -.785E-01 0.866E+00   -.984E-03 0.738E-01 -.720E+00
   -.256E+02 -.148E+02 -.125E+04   0.257E+02 0.148E+02 0.125E+04   -.299E+00 -.173E+00 0.275E+00   -.484E-01 -.281E-01 -.703E+00
   0.256E+02 -.148E+02 -.125E+04   -.257E+02 0.148E+02 0.125E+04   0.299E+00 -.173E+00 0.275E+00   0.499E-01 -.299E-01 -.705E+00
   -.157E+02 0.909E+01 -.124E+04   0.153E+02 -.883E+01 0.124E+04   0.512E+00 -.296E+00 0.103E+01   0.538E-03 0.124E-01 -.831E+00
   -.844E-04 0.295E+02 -.125E+04   0.146E-03 -.297E+02 0.125E+04   -.230E-07 0.345E+00 0.275E+00   -.212E-02 0.570E-01 -.705E+00
   0.157E+02 0.909E+01 -.124E+04   -.153E+02 -.883E+01 0.124E+04   -.512E+00 -.296E+00 0.103E+01   0.213E-01 0.114E-01 -.830E+00
   0.162E+01 0.936E+00 -.123E+04   -.161E+01 -.932E+00 0.123E+04   0.680E-01 0.392E-01 0.866E+00   -.648E-01 -.374E-01 -.720E+00
   -.162E+01 0.936E+00 -.123E+04   0.161E+01 -.932E+00 0.123E+04   -.680E-01 0.392E-01 0.866E+00   0.638E-01 -.376E-01 -.720E+00
   -.121E-03 -.182E+02 -.124E+04   0.242E-03 0.177E+02 0.124E+04   -.394E-07 0.591E+00 0.103E+01   0.110E-01 -.579E-02 -.831E+00
   -.386E-04 0.155E-04 -.367E+04   0.395E-04 -.331E-04 0.367E+04   -.139E-16 -.508E-17 0.216E+01   -.190E-02 -.104E-02 0.354E-01
   -.156E+02 -.248E+02 -.368E+04   0.155E+02 0.244E+02 0.367E+04   -.963E-01 0.127E+00 0.284E+01   0.407E-01 0.901E-01 -.467E-01
   0.156E+02 -.248E+02 -.368E+04   -.155E+02 0.244E+02 0.367E+04   0.963E-01 0.127E+00 0.284E+01   -.181E-01 0.916E-01 -.475E-01
   -.293E+02 -.113E+01 -.368E+04   0.289E+02 0.129E+01 0.367E+04   0.621E-01 -.147E+00 0.284E+01   0.985E-01 -.985E-02 -.467E-01
   0.293E+02 -.113E+01 -.368E+04   -.289E+02 0.129E+01 0.367E+04   -.621E-01 -.147E+00 0.284E+01   -.772E-01 -.921E-02 -.465E-01
   -.137E+02 0.259E+02 -.368E+04   0.133E+02 -.256E+02 0.367E+04   0.158E+00 0.198E-01 0.284E+01   0.703E-01 -.615E-01 -.475E-01
   0.137E+02 0.259E+02 -.368E+04   -.133E+02 -.256E+02 0.367E+04   -.158E+00 0.198E-01 0.284E+01   -.459E-01 -.623E-01 -.464E-01
   -.149E-03 -.267E-04 -.368E+04   0.254E-03 0.357E-05 0.368E+04   -.127E-17 -.300E-18 0.260E+01   -.142E-01 -.737E-02 0.127E+00
   -.486E-04 -.263E-04 -.251E+04   0.100E-03 0.198E-04 0.252E+04   -.319E-17 -.440E-17 -.562E+01   0.634E-03 0.407E-03 -.560E-01
   0.538E-04 -.213E-04 -.162E+04   0.126E-04 0.567E-05 0.163E+04   -.990E-19 0.726E-19 -.101E+02   0.458E-03 0.278E-03 0.476E-01
   -.156E-03 -.302E-05 0.264E+02   -.603E-13 0.583E-13 0.296E-11   0.232E-16 0.110E-15 -.126E+02   0.116E+00 0.637E-01 -.138E+02

 POSITION                                       TOTAL-FORCE (eV/Angst)
      0.00000      0.00000      5.37156         0.000000     -0.000000      0.047478
      2.56560      0.00000      5.37156        -0.000573      0.000510      0.067412
      5.13119      0.00000      5.37156         0.000573      0.000510      0.067412
      1.28280      2.22187      5.37156         0.000155     -0.000752      0.067412
      3.84839      2.22187      5.37156         0.000000     -0.000000      0.046346
      6.41399      2.22187      5.37156        -0.000155     -0.000752      0.067412
      2.56560      4.44374      5.37156         0.000728      0.000242      0.067412
      5.13119      4.44374      5.37156        -0.000728      0.000242      0.067412
      7.69679      4.44374      5.37156         0.000000     -0.000000      0.057062
      1.28280      0.74062      7.46636        -0.021961     -0.012679     -0.057826
      3.84839      0.74062      7.46636         0.000000     -0.018911     -0.071732
      6.41399      0.74062      7.46636         0.021961     -0.012679     -0.057826
      2.56560      2.96249      7.46636        -0.016377      0.009455     -0.071732
      5.13119      2.96249      7.46636         0.016377      0.009455     -0.071732
      7.69679      2.96249      7.46636         0.000000     -0.010641     -0.006015
      3.84839      5.18437      7.46636        -0.000000      0.025358     -0.057826
      6.41399      5.18437      7.46636        -0.009215      0.005320     -0.006015
      8.97958      5.18437      7.46636         0.009215      0.005320     -0.006015
      7.69679      1.48414      9.55535         0.000000     -0.011823      0.037646
      2.56128      1.47875      9.53998        -0.239047     -0.138014     -0.316614
      5.13551      1.47875      9.53998         0.239047     -0.138014     -0.316614
      8.97644      3.70493      9.56275         0.048875     -0.028218      0.032657
      3.84839      3.70811      9.53998        -0.000000      0.276027     -0.316614
      6.41713      3.70493      9.56275        -0.048875     -0.028218      0.032657
     10.25987      5.92354      9.55535         0.010239      0.005911      0.037646
      5.13370      5.92354      9.55535        -0.010239      0.005911      0.037646
      7.69679      5.92136      9.56275        -0.000000      0.056436      0.032657
      0.00000      0.00000     11.63109         0.000000     -0.000000     -0.041375
      6.40750      6.66078     11.65531        -0.127964     -0.220658     -0.104922
      8.98608      6.66078     11.65531         0.127964     -0.220658     -0.104922
      8.97216      2.21866     11.65531        -0.255077     -0.000491     -0.104922
      6.42142      2.21866     11.65531         0.255077     -0.000491     -0.104922
     10.26144      4.45178     11.65531        -0.127114      0.221149     -0.104922
      5.13213      4.45178     11.65531         0.127114      0.221149     -0.104922
      7.69679      4.44374     11.63516         0.000000     -0.000000     -0.030041
      3.84839      2.22187     11.61289         0.000000     -0.000000      1.258610
      3.84839      2.22187     13.31392         0.000000     -0.000000      0.032629
    total drift:                                0.115420      0.063663     -0.011126

  FREE ENERGIE OF THE ION-ELECTRON SYSTEM (eV)
  free  energy   TOTEN  =      -137.45581376 eV

  energy  without entropy=     -137.45581376  energy(sigma->0) =     -137.45581376

 stress matrix after NEB project (eV)
     -2.79673      0.00000      0.00000
      0.00000     -2.79673      0.00000
      0.00000      0.00000      0.95418
  FORCES: max atom, RMS     0.032629    0.005364
  FORCE total and by dimension    0.032629    0.032629
  Stress total and by dimension    4.068641    2.796729
|           W    W    AA    RRRRR   N    N  II  N    N   GGGG   !!!           |
|           W    W   A  A   R    R  NN   N  II  NN   N  G    G  !!!           |
|           W    W  A    A  R    R  N N  N  II  N N  N  G       !!!           |
|           W WW W  AAAAAA  RRRRR   N  N N  II  N  N N  G  GGG   !            |
|           WW  WW  A    A  R   R   N   NN  II  N   NN  G    G                |
|           W    W  A    A  R    R  N    N  II  N    N   GGGG   !!!           |
|     Tetrahedron method does not include variations of the Fermi             |
|     occupations, so forces and stress will be inaccurate. We suggest        |
|     using a different smearing scheme ISMEAR = 1 or 2 for metals in         |
|     relaxations.                                                            |

 total charge

# of ion       s       p       d       tot
    1        0.449   0.285   9.188   9.921
    2        0.448   0.285   9.186   9.919
    3        0.448   0.285   9.186   9.919
    4        0.448   0.285   9.186   9.919
    5        0.448   0.284   9.187   9.920
    6        0.448   0.285   9.186   9.919
    7        0.448   0.285   9.186   9.919
    8        0.448   0.285   9.186   9.919
    9        0.446   0.285   9.187   9.918
   10        0.440   0.371   9.178   9.989
   11        0.440   0.370   9.180   9.990
   12        0.440   0.371   9.178   9.989
   13        0.440   0.370   9.180   9.990
   14        0.440   0.370   9.180   9.990
   15        0.438   0.369   9.177   9.984
   16        0.440   0.371   9.178   9.989
   17        0.438   0.369   9.177   9.984
   18        0.438   0.369   9.177   9.984
   19        0.443   0.367   9.183   9.993
   20        0.454   0.388   9.176  10.018
   21        0.454   0.388   9.176  10.018
   22        0.433   0.375   9.178   9.986
   23        0.454   0.388   9.176  10.018
   24        0.433   0.375   9.178   9.986
   25        0.443   0.367   9.183   9.993
   26        0.443   0.367   9.183   9.993
   27        0.433   0.375   9.178   9.986
   28        0.456   0.287   9.191   9.935
   29        0.448   0.303   9.188   9.940
   30        0.448   0.303   9.188   9.940
   31        0.448   0.303   9.188   9.940
   32        0.448   0.303   9.188   9.940
   33        0.448   0.303   9.188   9.940
   34        0.448   0.303   9.188   9.940
   35        0.450   0.289   9.193   9.933
   36        0.692   0.782   7.052   8.525
   37        1.018   1.215   0.000   2.232
tot         17.284  13.676 328.459 359.419

 BZINTS: Fermi energy:   -0.423763;  397.000000 electrons
         Band energy:-0.128936E+04;  BLOECHL correction:   -0.065045