 vasp.6.2.0 18Jan21 (build Jun 12 2021 23:27:24) complex

 executed on             LinuxIFC date 2022.05.27  05:00:23

 INCAR:
   ISMEAR = -5
   SIGMA = 0.1
   ISPIN = 1
   EDIFF = 1.d-5
   EDIFFG = -0.01
   NSW = 0
   NELM = 150
   ENCUT = 500
   ISIF = 2
   IBRION = 2
   LREAL = Auto
   ALGO = Fast
   ICHARG = 11
   LORBIT = 10
   LCHARG = .F.
   LWAVE = .F.

 POTCAR:    PAW_PBE Au 04Oct2007
 POTCAR:    PAW_PBE Cr 06Sep2000
 POTCAR:    PAW_PBE C 08Apr2002
 POTCAR:    PAW_PBE O 08Apr2002
|           W    W    AA    RRRRR   N    N  II  N    N   GGGG   !!!           |
|           W    W   A  A   R    R  NN   N  II  NN   N  G    G  !!!           |
|           W    W  A    A  R    R  N N  N  II  N N  N  G       !!!           |
|           W WW W  AAAAAA  RRRRR   N  N N  II  N  N N  G  GGG   !            |
|           WW  WW  A    A  R   R   N   NN  II  N   NN  G    G                |
|           W    W  A    A  R    R  N    N  II  N    N   GGGG   !!!           |
|     For optimal performance we recommend to set                             |
|       NCORE = 2 up to number-of-cores-per-socket                            |
|     This setting can greatly improve the performance of VASP for DFT.       |
|     The default, NCORE=1 might be grossly inefficient on modern             |
|     multi-core architectures or massively parallel machines. Do your        |
|     Unfortunately you need to use the default for GW and RPA                |
|     calculations (for HF NCORE is supported but not extensively tested      |
|     yet).                                                                   |

 POTCAR:    PAW_PBE Au 04Oct2007
   VRHFIN =Au: s1d10

   TITEL  = PAW_PBE Au 04Oct2007
   POMASS =  196.966; ZVAL   =   11.000    mass and valenz
   ENMAX  =  229.943; ENMIN  =  172.457 eV

 POTCAR:    PAW_PBE Cr 06Sep2000
   VRHFIN =Cr : d5 s1

   TITEL  = PAW_PBE Cr 06Sep2000
   POMASS =   51.996; ZVAL   =    6.000    mass and valenz
   ENMAX  =  227.080; ENMIN  =  170.310 eV

 POTCAR:    PAW_PBE C 08Apr2002
   VRHFIN =C: s2p2

   TITEL  = PAW_PBE C 08Apr2002
   POMASS =   12.011; ZVAL   =    4.000    mass and valenz
   ENMAX  =  400.000; ENMIN  =  300.000 eV

 POTCAR:    PAW_PBE O 08Apr2002
   VRHFIN =O: s2p4

   TITEL  = PAW_PBE O 08Apr2002
   POMASS =   16.000; ZVAL   =    6.000    mass and valenz
   ENMAX  =  400.000; ENMIN  =  300.000 eV

 Optimization of the real space projectors (new method)

 maximal supplied QI-value         = 15.12
 optimisation between [QCUT,QGAM] = [ 11.34, 22.83] = [ 36.00,145.93] Ry
 Optimized for a Real-space Cutoff    1.39 Angstroem

   l    n(q)    QCUT    max X(q) W(low)/X(q) W(high)/X(q)  e(spline)
   2      9    11.338    60.898    0.39E-03    0.42E-03    0.21E-06
   2      9    11.338    58.894    0.40E-03    0.42E-03    0.22E-06
   0      9    11.338   109.617    0.13E-03    0.20E-04    0.13E-06
   0      9    11.338    75.026    0.13E-03    0.20E-04    0.13E-06
   1      9    11.338    16.344    0.33E-04    0.24E-03    0.18E-06
   1      9    11.338    10.160    0.26E-04    0.19E-03    0.15E-06
 Optimization of the real space projectors (new method)

[...]

   l    n(q)    QCUT    max X(q) W(low)/X(q) W(high)/X(q)  e(spline)
   0      7    11.310   115.676    0.43E-03    0.13E-02    0.19E-06
   0      7    11.310    87.132    0.43E-03    0.13E-02    0.18E-06
   1      6    11.310     4.429    0.42E-03    0.74E-03    0.11E-06
   1      6    11.310     2.733    0.34E-03    0.55E-03    0.92E-07
 Optimization of the real space projectors (new method)

 maximal supplied QI-value         = 24.76
 optimisation between [QCUT,QGAM] = [ 11.39, 22.77] = [ 36.31,145.25] Ry
 Optimized for a Real-space Cutoff    1.00 Angstroem

   l    n(q)    QCUT    max X(q) W(low)/X(q) W(high)/X(q)  e(spline)
   0      7    11.387    20.381    0.39E-03    0.13E-02    0.15E-06
   0      7    11.387    15.268    0.42E-03    0.14E-02    0.17E-06
   1      6    11.387     5.964    0.41E-03    0.11E-02    0.17E-06
   1      6    11.387     5.382    0.39E-03    0.87E-03    0.15E-06
  PAW_PBE Au 04Oct2007                  :
  PAW_PBE Cr 06Sep2000                  :
  PAW_PBE C 08Apr2002                   :
  PAW_PBE O 08Apr2002                   :

 POSCAR: Au-Cr-CO
  positions in direct lattice
  velocities in cartesian coordinates
 exchange correlation table for  LEXCH =        8
   RHO(1)=    0.500       N(1)  =     2000
   RHO(2)=  100.500       N(2)  =     4000

 VTST: version 3.2, (02/03/18)

 CHAIN: initializing optimizer

 OPT: Using VASP Conjugate-Gradient optimizer
 CHAIN: Read ICHAIN            0

 POSCAR: Au-Cr-CO
  positions in direct lattice
  velocities in cartesian coordinates

 ion  position               nearest neighbor table
   1  0.000  0.000  0.238-  16 2.94  12 2.94   6 2.94   8 2.94   7 2.94   3 2.94  10 2.94   4 2.94
                             2 2.94
   2  0.333  0.000  0.238-   9 2.94  11 2.94  17 2.94  10 2.94   8 2.94   4 2.94   5 2.94   1 2.94
                             3 2.94
   3  0.667  0.000  0.238-   7 2.94  18 2.94  12 2.94   1 2.94  11 2.94   5 2.94   6 2.94   9 2.94
                             2 2.94
   4  0.000  0.333  0.238-  10 2.94   6 2.94   5 2.94  13 2.94   2 2.94  15 2.94   9 2.94   1 2.94
                             7 2.94
   5  0.333  0.333  0.238-  13 2.94   7 2.94  11 2.94   4 2.94   2 2.94  14 2.94   3 2.94   8 2.94
                             6 2.94
   6  0.667  0.333  0.238-  15 2.94  14 2.94   1 2.94  12 2.94   4 2.94   9 2.94   8 2.94   3 2.94
                             5 2.94
   7  0.000  0.667  0.238-  18 2.94   3 2.94  16 2.94   5 2.94   1 2.94  13 2.94   8 2.94   4 2.94
                             9 2.94
   8  0.333  0.667  0.238-   9 2.94  17 2.94   1 2.94   2 2.94  14 2.94  16 2.94   6 2.94   7 2.94
                             5 2.94
   9  0.667  0.667  0.238-   2 2.94   8 2.94  17 2.94   6 2.94  15 2.94   4 2.94   3 2.94  18 2.94
                             7 2.94
  10  0.111  0.111  0.346-  20 2.92  26 2.94  19 2.94  11 2.94  17 2.94   2 2.94   4 2.94   1 2.94
                            12 2.94  16 2.94  13 2.94  15 2.94
  11  0.444  0.111  0.346-  20 2.91  21 2.91  27 2.93  13 2.94   2 2.94  10 2.94  17 2.94   5 2.94
                             3 2.94  18 2.94  14 2.94  12 2.94
  12  0.778  0.111  0.346-  21 2.92  25 2.94  19 2.94  16 2.94  18 2.94   1 2.94  14 2.94  15 2.94
                             3 2.94   6 2.94  10 2.94  11 2.94
  13  0.111  0.444  0.346-  23 2.91  20 2.91  22 2.93   5 2.94  18 2.94  11 2.94   7 2.94   4 2.94
                            16 2.94  10 2.94  14 2.94  15 2.94
  14  0.444  0.444  0.346-  21 2.91  23 2.91  24 2.93  15 2.94   6 2.94  12 2.94   8 2.94  17 2.94
                             5 2.94  16 2.94  13 2.94  11 2.94
  15  0.778  0.444  0.346-  24 2.92  22 2.92  19 2.94  14 2.94   6 2.94  17 2.94  12 2.94   9 2.94
                             4 2.94  10 2.94  13 2.94  18 2.94
  16  0.111  0.778  0.346-  23 2.92  25 2.94  26 2.94  18 2.94  12 2.94   7 2.94   1 2.94   8 2.94
                            13 2.94  10 2.94  14 2.94  17 2.94
  17  0.444  0.778  0.346-  27 2.92  24 2.92  26 2.94   9 2.94  15 2.94   2 2.94  10 2.94  11 2.94
                             8 2.94  14 2.94  16 2.94  18 2.94
  18  0.778  0.778  0.346-  22 2.92  27 2.92  25 2.94  16 2.94   7 2.94  13 2.94  12 2.94   3 2.94
                            11 2.94   9 2.94  15 2.94  17 2.94
  19  0.889  0.222  0.454-  10 2.94  12 2.94  15 2.94  26 2.94  25 2.94  24 2.94  22 2.94  28 2.95
                            21 2.95  20 2.95  32 3.00  31 3.00
  20  0.223  0.223  0.453-  36 2.71  11 2.91  13 2.91  23 2.91  21 2.91  29 2.92  31 2.92  10 2.92
                            26 2.95  19 2.95  27 2.96  22 2.96
  21  0.553  0.223  0.453-  36 2.71  14 2.91  11 2.91  20 2.91  23 2.91  30 2.92  32 2.92  12 2.92
                            25 2.95  19 2.95  27 2.96  24 2.96
  22  0.886  0.557  0.453-  24 2.90  27 2.90  18 2.92  15 2.92  13 2.93  25 2.94  19 2.94  23 2.96
                            20 2.96  35 2.96  33 2.96  31 2.96
  23  0.223  0.553  0.453-  36 2.71  13 2.91  14 2.91  20 2.91  21 2.91  33 2.92  34 2.92  16 2.92
                            25 2.95  26 2.95  22 2.96  24 2.96
  24  0.557  0.557  0.453-  27 2.90  22 2.90  15 2.92  17 2.92  14 2.93  26 2.94  19 2.94  21 2.96
                            23 2.96  35 2.96  32 2.96  34 2.96
  25  0.889  0.889  0.454-  16 2.94  12 2.94  18 2.94  19 2.94  26 2.94  22 2.94  27 2.94  28 2.95
                            23 2.95  21 2.95  33 3.00  30 3.00
  26  0.222  0.889  0.454-  10 2.94  16 2.94  17 2.94  19 2.94  25 2.94  27 2.94  24 2.94  28 2.95
                            20 2.95  23 2.95  29 3.00  34 3.00
  27  0.557  0.886  0.453-  24 2.90  22 2.90  17 2.92  18 2.92  11 2.93  26 2.94  25 2.94  20 2.96
                            21 2.96  35 2.96  29 2.96  30 2.96
  28  0.000  0.000  0.563-  25 2.95  19 2.95  26 2.95  34 2.99  32 2.99  33 2.99  30 2.99  31 2.99
                            29 2.99
  29  0.334  0.011  0.562-  30 2.84  31 2.84  36 2.86  20 2.92  27 2.96  35 2.99  28 2.99  26 3.00
                            34 3.13
  30  0.655  0.011  0.562-  29 2.84  32 2.84  36 2.86  21 2.92  27 2.96  35 2.99  28 2.99  25 3.00
                            33 3.13
  31  0.011  0.334  0.562-  33 2.84  29 2.84  36 2.86  20 2.92  22 2.96  35 2.99  28 2.99  19 3.00
                            32 3.13
  32  0.655  0.334  0.562-  34 2.84  30 2.84  36 2.86  21 2.92  24 2.96  35 2.99  28 2.99  19 3.00
                            31 3.13
  33  0.011  0.655  0.562-  31 2.84  34 2.84  36 2.86  23 2.92  22 2.96  35 2.99  28 2.99  25 3.00
                            30 3.13
  34  0.334  0.655  0.562-  32 2.84  33 2.84  36 2.86  23 2.92  24 2.96  35 2.99  28 2.99  26 3.00
                            29 3.13
  35  0.667  0.667  0.563-  24 2.96  27 2.96  22 2.96  29 2.99  34 2.99  32 2.99  31 2.99  30 2.99
                            33 2.99
  36  0.333  0.333  0.549-  37 1.86  20 2.71  23 2.71  21 2.71  33 2.86  31 2.86  29 2.86  30 2.86
                            34 2.86  32 2.86
  37  0.333  0.333  0.632-  38 1.17  36 1.86
  38  0.333  0.333  0.685-  37 1.17

  LATTYP: Found a hexagonal cell.
 ALAT       =     8.8135128021
 C/A-ratio  =     2.5184286595

  Lattice vectors:

 A1 = (  -4.4067569092,  -7.6327256898,   0.0000000000)
 A2 = (   8.8135128021,   0.0000000000,   0.0000000000)
 A3 = (   0.0000000000,   0.0000000000,  22.1962032318)

Analysis of symmetry for initial positions (statically):
 Subroutine PRICEL returns:
 Original cell was already a primitive cell.

 Routine SETGRP: Setting up the symmetry group for a
 hexagonal supercell.

 Subroutine GETGRP returns: Found  6 space group operations
 (whereof  6 operations were pure point group operations)
 out of a pool of 24 trial point group operations.

The static configuration has the point symmetry C_3v.

Analysis of symmetry for dynamics (positions and initial velocities):
 Subroutine PRICEL returns:
 Original cell was already a primitive cell.

[...]

The dynamic configuration has the point symmetry C_3v.

Analysis of constrained symmetry for selective dynamics:
 Subroutine PRICEL returns:
[...]
     33      -4.8534      2.00000
     34      -4.7994      2.00000
     35      -4.7862      2.00000
     36      -4.7655      2.00000
     37      -4.7594      2.00000
     38      -4.7417      2.00000
     39      -4.6619      2.00000
     40      -4.5941      2.00000
     41      -4.5816      2.00000
     42      -4.5548      2.00000
     43      -4.5154      2.00000
     44      -4.4527      2.00000
     45      -4.4189      2.00000
     46      -4.3918      2.00000
     47      -4.3275      2.00000
     48      -4.3136      2.00000
     49      -4.3022      2.00000
     50      -4.2981      2.00000
     51      -4.1984      2.00000
     52      -4.1690      2.00000
     53      -4.1440      2.00000
     54      -4.1233      2.00000
     55      -4.1218      2.00000
     56      -4.1130      2.00000
     57      -4.0942      2.00000
     58      -4.0658      2.00000
     59      -4.0260      2.00000
     60      -3.9977      2.00000
[...]
    238       6.1378      0.00000
    239       6.4123      0.00000
    240       6.4655      0.00000
    241       6.5124      0.00000
    242       6.5512      0.00000
    243       6.5668      0.00000
    244       6.5958      0.00000
    245       6.7756      0.00000
    246       6.8308      0.00000
    247       6.8405      0.00000
    248       6.8887      0.00000
    249       7.1961      0.00000
    250       7.2227      0.00000
    251       7.3198      0.00000
    252       7.6060      0.00000

 soft charge-density along one line, spin component           1
         0         1         2         3         4         5         6         7         8         9
 total charge-density along one line

------------------------ aborting loop because EDIFF is reached ----------------------------------------

 total charge

# of ion       s       p       d       tot
    1        0.546   0.238   8.769   9.552
    2        0.543   0.241   8.765   9.550
    3        0.543   0.241   8.765   9.550
    4        0.543   0.241   8.765   9.550
    5        0.546   0.241   8.759   9.546
    6        0.543   0.241   8.765   9.550
    7        0.543   0.241   8.765   9.550
    8        0.543   0.241   8.765   9.550
    9        0.543   0.239   8.770   9.552
   10        0.524   0.308   8.768   9.600
   11        0.524   0.307   8.780   9.611
   12        0.524   0.308   8.768   9.600
   13        0.524   0.307   8.780   9.611
   14        0.524   0.307   8.780   9.611
   15        0.517   0.310   8.775   9.602
   16        0.524   0.308   8.768   9.600
   17        0.517   0.310   8.775   9.602
   18        0.517   0.310   8.775   9.602
   19        0.517   0.299   8.774   9.590
   20        0.558   0.333   8.746   9.636
   21        0.558   0.333   8.746   9.636
   22        0.509   0.311   8.776   9.596
   23        0.558   0.333   8.746   9.636
   24        0.509   0.311   8.776   9.596
   25        0.517   0.299   8.774   9.590
   26        0.517   0.299   8.774   9.590
   27        0.509   0.311   8.776   9.596
   28        0.537   0.222   8.764   9.523
   29        0.564   0.241   8.748   9.554
   30        0.564   0.241   8.748   9.554
   31        0.564   0.241   8.748   9.554
   32        0.564   0.241   8.748   9.554
   33        0.564   0.241   8.748   9.554
   34        0.564   0.241   8.748   9.554
   35        0.537   0.222   8.763   9.521
   36        0.402   0.523   4.312   5.237
   37        0.969   1.544   0.000   2.512
   38        1.613   3.532   0.000   5.145
tot         21.781  15.260 311.076 348.117

  FORCE on cell =-STRESS in cart. coord.  units (eV):
  Direction    XX          YY          ZZ          XY          YZ          ZX
  Alpha Z  1025.55289  1025.55289  1025.55289
  Ewald  116840.37104116840.37146************    -0.00031    -0.00009    -0.00013
  Hartree125661.77890125661.77890************     0.00001    -0.00002    -0.00004
  E(xc)   -1797.54399 -1797.54406 -1804.84621     0.00006    -0.00001    -0.00001
  Local  ************************254459.03093     0.00205     0.00002    -0.00001
  n-local  -106.55071   -58.85931   -61.92119    23.47909    -1.42497     1.57932
  augment  2397.63506  2397.63658  2417.75205    -0.00132     0.00001     0.00002
  Kinetic  5583.04194  5593.73926  5622.28821     6.01508    -0.11794     0.69689
  Fock        0.00000     0.00000     0.00000     0.00000     0.00000     0.00000
  Total     -21.89520   -21.89519     2.70149    -0.00000     0.00000     0.00000
  in kB     -23.49373   -23.49373     2.89872    -0.00000     0.00000     0.00000

 VOLUME and BASIS-vectors are now :
  energy-cutoff  :      500.00
  volume of cell :     1493.16
      direct lattice vectors                 reciprocal lattice vectors
     8.813512802  0.000000000  0.000000000     0.113462137 -0.065507406  0.000000000
     4.406756909  7.632725690  0.000000000     0.000000000  0.131014796  0.000000000
     0.000000000  0.000000000 22.196203232     0.000000000  0.000000000  0.045052750

  length of vectors
     8.813512802  8.813512802 22.196203232     0.131014796  0.131014796  0.045052750

 FORCES acting on ions
    electron-ion (+dipol)            ewald-force                    non-local-force                 convergence-correction
   -.196E-04 -.162E-04 0.248E+04   0.519E-04 0.433E-04 -.248E+04   -.330E-17 0.329E-17 -.804E+00   -.216E-03 -.138E-03 -.186E+00
   0.534E+00 0.109E+00 0.248E+04   -.561E+00 -.189E+00 -.248E+04   0.460E-01 0.812E-01 -.280E+00   -.144E-01 0.203E-02 -.162E+00
   -.534E+00 0.109E+00 0.248E+04   0.561E+00 -.189E+00 -.248E+04   -.460E-01 0.812E-01 -.280E+00   0.147E-01 0.391E-02 -.161E+00
   0.362E+00 0.407E+00 0.248E+04   -.444E+00 -.392E+00 -.248E+04   0.933E-01 -.770E-03 -.280E+00   -.537E-02 -.135E-01 -.162E+00
   0.898E-05 -.231E-04 0.248E+04   0.951E-04 0.174E-05 -.248E+04   0.413E-17 -.490E-18 -.464E-01   0.422E-02 0.257E-02 -.114E+00
   -.362E+00 0.408E+00 0.248E+04   0.444E+00 -.392E+00 -.248E+04   -.933E-01 -.770E-03 -.280E+00   0.389E-02 -.126E-01 -.161E+00
   -.172E+00 -.517E+00 0.248E+04   0.117E+00 0.580E+00 -.248E+04   0.473E-01 -.804E-01 -.280E+00   0.108E-01 0.108E-01 -.161E+00
   0.172E+00 -.517E+00 0.248E+04   -.117E+00 0.581E+00 -.248E+04   -.473E-01 -.804E-01 -.280E+00   -.898E-02 0.970E-02 -.161E+00
   0.196E-04 -.417E-04 0.248E+04   0.166E-03 -.201E-04 -.248E+04   -.570E-17 0.102E-17 -.528E+00   -.455E-02 -.235E-02 -.189E+00
   0.394E+01 0.228E+01 0.843E+03   -.363E+01 -.209E+01 -.843E+03   -.297E+00 -.171E+00 -.659E+00   -.165E-01 -.963E-02 0.440E+00
   0.149E-04 0.366E+01 0.850E+03   0.147E-03 -.384E+01 -.850E+03   0.552E-08 0.830E-01 -.250E+00   0.388E-02 0.470E-01 0.515E+00
   -.394E+01 0.228E+01 0.843E+03   0.363E+01 -.209E+01 -.843E+03   0.297E+00 -.171E+00 -.659E+00   0.153E-01 -.888E-02 0.439E+00
   0.317E+01 -.183E+01 0.850E+03   -.332E+01 0.192E+01 -.850E+03   0.719E-01 -.415E-01 -.250E+00   0.429E-01 -.199E-01 0.515E+00
   -.317E+01 -.183E+01 0.850E+03   0.332E+01 0.192E+01 -.850E+03   -.719E-01 -.415E-01 -.250E+00   -.357E-01 -.208E-01 0.514E+00
   0.313E-04 0.418E+01 0.847E+03   0.236E-03 -.425E+01 -.847E+03   0.220E-08 0.330E-01 -.543E+00   -.192E-02 -.763E-02 0.484E+00
   -.213E-04 -.455E+01 0.843E+03   0.163E-03 0.419E+01 -.843E+03   0.228E-07 0.342E+00 -.659E+00   -.278E-03 0.177E-01 0.439E+00
   0.362E+01 -.209E+01 0.847E+03   -.368E+01 0.213E+01 -.847E+03   0.286E-01 -.165E-01 -.543E+00   -.732E-02 0.259E-02 0.484E+00
   -.362E+01 -.209E+01 0.847E+03   0.368E+01 0.213E+01 -.847E+03   -.286E-01 -.165E-01 -.543E+00   0.779E-02 0.425E-02 0.485E+00
   -.414E-04 0.778E+00 -.824E+03   0.549E-04 -.963E+00 0.823E+03   0.528E-08 0.793E-01 0.629E+00   0.815E-03 0.111E+00 0.105E+01
   0.102E+02 0.591E+01 -.795E+03   -.960E+01 -.554E+01 0.794E+03   -.113E+01 -.655E+00 -.109E+01   0.432E+00 0.249E+00 0.174E+01
   -.102E+02 0.591E+01 -.795E+03   0.960E+01 -.554E+01 0.794E+03   0.113E+01 -.655E+00 -.109E+01   -.438E+00 0.249E+00 0.174E+01
   -.245E+01 0.142E+01 -.809E+03   0.188E+01 -.108E+01 0.807E+03   0.411E+00 -.237E+00 0.563E+00   0.188E+00 -.108E+00 0.115E+01
   -.860E-05 -.118E+02 -.795E+03   0.140E-03 0.111E+02 0.794E+03   0.872E-07 0.131E+01 -.109E+01   -.373E-02 -.504E+00 0.174E+01
   0.245E+01 0.142E+01 -.809E+03   -.188E+01 -.108E+01 0.807E+03   -.411E+00 -.237E+00 0.563E+00   -.187E+00 -.108E+00 0.115E+01
   -.674E+00 -.389E+00 -.824E+03   0.834E+00 0.481E+00 0.823E+03   -.687E-01 -.397E-01 0.629E+00   -.962E-01 -.556E-01 0.105E+01
   0.674E+00 -.389E+00 -.824E+03   -.834E+00 0.481E+00 0.823E+03   0.687E-01 -.397E-01 0.629E+00   0.968E-01 -.547E-01 0.105E+01
   0.117E-04 -.283E+01 -.809E+03   0.197E-03 0.217E+01 0.807E+03   0.316E-07 0.475E+00 0.563E+00   -.270E-03 0.217E+00 0.115E+01
   -.136E-04 -.135E-04 -.242E+04   0.303E-04 0.344E-04 0.242E+04   0.411E-17 0.130E-17 0.694E+00   0.954E-04 0.376E-04 0.592E+00
   0.294E+02 0.464E+02 -.239E+04   -.291E+02 -.459E+02 0.239E+04   -.830E+00 -.133E+01 0.310E+00   0.466E+00 0.720E+00 0.459E+00
   -.294E+02 0.464E+02 -.239E+04   0.291E+02 -.459E+02 0.239E+04   0.830E+00 -.133E+01 0.310E+00   -.466E+00 0.722E+00 0.460E+00
   0.549E+02 0.225E+01 -.239E+04   -.543E+02 -.223E+01 0.239E+04   -.156E+01 -.558E-01 0.310E+00   0.857E+00 0.434E-01 0.460E+00
   -.549E+02 0.225E+01 -.239E+04   0.543E+02 -.223E+01 0.239E+04   0.156E+01 -.558E-01 0.310E+00   -.858E+00 0.442E-01 0.461E+00
   0.255E+02 -.487E+02 -.239E+04   -.252E+02 0.481E+02 0.239E+04   -.733E+00 0.138E+01 0.310E+00   0.392E+00 -.764E+00 0.460E+00
   -.255E+02 -.487E+02 -.239E+04   0.252E+02 0.481E+02 0.239E+04   0.733E+00 0.138E+01 0.310E+00   -.390E+00 -.765E+00 0.461E+00
   0.356E-04 -.283E-04 -.243E+04   0.140E-03 -.498E-04 0.243E+04   -.149E-16 -.101E-16 0.663E+00   -.425E-02 -.216E-02 0.564E+00
   -.231E-04 -.329E-05 -.113E+04   0.635E-04 0.589E-05 0.113E+04   -.432E-18 0.137E-17 -.164E+01   0.141E-02 0.867E-03 0.312E+00
   -.511E-05 -.828E-04 -.822E+03   0.149E-04 0.993E-06 0.805E+03   -.532E-20 -.395E-18 0.172E+02   0.111E-02 0.676E-03 -.654E+00
   0.240E-03 -.922E-04 -.151E+04   0.538E-05 0.564E-06 0.157E+04   0.659E-18 0.276E-18 -.588E+02   0.369E-02 0.226E-02 -.393E+00
   -.559E-03 -.946E-03 0.296E+02   -.259E-13 0.182E-12 -.591E-11   0.207E-15 -.889E-17 -.472E+02   0.407E-02 0.310E-02 0.179E+02

 POSITION                                       TOTAL-FORCE (eV/Angst)
      0.00000      0.00000      5.28038         0.000000     -0.000000     -0.144716
      2.93784      0.00000      5.28038         0.004468      0.004563     -0.068062
      5.87568      0.00000      5.28038        -0.004468      0.004563     -0.068062
      1.46892      2.54424      5.28038         0.006186      0.001588     -0.068062
      4.40676      2.54424      5.28038         0.000000     -0.000000     -0.126701
      7.34459      2.54424      5.28038        -0.006186      0.001588     -0.068062
      2.93784      5.08848      5.28038         0.001718     -0.006151     -0.068062
      5.87568      5.08848      5.28038        -0.001718     -0.006151     -0.068062
      8.81351      5.08848      5.28038        -0.000000     -0.000000     -0.091405
      1.46892      0.84808      7.67911         0.003800      0.002194      0.112049
      4.40676      0.84808      7.67911        -0.000000     -0.048619      0.035496
      7.34459      0.84808      7.67911        -0.003800      0.002194      0.112049
      2.93784      3.39232      7.67911        -0.042105      0.024309      0.035496
      5.87568      3.39232      7.67911         0.042105      0.024309      0.035496
      8.81351      3.39232      7.67911        -0.000000     -0.054538      0.086878
      4.40676      5.93656      7.67911        -0.000000     -0.004388      0.112049
      7.34459      5.93656      7.67911        -0.047231      0.027269      0.086878
     10.28243      5.93656      7.67911         0.047231      0.027269      0.086878
      8.81351      1.69581     10.07501         0.000000      0.005882      0.041568
      2.95207      1.70438     10.04871        -0.066936     -0.038646     -0.116097
      5.86144      1.70438     10.04871         0.066936     -0.038646     -0.116097
     10.26527      4.25031     10.05786         0.023685     -0.013675      0.017049
      4.40676      4.22397     10.04871         0.000000      0.077292     -0.116097
      7.36176      4.25031     10.05786        -0.023685     -0.013675      0.017049
     11.75166      6.78482     10.07501        -0.005094     -0.002941      0.041568
      5.87537      6.78482     10.07501         0.005094     -0.002941      0.041568
      8.81351      6.76483     10.05786         0.000000      0.027349      0.017049
      0.00000      0.00000     12.48798        -0.000000     -0.000000     -0.043119
      2.98892      0.08359     12.48152        -0.045491     -0.088069     -0.063950
      5.82460      0.08359     12.48152         0.045491     -0.088069     -0.063950
      1.56685      2.54668     12.48152        -0.099015      0.004638     -0.063950
      7.24666      2.54668     12.48152         0.099015      0.004638     -0.063950
      2.98469      5.00245     12.48152        -0.053524      0.083431     -0.063950
      5.82882      5.00245     12.48152         0.053524      0.083431     -0.063950
      8.81351      5.08848     12.49580        -0.000000     -0.000000     -0.025216
      4.40676      2.54424     12.17616         0.000000     -0.000000      0.765692
      4.40676      2.54424     14.03738         0.000000     -0.000000     -0.067428
      4.40676      2.54424     15.20652         0.000000     -0.000000     -0.005862
    total drift:                                0.003514      0.002155      0.279179

  FREE ENERGIE OF THE ION-ELECTRON SYSTEM (eV)
  free  energy   TOTEN  =      -130.56733389 eV

  energy  without entropy=     -130.56733389  energy(sigma->0) =     -130.56733389

 stress matrix after NEB project (eV)
    -21.89520     -0.00000      0.00000
     -0.00000    -21.89519      0.00000
     -0.00000      0.00000      2.70149
  FORCES: max atom, RMS     0.067428    0.010979
  FORCE total and by dimension    0.067682    0.067428
  Stress total and by dimension   31.082104   21.895196
|           W    W    AA    RRRRR   N    N  II  N    N   GGGG   !!!           |
|           W    W   A  A   R    R  NN   N  II  NN   N  G    G  !!!           |
|           W    W  A    A  R    R  N N  N  II  N N  N  G       !!!           |
|           W WW W  AAAAAA  RRRRR   N  N N  II  N  N N  G  GGG   !            |
|           WW  WW  A    A  R   R   N   NN  II  N   NN  G    G                |
|           W    W  A    A  R    R  N    N  II  N    N   GGGG   !!!           |
|     Tetrahedron method does not include variations of the Fermi             |
|     occupations, so forces and stress will be inaccurate. We suggest        |
|     using a different smearing scheme ISMEAR = 1 or 2 for metals in         |
|     relaxations.                                                            |

 total charge

# of ion       s       p       d       tot
    1        0.546   0.238   8.769   9.552
    2        0.543   0.241   8.765   9.550
    3        0.543   0.241   8.765   9.550
    4        0.543   0.241   8.765   9.550
    5        0.546   0.241   8.759   9.546
    6        0.543   0.241   8.765   9.550
    7        0.543   0.241   8.765   9.550
    8        0.543   0.241   8.765   9.550
    9        0.543   0.239   8.770   9.552
   10        0.524   0.308   8.768   9.600
   11        0.524   0.307   8.780   9.611
   12        0.524   0.308   8.768   9.600
   13        0.524   0.307   8.780   9.611
   14        0.524   0.307   8.780   9.611
   15        0.517   0.310   8.775   9.602
   16        0.524   0.308   8.768   9.600
   17        0.517   0.310   8.775   9.602
   18        0.517   0.310   8.775   9.602
   19        0.517   0.299   8.774   9.590
   20        0.558   0.333   8.746   9.636
   21        0.558   0.333   8.746   9.636
   22        0.509   0.311   8.776   9.596
   23        0.558   0.333   8.746   9.636
   24        0.509   0.311   8.776   9.596
   25        0.517   0.299   8.774   9.590
   26        0.517   0.299   8.774   9.590
   27        0.509   0.311   8.776   9.596
   28        0.537   0.222   8.764   9.523
   29        0.564   0.241   8.748   9.554
   30        0.564   0.241   8.748   9.554
   31        0.564   0.241   8.748   9.554
   32        0.564   0.241   8.748   9.554
   33        0.564   0.241   8.748   9.554
   34        0.564   0.241   8.748   9.554
   35        0.537   0.222   8.763   9.521
   36        0.402   0.523   4.312   5.237
   37        0.969   1.544   0.000   2.512
   38        1.613   3.532   0.000   5.145
tot         21.781  15.260 311.076 348.117

 BZINTS: Fermi energy:    0.665135;  401.000000 electrons
         Band energy:-0.127437E+04;  BLOECHL correction:   -0.039021