 vasp.6.2.0 18Jan21 (build Jun 12 2021 23:27:24) complex

 executed on             LinuxIFC date 2022.05.27  06:10:57

 INCAR:
   ISMEAR = -5
   SIGMA = 0.1
   ISPIN = 1
   EDIFF = 1.d-5
   EDIFFG = -0.01
   NSW = 0
   NELM = 150
   ENCUT = 500
   ISIF = 2
   IBRION = 2
   LREAL = Auto
   ALGO = Fast
   ICHARG = 11
   LORBIT = 10
   LCHARG = .F.
   LWAVE = .F.

 POTCAR:    PAW_PBE Cu 22Jun2005
 POTCAR:    PAW_PBE Ru 04Feb2005
 POTCAR:    PAW_PBE H 15Jun2001
|           W    W    AA    RRRRR   N    N  II  N    N   GGGG   !!!           |
|           W    W   A  A   R    R  NN   N  II  NN   N  G    G  !!!           |
|           W    W  A    A  R    R  N N  N  II  N N  N  G       !!!           |
|           W WW W  AAAAAA  RRRRR   N  N N  II  N  N N  G  GGG   !            |
|           WW  WW  A    A  R   R   N   NN  II  N   NN  G    G                |
|           W    W  A    A  R    R  N    N  II  N    N   GGGG   !!!           |
|     For optimal performance we recommend to set                             |
|       NCORE = 2 up to number-of-cores-per-socket                            |
|     This setting can greatly improve the performance of VASP for DFT.       |
|     The default, NCORE=1 might be grossly inefficient on modern             |
|     multi-core architectures or massively parallel machines. Do your        |
|     Unfortunately you need to use the default for GW and RPA                |
|     calculations (for HF NCORE is supported but not extensively tested      |
|     yet).                                                                   |

 POTCAR:    PAW_PBE Cu 22Jun2005
   VRHFIN =Cu: d10 p1

   TITEL  = PAW_PBE Cu 22Jun2005
   POMASS =   63.546; ZVAL   =   11.000    mass and valenz
   ENMAX  =  295.446; ENMIN  =  221.585 eV

 POTCAR:    PAW_PBE Ru 04Feb2005
   VRHFIN =Ru: s1 d7

   TITEL  = PAW_PBE Ru 04Feb2005
   POMASS =  101.070; ZVAL   =    8.000    mass and valenz
   ENMAX  =  213.271; ENMIN  =  159.953 eV

 POTCAR:    PAW_PBE H 15Jun2001
   VRHFIN =H: ultrasoft test

   TITEL  = PAW_PBE H 15Jun2001
   POMASS =    1.000; ZVAL   =    1.000    mass and valenz
   ENMAX  =  250.000; ENMIN  =  200.000 eV

 Optimization of the real space projectors (new method)

 maximal supplied QI-value         = 16.25
 optimisation between [QCUT,QGAM] = [ 11.38, 22.75] = [ 36.24,144.96] Ry
 Optimized for a Real-space Cutoff    1.52 Angstroem

   l    n(q)    QCUT    max X(q) W(low)/X(q) W(high)/X(q)  e(spline)
   2      9    11.376     4.610    0.21E-03    0.10E-03    0.26E-06
   2      9    11.376     8.522    0.33E-03    0.16E-03    0.37E-06
   0     10    11.376    51.609    0.62E-04    0.20E-04    0.13E-06
   0     10    11.376    27.747    0.54E-04    0.20E-04    0.13E-06
   1     10    11.376    20.408    0.13E-04    0.99E-04    0.19E-06
   1     10    11.376    13.425    0.12E-04    0.87E-04    0.17E-06
 Optimization of the real space projectors (new method)

[...]

   l    n(q)    QCUT    max X(q) W(low)/X(q) W(high)/X(q)  e(spline)
   2      9    11.327    61.733    0.26E-03    0.14E-03    0.16E-06
   2      9    11.327    59.886    0.26E-03    0.14E-03    0.17E-06
   0     10    11.327    23.358    0.19E-03    0.14E-04    0.46E-06
   0     10    11.327    11.320    0.15E-03    0.11E-04    0.37E-06
   1     10    11.327    14.765    0.49E-04    0.26E-03    0.24E-06
   1     10    11.327     8.283    0.37E-04    0.20E-03    0.18E-06
 Optimization of the real space projectors (new method)

 maximal supplied QI-value         = 34.20
 optimisation between [QCUT,QGAM] = [ 11.29, 22.57] = [ 35.68,142.71] Ry
 Optimized for a Real-space Cutoff    1.16 Angstroem

   l    n(q)    QCUT    max X(q) W(low)/X(q) W(high)/X(q)  e(spline)
   0      8    11.287    19.460    0.40E-03    0.73E-03    0.16E-06
   0      8    11.287    12.209    0.38E-03    0.70E-03    0.15E-06
   1      7    11.287     4.655    0.22E-03    0.25E-04    0.22E-06
  PAW_PBE Cu 22Jun2005                  :
  PAW_PBE Ru 04Feb2005                  :
  PAW_PBE H 15Jun2001                   :

 POSCAR: Cu-Ru-H2
  positions in direct lattice
  velocities in cartesian coordinates
 exchange correlation table for  LEXCH =        8
   RHO(1)=    0.500       N(1)  =     2000
   RHO(2)=  100.500       N(2)  =     4000

 VTST: version 3.2, (02/03/18)

 CHAIN: initializing optimizer

 OPT: Using VASP Conjugate-Gradient optimizer
 CHAIN: Read ICHAIN            0

 POSCAR: Cu-Ru-H2
  positions in direct lattice
  velocities in cartesian coordinates

 ion  position               nearest neighbor table
   1  0.000  0.000  0.252-   7 2.57   3 2.57   4 2.57   2 2.57   6 2.57   8 2.57  12 2.57  10 2.57
                            16 2.57
   2  0.333  0.000  0.252-   8 2.57   9 2.57   5 2.57   1 2.57   3 2.57  11 2.57   4 2.57  10 2.57
                            17 2.57
   3  0.667  0.000  0.252-   1 2.57   7 2.57   6 2.57   9 2.57   2 2.57  12 2.57   5 2.57  18 2.57
                            11 2.57
   4  0.000  0.333  0.252-   5 2.57   6 2.57   1 2.57   7 2.57   2 2.57  13 2.57   9 2.57  10 2.57
                            15 2.57
   5  0.333  0.333  0.252-   4 2.57   2 2.57   7 2.57  13 2.57   8 2.57   6 2.57   3 2.57  11 2.57
                            14 2.57
   6  0.667  0.333  0.252-   4 2.57   9 2.57  15 2.57   3 2.57   1 2.57   8 2.57  14 2.57   5 2.57
                            12 2.57
   7  0.000  0.667  0.252-   1 2.57   3 2.57  16 2.57  18 2.57   4 2.57   5 2.57   8 2.57   9 2.57
                            13 2.57
   8  0.333  0.667  0.252-   9 2.57   2 2.57  17 2.57   6 2.57   1 2.57   7 2.57   5 2.57  14 2.57
                            16 2.57
   9  0.667  0.667  0.252-   8 2.57   6 2.57   2 2.57  17 2.57   3 2.57   7 2.57   4 2.57  15 2.57
                            18 2.57
  10  0.111  0.111  0.351-  20 2.55  26 2.56  19 2.56  11 2.57  12 2.57  13 2.57   1 2.57   2 2.57
                             4 2.57  15 2.57  16 2.57  17 2.57
  11  0.444  0.111  0.351-  20 2.55  21 2.55  10 2.57  13 2.57   2 2.57  17 2.57  14 2.57  12 2.57
                             5 2.57   3 2.57  18 2.57  27 2.57
  12  0.778  0.111  0.351-  21 2.55  19 2.56  25 2.56  15 2.57  10 2.57  14 2.57  18 2.57   3 2.57
                             1 2.57  16 2.57  11 2.57   6 2.57
  13  0.111  0.444  0.351-  23 2.55  20 2.55  16 2.57  18 2.57  10 2.57  11 2.57  14 2.57   5 2.57
                             4 2.57   7 2.57  15 2.57  22 2.57
  14  0.444  0.444  0.351-  21 2.55  23 2.55  15 2.57  17 2.57  12 2.57  16 2.57  13 2.57  11 2.57
                             6 2.57   8 2.57   5 2.57  24 2.57
  15  0.778  0.444  0.351-  19 2.56  14 2.57  17 2.57  12 2.57   6 2.57  18 2.57  10 2.57   9 2.57
                            13 2.57   4 2.57  24 2.57  22 2.57
  16  0.111  0.778  0.351-  23 2.55  25 2.56  26 2.56  18 2.57  13 2.57   7 2.57  14 2.57  17 2.57
                            12 2.57  10 2.57   8 2.57   1 2.57
  17  0.444  0.778  0.351-  26 2.56  14 2.57  15 2.57   8 2.57   9 2.57  11 2.57  16 2.57  18 2.57
                            10 2.57   2 2.57  27 2.57  24 2.57
  18  0.778  0.778  0.351-  25 2.56  16 2.57  13 2.57   7 2.57  15 2.57  12 2.57  17 2.57   9 2.57
                             3 2.57  11 2.57  22 2.57  27 2.57
  19  0.889  0.223  0.449-  28 2.55  15 2.56  21 2.56  20 2.56  12 2.56  10 2.56  22 2.56  24 2.56
                            32 2.56  31 2.56  25 2.57  26 2.57
  20  0.222  0.222  0.448-  10 2.55  11 2.55  13 2.55  36 2.55  26 2.56  19 2.56  27 2.57  22 2.57
                            23 2.57  21 2.57  29 2.58  31 2.58
  21  0.556  0.222  0.448-  12 2.55  14 2.55  11 2.55  36 2.55  19 2.56  25 2.56  24 2.57  27 2.57
                            20 2.57  23 2.57  32 2.58  30 2.58
  22  0.888  0.556  0.449-  35 2.55  24 2.56  27 2.56  19 2.56  25 2.56  18 2.57  15 2.57  31 2.57
                            33 2.57  23 2.57  20 2.57  13 2.57
  23  0.222  0.556  0.448-  16 2.55  13 2.55  14 2.55  36 2.55  25 2.56  26 2.56  22 2.57  24 2.57
                            20 2.57  21 2.57  33 2.58  34 2.58
  24  0.556  0.556  0.449-  35 2.55  22 2.56  27 2.56  19 2.56  26 2.56  15 2.57  17 2.57  32 2.57
                            34 2.57  21 2.57  23 2.57  14 2.57
  25  0.889  0.889  0.449-  28 2.55  18 2.56  21 2.56  23 2.56  16 2.56  12 2.56  22 2.56  27 2.56
                            33 2.56  30 2.56  19 2.57  26 2.57
  26  0.223  0.889  0.449-  28 2.55  17 2.56  20 2.56  23 2.56  10 2.56  16 2.56  27 2.56  24 2.56
                            29 2.56  34 2.56  25 2.57  19 2.57
  27  0.556  0.888  0.449-  35 2.55  24 2.56  22 2.56  26 2.56  25 2.56  17 2.57  18 2.57  29 2.57
                            30 2.57  20 2.57  21 2.57  11 2.57
  28  0.000  0.000  0.546-  25 2.55  19 2.55  26 2.55  33 2.56  30 2.56  31 2.56  29 2.56  32 2.56
                            34 2.56
  29  0.333  0.999  0.548-  34 2.55  28 2.56  26 2.56  35 2.56  27 2.57  31 2.57  36 2.57  30 2.58
                            20 2.58
  30  0.668  0.999  0.548-  33 2.55  28 2.56  25 2.56  35 2.56  27 2.57  32 2.57  36 2.57  29 2.58
                            21 2.58
  31  0.999  0.333  0.548-  32 2.55  28 2.56  19 2.56  35 2.56  22 2.57  29 2.57  36 2.57  33 2.58
                            20 2.58
  32  0.668  0.333  0.548-  31 2.55  28 2.56  19 2.56  35 2.56  24 2.57  30 2.57  36 2.57  34 2.58
                            21 2.58
  33  0.999  0.668  0.548-  30 2.55  28 2.56  25 2.56  35 2.56  22 2.57  34 2.57  36 2.57  31 2.58
                            23 2.58
  34  0.333  0.668  0.548-  29 2.55  28 2.56  26 2.56  35 2.56  24 2.57  33 2.57  36 2.57  32 2.58
                            23 2.58
  35  0.667  0.667  0.547-  24 2.55  27 2.55  22 2.55  34 2.56  32 2.56  29 2.56  30 2.56  33 2.56
                            31 2.56
  36  0.333  0.333  0.546-  37 1.68  38 1.68  23 2.55  20 2.55  21 2.55  31 2.57  29 2.57  33 2.57
                            34 2.57  32 2.57  30 2.57
  37  0.272  0.324  0.621-  36 1.68
  38  0.404  0.324  0.621-  36 1.68

  LATTYP: Found a hexagonal cell.
 ALAT       =     7.6967864036
 C/A-ratio  =     2.7653617908

  Lattice vectors:

 A1 = (  -3.8483927580,  -6.6656128093,   0.0000000000)
 A2 = (   7.6967864037,   0.0000000000,   0.0000000000)
 A3 = (   0.0000000000,   0.0000000000,  21.2843990326)

Analysis of symmetry for initial positions (statically):
 Subroutine PRICEL returns:
 Original cell was already a primitive cell.

 Routine SETGRP: Setting up the symmetry group for a
 hexagonal supercell.

 Subroutine GETGRP returns: Found  2 space group operations
 (whereof  2 operations were pure point group operations)
 out of a pool of 24 trial point group operations.

The static configuration has the point symmetry C_1h.

Analysis of symmetry for dynamics (positions and initial velocities):
 Subroutine PRICEL returns:
 Original cell was already a primitive cell.

[...]

The dynamic configuration has the point symmetry C_1h.

Analysis of constrained symmetry for selective dynamics:
 Subroutine PRICEL returns:
 Original cell was already a primitive cell.

 Routine SETGRP: Setting up the symmetry group for a
 hexagonal supercell.

 Subroutine GETGRP returns: Found  2 space group operations
[...]
     33      -3.8321      2.00000
     34      -3.8285      2.00000
     35      -3.7705      2.00000
     36      -3.7295      2.00000
     37      -3.6472      2.00000
     38      -3.5579      2.00000
     39      -3.5468      2.00000
     40      -3.4940      2.00000
     41      -3.4823      2.00000
     42      -3.4762      2.00000
     43      -3.4588      2.00000
     44      -3.4356      2.00000
     45      -3.4276      2.00000
     46      -3.4266      2.00000
     47      -3.2295      2.00000
     48      -3.2179      2.00000
     49      -3.2118      2.00000
     50      -3.2084      2.00000
     51      -3.1477      2.00000
     52      -3.1398      2.00000
     53      -3.1330      2.00000
     54      -3.1256      2.00000
     55      -3.1235      2.00000
     56      -3.1054      2.00000
     57      -3.0872      2.00000
     58      -3.0698      2.00000
     59      -3.0619      2.00000
     60      -3.0563      2.00000
[...]
    238       6.8070      0.00000
    239       6.9039      0.00000
    240       6.9640      0.00000
    241       7.0808      0.00000
    242       7.1358      0.00000
    243       7.3227      0.00000
    244       7.4136      0.00000
    245       7.4716      0.00000
    246       7.5765      0.00000
    247       7.6320      0.00000
    248       7.8240      0.00000
    249       7.9675      0.00000
    250       8.2162      0.00000
    251       8.2656      0.00000
    252       8.3577      0.00000

 soft charge-density along one line, spin component           1
         0         1         2         3         4         5         6         7         8         9
 total charge-density along one line

------------------------ aborting loop because EDIFF is reached ----------------------------------------

 total charge

# of ion       s       p       d       tot
    1        0.448   0.284   9.189   9.920
    2        0.449   0.285   9.186   9.921
    3        0.449   0.285   9.186   9.921
    4        0.449   0.285   9.186   9.920
    5        0.448   0.288   9.179   9.915
    6        0.449   0.285   9.186   9.920
    7        0.450   0.285   9.186   9.920
    8        0.450   0.285   9.186   9.920
    9        0.447   0.283   9.191   9.920
   10        0.441   0.373   9.174   9.987
   11        0.445   0.364   9.184   9.993
   12        0.441   0.373   9.174   9.987
   13        0.445   0.364   9.184   9.993
   14        0.445   0.364   9.184   9.993
   15        0.437   0.370   9.177   9.984
   16        0.441   0.373   9.174   9.987
   17        0.436   0.371   9.177   9.984
   18        0.436   0.371   9.177   9.984
   19        0.442   0.370   9.181   9.993
   20        0.457   0.386   9.171  10.014
   21        0.457   0.386   9.171  10.014
   22        0.431   0.374   9.180   9.985
   23        0.457   0.391   9.166  10.014
   24        0.431   0.374   9.180   9.985
   25        0.442   0.370   9.181   9.993
   26        0.442   0.370   9.181   9.993
   27        0.431   0.373   9.181   9.986
   28        0.450   0.289   9.194   9.932
   29        0.455   0.304   9.182   9.940
   30        0.455   0.304   9.182   9.940
   31        0.452   0.308   9.180   9.940
   32        0.452   0.308   9.180   9.940
   33        0.455   0.303   9.180   9.939
   34        0.455   0.303   9.180   9.939
   35        0.444   0.292   9.193   9.928
   36        0.584   0.695   6.834   8.112
   37        0.512   0.029   0.000   0.542
   38        0.512   0.029   0.000   0.542
tot         17.220  12.445 328.176 357.841

  FORCE on cell =-STRESS in cart. coord.  units (eV):
  Direction    XX          YY          ZZ          XY          YZ          ZX
  Alpha Z   864.24048   864.24048   864.24048
  Ewald  172929.10863172908.90054************     0.00037    -0.66874     0.00016
  Hartree185872.69737185868.17589************     0.00003     0.77473     0.00006
  E(xc)   -2290.61212 -2290.86912 -2295.30789    -0.00032    -0.01059    -0.00004
  Local  ************************372127.57159     0.01962    -0.64822    -0.00068
  n-local  -749.08090  -749.95247  -762.70216     2.18626     0.01356     0.11264
  augment  3353.44204  3353.95818  3371.48263    -0.01855     0.12870     0.00020
  Kinetic  3240.84997  3245.21882  3262.29684     1.32460     0.61528    -0.19047
  Fock        0.00000     0.00000     0.00000     0.00000     0.00000     0.00000
  Total      -5.04333    -5.25601     1.96720     0.00000     0.20474    -0.00000
  in kB      -7.39976    -7.71180     2.88634     0.00000     0.30040    -0.00000

 VOLUME and BASIS-vectors are now :
  energy-cutoff  :      500.00
  volume of cell :     1091.97
      direct lattice vectors                 reciprocal lattice vectors
     7.696786404  0.000000000  0.000000000     0.129924354 -0.075011849  0.000000000
     3.848392758  6.665612809  0.000000000     0.000000000  0.150023716  0.000000000
     0.000000000  0.000000000 21.284399033     0.000000000  0.000000000  0.046982769

  length of vectors
     7.696786404  7.696786404 21.284399033     0.150023716  0.150023716  0.046982769

 FORCES acting on ions
    electron-ion (+dipol)            ewald-force                    non-local-force                 convergence-correction
   -.408E-04 0.985E-02 0.347E+04   0.580E-04 -.550E-02 -.347E+04   -.167E-08 0.250E-01 -.303E+01   -.354E-03 -.280E-01 -.357E+00
   -.323E+00 -.452E-01 0.347E+04   0.245E+00 0.865E-01 -.347E+04   0.628E-01 0.398E-01 -.184E+01   0.287E-01 -.581E-01 -.271E+00
   0.323E+00 -.452E-01 0.347E+04   -.245E+00 0.865E-01 -.347E+04   -.628E-01 0.398E-01 -.184E+01   -.278E-01 -.556E-01 -.270E+00
   -.235E+00 -.280E+00 0.347E+04   0.202E+00 0.171E+00 -.347E+04   0.879E-01 0.297E-01 -.185E+01   -.275E-01 0.764E-01 -.263E+00
   -.614E-04 -.660E-01 0.347E+04   0.116E-03 0.417E-02 -.347E+04   -.126E-08 0.189E-01 -.155E+01   0.121E-01 0.448E-01 -.140E+00
   0.235E+00 -.280E+00 0.347E+04   -.202E+00 0.170E+00 -.347E+04   -.879E-01 0.297E-01 -.185E+01   0.259E-01 0.775E-01 -.262E+00
   0.708E-01 0.329E+00 0.347E+04   -.430E-01 -.257E+00 -.347E+04   0.183E-01 -.867E-01 -.181E+01   -.267E-01 -.662E-02 -.279E+00
   -.707E-01 0.329E+00 0.347E+04   0.427E-01 -.257E+00 -.347E+04   -.183E-01 -.867E-01 -.181E+01   0.301E-01 -.806E-02 -.279E+00
   -.143E-03 0.560E-01 0.347E+04   0.263E-03 0.143E-02 -.347E+04   0.143E-08 -.214E-01 -.256E+01   -.131E-01 -.379E-01 -.305E+00
   -.686E-01 -.852E-01 0.115E+04   0.511E+00 0.273E+00 -.115E+04   -.511E+00 -.234E+00 -.116E+01   0.658E-01 0.491E-01 -.489E+00
   -.908E-04 -.120E+01 0.115E+04   0.190E-03 0.769E+00 -.115E+04   -.179E-07 0.269E+00 -.475E+00   0.119E-01 0.994E-01 -.393E+00
   0.687E-01 -.852E-01 0.115E+04   -.512E+00 0.273E+00 -.115E+04   0.511E+00 -.234E+00 -.116E+01   -.677E-01 0.502E-01 -.489E+00
   -.103E+01 0.596E+00 0.115E+04   0.688E+00 -.354E+00 -.115E+04   0.222E+00 -.198E+00 -.463E+00   0.870E-01 -.195E-01 -.417E+00
   0.103E+01 0.596E+00 0.115E+04   -.688E+00 -.354E+00 -.115E+04   -.222E+00 -.198E+00 -.463E+00   -.634E-01 -.211E-01 -.419E+00
   -.142E-03 -.116E+01 0.115E+04   0.298E-03 0.835E+00 -.115E+04   -.132E-07 0.198E+00 -.995E+00   -.345E-02 0.114E+00 -.488E+00
   -.922E-04 0.108E+00 0.115E+04   0.186E-03 -.611E+00 -.115E+04   -.402E-07 0.603E+00 -.121E+01   -.901E-03 -.107E+00 -.482E+00
   -.877E+00 0.599E+00 0.115E+04   0.689E+00 -.415E+00 -.115E+04   0.124E+00 -.102E+00 -.980E+00   0.503E-01 -.730E-01 -.478E+00
   0.877E+00 0.599E+00 0.115E+04   -.689E+00 -.415E+00 -.115E+04   -.124E+00 -.102E+00 -.980E+00   -.488E-01 -.703E-01 -.476E+00
   -.639E-04 -.238E+01 -.117E+04   0.696E-04 0.231E+01 0.117E+04   -.466E-09 0.699E-02 0.888E+00   -.964E-03 0.717E-01 -.644E+00
   -.280E+02 -.161E+02 -.120E+04   0.291E+02 0.168E+02 0.120E+04   -.125E+01 -.816E+00 -.100E+01   0.144E+00 0.423E-01 -.572E+00
   0.280E+02 -.161E+02 -.120E+04   -.291E+02 0.168E+02 0.120E+04   0.125E+01 -.816E+00 -.100E+01   -.143E+00 0.405E-01 -.573E+00
   -.182E+02 0.103E+02 -.119E+04   0.177E+02 -.997E+01 0.119E+04   0.524E+00 -.346E+00 0.791E+00   0.112E+00 -.240E-01 -.628E+00
   -.857E-04 0.318E+02 -.120E+04   0.147E-03 -.333E+02 0.120E+04   -.109E-06 0.164E+01 -.120E+01   -.214E-02 -.105E+00 -.561E+00
   0.182E+02 0.103E+02 -.119E+04   -.177E+02 -.997E+01 0.119E+04   -.524E+00 -.346E+00 0.791E+00   -.899E-01 -.249E-01 -.627E+00
   0.202E+01 0.145E+01 -.118E+04   -.197E+01 -.139E+01 0.117E+04   0.344E-02 0.110E-01 0.888E+00   -.696E-01 -.714E-01 -.607E+00
   -.202E+01 0.145E+01 -.118E+04   0.197E+01 -.139E+01 0.117E+04   -.344E-02 0.110E-01 0.888E+00   0.686E-01 -.716E-01 -.607E+00
   -.120E-03 -.210E+02 -.119E+04   0.242E-03 0.202E+02 0.119E+04   -.505E-07 0.758E+00 0.776E+00   0.110E-01 0.145E+00 -.598E+00
   -.396E-04 0.114E+01 -.346E+04   0.415E-04 -.106E+01 0.345E+04   0.356E-08 -.535E-01 0.238E+01   -.186E-02 -.611E-01 0.215E+00
   -.246E+02 -.389E+02 -.346E+04   0.249E+02 0.389E+02 0.346E+04   -.483E+00 -.244E+00 0.202E+01   0.110E+00 0.101E+00 0.132E+00
   0.246E+02 -.389E+02 -.346E+04   -.249E+02 0.389E+02 0.346E+04   0.483E+00 -.244E+00 0.202E+01   -.877E-01 0.102E+00 0.131E+00
   -.456E+02 -.173E+01 -.346E+04   0.458E+02 0.194E+01 0.346E+04   -.457E+00 -.231E+00 0.223E+01   0.168E+00 0.287E-01 0.140E+00
   0.456E+02 -.173E+01 -.346E+04   -.458E+02 0.194E+01 0.346E+04   0.457E+00 -.231E+00 0.223E+01   -.146E+00 0.294E-01 0.140E+00
   -.238E+02 0.415E+02 -.346E+04   0.239E+02 -.418E+02 0.346E+04   -.194E+00 0.476E+00 0.192E+01   0.942E-01 -.927E-01 0.144E+00
   0.238E+02 0.415E+02 -.346E+04   -.239E+02 -.418E+02 0.346E+04   0.194E+00 0.476E+00 0.192E+01   -.698E-01 -.933E-01 0.145E+00
   -.147E-03 -.473E+00 -.346E+04   0.252E-03 0.372E+00 0.346E+04   -.622E-08 0.934E-01 0.274E+01   -.141E-01 0.230E-01 0.237E+00
   -.581E-04 -.302E+01 -.243E+04   0.999E-04 0.291E+01 0.243E+04   -.139E-07 0.209E+00 -.215E+01   0.406E-03 0.258E-02 0.504E-02
   0.134E+02 0.134E+00 -.377E+03   -.155E+02 -.193E+00 0.379E+03   0.211E+01 0.576E-01 -.161E+01   0.301E-02 0.217E-02 0.195E-01
   -.134E+02 0.134E+00 -.377E+03   0.155E+02 -.193E+00 0.379E+03   -.211E+01 0.576E-01 -.161E+01   -.300E-02 0.218E-02 0.194E-01
   -.228E-03 -.534E+00 0.228E+02   0.139E-12 0.478E-12 -.813E-11   -.308E-07 0.463E+00 -.121E+02   0.115E+00 0.731E-01 -.106E+02

 POSITION                                       TOTAL-FORCE (eV/Angst)
      0.00000      0.00000      5.37156        -0.000000      0.001295      0.001571
      2.56560      0.00000      5.37156         0.013375      0.024220      0.070267
      5.13119      0.00000      5.37156        -0.013375      0.024220      0.070267
      1.28280      2.22187      5.37156         0.028690     -0.003222      0.070494
      3.84839      2.22187      5.37156        -0.000000      0.001791      0.035883
      6.41399      2.22187      5.37156        -0.028690     -0.003222      0.070494
      2.56560      4.44374      5.37156         0.017818     -0.022180      0.069073
      5.13119      4.44374      5.37156        -0.017818     -0.022180      0.069073
      7.69679      4.44374      5.37156         0.000000     -0.001954      0.020054
      1.28280      0.74062      7.46636        -0.000966      0.003541     -0.062131
      3.84839      0.74062      7.46636         0.000000     -0.060998     -0.082220
      6.41399      0.74062      7.46636         0.000966      0.003541     -0.062131
      2.56560      2.96249      7.46636        -0.041501      0.023533     -0.067548
      5.13119      2.96249      7.46636         0.041501      0.023533     -0.067548
      7.69679      2.96249      7.46636         0.000000     -0.010510     -0.009239
      3.84839      5.18437      7.46636         0.000000     -0.007486     -0.056414
      6.41399      5.18437      7.46636        -0.014837      0.010268     -0.003232
      8.97958      5.18437      7.46636         0.014837      0.010268     -0.003232
      7.69679      1.48414      9.55535        -0.000000      0.004219      0.055325
      2.56128      1.47875      9.53998        -0.084039     -0.079332     -0.282631
      5.13551      1.47875      9.53998         0.084039     -0.079332     -0.282631
      8.97644      3.70493      9.56275         0.049300     -0.028038      0.000368
      3.84839      3.70811      9.53998        -0.000000      0.079075     -0.227025
      6.41713      3.70493      9.56275        -0.049300     -0.028038      0.000368
     10.25987      5.92354      9.55535        -0.012464     -0.002300      0.032186
      5.13370      5.92354      9.55535         0.012464     -0.002300      0.032186
      7.69679      5.92136      9.56275        -0.000000      0.047859     -0.009583
      0.00000      0.00000     11.63109         0.000000     -0.029981     -0.054580
      6.40750      6.66078     11.65531        -0.027466     -0.055251     -0.017904
      8.98608      6.66078     11.65531         0.027466     -0.055251     -0.017904
      8.97216      2.21866     11.65531        -0.033308      0.010088      0.037579
      6.42142      2.21866     11.65531         0.033308      0.010088      0.037579
     10.26144      4.45178     11.65531        -0.024070      0.050045     -0.004103
      5.13213      4.45178     11.65531         0.024070      0.050045     -0.004103
      7.69679      4.44374     11.63516        -0.000000      0.015168     -0.045933
      3.84839      2.22187     11.61289        -0.000000      0.097298      0.685510
      3.34223      2.15929     13.20907         0.018220      0.000740      0.000907
      4.35455      2.15929     13.20907        -0.018220      0.000740      0.000907
    total drift:                                0.114934      0.002151      0.033299

  FREE ENERGIE OF THE ION-ELECTRON SYSTEM (eV)
  free  energy   TOTEN  =      -137.75223661 eV

  energy  without entropy=     -137.75223661  energy(sigma->0) =     -137.75223661

 stress matrix after NEB project (eV)
     -5.04333      0.00000     -0.00000
      0.00000     -5.25601      0.20474
     -0.00000      0.20474      1.96720
  FORCES: max atom, RMS     0.018258    0.004189
  FORCE total and by dimension    0.025820    0.018220
  Stress total and by dimension    7.550799    5.256011
|           W    W    AA    RRRRR   N    N  II  N    N   GGGG   !!!           |
|           W    W   A  A   R    R  NN   N  II  NN   N  G    G  !!!           |
|           W    W  A    A  R    R  N N  N  II  N N  N  G       !!!           |
|           W WW W  AAAAAA  RRRRR   N  N N  II  N  N N  G  GGG   !            |
|           WW  WW  A    A  R   R   N   NN  II  N   NN  G    G                |
|           W    W  A    A  R    R  N    N  II  N    N   GGGG   !!!           |
|     Tetrahedron method does not include variations of the Fermi             |
|     occupations, so forces and stress will be inaccurate. We suggest        |
|     using a different smearing scheme ISMEAR = 1 or 2 for metals in         |
|     relaxations.                                                            |

 total charge

# of ion       s       p       d       tot
    1        0.448   0.284   9.189   9.920
    2        0.449   0.285   9.186   9.921
    3        0.449   0.285   9.186   9.921
    4        0.449   0.285   9.186   9.920
    5        0.448   0.288   9.179   9.915
    6        0.449   0.285   9.186   9.920
    7        0.450   0.285   9.186   9.920
    8        0.450   0.285   9.186   9.920
    9        0.447   0.283   9.191   9.920
   10        0.441   0.373   9.174   9.987
   11        0.445   0.364   9.184   9.993
   12        0.441   0.373   9.174   9.987
   13        0.445   0.364   9.184   9.993
   14        0.445   0.364   9.184   9.993
   15        0.437   0.370   9.177   9.984
   16        0.441   0.373   9.174   9.987
   17        0.436   0.371   9.177   9.984
   18        0.436   0.371   9.177   9.984
   19        0.442   0.370   9.181   9.993
   20        0.457   0.386   9.171  10.014
   21        0.457   0.386   9.171  10.014
   22        0.431   0.374   9.180   9.985
   23        0.457   0.391   9.166  10.014
   24        0.431   0.374   9.180   9.985
   25        0.442   0.370   9.181   9.993
   26        0.442   0.370   9.181   9.993
   27        0.431   0.373   9.181   9.986
   28        0.450   0.289   9.194   9.932
   29        0.455   0.304   9.182   9.940
   30        0.455   0.304   9.182   9.940
   31        0.452   0.308   9.180   9.940
   32        0.452   0.308   9.180   9.940
   33        0.455   0.303   9.180   9.939
   34        0.455   0.303   9.180   9.939
   35        0.444   0.292   9.193   9.928
   36        0.584   0.695   6.834   8.112
   37        0.512   0.029   0.000   0.542
   38        0.512   0.029   0.000   0.542
tot         17.220  12.445 328.176 357.841

 BZINTS: Fermi energy:    0.206657;  395.000000 electrons
         Band energy:-0.102441E+04;  BLOECHL correction:   -0.055165