 vasp.6.2.0 18Jan21 (build Jun 12 2021 23:27:24) complex

 executed on             LinuxIFC date 2022.05.27  05:47:47

 INCAR:
   ISMEAR = -5
   SIGMA = 0.1
   ISPIN = 1
   EDIFF = 1.d-5
   EDIFFG = -0.01
   NSW = 0
   NELM = 150
   ENCUT = 500
   ISIF = 2
   IBRION = 2
   LREAL = Auto
   ALGO = Fast
   ICHARG = 11
   LORBIT = 10
   LCHARG = .F.
   LWAVE = .F.

 POTCAR:    PAW_PBE Ag 02Apr2005
 POTCAR:    PAW_PBE Hf 20Jan2003
 POTCAR:    PAW_PBE N 08Apr2002
|           W    W    AA    RRRRR   N    N  II  N    N   GGGG   !!!           |
|           W    W   A  A   R    R  NN   N  II  NN   N  G    G  !!!           |
|           W    W  A    A  R    R  N N  N  II  N N  N  G       !!!           |
|           W WW W  AAAAAA  RRRRR   N  N N  II  N  N N  G  GGG   !            |
|           WW  WW  A    A  R   R   N   NN  II  N   NN  G    G                |
|           W    W  A    A  R    R  N    N  II  N    N   GGGG   !!!           |
|     For optimal performance we recommend to set                             |
|       NCORE = 2 up to number-of-cores-per-socket                            |
|     This setting can greatly improve the performance of VASP for DFT.       |
|     The default, NCORE=1 might be grossly inefficient on modern             |
|     multi-core architectures or massively parallel machines. Do your        |
|     Unfortunately you need to use the default for GW and RPA                |
|     calculations (for HF NCORE is supported but not extensively tested      |
|     yet).                                                                   |

 POTCAR:    PAW_PBE Ag 02Apr2005
   VRHFIN =Ag : s1 d10

   TITEL  = PAW_PBE Ag 02Apr2005
   POMASS =  107.868; ZVAL   =   11.000    mass and valenz
   ENMAX  =  249.844; ENMIN  =  187.383 eV

 POTCAR:    PAW_PBE Hf 20Jan2003
   VRHFIN =Hf: 6s5d

   TITEL  = PAW_PBE Hf 20Jan2003
   POMASS =  178.490; ZVAL   =    4.000    mass and valenz
   ENMAX  =  220.334; ENMIN  =  165.250 eV

 POTCAR:    PAW_PBE N 08Apr2002
   VRHFIN =N: s2p3

   TITEL  = PAW_PBE N 08Apr2002
   POMASS =   14.001; ZVAL   =    5.000    mass and valenz
   ENMAX  =  400.000; ENMIN  =  300.000 eV

 Optimization of the real space projectors (new method)

 maximal supplied QI-value         = 15.12
 optimisation between [QCUT,QGAM] = [ 11.34, 22.83] = [ 36.00,145.93] Ry
 Optimized for a Real-space Cutoff    1.43 Angstroem

   l    n(q)    QCUT    max X(q) W(low)/X(q) W(high)/X(q)  e(spline)
   2      9    11.338    53.897    0.16E-03    0.20E-03    0.28E-06
   2      9    11.338    52.416    0.16E-03    0.20E-03    0.29E-06
   0     10    11.338   122.045    0.31E-04    0.76E-04    0.15E-06
   0     10    11.338    73.629    0.30E-04    0.72E-04    0.15E-06
   1      9    11.338    15.255    0.20E-03    0.19E-04    0.17E-06
   1      9    11.338     9.562    0.16E-03    0.15E-04    0.14E-06
 Optimization of the real space projectors (new method)

[...]

   l    n(q)    QCUT    max X(q) W(low)/X(q) W(high)/X(q)  e(spline)
   2     10    11.350    48.111    0.20E-03    0.11E-03    0.41E-06
   2     10    11.350    40.545    0.19E-03    0.10E-03    0.39E-06
   0     11    11.350   121.658    0.22E-04    0.19E-04    0.24E-06
   0     11    11.350    71.177    0.17E-04    0.17E-04    0.23E-06
   1     11    11.350    14.183    0.25E-03    0.43E-03    0.12E-05
   1     11    11.350     8.257    0.17E-03    0.29E-03    0.81E-06
 Optimization of the real space projectors (new method)

 maximal supplied QI-value         = 25.13
 optimisation between [QCUT,QGAM] = [ 11.31, 22.87] = [ 35.82,146.48] Ry
 Optimized for a Real-space Cutoff    1.27 Angstroem

   l    n(q)    QCUT    max X(q) W(low)/X(q) W(high)/X(q)  e(spline)
   0      9    11.310    79.467    0.75E-04    0.16E-03    0.36E-06
   0      9    11.310    66.151    0.74E-04    0.16E-03    0.36E-06
   1      8    11.310    17.416    0.35E-03    0.12E-03    0.95E-06
   1      8    11.310    12.382    0.37E-03    0.13E-03    0.98E-06
  PAW_PBE Ag 02Apr2005                  :
  PAW_PBE Hf 20Jan2003                  :
  PAW_PBE N 08Apr2002                   :

 POSCAR: Ag-Hf-N2
  positions in direct lattice
  velocities in cartesian coordinates
 exchange correlation table for  LEXCH =        8
   RHO(1)=    0.500       N(1)  =     2000
   RHO(2)=  100.500       N(2)  =     4000

 VTST: version 3.2, (02/03/18)

 CHAIN: initializing optimizer

 OPT: Using VASP Conjugate-Gradient optimizer
 CHAIN: Read ICHAIN            0

 POSCAR: Ag-Hf-N2
  positions in direct lattice
  velocities in cartesian coordinates

 ion  position               nearest neighbor table
   1  0.000  0.000  0.238-   2 2.93   8 2.93   7 2.93   6 2.93   4 2.93  12 2.93  16 2.93  10 2.93
                             3 2.93
   2  0.333  0.000  0.238-   1 2.93   8 2.93   9 2.93   3 2.93   4 2.93   5 2.93  10 2.93  17 2.93
                            11 2.93
   3  0.667  0.000  0.238-   9 2.93   2 2.93   5 2.93  11 2.93   7 2.93  18 2.93   1 2.93   6 2.93
                            12 2.93
   4  0.000  0.333  0.238-   5 2.93   6 2.93   2 2.93   1 2.93   7 2.93  13 2.93  15 2.93   9 2.93
                            10 2.93
   5  0.333  0.333  0.238-   4 2.93   3 2.93   7 2.93   2 2.93   8 2.93  14 2.93  13 2.93  11 2.93
                             6 2.93
   6  0.667  0.333  0.238-   4 2.93   9 2.93   1 2.93  15 2.93   8 2.93  12 2.93   3 2.93   5 2.93
                            14 2.93
   7  0.000  0.667  0.238-   8 2.93   1 2.93   5 2.93   3 2.93   4 2.93  16 2.93  18 2.93  13 2.93
                             9 2.93
   8  0.333  0.667  0.238-   7 2.93   1 2.93   2 2.93   9 2.93   5 2.93  16 2.93   6 2.93  17 2.93
                            14 2.93
   9  0.667  0.667  0.238-   3 2.93   2 2.93   8 2.93   6 2.93  17 2.93   4 2.93  15 2.93   7 2.93
                            18 2.93
  10  0.111  0.111  0.346-  20 2.90  19 2.92  26 2.92  12 2.93  16 2.93  15 2.93  17 2.93  13 2.93
                            11 2.93   2 2.93   1 2.93   4 2.93
  11  0.444  0.111  0.346-  21 2.90  20 2.90  14 2.93  17 2.93  18 2.93   3 2.93  12 2.93  13 2.93
                            10 2.93   5 2.93   2 2.93  27 2.93
  12  0.778  0.111  0.346-  21 2.90  25 2.92  19 2.92  10 2.93  16 2.93  18 2.93  15 2.93  11 2.93
                             1 2.93  14 2.93   6 2.93   3 2.93
  13  0.111  0.444  0.346-  20 2.90  23 2.90  15 2.93  14 2.93  18 2.93  10 2.93  11 2.93  16 2.93
                             4 2.93   5 2.93   7 2.93  22 2.93
  14  0.444  0.444  0.346-  23 2.90  21 2.90  13 2.93  11 2.93  16 2.93   5 2.93  12 2.93  17 2.93
                             8 2.93  15 2.93   6 2.93  24 2.93
  15  0.778  0.444  0.346-  19 2.92  24 2.93  22 2.93  13 2.93  10 2.93  12 2.93  17 2.93  18 2.93
                             4 2.93   6 2.93   9 2.93  14 2.93
  16  0.111  0.778  0.346-  23 2.90  26 2.92  25 2.92  18 2.93  12 2.93  10 2.93  14 2.93  17 2.93
                            13 2.93   7 2.93   8 2.93   1 2.93
  17  0.444  0.778  0.346-  26 2.92  27 2.93  24 2.93  11 2.93  10 2.93   9 2.93  18 2.93  15 2.93
                            16 2.93   2 2.93  14 2.93   8 2.93
  18  0.778  0.778  0.346-  25 2.92  22 2.93  27 2.93  16 2.93  12 2.93  13 2.93  11 2.93  17 2.93
                            15 2.93   7 2.93   3 2.93   9 2.93
  19  0.889  0.222  0.454-  10 2.92  12 2.92  15 2.92  20 2.93  21 2.93  26 2.93  25 2.93  24 2.93
                            22 2.93  28 2.94  32 2.98  31 2.98
  20  0.222  0.222  0.452-  36 2.86  10 2.90  13 2.90  11 2.90  19 2.93  26 2.93  27 2.93  22 2.93
                            21 2.94  23 2.94  31 2.97  29 2.97
  21  0.556  0.222  0.452-  36 2.86  12 2.90  11 2.90  14 2.90  25 2.93  19 2.93  27 2.93  24 2.93
                            20 2.94  23 2.94  30 2.97  32 2.97
  22  0.889  0.556  0.454-  24 2.93  27 2.93  18 2.93  15 2.93  25 2.93  19 2.93  13 2.93  23 2.93
                            20 2.93  35 2.94  33 2.96  31 2.96
  23  0.222  0.556  0.452-  36 2.86  16 2.90  14 2.90  13 2.90  26 2.93  25 2.93  22 2.93  24 2.93
                            21 2.94  20 2.94  34 2.97  33 2.97
  24  0.556  0.556  0.454-  27 2.93  22 2.93  15 2.93  17 2.93  19 2.93  26 2.93  14 2.93  23 2.93
                            21 2.93  35 2.94  32 2.96  34 2.96
  25  0.889  0.889  0.454-  16 2.92  12 2.92  18 2.92  23 2.93  21 2.93  26 2.93  19 2.93  22 2.93
                            27 2.93  28 2.94  33 2.98  30 2.98
  26  0.222  0.889  0.454-  16 2.92  10 2.92  17 2.92  23 2.93  20 2.93  25 2.93  19 2.93  27 2.93
                            24 2.93  28 2.94  34 2.98  29 2.98
  27  0.556  0.889  0.454-  24 2.93  22 2.93  17 2.93  18 2.93  26 2.93  25 2.93  11 2.93  20 2.93
                            21 2.93  35 2.94  29 2.96  30 2.96
  28  0.000  0.000  0.562-  26 2.94  25 2.94  19 2.94  29 2.94  34 2.94  33 2.94  32 2.94  31 2.94
                            30 2.94
  29  0.333  0.003  0.563-  30 2.90  31 2.91  36 2.91  35 2.94  28 2.94  27 2.96  20 2.97  26 2.98
                            34 2.98
  30  0.664  0.003  0.563-  29 2.90  32 2.91  36 2.91  35 2.94  28 2.94  27 2.96  21 2.97  25 2.98
                            33 2.98
  31  0.003  0.333  0.563-  33 2.90  29 2.91  36 2.91  35 2.94  28 2.94  22 2.96  20 2.97  19 2.98
                            32 2.98
  32  0.664  0.333  0.563-  34 2.90  30 2.91  36 2.91  35 2.94  28 2.94  24 2.96  21 2.97  19 2.98
                            31 2.98
  33  0.003  0.664  0.563-  31 2.90  34 2.91  36 2.91  35 2.94  28 2.94  22 2.96  23 2.97  25 2.98
                            30 2.98
  34  0.333  0.664  0.563-  32 2.90  33 2.91  36 2.91  35 2.94  28 2.94  24 2.96  23 2.97  26 2.98
                            29 2.98
  35  0.667  0.667  0.563-  30 2.94  29 2.94  32 2.94  34 2.94  31 2.94  33 2.94  24 2.94  27 2.94
                            22 2.94
  36  0.333  0.333  0.556-  37 2.46  38 2.46  21 2.86  20 2.86  23 2.86  31 2.91  33 2.91  30 2.91
                            29 2.91  34 2.91  32 2.91
  37  0.267  0.336  0.664-  38 1.15  36 2.46
  38  0.398  0.336  0.664-  37 1.15  36 2.46

  LATTYP: Found a hexagonal cell.
 ALAT       =     8.7913665772
 C/A-ratio  =     2.5227160501

  Lattice vectors:

 A1 = (  -4.3956832886,  -7.6135467898,   0.0000000000)
 A2 = (   8.7913665771,   0.0000000000,   0.0000000000)
 A3 = (   0.0000000000,   0.0000000000,  22.1781215668)

Analysis of symmetry for initial positions (statically):
 Subroutine PRICEL returns:
 Original cell was already a primitive cell.

 Routine SETGRP: Setting up the symmetry group for a
 hexagonal supercell.

 Subroutine GETGRP returns: Found  2 space group operations
 (whereof  2 operations were pure point group operations)
 out of a pool of 24 trial point group operations.

The static configuration has the point symmetry C_1h.

Analysis of symmetry for dynamics (positions and initial velocities):
 Subroutine PRICEL returns:
 Original cell was already a primitive cell.

[...]

The dynamic configuration has the point symmetry C_1h.

Analysis of constrained symmetry for selective dynamics:
 Subroutine PRICEL returns:
 Original cell was already a primitive cell.

 Routine SETGRP: Setting up the symmetry group for a
 hexagonal supercell.

[...]
     33      -4.4708      2.00000
     34      -4.4647      2.00000
     35      -4.4444      2.00000
     36      -4.4302      2.00000
     37      -4.4055      2.00000
     38      -4.3942      2.00000
     39      -4.3726      2.00000
     40      -4.3604      2.00000
     41      -4.3213      2.00000
     42      -4.2826      2.00000
     43      -4.2529      2.00000
     44      -4.2484      2.00000
     45      -4.2404      2.00000
     46      -4.2306      2.00000
     47      -4.2181      2.00000
     48      -4.1302      2.00000
     49      -4.1099      2.00000
     50      -4.1010      2.00000
     51      -4.0872      2.00000
     52      -4.0789      2.00000
     53      -4.0770      2.00000
     54      -4.0676      2.00000
     55      -4.0581      2.00000
     56      -4.0480      2.00000
     57      -4.0432      2.00000
     58      -3.9888      2.00000
     59      -3.9781      2.00000
     60      -3.9647      2.00000
[...]
    238       6.1443      0.00000
    239       6.3157      0.00000
    240       6.3662      0.00000
    241       6.4433      0.00000
    242       6.4442      0.00000
    243       6.5602      0.00000
    244       7.0605      0.00000
    245       7.3350      0.00000
    246       7.3487      0.00000
    247       7.3898      0.00000
    248       7.3970      0.00000
    249       7.4291      0.00000
    250       7.4984      0.00000
    251       7.6342      0.00000
    252       7.6677      0.00000

 soft charge-density along one line, spin component           1
         0         1         2         3         4         5         6         7         8         9
 total charge-density along one line

------------------------ aborting loop because EDIFF is reached ----------------------------------------

 total charge

# of ion       s       p       d       tot
    1        0.421   0.200   9.177   9.799
    2        0.415   0.204   9.177   9.796
    3        0.415   0.204   9.177   9.796
    4        0.413   0.204   9.178   9.795
    5        0.420   0.202   9.176   9.797
    6        0.413   0.204   9.178   9.795
    7        0.414   0.204   9.177   9.795
    8        0.414   0.204   9.177   9.795
    9        0.417   0.202   9.177   9.796
   10        0.411   0.270   9.161   9.842
   11        0.407   0.269   9.167   9.842
   12        0.411   0.270   9.161   9.842
   13        0.405   0.268   9.169   9.841
   14        0.405   0.268   9.169   9.841
   15        0.403   0.268   9.164   9.835
   16        0.410   0.270   9.162   9.841
   17        0.402   0.269   9.165   9.836
   18        0.402   0.269   9.165   9.836
   19        0.400   0.266   9.165   9.831
   20        0.442   0.302   9.129   9.873
   21        0.442   0.302   9.129   9.873
   22        0.394   0.271   9.165   9.830
   23        0.439   0.299   9.133   9.871
   24        0.394   0.271   9.165   9.830
   25        0.405   0.263   9.166   9.834
   26        0.405   0.263   9.166   9.834
   27        0.397   0.270   9.165   9.831
   28        0.408   0.206   9.171   9.785
   29        0.455   0.221   9.145   9.822
   30        0.455   0.221   9.145   9.822
   31        0.448   0.218   9.152   9.818
   32        0.448   0.218   9.152   9.818
   33        0.454   0.221   9.147   9.822
   34        0.454   0.221   9.147   9.822
   35        0.406   0.206   9.173   9.785
   36        0.546   0.446   1.844   2.836
   37        1.354   2.451   0.000   3.805
   38        1.354   2.451   0.000   3.805
tot         17.897  13.839 322.533 354.269

  FORCE on cell =-STRESS in cart. coord.  units (eV):
  Direction    XX          YY          ZZ          XY          YZ          ZX
  Alpha Z   761.20359   761.20359   761.20359
  Ewald  116386.22853116085.25134************     0.00000    -1.84798     0.00003
  Hartree126473.50149126368.42772************     0.00000    -2.02774     0.00001
  E(xc)   -2086.36737 -2087.00106 -2092.78569     0.00007    -0.03435    -0.00001
  Local  ************************253518.97023     0.00087     3.96750    -0.00013
  n-local  -335.53815  -321.52476  -330.30371     2.46009    -0.31964     0.15429
  augment  3220.56762  3219.70279  3234.85438    -0.00017     0.08147     0.00000
  Kinetic  4978.96385  4987.95256  5027.19601     0.69431     0.03786    -0.01874
  Fock        0.00000     0.00000     0.00000     0.00000     0.00000     0.00000
  Total      -7.75938    -7.41488    -0.88781    -0.00000    -0.14288    -0.00000
  in kB      -8.37471    -8.00288    -0.95822    -0.00000    -0.15421    -0.00000

 VOLUME and BASIS-vectors are now :
  energy-cutoff  :      500.00
  volume of cell :     1484.46
      direct lattice vectors                 reciprocal lattice vectors
     8.791366577  0.000000000  0.000000000     0.113747958 -0.065672414  0.000000000
     4.395683289  7.613546790  0.000000000     0.000000000  0.131344829  0.000000000
     0.000000000  0.000000000 22.178121567     0.000000000  0.000000000  0.045089481

  length of vectors
     8.791366577  8.791366577 22.178121567     0.131344829  0.131344829  0.045089481

 FORCES acting on ions
    electron-ion (+dipol)            ewald-force                    non-local-force                 convergence-correction
   0.459E-04 0.114E+00 0.249E+04   -.953E-04 -.815E-02 -.248E+04   -.524E-12 -.798E-01 -.176E+01   -.830E-04 -.292E-01 0.768E-01
   -.345E+00 -.138E+00 0.249E+04   0.302E+00 0.673E-01 -.248E+04   0.379E-01 0.117E+00 -.156E+01   0.102E-01 -.530E-01 0.109E+00
   0.345E+00 -.138E+00 0.249E+04   -.302E+00 0.674E-01 -.248E+04   -.379E-01 0.117E+00 -.156E+01   -.107E-01 -.511E-01 0.109E+00
   -.383E+00 -.275E+00 0.249E+04   0.216E+00 0.221E+00 -.248E+04   0.199E+00 -.268E-01 -.171E+01   -.344E-01 0.766E-01 0.132E+00
   -.730E-05 0.445E-02 0.248E+04   0.980E-04 -.264E-02 -.248E+04   -.228E-12 -.346E-01 -.128E+01   0.618E-02 0.354E-01 0.245E+00
   0.383E+00 -.275E+00 0.249E+04   -.217E+00 0.221E+00 -.248E+04   -.199E+00 -.268E-01 -.171E+01   0.330E-01 0.775E-01 0.133E+00
   0.775E-01 0.363E+00 0.249E+04   -.857E-01 -.289E+00 -.248E+04   0.617E-01 -.626E-01 -.161E+01   -.490E-01 -.873E-02 0.988E-01
   -.775E-01 0.363E+00 0.249E+04   0.857E-01 -.289E+00 -.248E+04   -.617E-01 -.626E-01 -.161E+01   0.506E-01 -.967E-02 0.988E-01
   0.365E-04 0.299E-02 0.248E+04   0.792E-04 0.108E-01 -.248E+04   0.246E-12 0.375E-01 -.164E+01   -.663E-02 -.424E-01 0.124E+00
   -.742E+00 -.434E+00 0.834E+03   0.107E+01 0.540E+00 -.833E+03   -.306E+00 -.167E+00 -.698E+00   -.413E-01 0.435E-01 0.106E+00
   -.284E-04 -.123E+01 0.828E+03   0.400E-04 0.102E+01 -.827E+03   0.777E-12 0.118E+00 -.270E+00   0.617E-02 0.319E-01 0.494E-01
   0.742E+00 -.434E+00 0.834E+03   -.107E+01 0.540E+00 -.833E+03   0.306E+00 -.167E+00 -.698E+00   0.400E-01 0.441E-01 0.105E+00
   -.110E+01 0.575E+00 0.828E+03   0.948E+00 -.511E+00 -.828E+03   0.136E+00 -.634E-01 -.212E+00   -.251E-01 0.382E-01 0.682E-01
   0.110E+01 0.575E+00 0.828E+03   -.948E+00 -.511E+00 -.828E+03   -.136E+00 -.634E-01 -.212E+00   0.354E-01 0.373E-01 0.665E-01
   0.153E-04 -.114E+01 0.832E+03   -.107E-03 0.111E+01 -.831E+03   0.437E-13 0.666E-02 -.743E+00   -.126E-02 0.119E-01 0.780E-01
   -.815E-05 0.896E+00 0.834E+03   0.206E-04 -.119E+01 -.833E+03   0.229E-11 0.349E+00 -.554E+00   -.969E-04 -.232E-01 0.145E+00
   -.102E+01 0.600E+00 0.832E+03   0.936E+00 -.498E+00 -.831E+03   0.594E-01 -.125E-01 -.550E+00   0.106E-01 -.883E-01 0.886E-01
   0.102E+01 0.600E+00 0.832E+03   -.936E+00 -.497E+00 -.831E+03   -.594E-01 -.125E-01 -.550E+00   -.104E-01 -.867E-01 0.894E-01
   0.389E-04 -.606E+01 -.826E+03   -.125E-03 0.603E+01 0.825E+03   0.583E-12 0.888E-01 0.937E+00   0.112E-02 -.578E-01 -.559E-01
   -.367E+02 -.205E+02 -.857E+03   0.378E+02 0.213E+02 0.858E+03   -.106E+01 -.688E+00 -.740E+00   -.146E+00 -.144E+00 -.176E+00
   0.367E+02 -.205E+02 -.857E+03   -.378E+02 0.213E+02 0.858E+03   0.106E+01 -.688E+00 -.740E+00   0.135E+00 -.144E+00 -.176E+00
   -.158E+02 0.861E+01 -.832E+03   0.156E+02 -.856E+01 0.831E+03   0.183E+00 -.121E+00 0.495E+00   -.465E-01 0.621E-01 -.139E+00
   -.502E-04 0.417E+02 -.858E+03   0.353E-04 -.430E+02 0.858E+03   0.769E-11 0.117E+01 -.356E+00   -.557E-02 0.243E+00 -.129E+00
   0.158E+02 0.861E+01 -.832E+03   -.156E+02 -.856E+01 0.831E+03   -.183E+00 -.121E+00 0.495E+00   0.482E-01 0.628E-01 -.139E+00
   0.548E+01 0.333E+01 -.826E+03   -.555E+01 -.329E+01 0.826E+03   -.121E-01 -.122E-01 0.827E+00   0.840E-01 -.116E-01 0.192E-01
   -.548E+01 0.333E+01 -.826E+03   0.555E+01 -.329E+01 0.826E+03   0.121E-01 -.122E-01 0.827E+00   -.838E-01 -.105E-01 0.196E-01
   0.191E-04 -.183E+02 -.833E+03   0.110E-03 0.181E+02 0.832E+03   0.130E-11 0.199E+00 0.534E+00   -.316E-03 -.576E-01 -.514E-01
   0.542E-04 0.196E+01 -.241E+04   -.115E-03 -.195E+01 0.241E+04   0.392E-12 0.596E-01 0.152E+01   0.315E-03 -.783E-01 -.251E+00
   -.147E+02 -.246E+02 -.239E+04   0.156E+02 0.260E+02 0.239E+04   -.940E+00 -.137E+01 0.961E+00   -.498E-01 -.185E+00 -.240E+00
   0.147E+02 -.246E+02 -.239E+04   -.156E+02 0.260E+02 0.239E+04   0.940E+00 -.137E+01 0.961E+00   0.489E-01 -.184E+00 -.240E+00
   -.260E+02 0.284E+01 -.239E+04   0.275E+02 -.272E+01 0.238E+04   -.139E+01 -.118E+00 0.135E+01   -.164E+00 -.527E-02 -.244E+00
   0.260E+02 0.284E+01 -.239E+04   -.275E+02 -.272E+01 0.238E+04   0.139E+01 -.118E+00 0.135E+01   0.164E+00 -.434E-02 -.243E+00
   -.181E+02 0.213E+02 -.239E+04   0.188E+02 -.228E+02 0.239E+04   -.712E+00 0.148E+01 0.105E+01   -.361E-01 0.200E+00 -.271E+00
   0.181E+02 0.213E+02 -.239E+04   -.188E+02 -.228E+02 0.239E+04   0.712E+00 0.148E+01 0.105E+01   0.374E-01 0.200E+00 -.271E+00
   0.249E-04 -.245E+01 -.242E+04   0.104E-03 0.248E+01 0.242E+04   -.468E-12 -.712E-01 0.168E+01   -.627E-02 0.581E-01 -.167E+00
   -.185E-04 0.577E+00 -.786E+03   0.378E-04 -.583E+00 0.785E+03   -.495E-12 -.754E-01 0.183E+01   0.262E-04 -.146E-02 -.105E+00
   0.210E+03 0.384E+00 -.116E+04   -.252E+03 -.445E+00 0.117E+04   0.418E+02 0.711E-01 -.663E+01   -.959E-01 -.196E-02 -.233E-02
   -.210E+03 0.384E+00 -.116E+04   0.252E+03 -.445E+00 0.117E+04   -.418E+02 0.711E-01 -.663E+01   0.959E-01 -.193E-02 -.238E-02
   0.411E-03 0.218E+00 0.192E+02   0.568E-13 -.399E-13 -.227E-11   -.106E-11 -.163E+00 -.182E+02   -.582E-02 -.571E-01 -.940E+00

 POSITION                                       TOTAL-FORCE (eV/Angst)
      0.00000      0.00000      5.28219        -0.000000     -0.003100     -0.023225
      2.93046      0.00000      5.28219         0.005316     -0.005400      0.035206
      5.86091      0.00000      5.28219        -0.005316     -0.005400      0.035206
      1.46523      2.53785      5.28219        -0.001252     -0.003075      0.027636
      4.39568      2.53785      5.28219         0.000000      0.002588      0.007145
      7.32614      2.53785      5.28219         0.001252     -0.003075      0.027636
      2.93046      5.07570      5.28219         0.003713      0.002783      0.031479
      5.86091      5.07570      5.28219        -0.003713      0.002783      0.031479
      8.79137      5.07570      5.28219         0.000000      0.008802      0.009325
      1.46523      0.84595      7.67490        -0.023856     -0.017405     -0.063547
      4.39568      0.84595      7.67490        -0.000000     -0.060194     -0.058986
      7.32614      0.84595      7.67490         0.023856     -0.017405     -0.063547
      2.93046      3.38380      7.67490        -0.045514      0.038429     -0.078249
      5.86091      3.38380      7.67490         0.045514      0.038429     -0.078249
      8.79137      3.38380      7.67490        -0.000000     -0.006678      0.013069
      4.39568      5.92165      7.67490         0.000000      0.030806     -0.063024
      7.32614      5.92165      7.67490        -0.011293      0.002813      0.033866
     10.25659      5.92165      7.67490         0.011293      0.002813      0.033866
      8.79137      1.69178     10.05827         0.000000      0.003088      0.052013
      2.92613      1.68940     10.03306        -0.043959      0.009834     -0.022933
      5.86523      1.68940     10.03306         0.043959      0.009834     -0.022933
     10.25456      4.23092     10.06776         0.010145     -0.013368      0.036216
      4.39568      4.23474     10.03306         0.000000      0.033086     -0.032997
      7.32817      4.23092     10.06776        -0.010145     -0.013368      0.036216
     11.72193      6.76766     10.05827         0.002406      0.013351     -0.005964
      5.86080      6.76766     10.05827        -0.002406      0.013351     -0.005964
      8.79137      6.76525     10.06776         0.000000      0.012321      0.015625
      0.00000      0.00000     12.45716        -0.000000     -0.005925     -0.000332
      2.94326      0.02074     12.49530        -0.075260     -0.131277     -0.133393
      5.84810      0.02074     12.49530         0.075260     -0.131277     -0.133393
      1.48959      2.53857     12.49530        -0.106313     -0.001162     -0.100051
      7.30177      2.53857     12.49530         0.106313     -0.001162     -0.100051
      2.94201      5.05424     12.49530        -0.085817      0.122913     -0.143998
      5.84935      5.05424     12.49530         0.085817      0.122913     -0.143998
      8.79137      5.07570     12.47846         0.000000      0.013934     -0.017749
      4.39568      2.53785     12.33403        -0.000000     -0.081875      0.931937
      3.81818      2.55450     14.72189        -0.079406      0.008137     -0.032669
      4.97318      2.55450     14.72189         0.079406      0.008137     -0.032669
    total drift:                               -0.005407     -0.002291      0.071023

  FREE ENERGIE OF THE ION-ELECTRON SYSTEM (eV)
  free  energy   TOTEN  =      -114.51915485 eV

  energy  without entropy=     -114.51915485  energy(sigma->0) =     -114.51915485

 stress matrix after NEB project (eV)
     -7.75938     -0.00000     -0.00000
     -0.00000     -7.41488     -0.14288
     -0.00000     -0.14288     -0.88781
  FORCES: max atom, RMS     0.086248    0.019787
  FORCE total and by dimension    0.121973    0.079406
  Stress total and by dimension   10.771142    7.759384
|           W    W    AA    RRRRR   N    N  II  N    N   GGGG   !!!           |
|           W    W   A  A   R    R  NN   N  II  NN   N  G    G  !!!           |
|           W    W  A    A  R    R  N N  N  II  N N  N  G       !!!           |
|           W WW W  AAAAAA  RRRRR   N  N N  II  N  N N  G  GGG   !            |
|           WW  WW  A    A  R   R   N   NN  II  N   NN  G    G                |
|           W    W  A    A  R    R  N    N  II  N    N   GGGG   !!!           |
|     Tetrahedron method does not include variations of the Fermi             |
|     occupations, so forces and stress will be inaccurate. We suggest        |
|     using a different smearing scheme ISMEAR = 1 or 2 for metals in         |
|     relaxations.                                                            |

 total charge

# of ion       s       p       d       tot
    1        0.421   0.200   9.177   9.799
    2        0.415   0.204   9.177   9.796
    3        0.415   0.204   9.177   9.796
    4        0.413   0.204   9.178   9.795
    5        0.420   0.202   9.176   9.797
    6        0.413   0.204   9.178   9.795
    7        0.414   0.204   9.177   9.795
    8        0.414   0.204   9.177   9.795
    9        0.417   0.202   9.177   9.796
   10        0.411   0.270   9.161   9.842
   11        0.407   0.269   9.167   9.842
   12        0.411   0.270   9.161   9.842
   13        0.405   0.268   9.169   9.841
   14        0.405   0.268   9.169   9.841
   15        0.403   0.268   9.164   9.835
   16        0.410   0.270   9.162   9.841
   17        0.402   0.269   9.165   9.836
   18        0.402   0.269   9.165   9.836
   19        0.400   0.266   9.165   9.831
   20        0.442   0.302   9.129   9.873
   21        0.442   0.302   9.129   9.873
   22        0.394   0.271   9.165   9.830
   23        0.439   0.299   9.133   9.871
   24        0.394   0.271   9.165   9.830
   25        0.405   0.263   9.166   9.834
   26        0.405   0.263   9.166   9.834
   27        0.397   0.270   9.165   9.831
   28        0.408   0.206   9.171   9.785
   29        0.455   0.221   9.145   9.822
   30        0.455   0.221   9.145   9.822
   31        0.448   0.218   9.152   9.818
   32        0.448   0.218   9.152   9.818
   33        0.454   0.221   9.147   9.822
   34        0.454   0.221   9.147   9.822
   35        0.406   0.206   9.173   9.785
   36        0.546   0.446   1.844   2.836
   37        1.354   2.451   0.000   3.805
   38        1.354   2.451   0.000   3.805
tot         17.897  13.839 322.533 354.269

 BZINTS: Fermi energy:    0.969752;  399.000000 electrons
         Band energy:-0.133214E+04;  BLOECHL correction:   -0.027784