 vasp.6.2.0 18Jan21 (build Jun 12 2021 23:27:24) complex

 executed on             LinuxIFC date 2022.05.27  05:48:41

 INCAR:
   ISMEAR = -5
   SIGMA = 0.1
   ISPIN = 1
   EDIFF = 1.d-5
   EDIFFG = -0.01
   NSW = 0
   NELM = 150
   ENCUT = 500
   ISIF = 2
   IBRION = 2
   LREAL = Auto
   ALGO = Fast
   ICHARG = 11
   LORBIT = 10
   LCHARG = .F.
   LWAVE = .F.

 POTCAR:    PAW_PBE Ag 02Apr2005
 POTCAR:    PAW_PBE Ta 17Jan2003
 POTCAR:    PAW_PBE H 15Jun2001
|           W    W    AA    RRRRR   N    N  II  N    N   GGGG   !!!           |
|           W    W   A  A   R    R  NN   N  II  NN   N  G    G  !!!           |
|           W    W  A    A  R    R  N N  N  II  N N  N  G       !!!           |
|           W WW W  AAAAAA  RRRRR   N  N N  II  N  N N  G  GGG   !            |
|           WW  WW  A    A  R   R   N   NN  II  N   NN  G    G                |
|           W    W  A    A  R    R  N    N  II  N    N   GGGG   !!!           |
|     For optimal performance we recommend to set                             |
|       NCORE = 2 up to number-of-cores-per-socket                            |
|     This setting can greatly improve the performance of VASP for DFT.       |
|     The default, NCORE=1 might be grossly inefficient on modern             |
|     multi-core architectures or massively parallel machines. Do your        |
|     Unfortunately you need to use the default for GW and RPA                |
|     calculations (for HF NCORE is supported but not extensively tested      |
|     yet).                                                                   |

 POTCAR:    PAW_PBE Ag 02Apr2005
   VRHFIN =Ag : s1 d10

   TITEL  = PAW_PBE Ag 02Apr2005
   POMASS =  107.868; ZVAL   =   11.000    mass and valenz
   ENMAX  =  249.844; ENMIN  =  187.383 eV

 POTCAR:    PAW_PBE Ta 17Jan2003
   VRHFIN =Ta:  6s5d

   TITEL  = PAW_PBE Ta 17Jan2003
   POMASS =  180.948; ZVAL   =    5.000    mass and valenz
   ENMAX  =  223.667; ENMIN  =  167.750 eV

 POTCAR:    PAW_PBE H 15Jun2001
   VRHFIN =H: ultrasoft test

   TITEL  = PAW_PBE H 15Jun2001
   POMASS =    1.000; ZVAL   =    1.000    mass and valenz
   ENMAX  =  250.000; ENMIN  =  200.000 eV

 Optimization of the real space projectors (new method)

 maximal supplied QI-value         = 15.12
 optimisation between [QCUT,QGAM] = [ 11.34, 22.83] = [ 36.00,145.93] Ry
 Optimized for a Real-space Cutoff    1.43 Angstroem

   l    n(q)    QCUT    max X(q) W(low)/X(q) W(high)/X(q)  e(spline)
   2      9    11.338    53.897    0.16E-03    0.20E-03    0.28E-06
   2      9    11.338    52.416    0.16E-03    0.20E-03    0.29E-06
   0     10    11.338   122.045    0.31E-04    0.76E-04    0.15E-06
   0     10    11.338    73.629    0.30E-04    0.72E-04    0.15E-06
   1      9    11.338    15.255    0.20E-03    0.19E-04    0.17E-06
   1      9    11.338     9.562    0.16E-03    0.15E-04    0.14E-06
 Optimization of the real space projectors (new method)

[...]

   l    n(q)    QCUT    max X(q) W(low)/X(q) W(high)/X(q)  e(spline)
   2     10    11.437    62.315    0.14E-03    0.26E-03    0.80E-06
   2     10    11.437    52.185    0.14E-03    0.26E-03    0.80E-06
   0     11    11.437   103.837    0.25E-04    0.17E-04    0.84E-07
   0     11    11.437    59.728    0.20E-04    0.15E-04    0.73E-07
   1     11    11.437    13.958    0.47E-03    0.12E-03    0.89E-06
   1     11    11.437     8.441    0.33E-03    0.88E-04    0.61E-06
 Optimization of the real space projectors (new method)

 maximal supplied QI-value         = 34.20
 optimisation between [QCUT,QGAM] = [ 11.29, 22.57] = [ 35.68,142.71] Ry
 Optimized for a Real-space Cutoff    1.16 Angstroem

   l    n(q)    QCUT    max X(q) W(low)/X(q) W(high)/X(q)  e(spline)
   0      8    11.287    19.460    0.40E-03    0.73E-03    0.16E-06
   0      8    11.287    12.209    0.38E-03    0.70E-03    0.15E-06
   1      7    11.287     4.655    0.22E-03    0.25E-04    0.22E-06
  PAW_PBE Ag 02Apr2005                  :
  PAW_PBE Ta 17Jan2003                  :
  PAW_PBE H 15Jun2001                   :

 POSCAR: Ag-Ta-H2
  positions in direct lattice
  velocities in cartesian coordinates
 exchange correlation table for  LEXCH =        8
   RHO(1)=    0.500       N(1)  =     2000
   RHO(2)=  100.500       N(2)  =     4000

 VTST: version 3.2, (02/03/18)

 CHAIN: initializing optimizer

 OPT: Using VASP Conjugate-Gradient optimizer
 CHAIN: Read ICHAIN            0

 POSCAR: Ag-Ta-H2
  positions in direct lattice
  velocities in cartesian coordinates

 ion  position               nearest neighbor table
   1  0.000  0.000  0.238-   2 2.93   8 2.93   7 2.93   6 2.93   4 2.93  12 2.93  16 2.93  10 2.93
                             3 2.93
   2  0.333  0.000  0.238-   1 2.93   8 2.93   9 2.93   3 2.93   4 2.93   5 2.93  10 2.93  17 2.93
                            11 2.93
   3  0.667  0.000  0.238-   9 2.93   2 2.93   5 2.93  11 2.93   7 2.93  18 2.93   1 2.93   6 2.93
                            12 2.93
   4  0.000  0.333  0.238-   5 2.93   6 2.93   2 2.93   1 2.93   7 2.93  13 2.93  15 2.93   9 2.93
                            10 2.93
   5  0.333  0.333  0.238-   4 2.93   3 2.93   7 2.93   2 2.93   8 2.93  14 2.93  13 2.93  11 2.93
                             6 2.93
   6  0.667  0.333  0.238-   4 2.93   9 2.93   1 2.93  15 2.93   8 2.93  12 2.93   3 2.93   5 2.93
                            14 2.93
   7  0.000  0.667  0.238-   8 2.93   1 2.93   5 2.93   3 2.93   4 2.93  16 2.93  18 2.93  13 2.93
                             9 2.93
   8  0.333  0.667  0.238-   7 2.93   1 2.93   2 2.93   9 2.93   5 2.93  16 2.93   6 2.93  17 2.93
                            14 2.93
   9  0.667  0.667  0.238-   3 2.93   2 2.93   8 2.93   6 2.93  17 2.93   4 2.93  15 2.93   7 2.93
                            18 2.93
  10  0.111  0.111  0.346-  20 2.89  12 2.93  16 2.93  15 2.93  17 2.93  13 2.93  11 2.93   2 2.93
                             1 2.93   4 2.93  19 2.93  26 2.93
  11  0.444  0.111  0.346-  21 2.90  20 2.90  14 2.93  17 2.93  18 2.93   3 2.93  12 2.93  13 2.93
                            10 2.93   5 2.93   2 2.93  27 2.93
  12  0.778  0.111  0.346-  21 2.89  10 2.93  16 2.93  18 2.93  15 2.93  11 2.93   1 2.93  14 2.93
                             6 2.93   3 2.93  25 2.93  19 2.93
  13  0.111  0.444  0.346-  20 2.90  23 2.90  15 2.93  14 2.93  18 2.93  10 2.93  11 2.93  16 2.93
                             4 2.93   5 2.93   7 2.93  22 2.93
  14  0.444  0.444  0.346-  23 2.90  21 2.90  13 2.93  11 2.93  16 2.93   5 2.93  12 2.93  17 2.93
                             8 2.93  15 2.93   6 2.93  24 2.93
  15  0.778  0.444  0.346-  19 2.93  24 2.93  22 2.93  13 2.93  10 2.93  12 2.93  17 2.93  18 2.93
                             4 2.93   6 2.93   9 2.93  14 2.93
  16  0.111  0.778  0.346-  23 2.89  18 2.93  12 2.93  10 2.93  14 2.93  17 2.93  13 2.93   7 2.93
                             8 2.93   1 2.93  26 2.93  25 2.93
  17  0.444  0.778  0.346-  26 2.93  27 2.93  24 2.93  11 2.93  10 2.93   9 2.93  18 2.93  15 2.93
                            16 2.93   2 2.93  14 2.93   8 2.93
  18  0.778  0.778  0.346-  25 2.93  22 2.93  27 2.93  16 2.93  12 2.93  13 2.93  11 2.93  17 2.93
                            15 2.93   7 2.93   3 2.93   9 2.93
  19  0.889  0.223  0.454-  20 2.92  21 2.92  24 2.93  22 2.93  28 2.93  15 2.93  10 2.93  12 2.93
                            26 2.94  25 2.94  32 2.99  31 2.99
  20  0.222  0.222  0.452-  36 2.78  10 2.89  13 2.90  11 2.90  19 2.92  26 2.92  27 2.93  22 2.93
                            21 2.95  23 2.95  31 2.97  29 2.97
  21  0.557  0.222  0.452-  36 2.78  12 2.89  11 2.90  14 2.90  25 2.92  19 2.92  27 2.93  24 2.93
                            20 2.95  23 2.95  30 2.97  32 2.97
  22  0.888  0.556  0.454-  24 2.92  27 2.92  25 2.93  19 2.93  18 2.93  15 2.93  13 2.93  23 2.93
                            20 2.93  35 2.94  33 2.96  31 2.96
  23  0.222  0.557  0.452-  36 2.78  16 2.89  14 2.90  13 2.90  26 2.92  25 2.92  22 2.93  24 2.93
                            21 2.95  20 2.95  34 2.97  33 2.97
  24  0.556  0.556  0.454-  27 2.92  22 2.92  19 2.93  26 2.93  15 2.93  17 2.93  14 2.93  23 2.93
                            21 2.93  35 2.94  32 2.96  34 2.96
  25  0.889  0.889  0.454-  23 2.92  21 2.92  22 2.93  27 2.93  28 2.93  18 2.93  16 2.93  12 2.93
                            26 2.94  19 2.94  33 2.99  30 2.99
  26  0.223  0.889  0.454-  23 2.92  20 2.92  27 2.93  24 2.93  28 2.93  17 2.93  16 2.93  10 2.93
                            25 2.94  19 2.94  34 2.99  29 2.99
  27  0.556  0.888  0.454-  24 2.92  22 2.92  26 2.93  25 2.93  17 2.93  18 2.93  11 2.93  20 2.93
                            21 2.93  35 2.94  29 2.96  30 2.96
  28  0.000  0.000  0.562-  26 2.93  25 2.93  19 2.93  29 2.96  34 2.96  33 2.96  32 2.96  31 2.96
                            30 2.96
  29  0.334  0.006  0.564-  30 2.88  31 2.88  36 2.89  35 2.96  28 2.96  27 2.96  20 2.97  26 2.99
                            34 3.03
  30  0.661  0.006  0.564-  29 2.88  32 2.88  36 2.89  35 2.96  28 2.96  27 2.96  21 2.97  25 2.99
                            33 3.03
  31  0.006  0.334  0.564-  33 2.88  29 2.88  36 2.89  35 2.96  28 2.96  22 2.96  20 2.97  19 2.99
                            32 3.03
  32  0.661  0.334  0.564-  34 2.88  30 2.88  36 2.89  35 2.96  28 2.96  24 2.96  21 2.97  19 2.99
                            31 3.03
  33  0.006  0.661  0.564-  31 2.88  34 2.88  36 2.89  35 2.96  28 2.96  22 2.96  23 2.97  25 2.99
                            30 3.03
  34  0.334  0.661  0.564-  32 2.88  33 2.88  36 2.89  35 2.96  28 2.96  24 2.96  23 2.97  26 2.99
                            29 3.03
  35  0.667  0.667  0.562-  24 2.94  27 2.94  22 2.94  30 2.96  32 2.96  29 2.96  34 2.96  31 2.96
                            33 2.96
  36  0.333  0.333  0.551-  37 1.90  38 1.90  21 2.78  20 2.78  23 2.78  31 2.89  33 2.89  30 2.89
                            29 2.89  34 2.89  32 2.89
  37  0.280  0.337  0.635-  36 1.90
  38  0.382  0.337  0.635-  36 1.90

  LATTYP: Found a hexagonal cell.
 ALAT       =     8.7913665772
 C/A-ratio  =     2.5227160501

  Lattice vectors:

 A1 = (  -4.3956832886,  -7.6135467898,   0.0000000000)
 A2 = (   8.7913665771,   0.0000000000,   0.0000000000)
 A3 = (   0.0000000000,   0.0000000000,  22.1781215668)

Analysis of symmetry for initial positions (statically):
 Subroutine PRICEL returns:
 Original cell was already a primitive cell.

 Routine SETGRP: Setting up the symmetry group for a
 hexagonal supercell.

 Subroutine GETGRP returns: Found  2 space group operations
 (whereof  2 operations were pure point group operations)
 out of a pool of 24 trial point group operations.

The static configuration has the point symmetry C_1h.

Analysis of symmetry for dynamics (positions and initial velocities):
 Subroutine PRICEL returns:
 Original cell was already a primitive cell.

[...]

The dynamic configuration has the point symmetry C_1h.

Analysis of constrained symmetry for selective dynamics:
 Subroutine PRICEL returns:
 Original cell was already a primitive cell.

 Routine SETGRP: Setting up the symmetry group for a
 hexagonal supercell.

 Subroutine GETGRP returns: Found  2 space group operations
[...]
     33      -4.4741      2.00000
     34      -4.4707      2.00000
     35      -4.4395      2.00000
     36      -4.4150      2.00000
     37      -4.3940      2.00000
     38      -4.3560      2.00000
     39      -4.3265      2.00000
     40      -4.3255      2.00000
     41      -4.3107      2.00000
     42      -4.3008      2.00000
     43      -4.2853      2.00000
     44      -4.1970      2.00000
     45      -4.1766      2.00000
     46      -4.1613      2.00000
     47      -4.1519      2.00000
     48      -4.1483      2.00000
     49      -4.1427      2.00000
     50      -4.1408      2.00000
     51      -4.1383      2.00000
     52      -4.1206      2.00000
     53      -4.1153      2.00000
     54      -4.0535      2.00000
     55      -4.0451      2.00000
     56      -4.0349      2.00000
     57      -4.0187      2.00000
     58      -4.0056      2.00000
     59      -3.9863      2.00000
     60      -3.9750      2.00000
[...]
    238       6.9574      0.00000
    239       7.1466      0.00000
    240       7.2393      0.00000
    241       7.2554      0.00000
    242       7.2806      0.00000
    243       7.3085      0.00000
    244       7.3335      0.00000
    245       7.3946      0.00000
    246       7.4919      0.00000
    247       7.6129      0.00000
    248       7.6352      0.00000
    249       7.7159      0.00000
    250       7.8839      0.00000
    251       7.9302      0.00000
    252       8.0493      0.00000

 soft charge-density along one line, spin component           1
         0         1         2         3         4         5         6         7         8         9
 total charge-density along one line

------------------------ aborting loop because EDIFF is reached ----------------------------------------

 total charge

# of ion       s       p       d       tot
    1        0.421   0.199   9.178   9.799
    2        0.414   0.204   9.176   9.795
    3        0.414   0.204   9.176   9.795
    4        0.413   0.204   9.178   9.795
    5        0.423   0.201   9.174   9.798
    6        0.413   0.204   9.178   9.795
    7        0.413   0.204   9.178   9.794
    8        0.413   0.204   9.178   9.794
    9        0.416   0.201   9.179   9.796
   10        0.411   0.269   9.161   9.840
   11        0.408   0.266   9.169   9.843
   12        0.411   0.269   9.161   9.840
   13        0.407   0.266   9.169   9.843
   14        0.407   0.266   9.169   9.843
   15        0.402   0.268   9.163   9.834
   16        0.412   0.269   9.160   9.841
   17        0.403   0.267   9.164   9.835
   18        0.403   0.267   9.164   9.835
   19        0.400   0.264   9.164   9.829
   20        0.447   0.309   9.127   9.884
   21        0.447   0.309   9.127   9.884
   22        0.391   0.271   9.167   9.829
   23        0.452   0.306   9.128   9.887
   24        0.391   0.271   9.167   9.829
   25        0.402   0.263   9.165   9.830
   26        0.402   0.263   9.165   9.830
   27        0.394   0.269   9.169   9.831
   28        0.405   0.199   9.176   9.780
   29        0.447   0.221   9.147   9.816
   30        0.447   0.221   9.147   9.816
   31        0.440   0.224   9.148   9.811
   32        0.440   0.224   9.148   9.811
   33        0.446   0.221   9.148   9.815
   34        0.446   0.221   9.148   9.815
   35        0.404   0.199   9.178   9.781
   36        0.624   0.575   3.068   4.266
   37        0.541   0.028   0.000   0.569
   38        0.541   0.028   0.000   0.569
tot         16.314   9.120 323.764 349.198

  FORCE on cell =-STRESS in cart. coord.  units (eV):
  Direction    XX          YY          ZZ          XY          YZ          ZX
  Alpha Z   745.24820   745.24820   745.24820
  Ewald  118159.00099118142.47536************    -0.00001    -0.38545    -0.00001
  Hartree128163.48911128161.24044************    -0.00001    -0.42323    -0.00000
  E(xc)   -2055.89125 -2055.72591 -2062.95549    -0.00002     0.03861     0.00000
  Local  ************************257466.16847     0.00032     1.01307    -0.00003
  n-local  -324.03417  -321.99822  -327.40271     2.37191     0.00793     0.07341
  augment  3220.71982  3220.41364  3235.73867    -0.00012     0.01629     0.00001
  Kinetic  4832.38463  4833.64167  4872.72706     1.20062    -0.41179     0.06911
  Fock        0.00000     0.00000     0.00000     0.00000     0.00000     0.00000
  Total      -9.58992    -9.42800     0.16409    -0.00000    -0.14457    -0.00000
  in kB     -10.35041   -10.17565     0.17710    -0.00000    -0.15604    -0.00000

 VOLUME and BASIS-vectors are now :
  energy-cutoff  :      500.00
  volume of cell :     1484.46
      direct lattice vectors                 reciprocal lattice vectors
     8.791366577  0.000000000  0.000000000     0.113747958 -0.065672414  0.000000000
     4.395683289  7.613546790  0.000000000     0.000000000  0.131344829  0.000000000
     0.000000000  0.000000000 22.178121567     0.000000000  0.000000000  0.045089481

  length of vectors
     8.791366577  8.791366577 22.178121567     0.131344829  0.131344829  0.045089481

 FORCES acting on ions
    electron-ion (+dipol)            ewald-force                    non-local-force                 convergence-correction
   0.459E-04 0.653E-01 0.248E+04   -.953E-04 -.108E-02 -.247E+04   -.176E-12 -.268E-01 -.194E+01   -.115E-03 -.420E-01 0.122E+00
   -.175E+00 0.593E-01 0.247E+04   0.515E-01 -.138E+00 -.247E+04   0.135E+00 0.191E+00 -.154E+01   -.797E-02 -.111E+00 0.194E+00
   0.175E+00 0.593E-01 0.247E+04   -.514E-01 -.138E+00 -.247E+04   -.135E+00 0.191E+00 -.154E+01   0.744E-02 -.109E+00 0.195E+00
   -.517E-01 -.131E+00 0.247E+04   -.926E-01 0.111E+00 -.247E+04   0.210E+00 -.365E-01 -.161E+01   -.603E-01 0.529E-01 0.208E+00
   -.759E-05 -.106E+00 0.247E+04   0.980E-04 -.150E-02 -.247E+04   0.265E-12 0.403E-01 -.935E+00   0.622E-02 0.601E-01 0.375E+00
   0.517E-01 -.131E+00 0.247E+04   0.925E-01 0.111E+00 -.247E+04   -.210E+00 -.365E-01 -.161E+01   0.590E-01 0.538E-01 0.208E+00
   0.558E-01 0.121E+00 0.247E+04   -.144E+00 0.263E-01 -.247E+04   0.150E+00 -.185E+00 -.157E+01   -.655E-01 0.399E-01 0.145E+00
   -.558E-01 0.121E+00 0.247E+04   0.144E+00 0.262E-01 -.247E+04   -.150E+00 -.185E+00 -.157E+01   0.671E-01 0.389E-01 0.145E+00
   0.362E-04 -.285E-01 0.247E+04   0.792E-04 0.254E-02 -.247E+04   0.124E-12 0.189E-01 -.175E+01   -.664E-02 0.952E-02 0.153E+00
   0.219E+01 0.127E+01 0.800E+03   -.184E+01 -.108E+01 -.799E+03   -.399E+00 -.236E+00 -.792E+00   0.837E-02 0.188E-01 -.147E-01
   -.279E-04 0.980E+00 0.797E+03   0.399E-04 -.992E+00 -.797E+03   0.276E-12 0.421E-01 -.858E-01   0.620E-02 -.750E-01 -.735E-01
   -.219E+01 0.127E+01 0.800E+03   0.184E+01 -.108E+01 -.799E+03   0.399E+00 -.236E+00 -.792E+00   -.100E-01 0.197E-01 -.148E-01
   0.740E+00 -.437E+00 0.797E+03   -.844E+00 0.490E+00 -.797E+03   0.130E+00 -.452E-01 -.125E+00   -.573E-01 0.254E-01 -.943E-01
   -.740E+00 -.437E+00 0.797E+03   0.844E+00 0.490E+00 -.797E+03   -.130E+00 -.452E-01 -.125E+00   0.678E-01 0.243E-01 -.957E-01
   0.154E-04 -.270E+00 0.798E+03   -.108E-03 0.155E+00 -.798E+03   0.398E-12 0.606E-01 -.767E+00   -.156E-02 0.242E-01 -.497E-01
   -.810E-05 -.262E+01 0.800E+03   0.204E-04 0.214E+01 -.799E+03   0.337E-11 0.513E+00 -.673E+00   -.175E-03 0.170E-01 -.649E-01
   -.340E+00 0.118E+00 0.798E+03   0.133E+00 -.618E-01 -.798E+03   0.116E+00 -.292E-01 -.705E+00   0.629E-01 -.230E-01 -.604E-01
   0.340E+00 0.118E+00 0.798E+03   -.133E+00 -.617E-01 -.798E+03   -.116E+00 -.292E-01 -.705E+00   -.628E-01 -.213E-01 -.596E-01
   0.389E-04 -.502E+01 -.890E+03   -.126E-03 0.506E+01 0.889E+03   0.187E-12 0.284E-01 0.863E+00   0.431E-02 -.638E-01 -.211E+00
   -.276E+02 -.160E+02 -.899E+03   0.293E+02 0.167E+02 0.901E+03   -.141E+01 -.644E+00 -.132E+01   -.309E+00 -.130E+00 -.397E+00
   0.276E+02 -.160E+02 -.899E+03   -.293E+02 0.167E+02 0.901E+03   0.141E+01 -.644E+00 -.132E+01   0.318E+00 -.130E+00 -.397E+00
   -.143E+02 0.820E+01 -.889E+03   0.141E+02 -.807E+01 0.889E+03   0.278E+00 -.177E+00 0.375E+00   -.109E+00 0.392E-01 -.311E+00
   -.493E-04 0.318E+02 -.899E+03   0.366E-04 -.336E+02 0.901E+03   0.108E-10 0.165E+01 -.130E+01   -.759E-03 0.277E+00 -.493E+00
   0.143E+02 0.820E+01 -.889E+03   -.141E+02 -.807E+01 0.889E+03   -.278E+00 -.177E+00 0.375E+00   0.120E+00 0.390E-01 -.311E+00
   0.452E+01 0.249E+01 -.890E+03   -.447E+01 -.256E+01 0.889E+03   -.676E-01 -.158E-01 0.846E+00   0.166E-01 0.867E-01 -.235E+00
   -.452E+01 0.249E+01 -.890E+03   0.447E+01 -.256E+01 0.889E+03   0.676E-01 -.158E-01 0.846E+00   -.755E-02 0.868E-01 -.235E+00
   0.191E-04 -.165E+02 -.889E+03   0.110E-03 0.164E+02 0.889E+03   0.189E-11 0.288E+00 0.384E+00   0.431E-02 -.128E+00 -.350E+00
   0.533E-04 0.142E+00 -.247E+04   -.113E-03 -.248E+00 0.247E+04   0.178E-12 0.272E-01 0.184E+01   0.415E-04 0.577E-01 -.164E+00
   -.176E+02 -.349E+02 -.248E+04   0.191E+02 0.367E+02 0.248E+04   -.130E+01 -.178E+01 0.819E+00   -.174E+00 -.114E+00 -.164E+00
   0.176E+02 -.349E+02 -.248E+04   -.191E+02 0.367E+02 0.248E+04   0.130E+01 -.178E+01 0.819E+00   0.173E+00 -.112E+00 -.164E+00
   -.378E+02 0.284E+01 -.248E+04   0.401E+02 -.272E+01 0.248E+04   -.217E+01 -.800E-01 0.105E+01   -.147E+00 -.359E-01 -.123E+00
   0.378E+02 0.284E+01 -.248E+04   -.401E+02 -.272E+01 0.248E+04   0.217E+01 -.800E-01 0.105E+01   0.136E+00 -.352E-01 -.123E+00
   -.218E+02 0.317E+02 -.248E+04   0.229E+02 -.337E+02 0.248E+04   -.106E+01 0.188E+01 0.937E+00   -.115E+00 0.147E+00 -.890E-01
   0.218E+02 0.317E+02 -.248E+04   -.229E+02 -.337E+02 0.248E+04   0.106E+01 0.188E+01 0.937E+00   0.116E+00 0.146E+00 -.884E-01
   0.269E-04 -.368E+00 -.248E+04   0.103E-03 0.476E+00 0.248E+04   -.692E-13 -.105E-01 0.201E+01   -.638E-02 -.659E-01 -.138E+00
   -.231E-04 0.548E+00 -.105E+04   0.479E-04 -.566E+00 0.105E+04   -.481E-12 -.733E-01 -.236E+00   0.626E-03 -.608E-02 -.194E-01
   0.121E+02 0.181E+00 -.258E+03   -.151E+02 -.172E+00 0.259E+03   0.301E+01 -.167E-01 -.122E+01   -.155E-01 0.543E-02 0.248E-01
   -.121E+02 0.181E+00 -.258E+03   0.151E+02 -.172E+00 0.259E+03   -.301E+01 -.167E-01 -.122E+01   0.157E-01 0.543E-02 0.248E-01
   0.302E-03 -.294E+00 0.151E+02   -.178E-13 0.182E-12 -.756E-11   0.147E-11 0.223E+00 -.123E+02   0.334E-01 0.720E-01 -.275E+01

 POSITION                                       TOTAL-FORCE (eV/Angst)
      0.00000      0.00000      5.28219        -0.000000     -0.004631     -0.044775
      2.93046      0.00000      5.28219         0.004015      0.002924      0.025464
      5.86091      0.00000      5.28219        -0.004015      0.002924      0.025464
      1.46523      2.53785      5.28219         0.005978     -0.002675      0.020435
      4.39568      2.53785      5.28219        -0.000000     -0.006976     -0.021861
      7.32614      2.53785      5.28219        -0.005978     -0.002675      0.020435
      2.93046      5.07570      5.28219        -0.004249      0.001536      0.031615
      5.86091      5.07570      5.28219         0.004249      0.001536      0.031615
      8.79137      5.07570      5.28219         0.000000      0.002446      0.005380
      1.46523      0.84595      7.67490        -0.038931     -0.021364     -0.044573
      4.39568      0.84595      7.67490        -0.000000     -0.045114     -0.072702
      7.32614      0.84595      7.67490         0.038931     -0.021364     -0.044573
      2.93046      3.38380      7.67490        -0.036570      0.032471     -0.082258
      5.86091      3.38380      7.67490         0.036570      0.032471     -0.082258
      8.79137      3.38380      7.67490        -0.000000     -0.029703      0.016007
      4.39568      5.92165      7.67490         0.000000      0.049912     -0.040981
      7.32614      5.92165      7.67490        -0.028300      0.004589      0.018594
     10.25659      5.92165      7.67490         0.028300      0.004589      0.018594
      8.79137      1.69476     10.06939         0.000000      0.005399      0.062693
      2.92162      1.68680     10.02387        -0.053895     -0.027280     -0.086752
      5.86975      1.68680     10.02387         0.053895     -0.027280     -0.086752
     10.25272      4.23198     10.06895         0.000983     -0.006915      0.032550
      4.39568      4.23995     10.02387         0.000000      0.100689     -0.065076
      7.33001      4.23198     10.06895        -0.000983     -0.006915      0.032550
     11.71935      6.76617     10.06939        -0.004016      0.003621      0.025131
      5.86339      6.76617     10.06939         0.004016      0.003621      0.025131
      8.79137      6.76312     10.06895         0.000000      0.030431      0.027143
      0.00000      0.00000     12.45783        -0.000000     -0.021163     -0.013303
      2.95723      0.04373     12.49962        -0.017676     -0.043299     -0.008615
      5.83413      0.04373     12.49962         0.017676     -0.043299     -0.008615
      1.51649      2.53918     12.49962         0.013053      0.003585      0.045604
      7.27488      2.53918     12.49962        -0.013053      0.003585      0.045604
      2.95494      5.03064     12.49962        -0.036459      0.046473     -0.037603
      5.83643      5.03064     12.49962         0.036459      0.046473     -0.037603
      8.79137      5.07570     12.47105         0.000000      0.032373     -0.019282
      4.39568      2.53785     12.22632        -0.000000     -0.096866      0.318878
      3.94757      2.56638     14.07658         0.002039     -0.002064     -0.015652
      4.84380      2.56638     14.07658        -0.002039     -0.002064     -0.015652
    total drift:                                0.033728      0.001269      0.064134

  FREE ENERGIE OF THE ION-ELECTRON SYSTEM (eV)
  free  energy   TOTEN  =      -105.38789239 eV

  energy  without entropy=     -105.38789239  energy(sigma->0) =     -105.38789239

 stress matrix after NEB project (eV)
     -9.58992     -0.00000     -0.00000
     -0.00000     -9.42800     -0.14457
     -0.00000     -0.14457      0.16409
  FORCES: max atom, RMS     0.015918    0.003652
  FORCE total and by dimension    0.022512    0.015652
  Stress total and by dimension   13.450742    9.589919
|           W    W    AA    RRRRR   N    N  II  N    N   GGGG   !!!           |
|           W    W   A  A   R    R  NN   N  II  NN   N  G    G  !!!           |
|           W    W  A    A  R    R  N N  N  II  N N  N  G       !!!           |
|           W WW W  AAAAAA  RRRRR   N  N N  II  N  N N  G  GGG   !            |
|           WW  WW  A    A  R   R   N   NN  II  N   NN  G    G                |
|           W    W  A    A  R    R  N    N  II  N    N   GGGG   !!!           |
|     Tetrahedron method does not include variations of the Fermi             |
|     occupations, so forces and stress will be inaccurate. We suggest        |
|     using a different smearing scheme ISMEAR = 1 or 2 for metals in         |
|     relaxations.                                                            |

 total charge

# of ion       s       p       d       tot
    1        0.421   0.199   9.178   9.799
    2        0.414   0.204   9.176   9.795
    3        0.414   0.204   9.176   9.795
    4        0.413   0.204   9.178   9.795
    5        0.423   0.201   9.174   9.798
    6        0.413   0.204   9.178   9.795
    7        0.413   0.204   9.178   9.794
    8        0.413   0.204   9.178   9.794
    9        0.416   0.201   9.179   9.796
   10        0.411   0.269   9.161   9.840
   11        0.408   0.266   9.169   9.843
   12        0.411   0.269   9.161   9.840
   13        0.407   0.266   9.169   9.843
   14        0.407   0.266   9.169   9.843
   15        0.402   0.268   9.163   9.834
   16        0.412   0.269   9.160   9.841
   17        0.403   0.267   9.164   9.835
   18        0.403   0.267   9.164   9.835
   19        0.400   0.264   9.164   9.829
   20        0.447   0.309   9.127   9.884
   21        0.447   0.309   9.127   9.884
   22        0.391   0.271   9.167   9.829
   23        0.452   0.306   9.128   9.887
   24        0.391   0.271   9.167   9.829
   25        0.402   0.263   9.165   9.830
   26        0.402   0.263   9.165   9.830
   27        0.394   0.269   9.169   9.831
   28        0.405   0.199   9.176   9.780
   29        0.447   0.221   9.147   9.816
   30        0.447   0.221   9.147   9.816
   31        0.440   0.224   9.148   9.811
   32        0.440   0.224   9.148   9.811
   33        0.446   0.221   9.148   9.815
   34        0.446   0.221   9.148   9.815
   35        0.404   0.199   9.178   9.781
   36        0.624   0.575   3.068   4.266
   37        0.541   0.028   0.000   0.569
   38        0.541   0.028   0.000   0.569
tot         16.314   9.120 323.764 349.198

 BZINTS: Fermi energy:    0.867218;  392.000000 electrons
         Band energy:-0.127720E+04;  BLOECHL correction:   -0.026168