 vasp.6.2.0 18Jan21 (build Jun 12 2021 23:27:24) complex

 executed on             LinuxIFC date 2022.05.26  19:44:32

 INCAR:
   ISMEAR = -5
   SIGMA = 0.1
   ISPIN = 1
   EDIFF = 1.d-5
   EDIFFG = -0.01
   NSW = 0
   NELM = 150
   ENCUT = 500
   ISIF = 2
   IBRION = 2
   LREAL = Auto
   ALGO = Fast
   ICHARG = 11
   LORBIT = 10
   LCHARG = .F.
   LWAVE = .F.

 POTCAR:    PAW_PBE Ag 02Apr2005
 POTCAR:    PAW_PBE Mo 08Apr2002
 POTCAR:    PAW_PBE O 08Apr2002
|           W    W    AA    RRRRR   N    N  II  N    N   GGGG   !!!           |
|           W    W   A  A   R    R  NN   N  II  NN   N  G    G  !!!           |
|           W    W  A    A  R    R  N N  N  II  N N  N  G       !!!           |
|           W WW W  AAAAAA  RRRRR   N  N N  II  N  N N  G  GGG   !            |
|           WW  WW  A    A  R   R   N   NN  II  N   NN  G    G                |
|           W    W  A    A  R    R  N    N  II  N    N   GGGG   !!!           |
|     For optimal performance we recommend to set                             |
|       NCORE = 2 up to number-of-cores-per-socket                            |
|     This setting can greatly improve the performance of VASP for DFT.       |
|     The default, NCORE=1 might be grossly inefficient on modern             |
|     multi-core architectures or massively parallel machines. Do your        |
|     Unfortunately you need to use the default for GW and RPA                |
|     calculations (for HF NCORE is supported but not extensively tested      |
|     yet).                                                                   |

 POTCAR:    PAW_PBE Ag 02Apr2005
   VRHFIN =Ag : s1 d10

   TITEL  = PAW_PBE Ag 02Apr2005
   POMASS =  107.868; ZVAL   =   11.000    mass and valenz
   ENMAX  =  249.844; ENMIN  =  187.383 eV

 POTCAR:    PAW_PBE Mo 08Apr2002
   VRHFIN =Mo: 4p5s4d

[...]

 POTCAR:    PAW_PBE O 08Apr2002
   VRHFIN =O: s2p4

   TITEL  = PAW_PBE O 08Apr2002
   POMASS =   16.000; ZVAL   =    6.000    mass and valenz
   ENMAX  =  400.000; ENMIN  =  300.000 eV

 Optimization of the real space projectors (new method)

 maximal supplied QI-value         = 15.12
 optimisation between [QCUT,QGAM] = [ 11.34, 22.83] = [ 36.00,145.93] Ry
 Optimized for a Real-space Cutoff    1.43 Angstroem

   l    n(q)    QCUT    max X(q) W(low)/X(q) W(high)/X(q)  e(spline)
   2      9    11.338    53.897    0.16E-03    0.20E-03    0.28E-06
   2      9    11.338    52.416    0.16E-03    0.20E-03    0.29E-06
   0     10    11.338   122.045    0.31E-04    0.76E-04    0.15E-06
   0     10    11.338    73.629    0.30E-04    0.72E-04    0.15E-06
   1      9    11.338    15.255    0.20E-03    0.19E-04    0.17E-06
   1      9    11.338     9.562    0.16E-03    0.15E-04    0.14E-06
 Optimization of the real space projectors (new method)

[...]

   l    n(q)    QCUT    max X(q) W(low)/X(q) W(high)/X(q)  e(spline)
   2     10    11.429    80.908    0.27E-03    0.78E-03    0.13E-05
   2     10    11.429    79.000    0.27E-03    0.78E-03    0.13E-05
   0     11    11.429    52.066    0.33E-04    0.97E-04    0.72E-06
   0     11    11.429    24.514    0.27E-04    0.80E-04    0.60E-06
   1     10    11.429    16.033    0.31E-04    0.17E-03    0.36E-06
   1     10    11.429    11.179    0.22E-04    0.13E-03    0.29E-06
 Optimization of the real space projectors (new method)

 maximal supplied QI-value         = 24.76
 optimisation between [QCUT,QGAM] = [ 11.39, 22.77] = [ 36.31,145.25] Ry
 Optimized for a Real-space Cutoff    1.00 Angstroem

   l    n(q)    QCUT    max X(q) W(low)/X(q) W(high)/X(q)  e(spline)
   0      7    11.387    20.381    0.39E-03    0.13E-02    0.15E-06
   0      7    11.387    15.268    0.42E-03    0.14E-02    0.17E-06
   1      6    11.387     5.964    0.41E-03    0.11E-02    0.17E-06
   1      6    11.387     5.382    0.39E-03    0.87E-03    0.15E-06
  PAW_PBE Ag 02Apr2005                  :
  PAW_PBE Mo 08Apr2002                  :
  PAW_PBE O 08Apr2002                   :

 POSCAR: Ag-Mo-O
  positions in direct lattice
  velocities in cartesian coordinates
 exchange correlation table for  LEXCH =        8
   RHO(1)=    0.500       N(1)  =     2000
   RHO(2)=  100.500       N(2)  =     4000

 VTST: version 3.2, (02/03/18)

 CHAIN: initializing optimizer

 OPT: Using VASP Conjugate-Gradient optimizer
 CHAIN: Read ICHAIN            0

 POSCAR: Ag-Mo-O
  positions in direct lattice
  velocities in cartesian coordinates

 ion  position               nearest neighbor table
   1  0.000  0.000  0.238-   2 2.93   8 2.93   7 2.93   6 2.93   4 2.93  12 2.93  16 2.93  10 2.93
                             3 2.93
   2  0.333  0.000  0.238-   1 2.93   8 2.93   9 2.93   3 2.93   4 2.93   5 2.93  10 2.93  17 2.93
                            11 2.93
   3  0.667  0.000  0.238-   9 2.93   2 2.93   5 2.93  11 2.93   7 2.93  18 2.93   1 2.93   6 2.93
                            12 2.93
   4  0.000  0.333  0.238-   5 2.93   6 2.93   2 2.93   1 2.93   7 2.93  13 2.93  15 2.93   9 2.93
                            10 2.93
   5  0.333  0.333  0.238-   4 2.93   3 2.93   7 2.93   2 2.93   8 2.93  14 2.93  13 2.93  11 2.93
                             6 2.93
   6  0.667  0.333  0.238-   4 2.93   9 2.93   1 2.93  15 2.93   8 2.93  12 2.93   3 2.93   5 2.93
                            14 2.93
   7  0.000  0.667  0.238-   8 2.93   1 2.93   5 2.93   3 2.93   4 2.93  16 2.93  18 2.93  13 2.93
                             9 2.93
   8  0.333  0.667  0.238-   7 2.93   1 2.93   2 2.93   9 2.93   5 2.93  16 2.93   6 2.93  17 2.93
                            14 2.93
   9  0.667  0.667  0.238-   3 2.93   2 2.93   8 2.93   6 2.93  17 2.93   4 2.93  15 2.93   7 2.93
                            18 2.93
  10  0.111  0.111  0.346-  20 2.90  19 2.93  26 2.93  12 2.93  16 2.93  15 2.93  17 2.93  13 2.93
                            11 2.93   2 2.93   1 2.93   4 2.93
  11  0.444  0.111  0.346-  21 2.90  20 2.90  27 2.93  14 2.93  17 2.93  18 2.93   3 2.93  12 2.93
                            13 2.93  10 2.93   5 2.93   2 2.93
  12  0.778  0.111  0.346-  21 2.90  25 2.93  19 2.93  10 2.93  16 2.93  18 2.93  15 2.93  11 2.93
                             1 2.93  14 2.93   6 2.93   3 2.93
  13  0.111  0.444  0.346-  20 2.90  23 2.90  22 2.93  15 2.93  14 2.93  18 2.93  10 2.93  11 2.93
                            16 2.93   4 2.93   5 2.93   7 2.93
  14  0.444  0.444  0.346-  23 2.90  21 2.90  24 2.93  13 2.93  11 2.93  16 2.93   5 2.93  12 2.93
                            17 2.93   8 2.93  15 2.93   6 2.93
  15  0.778  0.444  0.346-  24 2.92  22 2.92  19 2.92  13 2.93  10 2.93  12 2.93  17 2.93  18 2.93
                             4 2.93   6 2.93   9 2.93  14 2.93
  16  0.111  0.778  0.346-  23 2.90  26 2.93  25 2.93  18 2.93  12 2.93  10 2.93  14 2.93  17 2.93
                            13 2.93   7 2.93   8 2.93   1 2.93
  17  0.444  0.778  0.346-  27 2.92  24 2.92  26 2.92  11 2.93  10 2.93   9 2.93  18 2.93  15 2.93
                            16 2.93   2 2.93  14 2.93   8 2.93
  18  0.778  0.778  0.346-  22 2.92  27 2.92  25 2.92  16 2.93  12 2.93  13 2.93  11 2.93  17 2.93
                            15 2.93   7 2.93   3 2.93   9 2.93
  19  0.889  0.222  0.454-  28 2.92  15 2.92  10 2.93  12 2.93  24 2.93  22 2.93  26 2.93  25 2.93
                            20 2.93  21 2.93  32 2.96  31 2.96
  20  0.222  0.222  0.452-  36 2.79  13 2.90  11 2.90  10 2.90  21 2.93  23 2.93  19 2.93  26 2.93
                            27 2.93  22 2.93  31 2.94  29 2.94
  21  0.555  0.222  0.452-  36 2.79  11 2.90  14 2.90  12 2.90  20 2.93  23 2.93  25 2.93  19 2.93
                            27 2.93  24 2.93  30 2.94  32 2.94
  22  0.888  0.556  0.454-  35 2.91  24 2.92  27 2.92  18 2.92  15 2.92  13 2.93  25 2.93  19 2.93
                            23 2.93  20 2.93  33 2.94  31 2.94
  23  0.222  0.555  0.452-  36 2.79  14 2.90  13 2.90  16 2.90  21 2.93  20 2.93  26 2.93  25 2.93
                            22 2.93  24 2.93  34 2.94  33 2.94
  24  0.556  0.556  0.454-  35 2.91  27 2.92  22 2.92  15 2.92  17 2.92  14 2.93  19 2.93  26 2.93
                            23 2.93  21 2.93  32 2.94  34 2.94
  25  0.889  0.889  0.454-  28 2.92  18 2.92  16 2.93  12 2.93  22 2.93  27 2.93  26 2.93  19 2.93
                            23 2.93  21 2.93  33 2.96  30 2.96
  26  0.222  0.889  0.454-  28 2.92  17 2.92  16 2.93  10 2.93  27 2.93  24 2.93  25 2.93  19 2.93
                            23 2.93  20 2.93  34 2.96  29 2.96
  27  0.556  0.888  0.454-  35 2.91  24 2.92  22 2.92  17 2.92  18 2.92  11 2.93  26 2.93  25 2.93
                            20 2.93  21 2.93  29 2.94  30 2.94
  28  0.000  0.000  0.561-  26 2.92  25 2.92  19 2.92  29 2.95  34 2.95  33 2.95  32 2.95  31 2.95
                            30 2.95
  29  0.333  0.005  0.562-  31 2.88  30 2.89  36 2.89  27 2.94  20 2.94  28 2.95  35 2.96  26 2.96
                            34 3.02
  30  0.662  0.005  0.562-  32 2.88  29 2.89  36 2.89  27 2.94  21 2.94  28 2.95  35 2.96  25 2.96
                            33 3.02
  31  0.005  0.333  0.562-  29 2.88  33 2.89  36 2.89  22 2.94  20 2.94  28 2.95  35 2.96  19 2.96
                            32 3.02
  32  0.662  0.333  0.562-  30 2.88  34 2.89  36 2.89  24 2.94  21 2.94  28 2.95  35 2.96  19 2.96
                            31 3.02
  33  0.005  0.662  0.562-  34 2.88  31 2.89  36 2.89  22 2.94  23 2.94  28 2.95  35 2.96  25 2.96
                            30 3.02
  34  0.333  0.662  0.562-  33 2.88  32 2.89  36 2.89  24 2.94  23 2.94  28 2.95  35 2.96  26 2.96
                            29 3.02
  35  0.667  0.667  0.561-  24 2.91  27 2.91  22 2.91  30 2.96  32 2.96  29 2.96  34 2.96  31 2.96
                            33 2.96
  36  0.333  0.333  0.552-  37 1.72  21 2.79  20 2.79  23 2.79  31 2.89  30 2.89  33 2.89  29 2.89
                            34 2.89  32 2.89
  37  0.333  0.333  0.630-  36 1.72

  LATTYP: Found a hexagonal cell.
 ALAT       =     8.7913665772
 C/A-ratio  =     2.5227160501

  Lattice vectors:

 A1 = (  -4.3956832886,  -7.6135467898,   0.0000000000)
 A2 = (   8.7913665771,   0.0000000000,   0.0000000000)
 A3 = (   0.0000000000,   0.0000000000,  22.1781215668)

Analysis of symmetry for initial positions (statically):
 Subroutine PRICEL returns:
 Original cell was already a primitive cell.

 Routine SETGRP: Setting up the symmetry group for a
 hexagonal supercell.

 Subroutine GETGRP returns: Found  6 space group operations
 (whereof  6 operations were pure point group operations)
 out of a pool of 24 trial point group operations.

The static configuration has the point symmetry C_3v.

Analysis of symmetry for dynamics (positions and initial velocities):
 Subroutine PRICEL returns:
 Original cell was already a primitive cell.

[...]

The dynamic configuration has the point symmetry C_3v.

Analysis of constrained symmetry for selective dynamics:
 Subroutine PRICEL returns:
 Original cell was already a primitive cell.

 Routine SETGRP: Setting up the symmetry group for a
 hexagonal supercell.

 Subroutine GETGRP returns: Found  6 space group operations
 (whereof  6 operations were pure point group operations)
 out of a pool of 24 trial point group operations.

[...]
     24      -4.6818      2.00000
     25      -4.6730      2.00000
     26      -4.6521      2.00000
     27      -4.6465      2.00000
     28      -4.6112      2.00000
     29      -4.6073      2.00000
     30      -4.5962      2.00000
     31      -4.5872      2.00000
     32      -4.5629      2.00000
     33      -4.5522      2.00000
     34      -4.5384      2.00000
     35      -4.5021      2.00000
     36      -4.4839      2.00000
     37      -4.4664      2.00000
     38      -4.4382      2.00000
     39      -4.4298      2.00000
     40      -4.4130      2.00000
     41      -4.3832      2.00000
     42      -4.3638      2.00000
     43      -4.3411      2.00000
     44      -4.3203      2.00000
     45      -4.2595      2.00000
     46      -4.2424      2.00000
     47      -4.2222      2.00000
     48      -4.2148      2.00000
     49      -4.2079      2.00000
     50      -4.1972      2.00000
     51      -4.1944      2.00000
     52      -4.1879      2.00000
     53      -4.1733      2.00000
     54      -4.1403      2.00000
     55      -4.1310      2.00000
     56      -4.1104      2.00000
     57      -4.0936      2.00000
     58      -4.0815      2.00000
     59      -4.0623      2.00000
     60      -4.0485      2.00000
[...]
    238       6.2404      0.00000
    239       6.3468      0.00000
    240       6.3795      0.00000
    241       7.1292      0.00000
    242       7.1772      0.00000
    243       7.2062      0.00000
    244       7.2218      0.00000
    245       7.2582      0.00000
    246       7.2810      0.00000
    247       7.3523      0.00000
    248       7.4858      0.00000
    249       7.5343      0.00000
    250       7.5600      0.00000
    251       7.6359      0.00000
    252       7.7463      0.00000

 soft charge-density along one line, spin component           1
         0         1         2         3         4         5         6         7         8         9
 total charge-density along one line

------------------------ aborting loop because EDIFF is reached ----------------------------------------

 total charge

# of ion       s       p       d       tot
    1        0.421   0.200   9.178   9.799
    2        0.416   0.204   9.177   9.796
    3        0.416   0.204   9.177   9.796
    4        0.416   0.204   9.177   9.796
    5        0.419   0.202   9.178   9.798
    6        0.416   0.204   9.177   9.796
    7        0.416   0.204   9.177   9.796
    8        0.416   0.204   9.177   9.796
    9        0.413   0.204   9.176   9.794
   10        0.408   0.269   9.165   9.842
   11        0.402   0.273   9.166   9.841
   12        0.408   0.269   9.165   9.842
   13        0.402   0.273   9.166   9.841
   14        0.402   0.273   9.166   9.841
   15        0.403   0.269   9.165   9.837
   16        0.408   0.269   9.165   9.842
   17        0.403   0.269   9.165   9.837
   18        0.403   0.269   9.165   9.837
   19        0.405   0.263   9.168   9.836
   20        0.439   0.301   9.139   9.879
   21        0.439   0.301   9.139   9.879
   22        0.393   0.276   9.163   9.832
   23        0.439   0.301   9.139   9.879
   24        0.393   0.276   9.163   9.832
   25        0.405   0.263   9.168   9.836
   26        0.405   0.263   9.168   9.836
   27        0.393   0.276   9.163   9.832
   28        0.420   0.196   9.177   9.793
   29        0.421   0.216   9.170   9.808
   30        0.421   0.216   9.170   9.808
   31        0.421   0.216   9.170   9.808
   32        0.421   0.216   9.170   9.808
   33        0.421   0.216   9.170   9.808
   34        0.421   0.216   9.170   9.808
   35        0.413   0.201   9.177   9.790
   36        0.494   0.500   4.392   5.387
   37        1.608   3.287   0.000   4.895
tot         16.557  12.264 325.262 354.084

  FORCE on cell =-STRESS in cart. coord.  units (eV):
  Direction    XX          YY          ZZ          XY          YZ          ZX
  Alpha Z   760.57810   760.57810   760.57810
  Ewald  119477.44103119477.44102************     0.00002    -0.00001     0.00003
  Hartree129691.39297129691.39296************     0.00001    -0.00000     0.00001
  E(xc)   -2086.55525 -2086.55526 -2092.21003     0.00001     0.00000     0.00000
  Local  ************************260400.20447     0.00046    -0.00005    -0.00015
  n-local  -367.65554  -349.99709  -353.94138    10.87045    -0.41112     0.52886
  augment  3235.52291  3235.52310  3242.94996    -0.00016     0.00002     0.00006
  Kinetic  4977.95733  4981.07166  4977.72151     4.26235     0.83829    -0.41829
  Fock        0.00000     0.00000     0.00000     0.00000     0.00000     0.00000
  Total      -5.76087    -5.76087    -0.02882    -0.00000     0.00000     0.00000
  in kB      -6.21771    -6.21771    -0.03110    -0.00000     0.00000     0.00000

 VOLUME and BASIS-vectors are now :
  energy-cutoff  :      500.00
  volume of cell :     1484.46
      direct lattice vectors                 reciprocal lattice vectors
     8.791366577  0.000000000  0.000000000     0.113747958 -0.065672414  0.000000000
     4.395683289  7.613546790  0.000000000     0.000000000  0.131344829  0.000000000
     0.000000000  0.000000000 22.178121567     0.000000000  0.000000000  0.045089481

  length of vectors
     8.791366577  8.791366577 22.178121567     0.131344829  0.131344829  0.045089481

 FORCES acting on ions
    electron-ion (+dipol)            ewald-force                    non-local-force                 convergence-correction
   0.462E-04 -.281E-04 0.250E+04   -.953E-04 0.593E-04 -.250E+04   0.675E-17 0.159E-19 -.179E+01   -.824E-04 -.156E-03 -.190E+00
   0.110E+00 0.283E+00 0.250E+04   -.106E+00 -.284E+00 -.250E+04   -.101E-01 0.774E-01 -.169E+01   0.102E-01 -.713E-01 -.234E+00
   -.110E+00 0.283E+00 0.250E+04   0.106E+00 -.284E+00 -.250E+04   0.101E-01 0.774E-01 -.169E+01   -.108E-01 -.695E-01 -.234E+00
   0.300E+00 -.466E-01 0.250E+04   -.299E+00 0.505E-01 -.250E+04   0.620E-01 -.474E-01 -.169E+01   -.565E-01 0.447E-01 -.234E+00
   -.571E-05 -.187E-04 0.250E+04   0.980E-04 -.198E-05 -.250E+04   -.858E-18 -.736E-18 -.159E+01   0.618E-02 0.378E-02 -.142E+00
   -.300E+00 -.466E-01 0.250E+04   0.299E+00 0.504E-01 -.250E+04   -.620E-01 -.474E-01 -.169E+01   0.551E-01 0.456E-01 -.234E+00
   0.190E+00 -.237E+00 0.250E+04   -.193E+00 0.233E+00 -.250E+04   0.720E-01 -.299E-01 -.169E+01   -.651E-01 0.259E-01 -.234E+00
   -.190E+00 -.236E+00 0.250E+04   0.193E+00 0.233E+00 -.250E+04   -.720E-01 -.299E-01 -.169E+01   0.667E-01 0.250E-01 -.234E+00
   0.361E-04 -.131E-04 0.250E+04   0.792E-04 -.643E-04 -.250E+04   0.155E-18 -.204E-17 -.170E+01   -.663E-02 -.341E-02 -.214E+00
   0.251E+01 0.145E+01 0.837E+03   -.215E+01 -.124E+01 -.837E+03   -.342E+00 -.197E+00 -.603E+00   -.371E-01 -.214E-01 -.147E-01
   -.283E-04 0.261E+01 0.838E+03   0.407E-04 -.290E+01 -.838E+03   0.107E-11 0.162E+00 -.489E+00   0.618E-02 0.650E-01 -.212E-01
   -.251E+01 0.145E+01 0.837E+03   0.215E+01 -.124E+01 -.837E+03   0.342E+00 -.197E+00 -.603E+00   0.358E-01 -.207E-01 -.156E-01
   0.226E+01 -.131E+01 0.838E+03   -.251E+01 0.145E+01 -.838E+03   0.141E+00 -.812E-01 -.489E+00   0.592E-01 -.271E-01 -.212E-01
   -.226E+01 -.131E+01 0.838E+03   0.251E+01 0.145E+01 -.838E+03   -.141E+00 -.812E-01 -.489E+00   -.489E-01 -.280E-01 -.229E-01
   0.155E-04 -.223E+00 0.836E+03   -.108E-03 0.748E-01 -.836E+03   0.399E-12 0.608E-01 -.629E+00   -.127E-02 0.669E-01 -.142E-01
   -.811E-05 -.290E+01 0.837E+03   0.206E-04 0.248E+01 -.837E+03   0.259E-11 0.395E+00 -.603E+00   -.925E-04 0.413E-01 -.156E-01
   -.193E+00 0.112E+00 0.836E+03   0.647E-01 -.375E-01 -.836E+03   0.526E-01 -.304E-01 -.629E+00   0.572E-01 -.345E-01 -.142E-01
   0.193E+00 0.112E+00 0.836E+03   -.648E-01 -.374E-01 -.836E+03   -.526E-01 -.304E-01 -.629E+00   -.571E-01 -.330E-01 -.134E-01
   0.389E-04 -.298E+01 -.844E+03   -.127E-03 0.305E+01 0.843E+03   -.854E-13 -.130E-01 0.802E+00   0.105E-02 -.560E-01 0.358E+00
   -.899E+01 -.519E+01 -.839E+03   0.974E+01 0.562E+01 0.839E+03   -.976E+00 -.563E+00 -.603E+00   0.258E-01 0.149E-01 0.408E+00
   0.899E+01 -.519E+01 -.839E+03   -.974E+01 0.562E+01 0.839E+03   0.976E+00 -.563E+00 -.603E+00   -.366E-01 0.144E-01 0.408E+00
   -.529E+01 0.305E+01 -.841E+03   0.511E+01 -.295E+01 0.840E+03   0.270E+00 -.156E+00 0.640E+00   -.401E-01 0.236E-01 0.319E+00
   -.523E-04 0.104E+02 -.839E+03   0.397E-04 -.112E+02 0.839E+03   0.740E-11 0.113E+01 -.603E+00   -.548E-02 -.383E-01 0.408E+00
   0.529E+01 0.305E+01 -.841E+03   -.511E+01 -.295E+01 0.840E+03   -.270E+00 -.156E+00 0.640E+00   0.417E-01 0.242E-01 0.319E+00
   0.258E+01 0.149E+01 -.844E+03   -.265E+01 -.153E+01 0.843E+03   0.113E-01 0.650E-02 0.802E+00   0.484E-01 0.278E-01 0.358E+00
   -.258E+01 0.149E+01 -.844E+03   0.265E+01 -.153E+01 0.843E+03   -.113E-01 0.650E-02 0.802E+00   -.483E-01 0.288E-01 0.358E+00
   0.200E-04 -.611E+01 -.841E+03   0.110E-03 0.590E+01 0.840E+03   0.205E-11 0.312E+00 0.640E+00   -.313E-03 -.465E-01 0.319E+00
   0.540E-04 -.363E-04 -.247E+04   -.115E-03 0.775E-04 0.246E+04   -.123E-16 0.203E-17 0.176E+01   0.241E-03 0.182E-05 0.323E+00
   0.694E+01 0.110E+02 -.246E+04   -.635E+01 -.104E+02 0.246E+04   -.712E+00 -.897E+00 0.212E+01   -.113E-01 0.419E-01 0.305E+00
   -.694E+01 0.110E+02 -.246E+04   0.635E+01 -.104E+02 0.246E+04   0.712E+00 -.897E+00 0.212E+01   0.104E-01 0.430E-01 0.306E+00
   0.130E+02 0.495E+00 -.246E+04   -.122E+02 -.288E+00 0.246E+04   -.113E+01 -.168E+00 0.212E+01   0.309E-01 -.306E-01 0.305E+00
   -.130E+02 0.496E+00 -.246E+04   0.122E+02 -.288E+00 0.246E+04   0.113E+01 -.168E+00 0.212E+01   -.312E-01 -.296E-01 0.306E+00
   0.609E+01 -.115E+02 -.246E+04   -.585E+01 0.107E+02 0.246E+04   -.421E+00 0.106E+01 0.212E+01   0.429E-01 -.119E-01 0.306E+00
   -.609E+01 -.115E+02 -.246E+04   0.585E+01 0.107E+02 0.246E+04   0.421E+00 0.106E+01 0.212E+01   -.416E-01 -.121E-01 0.306E+00
   0.239E-04 -.120E-04 -.247E+04   0.105E-03 -.657E-04 0.247E+04   0.631E-17 0.262E-17 0.197E+01   -.635E-02 -.323E-02 0.311E+00
   -.875E-05 -.630E-05 -.114E+04   0.573E-04 0.696E-05 0.115E+04   0.238E-17 0.193E-17 -.693E+00   0.727E-03 0.447E-03 0.146E+00
   0.181E-03 -.977E-04 -.159E+04   0.290E-04 0.431E-06 0.162E+04   0.283E-18 -.290E-18 -.299E+02   0.338E-02 0.208E-02 -.617E-01
   0.553E-03 -.773E-03 0.283E+02   -.381E-13 -.834E-13 0.000E+00   -.158E-15 0.426E-17 -.319E+02   -.254E-02 0.184E-02 0.371E+01

 POSITION                                       TOTAL-FORCE (eV/Angst)
      0.00000      0.00000      5.28219        -0.000000      0.000000     -0.019262
      2.93046      0.00000      5.28219         0.004845      0.006197      0.043583
      5.86091      0.00000      5.28219        -0.004845      0.006197      0.043583
      1.46523      2.53785      5.28219         0.007789      0.001097      0.043583
      4.39568      2.53785      5.28219        -0.000000      0.000000      0.012797
      7.32614      2.53785      5.28219        -0.007789      0.001097      0.043583
      2.93046      5.07570      5.28219         0.002944     -0.007294      0.043583
      5.86091      5.07570      5.28219        -0.002944     -0.007294      0.043583
      8.79137      5.07570      5.28219        -0.000000      0.000000      0.032881
      1.46523      0.84595      7.67490        -0.014353     -0.008287     -0.032585
      4.39568      0.84595      7.67490        -0.000000     -0.062631     -0.052346
      7.32614      0.84595      7.67490         0.014353     -0.008287     -0.032585
      2.93046      3.38380      7.67490        -0.054240      0.031316     -0.052346
      5.86091      3.38380      7.67490         0.054240      0.031316     -0.052346
      8.79137      3.38380      7.67490        -0.000000     -0.021297      0.031509
      4.39568      5.92165      7.67490         0.000000      0.016574     -0.032585
      7.32614      5.92165      7.67490        -0.018444      0.010648      0.031509
     10.25659      5.92165      7.67490         0.018444      0.010648      0.031509
      8.79137      1.69286     10.06155         0.000000      0.006734      0.004754
      2.93202      1.69280     10.03008        -0.199786     -0.115346     -0.186821
      5.85935      1.69280     10.03008         0.199786     -0.115346     -0.186821
     10.25345      4.23157     10.06207         0.050388     -0.029092      0.017773
      4.39568      4.22795     10.03008         0.000000      0.230693     -0.186821
      7.32929      4.23157     10.06207        -0.050388     -0.029092      0.017773
     11.72099      6.76712     10.06155        -0.005832     -0.003367      0.004754
      5.86174      6.76712     10.06155         0.005832     -0.003367      0.004754
      8.79137      6.76396     10.06207         0.000000      0.058183      0.017773
      0.00000      0.00000     12.43674        -0.000000      0.000000      0.000527
      2.95191      0.04038     12.46589        -0.129574     -0.243635     -0.204272
      5.83946      0.04038     12.46589         0.129574     -0.243635     -0.204272
      1.51092      2.53624     12.46589        -0.275781      0.009603     -0.204272
      7.28044      2.53624     12.46589         0.275781      0.009603     -0.204272
      2.95470      5.03693     12.46589        -0.146207      0.234032     -0.204272
      5.83667      5.03693     12.46589         0.146207      0.234032     -0.204272
      8.79137      5.07570     12.43630        -0.000000      0.000000      0.016662
      4.39568      2.53785     12.24527        -0.000000      0.000000      1.566963
      4.39568      2.53785     13.96344        -0.000000      0.000000      0.006710
    total drift:                               -0.001991      0.001068      0.063397

  FREE ENERGIE OF THE ION-ELECTRON SYSTEM (eV)
  free  energy   TOTEN  =      -105.03781175 eV

  energy  without entropy=     -105.03781175  energy(sigma->0) =     -105.03781175

 stress matrix after NEB project (eV)
     -5.76087     -0.00000      0.00000
     -0.00000     -5.76087      0.00000
      0.00000      0.00000     -0.02882
  FORCES: max atom, RMS     0.006710    0.001103
  FORCE total and by dimension    0.006710    0.006710
  Stress total and by dimension    8.147151    5.760870
|           W    W    AA    RRRRR   N    N  II  N    N   GGGG   !!!           |
|           W    W   A  A   R    R  NN   N  II  NN   N  G    G  !!!           |
|           W    W  A    A  R    R  N N  N  II  N N  N  G       !!!           |
|           W WW W  AAAAAA  RRRRR   N  N N  II  N  N N  G  GGG   !            |
|           WW  WW  A    A  R   R   N   NN  II  N   NN  G    G                |
|           W    W  A    A  R    R  N    N  II  N    N   GGGG   !!!           |
|     Tetrahedron method does not include variations of the Fermi             |
|     occupations, so forces and stress will be inaccurate. We suggest        |
|     using a different smearing scheme ISMEAR = 1 or 2 for metals in         |
|     relaxations.                                                            |

 total charge

# of ion       s       p       d       tot
    1        0.421   0.200   9.178   9.799
    2        0.416   0.204   9.177   9.796
    3        0.416   0.204   9.177   9.796
    4        0.416   0.204   9.177   9.796
    5        0.419   0.202   9.178   9.798
    6        0.416   0.204   9.177   9.796
    7        0.416   0.204   9.177   9.796
    8        0.416   0.204   9.177   9.796
    9        0.413   0.204   9.176   9.794
   10        0.408   0.269   9.165   9.842
   11        0.402   0.273   9.166   9.841
   12        0.408   0.269   9.165   9.842
   13        0.402   0.273   9.166   9.841
   14        0.402   0.273   9.166   9.841
   15        0.403   0.269   9.165   9.837
   16        0.408   0.269   9.165   9.842
   17        0.403   0.269   9.165   9.837
   18        0.403   0.269   9.165   9.837
   19        0.405   0.263   9.168   9.836
   20        0.439   0.301   9.139   9.879
   21        0.439   0.301   9.139   9.879
   22        0.393   0.276   9.163   9.832
   23        0.439   0.301   9.139   9.879
   24        0.393   0.276   9.163   9.832
   25        0.405   0.263   9.168   9.836
   26        0.405   0.263   9.168   9.836
   27        0.393   0.276   9.163   9.832
   28        0.420   0.196   9.177   9.793
   29        0.421   0.216   9.170   9.808
   30        0.421   0.216   9.170   9.808
   31        0.421   0.216   9.170   9.808
   32        0.421   0.216   9.170   9.808
   33        0.421   0.216   9.170   9.808
   34        0.421   0.216   9.170   9.808
   35        0.413   0.201   9.177   9.790
   36        0.494   0.500   4.392   5.387
   37        1.608   3.287   0.000   4.895
tot         16.557  12.264 325.262 354.084

 BZINTS: Fermi energy:    0.779650;  397.000000 electrons
         Band energy:-0.133865E+04;  BLOECHL correction:   -0.034747