 vasp.6.2.0 18Jan21 (build Jun 12 2021 23:27:24) complex

 executed on             LinuxIFC date 2022.05.30  17:58:08

 INCAR:
   ISMEAR = -5
   SIGMA = 0.1
   ISPIN = 1
   EDIFF = 1.d-5
   EDIFFG = -0.01
   NSW = 0
   NELM = 150
   ENCUT = 500
   ISIF = 2
   IBRION = 2
   LREAL = Auto
   ALGO = Fast
   ICHARG = 11
   LORBIT = 10
   LCHARG = .F.
   LWAVE = .F.

 POTCAR:    PAW_PBE Cu 22Jun2005
 POTCAR:    PAW_PBE Mn 06Sep2000
 POTCAR:    PAW_PBE C 08Apr2002
 POTCAR:    PAW_PBE O 08Apr2002
 POTCAR:    PAW_PBE H 15Jun2001
|           W    W    AA    RRRRR   N    N  II  N    N   GGGG   !!!           |
|           W    W   A  A   R    R  NN   N  II  NN   N  G    G  !!!           |
|           W    W  A    A  R    R  N N  N  II  N N  N  G       !!!           |
|           W WW W  AAAAAA  RRRRR   N  N N  II  N  N N  G  GGG   !            |
|           WW  WW  A    A  R   R   N   NN  II  N   NN  G    G                |
|           W    W  A    A  R    R  N    N  II  N    N   GGGG   !!!           |
|     For optimal performance we recommend to set                             |
|       NCORE = 2 up to number-of-cores-per-socket                            |
|     This setting can greatly improve the performance of VASP for DFT.       |
|     The default, NCORE=1 might be grossly inefficient on modern             |
|     multi-core architectures or massively parallel machines. Do your        |
|     Unfortunately you need to use the default for GW and RPA                |
|     calculations (for HF NCORE is supported but not extensively tested      |
|     yet).                                                                   |

 POTCAR:    PAW_PBE Cu 22Jun2005
   VRHFIN =Cu: d10 p1

   TITEL  = PAW_PBE Cu 22Jun2005
   POMASS =   63.546; ZVAL   =   11.000    mass and valenz
   ENMAX  =  295.446; ENMIN  =  221.585 eV

 POTCAR:    PAW_PBE Mn 06Sep2000
   VRHFIN =Mn: d6 s1

   TITEL  = PAW_PBE Mn 06Sep2000
   POMASS =   54.938; ZVAL   =    7.000    mass and valenz
   ENMAX  =  269.864; ENMIN  =  202.398 eV

 POTCAR:    PAW_PBE C 08Apr2002
   VRHFIN =C: s2p2

   TITEL  = PAW_PBE C 08Apr2002
   POMASS =   12.011; ZVAL   =    4.000    mass and valenz
   ENMAX  =  400.000; ENMIN  =  300.000 eV

 POTCAR:    PAW_PBE O 08Apr2002
   VRHFIN =O: s2p4

   TITEL  = PAW_PBE O 08Apr2002
   POMASS =   16.000; ZVAL   =    6.000    mass and valenz
   ENMAX  =  400.000; ENMIN  =  300.000 eV

 POTCAR:    PAW_PBE H 15Jun2001
   VRHFIN =H: ultrasoft test

   TITEL  = PAW_PBE H 15Jun2001
   POMASS =    1.000; ZVAL   =    1.000    mass and valenz
   ENMAX  =  250.000; ENMIN  =  200.000 eV

 Optimization of the real space projectors (new method)

 maximal supplied QI-value         = 16.25
 optimisation between [QCUT,QGAM] = [ 11.38, 22.75] = [ 36.24,144.96] Ry
 Optimized for a Real-space Cutoff    1.52 Angstroem

   l    n(q)    QCUT    max X(q) W(low)/X(q) W(high)/X(q)  e(spline)
   2      9    11.376     4.610    0.21E-03    0.10E-03    0.26E-06
   2      9    11.376     8.522    0.33E-03    0.16E-03    0.37E-06
   0     10    11.376    51.609    0.62E-04    0.20E-04    0.13E-06
   0     10    11.376    27.747    0.54E-04    0.20E-04    0.13E-06
   1     10    11.376    20.408    0.13E-04    0.99E-04    0.19E-06
   1     10    11.376    13.425    0.12E-04    0.87E-04    0.17E-06
 Optimization of the real space projectors (new method)

[...]

   l    n(q)    QCUT    max X(q) W(low)/X(q) W(high)/X(q)  e(spline)
   0      7    11.387    20.381    0.39E-03    0.13E-02    0.15E-06
   0      7    11.387    15.268    0.42E-03    0.14E-02    0.17E-06
   1      6    11.387     5.964    0.41E-03    0.11E-02    0.17E-06
   1      6    11.387     5.382    0.39E-03    0.87E-03    0.15E-06
 Optimization of the real space projectors (new method)

 maximal supplied QI-value         = 34.20
 optimisation between [QCUT,QGAM] = [ 11.29, 22.57] = [ 35.68,142.71] Ry
 Optimized for a Real-space Cutoff    1.16 Angstroem

   l    n(q)    QCUT    max X(q) W(low)/X(q) W(high)/X(q)  e(spline)
   0      8    11.287    19.460    0.40E-03    0.73E-03    0.16E-06
   0      8    11.287    12.209    0.38E-03    0.70E-03    0.15E-06
   1      7    11.287     4.655    0.22E-03    0.25E-04    0.22E-06
  PAW_PBE Cu 22Jun2005                  :
  PAW_PBE Mn 06Sep2000                  :
  PAW_PBE C 08Apr2002                   :
  PAW_PBE O 08Apr2002                   :
  PAW_PBE H 15Jun2001                   :

 POSCAR: Cu-Mn-COH
  positions in direct lattice
  velocities in cartesian coordinates
 exchange correlation table for  LEXCH =        8
   RHO(1)=    0.500       N(1)  =     2000
   RHO(2)=  100.500       N(2)  =     4000

 VTST: version 3.2, (02/03/18)

 CHAIN: initializing optimizer

 OPT: Using VASP Conjugate-Gradient optimizer
 CHAIN: Read ICHAIN            0

 POSCAR: Cu-Mn-COH
  positions in direct lattice
  velocities in cartesian coordinates

 ion  position               nearest neighbor table
   1  0.000  0.000  0.206-   7 2.57   3 2.57   4 2.57   2 2.57   6 2.57   8 2.57  12 2.57  10 2.57
                            16 2.57
   2  0.333  0.000  0.206-   8 2.57   9 2.57   5 2.57   1 2.57   3 2.57  11 2.57   4 2.57  10 2.57
                            17 2.57
   3  0.667  0.000  0.206-   1 2.57   7 2.57   6 2.57   9 2.57   2 2.57  12 2.57   5 2.57  18 2.57
                            11 2.57
   4  0.000  0.333  0.206-   5 2.57   6 2.57   1 2.57   7 2.57   2 2.57  13 2.57   9 2.57  10 2.57
                            15 2.57
   5  0.333  0.333  0.206-   4 2.57   2 2.57   7 2.57  13 2.57   8 2.57   6 2.57   3 2.57  11 2.57
                            14 2.57
   6  0.667  0.333  0.206-   4 2.57   9 2.57  15 2.57   3 2.57   1 2.57   8 2.57  14 2.57   5 2.57
                            12 2.57
   7  0.000  0.667  0.206-   1 2.57   3 2.57  16 2.57  18 2.57   4 2.57   5 2.57   8 2.57   9 2.57
                            13 2.57
   8  0.333  0.667  0.206-   9 2.57   2 2.57  17 2.57   6 2.57   1 2.57   7 2.57   5 2.57  14 2.57
                            16 2.57
   9  0.667  0.667  0.206-   8 2.57   6 2.57   2 2.57  17 2.57   3 2.57   7 2.57   4 2.57  15 2.57
                            18 2.57
  10  0.111  0.111  0.286-  20 2.55  26 2.56  19 2.56  11 2.57  12 2.57  13 2.57   1 2.57   2 2.57
                             4 2.57  15 2.57  16 2.57  17 2.57
  11  0.444  0.111  0.286-  20 2.55  21 2.55  27 2.56  10 2.57  13 2.57   2 2.57  17 2.57  14 2.57
                            12 2.57   5 2.57   3 2.57  18 2.57
  12  0.778  0.111  0.286-  21 2.55  19 2.56  25 2.56  15 2.57  10 2.57  14 2.57  18 2.57   3 2.57
                             1 2.57  16 2.57  11 2.57   6 2.57
  13  0.111  0.444  0.286-  23 2.55  20 2.55  22 2.56  16 2.57  18 2.57  10 2.57  11 2.57  14 2.57
                             5 2.57   4 2.57   7 2.57  15 2.57
  14  0.444  0.444  0.286-  21 2.55  23 2.55  24 2.56  15 2.57  17 2.57  12 2.57  16 2.57  13 2.57
                            11 2.57   6 2.57   8 2.57   5 2.57
  15  0.778  0.444  0.286-  19 2.56  24 2.56  22 2.56  14 2.57  17 2.57  12 2.57   6 2.57  18 2.57
                            10 2.57   9 2.57  13 2.57   4 2.57
  16  0.111  0.778  0.286-  23 2.55  25 2.56  26 2.56  18 2.57  13 2.57   7 2.57  14 2.57  17 2.57
                            12 2.57  10 2.57   8 2.57   1 2.57
  17  0.444  0.778  0.286-  26 2.56  27 2.56  24 2.56  14 2.57  15 2.57   8 2.57   9 2.57  11 2.57
                            16 2.57  18 2.57  10 2.57   2 2.57
  18  0.778  0.778  0.286-  25 2.56  22 2.56  27 2.56  16 2.57  13 2.57   7 2.57  15 2.57  12 2.57
                            17 2.57   9 2.57   3 2.57  11 2.57
  19  0.889  0.222  0.366-  28 2.55  15 2.56  12 2.56  10 2.56  22 2.56  24 2.56  21 2.57  20 2.57
                            25 2.57  26 2.57  32 2.57  31 2.57
  20  0.222  0.222  0.365-  36 2.48  11 2.55  13 2.55  10 2.55  29 2.56  31 2.56  23 2.56  21 2.56
                            26 2.57  19 2.57  27 2.57  22 2.57
  21  0.555  0.222  0.365-  36 2.48  14 2.55  11 2.55  12 2.55  32 2.56  30 2.56  20 2.56  23 2.56
                            19 2.57  25 2.57  24 2.57  27 2.57
  22  0.888  0.556  0.366-  35 2.55  24 2.56  27 2.56  31 2.56  33 2.56  18 2.56  15 2.56  13 2.56
                            19 2.56  25 2.56  23 2.57  20 2.57
  23  0.222  0.555  0.365-  36 2.48  13 2.55  14 2.55  16 2.55  33 2.56  34 2.56  20 2.56  21 2.56
                            25 2.57  26 2.57  22 2.57  24 2.57
  24  0.556  0.556  0.366-  35 2.55  22 2.56  27 2.56  32 2.56  34 2.56  15 2.56  17 2.56  14 2.56
                            19 2.56  26 2.56  21 2.57  23 2.57
  25  0.889  0.889  0.366-  28 2.55  18 2.56  16 2.56  12 2.56  22 2.56  27 2.56  21 2.57  23 2.57
                            19 2.57  26 2.57  33 2.57  30 2.57
  26  0.222  0.889  0.366-  28 2.55  17 2.56  10 2.56  16 2.56  27 2.56  24 2.56  20 2.57  23 2.57
                            25 2.57  19 2.57  29 2.57  34 2.57
  27  0.556  0.888  0.366-  35 2.55  24 2.56  22 2.56  29 2.56  30 2.56  17 2.56  18 2.56  11 2.56
                            26 2.56  25 2.56  20 2.57  21 2.57
  28  0.000  0.000  0.445-  25 2.55  19 2.55  26 2.55  33 2.58  30 2.58  31 2.58  29 2.58  32 2.58
                            34 2.58
  29  0.333  0.003  0.446-  31 2.54  36 2.55  30 2.55  20 2.56  27 2.56  26 2.57  28 2.58  35 2.58
                            34 2.61
  30  0.664  0.003  0.446-  32 2.54  36 2.55  29 2.55  21 2.56  27 2.56  25 2.57  28 2.58  35 2.58
                            33 2.61
  31  0.003  0.333  0.446-  29 2.54  36 2.55  33 2.55  20 2.56  22 2.56  19 2.57  28 2.58  35 2.58
                            32 2.61
  32  0.664  0.333  0.446-  30 2.54  36 2.55  34 2.55  21 2.56  24 2.56  19 2.57  28 2.58  35 2.58
                            31 2.61
  33  0.003  0.664  0.446-  34 2.54  36 2.55  31 2.55  23 2.56  22 2.56  25 2.57  28 2.58  35 2.58
                            30 2.61
  34  0.333  0.664  0.446-  33 2.54  36 2.55  32 2.55  23 2.56  24 2.56  26 2.57  28 2.58  35 2.58
                            29 2.61
  35  0.667  0.667  0.445-  24 2.55  27 2.55  22 2.55  34 2.58  32 2.58  29 2.58  30 2.58  33 2.58
                            31 2.58
  36  0.333  0.333  0.441-  37 1.68  23 2.48  20 2.48  21 2.48  31 2.55  29 2.55  33 2.55  34 2.55
                            32 2.55  30 2.55
  37  0.333  0.333  0.505-  38 1.27  36 1.68
  38  0.333  0.333  0.554-  39 0.96  37 1.27
  39  0.333  0.333  0.591-  38 0.96

  LATTYP: Found a hexagonal cell.
 ALAT       =     7.6967864036
 C/A-ratio  =     3.3950614187

  Lattice vectors:

 A1 = (  -3.8483927580,  -6.6656128093,   0.0000000000)
 A2 = (   7.6967864037,   0.0000000000,   0.0000000000)
 A3 = (   0.0000000000,   0.0000000000,  26.1310625667)

Analysis of symmetry for initial positions (statically):
 Subroutine PRICEL returns:
 Original cell was already a primitive cell.

 Routine SETGRP: Setting up the symmetry group for a
 hexagonal supercell.

 Subroutine GETGRP returns: Found  6 space group operations
 (whereof  6 operations were pure point group operations)
 out of a pool of 24 trial point group operations.

The static configuration has the point symmetry C_3v.

Analysis of symmetry for dynamics (positions and initial velocities):
[...]
     41      -4.0011      2.00000
     42      -3.9143      2.00000
     43      -3.9057      2.00000
     44      -3.8299      2.00000
     45      -3.8255      2.00000
     46      -3.8164      2.00000
     47      -3.7856      2.00000
     48      -3.7828      2.00000
     49      -3.7667      2.00000
     50      -3.7557      2.00000
     51      -3.5802      2.00000
     52      -3.5585      2.00000
     53      -3.5567      2.00000
     54      -3.5512      2.00000
     55      -3.5010      2.00000
     56      -3.4970      2.00000
     57      -3.4836      2.00000
     58      -3.4605      2.00000
     59      -3.4562      2.00000
     60      -3.4366      2.00000
[...]
    238       5.1576      0.00000
    239       5.2692      0.00000
    240       5.4040      0.00000
    241       5.4218      0.00000
    242       5.4872      0.00000
    243       5.5012      0.00000
    244       5.6010      0.00000
    245       5.8010      0.00000
    246       5.8403      0.00000
    247       5.9052      0.00000
    248       5.9412      0.00000
    249       6.0660      0.00000
    250       6.1793      0.00000
    251       6.7163      0.00000
    252       6.8579      0.00000

 soft charge-density along one line, spin component           1
         0         1         2         3         4         5         6         7         8         9
 total charge-density along one line

------------------------ aborting loop because EDIFF is reached ----------------------------------------

 total charge

# of ion       s       p       d       tot
    1        0.449   0.284   9.189   9.922
    2        0.449   0.286   9.186   9.921
    3        0.449   0.286   9.186   9.921
    4        0.449   0.286   9.186   9.921
    5        0.449   0.288   9.181   9.917
    6        0.449   0.286   9.186   9.921
    7        0.449   0.286   9.186   9.921
    8        0.449   0.286   9.186   9.921
    9        0.447   0.285   9.188   9.920
   10        0.441   0.372   9.176   9.988
   11        0.444   0.367   9.182   9.993
   12        0.441   0.372   9.176   9.988
   13        0.444   0.367   9.182   9.993
   14        0.444   0.367   9.182   9.993
   15        0.437   0.371   9.177   9.985
   16        0.441   0.372   9.176   9.988
   17        0.437   0.371   9.177   9.985
   18        0.437   0.371   9.177   9.985
   19        0.441   0.368   9.180   9.990
   20        0.460   0.393   9.166  10.018
   21        0.460   0.393   9.166  10.018
   22        0.433   0.377   9.178   9.987
   23        0.460   0.393   9.166  10.018
   24        0.433   0.377   9.178   9.987
   25        0.441   0.368   9.180   9.990
   26        0.441   0.368   9.180   9.990
   27        0.433   0.377   9.178   9.987
   28        0.449   0.285   9.189   9.923
   29        0.449   0.302   9.179   9.930
   30        0.449   0.302   9.179   9.930
   31        0.449   0.302   9.179   9.930
   32        0.449   0.302   9.179   9.930
   33        0.449   0.302   9.179   9.930
   34        0.449   0.302   9.179   9.930
   35        0.446   0.289   9.186   9.921
   36        0.390   0.467   5.263   6.120
   37        0.926   1.439   0.000   2.365
   38        1.522   3.762   0.000   5.284
   39        0.566   0.137   0.000   0.703
tot         19.000  17.507 326.559 363.066

  FORCE on cell =-STRESS in cart. coord.  units (eV):
  Direction    XX          YY          ZZ          XY          YZ          ZX
  Alpha Z   737.07300   737.07300   737.07300
  Ewald  270724.42197270724.42155************     0.00041     0.00013     0.00018
  Hartree283702.83452283702.83449************     0.00005     0.00006     0.00007
  E(xc)   -2327.22542 -2327.22505 -2330.58022    -0.00032    -0.00004    -0.00006
  Local  ************************567345.55236     0.01874    -0.00062    -0.00100
  n-local  -815.33663  -802.62062  -821.45532     6.86926    -0.04355     0.20968
  augment  3345.61554  3345.63560  3358.86202    -0.01737     0.00033     0.00052
  Kinetic  3416.08239  3420.22965  3377.88585     3.61825     1.78186    -1.34515
  Fock        0.00000     0.00000     0.00000     0.00000     0.00000     0.00000
  Total      -8.02608    -8.02608    -0.05075     0.00000     0.00000    -0.00000
  in kB      -9.59196    -9.59196    -0.06065     0.00000     0.00000    -0.00000

 VOLUME and BASIS-vectors are now :
  energy-cutoff  :      500.00
  volume of cell :     1340.62
      direct lattice vectors                 reciprocal lattice vectors
     7.696786404  0.000000000  0.000000000     0.129924354 -0.075011849  0.000000000
     3.848392758  6.665612809  0.000000000     0.000000000  0.150023716  0.000000000
     0.000000000  0.000000000 26.131062567     0.000000000  0.000000000  0.038268631

  length of vectors
     7.696786404  7.696786404 26.131062567     0.150023716  0.150023716  0.038268631

 FORCES acting on ions
    electron-ion (+dipol)            ewald-force                    non-local-force                 convergence-correction
   -.436E-04 -.101E-05 0.394E+04   0.579E-04 -.439E-05 -.393E+04   0.112E-16 0.211E-17 -.278E+01   -.251E-03 -.112E-03 -.926E-01
   -.119E+00 0.769E-01 0.394E+04   0.222E-01 -.388E-01 -.393E+04   0.460E-01 0.733E-01 -.188E+01   0.577E-01 -.877E-01 -.282E-01
   0.119E+00 0.769E-01 0.394E+04   -.223E-01 -.389E-01 -.393E+04   -.460E-01 0.733E-01 -.188E+01   -.570E-01 -.853E-01 -.274E-01
   0.720E-02 -.141E+00 0.394E+04   -.226E-01 0.387E-01 -.393E+04   0.865E-01 0.323E-02 -.188E+01   -.470E-01 0.938E-01 -.281E-01
   -.703E-04 -.840E-05 0.394E+04   0.116E-03 -.101E-04 -.393E+04   0.158E-18 0.107E-17 -.161E+01   0.120E-01 0.735E-02 0.309E-01
   -.717E-02 -.141E+00 0.394E+04   0.225E-01 0.386E-01 -.393E+04   -.865E-01 0.323E-02 -.188E+01   0.455E-01 0.950E-01 -.272E-01
   0.126E+00 0.645E-01 0.394E+04   -.448E-01 0.161E-03 -.393E+04   0.404E-01 -.765E-01 -.188E+01   -.102E+00 -.675E-02 -.272E-01
   -.126E+00 0.645E-01 0.394E+04   0.446E-01 0.175E-03 -.393E+04   -.404E-01 -.765E-01 -.188E+01   0.106E+00 -.806E-02 -.273E-01
   -.146E-03 -.339E-04 0.394E+04   0.263E-03 0.206E-04 -.393E+04   -.159E-18 0.265E-17 -.245E+01   -.131E-01 -.677E-02 -.474E-01
   0.874E+00 0.505E+00 0.136E+04   -.451E+00 -.260E+00 -.136E+04   -.448E+00 -.259E+00 -.103E+01   0.229E-01 0.132E-01 -.986E-01
   -.890E-04 0.598E+00 0.136E+04   0.189E-03 -.814E+00 -.136E+04   -.134E-07 0.201E+00 -.581E+00   0.113E-01 -.180E-01 -.147E+00
   -.874E+00 0.505E+00 0.136E+04   0.450E+00 -.260E+00 -.136E+04   0.448E+00 -.259E+00 -.103E+01   -.239E-01 0.137E-01 -.101E+00
   0.517E+00 -.299E+00 0.136E+04   -.705E+00 0.407E+00 -.136E+04   0.174E+00 -.101E+00 -.581E+00   -.947E-02 0.196E-01 -.147E+00
   -.517E+00 -.299E+00 0.136E+04   0.705E+00 0.407E+00 -.136E+04   -.174E+00 -.101E+00 -.581E+00   0.324E-01 0.183E-01 -.150E+00
   -.142E-03 -.187E+00 0.136E+04   0.299E-03 -.878E-02 -.136E+04   -.696E-08 0.105E+00 -.101E+01   -.272E-02 0.839E-01 -.145E+00
   -.908E-04 -.101E+01 0.136E+04   0.186E-03 0.520E+00 -.136E+04   -.345E-07 0.517E+00 -.103E+01   -.104E-02 -.288E-01 -.101E+00
   -.162E+00 0.934E-01 0.136E+04   -.756E-02 0.465E-02 -.136E+04   0.906E-01 -.523E-01 -.101E+01   0.720E-01 -.443E-01 -.145E+00
   0.162E+00 0.934E-01 0.136E+04   0.734E-02 0.459E-02 -.136E+04   -.906E-01 -.523E-01 -.101E+01   -.707E-01 -.425E-01 -.144E+00
   -.619E-04 -.130E+01 -.123E+04   0.685E-04 0.117E+01 0.123E+04   -.311E-08 0.466E-01 0.986E+00   0.129E-01 0.948E-01 -.440E+00
   -.137E+02 -.789E+01 -.123E+04   0.146E+02 0.844E+01 0.123E+04   -.108E+01 -.626E+00 -.909E+00   0.796E-02 0.447E-02 -.370E+00
   0.137E+02 -.789E+01 -.123E+04   -.146E+02 0.844E+01 0.123E+04   0.108E+01 -.626E+00 -.909E+00   -.308E-01 0.262E-02 -.372E+00
   -.759E+01 0.438E+01 -.123E+04   0.726E+01 -.419E+01 0.123E+04   0.377E+00 -.218E+00 0.704E+00   0.179E-01 0.386E-03 -.386E+00
   -.783E-04 0.158E+02 -.123E+04   0.144E-03 -.169E+02 0.123E+04   -.834E-07 0.125E+01 -.909E+00   -.143E-01 -.292E-01 -.372E+00
   0.759E+01 0.438E+01 -.123E+04   -.726E+01 -.419E+01 0.123E+04   -.377E+00 -.218E+00 0.704E+00   0.559E-02 0.235E-02 -.385E+00
   0.113E+01 0.652E+00 -.123E+04   -.102E+01 -.586E+00 0.123E+04   -.404E-01 -.233E-01 0.986E+00   -.672E-01 -.388E-01 -.440E+00
   -.113E+01 0.652E+00 -.123E+04   0.101E+01 -.586E+00 0.123E+04   0.404E-01 -.233E-01 0.986E+00   0.888E-01 -.360E-01 -.440E+00
   -.127E-03 -.876E+01 -.123E+04   0.242E-03 0.839E+01 0.123E+04   -.290E-07 0.435E+00 0.704E+00   0.925E-02 0.153E-01 -.386E+00
   -.334E-04 0.173E-04 -.379E+04   0.335E-04 -.347E-04 0.378E+04   0.110E-17 -.978E-17 0.213E+01   -.129E-02 -.693E-03 0.208E+00
   0.592E+01 0.101E+02 -.376E+04   -.560E+01 -.988E+01 0.376E+04   -.367E+00 -.361E+00 0.254E+01   0.287E-01 0.566E-01 -.846E-02
   -.592E+01 0.101E+02 -.376E+04   0.560E+01 -.988E+01 0.376E+04   0.367E+00 -.361E+00 0.254E+01   -.705E-02 0.577E-01 -.789E-02
   0.118E+02 0.528E-01 -.376E+04   -.114E+02 0.938E-01 0.376E+04   -.496E+00 -.138E+00 0.254E+01   0.635E-01 -.347E-02 -.848E-02
   -.118E+02 0.531E-01 -.376E+04   0.114E+02 0.937E-01 0.376E+04   0.496E+00 -.138E+00 0.254E+01   -.414E-01 -.222E-02 -.609E-02
   0.583E+01 -.102E+02 -.376E+04   -.576E+01 0.979E+01 0.376E+04   -.129E+00 0.498E+00 0.254E+01   0.464E-01 -.350E-01 -.790E-02
   -.583E+01 -.102E+02 -.376E+04   0.576E+01 0.979E+01 0.376E+04   0.129E+00 0.498E+00 0.254E+01   -.219E-01 -.348E-01 -.597E-02
   -.133E-03 -.184E-04 -.379E+04   0.256E-03 0.653E-05 0.379E+04   0.144E-16 -.439E-17 0.233E+01   -.141E-01 -.735E-02 0.167E+00
   -.644E-04 -.273E-04 -.219E+04   0.914E-04 0.167E-04 0.219E+04   0.330E-17 0.184E-17 0.847E+00   0.118E-02 0.757E-03 0.118E-01
   -.418E-05 -.706E-04 -.151E+04   0.140E-04 0.622E-05 0.149E+04   -.463E-19 0.419E-18 0.201E+02   0.754E-03 0.462E-03 -.244E-01
   0.229E-03 -.708E-04 -.234E+04   0.292E-05 0.287E-05 0.235E+04   0.765E-19 0.128E-19 -.394E+01   0.326E-02 0.199E-02 0.273E-01
   0.291E-05 -.143E-04 -.422E+03   0.710E-07 0.189E-06 0.430E+03   0.921E-20 0.746E-20 -.866E+01   0.171E-03 0.104E-03 0.762E-02
   -.127E-03 -.215E-03 0.328E+00   -.527E-13 0.269E-13 0.767E-11   -.377E-16 -.576E-16 0.442E+01   0.120E+00 0.666E-01 -.469E+01

 POSITION                                       TOTAL-FORCE (eV/Angst)
      0.00000      0.00000      5.37156         0.000000      0.000000     -0.001331
      2.56560      0.00000      5.37156         0.007474      0.024686      0.067936
      5.13119      0.00000      5.37156        -0.007474      0.024686      0.067936
      1.28280      2.22187      5.37156         0.025115     -0.005871      0.067936
      3.84839      2.22187      5.37156         0.000000      0.000000      0.057961
      6.41399      2.22187      5.37156        -0.025115     -0.005871      0.067936
      2.56560      4.44374      5.37156         0.017642     -0.018815      0.067936
      5.13119      4.44374      5.37156        -0.017642     -0.018815      0.067936
      7.69679      4.44374      5.37156        -0.000000      0.000000      0.026343
      1.28280      0.74062      7.46636        -0.000552     -0.000319     -0.071469
      3.84839      0.74062      7.46636         0.000000     -0.040160     -0.087698
      6.41399      0.74062      7.46636         0.000552     -0.000319     -0.071469
      2.56560      2.96249      7.46636        -0.034779      0.020080     -0.087698
      5.13119      2.96249      7.46636         0.034779      0.020080     -0.087698
      7.69679      2.96249      7.46636         0.000000     -0.007646     -0.024016
      3.84839      5.18437      7.46636        -0.000000      0.000637     -0.071469
      6.41399      5.18437      7.46636        -0.006622      0.003823     -0.024016
      8.97958      5.18437      7.46636         0.006622      0.003823     -0.024016
      7.69679      1.48275      9.55327        -0.000000      0.004365      0.068136
      2.56715      1.48214      9.54261        -0.104341     -0.060241     -0.264227
      5.12964      1.48214      9.54261         0.104341     -0.060241     -0.264227
      8.97640      3.70496      9.55687         0.059539     -0.034375      0.008090
      3.84839      3.70133      9.54261        -0.000000      0.120482     -0.264227
      6.41717      3.70496      9.55687        -0.059539     -0.034375      0.008090
     10.26108      5.92424      9.55327        -0.003780     -0.002182      0.068136
      5.13249      5.92424      9.55327         0.003780     -0.002182      0.068136
      7.69679      5.92131      9.55687        -0.000000      0.068750      0.008090
      0.00000      0.00000     11.63217         0.000000      0.000000     -0.083708
      2.57513      0.01976     11.64308        -0.024834     -0.042090     -0.021822
      5.12165      0.01976     11.64308         0.024834     -0.042090     -0.021822
      1.30468      2.22025     11.64308        -0.048868     -0.000462     -0.021822
      6.39211      2.22025     11.64308         0.048868     -0.000462     -0.021822
      2.57794      4.42560     11.64308        -0.024033      0.042552     -0.021822
      5.11885      4.42560     11.64308         0.024033      0.042552     -0.021822
      7.69679      4.44374     11.63403         0.000000      0.000000     -0.048239
      3.84839      2.22187     11.52902         0.000000      0.000000      0.882116
      3.84839      2.22187     13.20735         0.000000      0.000000      0.011487
      3.84839      2.22187     14.47725         0.000000      0.000000     -0.007325
      3.84839      2.22187     15.43430         0.000000      0.000000     -0.000436
    total drift:                                0.120290      0.066414      0.058620

  FREE ENERGIE OF THE ION-ELECTRON SYSTEM (eV)
  free  energy   TOTEN  =      -147.97677954 eV

  energy  without entropy=     -147.97677954  energy(sigma->0) =     -147.97677954

 stress matrix after NEB project (eV)
     -8.02608      0.00000     -0.00000
      0.00000     -8.02608     -0.00000
     -0.00000      0.00000     -0.05075
  FORCES: max atom, RMS     0.011487    0.002183
  FORCE total and by dimension    0.013631    0.011487
  Stress total and by dimension   11.350701    8.026078
|           W    W    AA    RRRRR   N    N  II  N    N   GGGG   !!!           |
|           W    W   A  A   R    R  NN   N  II  NN   N  G    G  !!!           |
|           W    W  A    A  R    R  N N  N  II  N N  N  G       !!!           |
|           W WW W  AAAAAA  RRRRR   N  N N  II  N  N N  G  GGG   !            |
|           WW  WW  A    A  R   R   N   NN  II  N   NN  G    G                |
|           W    W  A    A  R    R  N    N  II  N    N   GGGG   !!!           |
|     Tetrahedron method does not include variations of the Fermi             |
|     occupations, so forces and stress will be inaccurate. We suggest        |
|     using a different smearing scheme ISMEAR = 1 or 2 for metals in         |
|     relaxations.                                                            |

 total charge

# of ion       s       p       d       tot
    1        0.449   0.284   9.189   9.922
    2        0.449   0.286   9.186   9.921
    3        0.449   0.286   9.186   9.921
    4        0.449   0.286   9.186   9.921
    5        0.449   0.288   9.181   9.917
    6        0.449   0.286   9.186   9.921
    7        0.449   0.286   9.186   9.921
    8        0.449   0.286   9.186   9.921
    9        0.447   0.285   9.188   9.920
   10        0.441   0.372   9.176   9.988
   11        0.444   0.367   9.182   9.993
   12        0.441   0.372   9.176   9.988
   13        0.444   0.367   9.182   9.993
   14        0.444   0.367   9.182   9.993
   15        0.437   0.371   9.177   9.985
   16        0.441   0.372   9.176   9.988
   17        0.437   0.371   9.177   9.985
   18        0.437   0.371   9.177   9.985
   19        0.441   0.368   9.180   9.990
   20        0.460   0.393   9.166  10.018
   21        0.460   0.393   9.166  10.018
   22        0.433   0.377   9.178   9.987
   23        0.460   0.393   9.166  10.018
   24        0.433   0.377   9.178   9.987
   25        0.441   0.368   9.180   9.990
   26        0.441   0.368   9.180   9.990
   27        0.433   0.377   9.178   9.987
   28        0.449   0.285   9.189   9.923
   29        0.449   0.302   9.179   9.930
   30        0.449   0.302   9.179   9.930
   31        0.449   0.302   9.179   9.930
   32        0.449   0.302   9.179   9.930
   33        0.449   0.302   9.179   9.930
   34        0.449   0.302   9.179   9.930
   35        0.446   0.289   9.186   9.921
   36        0.390   0.467   5.263   6.120
   37        0.926   1.439   0.000   2.365
   38        1.522   3.762   0.000   5.284
   39        0.566   0.137   0.000   0.703
tot         19.000  17.507 326.559 363.066

 BZINTS: Fermi energy:   -0.131502;  403.000000 electrons
         Band energy:-0.126940E+04;  BLOECHL correction:   -0.035734