 vasp.6.2.0 18Jan21 (build Jun 12 2021 23:27:24) complex

 executed on             LinuxIFC date 2022.05.26  19:59:41

 INCAR:
   ISMEAR = -5
   SIGMA = 0.1
   ISPIN = 1
   EDIFF = 1.d-5
   EDIFFG = -0.01
   NSW = 0
   NELM = 150
   ENCUT = 500
   ISIF = 2
   IBRION = 2
   LREAL = Auto
   ALGO = Fast
   ICHARG = 11
   LORBIT = 10
   LCHARG = .F.
   LWAVE = .F.

 POTCAR:    PAW_PBE Cu 22Jun2005
 POTCAR:    PAW_PBE Co 02Aug2007
 POTCAR:    PAW_PBE H 15Jun2001
|           W    W    AA    RRRRR   N    N  II  N    N   GGGG   !!!           |
|           W    W   A  A   R    R  NN   N  II  NN   N  G    G  !!!           |
|           W    W  A    A  R    R  N N  N  II  N N  N  G       !!!           |
|           W WW W  AAAAAA  RRRRR   N  N N  II  N  N N  G  GGG   !            |
|           WW  WW  A    A  R   R   N   NN  II  N   NN  G    G                |
|           W    W  A    A  R    R  N    N  II  N    N   GGGG   !!!           |
|     For optimal performance we recommend to set                             |
|       NCORE = 2 up to number-of-cores-per-socket                            |
|     This setting can greatly improve the performance of VASP for DFT.       |
|     The default, NCORE=1 might be grossly inefficient on modern             |
|     multi-core architectures or massively parallel machines. Do your        |
|     Unfortunately you need to use the default for GW and RPA                |
|     calculations (for HF NCORE is supported but not extensively tested      |
|     yet).                                                                   |

 POTCAR:    PAW_PBE Cu 22Jun2005
   VRHFIN =Cu: d10 p1

   TITEL  = PAW_PBE Cu 22Jun2005
   POMASS =   63.546; ZVAL   =   11.000    mass and valenz
   ENMAX  =  295.446; ENMIN  =  221.585 eV

 POTCAR:    PAW_PBE Co 02Aug2007
   VRHFIN =Co: d8 s1

   TITEL  = PAW_PBE Co 02Aug2007
   POMASS =   58.933; ZVAL   =    9.000    mass and valenz
   ENMAX  =  267.968; ENMIN  =  200.976 eV

 POTCAR:    PAW_PBE H 15Jun2001
   VRHFIN =H: ultrasoft test

   TITEL  = PAW_PBE H 15Jun2001
   POMASS =    1.000; ZVAL   =    1.000    mass and valenz
   ENMAX  =  250.000; ENMIN  =  200.000 eV

 Optimization of the real space projectors (new method)

 maximal supplied QI-value         = 16.25
 optimisation between [QCUT,QGAM] = [ 11.38, 22.75] = [ 36.24,144.96] Ry
 Optimized for a Real-space Cutoff    1.52 Angstroem

   l    n(q)    QCUT    max X(q) W(low)/X(q) W(high)/X(q)  e(spline)
   2      9    11.376     4.610    0.21E-03    0.10E-03    0.26E-06
   2      9    11.376     8.522    0.33E-03    0.16E-03    0.37E-06
   0     10    11.376    51.609    0.62E-04    0.20E-04    0.13E-06
   0     10    11.376    27.747    0.54E-04    0.20E-04    0.13E-06
   1     10    11.376    20.408    0.13E-04    0.99E-04    0.19E-06
   1     10    11.376    13.425    0.12E-04    0.87E-04    0.17E-06
 Optimization of the real space projectors (new method)

[...]

   l    n(q)    QCUT    max X(q) W(low)/X(q) W(high)/X(q)  e(spline)
   2      8    11.376    65.824    0.20E-03    0.32E-04    0.13E-06
   2      8    11.376    61.429    0.20E-03    0.33E-04    0.14E-06
   0      9    11.376    56.174    0.76E-04    0.11E-03    0.19E-06
   0      9    11.376    31.263    0.69E-04    0.99E-04    0.17E-06
   1      9    11.376    19.828    0.35E-03    0.11E-03    0.12E-06
   1      9    11.376    15.139    0.29E-03    0.94E-04    0.10E-06
 Optimization of the real space projectors (new method)

 maximal supplied QI-value         = 34.20
 optimisation between [QCUT,QGAM] = [ 11.29, 22.57] = [ 35.68,142.71] Ry
 Optimized for a Real-space Cutoff    1.16 Angstroem

   l    n(q)    QCUT    max X(q) W(low)/X(q) W(high)/X(q)  e(spline)
   0      8    11.287    19.460    0.40E-03    0.73E-03    0.16E-06
   0      8    11.287    12.209    0.38E-03    0.70E-03    0.15E-06
   1      7    11.287     4.655    0.22E-03    0.25E-04    0.22E-06
  PAW_PBE Cu 22Jun2005                  :
  PAW_PBE Co 02Aug2007                  :
  PAW_PBE H 15Jun2001                   :

 POSCAR: Cu-Co-H
  positions in direct lattice
  velocities in cartesian coordinates
 exchange correlation table for  LEXCH =        8
   RHO(1)=    0.500       N(1)  =     2000
   RHO(2)=  100.500       N(2)  =     4000

 VTST: version 3.2, (02/03/18)

 CHAIN: initializing optimizer

 OPT: Using VASP Conjugate-Gradient optimizer
 CHAIN: Read ICHAIN            0

 POSCAR: Cu-Co-H
  positions in direct lattice
  velocities in cartesian coordinates

 ion  position               nearest neighbor table
   1  0.000  0.000  0.252-   7 2.57   3 2.57   4 2.57   2 2.57   6 2.57   8 2.57  12 2.57  10 2.57
                            16 2.57
   2  0.333  0.000  0.252-   8 2.57   9 2.57   5 2.57   1 2.57   3 2.57  11 2.57   4 2.57  10 2.57
                            17 2.57
   3  0.667  0.000  0.252-   1 2.57   7 2.57   6 2.57   9 2.57   2 2.57  12 2.57   5 2.57  18 2.57
                            11 2.57
   4  0.000  0.333  0.252-   5 2.57   6 2.57   1 2.57   7 2.57   2 2.57  13 2.57   9 2.57  10 2.57
                            15 2.57
   5  0.333  0.333  0.252-   4 2.57   2 2.57   7 2.57  13 2.57   8 2.57   6 2.57   3 2.57  11 2.57
                            14 2.57
   6  0.667  0.333  0.252-   4 2.57   9 2.57  15 2.57   3 2.57   1 2.57   8 2.57  14 2.57   5 2.57
                            12 2.57
   7  0.000  0.667  0.252-   1 2.57   3 2.57  16 2.57  18 2.57   4 2.57   5 2.57   8 2.57   9 2.57
                            13 2.57
   8  0.333  0.667  0.252-   9 2.57   2 2.57  17 2.57   6 2.57   1 2.57   7 2.57   5 2.57  14 2.57
                            16 2.57
   9  0.667  0.667  0.252-   8 2.57   6 2.57   2 2.57  17 2.57   3 2.57   7 2.57   4 2.57  15 2.57
                            18 2.57
  10  0.111  0.111  0.351-  20 2.55  26 2.56  19 2.56  11 2.57  12 2.57  13 2.57   1 2.57   2 2.57
                             4 2.57  15 2.57  16 2.57  17 2.57
  11  0.444  0.111  0.351-  20 2.55  21 2.55  27 2.56  10 2.57  13 2.57   2 2.57  17 2.57  14 2.57
                            12 2.57   5 2.57   3 2.57  18 2.57
  12  0.778  0.111  0.351-  21 2.55  19 2.56  25 2.56  15 2.57  10 2.57  14 2.57  18 2.57   3 2.57
                             1 2.57  16 2.57  11 2.57   6 2.57
  13  0.111  0.444  0.351-  23 2.55  20 2.55  22 2.56  16 2.57  18 2.57  10 2.57  11 2.57  14 2.57
                             5 2.57   4 2.57   7 2.57  15 2.57
  14  0.444  0.444  0.351-  21 2.55  23 2.55  24 2.56  15 2.57  17 2.57  12 2.57  16 2.57  13 2.57
                            11 2.57   6 2.57   8 2.57   5 2.57
  15  0.778  0.444  0.351-  24 2.56  22 2.56  19 2.56  14 2.57  17 2.57  12 2.57   6 2.57  18 2.57
                            10 2.57   9 2.57  13 2.57   4 2.57
  16  0.111  0.778  0.351-  23 2.55  25 2.56  26 2.56  18 2.57  13 2.57   7 2.57  14 2.57  17 2.57
                            12 2.57  10 2.57   8 2.57   1 2.57
  17  0.444  0.778  0.351-  27 2.56  24 2.56  26 2.56  14 2.57  15 2.57   8 2.57   9 2.57  11 2.57
                            16 2.57  18 2.57  10 2.57   2 2.57
  18  0.778  0.778  0.351-  22 2.56  27 2.56  25 2.56  16 2.57  13 2.57   7 2.57  15 2.57  12 2.57
                            17 2.57   9 2.57   3 2.57  11 2.57
  19  0.889  0.223  0.449-  28 2.54  32 2.56  31 2.56  15 2.56  12 2.56  10 2.56  22 2.56  24 2.56
                            21 2.57  20 2.57  25 2.57  26 2.57
  20  0.222  0.222  0.448-  36 2.46  29 2.55  31 2.55  11 2.55  13 2.55  10 2.55  23 2.56  21 2.56
                            26 2.57  19 2.57  27 2.57  22 2.57
  21  0.555  0.222  0.448-  36 2.46  32 2.55  30 2.55  14 2.55  11 2.55  12 2.55  20 2.56  23 2.56
                            19 2.57  25 2.57  24 2.57  27 2.57
  22  0.889  0.556  0.449-  35 2.54  31 2.55  33 2.55  18 2.56  15 2.56  13 2.56  24 2.56  27 2.56
                            19 2.56  25 2.56  23 2.57  20 2.57
  23  0.222  0.555  0.448-  36 2.46  33 2.55  34 2.55  13 2.55  14 2.55  16 2.55  20 2.56  21 2.56
                            25 2.57  26 2.57  22 2.57  24 2.57
  24  0.556  0.556  0.449-  35 2.54  32 2.55  34 2.55  15 2.56  17 2.56  14 2.56  22 2.56  27 2.56
                            19 2.56  26 2.56  21 2.57  23 2.57
  25  0.889  0.889  0.449-  28 2.54  33 2.56  30 2.56  18 2.56  16 2.56  12 2.56  22 2.56  27 2.56
                            21 2.57  23 2.57  19 2.57  26 2.57
  26  0.223  0.889  0.449-  28 2.54  29 2.56  34 2.56  17 2.56  10 2.56  16 2.56  27 2.56  24 2.56
                            20 2.57  23 2.57  25 2.57  19 2.57
  27  0.556  0.889  0.449-  35 2.54  29 2.55  30 2.55  17 2.56  18 2.56  11 2.56  24 2.56  22 2.56
                            26 2.56  25 2.56  20 2.57  21 2.57
  28  0.000  0.000  0.546-  25 2.54  19 2.54  26 2.54  33 2.58  30 2.58  31 2.58  29 2.58  32 2.58
                            34 2.58
  29  0.333  0.003  0.546-  31 2.54  36 2.54  30 2.55  20 2.55  27 2.55  26 2.56  28 2.58  35 2.58
                            34 2.61
  30  0.664  0.003  0.546-  32 2.54  36 2.54  29 2.55  21 2.55  27 2.55  25 2.56  28 2.58  35 2.58
                            33 2.61
  31  0.003  0.333  0.546-  29 2.54  36 2.54  33 2.55  20 2.55  22 2.55  19 2.56  28 2.58  35 2.58
                            32 2.61
  32  0.664  0.333  0.546-  30 2.54  36 2.54  34 2.55  21 2.55  24 2.55  19 2.56  28 2.58  35 2.58
                            31 2.61
  33  0.003  0.664  0.546-  34 2.54  36 2.54  31 2.55  23 2.55  22 2.55  25 2.56  28 2.58  35 2.58
                            30 2.61
  34  0.333  0.664  0.546-  33 2.54  36 2.54  32 2.55  23 2.55  24 2.55  26 2.56  28 2.58  35 2.58
                            29 2.61
  35  0.667  0.667  0.546-  24 2.54  27 2.54  22 2.54  34 2.58  32 2.58  29 2.58  30 2.58  33 2.58
                            31 2.58
  36  0.333  0.333  0.541-  37 1.49  23 2.46  20 2.46  21 2.46  31 2.54  29 2.54  33 2.54  34 2.54
                            32 2.54  30 2.54
  37  0.333  0.333  0.611-  36 1.49

  LATTYP: Found a hexagonal cell.
 ALAT       =     7.6967864036
 C/A-ratio  =     2.7653617908

  Lattice vectors:

 A1 = (  -3.8483927580,  -6.6656128093,   0.0000000000)
 A2 = (   7.6967864037,   0.0000000000,   0.0000000000)
 A3 = (   0.0000000000,   0.0000000000,  21.2843990326)

Analysis of symmetry for initial positions (statically):
 Subroutine PRICEL returns:
 Original cell was already a primitive cell.

 Routine SETGRP: Setting up the symmetry group for a
 hexagonal supercell.

 Subroutine GETGRP returns: Found  6 space group operations
 (whereof  6 operations were pure point group operations)
 out of a pool of 24 trial point group operations.

The static configuration has the point symmetry C_3v.

Analysis of symmetry for dynamics (positions and initial velocities):
 Subroutine PRICEL returns:
 Original cell was already a primitive cell.

[...]

The dynamic configuration has the point symmetry C_3v.

Analysis of constrained symmetry for selective dynamics:
 Subroutine PRICEL returns:
 Original cell was already a primitive cell.

 Routine SETGRP: Setting up the symmetry group for a
 hexagonal supercell.

 Subroutine GETGRP returns: Found  6 space group operations
 (whereof  6 operations were pure point group operations)
[...]
     24      -4.1506      2.00000
     25      -4.1309      2.00000
     26      -4.0897      2.00000
     27      -4.0759      2.00000
     28      -4.0707      2.00000
     29      -4.0589      2.00000
     30      -4.0508      2.00000
     31      -4.0303      2.00000
     32      -3.9781      2.00000
     33      -3.9602      2.00000
     34      -3.9389      2.00000
     35      -3.8532      2.00000
     36      -3.8229      2.00000
     37      -3.7577      2.00000
     38      -3.7474      2.00000
     39      -3.6742      2.00000
     40      -3.6603      2.00000
     41      -3.6320      2.00000
     42      -3.6266      2.00000
     43      -3.6179      2.00000
     44      -3.5828      2.00000
     45      -3.5674      2.00000
     46      -3.4517      2.00000
     47      -3.4041      2.00000
     48      -3.3897      2.00000
     49      -3.3819      2.00000
     50      -3.3531      2.00000
     51      -3.3231      2.00000
     52      -3.3199      2.00000
     53      -3.2870      2.00000
     54      -3.2761      2.00000
     55      -3.2738      2.00000
     56      -3.2489      2.00000
     57      -3.2476      2.00000
     58      -3.2340      2.00000
     59      -3.2272      2.00000
     60      -3.2102      2.00000
[...]
    238       6.8368      0.00000
    239       6.8732      0.00000
    240       7.0288      0.00000
    241       7.0366      0.00000
    242       7.2062      0.00000
    243       7.2612      0.00000
    244       7.2767      0.00000
    245       7.3982      0.00000
    246       7.4874      0.00000
    247       7.6222      0.00000
    248       7.7706      0.00000
    249       7.8856      0.00000
    250       8.0747      0.00000
    251       8.1485      0.00000
    252       8.4350      0.00000

 soft charge-density along one line, spin component           1
         0         1         2         3         4         5         6         7         8         9
 total charge-density along one line

------------------------ aborting loop because EDIFF is reached ----------------------------------------

 total charge

# of ion       s       p       d       tot
    1        0.449   0.283   9.190   9.922
    2        0.449   0.285   9.186   9.920
    3        0.449   0.285   9.186   9.920
    4        0.449   0.285   9.186   9.920
    5        0.450   0.286   9.179   9.915
    6        0.449   0.285   9.186   9.920
    7        0.449   0.285   9.186   9.920
    8        0.449   0.285   9.186   9.920
    9        0.448   0.282   9.192   9.922
   10        0.441   0.372   9.175   9.988
   11        0.444   0.366   9.185   9.995
   12        0.441   0.372   9.175   9.988
   13        0.444   0.366   9.185   9.995
   14        0.444   0.366   9.185   9.995
   15        0.439   0.371   9.177   9.987
   16        0.441   0.372   9.175   9.988
   17        0.439   0.371   9.177   9.987
   18        0.439   0.371   9.177   9.987
   19        0.440   0.371   9.181   9.993
   20        0.457   0.385   9.172  10.014
   21        0.457   0.385   9.172  10.014
   22        0.435   0.377   9.181   9.992
   23        0.457   0.385   9.172  10.014
   24        0.435   0.377   9.181   9.992
   25        0.440   0.371   9.181   9.993
   26        0.440   0.371   9.181   9.993
   27        0.435   0.377   9.181   9.992
   28        0.447   0.282   9.194   9.923
   29        0.449   0.289   9.183   9.921
   30        0.449   0.289   9.183   9.921
   31        0.449   0.289   9.183   9.921
   32        0.449   0.289   9.183   9.921
   33        0.449   0.289   9.183   9.921
   34        0.449   0.289   9.183   9.921
   35        0.443   0.285   9.192   9.920
   36        0.466   0.436   7.365   8.268
   37        0.505   0.016   0.000   0.521
tot         16.562  12.044 328.739 357.345

  FORCE on cell =-STRESS in cart. coord.  units (eV):
  Direction    XX          YY          ZZ          XY          YZ          ZX
  Alpha Z   859.63767   859.63767   859.63767
  Ewald  174527.28756174527.28713************     0.00039     0.00010     0.00017
  Hartree187535.42292187535.42288************     0.00004     0.00004     0.00007
  E(xc)   -2295.39129 -2295.39080 -2299.98856    -0.00042    -0.00003    -0.00006
  Local  ************************375407.23047     0.01835    -0.00054    -0.00093
  n-local  -775.62623  -759.95270  -778.34026     8.43795    -0.09416     0.30667
  augment  3463.19149  3463.21138  3479.97568    -0.01722     0.00025     0.00045
  Kinetic  3211.26812  3216.46654  3237.91245     3.94301     1.61884    -1.26135
  Fock        0.00000     0.00000     0.00000     0.00000     0.00000     0.00000
  Total      -8.36919    -8.36919     1.18008     0.00000    -0.00000    -0.00000
  in kB     -12.27956   -12.27956     1.73146     0.00000    -0.00000    -0.00000

 VOLUME and BASIS-vectors are now :
  energy-cutoff  :      500.00
  volume of cell :     1091.97
      direct lattice vectors                 reciprocal lattice vectors
     7.696786404  0.000000000  0.000000000     0.129924354 -0.075011849  0.000000000
     3.848392758  6.665612809  0.000000000     0.000000000  0.150023716  0.000000000
     0.000000000  0.000000000 21.284399033     0.000000000  0.000000000  0.046982769

  length of vectors
     7.696786404  7.696786404 21.284399033     0.150023716  0.150023716  0.046982769

 FORCES acting on ions
    electron-ion (+dipol)            ewald-force                    non-local-force                 convergence-correction
   -.415E-04 0.190E-06 0.348E+04   0.579E-04 -.441E-05 -.348E+04   0.515E-17 0.126E-17 -.275E+01   -.280E-03 -.129E-03 -.299E+00
   0.249E-01 0.102E+00 0.348E+04   -.185E+00 -.189E+00 -.348E+04   0.929E-01 0.977E-01 -.189E+01   0.768E-01 0.966E-02 -.285E+00
   -.249E-01 0.102E+00 0.348E+04   0.185E+00 -.189E+00 -.348E+04   -.929E-01 0.977E-01 -.189E+01   -.760E-01 0.121E-01 -.284E+00
   0.101E+00 -.293E-01 0.348E+04   -.256E+00 -.657E-01 -.348E+04   0.131E+00 0.316E-01 -.189E+01   0.469E-01 0.616E-01 -.285E+00
   -.614E-04 -.329E-05 0.348E+04   0.116E-03 -.101E-04 -.348E+04   -.193E-18 0.117E-17 -.144E+01   0.121E-01 0.740E-02 -.150E+00
   -.101E+00 -.292E-01 0.348E+04   0.256E+00 -.658E-01 -.348E+04   -.131E+00 0.316E-01 -.189E+01   -.484E-01 0.629E-01 -.283E+00
   0.757E-01 -.725E-01 0.348E+04   -.713E-01 0.255E+00 -.348E+04   0.382E-01 -.129E+00 -.189E+01   -.275E-01 -.720E-01 -.284E+00
   -.756E-01 -.725E-01 0.348E+04   0.711E-01 0.255E+00 -.348E+04   -.382E-01 -.129E+00 -.189E+01   0.309E-01 -.733E-01 -.283E+00
   -.144E-03 -.329E-04 0.348E+04   0.263E-03 0.206E-04 -.348E+04   -.469E-17 0.460E-17 -.237E+01   -.132E-01 -.680E-02 -.312E+00
   0.248E+01 0.143E+01 0.116E+04   -.221E+01 -.127E+01 -.116E+04   -.372E+00 -.215E+00 -.104E+01   0.836E-01 0.483E-01 -.137E+00
   -.905E-04 0.169E+01 0.116E+04   0.189E-03 -.215E+01 -.116E+04   -.192E-07 0.288E+00 -.406E+00   0.115E-01 0.150E+00 -.820E-01
   -.248E+01 0.143E+01 0.116E+04   0.221E+01 -.127E+01 -.116E+04   0.372E+00 -.215E+00 -.104E+01   -.850E-01 0.493E-01 -.138E+00
   0.146E+01 -.843E+00 0.116E+04   -.186E+01 0.107E+01 -.116E+04   0.250E+00 -.144E+00 -.406E+00   0.136E+00 -.642E-01 -.820E-01
   -.146E+01 -.843E+00 0.116E+04   0.186E+01 0.107E+01 -.116E+04   -.250E+00 -.144E+00 -.406E+00   -.113E+00 -.654E-01 -.841E-01
   -.144E-03 0.238E+00 0.116E+04   0.299E-03 -.510E+00 -.116E+04   -.108E-07 0.162E+00 -.102E+01   -.319E-02 0.901E-01 -.149E+00
   -.914E-04 -.286E+01 0.116E+04   0.186E-03 0.255E+01 -.116E+04   -.286E-07 0.429E+00 -.104E+01   -.760E-03 -.995E-01 -.138E+00
   0.206E+00 -.119E+00 0.116E+04   -.442E+00 0.255E+00 -.116E+04   0.140E+00 -.810E-01 -.102E+01   0.772E-01 -.478E-01 -.149E+00
   -.206E+00 -.119E+00 0.116E+04   0.442E+00 0.255E+00 -.116E+04   -.140E+00 -.810E-01 -.102E+01   -.761E-01 -.456E-01 -.148E+00
   -.576E-04 0.626E+00 -.119E+04   0.679E-04 -.702E+00 0.119E+04   -.128E-08 0.192E-01 0.891E+00   0.113E-01 0.633E-01 0.127E+00
   0.683E+00 0.394E+00 -.118E+04   0.307E+00 0.177E+00 0.118E+04   -.122E+01 -.706E+00 -.972E+00   0.201E+00 0.116E+00 0.351E+00
   -.683E+00 0.394E+00 -.118E+04   -.307E+00 0.177E+00 0.118E+04   0.122E+01 -.706E+00 -.972E+00   -.202E+00 0.116E+00 0.351E+00
   -.255E+01 0.147E+01 -.118E+04   0.204E+01 -.118E+01 0.118E+04   0.364E+00 -.210E+00 0.556E+00   0.191E+00 -.996E-01 0.224E-01
   -.789E-04 -.788E+00 -.118E+04   0.143E-03 -.355E+00 0.118E+04   -.940E-07 0.141E+01 -.972E+00   -.196E-02 -.234E+00 0.351E+00
   0.255E+01 0.147E+01 -.118E+04   -.204E+01 -.118E+01 0.118E+04   -.364E+00 -.210E+00 0.556E+00   -.170E+00 -.989E-01 0.224E-01
   -.542E+00 -.313E+00 -.119E+04   0.608E+00 0.351E+00 0.119E+04   -.166E-01 -.959E-02 0.891E+00   -.395E-01 -.228E-01 0.126E+00
   0.543E+00 -.313E+00 -.119E+04   -.608E+00 0.351E+00 0.119E+04   0.166E-01 -.959E-02 0.891E+00   0.608E-01 -.217E-01 0.127E+00
   -.128E-03 -.294E+01 -.118E+04   0.243E-03 0.235E+01 0.118E+04   -.280E-07 0.420E+00 0.556E+00   0.936E-02 0.215E+00 0.225E-01
   -.316E-04 0.177E-04 -.349E+04   0.371E-04 -.340E-04 0.349E+04   -.290E-17 -.441E-17 0.251E+01   0.879E-04 0.103E-03 0.451E+00
   -.233E+01 -.223E+01 -.350E+04   0.252E+01 0.224E+01 0.349E+04   -.330E+00 -.342E+00 0.243E+01   0.162E+00 0.354E+00 0.280E+00
   0.233E+01 -.223E+01 -.350E+04   -.252E+01 0.224E+01 0.349E+04   0.330E+00 -.342E+00 0.243E+01   -.162E+00 0.356E+00 0.280E+00
   -.309E+01 -.902E+00 -.350E+04   0.320E+01 0.106E+01 0.349E+04   -.461E+00 -.115E+00 0.243E+01   0.388E+00 -.368E-01 0.280E+00
   0.309E+01 -.902E+00 -.350E+04   -.320E+01 0.106E+01 0.349E+04   0.461E+00 -.115E+00 0.243E+01   -.388E+00 -.356E-01 0.281E+00
   -.765E+00 0.313E+01 -.350E+04   0.680E+00 -.330E+01 0.349E+04   -.131E+00 0.457E+00 0.243E+01   0.227E+00 -.318E+00 0.280E+00
   0.765E+00 0.313E+01 -.350E+04   -.681E+00 -.330E+01 0.349E+04   0.131E+00 0.457E+00 0.243E+01   -.224E+00 -.318E+00 0.281E+00
   -.126E-03 -.171E-04 -.349E+04   0.253E-03 0.604E-05 0.349E+04   -.309E-17 -.280E-18 0.267E+01   -.128E-01 -.658E-02 0.452E+00
   -.558E-04 -.560E-05 -.275E+04   0.119E-03 0.211E-04 0.275E+04   -.642E-17 0.768E-18 -.337E+01   0.483E-02 0.295E-02 -.959E-02
   0.249E-05 -.548E-05 -.399E+03   0.443E-05 0.181E-05 0.402E+03   0.198E-18 0.345E-19 -.224E+01   0.113E-03 0.672E-04 -.491E-01
   -.210E-03 0.121E-04 0.925E+01   0.693E-13 0.468E-12 0.341E-12   -.426E-15 0.223E-15 -.971E+01   0.877E-01 0.477E-01 0.457E+00

 POSITION                                       TOTAL-FORCE (eV/Angst)
      0.00000      0.00000      5.37156        -0.000000     -0.000000     -0.006802
      2.56560      0.00000      5.37156         0.009969      0.021011      0.069501
      5.13119      0.00000      5.37156        -0.009969      0.021011      0.069501
      1.28280      2.22187      5.37156         0.023181     -0.001872      0.069501
      3.84839      2.22187      5.37156        -0.000000     -0.000000      0.035238
      6.41399      2.22187      5.37156        -0.023181     -0.001872      0.069501
      2.56560      4.44374      5.37156         0.013212     -0.019139      0.069501
      5.13119      4.44374      5.37156        -0.013211     -0.019139      0.069501
      7.69679      4.44374      5.37156        -0.000000     -0.000000      0.022179
      1.28280      0.74062      7.46636        -0.012391     -0.007154     -0.059788
      3.84839      0.74062      7.46636         0.000000     -0.029108     -0.064944
      6.41399      0.74062      7.46636         0.012391     -0.007154     -0.059788
      2.56560      2.96249      7.46636        -0.025209      0.014554     -0.064944
      5.13119      2.96249      7.46636         0.025209      0.014554     -0.064944
      7.69679      2.96249      7.46636         0.000000     -0.020430     -0.043771
      3.84839      5.18437      7.46636        -0.000000      0.014307     -0.059788
      6.41399      5.18437      7.46636        -0.017693      0.010215     -0.043771
      8.97958      5.18437      7.46636         0.017693      0.010215     -0.043771
      7.69679      1.48420      9.55496        -0.000000      0.000975      0.028037
      2.56664      1.48185      9.54157        -0.030356     -0.017526     -0.146865
      5.13014      1.48185      9.54157         0.030356     -0.017526     -0.146865
      8.97778      3.70416      9.55304         0.031760     -0.018337     -0.007801
      3.84839      3.70191      9.54157        -0.000000      0.035052     -0.146865
      6.41579      3.70416      9.55304        -0.031760     -0.018337     -0.007801
     10.25982      5.92351      9.55496        -0.000844     -0.000487      0.028037
      5.13375      5.92351      9.55496         0.000844     -0.000487      0.028037
      7.69679      5.92291      9.55304        -0.000000      0.036673     -0.007801
      0.00000      0.00000     11.62172        -0.000000     -0.000000      0.002777
      2.57582      0.02145     11.62841         0.021606      0.024404      0.053405
      5.12097      0.02145     11.62841        -0.021606      0.024404      0.053405
      1.30649      2.22000     11.62841         0.031937      0.006509      0.053405
      6.39030      2.22000     11.62841        -0.031937      0.006509      0.053405
      2.57906      4.42416     11.62841         0.010331     -0.030913      0.053405
      5.11773      4.42416     11.62841        -0.010331     -0.030913      0.053405
      7.69679      4.44374     11.62071         0.000000     -0.000000     -0.003712
      3.84839      2.22187     11.51210        -0.000000     -0.000000      0.095315
      3.84839      2.22187     13.00326        -0.000000     -0.000000      0.002959
    total drift:                                0.087467      0.047677     -0.006112

  FREE ENERGIE OF THE ION-ELECTRON SYSTEM (eV)
  free  energy   TOTEN  =      -131.73776331 eV

  energy  without entropy=     -131.73776331  energy(sigma->0) =     -131.73776331

 stress matrix after NEB project (eV)
     -8.36919      0.00000     -0.00000
      0.00000     -8.36919      0.00000
     -0.00000     -0.00000      1.18008
  FORCES: max atom, RMS     0.002959    0.000487
  FORCE total and by dimension    0.002959    0.002959
  Stress total and by dimension   11.894501    8.369187
|           W    W    AA    RRRRR   N    N  II  N    N   GGGG   !!!           |
|           W    W   A  A   R    R  NN   N  II  NN   N  G    G  !!!           |
|           W    W  A    A  R    R  N N  N  II  N N  N  G       !!!           |
|           W WW W  AAAAAA  RRRRR   N  N N  II  N  N N  G  GGG   !            |
|           WW  WW  A    A  R   R   N   NN  II  N   NN  G    G                |
|           W    W  A    A  R    R  N    N  II  N    N   GGGG   !!!           |
|     Tetrahedron method does not include variations of the Fermi             |
|     occupations, so forces and stress will be inaccurate. We suggest        |
|     using a different smearing scheme ISMEAR = 1 or 2 for metals in         |
|     relaxations.                                                            |

 total charge

# of ion       s       p       d       tot
    1        0.449   0.283   9.190   9.922
    2        0.449   0.285   9.186   9.920
    3        0.449   0.285   9.186   9.920
    4        0.449   0.285   9.186   9.920
    5        0.450   0.286   9.179   9.915
    6        0.449   0.285   9.186   9.920
    7        0.449   0.285   9.186   9.920
    8        0.449   0.285   9.186   9.920
    9        0.448   0.282   9.192   9.922
   10        0.441   0.372   9.175   9.988
   11        0.444   0.366   9.185   9.995
   12        0.441   0.372   9.175   9.988
   13        0.444   0.366   9.185   9.995
   14        0.444   0.366   9.185   9.995
   15        0.439   0.371   9.177   9.987
   16        0.441   0.372   9.175   9.988
   17        0.439   0.371   9.177   9.987
   18        0.439   0.371   9.177   9.987
   19        0.440   0.371   9.181   9.993
   20        0.457   0.385   9.172  10.014
   21        0.457   0.385   9.172  10.014
   22        0.435   0.377   9.181   9.992
   23        0.457   0.385   9.172  10.014
   24        0.435   0.377   9.181   9.992
   25        0.440   0.371   9.181   9.993
   26        0.440   0.371   9.181   9.993
   27        0.435   0.377   9.181   9.992
   28        0.447   0.282   9.194   9.923
   29        0.449   0.289   9.183   9.921
   30        0.449   0.289   9.183   9.921
   31        0.449   0.289   9.183   9.921
   32        0.449   0.289   9.183   9.921
   33        0.449   0.289   9.183   9.921
   34        0.449   0.289   9.183   9.921
   35        0.443   0.285   9.192   9.920
   36        0.466   0.436   7.365   8.268
   37        0.505   0.016   0.000   0.521
tot         16.562  12.044 328.739 357.345

 BZINTS: Fermi energy:    0.011513;  395.000000 electrons
         Band energy:-0.108037E+04;  BLOECHL correction:   -0.051293