 vasp.6.2.0 18Jan21 (build Jun 12 2021 23:27:24) complex

 executed on             LinuxIFC date 2022.05.30  18:02:23

 INCAR:
   ISMEAR = -5
   SIGMA = 0.1
   ISPIN = 1
   EDIFF = 1.d-5
   EDIFFG = -0.01
   NSW = 0
   NELM = 150
   ENCUT = 500
   ISIF = 2
   IBRION = 2
   LREAL = Auto
   ALGO = Fast
   ICHARG = 11
   LORBIT = 10
   LCHARG = .F.
   LWAVE = .F.

 POTCAR:    PAW_PBE Cu 22Jun2005
 POTCAR:    PAW_PBE Fe 06Sep2000
 POTCAR:    PAW_PBE C 08Apr2002
|           W    W    AA    RRRRR   N    N  II  N    N   GGGG   !!!           |
|           W    W   A  A   R    R  NN   N  II  NN   N  G    G  !!!           |
|           W    W  A    A  R    R  N N  N  II  N N  N  G       !!!           |
|           W WW W  AAAAAA  RRRRR   N  N N  II  N  N N  G  GGG   !            |
|           WW  WW  A    A  R   R   N   NN  II  N   NN  G    G                |
|           W    W  A    A  R    R  N    N  II  N    N   GGGG   !!!           |
|     For optimal performance we recommend to set                             |
|       NCORE = 2 up to number-of-cores-per-socket                            |
|     This setting can greatly improve the performance of VASP for DFT.       |
|     The default, NCORE=1 might be grossly inefficient on modern             |
|     multi-core architectures or massively parallel machines. Do your        |
|     Unfortunately you need to use the default for GW and RPA                |
|     calculations (for HF NCORE is supported but not extensively tested      |
|     yet).                                                                   |

 POTCAR:    PAW_PBE Cu 22Jun2005
   VRHFIN =Cu: d10 p1

   TITEL  = PAW_PBE Cu 22Jun2005
   POMASS =   63.546; ZVAL   =   11.000    mass and valenz
   ENMAX  =  295.446; ENMIN  =  221.585 eV

 POTCAR:    PAW_PBE Fe 06Sep2000
   VRHFIN =Fe:  d7 s1

   TITEL  = PAW_PBE Fe 06Sep2000
   POMASS =   55.847; ZVAL   =    8.000    mass and valenz
   ENMAX  =  267.882; ENMIN  =  200.911 eV

 POTCAR:    PAW_PBE C 08Apr2002
   VRHFIN =C: s2p2

   TITEL  = PAW_PBE C 08Apr2002
   POMASS =   12.011; ZVAL   =    4.000    mass and valenz
   ENMAX  =  400.000; ENMIN  =  300.000 eV

 Optimization of the real space projectors (new method)

 maximal supplied QI-value         = 16.25
 optimisation between [QCUT,QGAM] = [ 11.38, 22.75] = [ 36.24,144.96] Ry
 Optimized for a Real-space Cutoff    1.52 Angstroem

   l    n(q)    QCUT    max X(q) W(low)/X(q) W(high)/X(q)  e(spline)
   2      9    11.376     4.610    0.21E-03    0.10E-03    0.26E-06
   2      9    11.376     8.522    0.33E-03    0.16E-03    0.37E-06
   0     10    11.376    51.609    0.62E-04    0.20E-04    0.13E-06
   0     10    11.376    27.747    0.54E-04    0.20E-04    0.13E-06
   1     10    11.376    20.408    0.13E-04    0.99E-04    0.19E-06
   1     10    11.376    13.425    0.12E-04    0.87E-04    0.17E-06
 Optimization of the real space projectors (new method)

[...]

   l    n(q)    QCUT    max X(q) W(low)/X(q) W(high)/X(q)  e(spline)
   2      8    11.376    80.901    0.45E-03    0.44E-04    0.21E-06
   2      8    11.376    75.754    0.45E-03    0.45E-04    0.22E-06
   0      9    11.376    58.752    0.65E-04    0.95E-04    0.17E-06
   0      9    11.376    30.679    0.59E-04    0.87E-04    0.16E-06
   1      9    11.376    17.977    0.38E-03    0.10E-03    0.14E-06
   1      9    11.376    13.559    0.31E-03    0.90E-04    0.12E-06
 Optimization of the real space projectors (new method)

 maximal supplied QI-value         = 25.13
 optimisation between [QCUT,QGAM] = [ 11.31, 22.87] = [ 35.82,146.48] Ry
 Optimized for a Real-space Cutoff    1.00 Angstroem

   l    n(q)    QCUT    max X(q) W(low)/X(q) W(high)/X(q)  e(spline)
   0      7    11.310   115.676    0.43E-03    0.13E-02    0.19E-06
   0      7    11.310    87.132    0.43E-03    0.13E-02    0.18E-06
   1      6    11.310     4.429    0.42E-03    0.74E-03    0.11E-06
   1      6    11.310     2.733    0.34E-03    0.55E-03    0.92E-07
  PAW_PBE Cu 22Jun2005                  :
  PAW_PBE Fe 06Sep2000                  :
  PAW_PBE C 08Apr2002                   :

 POSCAR: Cu-Fe-C
  positions in direct lattice
  velocities in cartesian coordinates
 exchange correlation table for  LEXCH =        8
   RHO(1)=    0.500       N(1)  =     2000
   RHO(2)=  100.500       N(2)  =     4000

 VTST: version 3.2, (02/03/18)

 CHAIN: initializing optimizer

 OPT: Using VASP Conjugate-Gradient optimizer
 CHAIN: Read ICHAIN            0

 POSCAR: Cu-Fe-C
  positions in direct lattice
  velocities in cartesian coordinates

 ion  position               nearest neighbor table
   1  0.000  0.000  0.226-   7 2.57   3 2.57   4 2.57   2 2.57   6 2.57   8 2.57  12 2.57  10 2.57
                            16 2.57
   2  0.333  0.000  0.226-   8 2.57   9 2.57   5 2.57   1 2.57   3 2.57  11 2.57   4 2.57  10 2.57
                            17 2.57
   3  0.667  0.000  0.226-   1 2.57   7 2.57   6 2.57   9 2.57   2 2.57  12 2.57   5 2.57  18 2.57
                            11 2.57
   4  0.000  0.333  0.226-   5 2.57   6 2.57   1 2.57   7 2.57   2 2.57  13 2.57   9 2.57  10 2.57
                            15 2.57
   5  0.333  0.333  0.226-   4 2.57   2 2.57   7 2.57  13 2.57   8 2.57   6 2.57   3 2.57  11 2.57
                            14 2.57
   6  0.667  0.333  0.226-   4 2.57   9 2.57  15 2.57   3 2.57   1 2.57   8 2.57  14 2.57   5 2.57
                            12 2.57
   7  0.000  0.667  0.226-   1 2.57   3 2.57  16 2.57  18 2.57   4 2.57   5 2.57   8 2.57   9 2.57
                            13 2.57
   8  0.333  0.667  0.226-   9 2.57   2 2.57  17 2.57   6 2.57   1 2.57   7 2.57   5 2.57  14 2.57
                            16 2.57
   9  0.667  0.667  0.226-   8 2.57   6 2.57   2 2.57  17 2.57   3 2.57   7 2.57   4 2.57  15 2.57
                            18 2.57
  10  0.111  0.111  0.314-  20 2.55  26 2.56  19 2.56  11 2.57  12 2.57  13 2.57   1 2.57   2 2.57
                             4 2.57  15 2.57  16 2.57  17 2.57
  11  0.444  0.111  0.314-  20 2.55  21 2.55  27 2.56  10 2.57  13 2.57   2 2.57  17 2.57  14 2.57
                            12 2.57   5 2.57   3 2.57  18 2.57
  12  0.778  0.111  0.314-  21 2.55  19 2.56  25 2.56  15 2.57  10 2.57  14 2.57  18 2.57   3 2.57
                             1 2.57  16 2.57  11 2.57   6 2.57
  13  0.111  0.444  0.314-  23 2.55  20 2.55  22 2.56  16 2.57  18 2.57  10 2.57  11 2.57  14 2.57
                             5 2.57   4 2.57   7 2.57  15 2.57
  14  0.444  0.444  0.314-  21 2.55  23 2.55  24 2.56  15 2.57  17 2.57  12 2.57  16 2.57  13 2.57
                            11 2.57   6 2.57   8 2.57   5 2.57
  15  0.778  0.444  0.314-  19 2.56  24 2.56  22 2.56  14 2.57  17 2.57  12 2.57   6 2.57  18 2.57
                            10 2.57   9 2.57  13 2.57   4 2.57
  16  0.111  0.778  0.314-  23 2.55  25 2.56  26 2.56  18 2.57  13 2.57   7 2.57  14 2.57  17 2.57
                            12 2.57  10 2.57   8 2.57   1 2.57
  17  0.444  0.778  0.314-  26 2.56  27 2.56  24 2.56  14 2.57  15 2.57   8 2.57   9 2.57  11 2.57
                            16 2.57  18 2.57  10 2.57   2 2.57
  18  0.778  0.778  0.314-  25 2.56  22 2.56  27 2.56  16 2.57  13 2.57   7 2.57  15 2.57  12 2.57
                            17 2.57   9 2.57   3 2.57  11 2.57
  19  0.889  0.223  0.402-  28 2.55  15 2.56  12 2.56  10 2.56  22 2.56  24 2.56  32 2.57  31 2.57
                            21 2.57  20 2.57  25 2.57  26 2.57
  20  0.222  0.222  0.401-  36 2.47  11 2.55  13 2.55  10 2.55  29 2.55  31 2.55  23 2.56  21 2.56
                            26 2.57  19 2.57  27 2.57  22 2.57
  21  0.555  0.222  0.401-  36 2.47  14 2.55  11 2.55  12 2.55  32 2.55  30 2.55  20 2.56  23 2.56
                            19 2.57  25 2.57  24 2.57  27 2.57
  22  0.888  0.556  0.402-  35 2.54  31 2.56  33 2.56  18 2.56  15 2.56  24 2.56  27 2.56  13 2.56
                            19 2.56  25 2.56  23 2.57  20 2.57
  23  0.222  0.555  0.401-  36 2.47  13 2.55  14 2.55  16 2.55  33 2.55  34 2.55  20 2.56  21 2.56
                            25 2.57  26 2.57  22 2.57  24 2.57
  24  0.556  0.556  0.402-  35 2.54  32 2.56  34 2.56  15 2.56  17 2.56  22 2.56  27 2.56  14 2.56
                            19 2.56  26 2.56  21 2.57  23 2.57
  25  0.889  0.889  0.402-  28 2.55  18 2.56  16 2.56  12 2.56  22 2.56  27 2.56  33 2.57  30 2.57
                            21 2.57  23 2.57  19 2.57  26 2.57
  26  0.223  0.889  0.402-  28 2.55  17 2.56  10 2.56  16 2.56  27 2.56  24 2.56  29 2.57  34 2.57
                            20 2.57  23 2.57  25 2.57  19 2.57
  27  0.556  0.888  0.402-  35 2.54  29 2.56  30 2.56  17 2.56  18 2.56  24 2.56  22 2.56  11 2.56
                            26 2.56  25 2.56  20 2.57  21 2.57
  28  0.000  0.000  0.489-  25 2.55  19 2.55  26 2.55  33 2.58  30 2.58  31 2.58  29 2.58  32 2.58
                            34 2.58
  29  0.333  0.003  0.489-  31 2.54  30 2.54  36 2.54  20 2.55  27 2.56  26 2.57  28 2.58  35 2.58
                            34 2.61
  30  0.664  0.003  0.489-  32 2.54  29 2.54  36 2.54  21 2.55  27 2.56  25 2.57  28 2.58  35 2.58
                            33 2.61
  31  0.003  0.333  0.489-  29 2.54  33 2.54  36 2.54  20 2.55  22 2.56  19 2.57  28 2.58  35 2.58
                            32 2.61
  32  0.664  0.333  0.489-  30 2.54  34 2.54  36 2.54  21 2.55  24 2.56  19 2.57  28 2.58  35 2.58
                            31 2.61
  33  0.003  0.664  0.489-  34 2.54  31 2.54  36 2.54  23 2.55  22 2.56  25 2.57  28 2.58  35 2.58
                            30 2.61
  34  0.333  0.664  0.489-  33 2.54  32 2.54  36 2.54  23 2.55  24 2.56  26 2.57  28 2.58  35 2.58
                            29 2.61
  35  0.667  0.667  0.489-  24 2.54  27 2.54  22 2.54  34 2.58  32 2.58  29 2.58  30 2.58  33 2.58
                            31 2.58
  36  0.333  0.333  0.484-  37 1.60  23 2.47  20 2.47  21 2.47  31 2.54  29 2.54  33 2.54  34 2.54
                            32 2.54  30 2.54
  37  0.333  0.333  0.551-  36 1.60

  LATTYP: Found a hexagonal cell.
 ALAT       =     7.6967864036
 C/A-ratio  =     3.0908716217

  Lattice vectors:

 A1 = (  -3.8483927580,  -6.6656128093,   0.0000000000)
 A2 = (   7.6967864037,   0.0000000000,   0.0000000000)
 A3 = (   0.0000000000,   0.0000000000,  23.7897786731)

Analysis of symmetry for initial positions (statically):
 Subroutine PRICEL returns:
 Original cell was already a primitive cell.

 Routine SETGRP: Setting up the symmetry group for a
 hexagonal supercell.

 Subroutine GETGRP returns: Found  6 space group operations
 (whereof  6 operations were pure point group operations)
 out of a pool of 24 trial point group operations.

The static configuration has the point symmetry C_3v.

Analysis of symmetry for dynamics (positions and initial velocities):
 Subroutine PRICEL returns:
 Original cell was already a primitive cell.

[...]

The dynamic configuration has the point symmetry C_3v.

Analysis of constrained symmetry for selective dynamics:
 Subroutine PRICEL returns:
 Original cell was already a primitive cell.

 Routine SETGRP: Setting up the symmetry group for a
 hexagonal supercell.

 Subroutine GETGRP returns: Found  6 space group operations
[...]
     24      -4.8447      2.00000
     25      -4.6957      2.00000
     26      -4.6679      2.00000
     27      -4.6118      2.00000
     28      -4.6050      2.00000
     29      -4.6038      2.00000
     30      -4.5896      2.00000
     31      -4.5798      2.00000
     32      -4.5646      2.00000
     33      -4.5056      2.00000
     34      -4.4960      2.00000
     35      -4.4639      2.00000
     36      -4.3766      2.00000
     37      -4.3665      2.00000
     38      -4.2902      2.00000
     39      -4.2819      2.00000
     40      -4.2122      2.00000
     41      -4.2045      2.00000
     42      -4.1918      2.00000
     43      -4.1659      2.00000
     44      -4.1546      2.00000
     45      -4.1390      2.00000
     46      -4.1277      2.00000
     47      -3.9593      2.00000
     48      -3.9417      2.00000
     49      -3.9290      2.00000
     50      -3.9224      2.00000
     51      -3.8829      2.00000
     52      -3.8777      2.00000
     53      -3.8640      2.00000
     54      -3.8516      2.00000
     55      -3.8506      2.00000
     56      -3.8145      2.00000
     57      -3.7967      2.00000
     58      -3.7883      2.00000
     59      -3.7797      2.00000
     60      -3.7736      2.00000
[...]
    238       5.6988      0.00000
    239       5.7946      0.00000
    240       5.9090      0.00000
    241       5.9565      0.00000
    242       6.0287      0.00000
    243       6.2524      0.00000
    244       6.2692      0.00000
    245       6.4538      0.00000
    246       6.6557      0.00000
    247       6.7313      0.00000
    248       6.7501      0.00000
    249       6.9918      0.00000
    250       7.1972      0.00000
    251       7.3658      0.00000
    252       7.5471      0.00000

 soft charge-density along one line, spin component           1
         0         1         2         3         4         5         6         7         8         9
 total charge-density along one line

------------------------ aborting loop because EDIFF is reached ----------------------------------------

 total charge

# of ion       s       p       d       tot
    1        0.449   0.285   9.187   9.921
    2        0.448   0.285   9.186   9.919
    3        0.448   0.285   9.186   9.919
    4        0.448   0.285   9.186   9.919
    5        0.449   0.284   9.186   9.920
    6        0.448   0.285   9.186   9.919
    7        0.448   0.285   9.186   9.919
    8        0.448   0.285   9.186   9.919
    9        0.447   0.285   9.186   9.918
   10        0.440   0.371   9.178   9.989
   11        0.440   0.371   9.180   9.991
   12        0.440   0.371   9.178   9.989
   13        0.440   0.371   9.180   9.991
   14        0.440   0.371   9.180   9.991
   15        0.439   0.370   9.177   9.986
   16        0.440   0.371   9.178   9.989
   17        0.439   0.370   9.177   9.986
   18        0.439   0.370   9.177   9.986
   19        0.442   0.367   9.183   9.992
   20        0.454   0.391   9.172  10.016
   21        0.454   0.391   9.172  10.016
   22        0.435   0.377   9.179   9.990
   23        0.454   0.391   9.172  10.016
   24        0.435   0.377   9.179   9.990
   25        0.442   0.367   9.183   9.992
   26        0.442   0.367   9.183   9.992
   27        0.435   0.377   9.179   9.990
   28        0.453   0.281   9.191   9.925
   29        0.443   0.296   9.186   9.925
   30        0.443   0.296   9.186   9.925
   31        0.443   0.296   9.186   9.925
   32        0.443   0.296   9.186   9.925
   33        0.443   0.296   9.186   9.925
   34        0.443   0.296   9.186   9.925
   35        0.448   0.283   9.193   9.924
   36        0.540   0.603   6.611   7.754
   37        1.017   1.209   0.000   2.226
tot         17.103  13.454 327.992 358.548

  FORCE on cell =-STRESS in cart. coord.  units (eV):
  Direction    XX          YY          ZZ          XY          YZ          ZX
  Alpha Z   791.68071   791.68071   791.68071
  Ewald  224354.91448224354.91405************     0.00040     0.00011     0.00018
  Hartree237084.17368237084.17365************     0.00005     0.00005     0.00007
  E(xc)   -2299.83114 -2299.83065 -2304.51700    -0.00042    -0.00004    -0.00007
  Local  ************************474890.25547     0.01842    -0.00056    -0.00094
  n-local  -789.50517  -776.21996  -797.47372     7.22195    -0.00148     0.17876
  augment  3347.13630  3347.15632  3357.66466    -0.01733     0.00033     0.00067
  Kinetic  3261.68152  3264.12875  3274.01051     2.79150     1.65507    -1.37432
  Fock        0.00000     0.00000     0.00000     0.00000     0.00000     0.00000
  Total      -6.61343    -6.61343     0.37835     0.00000     0.00000     0.00000
  in kB      -8.68156    -8.68156     0.49666     0.00000     0.00000     0.00000

 VOLUME and BASIS-vectors are now :
  energy-cutoff  :      500.00
  volume of cell :     1220.51
      direct lattice vectors                 reciprocal lattice vectors
     7.696786404  0.000000000  0.000000000     0.129924354 -0.075011849  0.000000000
     3.848392758  6.665612809  0.000000000     0.000000000  0.150023716  0.000000000
     0.000000000  0.000000000 23.789778673     0.000000000  0.000000000  0.042034859

  length of vectors
     7.696786404  7.696786404 23.789778673     0.150023716  0.150023716  0.042034859

 FORCES acting on ions
    electron-ion (+dipol)            ewald-force                    non-local-force                 convergence-correction
   -.422E-04 -.194E-06 0.373E+04   0.579E-04 -.440E-05 -.372E+04   -.626E-17 -.328E-17 -.215E+01   -.325E-03 -.155E-03 -.440E+00
   0.746E-01 0.208E+00 0.373E+04   -.132E+00 -.144E+00 -.372E+04   -.388E-02 0.681E-02 -.202E+01   0.598E-01 -.687E-01 -.424E+00
   -.746E-01 0.208E+00 0.373E+04   0.132E+00 -.144E+00 -.372E+04   0.388E-02 0.681E-02 -.202E+01   -.590E-01 -.662E-01 -.423E+00
   0.217E+00 -.394E-01 0.373E+04   -.191E+00 -.424E-01 -.372E+04   0.395E-02 -.676E-02 -.202E+01   -.295E-01 0.861E-01 -.424E+00
   -.640E-04 -.475E-05 0.373E+04   0.116E-03 -.101E-04 -.372E+04   0.178E-17 -.653E-18 -.208E+01   0.121E-01 0.738E-02 -.351E+00
   -.217E+00 -.393E-01 0.373E+04   0.191E+00 -.426E-01 -.372E+04   -.395E-02 -.676E-02 -.202E+01   0.280E-01 0.873E-01 -.423E+00
   0.143E+00 -.169E+00 0.373E+04   -.587E-01 0.186E+00 -.372E+04   0.783E-02 -.415E-04 -.202E+01   -.869E-01 -.180E-01 -.423E+00
   -.143E+00 -.169E+00 0.373E+04   0.584E-01 0.186E+00 -.372E+04   -.783E-02 -.415E-04 -.202E+01   0.902E-01 -.194E-01 -.423E+00
   -.144E-03 -.333E-04 0.373E+04   0.263E-03 0.206E-04 -.372E+04   0.523E-17 0.368E-18 -.213E+01   -.131E-01 -.675E-02 -.401E+00
   0.179E+01 0.103E+01 0.125E+04   -.169E+01 -.977E+00 -.125E+04   -.171E+00 -.986E-01 -.721E+00   0.587E-01 0.339E-01 -.339E+00
   -.881E-04 0.189E+01 0.126E+04   0.189E-03 -.189E+01 -.125E+04   -.668E-08 0.100E+00 -.844E+00   0.118E-01 -.107E+00 -.406E+00
   -.179E+01 0.103E+01 0.125E+04   0.169E+01 -.977E+00 -.125E+04   0.171E+00 -.986E-01 -.721E+00   -.601E-01 0.345E-01 -.340E+00
   0.164E+01 -.946E+00 0.126E+04   -.163E+01 0.944E+00 -.125E+04   0.868E-01 -.501E-01 -.844E+00   -.866E-01 0.647E-01 -.406E+00
   -.164E+01 -.946E+00 0.126E+04   0.163E+01 0.944E+00 -.125E+04   -.868E-01 -.501E-01 -.844E+00   0.110E+00 0.630E-01 -.409E+00
   -.141E-03 0.213E+00 0.125E+04   0.299E-03 -.454E+00 -.125E+04   -.467E-08 0.702E-01 -.726E+00   -.297E-02 0.157E+00 -.413E+00
   -.887E-04 -.206E+01 0.125E+04   0.186E-03 0.195E+01 -.125E+04   -.131E-07 0.197E+00 -.721E+00   -.116E-02 -.705E-01 -.340E+00
   0.184E+00 -.106E+00 0.125E+04   -.394E+00 0.227E+00 -.125E+04   0.608E-01 -.351E-01 -.726E+00   0.135E+00 -.809E-01 -.413E+00
   -.184E+00 -.106E+00 0.125E+04   0.393E+00 0.227E+00 -.125E+04   -.608E-01 -.351E-01 -.726E+00   -.133E+00 -.786E-01 -.411E+00
   -.578E-04 0.309E+00 -.124E+04   0.680E-04 -.307E+00 0.124E+04   0.240E-08 -.360E-01 0.921E+00   0.133E-02 0.235E-01 -.452E+00
   -.409E+01 -.236E+01 -.123E+04   0.448E+01 0.259E+01 0.123E+04   -.527E+00 -.304E+00 -.102E+00   -.280E-01 -.163E-01 -.320E+00
   0.409E+01 -.236E+01 -.123E+04   -.448E+01 0.259E+01 0.123E+04   0.527E+00 -.304E+00 -.102E+00   0.687E-02 -.184E-01 -.320E+00
   -.419E+01 0.242E+01 -.124E+04   0.381E+01 -.220E+01 0.124E+04   0.433E+00 -.250E+00 0.924E+00   0.545E-02 0.102E-01 -.549E+00
   -.766E-04 0.472E+01 -.123E+04   0.143E-03 -.518E+01 0.123E+04   -.405E-07 0.608E+00 -.102E+00   -.137E-01 0.140E-01 -.320E+00
   0.419E+01 0.242E+01 -.124E+04   -.381E+01 -.220E+01 0.124E+04   -.433E+00 -.250E+00 0.924E+00   0.181E-01 0.958E-02 -.549E+00
   -.267E+00 -.154E+00 -.124E+04   0.265E+00 0.153E+00 0.124E+04   0.312E-01 0.180E-01 0.921E+00   -.223E-01 -.129E-01 -.453E+00
   0.267E+00 -.154E+00 -.124E+04   -.266E+00 0.153E+00 0.124E+04   -.312E-01 0.180E-01 0.921E+00   0.214E-01 -.104E-01 -.452E+00
   -.125E-03 -.484E+01 -.124E+04   0.242E-03 0.440E+01 0.124E+04   -.333E-07 0.500E+00 0.924E+00   0.115E-01 -.457E-03 -.548E+00
   -.336E-04 0.170E-04 -.370E+04   0.352E-04 -.344E-04 0.369E+04   0.246E-17 0.385E-18 0.231E+01   0.144E-02 0.883E-03 0.140E+00
   0.531E+01 0.984E+01 -.369E+04   -.523E+01 -.988E+01 0.369E+04   -.200E+00 -.174E+00 0.308E+01   0.555E-01 0.116E+00 0.234E+00
   -.531E+01 0.984E+01 -.369E+04   0.523E+01 -.988E+01 0.369E+04   0.200E+00 -.174E+00 0.308E+01   -.767E-01 0.117E+00 0.233E+00
   0.112E+02 -.327E+00 -.369E+04   -.112E+02 0.410E+00 0.369E+04   -.251E+00 -.863E-01 0.308E+01   0.128E+00 -.993E-02 0.234E+00
   -.112E+02 -.327E+00 -.369E+04   0.112E+02 0.410E+00 0.369E+04   0.251E+00 -.863E-01 0.308E+01   -.150E+00 -.920E-02 0.235E+00
   0.587E+01 -.952E+01 -.369E+04   -.594E+01 0.947E+01 0.369E+04   -.508E-01 0.260E+00 0.308E+01   0.629E-01 -.125E+00 0.233E+00
   -.587E+01 -.952E+01 -.369E+04   0.594E+01 0.947E+01 0.369E+04   0.508E-01 0.260E+00 0.308E+01   -.822E-01 -.125E+00 0.235E+00
   -.131E-03 -.187E-04 -.370E+04   0.255E-03 0.646E-05 0.370E+04   0.811E-17 -.588E-18 0.262E+01   -.108E-01 -.542E-02 0.260E+00
   -.552E-04 -.217E-04 -.248E+04   0.105E-03 0.189E-04 0.247E+04   -.694E-19 0.338E-17 0.620E+01   0.470E-02 0.284E-02 0.122E+00
   0.556E-04 -.183E-04 -.166E+04   0.156E-04 0.669E-05 0.167E+04   -.625E-19 -.137E-18 -.855E+01   0.882E-03 0.524E-03 0.165E-02
   -.157E-03 -.529E-05 0.831E+01   -.603E-13 0.105E-12 -.275E-10   -.186E-15 -.529E-16 0.932E+00   -.331E-01 -.221E-01 -.925E+01

 POSITION                                       TOTAL-FORCE (eV/Angst)
      0.00000      0.00000      5.37156         0.000000      0.000000      0.036155
      2.56560      0.00000      5.37156        -0.001231      0.003083      0.062592
      5.13119      0.00000      5.37156         0.001231      0.003083      0.062592
      1.28280      2.22187      5.37156         0.002054     -0.002608      0.062592
      3.84839      2.22187      5.37156         0.000000      0.000000      0.033140
      6.41399      2.22187      5.37156        -0.002054     -0.002608      0.062592
      2.56560      4.44374      5.37156         0.003285     -0.000475      0.062592
      5.13119      4.44374      5.37156        -0.003285     -0.000475      0.062592
      7.69679      4.44374      5.37156         0.000000      0.000000      0.050630
      1.28280      0.74062      7.46636        -0.016407     -0.009473     -0.048109
      3.84839      0.74062      7.46636         0.000000     -0.008923     -0.078831
      6.41399      0.74062      7.46636         0.016407     -0.009473     -0.048109
      2.56560      2.96249      7.46636        -0.007727      0.004461     -0.078831
      5.13119      2.96249      7.46636         0.007727      0.004461     -0.078831
      7.69679      2.96249      7.46636         0.000000     -0.015424     -0.024934
      3.84839      5.18437      7.46636        -0.000000      0.018945     -0.048109
      6.41399      5.18437      7.46636        -0.013358      0.007712     -0.024934
      8.97958      5.18437      7.46636         0.013358      0.007712     -0.024934
      7.69679      1.48386      9.55425         0.000000     -0.009672      0.050717
      2.56752      1.48236      9.54187        -0.146506     -0.084585     -0.172372
      5.12927      1.48236      9.54187         0.146506     -0.084585     -0.172372
      8.97669      3.70479      9.55452         0.044103     -0.025463      0.043089
      3.84839      3.70090      9.54187        -0.000000      0.169171     -0.172372
      6.41688      3.70479      9.55452        -0.044103     -0.025463      0.043089
     10.26012      5.92368      9.55425         0.008377      0.004836      0.050717
      5.13345      5.92368      9.55425        -0.008377      0.004836      0.050717
      7.69679      5.92165      9.55452        -0.000000      0.050926      0.043089
      0.00000      0.00000     11.62539         0.000000      0.000000     -0.033200
      2.57645      0.02208     11.63568        -0.058800     -0.088189     -0.026541
      5.12034      0.02208     11.63568         0.058800     -0.088189     -0.026541
      1.30734      2.22023     11.63568        -0.105774     -0.006827     -0.026541
      6.38944      2.22023     11.63568         0.105774     -0.006827     -0.026541
      2.57929      4.42331     11.63568        -0.046974      0.095017     -0.026541
      5.11749      4.42331     11.63568         0.046974      0.095017     -0.026541
      7.69679      4.44374     11.62587         0.000000      0.000000     -0.025468
      3.84839      2.22187     11.51524        -0.000000      0.000000      0.377927
      3.84839      2.22187     13.11281         0.000000      0.000000      0.035824
    total drift:                               -0.033280     -0.022110     -0.009215

  FREE ENERGIE OF THE ION-ELECTRON SYSTEM (eV)
  free  energy   TOTEN  =      -136.15674661 eV

  energy  without entropy=     -136.15674661  energy(sigma->0) =     -136.15674661

 stress matrix after NEB project (eV)
     -6.61343      0.00000      0.00000
      0.00000     -6.61343      0.00000
     -0.00000      0.00000      0.37835
  FORCES: max atom, RMS     0.035824    0.005889
  FORCE total and by dimension    0.035824    0.035824
  Stress total and by dimension    9.360456    6.613433
|           W    W    AA    RRRRR   N    N  II  N    N   GGGG   !!!           |
|           W    W   A  A   R    R  NN   N  II  NN   N  G    G  !!!           |
|           W    W  A    A  R    R  N N  N  II  N N  N  G       !!!           |
|           W WW W  AAAAAA  RRRRR   N  N N  II  N  N N  G  GGG   !            |
|           WW  WW  A    A  R   R   N   NN  II  N   NN  G    G                |
|           W    W  A    A  R    R  N    N  II  N    N   GGGG   !!!           |
|     Tetrahedron method does not include variations of the Fermi             |
|     occupations, so forces and stress will be inaccurate. We suggest        |
|     using a different smearing scheme ISMEAR = 1 or 2 for metals in         |
|     relaxations.                                                            |

 total charge

# of ion       s       p       d       tot
    1        0.449   0.285   9.187   9.921
    2        0.448   0.285   9.186   9.919
    3        0.448   0.285   9.186   9.919
    4        0.448   0.285   9.186   9.919
    5        0.449   0.284   9.186   9.920
    6        0.448   0.285   9.186   9.919
    7        0.448   0.285   9.186   9.919
    8        0.448   0.285   9.186   9.919
    9        0.447   0.285   9.186   9.918
   10        0.440   0.371   9.178   9.989
   11        0.440   0.371   9.180   9.991
   12        0.440   0.371   9.178   9.989
   13        0.440   0.371   9.180   9.991
   14        0.440   0.371   9.180   9.991
   15        0.439   0.370   9.177   9.986
   16        0.440   0.371   9.178   9.989
   17        0.439   0.370   9.177   9.986
   18        0.439   0.370   9.177   9.986
   19        0.442   0.367   9.183   9.992
   20        0.454   0.391   9.172  10.016
   21        0.454   0.391   9.172  10.016
   22        0.435   0.377   9.179   9.990
   23        0.454   0.391   9.172  10.016
   24        0.435   0.377   9.179   9.990
   25        0.442   0.367   9.183   9.992
   26        0.442   0.367   9.183   9.992
   27        0.435   0.377   9.179   9.990
   28        0.453   0.281   9.191   9.925
   29        0.443   0.296   9.186   9.925
   30        0.443   0.296   9.186   9.925
   31        0.443   0.296   9.186   9.925
   32        0.443   0.296   9.186   9.925
   33        0.443   0.296   9.186   9.925
   34        0.443   0.296   9.186   9.925
   35        0.448   0.283   9.193   9.924
   36        0.540   0.603   6.611   7.754
   37        1.017   1.209   0.000   2.226
tot         17.103  13.454 327.992 358.548

 BZINTS: Fermi energy:   -0.512119;  397.000000 electrons
         Band energy:-0.131640E+04;  BLOECHL correction:   -0.058164