 vasp.6.2.0 18Jan21 (build Jun 12 2021 23:27:24) complex

 executed on             LinuxIFC date 2022.05.27  05:40:31

 INCAR:
   ISMEAR = -5
   SIGMA = 0.1
   ISPIN = 1
   EDIFF = 1.d-5
   EDIFFG = -0.01
   NSW = 0
   NELM = 150
   ENCUT = 500
   ISIF = 2
   IBRION = 2
   LREAL = Auto
   ALGO = Fast
   ICHARG = 11
   LORBIT = 10
   LCHARG = .F.
   LWAVE = .F.

 POTCAR:    PAW_PBE Ag 02Apr2005
 POTCAR:    PAW_PBE Nb_sv 25May2007
 POTCAR:    PAW_PBE N 08Apr2002
|           W    W    AA    RRRRR   N    N  II  N    N   GGGG   !!!           |
|           W    W   A  A   R    R  NN   N  II  NN   N  G    G  !!!           |
|           W    W  A    A  R    R  N N  N  II  N N  N  G       !!!           |
|           W WW W  AAAAAA  RRRRR   N  N N  II  N  N N  G  GGG   !            |
|           WW  WW  A    A  R   R   N   NN  II  N   NN  G    G                |
|           W    W  A    A  R    R  N    N  II  N    N   GGGG   !!!           |
|     For optimal performance we recommend to set                             |
|       NCORE = 2 up to number-of-cores-per-socket                            |
|     This setting can greatly improve the performance of VASP for DFT.       |
|     The default, NCORE=1 might be grossly inefficient on modern             |
|     multi-core architectures or massively parallel machines. Do your        |
|     Unfortunately you need to use the default for GW and RPA                |
|     calculations (for HF NCORE is supported but not extensively tested      |
|     yet).                                                                   |

 POTCAR:    PAW_PBE Ag 02Apr2005
   VRHFIN =Ag : s1 d10

   TITEL  = PAW_PBE Ag 02Apr2005
   POMASS =  107.868; ZVAL   =   11.000    mass and valenz
   ENMAX  =  249.844; ENMIN  =  187.383 eV

 POTCAR:    PAW_PBE Nb_sv 25May2007
   VRHFIN =Nb: 4p5s4d

   TITEL  = PAW_PBE Nb_sv 25May2007
   POMASS =   92.910; ZVAL   =   13.000    mass and valenz
   ENMAX  =  293.235; ENMIN  =  219.927 eV

 POTCAR:    PAW_PBE N 08Apr2002
   VRHFIN =N: s2p3

   TITEL  = PAW_PBE N 08Apr2002
   POMASS =   14.001; ZVAL   =    5.000    mass and valenz
   ENMAX  =  400.000; ENMIN  =  300.000 eV

 Optimization of the real space projectors (new method)

 maximal supplied QI-value         = 15.12
 optimisation between [QCUT,QGAM] = [ 11.34, 22.83] = [ 36.00,145.93] Ry
 Optimized for a Real-space Cutoff    1.43 Angstroem

   l    n(q)    QCUT    max X(q) W(low)/X(q) W(high)/X(q)  e(spline)
   2      9    11.338    53.897    0.16E-03    0.20E-03    0.28E-06
   2      9    11.338    52.416    0.16E-03    0.20E-03    0.29E-06
   0     10    11.338   122.045    0.31E-04    0.76E-04    0.15E-06
   0     10    11.338    73.629    0.30E-04    0.72E-04    0.15E-06
   1      9    11.338    15.255    0.20E-03    0.19E-04    0.17E-06
   1      9    11.338     9.562    0.16E-03    0.15E-04    0.14E-06
 Optimization of the real space projectors (new method)

[...]

   l    n(q)    QCUT    max X(q) W(low)/X(q) W(high)/X(q)  e(spline)
   0     11    11.450    10.201    0.21E-04    0.96E-05    0.78E-07
   0     11    11.450     8.174    0.31E-04    0.18E-04    0.14E-06
   1     10    11.450     3.488    0.27E-04    0.12E-04    0.96E-07
   1     10    11.450     4.917    0.11E-03    0.11E-03    0.37E-06
   2     10    11.450   153.744    0.37E-03    0.81E-03    0.10E-05
   2     10    11.450   126.342    0.37E-03    0.81E-03    0.10E-05
 Optimization of the real space projectors (new method)

 maximal supplied QI-value         = 25.13
 optimisation between [QCUT,QGAM] = [ 11.31, 22.87] = [ 35.82,146.48] Ry
 Optimized for a Real-space Cutoff    1.27 Angstroem

   l    n(q)    QCUT    max X(q) W(low)/X(q) W(high)/X(q)  e(spline)
   0      9    11.310    79.467    0.75E-04    0.16E-03    0.36E-06
   0      9    11.310    66.151    0.74E-04    0.16E-03    0.36E-06
   1      8    11.310    17.416    0.35E-03    0.12E-03    0.95E-06
   1      8    11.310    12.382    0.37E-03    0.13E-03    0.98E-06
  PAW_PBE Ag 02Apr2005                  :
  PAW_PBE Nb_sv 25May2007               :
  PAW_PBE N 08Apr2002                   :

 POSCAR: Ag-Nb-N2
  positions in direct lattice
  velocities in cartesian coordinates
 exchange correlation table for  LEXCH =        8
   RHO(1)=    0.500       N(1)  =     2000
   RHO(2)=  100.500       N(2)  =     4000

 VTST: version 3.2, (02/03/18)

 CHAIN: initializing optimizer

 OPT: Using VASP Conjugate-Gradient optimizer
 CHAIN: Read ICHAIN            0

 POSCAR: Ag-Nb-N2
  positions in direct lattice
  velocities in cartesian coordinates

 ion  position               nearest neighbor table
   1  0.000  0.000  0.219-   2 2.93   8 2.93   7 2.93   6 2.93   4 2.93  12 2.93  16 2.93  10 2.93
                             3 2.93
   2  0.333  0.000  0.219-   1 2.93   8 2.93   9 2.93   3 2.93   4 2.93   5 2.93  10 2.93  17 2.93
                            11 2.93
   3  0.667  0.000  0.219-   9 2.93   2 2.93   5 2.93  11 2.93   7 2.93  18 2.93   1 2.93   6 2.93
                            12 2.93
   4  0.000  0.333  0.219-   5 2.93   6 2.93   2 2.93   1 2.93   7 2.93  13 2.93  15 2.93   9 2.93
                            10 2.93
   5  0.333  0.333  0.219-   4 2.93   3 2.93   7 2.93   2 2.93   8 2.93  14 2.93  13 2.93  11 2.93
                             6 2.93
   6  0.667  0.333  0.219-   4 2.93   9 2.93   1 2.93  15 2.93   8 2.93  12 2.93   3 2.93   5 2.93
                            14 2.93
   7  0.000  0.667  0.219-   8 2.93   1 2.93   5 2.93   3 2.93   4 2.93  16 2.93  18 2.93  13 2.93
                             9 2.93
   8  0.333  0.667  0.219-   7 2.93   1 2.93   2 2.93   9 2.93   5 2.93  16 2.93   6 2.93  17 2.93
                            14 2.93
   9  0.667  0.667  0.219-   3 2.93   2 2.93   8 2.93   6 2.93  17 2.93   4 2.93  15 2.93   7 2.93
                            18 2.93
  10  0.111  0.111  0.318-  20 2.90  19 2.93  26 2.93  12 2.93  16 2.93  15 2.93  17 2.93  13 2.93
                            11 2.93   2 2.93   1 2.93   4 2.93
  11  0.444  0.111  0.318-  21 2.90  20 2.90  14 2.93  17 2.93  18 2.93   3 2.93  12 2.93  13 2.93
                            10 2.93   5 2.93   2 2.93  27 2.93
  12  0.778  0.111  0.318-  21 2.90  25 2.93  19 2.93  10 2.93  16 2.93  18 2.93  15 2.93  11 2.93
                             1 2.93  14 2.93   6 2.93   3 2.93
  13  0.111  0.444  0.318-  20 2.90  23 2.90  15 2.93  14 2.93  18 2.93  10 2.93  11 2.93  16 2.93
                             4 2.93   5 2.93   7 2.93  22 2.93
  14  0.444  0.444  0.318-  23 2.90  21 2.90  13 2.93  11 2.93  16 2.93   5 2.93  12 2.93  17 2.93
                             8 2.93  15 2.93   6 2.93  24 2.93
  15  0.778  0.444  0.318-  19 2.93  13 2.93  10 2.93  12 2.93  17 2.93  18 2.93   4 2.93   6 2.93
                             9 2.93  14 2.93  24 2.93  22 2.93
  16  0.111  0.778  0.318-  23 2.90  26 2.93  25 2.93  18 2.93  12 2.93  10 2.93  14 2.93  17 2.93
                            13 2.93   7 2.93   8 2.93   1 2.93
  17  0.444  0.778  0.318-  26 2.93  11 2.93  10 2.93   9 2.93  18 2.93  15 2.93  16 2.93   2 2.93
                            14 2.93   8 2.93  27 2.93  24 2.93
  18  0.778  0.778  0.318-  25 2.93  16 2.93  12 2.93  13 2.93  11 2.93  17 2.93  15 2.93   7 2.93
                             3 2.93   9 2.93  22 2.93  27 2.93
  19  0.889  0.222  0.417-  15 2.93  10 2.93  12 2.93  20 2.93  21 2.93  28 2.93  24 2.93  22 2.93
                            26 2.93  25 2.93  32 2.97  31 2.97
  20  0.222  0.222  0.416-  36 2.82  10 2.90  13 2.90  11 2.90  19 2.93  26 2.93  27 2.93  22 2.93
                            21 2.94  23 2.94  31 2.97  29 2.97
  21  0.556  0.222  0.416-  36 2.82  12 2.90  11 2.90  14 2.90  25 2.93  19 2.93  27 2.93  24 2.93
                            20 2.94  23 2.94  30 2.97  32 2.97
  22  0.889  0.556  0.417-  24 2.93  27 2.93  25 2.93  19 2.93  18 2.93  15 2.93  23 2.93  20 2.93
                            35 2.93  13 2.93  33 2.95  31 2.95
  23  0.222  0.556  0.416-  36 2.82  16 2.90  14 2.90  13 2.90  26 2.93  25 2.93  22 2.93  24 2.93
                            21 2.94  20 2.94  34 2.97  33 2.97
  24  0.556  0.556  0.417-  27 2.93  22 2.93  19 2.93  26 2.93  15 2.93  17 2.93  23 2.93  21 2.93
                            35 2.93  14 2.93  32 2.95  34 2.95
  25  0.889  0.889  0.417-  18 2.93  16 2.93  12 2.93  23 2.93  21 2.93  28 2.93  22 2.93  27 2.93
                            26 2.93  19 2.93  33 2.97  30 2.97
  26  0.222  0.889  0.417-  17 2.93  16 2.93  10 2.93  23 2.93  20 2.93  28 2.93  27 2.93  24 2.93
                            25 2.93  19 2.93  34 2.97  29 2.97
  27  0.556  0.889  0.417-  24 2.93  22 2.93  26 2.93  25 2.93  17 2.93  18 2.93  20 2.93  21 2.93
                            35 2.93  11 2.93  29 2.95  30 2.95
  28  0.000  0.000  0.516-  26 2.93  25 2.93  19 2.93  29 2.95  34 2.95  33 2.95  32 2.95  31 2.95
                            30 2.95
  29  0.333  0.004  0.517-  30 2.90  31 2.90  36 2.91  35 2.95  28 2.95  27 2.95  20 2.97  26 2.97
                            34 2.99
  30  0.663  0.004  0.517-  29 2.90  32 2.90  36 2.91  35 2.95  28 2.95  27 2.95  21 2.97  25 2.97
                            33 2.99
  31  0.004  0.333  0.517-  33 2.90  29 2.90  36 2.91  35 2.95  28 2.95  22 2.95  20 2.97  19 2.97
                            32 2.99
  32  0.663  0.333  0.517-  34 2.90  30 2.90  36 2.91  35 2.95  28 2.95  24 2.95  21 2.97  19 2.97
                            31 2.99
  33  0.004  0.663  0.517-  31 2.90  34 2.90  36 2.91  35 2.95  28 2.95  22 2.95  23 2.97  25 2.97
                            30 2.99
  34  0.333  0.663  0.517-  32 2.90  33 2.90  36 2.91  35 2.95  28 2.95  24 2.95  23 2.97  26 2.97
                            29 2.99
  35  0.667  0.667  0.517-  24 2.93  27 2.93  22 2.93  30 2.95  29 2.95  32 2.95  34 2.95  31 2.95
                            33 2.95
  36  0.333  0.333  0.509-  37 2.21  38 2.21  21 2.82  20 2.82  23 2.82  31 2.91  33 2.91  30 2.91
                            29 2.91  34 2.91  32 2.91
  37  0.265  0.336  0.597-  38 1.19  36 2.21
  38  0.400  0.336  0.597-  37 1.19  36 2.21

  LATTYP: Found a hexagonal cell.
 ALAT       =     8.7913665772
 C/A-ratio  =     2.7451390552

  Lattice vectors:

 A1 = (  -4.3956832886,  -7.6135467898,   0.0000000000)
 A2 = (   8.7913665771,   0.0000000000,   0.0000000000)
 A3 = (   0.0000000000,   0.0000000000,  24.1335237399)

Analysis of symmetry for initial positions (statically):
 Subroutine PRICEL returns:
 Original cell was already a primitive cell.

 Routine SETGRP: Setting up the symmetry group for a
 hexagonal supercell.

 Subroutine GETGRP returns: Found  2 space group operations
 (whereof  2 operations were pure point group operations)
 out of a pool of 24 trial point group operations.

The static configuration has the point symmetry C_1h.

Analysis of symmetry for dynamics (positions and initial velocities):
 Subroutine PRICEL returns:
 Original cell was already a primitive cell.

[...]

The dynamic configuration has the point symmetry C_1h.

Analysis of constrained symmetry for selective dynamics:
 Subroutine PRICEL returns:
 Original cell was already a primitive cell.

 Routine SETGRP: Setting up the symmetry group for a
 hexagonal supercell.

[...]
     33      -4.9614      2.00000
     34      -4.9482      2.00000
     35      -4.9387      2.00000
     36      -4.9091      2.00000
     37      -4.9088      2.00000
     38      -4.8912      2.00000
     39      -4.8694      2.00000
     40      -4.8611      2.00000
     41      -4.8422      2.00000
     42      -4.8045      2.00000
     43      -4.7825      2.00000
     44      -4.7605      2.00000
     45      -4.7282      2.00000
     46      -4.7013      2.00000
     47      -4.6828      2.00000
     48      -4.6779      2.00000
     49      -4.6726      2.00000
     50      -4.6560      2.00000
     51      -4.6450      2.00000
     52      -4.5565      2.00000
     53      -4.5320      2.00000
     54      -4.5216      2.00000
     55      -4.5193      2.00000
     56      -4.5129      2.00000
     57      -4.5090      2.00000
     58      -4.5046      2.00000
     59      -4.4954      2.00000
     60      -4.4899      2.00000
[...]
    242       5.7564      0.00000
    243       5.8630      0.00000
    244       5.9706      0.00000
    245       5.9997      0.00000
    246       6.0658      0.00000
    247       6.0897      0.00000
    248       6.6166      0.00000
    249       6.6270      0.00000
    250       6.7826      0.00000
    251       6.8140      0.00000
    252       6.8658      0.00000
    253       6.9161      0.00000
    254       6.9979      0.00000
    255       7.0436      0.00000
    256       7.0999      0.00000

 soft charge-density along one line, spin component           1
         0         1         2         3         4         5         6         7         8         9
 total charge-density along one line

------------------------ aborting loop because EDIFF is reached ----------------------------------------

 total charge

# of ion       s       p       d       tot
    1        0.420   0.201   9.178   9.799
    2        0.417   0.204   9.175   9.796
    3        0.417   0.204   9.175   9.796
    4        0.416   0.203   9.178   9.797
    5        0.418   0.202   9.176   9.796
    6        0.416   0.203   9.178   9.797
    7        0.414   0.204   9.177   9.796
    8        0.414   0.204   9.177   9.796
    9        0.414   0.203   9.178   9.795
   10        0.408   0.269   9.163   9.841
   11        0.406   0.268   9.168   9.841
   12        0.408   0.269   9.163   9.841
   13        0.406   0.268   9.168   9.842
   14        0.406   0.268   9.168   9.842
   15        0.401   0.269   9.164   9.834
   16        0.411   0.269   9.162   9.842
   17        0.402   0.269   9.165   9.835
   18        0.402   0.269   9.165   9.835
   19        0.398   0.264   9.167   9.830
   20        0.439   0.302   9.133   9.874
   21        0.439   0.302   9.133   9.874
   22        0.391   0.272   9.165   9.828
   23        0.445   0.294   9.138   9.876
   24        0.391   0.272   9.165   9.828
   25        0.405   0.262   9.168   9.835
   26        0.405   0.262   9.168   9.835
   27        0.394   0.272   9.164   9.830
   28        0.413   0.202   9.174   9.789
   29        0.441   0.220   9.156   9.817
   30        0.441   0.220   9.156   9.817
   31        0.437   0.206   9.168   9.811
   32        0.437   0.206   9.168   9.811
   33        0.441   0.219   9.157   9.816
   34        0.441   0.219   9.157   9.816
   35        0.407   0.205   9.174   9.786
   36        2.172   5.983   2.406  10.561
   37        1.341   2.439   0.000   3.780
   38        1.341   2.439   0.000   3.780
tot         19.413  19.303 323.198 361.913

  FORCE on cell =-STRESS in cart. coord.  units (eV):
  Direction    XX          YY          ZZ          XY          YZ          ZX
  Alpha Z   723.41982   723.41982   723.41982
  Ewald  151939.19227151604.54142************     0.00007     2.11589     0.00007
  Hartree162156.25376162013.71607************     0.00003     1.15597     0.00002
  E(xc)   -2129.86112 -2131.10574 -2136.09084     0.00003     0.00493    -0.00000
  Local  ************************325094.63933     0.00077    -2.88471    -0.00018
  n-local  -347.32784  -338.63158  -340.63420     1.80565    -0.13426     0.12588
  augment  3240.37036  3239.04949  3252.78415    -0.00015     0.05843     0.00002
  Kinetic  5197.71132  5202.08106  5235.47615     1.44405    -0.56723    -0.17849
  Fock        0.00000     0.00000     0.00000     0.00000     0.00000     0.00000
  Total      -6.78545    -6.41957    -0.37118    -0.00000    -0.25099    -0.00000
  in kB      -6.73016    -6.36725    -0.36816    -0.00000    -0.24894    -0.00000

 VOLUME and BASIS-vectors are now :
  energy-cutoff  :      500.00
  volume of cell :     1615.34
      direct lattice vectors                 reciprocal lattice vectors
     8.791366577  0.000000000  0.000000000     0.113747958 -0.065672414  0.000000000
     4.395683289  7.613546790  0.000000000     0.000000000  0.131344829  0.000000000
     0.000000000  0.000000000 24.133523740     0.000000000  0.000000000  0.041436137

  length of vectors
     8.791366577  8.791366577 24.133523740     0.131344829  0.131344829  0.041436137

 FORCES acting on ions
    electron-ion (+dipol)            ewald-force                    non-local-force                 convergence-correction
   0.460E-04 0.115E+00 0.270E+04   -.954E-04 -.105E-01 -.270E+04   -.240E-12 -.365E-01 -.194E+01   -.129E-03 -.706E-01 0.837E-01
   0.139E+00 0.115E+01 0.270E+04   -.401E+00 -.112E+01 -.270E+04   0.142E+00 0.993E-01 -.154E+01   0.115E+00 -.126E+00 0.133E+00
   -.139E+00 0.115E+01 0.270E+04   0.401E+00 -.112E+01 -.270E+04   -.142E+00 0.993E-01 -.154E+01   -.115E+00 -.124E+00 0.134E+00
   0.111E+01 -.266E+00 0.271E+04   -.116E+01 0.202E+00 -.270E+04   0.851E-01 -.360E-01 -.161E+01   -.238E-01 0.902E-01 0.173E+00
   -.698E-05 -.720E-01 0.271E+04   0.980E-04 -.336E-02 -.271E+04   0.176E-12 0.268E-01 -.142E+01   0.630E-02 0.438E-01 0.260E+00
   -.111E+01 -.266E+00 0.271E+04   0.116E+01 0.202E+00 -.270E+04   -.851E-01 -.360E-01 -.161E+01   0.223E-01 0.912E-01 0.174E+00
   0.707E+00 -.853E+00 0.271E+04   -.756E+00 0.914E+00 -.270E+04   0.109E+00 -.708E-01 -.162E+01   -.631E-01 0.135E-01 0.264E-01
   -.707E+00 -.853E+00 0.271E+04   0.756E+00 0.914E+00 -.270E+04   -.109E+00 -.708E-01 -.162E+01   0.648E-01 0.125E-01 0.266E-01
   0.361E-04 -.855E-01 0.270E+04   0.792E-04 0.138E-01 -.270E+04   0.576E-13 0.877E-02 -.183E+01   -.670E-02 0.659E-01 0.523E-01
   0.644E+01 0.381E+01 0.973E+03   -.615E+01 -.365E+01 -.972E+03   -.381E+00 -.238E+00 -.765E+00   0.738E-01 0.740E-01 0.142E+00
   -.286E-04 0.104E+02 0.982E+03   0.411E-04 -.106E+02 -.982E+03   0.938E-12 0.143E+00 -.236E+00   0.640E-02 -.255E-01 0.951E-01
   -.644E+01 0.381E+01 0.973E+03   0.615E+01 -.365E+01 -.972E+03   0.381E+00 -.238E+00 -.765E+00   -.757E-01 0.755E-01 0.143E+00
   0.877E+01 -.513E+01 0.982E+03   -.910E+01 0.530E+01 -.982E+03   0.250E+00 -.886E-01 -.356E+00   0.206E-01 -.384E-01 0.951E-01
   -.877E+01 -.513E+01 0.982E+03   0.910E+01 0.530E+01 -.982E+03   -.250E+00 -.886E-01 -.356E+00   -.958E-02 -.391E-01 0.953E-01
   0.163E-04 -.260E+01 0.968E+03   -.109E-03 0.255E+01 -.967E+03   0.253E-12 0.386E-01 -.695E+00   -.203E-02 -.314E-02 0.135E+00
   -.801E-05 -.758E+01 0.972E+03   0.207E-04 0.715E+01 -.972E+03   0.331E-11 0.504E+00 -.594E+00   0.335E-03 -.520E-01 0.144E+00
   -.238E+01 0.119E+01 0.967E+03   0.217E+01 -.120E+01 -.967E+03   0.910E-01 -.155E-01 -.620E+00   0.102E+00 0.801E-02 0.865E-01
   0.238E+01 0.119E+01 0.967E+03   -.217E+01 -.120E+01 -.967E+03   -.910E-01 -.155E-01 -.620E+00   -.102E+00 0.103E-01 0.869E-01
   0.416E-04 0.113E+01 -.802E+03   -.132E-03 -.132E+01 0.801E+03   0.101E-11 0.153E+00 0.112E+01   -.191E-02 0.364E-01 -.121E+00
   0.475E+02 0.279E+02 -.724E+03   -.462E+02 -.274E+02 0.724E+03   -.137E+01 -.563E+00 -.883E+00   -.154E-01 0.690E-04 -.113E+00
   -.475E+02 0.279E+02 -.724E+03   0.462E+02 -.274E+02 0.724E+03   0.137E+01 -.563E+00 -.883E+00   0.262E-01 0.130E-02 -.113E+00
   0.212E+02 -.128E+02 -.795E+03   -.214E+02 0.130E+02 0.795E+03   0.284E+00 -.207E+00 0.625E+00   -.495E-01 -.898E-02 -.142E+00
   -.591E-04 -.556E+02 -.724E+03   0.503E-04 0.542E+02 0.725E+03   0.102E-10 0.155E+01 -.856E+00   0.683E-02 0.271E-01 -.829E-01
   -.212E+02 -.128E+02 -.795E+03   0.214E+02 0.130E+02 0.795E+03   -.284E+00 -.207E+00 0.625E+00   0.479E-01 -.100E-01 -.142E+00
   -.633E+00 -.234E+00 -.803E+03   0.714E+00 0.286E+00 0.802E+03   -.619E-01 -.383E-01 0.898E+00   -.157E-01 -.228E-03 -.853E-01
   0.633E+00 -.234E+00 -.803E+03   -.714E+00 0.286E+00 0.802E+03   0.619E-01 -.383E-01 0.898E+00   0.155E-01 -.244E-02 -.849E-01
   0.212E-04 0.244E+02 -.796E+03   0.109E-03 -.246E+02 0.796E+03   0.173E-11 0.264E+00 0.593E+00   -.463E-03 -.202E-01 -.172E+00
   0.545E-04 0.212E+01 -.258E+04   -.119E-03 -.242E+01 0.258E+04   0.145E-11 0.221E+00 0.161E+01   -.180E-03 0.546E-01 -.755E-01
   0.584E+02 0.103E+03 -.257E+04   -.575E+02 -.102E+03 0.257E+04   -.100E+01 -.116E+01 0.144E+01   -.202E-01 -.224E-02 -.120E+00
   -.584E+02 0.103E+03 -.257E+04   0.575E+02 -.102E+03 0.257E+04   0.100E+01 -.116E+01 0.144E+01   0.199E-01 0.127E-04 -.120E+00
   0.123E+03 0.322E+01 -.256E+04   -.122E+03 -.311E+01 0.256E+04   -.108E+01 -.124E+00 0.229E+01   -.314E-01 0.877E-02 -.925E-01
   -.123E+03 0.322E+01 -.256E+04   0.122E+03 -.311E+01 0.256E+04   0.108E+01 -.124E+00 0.229E+01   0.294E-01 0.958E-02 -.931E-01
   0.546E+02 -.107E+03 -.257E+04   -.541E+02 0.106E+03 0.256E+04   -.637E+00 0.130E+01 0.158E+01   0.112E-01 -.666E-02 -.947E-01
   -.546E+02 -.107E+03 -.257E+04   0.541E+02 0.106E+03 0.256E+04   0.637E+00 0.130E+01 0.158E+01   -.960E-02 -.811E-02 -.953E-01
   0.183E-04 -.273E+01 -.259E+04   0.107E-03 0.304E+01 0.258E+04   -.127E-11 -.193E+00 0.182E+01   -.683E-02 -.737E-01 -.589E-01
   0.240E-03 0.262E+01 -.265E+04   0.123E-03 -.279E+01 0.265E+04   -.184E-12 -.281E-01 -.334E-02   0.782E-02 0.273E-01 -.143E+00
   0.226E+03 -.355E+00 -.146E+04   -.265E+03 0.390E+00 0.147E+04   0.391E+02 -.402E-01 -.101E+02   0.546E-02 0.124E-01 -.113E-04
   -.226E+03 -.355E+00 -.146E+04   0.265E+03 0.390E+00 0.147E+04   -.391E+02 -.402E-01 -.101E+02   -.283E-02 0.125E-01 -.517E-03
   0.721E-03 -.346E+00 0.236E+02   -.171E-12 -.135E-12 0.523E-11   0.187E-11 0.284E+00 -.238E+02   0.290E-01 0.634E-01 0.136E+00

 POSITION                                       TOTAL-FORCE (eV/Angst)
      0.00000      0.00000      5.28219        -0.000000     -0.002973     -0.022242
      2.93046      0.00000      5.28219        -0.005736      0.008054      0.043029
      5.86091      0.00000      5.28219         0.005736      0.008054      0.043029
      1.46523      2.53785      5.28219         0.016243     -0.009677      0.029098
      4.39568      2.53785      5.28219        -0.000000     -0.004859      0.004744
      7.32614      2.53785      5.28219        -0.016243     -0.009677      0.029098
      2.93046      5.07570      5.28219        -0.003495      0.002914      0.052205
      5.86091      5.07570      5.28219         0.003495      0.002914      0.052205
      8.79137      5.07570      5.28219         0.000000      0.002941      0.024427
      1.46523      0.84595      7.67490        -0.009821     -0.002641     -0.049435
      4.39568      0.84595      7.67490        -0.000000     -0.062079     -0.044317
      7.32614      0.84595      7.67490         0.009821     -0.002641     -0.049435
      2.93046      3.38380      7.67490        -0.056932      0.040941     -0.069958
      5.86091      3.38380      7.67490         0.056932      0.040941     -0.069958
      8.79137      3.38380      7.67490        -0.000000     -0.010585      0.027978
      4.39568      5.92165      7.67490         0.000000      0.023553     -0.055493
      7.32614      5.92165      7.67490        -0.017089     -0.009249      0.037134
     10.25659      5.92165      7.67490         0.017089     -0.009249      0.037134
      8.79137      1.69211     10.06133        -0.000000     -0.005026      0.051531
      2.92756      1.69022     10.03254        -0.102602     -0.026007     -0.128174
      5.86381      1.69022     10.03254         0.102602     -0.026007     -0.128174
     10.25459      4.23091     10.07004         0.034609     -0.015079      0.030450
      4.39568      4.23310     10.03254         0.000000      0.138633     -0.138098
      7.32815      4.23091     10.07004        -0.034609     -0.015079      0.030450
     11.72164      6.76749     10.06133         0.003496      0.011753      0.003322
      5.86110      6.76749     10.06133        -0.003496      0.011753      0.003322
      8.79137      6.76528     10.07004         0.000000      0.046560      0.023983
      0.00000      0.00000     12.45237        -0.000000     -0.024647     -0.015950
      2.94700      0.02679     12.48745        -0.111352     -0.169935     -0.186978
      5.84437      0.02679     12.48745         0.111352     -0.169935     -0.186978
      1.49670      2.53878     12.48745        -0.238431     -0.005260     -0.161961
      7.29466      2.53878     12.48745         0.238431     -0.005260     -0.161961
      2.94539      5.04797     12.48745        -0.119315      0.181236     -0.214785
      5.84598      5.04797     12.48745         0.119315      0.181236     -0.214785
      8.79137      5.07570     12.46721         0.000000      0.040861     -0.023122
      4.39568      2.53785     12.28926        -0.000000     -0.170815      1.396555
      3.80163      2.55521     14.41571         0.024764      0.007167      0.001056
      4.98973      2.55521     14.41571        -0.024764      0.007167      0.001056
    total drift:                                0.029737      0.001330      0.009657

  FREE ENERGIE OF THE ION-ELECTRON SYSTEM (eV)
  free  energy   TOTEN  =      -113.49047706 eV

  energy  without entropy=     -113.49047706  energy(sigma->0) =     -113.49047706

 stress matrix after NEB project (eV)
     -6.78545     -0.00000     -0.00000
     -0.00000     -6.41957     -0.25099
     -0.00000     -0.25099     -0.37118
  FORCES: max atom, RMS     0.025802    0.005919
  FORCE total and by dimension    0.036490    0.024764
  Stress total and by dimension    9.355049    6.785451
|           W    W    AA    RRRRR   N    N  II  N    N   GGGG   !!!           |
|           W    W   A  A   R    R  NN   N  II  NN   N  G    G  !!!           |
|           W    W  A    A  R    R  N N  N  II  N N  N  G       !!!           |
|           W WW W  AAAAAA  RRRRR   N  N N  II  N  N N  G  GGG   !            |
|           WW  WW  A    A  R   R   N   NN  II  N   NN  G    G                |
|           W    W  A    A  R    R  N    N  II  N    N   GGGG   !!!           |
|     Tetrahedron method does not include variations of the Fermi             |
|     occupations, so forces and stress will be inaccurate. We suggest        |
|     using a different smearing scheme ISMEAR = 1 or 2 for metals in         |
|     relaxations.                                                            |

 total charge

# of ion       s       p       d       tot
    1        0.420   0.201   9.178   9.799
    2        0.417   0.204   9.175   9.796
    3        0.417   0.204   9.175   9.796
    4        0.416   0.203   9.178   9.797
    5        0.418   0.202   9.176   9.796
    6        0.416   0.203   9.178   9.797
    7        0.414   0.204   9.177   9.796
    8        0.414   0.204   9.177   9.796
    9        0.414   0.203   9.178   9.795
   10        0.408   0.269   9.163   9.841
   11        0.406   0.268   9.168   9.841
   12        0.408   0.269   9.163   9.841
   13        0.406   0.268   9.168   9.842
   14        0.406   0.268   9.168   9.842
   15        0.401   0.269   9.164   9.834
   16        0.411   0.269   9.162   9.842
   17        0.402   0.269   9.165   9.835
   18        0.402   0.269   9.165   9.835
   19        0.398   0.264   9.167   9.830
   20        0.439   0.302   9.133   9.874
   21        0.439   0.302   9.133   9.874
   22        0.391   0.272   9.165   9.828
   23        0.445   0.294   9.138   9.876
   24        0.391   0.272   9.165   9.828
   25        0.405   0.262   9.168   9.835
   26        0.405   0.262   9.168   9.835
   27        0.394   0.272   9.164   9.830
   28        0.413   0.202   9.174   9.789
   29        0.441   0.220   9.156   9.817
   30        0.441   0.220   9.156   9.817
   31        0.437   0.206   9.168   9.811
   32        0.437   0.206   9.168   9.811
   33        0.441   0.219   9.157   9.816
   34        0.441   0.219   9.157   9.816
   35        0.407   0.205   9.174   9.786
   36        2.172   5.983   2.406  10.561
   37        1.341   2.439   0.000   3.780
   38        1.341   2.439   0.000   3.780
tot         19.413  19.303 323.198 361.913

 BZINTS: Fermi energy:    0.485341;  408.000000 electrons
         Band energy:-0.179536E+04;  BLOECHL correction:   -0.026433