 vasp.6.2.0 18Jan21 (build Jun 12 2021 23:27:24) complex

 executed on             LinuxIFC date 2022.05.28  01:05:42

 INCAR:
   ISMEAR = -5
   SIGMA = 0.1
   ISPIN = 1
   EDIFF = 1.d-5
   EDIFFG = -0.01
   NSW = 0
   NELM = 150
   ENCUT = 500
   ISIF = 2
   IBRION = 2
   LREAL = Auto
   ALGO = Fast
   ICHARG = 11
   LORBIT = 10
   LCHARG = .F.
   LWAVE = .F.

 POTCAR:    PAW_PBE Au 04Oct2007
 POTCAR:    PAW_PBE Hf 20Jan2003
 POTCAR:    PAW_PBE O 08Apr2002
 POTCAR:    PAW_PBE H 15Jun2001
|           W    W    AA    RRRRR   N    N  II  N    N   GGGG   !!!           |
|           W    W   A  A   R    R  NN   N  II  NN   N  G    G  !!!           |
|           W    W  A    A  R    R  N N  N  II  N N  N  G       !!!           |
|           W WW W  AAAAAA  RRRRR   N  N N  II  N  N N  G  GGG   !            |
|           WW  WW  A    A  R   R   N   NN  II  N   NN  G    G                |
|           W    W  A    A  R    R  N    N  II  N    N   GGGG   !!!           |
|     For optimal performance we recommend to set                             |
|       NCORE = 2 up to number-of-cores-per-socket                            |
|     This setting can greatly improve the performance of VASP for DFT.       |
|     The default, NCORE=1 might be grossly inefficient on modern             |
|     multi-core architectures or massively parallel machines. Do your        |
|     Unfortunately you need to use the default for GW and RPA                |
|     calculations (for HF NCORE is supported but not extensively tested      |
|     yet).                                                                   |

 POTCAR:    PAW_PBE Au 04Oct2007
   VRHFIN =Au: s1d10

   TITEL  = PAW_PBE Au 04Oct2007
   POMASS =  196.966; ZVAL   =   11.000    mass and valenz
   ENMAX  =  229.943; ENMIN  =  172.457 eV

 POTCAR:    PAW_PBE Hf 20Jan2003
   VRHFIN =Hf: 6s5d

   TITEL  = PAW_PBE Hf 20Jan2003
   POMASS =  178.490; ZVAL   =    4.000    mass and valenz
   ENMAX  =  220.334; ENMIN  =  165.250 eV

 POTCAR:    PAW_PBE O 08Apr2002
   VRHFIN =O: s2p4

   TITEL  = PAW_PBE O 08Apr2002
   POMASS =   16.000; ZVAL   =    6.000    mass and valenz
   ENMAX  =  400.000; ENMIN  =  300.000 eV

 POTCAR:    PAW_PBE H 15Jun2001
   VRHFIN =H: ultrasoft test

   TITEL  = PAW_PBE H 15Jun2001
   POMASS =    1.000; ZVAL   =    1.000    mass and valenz
   ENMAX  =  250.000; ENMIN  =  200.000 eV

 Optimization of the real space projectors (new method)

 maximal supplied QI-value         = 15.12
 optimisation between [QCUT,QGAM] = [ 11.34, 22.83] = [ 36.00,145.93] Ry
 Optimized for a Real-space Cutoff    1.39 Angstroem

   l    n(q)    QCUT    max X(q) W(low)/X(q) W(high)/X(q)  e(spline)
   2      9    11.338    60.898    0.39E-03    0.42E-03    0.21E-06
   2      9    11.338    58.894    0.40E-03    0.42E-03    0.22E-06
   0      9    11.338   109.617    0.13E-03    0.20E-04    0.13E-06
   0      9    11.338    75.026    0.13E-03    0.20E-04    0.13E-06
   1      9    11.338    16.344    0.33E-04    0.24E-03    0.18E-06
   1      9    11.338    10.160    0.26E-04    0.19E-03    0.15E-06
 Optimization of the real space projectors (new method)

[...]

   l    n(q)    QCUT    max X(q) W(low)/X(q) W(high)/X(q)  e(spline)
   0      7    11.387    20.381    0.39E-03    0.13E-02    0.15E-06
   0      7    11.387    15.268    0.42E-03    0.14E-02    0.17E-06
   1      6    11.387     5.964    0.41E-03    0.11E-02    0.17E-06
   1      6    11.387     5.382    0.39E-03    0.87E-03    0.15E-06
 Optimization of the real space projectors (new method)

 maximal supplied QI-value         = 34.20
 optimisation between [QCUT,QGAM] = [ 11.29, 22.57] = [ 35.68,142.71] Ry
 Optimized for a Real-space Cutoff    1.16 Angstroem

   l    n(q)    QCUT    max X(q) W(low)/X(q) W(high)/X(q)  e(spline)
   0      8    11.287    19.460    0.40E-03    0.73E-03    0.16E-06
   0      8    11.287    12.209    0.38E-03    0.70E-03    0.15E-06
   1      7    11.287     4.655    0.22E-03    0.25E-04    0.22E-06
  PAW_PBE Au 04Oct2007                  :
  PAW_PBE Hf 20Jan2003                  :
  PAW_PBE O 08Apr2002                   :
  PAW_PBE H 15Jun2001                   :

 POSCAR: Au-Hf-OOH
  positions in direct lattice
  velocities in cartesian coordinates
 exchange correlation table for  LEXCH =        8
   RHO(1)=    0.500       N(1)  =     2000
   RHO(2)=  100.500       N(2)  =     4000

 VTST: version 3.2, (02/03/18)

 CHAIN: initializing optimizer

 OPT: Using VASP Conjugate-Gradient optimizer
 CHAIN: Read ICHAIN            0

 POSCAR: Au-Hf-OOH
  positions in direct lattice
  velocities in cartesian coordinates

 ion  position               nearest neighbor table
   1  0.000  0.000  0.204-  16 2.94  12 2.94   6 2.94   8 2.94   7 2.94   3 2.94  10 2.94   4 2.94
                             2 2.94
   2  0.333  0.000  0.204-   9 2.94  11 2.94  17 2.94  10 2.94   8 2.94   4 2.94   5 2.94   1 2.94
                             3 2.94
   3  0.667  0.000  0.204-   7 2.94  18 2.94  12 2.94   1 2.94  11 2.94   5 2.94   6 2.94   9 2.94
                             2 2.94
   4  0.000  0.333  0.204-  10 2.94   6 2.94   5 2.94  13 2.94   2 2.94  15 2.94   9 2.94   1 2.94
                             7 2.94
   5  0.333  0.333  0.204-  13 2.94   7 2.94  11 2.94   4 2.94   2 2.94  14 2.94   3 2.94   8 2.94
                             6 2.94
   6  0.667  0.333  0.204-  15 2.94  14 2.94   1 2.94  12 2.94   4 2.94   9 2.94   8 2.94   3 2.94
                             5 2.94
   7  0.000  0.667  0.204-  18 2.94   3 2.94  16 2.94   5 2.94   1 2.94  13 2.94   8 2.94   4 2.94
                             9 2.94
   8  0.333  0.667  0.204-   9 2.94  17 2.94   1 2.94   2 2.94  14 2.94  16 2.94   6 2.94   7 2.94
                             5 2.94
   9  0.667  0.667  0.204-   2 2.94   8 2.94  17 2.94   6 2.94  15 2.94   4 2.94   3 2.94  18 2.94
                             7 2.94
  10  0.111  0.111  0.296-  20 2.93  26 2.94  19 2.94  11 2.94  17 2.94   2 2.94   4 2.94   1 2.94
                            12 2.94  16 2.94  13 2.94  15 2.94
  11  0.444  0.111  0.296-  20 2.92  21 2.92  13 2.94   2 2.94  10 2.94  17 2.94   5 2.94   3 2.94
                            18 2.94  14 2.94  12 2.94  27 2.94
  12  0.778  0.111  0.296-  21 2.93  25 2.94  19 2.94  16 2.94  18 2.94   1 2.94  14 2.94  15 2.94
                             3 2.94   6 2.94  10 2.94  11 2.94
  13  0.111  0.444  0.296-  23 2.92  20 2.92   5 2.94  18 2.94  11 2.94   7 2.94   4 2.94  16 2.94
                            10 2.94  14 2.94  15 2.94  22 2.94
  14  0.444  0.444  0.296-  21 2.92  23 2.92  15 2.94   6 2.94  12 2.94   8 2.94  17 2.94   5 2.94
                            16 2.94  13 2.94  11 2.94  24 2.94
  15  0.778  0.444  0.296-  24 2.93  22 2.93  19 2.94  14 2.94   6 2.94  17 2.94  12 2.94   9 2.94
                             4 2.94  10 2.94  13 2.94  18 2.94
  16  0.111  0.778  0.296-  23 2.93  25 2.94  26 2.94  18 2.94  12 2.94   7 2.94   1 2.94   8 2.94
                            13 2.94  10 2.94  14 2.94  17 2.94
  17  0.444  0.778  0.296-  27 2.93  24 2.93  26 2.94   9 2.94  15 2.94   2 2.94  10 2.94  11 2.94
                             8 2.94  14 2.94  16 2.94  18 2.94
  18  0.778  0.778  0.296-  22 2.93  27 2.93  25 2.94  16 2.94   7 2.94  13 2.94  12 2.94   3 2.94
                            11 2.94   9 2.94  15 2.94  17 2.94
  19  0.889  0.222  0.389-  15 2.94  10 2.94  12 2.94  24 2.94  22 2.94  26 2.94  25 2.94  21 2.94
                            20 2.94  28 2.96  32 3.04  31 3.04
  20  0.223  0.223  0.388-  36 2.81  11 2.92  13 2.92  23 2.93  21 2.93  10 2.93  26 2.94  19 2.94
                            27 2.95  22 2.95  29 2.99  31 2.99
  21  0.555  0.223  0.388-  36 2.81  14 2.92  11 2.92  20 2.93  23 2.93  12 2.93  25 2.94  19 2.94
                            27 2.95  24 2.95  30 2.99  32 2.99
  22  0.887  0.556  0.388-  24 2.92  27 2.92  18 2.93  15 2.93  25 2.94  19 2.94  13 2.94  23 2.95
                            20 2.95  35 2.96  33 3.01  31 3.01
  23  0.223  0.555  0.388-  36 2.81  13 2.92  14 2.92  20 2.93  21 2.93  16 2.93  25 2.94  26 2.94
                            22 2.95  24 2.95  33 2.99  34 2.99
  24  0.556  0.556  0.388-  27 2.92  22 2.92  15 2.93  17 2.93  26 2.94  19 2.94  14 2.94  21 2.95
                            23 2.95  35 2.96  32 3.01  34 3.01
  25  0.889  0.889  0.389-  18 2.94  16 2.94  12 2.94  22 2.94  27 2.94  19 2.94  26 2.94  23 2.94
                            21 2.94  28 2.96  33 3.04  30 3.04
  26  0.222  0.889  0.389-  17 2.94  10 2.94  16 2.94  27 2.94  24 2.94  19 2.94  25 2.94  20 2.94
                            23 2.94  28 2.96  29 3.04  34 3.04
  27  0.556  0.887  0.388-  24 2.92  22 2.92  17 2.93  18 2.93  26 2.94  25 2.94  11 2.94  20 2.95
                            21 2.95  35 2.96  29 3.01  30 3.01
  28  0.000  0.000  0.482-  25 2.96  19 2.96  26 2.96  34 2.98  32 2.98  33 2.98  30 2.98  31 2.98
                            29 2.98
  29  0.334  0.008  0.484-  30 2.86  31 2.87  36 2.88  35 2.97  28 2.98  20 2.99  27 3.01  26 3.04
                            34 3.08
  30  0.658  0.008  0.484-  29 2.86  32 2.87  36 2.88  35 2.97  28 2.98  21 2.99  27 3.01  25 3.04
                            33 3.08
  31  0.008  0.334  0.484-  33 2.86  29 2.87  36 2.88  35 2.97  28 2.98  20 2.99  22 3.01  19 3.04
                            32 3.08
  32  0.658  0.334  0.484-  34 2.86  30 2.87  36 2.88  35 2.97  28 2.98  21 2.99  24 3.01  19 3.04
                            31 3.08
  33  0.008  0.658  0.484-  31 2.86  34 2.87  36 2.88  35 2.97  28 2.98  23 2.99  22 3.01  25 3.04
                            30 3.08
  34  0.334  0.658  0.484-  32 2.86  33 2.87  36 2.88  35 2.97  28 2.98  23 2.99  24 3.01  26 3.04
                            29 3.08
  35  0.667  0.667  0.483-  24 2.96  27 2.96  22 2.96  29 2.97  34 2.97  32 2.97  31 2.97  30 2.97
                            33 2.97
  36  0.333  0.333  0.475-  37 1.91  20 2.81  23 2.81  21 2.81  33 2.88  31 2.88  29 2.88  30 2.88
                            34 2.88  32 2.88
  37  0.334  0.333  0.549-  38 1.41  36 1.91
  38  0.332  0.333  0.603-  39 0.98  37 1.41
  39  0.441  0.334  0.611-  38 0.98

  LATTYP: Found a hexagonal cell.
 ALAT       =     8.8135128021
 C/A-ratio  =     2.9412617888

  Lattice vectors:

 A1 = (  -4.4067569092,  -7.6327256898,   0.0000000000)
 A2 = (   8.8135128021,   0.0000000000,   0.0000000000)
 A3 = (   0.0000000000,   0.0000000000,  25.9228484302)

Analysis of symmetry for initial positions (statically):
 Subroutine PRICEL returns:
 Original cell was already a primitive cell.

 Routine SETGRP: Setting up the symmetry group for a
 hexagonal supercell.

 Subroutine GETGRP returns: Found  1 space group operations
 (whereof  1 operations were pure point group operations)
 out of a pool of 24 trial point group operations.

The static configuration has the point symmetry C_1 .

Analysis of symmetry for dynamics (positions and initial velocities):
 Subroutine PRICEL returns:
 Original cell was already a primitive cell.

[...]

The dynamic configuration has the point symmetry C_1 .

Analysis of constrained symmetry for selective dynamics:
 Subroutine PRICEL returns:
[...]
     41      -5.3191      2.00000
     42      -5.1827      2.00000
     43      -5.1510      2.00000
     44      -5.0894      2.00000
     45      -5.0436      2.00000
     46      -5.0124      2.00000
     47      -4.9918      2.00000
     48      -4.9589      2.00000
     49      -4.9448      2.00000
     50      -4.9108      2.00000
     51      -4.8296      2.00000
     52      -4.8276      2.00000
     53      -4.7844      2.00000
     54      -4.7560      2.00000
     55      -4.7502      2.00000
     56      -4.7389      2.00000
     57      -4.7213      2.00000
     58      -4.7041      2.00000
     59      -4.6628      2.00000
     60      -4.6266      2.00000
[...]
    238       5.2352      0.00000
    239       5.4709      0.00000
    240       5.5966      0.00000
    241       5.6115      0.00000
    242       5.7601      0.00000
    243       5.8242      0.00000
    244       5.8968      0.00000
    245       5.9285      0.00000
    246       6.1151      0.00000
    247       6.1294      0.00000
    248       6.2063      0.00000
    249       6.2895      0.00000
    250       6.3455      0.00000
    251       6.4065      0.00000
    252       6.4172      0.00000

 soft charge-density along one line, spin component           1
         0         1         2         3         4         5         6         7         8         9
 total charge-density along one line

------------------------ aborting loop because EDIFF is reached ----------------------------------------

 total charge

# of ion       s       p       d       tot
    1        0.549   0.238   8.765   9.551
    2        0.542   0.241   8.765   9.548
    3        0.542   0.241   8.765   9.548
    4        0.542   0.241   8.765   9.548
    5        0.543   0.242   8.762   9.547
    6        0.542   0.241   8.765   9.548
    7        0.542   0.241   8.765   9.548
    8        0.543   0.241   8.765   9.548
    9        0.540   0.240   8.767   9.547
   10        0.523   0.306   8.772   9.601
   11        0.519   0.308   8.778   9.605
   12        0.523   0.306   8.772   9.601
   13        0.519   0.308   8.778   9.605
   14        0.520   0.307   8.778   9.605
   15        0.515   0.308   8.773   9.596
   16        0.523   0.306   8.772   9.601
   17        0.515   0.309   8.772   9.596
   18        0.515   0.309   8.773   9.596
   19        0.522   0.296   8.771   9.588
   20        0.564   0.336   8.742   9.642
   21        0.565   0.336   8.742   9.643
   22        0.512   0.305   8.773   9.590
   23        0.564   0.336   8.742   9.642
   24        0.513   0.304   8.773   9.590
   25        0.521   0.296   8.771   9.588
   26        0.521   0.296   8.771   9.588
   27        0.512   0.305   8.773   9.589
   28        0.542   0.232   8.754   9.529
   29        0.591   0.242   8.743   9.576
   30        0.592   0.244   8.742   9.578
   31        0.592   0.242   8.742   9.576
   32        0.595   0.245   8.740   9.580
   33        0.591   0.243   8.743   9.576
   34        0.592   0.244   8.742   9.578
   35        0.541   0.235   8.753   9.528
   36        0.545   0.636   2.057   3.238
   37        1.568   3.392   0.000   4.960
   38        1.588   3.399   0.000   4.987
   39        0.613   0.113   0.000   0.726
tot         23.301  17.208 308.727 349.236

  FORCE on cell =-STRESS in cart. coord.  units (eV):
  Direction    XX          YY          ZZ          XY          YZ          ZX
  Alpha Z   884.62333   884.62333   884.62333
  Ewald  169485.89322169391.90530************     0.72603     0.60954    26.47079
  Hartree177891.71748177872.70086************     0.21247     0.40766     4.52884
  E(xc)   -1806.46072 -1806.94576 -1814.69999     0.00298    -0.00045     0.06703
  Local  ************************359045.46065    -0.77224    -0.97341   -25.06216
  n-local   -92.39970   -92.67047   -53.79467     0.02210     0.02612     0.31189
  augment  2376.72910  2378.53658  2392.32327    -0.01421    -0.01070    -0.35075
  Kinetic  5651.57750  5676.98718  5670.58483    -0.15512    -0.03813    -5.92829
  Fock        0.00000     0.00000     0.00000     0.00000     0.00000     0.00000
  Total     -19.44946   -19.46778     2.05705     0.02200     0.02063     0.03732
  in kB     -17.86927   -17.88609     1.88992     0.02021     0.01895     0.03429

 VOLUME and BASIS-vectors are now :
  energy-cutoff  :      500.00
  volume of cell :     1743.86
      direct lattice vectors                 reciprocal lattice vectors
     8.813512802  0.000000000  0.000000000     0.113462137 -0.065507406  0.000000000
     4.406756909  7.632725690  0.000000000     0.000000000  0.131014796  0.000000000
     0.000000000  0.000000000 25.922848430     0.000000000  0.000000000  0.038576008

  length of vectors
     8.813512802  8.813512802 25.922848430     0.131014796  0.131014796  0.038576008

 FORCES acting on ions
    electron-ion (+dipol)            ewald-force                    non-local-force                 convergence-correction
   0.335E-02 -.334E-02 0.275E+04   0.305E-02 -.116E-02 -.275E+04   -.172E-02 0.450E-02 -.526E+00   -.542E-02 0.827E-03 -.255E-01
   0.246E-01 -.220E+00 0.275E+04   -.551E-01 0.225E+00 -.275E+04   -.117E-01 0.570E-01 -.327E+00   0.360E-01 -.562E-01 -.101E+00
   -.273E-01 -.225E+00 0.275E+04   0.520E-01 0.220E+00 -.275E+04   0.131E-01 0.589E-01 -.307E+00   -.308E-01 -.471E-01 -.981E-01
   -.181E+00 0.122E+00 0.275E+04   0.170E+00 -.158E+00 -.275E+04   0.420E-01 -.335E-01 -.310E+00   -.318E-01 0.595E-01 -.102E+00
   -.106E-01 -.714E-02 0.275E+04   -.597E-02 0.464E-03 -.275E+04   0.359E-02 0.798E-03 -.214E+00   0.147E-01 0.611E-02 -.125E+00
   0.186E+00 0.124E+00 0.275E+04   -.164E+00 -.158E+00 -.275E+04   -.453E-01 -.352E-01 -.289E+00   0.220E-01 0.604E-01 -.938E-01
   -.199E+00 0.951E-01 0.275E+04   0.219E+00 -.673E-01 -.275E+04   0.497E-01 -.208E-01 -.315E+00   -.600E-01 -.319E-02 -.952E-01
   0.197E+00 0.987E-01 0.275E+04   -.222E+00 -.620E-01 -.275E+04   -.499E-01 -.227E-01 -.304E+00   0.662E-01 -.116E-01 -.910E-01
   0.749E-02 0.811E-02 0.275E+04   0.318E-02 0.727E-03 -.275E+04   0.943E-04 -.333E-02 -.454E+00   -.118E-01 -.600E-02 -.130E+00
   0.102E+00 0.652E-01 0.936E+03   0.238E+00 0.135E+00 -.935E+03   -.261E+00 -.154E+00 -.490E+00   -.915E-01 -.527E-01 -.254E+00
   0.201E-01 -.100E+01 0.935E+03   -.330E-01 0.103E+01 -.934E+03   -.531E-02 0.193E-01 -.254E+00   0.181E-01 -.118E+00 -.220E+00
   -.127E+00 0.870E-01 0.936E+03   -.205E+00 0.107E+00 -.935E+03   0.266E+00 -.157E+00 -.473E+00   0.778E-01 -.429E-01 -.254E+00
   -.860E+00 0.497E+00 0.934E+03   0.876E+00 -.517E+00 -.934E+03   0.143E-01 -.129E-01 -.250E+00   -.931E-01 0.694E-01 -.218E+00
   0.871E+00 0.486E+00 0.935E+03   -.916E+00 -.502E+00 -.934E+03   -.121E-01 -.104E-01 -.233E+00   0.120E+00 0.626E-01 -.214E+00
   -.201E-01 0.235E+01 0.939E+03   0.402E-01 -.240E+01 -.938E+03   -.111E-02 -.337E-02 -.372E+00   -.187E-01 0.205E-01 -.206E+00
   0.929E-02 -.135E+00 0.936E+03   -.750E-02 -.257E+00 -.935E+03   -.241E-02 0.309E+00 -.497E+00   0.136E-02 0.938E-01 -.251E+00
   0.205E+01 -.120E+01 0.939E+03   -.208E+01 0.122E+01 -.938E+03   -.916E-02 0.794E-02 -.388E+00   0.128E-01 -.200E-01 -.203E+00
   -.206E+01 -.117E+01 0.939E+03   0.208E+01 0.118E+01 -.938E+03   0.770E-02 0.548E-02 -.385E+00   -.148E-01 -.180E-02 -.207E+00
   -.272E+00 -.495E+01 -.893E+03   0.276E+00 0.480E+01 0.892E+03   0.181E-01 0.347E-01 0.658E+00   -.240E-01 0.689E-01 -.810E-01
   -.180E+02 -.105E+02 -.904E+03   0.190E+02 0.111E+02 0.904E+03   -.112E+01 -.660E+00 -.932E+00   -.759E-01 -.430E-01 -.912E-01
   0.182E+02 -.104E+02 -.903E+03   -.193E+02 0.110E+02 0.904E+03   0.111E+01 -.667E+00 -.980E+00   0.107E+00 -.291E-01 -.942E-01
   -.138E+02 0.797E+01 -.887E+03   0.137E+02 -.788E+01 0.886E+03   0.340E+00 -.194E+00 0.697E+00   -.139E+00 0.674E-01 -.663E-01
   0.223E+00 0.208E+02 -.903E+03   -.244E+00 -.220E+02 0.904E+03   -.397E-02 0.130E+01 -.952E+00   0.264E-01 0.106E+00 -.934E-01
   0.136E+02 0.776E+01 -.886E+03   -.134E+02 -.767E+01 0.886E+03   -.334E+00 -.180E+00 0.660E+00   0.108E+00 0.586E-01 -.640E-01
   0.426E+01 0.267E+01 -.893E+03   -.415E+01 -.259E+01 0.892E+03   -.314E-01 -.297E-01 0.687E+00   -.498E-01 -.295E-01 -.842E-01
   -.433E+01 0.240E+01 -.893E+03   0.420E+01 -.231E+01 0.893E+03   0.392E-01 -.202E-01 0.692E+00   0.472E-01 -.549E-01 -.827E-01
   0.697E-01 -.158E+02 -.887E+03   -.536E-01 0.156E+02 0.886E+03   -.531E-02 0.392E+00 0.695E+00   -.101E-01 -.152E+00 -.703E-01
   -.752E+00 0.344E+00 -.262E+04   0.763E+00 -.341E+00 0.262E+04   -.788E-02 0.548E-02 0.150E+00   -.280E-02 -.618E-02 0.310E-01
   0.142E+02 0.157E+02 -.261E+04   -.133E+02 -.142E+02 0.261E+04   -.113E+01 -.172E+01 0.697E-01   0.487E-01 -.768E-01 0.475E-01
   -.134E+02 0.179E+02 -.261E+04   0.124E+02 -.164E+02 0.261E+04   0.113E+01 -.172E+01 -.278E-01   -.364E-01 -.629E-01 0.464E-01
   0.198E+02 0.370E+01 -.261E+04   -.180E+02 -.363E+01 0.261E+04   -.207E+01 -.133E+00 0.382E-01   -.366E-01 0.797E-01 0.475E-01
   -.228E+02 0.369E+01 -.261E+04   0.210E+02 -.363E+01 0.261E+04   0.211E+01 -.134E+00 -.233E+00   0.402E-01 0.878E-01 0.409E-01
   0.748E+01 -.193E+02 -.261E+04   -.668E+01 0.178E+02 0.261E+04   -.914E+00 0.185E+01 0.597E-01   -.709E-01 -.146E-02 0.450E-01
   -.666E+01 -.215E+02 -.261E+04   0.584E+01 0.199E+02 0.261E+04   0.914E+00 0.186E+01 -.350E-01   0.979E-01 -.585E-02 0.393E-01
   -.743E+00 -.242E+00 -.263E+04   0.773E+00 0.263E+00 0.263E+04   -.881E-02 -.151E-01 0.297E+00   -.214E-01 -.877E-02 0.252E-01
   0.112E+01 -.139E+00 -.816E+03   -.111E+01 0.143E+00 0.818E+03   -.350E-01 0.312E-02 -.415E+00   0.279E-02 0.171E-02 0.325E-01
   0.738E+01 0.281E-01 -.145E+04   -.850E+01 -.771E-01 0.143E+04   0.111E+01 0.483E-01 0.218E+02   0.962E-02 0.275E-02 0.421E-01
   0.497E+02 0.188E+00 -.168E+04   -.903E+02 -.443E+00 0.171E+04   0.406E+02 0.260E+00 -.299E+02   0.558E-02 0.474E-03 0.344E-01
   -.890E+02 -.595E+00 -.277E+03   0.970E+02 0.649E+00 0.279E+03   -.801E+01 -.530E-01 -.187E+01   0.233E-02 0.323E-03 0.536E-02
   -.337E+02 -.244E+00 0.185E+02   -.426E-13 -.517E-13 0.642E-11   0.337E+02 0.237E+00 -.152E+02   0.394E-01 0.158E-01 -.318E+01

 POSITION                                       TOTAL-FORCE (eV/Angst)
      0.00000      0.00000      5.28038        -0.000762      0.000588     -0.138990
      2.93784      0.00000      5.28038        -0.006142      0.005383     -0.055458
      5.87568      0.00000      5.28038         0.006871      0.006475     -0.055005
      1.46892      2.54424      5.28038        -0.000637     -0.009373     -0.052326
      4.40676      2.54424      5.28038         0.001714     -0.000006     -0.055047
      7.34459      2.54424      5.28038        -0.000845     -0.009185     -0.052740
      2.93784      5.08848      5.28038         0.009788      0.003550     -0.054528
      5.87568      5.08848      5.28038        -0.009003      0.002156     -0.054452
      8.81351      5.08848      5.28038        -0.001079     -0.000735     -0.052262
      1.46892      0.84808      7.67911        -0.011754     -0.007067      0.045114
      4.40676      0.84808      7.67911        -0.000143     -0.073337      0.008910
      7.34459      0.84808      7.67911         0.011394     -0.006421      0.046916
      2.93784      3.39232      7.67911        -0.062775      0.036147      0.011656
      5.87568      3.39232      7.67911         0.063002      0.036475      0.011053
      8.81351      3.39232      7.67911         0.000266     -0.023989      0.125927
      4.40676      5.93656      7.67911         0.000715      0.010628      0.047512
      7.34459      5.93656      7.67911        -0.021585      0.012553      0.125299
     10.28243      5.93656      7.67911         0.020095      0.011536      0.126308
      8.81351      1.69636     10.07469        -0.001219     -0.041977     -0.018649
      2.94338      1.69936     10.06127        -0.170691     -0.100179     -0.205847
      5.87013      1.69936     10.06127         0.166301     -0.096969     -0.209999
     10.27220      4.24631     10.06987         0.050210     -0.029699      0.030082
      4.40676      4.23400     10.06127         0.001987      0.191903     -0.209570
      7.35483      4.24631     10.06987        -0.045860     -0.027560      0.014548
     11.75117      6.78454     10.07469         0.035272      0.020513     -0.011602
      5.87585      6.78454     10.07469        -0.036442      0.019138     -0.008644
      8.81351      6.77283     10.06987         0.000674      0.056984      0.030549
      0.00000      0.00000     12.49672         0.000333      0.001645     -0.092292
      2.97727      0.06002     12.55884        -0.159939     -0.311020     -0.213127
      5.83624      0.06002     12.55884         0.163403     -0.314308     -0.211100
      1.54061      2.54838     12.55884        -0.350480      0.017887     -0.216671
      7.27290      2.54838     12.55884         0.358566      0.018363     -0.208132
      2.97010      5.02433     12.55884        -0.189144      0.291676     -0.209143
      5.84341      5.02433     12.55884         0.192373      0.293810     -0.206826
      8.81351      5.08848     12.50791         0.000307     -0.002889      0.049999
      4.40676      2.54424     12.31155        -0.021162      0.008407      1.917190
      4.41462      2.54148     14.22415         0.003156      0.001872      0.001617
      4.39398      2.54204     15.62989        -0.000231      0.005635      0.002906
      5.35599      2.54844     15.83375         0.003468      0.001393     -0.003177
    total drift:                                0.000798      0.009274      0.123095

  FREE ENERGIE OF THE ION-ELECTRON SYSTEM (eV)
  free  energy   TOTEN  =      -133.69297864 eV

  energy  without entropy=     -133.69297864  energy(sigma->0) =     -133.69297864

 stress matrix after NEB project (eV)
    -19.44946      0.02200      0.03732
      0.02200    -19.46778      0.02063
      0.03732      0.02063      2.05705
  FORCES: max atom, RMS     0.006344    0.001436
  FORCE total and by dimension    0.008966    0.005635
  Stress total and by dimension   27.595507   19.467776
|           W    W    AA    RRRRR   N    N  II  N    N   GGGG   !!!           |
|           W    W   A  A   R    R  NN   N  II  NN   N  G    G  !!!           |
|           W    W  A    A  R    R  N N  N  II  N N  N  G       !!!           |
|           W WW W  AAAAAA  RRRRR   N  N N  II  N  N N  G  GGG   !            |
|           WW  WW  A    A  R   R   N   NN  II  N   NN  G    G                |
|           W    W  A    A  R    R  N    N  II  N    N   GGGG   !!!           |
|     Tetrahedron method does not include variations of the Fermi             |
|     occupations, so forces and stress will be inaccurate. We suggest        |
|     using a different smearing scheme ISMEAR = 1 or 2 for metals in         |
|     relaxations.                                                            |

 total charge

# of ion       s       p       d       tot
    1        0.549   0.238   8.765   9.551
    2        0.542   0.241   8.765   9.548
    3        0.542   0.241   8.765   9.548
    4        0.542   0.241   8.765   9.548
    5        0.543   0.242   8.762   9.547
    6        0.542   0.241   8.765   9.548
    7        0.542   0.241   8.765   9.548
    8        0.543   0.241   8.765   9.548
    9        0.540   0.240   8.767   9.547
   10        0.523   0.306   8.772   9.601
   11        0.519   0.308   8.778   9.605
   12        0.523   0.306   8.772   9.601
   13        0.519   0.308   8.778   9.605
   14        0.520   0.307   8.778   9.605
   15        0.515   0.308   8.773   9.596
   16        0.523   0.306   8.772   9.601
   17        0.515   0.309   8.772   9.596
   18        0.515   0.309   8.773   9.596
   19        0.522   0.296   8.771   9.588
   20        0.564   0.336   8.742   9.642
   21        0.565   0.336   8.742   9.643
   22        0.512   0.305   8.773   9.590
   23        0.564   0.336   8.742   9.642
   24        0.513   0.304   8.773   9.590
   25        0.521   0.296   8.771   9.588
   26        0.521   0.296   8.771   9.588
   27        0.512   0.305   8.773   9.589
   28        0.542   0.232   8.754   9.529
   29        0.591   0.242   8.743   9.576
   30        0.592   0.244   8.742   9.578
   31        0.592   0.242   8.742   9.576
   32        0.595   0.245   8.740   9.580
   33        0.591   0.243   8.743   9.576
   34        0.592   0.244   8.742   9.578
   35        0.541   0.235   8.753   9.528
   36        0.545   0.636   2.057   3.238
   37        1.568   3.392   0.000   4.960
   38        1.588   3.399   0.000   4.987
   39        0.613   0.113   0.000   0.726
tot         23.301  17.208 308.727 349.236

 BZINTS: Fermi energy:    0.080468;  402.000000 electrons
         Band energy:-0.157192E+04;  BLOECHL correction:   -0.065275