 vasp.6.2.0 18Jan21 (build Jun 12 2021 23:27:24) complex

 executed on             LinuxIFC date 2022.05.27  05:33:03

 INCAR:
   ISMEAR = -5
   SIGMA = 0.1
   ISPIN = 1
   EDIFF = 1.d-5
   EDIFFG = -0.01
   NSW = 0
   NELM = 150
   ENCUT = 500
   ISIF = 2
   IBRION = 2
   LREAL = Auto
   ALGO = Fast
   ICHARG = 11
   LORBIT = 10
   LCHARG = .F.
   LWAVE = .F.

 POTCAR:    PAW_PBE Ag 02Apr2005
 POTCAR:    PAW_PBE V 08Apr2002
 POTCAR:    PAW_PBE H 15Jun2001
|           W    W    AA    RRRRR   N    N  II  N    N   GGGG   !!!           |
|           W    W   A  A   R    R  NN   N  II  NN   N  G    G  !!!           |
|           W    W  A    A  R    R  N N  N  II  N N  N  G       !!!           |
|           W WW W  AAAAAA  RRRRR   N  N N  II  N  N N  G  GGG   !            |
|           WW  WW  A    A  R   R   N   NN  II  N   NN  G    G                |
|           W    W  A    A  R    R  N    N  II  N    N   GGGG   !!!           |
|     For optimal performance we recommend to set                             |
|       NCORE = 2 up to number-of-cores-per-socket                            |
|     This setting can greatly improve the performance of VASP for DFT.       |
|     The default, NCORE=1 might be grossly inefficient on modern             |
|     multi-core architectures or massively parallel machines. Do your        |
|     Unfortunately you need to use the default for GW and RPA                |
|     calculations (for HF NCORE is supported but not extensively tested      |
|     yet).                                                                   |

 POTCAR:    PAW_PBE Ag 02Apr2005
   VRHFIN =Ag : s1 d10

   TITEL  = PAW_PBE Ag 02Apr2005
   POMASS =  107.868; ZVAL   =   11.000    mass and valenz
   ENMAX  =  249.844; ENMIN  =  187.383 eV

 POTCAR:    PAW_PBE V 08Apr2002
   VRHFIN =V: p6 d4 s1

   TITEL  = PAW_PBE V 08Apr2002
   POMASS =   50.941; ZVAL   =    5.000    mass and valenz
   ENMAX  =  192.543; ENMIN  =  144.408 eV

 POTCAR:    PAW_PBE H 15Jun2001
   VRHFIN =H: ultrasoft test

   TITEL  = PAW_PBE H 15Jun2001
   POMASS =    1.000; ZVAL   =    1.000    mass and valenz
   ENMAX  =  250.000; ENMIN  =  200.000 eV

 Optimization of the real space projectors (new method)

 maximal supplied QI-value         = 15.12
 optimisation between [QCUT,QGAM] = [ 11.34, 22.83] = [ 36.00,145.93] Ry
 Optimized for a Real-space Cutoff    1.43 Angstroem

   l    n(q)    QCUT    max X(q) W(low)/X(q) W(high)/X(q)  e(spline)
   2      9    11.338    53.897    0.16E-03    0.20E-03    0.28E-06
   2      9    11.338    52.416    0.16E-03    0.20E-03    0.29E-06
   0     10    11.338   122.045    0.31E-04    0.76E-04    0.15E-06
   0     10    11.338    73.629    0.30E-04    0.72E-04    0.15E-06
   1      9    11.338    15.255    0.20E-03    0.19E-04    0.17E-06
   1      9    11.338     9.562    0.16E-03    0.15E-04    0.14E-06
 Optimization of the real space projectors (new method)

[...]

   l    n(q)    QCUT    max X(q) W(low)/X(q) W(high)/X(q)  e(spline)
   2     10    11.327    96.114    0.36E-03    0.35E-03    0.42E-06
   2     10    11.327    88.986    0.37E-03    0.35E-03    0.42E-06
   0     11    11.327    20.919    0.40E-04    0.56E-04    0.79E-06
   0     11    11.327     9.593    0.30E-04    0.41E-04    0.60E-06
   1     10    11.327    11.615    0.15E-03    0.10E-03    0.19E-06
   1     10    11.327     7.031    0.11E-03    0.73E-04    0.14E-06
 Optimization of the real space projectors (new method)

 maximal supplied QI-value         = 34.20
 optimisation between [QCUT,QGAM] = [ 11.29, 22.57] = [ 35.68,142.71] Ry
 Optimized for a Real-space Cutoff    1.16 Angstroem

   l    n(q)    QCUT    max X(q) W(low)/X(q) W(high)/X(q)  e(spline)
   0      8    11.287    19.460    0.40E-03    0.73E-03    0.16E-06
   0      8    11.287    12.209    0.38E-03    0.70E-03    0.15E-06
   1      7    11.287     4.655    0.22E-03    0.25E-04    0.22E-06
  PAW_PBE Ag 02Apr2005                  :
  PAW_PBE V 08Apr2002                   :
  PAW_PBE H 15Jun2001                   :

 POSCAR: Ag-V-H2
  positions in direct lattice
  velocities in cartesian coordinates
 exchange correlation table for  LEXCH =        8
   RHO(1)=    0.500       N(1)  =     2000
   RHO(2)=  100.500       N(2)  =     4000

 VTST: version 3.2, (02/03/18)

 CHAIN: initializing optimizer

 OPT: Using VASP Conjugate-Gradient optimizer
 CHAIN: Read ICHAIN            0

 POSCAR: Ag-V-H2
  positions in direct lattice
  velocities in cartesian coordinates

 ion  position               nearest neighbor table
   1  0.000  0.000  0.220-   2 2.93   8 2.93   7 2.93   6 2.93   4 2.93  12 2.93  16 2.93  10 2.93
                             3 2.93
   2  0.333  0.000  0.220-   1 2.93   8 2.93   9 2.93   3 2.93   4 2.93   5 2.93  10 2.93  17 2.93
                            11 2.93
   3  0.667  0.000  0.220-   9 2.93   2 2.93   5 2.93  11 2.93   7 2.93  18 2.93   1 2.93   6 2.93
                            12 2.93
   4  0.000  0.333  0.220-   5 2.93   6 2.93   2 2.93   1 2.93   7 2.93  13 2.93  15 2.93   9 2.93
                            10 2.93
   5  0.333  0.333  0.220-   4 2.93   3 2.93   7 2.93   2 2.93   8 2.93  14 2.93  13 2.93  11 2.93
                             6 2.93
   6  0.667  0.333  0.220-   4 2.93   9 2.93   1 2.93  15 2.93   8 2.93  12 2.93   3 2.93   5 2.93
                            14 2.93
   7  0.000  0.667  0.220-   8 2.93   1 2.93   5 2.93   3 2.93   4 2.93  16 2.93  18 2.93  13 2.93
                             9 2.93
   8  0.333  0.667  0.220-   7 2.93   1 2.93   2 2.93   9 2.93   5 2.93  16 2.93   6 2.93  17 2.93
                            14 2.93
   9  0.667  0.667  0.220-   3 2.93   2 2.93   8 2.93   6 2.93  17 2.93   4 2.93  15 2.93   7 2.93
                            18 2.93
  10  0.111  0.111  0.320-  20 2.91  19 2.92  26 2.92  12 2.93  16 2.93  15 2.93  17 2.93  13 2.93
                            11 2.93   2 2.93   1 2.93   4 2.93
  11  0.444  0.111  0.320-  21 2.90  20 2.90  27 2.92  14 2.93  17 2.93  18 2.93   3 2.93  12 2.93
                            13 2.93  10 2.93   5 2.93   2 2.93
  12  0.778  0.111  0.320-  21 2.91  25 2.92  19 2.92  10 2.93  16 2.93  18 2.93  15 2.93  11 2.93
                             1 2.93  14 2.93   6 2.93   3 2.93
  13  0.111  0.444  0.320-  20 2.90  23 2.90  22 2.92  15 2.93  14 2.93  18 2.93  10 2.93  11 2.93
                            16 2.93   4 2.93   5 2.93   7 2.93
  14  0.444  0.444  0.320-  23 2.90  21 2.90  24 2.92  13 2.93  11 2.93  16 2.93   5 2.93  12 2.93
                            17 2.93   8 2.93  15 2.93   6 2.93
  15  0.778  0.444  0.320-  24 2.92  22 2.92  19 2.92  13 2.93  10 2.93  12 2.93  17 2.93  18 2.93
                             4 2.93   6 2.93   9 2.93  14 2.93
  16  0.111  0.778  0.320-  23 2.91  26 2.92  25 2.92  18 2.93  12 2.93  10 2.93  14 2.93  17 2.93
                            13 2.93   7 2.93   8 2.93   1 2.93
  17  0.444  0.778  0.320-  27 2.92  24 2.92  26 2.92  11 2.93  10 2.93   9 2.93  18 2.93  15 2.93
                            16 2.93   2 2.93  14 2.93   8 2.93
  18  0.778  0.778  0.320-  22 2.92  27 2.92  25 2.92  16 2.93  12 2.93  13 2.93  11 2.93  17 2.93
                            15 2.93   7 2.93   3 2.93   9 2.93
  19  0.889  0.222  0.419-  28 2.91  15 2.92  10 2.92  12 2.92  24 2.93  22 2.93  26 2.93  25 2.93
                            20 2.94  21 2.94  32 2.96  31 2.96
  20  0.223  0.223  0.418-  36 2.75  13 2.90  11 2.90  10 2.91  21 2.92  23 2.92  31 2.92  29 2.92
                            27 2.93  22 2.93  19 2.94  26 2.94
  21  0.555  0.223  0.418-  36 2.75  11 2.90  14 2.90  12 2.91  20 2.92  23 2.92  30 2.92  32 2.92
                            27 2.93  24 2.93  25 2.94  19 2.94
  22  0.889  0.556  0.419-  18 2.92  15 2.92  35 2.92  13 2.92  24 2.93  27 2.93  25 2.93  19 2.93
                            23 2.93  20 2.93  33 2.94  31 2.94
  23  0.223  0.555  0.418-  36 2.75  14 2.90  13 2.90  16 2.91  21 2.92  20 2.92  34 2.92  33 2.92
                            22 2.93  24 2.93  26 2.94  25 2.94
  24  0.556  0.556  0.419-  15 2.92  17 2.92  35 2.92  14 2.92  27 2.93  22 2.93  19 2.93  26 2.93
                            23 2.93  21 2.93  32 2.94  34 2.94
  25  0.889  0.889  0.419-  28 2.91  18 2.92  16 2.92  12 2.92  22 2.93  27 2.93  26 2.93  19 2.93
                            23 2.94  21 2.94  33 2.96  30 2.96
  26  0.222  0.889  0.419-  28 2.91  17 2.92  16 2.92  10 2.92  27 2.93  24 2.93  25 2.93  19 2.93
                            23 2.94  20 2.94  34 2.96  29 2.96
  27  0.556  0.889  0.419-  17 2.92  18 2.92  35 2.92  11 2.92  24 2.93  22 2.93  26 2.93  25 2.93
                            20 2.93  21 2.93  29 2.94  30 2.94
  28  0.000  0.000  0.518-  26 2.91  25 2.91  19 2.91  29 2.96  34 2.96  33 2.96  32 2.96  31 2.96
                            30 2.96
  29  0.334  0.006  0.519-  30 2.87  31 2.88  36 2.89  20 2.92  27 2.94  35 2.96  28 2.96  26 2.96
                            34 3.04
  30  0.660  0.006  0.519-  29 2.87  32 2.88  36 2.89  21 2.92  27 2.94  35 2.96  28 2.96  25 2.96
                            33 3.04
  31  0.006  0.334  0.519-  33 2.87  29 2.88  36 2.89  20 2.92  22 2.94  35 2.96  28 2.96  19 2.96
                            32 3.04
  32  0.660  0.334  0.519-  34 2.87  30 2.88  36 2.89  21 2.92  24 2.94  35 2.96  28 2.96  19 2.96
                            31 3.04
  33  0.006  0.660  0.519-  31 2.87  34 2.88  36 2.89  23 2.92  22 2.94  35 2.96  28 2.96  25 2.96
                            30 3.04
  34  0.334  0.660  0.519-  32 2.87  33 2.88  36 2.89  23 2.92  24 2.94  35 2.96  28 2.96  26 2.96
                            29 3.04
  35  0.667  0.667  0.518-  24 2.92  27 2.92  22 2.92  30 2.96  32 2.96  29 2.96  34 2.96  31 2.96
                            33 2.96
  36  0.333  0.333  0.509-  37 1.79  38 1.79  21 2.75  20 2.75  23 2.75  31 2.89  33 2.89  30 2.89
                            29 2.89  34 2.89  32 2.89
  37  0.284  0.334  0.581-  38 0.87  36 1.79
  38  0.382  0.334  0.581-  37 0.87  36 1.79

  LATTYP: Found a hexagonal cell.
 ALAT       =     8.7913665772
 C/A-ratio  =     2.7306349153

  Lattice vectors:

 A1 = (  -4.3956832886,  -7.6135467898,   0.0000000000)
 A2 = (   8.7913665771,   0.0000000000,   0.0000000000)
 A3 = (   0.0000000000,   0.0000000000,  24.0060125285)

Analysis of symmetry for initial positions (statically):
 Subroutine PRICEL returns:
 Original cell was already a primitive cell.

 Routine SETGRP: Setting up the symmetry group for a
 hexagonal supercell.

 Subroutine GETGRP returns: Found  2 space group operations
 (whereof  2 operations were pure point group operations)
 out of a pool of 24 trial point group operations.

The static configuration has the point symmetry C_1h.

Analysis of symmetry for dynamics (positions and initial velocities):
 Subroutine PRICEL returns:
 Original cell was already a primitive cell.

[...]

The dynamic configuration has the point symmetry C_1h.

Analysis of constrained symmetry for selective dynamics:
 Subroutine PRICEL returns:
 Original cell was already a primitive cell.

 Routine SETGRP: Setting up the symmetry group for a
 hexagonal supercell.

 Subroutine GETGRP returns: Found  2 space group operations
[...]
     33      -4.8871      2.00000
     34      -4.8317      2.00000
     35      -4.8261      2.00000
     36      -4.7945      2.00000
     37      -4.7920      2.00000
     38      -4.7581      2.00000
     39      -4.7259      2.00000
     40      -4.7195      2.00000
     41      -4.7180      2.00000
     42      -4.7040      2.00000
     43      -4.6949      2.00000
     44      -4.6032      2.00000
     45      -4.5771      2.00000
     46      -4.5663      2.00000
     47      -4.5630      2.00000
     48      -4.5612      2.00000
     49      -4.5570      2.00000
     50      -4.5416      2.00000
     51      -4.5361      2.00000
     52      -4.5248      2.00000
     53      -4.5138      2.00000
     54      -4.4519      2.00000
     55      -4.4436      2.00000
     56      -4.4343      2.00000
     57      -4.4274      2.00000
     58      -4.4118      2.00000
     59      -4.3971      2.00000
     60      -4.3634      2.00000
[...]
    226       5.1312      0.00000
    227       5.1440      0.00000
    228       5.1929      0.00000
    229       5.3387      0.00000
    230       5.4173      0.00000
    231       5.4562      0.00000
    232       5.4704      0.00000
    233       5.7333      0.00000
    234       5.7640      0.00000
    235       5.8041      0.00000
    236       5.8692      0.00000
    237       5.8863      0.00000
    238       6.3540      0.00000
    239       6.4718      0.00000
    240       6.5761      0.00000

 soft charge-density along one line, spin component           1
         0         1         2         3         4         5         6         7         8         9
 total charge-density along one line

------------------------ aborting loop because EDIFF is reached ----------------------------------------

 total charge

# of ion       s       p       d       tot
    1        0.419   0.201   9.178   9.798
    2        0.415   0.204   9.177   9.796
    3        0.415   0.204   9.177   9.796
    4        0.415   0.203   9.178   9.796
    5        0.422   0.202   9.175   9.798
    6        0.415   0.203   9.178   9.796
    7        0.414   0.204   9.178   9.795
    8        0.414   0.204   9.178   9.795
    9        0.416   0.201   9.179   9.796
   10        0.409   0.269   9.162   9.839
   11        0.409   0.266   9.168   9.843
   12        0.409   0.269   9.162   9.839
   13        0.407   0.267   9.169   9.842
   14        0.407   0.267   9.169   9.842
   15        0.403   0.269   9.163   9.836
   16        0.410   0.269   9.161   9.840
   17        0.404   0.269   9.164   9.837
   18        0.404   0.269   9.164   9.837
   19        0.402   0.266   9.165   9.833
   20        0.436   0.297   9.137   9.870
   21        0.436   0.297   9.137   9.870
   22        0.395   0.275   9.165   9.835
   23        0.440   0.295   9.139   9.874
   24        0.395   0.275   9.165   9.835
   25        0.404   0.265   9.166   9.835
   26        0.404   0.265   9.166   9.835
   27        0.397   0.273   9.167   9.837
   28        0.408   0.198   9.177   9.783
   29        0.436   0.211   9.160   9.807
   30        0.436   0.211   9.160   9.807
   31        0.432   0.213   9.159   9.803
   32        0.432   0.213   9.159   9.803
   33        0.435   0.210   9.161   9.807
   34        0.435   0.210   9.161   9.807
   35        0.408   0.199   9.179   9.785
   36        0.409   0.466   3.366   4.242
   37        0.551   0.029   0.000   0.580
   38        0.551   0.029   0.000   0.580
tot         16.050   8.936 324.166 349.151

  FORCE on cell =-STRESS in cart. coord.  units (eV):
  Direction    XX          YY          ZZ          XY          YZ          ZX
  Alpha Z   676.56856   676.56856   676.56856
  Ewald  145698.61923145680.84935************    -0.00001    -0.02343    -0.00001
  Hartree155513.42994155510.40111************    -0.00000     0.06429    -0.00000
  E(xc)   -2055.70733 -2055.75839 -2062.64015    -0.00002     0.09011     0.00000
  Local  ************************312461.50545     0.00032     0.30371    -0.00004
  n-local  -322.59336  -321.36796  -325.01982     2.31896     0.00747     0.09322
  augment  3238.89925  3238.13180  3253.10213    -0.00014    -0.19703     0.00005
  Kinetic  4811.43317  4815.28782  4848.31286     1.08137    -0.33880     0.04048
  Fock        0.00000     0.00000     0.00000     0.00000     0.00000     0.00000
  Total      -9.42801    -9.29316     0.09425    -0.00000    -0.09368    -0.00000
  in kB      -9.40085    -9.26639     0.09397    -0.00000    -0.09341    -0.00000

 VOLUME and BASIS-vectors are now :
  energy-cutoff  :      500.00
  volume of cell :     1606.81
      direct lattice vectors                 reciprocal lattice vectors
     8.791366577  0.000000000  0.000000000     0.113747958 -0.065672414  0.000000000
     4.395683289  7.613546790  0.000000000     0.000000000  0.131344829  0.000000000
     0.000000000  0.000000000 24.006012529     0.000000000  0.000000000  0.041656231

  length of vectors
     8.791366577  8.791366577 24.006012529     0.131344829  0.131344829  0.041656231

 FORCES acting on ions
    electron-ion (+dipol)            ewald-force                    non-local-force                 convergence-correction
   0.460E-04 0.422E-01 0.262E+04   -.953E-04 -.172E-02 -.262E+04   -.106E-12 -.162E-01 -.193E+01   -.141E-03 -.268E-01 0.127E+00
   -.145E+00 -.437E-01 0.262E+04   0.111E-01 0.705E-01 -.262E+04   0.135E+00 0.123E+00 -.155E+01   -.627E-04 -.142E+00 0.228E+00
   0.145E+00 -.437E-01 0.262E+04   -.109E-01 0.706E-01 -.262E+04   -.135E+00 0.123E+00 -.155E+01   -.449E-03 -.140E+00 0.229E+00
   -.103E+00 -.866E-01 0.262E+04   0.680E-01 -.269E-01 -.262E+04   0.145E+00 0.112E-02 -.160E+01   -.101E+00 0.104E+00 0.250E+00
   -.761E-05 -.161E+00 0.262E+04   0.981E-04 -.317E-03 -.262E+04   0.291E-12 0.443E-01 -.109E+01   0.622E-02 0.111E+00 0.440E+00
   0.103E+00 -.865E-01 0.262E+04   -.682E-01 -.269E-01 -.262E+04   -.145E+00 0.112E-02 -.160E+01   0.993E-01 0.105E+00 0.251E+00
   -.716E-01 0.189E+00 0.262E+04   0.570E-01 -.436E-01 -.262E+04   0.984E-01 -.153E+00 -.159E+01   -.825E-01 0.948E-02 0.148E+00
   0.716E-01 0.189E+00 0.262E+04   -.571E-01 -.437E-01 -.262E+04   -.984E-01 -.153E+00 -.159E+01   0.841E-01 0.848E-02 0.148E+00
   0.365E-04 0.357E-01 0.262E+04   0.791E-04 0.202E-02 -.262E+04   0.131E-13 0.199E-02 -.176E+01   -.661E-02 -.380E-01 0.158E+00
   0.232E+00 0.885E-01 0.851E+03   0.426E-01 0.880E-02 -.850E+03   -.293E+00 -.169E+00 -.762E+00   0.716E-02 0.664E-01 0.114E+00
   -.286E-04 -.335E+00 0.849E+03   0.408E-04 0.279E+00 -.849E+03   0.554E-12 0.843E-01 -.229E+00   0.653E-02 -.629E-01 0.768E-01
   -.232E+00 0.885E-01 0.851E+03   -.427E-01 0.888E-02 -.850E+03   0.293E+00 -.169E+00 -.762E+00   -.877E-02 0.671E-01 0.114E+00
   -.298E+00 0.242E+00 0.849E+03   0.256E+00 -.138E+00 -.849E+03   0.139E+00 -.762E-01 -.263E+00   -.114E+00 -.244E-02 0.329E-01
   0.298E+00 0.242E+00 0.849E+03   -.256E+00 -.138E+00 -.849E+03   -.139E+00 -.762E-01 -.263E+00   0.125E+00 -.365E-02 0.314E-01
   0.159E-04 0.663E+00 0.852E+03   -.108E-03 -.751E+00 -.851E+03   0.312E-12 0.475E-01 -.774E+00   -.147E-02 0.158E-01 0.756E-01
   -.786E-05 -.385E+00 0.851E+03   0.206E-04 -.429E-01 -.850E+03   0.267E-11 0.407E+00 -.659E+00   -.197E-03 0.360E-01 0.556E-01
   0.479E+00 -.302E+00 0.852E+03   -.658E+00 0.387E+00 -.851E+03   0.812E-01 -.282E-01 -.717E+00   0.747E-01 -.531E-01 0.674E-01
   -.479E+00 -.302E+00 0.852E+03   0.658E+00 0.388E+00 -.851E+03   -.812E-01 -.282E-01 -.717E+00   -.743E-01 -.512E-01 0.689E-01
   0.385E-04 -.413E+01 -.934E+03   -.125E-03 0.411E+01 0.933E+03   0.340E-12 0.518E-01 0.773E+00   -.498E-02 -.229E-01 0.161E-01
   -.203E+02 -.118E+02 -.952E+03   0.220E+02 0.126E+02 0.953E+03   -.125E+01 -.614E+00 -.104E+01   -.405E+00 -.166E+00 -.240E+00
   0.203E+02 -.118E+02 -.952E+03   -.220E+02 0.126E+02 0.953E+03   0.125E+01 -.614E+00 -.104E+01   0.395E+00 -.167E+00 -.241E+00
   -.108E+02 0.626E+01 -.931E+03   0.108E+02 -.611E+01 0.931E+03   0.218E+00 -.147E+00 0.363E+00   -.167E+00 -.175E-02 -.124E+00
   -.527E-04 0.234E+02 -.951E+03   0.371E-04 -.252E+02 0.953E+03   0.970E-11 0.148E+01 -.105E+01   -.544E-02 0.363E+00 -.426E+00
   0.108E+02 0.626E+01 -.931E+03   -.108E+02 -.612E+01 0.931E+03   -.218E+00 -.147E+00 0.363E+00   0.169E+00 -.263E-02 -.124E+00
   0.370E+01 0.204E+01 -.934E+03   -.362E+01 -.212E+01 0.933E+03   -.853E-01 -.230E-01 0.779E+00   -.125E-01 0.997E-01 -.268E-01
   -.370E+01 0.204E+01 -.934E+03   0.362E+01 -.212E+01 0.933E+03   0.853E-01 -.230E-01 0.779E+00   0.182E-02 0.100E+00 -.264E-01
   0.191E-04 -.125E+02 -.932E+03   0.110E-03 0.124E+02 0.931E+03   0.173E-11 0.264E+00 0.364E+00   0.110E-02 -.144E+00 -.182E+00
   0.536E-04 0.171E+00 -.264E+04   -.113E-03 -.333E+00 0.263E+04   0.272E-12 0.413E-01 0.196E+01   -.476E-05 0.103E+00 -.142E+00
   -.140E+02 -.284E+02 -.264E+04   0.152E+02 0.299E+02 0.264E+04   -.995E+00 -.141E+01 0.126E+01   -.224E+00 -.680E-01 -.129E+00
   0.140E+02 -.284E+02 -.264E+04   -.152E+02 0.299E+02 0.264E+04   0.995E+00 -.141E+01 0.126E+01   0.224E+00 -.673E-01 -.130E+00
   -.306E+02 0.249E+01 -.264E+04   0.324E+02 -.243E+01 0.264E+04   -.174E+01 -.412E-01 0.138E+01   -.396E-01 -.732E-02 -.490E-01
   0.306E+02 0.249E+01 -.264E+04   -.324E+02 -.243E+01 0.264E+04   0.174E+01 -.412E-01 0.138E+01   0.397E-01 -.678E-02 -.490E-01
   -.183E+02 0.259E+02 -.264E+04   0.192E+02 -.274E+02 0.264E+04   -.831E+00 0.146E+01 0.133E+01   -.153E+00 0.659E-01 -.666E-03
   0.183E+02 0.259E+02 -.264E+04   -.192E+02 -.274E+02 0.264E+04   0.831E+00 0.146E+01 0.133E+01   0.154E+00 0.657E-01 0.121E-03
   0.261E-04 -.246E+00 -.264E+04   0.104E-03 0.379E+00 0.264E+04   0.482E-13 0.734E-02 0.207E+01   -.612E-02 -.117E+00 -.122E+00
   -.284E-04 0.887E-01 -.112E+04   0.479E-04 -.133E+00 0.112E+04   -.328E-12 -.500E-01 0.359E-02   0.668E-03 -.567E-02 0.667E-01
   0.135E+02 0.116E-01 -.282E+03   -.168E+02 -.268E-01 0.283E+03   0.330E+01 0.232E-03 -.108E+01   -.306E-01 0.154E-01 0.273E-01
   -.135E+02 0.116E-01 -.282E+03   0.168E+02 -.268E-01 0.283E+03   -.330E+01 0.232E-03 -.108E+01   0.307E-01 0.154E-01 0.272E-01
   0.300E-03 -.252E+00 0.848E+01   0.675E-13 0.398E-14 0.193E-11   0.128E-11 0.194E+00 -.928E+01   -.189E-01 0.546E-01 0.742E+00

 POSITION                                       TOTAL-FORCE (eV/Angst)
      0.00000      0.00000      5.28219        -0.000000     -0.002417     -0.031178
      2.93046      0.00000      5.28219         0.000707      0.008571      0.025848
      5.86091      0.00000      5.28219        -0.000707      0.008571      0.025848
      1.46523      2.53785      5.28219         0.010020     -0.007645      0.017735
      4.39568      2.53785      5.28219        -0.000000     -0.006698     -0.017377
      7.32614      2.53785      5.28219        -0.010020     -0.007645      0.017735
      2.93046      5.07570      5.28219         0.000554      0.000746      0.033244
      5.86091      5.07570      5.28219        -0.000554      0.000746      0.033244
      8.79137      5.07570      5.28219         0.000000      0.001848      0.011597
      1.46523      0.84595      7.67490        -0.010555     -0.004601     -0.037346
      4.39568      0.84595      7.67490        -0.000000     -0.035018     -0.062941
      7.32614      0.84595      7.67490         0.010555     -0.004601     -0.037346
      2.93046      3.38380      7.67490        -0.022738      0.024463     -0.062774
      5.86091      3.38380      7.67490         0.022738      0.024463     -0.062774
      8.79137      3.38380      7.67490        -0.000000     -0.025368     -0.010779
      4.39568      5.92165      7.67490         0.000000      0.015046     -0.035183
      7.32614      5.92165      7.67490        -0.022641      0.005390     -0.006520
     10.25659      5.92165      7.67490         0.022641      0.005390     -0.006520
      8.79137      1.69254     10.05636         0.000000      0.006350      0.038448
      2.93602      1.69511     10.03837        -0.009692      0.003374     -0.042886
      5.85534      1.69511     10.03837         0.009692      0.003374     -0.042886
     10.25423      4.23112     10.05516        -0.000978     -0.004851      0.020264
      4.39568      4.22332     10.03837         0.000000      0.045299     -0.027862
      7.32851      4.23112     10.05516         0.000978     -0.004851      0.020264
     11.72126      6.76728     10.05636        -0.006991      0.001086      0.011879
      5.86147      6.76728     10.05636         0.006991      0.001086      0.011879
      8.79137      6.76486     10.05516         0.000000      0.018912      0.018955
      0.00000      0.00000     12.42937        -0.000000     -0.017682      0.011523
      2.95945      0.04653     12.45339        -0.010565     -0.020659      0.005789
      5.83191      0.04653     12.45339         0.010565     -0.020659      0.005789
      1.52003      2.53970     12.45339         0.038502      0.006295      0.059783
      7.27134      2.53970     12.45339        -0.038502      0.006295      0.059783
      2.95626      5.02732     12.45339        -0.025849      0.025303     -0.019266
      5.83511      5.02732     12.45339         0.025849      0.025303     -0.019266
      8.79137      5.07570     12.43676         0.000000      0.023327      0.008133
      4.39568      2.53785     12.21669        -0.000000     -0.099531      0.139123
      3.96080      2.54333     13.94930         0.013906      0.000492     -0.026980
      4.83056      2.54333     13.94930        -0.013906      0.000492     -0.026980
    total drift:                               -0.018572     -0.002637     -0.059411

  FREE ENERGIE OF THE ION-ELECTRON SYSTEM (eV)
  free  energy   TOTEN  =      -102.67829471 eV

  energy  without entropy=     -102.67829471  energy(sigma->0) =     -102.67829471

 stress matrix after NEB project (eV)
     -9.42801     -0.00000     -0.00000
     -0.00000     -9.29316     -0.09368
     -0.00000     -0.09368      0.09425
  FORCES: max atom, RMS     0.030357    0.006964
  FORCE total and by dimension    0.042931    0.026980
  Stress total and by dimension   13.239210    9.428008
|           W    W    AA    RRRRR   N    N  II  N    N   GGGG   !!!           |
|           W    W   A  A   R    R  NN   N  II  NN   N  G    G  !!!           |
|           W    W  A    A  R    R  N N  N  II  N N  N  G       !!!           |
|           W WW W  AAAAAA  RRRRR   N  N N  II  N  N N  G  GGG   !            |
|           WW  WW  A    A  R   R   N   NN  II  N   NN  G    G                |
|           W    W  A    A  R    R  N    N  II  N    N   GGGG   !!!           |
|     Tetrahedron method does not include variations of the Fermi             |
|     occupations, so forces and stress will be inaccurate. We suggest        |
|     using a different smearing scheme ISMEAR = 1 or 2 for metals in         |
|     relaxations.                                                            |

 total charge

# of ion       s       p       d       tot
    1        0.419   0.201   9.178   9.798
    2        0.415   0.204   9.177   9.796
    3        0.415   0.204   9.177   9.796
    4        0.415   0.203   9.178   9.796
    5        0.422   0.202   9.175   9.798
    6        0.415   0.203   9.178   9.796
    7        0.414   0.204   9.178   9.795
    8        0.414   0.204   9.178   9.795
    9        0.416   0.201   9.179   9.796
   10        0.409   0.269   9.162   9.839
   11        0.409   0.266   9.168   9.843
   12        0.409   0.269   9.162   9.839
   13        0.407   0.267   9.169   9.842
   14        0.407   0.267   9.169   9.842
   15        0.403   0.269   9.163   9.836
   16        0.410   0.269   9.161   9.840
   17        0.404   0.269   9.164   9.837
   18        0.404   0.269   9.164   9.837
   19        0.402   0.266   9.165   9.833
   20        0.436   0.297   9.137   9.870
   21        0.436   0.297   9.137   9.870
   22        0.395   0.275   9.165   9.835
   23        0.440   0.295   9.139   9.874
   24        0.395   0.275   9.165   9.835
   25        0.404   0.265   9.166   9.835
   26        0.404   0.265   9.166   9.835
   27        0.397   0.273   9.167   9.837
   28        0.408   0.198   9.177   9.783
   29        0.436   0.211   9.160   9.807
   30        0.436   0.211   9.160   9.807
   31        0.432   0.213   9.159   9.803
   32        0.432   0.213   9.159   9.803
   33        0.435   0.210   9.161   9.807
   34        0.435   0.210   9.161   9.807
   35        0.408   0.199   9.179   9.785
   36        0.409   0.466   3.366   4.242
   37        0.551   0.029   0.000   0.580
   38        0.551   0.029   0.000   0.580
tot         16.050   8.936 324.166 349.151

 BZINTS: Fermi energy:    0.439062;  392.000000 electrons
         Band energy:-0.143179E+04;  BLOECHL correction:   -0.019945