 vasp.6.2.0 18Jan21 (build Jun 12 2021 23:27:24) complex

 executed on             LinuxIFC date 2022.05.26  20:00:56

 INCAR:
   ISMEAR = -5
   SIGMA = 0.1
   ISPIN = 1
   EDIFF = 1.d-5
   EDIFFG = -0.01
   NSW = 0
   NELM = 150
   ENCUT = 500
   ISIF = 2
   IBRION = 2
   LREAL = Auto
   ALGO = Fast
   ICHARG = 11
   LORBIT = 10
   LCHARG = .F.
   LWAVE = .F.

 POTCAR:    PAW_PBE Cu 22Jun2005
 POTCAR:    PAW_PBE Mo 08Apr2002
 POTCAR:    PAW_PBE H 15Jun2001
|           W    W    AA    RRRRR   N    N  II  N    N   GGGG   !!!           |
|           W    W   A  A   R    R  NN   N  II  NN   N  G    G  !!!           |
|           W    W  A    A  R    R  N N  N  II  N N  N  G       !!!           |
|           W WW W  AAAAAA  RRRRR   N  N N  II  N  N N  G  GGG   !            |
|           WW  WW  A    A  R   R   N   NN  II  N   NN  G    G                |
|           W    W  A    A  R    R  N    N  II  N    N   GGGG   !!!           |
|     For optimal performance we recommend to set                             |
|       NCORE = 2 up to number-of-cores-per-socket                            |
|     This setting can greatly improve the performance of VASP for DFT.       |
|     The default, NCORE=1 might be grossly inefficient on modern             |
|     multi-core architectures or massively parallel machines. Do your        |
|     Unfortunately you need to use the default for GW and RPA                |
|     calculations (for HF NCORE is supported but not extensively tested      |
|     yet).                                                                   |

 POTCAR:    PAW_PBE Cu 22Jun2005
   VRHFIN =Cu: d10 p1

   TITEL  = PAW_PBE Cu 22Jun2005
   POMASS =   63.546; ZVAL   =   11.000    mass and valenz
   ENMAX  =  295.446; ENMIN  =  221.585 eV

 POTCAR:    PAW_PBE Mo 08Apr2002
   VRHFIN =Mo: 4p5s4d

   TITEL  = PAW_PBE Mo 08Apr2002
   POMASS =   95.940; ZVAL   =    6.000    mass and valenz
   ENMAX  =  224.584; ENMIN  =  168.438 eV

 POTCAR:    PAW_PBE H 15Jun2001
   VRHFIN =H: ultrasoft test

   TITEL  = PAW_PBE H 15Jun2001
   POMASS =    1.000; ZVAL   =    1.000    mass and valenz
   ENMAX  =  250.000; ENMIN  =  200.000 eV

 Optimization of the real space projectors (new method)

 maximal supplied QI-value         = 16.25
 optimisation between [QCUT,QGAM] = [ 11.38, 22.75] = [ 36.24,144.96] Ry
 Optimized for a Real-space Cutoff    1.52 Angstroem

   l    n(q)    QCUT    max X(q) W(low)/X(q) W(high)/X(q)  e(spline)
   2      9    11.376     4.610    0.21E-03    0.10E-03    0.26E-06
   2      9    11.376     8.522    0.33E-03    0.16E-03    0.37E-06
   0     10    11.376    51.609    0.62E-04    0.20E-04    0.13E-06
   0     10    11.376    27.747    0.54E-04    0.20E-04    0.13E-06
   1     10    11.376    20.408    0.13E-04    0.99E-04    0.19E-06
   1     10    11.376    13.425    0.12E-04    0.87E-04    0.17E-06
 Optimization of the real space projectors (new method)

[...]

   l    n(q)    QCUT    max X(q) W(low)/X(q) W(high)/X(q)  e(spline)
   2     10    11.429    80.908    0.27E-03    0.78E-03    0.13E-05
   2     10    11.429    79.000    0.27E-03    0.78E-03    0.13E-05
   0     11    11.429    52.066    0.33E-04    0.97E-04    0.72E-06
   0     11    11.429    24.514    0.27E-04    0.80E-04    0.60E-06
   1     10    11.429    16.033    0.31E-04    0.17E-03    0.36E-06
   1     10    11.429    11.179    0.22E-04    0.13E-03    0.29E-06
 Optimization of the real space projectors (new method)

 maximal supplied QI-value         = 34.20
 optimisation between [QCUT,QGAM] = [ 11.29, 22.57] = [ 35.68,142.71] Ry
 Optimized for a Real-space Cutoff    1.16 Angstroem

   l    n(q)    QCUT    max X(q) W(low)/X(q) W(high)/X(q)  e(spline)
   0      8    11.287    19.460    0.40E-03    0.73E-03    0.16E-06
   0      8    11.287    12.209    0.38E-03    0.70E-03    0.15E-06
   1      7    11.287     4.655    0.22E-03    0.25E-04    0.22E-06
  PAW_PBE Cu 22Jun2005                  :
  PAW_PBE Mo 08Apr2002                  :
  PAW_PBE H 15Jun2001                   :

 POSCAR: Cu-Mo-H
  positions in direct lattice
  velocities in cartesian coordinates
 exchange correlation table for  LEXCH =        8
   RHO(1)=    0.500       N(1)  =     2000
   RHO(2)=  100.500       N(2)  =     4000

 VTST: version 3.2, (02/03/18)

 CHAIN: initializing optimizer

 OPT: Using VASP Conjugate-Gradient optimizer
 CHAIN: Read ICHAIN            0

 POSCAR: Cu-Mo-H
  positions in direct lattice
  velocities in cartesian coordinates

 ion  position               nearest neighbor table
   1  0.000  0.000  0.252-   7 2.57   3 2.57   4 2.57   2 2.57   6 2.57   8 2.57  12 2.57  10 2.57
                            16 2.57
   2  0.333  0.000  0.252-   8 2.57   9 2.57   5 2.57   1 2.57   3 2.57  11 2.57   4 2.57  10 2.57
                            17 2.57
   3  0.667  0.000  0.252-   1 2.57   7 2.57   6 2.57   9 2.57   2 2.57  12 2.57   5 2.57  18 2.57
                            11 2.57
   4  0.000  0.333  0.252-   5 2.57   6 2.57   1 2.57   7 2.57   2 2.57  13 2.57   9 2.57  10 2.57
                            15 2.57
   5  0.333  0.333  0.252-   4 2.57   2 2.57   7 2.57  13 2.57   8 2.57   6 2.57   3 2.57  11 2.57
                            14 2.57
   6  0.667  0.333  0.252-   4 2.57   9 2.57  15 2.57   3 2.57   1 2.57   8 2.57  14 2.57   5 2.57
                            12 2.57
   7  0.000  0.667  0.252-   1 2.57   3 2.57  16 2.57  18 2.57   4 2.57   5 2.57   8 2.57   9 2.57
                            13 2.57
   8  0.333  0.667  0.252-   9 2.57   2 2.57  17 2.57   6 2.57   1 2.57   7 2.57   5 2.57  14 2.57
                            16 2.57
   9  0.667  0.667  0.252-   8 2.57   6 2.57   2 2.57  17 2.57   3 2.57   7 2.57   4 2.57  15 2.57
                            18 2.57
  10  0.111  0.111  0.351-  20 2.55  26 2.56  19 2.56  11 2.57  12 2.57  13 2.57   1 2.57   2 2.57
                             4 2.57  15 2.57  16 2.57  17 2.57
  11  0.444  0.111  0.351-  20 2.56  21 2.56  10 2.57  13 2.57   2 2.57  17 2.57  14 2.57  12 2.57
                             5 2.57   3 2.57  18 2.57  27 2.57
  12  0.778  0.111  0.351-  21 2.55  19 2.56  25 2.56  15 2.57  10 2.57  14 2.57  18 2.57   3 2.57
                             1 2.57  16 2.57  11 2.57   6 2.57
  13  0.111  0.444  0.351-  23 2.56  20 2.56  16 2.57  18 2.57  10 2.57  11 2.57  14 2.57   5 2.57
                             4 2.57   7 2.57  15 2.57  22 2.57
  14  0.444  0.444  0.351-  21 2.56  23 2.56  15 2.57  17 2.57  12 2.57  16 2.57  13 2.57  11 2.57
                             6 2.57   8 2.57   5 2.57  24 2.57
  15  0.778  0.444  0.351-  19 2.56  14 2.57  17 2.57  12 2.57   6 2.57  18 2.57  10 2.57   9 2.57
                            13 2.57   4 2.57  24 2.57  22 2.57
  16  0.111  0.778  0.351-  23 2.55  25 2.56  26 2.56  18 2.57  13 2.57   7 2.57  14 2.57  17 2.57
                            12 2.57  10 2.57   8 2.57   1 2.57
  17  0.444  0.778  0.351-  26 2.56  14 2.57  15 2.57   8 2.57   9 2.57  11 2.57  16 2.57  18 2.57
                            10 2.57   2 2.57  27 2.57  24 2.57
  18  0.778  0.778  0.351-  25 2.56  16 2.57  13 2.57   7 2.57  15 2.57  12 2.57  17 2.57   9 2.57
                             3 2.57  11 2.57  22 2.57  27 2.57
  19  0.889  0.222  0.449-  15 2.56  12 2.56  10 2.56  21 2.56  20 2.56  22 2.57  24 2.57  25 2.57
                            26 2.57  28 2.57  32 2.58  31 2.58
  20  0.222  0.222  0.449-  10 2.55  11 2.56  13 2.56  26 2.56  19 2.56  27 2.57  22 2.57  23 2.57
                            21 2.57  36 2.58  29 2.60  31 2.60
  21  0.556  0.222  0.449-  12 2.55  14 2.56  11 2.56  19 2.56  25 2.56  24 2.57  27 2.57  20 2.57
                            23 2.57  36 2.58  32 2.60  30 2.60
  22  0.888  0.556  0.450-  24 2.56  27 2.56  35 2.56  19 2.57  25 2.57  23 2.57  20 2.57  18 2.57
                            15 2.57  13 2.57  31 2.58  33 2.58
  23  0.222  0.556  0.449-  16 2.55  13 2.56  14 2.56  25 2.56  26 2.56  22 2.57  24 2.57  20 2.57
                            21 2.57  36 2.58  33 2.60  34 2.60
  24  0.556  0.556  0.450-  22 2.56  27 2.56  35 2.56  19 2.57  26 2.57  21 2.57  23 2.57  15 2.57
                            17 2.57  14 2.57  32 2.58  34 2.58
  25  0.889  0.889  0.449-  18 2.56  12 2.56  16 2.56  21 2.56  23 2.56  22 2.57  27 2.57  19 2.57
                            26 2.57  28 2.57  33 2.58  30 2.58
  26  0.222  0.889  0.449-  17 2.56  10 2.56  16 2.56  20 2.56  23 2.56  27 2.57  24 2.57  25 2.57
                            19 2.57  28 2.57  29 2.58  34 2.58
  27  0.556  0.888  0.450-  24 2.56  22 2.56  35 2.56  26 2.57  25 2.57  20 2.57  21 2.57  17 2.57
                            18 2.57  11 2.57  29 2.58  30 2.58
  28  0.000  0.000  0.547-  33 2.56  30 2.56  31 2.56  29 2.56  32 2.56  34 2.56  25 2.57  19 2.57
                            26 2.57
  29  0.333  0.998  0.548-  34 2.54  28 2.56  35 2.56  27 2.58  31 2.58  26 2.58  36 2.58  30 2.58
                            20 2.60
  30  0.669  0.998  0.548-  33 2.54  28 2.56  35 2.56  27 2.58  32 2.58  25 2.58  36 2.58  29 2.58
                            21 2.60
  31  0.998  0.333  0.548-  32 2.54  28 2.56  35 2.56  22 2.58  29 2.58  19 2.58  36 2.58  33 2.58
                            20 2.60
  32  0.669  0.333  0.548-  31 2.54  28 2.56  35 2.56  24 2.58  30 2.58  19 2.58  36 2.58  34 2.58
                            21 2.60
  33  0.998  0.669  0.548-  30 2.54  28 2.56  35 2.56  22 2.58  34 2.58  25 2.58  36 2.58  31 2.58
                            23 2.60
  34  0.333  0.669  0.548-  29 2.54  28 2.56  35 2.56  24 2.58  33 2.58  26 2.58  36 2.58  32 2.58
                            23 2.60
  35  0.667  0.667  0.548-  34 2.56  32 2.56  29 2.56  30 2.56  33 2.56  31 2.56  24 2.56  27 2.56
                            22 2.56
  36  0.333  0.333  0.547-  37 1.73  23 2.58  20 2.58  21 2.58  31 2.58  29 2.58  33 2.58  34 2.58
                            32 2.58  30 2.58
  37  0.333  0.333  0.629-  36 1.73

  LATTYP: Found a hexagonal cell.
 ALAT       =     7.6967864036
 C/A-ratio  =     2.7653617908

  Lattice vectors:

 A1 = (  -3.8483927580,  -6.6656128093,   0.0000000000)
 A2 = (   7.6967864037,   0.0000000000,   0.0000000000)
 A3 = (   0.0000000000,   0.0000000000,  21.2843990326)

Analysis of symmetry for initial positions (statically):
 Subroutine PRICEL returns:
 Original cell was already a primitive cell.

 Routine SETGRP: Setting up the symmetry group for a
 hexagonal supercell.

 Subroutine GETGRP returns: Found  6 space group operations
 (whereof  6 operations were pure point group operations)
 out of a pool of 24 trial point group operations.

The static configuration has the point symmetry C_3v.

Analysis of symmetry for dynamics (positions and initial velocities):
 Subroutine PRICEL returns:
 Original cell was already a primitive cell.

[...]

The dynamic configuration has the point symmetry C_3v.

Analysis of constrained symmetry for selective dynamics:
 Subroutine PRICEL returns:
 Original cell was already a primitive cell.

 Routine SETGRP: Setting up the symmetry group for a
 hexagonal supercell.

 Subroutine GETGRP returns: Found  6 space group operations
 (whereof  6 operations were pure point group operations)
[...]
     24      -4.2886      2.00000
     25      -4.2584      2.00000
     26      -4.2365      2.00000
     27      -4.2124      2.00000
     28      -4.1750      2.00000
     29      -4.1738      2.00000
     30      -4.1642      2.00000
     31      -4.1564      2.00000
     32      -4.1462      2.00000
     33      -4.1198      2.00000
     34      -4.0779      2.00000
     35      -4.0257      2.00000
     36      -3.9900      2.00000
     37      -3.8832      2.00000
     38      -3.8506      2.00000
     39      -3.7972      2.00000
     40      -3.7817      2.00000
     41      -3.7698      2.00000
     42      -3.7481      2.00000
     43      -3.7364      2.00000
     44      -3.7284      2.00000
     45      -3.7224      2.00000
     46      -3.5749      2.00000
     47      -3.5227      2.00000
     48      -3.5157      2.00000
     49      -3.5033      2.00000
     50      -3.4650      2.00000
     51      -3.4498      2.00000
     52      -3.4455      2.00000
     53      -3.4328      2.00000
     54      -3.4219      2.00000
     55      -3.4141      2.00000
     56      -3.3751      2.00000
     57      -3.3722      2.00000
     58      -3.3691      2.00000
     59      -3.3581      2.00000
     60      -3.3471      2.00000
[...]
    238       6.9338      0.00000
    239       6.9512      0.00000
    240       7.0267      0.00000
    241       7.0941      0.00000
    242       7.1839      0.00000
    243       7.2661      0.00000
    244       7.3452      0.00000
    245       7.4023      0.00000
    246       7.4578      0.00000
    247       7.6282      0.00000
    248       7.7299      0.00000
    249       7.9025      0.00000
    250       8.0521      0.00000
    251       8.1464      0.00000
    252       8.4368      0.00000

 soft charge-density along one line, spin component           1
         0         1         2         3         4         5         6         7         8         9
 total charge-density along one line

------------------------ aborting loop because EDIFF is reached ----------------------------------------

 total charge

# of ion       s       p       d       tot
    1        0.450   0.280   9.191   9.921
    2        0.446   0.286   9.187   9.918
    3        0.446   0.286   9.187   9.918
    4        0.446   0.286   9.187   9.918
    5        0.451   0.284   9.182   9.918
    6        0.446   0.286   9.187   9.918
    7        0.446   0.286   9.187   9.918
    8        0.446   0.286   9.187   9.918
    9        0.448   0.283   9.188   9.920
   10        0.444   0.371   9.175   9.991
   11        0.442   0.366   9.183   9.991
   12        0.444   0.371   9.175   9.991
   13        0.442   0.366   9.183   9.991
   14        0.442   0.366   9.183   9.991
   15        0.439   0.369   9.177   9.985
   16        0.444   0.371   9.175   9.991
   17        0.439   0.369   9.177   9.985
   18        0.439   0.369   9.177   9.985
   19        0.441   0.367   9.181   9.989
   20        0.470   0.391   9.163  10.024
   21        0.470   0.391   9.163  10.024
   22        0.429   0.372   9.181   9.982
   23        0.470   0.391   9.163  10.024
   24        0.429   0.372   9.181   9.982
   25        0.441   0.367   9.181   9.989
   26        0.441   0.367   9.181   9.989
   27        0.429   0.372   9.181   9.982
   28        0.446   0.291   9.180   9.918
   29        0.472   0.309   9.162   9.943
   30        0.472   0.309   9.162   9.943
   31        0.472   0.309   9.162   9.943
   32        0.472   0.309   9.162   9.943
   33        0.472   0.309   9.162   9.943
   34        0.472   0.309   9.162   9.943
   35        0.439   0.293   9.184   9.916
   36        0.506   0.443   4.279   5.228
   37        0.514   0.010   0.000   0.524
tot         16.757  12.163 325.480 354.400

  FORCE on cell =-STRESS in cart. coord.  units (eV):
  Direction    XX          YY          ZZ          XY          YZ          ZX
  Alpha Z   877.28238   877.28238   877.28238
  Ewald  170808.98017170808.97982************     0.00035     0.00012     0.00015
  Hartree183578.69071183578.69072************     0.00002     0.00006     0.00006
  E(xc)   -2276.68962 -2276.68913 -2281.85370    -0.00043    -0.00003    -0.00006
  Local  ************************367465.39125     0.01852    -0.00057    -0.00088
  n-local  -780.77662  -766.15490  -785.56137     7.48580    -0.06231     0.30759
  augment  3316.14650  3316.16676  3339.67585    -0.01755     0.00025     0.00043
  Kinetic  3207.10337  3210.96504  3242.78337     3.06871     1.28233    -1.04671
  Fock        0.00000     0.00000     0.00000     0.00000     0.00000     0.00000
  Total      -6.12556    -6.12556     0.23493     0.00000    -0.00000    -0.00000
  in kB      -8.98764    -8.98764     0.34469     0.00000    -0.00000    -0.00000

 VOLUME and BASIS-vectors are now :
  energy-cutoff  :      500.00
  volume of cell :     1091.97
      direct lattice vectors                 reciprocal lattice vectors
     7.696786404  0.000000000  0.000000000     0.129924354 -0.075011849  0.000000000
     3.848392758  6.665612809  0.000000000     0.000000000  0.150023716  0.000000000
     0.000000000  0.000000000 21.284399033     0.000000000  0.000000000  0.046982769

  length of vectors
     7.696786404  7.696786404 21.284399033     0.150023716  0.150023716  0.046982769

 FORCES acting on ions
    electron-ion (+dipol)            ewald-force                    non-local-force                 convergence-correction
   -.415E-04 0.208E-06 0.345E+04   0.581E-04 -.428E-05 -.344E+04   -.243E-17 0.238E-17 -.252E+01   -.354E-03 -.171E-03 -.428E-01
   -.766E+00 -.658E+00 0.344E+04   0.706E+00 0.467E+00 -.344E+04   0.125E+00 0.274E+00 -.192E+01   -.557E-01 -.744E-01 0.120E-01
   0.766E+00 -.658E+00 0.344E+04   -.706E+00 0.467E+00 -.344E+04   -.125E+00 0.274E+00 -.192E+01   0.565E-01 -.719E-01 0.130E-01
   -.953E+00 -.334E+00 0.344E+04   0.757E+00 0.378E+00 -.344E+04   0.300E+00 -.284E-01 -.192E+01   -.922E-01 -.110E-01 0.120E-01
   -.613E-04 -.329E-05 0.344E+04   0.116E-03 -.101E-04 -.344E+04   0.411E-17 -.110E-17 -.113E+01   0.121E-01 0.742E-02 0.253E+00
   0.953E+00 -.334E+00 0.344E+04   -.757E+00 0.378E+00 -.344E+04   -.300E+00 -.284E-01 -.192E+01   0.906E-01 -.988E-02 0.132E-01
   -.187E+00 0.992E+00 0.344E+04   0.511E-01 -.845E+00 -.344E+04   0.174E+00 -.245E+00 -.192E+01   -.340E-01 0.849E-01 0.131E-01
   0.187E+00 0.992E+00 0.344E+04   -.514E-01 -.845E+00 -.344E+04   -.174E+00 -.245E+00 -.192E+01   0.374E-01 0.834E-01 0.132E-01
   -.144E-03 -.329E-04 0.344E+04   0.263E-03 0.204E-04 -.344E+04   -.202E-17 0.324E-17 -.219E+01   -.131E-01 -.678E-02 -.388E-01
   -.414E+01 -.239E+01 0.112E+04   0.470E+01 0.271E+01 -.112E+04   -.464E+00 -.268E+00 -.952E+00   -.120E+00 -.695E-01 -.185E-01
   -.912E-04 -.472E+01 0.111E+04   0.190E-03 0.450E+01 -.111E+04   -.178E-07 0.267E+00 -.250E-01   0.120E-01 -.744E-01 0.731E-02
   0.414E+01 -.239E+01 0.112E+04   -.470E+01 0.271E+01 -.112E+04   0.464E+00 -.268E+00 -.952E+00   0.119E+00 -.684E-01 -.184E-01
   -.409E+01 0.236E+01 0.111E+04   0.390E+01 -.225E+01 -.111E+04   0.231E+00 -.133E+00 -.250E-01   -.580E-01 0.484E-01 0.734E-02
   0.409E+01 0.236E+01 0.111E+04   -.390E+01 -.225E+01 -.111E+04   -.231E+00 -.133E+00 -.250E-01   0.817E-01 0.468E-01 0.540E-02
   -.141E-03 -.229E+01 0.112E+04   0.297E-03 0.201E+01 -.112E+04   -.114E-07 0.171E+00 -.103E+01   -.338E-02 0.938E-01 0.783E-02
   -.925E-04 0.478E+01 0.112E+04   0.187E-03 -.543E+01 -.112E+04   -.357E-07 0.536E+00 -.952E+00   -.836E-03 0.136E+00 -.185E-01
   -.199E+01 0.115E+01 0.112E+04   0.174E+01 -.101E+01 -.112E+04   0.148E+00 -.853E-01 -.103E+01   0.802E-01 -.498E-01 0.771E-02
   0.199E+01 0.115E+01 0.112E+04   -.175E+01 -.101E+01 -.112E+04   -.148E+00 -.853E-01 -.103E+01   -.787E-01 -.471E-01 0.967E-02
   -.664E-04 -.731E+01 -.120E+04   0.723E-04 0.735E+01 0.120E+04   0.641E-09 -.963E-02 0.110E+01   -.108E-01 -.462E-01 0.127E+00
   -.526E+02 -.304E+02 -.127E+04   0.539E+02 0.311E+02 0.127E+04   -.120E+01 -.695E+00 -.103E+01   -.283E+00 -.164E+00 -.145E+00
   0.526E+02 -.304E+02 -.127E+04   -.539E+02 0.311E+02 0.127E+04   0.120E+01 -.695E+00 -.103E+01   0.265E+00 -.165E+00 -.146E+00
   -.287E+02 0.166E+02 -.123E+04   0.285E+02 -.165E+02 0.122E+04   0.471E+00 -.272E+00 0.632E+00   -.211E+00 0.123E+00 0.656E-02
   -.847E-04 0.607E+02 -.127E+04   0.151E-03 -.622E+02 0.127E+04   -.925E-07 0.139E+01 -.103E+01   -.121E-01 0.311E+00 -.146E+00
   0.287E+02 0.166E+02 -.123E+04   -.285E+02 -.165E+02 0.122E+04   -.471E+00 -.272E+00 0.632E+00   0.212E+00 0.122E+00 0.655E-02
   0.633E+01 0.366E+01 -.120E+04   -.636E+01 -.367E+01 0.120E+04   0.834E-02 0.481E-02 0.110E+01   0.238E-01 0.137E-01 0.126E+00
   -.633E+01 0.366E+01 -.120E+04   0.636E+01 -.367E+01 0.120E+04   -.834E-02 0.481E-02 0.110E+01   -.450E-01 0.139E-01 0.127E+00
   -.120E-03 -.332E+02 -.123E+04   0.239E-03 0.329E+02 0.122E+04   -.362E-07 0.544E+00 0.632E+00   0.109E-02 -.244E+00 0.670E-02
   -.423E-04 0.141E-04 -.345E+04   0.462E-04 -.311E-04 0.345E+04   -.227E-17 0.270E-17 0.214E+01   -.199E-03 -.608E-04 0.995E-01
   -.490E+02 -.866E+02 -.346E+04   0.497E+02 0.875E+02 0.346E+04   -.666E+00 -.732E+00 0.974E+00   -.564E-01 -.144E+00 0.177E+00
   0.490E+02 -.866E+02 -.346E+04   -.497E+02 0.875E+02 0.346E+04   0.666E+00 -.732E+00 0.974E+00   0.573E-01 -.143E+00 0.176E+00
   -.995E+02 0.913E+00 -.346E+04   0.101E+03 -.707E+00 0.346E+04   -.967E+00 -.211E+00 0.974E+00   -.153E+00 0.232E-01 0.177E+00
   0.995E+02 0.913E+00 -.346E+04   -.101E+03 -.707E+00 0.346E+04   0.967E+00 -.211E+00 0.974E+00   0.153E+00 0.239E-01 0.177E+00
   -.505E+02 0.857E+02 -.346E+04   0.509E+02 -.868E+02 0.346E+04   -.301E+00 0.943E+00 0.974E+00   -.953E-01 0.121E+00 0.176E+00
   0.505E+02 0.857E+02 -.346E+04   -.509E+02 -.868E+02 0.346E+04   0.301E+00 0.943E+00 0.974E+00   0.980E-01 0.121E+00 0.177E+00
   -.139E-03 -.237E-04 -.347E+04   0.247E-03 0.845E-06 0.346E+04   0.976E-18 0.159E-17 0.272E+01   -.125E-01 -.639E-02 0.207E+00
   -.466E-04 -.127E-04 -.185E+04   0.738E-04 0.151E-04 0.185E+04   -.113E-18 0.176E-19 -.158E+01   0.531E-03 0.311E-03 0.206E+00
   0.415E-05 -.495E-05 -.359E+03   0.298E-05 0.135E-05 0.361E+03   0.227E-18 0.257E-18 -.204E+01   0.619E-04 0.358E-04 0.740E-02
   -.234E-03 0.114E-04 0.123E+02   0.342E-13 0.146E-12 -.102E-11   0.112E-15 -.109E-15 -.142E+02   -.359E-01 -.238E-01 0.178E+01

 POSITION                                       TOTAL-FORCE (eV/Angst)
      0.00000      0.00000      5.37156         0.000000     -0.000000     -0.034691
      2.56560      0.00000      5.37156         0.010149      0.008945      0.063137
      5.13119      0.00000      5.37156        -0.010149      0.008945      0.063137
      1.28280      2.22187      5.37156         0.012822      0.004317      0.063137
      3.84839      2.22187      5.37156         0.000000     -0.000000      0.043936
      6.41399      2.22187      5.37156        -0.012822      0.004317      0.063137
      2.56560      4.44374      5.37156         0.002672     -0.013262      0.063137
      5.13119      4.44374      5.37156        -0.002672     -0.013262      0.063137
      7.69679      4.44374      5.37156         0.000000     -0.000000      0.026008
      1.28280      0.74062      7.46636        -0.026257     -0.015159     -0.089599
      3.84839      0.74062      7.46636         0.000000     -0.031054     -0.034733
      6.41399      0.74062      7.46636         0.026257     -0.015159     -0.089599
      2.56560      2.96249      7.46636        -0.026894      0.015527     -0.034733
      5.13119      2.96249      7.46636         0.026894      0.015527     -0.034733
      7.69679      2.96249      7.46636         0.000000     -0.013412     -0.021463
      3.84839      5.18437      7.46636        -0.000000      0.030319     -0.089599
      6.41399      5.18437      7.46636        -0.011615      0.006706     -0.021463
      8.97958      5.18437      7.46636         0.011615      0.006706     -0.021463
      7.69679      1.48128      9.55134         0.000000     -0.013838      0.029974
      2.56091      1.47854      9.54628        -0.173462     -0.100148     -0.182095
      5.13587      1.47854      9.54628         0.173462     -0.100148     -0.182095
      8.97673      3.70477      9.56818         0.055046     -0.031781     -0.002088
      3.84839      3.70853      9.54628        -0.000000      0.200297     -0.182095
      6.41684      3.70477      9.56818        -0.055046     -0.031781     -0.002088
     10.26235      5.92497      9.55134         0.011984      0.006919      0.029974
      5.13122      5.92497      9.55134        -0.011984      0.006919      0.029974
      7.69679      5.92169      9.56818        -0.000000      0.063561     -0.002088
      0.00000      0.00000     11.64671         0.000000     -0.000000      0.032239
      6.40484      6.65345     11.67351         0.023174      0.003617     -0.022075
      8.98873      6.65345     11.67351        -0.023174      0.003617     -0.022075
      8.96447      2.22003     11.67351         0.014719      0.018261     -0.022075
      6.42910      2.22003     11.67351        -0.014719      0.018261     -0.022075
     10.25642      4.45775     11.67351        -0.008455     -0.021878     -0.022075
      5.13715      4.45775     11.67351         0.008455     -0.021878     -0.022075
      7.69679      4.44374     11.65978         0.000000     -0.000000      0.056820
      3.84839      2.22187     11.64991         0.000000     -0.000000      0.537290
      3.84839      2.22187     13.37762         0.000000     -0.000000     -0.007963
    total drift:                               -0.036127     -0.023802     -0.052688

  FREE ENERGIE OF THE ION-ELECTRON SYSTEM (eV)
  free  energy   TOTEN  =      -134.23958503 eV

  energy  without entropy=     -134.23958503  energy(sigma->0) =     -134.23958503

 stress matrix after NEB project (eV)
     -6.12556      0.00000     -0.00000
      0.00000     -6.12556     -0.00000
     -0.00000     -0.00000      0.23493
  FORCES: max atom, RMS     0.007963    0.001309
  FORCE total and by dimension    0.007963    0.007963
  Stress total and by dimension    8.666036    6.125561
|           W    W    AA    RRRRR   N    N  II  N    N   GGGG   !!!           |
|           W    W   A  A   R    R  NN   N  II  NN   N  G    G  !!!           |
|           W    W  A    A  R    R  N N  N  II  N N  N  G       !!!           |
|           W WW W  AAAAAA  RRRRR   N  N N  II  N  N N  G  GGG   !            |
|           WW  WW  A    A  R   R   N   NN  II  N   NN  G    G                |
|           W    W  A    A  R    R  N    N  II  N    N   GGGG   !!!           |
|     Tetrahedron method does not include variations of the Fermi             |
|     occupations, so forces and stress will be inaccurate. We suggest        |
|     using a different smearing scheme ISMEAR = 1 or 2 for metals in         |
|     relaxations.                                                            |

 total charge

# of ion       s       p       d       tot
    1        0.450   0.280   9.191   9.921
    2        0.446   0.286   9.187   9.918
    3        0.446   0.286   9.187   9.918
    4        0.446   0.286   9.187   9.918
    5        0.451   0.284   9.182   9.918
    6        0.446   0.286   9.187   9.918
    7        0.446   0.286   9.187   9.918
    8        0.446   0.286   9.187   9.918
    9        0.448   0.283   9.188   9.920
   10        0.444   0.371   9.175   9.991
   11        0.442   0.366   9.183   9.991
   12        0.444   0.371   9.175   9.991
   13        0.442   0.366   9.183   9.991
   14        0.442   0.366   9.183   9.991
   15        0.439   0.369   9.177   9.985
   16        0.444   0.371   9.175   9.991
   17        0.439   0.369   9.177   9.985
   18        0.439   0.369   9.177   9.985
   19        0.441   0.367   9.181   9.989
   20        0.470   0.391   9.163  10.024
   21        0.470   0.391   9.163  10.024
   22        0.429   0.372   9.181   9.982
   23        0.470   0.391   9.163  10.024
   24        0.429   0.372   9.181   9.982
   25        0.441   0.367   9.181   9.989
   26        0.441   0.367   9.181   9.989
   27        0.429   0.372   9.181   9.982
   28        0.446   0.291   9.180   9.918
   29        0.472   0.309   9.162   9.943
   30        0.472   0.309   9.162   9.943
   31        0.472   0.309   9.162   9.943
   32        0.472   0.309   9.162   9.943
   33        0.472   0.309   9.162   9.943
   34        0.472   0.309   9.162   9.943
   35        0.439   0.293   9.184   9.916
   36        0.506   0.443   4.279   5.228
   37        0.514   0.010   0.000   0.524
tot         16.757  12.163 325.480 354.400

 BZINTS: Fermi energy:   -0.048809;  392.000000 electrons
         Band energy:-0.112979E+04;  BLOECHL correction:   -0.019269