 vasp.6.2.0 18Jan21 (build Jun 12 2021 23:27:24) complex

 executed on             LinuxIFC date 2022.05.26  20:09:17

 INCAR:
   ISMEAR = -5
   SIGMA = 0.1
   ISPIN = 1
   EDIFF = 1.d-5
   EDIFFG = -0.01
   NSW = 0
   NELM = 150
   ENCUT = 500
   ISIF = 2
   IBRION = 2
   LREAL = Auto
   ALGO = Fast
   ICHARG = 11
   LORBIT = 10
   LCHARG = .F.
   LWAVE = .F.

 POTCAR:    PAW_PBE Cu 22Jun2005
 POTCAR:    PAW_PBE Os 17Jan2003
 POTCAR:    PAW_PBE N 08Apr2002
|           W    W    AA    RRRRR   N    N  II  N    N   GGGG   !!!           |
|           W    W   A  A   R    R  NN   N  II  NN   N  G    G  !!!           |
|           W    W  A    A  R    R  N N  N  II  N N  N  G       !!!           |
|           W WW W  AAAAAA  RRRRR   N  N N  II  N  N N  G  GGG   !            |
|           WW  WW  A    A  R   R   N   NN  II  N   NN  G    G                |
|           W    W  A    A  R    R  N    N  II  N    N   GGGG   !!!           |
|     For optimal performance we recommend to set                             |
|       NCORE = 2 up to number-of-cores-per-socket                            |
|     This setting can greatly improve the performance of VASP for DFT.       |
|     The default, NCORE=1 might be grossly inefficient on modern             |
|     multi-core architectures or massively parallel machines. Do your        |
|     Unfortunately you need to use the default for GW and RPA                |
|     calculations (for HF NCORE is supported but not extensively tested      |
|     yet).                                                                   |

 POTCAR:    PAW_PBE Cu 22Jun2005
   VRHFIN =Cu: d10 p1

   TITEL  = PAW_PBE Cu 22Jun2005
   POMASS =   63.546; ZVAL   =   11.000    mass and valenz
   ENMAX  =  295.446; ENMIN  =  221.585 eV

 POTCAR:    PAW_PBE Os 17Jan2003
   VRHFIN =Os: 6s5d

   TITEL  = PAW_PBE Os 17Jan2003
   POMASS =  190.200; ZVAL   =    8.000    mass and valenz
   ENMAX  =  228.022; ENMIN  =  171.017 eV

 POTCAR:    PAW_PBE N 08Apr2002
   VRHFIN =N: s2p3

   TITEL  = PAW_PBE N 08Apr2002
   POMASS =   14.001; ZVAL   =    5.000    mass and valenz
   ENMAX  =  400.000; ENMIN  =  300.000 eV

 Optimization of the real space projectors (new method)

 maximal supplied QI-value         = 16.25
 optimisation between [QCUT,QGAM] = [ 11.38, 22.75] = [ 36.24,144.96] Ry
 Optimized for a Real-space Cutoff    1.52 Angstroem

   l    n(q)    QCUT    max X(q) W(low)/X(q) W(high)/X(q)  e(spline)
   2      9    11.376     4.610    0.21E-03    0.10E-03    0.26E-06
   2      9    11.376     8.522    0.33E-03    0.16E-03    0.37E-06
   0     10    11.376    51.609    0.62E-04    0.20E-04    0.13E-06
   0     10    11.376    27.747    0.54E-04    0.20E-04    0.13E-06
   1     10    11.376    20.408    0.13E-04    0.99E-04    0.19E-06
   1     10    11.376    13.425    0.12E-04    0.87E-04    0.17E-06
 Optimization of the real space projectors (new method)

[...]

   l    n(q)    QCUT    max X(q) W(low)/X(q) W(high)/X(q)  e(spline)
   2     10    11.327   152.873    0.32E-03    0.72E-03    0.11E-05
   2     10    11.327   151.010    0.32E-03    0.72E-03    0.11E-05
   0     11    11.327    72.114    0.43E-04    0.61E-04    0.13E-06
   0     11    11.327    44.596    0.40E-04    0.57E-04    0.12E-06
   1     10    11.327    13.742    0.16E-03    0.10E-03    0.19E-06
   1     10    11.327     8.461    0.12E-03    0.78E-04    0.15E-06
 Optimization of the real space projectors (new method)

 maximal supplied QI-value         = 25.13
 optimisation between [QCUT,QGAM] = [ 11.31, 22.87] = [ 35.82,146.48] Ry
 Optimized for a Real-space Cutoff    1.27 Angstroem

   l    n(q)    QCUT    max X(q) W(low)/X(q) W(high)/X(q)  e(spline)
   0      9    11.310    79.467    0.75E-04    0.16E-03    0.36E-06
   0      9    11.310    66.151    0.74E-04    0.16E-03    0.36E-06
   1      8    11.310    17.416    0.35E-03    0.12E-03    0.95E-06
   1      8    11.310    12.382    0.37E-03    0.13E-03    0.98E-06
  PAW_PBE Cu 22Jun2005                  :
  PAW_PBE Os 17Jan2003                  :
  PAW_PBE N 08Apr2002                   :

 POSCAR: Cu-Os-N
  positions in direct lattice
  velocities in cartesian coordinates
 exchange correlation table for  LEXCH =        8
   RHO(1)=    0.500       N(1)  =     2000
   RHO(2)=  100.500       N(2)  =     4000

 VTST: version 3.2, (02/03/18)

 CHAIN: initializing optimizer

 OPT: Using VASP Conjugate-Gradient optimizer
 CHAIN: Read ICHAIN            0

 POSCAR: Cu-Os-N
  positions in direct lattice
  velocities in cartesian coordinates

 ion  position               nearest neighbor table
   1  0.000  0.000  0.252-   7 2.57   3 2.57   4 2.57   2 2.57   6 2.57   8 2.57  12 2.57  10 2.57
                            16 2.57
   2  0.333  0.000  0.252-   8 2.57   9 2.57   5 2.57   1 2.57   3 2.57  11 2.57   4 2.57  10 2.57
                            17 2.57
   3  0.667  0.000  0.252-   1 2.57   7 2.57   6 2.57   9 2.57   2 2.57  12 2.57   5 2.57  18 2.57
                            11 2.57
   4  0.000  0.333  0.252-   5 2.57   6 2.57   1 2.57   7 2.57   2 2.57  13 2.57   9 2.57  10 2.57
                            15 2.57
   5  0.333  0.333  0.252-   4 2.57   2 2.57   7 2.57  13 2.57   8 2.57   6 2.57   3 2.57  11 2.57
                            14 2.57
   6  0.667  0.333  0.252-   4 2.57   9 2.57  15 2.57   3 2.57   1 2.57   8 2.57  14 2.57   5 2.57
                            12 2.57
   7  0.000  0.667  0.252-   1 2.57   3 2.57  16 2.57  18 2.57   4 2.57   5 2.57   8 2.57   9 2.57
                            13 2.57
   8  0.333  0.667  0.252-   9 2.57   2 2.57  17 2.57   6 2.57   1 2.57   7 2.57   5 2.57  14 2.57
                            16 2.57
   9  0.667  0.667  0.252-   8 2.57   6 2.57   2 2.57  17 2.57   3 2.57   7 2.57   4 2.57  15 2.57
                            18 2.57
  10  0.111  0.111  0.351-  20 2.53  11 2.57  12 2.57  13 2.57   1 2.57   2 2.57   4 2.57  15 2.57
                            16 2.57  17 2.57  26 2.57  19 2.57
  11  0.444  0.111  0.351-  20 2.54  21 2.54  10 2.57  13 2.57   2 2.57  17 2.57  14 2.57  12 2.57
                             5 2.57   3 2.57  18 2.57  27 2.57
  12  0.778  0.111  0.351-  21 2.53  15 2.57  10 2.57  14 2.57  18 2.57   3 2.57   1 2.57  16 2.57
                            11 2.57   6 2.57  19 2.57  25 2.57
  13  0.111  0.444  0.351-  23 2.54  20 2.54  16 2.57  18 2.57  10 2.57  11 2.57  14 2.57   5 2.57
                             4 2.57   7 2.57  15 2.57  22 2.57
  14  0.444  0.444  0.351-  21 2.54  23 2.54  15 2.57  17 2.57  12 2.57  16 2.57  13 2.57  11 2.57
                             6 2.57   8 2.57   5 2.57  24 2.57
  15  0.778  0.444  0.351-  19 2.56  14 2.57  17 2.57  12 2.57   6 2.57  18 2.57  10 2.57   9 2.57
                            13 2.57   4 2.57  24 2.57  22 2.57
  16  0.111  0.778  0.351-  23 2.53  18 2.57  13 2.57   7 2.57  14 2.57  17 2.57  12 2.57  10 2.57
                             8 2.57   1 2.57  25 2.57  26 2.57
  17  0.444  0.778  0.351-  26 2.56  14 2.57  15 2.57   8 2.57   9 2.57  11 2.57  16 2.57  18 2.57
                            10 2.57   2 2.57  27 2.57  24 2.57
  18  0.778  0.778  0.351-  25 2.56  16 2.57  13 2.57   7 2.57  15 2.57  12 2.57  17 2.57   9 2.57
                             3 2.57  11 2.57  22 2.57  27 2.57
  19  0.888  0.223  0.449-  21 2.55  20 2.55  28 2.55  22 2.56  24 2.56  15 2.56  12 2.57  10 2.57
                            32 2.57  31 2.57  25 2.57  26 2.57
  20  0.221  0.221  0.448-  10 2.53  36 2.53  11 2.54  13 2.54  26 2.55  19 2.55  27 2.57  22 2.57
                            23 2.59  21 2.59  29 2.60  31 2.60
  21  0.558  0.221  0.448-  12 2.53  36 2.53  14 2.54  11 2.54  19 2.55  25 2.55  24 2.57  27 2.57
                            20 2.59  23 2.59  32 2.60  30 2.60
  22  0.888  0.556  0.449-  35 2.55  24 2.55  27 2.55  19 2.56  25 2.56  18 2.57  15 2.57  23 2.57
                            20 2.57  13 2.57  31 2.58  33 2.58
  23  0.221  0.558  0.448-  16 2.53  36 2.53  13 2.54  14 2.54  25 2.55  26 2.55  22 2.57  24 2.57
                            20 2.59  21 2.59  33 2.60  34 2.60
  24  0.556  0.556  0.449-  35 2.55  22 2.55  27 2.55  19 2.56  26 2.56  15 2.57  17 2.57  21 2.57
                            23 2.57  14 2.57  32 2.58  34 2.58
  25  0.888  0.888  0.449-  21 2.55  23 2.55  28 2.55  22 2.56  27 2.56  18 2.56  16 2.57  12 2.57
                            33 2.57  30 2.57  19 2.57  26 2.57
  26  0.223  0.888  0.449-  20 2.55  23 2.55  28 2.55  27 2.56  24 2.56  17 2.56  10 2.57  16 2.57
                            29 2.57  34 2.57  25 2.57  19 2.57
  27  0.556  0.888  0.449-  35 2.55  24 2.55  22 2.55  26 2.56  25 2.56  17 2.57  18 2.57  20 2.57
                            21 2.57  11 2.57  29 2.58  30 2.58
  28  0.000  0.000  0.547-  25 2.55  19 2.55  26 2.55  33 2.56  30 2.56  31 2.56  29 2.56  32 2.56
                            34 2.56
  29  0.333  0.000  0.548-  31 2.56  28 2.56  34 2.57  36 2.57  35 2.57  30 2.57  26 2.57  27 2.58
                            20 2.60
  30  0.667  0.000  0.548-  32 2.56  28 2.56  33 2.57  36 2.57  35 2.57  29 2.57  25 2.57  27 2.58
                            21 2.60
  31  0.000  0.333  0.548-  29 2.56  28 2.56  32 2.57  36 2.57  35 2.57  33 2.57  19 2.57  22 2.58
                            20 2.60
  32  0.667  0.333  0.548-  30 2.56  28 2.56  31 2.57  36 2.57  35 2.57  34 2.57  19 2.57  24 2.58
                            21 2.60
  33  0.000  0.667  0.548-  34 2.56  28 2.56  30 2.57  36 2.57  35 2.57  31 2.57  25 2.57  22 2.58
                            23 2.60
  34  0.333  0.667  0.548-  33 2.56  28 2.56  29 2.57  36 2.57  35 2.57  32 2.57  26 2.57  24 2.58
                            23 2.60
  35  0.667  0.667  0.547-  24 2.55  27 2.55  22 2.55  34 2.57  32 2.57  29 2.57  30 2.57  33 2.57
                            31 2.57
  36  0.333  0.333  0.544-  37 1.71  23 2.53  20 2.53  21 2.53  31 2.57  29 2.57  33 2.57  34 2.57
                            32 2.57  30 2.57
  37  0.333  0.333  0.624-  36 1.71

  LATTYP: Found a hexagonal cell.
 ALAT       =     7.6967864036
 C/A-ratio  =     2.7653617908

  Lattice vectors:

 A1 = (  -3.8483927580,  -6.6656128093,   0.0000000000)
 A2 = (   7.6967864037,   0.0000000000,   0.0000000000)
 A3 = (   0.0000000000,   0.0000000000,  21.2843990326)

Analysis of symmetry for initial positions (statically):
 Subroutine PRICEL returns:
 Original cell was already a primitive cell.

 Routine SETGRP: Setting up the symmetry group for a
 hexagonal supercell.

 Subroutine GETGRP returns: Found  6 space group operations
 (whereof  6 operations were pure point group operations)
 out of a pool of 24 trial point group operations.

The static configuration has the point symmetry C_3v.

Analysis of symmetry for dynamics (positions and initial velocities):
 Subroutine PRICEL returns:
 Original cell was already a primitive cell.

[...]

The dynamic configuration has the point symmetry C_3v.

Analysis of constrained symmetry for selective dynamics:
 Subroutine PRICEL returns:
 Original cell was already a primitive cell.

 Routine SETGRP: Setting up the symmetry group for a
 hexagonal supercell.

 Subroutine GETGRP returns: Found  6 space group operations
[...]
     24      -4.3183      2.00000
     25      -4.2633      2.00000
     26      -4.2493      2.00000
     27      -4.2071      2.00000
     28      -4.1653      2.00000
     29      -4.1423      2.00000
     30      -4.0818      2.00000
     31      -4.0562      2.00000
     32      -4.0277      2.00000
     33      -4.0067      2.00000
     34      -4.0019      2.00000
     35      -3.9783      2.00000
     36      -3.9301      2.00000
     37      -3.8900      2.00000
     38      -3.8650      2.00000
     39      -3.8288      2.00000
     40      -3.8056      2.00000
     41      -3.6974      2.00000
     42      -3.6733      2.00000
     43      -3.6190      2.00000
     44      -3.6034      2.00000
     45      -3.5819      2.00000
     46      -3.5690      2.00000
     47      -3.5284      2.00000
     48      -3.4981      2.00000
     49      -3.4866      2.00000
     50      -3.3819      2.00000
     51      -3.3572      2.00000
     52      -3.3295      2.00000
     53      -3.3225      2.00000
     54      -3.2959      2.00000
     55      -3.2895      2.00000
     56      -3.2602      2.00000
     57      -3.2546      2.00000
     58      -3.2450      2.00000
     59      -3.2264      2.00000
     60      -3.2151      2.00000
[...]
    238       6.2706      0.00000
    239       6.4419      0.00000
    240       6.5265      0.00000
    241       6.9977      0.00000
    242       7.0104      0.00000
    243       7.1070      0.00000
    244       7.1644      0.00000
    245       7.3240      0.00000
    246       7.4136      0.00000
    247       7.4233      0.00000
    248       7.5031      0.00000
    249       7.6037      0.00000
    250       7.8475      0.00000
    251       7.8724      0.00000
    252       8.0215      0.00000

 soft charge-density along one line, spin component           1
         0         1         2         3         4         5         6         7         8         9
 total charge-density along one line

------------------------ aborting loop because EDIFF is reached ----------------------------------------

 total charge

# of ion       s       p       d       tot
    1        0.450   0.281   9.192   9.923
    2        0.448   0.285   9.187   9.920
    3        0.448   0.285   9.187   9.920
    4        0.448   0.285   9.187   9.920
    5        0.450   0.284   9.187   9.921
    6        0.448   0.285   9.187   9.920
    7        0.448   0.285   9.187   9.920
    8        0.448   0.285   9.187   9.920
    9        0.446   0.285   9.187   9.918
   10        0.443   0.369   9.180   9.992
   11        0.440   0.371   9.181   9.993
   12        0.443   0.369   9.180   9.992
   13        0.440   0.371   9.181   9.993
   14        0.440   0.371   9.181   9.993
   15        0.438   0.368   9.180   9.987
   16        0.443   0.369   9.180   9.992
   17        0.438   0.368   9.180   9.987
   18        0.438   0.368   9.180   9.987
   19        0.442   0.366   9.182   9.990
   20        0.464   0.399   9.170  10.033
   21        0.464   0.399   9.170  10.033
   22        0.431   0.372   9.181   9.984
   23        0.464   0.399   9.170  10.033
   24        0.431   0.372   9.181   9.984
   25        0.442   0.366   9.182   9.990
   26        0.442   0.366   9.182   9.990
   27        0.431   0.372   9.181   9.984
   28        0.455   0.285   9.192   9.932
   29        0.445   0.311   9.188   9.943
   30        0.445   0.311   9.188   9.943
   31        0.445   0.311   9.188   9.943
   32        0.445   0.311   9.188   9.943
   33        0.445   0.311   9.188   9.943
   34        0.445   0.311   9.188   9.943
   35        0.448   0.287   9.193   9.928
   36        0.766   0.771   6.197   7.733
   37        1.350   2.196   0.000   3.546
tot         17.700  14.701 327.618 360.019

  FORCE on cell =-STRESS in cart. coord.  units (eV):
  Direction    XX          YY          ZZ          XY          YZ          ZX
  Alpha Z   905.29437   905.29437   905.29437
  Ewald  172728.13276172728.13233************     0.00039     0.00012     0.00017
  Hartree185737.83637185737.83635************     0.00004     0.00006     0.00006
  E(xc)   -2305.11011 -2305.10962 -2309.54016    -0.00043    -0.00003    -0.00006
  Local  ************************371770.83744     0.01861    -0.00059    -0.00096
  n-local  -791.43447  -776.68040  -793.93031     8.12830    -0.03648     0.24601
  augment  3326.12922  3326.14948  3338.74096    -0.01754     0.00026     0.00050
  Kinetic  3346.31546  3349.06584  3345.03871     3.14165     1.74737    -1.35891
  Fock        0.00000     0.00000     0.00000     0.00000     0.00000     0.00000
  Total      -0.57776    -0.57776     2.29654     0.00000    -0.00000    -0.00000
  in kB      -0.84771    -0.84771     3.36957     0.00000    -0.00000    -0.00000

 VOLUME and BASIS-vectors are now :
  energy-cutoff  :      500.00
  volume of cell :     1091.97
      direct lattice vectors                 reciprocal lattice vectors
     7.696786404  0.000000000  0.000000000     0.129924354 -0.075011849  0.000000000
     3.848392758  6.665612809  0.000000000     0.000000000  0.150023716  0.000000000
     0.000000000  0.000000000 21.284399033     0.000000000  0.000000000  0.046982769

  length of vectors
     7.696786404  7.696786404 21.284399033     0.150023716  0.150023716  0.046982769

 FORCES acting on ions
    electron-ion (+dipol)            ewald-force                    non-local-force                 convergence-correction
   -.417E-04 0.107E-06 0.348E+04   0.580E-04 -.436E-05 -.348E+04   0.394E-17 0.231E-17 -.245E+01   -.344E-03 -.219E-03 -.417E+00
   -.815E-01 0.113E+00 0.348E+04   0.209E-01 -.168E+00 -.348E+04   0.187E-01 0.127E+00 -.199E+01   0.477E-01 -.563E-01 -.458E+00
   0.815E-01 0.113E+00 0.348E+04   -.210E-01 -.168E+00 -.348E+04   -.187E-01 0.127E+00 -.199E+01   -.469E-01 -.537E-01 -.457E+00
   0.571E-01 -.127E+00 0.348E+04   -.135E+00 0.102E+00 -.348E+04   0.119E+00 -.470E-01 -.199E+01   -.248E-01 0.694E-01 -.458E+00
   -.643E-04 -.499E-05 0.348E+04   0.116E-03 -.101E-04 -.348E+04   -.134E-17 0.174E-17 -.176E+01   0.122E-01 0.745E-02 -.349E+00
   -.570E-01 -.127E+00 0.348E+04   0.135E+00 0.102E+00 -.348E+04   -.119E+00 -.470E-01 -.199E+01   0.231E-01 0.706E-01 -.457E+00
   0.139E+00 0.141E-01 0.348E+04   -.156E+00 0.660E-01 -.348E+04   0.100E+00 -.795E-01 -.199E+01   -.699E-01 -.137E-01 -.457E+00
   -.138E+00 0.141E-01 0.348E+04   0.156E+00 0.660E-01 -.348E+04   -.100E+00 -.795E-01 -.199E+01   0.734E-01 -.152E-01 -.457E+00
   -.144E-03 -.330E-04 0.348E+04   0.263E-03 0.205E-04 -.348E+04   0.250E-17 0.278E-18 -.219E+01   -.132E-01 -.677E-02 -.409E+00
   0.341E+01 0.197E+01 0.118E+04   -.291E+01 -.168E+01 -.118E+04   -.429E+00 -.248E+00 -.868E+00   -.110E+00 -.638E-01 -.843E-02
   -.912E-04 0.121E+01 0.117E+04   0.190E-03 -.145E+01 -.117E+04   -.140E-07 0.210E+00 -.421E+00   0.121E-01 -.208E-01 -.254E-01
   -.341E+01 0.197E+01 0.118E+04   0.291E+01 -.168E+01 -.118E+04   0.429E+00 -.248E+00 -.868E+00   0.108E+00 -.625E-01 -.840E-02
   0.105E+01 -.605E+00 0.117E+04   -.125E+01 0.723E+00 -.117E+04   0.182E+00 -.105E+00 -.421E+00   -.115E-01 0.216E-01 -.260E-01
   -.105E+01 -.605E+00 0.117E+04   0.125E+01 0.723E+00 -.117E+04   -.182E+00 -.105E+00 -.421E+00   0.353E-01 0.204E-01 -.270E-01
   -.143E-03 -.263E+00 0.117E+04   0.299E-03 0.840E-01 -.117E+04   -.408E-08 0.613E-01 -.803E+00   -.359E-02 0.940E-01 -.277E-01
   -.916E-04 -.394E+01 0.118E+04   0.186E-03 0.336E+01 -.118E+04   -.330E-07 0.496E+00 -.868E+00   -.506E-03 0.124E+00 -.760E-02
   -.228E+00 0.132E+00 0.117E+04   0.728E-01 -.417E-01 -.117E+04   0.531E-01 -.307E-01 -.803E+00   0.800E-01 -.500E-01 -.275E-01
   0.228E+00 0.132E+00 0.117E+04   -.730E-01 -.418E-01 -.117E+04   -.531E-01 -.307E-01 -.803E+00   -.787E-01 -.471E-01 -.258E-01
   -.566E-04 -.407E+00 -.115E+04   0.689E-04 0.511E+00 0.115E+04   0.636E-08 -.955E-01 0.777E+00   -.110E-01 -.416E-01 0.297E+00
   -.237E+02 -.137E+02 -.115E+04   0.242E+02 0.140E+02 0.115E+04   -.694E+00 -.400E+00 0.591E-01   -.698E-01 -.414E-01 0.284E+00
   0.237E+02 -.137E+02 -.115E+04   -.242E+02 0.140E+02 0.115E+04   0.694E+00 -.400E+00 0.591E-01   0.510E-01 -.419E-01 0.283E+00
   -.168E+02 0.968E+01 -.116E+04   0.163E+02 -.943E+01 0.115E+04   0.636E+00 -.367E+00 0.103E+01   -.125E+00 0.737E-01 0.313E+00
   -.888E-04 0.274E+02 -.115E+04   0.145E-03 -.280E+02 0.115E+04   -.533E-07 0.801E+00 0.591E-01   0.267E-04 0.837E-01 0.283E+00
   0.168E+02 0.968E+01 -.116E+04   -.163E+02 -.943E+01 0.115E+04   -.636E+00 -.367E+00 0.103E+01   0.125E+00 0.723E-01 0.313E+00
   0.353E+00 0.204E+00 -.115E+04   -.443E+00 -.256E+00 0.115E+04   0.827E-01 0.477E-01 0.777E+00   0.204E-01 0.109E-01 0.297E+00
   -.353E+00 0.204E+00 -.115E+04   0.443E+00 -.256E+00 0.115E+04   -.827E-01 0.477E-01 0.777E+00   -.417E-01 0.999E-02 0.297E+00
   -.115E-03 -.194E+02 -.116E+04   0.242E-03 0.189E+02 0.115E+04   -.489E-07 0.734E+00 0.103E+01   0.937E-03 -.145E+00 0.313E+00
   -.461E-04 0.114E-04 -.343E+04   0.375E-04 -.332E-04 0.342E+04   -.840E-17 -.231E-17 0.205E+01   -.216E-03 -.440E-03 0.492E+00
   -.967E+01 -.115E+02 -.342E+04   0.928E+01 0.105E+02 0.342E+04   0.190E+00 0.687E+00 0.265E+01   -.233E-01 -.835E-01 0.491E+00
   0.967E+01 -.115E+02 -.342E+04   -.928E+01 0.105E+02 0.342E+04   -.190E+00 0.687E+00 0.265E+01   0.243E-01 -.818E-01 0.490E+00
   -.148E+02 -.264E+01 -.342E+04   0.137E+02 0.281E+01 0.342E+04   0.690E+00 -.179E+00 0.265E+01   -.839E-01 0.214E-01 0.491E+00
   0.148E+02 -.264E+01 -.342E+04   -.137E+02 0.281E+01 0.342E+04   -.690E+00 -.179E+00 0.265E+01   0.831E-01 0.222E-01 0.491E+00
   -.510E+01 0.141E+02 -.342E+04   0.442E+01 -.133E+02 0.342E+04   0.500E+00 -.509E+00 0.265E+01   -.584E-01 0.622E-01 0.490E+00
   0.510E+01 0.141E+02 -.342E+04   -.442E+01 -.133E+02 0.342E+04   -.500E+00 -.509E+00 0.265E+01   0.612E-01 0.611E-01 0.491E+00
   -.157E-03 -.309E-04 -.343E+04   0.254E-03 0.441E-05 0.343E+04   -.483E-17 -.566E-18 0.244E+01   -.128E-01 -.638E-02 0.482E+00
   -.321E-04 -.212E-04 -.228E+04   0.102E-03 0.192E-04 0.228E+04   -.333E-17 0.784E-18 0.247E+01   0.163E-02 0.782E-03 0.290E+00
   0.107E-03 -.500E-04 -.185E+04   0.168E-04 0.737E-05 0.187E+04   0.527E-18 -.145E-18 -.240E+02   0.149E-02 0.898E-03 0.246E-01
   -.154E-03 -.566E-04 0.173E+02   0.171E-12 0.444E-12 -.132E-10   -.230E-15 0.222E-15 -.202E+02   -.244E-01 -.555E-02 0.281E+01

 POSITION                                       TOTAL-FORCE (eV/Angst)
      0.00000      0.00000      5.37156        -0.000000     -0.000000     -0.001982
      2.56560      0.00000      5.37156         0.006256      0.015982      0.078360
      5.13119      0.00000      5.37156        -0.006256      0.015982      0.078360
      1.28280      2.22187      5.37156         0.016969     -0.002573      0.078360
      3.84839      2.22187      5.37156        -0.000000     -0.000000      0.055503
      6.41399      2.22187      5.37156        -0.016969     -0.002573      0.078360
      2.56560      4.44374      5.37156         0.010712     -0.013409      0.078360
      5.13119      4.44374      5.37156        -0.010712     -0.013409      0.078360
      7.69679      4.44374      5.37156        -0.000000      0.000000      0.054953
      1.28280      0.74062      7.46636        -0.037772     -0.021807     -0.063350
      3.84839      0.74062      7.46636         0.000000     -0.051906     -0.071061
      6.41399      0.74062      7.46636         0.037772     -0.021807     -0.063350
      2.56560      2.96249      7.46636        -0.044952      0.025953     -0.071061
      5.13119      2.96249      7.46636         0.044952      0.025953     -0.071061
      7.69679      2.96249      7.46636         0.000000     -0.024790     -0.002607
      3.84839      5.18437      7.46636        -0.000000      0.043615     -0.063350
      6.41399      5.18437      7.46636        -0.021468      0.012395     -0.002607
      8.97958      5.18437      7.46636         0.021468      0.012395     -0.002607
      7.69679      1.48657      9.56400         0.000000     -0.026910      0.022591
      2.55408      1.47460      9.52990        -0.205203     -0.118474     -0.337310
      5.14271      1.47460      9.52990         0.205203     -0.118474     -0.337310
      8.97350      3.70663      9.56526         0.070769     -0.040858      0.019370
      3.84839      3.71642      9.52990        -0.000000      0.236948     -0.337310
      6.42007      3.70663      9.56526        -0.070769     -0.040858      0.019370
     10.25777      5.92233      9.56400         0.023305      0.013455      0.022591
      5.13580      5.92233      9.56400        -0.023305      0.013455      0.022591
      7.69679      5.91797      9.56526        -0.000000      0.081717      0.019370
      0.00000      0.00000     11.64184        -0.000000     -0.000000     -0.036811
      2.56182      0.00242     11.67254        -0.220614     -0.407968     -0.249087
      5.13496      0.00242     11.67254         0.220614     -0.407968     -0.249087
      1.28301      2.21740     11.67254        -0.463617      0.012926     -0.249087
      6.41378      2.21740     11.67254         0.463617      0.012926     -0.249087
      2.56958      4.44580     11.67254        -0.243003      0.395041     -0.249087
      5.12721      4.44580     11.67254         0.243003      0.395041     -0.249087
      7.69679      4.44374     11.64035        -0.000000      0.000000      0.006207
      3.84839      2.22187     11.57579        -0.000000      0.000000      2.265576
      3.84839      2.22187     13.28285        -0.000000     -0.000000     -0.021989
    total drift:                               -0.024569     -0.005611     -0.032261

  FREE ENERGIE OF THE ION-ELECTRON SYSTEM (eV)
  free  energy   TOTEN  =      -139.75338744 eV

  energy  without entropy=     -139.75338744  energy(sigma->0) =     -139.75338744

 stress matrix after NEB project (eV)
     -0.57776      0.00000     -0.00000
      0.00000     -0.57776     -0.00000
     -0.00000     -0.00000      2.29654
  FORCES: max atom, RMS     0.021989    0.003615
  FORCE total and by dimension    0.021989    0.021989
  Stress total and by dimension    2.437563    2.296541
|           W    W    AA    RRRRR   N    N  II  N    N   GGGG   !!!           |
|           W    W   A  A   R    R  NN   N  II  NN   N  G    G  !!!           |
|           W    W  A    A  R    R  N N  N  II  N N  N  G       !!!           |
|           W WW W  AAAAAA  RRRRR   N  N N  II  N  N N  G  GGG   !            |
|           WW  WW  A    A  R   R   N   NN  II  N   NN  G    G                |
|           W    W  A    A  R    R  N    N  II  N    N   GGGG   !!!           |
|     Tetrahedron method does not include variations of the Fermi             |
|     occupations, so forces and stress will be inaccurate. We suggest        |
|     using a different smearing scheme ISMEAR = 1 or 2 for metals in         |
|     relaxations.                                                            |

 total charge

# of ion       s       p       d       tot
    1        0.450   0.281   9.192   9.923
    2        0.448   0.285   9.187   9.920
    3        0.448   0.285   9.187   9.920
    4        0.448   0.285   9.187   9.920
    5        0.450   0.284   9.187   9.921
    6        0.448   0.285   9.187   9.920
    7        0.448   0.285   9.187   9.920
    8        0.448   0.285   9.187   9.920
    9        0.446   0.285   9.187   9.918
   10        0.443   0.369   9.180   9.992
   11        0.440   0.371   9.181   9.993
   12        0.443   0.369   9.180   9.992
   13        0.440   0.371   9.181   9.993
   14        0.440   0.371   9.181   9.993
   15        0.438   0.368   9.180   9.987
   16        0.443   0.369   9.180   9.992
   17        0.438   0.368   9.180   9.987
   18        0.438   0.368   9.180   9.987
   19        0.442   0.366   9.182   9.990
   20        0.464   0.399   9.170  10.033
   21        0.464   0.399   9.170  10.033
   22        0.431   0.372   9.181   9.984
   23        0.464   0.399   9.170  10.033
   24        0.431   0.372   9.181   9.984
   25        0.442   0.366   9.182   9.990
   26        0.442   0.366   9.182   9.990
   27        0.431   0.372   9.181   9.984
   28        0.455   0.285   9.192   9.932
   29        0.445   0.311   9.188   9.943
   30        0.445   0.311   9.188   9.943
   31        0.445   0.311   9.188   9.943
   32        0.445   0.311   9.188   9.943
   33        0.445   0.311   9.188   9.943
   34        0.445   0.311   9.188   9.943
   35        0.448   0.287   9.193   9.928
   36        0.766   0.771   6.197   7.733
   37        1.350   2.196   0.000   3.546
tot         17.700  14.701 327.618 360.019

 BZINTS: Fermi energy:    0.084391;  398.000000 electrons
         Band energy:-0.111587E+04;  BLOECHL correction:   -0.067003