 vasp.6.2.0 18Jan21 (build Jun 12 2021 23:27:24) complex

 executed on             LinuxIFC date 2022.05.28  01:37:09

 INCAR:
   ISMEAR = -5
   SIGMA = 0.1
   ISPIN = 1
   EDIFF = 1.d-5
   EDIFFG = -0.01
   NSW = 0
   NELM = 150
   ENCUT = 500
   ISIF = 2
   IBRION = 2
   LREAL = Auto
   ALGO = Fast
   ICHARG = 11
   LORBIT = 10
   LCHARG = .F.
   LWAVE = .F.

 POTCAR:    PAW_PBE Ag 02Apr2005
 POTCAR:    PAW_PBE Ni 02Aug2007
 POTCAR:    PAW_PBE C 08Apr2002
 POTCAR:    PAW_PBE O 08Apr2002
|           W    W    AA    RRRRR   N    N  II  N    N   GGGG   !!!           |
|           W    W   A  A   R    R  NN   N  II  NN   N  G    G  !!!           |
|           W    W  A    A  R    R  N N  N  II  N N  N  G       !!!           |
|           W WW W  AAAAAA  RRRRR   N  N N  II  N  N N  G  GGG   !            |
|           WW  WW  A    A  R   R   N   NN  II  N   NN  G    G                |
|           W    W  A    A  R    R  N    N  II  N    N   GGGG   !!!           |
|     For optimal performance we recommend to set                             |
|       NCORE = 2 up to number-of-cores-per-socket                            |
|     This setting can greatly improve the performance of VASP for DFT.       |
|     The default, NCORE=1 might be grossly inefficient on modern             |
|     multi-core architectures or massively parallel machines. Do your        |
|     Unfortunately you need to use the default for GW and RPA                |
|     calculations (for HF NCORE is supported but not extensively tested      |
|     yet).                                                                   |

 POTCAR:    PAW_PBE Ag 02Apr2005
   VRHFIN =Ag : s1 d10

   TITEL  = PAW_PBE Ag 02Apr2005
   POMASS =  107.868; ZVAL   =   11.000    mass and valenz
   ENMAX  =  249.844; ENMIN  =  187.383 eV

 POTCAR:    PAW_PBE Ni 02Aug2007
   VRHFIN =Ni:

   TITEL  = PAW_PBE Ni 02Aug2007
   POMASS =   58.690; ZVAL   =   10.000    mass and valenz
   ENMAX  =  269.532; ENMIN  =  202.149 eV

 POTCAR:    PAW_PBE C 08Apr2002
   VRHFIN =C: s2p2

[...]

 POTCAR:    PAW_PBE O 08Apr2002
   VRHFIN =O: s2p4

   TITEL  = PAW_PBE O 08Apr2002
   POMASS =   16.000; ZVAL   =    6.000    mass and valenz
   ENMAX  =  400.000; ENMIN  =  300.000 eV

 Optimization of the real space projectors (new method)

 maximal supplied QI-value         = 15.12
 optimisation between [QCUT,QGAM] = [ 11.34, 22.83] = [ 36.00,145.93] Ry
 Optimized for a Real-space Cutoff    1.43 Angstroem

   l    n(q)    QCUT    max X(q) W(low)/X(q) W(high)/X(q)  e(spline)
   2      9    11.338    53.897    0.16E-03    0.20E-03    0.28E-06
   2      9    11.338    52.416    0.16E-03    0.20E-03    0.29E-06
   0     10    11.338   122.045    0.31E-04    0.76E-04    0.15E-06
   0     10    11.338    73.629    0.30E-04    0.72E-04    0.15E-06
   1      9    11.338    15.255    0.20E-03    0.19E-04    0.17E-06
   1      9    11.338     9.562    0.16E-03    0.15E-04    0.14E-06
 Optimization of the real space projectors (new method)

[...]

   l    n(q)    QCUT    max X(q) W(low)/X(q) W(high)/X(q)  e(spline)
   0      7    11.310   115.676    0.43E-03    0.13E-02    0.19E-06
   0      7    11.310    87.132    0.43E-03    0.13E-02    0.18E-06
   1      6    11.310     4.429    0.42E-03    0.74E-03    0.11E-06
   1      6    11.310     2.733    0.34E-03    0.55E-03    0.92E-07
 Optimization of the real space projectors (new method)

 maximal supplied QI-value         = 24.76
 optimisation between [QCUT,QGAM] = [ 11.39, 22.77] = [ 36.31,145.25] Ry
 Optimized for a Real-space Cutoff    1.00 Angstroem

   l    n(q)    QCUT    max X(q) W(low)/X(q) W(high)/X(q)  e(spline)
   0      7    11.387    20.381    0.39E-03    0.13E-02    0.15E-06
   0      7    11.387    15.268    0.42E-03    0.14E-02    0.17E-06
   1      6    11.387     5.964    0.41E-03    0.11E-02    0.17E-06
   1      6    11.387     5.382    0.39E-03    0.87E-03    0.15E-06
  PAW_PBE Ag 02Apr2005                  :
  PAW_PBE Ni 02Aug2007                  :
  PAW_PBE C 08Apr2002                   :
  PAW_PBE O 08Apr2002                   :

 POSCAR: Ag-Ni-CO2
  positions in direct lattice
  velocities in cartesian coordinates
 exchange correlation table for  LEXCH =        8
   RHO(1)=    0.500       N(1)  =     2000
   RHO(2)=  100.500       N(2)  =     4000

 VTST: version 3.2, (02/03/18)

 CHAIN: initializing optimizer

 OPT: Using VASP Conjugate-Gradient optimizer
 CHAIN: Read ICHAIN            0

 POSCAR: Ag-Ni-CO2
  positions in direct lattice
  velocities in cartesian coordinates

 ion  position               nearest neighbor table
   1  0.000  0.000  0.217-   2 2.93   8 2.93   7 2.93   6 2.93   4 2.93  12 2.93  16 2.93  10 2.93
                             3 2.93
   2  0.333  0.000  0.217-   1 2.93   8 2.93   9 2.93   3 2.93   4 2.93   5 2.93  10 2.93  17 2.93
                            11 2.93
   3  0.667  0.000  0.217-   9 2.93   2 2.93   5 2.93  11 2.93   7 2.93  18 2.93   1 2.93   6 2.93
                            12 2.93
   4  0.000  0.333  0.217-   5 2.93   6 2.93   2 2.93   1 2.93   7 2.93  13 2.93  15 2.93   9 2.93
                            10 2.93
   5  0.333  0.333  0.217-   4 2.93   3 2.93   7 2.93   2 2.93   8 2.93  14 2.93  13 2.93  11 2.93
                             6 2.93
   6  0.667  0.333  0.217-   4 2.93   9 2.93   1 2.93  15 2.93   8 2.93  12 2.93   3 2.93   5 2.93
                            14 2.93
   7  0.000  0.667  0.217-   8 2.93   1 2.93   5 2.93   3 2.93   4 2.93  16 2.93  18 2.93  13 2.93
                             9 2.93
   8  0.333  0.667  0.217-   7 2.93   1 2.93   2 2.93   9 2.93   5 2.93  16 2.93   6 2.93  17 2.93
                            14 2.93
   9  0.667  0.667  0.217-   3 2.93   2 2.93   8 2.93   6 2.93  17 2.93   4 2.93  15 2.93   7 2.93
                            18 2.93
  10  0.111  0.111  0.315-  20 2.91  19 2.92  26 2.92  12 2.93  16 2.93  15 2.93  17 2.93  13 2.93
                            11 2.93   2 2.93   1 2.93   4 2.93
  11  0.444  0.111  0.315-  21 2.91  20 2.91  27 2.91  14 2.93  17 2.93  18 2.93   3 2.93  12 2.93
                            13 2.93  10 2.93   5 2.93   2 2.93
  12  0.778  0.111  0.315-  21 2.91  25 2.92  19 2.92  10 2.93  16 2.93  18 2.93  15 2.93  11 2.93
                             1 2.93  14 2.93   6 2.93   3 2.93
  13  0.111  0.444  0.315-  20 2.91  23 2.91  22 2.91  15 2.93  14 2.93  18 2.93  10 2.93  11 2.93
                            16 2.93   4 2.93   5 2.93   7 2.93
  14  0.444  0.444  0.315-  23 2.91  21 2.91  24 2.91  13 2.93  11 2.93  16 2.93   5 2.93  12 2.93
                            17 2.93   8 2.93  15 2.93   6 2.93
  15  0.778  0.444  0.315-  24 2.91  22 2.91  19 2.92  13 2.93  10 2.93  12 2.93  17 2.93  18 2.93
                             4 2.93   6 2.93   9 2.93  14 2.93
  16  0.111  0.778  0.315-  23 2.91  26 2.92  25 2.92  18 2.93  12 2.93  10 2.93  14 2.93  17 2.93
                            13 2.93   7 2.93   8 2.93   1 2.93
  17  0.444  0.778  0.315-  27 2.91  24 2.91  26 2.92  11 2.93  10 2.93   9 2.93  18 2.93  15 2.93
                            16 2.93   2 2.93  14 2.93   8 2.93
  18  0.778  0.778  0.315-  22 2.91  27 2.91  25 2.92  16 2.93  12 2.93  13 2.93  11 2.93  17 2.93
                            15 2.93   7 2.93   3 2.93   9 2.93
  19  0.889  0.223  0.413-  28 2.91  15 2.92  10 2.92  12 2.92  24 2.93  22 2.93  32 2.94  31 2.94
                            26 2.94  25 2.94  20 2.94  21 2.94
  20  0.223  0.223  0.412-  36 2.69  31 2.89  29 2.89  13 2.91  11 2.91  10 2.91  21 2.92  23 2.92
                            27 2.93  22 2.93  19 2.94  26 2.94
  21  0.554  0.223  0.412-  36 2.69  30 2.89  32 2.89  11 2.91  14 2.91  12 2.91  20 2.92  23 2.92
                            27 2.93  24 2.93  25 2.94  19 2.94
  22  0.889  0.556  0.412-  18 2.91  15 2.91  35 2.91  13 2.91  33 2.91  31 2.91  24 2.93  27 2.93
                            25 2.93  19 2.93  23 2.93  20 2.93
  23  0.223  0.554  0.412-  36 2.69  34 2.89  33 2.89  14 2.91  13 2.91  16 2.91  21 2.92  20 2.92
                            22 2.93  24 2.93  26 2.94  25 2.94
  24  0.556  0.556  0.412-  15 2.91  17 2.91  35 2.91  14 2.91  32 2.91  34 2.91  27 2.93  22 2.93
                            19 2.93  26 2.93  23 2.93  21 2.93
  25  0.889  0.889  0.413-  28 2.91  18 2.92  16 2.92  12 2.92  22 2.93  27 2.93  33 2.94  30 2.94
                            26 2.94  19 2.94  23 2.94  21 2.94
  26  0.223  0.889  0.413-  28 2.91  17 2.92  16 2.92  10 2.92  27 2.93  24 2.93  34 2.94  29 2.94
                            25 2.94  19 2.94  23 2.94  20 2.94
  27  0.556  0.889  0.412-  17 2.91  18 2.91  35 2.91  11 2.91  29 2.91  30 2.91  24 2.93  22 2.93
                            26 2.93  25 2.93  20 2.93  21 2.93
  28  0.000  0.000  0.510-  26 2.91  25 2.91  19 2.91  29 2.96  34 2.96  33 2.96  32 2.96  31 2.96
                            30 2.96
  29  0.333  0.007  0.510-  30 2.87  31 2.87  36 2.88  20 2.89  27 2.91  26 2.94  35 2.96  28 2.96
                            34 3.06
  30  0.659  0.007  0.510-  29 2.87  32 2.87  36 2.88  21 2.89  27 2.91  25 2.94  35 2.96  28 2.96
                            33 3.06
  31  0.007  0.333  0.510-  33 2.87  29 2.87  36 2.88  20 2.89  22 2.91  19 2.94  35 2.96  28 2.96
                            32 3.06
  32  0.659  0.333  0.510-  34 2.87  30 2.87  36 2.88  21 2.89  24 2.91  19 2.94  35 2.96  28 2.96
                            31 3.06
  33  0.007  0.659  0.510-  31 2.87  34 2.87  36 2.88  23 2.89  22 2.91  25 2.94  35 2.96  28 2.96
                            30 3.06
  34  0.333  0.659  0.510-  32 2.87  33 2.87  36 2.88  23 2.89  24 2.91  26 2.94  35 2.96  28 2.96
                            29 3.06
  35  0.667  0.667  0.510-  24 2.91  27 2.91  22 2.91  30 2.96  32 2.96  29 2.96  34 2.96  31 2.96
                            33 2.96
  36  0.333  0.333  0.498-  21 2.69  20 2.69  23 2.69  31 2.88  33 2.88  30 2.88  29 2.88  34 2.88
                            32 2.88
  37  0.328  0.333  0.650-  39 1.18  38 1.18
  38  0.194  0.333  0.647-  37 1.18
  39  0.461  0.333  0.653-  37 1.18

  LATTYP: Found a hexagonal cell.
 ALAT       =     8.7913665772
 C/A-ratio  =     2.7703738524

  Lattice vectors:

 A1 = (  -4.3956832886,  -7.6135467898,   0.0000000000)
 A2 = (   8.7913665771,   0.0000000000,   0.0000000000)
 A3 = (   0.0000000000,   0.0000000000,  24.3553720923)

Analysis of symmetry for initial positions (statically):
 Subroutine PRICEL returns:
 Original cell was already a primitive cell.

 Routine SETGRP: Setting up the symmetry group for a
 hexagonal supercell.

 Subroutine GETGRP returns: Found  1 space group operations
 (whereof  1 operations were pure point group operations)
 out of a pool of 24 trial point group operations.

The static configuration has the point symmetry C_1 .

Analysis of symmetry for dynamics (positions and initial velocities):
 Subroutine PRICEL returns:
 Original cell was already a primitive cell.

[...]

The dynamic configuration has the point symmetry C_1 .

Analysis of constrained symmetry for selective dynamics:
 Subroutine PRICEL returns:
 Original cell was already a primitive cell.

 Routine SETGRP: Setting up the symmetry group for a
 hexagonal supercell.

[...]
     41      -4.7296      2.00000
     42      -4.7126      2.00000
     43      -4.6938      2.00000
     44      -4.6634      2.00000
     45      -4.6543      2.00000
     46      -4.6394      2.00000
     47      -4.6275      2.00000
     48      -4.6111      2.00000
     49      -4.5517      2.00000
     50      -4.5195      2.00000
     51      -4.5148      2.00000
     52      -4.5024      2.00000
     53      -4.4970      2.00000
     54      -4.4922      2.00000
     55      -4.4784      2.00000
     56      -4.4686      2.00000
     57      -4.4449      2.00000
     58      -4.4416      2.00000
     59      -4.3815      2.00000
     60      -4.3733      2.00000
[...]
    238       5.3122      0.00000
    239       5.3822      0.00000
    240       5.4062      0.00000
    241       5.4584      0.00000
    242       5.7158      0.00000
    243       5.7828      0.00000
    244       5.8801      0.00000
    245       5.9185      0.00000
    246       5.9516      0.00000
    247       5.9967      0.00000
    248       6.2685      0.00000
    249       6.4371      0.00000
    250       6.5652      0.00000
    251       6.5738      0.00000
    252       6.7315      0.00000

 soft charge-density along one line, spin component           1
         0         1         2         3         4         5         6         7         8         9
 total charge-density along one line

------------------------ aborting loop because EDIFF is reached ----------------------------------------

 total charge

# of ion       s       p       d       tot
    1        0.415   0.204   9.177   9.796
    2        0.417   0.203   9.177   9.797
    3        0.417   0.203   9.177   9.797
    4        0.417   0.203   9.177   9.797
    5        0.415   0.203   9.177   9.795
    6        0.417   0.203   9.177   9.797
    7        0.417   0.203   9.177   9.797
    8        0.417   0.203   9.177   9.797
    9        0.417   0.203   9.177   9.797
   10        0.406   0.269   9.164   9.839
   11        0.407   0.269   9.166   9.842
   12        0.406   0.269   9.164   9.839
   13        0.406   0.269   9.167   9.842
   14        0.407   0.269   9.167   9.842
   15        0.405   0.269   9.166   9.840
   16        0.406   0.269   9.164   9.839
   17        0.405   0.269   9.166   9.840
   18        0.405   0.269   9.166   9.840
   19        0.402   0.267   9.167   9.836
   20        0.415   0.286   9.157   9.858
   21        0.415   0.286   9.157   9.858
   22        0.402   0.273   9.166   9.841
   23        0.415   0.286   9.156   9.858
   24        0.402   0.273   9.166   9.841
   25        0.403   0.267   9.167   9.837
   26        0.403   0.267   9.167   9.837
   27        0.402   0.273   9.166   9.842
   28        0.412   0.194   9.181   9.787
   29        0.417   0.203   9.175   9.795
   30        0.417   0.203   9.175   9.795
   31        0.414   0.202   9.176   9.793
   32        0.415   0.202   9.176   9.793
   33        0.417   0.203   9.175   9.795
   34        0.417   0.203   9.175   9.795
   35        0.411   0.195   9.181   9.787
   36        0.379   0.201   8.416   8.996
   37        0.932   1.798   0.000   2.730
   38        1.607   3.528   0.000   5.135
   39        1.607   3.529   0.000   5.136
tot         18.906  17.388 329.383 365.677

  FORCE on cell =-STRESS in cart. coord.  units (eV):
  Direction    XX          YY          ZZ          XY          YZ          ZX
  Alpha Z   712.04114   712.04114   712.04114
  Ewald  150142.13160149347.01984************    -0.25827    -0.00914    44.83633
  Hartree160357.07437159979.37134************    -0.12468     0.00272    20.60868
  E(xc)   -2157.18746 -2159.29299 -2164.69595    -0.00071    -0.00066     0.11915
  Local  ************************320562.37899     0.36495    -0.01322   -61.40393
  n-local  -388.41971  -382.56118  -387.42870     0.00415     0.01210    -0.31929
  augment  3407.35664  3409.99872  3419.62623    -0.00134     0.00799    -0.15422
  Kinetic  5121.94660  5187.10067  5213.34408     0.02052     0.01041    -3.67518
  Fock        0.00000     0.00000     0.00000     0.00000     0.00000     0.00000
  Total      -9.29865    -9.29118    -0.47131     0.00462     0.01019     0.01155
  in kB      -9.13887    -9.13153    -0.46321     0.00454     0.01001     0.01135

 VOLUME and BASIS-vectors are now :
  energy-cutoff  :      500.00
  volume of cell :     1630.19
      direct lattice vectors                 reciprocal lattice vectors
     8.791366577  0.000000000  0.000000000     0.113747958 -0.065672414  0.000000000
     4.395683289  7.613546790  0.000000000     0.000000000  0.131344829  0.000000000
     0.000000000  0.000000000 24.355372092     0.000000000  0.000000000  0.041058703

  length of vectors
     8.791366577  8.791366577 24.355372092     0.131344829  0.131344829  0.041058703

 FORCES acting on ions
    electron-ion (+dipol)            ewald-force                    non-local-force                 convergence-correction
   0.645E-02 0.241E-01 0.271E+04   -.398E-02 -.182E-01 -.270E+04   -.962E-03 -.690E-02 -.193E+01   -.166E-02 0.245E-03 -.187E+00
   0.468E+00 0.563E+00 0.271E+04   -.577E+00 -.570E+00 -.271E+04   0.472E-01 -.627E-02 -.166E+01   0.593E-01 0.141E-01 -.144E+00
   -.473E+00 0.550E+00 0.271E+04   0.581E+00 -.563E+00 -.271E+04   -.459E-01 -.741E-02 -.165E+01   -.588E-01 0.218E-01 -.140E+00
   0.704E+00 0.136E+00 0.271E+04   -.769E+00 -.227E+00 -.271E+04   0.260E-01 0.430E-01 -.167E+01   0.387E-01 0.447E-01 -.149E+00
   -.193E-01 -.963E-02 0.271E+04   0.796E-02 -.411E-04 -.271E+04   -.285E-02 0.504E-03 -.164E+01   0.146E-01 0.886E-02 -.193E+00
   -.690E+00 0.135E+00 0.271E+04   0.761E+00 -.228E+00 -.271E+04   -.250E-01 0.419E-01 -.167E+01   -.460E-01 0.468E-01 -.141E+00
   0.222E+00 -.698E+00 0.271E+04   -.183E+00 0.798E+00 -.271E+04   -.258E-01 -.361E-01 -.165E+01   -.999E-02 -.608E-01 -.138E+00
   -.230E+00 -.686E+00 0.271E+04   0.187E+00 0.791E+00 -.271E+04   0.250E-01 -.361E-01 -.165E+01   0.153E-01 -.659E-01 -.136E+00
   0.134E-01 -.151E-01 0.271E+04   -.383E-02 0.182E-01 -.271E+04   0.286E-02 0.679E-02 -.173E+01   -.129E-01 -.929E-02 -.119E+00
   0.512E+01 0.308E+01 0.970E+03   -.492E+01 -.299E+01 -.969E+03   -.134E+00 -.744E-01 -.663E+00   -.434E-01 -.130E-01 0.344E-01
   -.563E-01 0.598E+01 0.980E+03   0.436E-01 -.602E+01 -.979E+03   -.248E-02 0.114E-01 -.504E+00   0.155E-01 0.157E-01 0.535E-01
   -.506E+01 0.304E+01 0.970E+03   0.488E+01 -.295E+01 -.969E+03   0.135E+00 -.743E-01 -.657E+00   0.344E-01 -.504E-02 0.384E-01
   0.503E+01 -.303E+01 0.980E+03   -.506E+01 0.304E+01 -.979E+03   0.829E-02 -.745E-02 -.506E+00   0.128E-01 0.375E-02 0.550E-01
   -.511E+01 -.301E+01 0.980E+03   0.512E+01 0.302E+01 -.979E+03   -.128E-01 -.787E-02 -.503E+00   0.108E-01 0.179E-03 0.572E-01
   0.633E-01 0.121E+01 0.971E+03   -.532E-01 -.120E+01 -.971E+03   0.566E-04 0.625E-02 -.648E+00   -.103E-01 -.267E-01 0.372E-01
   -.126E-01 -.591E+01 0.970E+03   0.100E-01 0.571E+01 -.969E+03   0.416E-04 0.153E+00 -.645E+00   0.249E-02 0.334E-01 0.389E-01
   0.112E+01 -.653E+00 0.971E+03   -.112E+01 0.666E+00 -.971E+03   0.967E-02 -.467E-02 -.619E+00   -.197E-01 -.365E-02 0.382E-01
   -.111E+01 -.718E+00 0.971E+03   0.111E+01 0.721E+00 -.971E+03   -.961E-02 -.513E-02 -.620E+00   0.174E-01 0.700E-02 0.394E-01
   0.380E+00 0.429E+01 -.801E+03   -.372E+00 -.427E+01 0.801E+03   0.368E-02 -.381E-02 0.565E+00   -.120E-01 -.128E-01 0.312E-01
   0.346E+02 0.209E+02 -.750E+03   -.341E+02 -.206E+02 0.751E+03   -.570E+00 -.325E+00 -.473E+00   0.267E-01 0.206E-01 -.560E-01
   -.350E+02 0.207E+02 -.751E+03   0.345E+02 -.204E+02 0.751E+03   0.563E+00 -.323E+00 -.470E+00   -.134E-02 0.278E-01 -.557E-01
   0.139E+02 -.904E+01 -.787E+03   -.141E+02 0.914E+01 0.787E+03   0.143E+00 -.961E-01 0.483E+00   0.866E-02 -.944E-02 0.640E-02
   -.331E+00 -.413E+02 -.751E+03   0.314E+00 0.407E+02 0.752E+03   -.211E-02 0.647E+00 -.460E+00   0.193E-01 -.151E-01 -.603E-01
   -.136E+02 -.875E+01 -.788E+03   0.138E+02 0.887E+01 0.787E+03   -.143E+00 -.954E-01 0.481E+00   -.205E-01 -.157E-01 0.985E-02
   -.318E+01 -.167E+01 -.803E+03   0.314E+01 0.166E+01 0.802E+03   0.135E-01 0.734E-02 0.544E+00   0.221E-01 0.116E-01 0.307E-01
   0.324E+01 -.129E+01 -.803E+03   -.321E+01 0.128E+01 0.802E+03   -.126E-01 0.112E-01 0.546E+00   -.226E-01 -.267E-02 0.318E-01
   -.673E-01 0.161E+02 -.789E+03   0.690E-01 -.163E+02 0.788E+03   -.580E-03 0.174E+00 0.486E+00   -.116E-02 0.999E-02 0.117E-01
   0.101E+01 0.524E+01 -.256E+04   -.100E+01 -.525E+01 0.255E+04   -.119E-02 -.260E-02 0.204E+01   -.466E-02 0.642E-02 0.103E+00
   0.286E+02 0.596E+02 -.254E+04   -.281E+02 -.588E+02 0.254E+04   -.466E+00 -.712E+00 0.185E+01   -.327E-01 -.125E+00 0.476E-01
   -.297E+02 0.571E+02 -.254E+04   0.292E+02 -.563E+02 0.254E+04   0.463E+00 -.719E+00 0.184E+01   0.507E-01 -.113E+00 0.451E-01
   0.653E+02 0.226E+00 -.253E+04   -.643E+02 -.210E+00 0.252E+04   -.792E+00 -.250E-01 0.203E+01   -.140E+00 0.111E-01 0.504E-01
   -.617E+02 0.216E+00 -.253E+04   0.608E+02 -.203E+00 0.253E+04   0.811E+00 -.256E-01 0.198E+01   0.130E+00 0.141E-01 0.431E-01
   0.283E+02 -.599E+02 -.254E+04   -.278E+02 0.590E+02 0.254E+04   -.420E+00 0.736E+00 0.185E+01   -.734E-01 0.108E+00 0.457E-01
   -.294E+02 -.573E+02 -.254E+04   0.289E+02 0.565E+02 0.254E+04   0.415E+00 0.743E+00 0.184E+01   0.981E-01 0.101E+00 0.412E-01
   0.102E+01 -.524E+01 -.256E+04   -.101E+01 0.524E+01 0.255E+04   0.204E-02 0.611E-02 0.202E+01   -.186E-01 -.329E-02 0.736E-01
   -.260E+01 0.109E-01 -.215E+04   0.261E+01 -.120E-01 0.215E+04   -.242E-01 -.191E-02 0.208E+01   0.209E-01 0.618E-02 0.893E-01
   0.172E+00 -.375E-02 -.904E+03   -.220E+00 0.420E-02 0.904E+03   0.447E-01 0.912E-03 0.223E-01   -.265E-03 -.235E-03 0.641E-02
   0.261E+03 -.895E-01 -.136E+04   -.325E+03 0.112E+00 0.136E+04   0.634E+02 -.245E-01 0.353E+01   -.842E-02 -.154E-02 0.105E-01
   -.262E+03 0.847E-01 -.136E+04   0.326E+03 -.108E+00 0.136E+04   -.635E+02 0.209E-01 -.357E+01   0.109E-01 0.248E-02 0.168E-01
   0.794E-01 -.228E-01 0.164E+01   0.568E-13 0.201E-13 -.682E-12   -.153E+00 -.109E-01 -.140E+01   0.706E-01 0.326E-01 -.433E+00

 POSITION                                       TOTAL-FORCE (eV/Angst)
      0.00000      0.00000      5.28219        -0.000067     -0.000725      0.034904
      2.93046      0.00000      5.28219        -0.003114      0.001011      0.028724
      5.86091      0.00000      5.28219         0.003406      0.001237      0.028878
      1.46523      2.53785      5.28219         0.000106     -0.003816      0.027285
      4.39568      2.53785      5.28219         0.000557     -0.000274      0.021744
      7.32614      2.53785      5.28219        -0.000144     -0.003734      0.027364
      2.93046      5.07570      5.28219         0.002991      0.002886      0.027862
      5.86091      5.07570      5.28219        -0.002591      0.002635      0.027987
      8.79137      5.07570      5.28219        -0.000406      0.000633      0.027699
      1.46523      0.84595      7.67490         0.014764      0.008370     -0.011948
      4.39568      0.84595      7.67490         0.000352     -0.011573     -0.056609
      7.32614      0.84595      7.67490        -0.014619      0.008463     -0.011245
      2.93046      3.38380      7.67490        -0.010007      0.006987     -0.056814
      5.86091      3.38380      7.67490         0.010666      0.006878     -0.056553
      8.79137      3.38380      7.67490         0.000043     -0.010887     -0.020712
      4.39568      5.92165      7.67490         0.000082     -0.017591     -0.009786
      7.32614      5.92165      7.67490        -0.010149      0.005120     -0.018933
     10.25659      5.92165      7.67490         0.010334      0.005078     -0.018829
      8.79137      1.69533     10.05818         0.000395     -0.000585      0.021818
      2.93805      1.69629     10.04232         0.002275      0.000678      0.008324
      5.85331      1.69629     10.04232        -0.002438      0.000474      0.008298
     10.25424      4.23111     10.04634        -0.006021      0.003826      0.004973
      4.39568      4.22098     10.04232        -0.000018     -0.005118      0.008843
      7.32849      4.23111     10.04634         0.006748      0.004471      0.003743
     11.71886      6.76588     10.05818        -0.001358      0.001233      0.014379
      5.86388      6.76588     10.05818         0.001608      0.001202      0.014809
      8.79137      6.76488     10.04634         0.000031     -0.007636     -0.000946
      0.00000      0.00000     12.42348        -0.000259     -0.004122      0.009517
      2.96241      0.05505     12.41819         0.009335      0.000844     -0.010003
      5.82895      0.05505     12.41819        -0.008467      0.003922     -0.007252
      1.52888      2.53800     12.41819         0.004550      0.001891     -0.006644
      7.26249      2.53800     12.41819        -0.008214      0.001664     -0.002722
      2.96215      5.02050     12.41819         0.007521     -0.002686     -0.010032
      5.82922      5.02050     12.41819        -0.006529     -0.005248     -0.006822
      8.79137      5.07570     12.42030        -0.000590      0.003883     -0.006113
      4.39568      2.53785     12.13895         0.003473      0.003228     -0.027494
      4.34513      2.53825     15.83146        -0.004084      0.001148     -0.002305
      3.16924      2.53864     15.76779         0.005142     -0.003537      0.000269
      5.51985      2.53785     15.89985        -0.005303     -0.000233     -0.005657
    total drift:                               -0.003381     -0.001090     -0.190355

  FREE ENERGIE OF THE ION-ELECTRON SYSTEM (eV)
  free  energy   TOTEN  =      -116.44869259 eV

  energy  without entropy=     -116.44869259  energy(sigma->0) =     -116.44869259

 stress matrix after NEB project (eV)
     -9.29865      0.00462      0.01155
      0.00462     -9.29118      0.01019
      0.01155      0.01019     -0.47131
  FORCES: max atom, RMS     0.007758    0.001772
  FORCE total and by dimension    0.011069    0.005657
  Stress total and by dimension   13.153464    9.298650
|           W    W    AA    RRRRR   N    N  II  N    N   GGGG   !!!           |
|           W    W   A  A   R    R  NN   N  II  NN   N  G    G  !!!           |
|           W    W  A    A  R    R  N N  N  II  N N  N  G       !!!           |
|           W WW W  AAAAAA  RRRRR   N  N N  II  N  N N  G  GGG   !            |
|           WW  WW  A    A  R   R   N   NN  II  N   NN  G    G                |
|           W    W  A    A  R    R  N    N  II  N    N   GGGG   !!!           |
|     Tetrahedron method does not include variations of the Fermi             |
|     occupations, so forces and stress will be inaccurate. We suggest        |
|     using a different smearing scheme ISMEAR = 1 or 2 for metals in         |
|     relaxations.                                                            |

 total charge

# of ion       s       p       d       tot
    1        0.415   0.204   9.177   9.796
    2        0.417   0.203   9.177   9.797
    3        0.417   0.203   9.177   9.797
    4        0.417   0.203   9.177   9.797
    5        0.415   0.203   9.177   9.795
    6        0.417   0.203   9.177   9.797
    7        0.417   0.203   9.177   9.797
    8        0.417   0.203   9.177   9.797
    9        0.417   0.203   9.177   9.797
   10        0.406   0.269   9.164   9.839
   11        0.407   0.269   9.166   9.842
   12        0.406   0.269   9.164   9.839
   13        0.406   0.269   9.167   9.842
   14        0.407   0.269   9.167   9.842
   15        0.405   0.269   9.166   9.840
   16        0.406   0.269   9.164   9.839
   17        0.405   0.269   9.166   9.840
   18        0.405   0.269   9.166   9.840
   19        0.402   0.267   9.167   9.836
   20        0.415   0.286   9.157   9.858
   21        0.415   0.286   9.157   9.858
   22        0.402   0.273   9.166   9.841
   23        0.415   0.286   9.156   9.858
   24        0.402   0.273   9.166   9.841
   25        0.403   0.267   9.167   9.837
   26        0.403   0.267   9.167   9.837
   27        0.402   0.273   9.166   9.842
   28        0.412   0.194   9.181   9.787
   29        0.417   0.203   9.175   9.795
   30        0.417   0.203   9.175   9.795
   31        0.414   0.202   9.176   9.793
   32        0.415   0.202   9.176   9.793
   33        0.417   0.203   9.175   9.795
   34        0.417   0.203   9.175   9.795
   35        0.411   0.195   9.181   9.787
   36        0.379   0.201   8.416   8.996
   37        0.932   1.798   0.000   2.730
   38        1.607   3.528   0.000   5.135
   39        1.607   3.529   0.000   5.136
tot         18.906  17.388 329.383 365.677

 BZINTS: Fermi energy:    0.462012;  411.000000 electrons
         Band energy:-0.156568E+04;  BLOECHL correction:   -0.075860