 vasp.6.2.0 18Jan21 (build Jun 12 2021 23:27:24) complex

 executed on             LinuxIFC date 2022.05.26  20:26:42

 INCAR:
   ISMEAR = -5
   SIGMA = 0.1
   ISPIN = 1
   EDIFF = 1.d-5
   EDIFFG = -0.01
   NSW = 0
   NELM = 150
   ENCUT = 500
   ISIF = 2
   IBRION = 2
   LREAL = Auto
   ALGO = Fast
   ICHARG = 11
   LORBIT = 10
   LCHARG = .F.
   LWAVE = .F.

 POTCAR:    PAW_PBE Cu 22Jun2005
 POTCAR:    PAW_PBE Zr_sv 04Jan2005
|           W    W    AA    RRRRR   N    N  II  N    N   GGGG   !!!           |
|           W    W   A  A   R    R  NN   N  II  NN   N  G    G  !!!           |
|           W    W  A    A  R    R  N N  N  II  N N  N  G       !!!           |
|           W WW W  AAAAAA  RRRRR   N  N N  II  N  N N  G  GGG   !            |
|           WW  WW  A    A  R   R   N   NN  II  N   NN  G    G                |
|           W    W  A    A  R    R  N    N  II  N    N   GGGG   !!!           |
|     For optimal performance we recommend to set                             |
|       NCORE = 2 up to number-of-cores-per-socket                            |
|     This setting can greatly improve the performance of VASP for DFT.       |
|     The default, NCORE=1 might be grossly inefficient on modern             |
|     multi-core architectures or massively parallel machines. Do your        |
|     Unfortunately you need to use the default for GW and RPA                |
|     calculations (for HF NCORE is supported but not extensively tested      |
|     yet).                                                                   |

 POTCAR:    PAW_PBE Cu 22Jun2005
   VRHFIN =Cu: d10 p1

   TITEL  = PAW_PBE Cu 22Jun2005
   POMASS =   63.546; ZVAL   =   11.000    mass and valenz
   ENMAX  =  295.446; ENMIN  =  221.585 eV

 POTCAR:    PAW_PBE Zr_sv 04Jan2005
   VRHFIN =Zr: 4s4p5s4d

   TITEL  = PAW_PBE Zr_sv 04Jan2005
   POMASS =   91.224; ZVAL   =   12.000    mass and valenz
   ENMAX  =  229.898; ENMIN  =  172.424 eV

 Optimization of the real space projectors (new method)

 maximal supplied QI-value         = 16.25
 optimisation between [QCUT,QGAM] = [ 11.38, 22.75] = [ 36.24,144.96] Ry
 Optimized for a Real-space Cutoff    1.52 Angstroem

   l    n(q)    QCUT    max X(q) W(low)/X(q) W(high)/X(q)  e(spline)
   2      9    11.376     4.610    0.21E-03    0.10E-03    0.26E-06
   2      9    11.376     8.522    0.33E-03    0.16E-03    0.37E-06
   0     10    11.376    51.609    0.62E-04    0.20E-04    0.13E-06
   0     10    11.376    27.747    0.54E-04    0.20E-04    0.13E-06
   1     10    11.376    20.408    0.13E-04    0.99E-04    0.19E-06
   1     10    11.376    13.425    0.12E-04    0.87E-04    0.17E-06
 Optimization of the real space projectors (new method)

 maximal supplied QI-value         = 15.12
 optimisation between [QCUT,QGAM] = [ 11.34, 22.83] = [ 36.00,145.93] Ry
 Optimized for a Real-space Cutoff    1.47 Angstroem

   l    n(q)    QCUT    max X(q) W(low)/X(q) W(high)/X(q)  e(spline)
   0     10    11.338    12.107    0.38E-04    0.13E-04    0.27E-07
   0     10    11.338     9.948    0.69E-04    0.30E-04    0.38E-07
   1     10    11.338     3.563    0.26E-04    0.18E-04    0.40E-07
   1     10    11.338     4.524    0.25E-03    0.39E-04    0.44E-06
   2      9    11.338    87.261    0.26E-03    0.91E-05    0.26E-06
   2      9    11.338    70.950    0.25E-03    0.91E-05    0.25E-06
  PAW_PBE Cu 22Jun2005                  :
  PAW_PBE Zr_sv 04Jan2005               :

 POSCAR: Cu-Zr
  positions in direct lattice
  velocities in cartesian coordinates
 exchange correlation table for  LEXCH =        8
   RHO(1)=    0.500       N(1)  =     2000
   RHO(2)=  100.500       N(2)  =     4000

 VTST: version 3.2, (02/03/18)

 CHAIN: initializing optimizer

 OPT: Using VASP Conjugate-Gradient optimizer
 CHAIN: Read ICHAIN            0

 POSCAR: Cu-Zr
  positions in direct lattice
  velocities in cartesian coordinates

 ion  position               nearest neighbor table
   1  0.000  0.000  0.252-   7 2.57   3 2.57   4 2.57   2 2.57   6 2.57   8 2.57  12 2.57  10 2.57
                            16 2.57
   2  0.333  0.000  0.252-   8 2.57   9 2.57   5 2.57   1 2.57   3 2.57  11 2.57   4 2.57  10 2.57
                            17 2.57
   3  0.667  0.000  0.252-   1 2.57   7 2.57   6 2.57   9 2.57   2 2.57  12 2.57   5 2.57  18 2.57
                            11 2.57
   4  0.000  0.333  0.252-   5 2.57   6 2.57   1 2.57   7 2.57   2 2.57  13 2.57   9 2.57  10 2.57
                            15 2.57
   5  0.333  0.333  0.252-   4 2.57   2 2.57   7 2.57  13 2.57   8 2.57   6 2.57   3 2.57  11 2.57
                            14 2.57
   6  0.667  0.333  0.252-   4 2.57   9 2.57  15 2.57   3 2.57   1 2.57   8 2.57  14 2.57   5 2.57
                            12 2.57
   7  0.000  0.667  0.252-   1 2.57   3 2.57  16 2.57  18 2.57   4 2.57   5 2.57   8 2.57   9 2.57
                            13 2.57
   8  0.333  0.667  0.252-   9 2.57   2 2.57  17 2.57   6 2.57   1 2.57   7 2.57   5 2.57  14 2.57
                            16 2.57
   9  0.667  0.667  0.252-   8 2.57   6 2.57   2 2.57  17 2.57   3 2.57   7 2.57   4 2.57  15 2.57
                            18 2.57
  10  0.111  0.111  0.351-  26 2.54  19 2.54  11 2.57  12 2.57  13 2.57   1 2.57   2 2.57   4 2.57
                            15 2.57  16 2.57  17 2.57  20 2.59
  11  0.444  0.111  0.351-  27 2.56  10 2.57  13 2.57   2 2.57  17 2.57  14 2.57  12 2.57   5 2.57
                             3 2.57  18 2.57  20 2.58  21 2.58
  12  0.778  0.111  0.351-  19 2.54  25 2.54  15 2.57  10 2.57  14 2.57  18 2.57   3 2.57   1 2.57
                            16 2.57  11 2.57   6 2.57  21 2.59
  13  0.111  0.444  0.351-  22 2.56  16 2.57  18 2.57  10 2.57  11 2.57  14 2.57   5 2.57   4 2.57
                             7 2.57  15 2.57  23 2.58  20 2.58
  14  0.444  0.444  0.351-  24 2.56  15 2.57  17 2.57  12 2.57  16 2.57  13 2.57  11 2.57   6 2.57
                             8 2.57   5 2.57  21 2.58  23 2.58
  15  0.778  0.444  0.351-  19 2.54  24 2.56  22 2.56  14 2.57  17 2.57  12 2.57   6 2.57  18 2.57
                            10 2.57   9 2.57  13 2.57   4 2.57
  16  0.111  0.778  0.351-  25 2.54  26 2.54  18 2.57  13 2.57   7 2.57  14 2.57  17 2.57  12 2.57
                            10 2.57   8 2.57   1 2.57  23 2.59
  17  0.444  0.778  0.351-  26 2.54  27 2.56  24 2.56  14 2.57  15 2.57   8 2.57   9 2.57  11 2.57
                            16 2.57  18 2.57  10 2.57   2 2.57
  18  0.778  0.778  0.351-  25 2.54  22 2.56  27 2.56  16 2.57  13 2.57   7 2.57  15 2.57  12 2.57
                            17 2.57   9 2.57   3 2.57  11 2.57
  19  0.889  0.221  0.448-  12 2.54  10 2.54  15 2.54  25 2.55  26 2.55  32 2.56  31 2.56  22 2.57
                            24 2.57  28 2.57  21 2.58  20 2.58
  20  0.223  0.223  0.450-  23 2.55  21 2.55  29 2.57  31 2.57  27 2.57  22 2.57  26 2.58  19 2.58
                            11 2.58  13 2.58  10 2.59  36 2.86
  21  0.554  0.223  0.450-  20 2.55  23 2.55  32 2.57  30 2.57  24 2.57  27 2.57  19 2.58  25 2.58
                            14 2.58  11 2.58  12 2.59  36 2.86
  22  0.889  0.556  0.449-  18 2.56  15 2.56  13 2.56  31 2.56  33 2.56  24 2.57  27 2.57  23 2.57
                            20 2.57  19 2.57  25 2.57  35 2.58
  23  0.223  0.554  0.450-  20 2.55  21 2.55  33 2.57  34 2.57  22 2.57  24 2.57  25 2.58  26 2.58
                            13 2.58  14 2.58  16 2.59  36 2.86
  24  0.556  0.556  0.449-  15 2.56  17 2.56  14 2.56  32 2.56  34 2.56  22 2.57  27 2.57  21 2.57
                            23 2.57  19 2.57  26 2.57  35 2.58
  25  0.889  0.889  0.448-  12 2.54  16 2.54  18 2.54  19 2.55  26 2.55  33 2.56  30 2.56  22 2.57
                            27 2.57  28 2.57  21 2.58  23 2.58
  26  0.221  0.889  0.448-  10 2.54  16 2.54  17 2.54  25 2.55  19 2.55  29 2.56  34 2.56  27 2.57
                            24 2.57  28 2.57  20 2.58  23 2.58
  27  0.556  0.889  0.449-  17 2.56  18 2.56  11 2.56  29 2.56  30 2.56  24 2.57  22 2.57  20 2.57
                            21 2.57  26 2.57  25 2.57  35 2.58
  28  0.000  0.000  0.547-  33 2.55  30 2.55  31 2.55  29 2.55  32 2.55  34 2.55  25 2.57  19 2.57
                            26 2.57
  29  0.334  0.994  0.547-  34 2.47  35 2.54  28 2.55  27 2.56  26 2.56  20 2.57  30 2.60  31 2.62
                            36 2.64
  30  0.672  0.994  0.547-  33 2.47  35 2.54  28 2.55  27 2.56  25 2.56  21 2.57  29 2.60  32 2.62
                            36 2.64
  31  0.994  0.334  0.547-  32 2.47  35 2.54  28 2.55  22 2.56  19 2.56  20 2.57  33 2.60  29 2.62
                            36 2.64
  32  0.672  0.334  0.547-  31 2.47  35 2.54  28 2.55  24 2.56  19 2.56  21 2.57  34 2.60  30 2.62
                            36 2.64
  33  0.994  0.672  0.547-  30 2.47  35 2.54  28 2.55  22 2.56  25 2.56  23 2.57  31 2.60  34 2.62
                            36 2.64
  34  0.334  0.672  0.547-  29 2.47  35 2.54  28 2.55  24 2.56  26 2.56  23 2.57  32 2.60  33 2.62
                            36 2.64
  35  0.667  0.667  0.548-  34 2.54  32 2.54  29 2.54  30 2.54  33 2.54  31 2.54  24 2.58  27 2.58
                            22 2.58
  36  0.333  0.333  0.565-  31 2.64  29 2.64  33 2.64  32 2.64  34 2.64  30 2.64  23 2.86  20 2.86
                            21 2.86

  LATTYP: Found a hexagonal cell.
 ALAT       =     7.6967864036
 C/A-ratio  =     2.7653617908

  Lattice vectors:

 A1 = (  -3.8483927580,  -6.6656128093,   0.0000000000)
 A2 = (   7.6967864037,   0.0000000000,   0.0000000000)
 A3 = (   0.0000000000,   0.0000000000,  21.2843990326)

Analysis of symmetry for initial positions (statically):
 Subroutine PRICEL returns:
 Original cell was already a primitive cell.

 Routine SETGRP: Setting up the symmetry group for a
 hexagonal supercell.

 Subroutine GETGRP returns: Found  6 space group operations
 (whereof  6 operations were pure point group operations)
 out of a pool of 24 trial point group operations.

The static configuration has the point symmetry C_3v.

Analysis of symmetry for dynamics (positions and initial velocities):
 Subroutine PRICEL returns:
 Original cell was already a primitive cell.

[...]

The dynamic configuration has the point symmetry C_3v.

Analysis of constrained symmetry for selective dynamics:
 Subroutine PRICEL returns:
 Original cell was already a primitive cell.

 Routine SETGRP: Setting up the symmetry group for a
 hexagonal supercell.

 Subroutine GETGRP returns: Found  6 space group operations
 (whereof  6 operations were pure point group operations)
 out of a pool of 24 trial point group operations.

The constrained configuration has the point symmetry C_3v.

 Subroutine INISYM returns: Found  6 space group operations
 (whereof  6 operations are pure point group operations),
 and found     1 'primitive' translations

                                     Primitive cell

  volume of cell :    1091.9705

  direct lattice vectors                    reciprocal lattice vectors
     7.696786404  0.000000000  0.000000000     0.129924354 -0.075011849  0.000000000
     3.848392758  6.665612809  0.000000000     0.000000000  0.150023716  0.000000000
[...]
     15      -4.4950      2.00000
     16      -4.3798      2.00000
     17      -4.3135      2.00000
     18      -4.2575      2.00000
     19      -4.2123      2.00000
     20      -4.2066      2.00000
     21      -4.1850      2.00000
     22      -4.1272      2.00000
     23      -4.1117      2.00000
     24      -4.0692      2.00000
     25      -4.0536      2.00000
     26      -4.0433      2.00000
     27      -3.9914      2.00000
     28      -3.8953      2.00000
     29      -3.8273      2.00000
     30      -3.8111      2.00000
     31      -3.8044      2.00000
     32      -3.7684      2.00000
     33      -3.7469      2.00000
     34      -3.7436      2.00000
     35      -3.7353      2.00000
     36      -3.7323      2.00000
     37      -3.6928      2.00000
     38      -3.6495      2.00000
     39      -3.6083      2.00000
     40      -3.5849      2.00000
     41      -3.4403      2.00000
     42      -3.4214      2.00000
     43      -3.3885      2.00000
     44      -3.3674      2.00000
     45      -3.3442      2.00000
     46      -3.3376      2.00000
     47      -3.3304      2.00000
     48      -3.3201      2.00000
     49      -3.3026      2.00000
     50      -3.1761      2.00000
     51      -3.1558      2.00000
     52      -3.1350      2.00000
     53      -3.1137      2.00000
     54      -3.0601      2.00000
     55      -3.0458      2.00000
     56      -3.0359      2.00000
     57      -3.0182      2.00000
     58      -3.0081      2.00000
     59      -3.0062      2.00000
     60      -2.9856      2.00000
[...]
    238       6.4342      0.00000
    239       6.8463      0.00000
    240       6.8908      0.00000
    241       7.0016      0.00000
    242       7.0132      0.00000
    243       7.0591      0.00000
    244       7.1461      0.00000
    245       7.1601      0.00000
    246       7.4073      0.00000
    247       7.5238      0.00000
    248       7.6204      0.00000
    249       7.6927      0.00000
    250       7.8371      0.00000
    251       7.8675      0.00000
    252       8.1538      0.00000

 soft charge-density along one line, spin component           1
         0         1         2         3         4         5         6         7         8         9
 total charge-density along one line

------------------------ aborting loop because EDIFF is reached ----------------------------------------

 total charge

# of ion       s       p       d       tot
    1        0.450   0.283   9.188   9.921
    2        0.448   0.286   9.186   9.920
    3        0.448   0.286   9.186   9.920
    4        0.448   0.286   9.186   9.920
    5        0.448   0.286   9.182   9.916
    6        0.448   0.286   9.186   9.920
    7        0.448   0.286   9.186   9.920
    8        0.448   0.286   9.186   9.920
    9        0.450   0.284   9.186   9.921
   10        0.443   0.372   9.176   9.990
   11        0.440   0.364   9.181   9.986
   12        0.443   0.372   9.176   9.990
   13        0.440   0.364   9.181   9.986
   14        0.440   0.364   9.181   9.986
   15        0.440   0.372   9.177   9.989
   16        0.443   0.372   9.176   9.990
   17        0.440   0.372   9.177   9.989
   18        0.440   0.372   9.177   9.989
   19        0.446   0.374   9.179   9.999
   20        0.454   0.380   9.160   9.994
   21        0.454   0.380   9.160   9.994
   22        0.435   0.376   9.178   9.989
   23        0.454   0.380   9.160   9.994
   24        0.435   0.376   9.178   9.989
   25        0.446   0.374   9.179   9.999
   26        0.446   0.374   9.179   9.999
   27        0.435   0.376   9.178   9.989
   28        0.442   0.300   9.179   9.921
   29        0.489   0.326   9.157   9.971
   30        0.489   0.326   9.157   9.971
   31        0.489   0.326   9.157   9.971
   32        0.489   0.326   9.157   9.971
   33        0.489   0.326   9.157   9.971
   34        0.489   0.326   9.157   9.971
   35        0.441   0.306   9.179   9.925
   36        2.226   5.954   1.608   9.788
tot         18.050  17.795 322.732 358.576

  FORCE on cell =-STRESS in cart. coord.  units (eV):
  Direction    XX          YY          ZZ          XY          YZ          ZX
  Alpha Z   886.24823   886.24823   886.24823
  Ewald  173871.88181173871.88138************     0.00038     0.00013     0.00020
  Hartree186986.35718186986.35716************     0.00003     0.00006     0.00007
  E(xc)   -2297.19911 -2297.19862 -2302.21824    -0.00042    -0.00003    -0.00006
  Local  ************************374516.11789     0.01825    -0.00057    -0.00092
  n-local  -772.41685  -761.35654  -770.89886     6.34799    -0.38750     0.29121
  augment  3310.55180  3310.57141  3330.07804    -0.01698     0.00026     0.00043
  Kinetic  3360.79287  3361.22046  3376.85229     0.72008     2.12512    -1.56780
  Fock        0.00000     0.00000     0.00000     0.00000     0.00000     0.00000
  Total      -6.53463    -6.53463    -2.08055     0.00000    -0.00000    -0.00000
  in kB      -9.58784    -9.58784    -3.05265     0.00000    -0.00000    -0.00000

 VOLUME and BASIS-vectors are now :
  energy-cutoff  :      500.00
  volume of cell :     1091.97
      direct lattice vectors                 reciprocal lattice vectors
     7.696786404  0.000000000  0.000000000     0.129924354 -0.075011849  0.000000000
     3.848392758  6.665612809  0.000000000     0.000000000  0.150023716  0.000000000
     0.000000000  0.000000000 21.284399033     0.000000000  0.000000000  0.046982769

  length of vectors
     7.696786404  7.696786404 21.284399033     0.150023716  0.150023716  0.046982769

 FORCES acting on ions
    electron-ion (+dipol)            ewald-force                    non-local-force                 convergence-correction
   -.410E-04 0.477E-06 0.349E+04   0.579E-04 -.429E-05 -.348E+04   0.894E-19 -.471E-17 -.219E+01   -.334E-03 -.160E-03 -.469E-01
   -.971E+00 -.109E+01 0.348E+04   0.928E+00 0.101E+01 -.348E+04   0.325E-01 0.549E-01 -.192E+01   0.184E-01 0.234E-01 0.407E-01
   0.971E+00 -.109E+01 0.348E+04   -.928E+00 0.101E+01 -.348E+04   -.325E-01 0.549E-01 -.192E+01   -.175E-01 0.260E-01 0.416E-01
   -.143E+01 -.297E+00 0.348E+04   0.134E+01 0.297E+00 -.348E+04   0.638E-01 0.633E-03 -.192E+01   0.295E-01 0.418E-02 0.407E-01
   -.610E-04 -.294E-05 0.348E+04   0.116E-03 -.101E-04 -.348E+04   -.631E-17 -.306E-18 -.183E+01   0.122E-01 0.748E-02 0.756E-01
   0.143E+01 -.297E+00 0.348E+04   -.134E+01 0.297E+00 -.348E+04   -.638E-01 0.633E-03 -.192E+01   -.312E-01 0.541E-02 0.421E-01
   -.457E+00 0.139E+01 0.348E+04   0.414E+00 -.131E+01 -.348E+04   0.314E-01 -.556E-01 -.192E+01   0.138E-01 -.282E-01 0.418E-01
   0.457E+00 0.139E+01 0.348E+04   -.414E+00 -.131E+01 -.348E+04   -.314E-01 -.556E-01 -.192E+01   -.102E-01 -.297E-01 0.421E-01
   -.143E-03 -.326E-04 0.348E+04   0.263E-03 0.205E-04 -.348E+04   -.141E-17 -.508E-18 -.195E+01   -.133E-01 -.685E-02 0.175E-01
   -.109E+02 -.631E+01 0.118E+04   0.111E+02 0.640E+01 -.118E+04   -.182E+00 -.105E+00 -.950E+00   0.692E-01 0.400E-01 -.111E+00
   -.904E-04 -.926E+01 0.116E+04   0.189E-03 0.890E+01 -.116E+04   -.175E-07 0.263E+00 -.440E+00   0.118E-01 0.847E-01 -.135E+00
   0.109E+02 -.631E+01 0.118E+04   -.111E+02 0.640E+01 -.118E+04   0.182E+00 -.105E+00 -.950E+00   -.712E-01 0.420E-01 -.110E+00
   -.802E+01 0.463E+01 0.116E+04   0.771E+01 -.445E+01 -.116E+04   0.227E+00 -.131E+00 -.440E+00   0.798E-01 -.313E-01 -.135E+00
   0.802E+01 0.463E+01 0.116E+04   -.771E+01 -.445E+01 -.116E+04   -.227E+00 -.131E+00 -.440E+00   -.553E-01 -.323E-01 -.134E+00
   -.140E-03 -.190E+01 0.118E+04   0.295E-03 0.182E+01 -.118E+04   -.428E-08 0.643E-01 -.950E+00   -.405E-02 0.219E-01 -.119E+00
   -.922E-04 0.126E+02 0.118E+04   0.186E-03 -.128E+02 -.118E+04   -.140E-07 0.210E+00 -.950E+00   -.169E-03 -.839E-01 -.110E+00
   -.164E+01 0.948E+00 0.118E+04   0.157E+01 -.909E+00 -.118E+04   0.557E-01 -.321E-01 -.950E+00   0.176E-01 -.145E-01 -.119E+00
   0.164E+01 0.948E+00 0.118E+04   -.157E+01 -.909E+00 -.118E+04   -.557E-01 -.321E-01 -.950E+00   -.169E-01 -.114E-01 -.119E+00
   -.685E-04 -.542E+01 -.112E+04   0.680E-04 0.560E+01 0.112E+04   0.737E-08 -.111E+00 0.888E+00   -.247E-02 -.669E-01 -.860E-01
   -.303E+02 -.175E+02 -.121E+04   0.313E+02 0.180E+02 0.121E+04   -.102E+01 -.590E+00 -.652E+00   0.832E-01 0.479E-01 -.671E-01
   0.303E+02 -.175E+02 -.121E+04   -.313E+02 0.180E+02 0.121E+04   0.102E+01 -.590E+00 -.652E+00   -.592E-01 0.494E-01 -.677E-01
   -.141E+02 0.817E+01 -.115E+04   0.139E+02 -.802E+01 0.115E+04   0.214E+00 -.124E+00 0.665E+00   0.414E-01 -.250E-01 -.790E-01
   -.472E-04 0.350E+02 -.121E+04   0.150E-03 -.361E+02 0.121E+04   -.786E-07 0.118E+01 -.652E+00   0.120E-01 -.772E-01 -.678E-01
   0.141E+02 0.817E+01 -.115E+04   -.139E+02 -.802E+01 0.115E+04   -.214E+00 -.124E+00 0.665E+00   -.440E-01 -.263E-01 -.790E-01
   0.469E+01 0.271E+01 -.112E+04   -.485E+01 -.280E+01 0.112E+04   0.958E-01 0.553E-01 0.888E+00   0.594E-01 0.343E-01 -.864E-01
   -.469E+01 0.271E+01 -.112E+04   0.485E+01 -.280E+01 0.112E+04   -.958E-01 0.553E-01 0.888E+00   -.588E-01 0.315E-01 -.859E-01
   -.146E-03 -.163E+02 -.115E+04   0.242E-03 0.160E+02 0.115E+04   -.165E-07 0.247E+00 0.665E+00   -.953E-03 0.483E-01 -.789E-01
   -.178E-04 0.297E-04 -.345E+04   0.424E-04 -.322E-04 0.345E+04   0.703E-18 0.999E-18 0.167E+01   -.305E-03 -.123E-03 -.289E-01
   -.985E+01 -.312E+02 -.343E+04   0.102E+02 0.314E+02 0.343E+04   -.345E+00 -.231E+00 0.240E+00   -.112E-01 -.162E-01 -.143E+00
   0.985E+01 -.312E+02 -.343E+04   -.102E+02 0.314E+02 0.343E+04   0.345E+00 -.231E+00 0.240E+00   0.123E-01 -.137E-01 -.144E+00
   -.319E+02 0.705E+01 -.343E+04   0.323E+02 -.687E+01 0.343E+04   -.373E+00 -.183E+00 0.240E+00   -.196E-01 -.169E-02 -.143E+00
   0.319E+02 0.705E+01 -.343E+04   -.323E+02 -.687E+01 0.343E+04   0.373E+00 -.183E+00 0.240E+00   0.179E-01 -.727E-03 -.144E+00
   -.221E+02 0.241E+02 -.343E+04   0.221E+02 -.245E+02 0.343E+04   -.277E-01 0.414E+00 0.240E+00   -.570E-02 0.174E-01 -.144E+00
   0.221E+02 0.241E+02 -.343E+04   -.221E+02 -.245E+02 0.343E+04   0.277E-01 0.414E+00 0.240E+00   0.907E-02 0.159E-01 -.144E+00
   -.126E-03 -.694E-05 -.347E+04   0.256E-03 -.113E-05 0.347E+04   -.223E-16 -.748E-17 0.196E+01   -.133E-01 -.685E-02 -.664E-01
   0.124E-03 -.159E-03 -.397E+04   0.122E-03 0.327E-04 0.397E+04   -.481E-18 0.651E-18 0.490E+01   0.502E-02 0.303E-02 -.156E+00
   -.380E-04 -.861E-04 0.145E+02   0.135E-12 0.865E-13 -.455E-12   0.952E-16 0.487E-16 -.118E+02   0.568E-01 0.298E-01 -.261E+01

 POSITION                                       TOTAL-FORCE (eV/Angst)
      0.00000      0.00000      5.37156        -0.000000     -0.000000      0.012452
      2.56560      0.00000      5.37156         0.008302      0.005062      0.045688
      5.13119      0.00000      5.37156        -0.008302      0.005062      0.045688
      1.28280      2.22187      5.37156         0.008535      0.004659      0.045688
      3.84839      2.22187      5.37156         0.000000      0.000000      0.054039
      6.41399      2.22187      5.37156        -0.008535      0.004659      0.045688
      2.56560      4.44374      5.37156         0.000233     -0.009721      0.045688
      5.13119      4.44374      5.37156        -0.000233     -0.009721      0.045688
      7.69679      4.44374      5.37156        -0.000000      0.000000      0.021898
      1.28280      0.74062      7.46636         0.045059      0.026015     -0.100150
      3.84839      0.74062      7.46636         0.000000     -0.017708     -0.020098
      6.41399      0.74062      7.46636        -0.045059      0.026015     -0.100150
      2.56560      2.96249      7.46636        -0.015335      0.008854     -0.020098
      5.13119      2.96249      7.46636         0.015335      0.008854     -0.020098
      7.69679      2.96249      7.46636        -0.000000      0.008316     -0.035650
      3.84839      5.18437      7.46636         0.000000     -0.052029     -0.100150
      6.41399      5.18437      7.46636         0.007202     -0.004158     -0.035650
      8.97958      5.18437      7.46636        -0.007202     -0.004158     -0.035650
      7.69679      1.47435      9.52922        -0.000000      0.000390     -0.009650
      2.57570      1.48708      9.58099         0.006727      0.003884      0.002496
      5.12109      1.48708      9.58099        -0.006727      0.003884      0.002496
      8.97941      3.70322      9.55185        -0.003227      0.001863      0.001138
      3.84839      3.69145      9.58099         0.000000     -0.007768      0.002496
      6.41416      3.70322      9.55185         0.003227      0.001863      0.001138
     10.26835      5.92844      9.52922        -0.000338     -0.000195     -0.009650
      5.12522      5.92844      9.52922         0.000338     -0.000195     -0.009650
      7.69679      5.92479      9.55185         0.000000     -0.003726      0.001138
      0.00000      0.00000     11.63765        -0.000000     -0.000000      0.037860
      6.39598      6.62341     11.64088        -0.007794     -0.003356      0.009882
      8.99759      6.62341     11.64088         0.007794     -0.003356      0.009882
      8.93403      2.22738     11.64088        -0.006803     -0.005072      0.009882
      6.45955      2.22738     11.64088         0.006803     -0.005072      0.009882
     10.23483      4.48044     11.64088         0.000991      0.008428      0.009882
      5.15874      4.48044     11.64088        -0.000991      0.008428      0.009882
      7.69679      4.44374     11.66679        -0.000000      0.000000      0.021370
      3.84839      2.22187     12.03290         0.000000      0.000000      0.004705
    total drift:                                0.056807      0.029733      0.007235

  FREE ENERGIE OF THE ION-ELECTRON SYSTEM (eV)
  free  energy   TOTEN  =      -130.46614515 eV

  energy  without entropy=     -130.46614515  energy(sigma->0) =     -130.46614515

 stress matrix after NEB project (eV)
     -6.53463      0.00000     -0.00000
      0.00000     -6.53463      0.00000
     -0.00000     -0.00000     -2.08055
  FORCES: max atom, RMS     0.037860    0.009797
  FORCE total and by dimension    0.058780    0.037860
  Stress total and by dimension    9.472669    6.534630
|           W    W    AA    RRRRR   N    N  II  N    N   GGGG   !!!           |
|           W    W   A  A   R    R  NN   N  II  NN   N  G    G  !!!           |
|           W    W  A    A  R    R  N N  N  II  N N  N  G       !!!           |
|           W WW W  AAAAAA  RRRRR   N  N N  II  N  N N  G  GGG   !            |
|           WW  WW  A    A  R   R   N   NN  II  N   NN  G    G                |
|           W    W  A    A  R    R  N    N  II  N    N   GGGG   !!!           |
|     Tetrahedron method does not include variations of the Fermi             |
|     occupations, so forces and stress will be inaccurate. We suggest        |
|     using a different smearing scheme ISMEAR = 1 or 2 for metals in         |
|     relaxations.                                                            |

 total charge

# of ion       s       p       d       tot
    1        0.450   0.283   9.188   9.921
    2        0.448   0.286   9.186   9.920
    3        0.448   0.286   9.186   9.920
    4        0.448   0.286   9.186   9.920
    5        0.448   0.286   9.182   9.916
    6        0.448   0.286   9.186   9.920
    7        0.448   0.286   9.186   9.920
    8        0.448   0.286   9.186   9.920
    9        0.450   0.284   9.186   9.921
   10        0.443   0.372   9.176   9.990
   11        0.440   0.364   9.181   9.986
   12        0.443   0.372   9.176   9.990
   13        0.440   0.364   9.181   9.986
   14        0.440   0.364   9.181   9.986
   15        0.440   0.372   9.177   9.989
   16        0.443   0.372   9.176   9.990
   17        0.440   0.372   9.177   9.989
   18        0.440   0.372   9.177   9.989
   19        0.446   0.374   9.179   9.999
   20        0.454   0.380   9.160   9.994
   21        0.454   0.380   9.160   9.994
   22        0.435   0.376   9.178   9.989
   23        0.454   0.380   9.160   9.994
   24        0.435   0.376   9.178   9.989
   25        0.446   0.374   9.179   9.999
   26        0.446   0.374   9.179   9.999
   27        0.435   0.376   9.178   9.989
   28        0.442   0.300   9.179   9.921
   29        0.489   0.326   9.157   9.971
   30        0.489   0.326   9.157   9.971
   31        0.489   0.326   9.157   9.971
   32        0.489   0.326   9.157   9.971
   33        0.489   0.326   9.157   9.971
   34        0.489   0.326   9.157   9.971
   35        0.441   0.306   9.179   9.925
   36        2.226   5.954   1.608   9.788
tot         18.050  17.795 322.732 358.576

 BZINTS: Fermi energy:    0.429760;  397.000000 electrons
         Band energy:-0.122884E+04;  BLOECHL correction:   -0.033125