 vasp.6.2.0 18Jan21 (build Jun 12 2021 23:27:24) complex

 executed on             LinuxIFC date 2022.05.28  01:44:52

 INCAR:
   ISMEAR = -5
   SIGMA = 0.1
   ISPIN = 1
   EDIFF = 1.d-5
   EDIFFG = -0.01
   NSW = 0
   NELM = 150
   ENCUT = 500
   ISIF = 2
   IBRION = 2
   LREAL = Auto
   ALGO = Fast
   ICHARG = 11
   LORBIT = 10
   LCHARG = .F.
   LWAVE = .F.

 POTCAR:    PAW_PBE Ag 02Apr2005
 POTCAR:    PAW_PBE Nb_sv 25May2007
 POTCAR:    PAW_PBE H 15Jun2001
 POTCAR:    PAW_PBE O 08Apr2002
|           W    W    AA    RRRRR   N    N  II  N    N   GGGG   !!!           |
|           W    W   A  A   R    R  NN   N  II  NN   N  G    G  !!!           |
|           W    W  A    A  R    R  N N  N  II  N N  N  G       !!!           |
|           W WW W  AAAAAA  RRRRR   N  N N  II  N  N N  G  GGG   !            |
|           WW  WW  A    A  R   R   N   NN  II  N   NN  G    G                |
|           W    W  A    A  R    R  N    N  II  N    N   GGGG   !!!           |
|     For optimal performance we recommend to set                             |
|       NCORE = 2 up to number-of-cores-per-socket                            |
|     This setting can greatly improve the performance of VASP for DFT.       |
|     The default, NCORE=1 might be grossly inefficient on modern             |
|     multi-core architectures or massively parallel machines. Do your        |
|     Unfortunately you need to use the default for GW and RPA                |
|     calculations (for HF NCORE is supported but not extensively tested      |
|     yet).                                                                   |

 POTCAR:    PAW_PBE Ag 02Apr2005
   VRHFIN =Ag : s1 d10

   TITEL  = PAW_PBE Ag 02Apr2005
   POMASS =  107.868; ZVAL   =   11.000    mass and valenz
   ENMAX  =  249.844; ENMIN  =  187.383 eV

 POTCAR:    PAW_PBE Nb_sv 25May2007
   VRHFIN =Nb: 4p5s4d

   TITEL  = PAW_PBE Nb_sv 25May2007
   POMASS =   92.910; ZVAL   =   13.000    mass and valenz
   ENMAX  =  293.235; ENMIN  =  219.927 eV

 POTCAR:    PAW_PBE H 15Jun2001
   VRHFIN =H: ultrasoft test

   TITEL  = PAW_PBE H 15Jun2001
   POMASS =    1.000; ZVAL   =    1.000    mass and valenz
   ENMAX  =  250.000; ENMIN  =  200.000 eV

 POTCAR:    PAW_PBE O 08Apr2002
   VRHFIN =O: s2p4

   TITEL  = PAW_PBE O 08Apr2002
   POMASS =   16.000; ZVAL   =    6.000    mass and valenz
   ENMAX  =  400.000; ENMIN  =  300.000 eV

 Optimization of the real space projectors (new method)

 maximal supplied QI-value         = 15.12
 optimisation between [QCUT,QGAM] = [ 11.34, 22.83] = [ 36.00,145.93] Ry
 Optimized for a Real-space Cutoff    1.43 Angstroem

   l    n(q)    QCUT    max X(q) W(low)/X(q) W(high)/X(q)  e(spline)
   2      9    11.338    53.897    0.16E-03    0.20E-03    0.28E-06
   2      9    11.338    52.416    0.16E-03    0.20E-03    0.29E-06
   0     10    11.338   122.045    0.31E-04    0.76E-04    0.15E-06
   0     10    11.338    73.629    0.30E-04    0.72E-04    0.15E-06
   1      9    11.338    15.255    0.20E-03    0.19E-04    0.17E-06
   1      9    11.338     9.562    0.16E-03    0.15E-04    0.14E-06
 Optimization of the real space projectors (new method)

[...]

   l    n(q)    QCUT    max X(q) W(low)/X(q) W(high)/X(q)  e(spline)
   0      8    11.287    19.460    0.40E-03    0.73E-03    0.16E-06
   0      8    11.287    12.209    0.38E-03    0.70E-03    0.15E-06
   1      7    11.287     4.655    0.22E-03    0.25E-04    0.22E-06
 Optimization of the real space projectors (new method)

 maximal supplied QI-value         = 24.76
 optimisation between [QCUT,QGAM] = [ 11.39, 22.77] = [ 36.31,145.25] Ry
 Optimized for a Real-space Cutoff    1.00 Angstroem

   l    n(q)    QCUT    max X(q) W(low)/X(q) W(high)/X(q)  e(spline)
   0      7    11.387    20.381    0.39E-03    0.13E-02    0.15E-06
   0      7    11.387    15.268    0.42E-03    0.14E-02    0.17E-06
   1      6    11.387     5.964    0.41E-03    0.11E-02    0.17E-06
   1      6    11.387     5.382    0.39E-03    0.87E-03    0.15E-06
  PAW_PBE Ag 02Apr2005                  :
  PAW_PBE Nb_sv 25May2007               :
  PAW_PBE H 15Jun2001                   :
  PAW_PBE O 08Apr2002                   :

 POSCAR: Ag-Nb-H2O
  positions in direct lattice
  velocities in cartesian coordinates
 exchange correlation table for  LEXCH =        8
   RHO(1)=    0.500       N(1)  =     2000
   RHO(2)=  100.500       N(2)  =     4000

 VTST: version 3.2, (02/03/18)

 CHAIN: initializing optimizer

 OPT: Using VASP Conjugate-Gradient optimizer
 CHAIN: Read ICHAIN            0

 POSCAR: Ag-Nb-H2O
  positions in direct lattice
  velocities in cartesian coordinates

 ion  position               nearest neighbor table
   1  0.000  0.000  0.212-   2 2.93   8 2.93   7 2.93   6 2.93   4 2.93  12 2.93  16 2.93  10 2.93
                             3 2.93
   2  0.333  0.000  0.212-   1 2.93   8 2.93   9 2.93   3 2.93   4 2.93   5 2.93  10 2.93  17 2.93
                            11 2.93
   3  0.667  0.000  0.212-   9 2.93   2 2.93   5 2.93  11 2.93   7 2.93  18 2.93   1 2.93   6 2.93
                            12 2.93
   4  0.000  0.333  0.212-   5 2.93   6 2.93   2 2.93   1 2.93   7 2.93  13 2.93  15 2.93   9 2.93
                            10 2.93
   5  0.333  0.333  0.212-   4 2.93   3 2.93   7 2.93   2 2.93   8 2.93  14 2.93  13 2.93  11 2.93
                             6 2.93
   6  0.667  0.333  0.212-   4 2.93   9 2.93   1 2.93  15 2.93   8 2.93  12 2.93   3 2.93   5 2.93
                            14 2.93
   7  0.000  0.667  0.212-   8 2.93   1 2.93   5 2.93   3 2.93   4 2.93  16 2.93  18 2.93  13 2.93
                             9 2.93
   8  0.333  0.667  0.212-   7 2.93   1 2.93   2 2.93   9 2.93   5 2.93  16 2.93   6 2.93  17 2.93
                            14 2.93
   9  0.667  0.667  0.212-   3 2.93   2 2.93   8 2.93   6 2.93  17 2.93   4 2.93  15 2.93   7 2.93
                            18 2.93
  10  0.111  0.111  0.308-  20 2.90  19 2.93  26 2.93  12 2.93  16 2.93  15 2.93  17 2.93  13 2.93
                            11 2.93   2 2.93   1 2.93   4 2.93
  11  0.444  0.111  0.308-  21 2.90  20 2.90  14 2.93  17 2.93  18 2.93   3 2.93  12 2.93  13 2.93
                            10 2.93   5 2.93   2 2.93  27 2.93
  12  0.778  0.111  0.308-  21 2.90  25 2.93  19 2.93  10 2.93  16 2.93  18 2.93  15 2.93  11 2.93
                             1 2.93  14 2.93   6 2.93   3 2.93
  13  0.111  0.444  0.308-  20 2.90  23 2.90  15 2.93  14 2.93  18 2.93  10 2.93  11 2.93  16 2.93
                             4 2.93   5 2.93   7 2.93  22 2.93
  14  0.444  0.444  0.308-  23 2.90  21 2.90  13 2.93  11 2.93  16 2.93   5 2.93  12 2.93  17 2.93
                             8 2.93  15 2.93   6 2.93  24 2.93
  15  0.778  0.444  0.308-  19 2.93  13 2.93  10 2.93  12 2.93  17 2.93  18 2.93   4 2.93   6 2.93
                             9 2.93  14 2.93  24 2.93  22 2.93
  16  0.111  0.778  0.308-  23 2.90  26 2.93  25 2.93  18 2.93  12 2.93  10 2.93  14 2.93  17 2.93
                            13 2.93   7 2.93   8 2.93   1 2.93
  17  0.444  0.778  0.308-  26 2.93  11 2.93  10 2.93   9 2.93  18 2.93  15 2.93  16 2.93   2 2.93
                            14 2.93   8 2.93  27 2.93  24 2.93
  18  0.778  0.778  0.308-  25 2.93  16 2.93  12 2.93  13 2.93  11 2.93  17 2.93  15 2.93   7 2.93
                             3 2.93   9 2.93  22 2.93  27 2.93
  19  0.889  0.222  0.403-  15 2.93  10 2.93  12 2.93  20 2.93  21 2.93  28 2.93  24 2.93  22 2.93
                            26 2.93  25 2.93  32 2.97  31 2.97
  20  0.222  0.222  0.402-  36 2.82  10 2.90  13 2.90  11 2.90  19 2.93  26 2.93  27 2.93  22 2.93
                            21 2.94  23 2.94  31 2.97  29 2.97
  21  0.556  0.222  0.402-  36 2.82  12 2.90  11 2.90  14 2.90  25 2.93  19 2.93  27 2.93  24 2.93
                            20 2.94  23 2.94  30 2.97  32 2.97
  22  0.889  0.556  0.404-  24 2.93  27 2.93  25 2.93  19 2.93  18 2.93  15 2.93  23 2.93  20 2.93
                            35 2.93  13 2.93  33 2.95  31 2.95
  23  0.222  0.556  0.402-  36 2.82  16 2.90  14 2.90  13 2.90  26 2.93  25 2.93  22 2.93  24 2.93
                            21 2.94  20 2.94  34 2.97  33 2.97
  24  0.556  0.556  0.404-  27 2.93  22 2.93  19 2.93  26 2.93  15 2.93  17 2.93  23 2.93  21 2.93
                            35 2.93  14 2.93  32 2.95  34 2.95
  25  0.889  0.889  0.403-  18 2.93  16 2.93  12 2.93  23 2.93  21 2.93  28 2.93  22 2.93  27 2.93
                            26 2.93  19 2.93  33 2.97  30 2.97
  26  0.222  0.889  0.403-  17 2.93  16 2.93  10 2.93  23 2.93  20 2.93  28 2.93  27 2.93  24 2.93
                            25 2.93  19 2.93  34 2.97  29 2.97
  27  0.556  0.889  0.404-  24 2.93  22 2.93  26 2.93  25 2.93  17 2.93  18 2.93  20 2.93  21 2.93
                            35 2.93  11 2.93  29 2.95  30 2.95
  28  0.000  0.000  0.499-  26 2.93  25 2.93  19 2.93  29 2.95  34 2.95  33 2.95  32 2.95  31 2.95
                            30 2.95
  29  0.333  0.004  0.500-  30 2.90  31 2.90  36 2.91  35 2.95  28 2.95  27 2.95  20 2.97  26 2.97
                            34 2.99
  30  0.663  0.004  0.500-  29 2.90  32 2.90  36 2.91  35 2.95  28 2.95  27 2.95  21 2.97  25 2.97
                            33 2.99
  31  0.004  0.333  0.500-  33 2.90  29 2.90  36 2.91  35 2.95  28 2.95  22 2.95  20 2.97  19 2.97
                            32 2.99
  32  0.663  0.333  0.500-  34 2.90  30 2.90  36 2.91  35 2.95  28 2.95  24 2.95  21 2.97  19 2.97
                            31 2.99
  33  0.004  0.663  0.500-  31 2.90  34 2.90  36 2.91  35 2.95  28 2.95  22 2.95  23 2.97  25 2.97
                            30 2.99
  34  0.333  0.663  0.500-  32 2.90  33 2.90  36 2.91  35 2.95  28 2.95  24 2.95  23 2.97  26 2.97
                            29 2.99
  35  0.667  0.667  0.500-  24 2.93  27 2.93  22 2.93  30 2.95  29 2.95  32 2.95  34 2.95  31 2.95
                            33 2.95
  36  0.333  0.333  0.493-  39 2.29  21 2.82  20 2.82  23 2.82  31 2.91  33 2.91  30 2.91  29 2.91
                            34 2.91  32 2.91
  37  0.277  0.265  0.595-  39 0.98
  38  0.458  0.263  0.595-  39 0.98
  39  0.333  0.333  0.584-  37 0.98  38 0.98  36 2.29

  LATTYP: Found a hexagonal cell.
 ALAT       =     8.7913665772
 C/A-ratio  =     2.8382349142

  Lattice vectors:

 A1 = (  -4.3956832886,  -7.6135467898,   0.0000000000)
 A2 = (   8.7913665771,   0.0000000000,   0.0000000000)
 A3 = (   0.0000000000,   0.0000000000,  24.9519635625)

Analysis of symmetry for initial positions (statically):
 Subroutine PRICEL returns:
 Original cell was already a primitive cell.

 Routine SETGRP: Setting up the symmetry group for a
 hexagonal supercell.

 Subroutine GETGRP returns: Found  1 space group operations
 (whereof  1 operations were pure point group operations)
 out of a pool of 24 trial point group operations.

The static configuration has the point symmetry C_1 .

Analysis of symmetry for dynamics (positions and initial velocities):
 Subroutine PRICEL returns:
 Original cell was already a primitive cell.

[...]

The dynamic configuration has the point symmetry C_1 .

Analysis of constrained symmetry for selective dynamics:
 Subroutine PRICEL returns:
[...]
     41      -4.7223      2.00000
     42      -4.6880      2.00000
     43      -4.6724      2.00000
     44      -4.6452      2.00000
     45      -4.6012      2.00000
     46      -4.5804      2.00000
     47      -4.5728      2.00000
     48      -4.5621      2.00000
     49      -4.5580      2.00000
     50      -4.5399      2.00000
     51      -4.4429      2.00000
     52      -4.4197      2.00000
     53      -4.4129      2.00000
     54      -4.4044      2.00000
     55      -4.4019      2.00000
     56      -4.3940      2.00000
     57      -4.3916      2.00000
     58      -4.3827      2.00000
     59      -4.3759      2.00000
     60      -4.3647      2.00000
[...]
    238       5.4793      0.00000
    239       5.5186      0.00000
    240       5.6284      0.00000
    241       5.7389      0.00000
    242       5.7843      0.00000
    243       5.9274      0.00000
    244       5.9521      0.00000
    245       6.0907      0.00000
    246       6.2234      0.00000
    247       6.3224      0.00000
    248       6.4133      0.00000
    249       6.4489      0.00000
    250       6.5721      0.00000
    251       6.6627      0.00000
    252       6.7859      0.00000

 soft charge-density along one line, spin component           1
         0         1         2         3         4         5         6         7         8         9
 total charge-density along one line

------------------------ aborting loop because EDIFF is reached ----------------------------------------

 total charge

# of ion       s       p       d       tot
    1        0.422   0.199   9.178   9.799
    2        0.415   0.204   9.177   9.796
    3        0.415   0.204   9.177   9.796
    4        0.415   0.204   9.178   9.796
    5        0.420   0.202   9.176   9.798
    6        0.415   0.204   9.178   9.796
    7        0.414   0.204   9.178   9.796
    8        0.414   0.204   9.178   9.796
    9        0.416   0.202   9.177   9.796
   10        0.412   0.268   9.162   9.842
   11        0.408   0.266   9.168   9.843
   12        0.412   0.268   9.162   9.842
   13        0.406   0.267   9.168   9.842
   14        0.406   0.267   9.168   9.842
   15        0.404   0.267   9.165   9.835
   16        0.411   0.268   9.162   9.841
   17        0.403   0.267   9.165   9.835
   18        0.403   0.267   9.165   9.835
   19        0.405   0.263   9.165   9.833
   20        0.449   0.302   9.130   9.880
   21        0.449   0.302   9.130   9.880
   22        0.392   0.271   9.166   9.829
   23        0.448   0.301   9.130   9.879
   24        0.392   0.271   9.166   9.829
   25        0.403   0.263   9.166   9.833
   26        0.403   0.263   9.166   9.833
   27        0.393   0.271   9.166   9.829
   28        0.408   0.205   9.171   9.784
   29        0.448   0.227   9.146   9.821
   30        0.448   0.227   9.146   9.821
   31        0.449   0.225   9.147   9.821
   32        0.449   0.225   9.147   9.820
   33        0.445   0.220   9.151   9.816
   34        0.445   0.220   9.151   9.816
   35        0.402   0.206   9.175   9.783
   36        2.176   5.968   2.344  10.489
   37        0.600   0.118   0.000   0.717
   38        0.599   0.117   0.000   0.717
   39        1.565   3.622   0.000   5.186
tot         19.580  18.315 323.046 360.941

  FORCE on cell =-STRESS in cart. coord.  units (eV):
  Direction    XX          YY          ZZ          XY          YZ          ZX
  Alpha Z   692.59862   692.59862   692.59862
  Ewald  164004.08887163931.00178************    -0.72153   -28.35558    -0.50259
  Hartree174282.63274174266.59733************    -0.17079    -5.26167    -0.09959
  E(xc)   -2123.63698 -2123.94478 -2129.76347    -0.00321    -0.08462    -0.00191
  Local  ************************349613.74340     0.72469    26.17538     0.46522
  n-local  -350.61252  -351.39571  -346.90408    -0.00806    -0.01725    -0.00163
  augment  3244.48884  3245.54158  3257.93107     0.01073     0.42960     0.00853
  Kinetic  5147.68763  5165.42422  5193.50057     0.17448     6.95747     0.13358
  Fock        0.00000     0.00000     0.00000     0.00000     0.00000     0.00000
  Total      -7.93059    -7.84803    -0.13222     0.00630    -0.15666     0.00161
  in kB      -7.60795    -7.52876    -0.12684     0.00604    -0.15029     0.00154

 VOLUME and BASIS-vectors are now :
  energy-cutoff  :      500.00
  volume of cell :     1670.12
      direct lattice vectors                 reciprocal lattice vectors
     8.791366577  0.000000000  0.000000000     0.113747958 -0.065672414  0.000000000
     4.395683289  7.613546790  0.000000000     0.000000000  0.131344829  0.000000000
     0.000000000  0.000000000 24.951963562     0.000000000  0.000000000  0.040077006

  length of vectors
     8.791366577  8.791366577 24.951963562     0.131344829  0.131344829  0.040077006

 FORCES acting on ions
    electron-ion (+dipol)            ewald-force                    non-local-force                 convergence-correction
   0.194E-02 0.407E-01 0.276E+04   -.131E-03 -.838E-02 -.275E+04   0.539E-04 -.147E-01 -.199E+01   -.183E-02 -.139E-01 -.108E-01
   0.345E+00 0.909E+00 0.276E+04   -.375E+00 -.105E+01 -.276E+04   0.737E-01 0.220E+00 -.155E+01   -.398E-01 -.781E-01 0.655E-01
   -.347E+00 0.898E+00 0.276E+04   0.375E+00 -.105E+01 -.276E+04   -.732E-01 0.220E+00 -.155E+01   0.406E-01 -.670E-01 0.693E-01
   0.944E+00 -.159E+00 0.276E+04   -.109E+01 0.211E+00 -.276E+04   0.228E+00 -.534E-01 -.158E+01   -.845E-01 0.747E-03 0.608E-01
   -.145E-01 -.307E-01 0.276E+04   0.244E-03 0.139E-01 -.276E+04   -.233E-02 0.608E-02 -.116E+01   0.168E-01 0.571E-02 0.125E+00
   -.935E+00 -.162E+00 0.276E+04   0.109E+01 0.211E+00 -.276E+04   -.228E+00 -.540E-01 -.158E+01   0.750E-01 0.437E-02 0.666E-01
   0.589E+00 -.753E+00 0.276E+04   -.717E+00 0.842E+00 -.276E+04   0.160E+00 -.166E+00 -.164E+01   -.383E-01 0.787E-01 0.479E-01
   -.598E+00 -.747E+00 0.276E+04   0.717E+00 0.842E+00 -.276E+04   -.160E+00 -.166E+00 -.164E+01   0.469E-01 0.723E-01 0.501E-01
   0.137E-01 0.725E-02 0.276E+04   -.299E-04 -.534E-02 -.275E+04   0.237E-02 0.740E-03 -.175E+01   -.162E-01 -.119E-02 0.116E+00
   0.633E+01 0.368E+01 0.980E+03   -.583E+01 -.336E+01 -.979E+03   -.440E+00 -.271E+00 -.757E+00   -.649E-01 -.469E-01 -.158E+00
   -.145E-01 0.101E+02 0.988E+03   0.634E-03 -.997E+01 -.987E+03   -.245E-02 0.410E-01 -.116E+00   0.166E-01 -.215E+00 -.210E+00
   -.632E+01 0.367E+01 0.980E+03   0.583E+01 -.336E+01 -.979E+03   0.440E+00 -.271E+00 -.757E+00   0.548E-01 -.374E-01 -.155E+00
   0.871E+01 -.514E+01 0.988E+03   -.863E+01 0.507E+01 -.987E+03   0.612E-01 -.200E-01 -.137E+00   -.174E+00 0.117E+00 -.213E+00
   -.874E+01 -.514E+01 0.988E+03   0.863E+01 0.507E+01 -.987E+03   -.652E-01 -.192E-01 -.137E+00   0.200E+00 0.114E+00 -.212E+00
   0.140E-01 -.269E+01 0.975E+03   -.119E-02 0.244E+01 -.974E+03   0.718E-04 0.923E-01 -.755E+00   -.128E-01 0.133E+00 -.152E+00
   -.400E-02 -.726E+01 0.979E+03   0.497E-03 0.665E+01 -.979E+03   0.434E-03 0.537E+00 -.758E+00   0.302E-02 0.863E-01 -.147E+00
   -.224E+01 0.140E+01 0.975E+03   0.204E+01 -.127E+01 -.974E+03   0.688E-01 -.461E-01 -.751E+00   0.115E+00 -.757E-01 -.147E+00
   0.225E+01 0.138E+01 0.975E+03   -.204E+01 -.127E+01 -.974E+03   -.693E-01 -.463E-01 -.751E+00   -.118E+00 -.626E-01 -.146E+00
   0.172E-01 0.190E+00 -.838E+03   -.609E-02 -.261E+00 0.838E+03   0.225E-03 0.766E-01 0.697E+00   -.114E-01 -.117E-01 -.153E+00
   0.449E+02 0.254E+02 -.764E+03   -.431E+02 -.244E+02 0.766E+03   -.142E+01 -.809E+00 -.146E+01   -.396E+00 -.225E+00 -.519E+00
   -.449E+02 0.254E+02 -.764E+03   0.431E+02 -.244E+02 0.766E+03   0.142E+01 -.809E+00 -.146E+01   0.421E+00 -.217E+00 -.520E+00
   0.188E+02 -.111E+02 -.833E+03   -.187E+02 0.110E+02 0.833E+03   0.192E+00 -.916E-01 0.364E+00   -.306E+00 0.174E+00 -.243E+00
   -.234E-01 -.520E+02 -.766E+03   0.740E-02 0.499E+02 0.768E+03   -.270E-02 0.164E+01 -.131E+01   0.189E-01 0.452E+00 -.511E+00
   -.188E+02 -.111E+02 -.833E+03   0.187E+02 0.110E+02 0.833E+03   -.192E+00 -.912E-01 0.365E+00   0.295E+00 0.168E+00 -.242E+00
   -.548E+00 0.373E+00 -.839E+03   0.607E+00 -.304E+00 0.838E+03   -.559E-01 -.740E-01 0.807E+00   0.531E-02 0.140E-01 -.162E+00
   0.546E+00 0.392E+00 -.839E+03   -.607E+00 -.311E+00 0.838E+03   0.567E-01 -.737E-01 0.809E+00   -.511E-02 0.569E-03 -.160E+00
   0.262E-02 0.225E+02 -.832E+03   -.799E-03 -.223E+02 0.832E+03   -.312E-03 0.212E+00 0.324E+00   -.143E-02 -.353E+00 -.253E+00
   0.833E-02 0.176E+01 -.265E+04   -.692E-02 -.190E+01 0.264E+04   -.480E-03 0.874E-01 0.163E+01   -.950E-03 0.517E-01 -.126E+00
   0.536E+02 0.873E+02 -.264E+04   -.525E+02 -.855E+02 0.264E+04   -.103E+01 -.148E+01 0.547E+00   -.184E+00 -.305E+00 -.114E+00
   -.536E+02 0.872E+02 -.264E+04   0.525E+02 -.855E+02 0.264E+04   0.103E+01 -.149E+01 0.538E+00   0.185E+00 -.294E+00 -.116E+00
   0.997E+02 0.159E+00 -.264E+04   -.974E+02 0.153E-01 0.264E+04   -.189E+01 -.174E+00 0.521E+00   -.424E+00 -.166E-02 -.845E-01
   -.996E+02 0.132E+00 -.264E+04   0.973E+02 0.363E-01 0.264E+04   0.189E+01 -.174E+00 0.526E+00   0.413E+00 0.276E-02 -.909E-01
   0.445E+02 -.850E+02 -.265E+04   -.437E+02 0.832E+02 0.264E+04   -.643E+00 0.153E+01 0.100E+01   -.182E+00 0.299E+00 -.958E-01
   -.445E+02 -.849E+02 -.265E+04   0.437E+02 0.832E+02 0.264E+04   0.641E+00 0.152E+01 0.101E+01   0.190E+00 0.291E+00 -.100E+00
   0.377E-01 0.116E+01 -.265E+04   -.248E-01 -.108E+01 0.265E+04   0.353E-02 -.288E-01 0.190E+01   -.167E-01 -.476E-01 -.248E+00
   -.118E+00 -.885E+01 -.282E+04   0.956E-01 0.871E+01 0.282E+04   -.487E-03 0.929E-01 0.155E+01   0.222E-01 0.139E-01 0.136E+00
   0.717E+02 0.435E+02 -.303E+03   -.785E+02 -.477E+02 0.305E+03   0.680E+01 0.416E+01 -.209E+01   -.154E-01 -.104E-01 0.308E-01
   -.710E+02 0.448E+02 -.303E+03   0.777E+02 -.490E+02 0.305E+03   -.672E+01 0.428E+01 -.206E+01   0.156E-01 -.105E-01 0.306E-01
   -.439E+00 -.542E+02 -.174E+04   0.805E+00 0.956E+02 0.173E+04   -.361E+00 -.414E+02 0.918E+01   0.197E-02 -.251E-02 0.282E+00
   0.250E+00 0.331E+02 0.101E+02   -.142E-12 0.242E-12 0.659E-11   -.295E+00 -.331E+02 -.597E+01   0.431E-01 0.197E-02 -.421E+01

 POSITION                                       TOTAL-FORCE (eV/Angst)
      0.00000      0.00000      5.28219         0.000089      0.003332     -0.045466
      2.93046      0.00000      5.28219         0.003955     -0.002144      0.025570
      5.86091      0.00000      5.28219        -0.003871     -0.002277      0.025491
      1.46523      2.53785      5.28219        -0.004116     -0.000682      0.026651
      4.39568      2.53785      5.28219         0.000249     -0.005368      0.016639
      7.32614      2.53785      5.28219         0.004256     -0.000613      0.026681
      2.93046      5.07570      5.28219        -0.006213      0.001170      0.033068
      5.86091      5.07570      5.28219         0.006279      0.001095      0.033110
      8.79137      5.07570      5.28219        -0.000109      0.001138     -0.000618
      1.46523      0.84595      7.67490        -0.007720     -0.004272     -0.047782
      4.39568      0.84595      7.67490         0.000268     -0.041003     -0.066380
      7.32614      0.84595      7.67490         0.007781     -0.004302     -0.047812
      2.93046      3.38380      7.67490        -0.029796      0.022067     -0.066583
      5.86091      3.38380      7.67490         0.030315      0.022100     -0.066518
      8.79137      3.38380      7.67490         0.000124     -0.020603      0.013298
      4.39568      5.92165      7.67490         0.000016      0.012449     -0.052081
      7.32614      5.92165      7.67490        -0.016804      0.007671      0.018402
     10.25659      5.92165      7.67490         0.017001      0.007653      0.018331
      8.79137      1.69211     10.06133         0.000010     -0.006275      0.004180
      2.92756      1.69022     10.03254        -0.021213     -0.004875     -0.048460
      5.86381      1.69022     10.03254         0.021773     -0.004896     -0.048711
     10.25459      4.23091     10.07004         0.022998     -0.019183      0.003061
      4.39568      4.23310     10.03254         0.000326      0.043451     -0.026793
      7.32815      4.23091     10.07004        -0.023046     -0.019532      0.003411
     11.72164      6.76749     10.06133         0.008365      0.008110      0.004287
      5.86110      6.76749     10.06133        -0.008358      0.008234      0.004228
      8.79137      6.76528     10.07004         0.000141      0.032166     -0.005818
      0.00000      0.00000     12.45237         0.000037     -0.002661      0.029394
      2.94700      0.02679     12.48745        -0.042964     -0.066867     -0.056230
      5.84437      0.02679     12.48745         0.043110     -0.066135     -0.055485
      1.49670      2.53878     12.48745        -0.058950     -0.002037     -0.047293
      7.29466      2.53878     12.48745         0.058735     -0.002717     -0.046995
      2.94539      5.04797     12.48745        -0.070333      0.073162     -0.085439
      5.84598      5.04797     12.48745         0.070411      0.073648     -0.086005
      8.79137      5.07570     12.46721        -0.000175      0.002232      0.035690
      4.39568      2.53785     12.28926        -0.000689     -0.031804      0.574696
      3.60324      2.01738     14.83762        -0.001041     -0.002140      0.000193
      5.17892      2.00298     14.83449        -0.008217      0.004524      0.000795
      4.39518      2.53603     14.58272         0.007372     -0.013817      0.003293
    total drift:                               -0.002287      0.012913     -0.031076

  FREE ENERGIE OF THE ION-ELECTRON SYSTEM (eV)
  free  energy   TOTEN  =      -111.59721648 eV

  energy  without entropy=     -111.59721648  energy(sigma->0) =     -111.59721648

 stress matrix after NEB project (eV)
     -7.93059      0.00630      0.00161
      0.00630     -7.84803     -0.15666
      0.00161     -0.15666     -0.13222
  FORCES: max atom, RMS     0.016003    0.002998
  FORCE total and by dimension    0.018720    0.013817
  Stress total and by dimension   11.160307    7.930586
|           W    W    AA    RRRRR   N    N  II  N    N   GGGG   !!!           |
|           W    W   A  A   R    R  NN   N  II  NN   N  G    G  !!!           |
|           W    W  A    A  R    R  N N  N  II  N N  N  G       !!!           |
|           W WW W  AAAAAA  RRRRR   N  N N  II  N  N N  G  GGG   !            |
|           WW  WW  A    A  R   R   N   NN  II  N   NN  G    G                |
|           W    W  A    A  R    R  N    N  II  N    N   GGGG   !!!           |
|     Tetrahedron method does not include variations of the Fermi             |
|     occupations, so forces and stress will be inaccurate. We suggest        |
|     using a different smearing scheme ISMEAR = 1 or 2 for metals in         |
|     relaxations.                                                            |

 total charge

# of ion       s       p       d       tot
    1        0.422   0.199   9.178   9.799
    2        0.415   0.204   9.177   9.796
    3        0.415   0.204   9.177   9.796
    4        0.415   0.204   9.178   9.796
    5        0.420   0.202   9.176   9.798
    6        0.415   0.204   9.178   9.796
    7        0.414   0.204   9.178   9.796
    8        0.414   0.204   9.178   9.796
    9        0.416   0.202   9.177   9.796
   10        0.412   0.268   9.162   9.842
   11        0.408   0.266   9.168   9.843
   12        0.412   0.268   9.162   9.842
   13        0.406   0.267   9.168   9.842
   14        0.406   0.267   9.168   9.842
   15        0.404   0.267   9.165   9.835
   16        0.411   0.268   9.162   9.841
   17        0.403   0.267   9.165   9.835
   18        0.403   0.267   9.165   9.835
   19        0.405   0.263   9.165   9.833
   20        0.449   0.302   9.130   9.880
   21        0.449   0.302   9.130   9.880
   22        0.392   0.271   9.166   9.829
   23        0.448   0.301   9.130   9.879
   24        0.392   0.271   9.166   9.829
   25        0.403   0.263   9.166   9.833
   26        0.403   0.263   9.166   9.833
   27        0.393   0.271   9.166   9.829
   28        0.408   0.205   9.171   9.784
   29        0.448   0.227   9.146   9.821
   30        0.448   0.227   9.146   9.821
   31        0.449   0.225   9.147   9.821
   32        0.449   0.225   9.147   9.820
   33        0.445   0.220   9.151   9.816
   34        0.445   0.220   9.151   9.816
   35        0.402   0.206   9.175   9.783
   36        2.176   5.968   2.344  10.489
   37        0.600   0.118   0.000   0.717
   38        0.599   0.117   0.000   0.717
   39        1.565   3.622   0.000   5.186
tot         19.580  18.315 323.046 360.941

 BZINTS: Fermi energy:    0.597601;  406.000000 electrons
         Band energy:-0.174783E+04;  BLOECHL correction:   -0.017505