 vasp.6.2.0 18Jan21 (build Jun 12 2021 23:27:24) complex

 executed on             LinuxIFC date 2022.05.27  06:15:38

 INCAR:
   ISMEAR = -5
   SIGMA = 0.1
   ISPIN = 1
   EDIFF = 1.d-5
   EDIFFG = -0.01
   NSW = 0
   NELM = 150
   ENCUT = 500
   ISIF = 2
   IBRION = 2
   LREAL = Auto
   ALGO = Fast
   ICHARG = 11
   LORBIT = 10
   LCHARG = .F.
   LWAVE = .F.

 POTCAR:    PAW_PBE Cu 22Jun2005
 POTCAR:    PAW_PBE Hf 20Jan2003
 POTCAR:    PAW_PBE N 08Apr2002
|           W    W    AA    RRRRR   N    N  II  N    N   GGGG   !!!           |
|           W    W   A  A   R    R  NN   N  II  NN   N  G    G  !!!           |
|           W    W  A    A  R    R  N N  N  II  N N  N  G       !!!           |
|           W WW W  AAAAAA  RRRRR   N  N N  II  N  N N  G  GGG   !            |
|           WW  WW  A    A  R   R   N   NN  II  N   NN  G    G                |
|           W    W  A    A  R    R  N    N  II  N    N   GGGG   !!!           |
|     For optimal performance we recommend to set                             |
|       NCORE = 2 up to number-of-cores-per-socket                            |
|     This setting can greatly improve the performance of VASP for DFT.       |
|     The default, NCORE=1 might be grossly inefficient on modern             |
|     multi-core architectures or massively parallel machines. Do your        |
|     Unfortunately you need to use the default for GW and RPA                |
|     calculations (for HF NCORE is supported but not extensively tested      |
|     yet).                                                                   |

 POTCAR:    PAW_PBE Cu 22Jun2005
   VRHFIN =Cu: d10 p1

   TITEL  = PAW_PBE Cu 22Jun2005
   POMASS =   63.546; ZVAL   =   11.000    mass and valenz
   ENMAX  =  295.446; ENMIN  =  221.585 eV

 POTCAR:    PAW_PBE Hf 20Jan2003
   VRHFIN =Hf: 6s5d

   TITEL  = PAW_PBE Hf 20Jan2003
   POMASS =  178.490; ZVAL   =    4.000    mass and valenz
   ENMAX  =  220.334; ENMIN  =  165.250 eV

 POTCAR:    PAW_PBE N 08Apr2002
   VRHFIN =N: s2p3

   TITEL  = PAW_PBE N 08Apr2002
   POMASS =   14.001; ZVAL   =    5.000    mass and valenz
   ENMAX  =  400.000; ENMIN  =  300.000 eV

 Optimization of the real space projectors (new method)

 maximal supplied QI-value         = 16.25
 optimisation between [QCUT,QGAM] = [ 11.38, 22.75] = [ 36.24,144.96] Ry
 Optimized for a Real-space Cutoff    1.52 Angstroem

   l    n(q)    QCUT    max X(q) W(low)/X(q) W(high)/X(q)  e(spline)
   2      9    11.376     4.610    0.21E-03    0.10E-03    0.26E-06
   2      9    11.376     8.522    0.33E-03    0.16E-03    0.37E-06
   0     10    11.376    51.609    0.62E-04    0.20E-04    0.13E-06
   0     10    11.376    27.747    0.54E-04    0.20E-04    0.13E-06
   1     10    11.376    20.408    0.13E-04    0.99E-04    0.19E-06
   1     10    11.376    13.425    0.12E-04    0.87E-04    0.17E-06
 Optimization of the real space projectors (new method)

[...]

   l    n(q)    QCUT    max X(q) W(low)/X(q) W(high)/X(q)  e(spline)
   2     10    11.350    48.111    0.20E-03    0.11E-03    0.41E-06
   2     10    11.350    40.545    0.19E-03    0.10E-03    0.39E-06
   0     11    11.350   121.658    0.22E-04    0.19E-04    0.24E-06
   0     11    11.350    71.177    0.17E-04    0.17E-04    0.23E-06
   1     11    11.350    14.183    0.25E-03    0.43E-03    0.12E-05
   1     11    11.350     8.257    0.17E-03    0.29E-03    0.81E-06
 Optimization of the real space projectors (new method)

 maximal supplied QI-value         = 25.13
 optimisation between [QCUT,QGAM] = [ 11.31, 22.87] = [ 35.82,146.48] Ry
 Optimized for a Real-space Cutoff    1.27 Angstroem

   l    n(q)    QCUT    max X(q) W(low)/X(q) W(high)/X(q)  e(spline)
   0      9    11.310    79.467    0.75E-04    0.16E-03    0.36E-06
   0      9    11.310    66.151    0.74E-04    0.16E-03    0.36E-06
   1      8    11.310    17.416    0.35E-03    0.12E-03    0.95E-06
   1      8    11.310    12.382    0.37E-03    0.13E-03    0.98E-06
  PAW_PBE Cu 22Jun2005                  :
  PAW_PBE Hf 20Jan2003                  :
  PAW_PBE N 08Apr2002                   :

 POSCAR: Cu-Hf-N2
  positions in direct lattice
  velocities in cartesian coordinates
 exchange correlation table for  LEXCH =        8
   RHO(1)=    0.500       N(1)  =     2000
   RHO(2)=  100.500       N(2)  =     4000

 VTST: version 3.2, (02/03/18)

 CHAIN: initializing optimizer

 OPT: Using VASP Conjugate-Gradient optimizer
 CHAIN: Read ICHAIN            0

 POSCAR: Cu-Hf-N2
  positions in direct lattice
  velocities in cartesian coordinates

 ion  position               nearest neighbor table
   1  0.000  0.000  0.252-   7 2.57   3 2.57   4 2.57   2 2.57   6 2.57   8 2.57  12 2.57  10 2.57
                            16 2.57
   2  0.333  0.000  0.252-   8 2.57   9 2.57   5 2.57   1 2.57   3 2.57  11 2.57   4 2.57  10 2.57
                            17 2.57
   3  0.667  0.000  0.252-   1 2.57   7 2.57   6 2.57   9 2.57   2 2.57  12 2.57   5 2.57  18 2.57
                            11 2.57
   4  0.000  0.333  0.252-   5 2.57   6 2.57   1 2.57   7 2.57   2 2.57  13 2.57   9 2.57  10 2.57
                            15 2.57
   5  0.333  0.333  0.252-   4 2.57   2 2.57   7 2.57  13 2.57   8 2.57   6 2.57   3 2.57  11 2.57
                            14 2.57
   6  0.667  0.333  0.252-   4 2.57   9 2.57  15 2.57   3 2.57   1 2.57   8 2.57  14 2.57   5 2.57
                            12 2.57
   7  0.000  0.667  0.252-   1 2.57   3 2.57  16 2.57  18 2.57   4 2.57   5 2.57   8 2.57   9 2.57
                            13 2.57
   8  0.333  0.667  0.252-   9 2.57   2 2.57  17 2.57   6 2.57   1 2.57   7 2.57   5 2.57  14 2.57
                            16 2.57
   9  0.667  0.667  0.252-   8 2.57   6 2.57   2 2.57  17 2.57   3 2.57   7 2.57   4 2.57  15 2.57
                            18 2.57
  10  0.111  0.111  0.351-  26 2.54  19 2.54  11 2.57  12 2.57  13 2.57   1 2.57   2 2.57   4 2.57
                            15 2.57  16 2.57  17 2.57  20 2.58
  11  0.444  0.111  0.351-  27 2.56  10 2.57  13 2.57   2 2.57  17 2.57  14 2.57  12 2.57   5 2.57
                             3 2.57  18 2.57  20 2.57  21 2.57
  12  0.778  0.111  0.351-  19 2.54  25 2.54  15 2.57  10 2.57  14 2.57  18 2.57   3 2.57   1 2.57
                            16 2.57  11 2.57   6 2.57  21 2.58
  13  0.111  0.444  0.351-  22 2.56  16 2.57  18 2.57  10 2.57  11 2.57  14 2.57   5 2.57   4 2.57
                             7 2.57  15 2.57  23 2.57  20 2.57
  14  0.444  0.444  0.351-  24 2.56  15 2.57  17 2.57  12 2.57  16 2.57  13 2.57  11 2.57   6 2.57
                             8 2.57   5 2.57  21 2.57  23 2.57
  15  0.778  0.444  0.351-  19 2.55  24 2.56  22 2.56  14 2.57  17 2.57  12 2.57   6 2.57  18 2.57
                            10 2.57   9 2.57  13 2.57   4 2.57
  16  0.111  0.778  0.351-  25 2.54  26 2.54  18 2.57  13 2.57   7 2.57  14 2.57  17 2.57  12 2.57
                            10 2.57   8 2.57   1 2.57  23 2.58
  17  0.444  0.778  0.351-  26 2.55  27 2.56  24 2.56  14 2.57  15 2.57   8 2.57   9 2.57  11 2.57
                            16 2.57  18 2.57  10 2.57   2 2.57
  18  0.778  0.778  0.351-  25 2.55  22 2.56  27 2.56  16 2.57  13 2.57   7 2.57  15 2.57  12 2.57
                            17 2.57   9 2.57   3 2.57  11 2.57
  19  0.889  0.221  0.448-  12 2.54  10 2.54  15 2.55  25 2.56  26 2.56  32 2.57  31 2.57  22 2.57
                            24 2.57  21 2.57  20 2.57  28 2.57
  20  0.223  0.223  0.450-  23 2.55  21 2.55  27 2.57  22 2.57  26 2.57  19 2.57  11 2.57  13 2.57
                            10 2.58  29 2.58  31 2.58  36 2.77
  21  0.555  0.223  0.450-  20 2.55  23 2.55  24 2.57  27 2.57  19 2.57  25 2.57  14 2.57  11 2.57
                            12 2.58  32 2.58  30 2.58  36 2.77
  22  0.889  0.556  0.449-  18 2.56  15 2.56  13 2.56  24 2.56  27 2.56  23 2.57  20 2.57  31 2.57
                            33 2.57  19 2.57  25 2.57  35 2.58
  23  0.223  0.555  0.450-  20 2.55  21 2.55  22 2.57  24 2.57  25 2.57  26 2.57  13 2.57  14 2.57
                            16 2.58  33 2.58  34 2.58  36 2.77
  24  0.556  0.556  0.449-  15 2.56  17 2.56  14 2.56  22 2.56  27 2.56  21 2.57  23 2.57  32 2.57
                            34 2.57  19 2.57  26 2.57  35 2.58
  25  0.889  0.889  0.448-  12 2.54  16 2.54  18 2.55  19 2.56  26 2.56  33 2.57  30 2.57  22 2.57
                            27 2.57  21 2.57  23 2.57  28 2.57
  26  0.221  0.889  0.448-  10 2.54  16 2.54  17 2.55  25 2.56  19 2.56  29 2.57  34 2.57  27 2.57
                            24 2.57  20 2.57  23 2.57  28 2.57
  27  0.556  0.889  0.449-  17 2.56  18 2.56  11 2.56  24 2.56  22 2.56  20 2.57  21 2.57  29 2.57
                            30 2.57  26 2.57  25 2.57  35 2.58
  28  0.000  0.000  0.547-  33 2.55  30 2.55  31 2.55  29 2.55  32 2.55  34 2.55  25 2.57  19 2.57
                            26 2.57
  29  0.334  0.994  0.548-  34 2.48  35 2.54  28 2.55  26 2.57  27 2.57  20 2.58  30 2.60  31 2.61
                            36 2.62
  30  0.672  0.994  0.548-  33 2.48  35 2.54  28 2.55  25 2.57  27 2.57  21 2.58  29 2.60  32 2.61
                            36 2.62
  31  0.994  0.334  0.548-  32 2.48  35 2.54  28 2.55  19 2.57  22 2.57  20 2.58  33 2.60  29 2.61
                            36 2.62
  32  0.672  0.334  0.548-  31 2.48  35 2.54  28 2.55  19 2.57  24 2.57  21 2.58  34 2.60  30 2.61
                            36 2.62
  33  0.994  0.672  0.548-  30 2.48  35 2.54  28 2.55  25 2.57  22 2.57  23 2.58  31 2.60  34 2.61
                            36 2.62
  34  0.334  0.672  0.548-  29 2.48  35 2.54  28 2.55  26 2.57  24 2.57  23 2.58  32 2.60  33 2.61
                            36 2.62
  35  0.667  0.667  0.548-  34 2.54  32 2.54  29 2.54  30 2.54  33 2.54  31 2.54  24 2.58  27 2.58
                            22 2.58
  36  0.333  0.333  0.560-  38 2.56  37 2.56  31 2.62  29 2.62  33 2.62  32 2.62  34 2.62  30 2.62
                            23 2.77  20 2.77  21 2.77
  37  0.258  0.335  0.677-  38 1.14  36 2.56
  38  0.406  0.335  0.677-  37 1.14  36 2.56

  LATTYP: Found a hexagonal cell.
 ALAT       =     7.6967864036
 C/A-ratio  =     2.7653617908

  Lattice vectors:

 A1 = (  -3.8483927580,  -6.6656128093,   0.0000000000)
 A2 = (   7.6967864037,   0.0000000000,   0.0000000000)
 A3 = (   0.0000000000,   0.0000000000,  21.2843990326)

Analysis of symmetry for initial positions (statically):
 Subroutine PRICEL returns:
 Original cell was already a primitive cell.

 Routine SETGRP: Setting up the symmetry group for a
 hexagonal supercell.

 Subroutine GETGRP returns: Found  2 space group operations
 (whereof  2 operations were pure point group operations)
 out of a pool of 24 trial point group operations.

The static configuration has the point symmetry C_1h.

Analysis of symmetry for dynamics (positions and initial velocities):
 Subroutine PRICEL returns:
 Original cell was already a primitive cell.

[...]

The dynamic configuration has the point symmetry C_1h.

Analysis of constrained symmetry for selective dynamics:
 Subroutine PRICEL returns:
 Original cell was already a primitive cell.

 Routine SETGRP: Setting up the symmetry group for a
 hexagonal supercell.

[...]
     33      -3.8192      2.00000
     34      -3.8011      2.00000
     35      -3.7956      2.00000
     36      -3.7886      2.00000
     37      -3.7814      2.00000
     38      -3.7618      2.00000
     39      -3.7339      2.00000
     40      -3.6539      2.00000
     41      -3.6384      2.00000
     42      -3.4896      2.00000
     43      -3.4768      2.00000
     44      -3.4313      2.00000
     45      -3.4185      2.00000
     46      -3.3931      2.00000
     47      -3.3822      2.00000
     48      -3.3769      2.00000
     49      -3.3675      2.00000
     50      -3.3617      2.00000
     51      -3.2230      2.00000
     52      -3.1966      2.00000
     53      -3.1808      2.00000
     54      -3.1578      2.00000
     55      -3.1071      2.00000
     56      -3.0905      2.00000
     57      -3.0858      2.00000
     58      -3.0715      2.00000
     59      -3.0585      2.00000
     60      -3.0537      2.00000
[...]
    238       6.1404      0.00000
    239       6.2930      0.00000
    240       6.4811      0.00000
    241       6.4926      0.00000
    242       6.9596      0.00000
    243       7.0139      0.00000
    244       7.0517      0.00000
    245       7.0794      0.00000
    246       7.1208      0.00000
    247       7.1822      0.00000
    248       7.2655      0.00000
    249       7.5078      0.00000
    250       7.5226      0.00000
    251       7.6804      0.00000
    252       7.7998      0.00000

 soft charge-density along one line, spin component           1
         0         1         2         3         4         5         6         7         8         9
 total charge-density along one line

------------------------ aborting loop because EDIFF is reached ----------------------------------------

 total charge

# of ion       s       p       d       tot
    1        0.450   0.282   9.188   9.920
    2        0.447   0.286   9.185   9.918
    3        0.447   0.286   9.185   9.918
    4        0.446   0.285   9.187   9.918
    5        0.449   0.286   9.181   9.917
    6        0.446   0.285   9.187   9.918
    7        0.447   0.286   9.186   9.919
    8        0.447   0.286   9.186   9.919
    9        0.450   0.283   9.188   9.921
   10        0.443   0.371   9.175   9.989
   11        0.442   0.364   9.181   9.987
   12        0.443   0.371   9.175   9.989
   13        0.441   0.364   9.182   9.987
   14        0.441   0.364   9.182   9.987
   15        0.440   0.372   9.176   9.988
   16        0.442   0.371   9.176   9.989
   17        0.440   0.372   9.175   9.987
   18        0.440   0.372   9.175   9.987
   19        0.444   0.373   9.177   9.994
   20        0.458   0.386   9.160  10.004
   21        0.458   0.386   9.160  10.004
   22        0.434   0.374   9.178   9.986
   23        0.459   0.385   9.160  10.004
   24        0.434   0.374   9.178   9.986
   25        0.445   0.371   9.179   9.996
   26        0.445   0.371   9.179   9.996
   27        0.435   0.373   9.178   9.986
   28        0.444   0.300   9.179   9.923
   29        0.488   0.324   9.160   9.971
   30        0.488   0.324   9.160   9.971
   31        0.486   0.321   9.160   9.967
   32        0.486   0.321   9.160   9.967
   33        0.488   0.324   9.160   9.972
   34        0.488   0.324   9.160   9.972
   35        0.442   0.303   9.180   9.925
   36        0.605   0.504   2.006   3.115
   37        1.361   2.454   0.000   3.815
   38        1.361   2.454   0.000   3.815
tot         19.152  17.228 323.149 359.529

  FORCE on cell =-STRESS in cart. coord.  units (eV):
  Direction    XX          YY          ZZ          XY          YZ          ZX
  Alpha Z   896.16165   896.16165   896.16165
  Ewald  166673.21359166365.92576************     0.00035    -1.12087     0.00016
  Hartree179602.19351179496.85347************     0.00002    -1.49190     0.00005
  E(xc)   -2304.50481 -2305.48388 -2308.63778    -0.00028    -0.01455    -0.00005
  Local  ************************358623.04247     0.01997     2.74845    -0.00070
  n-local  -775.21286  -761.91551  -778.32961     1.68124    -0.12364     0.03186
  augment  3310.12164  3309.68132  3333.27561    -0.01800    -0.01230     0.00026
  Kinetic  3343.25592  3356.57840  3386.57502     0.61437    -0.05183    -0.25608
  Fock        0.00000     0.00000     0.00000     0.00000     0.00000     0.00000
  Total      -6.59445    -6.33325    -2.39147     0.00000    -0.06664     0.00000
  in kB      -9.67560    -9.29237    -3.50886     0.00000    -0.09778     0.00000

 VOLUME and BASIS-vectors are now :
  energy-cutoff  :      500.00
  volume of cell :     1091.97
      direct lattice vectors                 reciprocal lattice vectors
     7.696786404  0.000000000  0.000000000     0.129924354 -0.075011849  0.000000000
     3.848392758  6.665612809  0.000000000     0.000000000  0.150023716  0.000000000
     0.000000000  0.000000000 21.284399033     0.000000000  0.000000000  0.046982769

  length of vectors
     7.696786404  7.696786404 21.284399033     0.150023716  0.150023716  0.046982769

 FORCES acting on ions
    electron-ion (+dipol)            ewald-force                    non-local-force                 convergence-correction
   -.405E-04 0.321E-01 0.346E+04   0.581E-04 -.680E-02 -.345E+04   0.308E-08 -.462E-01 -.216E+01   -.222E-03 0.114E-01 0.752E-01
   -.113E+01 -.143E+01 0.345E+04   0.116E+01 0.145E+01 -.345E+04   0.284E-01 0.848E-01 -.185E+01   -.408E-01 -.998E-01 0.188E+00
   0.113E+01 -.143E+01 0.345E+04   -.116E+01 0.145E+01 -.345E+04   -.284E-01 0.848E-01 -.185E+01   0.415E-01 -.972E-01 0.188E+00
   -.192E+01 -.280E+00 0.345E+04   0.184E+01 0.272E+00 -.345E+04   0.150E+00 -.886E-02 -.202E+01   -.594E-01 0.202E-01 0.175E+00
   -.613E-04 0.767E-01 0.345E+04   0.116E-03 -.131E-02 -.345E+04   0.333E-08 -.500E-01 -.153E+01   0.122E-01 -.230E-01 0.375E+00
   0.192E+01 -.280E+00 0.345E+04   -.184E+01 0.272E+00 -.345E+04   -.150E+00 -.886E-02 -.202E+01   0.578E-01 0.215E-01 0.176E+00
   -.554E+00 0.169E+01 0.345E+04   0.683E+00 -.172E+01 -.345E+04   0.177E-01 -.577E-01 -.189E+01   -.133E+00 0.785E-01 0.212E+00
   0.554E+00 0.169E+01 0.345E+04   -.683E+00 -.172E+01 -.345E+04   -.177E-01 -.577E-01 -.189E+01   0.136E+00 0.772E-01 0.212E+00
   -.142E-03 -.486E-01 0.345E+04   0.263E-03 0.811E-02 -.345E+04   -.231E-08 0.347E-01 -.195E+01   -.133E-01 0.147E-01 0.173E+00
   -.125E+02 -.713E+01 0.116E+04   0.127E+02 0.725E+01 -.115E+04   -.201E+00 -.127E+00 -.921E+00   0.297E-01 0.166E-01 -.288E+00
   -.907E-04 -.136E+02 0.114E+04   0.189E-03 0.133E+02 -.113E+04   -.166E-07 0.250E+00 -.286E+00   0.113E-01 -.198E-01 -.296E+00
   0.125E+02 -.713E+01 0.116E+04   -.127E+02 0.725E+01 -.115E+04   0.201E+00 -.127E+00 -.921E+00   -.308E-01 0.182E-01 -.290E+00
   -.118E+02 0.678E+01 0.114E+04   0.116E+02 -.667E+01 -.113E+04   0.221E+00 -.127E+00 -.287E+00   -.212E-01 0.261E-01 -.254E+00
   0.118E+02 0.678E+01 0.114E+04   -.116E+02 -.667E+01 -.113E+04   -.221E+00 -.127E+00 -.287E+00   0.452E-01 0.258E-01 -.254E+00
   -.139E-03 -.823E+00 0.116E+04   0.295E-03 0.704E+00 -.116E+04   -.412E-08 0.619E-01 -.105E+01   -.344E-02 0.638E-01 -.287E+00
   -.932E-04 0.144E+02 0.116E+04   0.187E-03 -.146E+02 -.115E+04   -.151E-07 0.227E+00 -.828E+00   0.842E-04 -.433E-01 -.256E+00
   -.686E+00 0.376E+00 0.116E+04   0.583E+00 -.307E+00 -.116E+04   0.649E-01 -.279E-01 -.858E+00   0.435E-01 -.458E-01 -.265E+00
   0.686E+00 0.376E+00 0.116E+04   -.584E+00 -.308E+00 -.116E+04   -.649E-01 -.279E-01 -.858E+00   -.430E-01 -.435E-01 -.265E+00
   -.668E-04 -.948E+01 -.112E+04   0.738E-04 0.949E+01 0.112E+04   0.168E-08 -.253E-01 0.997E+00   0.106E-02 0.115E-01 -.490E+00
   -.765E+02 -.439E+02 -.125E+04   0.777E+02 0.445E+02 0.125E+04   -.109E+01 -.577E+00 -.563E+00   -.170E+00 -.536E-01 -.674E+00
   0.765E+02 -.439E+02 -.125E+04   -.777E+02 0.445E+02 0.125E+04   0.109E+01 -.577E+00 -.563E+00   0.149E+00 -.517E-01 -.676E+00
   -.372E+02 0.211E+02 -.115E+04   0.370E+02 -.210E+02 0.115E+04   0.264E+00 -.171E+00 0.685E+00   -.786E-01 0.258E-01 -.604E+00
   -.693E-04 0.879E+02 -.125E+04   0.157E-03 -.893E+02 0.125E+04   -.786E-07 0.118E+01 -.392E+00   0.130E-02 0.172E+00 -.719E+00
   0.372E+02 0.211E+02 -.115E+04   -.370E+02 -.210E+02 0.115E+04   -.264E+00 -.171E+00 0.685E+00   0.561E-01 0.279E-01 -.604E+00
   0.838E+01 0.495E+01 -.112E+04   -.847E+01 -.499E+01 0.112E+04   0.891E-01 0.543E-01 0.897E+00   0.129E-01 -.990E-02 -.531E+00
   -.838E+01 0.495E+01 -.112E+04   0.847E+01 -.499E+01 0.112E+04   -.891E-01 0.543E-01 0.897E+00   -.965E-02 -.109E-01 -.531E+00
   -.140E-03 -.428E+02 -.115E+04   0.239E-03 0.427E+02 0.115E+04   -.181E-07 0.272E+00 0.713E+00   -.132E-01 -.120E+00 -.615E+00
   -.290E-04 0.183E+01 -.335E+04   0.483E-04 -.195E+01 0.335E+04   -.592E-08 0.888E-01 0.170E+01   -.102E-02 0.214E-01 -.313E+00
   -.611E+02 -.111E+03 -.333E+04   0.614E+02 0.112E+03 0.333E+04   -.341E+00 -.337E+00 0.314E+00   -.478E-02 -.117E+00 -.319E+00
   0.611E+02 -.111E+03 -.333E+04   -.614E+02 0.112E+03 0.333E+04   0.341E+00 -.337E+00 0.314E+00   0.268E-01 -.116E+00 -.318E+00
   -.127E+03 0.487E+01 -.332E+04   0.127E+03 -.473E+01 0.332E+04   -.410E+00 -.155E+00 0.592E+00   -.108E+00 0.128E-01 -.343E+00
   0.127E+03 0.487E+01 -.332E+04   -.127E+03 -.473E+01 0.332E+04   0.410E+00 -.155E+00 0.592E+00   0.129E+00 0.146E-01 -.343E+00
   -.687E+02 0.106E+03 -.333E+04   0.688E+02 -.107E+03 0.333E+04   -.873E-01 0.493E+00 0.347E+00   -.716E-01 0.117E+00 -.351E+00
   0.687E+02 0.106E+03 -.333E+04   -.688E+02 -.107E+03 0.333E+04   0.873E-01 0.493E+00 0.347E+00   0.972E-01 0.117E+00 -.352E+00
   -.126E-03 -.222E+01 -.337E+04   0.249E-03 0.230E+01 0.337E+04   0.638E-08 -.959E-01 0.198E+01   -.148E-01 0.148E-01 -.305E+00
   -.316E-04 0.355E+00 -.121E+04   0.434E-04 -.341E+00 0.120E+04   0.263E-08 -.395E-01 0.356E+01   -.173E-03 -.587E-02 -.875E-01
   0.221E+03 0.194E+00 -.148E+04   -.265E+03 -.198E+00 0.148E+04   0.435E+02 0.128E-01 -.442E+01   -.342E-01 -.618E-02 0.825E-01
   -.221E+03 0.194E+00 -.148E+04   0.265E+03 -.198E+00 0.148E+04   -.435E+02 0.128E-01 -.442E+01   0.342E-01 -.614E-02 0.825E-01
   -.153E-03 -.536E-02 0.279E+02   0.114E-12 0.278E-12 -.296E-11   0.203E-08 -.305E-01 -.192E+02   0.353E-01 0.385E-01 -.869E+01

 POSITION                                       TOTAL-FORCE (eV/Angst)
      0.00000      0.00000      5.37156         0.000000     -0.009610     -0.001851
      2.56560      0.00000      5.37156         0.018616      0.007171      0.049631
      5.13119      0.00000      5.37156        -0.018616      0.007171      0.049631
      1.28280      2.22187      5.37156         0.015512      0.004049      0.042550
      3.84839      2.22187      5.37156        -0.000000      0.002343      0.050158
      6.41399      2.22187      5.37156        -0.015512      0.004049      0.042550
      2.56560      4.44374      5.37156         0.012369     -0.012753      0.039465
      5.13119      4.44374      5.37156        -0.012369     -0.012753      0.039465
      7.69679      4.44374      5.37156        -0.000000      0.008802      0.019047
      1.28280      0.74062      7.46636         0.011053      0.009073     -0.103554
      3.84839      0.74062      7.46636         0.000000     -0.019404     -0.023539
      6.41399      0.74062      7.46636        -0.011053      0.009073     -0.103554
      2.56560      2.96249      7.46636        -0.011943      0.013688     -0.031462
      5.13119      2.96249      7.46636         0.011943      0.013688     -0.031462
      7.69679      2.96249      7.46636        -0.000000      0.006017     -0.050594
      3.84839      5.18437      7.46636         0.000000     -0.019927     -0.097000
      6.41399      5.18437      7.46636         0.005221     -0.004168     -0.026089
      8.97958      5.18437      7.46636        -0.005221     -0.004168     -0.026089
      7.69679      1.47625      9.53578         0.000000     -0.002233      0.026238
      2.57143      1.48462      9.57247        -0.014124      0.001373     -0.038239
      5.12535      1.48462      9.57247         0.014124      0.001373     -0.038239
      8.97869      3.70363      9.55450        -0.000386     -0.005725      0.027353
      3.84839      3.69638      9.57247        -0.000000      0.016073     -0.049552
      6.41488      3.70363      9.55450         0.000386     -0.005725      0.027353
     10.26671      5.92749      9.53578         0.015091      0.009082      0.002370
      5.12686      5.92749      9.53578        -0.015091      0.009082      0.002370
      7.69679      5.92396      9.55450        -0.000000      0.010152      0.024173
      0.00000      0.00000     11.64309         0.000000     -0.002563      0.015190
      6.39641      6.62889     11.65568        -0.052201     -0.055226     -0.086409
      8.99717      6.62889     11.65568         0.052201     -0.055226     -0.086409
      8.93899      2.22500     11.65568        -0.022371     -0.000214     -0.012544
      6.45458      2.22500     11.65568         0.022371     -0.000214     -0.012544
     10.23937      4.47733     11.65568        -0.047783      0.051357     -0.083882
      5.15420      4.47733     11.65568         0.047783      0.051357     -0.083882
      7.69679      4.44374     11.66757        -0.000000      0.000465      0.001967
      3.84839      2.22187     11.91603         0.000000     -0.030917      0.562904
      3.27870      2.23362     14.41239        -0.054640      0.002693     -0.017759
      4.41808      2.23362     14.41239         0.054640      0.002693     -0.017759
    total drift:                                0.035170      0.002552      0.003889

  FREE ENERGIE OF THE ION-ELECTRON SYSTEM (eV)
  free  energy   TOTEN  =      -148.58465867 eV

  energy  without entropy=     -148.58465867  energy(sigma->0) =     -148.58465867

 stress matrix after NEB project (eV)
     -6.59445      0.00000      0.00000
      0.00000     -6.33325     -0.06664
      0.00000     -0.06664     -2.39147
  FORCES: max atom, RMS     0.057517    0.013195
  FORCE total and by dimension    0.081341    0.054640
  Stress total and by dimension    9.451181    6.594447
|           W    W    AA    RRRRR   N    N  II  N    N   GGGG   !!!           |
|           W    W   A  A   R    R  NN   N  II  NN   N  G    G  !!!           |
|           W    W  A    A  R    R  N N  N  II  N N  N  G       !!!           |
|           W WW W  AAAAAA  RRRRR   N  N N  II  N  N N  G  GGG   !            |
|           WW  WW  A    A  R   R   N   NN  II  N   NN  G    G                |
|           W    W  A    A  R    R  N    N  II  N    N   GGGG   !!!           |
|     Tetrahedron method does not include variations of the Fermi             |
|     occupations, so forces and stress will be inaccurate. We suggest        |
|     using a different smearing scheme ISMEAR = 1 or 2 for metals in         |
|     relaxations.                                                            |

 total charge

# of ion       s       p       d       tot
    1        0.450   0.282   9.188   9.920
    2        0.447   0.286   9.185   9.918
    3        0.447   0.286   9.185   9.918
    4        0.446   0.285   9.187   9.918
    5        0.449   0.286   9.181   9.917
    6        0.446   0.285   9.187   9.918
    7        0.447   0.286   9.186   9.919
    8        0.447   0.286   9.186   9.919
    9        0.450   0.283   9.188   9.921
   10        0.443   0.371   9.175   9.989
   11        0.442   0.364   9.181   9.987
   12        0.443   0.371   9.175   9.989
   13        0.441   0.364   9.182   9.987
   14        0.441   0.364   9.182   9.987
   15        0.440   0.372   9.176   9.988
   16        0.442   0.371   9.176   9.989
   17        0.440   0.372   9.175   9.987
   18        0.440   0.372   9.175   9.987
   19        0.444   0.373   9.177   9.994
   20        0.458   0.386   9.160  10.004
   21        0.458   0.386   9.160  10.004
   22        0.434   0.374   9.178   9.986
   23        0.459   0.385   9.160  10.004
   24        0.434   0.374   9.178   9.986
   25        0.445   0.371   9.179   9.996
   26        0.445   0.371   9.179   9.996
   27        0.435   0.373   9.178   9.986
   28        0.444   0.300   9.179   9.923
   29        0.488   0.324   9.160   9.971
   30        0.488   0.324   9.160   9.971
   31        0.486   0.321   9.160   9.967
   32        0.486   0.321   9.160   9.967
   33        0.488   0.324   9.160   9.972
   34        0.488   0.324   9.160   9.972
   35        0.442   0.303   9.180   9.925
   36        0.605   0.504   2.006   3.115
   37        1.361   2.454   0.000   3.815
   38        1.361   2.454   0.000   3.815
tot         19.152  17.228 323.149 359.529

 BZINTS: Fermi energy:    0.377817;  399.000000 electrons
         Band energy:-0.109259E+04;  BLOECHL correction:   -0.032279