 vasp.6.2.0 18Jan21 (build Jun 12 2021 23:27:24) complex

 executed on             LinuxIFC date 2022.05.30  18:47:11

 INCAR:
   ISMEAR = -5
   SIGMA = 0.1
   ISPIN = 1
   EDIFF = 1.d-5
   EDIFFG = -0.01
   NSW = 0
   NELM = 150
   ENCUT = 500
   ISIF = 2
   IBRION = 2
   LREAL = Auto
   ALGO = Fast
   ICHARG = 11
   LORBIT = 10
   LCHARG = .F.
   LWAVE = .F.

 POTCAR:    PAW_PBE Cu 22Jun2005
 POTCAR:    PAW_PBE Pt 04Feb2005
 POTCAR:    PAW_PBE C 08Apr2002
 POTCAR:    PAW_PBE O 08Apr2002
 POTCAR:    PAW_PBE H 15Jun2001
|           W    W    AA    RRRRR   N    N  II  N    N   GGGG   !!!           |
|           W    W   A  A   R    R  NN   N  II  NN   N  G    G  !!!           |
|           W    W  A    A  R    R  N N  N  II  N N  N  G       !!!           |
|           W WW W  AAAAAA  RRRRR   N  N N  II  N  N N  G  GGG   !            |
|           WW  WW  A    A  R   R   N   NN  II  N   NN  G    G                |
|           W    W  A    A  R    R  N    N  II  N    N   GGGG   !!!           |
|     For optimal performance we recommend to set                             |
|       NCORE = 2 up to number-of-cores-per-socket                            |
|     This setting can greatly improve the performance of VASP for DFT.       |
|     The default, NCORE=1 might be grossly inefficient on modern             |
|     multi-core architectures or massively parallel machines. Do your        |
|     Unfortunately you need to use the default for GW and RPA                |
|     calculations (for HF NCORE is supported but not extensively tested      |
|     yet).                                                                   |

 POTCAR:    PAW_PBE Cu 22Jun2005
   VRHFIN =Cu: d10 p1

   TITEL  = PAW_PBE Cu 22Jun2005
   POMASS =   63.546; ZVAL   =   11.000    mass and valenz
   ENMAX  =  295.446; ENMIN  =  221.585 eV

 POTCAR:    PAW_PBE Pt 04Feb2005
   VRHFIN =Pt: s1d9

   TITEL  = PAW_PBE Pt 04Feb2005
   POMASS =  195.080; ZVAL   =   10.000    mass and valenz
   ENMAX  =  230.283; ENMIN  =  172.712 eV

 POTCAR:    PAW_PBE C 08Apr2002
   VRHFIN =C: s2p2

   TITEL  = PAW_PBE C 08Apr2002
   POMASS =   12.011; ZVAL   =    4.000    mass and valenz
   ENMAX  =  400.000; ENMIN  =  300.000 eV

 POTCAR:    PAW_PBE O 08Apr2002
   VRHFIN =O: s2p4

   TITEL  = PAW_PBE O 08Apr2002
   POMASS =   16.000; ZVAL   =    6.000    mass and valenz
   ENMAX  =  400.000; ENMIN  =  300.000 eV

 POTCAR:    PAW_PBE H 15Jun2001
   VRHFIN =H: ultrasoft test

   TITEL  = PAW_PBE H 15Jun2001
   POMASS =    1.000; ZVAL   =    1.000    mass and valenz
   ENMAX  =  250.000; ENMIN  =  200.000 eV

 Optimization of the real space projectors (new method)

 maximal supplied QI-value         = 16.25
 optimisation between [QCUT,QGAM] = [ 11.38, 22.75] = [ 36.24,144.96] Ry
 Optimized for a Real-space Cutoff    1.52 Angstroem

   l    n(q)    QCUT    max X(q) W(low)/X(q) W(high)/X(q)  e(spline)
   2      9    11.376     4.610    0.21E-03    0.10E-03    0.26E-06
   2      9    11.376     8.522    0.33E-03    0.16E-03    0.37E-06
   0     10    11.376    51.609    0.62E-04    0.20E-04    0.13E-06
   0     10    11.376    27.747    0.54E-04    0.20E-04    0.13E-06
   1     10    11.376    20.408    0.13E-04    0.99E-04    0.19E-06
   1     10    11.376    13.425    0.12E-04    0.87E-04    0.17E-06
 Optimization of the real space projectors (new method)

[...]

   l    n(q)    QCUT    max X(q) W(low)/X(q) W(high)/X(q)  e(spline)
   0      7    11.387    20.381    0.39E-03    0.13E-02    0.15E-06
   0      7    11.387    15.268    0.42E-03    0.14E-02    0.17E-06
   1      6    11.387     5.964    0.41E-03    0.11E-02    0.17E-06
   1      6    11.387     5.382    0.39E-03    0.87E-03    0.15E-06
 Optimization of the real space projectors (new method)

 maximal supplied QI-value         = 34.20
 optimisation between [QCUT,QGAM] = [ 11.29, 22.57] = [ 35.68,142.71] Ry
 Optimized for a Real-space Cutoff    1.16 Angstroem

   l    n(q)    QCUT    max X(q) W(low)/X(q) W(high)/X(q)  e(spline)
   0      8    11.287    19.460    0.40E-03    0.73E-03    0.16E-06
   0      8    11.287    12.209    0.38E-03    0.70E-03    0.15E-06
   1      7    11.287     4.655    0.22E-03    0.25E-04    0.22E-06
  PAW_PBE Cu 22Jun2005                  :
  PAW_PBE Pt 04Feb2005                  :
  PAW_PBE C 08Apr2002                   :
  PAW_PBE O 08Apr2002                   :
  PAW_PBE H 15Jun2001                   :

 POSCAR: Cu-Pt-COH
  positions in direct lattice
  velocities in cartesian coordinates
 exchange correlation table for  LEXCH =        8
   RHO(1)=    0.500       N(1)  =     2000
   RHO(2)=  100.500       N(2)  =     4000

 VTST: version 3.2, (02/03/18)

 CHAIN: initializing optimizer

 OPT: Using VASP Conjugate-Gradient optimizer
 CHAIN: Read ICHAIN            0

 POSCAR: Cu-Pt-COH
  positions in direct lattice
  velocities in cartesian coordinates

 ion  position               nearest neighbor table
   1  0.000  0.000  0.206-   7 2.57   3 2.57   4 2.57   2 2.57   6 2.57   8 2.57  12 2.57  10 2.57
                            16 2.57
   2  0.333  0.000  0.206-   8 2.57   9 2.57   5 2.57   1 2.57   3 2.57  11 2.57   4 2.57  10 2.57
                            17 2.57
   3  0.667  0.000  0.206-   1 2.57   7 2.57   6 2.57   9 2.57   2 2.57  12 2.57   5 2.57  18 2.57
                            11 2.57
   4  0.000  0.333  0.206-   5 2.57   6 2.57   1 2.57   7 2.57   2 2.57  13 2.57   9 2.57  10 2.57
                            15 2.57
   5  0.333  0.333  0.206-   4 2.57   2 2.57   7 2.57  13 2.57   8 2.57   6 2.57   3 2.57  11 2.57
                            14 2.57
   6  0.667  0.333  0.206-   4 2.57   9 2.57  15 2.57   3 2.57   1 2.57   8 2.57  14 2.57   5 2.57
                            12 2.57
   7  0.000  0.667  0.206-   1 2.57   3 2.57  16 2.57  18 2.57   4 2.57   5 2.57   8 2.57   9 2.57
                            13 2.57
   8  0.333  0.667  0.206-   9 2.57   2 2.57  17 2.57   6 2.57   1 2.57   7 2.57   5 2.57  14 2.57
                            16 2.57
   9  0.667  0.667  0.206-   8 2.57   6 2.57   2 2.57  17 2.57   3 2.57   7 2.57   4 2.57  15 2.57
                            18 2.57
  10  0.111  0.111  0.286-  20 2.53  26 2.56  19 2.56  11 2.57  12 2.57  13 2.57   1 2.57   2 2.57
                             4 2.57  15 2.57  16 2.57  17 2.57
  11  0.444  0.111  0.286-  20 2.55  21 2.55  27 2.56  10 2.57  13 2.57   2 2.57  17 2.57  14 2.57
                            12 2.57   5 2.57   3 2.57  18 2.57
  12  0.778  0.111  0.286-  21 2.53  19 2.56  25 2.56  15 2.57  10 2.57  14 2.57  18 2.57   3 2.57
                             1 2.57  16 2.57  11 2.57   6 2.57
  13  0.111  0.444  0.286-  23 2.55  20 2.55  22 2.56  16 2.57  18 2.57  10 2.57  11 2.57  14 2.57
                             5 2.57   4 2.57   7 2.57  15 2.57
  14  0.444  0.444  0.286-  21 2.55  23 2.55  24 2.56  15 2.57  17 2.57  12 2.57  16 2.57  13 2.57
                            11 2.57   6 2.57   8 2.57   5 2.57
  15  0.778  0.444  0.286-  19 2.56  24 2.56  22 2.56  14 2.57  17 2.57  12 2.57   6 2.57  18 2.57
                            10 2.57   9 2.57  13 2.57   4 2.57
  16  0.111  0.778  0.286-  23 2.53  25 2.56  26 2.56  18 2.57  13 2.57   7 2.57  14 2.57  17 2.57
                            12 2.57  10 2.57   8 2.57   1 2.57
  17  0.444  0.778  0.286-  26 2.56  27 2.56  24 2.56  14 2.57  15 2.57   8 2.57   9 2.57  11 2.57
                            16 2.57  18 2.57  10 2.57   2 2.57
  18  0.778  0.778  0.286-  25 2.56  22 2.56  27 2.56  16 2.57  13 2.57   7 2.57  15 2.57  12 2.57
                            17 2.57   9 2.57   3 2.57  11 2.57
  19  0.888  0.223  0.366-  28 2.54  32 2.55  31 2.55  21 2.55  20 2.55  15 2.56  12 2.56  10 2.56
                            22 2.56  24 2.56  25 2.58  26 2.58
  20  0.221  0.221  0.365-  10 2.53  11 2.55  13 2.55  26 2.55  19 2.55  27 2.57  22 2.57  29 2.59
                            31 2.59  36 2.60  23 2.60  21 2.60
  21  0.558  0.221  0.365-  12 2.53  14 2.55  11 2.55  19 2.55  25 2.55  24 2.57  27 2.57  32 2.59
                            30 2.59  36 2.60  20 2.60  23 2.60
  22  0.889  0.556  0.365-  35 2.54  18 2.56  15 2.56  13 2.56  19 2.56  25 2.56  24 2.56  27 2.56
                            31 2.57  33 2.57  23 2.57  20 2.57
  23  0.221  0.558  0.365-  16 2.53  13 2.55  14 2.55  25 2.55  26 2.55  22 2.57  24 2.57  33 2.59
                            34 2.59  36 2.60  20 2.60  21 2.60
  24  0.556  0.556  0.365-  35 2.54  15 2.56  17 2.56  14 2.56  19 2.56  26 2.56  22 2.56  27 2.56
                            32 2.57  34 2.57  21 2.57  23 2.57
  25  0.888  0.888  0.366-  28 2.54  33 2.55  30 2.55  21 2.55  23 2.55  18 2.56  16 2.56  12 2.56
                            22 2.56  27 2.56  19 2.58  26 2.58
  26  0.223  0.888  0.366-  28 2.54  29 2.55  34 2.55  20 2.55  23 2.55  17 2.56  10 2.56  16 2.56
                            27 2.56  24 2.56  25 2.58  19 2.58
  27  0.556  0.889  0.365-  35 2.54  17 2.56  18 2.56  11 2.56  26 2.56  25 2.56  24 2.56  22 2.56
                            29 2.57  30 2.57  20 2.57  21 2.57
  28  0.000  0.000  0.445-  25 2.54  19 2.54  26 2.54  33 2.55  30 2.55  31 2.55  29 2.55  32 2.55
                            34 2.55
  29  0.333  0.997  0.446-  34 2.52  26 2.55  28 2.55  35 2.56  27 2.57  31 2.59  20 2.59  36 2.59
                            30 2.59
  30  0.670  0.997  0.446-  33 2.52  25 2.55  28 2.55  35 2.56  27 2.57  32 2.59  21 2.59  36 2.59
                            29 2.59
  31  0.997  0.333  0.446-  32 2.52  19 2.55  28 2.55  35 2.56  22 2.57  29 2.59  20 2.59  36 2.59
                            33 2.59
  32  0.670  0.333  0.446-  31 2.52  19 2.55  28 2.55  35 2.56  24 2.57  30 2.59  21 2.59  36 2.59
                            34 2.59
  33  0.997  0.670  0.446-  30 2.52  25 2.55  28 2.55  35 2.56  22 2.57  34 2.59  23 2.59  36 2.59
                            31 2.59
  34  0.333  0.670  0.446-  29 2.52  26 2.55  28 2.55  35 2.56  24 2.57  33 2.59  23 2.59  36 2.59
                            32 2.59
  35  0.667  0.667  0.444-  24 2.54  27 2.54  22 2.54  34 2.56  32 2.56  29 2.56  30 2.56  33 2.56
                            31 2.56
  36  0.333  0.333  0.446-  37 1.81  31 2.59  29 2.59  33 2.59  34 2.59  32 2.59  30 2.59  23 2.60
                            20 2.60  21 2.60
  37  0.333  0.333  0.515-  38 1.25  36 1.81
  38  0.333  0.333  0.563-  39 0.97  37 1.25
  39  0.333  0.333  0.600-  38 0.97

  LATTYP: Found a hexagonal cell.
 ALAT       =     7.6967864036
 C/A-ratio  =     3.3950614187

  Lattice vectors:

 A1 = (  -3.8483927580,  -6.6656128093,   0.0000000000)
 A2 = (   7.6967864037,   0.0000000000,   0.0000000000)
 A3 = (   0.0000000000,   0.0000000000,  26.1310625667)

Analysis of symmetry for initial positions (statically):
 Subroutine PRICEL returns:
 Original cell was already a primitive cell.

 Routine SETGRP: Setting up the symmetry group for a
 hexagonal supercell.

 Subroutine GETGRP returns: Found  6 space group operations
 (whereof  6 operations were pure point group operations)
 out of a pool of 24 trial point group operations.

The static configuration has the point symmetry C_3v.

Analysis of symmetry for dynamics (positions and initial velocities):
[...]
     41      -3.8411      2.00000
     42      -3.7784      2.00000
     43      -3.7470      2.00000
     44      -3.6503      2.00000
     45      -3.6390      2.00000
     46      -3.5874      2.00000
     47      -3.5658      2.00000
     48      -3.5571      2.00000
     49      -3.5372      2.00000
     50      -3.5315      2.00000
     51      -3.4578      2.00000
     52      -3.4470      2.00000
     53      -3.4026      2.00000
     54      -3.3647      2.00000
     55      -3.3072      2.00000
     56      -3.2997      2.00000
     57      -3.2640      2.00000
     58      -3.2418      2.00000
     59      -3.2302      2.00000
     60      -3.2163      2.00000
[...]
    238       5.2395      0.00000
    239       5.2588      0.00000
    240       5.4713      0.00000
    241       5.4962      0.00000
    242       5.5593      0.00000
    243       5.6502      0.00000
    244       5.6847      0.00000
    245       5.7825      0.00000
    246       5.8454      0.00000
    247       5.9742      0.00000
    248       6.1247      0.00000
    249       6.3003      0.00000
    250       6.4143      0.00000
    251       6.4969      0.00000
    252       6.8064      0.00000

 soft charge-density along one line, spin component           1
         0         1         2         3         4         5         6         7         8         9
 total charge-density along one line

------------------------ aborting loop because EDIFF is reached ----------------------------------------

 total charge

# of ion       s       p       d       tot
    1        0.445   0.287   9.187   9.919
    2        0.449   0.285   9.187   9.921
    3        0.449   0.285   9.187   9.921
    4        0.449   0.285   9.187   9.921
    5        0.446   0.286   9.188   9.921
    6        0.449   0.285   9.187   9.921
    7        0.449   0.285   9.187   9.921
    8        0.449   0.285   9.187   9.921
    9        0.444   0.288   9.184   9.917
   10        0.443   0.373   9.178   9.994
   11        0.442   0.372   9.179   9.993
   12        0.443   0.373   9.178   9.994
   13        0.442   0.372   9.179   9.993
   14        0.442   0.372   9.179   9.993
   15        0.439   0.370   9.182   9.990
   16        0.443   0.373   9.178   9.994
   17        0.439   0.370   9.182   9.990
   18        0.439   0.370   9.182   9.990
   19        0.445   0.373   9.182  10.000
   20        0.443   0.392   9.173  10.008
   21        0.443   0.392   9.173  10.008
   22        0.438   0.372   9.181   9.992
   23        0.443   0.392   9.173  10.008
   24        0.438   0.372   9.181   9.992
   25        0.445   0.373   9.182  10.000
   26        0.445   0.373   9.182  10.000
   27        0.438   0.372   9.181   9.992
   28        0.457   0.295   9.191   9.943
   29        0.439   0.307   9.197   9.943
   30        0.439   0.307   9.197   9.943
   31        0.439   0.307   9.197   9.943
   32        0.439   0.307   9.197   9.943
   33        0.439   0.307   9.197   9.943
   34        0.439   0.307   9.197   9.943
   35        0.454   0.296   9.191   9.941
   36        0.769   0.885   8.049   9.702
   37        0.927   1.419   0.000   2.346
   38        1.534   3.742   0.000   5.276
   39        0.550   0.127   0.000   0.677
tot         19.308  17.933 329.518 366.759

  FORCE on cell =-STRESS in cart. coord.  units (eV):
  Direction    XX          YY          ZZ          XY          YZ          ZX
  Alpha Z   747.46312   747.46312   747.46312
  Ewald  273007.58406273007.58361************     0.00040     0.00012     0.00019
  Hartree286133.64887286133.64884************     0.00004     0.00006     0.00007
  E(xc)   -2340.06844 -2340.06805 -2342.63270    -0.00034    -0.00003    -0.00005
  Local  ************************572203.92576     0.01887    -0.00060    -0.00098
  n-local  -776.40656  -762.49961  -781.58145     7.58041    -0.03746     0.21640
  augment  3368.94898  3368.96917  3376.38481    -0.01749     0.00036     0.00063
  Kinetic  3495.97365  3496.15249  3445.23663     1.65531     2.05836    -1.34823
  Fock        0.00000     0.00000     0.00000     0.00000     0.00000     0.00000
  Total      -1.89568    -1.89569     2.60300     0.00000    -0.00000     0.00000
  in kB      -2.26553    -2.26553     3.11084     0.00000    -0.00000     0.00000

 VOLUME and BASIS-vectors are now :
  energy-cutoff  :      500.00
  volume of cell :     1340.62
      direct lattice vectors                 reciprocal lattice vectors
     7.696786404  0.000000000  0.000000000     0.129924354 -0.075011849  0.000000000
     3.848392758  6.665612809  0.000000000     0.000000000  0.150023716  0.000000000
     0.000000000  0.000000000 26.131062567     0.000000000  0.000000000  0.038268631

  length of vectors
     7.696786404  7.696786404 26.131062567     0.150023716  0.150023716  0.038268631

 FORCES acting on ions
    electron-ion (+dipol)            ewald-force                    non-local-force                 convergence-correction
   -.436E-04 -.992E-06 0.396E+04   0.579E-04 -.441E-05 -.396E+04   -.450E-17 -.276E-17 -.263E+01   -.327E-03 -.156E-03 -.170E+00
   -.549E-01 0.784E-01 0.396E+04   0.919E-01 0.258E-01 -.396E+04   -.607E-01 -.840E-01 -.187E+01   0.188E-01 -.163E-01 -.669E-01
   0.550E-01 0.784E-01 0.396E+04   -.920E-01 0.258E-01 -.396E+04   0.607E-01 -.840E-01 -.187E+01   -.180E-01 -.139E-01 -.660E-01
   0.404E-01 -.868E-01 0.396E+04   0.683E-01 0.668E-01 -.396E+04   -.103E+00 -.106E-01 -.187E+01   -.461E-02 0.244E-01 -.669E-01
   -.693E-04 -.770E-05 0.396E+04   0.116E-03 -.101E-04 -.396E+04   -.538E-18 0.162E-17 -.226E+01   0.121E-01 0.738E-02 0.188E-01
   -.404E-01 -.867E-01 0.396E+04   -.684E-01 0.666E-01 -.396E+04   0.103E+00 -.106E-01 -.187E+01   0.310E-02 0.256E-01 -.659E-01
   0.954E-01 0.836E-02 0.396E+04   -.237E-01 -.925E-01 -.396E+04   -.424E-01 0.946E-01 -.187E+01   -.210E-01 -.872E-02 -.659E-01
   -.953E-01 0.835E-02 0.396E+04   0.234E-01 -.925E-01 -.396E+04   0.424E-01 0.946E-01 -.187E+01   0.244E-01 -.101E-01 -.659E-01
   -.146E-03 -.339E-04 0.396E+04   0.263E-03 0.206E-04 -.396E+04   0.353E-17 -.927E-18 -.220E+01   -.131E-01 -.675E-02 -.157E-01
   0.215E+01 0.124E+01 0.140E+04   -.190E+01 -.110E+01 -.140E+04   -.342E+00 -.197E+00 -.963E+00   0.110E+00 0.634E-01 0.324E+00
   -.910E-04 -.117E+01 0.139E+04   0.191E-03 0.120E+01 -.139E+04   0.661E-08 -.992E-01 -.985E+00   0.118E-01 0.376E-01 0.393E+00
   -.215E+01 0.124E+01 0.140E+04   0.190E+01 -.110E+01 -.140E+04   0.342E+00 -.197E+00 -.963E+00   -.111E+00 0.640E-01 0.323E+00
   -.101E+01 0.585E+00 0.139E+04   0.104E+01 -.600E+00 -.139E+04   -.859E-01 0.496E-01 -.985E+00   0.390E-01 -.776E-02 0.393E+00
   0.101E+01 0.585E+00 0.139E+04   -.104E+01 -.600E+00 -.139E+04   0.859E-01 0.496E-01 -.985E+00   -.158E-01 -.949E-02 0.390E+00
   -.142E-03 -.220E+00 0.140E+04   0.299E-03 0.151E+00 -.140E+04   0.828E-09 -.124E-01 -.487E+00   -.298E-02 0.683E-01 0.327E+00
   -.918E-04 -.249E+01 0.140E+04   0.186E-03 0.220E+01 -.140E+04   -.263E-07 0.395E+00 -.963E+00   -.117E-02 -.130E+00 0.323E+00
   -.190E+00 0.110E+00 0.140E+04   0.131E+00 -.752E-01 -.140E+04   -.108E-01 0.621E-02 -.487E+00   0.584E-01 -.368E-01 0.327E+00
   0.191E+00 0.110E+00 0.140E+04   -.131E+00 -.753E-01 -.140E+04   0.108E-01 0.621E-02 -.487E+00   -.567E-01 -.344E-01 0.329E+00
   -.523E-04 0.110E+01 -.119E+04   0.678E-04 -.120E+01 0.119E+04   -.357E-09 0.536E-02 0.569E+00   0.105E-02 0.564E-01 0.490E+00
   -.222E+02 -.128E+02 -.119E+04   0.223E+02 0.129E+02 0.119E+04   -.169E+00 -.978E-01 -.187E-02   0.968E-01 0.557E-01 0.440E+00
   0.222E+02 -.128E+02 -.119E+04   -.223E+02 0.129E+02 0.119E+04   0.169E+00 -.978E-01 -.187E-02   -.118E+00 0.533E-01 0.440E+00
   -.118E+02 0.683E+01 -.119E+04   0.113E+02 -.650E+01 0.119E+04   0.515E+00 -.297E+00 0.120E+01   0.915E-01 -.397E-01 0.372E+00
   -.804E-04 0.256E+02 -.119E+04   0.146E-03 -.258E+02 0.119E+04   -.130E-07 0.196E+00 -.187E-02   -.139E-01 -.130E+00 0.440E+00
   0.118E+02 0.683E+01 -.119E+04   -.113E+02 -.650E+01 0.119E+04   -.515E+00 -.297E+00 0.120E+01   -.678E-01 -.400E-01 0.372E+00
   -.952E+00 -.549E+00 -.119E+04   0.104E+01 0.598E+00 0.119E+04   -.464E-02 -.268E-02 0.569E+00   -.506E-01 -.292E-01 0.490E+00
   0.952E+00 -.549E+00 -.119E+04   -.104E+01 0.598E+00 0.119E+04   0.464E-02 -.268E-02 0.569E+00   0.497E-01 -.271E-01 0.490E+00
   -.127E-03 -.137E+02 -.119E+04   0.246E-03 0.130E+02 0.119E+04   -.396E-07 0.595E+00 0.120E+01   0.113E-01 0.990E-01 0.372E+00
   -.338E-04 0.187E-04 -.377E+04   0.363E-04 -.341E-04 0.376E+04   0.116E-17 0.432E-18 0.149E+01   -.172E-03 -.480E-04 0.310E+00
   -.339E+00 0.235E+01 -.376E+04   -.702E+00 -.434E+01 0.375E+04   0.824E+00 0.160E+01 0.248E+01   0.370E-01 0.442E-01 0.370E+00
   0.339E+00 0.235E+01 -.376E+04   0.702E+00 -.434E+01 0.375E+04   -.824E+00 0.160E+01 0.248E+01   -.364E-01 0.455E-01 0.369E+00
   0.186E+01 -.147E+01 -.376E+04   -.411E+01 0.156E+01 0.375E+04   0.180E+01 -.852E-01 0.248E+01   0.569E-01 0.984E-02 0.370E+00
   -.186E+01 -.147E+01 -.376E+04   0.411E+01 0.156E+01 0.375E+04   -.180E+01 -.852E-01 0.248E+01   -.572E-01 0.106E-01 0.371E+00
   0.220E+01 -.881E+00 -.376E+04   -.341E+01 0.278E+01 0.375E+04   0.971E+00 -.151E+01 0.248E+01   0.212E-01 -.543E-01 0.369E+00
   -.220E+01 -.881E+00 -.376E+04   0.341E+01 0.278E+01 0.375E+04   -.971E+00 -.151E+01 0.248E+01   -.187E-01 -.548E-01 0.371E+00
   -.166E-03 -.321E-04 -.377E+04   0.259E-03 0.378E-05 0.377E+04   -.530E-17 0.894E-18 0.167E+01   -.124E-01 -.635E-02 0.383E+00
   -.111E-04 -.284E-04 -.321E+04   0.123E-03 0.248E-04 0.321E+04   0.918E-17 0.145E-17 0.965E+00   0.237E-02 0.144E-02 0.379E+00
   -.707E-05 -.762E-04 -.152E+04   0.104E-04 0.489E-05 0.150E+04   -.139E-18 -.237E-18 0.184E+02   0.104E-02 0.630E-03 0.399E-01
   0.231E-03 -.714E-04 -.231E+04   0.241E-05 0.228E-05 0.232E+04   0.255E-19 0.565E-19 -.685E+01   0.334E-02 0.205E-02 -.136E+00
   0.307E-05 -.140E-04 -.411E+03   0.772E-07 0.149E-06 0.420E+03   -.541E-19 0.138E-19 -.824E+01   0.172E-03 0.105E-03 -.272E-01
   -.317E-04 -.189E-03 -.117E+02   -.116E-12 0.190E-12 -.155E-10   0.115E-15 -.442E-15 0.194E+01   0.297E-01 0.142E-01 0.964E+01

 POSITION                                       TOTAL-FORCE (eV/Angst)
      0.00000      0.00000      5.37156         0.000000     -0.000000      0.084711
      2.56560      0.00000      5.37156        -0.004498      0.004933      0.062850
      5.13119      0.00000      5.37156         0.004498      0.004933      0.062850
      1.28280      2.22187      5.37156         0.002023     -0.006362      0.062850
      3.84839      2.22187      5.37156         0.000000     -0.000000      0.030918
      6.41399      2.22187      5.37156        -0.002023     -0.006362      0.062850
      2.56560      4.44374      5.37156         0.006521      0.001429      0.062850
      5.13119      4.44374      5.37156        -0.006521      0.001429      0.062850
      7.69679      4.44374      5.37156         0.000000     -0.000000      0.077917
      1.28280      0.74062      7.46636         0.020517      0.011845     -0.053298
      3.84839      0.74062      7.46636         0.000000     -0.039027     -0.162893
      6.41399      0.74062      7.46636        -0.020517      0.011845     -0.053298
      2.56560      2.96249      7.46636        -0.033798      0.019513     -0.162893
      5.13119      2.96249      7.46636         0.033798      0.019513     -0.162893
      7.69679      2.96249      7.46636         0.000000     -0.013574     -0.035374
      3.84839      5.18437      7.46636         0.000000     -0.023690     -0.053298
      6.41399      5.18437      7.46636        -0.011755      0.006787     -0.035374
      8.97958      5.18437      7.46636         0.011755      0.006787     -0.035374
      7.69679      1.48680      9.55287         0.000000     -0.033792     -0.035909
      2.54973      1.47208      9.52995         0.083436      0.048172     -0.117166
      5.14706      1.47208      9.52995        -0.083436      0.048172     -0.117166
      8.97744      3.70436      9.55084         0.022857     -0.013197      0.009767
      3.84839      3.72144      9.52995         0.000000     -0.096343     -0.117166
      6.41613      3.70436      9.55084        -0.022857     -0.013197      0.009767
     10.25757      5.92221      9.55287         0.029264      0.016896     -0.035909
      5.13600      5.92221      9.55287        -0.029264      0.016896     -0.035909
      7.69679      5.92251      9.55084        -0.000000      0.026393      0.009767
      0.00000      0.00000     11.61595         0.000000     -0.000000      0.018212
      6.40108      6.64688     11.64473        -0.180003     -0.350777     -0.094070
      8.99249      6.64688     11.64473         0.180003     -0.350777     -0.094070
      8.95691      2.22006     11.64473        -0.393783      0.019502     -0.094070
      6.43666      2.22006     11.64473         0.393783      0.019502     -0.094070
     10.25261      4.46428     11.64473        -0.213781      0.331275     -0.094070
      5.14096      4.46428     11.64473         0.213781      0.331275     -0.094070
      7.69679      4.44374     11.61500         0.000000     -0.000000      0.053076
      3.84839      2.22187     11.65010         0.000000     -0.000000      1.082233
      3.84839      2.22187     13.46305         0.000000     -0.000000      0.038307
      3.84839      2.22187     14.71540         0.000000     -0.000000     -0.049399
      3.84839      2.22187     15.68395         0.000000     -0.000000      0.035959
    total drift:                                0.029668      0.014050     -0.140725

  FREE ENERGIE OF THE ION-ELECTRON SYSTEM (eV)
  free  energy   TOTEN  =      -145.54908055 eV

  energy  without entropy=     -145.54908055  energy(sigma->0) =     -145.54908055

 stress matrix after NEB project (eV)
     -1.89568      0.00000      0.00000
      0.00000     -1.89569     -0.00000
     -0.00000     -0.00000      2.60300
  FORCES: max atom, RMS     0.049399    0.011548
  FORCE total and by dimension    0.072116    0.049399
  Stress total and by dimension    3.736688    2.602997
|           W    W    AA    RRRRR   N    N  II  N    N   GGGG   !!!           |
|           W    W   A  A   R    R  NN   N  II  NN   N  G    G  !!!           |
|           W    W  A    A  R    R  N N  N  II  N N  N  G       !!!           |
|           W WW W  AAAAAA  RRRRR   N  N N  II  N  N N  G  GGG   !            |
|           WW  WW  A    A  R   R   N   NN  II  N   NN  G    G                |
|           W    W  A    A  R    R  N    N  II  N    N   GGGG   !!!           |
|     Tetrahedron method does not include variations of the Fermi             |
|     occupations, so forces and stress will be inaccurate. We suggest        |
|     using a different smearing scheme ISMEAR = 1 or 2 for metals in         |
|     relaxations.                                                            |

 total charge

# of ion       s       p       d       tot
    1        0.445   0.287   9.187   9.919
    2        0.449   0.285   9.187   9.921
    3        0.449   0.285   9.187   9.921
    4        0.449   0.285   9.187   9.921
    5        0.446   0.286   9.188   9.921
    6        0.449   0.285   9.187   9.921
    7        0.449   0.285   9.187   9.921
    8        0.449   0.285   9.187   9.921
    9        0.444   0.288   9.184   9.917
   10        0.443   0.373   9.178   9.994
   11        0.442   0.372   9.179   9.993
   12        0.443   0.373   9.178   9.994
   13        0.442   0.372   9.179   9.993
   14        0.442   0.372   9.179   9.993
   15        0.439   0.370   9.182   9.990
   16        0.443   0.373   9.178   9.994
   17        0.439   0.370   9.182   9.990
   18        0.439   0.370   9.182   9.990
   19        0.445   0.373   9.182  10.000
   20        0.443   0.392   9.173  10.008
   21        0.443   0.392   9.173  10.008
   22        0.438   0.372   9.181   9.992
   23        0.443   0.392   9.173  10.008
   24        0.438   0.372   9.181   9.992
   25        0.445   0.373   9.182  10.000
   26        0.445   0.373   9.182  10.000
   27        0.438   0.372   9.181   9.992
   28        0.457   0.295   9.191   9.943
   29        0.439   0.307   9.197   9.943
   30        0.439   0.307   9.197   9.943
   31        0.439   0.307   9.197   9.943
   32        0.439   0.307   9.197   9.943
   33        0.439   0.307   9.197   9.943
   34        0.439   0.307   9.197   9.943
   35        0.454   0.296   9.191   9.941
   36        0.769   0.885   8.049   9.702
   37        0.927   1.419   0.000   2.346
   38        1.534   3.742   0.000   5.276
   39        0.550   0.127   0.000   0.677
tot         19.308  17.933 329.518 366.759

 BZINTS: Fermi energy:    0.143319;  406.000000 electrons
         Band energy:-0.120390E+04;  BLOECHL correction:   -0.066824