 vasp.6.2.0 18Jan21 (build Jun 12 2021 23:27:24) complex

 executed on             LinuxIFC date 2022.05.30  17:06:33

 INCAR:
   ISMEAR = -5
   SIGMA = 0.1
   ISPIN = 1
   EDIFF = 1.d-5
   EDIFFG = -0.01
   NSW = 0
   NELM = 150
   ENCUT = 500
   ISIF = 2
   IBRION = 2
   LREAL = Auto
   ALGO = Fast
   ICHARG = 11
   LORBIT = 10
   LCHARG = .F.
   LWAVE = .F.

 POTCAR:    PAW_PBE Ag 02Apr2005
 POTCAR:    PAW_PBE Ni 02Aug2007
 POTCAR:    PAW_PBE C 08Apr2002
|           W    W    AA    RRRRR   N    N  II  N    N   GGGG   !!!           |
|           W    W   A  A   R    R  NN   N  II  NN   N  G    G  !!!           |
|           W    W  A    A  R    R  N N  N  II  N N  N  G       !!!           |
|           W WW W  AAAAAA  RRRRR   N  N N  II  N  N N  G  GGG   !            |
|           WW  WW  A    A  R   R   N   NN  II  N   NN  G    G                |
|           W    W  A    A  R    R  N    N  II  N    N   GGGG   !!!           |
|     For optimal performance we recommend to set                             |
|       NCORE = 2 up to number-of-cores-per-socket                            |
|     This setting can greatly improve the performance of VASP for DFT.       |
|     The default, NCORE=1 might be grossly inefficient on modern             |
|     multi-core architectures or massively parallel machines. Do your        |
|     Unfortunately you need to use the default for GW and RPA                |
|     calculations (for HF NCORE is supported but not extensively tested      |
|     yet).                                                                   |

 POTCAR:    PAW_PBE Ag 02Apr2005
   VRHFIN =Ag : s1 d10

   TITEL  = PAW_PBE Ag 02Apr2005
   POMASS =  107.868; ZVAL   =   11.000    mass and valenz
   ENMAX  =  249.844; ENMIN  =  187.383 eV

 POTCAR:    PAW_PBE Ni 02Aug2007
   VRHFIN =Ni:

   TITEL  = PAW_PBE Ni 02Aug2007
   POMASS =   58.690; ZVAL   =   10.000    mass and valenz
   ENMAX  =  269.532; ENMIN  =  202.149 eV

 POTCAR:    PAW_PBE C 08Apr2002
   VRHFIN =C: s2p2

   TITEL  = PAW_PBE C 08Apr2002
   POMASS =   12.011; ZVAL   =    4.000    mass and valenz
   ENMAX  =  400.000; ENMIN  =  300.000 eV

 Optimization of the real space projectors (new method)

 maximal supplied QI-value         = 15.12
 optimisation between [QCUT,QGAM] = [ 11.34, 22.83] = [ 36.00,145.93] Ry
 Optimized for a Real-space Cutoff    1.43 Angstroem

   l    n(q)    QCUT    max X(q) W(low)/X(q) W(high)/X(q)  e(spline)
   2      9    11.338    53.897    0.16E-03    0.20E-03    0.28E-06
   2      9    11.338    52.416    0.16E-03    0.20E-03    0.29E-06
   0     10    11.338   122.045    0.31E-04    0.76E-04    0.15E-06
   0     10    11.338    73.629    0.30E-04    0.72E-04    0.15E-06
   1      9    11.338    15.255    0.20E-03    0.19E-04    0.17E-06
   1      9    11.338     9.562    0.16E-03    0.15E-04    0.14E-06
 Optimization of the real space projectors (new method)

[...]

   l    n(q)    QCUT    max X(q) W(low)/X(q) W(high)/X(q)  e(spline)
   2      8    11.376    60.317    0.19E-03    0.33E-04    0.13E-06
   2      8    11.376    55.921    0.20E-03    0.34E-04    0.14E-06
   0      9    11.376    51.690    0.82E-04    0.12E-03    0.20E-06
   0      9    11.376    30.015    0.74E-04    0.11E-03    0.18E-06
   1      9    11.376    18.849    0.39E-03    0.12E-03    0.13E-06
   1      9    11.376    14.624    0.33E-03    0.10E-03    0.11E-06
 Optimization of the real space projectors (new method)

 maximal supplied QI-value         = 25.13
 optimisation between [QCUT,QGAM] = [ 11.31, 22.87] = [ 35.82,146.48] Ry
 Optimized for a Real-space Cutoff    1.00 Angstroem

   l    n(q)    QCUT    max X(q) W(low)/X(q) W(high)/X(q)  e(spline)
   0      7    11.310   115.676    0.43E-03    0.13E-02    0.19E-06
   0      7    11.310    87.132    0.43E-03    0.13E-02    0.18E-06
   1      6    11.310     4.429    0.42E-03    0.74E-03    0.11E-06
   1      6    11.310     2.733    0.34E-03    0.55E-03    0.92E-07
  PAW_PBE Ag 02Apr2005                  :
  PAW_PBE Ni 02Aug2007                  :
  PAW_PBE C 08Apr2002                   :

 POSCAR: Ag-Ni-C
  positions in direct lattice
  velocities in cartesian coordinates
 exchange correlation table for  LEXCH =        8
   RHO(1)=    0.500       N(1)  =     2000
   RHO(2)=  100.500       N(2)  =     4000

 VTST: version 3.2, (02/03/18)

 CHAIN: initializing optimizer

 OPT: Using VASP Conjugate-Gradient optimizer
 CHAIN: Read ICHAIN            0

 POSCAR: Ag-Ni-C
  positions in direct lattice
  velocities in cartesian coordinates

 ion  position               nearest neighbor table
   1  0.000  0.000  0.217-   2 2.93   8 2.93   7 2.93   6 2.93   4 2.93  12 2.93  16 2.93  10 2.93
                             3 2.93
   2  0.333  0.000  0.217-   1 2.93   8 2.93   9 2.93   3 2.93   4 2.93   5 2.93  10 2.93  17 2.93
                            11 2.93
   3  0.667  0.000  0.217-   9 2.93   2 2.93   5 2.93  11 2.93   7 2.93  18 2.93   1 2.93   6 2.93
                            12 2.93
   4  0.000  0.333  0.217-   5 2.93   6 2.93   2 2.93   1 2.93   7 2.93  13 2.93  15 2.93   9 2.93
                            10 2.93
   5  0.333  0.333  0.217-   4 2.93   3 2.93   7 2.93   2 2.93   8 2.93  14 2.93  13 2.93  11 2.93
                             6 2.93
   6  0.667  0.333  0.217-   4 2.93   9 2.93   1 2.93  15 2.93   8 2.93  12 2.93   3 2.93   5 2.93
                            14 2.93
   7  0.000  0.667  0.217-   8 2.93   1 2.93   5 2.93   3 2.93   4 2.93  16 2.93  18 2.93  13 2.93
                             9 2.93
   8  0.333  0.667  0.217-   7 2.93   1 2.93   2 2.93   9 2.93   5 2.93  16 2.93   6 2.93  17 2.93
                            14 2.93
   9  0.667  0.667  0.217-   3 2.93   2 2.93   8 2.93   6 2.93  17 2.93   4 2.93  15 2.93   7 2.93
                            18 2.93
  10  0.111  0.111  0.315-  20 2.91  19 2.92  26 2.92  12 2.93  16 2.93  15 2.93  17 2.93  13 2.93
                            11 2.93   2 2.93   1 2.93   4 2.93
  11  0.444  0.111  0.315-  21 2.91  20 2.91  27 2.91  14 2.93  17 2.93  18 2.93   3 2.93  12 2.93
                            13 2.93  10 2.93   5 2.93   2 2.93
  12  0.778  0.111  0.315-  21 2.91  25 2.92  19 2.92  10 2.93  16 2.93  18 2.93  15 2.93  11 2.93
                             1 2.93  14 2.93   6 2.93   3 2.93
  13  0.111  0.444  0.315-  20 2.91  23 2.91  22 2.91  15 2.93  14 2.93  18 2.93  10 2.93  11 2.93
                            16 2.93   4 2.93   5 2.93   7 2.93
  14  0.444  0.444  0.315-  23 2.91  21 2.91  24 2.91  13 2.93  11 2.93  16 2.93   5 2.93  12 2.93
                            17 2.93   8 2.93  15 2.93   6 2.93
  15  0.778  0.444  0.315-  24 2.91  22 2.91  19 2.92  13 2.93  10 2.93  12 2.93  17 2.93  18 2.93
                             4 2.93   6 2.93   9 2.93  14 2.93
  16  0.111  0.778  0.315-  23 2.91  26 2.92  25 2.92  18 2.93  12 2.93  10 2.93  14 2.93  17 2.93
                            13 2.93   7 2.93   8 2.93   1 2.93
  17  0.444  0.778  0.315-  27 2.91  24 2.91  26 2.92  11 2.93  10 2.93   9 2.93  18 2.93  15 2.93
                            16 2.93   2 2.93  14 2.93   8 2.93
  18  0.778  0.778  0.315-  22 2.91  27 2.91  25 2.92  16 2.93  12 2.93  13 2.93  11 2.93  17 2.93
                            15 2.93   7 2.93   3 2.93   9 2.93
  19  0.889  0.223  0.413-  28 2.91  15 2.92  10 2.92  12 2.92  24 2.93  22 2.93  32 2.94  31 2.94
                            26 2.94  25 2.94  20 2.94  21 2.94
  20  0.223  0.223  0.412-  36 2.69  31 2.89  29 2.89  13 2.91  11 2.91  10 2.91  21 2.92  23 2.92
                            27 2.93  22 2.93  19 2.94  26 2.94
  21  0.554  0.223  0.412-  36 2.69  30 2.89  32 2.89  11 2.91  14 2.91  12 2.91  20 2.92  23 2.92
                            27 2.93  24 2.93  25 2.94  19 2.94
  22  0.889  0.556  0.412-  18 2.91  15 2.91  35 2.91  13 2.91  33 2.91  31 2.91  24 2.93  27 2.93
                            25 2.93  19 2.93  23 2.93  20 2.93
  23  0.223  0.554  0.412-  36 2.69  34 2.89  33 2.89  14 2.91  13 2.91  16 2.91  21 2.92  20 2.92
                            22 2.93  24 2.93  26 2.94  25 2.94
  24  0.556  0.556  0.412-  15 2.91  17 2.91  35 2.91  14 2.91  32 2.91  34 2.91  27 2.93  22 2.93
                            19 2.93  26 2.93  23 2.93  21 2.93
  25  0.889  0.889  0.413-  28 2.91  18 2.92  16 2.92  12 2.92  22 2.93  27 2.93  33 2.94  30 2.94
                            26 2.94  19 2.94  23 2.94  21 2.94
  26  0.223  0.889  0.413-  28 2.91  17 2.92  16 2.92  10 2.92  27 2.93  24 2.93  34 2.94  29 2.94
                            25 2.94  19 2.94  23 2.94  20 2.94
  27  0.556  0.889  0.412-  17 2.91  18 2.91  35 2.91  11 2.91  29 2.91  30 2.91  24 2.93  22 2.93
                            26 2.93  25 2.93  20 2.93  21 2.93
  28  0.000  0.000  0.510-  26 2.91  25 2.91  19 2.91  29 2.96  34 2.96  33 2.96  32 2.96  31 2.96
                            30 2.96
  29  0.333  0.007  0.510-  30 2.87  31 2.87  36 2.88  20 2.89  27 2.91  26 2.94  35 2.96  28 2.96
                            34 3.06
  30  0.659  0.007  0.510-  29 2.87  32 2.87  36 2.88  21 2.89  27 2.91  25 2.94  35 2.96  28 2.96
                            33 3.06
  31  0.007  0.333  0.510-  33 2.87  29 2.87  36 2.88  20 2.89  22 2.91  19 2.94  35 2.96  28 2.96
                            32 3.06
  32  0.659  0.333  0.510-  34 2.87  30 2.87  36 2.88  21 2.89  24 2.91  19 2.94  35 2.96  28 2.96
                            31 3.06
  33  0.007  0.659  0.510-  31 2.87  34 2.87  36 2.88  23 2.89  22 2.91  25 2.94  35 2.96  28 2.96
                            30 3.06
  34  0.333  0.659  0.510-  32 2.87  33 2.87  36 2.88  23 2.89  24 2.91  26 2.94  35 2.96  28 2.96
                            29 3.06
  35  0.667  0.667  0.510-  24 2.91  27 2.91  22 2.91  30 2.96  32 2.96  29 2.96  34 2.96  31 2.96
                            33 2.96
  36  0.333  0.333  0.498-  37 1.64  21 2.69  20 2.69  23 2.69  31 2.88  33 2.88  30 2.88  29 2.88
                            34 2.88  32 2.88
  37  0.333  0.333  0.566-  36 1.64

  LATTYP: Found a hexagonal cell.
 ALAT       =     8.7913665772
 C/A-ratio  =     2.7711238095

  Lattice vectors:

 A1 = (  -4.3956832886,  -7.6135467898,   0.0000000000)
 A2 = (   8.7913665771,   0.0000000000,   0.0000000000)
 A3 = (   0.0000000000,   0.0000000000,  24.3619652401)

Analysis of symmetry for initial positions (statically):
 Subroutine PRICEL returns:
 Original cell was already a primitive cell.

 Routine SETGRP: Setting up the symmetry group for a
 hexagonal supercell.

 Subroutine GETGRP returns: Found  6 space group operations
 (whereof  6 operations were pure point group operations)
 out of a pool of 24 trial point group operations.

The static configuration has the point symmetry C_3v.

Analysis of symmetry for dynamics (positions and initial velocities):
 Subroutine PRICEL returns:
 Original cell was already a primitive cell.

[...]

The dynamic configuration has the point symmetry C_3v.

Analysis of constrained symmetry for selective dynamics:
 Subroutine PRICEL returns:
 Original cell was already a primitive cell.

 Routine SETGRP: Setting up the symmetry group for a
 hexagonal supercell.

 Subroutine GETGRP returns: Found  6 space group operations
[...]
     24      -5.1590      2.00000
     25      -5.1499      2.00000
     26      -5.1234      2.00000
     27      -5.1013      2.00000
     28      -5.0932      2.00000
     29      -5.0862      2.00000
     30      -5.0658      2.00000
     31      -5.0568      2.00000
     32      -5.0487      2.00000
     33      -5.0178      2.00000
     34      -4.9700      2.00000
     35      -4.9496      2.00000
     36      -4.9226      2.00000
     37      -4.9068      2.00000
     38      -4.8902      2.00000
     39      -4.8590      2.00000
     40      -4.8519      2.00000
     41      -4.8428      2.00000
     42      -4.8281      2.00000
     43      -4.8122      2.00000
     44      -4.7525      2.00000
     45      -4.7124      2.00000
     46      -4.7067      2.00000
     47      -4.7016      2.00000
     48      -4.6892      2.00000
     49      -4.6854      2.00000
     50      -4.6717      2.00000
     51      -4.6627      2.00000
     52      -4.6511      2.00000
     53      -4.6444      2.00000
     54      -4.5789      2.00000
     55      -4.5687      2.00000
     56      -4.5598      2.00000
     57      -4.5546      2.00000
     58      -4.5383      2.00000
     59      -4.5231      2.00000
     60      -4.4899      2.00000
[...]
    238       5.7875      0.00000
    239       5.8760      0.00000
    240       5.9092      0.00000
    241       6.4061      0.00000
    242       6.4118      0.00000
    243       6.5603      0.00000
    244       6.6127      0.00000
    245       6.6239      0.00000
    246       6.6873      0.00000
    247       6.7603      0.00000
    248       6.8430      0.00000
    249       6.9189      0.00000
    250       7.0633      0.00000
    251       7.1263      0.00000
    252       7.1948      0.00000

 soft charge-density along one line, spin component           1
         0         1         2         3         4         5         6         7         8         9
 total charge-density along one line

------------------------ aborting loop because EDIFF is reached ----------------------------------------

 total charge

# of ion       s       p       d       tot
    1        0.417   0.203   9.177   9.797
    2        0.415   0.203   9.177   9.795
    3        0.415   0.203   9.177   9.795
    4        0.415   0.203   9.177   9.795
    5        0.416   0.203   9.177   9.796
    6        0.415   0.203   9.177   9.795
    7        0.415   0.203   9.177   9.795
    8        0.415   0.203   9.177   9.795
    9        0.416   0.204   9.176   9.795
   10        0.406   0.269   9.164   9.839
   11        0.401   0.273   9.165   9.839
   12        0.406   0.269   9.164   9.839
   13        0.401   0.273   9.165   9.839
   14        0.401   0.273   9.165   9.839
   15        0.405   0.269   9.165   9.839
   16        0.406   0.269   9.164   9.839
   17        0.405   0.269   9.165   9.839
   18        0.405   0.269   9.165   9.839
   19        0.405   0.269   9.163   9.837
   20        0.418   0.289   9.155   9.862
   21        0.418   0.289   9.155   9.862
   22        0.402   0.273   9.166   9.841
   23        0.418   0.289   9.155   9.862
   24        0.402   0.273   9.166   9.841
   25        0.405   0.269   9.163   9.837
   26        0.405   0.269   9.163   9.837
   27        0.402   0.273   9.166   9.841
   28        0.414   0.194   9.183   9.790
   29        0.399   0.207   9.179   9.786
   30        0.399   0.207   9.179   9.786
   31        0.399   0.207   9.179   9.786
   32        0.399   0.207   9.179   9.786
   33        0.399   0.207   9.179   9.786
   34        0.399   0.207   9.179   9.786
   35        0.415   0.193   9.182   9.790
   36        0.533   0.510   8.419   9.462
   37        1.026   1.133   0.000   2.159
tot         15.834  10.031 329.380 355.246

  FORCE on cell =-STRESS in cart. coord.  units (eV):
  Direction    XX          YY          ZZ          XY          YZ          ZX
  Alpha Z   679.73093   679.73093   679.73093
  Ewald  155465.99534155465.99543************     0.00004     0.00000     0.00002
  Hartree165554.76123165554.76128************     0.00002    -0.00000     0.00002
  E(xc)   -2097.69387 -2097.69385 -2102.83027    -0.00002     0.00000    -0.00000
  Local  ************************332400.93906     0.00046    -0.00004    -0.00011
  n-local  -334.19331  -317.97902  -328.32578    10.14026    -0.38679     0.42025
  augment  3400.54180  3400.54217  3395.07563    -0.00034    -0.00001     0.00003
  Kinetic  4899.97411  4899.35271  4916.29795     2.39778     1.34563    -0.62083
  Fock        0.00000     0.00000     0.00000     0.00000     0.00000     0.00000
  Total      -9.31259    -9.31259    -0.14777    -0.00000     0.00000     0.00000
  in kB      -9.15009    -9.15009    -0.14519    -0.00000     0.00000     0.00000

 VOLUME and BASIS-vectors are now :
  energy-cutoff  :      500.00
  volume of cell :     1630.63
      direct lattice vectors                 reciprocal lattice vectors
     8.791366577  0.000000000  0.000000000     0.113747958 -0.065672414  0.000000000
     4.395683289  7.613546790  0.000000000     0.000000000  0.131344829  0.000000000
     0.000000000  0.000000000 24.361965240     0.000000000  0.000000000  0.041047592

  length of vectors
     8.791366577  8.791366577 24.361965240     0.131344829  0.131344829  0.041047592

 FORCES acting on ions
    electron-ion (+dipol)            ewald-force                    non-local-force                 convergence-correction
   0.465E-04 -.280E-04 0.269E+04   -.954E-04 0.593E-04 -.269E+04   0.249E-17 -.600E-18 -.165E+01   -.132E-03 -.177E-03 0.775E-01
   0.551E+00 0.670E+00 0.269E+04   -.612E+00 -.606E+00 -.269E+04   0.360E-01 -.246E-01 -.166E+01   0.191E-01 -.411E-01 0.501E-01
   -.551E+00 0.670E+00 0.269E+04   0.613E+00 -.606E+00 -.269E+04   -.360E-01 -.246E-01 -.166E+01   -.196E-01 -.391E-01 0.508E-01
   0.855E+00 0.142E+00 0.269E+04   -.831E+00 -.227E+00 -.269E+04   -.330E-02 0.434E-01 -.166E+01   -.259E-01 0.373E-01 0.501E-01
   -.694E-05 -.193E-04 0.270E+04   0.981E-04 -.200E-05 -.269E+04   0.525E-17 -.861E-19 -.189E+01   0.631E-02 0.384E-02 0.269E-02
   -.855E+00 0.142E+00 0.269E+04   0.831E+00 -.228E+00 -.269E+04   0.330E-02 0.434E-01 -.166E+01   0.244E-01 0.382E-01 0.511E-01
   0.305E+00 -.812E+00 0.269E+04   -.219E+00 0.833E+00 -.269E+04   -.393E-01 -.189E-01 -.166E+01   -.433E-01 0.310E-02 0.508E-01
   -.305E+00 -.812E+00 0.269E+04   0.218E+00 0.833E+00 -.269E+04   0.393E-01 -.189E-01 -.166E+01   0.449E-01 0.206E-02 0.511E-01
   0.364E-04 -.132E-04 0.269E+04   0.792E-04 -.643E-04 -.269E+04   -.462E-17 -.682E-18 -.150E+01   -.671E-02 -.345E-02 0.146E+00
   0.526E+01 0.303E+01 0.921E+03   -.527E+01 -.304E+01 -.920E+03   -.316E-01 -.182E-01 -.638E+00   0.298E-01 0.172E-01 -.639E-01
   -.295E-04 0.638E+01 0.932E+03   0.419E-04 -.647E+01 -.931E+03   0.717E-12 0.109E+00 -.510E+00   0.643E-02 -.340E-01 -.573E-01
   -.526E+01 0.303E+01 0.921E+03   0.527E+01 -.304E+01 -.920E+03   0.316E-01 -.182E-01 -.638E+00   -.317E-01 0.188E-01 -.633E-01
   0.552E+01 -.319E+01 0.932E+03   -.561E+01 0.324E+01 -.931E+03   0.945E-01 -.546E-01 -.510E+00   -.263E-01 0.225E-01 -.575E-01
   -.552E+01 -.319E+01 0.932E+03   0.561E+01 0.324E+01 -.931E+03   -.945E-01 -.546E-01 -.510E+00   0.374E-01 0.218E-01 -.572E-01
   0.168E-04 0.124E+01 0.922E+03   -.109E-03 -.120E+01 -.922E+03   -.315E-12 -.480E-01 -.465E+00   -.206E-02 0.927E-03 -.432E-01
   -.802E-05 -.607E+01 0.921E+03   0.208E-04 0.609E+01 -.920E+03   0.239E-12 0.364E-01 -.638E+00   0.333E-03 -.369E-01 -.634E-01
   0.108E+01 -.622E+00 0.922E+03   -.104E+01 0.601E+00 -.922E+03   -.415E-01 0.240E-01 -.465E+00   -.200E-03 -.222E-02 -.432E-01
   -.108E+01 -.622E+00 0.922E+03   0.104E+01 0.602E+00 -.922E+03   0.415E-01 0.240E-01 -.465E+00   0.277E-04 0.661E-04 -.428E-01
   0.423E-04 0.401E+01 -.888E+03   -.130E-03 -.399E+01 0.888E+03   -.265E-12 -.403E-01 0.387E+00   -.212E-02 0.186E-01 -.872E-01
   0.393E+02 0.227E+02 -.831E+03   -.387E+02 -.223E+02 0.831E+03   -.618E+00 -.357E+00 -.120E-01   -.606E-01 -.354E-01 -.146E+00
   -.393E+02 0.227E+02 -.831E+03   0.387E+02 -.223E+02 0.831E+03   0.618E+00 -.357E+00 -.120E-01   0.717E-01 -.342E-01 -.146E+00
   0.159E+02 -.915E+01 -.873E+03   -.160E+02 0.924E+01 0.873E+03   0.150E+00 -.868E-01 0.667E+00   -.102E-01 0.606E-02 -.132E+00
   -.620E-04 -.454E+02 -.831E+03   0.480E-04 0.447E+02 0.831E+03   0.469E-11 0.713E+00 -.120E-01   0.685E-02 0.794E-01 -.147E+00
   -.159E+02 -.915E+01 -.873E+03   0.160E+02 0.924E+01 0.873E+03   -.150E+00 -.868E-01 0.667E+00   0.841E-02 0.512E-02 -.131E+00
   -.348E+01 -.201E+01 -.888E+03   0.346E+01 0.200E+01 0.888E+03   0.349E-01 0.202E-01 0.387E+00   -.153E-01 -.853E-02 -.875E-01
   0.348E+01 -.201E+01 -.888E+03   -.346E+01 0.200E+01 0.888E+03   -.349E-01 0.202E-01 0.387E+00   0.151E-01 -.112E-01 -.876E-01
   0.204E-04 0.183E+02 -.873E+03   0.110E-03 -.185E+02 0.873E+03   0.114E-11 0.174E+00 0.667E+00   -.591E-03 -.114E-01 -.131E+00
   0.547E-04 -.376E-04 -.268E+04   -.115E-03 0.780E-04 0.267E+04   0.238E-17 0.511E-18 0.197E+01   -.132E-02 0.499E-03 -.104E+00
   0.353E+02 0.607E+02 -.267E+04   -.351E+02 -.604E+02 0.267E+04   -.109E+00 -.218E+00 0.208E+01   -.809E-01 -.124E+00 -.150E+00
   -.353E+02 0.607E+02 -.267E+04   0.351E+02 -.604E+02 0.267E+04   0.109E+00 -.218E+00 0.208E+01   0.911E-01 -.122E+00 -.150E+00
   0.702E+02 0.196E+00 -.267E+04   -.698E+02 -.199E+00 0.267E+04   -.243E+00 0.142E-01 0.208E+01   -.154E+00 -.177E-01 -.150E+00
   -.702E+02 0.196E+00 -.267E+04   0.698E+02 -.199E+00 0.267E+04   0.243E+00 0.142E-01 0.208E+01   0.152E+00 -.169E-01 -.151E+00
   0.349E+02 -.609E+02 -.267E+04   -.347E+02 0.606E+02 0.267E+04   -.134E+00 0.204E+00 0.208E+01   -.602E-01 0.142E+00 -.150E+00
   -.349E+02 -.609E+02 -.267E+04   0.347E+02 0.606E+02 0.267E+04   0.134E+00 0.204E+00 0.208E+01   0.722E-01 0.140E+00 -.151E+00
   0.222E-04 -.127E-04 -.268E+04   0.106E-03 -.663E-04 0.267E+04   0.214E-16 -.271E-17 0.187E+01   -.797E-02 -.278E-02 -.145E+00
   -.374E-04 -.219E-04 -.214E+04   0.957E-04 0.140E-04 0.213E+04   0.102E-16 -.297E-17 0.335E+01   0.103E-01 0.480E-02 -.285E+00
   0.451E-04 -.252E-04 -.127E+04   0.216E-04 0.381E-06 0.128E+04   -.360E-18 0.615E-19 -.967E+01   0.999E-03 0.210E-03 0.784E-02
   0.385E-03 -.737E-03 0.907E+01   0.107E-12 -.117E-12 -.182E-11   0.590E-16 -.611E-16 -.668E+01   0.483E-01 0.207E-01 -.248E+01

 POSITION                                       TOTAL-FORCE (eV/Angst)
      0.00000      0.00000      5.28219         0.000000     -0.000000      0.003281
      2.93046      0.00000      5.28219        -0.005920     -0.000763      0.017582
      5.86091      0.00000      5.28219         0.005920     -0.000763      0.017582
      1.46523      2.53785      5.28219        -0.003621     -0.004745      0.017582
      4.39568      2.53785      5.28219         0.000000     -0.000000      0.021457
      7.32614      2.53785      5.28219         0.003621     -0.004745      0.017582
      2.93046      5.07570      5.28219         0.002299      0.005509      0.017582
      5.86091      5.07570      5.28219        -0.002299      0.005509      0.017582
      8.79137      5.07570      5.28219         0.000000     -0.000000      0.020261
      1.46523      0.84595      7.67490        -0.017750     -0.010248      0.008703
      4.39568      0.84595      7.67490        -0.000000     -0.024525     -0.036297
      7.32614      0.84595      7.67490         0.017750     -0.010248      0.008703
      2.93046      3.38380      7.67490        -0.021239      0.012262     -0.036297
      5.86091      3.38380      7.67490         0.021239      0.012262     -0.036297
      8.79137      3.38380      7.67490        -0.000000     -0.005566     -0.015948
      4.39568      5.92165      7.67490         0.000000      0.020496      0.008703
      7.32614      5.92165      7.67490        -0.004820      0.002783     -0.015948
     10.25659      5.92165      7.67490         0.004820      0.002783     -0.015948
      8.79137      1.69533     10.05818         0.000000      0.001836      0.016564
      2.93805      1.69629     10.04232        -0.032108     -0.018538     -0.130738
      5.85331      1.69629     10.04232         0.032108     -0.018538     -0.130738
     10.25424      4.23111     10.04634        -0.007308      0.004219      0.003532
      4.39568      4.22098     10.04232         0.000000      0.037076     -0.130738
      7.32849      4.23111     10.04634         0.007308      0.004219      0.003532
     11.71886      6.76588     10.05818        -0.001590     -0.000918      0.016564
      5.86388      6.76588     10.05818         0.001590     -0.000918      0.016564
      8.79137      6.76488     10.04634        -0.000000     -0.008438      0.003532
      0.00000      0.00000     12.42348         0.000000     -0.000000     -0.015714
      2.96241      0.05505     12.41819        -0.033194     -0.050541      0.041987
      5.82895      0.05505     12.41819         0.033194     -0.050541      0.041987
      1.52888      2.53800     12.41819        -0.060366     -0.003476      0.041987
      7.26249      2.53800     12.41819         0.060366     -0.003476      0.041987
      2.96215      5.02050     12.41819        -0.027173      0.054017      0.041987
      5.82922      5.02050     12.41819         0.027173      0.054017      0.041987
      8.79137      5.07570     12.42030         0.000000     -0.000000     -0.026225
      4.39568      2.53785     12.13895         0.000000     -0.000000      0.106477
      4.39568      2.53785     13.78117         0.000000     -0.000000     -0.004398
    total drift:                                0.048649      0.019981     -0.097299

  FREE ENERGIE OF THE ION-ELECTRON SYSTEM (eV)
  free  energy   TOTEN  =       -99.38342508 eV

  energy  without entropy=      -99.38342508  energy(sigma->0) =      -99.38342508

 stress matrix after NEB project (eV)
     -9.31259     -0.00000      0.00000
     -0.00000     -9.31259      0.00000
     -0.00000      0.00000     -0.14777
  FORCES: max atom, RMS     0.004398    0.000723
  FORCE total and by dimension    0.004398    0.004398
  Stress total and by dimension   13.170820    9.312590
|           W    W    AA    RRRRR   N    N  II  N    N   GGGG   !!!           |
|           W    W   A  A   R    R  NN   N  II  NN   N  G    G  !!!           |
|           W    W  A    A  R    R  N N  N  II  N N  N  G       !!!           |
|           W WW W  AAAAAA  RRRRR   N  N N  II  N  N N  G  GGG   !            |
|           WW  WW  A    A  R   R   N   NN  II  N   NN  G    G                |
|           W    W  A    A  R    R  N    N  II  N    N   GGGG   !!!           |
|     Tetrahedron method does not include variations of the Fermi             |
|     occupations, so forces and stress will be inaccurate. We suggest        |
|     using a different smearing scheme ISMEAR = 1 or 2 for metals in         |
|     relaxations.                                                            |

 total charge

# of ion       s       p       d       tot
    1        0.417   0.203   9.177   9.797
    2        0.415   0.203   9.177   9.795
    3        0.415   0.203   9.177   9.795
    4        0.415   0.203   9.177   9.795
    5        0.416   0.203   9.177   9.796
    6        0.415   0.203   9.177   9.795
    7        0.415   0.203   9.177   9.795
    8        0.415   0.203   9.177   9.795
    9        0.416   0.204   9.176   9.795
   10        0.406   0.269   9.164   9.839
   11        0.401   0.273   9.165   9.839
   12        0.406   0.269   9.164   9.839
   13        0.401   0.273   9.165   9.839
   14        0.401   0.273   9.165   9.839
   15        0.405   0.269   9.165   9.839
   16        0.406   0.269   9.164   9.839
   17        0.405   0.269   9.165   9.839
   18        0.405   0.269   9.165   9.839
   19        0.405   0.269   9.163   9.837
   20        0.418   0.289   9.155   9.862
   21        0.418   0.289   9.155   9.862
   22        0.402   0.273   9.166   9.841
   23        0.418   0.289   9.155   9.862
   24        0.402   0.273   9.166   9.841
   25        0.405   0.269   9.163   9.837
   26        0.405   0.269   9.163   9.837
   27        0.402   0.273   9.166   9.841
   28        0.414   0.194   9.183   9.790
   29        0.399   0.207   9.179   9.786
   30        0.399   0.207   9.179   9.786
   31        0.399   0.207   9.179   9.786
   32        0.399   0.207   9.179   9.786
   33        0.399   0.207   9.179   9.786
   34        0.399   0.207   9.179   9.786
   35        0.415   0.193   9.182   9.790
   36        0.533   0.510   8.419   9.462
   37        1.026   1.133   0.000   2.159
tot         15.834  10.031 329.380 355.246

 BZINTS: Fermi energy:    0.312759;  399.000000 electrons
         Band energy:-0.150524E+04;  BLOECHL correction:   -0.072598