 vasp.6.2.0 18Jan21 (build Jun 12 2021 23:27:24) complex

 executed on             LinuxIFC date 2022.05.27  05:39:51

 INCAR:
   ISMEAR = -5
   SIGMA = 0.1
   ISPIN = 1
   EDIFF = 1.d-5
   EDIFFG = -0.01
   NSW = 0
   NELM = 150
   ENCUT = 500
   ISIF = 2
   IBRION = 2
   LREAL = Auto
   ALGO = Fast
   ICHARG = 11
   LORBIT = 10
   LCHARG = .F.
   LWAVE = .F.

 POTCAR:    PAW_PBE Ag 02Apr2005
 POTCAR:    PAW_PBE Nb_sv 25May2007
 POTCAR:    PAW_PBE C 08Apr2002
 POTCAR:    PAW_PBE O 08Apr2002
|           W    W    AA    RRRRR   N    N  II  N    N   GGGG   !!!           |
|           W    W   A  A   R    R  NN   N  II  NN   N  G    G  !!!           |
|           W    W  A    A  R    R  N N  N  II  N N  N  G       !!!           |
|           W WW W  AAAAAA  RRRRR   N  N N  II  N  N N  G  GGG   !            |
|           WW  WW  A    A  R   R   N   NN  II  N   NN  G    G                |
|           W    W  A    A  R    R  N    N  II  N    N   GGGG   !!!           |
|     For optimal performance we recommend to set                             |
|       NCORE = 2 up to number-of-cores-per-socket                            |
|     This setting can greatly improve the performance of VASP for DFT.       |
|     The default, NCORE=1 might be grossly inefficient on modern             |
|     multi-core architectures or massively parallel machines. Do your        |
|     Unfortunately you need to use the default for GW and RPA                |
|     calculations (for HF NCORE is supported but not extensively tested      |
|     yet).                                                                   |

 POTCAR:    PAW_PBE Ag 02Apr2005
   VRHFIN =Ag : s1 d10

   TITEL  = PAW_PBE Ag 02Apr2005
   POMASS =  107.868; ZVAL   =   11.000    mass and valenz
   ENMAX  =  249.844; ENMIN  =  187.383 eV

 POTCAR:    PAW_PBE Nb_sv 25May2007
   VRHFIN =Nb: 4p5s4d

   TITEL  = PAW_PBE Nb_sv 25May2007
   POMASS =   92.910; ZVAL   =   13.000    mass and valenz
   ENMAX  =  293.235; ENMIN  =  219.927 eV

 POTCAR:    PAW_PBE C 08Apr2002
   VRHFIN =C: s2p2

[...]

 POTCAR:    PAW_PBE O 08Apr2002
   VRHFIN =O: s2p4

   TITEL  = PAW_PBE O 08Apr2002
   POMASS =   16.000; ZVAL   =    6.000    mass and valenz
   ENMAX  =  400.000; ENMIN  =  300.000 eV

 Optimization of the real space projectors (new method)

 maximal supplied QI-value         = 15.12
 optimisation between [QCUT,QGAM] = [ 11.34, 22.83] = [ 36.00,145.93] Ry
 Optimized for a Real-space Cutoff    1.43 Angstroem

   l    n(q)    QCUT    max X(q) W(low)/X(q) W(high)/X(q)  e(spline)
   2      9    11.338    53.897    0.16E-03    0.20E-03    0.28E-06
   2      9    11.338    52.416    0.16E-03    0.20E-03    0.29E-06
   0     10    11.338   122.045    0.31E-04    0.76E-04    0.15E-06
   0     10    11.338    73.629    0.30E-04    0.72E-04    0.15E-06
   1      9    11.338    15.255    0.20E-03    0.19E-04    0.17E-06
   1      9    11.338     9.562    0.16E-03    0.15E-04    0.14E-06
 Optimization of the real space projectors (new method)

[...]

   l    n(q)    QCUT    max X(q) W(low)/X(q) W(high)/X(q)  e(spline)
   0      7    11.310   115.676    0.43E-03    0.13E-02    0.19E-06
   0      7    11.310    87.132    0.43E-03    0.13E-02    0.18E-06
   1      6    11.310     4.429    0.42E-03    0.74E-03    0.11E-06
   1      6    11.310     2.733    0.34E-03    0.55E-03    0.92E-07
 Optimization of the real space projectors (new method)

 maximal supplied QI-value         = 24.76
 optimisation between [QCUT,QGAM] = [ 11.39, 22.77] = [ 36.31,145.25] Ry
 Optimized for a Real-space Cutoff    1.00 Angstroem

   l    n(q)    QCUT    max X(q) W(low)/X(q) W(high)/X(q)  e(spline)
   0      7    11.387    20.381    0.39E-03    0.13E-02    0.15E-06
   0      7    11.387    15.268    0.42E-03    0.14E-02    0.17E-06
   1      6    11.387     5.964    0.41E-03    0.11E-02    0.17E-06
   1      6    11.387     5.382    0.39E-03    0.87E-03    0.15E-06
  PAW_PBE Ag 02Apr2005                  :
  PAW_PBE Nb_sv 25May2007               :
  PAW_PBE C 08Apr2002                   :
  PAW_PBE O 08Apr2002                   :

 POSCAR: Ag-Nb-CO
  positions in direct lattice
  velocities in cartesian coordinates
 exchange correlation table for  LEXCH =        8
   RHO(1)=    0.500       N(1)  =     2000
   RHO(2)=  100.500       N(2)  =     4000

 VTST: version 3.2, (02/03/18)

 CHAIN: initializing optimizer

 OPT: Using VASP Conjugate-Gradient optimizer
 CHAIN: Read ICHAIN            0

 POSCAR: Ag-Nb-CO
  positions in direct lattice
  velocities in cartesian coordinates

 ion  position               nearest neighbor table
   1  0.000  0.000  0.238-   2 2.93   8 2.93   7 2.93   6 2.93   4 2.93  12 2.93  16 2.93  10 2.93
                             3 2.93
   2  0.333  0.000  0.238-   1 2.93   8 2.93   9 2.93   3 2.93   4 2.93   5 2.93  10 2.93  17 2.93
                            11 2.93
   3  0.667  0.000  0.238-   9 2.93   2 2.93   5 2.93  11 2.93   7 2.93  18 2.93   1 2.93   6 2.93
                            12 2.93
   4  0.000  0.333  0.238-   5 2.93   6 2.93   2 2.93   1 2.93   7 2.93  13 2.93  15 2.93   9 2.93
                            10 2.93
   5  0.333  0.333  0.238-   4 2.93   3 2.93   7 2.93   2 2.93   8 2.93  14 2.93  13 2.93  11 2.93
                             6 2.93
   6  0.667  0.333  0.238-   4 2.93   9 2.93   1 2.93  15 2.93   8 2.93  12 2.93   3 2.93   5 2.93
                            14 2.93
   7  0.000  0.667  0.238-   8 2.93   1 2.93   5 2.93   3 2.93   4 2.93  16 2.93  18 2.93  13 2.93
                             9 2.93
   8  0.333  0.667  0.238-   7 2.93   1 2.93   2 2.93   9 2.93   5 2.93  16 2.93   6 2.93  17 2.93
                            14 2.93
   9  0.667  0.667  0.238-   3 2.93   2 2.93   8 2.93   6 2.93  17 2.93   4 2.93  15 2.93   7 2.93
                            18 2.93
  10  0.111  0.111  0.346-  20 2.90  19 2.93  26 2.93  12 2.93  16 2.93  15 2.93  17 2.93  13 2.93
                            11 2.93   2 2.93   1 2.93   4 2.93
  11  0.444  0.111  0.346-  21 2.90  20 2.90  14 2.93  17 2.93  18 2.93   3 2.93  12 2.93  13 2.93
                            10 2.93   5 2.93   2 2.93  27 2.93
  12  0.778  0.111  0.346-  21 2.90  25 2.93  19 2.93  10 2.93  16 2.93  18 2.93  15 2.93  11 2.93
                             1 2.93  14 2.93   6 2.93   3 2.93
  13  0.111  0.444  0.346-  20 2.90  23 2.90  15 2.93  14 2.93  18 2.93  10 2.93  11 2.93  16 2.93
                             4 2.93   5 2.93   7 2.93  22 2.93
  14  0.444  0.444  0.346-  23 2.90  21 2.90  13 2.93  11 2.93  16 2.93   5 2.93  12 2.93  17 2.93
                             8 2.93  15 2.93   6 2.93  24 2.93
  15  0.778  0.444  0.346-  19 2.93  13 2.93  10 2.93  12 2.93  17 2.93  18 2.93   4 2.93   6 2.93
                             9 2.93  14 2.93  24 2.93  22 2.93
  16  0.111  0.778  0.346-  23 2.90  26 2.93  25 2.93  18 2.93  12 2.93  10 2.93  14 2.93  17 2.93
                            13 2.93   7 2.93   8 2.93   1 2.93
  17  0.444  0.778  0.346-  26 2.93  11 2.93  10 2.93   9 2.93  18 2.93  15 2.93  16 2.93   2 2.93
                            14 2.93   8 2.93  27 2.93  24 2.93
  18  0.778  0.778  0.346-  25 2.93  16 2.93  12 2.93  13 2.93  11 2.93  17 2.93  15 2.93   7 2.93
                             3 2.93   9 2.93  22 2.93  27 2.93
  19  0.889  0.222  0.454-  15 2.93  10 2.93  12 2.93  20 2.93  21 2.93  28 2.93  24 2.93  22 2.93
                            26 2.93  25 2.93  32 2.97  31 2.97
  20  0.222  0.222  0.452-  36 2.82  10 2.90  13 2.90  11 2.90  19 2.93  26 2.93  27 2.93  22 2.93
                            21 2.94  23 2.94  31 2.97  29 2.97
  21  0.556  0.222  0.452-  36 2.82  12 2.90  11 2.90  14 2.90  25 2.93  19 2.93  27 2.93  24 2.93
                            20 2.94  23 2.94  30 2.97  32 2.97
  22  0.889  0.556  0.454-  24 2.93  27 2.93  25 2.93  19 2.93  18 2.93  15 2.93  23 2.93  20 2.93
                            35 2.93  13 2.93  33 2.95  31 2.95
  23  0.222  0.556  0.452-  36 2.82  16 2.90  14 2.90  13 2.90  26 2.93  25 2.93  22 2.93  24 2.93
                            21 2.94  20 2.94  34 2.97  33 2.97
  24  0.556  0.556  0.454-  27 2.93  22 2.93  19 2.93  26 2.93  15 2.93  17 2.93  23 2.93  21 2.93
                            35 2.93  14 2.93  32 2.95  34 2.95
  25  0.889  0.889  0.454-  18 2.93  16 2.93  12 2.93  23 2.93  21 2.93  28 2.93  22 2.93  27 2.93
                            26 2.93  19 2.93  33 2.97  30 2.97
  26  0.222  0.889  0.454-  17 2.93  16 2.93  10 2.93  23 2.93  20 2.93  28 2.93  27 2.93  24 2.93
                            25 2.93  19 2.93  34 2.97  29 2.97
  27  0.556  0.889  0.454-  24 2.93  22 2.93  26 2.93  25 2.93  17 2.93  18 2.93  20 2.93  21 2.93
                            35 2.93  11 2.93  29 2.95  30 2.95
  28  0.000  0.000  0.561-  26 2.93  25 2.93  19 2.93  29 2.95  34 2.95  33 2.95  32 2.95  31 2.95
                            30 2.95
  29  0.333  0.004  0.563-  30 2.90  31 2.90  36 2.91  35 2.95  28 2.95  27 2.95  20 2.97  26 2.97
                            34 2.99
  30  0.663  0.004  0.563-  29 2.90  32 2.90  36 2.91  35 2.95  28 2.95  27 2.95  21 2.97  25 2.97
                            33 2.99
  31  0.004  0.333  0.563-  33 2.90  29 2.90  36 2.91  35 2.95  28 2.95  22 2.95  20 2.97  19 2.97
                            32 2.99
  32  0.663  0.333  0.563-  34 2.90  30 2.90  36 2.91  35 2.95  28 2.95  24 2.95  21 2.97  19 2.97
                            31 2.99
  33  0.004  0.663  0.563-  31 2.90  34 2.90  36 2.91  35 2.95  28 2.95  22 2.95  23 2.97  25 2.97
                            30 2.99
  34  0.333  0.663  0.563-  32 2.90  33 2.90  36 2.91  35 2.95  28 2.95  24 2.95  23 2.97  26 2.97
                            29 2.99
  35  0.667  0.667  0.562-  24 2.93  27 2.93  22 2.93  30 2.95  29 2.95  32 2.95  34 2.95  31 2.95
                            33 2.95
  36  0.333  0.333  0.554-  37 2.06  21 2.82  20 2.82  23 2.82  31 2.91  33 2.91  30 2.91  29 2.91
                            34 2.91  32 2.91
  37  0.333  0.333  0.647-  38 1.17  36 2.06
  38  0.333  0.333  0.700-  37 1.17

  LATTYP: Found a hexagonal cell.
 ALAT       =     8.7913665772
 C/A-ratio  =     2.5227160501

  Lattice vectors:

 A1 = (  -4.3956832886,  -7.6135467898,   0.0000000000)
 A2 = (   8.7913665771,   0.0000000000,   0.0000000000)
 A3 = (   0.0000000000,   0.0000000000,  22.1781215668)

Analysis of symmetry for initial positions (statically):
 Subroutine PRICEL returns:
 Original cell was already a primitive cell.

 Routine SETGRP: Setting up the symmetry group for a
 hexagonal supercell.

 Subroutine GETGRP returns: Found  6 space group operations
 (whereof  6 operations were pure point group operations)
 out of a pool of 24 trial point group operations.

The static configuration has the point symmetry C_3v.

Analysis of symmetry for dynamics (positions and initial velocities):
 Subroutine PRICEL returns:
 Original cell was already a primitive cell.

[...]

The dynamic configuration has the point symmetry C_3v.

Analysis of constrained symmetry for selective dynamics:
 Subroutine PRICEL returns:
 Original cell was already a primitive cell.

 Routine SETGRP: Setting up the symmetry group for a
 hexagonal supercell.

[...]
     33      -4.6150      2.00000
     34      -4.6003      2.00000
     35      -4.5918      2.00000
     36      -4.5676      2.00000
     37      -4.5662      2.00000
     38      -4.5550      2.00000
     39      -4.5296      2.00000
     40      -4.5012      2.00000
     41      -4.4953      2.00000
     42      -4.4679      2.00000
     43      -4.4323      2.00000
     44      -4.4174      2.00000
     45      -4.4042      2.00000
     46      -4.3609      2.00000
     47      -4.3421      2.00000
     48      -4.3323      2.00000
     49      -4.3260      2.00000
     50      -4.3231      2.00000
     51      -4.3116      2.00000
     52      -4.2071      2.00000
     53      -4.1890      2.00000
     54      -4.1771      2.00000
     55      -4.1714      2.00000
     56      -4.1654      2.00000
     57      -4.1610      2.00000
     58      -4.1542      2.00000
     59      -4.1493      2.00000
     60      -4.1435      2.00000
[...]
    238       5.8800      0.00000
    239       5.9105      0.00000
    240       6.0220      0.00000
    241       6.1440      0.00000
    242       6.1525      0.00000
    243       6.1996      0.00000
    244       6.2563      0.00000
    245       6.3930      0.00000
    246       6.4527      0.00000
    247       6.4722      0.00000
    248       7.2496      0.00000
    249       7.3161      0.00000
    250       7.3777      0.00000
    251       7.4876      0.00000
    252       7.5005      0.00000

 soft charge-density along one line, spin component           1
         0         1         2         3         4         5         6         7         8         9
 total charge-density along one line

------------------------ aborting loop because EDIFF is reached ----------------------------------------

 total charge

# of ion       s       p       d       tot
    1        0.419   0.199   9.179   9.797
    2        0.414   0.203   9.178   9.795
    3        0.414   0.203   9.178   9.795
    4        0.414   0.203   9.178   9.795
    5        0.424   0.201   9.174   9.799
    6        0.414   0.203   9.178   9.795
    7        0.414   0.203   9.178   9.795
    8        0.414   0.203   9.178   9.795
    9        0.415   0.201   9.180   9.796
   10        0.411   0.269   9.161   9.840
   11        0.409   0.265   9.169   9.844
   12        0.411   0.269   9.161   9.840
   13        0.409   0.265   9.169   9.844
   14        0.409   0.265   9.169   9.844
   15        0.403   0.268   9.163   9.834
   16        0.411   0.269   9.161   9.840
   17        0.403   0.268   9.163   9.834
   18        0.403   0.268   9.163   9.834
   19        0.402   0.263   9.166   9.831
   20        0.445   0.297   9.137   9.879
   21        0.445   0.297   9.137   9.879
   22        0.392   0.271   9.167   9.829
   23        0.445   0.297   9.137   9.879
   24        0.392   0.271   9.167   9.829
   25        0.402   0.263   9.166   9.831
   26        0.402   0.263   9.166   9.831
   27        0.392   0.271   9.167   9.829
   28        0.405   0.200   9.177   9.782
   29        0.441   0.215   9.155   9.810
   30        0.441   0.215   9.155   9.810
   31        0.441   0.215   9.155   9.810
   32        0.441   0.215   9.155   9.810
   33        0.441   0.215   9.155   9.810
   34        0.441   0.215   9.155   9.810
   35        0.405   0.200   9.179   9.784
   36        2.179   5.991   2.421  10.591
   37        0.966   1.535   0.000   2.501
   38        1.612   3.528   0.000   5.139
tot         19.337  19.460 323.195 361.991

  FORCE on cell =-STRESS in cart. coord.  units (eV):
  Direction    XX          YY          ZZ          XY          YZ          ZX
  Alpha Z   787.36653   787.36653   787.36653
  Ewald  119765.96453119765.96470************     0.00006     0.00001     0.00005
  Hartree130388.63875130388.63881************     0.00003     0.00001     0.00002
  E(xc)   -2132.57243 -2132.57248 -2136.94032     0.00005     0.00000     0.00000
  Local  ************************261129.55118     0.00050    -0.00007    -0.00019
  n-local  -351.93261  -335.87281  -350.70095     9.95253    -0.44526     0.60868
  augment  3243.29387  3243.29410  3258.72973    -0.00019    -0.00002    -0.00000
  Kinetic  5199.67208  5203.88325  5222.01333     3.82763     0.37086     0.31557
  Fock        0.00000     0.00000     0.00000     0.00000     0.00000     0.00000
  Total      -8.35706    -8.35706    -0.12488    -0.00000     0.00000     0.00000
  in kB      -9.01977    -9.01977    -0.13478    -0.00000     0.00000     0.00000

 VOLUME and BASIS-vectors are now :
  energy-cutoff  :      500.00
  volume of cell :     1484.46
      direct lattice vectors                 reciprocal lattice vectors
     8.791366577  0.000000000  0.000000000     0.113747958 -0.065672414  0.000000000
     4.395683289  7.613546790  0.000000000     0.000000000  0.131344829  0.000000000
     0.000000000  0.000000000 22.178121567     0.000000000  0.000000000  0.045089481

  length of vectors
     8.791366577  8.791366577 22.178121567     0.131344829  0.131344829  0.045089481

 FORCES acting on ions
    electron-ion (+dipol)            ewald-force                    non-local-force                 convergence-correction
   0.459E-04 -.283E-04 0.253E+04   -.954E-04 0.593E-04 -.253E+04   -.811E-18 -.172E-17 -.201E+01   -.129E-03 -.181E-03 0.244E+00
   0.303E+00 0.957E+00 0.253E+04   -.381E+00 -.107E+01 -.253E+04   0.125E+00 0.217E+00 -.155E+01   -.451E-01 -.105E+00 0.331E+00
   -.303E+00 0.957E+00 0.253E+04   0.381E+00 -.107E+01 -.253E+04   -.125E+00 0.217E+00 -.155E+01   0.446E-01 -.103E+00 0.331E+00
   0.980E+00 -.216E+00 0.253E+04   -.111E+01 0.203E+00 -.253E+04   0.251E+00 -.447E-03 -.155E+01   -.113E+00 0.135E-01 0.331E+00
   -.561E-05 -.190E-04 0.253E+04   0.980E-04 -.199E-05 -.253E+04   0.466E-17 0.584E-18 -.925E+00   0.630E-02 0.385E-02 0.527E+00
   -.980E+00 -.216E+00 0.253E+04   0.111E+01 0.203E+00 -.253E+04   -.251E+00 -.447E-03 -.155E+01   0.112E+00 0.145E-01 0.331E+00
   0.677E+00 -.741E+00 0.253E+04   -.734E+00 0.864E+00 -.253E+04   0.126E+00 -.217E+00 -.155E+01   -.663E-01 0.905E-01 0.331E+00
   -.677E+00 -.741E+00 0.253E+04   0.734E+00 0.864E+00 -.253E+04   -.126E+00 -.217E+00 -.155E+01   0.680E-01 0.895E-01 0.332E+00
   0.367E-04 -.128E-04 0.253E+04   0.792E-04 -.643E-04 -.253E+04   -.409E-18 -.180E-17 -.182E+01   -.670E-02 -.346E-02 0.288E+00
   0.626E+01 0.361E+01 0.905E+03   -.584E+01 -.337E+01 -.904E+03   -.383E+00 -.221E+00 -.738E+00   -.670E-01 -.386E-01 0.975E-01
   -.286E-04 0.100E+02 0.913E+03   0.411E-04 -.100E+02 -.913E+03   0.938E-12 0.143E+00 -.769E-01   0.640E-02 -.148E+00 0.815E-01
   -.626E+01 0.361E+01 0.905E+03   0.584E+01 -.337E+01 -.904E+03   0.383E+00 -.221E+00 -.738E+00   0.651E-01 -.371E-01 0.981E-01
   0.867E+01 -.501E+01 0.913E+03   -.869E+01 0.502E+01 -.913E+03   0.124E+00 -.714E-01 -.769E-01   -.125E+00 0.798E-01 0.815E-01
   -.867E+01 -.501E+01 0.913E+03   0.869E+01 0.502E+01 -.913E+03   -.124E+00 -.714E-01 -.769E-01   0.136E+00 0.790E-01 0.816E-01
   0.160E-04 -.260E+01 0.900E+03   -.109E-03 0.242E+01 -.899E+03   0.711E-12 0.108E+00 -.751E+00   -.203E-02 0.496E-01 0.906E-01
   -.786E-05 -.723E+01 0.905E+03   0.207E-04 0.674E+01 -.904E+03   0.290E-11 0.442E+00 -.738E+00   0.335E-03 0.748E-01 0.981E-01
   -.225E+01 0.130E+01 0.900E+03   0.209E+01 -.121E+01 -.899E+03   0.938E-01 -.542E-01 -.751E+00   0.419E-01 -.266E-01 0.906E-01
   0.225E+01 0.130E+01 0.900E+03   -.209E+01 -.121E+01 -.899E+03   -.938E-01 -.542E-01 -.751E+00   -.421E-01 -.243E-01 0.911E-01
   0.403E-04 0.429E+00 -.763E+03   -.132E-03 -.412E+00 0.762E+03   0.591E-12 0.899E-01 0.896E+00   -.190E-02 -.966E-01 -.920E-01
   0.449E+02 0.259E+02 -.691E+03   -.433E+02 -.250E+02 0.692E+03   -.135E+01 -.780E+00 -.122E+01   -.367E+00 -.212E+00 -.265E+00
   -.449E+02 0.259E+02 -.691E+03   0.433E+02 -.250E+02 0.692E+03   0.135E+01 -.780E+00 -.122E+01   0.378E+00 -.211E+00 -.265E+00
   0.190E+02 -.110E+02 -.756E+03   -.191E+02 0.110E+02 0.756E+03   0.248E+00 -.143E+00 0.323E+00   -.131E+00 0.758E-01 -.220E+00
   -.578E-04 -.518E+02 -.691E+03   0.498E-04 0.500E+02 0.692E+03   0.102E-10 0.156E+01 -.122E+01   0.682E-02 0.433E+00 -.265E+00
   -.190E+02 -.110E+02 -.756E+03   0.191E+02 0.110E+02 0.756E+03   -.248E+00 -.143E+00 0.323E+00   0.129E+00 0.747E-01 -.220E+00
   -.371E+00 -.214E+00 -.763E+03   0.356E+00 0.206E+00 0.762E+03   -.779E-01 -.450E-01 0.896E+00   0.847E-01 0.487E-01 -.924E-01
   0.371E+00 -.214E+00 -.763E+03   -.356E+00 0.206E+00 0.762E+03   0.779E-01 -.450E-01 0.896E+00   -.849E-01 0.465E-01 -.920E-01
   0.215E-04 0.220E+02 -.756E+03   0.109E-03 -.221E+02 0.756E+03   0.188E-11 0.286E+00 0.323E+00   -.464E-03 -.151E+00 -.220E+00
   0.550E-04 -.356E-04 -.242E+04   -.118E-03 0.787E-04 0.242E+04   -.261E-17 0.795E-19 0.189E+01   -.163E-03 -.233E-03 -.270E+00
   0.525E+02 0.855E+02 -.241E+04   -.514E+02 -.839E+02 0.241E+04   -.970E+00 -.150E+01 0.117E+01   -.117E+00 -.125E+00 -.261E+00
   -.525E+02 0.855E+02 -.241E+04   0.514E+02 -.839E+02 0.241E+04   0.970E+00 -.150E+01 0.117E+01   0.117E+00 -.123E+00 -.261E+00
   0.100E+03 0.270E+01 -.241E+04   -.984E+02 -.257E+01 0.241E+04   -.178E+01 -.906E-01 0.117E+01   -.166E+00 -.386E-01 -.261E+00
   -.100E+03 0.270E+01 -.241E+04   0.984E+02 -.257E+01 0.241E+04   0.178E+01 -.906E-01 0.117E+01   0.165E+00 -.378E-01 -.261E+00
   0.478E+02 -.882E+02 -.241E+04   -.470E+02 0.865E+02 0.241E+04   -.813E+00 0.159E+01 0.117E+01   -.476E-01 0.163E+00 -.261E+00
   -.478E+02 -.882E+02 -.241E+04   0.470E+02 0.865E+02 0.241E+04   0.813E+00 0.159E+01 0.117E+01   0.492E-01 0.161E+00 -.261E+00
   0.190E-04 -.886E-05 -.243E+04   0.107E-03 -.674E-04 0.243E+04   -.382E-17 0.521E-17 0.206E+01   -.681E-02 -.351E-02 -.221E+00
   0.259E-03 -.154E-03 -.255E+04   0.123E-03 0.141E-04 0.256E+04   0.171E-19 0.498E-18 -.265E+01   0.771E-02 0.470E-02 -.132E+00
   0.126E-04 -.797E-04 -.881E+03   0.144E-04 0.145E-06 0.863E+03   -.966E-18 -.287E-19 0.176E+02   0.129E-02 0.788E-03 -.259E-01
   0.239E-03 -.937E-04 -.150E+04   0.745E-05 0.711E-08 0.155E+04   -.424E-18 -.460E-18 -.576E+02   0.375E-02 0.230E-02 0.742E-01
   0.895E-03 -.990E-03 0.506E+02   -.692E-13 0.481E-13 -.273E-11   0.328E-15 0.449E-15 -.504E+02   0.315E-01 0.217E-01 -.142E-01

 POSITION                                       TOTAL-FORCE (eV/Angst)
      0.00000      0.00000      5.28219         0.000000     -0.000000     -0.052267
      2.93046      0.00000      5.28219         0.002315      0.003596      0.019360
      5.86091      0.00000      5.28219        -0.002315      0.003596      0.019360
      1.46523      2.53785      5.28219         0.004272      0.000206      0.019360
      4.39568      2.53785      5.28219         0.000000     -0.000000     -0.029745
      7.32614      2.53785      5.28219        -0.004272      0.000206      0.019360
      2.93046      5.07570      5.28219         0.001957     -0.003803      0.019360
      5.86091      5.07570      5.28219        -0.001957     -0.003803      0.019360
      8.79137      5.07570      5.28219         0.000000     -0.000000     -0.005254
      1.46523      0.84595      7.67490        -0.026827     -0.015489     -0.049253
      4.39568      0.84595      7.67490        -0.000000     -0.032121     -0.055147
      7.32614      0.84595      7.67490         0.026827     -0.015489     -0.049253
      2.93046      3.38380      7.67490        -0.027818      0.016061     -0.055147
      5.86091      3.38380      7.67490         0.027818      0.016061     -0.055147
      8.79137      3.38380      7.67490        -0.000000     -0.022072      0.011897
      4.39568      5.92165      7.67490         0.000000      0.030978     -0.049253
      7.32614      5.92165      7.67490        -0.019115      0.011036      0.011897
     10.25659      5.92165      7.67490         0.019115      0.011036      0.011897
      8.79137      1.69211     10.06133         0.000000      0.009933      0.045971
      2.92756      1.69022     10.03254        -0.126142     -0.072828     -0.128603
      5.86381      1.69022     10.03254         0.126142     -0.072828     -0.128603
     10.25459      4.23091     10.07004         0.017209     -0.009936      0.021494
      4.39568      4.23310     10.03254         0.000000      0.145656     -0.128603
      7.32815      4.23091     10.07004        -0.017209     -0.009936      0.021494
     11.72164      6.76749     10.06133        -0.008602     -0.004967      0.045971
      5.86110      6.76749     10.06133         0.008602     -0.004967      0.045971
      8.79137      6.76528     10.07004         0.000000      0.019871      0.021494
      0.00000      0.00000     12.45237         0.000000     -0.000000     -0.010381
      2.94700      0.02679     12.48745        -0.005534     -0.014437      0.024680
      5.84437      0.02679     12.48745         0.005534     -0.014437      0.024680
      1.49670      2.53878     12.48745        -0.015270      0.002425      0.024680
      7.29466      2.53878     12.48745         0.015270      0.002425      0.024680
      2.94539      5.04797     12.48745        -0.009735      0.012011      0.024680
      5.84598      5.04797     12.48745         0.009735      0.012011      0.024680
      8.79137      5.07570     12.46721         0.000000      0.000000     -0.014665
      4.39568      2.53785     12.28926         0.000000     -0.000000      0.374826
      4.39568      2.53785     14.34808         0.000000     -0.000000     -0.068757
      4.39568      2.53785     15.52183         0.000000     -0.000000      0.002922
    total drift:                                0.032349      0.020723      0.154142

  FREE ENERGIE OF THE ION-ELECTRON SYSTEM (eV)
  free  energy   TOTEN  =      -113.39034098 eV

  energy  without entropy=     -113.39034098  energy(sigma->0) =     -113.39034098

 stress matrix after NEB project (eV)
     -8.35706     -0.00000      0.00000
     -0.00000     -8.35706     -0.00000
      0.00000      0.00000     -0.12488
  FORCES: max atom, RMS     0.068757    0.011164
  FORCE total and by dimension    0.068819    0.068757
  Stress total and by dimension   11.819321    8.357056
|           W    W    AA    RRRRR   N    N  II  N    N   GGGG   !!!           |
|           W    W   A  A   R    R  NN   N  II  NN   N  G    G  !!!           |
|           W    W  A    A  R    R  N N  N  II  N N  N  G       !!!           |
|           W WW W  AAAAAA  RRRRR   N  N N  II  N  N N  G  GGG   !            |
|           WW  WW  A    A  R   R   N   NN  II  N   NN  G    G                |
|           W    W  A    A  R    R  N    N  II  N    N   GGGG   !!!           |
|     Tetrahedron method does not include variations of the Fermi             |
|     occupations, so forces and stress will be inaccurate. We suggest        |
|     using a different smearing scheme ISMEAR = 1 or 2 for metals in         |
|     relaxations.                                                            |

 total charge

# of ion       s       p       d       tot
    1        0.419   0.199   9.179   9.797
    2        0.414   0.203   9.178   9.795
    3        0.414   0.203   9.178   9.795
    4        0.414   0.203   9.178   9.795
    5        0.424   0.201   9.174   9.799
    6        0.414   0.203   9.178   9.795
    7        0.414   0.203   9.178   9.795
    8        0.414   0.203   9.178   9.795
    9        0.415   0.201   9.180   9.796
   10        0.411   0.269   9.161   9.840
   11        0.409   0.265   9.169   9.844
   12        0.411   0.269   9.161   9.840
   13        0.409   0.265   9.169   9.844
   14        0.409   0.265   9.169   9.844
   15        0.403   0.268   9.163   9.834
   16        0.411   0.269   9.161   9.840
   17        0.403   0.268   9.163   9.834
   18        0.403   0.268   9.163   9.834
   19        0.402   0.263   9.166   9.831
   20        0.445   0.297   9.137   9.879
   21        0.445   0.297   9.137   9.879
   22        0.392   0.271   9.167   9.829
   23        0.445   0.297   9.137   9.879
   24        0.392   0.271   9.167   9.829
   25        0.402   0.263   9.166   9.831
   26        0.402   0.263   9.166   9.831
   27        0.392   0.271   9.167   9.829
   28        0.405   0.200   9.177   9.782
   29        0.441   0.215   9.155   9.810
   30        0.441   0.215   9.155   9.810
   31        0.441   0.215   9.155   9.810
   32        0.441   0.215   9.155   9.810
   33        0.441   0.215   9.155   9.810
   34        0.441   0.215   9.155   9.810
   35        0.405   0.200   9.179   9.784
   36        2.179   5.991   2.421  10.591
   37        0.966   1.535   0.000   2.501
   38        1.612   3.528   0.000   5.139
tot         19.337  19.460 323.195 361.991

 BZINTS: Fermi energy:    0.827597;  408.000000 electrons
         Band energy:-0.164841E+04;  BLOECHL correction:   -0.028634