 vasp.6.2.0 18Jan21 (build Jun 12 2021 23:27:24) complex

 executed on             LinuxIFC date 2022.05.26  20:17:02

 INCAR:
   ISMEAR = -5
   SIGMA = 0.1
   ISPIN = 1
   EDIFF = 1.d-5
   EDIFFG = -0.01
   NSW = 0
   NELM = 150
   ENCUT = 500
   ISIF = 2
   IBRION = 2
   LREAL = Auto
   ALGO = Fast
   ICHARG = 11
   LORBIT = 10
   LCHARG = .F.
   LWAVE = .F.

 POTCAR:    PAW_PBE Au 04Oct2007
 POTCAR:    PAW_PBE Pt 04Feb2005
|           W    W    AA    RRRRR   N    N  II  N    N   GGGG   !!!           |
|           W    W   A  A   R    R  NN   N  II  NN   N  G    G  !!!           |
|           W    W  A    A  R    R  N N  N  II  N N  N  G       !!!           |
|           W WW W  AAAAAA  RRRRR   N  N N  II  N  N N  G  GGG   !            |
|           WW  WW  A    A  R   R   N   NN  II  N   NN  G    G                |
|           W    W  A    A  R    R  N    N  II  N    N   GGGG   !!!           |
|     For optimal performance we recommend to set                             |
|       NCORE = 2 up to number-of-cores-per-socket                            |
|     This setting can greatly improve the performance of VASP for DFT.       |
|     The default, NCORE=1 might be grossly inefficient on modern             |
|     multi-core architectures or massively parallel machines. Do your        |
|     Unfortunately you need to use the default for GW and RPA                |
|     calculations (for HF NCORE is supported but not extensively tested      |
|     yet).                                                                   |

 POTCAR:    PAW_PBE Au 04Oct2007
   VRHFIN =Au: s1d10

   TITEL  = PAW_PBE Au 04Oct2007
   POMASS =  196.966; ZVAL   =   11.000    mass and valenz
   ENMAX  =  229.943; ENMIN  =  172.457 eV

 POTCAR:    PAW_PBE Pt 04Feb2005
   VRHFIN =Pt: s1d9

   TITEL  = PAW_PBE Pt 04Feb2005
   POMASS =  195.080; ZVAL   =   10.000    mass and valenz
   ENMAX  =  230.283; ENMIN  =  172.712 eV

 Optimization of the real space projectors (new method)

 maximal supplied QI-value         = 15.12
 optimisation between [QCUT,QGAM] = [ 11.34, 22.83] = [ 36.00,145.93] Ry
 Optimized for a Real-space Cutoff    1.39 Angstroem

   l    n(q)    QCUT    max X(q) W(low)/X(q) W(high)/X(q)  e(spline)
   2      9    11.338    60.898    0.39E-03    0.42E-03    0.21E-06
   2      9    11.338    58.894    0.40E-03    0.42E-03    0.22E-06
   0      9    11.338   109.617    0.13E-03    0.20E-04    0.13E-06
   0      9    11.338    75.026    0.13E-03    0.20E-04    0.13E-06
   1      9    11.338    16.344    0.33E-04    0.24E-03    0.18E-06
   1      9    11.338    10.160    0.26E-04    0.19E-03    0.15E-06
 Optimization of the real space projectors (new method)

 maximal supplied QI-value         = 14.36
 optimisation between [QCUT,QGAM] = [ 11.35, 22.84] = [ 36.05,146.02] Ry
 Optimized for a Real-space Cutoff    1.47 Angstroem

   l    n(q)    QCUT    max X(q) W(low)/X(q) W(high)/X(q)  e(spline)
   2      9    11.346    66.195    0.31E-03    0.12E-04    0.29E-06
   2      9    11.346    64.643    0.32E-03    0.12E-04    0.29E-06
   0     10    11.346    95.520    0.90E-04    0.16E-04    0.19E-06
   0     10    11.346    63.403    0.87E-04    0.15E-04    0.19E-06
   1     10    11.346    19.961    0.17E-03    0.21E-03    0.11E-06
   1     10    11.346    13.289    0.14E-03    0.18E-03    0.89E-07
  PAW_PBE Au 04Oct2007                  :
  PAW_PBE Pt 04Feb2005                  :

 POSCAR: Au-Pt
  positions in direct lattice
  velocities in cartesian coordinates
 exchange correlation table for  LEXCH =        8
   RHO(1)=    0.500       N(1)  =     2000
   RHO(2)=  100.500       N(2)  =     4000

 VTST: version 3.2, (02/03/18)

 CHAIN: initializing optimizer

 OPT: Using VASP Conjugate-Gradient optimizer
 CHAIN: Read ICHAIN            0

 POSCAR: Au-Pt
  positions in direct lattice
  velocities in cartesian coordinates

 ion  position               nearest neighbor table
   1  0.000  0.000  0.238-  16 2.94  12 2.94   6 2.94   8 2.94   7 2.94   3 2.94  10 2.94   4 2.94
                             2 2.94
   2  0.333  0.000  0.238-   9 2.94  11 2.94  17 2.94  10 2.94   8 2.94   4 2.94   5 2.94   1 2.94
                             3 2.94
   3  0.667  0.000  0.238-   7 2.94  18 2.94  12 2.94   1 2.94  11 2.94   5 2.94   6 2.94   9 2.94
                             2 2.94
   4  0.000  0.333  0.238-  10 2.94   6 2.94   5 2.94  13 2.94   2 2.94  15 2.94   9 2.94   1 2.94
                             7 2.94
   5  0.333  0.333  0.238-  13 2.94   7 2.94  11 2.94   4 2.94   2 2.94  14 2.94   3 2.94   8 2.94
                             6 2.94
   6  0.667  0.333  0.238-  15 2.94  14 2.94   1 2.94  12 2.94   4 2.94   9 2.94   8 2.94   3 2.94
                             5 2.94
   7  0.000  0.667  0.238-  18 2.94   3 2.94  16 2.94   5 2.94   1 2.94  13 2.94   8 2.94   4 2.94
                             9 2.94
   8  0.333  0.667  0.238-   9 2.94  17 2.94   1 2.94   2 2.94  14 2.94  16 2.94   6 2.94   7 2.94
                             5 2.94
   9  0.667  0.667  0.238-   2 2.94   8 2.94  17 2.94   6 2.94  15 2.94   4 2.94   3 2.94  18 2.94
                             7 2.94
  10  0.111  0.111  0.346-  20 2.91  26 2.93  19 2.93  11 2.94  17 2.94   2 2.94   4 2.94   1 2.94
                            12 2.94  16 2.94  13 2.94  15 2.94
  11  0.444  0.111  0.346-  20 2.92  21 2.92  27 2.93  13 2.94   2 2.94  10 2.94  17 2.94   5 2.94
                             3 2.94  18 2.94  14 2.94  12 2.94
  12  0.778  0.111  0.346-  21 2.91  25 2.93  19 2.93  16 2.94  18 2.94   1 2.94  14 2.94  15 2.94
                             3 2.94   6 2.94  10 2.94  11 2.94
  13  0.111  0.444  0.346-  23 2.92  20 2.92  22 2.93   5 2.94  18 2.94  11 2.94   7 2.94   4 2.94
                            16 2.94  10 2.94  14 2.94  15 2.94
  14  0.444  0.444  0.346-  21 2.92  23 2.92  24 2.93  15 2.94   6 2.94  12 2.94   8 2.94  17 2.94
                             5 2.94  16 2.94  13 2.94  11 2.94
  15  0.778  0.444  0.346-  24 2.93  22 2.93  19 2.93  14 2.94   6 2.94  17 2.94  12 2.94   9 2.94
                             4 2.94  10 2.94  13 2.94  18 2.94
  16  0.111  0.778  0.346-  23 2.91  25 2.93  26 2.93  18 2.94  12 2.94   7 2.94   1 2.94   8 2.94
                            13 2.94  10 2.94  14 2.94  17 2.94
  17  0.444  0.778  0.346-  27 2.93  24 2.93  26 2.93   9 2.94  15 2.94   2 2.94  10 2.94  11 2.94
                             8 2.94  14 2.94  16 2.94  18 2.94
  18  0.778  0.778  0.346-  22 2.93  27 2.93  25 2.93  16 2.94   7 2.94  13 2.94  12 2.94   3 2.94
                            11 2.94   9 2.94  15 2.94  17 2.94
  19  0.889  0.222  0.454-  21 2.93  20 2.93  15 2.93  10 2.93  12 2.93  24 2.94  22 2.94  26 2.94
                            25 2.94  28 2.96  32 2.96  31 2.96
  20  0.221  0.221  0.453-  36 2.82  10 2.91  11 2.92  13 2.92  26 2.93  19 2.93  27 2.94  22 2.94
                            23 2.96  21 2.96  29 2.96  31 2.96
  21  0.557  0.221  0.453-  36 2.82  12 2.91  14 2.92  11 2.92  25 2.93  19 2.93  24 2.94  27 2.94
                            20 2.96  23 2.96  30 2.96  32 2.96
  22  0.888  0.556  0.454-  18 2.93  15 2.93  24 2.93  27 2.93  13 2.93  25 2.94  19 2.94  23 2.94
                            20 2.94  35 2.96  33 2.96  31 2.96
  23  0.221  0.557  0.453-  36 2.82  16 2.91  13 2.92  14 2.92  25 2.93  26 2.93  22 2.94  24 2.94
                            20 2.96  21 2.96  33 2.96  34 2.96
  24  0.556  0.556  0.454-  15 2.93  17 2.93  27 2.93  22 2.93  14 2.93  26 2.94  19 2.94  21 2.94
                            23 2.94  35 2.96  32 2.96  34 2.96
  25  0.889  0.889  0.454-  23 2.93  21 2.93  18 2.93  16 2.93  12 2.93  22 2.94  27 2.94  19 2.94
                            26 2.94  28 2.96  33 2.96  30 2.96
  26  0.222  0.889  0.454-  20 2.93  23 2.93  17 2.93  10 2.93  16 2.93  27 2.94  24 2.94  19 2.94
                            25 2.94  28 2.96  29 2.96  34 2.96
  27  0.556  0.888  0.454-  17 2.93  18 2.93  24 2.93  22 2.93  11 2.93  26 2.94  25 2.94  20 2.94
                            21 2.94  35 2.96  29 2.96  30 2.96
  28  0.000  0.000  0.563-  34 2.95  32 2.95  33 2.95  30 2.95  31 2.95  29 2.95  25 2.96  19 2.96
                            26 2.96
  29  0.333  0.002  0.563-  30 2.92  31 2.92  36 2.93  35 2.95  28 2.95  27 2.96  20 2.96  26 2.96
                            34 2.98
  30  0.664  0.002  0.563-  29 2.92  32 2.92  36 2.93  35 2.95  28 2.95  27 2.96  21 2.96  25 2.96
                            33 2.98
  31  0.002  0.333  0.563-  33 2.92  29 2.92  36 2.93  35 2.95  28 2.95  22 2.96  20 2.96  19 2.96
                            32 2.98
  32  0.664  0.333  0.563-  34 2.92  30 2.92  36 2.93  35 2.95  28 2.95  24 2.96  21 2.96  19 2.96
                            31 2.98
  33  0.002  0.664  0.563-  31 2.92  34 2.92  36 2.93  35 2.95  28 2.95  22 2.96  23 2.96  25 2.96
                            30 2.98
  34  0.333  0.664  0.563-  32 2.92  33 2.92  36 2.93  35 2.95  28 2.95  24 2.96  23 2.96  26 2.96
                            29 2.98
  35  0.667  0.667  0.563-  29 2.95  34 2.95  32 2.95  31 2.95  30 2.95  33 2.95  24 2.96  27 2.96
                            22 2.96
  36  0.333  0.333  0.554-  20 2.82  23 2.82  21 2.82  33 2.93  31 2.93  29 2.93  30 2.93  34 2.93
                            32 2.93

  LATTYP: Found a hexagonal cell.
 ALAT       =     8.8135128021
 C/A-ratio  =     2.5184286595

  Lattice vectors:

 A1 = (  -4.4067569092,  -7.6327256898,   0.0000000000)
 A2 = (   8.8135128021,   0.0000000000,   0.0000000000)
 A3 = (   0.0000000000,   0.0000000000,  22.1962032318)

Analysis of symmetry for initial positions (statically):
 Subroutine PRICEL returns:
 Original cell was already a primitive cell.

 Routine SETGRP: Setting up the symmetry group for a
 hexagonal supercell.

 Subroutine GETGRP returns: Found  6 space group operations
 (whereof  6 operations were pure point group operations)
 out of a pool of 24 trial point group operations.

The static configuration has the point symmetry C_3v.

Analysis of symmetry for dynamics (positions and initial velocities):
 Subroutine PRICEL returns:
 Original cell was already a primitive cell.

[...]

The dynamic configuration has the point symmetry C_3v.

Analysis of constrained symmetry for selective dynamics:
 Subroutine PRICEL returns:
 Original cell was already a primitive cell.

 Routine SETGRP: Setting up the symmetry group for a
 hexagonal supercell.

 Subroutine GETGRP returns: Found  6 space group operations
 (whereof  6 operations were pure point group operations)
 out of a pool of 24 trial point group operations.

The constrained configuration has the point symmetry C_3v.

 Subroutine INISYM returns: Found  6 space group operations
 (whereof  6 operations are pure point group operations),
 and found     1 'primitive' translations

                                     Primitive cell

  volume of cell :    1493.1636

  direct lattice vectors                    reciprocal lattice vectors
     8.813512802  0.000000000  0.000000000     0.113462137 -0.065507406  0.000000000
     4.406756909  7.632725690  0.000000000     0.000000000  0.131014796  0.000000000
[...]
     15      -5.2239      2.00000
     16      -5.2226      2.00000
     17      -5.2107      2.00000
     18      -5.1984      2.00000
     19      -5.1311      2.00000
     20      -5.1265      2.00000
     21      -5.1108      2.00000
     22      -5.0747      2.00000
     23      -5.0569      2.00000
     24      -5.0250      2.00000
     25      -5.0242      2.00000
     26      -4.9805      2.00000
     27      -4.9017      2.00000
     28      -4.8446      2.00000
     29      -4.7500      2.00000
     30      -4.7453      2.00000
     31      -4.7398      2.00000
     32      -4.7200      2.00000
     33      -4.7185      2.00000
     34      -4.7063      2.00000
     35      -4.6045      2.00000
     36      -4.5774      2.00000
     37      -4.5138      2.00000
     38      -4.5092      2.00000
     39      -4.4544      2.00000
     40      -4.3709      2.00000
     41      -4.3410      2.00000
     42      -4.2948      2.00000
     43      -4.2776      2.00000
     44      -4.2615      2.00000
     45      -4.2533      2.00000
     46      -4.1615      2.00000
     47      -4.1155      2.00000
     48      -4.0940      2.00000
     49      -4.0868      2.00000
     50      -4.0791      2.00000
     51      -4.0694      2.00000
     52      -4.0642      2.00000
     53      -4.0187      2.00000
     54      -3.9776      2.00000
     55      -3.9677      2.00000
     56      -3.9176      2.00000
     57      -3.9108      2.00000
     58      -3.9063      2.00000
     59      -3.9015      2.00000
     60      -3.8907      2.00000
[...]
    238       6.7827      0.00000
    239       6.7888      0.00000
    240       6.8479      0.00000
    241       6.8939      0.00000
    242       6.9788      0.00000
    243       7.1714      0.00000
    244       7.1961      0.00000
    245       7.3060      0.00000
    246       7.6131      0.00000
    247       7.6529      0.00000
    248       7.7810      0.00000
    249       7.7842      0.00000
    250       7.9331      0.00000
    251       8.0699      0.00000
    252       8.0923      0.00000

 soft charge-density along one line, spin component           1
         0         1         2         3         4         5         6         7         8         9
 total charge-density along one line

------------------------ aborting loop because EDIFF is reached ----------------------------------------

 total charge

# of ion       s       p       d       tot
    1        0.543   0.241   8.766   9.549
    2        0.545   0.240   8.765   9.551
    3        0.545   0.240   8.765   9.551
    4        0.545   0.240   8.765   9.551
    5        0.542   0.241   8.765   9.548
    6        0.545   0.240   8.765   9.551
    7        0.545   0.240   8.765   9.551
    8        0.545   0.240   8.765   9.551
    9        0.544   0.240   8.766   9.550
   10        0.519   0.309   8.769   9.597
   11        0.520   0.306   8.776   9.603
   12        0.519   0.309   8.769   9.597
   13        0.520   0.306   8.776   9.603
   14        0.520   0.306   8.776   9.603
   15        0.516   0.307   8.775   9.598
   16        0.519   0.309   8.769   9.597
   17        0.516   0.307   8.775   9.598
   18        0.516   0.307   8.775   9.598
   19        0.517   0.302   8.775   9.594
   20        0.523   0.316   8.766   9.605
   21        0.523   0.316   8.766   9.605
   22        0.512   0.304   8.773   9.590
   23        0.523   0.316   8.766   9.605
   24        0.512   0.304   8.773   9.590
   25        0.517   0.302   8.775   9.594
   26        0.517   0.302   8.775   9.594
   27        0.512   0.304   8.773   9.590
   28        0.540   0.231   8.768   9.540
   29        0.543   0.237   8.760   9.541
   30        0.543   0.237   8.760   9.541
   31        0.543   0.237   8.760   9.541
   32        0.543   0.237   8.760   9.541
   33        0.543   0.237   8.760   9.541
   34        0.543   0.237   8.760   9.541
   35        0.538   0.232   8.769   9.539
   36        0.556   0.306   8.125   8.987
tot         19.115   9.891 315.015 344.022

  FORCE on cell =-STRESS in cart. coord.  units (eV):
  Direction    XX          YY          ZZ          XY          YZ          ZX
  Alpha Z  1005.57293  1005.57293  1005.57293
  Ewald  119811.30863119811.30903************    -0.00034    -0.00009    -0.00016
  Hartree128439.23749128439.23749************    -0.00000    -0.00002    -0.00004
  E(xc)   -1771.83201 -1771.83199 -1779.32747    -0.00001    -0.00000    -0.00000
  Local  ************************260957.66198     0.00180     0.00004     0.00008
  n-local   -90.17190   -29.34328   -34.06449    25.34292    -1.42590     1.79960
  augment  2420.01841  2420.01997  2436.13080    -0.00135     0.00004     0.00007
  Kinetic  5483.23568  5500.48217  5547.73267     6.10725    -0.24518     0.70251
  Fock        0.00000     0.00000     0.00000     0.00000     0.00000     0.00000
  Total     -21.58095   -21.58095     1.25291    -0.00000     0.00000    -0.00000
  in kB     -23.15655   -23.15654     1.34439    -0.00000     0.00000    -0.00000

 VOLUME and BASIS-vectors are now :
  energy-cutoff  :      500.00
  volume of cell :     1493.16
      direct lattice vectors                 reciprocal lattice vectors
     8.813512802  0.000000000  0.000000000     0.113462137 -0.065507406  0.000000000
     4.406756909  7.632725690  0.000000000     0.000000000  0.131014796  0.000000000
     0.000000000  0.000000000 22.196203232     0.000000000  0.000000000  0.045052750

  length of vectors
     8.813512802  8.813512802 22.196203232     0.131014796  0.131014796  0.045052750

 FORCES acting on ions
    electron-ion (+dipol)            ewald-force                    non-local-force                 convergence-correction
   -.199E-04 -.164E-04 0.248E+04   0.519E-04 0.433E-04 -.248E+04   -.390E-17 -.169E-17 -.626E+00   -.202E-03 -.130E-03 -.107E-01
   0.121E+00 0.283E+00 0.248E+04   -.146E+00 -.205E+00 -.248E+04   0.982E-02 -.155E-01 -.332E+00   0.135E-01 -.615E-01 -.203E-01
   -.121E+00 0.283E+00 0.248E+04   0.146E+00 -.205E+00 -.248E+04   -.982E-02 -.155E-01 -.332E+00   -.132E-01 -.595E-01 -.197E-01
   0.305E+00 -.366E-01 0.248E+04   -.251E+00 -.239E-01 -.248E+04   -.850E-02 0.163E-01 -.332E+00   -.465E-01 0.424E-01 -.203E-01
   0.696E-05 -.242E-04 0.248E+04   0.952E-04 0.171E-05 -.248E+04   0.104E-17 -.120E-17 -.315E+00   0.430E-02 0.262E-02 -.675E-01
   -.305E+00 -.365E-01 0.248E+04   0.251E+00 -.239E-01 -.248E+04   0.850E-02 0.163E-01 -.332E+00   0.449E-01 0.433E-01 -.193E-01
   0.184E+00 -.246E+00 0.248E+04   -.105E+00 0.229E+00 -.248E+04   -.183E-01 -.762E-03 -.332E+00   -.581E-01 0.183E-01 -.196E-01
   -.184E+00 -.246E+00 0.248E+04   0.105E+00 0.229E+00 -.248E+04   0.183E-01 -.762E-03 -.332E+00   0.600E-01 0.172E-01 -.194E-01
   0.197E-04 -.416E-04 0.248E+04   0.166E-03 -.200E-04 -.248E+04   -.157E-17 -.452E-17 -.394E+00   -.464E-02 -.240E-02 -.378E-02
   0.282E+01 0.163E+01 0.825E+03   -.257E+01 -.148E+01 -.825E+03   -.128E+00 -.739E-01 -.535E+00   -.880E-01 -.509E-01 0.121E+00
   0.137E-04 0.199E+01 0.826E+03   0.149E-03 -.188E+01 -.826E+03   -.224E-08 -.336E-01 -.418E+00   0.380E-02 -.849E-01 0.158E+00
   -.282E+01 0.163E+01 0.825E+03   0.257E+01 -.148E+01 -.825E+03   0.128E+00 -.739E-01 -.535E+00   0.867E-01 -.494E-01 0.121E+00
   0.172E+01 -.993E+00 0.826E+03   -.163E+01 0.941E+00 -.826E+03   -.291E-01 0.168E-01 -.418E+00   -.713E-01 0.460E-01 0.158E+00
   -.172E+01 -.993E+00 0.826E+03   0.163E+01 0.941E+00 -.826E+03   0.291E-01 0.168E-01 -.418E+00   0.792E-01 0.456E-01 0.158E+00
   0.314E-04 0.605E+00 0.824E+03   0.236E-03 -.630E+00 -.824E+03   0.221E-09 0.332E-02 -.381E+00   -.240E-02 0.141E-01 0.129E+00
   -.212E-04 -.325E+01 0.825E+03   0.162E-03 0.296E+01 -.825E+03   0.985E-08 0.148E+00 -.535E+00   0.299E-03 0.998E-01 0.121E+00
   0.524E+00 -.303E+00 0.824E+03   -.546E+00 0.315E+00 -.824E+03   0.288E-02 -.166E-02 -.381E+00   0.113E-01 -.869E-02 0.129E+00
   -.524E+00 -.303E+00 0.824E+03   0.545E+00 0.315E+00 -.824E+03   -.288E-02 -.166E-02 -.381E+00   -.113E-01 -.678E-02 0.129E+00
   -.408E-04 0.365E+00 -.856E+03   0.535E-04 -.416E+00 0.856E+03   -.815E-09 -.122E-01 0.492E+00   -.332E-03 0.594E-01 -.539E-01
   0.331E+01 0.191E+01 -.837E+03   -.320E+01 -.185E+01 0.837E+03   -.114E+00 -.657E-01 -.455E-01   0.181E-01 0.103E-01 0.502E-01
   -.331E+01 0.191E+01 -.837E+03   0.320E+01 -.185E+01 0.837E+03   0.114E+00 -.657E-01 -.455E-01   -.173E-01 0.125E-01 0.503E-01
   -.132E+01 0.763E+00 -.852E+03   0.106E+01 -.611E+00 0.851E+03   0.211E+00 -.122E+00 0.584E+00   0.377E-01 -.260E-01 -.239E-01
   -.144E-04 -.382E+01 -.837E+03   0.144E-03 0.370E+01 0.837E+03   0.875E-08 0.131E+00 -.455E-01   0.193E-02 -.212E-01 0.503E-01
   0.132E+01 0.763E+00 -.852E+03   -.106E+01 -.611E+00 0.851E+03   -.211E+00 -.122E+00 0.584E+00   -.447E-01 -.258E-01 -.244E-01
   -.316E+00 -.183E+00 -.856E+03   0.360E+00 0.208E+00 0.856E+03   0.106E-01 0.612E-02 0.492E+00   -.498E-01 -.288E-01 -.547E-01
   0.316E+00 -.183E+00 -.856E+03   -.360E+00 0.208E+00 0.856E+03   -.106E-01 0.612E-02 0.492E+00   0.516E-01 -.300E-01 -.539E-01
   0.544E-05 -.153E+01 -.852E+03   0.202E-03 0.122E+01 0.851E+03   0.162E-07 0.244E+00 0.584E+00   -.422E-02 0.456E-01 -.239E-01
   -.836E-05 -.106E-04 -.249E+04   0.257E-04 0.312E-04 0.249E+04   -.237E-17 0.177E-17 0.487E+00   0.133E-02 0.752E-03 0.706E-01
   -.208E+01 -.490E+01 -.249E+04   0.230E+01 0.521E+01 0.249E+04   -.228E+00 -.271E+00 0.348E+00   0.170E-01 -.325E-01 -.235E-01
   0.208E+01 -.490E+01 -.249E+04   -.230E+01 0.521E+01 0.249E+04   0.228E+00 -.271E+00 0.348E+00   -.231E-01 -.305E-01 -.229E-01
   -.529E+01 0.647E+00 -.249E+04   0.566E+01 -.615E+00 0.249E+04   -.348E+00 -.620E-01 0.348E+00   -.196E-01 0.309E-01 -.234E-01
   0.529E+01 0.647E+00 -.249E+04   -.566E+01 -.615E+00 0.249E+04   0.348E+00 -.620E-01 0.348E+00   0.120E-01 0.320E-01 -.238E-01
   -.320E+01 0.426E+01 -.249E+04   0.336E+01 -.459E+01 0.249E+04   -.120E+00 0.333E+00 0.348E+00   -.380E-01 -.478E-02 -.229E-01
   0.320E+01 0.426E+01 -.249E+04   -.336E+01 -.459E+01 0.249E+04   0.120E+00 0.333E+00 0.348E+00   0.338E-01 -.555E-02 -.238E-01
   0.277E-04 -.317E-04 -.249E+04   0.150E-03 -.464E-04 0.249E+04   0.139E-17 0.402E-18 0.513E+00   -.354E-02 -.175E-02 0.185E-01
   -.604E-05 -.230E-04 -.220E+04   0.101E-03 0.891E-05 0.220E+04   0.369E-17 -.340E-17 0.174E+01   0.410E-02 0.246E-02 0.440E-01
   -.766E-03 -.785E-03 -.764E+00   0.443E-14 0.128E-12 0.000E+00   -.106E-15 0.108E-15 0.594E+00   -.147E-01 -.790E-02 0.933E+00

 POSITION                                       TOTAL-FORCE (eV/Angst)
      0.00000      0.00000      5.28038        -0.000000     -0.000000     -0.041463
      2.93784      0.00000      5.28038        -0.001257      0.001531     -0.081855
      5.87568      0.00000      5.28038         0.001257      0.001531     -0.081855
      1.46892      2.54424      5.28038         0.000697     -0.001854     -0.081855
      4.40676      2.54424      5.28038         0.000000     -0.000000     -0.095286
      7.34459      2.54424      5.28038        -0.000697     -0.001854     -0.081855
      2.93784      5.08848      5.28038         0.001954      0.000323     -0.081855
      5.87568      5.08848      5.28038        -0.001954      0.000323     -0.081855
      8.81351      5.08848      5.28038        -0.000000     -0.000000     -0.073973
      1.46892      0.84808      7.67911         0.034599      0.019976      0.102343
      4.40676      0.84808      7.67911        -0.000000     -0.017387      0.050420
      7.34459      0.84808      7.67911        -0.034599      0.019976      0.102343
      2.93784      3.39232      7.67911        -0.015058      0.008694      0.050420
      5.87568      3.39232      7.67911         0.015058      0.008694      0.050420
      8.81351      3.39232      7.67911        -0.000000     -0.007593      0.098779
      4.40676      5.93656      7.67911        -0.000000     -0.039952      0.102343
      7.34459      5.93656      7.67911        -0.006576      0.003797      0.098779
     10.28243      5.93656      7.67911         0.006576      0.003797      0.098779
      8.81351      1.69709     10.07334        -0.000000     -0.004073      0.011185
      2.92757      1.69024     10.04824         0.007970      0.004602     -0.004957
      5.88594      1.69024     10.04824        -0.007970      0.004602     -0.004957
     10.27700      4.24354     10.06671        -0.010149      0.005860      0.008833
      4.40676      4.25225     10.04824        -0.000000     -0.009203     -0.004957
      7.35003      4.24354     10.06671         0.010149      0.005860      0.008833
     11.75055      6.78418     10.07334         0.003527      0.002036      0.011185
      5.87648      6.78418     10.07334        -0.003527      0.002036      0.011185
      8.81351      6.77837     10.06671        -0.000000     -0.011719      0.008833
      0.00000      0.00000     12.49905        -0.000000     -0.000000     -0.034067
      2.94801      0.01573     12.49317         0.005246      0.003387     -0.004896
      5.86551      0.01573     12.49317        -0.005246      0.003387     -0.004896
      1.48763      2.54518     12.49317         0.005556      0.002850     -0.004896
      7.32589      2.54518     12.49317        -0.005556      0.002850     -0.004896
      2.94638      5.07181     12.49317         0.000310     -0.006237     -0.004896
      5.86714      5.07181     12.49317        -0.000310     -0.006237     -0.004896
      8.81351      5.08848     12.49660        -0.000000     -0.000000     -0.022831
      4.40676      2.54424     12.29817        -0.000000     -0.000000     -0.011686
    total drift:                               -0.015507     -0.008684      0.762683

  FREE ENERGIE OF THE ION-ELECTRON SYSTEM (eV)
  free  energy   TOTEN  =      -112.44920295 eV

  energy  without entropy=     -112.44920295  energy(sigma->0) =     -112.44920295

 stress matrix after NEB project (eV)
    -21.58095     -0.00000     -0.00000
     -0.00000    -21.58095      0.00000
      0.00000      0.00000      1.25291
  FORCES: max atom, RMS     0.034067    0.009993
  FORCE total and by dimension    0.059959    0.034067
  Stress total and by dimension   30.545780   21.580952
|           W    W    AA    RRRRR   N    N  II  N    N   GGGG   !!!           |
|           W    W   A  A   R    R  NN   N  II  NN   N  G    G  !!!           |
|           W    W  A    A  R    R  N N  N  II  N N  N  G       !!!           |
|           W WW W  AAAAAA  RRRRR   N  N N  II  N  N N  G  GGG   !            |
|           WW  WW  A    A  R   R   N   NN  II  N   NN  G    G                |
|           W    W  A    A  R    R  N    N  II  N    N   GGGG   !!!           |
|     Tetrahedron method does not include variations of the Fermi             |
|     occupations, so forces and stress will be inaccurate. We suggest        |
|     using a different smearing scheme ISMEAR = 1 or 2 for metals in         |
|     relaxations.                                                            |

 total charge

# of ion       s       p       d       tot
    1        0.543   0.241   8.766   9.549
    2        0.545   0.240   8.765   9.551
    3        0.545   0.240   8.765   9.551
    4        0.545   0.240   8.765   9.551
    5        0.542   0.241   8.765   9.548
    6        0.545   0.240   8.765   9.551
    7        0.545   0.240   8.765   9.551
    8        0.545   0.240   8.765   9.551
    9        0.544   0.240   8.766   9.550
   10        0.519   0.309   8.769   9.597
   11        0.520   0.306   8.776   9.603
   12        0.519   0.309   8.769   9.597
   13        0.520   0.306   8.776   9.603
   14        0.520   0.306   8.776   9.603
   15        0.516   0.307   8.775   9.598
   16        0.519   0.309   8.769   9.597
   17        0.516   0.307   8.775   9.598
   18        0.516   0.307   8.775   9.598
   19        0.517   0.302   8.775   9.594
   20        0.523   0.316   8.766   9.605
   21        0.523   0.316   8.766   9.605
   22        0.512   0.304   8.773   9.590
   23        0.523   0.316   8.766   9.605
   24        0.512   0.304   8.773   9.590
   25        0.517   0.302   8.775   9.594
   26        0.517   0.302   8.775   9.594
   27        0.512   0.304   8.773   9.590
   28        0.540   0.231   8.768   9.540
   29        0.543   0.237   8.760   9.541
   30        0.543   0.237   8.760   9.541
   31        0.543   0.237   8.760   9.541
   32        0.543   0.237   8.760   9.541
   33        0.543   0.237   8.760   9.541
   34        0.543   0.237   8.760   9.541
   35        0.538   0.232   8.769   9.539
   36        0.556   0.306   8.125   8.987
tot         19.115   9.891 315.015 344.022

 BZINTS: Fermi energy:    0.669907;  395.000000 electrons
         Band energy:-0.117257E+04;  BLOECHL correction:   -0.115073