 vasp.6.2.0 18Jan21 (build Jun 12 2021 23:27:24) complex

 executed on             LinuxIFC date 2022.05.26  19:48:46

 INCAR:
   ISMEAR = -5
   SIGMA = 0.1
   ISPIN = 1
   EDIFF = 1.d-5
   EDIFFG = -0.01
   NSW = 0
   NELM = 150
   ENCUT = 500
   ISIF = 2
   IBRION = 2
   LREAL = Auto
   ALGO = Fast
   ICHARG = 11
   LORBIT = 10
   LCHARG = .F.
   LWAVE = .F.

 POTCAR:    PAW_PBE Ag 02Apr2005
 POTCAR:    PAW_PBE Rh 04Feb2005
 POTCAR:    PAW_PBE O 08Apr2002
|           W    W    AA    RRRRR   N    N  II  N    N   GGGG   !!!           |
|           W    W   A  A   R    R  NN   N  II  NN   N  G    G  !!!           |
|           W    W  A    A  R    R  N N  N  II  N N  N  G       !!!           |
|           W WW W  AAAAAA  RRRRR   N  N N  II  N  N N  G  GGG   !            |
|           WW  WW  A    A  R   R   N   NN  II  N   NN  G    G                |
|           W    W  A    A  R    R  N    N  II  N    N   GGGG   !!!           |
|     For optimal performance we recommend to set                             |
|       NCORE = 2 up to number-of-cores-per-socket                            |
|     This setting can greatly improve the performance of VASP for DFT.       |
|     The default, NCORE=1 might be grossly inefficient on modern             |
|     multi-core architectures or massively parallel machines. Do your        |
|     Unfortunately you need to use the default for GW and RPA                |
|     calculations (for HF NCORE is supported but not extensively tested      |
|     yet).                                                                   |

 POTCAR:    PAW_PBE Ag 02Apr2005
   VRHFIN =Ag : s1 d10

   TITEL  = PAW_PBE Ag 02Apr2005
   POMASS =  107.868; ZVAL   =   11.000    mass and valenz
   ENMAX  =  249.844; ENMIN  =  187.383 eV

 POTCAR:    PAW_PBE Rh 04Feb2005
   VRHFIN =Rh: s1 d8

   TITEL  = PAW_PBE Rh 04Feb2005
   POMASS =  102.906; ZVAL   =    9.000    mass and valenz
   ENMAX  =  228.996; ENMIN  =  171.747 eV

 POTCAR:    PAW_PBE O 08Apr2002
   VRHFIN =O: s2p4

   TITEL  = PAW_PBE O 08Apr2002
   POMASS =   16.000; ZVAL   =    6.000    mass and valenz
   ENMAX  =  400.000; ENMIN  =  300.000 eV

 Optimization of the real space projectors (new method)

 maximal supplied QI-value         = 15.12
 optimisation between [QCUT,QGAM] = [ 11.34, 22.83] = [ 36.00,145.93] Ry
 Optimized for a Real-space Cutoff    1.43 Angstroem

   l    n(q)    QCUT    max X(q) W(low)/X(q) W(high)/X(q)  e(spline)
   2      9    11.338    53.897    0.16E-03    0.20E-03    0.28E-06
   2      9    11.338    52.416    0.16E-03    0.20E-03    0.29E-06
   0     10    11.338   122.045    0.31E-04    0.76E-04    0.15E-06
   0     10    11.338    73.629    0.30E-04    0.72E-04    0.15E-06
   1      9    11.338    15.255    0.20E-03    0.19E-04    0.17E-06
   1      9    11.338     9.562    0.16E-03    0.15E-04    0.14E-06
 Optimization of the real space projectors (new method)

[...]

   l    n(q)    QCUT    max X(q) W(low)/X(q) W(high)/X(q)  e(spline)
   2      9    11.327    59.645    0.31E-03    0.12E-04    0.28E-06
   2      9    11.327    58.460    0.31E-03    0.12E-04    0.29E-06
   0     10    11.327    97.683    0.32E-04    0.83E-04    0.31E-06
   0     10    11.327    53.223    0.30E-04    0.78E-04    0.29E-06
   1     10    11.327    13.596    0.49E-03    0.95E-03    0.55E-06
   1     10    11.327     7.885    0.36E-03    0.71E-03    0.41E-06
 Optimization of the real space projectors (new method)

 maximal supplied QI-value         = 24.76
 optimisation between [QCUT,QGAM] = [ 11.39, 22.77] = [ 36.31,145.25] Ry
 Optimized for a Real-space Cutoff    1.00 Angstroem

   l    n(q)    QCUT    max X(q) W(low)/X(q) W(high)/X(q)  e(spline)
   0      7    11.387    20.381    0.39E-03    0.13E-02    0.15E-06
   0      7    11.387    15.268    0.42E-03    0.14E-02    0.17E-06
   1      6    11.387     5.964    0.41E-03    0.11E-02    0.17E-06
   1      6    11.387     5.382    0.39E-03    0.87E-03    0.15E-06
  PAW_PBE Ag 02Apr2005                  :
  PAW_PBE Rh 04Feb2005                  :
  PAW_PBE O 08Apr2002                   :

 POSCAR: Ag-Rh-O
  positions in direct lattice
  velocities in cartesian coordinates
 exchange correlation table for  LEXCH =        8
   RHO(1)=    0.500       N(1)  =     2000
   RHO(2)=  100.500       N(2)  =     4000

 VTST: version 3.2, (02/03/18)

 CHAIN: initializing optimizer

 OPT: Using VASP Conjugate-Gradient optimizer
 CHAIN: Read ICHAIN            0

 POSCAR: Ag-Rh-O
  positions in direct lattice
  velocities in cartesian coordinates

 ion  position               nearest neighbor table
   1  0.000  0.000  0.238-   2 2.93   8 2.93   7 2.93   6 2.93   4 2.93  12 2.93  16 2.93  10 2.93
                             3 2.93
   2  0.333  0.000  0.238-   1 2.93   8 2.93   9 2.93   3 2.93   4 2.93   5 2.93  10 2.93  17 2.93
                            11 2.93
   3  0.667  0.000  0.238-   9 2.93   2 2.93   5 2.93  11 2.93   7 2.93  18 2.93   1 2.93   6 2.93
                            12 2.93
   4  0.000  0.333  0.238-   5 2.93   6 2.93   2 2.93   1 2.93   7 2.93  13 2.93  15 2.93   9 2.93
                            10 2.93
   5  0.333  0.333  0.238-   4 2.93   3 2.93   7 2.93   2 2.93   8 2.93  14 2.93  13 2.93  11 2.93
                             6 2.93
   6  0.667  0.333  0.238-   4 2.93   9 2.93   1 2.93  15 2.93   8 2.93  12 2.93   3 2.93   5 2.93
                            14 2.93
   7  0.000  0.667  0.238-   8 2.93   1 2.93   5 2.93   3 2.93   4 2.93  16 2.93  18 2.93  13 2.93
                             9 2.93
   8  0.333  0.667  0.238-   7 2.93   1 2.93   2 2.93   9 2.93   5 2.93  16 2.93   6 2.93  17 2.93
                            14 2.93
   9  0.667  0.667  0.238-   3 2.93   2 2.93   8 2.93   6 2.93  17 2.93   4 2.93  15 2.93   7 2.93
                            18 2.93
  10  0.111  0.111  0.346-  20 2.90  19 2.93  26 2.93  12 2.93  16 2.93  15 2.93  17 2.93  13 2.93
                            11 2.93   2 2.93   1 2.93   4 2.93
  11  0.444  0.111  0.346-  21 2.90  20 2.90  27 2.92  14 2.93  17 2.93  18 2.93   3 2.93  12 2.93
                            13 2.93  10 2.93   5 2.93   2 2.93
  12  0.778  0.111  0.346-  21 2.90  25 2.93  19 2.93  10 2.93  16 2.93  18 2.93  15 2.93  11 2.93
                             1 2.93  14 2.93   6 2.93   3 2.93
  13  0.111  0.444  0.346-  20 2.90  23 2.90  22 2.92  15 2.93  14 2.93  18 2.93  10 2.93  11 2.93
                            16 2.93   4 2.93   5 2.93   7 2.93
  14  0.444  0.444  0.346-  23 2.90  21 2.90  24 2.92  13 2.93  11 2.93  16 2.93   5 2.93  12 2.93
                            17 2.93   8 2.93  15 2.93   6 2.93
  15  0.778  0.444  0.346-  24 2.92  22 2.92  19 2.92  13 2.93  10 2.93  12 2.93  17 2.93  18 2.93
                             4 2.93   6 2.93   9 2.93  14 2.93
  16  0.111  0.778  0.346-  23 2.90  26 2.93  25 2.93  18 2.93  12 2.93  10 2.93  14 2.93  17 2.93
                            13 2.93   7 2.93   8 2.93   1 2.93
  17  0.444  0.778  0.346-  27 2.92  24 2.92  26 2.92  11 2.93  10 2.93   9 2.93  18 2.93  15 2.93
                            16 2.93   2 2.93  14 2.93   8 2.93
  18  0.778  0.778  0.346-  22 2.92  27 2.92  25 2.92  16 2.93  12 2.93  13 2.93  11 2.93  17 2.93
                            15 2.93   7 2.93   3 2.93   9 2.93
  19  0.889  0.223  0.454-  28 2.91  15 2.92  10 2.93  12 2.93  24 2.93  22 2.93  32 2.93  31 2.93
                            20 2.93  21 2.93  26 2.94  25 2.94
  20  0.222  0.222  0.452-  36 2.78  13 2.90  11 2.90  10 2.90  31 2.91  29 2.91  21 2.92  23 2.92
                            27 2.93  22 2.93  19 2.93  26 2.93
  21  0.555  0.222  0.452-  36 2.78  11 2.90  14 2.90  12 2.90  30 2.91  32 2.91  20 2.92  23 2.92
                            27 2.93  24 2.93  25 2.93  19 2.93
  22  0.889  0.556  0.453-  35 2.90  18 2.92  15 2.92  13 2.92  33 2.92  31 2.92  25 2.93  19 2.93
                            24 2.93  27 2.93  23 2.93  20 2.93
  23  0.222  0.555  0.452-  36 2.78  14 2.90  13 2.90  16 2.90  34 2.91  33 2.91  21 2.92  20 2.92
                            22 2.93  24 2.93  26 2.93  25 2.93
  24  0.556  0.556  0.453-  35 2.90  15 2.92  17 2.92  14 2.92  32 2.92  34 2.92  19 2.93  26 2.93
                            27 2.93  22 2.93  23 2.93  21 2.93
  25  0.889  0.889  0.454-  28 2.91  18 2.92  16 2.93  12 2.93  22 2.93  27 2.93  33 2.93  30 2.93
                            23 2.93  21 2.93  26 2.94  19 2.94
  26  0.223  0.889  0.454-  28 2.91  17 2.92  16 2.93  10 2.93  27 2.93  24 2.93  34 2.93  29 2.93
                            23 2.93  20 2.93  25 2.94  19 2.94
  27  0.556  0.889  0.453-  35 2.90  17 2.92  18 2.92  11 2.92  29 2.92  30 2.92  26 2.93  25 2.93
                            24 2.93  22 2.93  20 2.93  21 2.93
  28  0.000  0.000  0.560-  26 2.91  25 2.91  19 2.91  29 2.95  34 2.95  33 2.95  32 2.95  31 2.95
                            30 2.95
  29  0.333  0.005  0.560-  31 2.88  30 2.89  36 2.89  20 2.91  27 2.92  26 2.93  28 2.95  35 2.95
                            34 3.02
  30  0.662  0.005  0.560-  32 2.88  29 2.89  36 2.89  21 2.91  27 2.92  25 2.93  28 2.95  35 2.95
                            33 3.02
  31  0.005  0.333  0.560-  29 2.88  33 2.89  36 2.89  20 2.91  22 2.92  19 2.93  28 2.95  35 2.95
                            32 3.02
  32  0.662  0.333  0.560-  30 2.88  34 2.89  36 2.89  21 2.91  24 2.92  19 2.93  28 2.95  35 2.95
                            31 3.02
  33  0.005  0.662  0.560-  34 2.88  31 2.89  36 2.89  23 2.91  22 2.92  25 2.93  28 2.95  35 2.95
                            30 3.02
  34  0.333  0.662  0.560-  33 2.88  32 2.89  36 2.89  23 2.91  24 2.92  26 2.93  28 2.95  35 2.95
                            29 3.02
  35  0.667  0.667  0.560-  24 2.90  27 2.90  22 2.90  30 2.95  32 2.95  29 2.95  34 2.95  31 2.95
                            33 2.95
  36  0.333  0.333  0.552-  37 1.77  21 2.78  20 2.78  23 2.78  31 2.89  30 2.89  33 2.89  29 2.89
                            34 2.89  32 2.89
  37  0.333  0.333  0.632-  36 1.77

  LATTYP: Found a hexagonal cell.
 ALAT       =     8.7913665772
 C/A-ratio  =     2.5227160501

  Lattice vectors:

 A1 = (  -4.3956832886,  -7.6135467898,   0.0000000000)
 A2 = (   8.7913665771,   0.0000000000,   0.0000000000)
 A3 = (   0.0000000000,   0.0000000000,  22.1781215668)

Analysis of symmetry for initial positions (statically):
 Subroutine PRICEL returns:
 Original cell was already a primitive cell.

 Routine SETGRP: Setting up the symmetry group for a
 hexagonal supercell.

 Subroutine GETGRP returns: Found  6 space group operations
 (whereof  6 operations were pure point group operations)
 out of a pool of 24 trial point group operations.

The static configuration has the point symmetry C_3v.

Analysis of symmetry for dynamics (positions and initial velocities):
 Subroutine PRICEL returns:
 Original cell was already a primitive cell.

[...]

The dynamic configuration has the point symmetry C_3v.

Analysis of constrained symmetry for selective dynamics:
 Subroutine PRICEL returns:
 Original cell was already a primitive cell.

 Routine SETGRP: Setting up the symmetry group for a
 hexagonal supercell.

 Subroutine GETGRP returns: Found  6 space group operations
[...]
     24      -4.6916      2.00000
     25      -4.6766      2.00000
     26      -4.6513      2.00000
     27      -4.6340      2.00000
     28      -4.6156      2.00000
     29      -4.6097      2.00000
     30      -4.5979      2.00000
     31      -4.5894      2.00000
     32      -4.5785      2.00000
     33      -4.5500      2.00000
     34      -4.5190      2.00000
     35      -4.4917      2.00000
     36      -4.4596      2.00000
     37      -4.4524      2.00000
     38      -4.4391      2.00000
     39      -4.4145      2.00000
     40      -4.3905      2.00000
     41      -4.3827      2.00000
     42      -4.3713      2.00000
     43      -4.3524      2.00000
     44      -4.3111      2.00000
     45      -4.2552      2.00000
     46      -4.2374      2.00000
     47      -4.2273      2.00000
     48      -4.2218      2.00000
     49      -4.2083      2.00000
     50      -4.2039      2.00000
     51      -4.2015      2.00000
     52      -4.1885      2.00000
     53      -4.1825      2.00000
     54      -4.1141      2.00000
     55      -4.1019      2.00000
     56      -4.0894      2.00000
     57      -4.0790      2.00000
     58      -4.0725      2.00000
     59      -4.0632      2.00000
     60      -4.0421      2.00000
[...]
    238       6.3145      0.00000
    239       6.3499      0.00000
    240       6.4480      0.00000
    241       7.0862      0.00000
    242       7.1808      0.00000
    243       7.2617      0.00000
    244       7.3479      0.00000
    245       7.3765      0.00000
    246       7.4057      0.00000
    247       7.4559      0.00000
    248       7.5172      0.00000
    249       7.6166      0.00000
    250       7.6766      0.00000
    251       7.6845      0.00000
    252       7.7900      0.00000

 soft charge-density along one line, spin component           1
         0         1         2         3         4         5         6         7         8         9
 total charge-density along one line

------------------------ aborting loop because EDIFF is reached ----------------------------------------

 total charge

# of ion       s       p       d       tot
    1        0.417   0.201   9.179   9.797
    2        0.417   0.203   9.177   9.797
    3        0.417   0.203   9.177   9.797
    4        0.417   0.203   9.177   9.797
    5        0.415   0.204   9.175   9.795
    6        0.417   0.203   9.177   9.797
    7        0.417   0.203   9.177   9.797
    8        0.417   0.203   9.177   9.797
    9        0.413   0.202   9.179   9.794
   10        0.407   0.269   9.164   9.840
   11        0.406   0.270   9.166   9.843
   12        0.407   0.269   9.164   9.840
   13        0.406   0.270   9.166   9.843
   14        0.406   0.270   9.166   9.843
   15        0.403   0.268   9.166   9.837
   16        0.407   0.269   9.164   9.840
   17        0.403   0.268   9.166   9.837
   18        0.403   0.268   9.166   9.837
   19        0.402   0.269   9.165   9.836
   20        0.425   0.290   9.154   9.868
   21        0.425   0.290   9.154   9.868
   22        0.399   0.270   9.169   9.838
   23        0.425   0.290   9.154   9.868
   24        0.399   0.270   9.169   9.838
   25        0.402   0.269   9.165   9.836
   26        0.402   0.269   9.165   9.836
   27        0.399   0.270   9.169   9.838
   28        0.419   0.195   9.182   9.797
   29        0.399   0.206   9.185   9.791
   30        0.399   0.206   9.185   9.791
   31        0.399   0.206   9.185   9.791
   32        0.399   0.206   9.185   9.791
   33        0.399   0.206   9.185   9.791
   34        0.399   0.206   9.185   9.791
   35        0.412   0.199   9.180   9.792
   36        0.487   0.521   7.424   8.433
   37        1.603   3.216   0.000   4.819
tot         16.396  12.102 328.443 356.941

  FORCE on cell =-STRESS in cart. coord.  units (eV):
  Direction    XX          YY          ZZ          XY          YZ          ZX
  Alpha Z   752.10434   752.10434   752.10434
  Ewald  121525.56030121525.56037************     0.00003     0.00000     0.00004
  Hartree131826.11310131826.11313************     0.00001    -0.00000     0.00002
  E(xc)   -2101.75894 -2101.75895 -2106.53859     0.00001    -0.00000    -0.00000
  Local  ************************264664.21450     0.00046    -0.00006    -0.00017
  n-local  -353.39448  -333.58947  -337.70860    11.39451    -0.28663     0.51124
  augment  3287.48595  3287.48617  3288.65371    -0.00019    -0.00001    -0.00002
  Kinetic  5011.58298  5017.26198  5018.26912     4.79135     1.24174    -0.36660
  Fock        0.00000     0.00000     0.00000     0.00000     0.00000     0.00000
  Total      -7.64399    -7.64399    -0.07520    -0.00000    -0.00000    -0.00000
  in kB      -8.25016    -8.25016    -0.08116    -0.00000    -0.00000    -0.00000

 VOLUME and BASIS-vectors are now :
  energy-cutoff  :      500.00
  volume of cell :     1484.46
      direct lattice vectors                 reciprocal lattice vectors
     8.791366577  0.000000000  0.000000000     0.113747958 -0.065672414  0.000000000
     4.395683289  7.613546790  0.000000000     0.000000000  0.131344829  0.000000000
     0.000000000  0.000000000 22.178121567     0.000000000  0.000000000  0.045089481

  length of vectors
     8.791366577  8.791366577 22.178121567     0.131344829  0.131344829  0.045089481

 FORCES acting on ions
    electron-ion (+dipol)            ewald-force                    non-local-force                 convergence-correction
   0.457E-04 -.284E-04 0.252E+04   -.954E-04 0.593E-04 -.252E+04   0.201E-17 0.107E-17 -.209E+01   -.171E-03 -.165E-03 0.161E+00
   0.327E+00 0.490E+00 0.252E+04   -.435E+00 -.520E+00 -.252E+04   0.492E-01 0.651E-01 -.157E+01   0.601E-01 -.214E-01 0.176E+00
   -.327E+00 0.490E+00 0.252E+04   0.435E+00 -.520E+00 -.252E+04   -.492E-01 0.651E-01 -.157E+01   -.605E-01 -.195E-01 0.177E+00
   0.588E+00 0.379E-01 0.252E+04   -.668E+00 -.116E+00 -.252E+04   0.809E-01 0.100E-01 -.157E+01   0.117E-01 0.629E-01 0.176E+00
   -.557E-05 -.187E-04 0.252E+04   0.981E-04 -.199E-05 -.252E+04   -.138E-17 -.919E-18 -.149E+01   0.625E-02 0.382E-02 0.100E+00
   -.588E+00 0.379E-01 0.252E+04   0.668E+00 -.116E+00 -.252E+04   -.809E-01 0.100E-01 -.157E+01   -.131E-01 0.638E-01 0.177E+00
   0.261E+00 -.528E+00 0.252E+04   -.233E+00 0.637E+00 -.252E+04   0.318E-01 -.751E-01 -.157E+01   -.468E-01 -.422E-01 0.177E+00
   -.261E+00 -.528E+00 0.252E+04   0.233E+00 0.637E+00 -.252E+04   -.318E-01 -.751E-01 -.157E+01   0.483E-01 -.432E-01 0.177E+00
   0.362E-04 -.131E-04 0.252E+04   0.792E-04 -.643E-04 -.252E+04   -.177E-17 -.121E-18 -.188E+01   -.661E-02 -.343E-02 0.235E+00
   0.501E+01 0.289E+01 0.865E+03   -.466E+01 -.269E+01 -.864E+03   -.326E+00 -.188E+00 -.799E+00   -.223E-01 -.127E-01 0.159E+00
   -.289E-04 0.520E+01 0.872E+03   0.414E-04 -.515E+01 -.872E+03   0.631E-12 0.960E-01 -.303E+00   0.661E-02 -.168E+00 0.108E+00
   -.501E+01 0.289E+01 0.865E+03   0.466E+01 -.269E+01 -.864E+03   0.326E+00 -.188E+00 -.799E+00   0.205E-01 -.117E-01 0.159E+00
   0.450E+01 -.260E+01 0.872E+03   -.446E+01 0.257E+01 -.872E+03   0.831E-01 -.480E-01 -.303E+00   -.142E+00 0.896E-01 0.109E+00
   -.450E+01 -.260E+01 0.872E+03   0.446E+01 0.257E+01 -.872E+03   -.831E-01 -.480E-01 -.303E+00   0.153E+00 0.882E-01 0.108E+00
   0.161E-04 0.317E+00 0.865E+03   -.109E-03 -.527E+00 -.864E+03   0.503E-12 0.767E-01 -.668E+00   -.171E-02 0.110E+00 0.134E+00
   -.770E-05 -.579E+01 0.865E+03   0.206E-04 0.538E+01 -.864E+03   0.247E-11 0.376E+00 -.799E+00   -.237E-03 0.237E-01 0.159E+00
   0.274E+00 -.158E+00 0.865E+03   -.456E+00 0.263E+00 -.864E+03   0.664E-01 -.383E-01 -.668E+00   0.948E-01 -.567E-01 0.134E+00
   -.275E+00 -.159E+00 0.865E+03   0.456E+00 0.264E+00 -.864E+03   -.664E-01 -.383E-01 -.668E+00   -.943E-01 -.545E-01 0.135E+00
   0.410E-04 0.251E+01 -.820E+03   -.129E-03 -.270E+01 0.819E+03   0.730E-12 0.111E+00 0.603E+00   -.658E-02 0.620E-01 0.110E-01
   0.178E+02 0.103E+02 -.783E+03   -.165E+02 -.955E+01 0.783E+03   -.113E+01 -.655E+00 -.709E+00   -.907E-01 -.516E-01 0.102E+00
   -.178E+02 0.103E+02 -.783E+03   0.165E+02 -.955E+01 0.783E+03   0.113E+01 -.655E+00 -.709E+00   0.923E-01 -.530E-01 0.102E+00
   0.776E+01 -.448E+01 -.810E+03   -.793E+01 0.458E+01 0.809E+03   0.227E+00 -.131E+00 0.709E+00   -.504E-01 0.308E-01 0.658E-01
   -.572E-04 -.205E+02 -.783E+03   0.444E-04 0.191E+02 0.783E+03   0.860E-11 0.131E+01 -.709E+00   -.542E-02 0.974E-01 0.102E+00
   -.776E+01 -.448E+01 -.810E+03   0.793E+01 0.458E+01 0.809E+03   -.227E+00 -.131E+00 0.709E+00   0.519E-01 0.293E-01 0.665E-01
   -.218E+01 -.126E+01 -.820E+03   0.233E+01 0.135E+01 0.819E+03   -.963E-01 -.556E-01 0.603E+00   -.613E-01 -.348E-01 0.111E-01
   0.218E+01 -.126E+01 -.820E+03   -.233E+01 0.135E+01 0.819E+03   0.963E-01 -.556E-01 0.603E+00   0.505E-01 -.357E-01 0.110E-01
   0.205E-04 0.896E+01 -.810E+03   0.110E-03 -.915E+01 0.809E+03   0.172E-11 0.262E+00 0.709E+00   0.995E-03 -.596E-01 0.658E-01
   0.545E-04 -.374E-04 -.248E+04   -.117E-03 0.784E-04 0.248E+04   -.108E-16 0.458E-17 0.189E+01   -.151E-02 -.723E-03 -.105E+00
   0.263E+02 0.461E+02 -.247E+04   -.265E+02 -.465E+02 0.247E+04   -.455E-01 0.181E+00 0.221E+01   0.696E-01 0.654E-01 -.149E+00
   -.263E+02 0.461E+02 -.247E+04   0.265E+02 -.465E+02 0.247E+04   0.455E-01 0.181E+00 0.221E+01   -.594E-01 0.668E-01 -.150E+00
   0.531E+02 -.254E+00 -.247E+04   -.535E+02 0.367E+00 0.247E+04   0.134E+00 -.130E+00 0.221E+01   0.916E-01 0.278E-01 -.149E+00
   -.531E+02 -.253E+00 -.247E+04   0.535E+02 0.367E+00 0.247E+04   -.134E+00 -.130E+00 0.221E+01   -.822E-01 0.281E-01 -.150E+00
   0.268E+02 -.458E+02 -.247E+04   -.271E+02 0.462E+02 0.247E+04   0.180E+00 -.512E-01 0.221E+01   0.283E-01 -.846E-01 -.150E+00
   -.268E+02 -.458E+02 -.247E+04   0.271E+02 0.462E+02 0.247E+04   -.180E+00 -.512E-01 0.221E+01   -.169E-01 -.854E-01 -.149E+00
   0.219E-04 -.112E-04 -.248E+04   0.107E-03 -.665E-04 0.248E+04   -.238E-17 0.142E-18 0.196E+01   -.745E-02 -.401E-02 -.181E+00
   0.200E-04 -.881E-05 -.175E+04   0.860E-04 0.106E-04 0.175E+04   -.120E-16 -.600E-18 -.456E+01   0.228E-02 0.165E-02 0.986E-01
   0.180E-03 -.983E-04 -.167E+04   0.272E-04 0.381E-06 0.170E+04   -.448E-17 0.380E-18 -.266E+02   0.332E-02 0.205E-02 -.883E-01
   0.611E-03 -.767E-03 0.304E+02   0.201E-13 0.109E-12 -.591E-11   -.744E-16 0.686E-17 -.324E+02   0.221E-01 0.110E-01 0.212E+01

 POSITION                                       TOTAL-FORCE (eV/Angst)
      0.00000      0.00000      5.28219        -0.000000     -0.000000     -0.008580
      2.93046      0.00000      5.28219         0.001625      0.013986      0.025519
      5.86091      0.00000      5.28219        -0.001625      0.013986      0.025519
      1.46523      2.53785      5.28219         0.012925     -0.005585      0.025519
      4.39568      2.53785      5.28219        -0.000000     -0.000000      0.023094
      7.32614      2.53785      5.28219        -0.012925     -0.005585      0.025519
      2.93046      5.07570      5.28219         0.011300     -0.008400      0.025519
      5.86091      5.07570      5.28219        -0.011300     -0.008400      0.025519
      8.79137      5.07570      5.28219        -0.000000     -0.000000     -0.001684
      1.46523      0.84595      7.67490         0.006242      0.003604      0.003445
      4.39568      0.84595      7.67490        -0.000000     -0.025420     -0.047040
      7.32614      0.84595      7.67490        -0.006242      0.003604      0.003445
      2.93046      3.38380      7.67490        -0.022014      0.012710     -0.047040
      5.86091      3.38380      7.67490         0.022014      0.012710     -0.047040
      8.79137      3.38380      7.67490        -0.000000     -0.023514     -0.008821
      4.39568      5.92165      7.67490        -0.000000     -0.007207      0.003445
      7.32614      5.92165      7.67490        -0.020364      0.011757     -0.008821
     10.25659      5.92165      7.67490         0.020364      0.011757     -0.008821
      8.79137      1.69615     10.06050        -0.000000     -0.005694     -0.019463
      2.93321      1.69349     10.03240        -0.002618     -0.001512     -0.165365
      5.85816      1.69349     10.03240         0.002618     -0.001512     -0.165365
     10.25564      4.23030     10.05204         0.006919     -0.003995     -0.040596
      4.39568      4.22657     10.03240         0.000000      0.003023     -0.165365
      7.32709      4.23030     10.05204        -0.006919     -0.003995     -0.040596
     11.71814      6.76547     10.06050         0.004931      0.002847     -0.019463
      5.86459      6.76547     10.06050        -0.004931      0.002847     -0.019463
      8.79137      6.76650     10.05204         0.000000      0.007989     -0.040596
      0.00000      0.00000     12.42190        -0.000000     -0.000000      0.013466
      2.95118      0.03878     12.42853        -0.110306     -0.207063     -0.044633
      5.84018      0.03878     12.42853         0.110306     -0.207063     -0.044633
      1.50917      2.53641     12.42853        -0.234475      0.008004     -0.044633
      7.28219      2.53641     12.42853         0.234475      0.008004     -0.044633
      2.95367      5.03836     12.42853        -0.124169      0.199059     -0.044633
      5.83769      5.03836     12.42853         0.124169      0.199059     -0.044633
      8.79137      5.07570     12.41313        -0.000000     -0.000000      0.031629
      4.39568      2.53785     12.23685        -0.000000     -0.000000      0.894628
      4.39568      2.53785     14.01147        -0.000000     -0.000000     -0.004347
    total drift:                                0.022734      0.010244      0.162193

  FREE ENERGIE OF THE ION-ELECTRON SYSTEM (eV)
  free  energy   TOTEN  =      -100.97242388 eV

  energy  without entropy=     -100.97242388  energy(sigma->0) =     -100.97242388

 stress matrix after NEB project (eV)
     -7.64399     -0.00000     -0.00000
     -0.00000     -7.64399      0.00000
      0.00000     -0.00000     -0.07520
  FORCES: max atom, RMS     0.004347    0.000715
  FORCE total and by dimension    0.004347    0.004347
  Stress total and by dimension   10.810494    7.643989
|           W    W    AA    RRRRR   N    N  II  N    N   GGGG   !!!           |
|           W    W   A  A   R    R  NN   N  II  NN   N  G    G  !!!           |
|           W    W  A    A  R    R  N N  N  II  N N  N  G       !!!           |
|           W WW W  AAAAAA  RRRRR   N  N N  II  N  N N  G  GGG   !            |
|           WW  WW  A    A  R   R   N   NN  II  N   NN  G    G                |
|           W    W  A    A  R    R  N    N  II  N    N   GGGG   !!!           |
|     Tetrahedron method does not include variations of the Fermi             |
|     occupations, so forces and stress will be inaccurate. We suggest        |
|     using a different smearing scheme ISMEAR = 1 or 2 for metals in         |
|     relaxations.                                                            |

 total charge

# of ion       s       p       d       tot
    1        0.417   0.201   9.179   9.797
    2        0.417   0.203   9.177   9.797
    3        0.417   0.203   9.177   9.797
    4        0.417   0.203   9.177   9.797
    5        0.415   0.204   9.175   9.795
    6        0.417   0.203   9.177   9.797
    7        0.417   0.203   9.177   9.797
    8        0.417   0.203   9.177   9.797
    9        0.413   0.202   9.179   9.794
   10        0.407   0.269   9.164   9.840
   11        0.406   0.270   9.166   9.843
   12        0.407   0.269   9.164   9.840
   13        0.406   0.270   9.166   9.843
   14        0.406   0.270   9.166   9.843
   15        0.403   0.268   9.166   9.837
   16        0.407   0.269   9.164   9.840
   17        0.403   0.268   9.166   9.837
   18        0.403   0.268   9.166   9.837
   19        0.402   0.269   9.165   9.836
   20        0.425   0.290   9.154   9.868
   21        0.425   0.290   9.154   9.868
   22        0.399   0.270   9.169   9.838
   23        0.425   0.290   9.154   9.868
   24        0.399   0.270   9.169   9.838
   25        0.402   0.269   9.165   9.836
   26        0.402   0.269   9.165   9.836
   27        0.399   0.270   9.169   9.838
   28        0.419   0.195   9.182   9.797
   29        0.399   0.206   9.185   9.791
   30        0.399   0.206   9.185   9.791
   31        0.399   0.206   9.185   9.791
   32        0.399   0.206   9.185   9.791
   33        0.399   0.206   9.185   9.791
   34        0.399   0.206   9.185   9.791
   35        0.412   0.199   9.180   9.792
   36        0.487   0.521   7.424   8.433
   37        1.603   3.216   0.000   4.819
tot         16.396  12.102 328.443 356.941

 BZINTS: Fermi energy:    0.760369;  400.000000 electrons
         Band energy:-0.133762E+04;  BLOECHL correction:   -0.036038