 vasp.6.2.0 18Jan21 (build Jun 12 2021 23:27:24) complex

 executed on             LinuxIFC date 2022.05.30  17:54:34

 INCAR:
   ISMEAR = -5
   SIGMA = 0.1
   ISPIN = 1
   EDIFF = 1.d-5
   EDIFFG = -0.01
   NSW = 0
   NELM = 150
   ENCUT = 500
   ISIF = 2
   IBRION = 2
   LREAL = Auto
   ALGO = Fast
   ICHARG = 11
   LORBIT = 10
   LCHARG = .F.
   LWAVE = .F.

 POTCAR:    PAW_PBE Cu 22Jun2005
 POTCAR:    PAW_PBE V 08Apr2002
 POTCAR:    PAW_PBE O 08Apr2002
|           W    W    AA    RRRRR   N    N  II  N    N   GGGG   !!!           |
|           W    W   A  A   R    R  NN   N  II  NN   N  G    G  !!!           |
|           W    W  A    A  R    R  N N  N  II  N N  N  G       !!!           |
|           W WW W  AAAAAA  RRRRR   N  N N  II  N  N N  G  GGG   !            |
|           WW  WW  A    A  R   R   N   NN  II  N   NN  G    G                |
|           W    W  A    A  R    R  N    N  II  N    N   GGGG   !!!           |
|     For optimal performance we recommend to set                             |
|       NCORE = 2 up to number-of-cores-per-socket                            |
|     This setting can greatly improve the performance of VASP for DFT.       |
|     The default, NCORE=1 might be grossly inefficient on modern             |
|     multi-core architectures or massively parallel machines. Do your        |
|     Unfortunately you need to use the default for GW and RPA                |
|     calculations (for HF NCORE is supported but not extensively tested      |
|     yet).                                                                   |

 POTCAR:    PAW_PBE Cu 22Jun2005
   VRHFIN =Cu: d10 p1

   TITEL  = PAW_PBE Cu 22Jun2005
   POMASS =   63.546; ZVAL   =   11.000    mass and valenz
   ENMAX  =  295.446; ENMIN  =  221.585 eV

 POTCAR:    PAW_PBE V 08Apr2002
   VRHFIN =V: p6 d4 s1

   TITEL  = PAW_PBE V 08Apr2002
   POMASS =   50.941; ZVAL   =    5.000    mass and valenz
   ENMAX  =  192.543; ENMIN  =  144.408 eV

 POTCAR:    PAW_PBE O 08Apr2002
   VRHFIN =O: s2p4

   TITEL  = PAW_PBE O 08Apr2002
   POMASS =   16.000; ZVAL   =    6.000    mass and valenz
   ENMAX  =  400.000; ENMIN  =  300.000 eV

 Optimization of the real space projectors (new method)

 maximal supplied QI-value         = 16.25
 optimisation between [QCUT,QGAM] = [ 11.38, 22.75] = [ 36.24,144.96] Ry
 Optimized for a Real-space Cutoff    1.52 Angstroem

   l    n(q)    QCUT    max X(q) W(low)/X(q) W(high)/X(q)  e(spline)
   2      9    11.376     4.610    0.21E-03    0.10E-03    0.26E-06
   2      9    11.376     8.522    0.33E-03    0.16E-03    0.37E-06
   0     10    11.376    51.609    0.62E-04    0.20E-04    0.13E-06
   0     10    11.376    27.747    0.54E-04    0.20E-04    0.13E-06
   1     10    11.376    20.408    0.13E-04    0.99E-04    0.19E-06
   1     10    11.376    13.425    0.12E-04    0.87E-04    0.17E-06
 Optimization of the real space projectors (new method)

[...]

   l    n(q)    QCUT    max X(q) W(low)/X(q) W(high)/X(q)  e(spline)
   2     10    11.327    96.114    0.36E-03    0.35E-03    0.42E-06
   2     10    11.327    88.986    0.37E-03    0.35E-03    0.42E-06
   0     11    11.327    20.919    0.40E-04    0.56E-04    0.79E-06
   0     11    11.327     9.593    0.30E-04    0.41E-04    0.60E-06
   1     10    11.327    11.615    0.15E-03    0.10E-03    0.19E-06
   1     10    11.327     7.031    0.11E-03    0.73E-04    0.14E-06
 Optimization of the real space projectors (new method)

 maximal supplied QI-value         = 24.76
 optimisation between [QCUT,QGAM] = [ 11.39, 22.77] = [ 36.31,145.25] Ry
 Optimized for a Real-space Cutoff    1.00 Angstroem

   l    n(q)    QCUT    max X(q) W(low)/X(q) W(high)/X(q)  e(spline)
   0      7    11.387    20.381    0.39E-03    0.13E-02    0.15E-06
   0      7    11.387    15.268    0.42E-03    0.14E-02    0.17E-06
   1      6    11.387     5.964    0.41E-03    0.11E-02    0.17E-06
   1      6    11.387     5.382    0.39E-03    0.87E-03    0.15E-06
  PAW_PBE Cu 22Jun2005                  :
  PAW_PBE V 08Apr2002                   :
  PAW_PBE O 08Apr2002                   :

 POSCAR: Cu-V-O2
  positions in direct lattice
  velocities in cartesian coordinates
 exchange correlation table for  LEXCH =        8
   RHO(1)=    0.500       N(1)  =     2000
   RHO(2)=  100.500       N(2)  =     4000

 VTST: version 3.2, (02/03/18)

 CHAIN: initializing optimizer

 OPT: Using VASP Conjugate-Gradient optimizer
 CHAIN: Read ICHAIN            0

 POSCAR: Cu-V-O2
  positions in direct lattice
  velocities in cartesian coordinates

 ion  position               nearest neighbor table
   1  0.000  0.000  0.226-   7 2.57   3 2.57   4 2.57   2 2.57   6 2.57   8 2.57  12 2.57  10 2.57
                            16 2.57
   2  0.333  0.000  0.226-   8 2.57   9 2.57   5 2.57   1 2.57   3 2.57  11 2.57   4 2.57  10 2.57
                            17 2.57
   3  0.667  0.000  0.226-   1 2.57   7 2.57   6 2.57   9 2.57   2 2.57  12 2.57   5 2.57  18 2.57
                            11 2.57
   4  0.000  0.333  0.226-   5 2.57   6 2.57   1 2.57   7 2.57   2 2.57  13 2.57   9 2.57  10 2.57
                            15 2.57
   5  0.333  0.333  0.226-   4 2.57   2 2.57   7 2.57  13 2.57   8 2.57   6 2.57   3 2.57  11 2.57
                            14 2.57
   6  0.667  0.333  0.226-   4 2.57   9 2.57  15 2.57   3 2.57   1 2.57   8 2.57  14 2.57   5 2.57
                            12 2.57
   7  0.000  0.667  0.226-   1 2.57   3 2.57  16 2.57  18 2.57   4 2.57   5 2.57   8 2.57   9 2.57
                            13 2.57
   8  0.333  0.667  0.226-   9 2.57   2 2.57  17 2.57   6 2.57   1 2.57   7 2.57   5 2.57  14 2.57
                            16 2.57
   9  0.667  0.667  0.226-   8 2.57   6 2.57   2 2.57  17 2.57   3 2.57   7 2.57   4 2.57  15 2.57
                            18 2.57
  10  0.111  0.111  0.314-  26 2.56  19 2.56  20 2.56  11 2.57  12 2.57  13 2.57   1 2.57   2 2.57
                             4 2.57  15 2.57  16 2.57  17 2.57
  11  0.444  0.111  0.314-  20 2.56  21 2.56  10 2.57  13 2.57   2 2.57  17 2.57  14 2.57  12 2.57
                             5 2.57   3 2.57  18 2.57  27 2.57
  12  0.778  0.111  0.314-  19 2.56  25 2.56  21 2.56  15 2.57  10 2.57  14 2.57  18 2.57   3 2.57
                             1 2.57  16 2.57  11 2.57   6 2.57
  13  0.111  0.444  0.314-  23 2.56  20 2.56  16 2.57  18 2.57  10 2.57  11 2.57  14 2.57   5 2.57
                             4 2.57   7 2.57  15 2.57  22 2.57
  14  0.444  0.444  0.314-  21 2.56  23 2.56  15 2.57  17 2.57  12 2.57  16 2.57  13 2.57  11 2.57
                             6 2.57   8 2.57   5 2.57  24 2.57
  15  0.778  0.444  0.314-  19 2.56  24 2.57  22 2.57  14 2.57  17 2.57  12 2.57   6 2.57  18 2.57
                            10 2.57   9 2.57  13 2.57   4 2.57
  16  0.111  0.778  0.314-  25 2.56  26 2.56  23 2.56  18 2.57  13 2.57   7 2.57  14 2.57  17 2.57
                            12 2.57  10 2.57   8 2.57   1 2.57
  17  0.444  0.778  0.314-  26 2.56  27 2.57  24 2.57  14 2.57  15 2.57   8 2.57   9 2.57  11 2.57
                            16 2.57  18 2.57  10 2.57   2 2.57
  18  0.778  0.778  0.314-  25 2.56  22 2.57  27 2.57  16 2.57  13 2.57   7 2.57  15 2.57  12 2.57
                            17 2.57   9 2.57   3 2.57  11 2.57
  19  0.889  0.222  0.401-  12 2.56  10 2.56  15 2.56  28 2.56  25 2.56  26 2.56  21 2.57  20 2.57
                            22 2.57  24 2.57  32 2.58  31 2.58
  20  0.222  0.222  0.401-  36 2.54  11 2.56  13 2.56  10 2.56  23 2.56  21 2.56  26 2.57  19 2.57
                            27 2.57  22 2.57  29 2.57  31 2.57
  21  0.555  0.222  0.401-  36 2.54  14 2.56  11 2.56  12 2.56  20 2.56  23 2.56  19 2.57  25 2.57
                            24 2.57  27 2.57  32 2.57  30 2.57
  22  0.888  0.556  0.402-  24 2.56  27 2.56  35 2.56  18 2.57  15 2.57  19 2.57  25 2.57  31 2.57
                            33 2.57  13 2.57  23 2.57  20 2.57
  23  0.222  0.555  0.401-  36 2.54  13 2.56  14 2.56  16 2.56  20 2.56  21 2.56  25 2.57  26 2.57
                            22 2.57  24 2.57  33 2.57  34 2.57
  24  0.556  0.556  0.402-  22 2.56  27 2.56  35 2.56  15 2.57  17 2.57  19 2.57  26 2.57  32 2.57
                            34 2.57  14 2.57  21 2.57  23 2.57
  25  0.889  0.889  0.401-  12 2.56  16 2.56  18 2.56  28 2.56  19 2.56  26 2.56  21 2.57  23 2.57
                            22 2.57  27 2.57  33 2.58  30 2.58
  26  0.222  0.889  0.401-  10 2.56  16 2.56  17 2.56  28 2.56  25 2.56  19 2.56  20 2.57  23 2.57
                            27 2.57  24 2.57  29 2.58  34 2.58
  27  0.556  0.888  0.402-  24 2.56  22 2.56  35 2.56  17 2.57  18 2.57  26 2.57  25 2.57  29 2.57
                            30 2.57  11 2.57  20 2.57  21 2.57
  28  0.000  0.000  0.489-  25 2.56  19 2.56  26 2.56  33 2.57  30 2.57  31 2.57  29 2.57  32 2.57
                            34 2.57
  29  0.333  0.000  0.490-  30 2.56  36 2.56  31 2.56  27 2.57  35 2.57  28 2.57  20 2.57  34 2.57
                            26 2.58
  30  0.666  0.000  0.490-  29 2.56  36 2.56  32 2.56  27 2.57  35 2.57  28 2.57  21 2.57  33 2.57
                            25 2.58
  31  0.000  0.333  0.490-  33 2.56  36 2.56  29 2.56  22 2.57  35 2.57  28 2.57  20 2.57  32 2.57
                            19 2.58
  32  0.666  0.333  0.490-  34 2.56  36 2.56  30 2.56  24 2.57  35 2.57  28 2.57  21 2.57  31 2.57
                            19 2.58
  33  0.000  0.666  0.490-  31 2.56  36 2.56  34 2.56  22 2.57  35 2.57  28 2.57  23 2.57  30 2.57
                            25 2.58
  34  0.333  0.666  0.490-  32 2.56  36 2.56  33 2.56  24 2.57  35 2.57  28 2.57  23 2.57  29 2.57
                            26 2.58
  35  0.667  0.667  0.490-  24 2.56  27 2.56  22 2.56  34 2.57  32 2.57  29 2.57  30 2.57  33 2.57
                            31 2.57
  36  0.333  0.333  0.488-  38 1.87  37 1.87  23 2.54  20 2.54  21 2.54  31 2.56  29 2.56  33 2.56
                            32 2.56  34 2.56  30 2.56
  37  0.235  0.337  0.561-  38 1.48  36 1.87
  38  0.428  0.337  0.561-  37 1.48  36 1.87

  LATTYP: Found a hexagonal cell.
 ALAT       =     7.6967864036
 C/A-ratio  =     3.0908716217

  Lattice vectors:

 A1 = (  -3.8483927580,  -6.6656128093,   0.0000000000)
 A2 = (   7.6967864037,   0.0000000000,   0.0000000000)
 A3 = (   0.0000000000,   0.0000000000,  23.7897786731)

Analysis of symmetry for initial positions (statically):
 Subroutine PRICEL returns:
 Original cell was already a primitive cell.

 Routine SETGRP: Setting up the symmetry group for a
 hexagonal supercell.

 Subroutine GETGRP returns: Found  2 space group operations
 (whereof  2 operations were pure point group operations)
 out of a pool of 24 trial point group operations.

The static configuration has the point symmetry C_1h.

Analysis of symmetry for dynamics (positions and initial velocities):
 Subroutine PRICEL returns:
 Original cell was already a primitive cell.

[...]

The dynamic configuration has the point symmetry C_1h.

Analysis of constrained symmetry for selective dynamics:
 Subroutine PRICEL returns:
 Original cell was already a primitive cell.

 Routine SETGRP: Setting up the symmetry group for a
 hexagonal supercell.

[...]
     33      -4.5981      2.00000
     34      -4.5921      2.00000
     35      -4.5806      2.00000
     36      -4.5748      2.00000
     37      -4.5442      2.00000
     38      -4.5225      2.00000
     39      -4.4720      2.00000
     40      -4.4476      2.00000
     41      -4.4020      2.00000
     42      -4.2808      2.00000
     43      -4.2708      2.00000
     44      -4.2279      2.00000
     45      -4.1981      2.00000
     46      -4.1879      2.00000
     47      -4.1847      2.00000
     48      -4.1600      2.00000
     49      -4.1466      2.00000
     50      -4.1367      2.00000
     51      -4.0041      2.00000
     52      -3.9625      2.00000
     53      -3.9452      2.00000
     54      -3.9297      2.00000
     55      -3.9260      2.00000
     56      -3.8808      2.00000
     57      -3.8727      2.00000
     58      -3.8509      2.00000
     59      -3.8441      2.00000
     60      -3.8383      2.00000
[...]
    238       5.3024      0.00000
    239       5.4219      0.00000
    240       5.6353      0.00000
    241       5.7123      0.00000
    242       5.8456      0.00000
    243       5.9425      0.00000
    244       5.9990      0.00000
    245       6.0787      0.00000
    246       6.1446      0.00000
    247       6.3414      0.00000
    248       6.3809      0.00000
    249       6.5580      0.00000
    250       6.7243      0.00000
    251       6.7838      0.00000
    252       6.8356      0.00000

 soft charge-density along one line, spin component           1
         0         1         2         3         4         5         6         7         8         9
 total charge-density along one line

------------------------ aborting loop because EDIFF is reached ----------------------------------------

 total charge

# of ion       s       p       d       tot
    1        0.450   0.283   9.188   9.922
    2        0.448   0.286   9.187   9.921
    3        0.448   0.286   9.187   9.921
    4        0.448   0.285   9.187   9.920
    5        0.449   0.285   9.186   9.919
    6        0.448   0.285   9.187   9.920
    7        0.448   0.285   9.187   9.920
    8        0.448   0.285   9.187   9.920
    9        0.448   0.284   9.188   9.920
   10        0.443   0.370   9.179   9.992
   11        0.440   0.368   9.183   9.991
   12        0.443   0.370   9.179   9.992
   13        0.440   0.368   9.182   9.990
   14        0.440   0.368   9.182   9.990
   15        0.438   0.370   9.179   9.987
   16        0.443   0.370   9.178   9.992
   17        0.438   0.370   9.180   9.988
   18        0.438   0.370   9.180   9.988
   19        0.439   0.367   9.183   9.989
   20        0.461   0.394   9.158  10.013
   21        0.461   0.394   9.158  10.013
   22        0.433   0.374   9.177   9.985
   23        0.462   0.395   9.157  10.014
   24        0.433   0.374   9.177   9.985
   25        0.441   0.367   9.181   9.990
   26        0.441   0.367   9.181   9.990
   27        0.435   0.371   9.181   9.986
   28        0.453   0.285   9.186   9.923
   29        0.457   0.299   9.180   9.936
   30        0.457   0.299   9.180   9.936
   31        0.458   0.295   9.184   9.938
   32        0.458   0.295   9.184   9.938
   33        0.456   0.298   9.183   9.937
   34        0.456   0.298   9.183   9.937
   35        0.449   0.289   9.182   9.921
   36        0.557   0.810   3.623   4.990
   37        1.614   3.235   0.000   4.849
   38        1.614   3.235   0.000   4.849
tot         19.436  18.929 324.942 363.307

  FORCE on cell =-STRESS in cart. coord.  units (eV):
  Direction    XX          YY          ZZ          XY          YZ          ZX
  Alpha Z   802.10708   802.10708   802.10708
  Ewald  222643.78916222296.87614************     0.00040    -2.74908     0.00019
  Hartree235356.02324235187.69121************     0.00004    -3.36230     0.00007
  E(xc)   -2327.89304 -2328.19754 -2332.83258    -0.00031     0.08759    -0.00004
  Local  ************************470732.79349     0.02038     6.58515    -0.00077
  n-local  -794.53185  -799.95185  -811.93971     1.58893     0.07041     0.02903
  augment  3336.76725  3340.73875  3358.01551    -0.01860    -0.25008     0.00033
  Kinetic  3401.06148  3444.05977  3452.12092     0.52090    -0.39320    -0.23682
  Fock        0.00000     0.00000     0.00000     0.00000     0.00000     0.00000
  Total      -3.81217    -4.38901    -0.65910     0.00000    -0.01150     0.00000
  in kB      -5.00430    -5.76152    -0.86522     0.00000    -0.01510     0.00000

 VOLUME and BASIS-vectors are now :
  energy-cutoff  :      500.00
  volume of cell :     1220.51
      direct lattice vectors                 reciprocal lattice vectors
     7.696786404  0.000000000  0.000000000     0.129924354 -0.075011849  0.000000000
     3.848392758  6.665612809  0.000000000     0.000000000  0.150023716  0.000000000
     0.000000000  0.000000000 23.789778673     0.000000000  0.000000000  0.042034859

  length of vectors
     7.696786404  7.696786404 23.789778673     0.150023716  0.150023716  0.042034859

 FORCES acting on ions
    electron-ion (+dipol)            ewald-force                    non-local-force                 convergence-correction
   -.415E-04 -.366E-01 0.374E+04   0.580E-04 -.351E-01 -.374E+04   -.259E-08 0.389E-01 -.236E+01   -.278E-03 0.277E-01 -.132E+00
   -.490E+00 -.463E+00 0.374E+04   0.494E+00 0.342E+00 -.374E+04   0.289E-01 0.976E-01 -.189E+01   -.337E-01 0.249E-01 -.114E+00
   0.490E+00 -.463E+00 0.374E+04   -.494E+00 0.342E+00 -.374E+04   -.289E-01 0.976E-01 -.189E+01   0.345E-01 0.274E-01 -.113E+00
   -.639E+00 -.242E+00 0.374E+04   0.573E+00 0.231E+00 -.374E+04   0.896E-01 -.447E-01 -.196E+01   -.129E-01 0.481E-01 -.125E+00
   -.636E-04 -.133E-01 0.374E+04   0.116E-03 -.807E-02 -.374E+04   0.968E-09 -.145E-01 -.189E+01   0.121E-01 0.391E-01 -.802E-01
   0.639E+00 -.242E+00 0.374E+04   -.573E+00 0.230E+00 -.374E+04   -.896E-01 -.447E-01 -.196E+01   0.113E-01 0.494E-01 -.124E+00
   -.964E-01 0.696E+00 0.374E+04   0.804E-01 -.573E+00 -.374E+04   0.444E-01 -.676E-01 -.187E+01   -.186E-01 -.535E-01 -.935E-01
   0.965E-01 0.696E+00 0.374E+04   -.807E-01 -.573E+00 -.374E+04   -.444E-01 -.676E-01 -.187E+01   0.221E-01 -.549E-01 -.934E-01
   -.143E-03 0.938E-01 0.374E+04   0.263E-03 0.430E-01 -.374E+04   0.119E-08 -.178E-01 -.215E+01   -.132E-01 -.114E+00 -.855E-01
   -.348E+01 -.179E+01 0.129E+04   0.391E+01 0.193E+01 -.129E+04   -.416E+00 -.174E+00 -.820E+00   -.213E-01 0.348E-01 0.315E+00
   -.826E-04 -.345E+01 0.128E+04   0.189E-03 0.312E+01 -.128E+04   -.144E-07 0.217E+00 -.372E+00   0.115E-01 0.682E-01 0.325E+00
   0.348E+01 -.179E+01 0.129E+04   -.391E+01 0.193E+01 -.129E+04   0.416E+00 -.174E+00 -.820E+00   0.201E-01 0.357E-01 0.314E+00
   -.338E+01 0.171E+01 0.128E+04   0.300E+01 -.155E+01 -.128E+04   0.324E+00 -.148E+00 -.440E+00   0.310E-01 0.629E-02 0.298E+00
   0.338E+01 0.171E+01 0.128E+04   -.300E+01 -.155E+01 -.128E+04   -.324E+00 -.148E+00 -.440E+00   -.745E-02 0.513E-02 0.296E+00
   -.139E-03 -.147E+01 0.129E+04   0.297E-03 0.139E+01 -.129E+04   -.329E-08 0.495E-01 -.888E+00   -.311E-02 0.306E-01 0.292E+00
   -.900E-04 0.396E+01 0.129E+04   0.186E-03 -.437E+01 -.129E+04   -.309E-07 0.465E+00 -.905E+00   -.702E-03 -.398E-01 0.274E+00
   -.114E+01 0.575E+00 0.129E+04   0.107E+01 -.446E+00 -.129E+04   0.600E-01 -.709E-01 -.736E+00   0.115E-01 -.615E-01 0.305E+00
   0.114E+01 0.575E+00 0.129E+04   -.107E+01 -.446E+00 -.129E+04   -.600E-01 -.709E-01 -.736E+00   -.103E-01 -.593E-01 0.306E+00
   -.641E-04 -.385E+01 -.116E+04   0.699E-04 0.362E+01 0.116E+04   -.670E-08 0.101E+00 0.141E+01   0.104E-02 0.105E+00 0.379E+00
   -.399E+02 -.208E+02 -.121E+04   0.407E+02 0.212E+02 0.121E+04   -.959E+00 -.382E+00 -.239E+00   0.628E-01 0.250E-01 0.403E+00
   0.399E+02 -.208E+02 -.121E+04   -.407E+02 0.212E+02 0.121E+04   0.959E+00 -.382E+00 -.239E+00   -.835E-01 0.240E-01 0.401E+00
   -.159E+02 0.734E+01 -.118E+04   0.158E+02 -.702E+01 0.117E+04   0.280E+00 -.286E+00 0.870E+00   -.542E-01 -.613E-01 0.314E+00
   -.664E-04 0.431E+02 -.121E+04   0.149E-03 -.442E+02 0.121E+04   -.875E-07 0.131E+01 -.386E+00   -.125E-01 -.155E+00 0.302E+00
   0.159E+02 0.734E+01 -.118E+04   -.158E+02 -.702E+01 0.117E+04   -.280E+00 -.286E+00 0.870E+00   0.557E-01 -.602E-01 0.315E+00
   0.462E+01 0.308E+01 -.117E+04   -.445E+01 -.308E+01 0.117E+04   -.111E+00 -.256E-01 0.112E+01   -.756E-01 0.390E-01 0.322E+00
   -.462E+01 0.308E+01 -.117E+04   0.445E+01 -.308E+01 0.117E+04   0.111E+00 -.256E-01 0.112E+01   0.768E-01 0.399E-01 0.322E+00
   -.125E-03 -.189E+02 -.118E+04   0.240E-03 0.184E+02 0.118E+04   -.398E-07 0.597E+00 0.109E+01   -.986E-03 0.135E-01 0.359E+00
   -.332E-04 0.774E+01 -.360E+04   0.352E-04 -.799E+01 0.359E+04   -.839E-08 0.126E+00 0.179E+01   -.133E-02 0.110E+00 0.228E+00
   -.963E+01 -.165E+01 -.356E+04   0.969E+01 0.474E+00 0.356E+04   -.272E+00 0.758E+00 0.294E+01   0.849E-01 0.123E+00 0.161E+00
   0.963E+01 -.165E+01 -.356E+04   -.969E+01 0.473E+00 0.356E+04   0.272E+00 0.758E+00 0.294E+01   -.628E-01 0.124E+00 0.161E+00
   0.868E+01 0.452E+01 -.353E+04   -.979E+01 -.439E+01 0.353E+04   0.665E+00 -.141E+00 0.384E+01   -.292E-01 -.695E-02 0.154E+00
   -.868E+01 0.452E+01 -.353E+04   0.979E+01 -.439E+01 0.353E+04   -.665E+00 -.141E+00 0.384E+01   0.514E-01 -.577E-02 0.154E+00
   -.126E+02 -.449E+01 -.356E+04   0.125E+02 0.554E+01 0.356E+04   0.983E-01 -.674E+00 0.320E+01   -.280E-01 -.600E-01 0.165E+00
   0.126E+02 -.449E+01 -.356E+04   -.125E+02 0.554E+01 0.356E+04   -.983E-01 -.674E+00 0.320E+01   0.528E-01 -.599E-01 0.166E+00
   -.134E-03 -.947E+01 -.361E+04   0.256E-03 0.955E+01 0.361E+04   0.209E-09 -.313E-02 0.209E+01   -.142E-01 -.475E-01 0.221E+00
   -.456E-04 0.289E+01 -.143E+04   0.628E-04 -.289E+01 0.143E+04   0.664E-08 -.997E-01 0.113E+01   -.958E-04 -.396E-01 0.962E-01
   0.167E+03 0.113E+01 -.233E+04   -.197E+03 -.928E+00 0.234E+04   0.297E+02 -.180E+00 -.184E+02   0.752E-01 -.269E-01 -.394E-01
   -.167E+03 0.113E+01 -.233E+04   0.197E+03 -.928E+00 0.234E+04   -.297E+02 -.180E+00 -.184E+02   -.755E-01 -.268E-01 -.392E-01
   0.320E-04 -.235E+00 0.239E+02   -.284E-13 -.295E-13 0.591E-11   -.647E-08 0.971E-01 -.303E+02   0.553E-01 0.676E-01 0.631E+01

 POSITION                                       TOTAL-FORCE (eV/Angst)
      0.00000      0.00000      5.37156         0.000000     -0.003315     -0.008667
      2.56560      0.00000      5.37156        -0.002090      0.004699      0.071091
      5.13119      0.00000      5.37156         0.002090      0.004699      0.071091
      1.28280      2.22187      5.37156         0.010888     -0.005452      0.064147
      3.84839      2.22187      5.37156        -0.000000      0.005033      0.042703
      6.41399      2.22187      5.37156        -0.010888     -0.005452      0.064147
      2.56560      4.44374      5.37156         0.008101      0.003073      0.063924
      5.13119      4.44374      5.37156        -0.008101      0.003073      0.063924
      7.69679      4.44374      5.37156        -0.000000      0.007207      0.021479
      1.28280      0.74062      7.46636        -0.007240      0.006923     -0.082424
      3.84839      0.74062      7.46636         0.000000     -0.048645     -0.067184
      6.41399      0.74062      7.46636         0.007240      0.006923     -0.082424
      2.56560      2.96249      7.46636        -0.040670      0.019016     -0.059825
      5.13119      2.96249      7.46636         0.040670      0.019016     -0.059825
      7.69679      2.96249      7.46636         0.000000     -0.005903      0.003749
      3.84839      5.18437      7.46636        -0.000000      0.017477     -0.064270
      6.41399      5.18437      7.46636         0.000139     -0.000516      0.007888
      8.97958      5.18437      7.46636        -0.000139     -0.000516      0.007888
      7.69679      1.48017      9.54910         0.000000     -0.028314      0.061313
      2.56637      1.48170      9.55121        -0.096730     -0.030076     -0.153601
      5.13041      1.48170      9.55121         0.096730     -0.030076     -0.153601
      8.97729      3.70444      9.56154         0.065649     -0.022144      0.055268
      3.84839      3.70222      9.55121        -0.000000      0.112564     -0.110157
      6.41628      3.70444      9.56154        -0.065649     -0.022144      0.055268
     10.26332      5.92553      9.54910        -0.016060      0.017474      0.059272
      5.13026      5.92553      9.54910         0.016060      0.017474      0.059272
      7.69679      5.92234      9.56154        -0.000000      0.079046      0.041589
      0.00000      0.00000     11.64072         0.000000     -0.014188     -0.037553
      2.56831      0.00307     11.65724        -0.139917     -0.288885     -0.234503
      5.12847      0.00307     11.65724         0.139917     -0.288885     -0.234503
      1.28681      2.22269     11.65724        -0.479227     -0.014913     -0.323512
      6.40997      2.22269     11.65724         0.479227     -0.014913     -0.323512
      2.56689      4.43985     11.65724        -0.131309      0.309810     -0.238606
      5.12989      4.43985     11.65724         0.131309      0.309810     -0.238606
      7.69679      4.44374     11.65596        -0.000000      0.026853     -0.042515
      3.84839      2.22187     11.62023         0.000000     -0.142298      1.709793
      3.10762      2.24545     13.33827         0.030577     -0.001766     -0.004259
      4.58917      2.24545     13.33827        -0.030577     -0.001766     -0.004259
    total drift:                                0.055323     -0.070504     -0.098283

  FREE ENERGIE OF THE ION-ELECTRON SYSTEM (eV)
  free  energy   TOTEN  =      -142.13466564 eV

  energy  without entropy=     -142.13466564  energy(sigma->0) =     -142.13466564

 stress matrix after NEB project (eV)
     -3.81217      0.00000      0.00000
      0.00000     -4.38901     -0.01150
      0.00000     -0.01150     -0.65910
  FORCES: max atom, RMS     0.030923    0.007094
  FORCE total and by dimension    0.043732    0.030577
  Stress total and by dimension    5.850705    4.389008
|           W    W    AA    RRRRR   N    N  II  N    N   GGGG   !!!           |
|           W    W   A  A   R    R  NN   N  II  NN   N  G    G  !!!           |
|           W    W  A    A  R    R  N N  N  II  N N  N  G       !!!           |
|           W WW W  AAAAAA  RRRRR   N  N N  II  N  N N  G  GGG   !            |
|           WW  WW  A    A  R   R   N   NN  II  N   NN  G    G                |
|           W    W  A    A  R    R  N    N  II  N    N   GGGG   !!!           |
|     Tetrahedron method does not include variations of the Fermi             |
|     occupations, so forces and stress will be inaccurate. We suggest        |
|     using a different smearing scheme ISMEAR = 1 or 2 for metals in         |
|     relaxations.                                                            |

 total charge

# of ion       s       p       d       tot
    1        0.450   0.283   9.188   9.922
    2        0.448   0.286   9.187   9.921
    3        0.448   0.286   9.187   9.921
    4        0.448   0.285   9.187   9.920
    5        0.449   0.285   9.186   9.919
    6        0.448   0.285   9.187   9.920
    7        0.448   0.285   9.187   9.920
    8        0.448   0.285   9.187   9.920
    9        0.448   0.284   9.188   9.920
   10        0.443   0.370   9.179   9.992
   11        0.440   0.368   9.183   9.991
   12        0.443   0.370   9.179   9.992
   13        0.440   0.368   9.182   9.990
   14        0.440   0.368   9.182   9.990
   15        0.438   0.370   9.179   9.987
   16        0.443   0.370   9.178   9.992
   17        0.438   0.370   9.180   9.988
   18        0.438   0.370   9.180   9.988
   19        0.439   0.367   9.183   9.989
   20        0.461   0.394   9.158  10.013
   21        0.461   0.394   9.158  10.013
   22        0.433   0.374   9.177   9.985
   23        0.462   0.395   9.157  10.014
   24        0.433   0.374   9.177   9.985
   25        0.441   0.367   9.181   9.990
   26        0.441   0.367   9.181   9.990
   27        0.435   0.371   9.181   9.986
   28        0.453   0.285   9.186   9.923
   29        0.457   0.299   9.180   9.936
   30        0.457   0.299   9.180   9.936
   31        0.458   0.295   9.184   9.938
   32        0.458   0.295   9.184   9.938
   33        0.456   0.298   9.183   9.937
   34        0.456   0.298   9.183   9.937
   35        0.449   0.289   9.182   9.921
   36        0.557   0.810   3.623   4.990
   37        1.614   3.235   0.000   4.849
   38        1.614   3.235   0.000   4.849
tot         19.436  18.929 324.942 363.307

 BZINTS: Fermi energy:   -0.466334;  402.000000 electrons
         Band energy:-0.141692E+04;  BLOECHL correction:   -0.032740