 vasp.6.2.0 18Jan21 (build Jun 12 2021 23:27:24) complex

 executed on             LinuxIFC date 2022.05.30  17:48:58

 INCAR:
   ISMEAR = -5
   SIGMA = 0.1
   ISPIN = 1
   EDIFF = 1.d-5
   EDIFFG = -0.01
   NSW = 0
   NELM = 150
   ENCUT = 500
   ISIF = 2
   IBRION = 2
   LREAL = Auto
   ALGO = Fast
   ICHARG = 11
   LORBIT = 10
   LCHARG = .F.
   LWAVE = .F.

 POTCAR:    PAW_PBE Ag 02Apr2005
 POTCAR:    PAW_PBE Pt 04Feb2005
 POTCAR:    PAW_PBE O 08Apr2002
|           W    W    AA    RRRRR   N    N  II  N    N   GGGG   !!!           |
|           W    W   A  A   R    R  NN   N  II  NN   N  G    G  !!!           |
|           W    W  A    A  R    R  N N  N  II  N N  N  G       !!!           |
|           W WW W  AAAAAA  RRRRR   N  N N  II  N  N N  G  GGG   !            |
|           WW  WW  A    A  R   R   N   NN  II  N   NN  G    G                |
|           W    W  A    A  R    R  N    N  II  N    N   GGGG   !!!           |
|     For optimal performance we recommend to set                             |
|       NCORE = 2 up to number-of-cores-per-socket                            |
|     This setting can greatly improve the performance of VASP for DFT.       |
|     The default, NCORE=1 might be grossly inefficient on modern             |
|     multi-core architectures or massively parallel machines. Do your        |
|     Unfortunately you need to use the default for GW and RPA                |
|     calculations (for HF NCORE is supported but not extensively tested      |
|     yet).                                                                   |

 POTCAR:    PAW_PBE Ag 02Apr2005
   VRHFIN =Ag : s1 d10

   TITEL  = PAW_PBE Ag 02Apr2005
   POMASS =  107.868; ZVAL   =   11.000    mass and valenz
   ENMAX  =  249.844; ENMIN  =  187.383 eV

 POTCAR:    PAW_PBE Pt 04Feb2005
   VRHFIN =Pt: s1d9

   TITEL  = PAW_PBE Pt 04Feb2005
   POMASS =  195.080; ZVAL   =   10.000    mass and valenz
   ENMAX  =  230.283; ENMIN  =  172.712 eV

 POTCAR:    PAW_PBE O 08Apr2002
   VRHFIN =O: s2p4

   TITEL  = PAW_PBE O 08Apr2002
   POMASS =   16.000; ZVAL   =    6.000    mass and valenz
   ENMAX  =  400.000; ENMIN  =  300.000 eV

 Optimization of the real space projectors (new method)

 maximal supplied QI-value         = 15.12
 optimisation between [QCUT,QGAM] = [ 11.34, 22.83] = [ 36.00,145.93] Ry
 Optimized for a Real-space Cutoff    1.43 Angstroem

   l    n(q)    QCUT    max X(q) W(low)/X(q) W(high)/X(q)  e(spline)
   2      9    11.338    53.897    0.16E-03    0.20E-03    0.28E-06
   2      9    11.338    52.416    0.16E-03    0.20E-03    0.29E-06
   0     10    11.338   122.045    0.31E-04    0.76E-04    0.15E-06
   0     10    11.338    73.629    0.30E-04    0.72E-04    0.15E-06
   1      9    11.338    15.255    0.20E-03    0.19E-04    0.17E-06
   1      9    11.338     9.562    0.16E-03    0.15E-04    0.14E-06
 Optimization of the real space projectors (new method)

[...]

   l    n(q)    QCUT    max X(q) W(low)/X(q) W(high)/X(q)  e(spline)
   2      9    11.346    66.195    0.31E-03    0.12E-04    0.29E-06
   2      9    11.346    64.643    0.32E-03    0.12E-04    0.29E-06
   0     10    11.346    95.520    0.90E-04    0.16E-04    0.19E-06
   0     10    11.346    63.403    0.87E-04    0.15E-04    0.19E-06
   1     10    11.346    19.961    0.17E-03    0.21E-03    0.11E-06
   1     10    11.346    13.289    0.14E-03    0.18E-03    0.89E-07
 Optimization of the real space projectors (new method)

 maximal supplied QI-value         = 24.76
 optimisation between [QCUT,QGAM] = [ 11.39, 22.77] = [ 36.31,145.25] Ry
 Optimized for a Real-space Cutoff    1.00 Angstroem

   l    n(q)    QCUT    max X(q) W(low)/X(q) W(high)/X(q)  e(spline)
   0      7    11.387    20.381    0.39E-03    0.13E-02    0.15E-06
   0      7    11.387    15.268    0.42E-03    0.14E-02    0.17E-06
   1      6    11.387     5.964    0.41E-03    0.11E-02    0.17E-06
   1      6    11.387     5.382    0.39E-03    0.87E-03    0.15E-06
  PAW_PBE Ag 02Apr2005                  :
  PAW_PBE Pt 04Feb2005                  :
  PAW_PBE O 08Apr2002                   :

 POSCAR: Ag-Pt-O2
  positions in direct lattice
  velocities in cartesian coordinates
 exchange correlation table for  LEXCH =        8
   RHO(1)=    0.500       N(1)  =     2000
   RHO(2)=  100.500       N(2)  =     4000

 VTST: version 3.2, (02/03/18)

 CHAIN: initializing optimizer

 OPT: Using VASP Conjugate-Gradient optimizer
 CHAIN: Read ICHAIN            0

 POSCAR: Ag-Pt-O2
  positions in direct lattice
  velocities in cartesian coordinates

 ion  position               nearest neighbor table
   1  0.000  0.000  0.217-   2 2.93   8 2.93   7 2.93   6 2.93   4 2.93  12 2.93  16 2.93  10 2.93
                             3 2.93
   2  0.333  0.000  0.217-   1 2.93   8 2.93   9 2.93   3 2.93   4 2.93   5 2.93  10 2.93  17 2.93
                            11 2.93
   3  0.667  0.000  0.217-   9 2.93   2 2.93   5 2.93  11 2.93   7 2.93  18 2.93   1 2.93   6 2.93
                            12 2.93
   4  0.000  0.333  0.217-   5 2.93   6 2.93   2 2.93   1 2.93   7 2.93  13 2.93  15 2.93   9 2.93
                            10 2.93
   5  0.333  0.333  0.217-   4 2.93   3 2.93   7 2.93   2 2.93   8 2.93  14 2.93  13 2.93  11 2.93
                             6 2.93
   6  0.667  0.333  0.217-   4 2.93   9 2.93   1 2.93  15 2.93   8 2.93  12 2.93   3 2.93   5 2.93
                            14 2.93
   7  0.000  0.667  0.217-   8 2.93   1 2.93   5 2.93   3 2.93   4 2.93  16 2.93  18 2.93  13 2.93
                             9 2.93
   8  0.333  0.667  0.217-   7 2.93   1 2.93   2 2.93   9 2.93   5 2.93  16 2.93   6 2.93  17 2.93
                            14 2.93
   9  0.667  0.667  0.217-   3 2.93   2 2.93   8 2.93   6 2.93  17 2.93   4 2.93  15 2.93   7 2.93
                            18 2.93
  10  0.111  0.111  0.315-  20 2.89  19 2.93  26 2.93  12 2.93  16 2.93  15 2.93  17 2.93  13 2.93
                            11 2.93   2 2.93   1 2.93   4 2.93
  11  0.444  0.111  0.315-  21 2.90  20 2.90  27 2.91  14 2.93  17 2.93  18 2.93   3 2.93  12 2.93
                            13 2.93  10 2.93   5 2.93   2 2.93
  12  0.778  0.111  0.315-  21 2.89  25 2.93  19 2.93  10 2.93  16 2.93  18 2.93  15 2.93  11 2.93
                             1 2.93  14 2.93   6 2.93   3 2.93
  13  0.111  0.444  0.315-  20 2.90  23 2.90  22 2.91  15 2.93  14 2.93  18 2.93  10 2.93  11 2.93
                            16 2.93   4 2.93   5 2.93   7 2.93
  14  0.444  0.444  0.315-  23 2.90  21 2.90  24 2.91  13 2.93  11 2.93  16 2.93   5 2.93  12 2.93
                            17 2.93   8 2.93  15 2.93   6 2.93
  15  0.778  0.444  0.315-  24 2.91  22 2.91  19 2.92  13 2.93  10 2.93  12 2.93  17 2.93  18 2.93
                             4 2.93   6 2.93   9 2.93  14 2.93
  16  0.111  0.778  0.315-  23 2.89  26 2.93  25 2.93  18 2.93  12 2.93  10 2.93  14 2.93  17 2.93
                            13 2.93   7 2.93   8 2.93   1 2.93
  17  0.444  0.778  0.315-  27 2.91  24 2.91  26 2.92  11 2.93  10 2.93   9 2.93  18 2.93  15 2.93
                            16 2.93   2 2.93  14 2.93   8 2.93
  18  0.778  0.778  0.315-  22 2.91  27 2.91  25 2.92  16 2.93  12 2.93  13 2.93  11 2.93  17 2.93
                            15 2.93   7 2.93   3 2.93   9 2.93
  19  0.888  0.223  0.413-  28 2.91  15 2.92  20 2.92  21 2.92  24 2.92  22 2.92  10 2.93  12 2.93
                            32 2.93  31 2.93  26 2.94  25 2.94
  20  0.221  0.221  0.412-  36 2.81  10 2.89  13 2.90  11 2.90  19 2.92  26 2.92  31 2.92  29 2.92
                            27 2.93  22 2.93  21 2.95  23 2.95
  21  0.557  0.221  0.412-  36 2.81  12 2.89  11 2.90  14 2.90  25 2.92  19 2.92  30 2.92  32 2.92
                            27 2.93  24 2.93  20 2.95  23 2.95
  22  0.889  0.556  0.412-  35 2.91  18 2.91  15 2.91  13 2.91  25 2.92  19 2.92  24 2.93  27 2.93
                            33 2.93  31 2.93  23 2.93  20 2.93
  23  0.221  0.557  0.412-  36 2.81  16 2.89  14 2.90  13 2.90  26 2.92  25 2.92  34 2.92  33 2.92
                            22 2.93  24 2.93  21 2.95  20 2.95
  24  0.556  0.556  0.412-  35 2.91  15 2.91  17 2.91  14 2.91  19 2.92  26 2.92  27 2.93  22 2.93
                            32 2.93  34 2.93  23 2.93  21 2.93
  25  0.888  0.888  0.413-  28 2.91  18 2.92  23 2.92  21 2.92  22 2.92  27 2.92  16 2.93  12 2.93
                            33 2.93  30 2.93  26 2.94  19 2.94
  26  0.223  0.888  0.413-  28 2.91  17 2.92  23 2.92  20 2.92  27 2.92  24 2.92  16 2.93  10 2.93
                            34 2.93  29 2.93  25 2.94  19 2.94
  27  0.556  0.889  0.412-  35 2.91  17 2.91  18 2.91  11 2.91  26 2.92  25 2.92  24 2.93  22 2.93
                            29 2.93  30 2.93  20 2.93  21 2.93
  28  0.000  0.000  0.510-  26 2.91  25 2.91  19 2.91  29 2.95  34 2.95  33 2.95  32 2.95  31 2.95
                            30 2.95
  29  0.333  0.004  0.510-  30 2.89  31 2.89  36 2.90  20 2.92  27 2.93  26 2.93  35 2.95  28 2.95
                            34 3.00
  30  0.662  0.004  0.510-  29 2.89  32 2.89  36 2.90  21 2.92  27 2.93  25 2.93  35 2.95  28 2.95
                            33 3.00
  31  0.004  0.333  0.510-  33 2.89  29 2.89  36 2.90  20 2.92  22 2.93  19 2.93  35 2.95  28 2.95
                            32 3.00
  32  0.662  0.333  0.510-  34 2.89  30 2.89  36 2.90  21 2.92  24 2.93  19 2.93  35 2.95  28 2.95
                            31 3.00
  33  0.004  0.662  0.510-  31 2.89  34 2.89  36 2.90  23 2.92  22 2.93  25 2.93  35 2.95  28 2.95
                            30 3.00
  34  0.333  0.662  0.510-  32 2.89  33 2.89  36 2.90  23 2.92  24 2.93  26 2.93  35 2.95  28 2.95
                            29 3.00
  35  0.667  0.667  0.510-  24 2.91  27 2.91  22 2.91  30 2.95  32 2.95  29 2.95  34 2.95  31 2.95
                            33 2.95
  36  0.333  0.333  0.503-  38 2.16  37 2.16  21 2.81  20 2.81  23 2.81  31 2.90  33 2.90  30 2.90
                            29 2.90  34 2.90  32 2.90
  37  0.255  0.333  0.587-  38 1.39  36 2.16
  38  0.412  0.333  0.587-  37 1.39  36 2.16

  LATTYP: Found a hexagonal cell.
 ALAT       =     8.7913665772
 C/A-ratio  =     2.7711238095

  Lattice vectors:

 A1 = (  -4.3956832886,  -7.6135467898,   0.0000000000)
 A2 = (   8.7913665771,   0.0000000000,   0.0000000000)
 A3 = (   0.0000000000,   0.0000000000,  24.3619652401)

Analysis of symmetry for initial positions (statically):
 Subroutine PRICEL returns:
 Original cell was already a primitive cell.

 Routine SETGRP: Setting up the symmetry group for a
 hexagonal supercell.

 Subroutine GETGRP returns: Found  2 space group operations
 (whereof  2 operations were pure point group operations)
 out of a pool of 24 trial point group operations.

The static configuration has the point symmetry C_1h.

Analysis of symmetry for dynamics (positions and initial velocities):
 Subroutine PRICEL returns:
 Original cell was already a primitive cell.

[...]

The dynamic configuration has the point symmetry C_1h.

Analysis of constrained symmetry for selective dynamics:
 Subroutine PRICEL returns:
 Original cell was already a primitive cell.

 Routine SETGRP: Setting up the symmetry group for a
 hexagonal supercell.

[...]
     33      -5.0781      2.00000
     34      -5.0708      2.00000
     35      -5.0524      2.00000
     36      -5.0388      2.00000
     37      -5.0074      2.00000
     38      -4.9972      2.00000
     39      -4.9529      2.00000
     40      -4.9363      2.00000
     41      -4.9268      2.00000
     42      -4.8798      2.00000
     43      -4.8543      2.00000
     44      -4.8504      2.00000
     45      -4.8457      2.00000
     46      -4.8249      2.00000
     47      -4.7935      2.00000
     48      -4.7358      2.00000
     49      -4.7080      2.00000
     50      -4.6962      2.00000
     51      -4.6857      2.00000
     52      -4.6840      2.00000
     53      -4.6783      2.00000
     54      -4.6672      2.00000
     55      -4.6623      2.00000
     56      -4.6590      2.00000
     57      -4.6366      2.00000
     58      -4.5641      2.00000
     59      -4.5622      2.00000
     60      -4.5537      2.00000
[...]
    238       5.6130      0.00000
    239       5.6880      0.00000
    240       5.7439      0.00000
    241       5.8189      0.00000
    242       5.9178      0.00000
    243       5.9653      0.00000
    244       6.2935      0.00000
    245       6.3671      0.00000
    246       6.5327      0.00000
    247       6.6125      0.00000
    248       6.7039      0.00000
    249       6.7217      0.00000
    250       6.7659      0.00000
    251       6.8068      0.00000
    252       6.9118      0.00000

 soft charge-density along one line, spin component           1
         0         1         2         3         4         5         6         7         8         9
 total charge-density along one line

------------------------ aborting loop because EDIFF is reached ----------------------------------------

 total charge

# of ion       s       p       d       tot
    1        0.414   0.204   9.177   9.794
    2        0.419   0.202   9.177   9.798
    3        0.419   0.202   9.177   9.798
    4        0.419   0.202   9.177   9.798
    5        0.414   0.205   9.177   9.796
    6        0.419   0.202   9.177   9.798
    7        0.418   0.203   9.177   9.797
    8        0.418   0.203   9.177   9.797
    9        0.414   0.204   9.177   9.795
   10        0.406   0.272   9.162   9.839
   11        0.409   0.269   9.167   9.845
   12        0.406   0.272   9.162   9.839
   13        0.409   0.269   9.166   9.844
   14        0.409   0.269   9.166   9.844
   15        0.400   0.272   9.165   9.837
   16        0.405   0.271   9.163   9.839
   17        0.401   0.270   9.166   9.838
   18        0.401   0.270   9.166   9.838
   19        0.403   0.268   9.168   9.839
   20        0.409   0.294   9.152   9.855
   21        0.409   0.294   9.152   9.855
   22        0.398   0.272   9.168   9.838
   23        0.405   0.293   9.158   9.855
   24        0.398   0.272   9.168   9.838
   25        0.403   0.269   9.167   9.839
   26        0.403   0.269   9.167   9.839
   27        0.401   0.272   9.166   9.839
   28        0.417   0.197   9.181   9.795
   29        0.401   0.203   9.189   9.792
   30        0.401   0.203   9.189   9.792
   31        0.391   0.207   9.190   9.789
   32        0.391   0.207   9.190   9.789
   33        0.400   0.202   9.189   9.792
   34        0.400   0.202   9.189   9.792
   35        0.416   0.197   9.181   9.795
   36        0.594   0.464   8.042   9.100
   37        1.605   3.240   0.000   4.845
   38        1.605   3.240   0.000   4.845
tot         18.050  15.325 329.082 362.458

  FORCE on cell =-STRESS in cart. coord.  units (eV):
  Direction    XX          YY          ZZ          XY          YZ          ZX
  Alpha Z   710.79153   710.79153   710.79153
  Ewald  155404.76523154996.76444************     0.00006     0.09615     0.00008
  Hartree165509.33619165307.80133************     0.00003     0.04879     0.00003
  E(xc)   -2132.44862 -2133.58857 -2137.97220    -0.00002     0.00112    -0.00000
  Local  ************************331727.11133     0.00120    -0.09958    -0.00022
  n-local  -360.09858  -367.73677  -369.27379     2.50152     0.02109     0.08731
  augment  3281.32476  3290.45044  3291.97873    -0.00021    -0.04173    -0.00006
  Kinetic  5146.56724  5208.29979  5189.26777     1.15067    -0.04677     0.01556
  Fock        0.00000     0.00000     0.00000     0.00000     0.00000     0.00000
  Total      -6.75288    -6.96399    -1.05181    -0.00000    -0.02094    -0.00000
  in kB      -6.63504    -6.84247    -1.03345    -0.00000    -0.02057    -0.00000

 VOLUME and BASIS-vectors are now :
  energy-cutoff  :      500.00
  volume of cell :     1630.63
      direct lattice vectors                 reciprocal lattice vectors
     8.791366577  0.000000000  0.000000000     0.113747958 -0.065672414  0.000000000
     4.395683289  7.613546790  0.000000000     0.000000000  0.131344829  0.000000000
     0.000000000  0.000000000 24.361965240     0.000000000  0.000000000  0.041047592

  length of vectors
     8.791366577  8.791366577 24.361965240     0.131344829  0.131344829  0.041047592

 FORCES acting on ions
    electron-ion (+dipol)            ewald-force                    non-local-force                 convergence-correction
   0.461E-04 0.463E-01 0.272E+04   -.954E-04 -.222E-01 -.272E+04   0.104E-12 0.158E-01 -.237E+01   -.107E-03 -.386E-01 -.200E+00
   0.591E+00 0.722E+00 0.272E+04   -.510E+00 -.521E+00 -.272E+04   -.393E-01 -.917E-01 -.167E+01   -.368E-01 -.943E-01 -.217E+00
   -.591E+00 0.722E+00 0.272E+04   0.511E+00 -.521E+00 -.272E+04   0.393E-01 -.917E-01 -.167E+01   0.363E-01 -.923E-01 -.216E+00
   0.758E+00 0.129E+00 0.272E+04   -.688E+00 -.192E+00 -.272E+04   -.362E-01 0.302E-01 -.168E+01   -.228E-01 0.289E-01 -.166E+00
   -.768E-05 0.534E-01 0.272E+04   0.981E-04 0.660E-03 -.272E+04   -.457E-12 -.695E-01 -.159E+01   0.624E-02 0.182E-01 -.179E+00
   -.758E+00 0.129E+00 0.272E+04   0.688E+00 -.192E+00 -.272E+04   0.362E-01 0.302E-01 -.168E+01   0.214E-01 0.298E-01 -.165E+00
   0.344E+00 -.841E+00 0.272E+04   -.177E+00 0.713E+00 -.272E+04   -.868E-01 0.566E-01 -.168E+01   -.587E-01 0.566E-01 -.177E+00
   -.344E+00 -.841E+00 0.272E+04   0.177E+00 0.713E+00 -.272E+04   0.868E-01 0.566E-01 -.168E+01   0.604E-01 0.556E-01 -.177E+00
   0.364E-04 -.775E-01 0.272E+04   0.792E-04 0.215E-01 -.272E+04   0.181E-12 0.275E-01 -.195E+01   -.667E-02 0.245E-01 -.143E+00
   0.661E+01 0.395E+01 0.972E+03   -.606E+01 -.367E+01 -.971E+03   -.430E+00 -.246E+00 -.856E+00   -.905E-01 -.210E-01 -.108E+00
   -.266E-04 0.466E+01 0.979E+03   0.412E-04 -.458E+01 -.979E+03   -.385E-12 -.586E-01 -.663E+00   0.629E-02 -.525E-01 -.617E-01
   -.661E+01 0.395E+01 0.972E+03   0.606E+01 -.367E+01 -.971E+03   0.430E+00 -.246E+00 -.856E+00   0.890E-01 -.199E-01 -.108E+00
   0.393E+01 -.243E+01 0.979E+03   -.381E+01 0.233E+01 -.979E+03   -.635E-01 0.422E-01 -.597E+00   -.882E-01 0.671E-01 -.186E-01
   -.393E+01 -.243E+01 0.979E+03   0.381E+01 0.233E+01 -.979E+03   0.635E-01 0.422E-01 -.597E+00   0.988E-01 0.662E-01 -.193E-01
   0.161E-04 0.937E+00 0.973E+03   -.109E-03 -.989E+00 -.972E+03   0.212E-13 0.322E-02 -.615E+00   -.166E-02 0.421E-01 -.777E-01
   -.826E-05 -.747E+01 0.972E+03   0.205E-04 0.704E+01 -.971E+03   0.219E-11 0.333E+00 -.848E+00   0.117E-03 0.531E-01 -.124E+00
   0.956E+00 -.568E+00 0.972E+03   -.955E+00 0.612E+00 -.972E+03   -.204E-01 0.355E-01 -.547E+00   0.157E-01 -.688E-01 -.105E+00
   -.956E+00 -.568E+00 0.972E+03   0.955E+00 0.612E+00 -.972E+03   0.204E-01 0.355E-01 -.547E+00   -.157E-01 -.669E-01 -.105E+00
   0.421E-04 0.603E+01 -.815E+03   -.131E-03 -.629E+01 0.815E+03   0.637E-12 0.970E-01 0.662E+00   -.621E-03 0.141E+00 0.583E-01
   0.194E+02 0.123E+02 -.760E+03   -.188E+02 -.119E+02 0.761E+03   -.621E+00 -.461E+00 -.925E+00   0.669E-01 0.101E+00 0.178E+00
   -.194E+02 0.123E+02 -.760E+03   0.188E+02 -.119E+02 0.761E+03   0.621E+00 -.461E+00 -.925E+00   -.669E-01 0.101E+00 0.177E+00
   0.106E+02 -.720E+01 -.801E+03   -.108E+02 0.741E+01 0.800E+03   0.300E+00 -.195E+00 0.800E+00   -.500E-01 -.367E-01 0.411E-01
   -.514E-04 -.237E+02 -.762E+03   0.453E-04 0.232E+02 0.762E+03   0.365E-11 0.556E+00 -.608E+00   0.502E-03 -.158E+00 0.183E+00
   -.106E+02 -.720E+01 -.801E+03   0.108E+02 0.741E+01 0.800E+03   -.300E+00 -.195E+00 0.800E+00   0.501E-01 -.367E-01 0.417E-01
   -.478E+01 -.226E+01 -.817E+03   0.488E+01 0.231E+01 0.816E+03   0.315E-02 -.152E-01 0.621E+00   -.696E-01 -.274E-01 0.283E-01
   0.478E+01 -.226E+01 -.817E+03   -.488E+01 0.231E+01 0.816E+03   -.315E-02 -.152E-01 0.621E+00   0.696E-01 -.283E-01 0.283E-01
   0.196E-04 0.125E+02 -.802E+03   0.110E-03 -.126E+02 0.801E+03   0.135E-11 0.206E+00 0.738E+00   -.559E-03 -.619E-01 0.513E-01
   0.544E-04 0.482E+01 -.260E+04   -.118E-03 -.470E+01 0.260E+04   -.941E-12 -.143E+00 0.183E+01   -.112E-02 0.949E-02 0.491E-01
   0.419E+02 0.847E+02 -.257E+04   -.419E+02 -.852E+02 0.257E+04   -.170E+00 0.215E+00 0.247E+01   0.895E-02 0.254E-01 -.190E-01
   -.419E+02 0.847E+02 -.257E+04   0.419E+02 -.852E+02 0.257E+04   0.170E+00 0.215E+00 0.247E+01   0.702E-03 0.268E-01 -.191E-01
   0.102E+03 -.217E+00 -.256E+04   -.102E+03 0.238E+00 0.256E+04   0.404E+00 -.464E-01 0.263E+01   0.646E-01 0.386E-01 -.297E-01
   -.102E+03 -.217E+00 -.256E+04   0.102E+03 0.238E+00 0.256E+04   -.404E+00 -.464E-01 0.263E+01   -.550E-01 0.395E-01 -.299E-01
   0.418E+02 -.844E+02 -.257E+04   -.419E+02 0.848E+02 0.257E+04   -.686E-01 -.169E+00 0.243E+01   0.130E-03 -.551E-01 -.248E-01
   -.418E+02 -.844E+02 -.257E+04   0.419E+02 0.848E+02 0.257E+04   0.686E-01 -.169E+00 0.243E+01   0.116E-01 -.557E-01 -.249E-01
   0.193E-04 -.474E+01 -.260E+04   0.108E-03 0.457E+01 0.260E+04   0.141E-11 0.214E+00 0.190E+01   -.774E-02 -.285E-01 0.712E-02
   0.148E-04 -.490E+00 -.200E+04   0.953E-04 0.420E+00 0.200E+04   -.268E-13 -.408E-02 0.438E+01   0.178E-02 0.365E-01 -.311E+00
   0.233E+03 0.167E-01 -.174E+04   -.269E+03 0.168E-01 0.175E+04   0.360E+02 -.444E-01 -.139E+02   -.928E-01 0.126E-01 -.134E+00
   -.233E+03 0.166E-01 -.174E+04   0.269E+03 0.168E-01 0.175E+04   -.360E+02 -.444E-01 -.139E+02   0.928E-01 0.127E-01 -.134E+00
   0.692E-03 0.566E+00 0.271E+02   0.000E+00 -.161E-12 -.705E-11   -.394E-11 -.599E+00 -.250E+02   0.363E-01 0.444E-01 -.225E+01

 POSITION                                       TOTAL-FORCE (eV/Angst)
      0.00000      0.00000      5.28219         0.000000      0.000944      0.065746
      2.93046      0.00000      5.28219         0.004986      0.015911      0.025820
      5.86091      0.00000      5.28219        -0.004986      0.015911      0.025820
      1.46523      2.53785      5.28219         0.011556     -0.004135      0.027778
      4.39568      2.53785      5.28219         0.000000      0.002462      0.004172
      7.32614      2.53785      5.28219        -0.011556     -0.004135      0.027778
      2.93046      5.07570      5.28219         0.021407     -0.015578      0.031336
      5.86091      5.07570      5.28219        -0.021407     -0.015578      0.031336
      8.79137      5.07570      5.28219        -0.000000     -0.004311      0.040944
      1.46523      0.84595      7.67490         0.036727      0.016193     -0.000117
      4.39568      0.84595      7.67490        -0.000000     -0.032243     -0.107189
      7.32614      0.84595      7.67490        -0.036727      0.016193     -0.000117
      2.93046      3.38380      7.67490        -0.030076      0.007187     -0.114804
      5.86091      3.38380      7.67490         0.030076      0.007187     -0.114804
      8.79137      3.38380      7.67490        -0.000000     -0.006967     -0.006995
      4.39568      5.92165      7.67490        -0.000000     -0.041637     -0.007850
      7.32614      5.92165      7.67490        -0.004328      0.011651     -0.007799
     10.25659      5.92165      7.67490         0.004328      0.011651     -0.007799
      8.79137      1.70009     10.06101        -0.000000     -0.028659      0.005322
      2.92042      1.68610     10.02751         0.088530      0.073195      0.043989
      5.87095      1.68610     10.02751        -0.088530      0.073195      0.043989
     10.25445      4.23098     10.04520         0.024382     -0.019520      0.030009
      4.39568      4.24134     10.02751        -0.000000     -0.078393     -0.026816
      7.32828      4.23098     10.04520        -0.024382     -0.019520      0.030009
     11.71473      6.76350     10.06101         0.035981      0.003867      0.014886
      5.86800      6.76350     10.06101        -0.035981      0.003867      0.014886
      8.79137      6.76512     10.04520         0.000000      0.020979      0.039887
      0.00000      0.00000     12.42233        -0.000000     -0.010080      0.004017
      2.94927      0.03214     12.43461        -0.102730     -0.209489     -0.055202
      5.84210      0.03214     12.43461         0.102730     -0.209489     -0.055202
      1.50247      2.53807     12.43461        -0.346026      0.012912     -0.150877
      7.28890      2.53807     12.43461         0.346026      0.012912     -0.150877
      2.94888      5.04334     12.43461        -0.123040      0.210779     -0.048638
      5.84248      5.04334     12.43461         0.123040      0.210779     -0.048638
      8.79137      5.07570     12.41249         0.000000      0.006795      0.025686
      4.39568      2.53785     12.25656        -0.000000     -0.037690      0.465772
      3.70194      2.53522     14.29910        -0.041877      0.001427     -0.047729
      5.08943      2.53522     14.29910         0.041877      0.001427     -0.047729
    total drift:                                0.037000      0.011252     -0.126682

  FREE ENERGIE OF THE ION-ELECTRON SYSTEM (eV)
  free  energy   TOTEN  =      -104.48311715 eV

  energy  without entropy=     -104.48311715  energy(sigma->0) =     -104.48311715

 stress matrix after NEB project (eV)
     -6.75288     -0.00000     -0.00000
     -0.00000     -6.96399     -0.02094
     -0.00000     -0.02094     -1.05181
  FORCES: max atom, RMS     0.063512    0.014571
  FORCE total and by dimension    0.089820    0.047729
  Stress total and by dimension    9.757341    6.963993
|           W    W    AA    RRRRR   N    N  II  N    N   GGGG   !!!           |
|           W    W   A  A   R    R  NN   N  II  NN   N  G    G  !!!           |
|           W    W  A    A  R    R  N N  N  II  N N  N  G       !!!           |
|           W WW W  AAAAAA  RRRRR   N  N N  II  N  N N  G  GGG   !            |
|           WW  WW  A    A  R   R   N   NN  II  N   NN  G    G                |
|           W    W  A    A  R    R  N    N  II  N    N   GGGG   !!!           |
|     Tetrahedron method does not include variations of the Fermi             |
|     occupations, so forces and stress will be inaccurate. We suggest        |
|     using a different smearing scheme ISMEAR = 1 or 2 for metals in         |
|     relaxations.                                                            |

 total charge

# of ion       s       p       d       tot
    1        0.414   0.204   9.177   9.794
    2        0.419   0.202   9.177   9.798
    3        0.419   0.202   9.177   9.798
    4        0.419   0.202   9.177   9.798
    5        0.414   0.205   9.177   9.796
    6        0.419   0.202   9.177   9.798
    7        0.418   0.203   9.177   9.797
    8        0.418   0.203   9.177   9.797
    9        0.414   0.204   9.177   9.795
   10        0.406   0.272   9.162   9.839
   11        0.409   0.269   9.167   9.845
   12        0.406   0.272   9.162   9.839
   13        0.409   0.269   9.166   9.844
   14        0.409   0.269   9.166   9.844
   15        0.400   0.272   9.165   9.837
   16        0.405   0.271   9.163   9.839
   17        0.401   0.270   9.166   9.838
   18        0.401   0.270   9.166   9.838
   19        0.403   0.268   9.168   9.839
   20        0.409   0.294   9.152   9.855
   21        0.409   0.294   9.152   9.855
   22        0.398   0.272   9.168   9.838
   23        0.405   0.293   9.158   9.855
   24        0.398   0.272   9.168   9.838
   25        0.403   0.269   9.167   9.839
   26        0.403   0.269   9.167   9.839
   27        0.401   0.272   9.166   9.839
   28        0.417   0.197   9.181   9.795
   29        0.401   0.203   9.189   9.792
   30        0.401   0.203   9.189   9.792
   31        0.391   0.207   9.190   9.789
   32        0.391   0.207   9.190   9.789
   33        0.400   0.202   9.189   9.792
   34        0.400   0.202   9.189   9.792
   35        0.416   0.197   9.181   9.795
   36        0.594   0.464   8.042   9.100
   37        1.605   3.240   0.000   4.845
   38        1.605   3.240   0.000   4.845
tot         18.050  15.325 329.082 362.458

 BZINTS: Fermi energy:    0.298442;  407.000000 electrons
         Band energy:-0.159132E+04;  BLOECHL correction:   -0.043487