 vasp.6.2.0 18Jan21 (build Jun 12 2021 23:27:24) complex

 executed on             LinuxIFC date 2022.05.28  00:37:14

 INCAR:
   ISMEAR = -5
   SIGMA = 0.1
   ISPIN = 1
   EDIFF = 1.d-5
   EDIFFG = -0.01
   NSW = 0
   NELM = 150
   ENCUT = 500
   ISIF = 2
   IBRION = 2
   LREAL = Auto
   ALGO = Fast
   ICHARG = 11
   LORBIT = 10
   LCHARG = .F.
   LWAVE = .F.

 POTCAR:    PAW_PBE Au 04Oct2007
 POTCAR:    PAW_PBE Ti 08Apr2002
 POTCAR:    PAW_PBE H 15Jun2001
 POTCAR:    PAW_PBE O 08Apr2002
|           W    W    AA    RRRRR   N    N  II  N    N   GGGG   !!!           |
|           W    W   A  A   R    R  NN   N  II  NN   N  G    G  !!!           |
|           W    W  A    A  R    R  N N  N  II  N N  N  G       !!!           |
|           W WW W  AAAAAA  RRRRR   N  N N  II  N  N N  G  GGG   !            |
|           WW  WW  A    A  R   R   N   NN  II  N   NN  G    G                |
|           W    W  A    A  R    R  N    N  II  N    N   GGGG   !!!           |
|     For optimal performance we recommend to set                             |
|       NCORE = 2 up to number-of-cores-per-socket                            |
|     This setting can greatly improve the performance of VASP for DFT.       |
|     The default, NCORE=1 might be grossly inefficient on modern             |
|     multi-core architectures or massively parallel machines. Do your        |
|     Unfortunately you need to use the default for GW and RPA                |
|     calculations (for HF NCORE is supported but not extensively tested      |
|     yet).                                                                   |

 POTCAR:    PAW_PBE Au 04Oct2007
   VRHFIN =Au: s1d10

   TITEL  = PAW_PBE Au 04Oct2007
   POMASS =  196.966; ZVAL   =   11.000    mass and valenz
   ENMAX  =  229.943; ENMIN  =  172.457 eV

 POTCAR:    PAW_PBE Ti 08Apr2002
   VRHFIN =Ti: d3 s1

   TITEL  = PAW_PBE Ti 08Apr2002
   POMASS =   47.880; ZVAL   =    4.000    mass and valenz
   ENMAX  =  178.330; ENMIN  =  133.747 eV

 POTCAR:    PAW_PBE H 15Jun2001
   VRHFIN =H: ultrasoft test

   TITEL  = PAW_PBE H 15Jun2001
   POMASS =    1.000; ZVAL   =    1.000    mass and valenz
   ENMAX  =  250.000; ENMIN  =  200.000 eV

 POTCAR:    PAW_PBE O 08Apr2002
   VRHFIN =O: s2p4

   TITEL  = PAW_PBE O 08Apr2002
   POMASS =   16.000; ZVAL   =    6.000    mass and valenz
   ENMAX  =  400.000; ENMIN  =  300.000 eV

 Optimization of the real space projectors (new method)

 maximal supplied QI-value         = 15.12
 optimisation between [QCUT,QGAM] = [ 11.34, 22.83] = [ 36.00,145.93] Ry
 Optimized for a Real-space Cutoff    1.39 Angstroem

   l    n(q)    QCUT    max X(q) W(low)/X(q) W(high)/X(q)  e(spline)
   2      9    11.338    60.898    0.39E-03    0.42E-03    0.21E-06
   2      9    11.338    58.894    0.40E-03    0.42E-03    0.22E-06
   0      9    11.338   109.617    0.13E-03    0.20E-04    0.13E-06
   0      9    11.338    75.026    0.13E-03    0.20E-04    0.13E-06
   1      9    11.338    16.344    0.33E-04    0.24E-03    0.18E-06
   1      9    11.338    10.160    0.26E-04    0.19E-03    0.15E-06
 Optimization of the real space projectors (new method)

[...]

   l    n(q)    QCUT    max X(q) W(low)/X(q) W(high)/X(q)  e(spline)
   0      8    11.287    19.460    0.40E-03    0.73E-03    0.16E-06
   0      8    11.287    12.209    0.38E-03    0.70E-03    0.15E-06
   1      7    11.287     4.655    0.22E-03    0.25E-04    0.22E-06
 Optimization of the real space projectors (new method)

 maximal supplied QI-value         = 24.76
 optimisation between [QCUT,QGAM] = [ 11.39, 22.77] = [ 36.31,145.25] Ry
 Optimized for a Real-space Cutoff    1.00 Angstroem

   l    n(q)    QCUT    max X(q) W(low)/X(q) W(high)/X(q)  e(spline)
   0      7    11.387    20.381    0.39E-03    0.13E-02    0.15E-06
   0      7    11.387    15.268    0.42E-03    0.14E-02    0.17E-06
   1      6    11.387     5.964    0.41E-03    0.11E-02    0.17E-06
   1      6    11.387     5.382    0.39E-03    0.87E-03    0.15E-06
  PAW_PBE Au 04Oct2007                  :
  PAW_PBE Ti 08Apr2002                  :
  PAW_PBE H 15Jun2001                   :
  PAW_PBE O 08Apr2002                   :

 POSCAR: Au-Ti-H2O
  positions in direct lattice
  velocities in cartesian coordinates
 exchange correlation table for  LEXCH =        8
   RHO(1)=    0.500       N(1)  =     2000
   RHO(2)=  100.500       N(2)  =     4000

 VTST: version 3.2, (02/03/18)

 CHAIN: initializing optimizer

 OPT: Using VASP Conjugate-Gradient optimizer
 CHAIN: Read ICHAIN            0

 POSCAR: Au-Ti-H2O
  positions in direct lattice
  velocities in cartesian coordinates

 ion  position               nearest neighbor table
   1  0.000  0.000  0.213-  16 2.94  12 2.94   6 2.94   8 2.94   7 2.94   3 2.94  10 2.94   4 2.94
                             2 2.94
   2  0.333  0.000  0.213-   9 2.94  11 2.94  17 2.94  10 2.94   8 2.94   4 2.94   5 2.94   1 2.94
                             3 2.94
   3  0.667  0.000  0.213-   7 2.94  18 2.94  12 2.94   1 2.94  11 2.94   5 2.94   6 2.94   9 2.94
                             2 2.94
   4  0.000  0.333  0.213-  10 2.94   6 2.94   5 2.94  13 2.94   2 2.94  15 2.94   9 2.94   1 2.94
                             7 2.94
   5  0.333  0.333  0.213-  13 2.94   7 2.94  11 2.94   4 2.94   2 2.94  14 2.94   3 2.94   8 2.94
                             6 2.94
   6  0.667  0.333  0.213-  15 2.94  14 2.94   1 2.94  12 2.94   4 2.94   9 2.94   8 2.94   3 2.94
                             5 2.94
   7  0.000  0.667  0.213-  18 2.94   3 2.94  16 2.94   5 2.94   1 2.94  13 2.94   8 2.94   4 2.94
                             9 2.94
   8  0.333  0.667  0.213-   9 2.94  17 2.94   1 2.94   2 2.94  14 2.94  16 2.94   6 2.94   7 2.94
                             5 2.94
   9  0.667  0.667  0.213-   2 2.94   8 2.94  17 2.94   6 2.94  15 2.94   4 2.94   3 2.94  18 2.94
                             7 2.94
  10  0.111  0.111  0.310-  26 2.93  19 2.93  20 2.93  11 2.94  17 2.94   2 2.94   4 2.94   1 2.94
                            12 2.94  16 2.94  13 2.94  15 2.94
  11  0.444  0.111  0.310-  20 2.92  21 2.92  27 2.94  13 2.94   2 2.94  10 2.94  17 2.94   5 2.94
                             3 2.94  18 2.94  14 2.94  12 2.94
  12  0.778  0.111  0.310-  25 2.93  19 2.93  21 2.93  16 2.94  18 2.94   1 2.94  14 2.94  15 2.94
                             3 2.94   6 2.94  10 2.94  11 2.94
  13  0.111  0.444  0.310-  23 2.92  20 2.92  22 2.94   5 2.94  18 2.94  11 2.94   7 2.94   4 2.94
                            16 2.94  10 2.94  14 2.94  15 2.94
  14  0.444  0.444  0.310-  21 2.92  23 2.92  24 2.94  15 2.94   6 2.94  12 2.94   8 2.94  17 2.94
                             5 2.94  16 2.94  13 2.94  11 2.94
  15  0.778  0.444  0.310-  24 2.92  22 2.92  19 2.93  14 2.94   6 2.94  17 2.94  12 2.94   9 2.94
                             4 2.94  10 2.94  13 2.94  18 2.94
  16  0.111  0.778  0.310-  25 2.93  26 2.93  23 2.93  18 2.94  12 2.94   7 2.94   1 2.94   8 2.94
                            13 2.94  10 2.94  14 2.94  17 2.94
  17  0.444  0.778  0.310-  27 2.92  24 2.92  26 2.93   9 2.94  15 2.94   2 2.94  10 2.94  11 2.94
                             8 2.94  14 2.94  16 2.94  18 2.94
  18  0.778  0.778  0.310-  22 2.92  27 2.92  25 2.93  16 2.94   7 2.94  13 2.94  12 2.94   3 2.94
                            11 2.94   9 2.94  15 2.94  17 2.94
  19  0.889  0.222  0.407-  10 2.93  12 2.93  15 2.93  26 2.94  25 2.94  24 2.94  22 2.94  21 2.95
                            20 2.95  28 2.95  32 3.03  31 3.03
  20  0.223  0.223  0.407-  36 2.76  23 2.91  21 2.91  11 2.92  13 2.92  10 2.93  27 2.95  22 2.95
                            26 2.95  19 2.95  29 2.96  31 2.96
  21  0.554  0.223  0.407-  36 2.76  20 2.91  23 2.91  14 2.92  11 2.92  12 2.93  27 2.95  24 2.95
                            25 2.95  19 2.95  30 2.96  32 2.96
  22  0.887  0.556  0.407-  24 2.92  27 2.92  18 2.92  15 2.92  13 2.94  25 2.94  19 2.94  23 2.95
                            20 2.95  35 2.96  33 2.99  31 2.99
  23  0.223  0.554  0.407-  36 2.76  20 2.91  21 2.91  13 2.92  14 2.92  16 2.93  22 2.95  24 2.95
                            25 2.95  26 2.95  33 2.96  34 2.96
  24  0.556  0.556  0.407-  27 2.92  22 2.92  15 2.92  17 2.92  14 2.94  26 2.94  19 2.94  21 2.95
                            23 2.95  35 2.96  32 2.99  34 2.99
  25  0.889  0.889  0.407-  16 2.93  12 2.93  18 2.93  19 2.94  26 2.94  22 2.94  27 2.94  23 2.95
                            21 2.95  28 2.95  33 3.03  30 3.03
  26  0.222  0.889  0.407-  10 2.93  16 2.93  17 2.93  19 2.94  25 2.94  27 2.94  24 2.94  20 2.95
                            23 2.95  28 2.95  29 3.03  34 3.03
  27  0.556  0.887  0.407-  24 2.92  22 2.92  17 2.92  18 2.92  11 2.94  26 2.94  25 2.94  20 2.95
                            21 2.95  35 2.96  29 2.99  30 2.99
  28  0.000  0.000  0.505-  25 2.95  19 2.95  26 2.95  34 2.98  32 2.98  33 2.98  30 2.98  31 2.98
                            29 2.98
  29  0.334  0.009  0.506-  30 2.85  31 2.86  36 2.87  20 2.96  35 2.98  28 2.98  27 2.99  26 3.03
                            34 3.10
  30  0.657  0.009  0.506-  29 2.85  32 2.86  36 2.87  21 2.96  35 2.98  28 2.98  27 2.99  25 3.03
                            33 3.10
  31  0.009  0.334  0.506-  33 2.85  29 2.86  36 2.87  20 2.96  35 2.98  28 2.98  22 2.99  19 3.03
                            32 3.10
  32  0.657  0.334  0.506-  34 2.85  30 2.86  36 2.87  21 2.96  35 2.98  28 2.98  24 2.99  19 3.03
                            31 3.10
  33  0.009  0.657  0.506-  31 2.85  34 2.86  36 2.87  23 2.96  35 2.98  28 2.98  22 2.99  25 3.03
                            30 3.10
  34  0.334  0.657  0.506-  32 2.85  33 2.86  36 2.87  23 2.96  35 2.98  28 2.98  24 2.99  26 3.03
                            29 3.10
  35  0.667  0.667  0.505-  24 2.96  27 2.96  22 2.96  29 2.98  34 2.98  32 2.98  31 2.98  30 2.98
                            33 2.98
  36  0.333  0.333  0.495-  39 2.19  20 2.76  23 2.76  21 2.76  33 2.87  31 2.87  29 2.87  30 2.87
                            34 2.87  32 2.87
  37  0.280  0.261  0.594-  39 0.98
  38  0.459  0.260  0.594-  39 0.98
  39  0.335  0.329  0.584-  37 0.98  38 0.98  36 2.19

  LATTYP: Found a hexagonal cell.
 ALAT       =     8.8135128021
 C/A-ratio  =     2.8075332270

  Lattice vectors:

 A1 = (  -4.4067569092,  -7.6327256898,   0.0000000000)
 A2 = (   8.8135128021,   0.0000000000,   0.0000000000)
 A3 = (   0.0000000000,   0.0000000000,  24.7442300386)

Analysis of symmetry for initial positions (statically):
 Subroutine PRICEL returns:
 Original cell was already a primitive cell.

 Routine SETGRP: Setting up the symmetry group for a
 hexagonal supercell.

 Subroutine GETGRP returns: Found  1 space group operations
 (whereof  1 operations were pure point group operations)
 out of a pool of 24 trial point group operations.

The static configuration has the point symmetry C_1 .

Analysis of symmetry for dynamics (positions and initial velocities):
 Subroutine PRICEL returns:
 Original cell was already a primitive cell.

[...]

The dynamic configuration has the point symmetry C_1 .

Analysis of constrained symmetry for selective dynamics:
 Subroutine PRICEL returns:
[...]
     41      -4.8512      2.00000
     42      -4.8161      2.00000
     43      -4.7739      2.00000
     44      -4.7190      2.00000
     45      -4.6982      2.00000
     46      -4.6538      2.00000
     47      -4.6427      2.00000
     48      -4.6165      2.00000
     49      -4.5979      2.00000
     50      -4.5080      2.00000
     51      -4.4800      2.00000
     52      -4.4655      2.00000
     53      -4.4386      2.00000
     54      -4.4356      2.00000
     55      -4.4314      2.00000
     56      -4.4048      2.00000
     57      -4.3828      2.00000
     58      -4.3396      2.00000
     59      -4.3133      2.00000
     60      -4.3008      2.00000
[...]
    238       5.7937      0.00000
    239       5.9835      0.00000
    240       6.0335      0.00000
    241       6.0671      0.00000
    242       6.1239      0.00000
    243       6.3157      0.00000
    244       6.3477      0.00000
    245       6.3958      0.00000
    246       6.4513      0.00000
    247       6.5406      0.00000
    248       6.5836      0.00000
    249       6.6239      0.00000
    250       6.6852      0.00000
    251       6.7978      0.00000
    252       6.8500      0.00000

 soft charge-density along one line, spin component           1
         0         1         2         3         4         5         6         7         8         9
 total charge-density along one line

------------------------ aborting loop because EDIFF is reached ----------------------------------------

 total charge

# of ion       s       p       d       tot
    1        0.549   0.237   8.766   9.552
    2        0.543   0.241   8.764   9.548
    3        0.543   0.241   8.764   9.548
    4        0.543   0.241   8.765   9.549
    5        0.544   0.242   8.762   9.548
    6        0.543   0.241   8.765   9.548
    7        0.543   0.241   8.765   9.549
    8        0.543   0.241   8.765   9.549
    9        0.544   0.240   8.767   9.551
   10        0.524   0.306   8.769   9.598
   11        0.520   0.306   8.778   9.605
   12        0.524   0.306   8.769   9.598
   13        0.519   0.307   8.779   9.604
   14        0.519   0.307   8.779   9.604
   15        0.516   0.308   8.772   9.596
   16        0.523   0.306   8.769   9.598
   17        0.516   0.308   8.772   9.596
   18        0.516   0.308   8.772   9.596
   19        0.523   0.297   8.769   9.589
   20        0.565   0.331   8.733   9.630
   21        0.565   0.331   8.733   9.630
   22        0.511   0.307   8.774   9.592
   23        0.563   0.332   8.733   9.628
   24        0.511   0.307   8.774   9.592
   25        0.521   0.297   8.771   9.589
   26        0.521   0.297   8.771   9.589
   27        0.512   0.307   8.773   9.592
   28        0.543   0.232   8.752   9.527
   29        0.590   0.249   8.733   9.572
   30        0.590   0.249   8.733   9.572
   31        0.591   0.248   8.733   9.571
   32        0.591   0.248   8.733   9.571
   33        0.585   0.242   8.738   9.564
   34        0.585   0.242   8.738   9.564
   35        0.539   0.232   8.756   9.527
   36        0.416   0.537   2.227   3.180
   37        0.597   0.117   0.000   0.714
   38        0.597   0.117   0.000   0.714
   39        1.567   3.620   0.000   5.188
tot         22.152  14.066 308.813 345.032

  FORCE on cell =-STRESS in cart. coord.  units (eV):
  Direction    XX          YY          ZZ          XY          YZ          ZX
  Alpha Z   911.61911   911.61911   911.61911
  Ewald  153337.88399153270.16073************    -0.31158    -9.77478     0.05494
  Hartree161697.10360161684.94613************    -0.06065     6.83447     0.06254
  E(xc)   -1778.65780 -1778.83197 -1786.13090    -0.00104    -0.04466     0.00074
  Local  ************************327201.03277     0.28606    -4.51117    -0.13018
  n-local   -77.25643   -78.03878   -48.25811     0.00131    -0.19921     0.00167
  augment  2374.66202  2375.78671  2394.12324     0.00370     0.42833    -0.00066
  Kinetic  5501.49851  5520.45035  5581.32612     0.09028     7.12112     0.00598
  Fock        0.00000     0.00000     0.00000     0.00000     0.00000     0.00000
  Total     -22.17652   -22.30905     0.67441     0.00809    -0.14591    -0.00497
  in kB     -21.34526   -21.47282     0.64913     0.00778    -0.14044    -0.00478

 VOLUME and BASIS-vectors are now :
  energy-cutoff  :      500.00
  volume of cell :     1664.57
      direct lattice vectors                 reciprocal lattice vectors
     8.813512802  0.000000000  0.000000000     0.113462137 -0.065507406  0.000000000
     4.406756909  7.632725690  0.000000000     0.000000000  0.131014796  0.000000000
     0.000000000  0.000000000 24.744230039     0.000000000  0.000000000  0.040413462

  length of vectors
     8.813512802  8.813512802 24.744230039     0.131014796  0.131014796  0.040413462

 FORCES acting on ions
    electron-ion (+dipol)            ewald-force                    non-local-force                 convergence-correction
   0.877E-03 0.383E-01 0.266E+04   0.872E-05 -.113E-01 -.266E+04   0.292E-03 -.884E-02 -.541E+00   -.116E-02 -.137E-01 0.113E+00
   0.147E+00 -.327E+00 0.266E+04   -.134E+00 0.251E+00 -.266E+04   0.980E-02 0.869E-01 -.257E+00   -.230E-01 -.175E-01 0.110E+00
   -.148E+00 -.340E+00 0.266E+04   0.134E+00 0.252E+00 -.266E+04   -.101E-01 0.876E-01 -.257E+00   0.241E-01 -.443E-02 0.111E+00
   -.212E+00 0.285E+00 0.266E+04   0.161E+00 -.228E+00 -.266E+04   0.765E-01 -.390E-01 -.255E+00   -.323E-01 -.199E-01 0.102E+00
   -.158E-01 -.438E-02 0.266E+04   0.211E-03 0.199E-01 -.266E+04   -.192E-04 -.955E-02 -.952E-02   0.158E-01 -.735E-02 0.542E-01
   0.223E+00 0.280E+00 0.266E+04   -.161E+00 -.228E+00 -.266E+04   -.766E-01 -.394E-01 -.256E+00   0.212E-01 -.144E-01 0.108E+00
   -.367E+00 0.306E-01 0.266E+04   0.295E+00 -.237E-01 -.266E+04   0.606E-01 -.460E-01 -.290E+00   0.517E-02 0.423E-01 0.107E+00
   0.355E+00 0.403E-01 0.266E+04   -.295E+00 -.237E-01 -.266E+04   -.605E-01 -.472E-01 -.290E+00   0.617E-02 0.339E-01 0.111E+00
   0.163E-01 0.157E-01 0.266E+04   0.955E-04 -.826E-02 -.266E+04   -.304E-03 -.184E-02 -.291E+00   -.163E-01 -.365E-02 0.155E+00
   0.410E-02 0.239E-01 0.883E+03   0.263E+00 0.165E+00 -.882E+03   -.242E+00 -.160E+00 -.589E+00   -.274E-01 -.298E-01 -.262E+00
   -.927E-02 -.884E+00 0.883E+03   0.708E-03 0.101E+01 -.882E+03   0.184E-04 -.250E-01 -.215E+00   0.878E-02 -.150E+00 -.252E+00
   0.113E-02 0.820E-02 0.883E+03   -.264E+00 0.165E+00 -.882E+03   0.242E+00 -.158E+00 -.590E+00   0.228E-01 -.171E-01 -.269E+00
   -.784E+00 0.331E+00 0.883E+03   0.872E+00 -.384E+00 -.882E+03   -.795E-02 0.730E-02 -.230E+00   -.114E+00 0.712E-01 -.248E+00
   0.763E+00 0.330E+00 0.883E+03   -.871E+00 -.384E+00 -.882E+03   0.754E-02 0.808E-02 -.230E+00   0.135E+00 0.720E-01 -.254E+00
   0.131E-01 0.295E+01 0.887E+03   -.567E-03 -.300E+01 -.886E+03   0.250E-03 -.196E-02 -.499E+00   -.127E-01 0.129E-01 -.230E+00
   -.562E-02 0.844E-01 0.883E+03   0.415E-03 -.436E+00 -.882E+03   -.162E-03 0.305E+00 -.616E+00   0.528E-02 0.494E-01 -.266E+00
   0.265E+01 -.141E+01 0.887E+03   -.270E+01 0.143E+01 -.886E+03   -.361E-02 0.697E-03 -.512E+00   0.196E-01 -.936E-02 -.228E+00
   -.264E+01 -.142E+01 0.887E+03   0.270E+01 0.143E+01 -.886E+03   0.378E-02 0.195E-02 -.512E+00   -.251E-01 0.569E-03 -.230E+00
   -.193E-02 -.400E+01 -.907E+03   -.490E-02 0.396E+01 0.907E+03   -.371E-03 -.176E-01 0.489E+00   0.744E-02 0.430E-01 -.257E+00
   -.154E+02 -.964E+01 -.919E+03   0.166E+02 0.103E+02 0.921E+03   -.110E+01 -.644E+00 -.108E+01   -.440E-01 -.421E-01 -.211E+00
   0.154E+02 -.965E+01 -.919E+03   -.166E+02 0.103E+02 0.921E+03   0.110E+01 -.644E+00 -.108E+01   0.417E-01 -.333E-01 -.216E+00
   -.131E+02 0.727E+01 -.901E+03   0.129E+02 -.720E+01 0.900E+03   0.283E+00 -.132E+00 0.598E+00   -.792E-01 0.452E-01 -.290E+00
   -.113E-01 0.177E+02 -.921E+03   0.542E-02 -.190E+02 0.922E+03   0.371E-03 0.127E+01 -.986E+00   0.549E-02 0.459E-01 -.205E+00
   0.131E+02 0.727E+01 -.901E+03   -.129E+02 -.721E+01 0.900E+03   -.283E+00 -.131E+00 0.599E+00   0.732E-01 0.535E-01 -.292E+00
   0.288E+01 0.262E+01 -.908E+03   -.287E+01 -.257E+01 0.907E+03   0.339E-01 -.214E-01 0.586E+00   -.267E-01 -.107E-01 -.268E+00
   -.290E+01 0.263E+01 -.908E+03   0.287E+01 -.258E+01 0.907E+03   -.337E-01 -.214E-01 0.587E+00   0.466E-01 -.129E-01 -.267E+00
   0.103E-01 -.141E+02 -.900E+03   0.350E-03 0.139E+02 0.899E+03   -.128E-03 0.305E+00 0.558E+00   -.105E-01 -.874E-01 -.292E+00
   0.430E-02 0.232E+01 -.260E+04   -.765E-02 -.241E+01 0.260E+04   -.728E-04 0.515E-01 0.260E+00   0.345E-02 0.188E-01 -.969E-01
   0.100E+02 0.107E+02 -.258E+04   -.904E+01 -.908E+01 0.258E+04   -.110E+01 -.175E+01 -.732E+00   0.392E-01 0.271E-02 -.108E+00
   -.100E+02 0.107E+02 -.258E+04   0.905E+01 -.905E+01 0.258E+04   0.110E+01 -.175E+01 -.736E+00   -.426E-01 0.993E-02 -.103E+00
   0.999E+01 -.713E+00 -.259E+04   -.796E+01 0.816E+00 0.259E+04   -.213E+01 -.104E+00 -.757E+00   0.100E-02 0.191E-01 -.120E+00
   -.991E+01 -.727E+00 -.259E+04   0.789E+01 0.821E+00 0.259E+04   0.213E+01 -.103E+00 -.752E+00   -.386E-02 0.276E-01 -.118E+00
   -.176E+01 -.630E+01 -.259E+04   0.254E+01 0.470E+01 0.259E+04   -.872E+00 0.173E+01 -.275E+00   -.289E-02 -.355E-01 -.105E+00
   0.173E+01 -.626E+01 -.259E+04   -.253E+01 0.466E+01 0.259E+04   0.872E+00 0.173E+01 -.272E+00   0.130E-01 -.354E-01 -.107E+00
   0.283E-01 0.161E+01 -.261E+04   -.145E-01 -.161E+01 0.261E+04   0.429E-03 -.953E-03 0.510E+00   -.146E-01 -.305E-02 -.102E+00
   -.244E-01 -.399E+01 -.841E+03   0.245E-01 0.405E+01 0.841E+03   0.335E-04 -.286E-01 0.656E+00   0.101E-02 0.400E-03 -.279E-01
   0.664E+02 0.404E+02 -.286E+03   -.732E+02 -.446E+02 0.288E+03   0.674E+01 0.419E+01 -.204E+01   0.231E-02 0.604E-03 0.278E-02
   -.660E+02 0.410E+02 -.286E+03   0.727E+02 -.453E+02 0.288E+03   -.669E+01 0.425E+01 -.205E+01   -.210E-02 0.883E-03 0.258E-02
   -.320E+00 -.560E+02 -.159E+04   0.540E+00 0.970E+02 0.158E+04   -.215E+00 -.411E+02 0.914E+01   0.343E-02 0.551E-02 0.286E-02
   0.143E+00 0.329E+02 0.811E+01   0.565E-13 -.853E-13 -.159E-11   -.167E+00 -.329E+02 -.321E+01   0.241E-01 0.830E-02 -.445E+01

 POSITION                                       TOTAL-FORCE (eV/Angst)
      0.00000      0.00000      5.28038         0.000017      0.003847     -0.089098
      2.93784      0.00000      5.28038        -0.000549     -0.006185     -0.002632
      5.87568      0.00000      5.28038         0.000517     -0.006163     -0.002616
      1.46892      2.54424      5.28038        -0.007000     -0.002098     -0.001647
      4.40676      2.54424      5.28038         0.000149     -0.001871      0.008955
      7.34459      2.54424      5.28038         0.007067     -0.002202     -0.001547
      2.93784      5.08848      5.28038        -0.006138      0.002719     -0.002294
      5.87568      5.08848      5.28038         0.006106      0.002658     -0.002213
      8.81351      5.08848      5.28038        -0.000153      0.001452     -0.022389
      1.46892      0.84808      7.67911        -0.002401     -0.001876      0.051667
      4.40676      0.84808      7.67911         0.000244     -0.045749     -0.010343
      7.34459      0.84808      7.67911         0.002343     -0.001740      0.051624
      2.93784      3.39232      7.67911        -0.034113      0.025395     -0.008189
      5.87568      3.39232      7.67911         0.034478      0.025618     -0.008298
      8.81351      3.39232      7.67911         0.000038     -0.037225      0.080533
      4.40676      5.93656      7.67911        -0.000079      0.002512      0.045700
      7.34459      5.93656      7.67911        -0.032760      0.015579      0.084150
     10.28243      5.93656      7.67911         0.032867      0.015837      0.084113
      8.81351      1.69614     10.07331         0.000249     -0.012855     -0.025383
      2.94950      1.70289     10.06400        -0.012186     -0.001986     -0.027145
      5.86402      1.70289     10.06400         0.012211     -0.001890     -0.027202
     10.27143      4.24676     10.06599         0.014975     -0.013925      0.017141
      4.40676      4.22694     10.06400        -0.000018      0.021566      0.000997
      7.35560      4.24676     10.06599        -0.015066     -0.014122      0.017466
     11.75137      6.78466     10.07331         0.014369      0.011745     -0.028157
      5.87566      6.78466     10.07331        -0.013980      0.011840     -0.028023
      8.81351      6.77194     10.06599         0.000035      0.022488      0.008704
      0.00000      0.00000     12.49013         0.000033     -0.017297     -0.094844
      2.98093      0.06833     12.52966        -0.069029     -0.122538     -0.119272
      5.83259      0.06833     12.52966         0.068936     -0.122175     -0.118608
      1.54964      2.54739     12.52966        -0.098495      0.017603     -0.108675
      7.26387      2.54739     12.52966         0.098741      0.017552     -0.109368
      2.97547      5.01700     12.52966        -0.090400      0.096395     -0.160993
      5.83804      5.01700     12.52966         0.090545      0.096818     -0.161497
      8.81351      5.08848     12.50181        -0.000320     -0.001909      0.036863
      4.40676      2.54424     12.25739         0.001162      0.029337      0.684170
      3.61542      1.98877     14.69912        -0.008186     -0.005712     -0.001178
      5.19248      1.98111     14.70054        -0.001997      0.001033     -0.006218
      4.40659      2.51394     14.45007         0.007791     -0.002477     -0.004253
    total drift:                               -0.000076      0.020729      0.450880

  FREE ENERGIE OF THE ION-ELECTRON SYSTEM (eV)
  free  energy   TOTEN  =      -129.95863261 eV

  energy  without entropy=     -129.95863261  energy(sigma->0) =     -129.95863261

 stress matrix after NEB project (eV)
    -22.17652      0.00809     -0.00497
      0.00809    -22.30905     -0.14591
     -0.00497     -0.14591      0.67441
  FORCES: max atom, RMS     0.010051    0.002427
  FORCE total and by dimension    0.015155    0.008186
  Stress total and by dimension   31.464098   22.309052
|           W    W    AA    RRRRR   N    N  II  N    N   GGGG   !!!           |
|           W    W   A  A   R    R  NN   N  II  NN   N  G    G  !!!           |
|           W    W  A    A  R    R  N N  N  II  N N  N  G       !!!           |
|           W WW W  AAAAAA  RRRRR   N  N N  II  N  N N  G  GGG   !            |
|           WW  WW  A    A  R   R   N   NN  II  N   NN  G    G                |
|           W    W  A    A  R    R  N    N  II  N    N   GGGG   !!!           |
|     Tetrahedron method does not include variations of the Fermi             |
|     occupations, so forces and stress will be inaccurate. We suggest        |
|     using a different smearing scheme ISMEAR = 1 or 2 for metals in         |
|     relaxations.                                                            |

 total charge

# of ion       s       p       d       tot
    1        0.549   0.237   8.766   9.552
    2        0.543   0.241   8.764   9.548
    3        0.543   0.241   8.764   9.548
    4        0.543   0.241   8.765   9.549
    5        0.544   0.242   8.762   9.548
    6        0.543   0.241   8.765   9.548
    7        0.543   0.241   8.765   9.549
    8        0.543   0.241   8.765   9.549
    9        0.544   0.240   8.767   9.551
   10        0.524   0.306   8.769   9.598
   11        0.520   0.306   8.778   9.605
   12        0.524   0.306   8.769   9.598
   13        0.519   0.307   8.779   9.604
   14        0.519   0.307   8.779   9.604
   15        0.516   0.308   8.772   9.596
   16        0.523   0.306   8.769   9.598
   17        0.516   0.308   8.772   9.596
   18        0.516   0.308   8.772   9.596
   19        0.523   0.297   8.769   9.589
   20        0.565   0.331   8.733   9.630
   21        0.565   0.331   8.733   9.630
   22        0.511   0.307   8.774   9.592
   23        0.563   0.332   8.733   9.628
   24        0.511   0.307   8.774   9.592
   25        0.521   0.297   8.771   9.589
   26        0.521   0.297   8.771   9.589
   27        0.512   0.307   8.773   9.592
   28        0.543   0.232   8.752   9.527
   29        0.590   0.249   8.733   9.572
   30        0.590   0.249   8.733   9.572
   31        0.591   0.248   8.733   9.571
   32        0.591   0.248   8.733   9.571
   33        0.585   0.242   8.738   9.564
   34        0.585   0.242   8.738   9.564
   35        0.539   0.232   8.756   9.527
   36        0.416   0.537   2.227   3.180
   37        0.597   0.117   0.000   0.714
   38        0.597   0.117   0.000   0.714
   39        1.567   3.620   0.000   5.188
tot         22.152  14.066 308.813 345.032

 BZINTS: Fermi energy:    0.388412;  397.000000 electrons
         Band energy:-0.140051E+04;  BLOECHL correction:   -0.030768