 vasp.6.2.0 18Jan21 (build Jun 12 2021 23:27:24) complex

 executed on             LinuxIFC date 2022.05.27  05:06:31

 INCAR:
   ISMEAR = -5
   SIGMA = 0.1
   ISPIN = 1
   EDIFF = 1.d-5
   EDIFFG = -0.01
   NSW = 0
   NELM = 150
   ENCUT = 500
   ISIF = 2
   IBRION = 2
   LREAL = Auto
   ALGO = Fast
   ICHARG = 11
   LORBIT = 10
   LCHARG = .F.
   LWAVE = .F.

 POTCAR:    PAW_PBE Au 04Oct2007
 POTCAR:    PAW_PBE Ni 02Aug2007
 POTCAR:    PAW_PBE N 08Apr2002
|           W    W    AA    RRRRR   N    N  II  N    N   GGGG   !!!           |
|           W    W   A  A   R    R  NN   N  II  NN   N  G    G  !!!           |
|           W    W  A    A  R    R  N N  N  II  N N  N  G       !!!           |
|           W WW W  AAAAAA  RRRRR   N  N N  II  N  N N  G  GGG   !            |
|           WW  WW  A    A  R   R   N   NN  II  N   NN  G    G                |
|           W    W  A    A  R    R  N    N  II  N    N   GGGG   !!!           |
|     For optimal performance we recommend to set                             |
|       NCORE = 2 up to number-of-cores-per-socket                            |
|     This setting can greatly improve the performance of VASP for DFT.       |
|     The default, NCORE=1 might be grossly inefficient on modern             |
|     multi-core architectures or massively parallel machines. Do your        |
|     Unfortunately you need to use the default for GW and RPA                |
|     calculations (for HF NCORE is supported but not extensively tested      |
|     yet).                                                                   |

 POTCAR:    PAW_PBE Au 04Oct2007
   VRHFIN =Au: s1d10

   TITEL  = PAW_PBE Au 04Oct2007
   POMASS =  196.966; ZVAL   =   11.000    mass and valenz
   ENMAX  =  229.943; ENMIN  =  172.457 eV

 POTCAR:    PAW_PBE Ni 02Aug2007
   VRHFIN =Ni:

   TITEL  = PAW_PBE Ni 02Aug2007
   POMASS =   58.690; ZVAL   =   10.000    mass and valenz
   ENMAX  =  269.532; ENMIN  =  202.149 eV

 POTCAR:    PAW_PBE N 08Apr2002
   VRHFIN =N: s2p3

   TITEL  = PAW_PBE N 08Apr2002
   POMASS =   14.001; ZVAL   =    5.000    mass and valenz
   ENMAX  =  400.000; ENMIN  =  300.000 eV

 Optimization of the real space projectors (new method)

 maximal supplied QI-value         = 15.12
 optimisation between [QCUT,QGAM] = [ 11.34, 22.83] = [ 36.00,145.93] Ry
 Optimized for a Real-space Cutoff    1.39 Angstroem

   l    n(q)    QCUT    max X(q) W(low)/X(q) W(high)/X(q)  e(spline)
   2      9    11.338    60.898    0.39E-03    0.42E-03    0.21E-06
   2      9    11.338    58.894    0.40E-03    0.42E-03    0.22E-06
   0      9    11.338   109.617    0.13E-03    0.20E-04    0.13E-06
   0      9    11.338    75.026    0.13E-03    0.20E-04    0.13E-06
   1      9    11.338    16.344    0.33E-04    0.24E-03    0.18E-06
   1      9    11.338    10.160    0.26E-04    0.19E-03    0.15E-06
 Optimization of the real space projectors (new method)

[...]

   l    n(q)    QCUT    max X(q) W(low)/X(q) W(high)/X(q)  e(spline)
   2      8    11.376    60.317    0.19E-03    0.33E-04    0.13E-06
   2      8    11.376    55.921    0.20E-03    0.34E-04    0.14E-06
   0      9    11.376    51.690    0.82E-04    0.12E-03    0.20E-06
   0      9    11.376    30.015    0.74E-04    0.11E-03    0.18E-06
   1      9    11.376    18.849    0.39E-03    0.12E-03    0.13E-06
   1      9    11.376    14.624    0.33E-03    0.10E-03    0.11E-06
 Optimization of the real space projectors (new method)

 maximal supplied QI-value         = 25.13
 optimisation between [QCUT,QGAM] = [ 11.31, 22.87] = [ 35.82,146.48] Ry
 Optimized for a Real-space Cutoff    1.27 Angstroem

   l    n(q)    QCUT    max X(q) W(low)/X(q) W(high)/X(q)  e(spline)
   0      9    11.310    79.467    0.75E-04    0.16E-03    0.36E-06
   0      9    11.310    66.151    0.74E-04    0.16E-03    0.36E-06
   1      8    11.310    17.416    0.35E-03    0.12E-03    0.95E-06
   1      8    11.310    12.382    0.37E-03    0.13E-03    0.98E-06
  PAW_PBE Au 04Oct2007                  :
  PAW_PBE Ni 02Aug2007                  :
  PAW_PBE N 08Apr2002                   :

 POSCAR: Au-Ni-N2
  positions in direct lattice
  velocities in cartesian coordinates
 exchange correlation table for  LEXCH =        8
   RHO(1)=    0.500       N(1)  =     2000
   RHO(2)=  100.500       N(2)  =     4000

 VTST: version 3.2, (02/03/18)

 CHAIN: initializing optimizer

 OPT: Using VASP Conjugate-Gradient optimizer
 CHAIN: Read ICHAIN            0

 POSCAR: Au-Ni-N2
  positions in direct lattice
  velocities in cartesian coordinates

 ion  position               nearest neighbor table
   1  0.000  0.000  0.238-  16 2.94  12 2.94   6 2.94   8 2.94   7 2.94   3 2.94  10 2.94   4 2.94
                             2 2.94
   2  0.333  0.000  0.238-   9 2.94  11 2.94  17 2.94  10 2.94   8 2.94   4 2.94   5 2.94   1 2.94
                             3 2.94
   3  0.667  0.000  0.238-   7 2.94  18 2.94  12 2.94   1 2.94  11 2.94   5 2.94   6 2.94   9 2.94
                             2 2.94
   4  0.000  0.333  0.238-  10 2.94   6 2.94   5 2.94  13 2.94   2 2.94  15 2.94   9 2.94   1 2.94
                             7 2.94
   5  0.333  0.333  0.238-  13 2.94   7 2.94  11 2.94   4 2.94   2 2.94  14 2.94   3 2.94   8 2.94
                             6 2.94
   6  0.667  0.333  0.238-  15 2.94  14 2.94   1 2.94  12 2.94   4 2.94   9 2.94   8 2.94   3 2.94
                             5 2.94
   7  0.000  0.667  0.238-  18 2.94   3 2.94  16 2.94   5 2.94   1 2.94  13 2.94   8 2.94   4 2.94
                             9 2.94
   8  0.333  0.667  0.238-   9 2.94  17 2.94   1 2.94   2 2.94  14 2.94  16 2.94   6 2.94   7 2.94
                             5 2.94
   9  0.667  0.667  0.238-   2 2.94   8 2.94  17 2.94   6 2.94  15 2.94   4 2.94   3 2.94  18 2.94
                             7 2.94
  10  0.111  0.111  0.346-  20 2.93  26 2.93  19 2.93  11 2.94  17 2.94   2 2.94   4 2.94   1 2.94
                            12 2.94  16 2.94  13 2.94  15 2.94
  11  0.444  0.111  0.346-  20 2.92  21 2.92  27 2.93  13 2.94   2 2.94  10 2.94  17 2.94   5 2.94
                             3 2.94  18 2.94  14 2.94  12 2.94
  12  0.778  0.111  0.346-  21 2.93  25 2.93  19 2.93  16 2.94  18 2.94   1 2.94  14 2.94  15 2.94
                             3 2.94   6 2.94  10 2.94  11 2.94
  13  0.111  0.444  0.346-  23 2.92  20 2.92  22 2.93   5 2.94  18 2.94  11 2.94   7 2.94   4 2.94
                            16 2.94  10 2.94  14 2.94  15 2.94
  14  0.444  0.444  0.346-  21 2.92  23 2.92  24 2.93  15 2.94   6 2.94  12 2.94   8 2.94  17 2.94
                             5 2.94  16 2.94  13 2.94  11 2.94
  15  0.778  0.444  0.346-  24 2.92  22 2.92  19 2.93  14 2.94   6 2.94  17 2.94  12 2.94   9 2.94
                             4 2.94  10 2.94  13 2.94  18 2.94
  16  0.111  0.778  0.346-  23 2.93  25 2.93  26 2.93  18 2.94  12 2.94   7 2.94   1 2.94   8 2.94
                            13 2.94  10 2.94  14 2.94  17 2.94
  17  0.444  0.778  0.346-  27 2.92  24 2.92  26 2.93   9 2.94  15 2.94   2 2.94  10 2.94  11 2.94
                             8 2.94  14 2.94  16 2.94  18 2.94
  18  0.778  0.778  0.346-  22 2.92  27 2.92  25 2.93  16 2.94   7 2.94  13 2.94  12 2.94   3 2.94
                            11 2.94   9 2.94  15 2.94  17 2.94
  19  0.889  0.222  0.454-  10 2.93  12 2.93  15 2.93  26 2.93  25 2.93  24 2.94  22 2.94  21 2.95
                            20 2.95  28 2.95  32 2.96  31 2.96
  20  0.223  0.223  0.453-  36 2.70  29 2.91  31 2.91  11 2.92  13 2.92  23 2.92  21 2.92  10 2.93
                            27 2.95  22 2.95  26 2.95  19 2.95
  21  0.554  0.223  0.453-  36 2.70  30 2.91  32 2.91  14 2.92  11 2.92  20 2.92  23 2.92  12 2.93
                            27 2.95  24 2.95  25 2.95  19 2.95
  22  0.888  0.556  0.453-  18 2.92  15 2.92  24 2.92  27 2.92  13 2.93  25 2.94  19 2.94  33 2.94
                            31 2.94  23 2.95  20 2.95  35 2.96
  23  0.223  0.554  0.453-  36 2.70  33 2.91  34 2.91  13 2.92  14 2.92  20 2.92  21 2.92  16 2.93
                            22 2.95  24 2.95  25 2.95  26 2.95
  24  0.556  0.556  0.453-  15 2.92  17 2.92  27 2.92  22 2.92  14 2.93  26 2.94  19 2.94  32 2.94
                            34 2.94  21 2.95  23 2.95  35 2.96
  25  0.889  0.889  0.454-  16 2.93  12 2.93  18 2.93  19 2.93  26 2.93  22 2.94  27 2.94  23 2.95
                            21 2.95  28 2.95  33 2.96  30 2.96
  26  0.222  0.889  0.454-  10 2.93  16 2.93  17 2.93  19 2.93  25 2.93  27 2.94  24 2.94  20 2.95
                            23 2.95  28 2.95  29 2.96  34 2.96
  27  0.556  0.888  0.453-  17 2.92  18 2.92  24 2.92  22 2.92  11 2.93  26 2.94  25 2.94  29 2.94
                            30 2.94  20 2.95  21 2.95  35 2.96
  28  0.000  0.000  0.563-  25 2.95  19 2.95  26 2.95  34 2.97  32 2.97  33 2.97  30 2.97  31 2.97
                            29 2.97
  29  0.334  0.007  0.561-  30 2.87  31 2.88  36 2.89  20 2.91  27 2.94  26 2.96  35 2.97  28 2.97
                            34 3.06
  30  0.660  0.007  0.561-  29 2.87  32 2.88  36 2.89  21 2.91  27 2.94  25 2.96  35 2.97  28 2.97
                            33 3.06
  31  0.007  0.334  0.561-  33 2.87  29 2.88  36 2.89  20 2.91  22 2.94  19 2.96  35 2.97  28 2.97
                            32 3.06
  32  0.660  0.334  0.561-  34 2.87  30 2.88  36 2.89  21 2.91  24 2.94  19 2.96  35 2.97  28 2.97
                            31 3.06
  33  0.007  0.660  0.561-  31 2.87  34 2.88  36 2.89  23 2.91  22 2.94  25 2.96  35 2.97  28 2.97
                            30 3.06
  34  0.334  0.660  0.561-  32 2.87  33 2.88  36 2.89  23 2.91  24 2.94  26 2.96  35 2.97  28 2.97
                            29 3.06
  35  0.667  0.667  0.563-  24 2.96  27 2.96  22 2.96  29 2.97  34 2.97  32 2.97  31 2.97  30 2.97
                            33 2.97
  36  0.333  0.333  0.548-  20 2.70  23 2.70  21 2.70  33 2.89  31 2.89  29 2.89  30 2.89  34 2.89
                            32 2.89
  37  0.271  0.331  0.723-  38 1.11
  38  0.398  0.331  0.723-  37 1.11

  LATTYP: Found a hexagonal cell.
 ALAT       =     8.8135128021
 C/A-ratio  =     2.5184286595

  Lattice vectors:

 A1 = (  -4.4067569092,  -7.6327256898,   0.0000000000)
 A2 = (   8.8135128021,   0.0000000000,   0.0000000000)
 A3 = (   0.0000000000,   0.0000000000,  22.1962032318)

Analysis of symmetry for initial positions (statically):
 Subroutine PRICEL returns:
 Original cell was already a primitive cell.

 Routine SETGRP: Setting up the symmetry group for a
 hexagonal supercell.

 Subroutine GETGRP returns: Found  2 space group operations
 (whereof  2 operations were pure point group operations)
 out of a pool of 24 trial point group operations.

The static configuration has the point symmetry C_1h.

Analysis of symmetry for dynamics (positions and initial velocities):
 Subroutine PRICEL returns:
 Original cell was already a primitive cell.

[...]

The dynamic configuration has the point symmetry C_1h.

Analysis of constrained symmetry for selective dynamics:
 Subroutine PRICEL returns:
 Original cell was already a primitive cell.

 Routine SETGRP: Setting up the symmetry group for a
 hexagonal supercell.

[...]
     33      -4.6695      2.00000
     34      -4.6658      2.00000
     35      -4.6560      2.00000
     36      -4.6494      2.00000
     37      -4.6355      2.00000
     38      -4.5638      2.00000
     39      -4.4693      2.00000
     40      -4.4528      2.00000
     41      -4.4467      2.00000
     42      -4.4375      2.00000
     43      -4.3913      2.00000
     44      -4.3028      2.00000
     45      -4.2673      2.00000
     46      -4.2385      2.00000
     47      -4.2093      2.00000
     48      -4.1897      2.00000
     49      -4.1861      2.00000
     50      -4.1788      2.00000
     51      -4.0756      2.00000
     52      -4.0620      2.00000
     53      -4.0275      2.00000
     54      -4.0160      2.00000
     55      -4.0062      2.00000
     56      -3.9968      2.00000
     57      -3.9750      2.00000
     58      -3.9449      2.00000
     59      -3.9057      2.00000
     60      -3.8981      2.00000
[...]
    238       6.1812      0.00000
    239       6.2603      0.00000
    240       6.3833      0.00000
    241       6.3873      0.00000
    242       6.5308      0.00000
    243       6.5579      0.00000
    244       6.5763      0.00000
    245       6.6906      0.00000
    246       6.8778      0.00000
    247       6.9057      0.00000
    248       6.9283      0.00000
    249       7.0109      0.00000
    250       7.2198      0.00000
    251       7.2587      0.00000
    252       7.3728      0.00000

 soft charge-density along one line, spin component           1
         0         1         2         3         4         5         6         7         8         9
 total charge-density along one line

------------------------ aborting loop because EDIFF is reached ----------------------------------------

 total charge

# of ion       s       p       d       tot
    1        0.544   0.240   8.767   9.550
    2        0.545   0.240   8.766   9.550
    3        0.545   0.240   8.766   9.550
    4        0.544   0.240   8.766   9.550
    5        0.541   0.241   8.764   9.546
    6        0.544   0.240   8.766   9.550
    7        0.545   0.240   8.766   9.550
    8        0.545   0.240   8.766   9.550
    9        0.545   0.239   8.767   9.551
   10        0.520   0.308   8.770   9.598
   11        0.520   0.307   8.778   9.605
   12        0.520   0.308   8.770   9.598
   13        0.520   0.307   8.778   9.605
   14        0.520   0.307   8.778   9.605
   15        0.518   0.308   8.775   9.601
   16        0.520   0.308   8.770   9.598
   17        0.518   0.308   8.775   9.601
   18        0.518   0.308   8.775   9.601
   19        0.517   0.302   8.776   9.595
   20        0.534   0.322   8.761   9.617
   21        0.534   0.322   8.761   9.617
   22        0.513   0.309   8.773   9.595
   23        0.534   0.322   8.760   9.617
   24        0.513   0.309   8.773   9.595
   25        0.517   0.302   8.776   9.595
   26        0.517   0.302   8.776   9.595
   27        0.513   0.309   8.773   9.596
   28        0.539   0.225   8.767   9.531
   29        0.551   0.233   8.761   9.546
   30        0.551   0.233   8.761   9.546
   31        0.551   0.233   8.762   9.545
   32        0.551   0.233   8.762   9.545
   33        0.551   0.233   8.761   9.546
   34        0.551   0.233   8.761   9.546
   35        0.538   0.225   8.768   9.532
   36        0.335   0.229   8.373   8.938
   37        1.373   2.468   0.000   3.841
   38        1.373   2.468   0.000   3.841
tot         21.729  14.746 315.267 351.743

  FORCE on cell =-STRESS in cart. coord.  units (eV):
  Direction    XX          YY          ZZ          XY          YZ          ZX
  Alpha Z  1030.76996  1030.76996  1030.76996
  Ewald  116584.64207116263.50623************    -0.00032     0.15283    -0.00015
  Hartree125481.48636125367.11299************     0.00001     0.09369    -0.00004
  E(xc)   -1823.68642 -1824.92832 -1831.89162    -0.00001     0.00008    -0.00000
  Local  ************************253942.26336     0.00264    -0.24906     0.00004
  n-local   -98.78931   -86.26356   -63.26662     4.35707     0.00095     0.32310
  augment  2545.47327  2545.17897  2560.03768    -0.00159     0.00009     0.00003
  Kinetic  5601.01714  5619.09896  5669.34603     0.96270    -0.00024     0.21416
  Fock        0.00000     0.00000     0.00000     0.00000     0.00000     0.00000
  Total     -22.05915   -22.04614     2.01955    -0.00000    -0.00166    -0.00000
  in kB     -23.66966   -23.65570     2.16700    -0.00000    -0.00178    -0.00000

 VOLUME and BASIS-vectors are now :
  energy-cutoff  :      500.00
  volume of cell :     1493.16
      direct lattice vectors                 reciprocal lattice vectors
     8.813512802  0.000000000  0.000000000     0.113462137 -0.065507406  0.000000000
     4.406756909  7.632725690  0.000000000     0.000000000  0.131014796  0.000000000
     0.000000000  0.000000000 22.196203232     0.000000000  0.000000000  0.045052750

  length of vectors
     8.813512802  8.813512802 22.196203232     0.131014796  0.131014796  0.045052750

 FORCES acting on ions
    electron-ion (+dipol)            ewald-force                    non-local-force                 convergence-correction
   -.201E-04 0.468E-02 0.249E+04   0.519E-04 -.500E-02 -.249E+04   -.500E-10 -.752E-03 -.628E+00   -.260E-03 0.727E-03 -.355E+00
   0.477E+00 0.515E+00 0.249E+04   -.527E+00 -.477E+00 -.249E+04   0.140E-01 -.110E-01 -.346E+00   0.321E-01 -.264E-01 -.373E+00
   -.477E+00 0.515E+00 0.249E+04   0.526E+00 -.477E+00 -.249E+04   -.140E-01 -.110E-01 -.346E+00   -.318E-01 -.244E-01 -.373E+00
   0.680E+00 0.153E+00 0.249E+04   -.672E+00 -.219E+00 -.249E+04   -.161E-02 0.173E-01 -.349E+00   -.751E-02 0.450E-01 -.371E+00
   0.744E-05 -.892E-02 0.249E+04   0.951E-04 0.120E-02 -.249E+04   0.933E-11 0.140E-03 -.361E+00   0.434E-02 0.769E-02 -.408E+00
   -.680E+00 0.153E+00 0.249E+04   0.672E+00 -.219E+00 -.249E+04   0.161E-02 0.173E-01 -.349E+00   0.591E-02 0.459E-01 -.370E+00
   0.203E+00 -.667E+00 0.249E+04   -.146E+00 0.696E+00 -.249E+04   -.161E-01 -.635E-02 -.346E+00   -.377E-01 -.194E-01 -.368E+00
   -.203E+00 -.667E+00 0.249E+04   0.146E+00 0.696E+00 -.249E+04   0.161E-01 -.635E-02 -.346E+00   0.396E-01 -.206E-01 -.368E+00
   0.200E-04 0.308E-02 0.249E+04   0.166E-03 0.382E-02 -.249E+04   0.624E-10 0.937E-03 -.403E+00   -.462E-02 -.777E-02 -.353E+00
   0.405E+01 0.236E+01 0.864E+03   -.384E+01 -.224E+01 -.863E+03   -.129E+00 -.743E-01 -.537E+00   -.515E-01 -.267E-01 0.130E-01
   0.145E-04 0.552E+01 0.872E+03   0.147E-03 -.550E+01 -.871E+03   0.250E-09 0.376E-02 -.392E+00   0.416E-02 -.394E-01 0.435E-01
   -.405E+01 0.236E+01 0.864E+03   0.384E+01 -.224E+01 -.863E+03   0.129E+00 -.743E-01 -.537E+00   0.498E-01 -.251E-01 0.135E-01
   0.476E+01 -.278E+01 0.872E+03   -.474E+01 0.276E+01 -.871E+03   0.335E-02 -.181E-02 -.393E+00   -.359E-01 0.302E-01 0.451E-01
   -.476E+01 -.278E+01 0.872E+03   0.474E+01 0.276E+01 -.871E+03   -.335E-02 -.181E-02 -.393E+00   0.439E-01 0.295E-01 0.452E-01
   0.311E-04 0.184E+01 0.865E+03   0.236E-03 -.192E+01 -.864E+03   0.179E-08 0.269E-01 -.430E+00   -.261E-02 0.345E-01 0.429E-01
   -.219E-04 -.467E+01 0.864E+03   0.163E-03 0.443E+01 -.863E+03   0.992E-08 0.149E+00 -.535E+00   0.188E-03 0.510E-01 0.150E-01
   0.161E+01 -.925E+00 0.865E+03   -.168E+01 0.973E+00 -.864E+03   0.234E-01 -.137E-01 -.424E+00   0.254E-01 -.240E-01 0.427E-01
   -.161E+01 -.925E+00 0.865E+03   0.168E+01 0.973E+00 -.864E+03   -.234E-01 -.137E-01 -.424E+00   -.252E-01 -.217E-01 0.431E-01
   -.389E-04 0.224E+01 -.796E+03   0.534E-04 -.240E+01 0.796E+03   0.411E-08 0.618E-01 0.527E+00   -.457E-02 0.993E-01 0.302E+00
   0.348E+02 0.202E+02 -.749E+03   -.343E+02 -.199E+02 0.749E+03   -.571E+00 -.328E+00 -.478E+00   0.968E-01 0.634E-01 0.503E+00
   -.348E+02 0.202E+02 -.749E+03   0.343E+02 -.199E+02 0.749E+03   0.571E+00 -.328E+00 -.478E+00   -.943E-01 0.646E-01 0.502E+00
   0.108E+02 -.637E+01 -.784E+03   -.111E+02 0.656E+01 0.783E+03   0.242E+00 -.143E+00 0.517E+00   0.728E-01 -.477E-01 0.328E+00
   -.141E-04 -.404E+02 -.749E+03   0.145E-03 0.398E+02 0.749E+03   0.438E-07 0.657E+00 -.477E+00   0.190E-02 -.112E+00 0.502E+00
   -.108E+02 -.637E+01 -.784E+03   0.111E+02 0.656E+01 0.783E+03   -.242E+00 -.143E+00 0.517E+00   -.796E-01 -.487E-01 0.328E+00
   -.189E+01 -.984E+00 -.797E+03   0.202E+01 0.107E+01 0.796E+03   -.506E-01 -.291E-01 0.522E+00   -.834E-01 -.549E-01 0.301E+00
   0.189E+01 -.983E+00 -.797E+03   -.202E+01 0.107E+01 0.796E+03   0.506E-01 -.291E-01 0.522E+00   0.785E-01 -.571E-01 0.301E+00
   0.101E-04 0.125E+02 -.784E+03   0.198E-03 -.129E+02 0.783E+03   0.187E-07 0.281E+00 0.516E+00   -.298E-02 0.787E-01 0.329E+00
   -.114E-04 0.998E+00 -.243E+04   0.291E-04 -.998E+00 0.243E+04   -.568E-10 -.854E-03 0.632E+00   -.161E-03 0.602E-03 0.504E+00
   0.246E+02 0.413E+02 -.241E+04   -.242E+02 -.406E+02 0.241E+04   -.500E+00 -.774E+00 0.396E+00   0.983E-01 0.967E-01 0.389E+00
   -.246E+02 0.413E+02 -.241E+04   0.242E+02 -.406E+02 0.241E+04   0.500E+00 -.774E+00 0.396E+00   -.978E-01 0.986E-01 0.389E+00
   0.477E+02 0.122E+01 -.241E+04   -.469E+02 -.121E+01 0.241E+04   -.911E+00 -.433E-01 0.440E+00   0.132E+00 0.418E-01 0.387E+00
   -.477E+02 0.122E+01 -.241E+04   0.469E+02 -.121E+01 0.241E+04   0.911E+00 -.433E-01 0.440E+00   -.133E+00 0.425E-01 0.386E+00
   0.220E+02 -.424E+02 -.241E+04   -.216E+02 0.417E+02 0.241E+04   -.424E+00 0.817E+00 0.396E+00   0.361E-01 -.139E+00 0.385E+00
   -.220E+02 -.424E+02 -.241E+04   0.216E+02 0.417E+02 0.241E+04   0.424E+00 0.817E+00 0.396E+00   -.343E-01 -.140E+00 0.384E+00
   0.335E-04 -.781E+00 -.243E+04   0.144E-03 0.790E+00 0.243E+04   0.625E-10 0.938E-03 0.571E+00   -.457E-02 -.895E-02 0.407E+00
   -.411E-04 -.257E+00 -.207E+04   0.105E-03 0.250E+00 0.206E+04   -.331E-09 -.497E-02 0.216E+01   0.990E-02 0.121E-01 0.537E+00
   0.240E+03 -.330E-01 -.928E+03   -.286E+03 0.321E-01 0.928E+03   0.456E+02 -.539E-03 -.310E-01   0.835E-02 0.563E-03 -.681E-01
   -.240E+03 -.330E-01 -.928E+03   0.286E+03 0.321E-01 0.928E+03   -.456E+02 -.539E-03 -.310E-01   -.831E-02 0.579E-03 -.682E-01
   -.623E-03 0.342E-02 -.333E+01   0.568E-13 -.893E-13 -.932E-11   -.405E-09 -.608E-02 -.892E-01   -.224E-03 0.767E-03 0.399E+01

 POSITION                                       TOTAL-FORCE (eV/Angst)
      0.00000      0.00000      5.28038        -0.000000     -0.000291     -0.065399
      2.93784      0.00000      5.28038        -0.003252      0.000980     -0.061443
      5.87568      0.00000      5.28038         0.003252      0.000980     -0.061443
      1.46892      2.54424      5.28038        -0.000677     -0.003323     -0.061866
      4.40676      2.54424      5.28038         0.000000      0.000164     -0.081797
      7.34459      2.54424      5.28038         0.000677     -0.003323     -0.061866
      2.93784      5.08848      5.28038         0.002686      0.002597     -0.061737
      5.87568      5.08848      5.28038        -0.002686      0.002597     -0.061737
      8.81351      5.08848      5.28038         0.000000      0.000119     -0.069378
      1.46892      0.84808      7.67911         0.029541      0.017429      0.099717
      4.40676      0.84808      7.67911        -0.000000     -0.013635      0.048089
      7.34459      0.84808      7.67911        -0.029541      0.017429      0.099717
      2.93784      3.39232      7.67911        -0.012248      0.007403      0.047820
      5.87568      3.39232      7.67911         0.012248      0.007403      0.047820
      8.81351      3.39232      7.67911        -0.000000     -0.024072      0.086724
      4.40676      5.93656      7.67911        -0.000000     -0.034488      0.099721
      7.34459      5.93656      7.67911        -0.021026      0.011743      0.087164
     10.28243      5.93656      7.67911         0.021026      0.011743      0.087164
      8.81351      1.69394     10.07055         0.000000      0.000557      0.011686
      2.94670      1.70128     10.05847         0.003279      0.002008      0.004797
      5.86681      1.70128     10.05847        -0.003279      0.002008      0.004797
     10.27376      4.24541     10.05945        -0.005144      0.002951      0.001160
      4.40676      4.23017     10.05847        -0.000000     -0.003859      0.004235
      7.35327      4.24541     10.05945         0.005144      0.002951      0.001160
     11.75328      6.78576     10.07055        -0.000674     -0.000207      0.009367
      5.87375      6.78576     10.07055         0.000674     -0.000207      0.009367
      8.81351      6.77463     10.05945        -0.000000     -0.005932     -0.000173
      0.00000      0.00000     12.48855        -0.000000     -0.000674     -0.022941
      2.97006      0.05170     12.45862         0.000351     -0.004685     -0.013901
      5.84345      0.05170     12.45862        -0.000351     -0.004685     -0.013901
      1.52981      2.54630     12.45862        -0.002843      0.002311     -0.013470
      7.28371      2.54630     12.45862         0.002843      0.002311     -0.013470
      2.96650      5.03473     12.45862        -0.003101      0.002213     -0.013704
      5.84701      5.03473     12.45862         0.003101      0.002213     -0.013704
      8.81351      5.08848     12.49203         0.000000      0.000541     -0.025299
      4.40676      2.54424     12.16149         0.000000      0.000364     -0.035227
      3.84983      2.52911     16.05704         0.002579     -0.000818      0.000975
      4.96369      2.52911     16.05704        -0.002579     -0.000818      0.000975
    total drift:                               -0.000847     -0.001897      0.571202

  FREE ENERGIE OF THE ION-ELECTRON SYSTEM (eV)
  free  energy   TOTEN  =      -128.07406952 eV

  energy  without entropy=     -128.07406952  energy(sigma->0) =     -128.07406952

 stress matrix after NEB project (eV)
    -22.05915     -0.00000     -0.00000
     -0.00000    -22.04614     -0.00166
     -0.00000     -0.00166      2.01955
  FORCES: max atom, RMS     0.002876    0.000660
  FORCE total and by dimension    0.004067    0.002579
  Stress total and by dimension   31.252475   22.059154
|           W    W    AA    RRRRR   N    N  II  N    N   GGGG   !!!           |
|           W    W   A  A   R    R  NN   N  II  NN   N  G    G  !!!           |
|           W    W  A    A  R    R  N N  N  II  N N  N  G       !!!           |
|           W WW W  AAAAAA  RRRRR   N  N N  II  N  N N  G  GGG   !            |
|           WW  WW  A    A  R   R   N   NN  II  N   NN  G    G                |
|           W    W  A    A  R    R  N    N  II  N    N   GGGG   !!!           |
|     Tetrahedron method does not include variations of the Fermi             |
|     occupations, so forces and stress will be inaccurate. We suggest        |
|     using a different smearing scheme ISMEAR = 1 or 2 for metals in         |
|     relaxations.                                                            |

 total charge

# of ion       s       p       d       tot
    1        0.544   0.240   8.767   9.550
    2        0.545   0.240   8.766   9.550
    3        0.545   0.240   8.766   9.550
    4        0.544   0.240   8.766   9.550
    5        0.541   0.241   8.764   9.546
    6        0.544   0.240   8.766   9.550
    7        0.545   0.240   8.766   9.550
    8        0.545   0.240   8.766   9.550
    9        0.545   0.239   8.767   9.551
   10        0.520   0.308   8.770   9.598
   11        0.520   0.307   8.778   9.605
   12        0.520   0.308   8.770   9.598
   13        0.520   0.307   8.778   9.605
   14        0.520   0.307   8.778   9.605
   15        0.518   0.308   8.775   9.601
   16        0.520   0.308   8.770   9.598
   17        0.518   0.308   8.775   9.601
   18        0.518   0.308   8.775   9.601
   19        0.517   0.302   8.776   9.595
   20        0.534   0.322   8.761   9.617
   21        0.534   0.322   8.761   9.617
   22        0.513   0.309   8.773   9.595
   23        0.534   0.322   8.760   9.617
   24        0.513   0.309   8.773   9.595
   25        0.517   0.302   8.776   9.595
   26        0.517   0.302   8.776   9.595
   27        0.513   0.309   8.773   9.596
   28        0.539   0.225   8.767   9.531
   29        0.551   0.233   8.761   9.546
   30        0.551   0.233   8.761   9.546
   31        0.551   0.233   8.762   9.545
   32        0.551   0.233   8.762   9.545
   33        0.551   0.233   8.761   9.546
   34        0.551   0.233   8.761   9.546
   35        0.538   0.225   8.768   9.532
   36        0.335   0.229   8.373   8.938
   37        1.373   2.468   0.000   3.841
   38        1.373   2.468   0.000   3.841
tot         21.729  14.746 315.267 351.743

 BZINTS: Fermi energy:    0.747198;  405.000000 electrons
         Band energy:-0.122485E+04;  BLOECHL correction:   -0.102734