 vasp.6.2.0 18Jan21 (build Jun 12 2021 23:27:24) complex

 executed on             LinuxIFC date 2022.05.28  02:28:34

 INCAR:
   ISMEAR = -5
   SIGMA = 0.1
   ISPIN = 1
   EDIFF = 1.d-5
   EDIFFG = -0.01
   NSW = 0
   NELM = 150
   ENCUT = 500
   ISIF = 2
   IBRION = 2
   LREAL = Auto
   ALGO = Fast
   ICHARG = 11
   LORBIT = 10
   LCHARG = .F.
   LWAVE = .F.

 POTCAR:    PAW_PBE Cu 22Jun2005
 POTCAR:    PAW_PBE Mo 08Apr2002
 POTCAR:    PAW_PBE O 08Apr2002
 POTCAR:    PAW_PBE H 15Jun2001
|           W    W    AA    RRRRR   N    N  II  N    N   GGGG   !!!           |
|           W    W   A  A   R    R  NN   N  II  NN   N  G    G  !!!           |
|           W    W  A    A  R    R  N N  N  II  N N  N  G       !!!           |
|           W WW W  AAAAAA  RRRRR   N  N N  II  N  N N  G  GGG   !            |
|           WW  WW  A    A  R   R   N   NN  II  N   NN  G    G                |
|           W    W  A    A  R    R  N    N  II  N    N   GGGG   !!!           |
|     For optimal performance we recommend to set                             |
|       NCORE = 2 up to number-of-cores-per-socket                            |
|     This setting can greatly improve the performance of VASP for DFT.       |
|     The default, NCORE=1 might be grossly inefficient on modern             |
|     multi-core architectures or massively parallel machines. Do your        |
|     Unfortunately you need to use the default for GW and RPA                |
|     calculations (for HF NCORE is supported but not extensively tested      |
|     yet).                                                                   |

 POTCAR:    PAW_PBE Cu 22Jun2005
   VRHFIN =Cu: d10 p1

   TITEL  = PAW_PBE Cu 22Jun2005
   POMASS =   63.546; ZVAL   =   11.000    mass and valenz
   ENMAX  =  295.446; ENMIN  =  221.585 eV

 POTCAR:    PAW_PBE Mo 08Apr2002
   VRHFIN =Mo: 4p5s4d

   TITEL  = PAW_PBE Mo 08Apr2002
   POMASS =   95.940; ZVAL   =    6.000    mass and valenz
   ENMAX  =  224.584; ENMIN  =  168.438 eV

 POTCAR:    PAW_PBE O 08Apr2002
   VRHFIN =O: s2p4

   TITEL  = PAW_PBE O 08Apr2002
   POMASS =   16.000; ZVAL   =    6.000    mass and valenz
   ENMAX  =  400.000; ENMIN  =  300.000 eV

 POTCAR:    PAW_PBE H 15Jun2001
   VRHFIN =H: ultrasoft test

   TITEL  = PAW_PBE H 15Jun2001
   POMASS =    1.000; ZVAL   =    1.000    mass and valenz
   ENMAX  =  250.000; ENMIN  =  200.000 eV

 Optimization of the real space projectors (new method)

 maximal supplied QI-value         = 16.25
 optimisation between [QCUT,QGAM] = [ 11.38, 22.75] = [ 36.24,144.96] Ry
 Optimized for a Real-space Cutoff    1.52 Angstroem

   l    n(q)    QCUT    max X(q) W(low)/X(q) W(high)/X(q)  e(spline)
   2      9    11.376     4.610    0.21E-03    0.10E-03    0.26E-06
   2      9    11.376     8.522    0.33E-03    0.16E-03    0.37E-06
   0     10    11.376    51.609    0.62E-04    0.20E-04    0.13E-06
   0     10    11.376    27.747    0.54E-04    0.20E-04    0.13E-06
   1     10    11.376    20.408    0.13E-04    0.99E-04    0.19E-06
   1     10    11.376    13.425    0.12E-04    0.87E-04    0.17E-06
 Optimization of the real space projectors (new method)

[...]

   l    n(q)    QCUT    max X(q) W(low)/X(q) W(high)/X(q)  e(spline)
   0      7    11.387    20.381    0.39E-03    0.13E-02    0.15E-06
   0      7    11.387    15.268    0.42E-03    0.14E-02    0.17E-06
   1      6    11.387     5.964    0.41E-03    0.11E-02    0.17E-06
   1      6    11.387     5.382    0.39E-03    0.87E-03    0.15E-06
 Optimization of the real space projectors (new method)

 maximal supplied QI-value         = 34.20
 optimisation between [QCUT,QGAM] = [ 11.29, 22.57] = [ 35.68,142.71] Ry
 Optimized for a Real-space Cutoff    1.16 Angstroem

   l    n(q)    QCUT    max X(q) W(low)/X(q) W(high)/X(q)  e(spline)
   0      8    11.287    19.460    0.40E-03    0.73E-03    0.16E-06
   0      8    11.287    12.209    0.38E-03    0.70E-03    0.15E-06
   1      7    11.287     4.655    0.22E-03    0.25E-04    0.22E-06
  PAW_PBE Cu 22Jun2005                  :
  PAW_PBE Mo 08Apr2002                  :
  PAW_PBE O 08Apr2002                   :
  PAW_PBE H 15Jun2001                   :

 POSCAR: Cu-Mo-OOH
  positions in direct lattice
  velocities in cartesian coordinates
 exchange correlation table for  LEXCH =        8
   RHO(1)=    0.500       N(1)  =     2000
   RHO(2)=  100.500       N(2)  =     4000

 VTST: version 3.2, (02/03/18)

 CHAIN: initializing optimizer

 OPT: Using VASP Conjugate-Gradient optimizer
 CHAIN: Read ICHAIN            0

 POSCAR: Cu-Mo-OOH
  positions in direct lattice
  velocities in cartesian coordinates

 ion  position               nearest neighbor table
   1  0.000  0.000  0.212-   7 2.57   3 2.57   4 2.57   2 2.57   6 2.57   8 2.57  12 2.57  10 2.57
                            16 2.57
   2  0.333  0.000  0.212-   8 2.57   9 2.57   5 2.57   1 2.57   3 2.57  11 2.57   4 2.57  10 2.57
                            17 2.57
   3  0.667  0.000  0.212-   1 2.57   7 2.57   6 2.57   9 2.57   2 2.57  12 2.57   5 2.57  18 2.57
                            11 2.57
   4  0.000  0.333  0.212-   5 2.57   6 2.57   1 2.57   7 2.57   2 2.57  13 2.57   9 2.57  10 2.57
                            15 2.57
   5  0.333  0.333  0.212-   4 2.57   2 2.57   7 2.57  13 2.57   8 2.57   6 2.57   3 2.57  11 2.57
                            14 2.57
   6  0.667  0.333  0.212-   4 2.57   9 2.57  15 2.57   3 2.57   1 2.57   8 2.57  14 2.57   5 2.57
                            12 2.57
   7  0.000  0.667  0.212-   1 2.57   3 2.57  16 2.57  18 2.57   4 2.57   5 2.57   8 2.57   9 2.57
                            13 2.57
   8  0.333  0.667  0.212-   9 2.57   2 2.57  17 2.57   6 2.57   1 2.57   7 2.57   5 2.57  14 2.57
                            16 2.57
   9  0.667  0.667  0.212-   8 2.57   6 2.57   2 2.57  17 2.57   3 2.57   7 2.57   4 2.57  15 2.57
                            18 2.57
  10  0.111  0.111  0.294-  20 2.55  26 2.56  19 2.56  11 2.57  12 2.57  13 2.57   1 2.57   2 2.57
                             4 2.57  15 2.57  16 2.57  17 2.57
  11  0.444  0.111  0.294-  20 2.56  21 2.56  10 2.57  13 2.57   2 2.57  17 2.57  14 2.57  12 2.57
                             5 2.57   3 2.57  18 2.57  27 2.57
  12  0.778  0.111  0.294-  21 2.55  19 2.56  25 2.56  15 2.57  10 2.57  14 2.57  18 2.57   3 2.57
                             1 2.57  16 2.57  11 2.57   6 2.57
  13  0.111  0.444  0.294-  23 2.56  20 2.56  16 2.57  18 2.57  10 2.57  11 2.57  14 2.57   5 2.57
                             4 2.57   7 2.57  15 2.57  22 2.57
  14  0.444  0.444  0.294-  21 2.56  23 2.56  15 2.57  17 2.57  12 2.57  16 2.57  13 2.57  11 2.57
                             6 2.57   8 2.57   5 2.57  24 2.57
  15  0.778  0.444  0.294-  19 2.56  14 2.57  17 2.57  12 2.57   6 2.57  18 2.57  10 2.57   9 2.57
                            13 2.57   4 2.57  24 2.57  22 2.57
  16  0.111  0.778  0.294-  23 2.55  25 2.56  26 2.56  18 2.57  13 2.57   7 2.57  14 2.57  17 2.57
                            12 2.57  10 2.57   8 2.57   1 2.57
  17  0.444  0.778  0.294-  26 2.56  14 2.57  15 2.57   8 2.57   9 2.57  11 2.57  16 2.57  18 2.57
                            10 2.57   2 2.57  27 2.57  24 2.57
  18  0.778  0.778  0.294-  25 2.56  16 2.57  13 2.57   7 2.57  15 2.57  12 2.57  17 2.57   9 2.57
                             3 2.57  11 2.57  22 2.57  27 2.57
  19  0.889  0.222  0.376-  15 2.56  12 2.56  10 2.56  21 2.56  20 2.56  22 2.57  24 2.57  25 2.57
                            26 2.57  28 2.57  32 2.58  31 2.58
  20  0.222  0.222  0.376-  10 2.55  11 2.56  13 2.56  26 2.56  19 2.56  27 2.57  22 2.57  23 2.57
                            21 2.57  36 2.58  29 2.60  31 2.60
  21  0.556  0.222  0.376-  12 2.55  14 2.56  11 2.56  19 2.56  25 2.56  24 2.57  27 2.57  20 2.57
                            23 2.57  36 2.58  32 2.60  30 2.60
  22  0.888  0.556  0.377-  24 2.56  27 2.56  35 2.56  19 2.57  25 2.57  23 2.57  20 2.57  18 2.57
                            15 2.57  13 2.57  31 2.58  33 2.58
  23  0.222  0.556  0.376-  16 2.55  13 2.56  14 2.56  25 2.56  26 2.56  22 2.57  24 2.57  20 2.57
                            21 2.57  36 2.58  33 2.60  34 2.60
  24  0.556  0.556  0.377-  22 2.56  27 2.56  35 2.56  19 2.57  26 2.57  21 2.57  23 2.57  15 2.57
                            17 2.57  14 2.57  32 2.58  34 2.58
  25  0.889  0.889  0.376-  18 2.56  12 2.56  16 2.56  21 2.56  23 2.56  22 2.57  27 2.57  19 2.57
                            26 2.57  28 2.57  33 2.58  30 2.58
  26  0.222  0.889  0.376-  17 2.56  10 2.56  16 2.56  20 2.56  23 2.56  27 2.57  24 2.57  25 2.57
                            19 2.57  28 2.57  29 2.58  34 2.58
  27  0.556  0.888  0.377-  24 2.56  22 2.56  35 2.56  26 2.57  25 2.57  20 2.57  21 2.57  17 2.57
                            18 2.57  11 2.57  29 2.58  30 2.58
  28  0.000  0.000  0.459-  33 2.56  30 2.56  31 2.56  29 2.56  32 2.56  34 2.56  25 2.57  19 2.57
                            26 2.57
  29  0.333  0.998  0.460-  38 2.12  34 2.54  28 2.56  35 2.56  27 2.58  31 2.58  26 2.58  36 2.58
                            30 2.58  20 2.60
  30  0.669  0.998  0.460-  33 2.54  28 2.56  35 2.56  27 2.58  32 2.58  25 2.58  36 2.58  29 2.58
                            21 2.60
  31  0.998  0.333  0.460-  38 2.06  32 2.54  28 2.56  35 2.56  22 2.58  29 2.58  19 2.58  36 2.58
                            33 2.58  20 2.60
  32  0.669  0.333  0.460-  37 2.02  31 2.54  28 2.56  35 2.56  24 2.58  30 2.58  19 2.58  36 2.58
                            34 2.58  21 2.60
  33  0.998  0.669  0.460-  30 2.54  28 2.56  35 2.56  22 2.58  34 2.58  25 2.58  36 2.58  31 2.58
                            23 2.60
  34  0.333  0.669  0.460-  37 2.03  29 2.54  28 2.56  35 2.56  24 2.58  33 2.58  26 2.58  36 2.58
                            32 2.58  23 2.60
  35  0.667  0.667  0.459-  34 2.56  32 2.56  29 2.56  30 2.56  33 2.56  31 2.56  24 2.56  27 2.56
                            22 2.56
  36  0.333  0.333  0.459-  37 1.86  38 2.13  23 2.58  20 2.58  21 2.58  31 2.58  29 2.58  33 2.58
                            34 2.58  32 2.58  30 2.58
  37  0.434  0.433  0.510-  36 1.86  32 2.02  34 2.03
  38  0.214  0.227  0.518-  39 0.98  31 2.06  29 2.12  36 2.13
  39  0.217  0.272  0.554-  38 0.98

  LATTYP: Found a hexagonal cell.
 ALAT       =     7.6967864036
 C/A-ratio  =     3.2973366172

  Lattice vectors:

 A1 = (  -3.8483927580,  -6.6656128093,   0.0000000000)
 A2 = (   7.6967864037,   0.0000000000,   0.0000000000)
 A3 = (   0.0000000000,   0.0000000000,  25.3788956434)

Analysis of symmetry for initial positions (statically):
 Subroutine PRICEL returns:
 Original cell was already a primitive cell.

 Routine SETGRP: Setting up the symmetry group for a
 hexagonal supercell.

 Subroutine GETGRP returns: Found  1 space group operations
 (whereof  1 operations were pure point group operations)
 out of a pool of 24 trial point group operations.

The static configuration has the point symmetry C_1 .

Analysis of symmetry for dynamics (positions and initial velocities):
 Subroutine PRICEL returns:
 Original cell was already a primitive cell.

[...]

The dynamic configuration has the point symmetry C_1 .

[...]
     41      -4.4250      2.00000
     42      -4.4058      2.00000
     43      -4.3475      2.00000
     44      -4.2821      2.00000
     45      -4.2527      2.00000
     46      -4.2132      2.00000
     47      -4.1771      2.00000
     48      -4.1603      2.00000
     49      -4.1540      2.00000
     50      -4.1310      2.00000
     51      -4.1160      2.00000
     52      -4.0954      2.00000
     53      -4.0523      2.00000
     54      -3.9588      2.00000
     55      -3.9383      2.00000
     56      -3.9259      2.00000
     57      -3.8999      2.00000
     58      -3.8646      2.00000
     59      -3.8458      2.00000
     60      -3.8319      2.00000
[...]
    238       5.2533      0.00000
    239       5.3854      0.00000
    240       5.4665      0.00000
    241       5.5342      0.00000
    242       5.5739      0.00000
    243       5.7822      0.00000
    244       5.8624      0.00000
    245       5.8968      0.00000
    246       5.9623      0.00000
    247       6.0258      0.00000
    248       6.2330      0.00000
    249       6.3376      0.00000
    250       6.3959      0.00000
    251       6.8122      0.00000
    252       6.9244      0.00000

 soft charge-density along one line, spin component           1
         0         1         2         3         4         5         6         7         8         9
 total charge-density along one line

------------------------ aborting loop because EDIFF is reached ----------------------------------------

 total charge

# of ion       s       p       d       tot
    1        0.450   0.282   9.189   9.921
    2        0.448   0.285   9.186   9.919
    3        0.448   0.286   9.185   9.919
    4        0.447   0.286   9.186   9.919
    5        0.449   0.286   9.183   9.917
    6        0.450   0.284   9.186   9.920
    7        0.448   0.285   9.186   9.919
    8        0.449   0.284   9.186   9.920
    9        0.446   0.285   9.187   9.918
   10        0.443   0.369   9.179   9.991
   11        0.441   0.367   9.182   9.990
   12        0.445   0.371   9.176   9.991
   13        0.441   0.367   9.182   9.990
   14        0.441   0.366   9.183   9.990
   15        0.439   0.367   9.180   9.985
   16        0.445   0.371   9.176   9.991
   17        0.439   0.367   9.180   9.985
   18        0.437   0.370   9.178   9.985
   19        0.435   0.377   9.174   9.986
   20        0.471   0.399   9.155  10.026
   21        0.464   0.408   9.151  10.024
   22        0.430   0.373   9.179   9.982
   23        0.464   0.408   9.151  10.023
   24        0.434   0.369   9.184   9.986
   25        0.443   0.363   9.186   9.993
   26        0.435   0.376   9.175   9.986
   27        0.430   0.372   9.180   9.981
   28        0.456   0.284   9.196   9.936
   29        0.435   0.339   9.181   9.956
   30        0.458   0.314   9.183   9.955
   31        0.434   0.358   9.174   9.966
   32        0.434   0.365   9.175   9.974
   33        0.459   0.313   9.184   9.956
   34        0.434   0.364   9.175   9.973
   35        0.450   0.286   9.195   9.931
   36        0.507   0.602   4.374   5.483
   37        1.591   3.332   0.000   4.924
   38        1.553   3.535   0.000   5.088
   39        0.605   0.119   0.000   0.723
tot         19.829  19.534 325.661 365.024

  FORCE on cell =-STRESS in cart. coord.  units (eV):
  Direction    XX          YY          ZZ          XY          YZ          ZX
  Alpha Z   772.64091   772.64091   772.64091
  Ewald  257944.86549257945.73096************    -5.84807    17.85061    19.26172
  Hartree270681.98554270705.04111************   -24.28784    -3.51023    -0.11156
  E(xc)   -2338.55821 -2338.73570 -2342.15208     0.10652     0.01239    -0.03412
  Local  ************************541783.02103    34.99872    -7.10211   -13.35567
  n-local  -816.94388  -819.62415  -831.37345     1.97404     1.06913     2.36798
  augment  3330.69125  3331.64694  3347.18942    -0.53798    -0.46777    -0.73565
  Kinetic  3480.84067  3487.39454  3485.42130    -6.37716    -7.58133    -6.88719
  Fock        0.00000     0.00000     0.00000     0.00000     0.00000     0.00000
  Total      -1.37932    -1.34975    -1.86706     0.02825     0.27069     0.50550
  in kB      -1.69728    -1.66089    -2.29745     0.03476     0.33309     0.62203

 VOLUME and BASIS-vectors are now :
  energy-cutoff  :      500.00
  volume of cell :     1302.03
      direct lattice vectors                 reciprocal lattice vectors
     7.696786404  0.000000000  0.000000000     0.129924354 -0.075011849  0.000000000
     3.848392758  6.665612809  0.000000000     0.000000000  0.150023716  0.000000000
     0.000000000  0.000000000 25.378895643     0.000000000  0.000000000  0.039402818

  length of vectors
     7.696786404  7.696786404 25.378895643     0.150023716  0.150023716  0.039402818

 FORCES acting on ions
    electron-ion (+dipol)            ewald-force                    non-local-force                 convergence-correction
   0.883E-01 0.846E-01 0.390E+04   -.132E+00 -.795E-01 -.389E+04   0.342E-01 0.123E-01 -.260E+01   0.604E-04 -.209E-01 -.265E+00
   -.666E+00 -.449E+00 0.389E+04   0.667E+00 0.222E+00 -.389E+04   -.502E-02 0.232E+00 -.194E+01   0.214E-01 -.549E-03 -.210E+00
   0.526E+00 -.164E+00 0.389E+04   -.535E+00 0.136E+00 -.389E+04   0.136E-01 0.480E-01 -.178E+01   -.877E-02 -.323E-02 -.218E+00
   -.763E+00 -.314E+00 0.389E+04   0.529E+00 0.454E+00 -.389E+04   0.204E+00 -.132E+00 -.198E+01   0.403E-01 0.806E-02 -.208E+00
   -.137E+00 -.818E-01 0.389E+04   -.123E-01 -.185E-01 -.389E+04   0.124E+00 0.640E-01 -.164E+01   0.313E-01 0.372E-01 -.226E+00
   0.844E+00 -.460E+00 0.389E+04   -.516E+00 0.291E+00 -.389E+04   -.275E+00 0.493E-01 -.171E+01   -.607E-01 0.952E-01 -.232E+00
   0.664E-01 0.502E+00 0.389E+04   -.147E+00 -.518E+00 -.389E+04   0.663E-01 0.108E-01 -.181E+01   0.228E-01 -.602E-02 -.248E+00
   0.126E-01 0.934E+00 0.389E+04   0.384E-02 -.584E+00 -.389E+04   -.861E-01 -.260E+00 -.176E+01   0.470E-01 -.859E-01 -.268E+00
   0.272E-01 -.535E-01 0.389E+04   0.143E+00 0.971E-01 -.389E+04   -.807E-01 -.251E-01 -.225E+01   -.868E-01 -.203E-01 -.228E+00
   -.279E+01 -.154E+01 0.137E+04   0.311E+01 0.170E+01 -.137E+04   -.369E+00 -.202E+00 -.890E+00   0.114E-01 0.110E-01 -.358E+00
   -.525E+00 -.204E+01 0.136E+04   0.705E+00 0.188E+01 -.135E+04   -.962E-01 0.136E+00 -.353E+00   -.829E-01 -.211E-01 -.425E+00
   0.319E+01 -.516E+00 0.137E+04   -.381E+01 0.823E+00 -.136E+04   0.559E+00 -.289E+00 -.113E+01   0.817E-01 0.501E-02 -.425E+00
   -.212E+01 0.630E+00 0.136E+04   0.206E+01 -.387E+00 -.135E+04   0.719E-01 -.159E+00 -.361E+00   -.514E-01 -.612E-01 -.424E+00
   0.267E+01 0.153E+01 0.136E+04   -.255E+01 -.149E+01 -.136E+04   -.176E+00 -.992E-01 0.849E-02   0.758E-01 0.649E-01 -.437E+00
   -.367E+00 -.293E+01 0.136E+04   0.485E+00 0.281E+01 -.136E+04   -.126E+00 0.861E-01 -.965E+00   -.313E-02 0.327E-01 -.387E+00
   0.110E+01 0.299E+01 0.137E+04   -.112E+01 -.366E+01 -.136E+04   0.750E-03 0.625E+00 -.112E+01   0.478E-01 0.503E-01 -.441E+00
   -.275E+01 0.107E+01 0.136E+04   0.269E+01 -.889E+00 -.136E+04   0.246E-01 -.161E+00 -.942E+00   0.253E-01 -.240E-01 -.386E+00
   0.155E+01 0.794E+00 0.136E+04   -.157E+01 -.807E+00 -.136E+04   0.687E-01 0.398E-01 -.662E+00   -.553E-01 -.330E-01 -.410E+00
   0.289E+01 -.230E+01 -.116E+04   -.310E+01 0.232E+01 0.116E+04   0.199E+00 0.643E-01 0.846E+00   0.281E-01 0.173E-01 -.247E+00
   -.451E+02 -.251E+02 -.120E+04   0.453E+02 0.252E+02 0.120E+04   -.355E+00 -.212E+00 -.959E+00   -.867E-01 -.353E-01 -.201E+00
   0.411E+02 -.138E+02 -.121E+04   -.422E+02 0.149E+02 0.121E+04   0.105E+01 -.107E+01 -.136E+01   0.530E-01 -.532E-01 -.273E+00
   -.220E+02 0.419E+01 -.119E+04   0.220E+02 -.387E+01 0.119E+04   0.656E-01 -.338E+00 0.815E+00   -.551E-01 -.774E-01 -.189E+00
   0.796E+01 0.424E+02 -.121E+04   -.754E+01 -.438E+02 0.121E+04   -.404E+00 0.147E+01 -.131E+01   -.297E-01 0.555E-01 -.268E+00
   0.143E+02 0.790E+01 -.118E+04   -.144E+02 -.793E+01 0.118E+04   -.601E-01 -.766E-01 0.504E+00   0.709E-01 0.523E-01 -.155E+00
   0.797E+01 0.431E+01 -.118E+04   -.824E+01 -.446E+01 0.118E+04   0.240E+00 0.135E+00 0.942E+00   0.232E-01 0.142E-01 -.244E+00
   -.131E+01 0.357E+01 -.117E+04   0.112E+01 -.380E+01 0.117E+04   0.232E+00 0.197E+00 0.946E+00   0.403E-01 0.971E-02 -.245E+00
   -.685E+01 -.218E+02 -.119E+04   0.723E+01 0.217E+02 0.119E+04   -.332E+00 0.271E+00 0.912E+00   -.996E-01 -.196E-01 -.214E+00
   0.344E+02 0.208E+02 -.370E+04   -.353E+02 -.213E+02 0.370E+04   0.755E+00 0.478E+00 0.211E+01   0.963E-02 0.233E-01 0.101E+00
   -.475E+02 0.442E+02 -.361E+04   0.479E+02 -.486E+02 0.361E+04   -.445E+00 0.377E+01 0.493E+01   -.305E-01 -.146E+00 0.100E+00
   0.117E+02 -.181E+02 -.371E+04   -.118E+02 0.169E+02 0.371E+04   0.263E+00 0.926E+00 0.194E+01   0.241E-01 -.122E+00 0.166E+00
   0.219E+02 -.615E+02 -.360E+04   -.256E+02 0.636E+02 0.359E+04   0.311E+01 -.191E+01 0.415E+01   -.132E+00 0.461E-01 0.854E-01
   -.322E+02 0.609E+02 -.362E+04   0.361E+02 -.630E+02 0.361E+04   -.343E+01 0.175E+01 0.328E+01   0.186E+00 0.148E+00 0.205E+00
   -.107E+02 0.143E+02 -.371E+04   0.967E+01 -.135E+02 0.370E+04   0.835E+00 -.334E+00 0.195E+01   -.109E+00 0.804E-01 0.131E+00
   0.350E+02 -.597E+02 -.362E+04   -.348E+02 0.642E+02 0.361E+04   -.227E+00 -.394E+01 0.329E+01   0.237E+00 0.817E-01 0.202E+00
   -.293E+02 -.202E+02 -.372E+04   0.300E+02 0.205E+02 0.371E+04   -.324E+00 -.744E-01 0.238E+01   -.153E+00 -.828E-01 0.218E+00
   0.186E+02 0.140E+02 -.186E+04   -.179E+02 -.136E+02 0.186E+04   -.441E+00 -.217E+00 0.612E+00   -.123E-01 -.778E-02 0.601E-01
   0.226E+02 0.141E+02 -.251E+04   -.166E+02 -.106E+02 0.254E+04   -.626E+01 -.356E+01 -.264E+02   0.141E+00 0.678E-01 0.139E+00
   -.152E+02 0.491E+01 -.247E+04   0.379E+01 -.201E+02 0.245E+04   0.115E+02 0.152E+02 0.167E+02   -.105E+00 -.289E-01 0.126E+00
   -.127E+02 -.230E+02 -.465E+03   0.143E+02 0.254E+02 0.473E+03   -.157E+01 -.244E+01 -.762E+01   -.309E-02 0.243E-04 0.214E-01
   -.439E+01 -.101E+02 0.214E+02   0.249E-13 0.185E-12 -.132E-10   0.433E+01 0.101E+02 -.152E+02   0.519E-01 0.522E-01 -.628E+01

 POSITION                                       TOTAL-FORCE (eV/Angst)
      0.00000      0.00000      5.37156        -0.009229     -0.003582     -0.019512
      2.56560      0.00000      5.37156         0.017336      0.004536      0.067340
      5.13119      0.00000      5.37156        -0.004490      0.016558      0.069512
      1.28280      2.22187      5.37156         0.010301      0.015590      0.066521
      3.84839      2.22187      5.37156         0.006084      0.000775      0.059582
      6.41399      2.22187      5.37156        -0.007152     -0.023930      0.051811
      2.56560      4.44374      5.37156         0.008400     -0.011643      0.069342
      5.13119      4.44374      5.37156        -0.022592      0.003859      0.056941
      7.69679      4.44374      5.37156         0.003088     -0.001966      0.025360
      1.28280      0.74062      7.46636        -0.036765     -0.028331     -0.113190
      3.84839      0.74062      7.46636         0.001771     -0.043133     -0.086638
      6.41399      0.74062      7.46636         0.022468      0.022569     -0.077674
      2.56560      2.96249      7.46636        -0.034084      0.023066     -0.093259
      5.13119      2.96249      7.46636         0.025355      0.012049     -0.057553
      7.69679      2.96249      7.46636        -0.010243      0.000186     -0.045728
      3.84839      5.18437      7.46636         0.030530      0.012894     -0.076462
      6.41399      5.18437      7.46636        -0.005741     -0.004280     -0.037829
      8.97958      5.18437      7.46636        -0.011496     -0.007188      0.056918
      7.69679      1.48128      9.55134         0.015772      0.098942      0.255081
      2.56091      1.47854      9.54628        -0.215715     -0.121878     -0.341061
      5.13587      1.47854      9.54628         0.037362     -0.042972     -0.110040
      8.97673      3.70477      9.56818         0.033604     -0.095149      0.093241
      3.84839      3.70853      9.54628        -0.008446      0.044206     -0.083453
      6.41684      3.70477      9.56818        -0.086536     -0.056654     -0.027490
     10.26235      5.92497      9.55134        -0.009431     -0.002434      0.014121
      5.13122      5.92497      9.55134         0.080455     -0.032022      0.245438
      7.69679      5.92169      9.56818        -0.055639      0.082878      0.086521
      0.00000      0.00000     11.64671        -0.123891     -0.087914     -0.187803
      6.40484      6.65345     11.67351        -0.063435     -0.765299     -0.204857
      8.98873      6.65345     11.67351         0.255319     -0.468121     -0.404723
      8.96447      2.22003     11.67351        -0.683427      0.289933     -0.167880
      6.42910      2.22003     11.67351         0.641685     -0.235343     -0.061247
     10.25642      4.45775     11.67351        -0.283106      0.486400     -0.419015
      5.13715      4.45775     11.67351         0.117378      0.674819     -0.058365
      7.69679      4.44374     11.65978         0.188533      0.128783     -0.114766
      3.84839      2.22187     11.64991         0.203161      0.132381      1.602003
      5.00794      2.88735     12.94892        -0.019017     -0.011400     -0.029336
      2.52288      1.51184     13.15196        -0.009718     -0.005650     -0.002807
      2.71546      1.81069     14.06031         0.001549     -0.001532      0.000958
    total drift:                               -0.005654      0.004322     -0.063239

  FREE ENERGIE OF THE ION-ELECTRON SYSTEM (eV)
  free  energy   TOTEN  =      -149.72976237 eV

  energy  without entropy=     -149.72976237  energy(sigma->0) =     -149.72976237

 stress matrix after NEB project (eV)
     -1.37932      0.02825      0.50550
      0.02825     -1.34975      0.27069
      0.50550      0.27069     -1.86706
  FORCES: max atom, RMS     0.036773    0.006185
  FORCE total and by dimension    0.038628    0.029336
  Stress total and by dimension    2.805256    1.867057
|           W    W    AA    RRRRR   N    N  II  N    N   GGGG   !!!           |
|           W    W   A  A   R    R  NN   N  II  NN   N  G    G  !!!           |
|           W    W  A    A  R    R  N N  N  II  N N  N  G       !!!           |
|           W WW W  AAAAAA  RRRRR   N  N N  II  N  N N  G  GGG   !            |
|           WW  WW  A    A  R   R   N   NN  II  N   NN  G    G                |
|           W    W  A    A  R    R  N    N  II  N    N   GGGG   !!!           |
|     Tetrahedron method does not include variations of the Fermi             |
|     occupations, so forces and stress will be inaccurate. We suggest        |
|     using a different smearing scheme ISMEAR = 1 or 2 for metals in         |
|     relaxations.                                                            |

 total charge

# of ion       s       p       d       tot
    1        0.450   0.282   9.189   9.921
    2        0.448   0.285   9.186   9.919
    3        0.448   0.286   9.185   9.919
    4        0.447   0.286   9.186   9.919
    5        0.449   0.286   9.183   9.917
    6        0.450   0.284   9.186   9.920
    7        0.448   0.285   9.186   9.919
    8        0.449   0.284   9.186   9.920
    9        0.446   0.285   9.187   9.918
   10        0.443   0.369   9.179   9.991
   11        0.441   0.367   9.182   9.990
   12        0.445   0.371   9.176   9.991
   13        0.441   0.367   9.182   9.990
   14        0.441   0.366   9.183   9.990
   15        0.439   0.367   9.180   9.985
   16        0.445   0.371   9.176   9.991
   17        0.439   0.367   9.180   9.985
   18        0.437   0.370   9.178   9.985
   19        0.435   0.377   9.174   9.986
   20        0.471   0.399   9.155  10.026
   21        0.464   0.408   9.151  10.024
   22        0.430   0.373   9.179   9.982
   23        0.464   0.408   9.151  10.023
   24        0.434   0.369   9.184   9.986
   25        0.443   0.363   9.186   9.993
   26        0.435   0.376   9.175   9.986
   27        0.430   0.372   9.180   9.981
   28        0.456   0.284   9.196   9.936
   29        0.435   0.339   9.181   9.956
   30        0.458   0.314   9.183   9.955
   31        0.434   0.358   9.174   9.966
   32        0.434   0.365   9.175   9.974
   33        0.459   0.313   9.184   9.956
   34        0.434   0.364   9.175   9.973
   35        0.450   0.286   9.195   9.931
   36        0.507   0.602   4.374   5.483
   37        1.591   3.332   0.000   4.924
   38        1.553   3.535   0.000   5.088
   39        0.605   0.119   0.000   0.723
tot         19.829  19.534 325.661 365.024

 BZINTS: Fermi energy:   -0.431250;  404.000000 electrons
         Band energy:-0.142842E+04;  BLOECHL correction:   -0.022985