 vasp.6.2.0 18Jan21 (build Jun 12 2021 23:27:24) complex

 executed on             LinuxIFC date 2022.05.26  20:07:11

 INCAR:
   ISMEAR = -5
   SIGMA = 0.1
   ISPIN = 1
   EDIFF = 1.d-5
   EDIFFG = -0.01
   NSW = 0
   NELM = 150
   ENCUT = 500
   ISIF = 2
   IBRION = 2
   LREAL = Auto
   ALGO = Fast
   ICHARG = 11
   LORBIT = 10
   LCHARG = .F.
   LWAVE = .F.

 POTCAR:    PAW_PBE Cu 22Jun2005
 POTCAR:    PAW_PBE Ta 17Jan2003
 POTCAR:    PAW_PBE N 08Apr2002
|           W    W    AA    RRRRR   N    N  II  N    N   GGGG   !!!           |
|           W    W   A  A   R    R  NN   N  II  NN   N  G    G  !!!           |
|           W    W  A    A  R    R  N N  N  II  N N  N  G       !!!           |
|           W WW W  AAAAAA  RRRRR   N  N N  II  N  N N  G  GGG   !            |
|           WW  WW  A    A  R   R   N   NN  II  N   NN  G    G                |
|           W    W  A    A  R    R  N    N  II  N    N   GGGG   !!!           |
|     For optimal performance we recommend to set                             |
|       NCORE = 2 up to number-of-cores-per-socket                            |
|     This setting can greatly improve the performance of VASP for DFT.       |
|     The default, NCORE=1 might be grossly inefficient on modern             |
|     multi-core architectures or massively parallel machines. Do your        |
|     Unfortunately you need to use the default for GW and RPA                |
|     calculations (for HF NCORE is supported but not extensively tested      |
|     yet).                                                                   |

 POTCAR:    PAW_PBE Cu 22Jun2005
   VRHFIN =Cu: d10 p1

   TITEL  = PAW_PBE Cu 22Jun2005
   POMASS =   63.546; ZVAL   =   11.000    mass and valenz
   ENMAX  =  295.446; ENMIN  =  221.585 eV

 POTCAR:    PAW_PBE Ta 17Jan2003
   VRHFIN =Ta:  6s5d

   TITEL  = PAW_PBE Ta 17Jan2003
   POMASS =  180.948; ZVAL   =    5.000    mass and valenz
   ENMAX  =  223.667; ENMIN  =  167.750 eV

 POTCAR:    PAW_PBE N 08Apr2002
   VRHFIN =N: s2p3

   TITEL  = PAW_PBE N 08Apr2002
   POMASS =   14.001; ZVAL   =    5.000    mass and valenz
   ENMAX  =  400.000; ENMIN  =  300.000 eV

 Optimization of the real space projectors (new method)

 maximal supplied QI-value         = 16.25
 optimisation between [QCUT,QGAM] = [ 11.38, 22.75] = [ 36.24,144.96] Ry
 Optimized for a Real-space Cutoff    1.52 Angstroem

   l    n(q)    QCUT    max X(q) W(low)/X(q) W(high)/X(q)  e(spline)
   2      9    11.376     4.610    0.21E-03    0.10E-03    0.26E-06
   2      9    11.376     8.522    0.33E-03    0.16E-03    0.37E-06
   0     10    11.376    51.609    0.62E-04    0.20E-04    0.13E-06
   0     10    11.376    27.747    0.54E-04    0.20E-04    0.13E-06
   1     10    11.376    20.408    0.13E-04    0.99E-04    0.19E-06
   1     10    11.376    13.425    0.12E-04    0.87E-04    0.17E-06
 Optimization of the real space projectors (new method)

[...]

   l    n(q)    QCUT    max X(q) W(low)/X(q) W(high)/X(q)  e(spline)
   2     10    11.437    62.315    0.14E-03    0.26E-03    0.80E-06
   2     10    11.437    52.185    0.14E-03    0.26E-03    0.80E-06
   0     11    11.437   103.837    0.25E-04    0.17E-04    0.84E-07
   0     11    11.437    59.728    0.20E-04    0.15E-04    0.73E-07
   1     11    11.437    13.958    0.47E-03    0.12E-03    0.89E-06
   1     11    11.437     8.441    0.33E-03    0.88E-04    0.61E-06
 Optimization of the real space projectors (new method)

 maximal supplied QI-value         = 25.13
 optimisation between [QCUT,QGAM] = [ 11.31, 22.87] = [ 35.82,146.48] Ry
 Optimized for a Real-space Cutoff    1.27 Angstroem

   l    n(q)    QCUT    max X(q) W(low)/X(q) W(high)/X(q)  e(spline)
   0      9    11.310    79.467    0.75E-04    0.16E-03    0.36E-06
   0      9    11.310    66.151    0.74E-04    0.16E-03    0.36E-06
   1      8    11.310    17.416    0.35E-03    0.12E-03    0.95E-06
   1      8    11.310    12.382    0.37E-03    0.13E-03    0.98E-06
  PAW_PBE Cu 22Jun2005                  :
  PAW_PBE Ta 17Jan2003                  :
  PAW_PBE N 08Apr2002                   :

 POSCAR: Cu-Ta-N
  positions in direct lattice
  velocities in cartesian coordinates
 exchange correlation table for  LEXCH =        8
   RHO(1)=    0.500       N(1)  =     2000
   RHO(2)=  100.500       N(2)  =     4000

 VTST: version 3.2, (02/03/18)

 CHAIN: initializing optimizer

 OPT: Using VASP Conjugate-Gradient optimizer
 CHAIN: Read ICHAIN            0

 POSCAR: Cu-Ta-N
  positions in direct lattice
  velocities in cartesian coordinates

 ion  position               nearest neighbor table
   1  0.000  0.000  0.252-   7 2.57   3 2.57   4 2.57   2 2.57   6 2.57   8 2.57  12 2.57  10 2.57
                            16 2.57
   2  0.333  0.000  0.252-   8 2.57   9 2.57   5 2.57   1 2.57   3 2.57  11 2.57   4 2.57  10 2.57
                            17 2.57
   3  0.667  0.000  0.252-   1 2.57   7 2.57   6 2.57   9 2.57   2 2.57  12 2.57   5 2.57  18 2.57
                            11 2.57
   4  0.000  0.333  0.252-   5 2.57   6 2.57   1 2.57   7 2.57   2 2.57  13 2.57   9 2.57  10 2.57
                            15 2.57
   5  0.333  0.333  0.252-   4 2.57   2 2.57   7 2.57  13 2.57   8 2.57   6 2.57   3 2.57  11 2.57
                            14 2.57
   6  0.667  0.333  0.252-   4 2.57   9 2.57  15 2.57   3 2.57   1 2.57   8 2.57  14 2.57   5 2.57
                            12 2.57
   7  0.000  0.667  0.252-   1 2.57   3 2.57  16 2.57  18 2.57   4 2.57   5 2.57   8 2.57   9 2.57
                            13 2.57
   8  0.333  0.667  0.252-   9 2.57   2 2.57  17 2.57   6 2.57   1 2.57   7 2.57   5 2.57  14 2.57
                            16 2.57
   9  0.667  0.667  0.252-   8 2.57   6 2.57   2 2.57  17 2.57   3 2.57   7 2.57   4 2.57  15 2.57
                            18 2.57
  10  0.111  0.111  0.351-  20 2.55  26 2.56  19 2.56  11 2.57  12 2.57  13 2.57   1 2.57   2 2.57
                             4 2.57  15 2.57  16 2.57  17 2.57
  11  0.444  0.111  0.351-  20 2.56  21 2.56  10 2.57  13 2.57   2 2.57  17 2.57  14 2.57  12 2.57
                             5 2.57   3 2.57  18 2.57  27 2.57
  12  0.778  0.111  0.351-  21 2.55  19 2.56  25 2.56  15 2.57  10 2.57  14 2.57  18 2.57   3 2.57
                             1 2.57  16 2.57  11 2.57   6 2.57
  13  0.111  0.444  0.351-  23 2.56  20 2.56  16 2.57  18 2.57  10 2.57  11 2.57  14 2.57   5 2.57
                             4 2.57   7 2.57  15 2.57  22 2.57
  14  0.444  0.444  0.351-  21 2.56  23 2.56  15 2.57  17 2.57  12 2.57  16 2.57  13 2.57  11 2.57
                             6 2.57   8 2.57   5 2.57  24 2.57
  15  0.778  0.444  0.351-  19 2.56  14 2.57  17 2.57  12 2.57   6 2.57  18 2.57  10 2.57   9 2.57
                            13 2.57   4 2.57  24 2.57  22 2.57
  16  0.111  0.778  0.351-  23 2.55  25 2.56  26 2.56  18 2.57  13 2.57   7 2.57  14 2.57  17 2.57
                            12 2.57  10 2.57   8 2.57   1 2.57
  17  0.444  0.778  0.351-  26 2.56  14 2.57  15 2.57   8 2.57   9 2.57  11 2.57  16 2.57  18 2.57
                            10 2.57   2 2.57  27 2.57  24 2.57
  18  0.778  0.778  0.351-  25 2.56  16 2.57  13 2.57   7 2.57  15 2.57  12 2.57  17 2.57   9 2.57
                             3 2.57  11 2.57  22 2.57  27 2.57
  19  0.889  0.222  0.449-  12 2.56  10 2.56  15 2.56  21 2.56  20 2.56  25 2.56  26 2.56  22 2.57
                            24 2.57  28 2.57  32 2.59  31 2.59
  20  0.222  0.222  0.449-  10 2.55  11 2.56  13 2.56  26 2.56  19 2.56  27 2.57  22 2.57  23 2.58
                            21 2.58  36 2.61  29 2.61  31 2.61
  21  0.557  0.222  0.449-  12 2.55  14 2.56  11 2.56  19 2.56  25 2.56  24 2.57  27 2.57  20 2.58
                            23 2.58  36 2.61  32 2.61  30 2.61
  22  0.888  0.556  0.450-  24 2.56  27 2.56  19 2.57  25 2.57  23 2.57  20 2.57  18 2.57  15 2.57
                            35 2.57  13 2.57  31 2.59  33 2.59
  23  0.222  0.557  0.449-  16 2.55  13 2.56  14 2.56  25 2.56  26 2.56  22 2.57  24 2.57  20 2.58
                            21 2.58  36 2.61  33 2.61  34 2.61
  24  0.556  0.556  0.450-  22 2.56  27 2.56  19 2.57  26 2.57  21 2.57  23 2.57  15 2.57  17 2.57
                            35 2.57  14 2.57  32 2.59  34 2.59
  25  0.889  0.889  0.449-  12 2.56  16 2.56  18 2.56  21 2.56  23 2.56  19 2.56  26 2.56  22 2.57
                            27 2.57  28 2.57  33 2.59  30 2.59
  26  0.222  0.889  0.449-  10 2.56  16 2.56  17 2.56  20 2.56  23 2.56  25 2.56  19 2.56  27 2.57
                            24 2.57  28 2.57  29 2.59  34 2.59
  27  0.556  0.888  0.450-  24 2.56  22 2.56  26 2.57  25 2.57  20 2.57  21 2.57  17 2.57  18 2.57
                            35 2.57  11 2.57  29 2.59  30 2.59
  28  0.000  0.000  0.548-  33 2.55  30 2.55  31 2.55  29 2.55  32 2.55  34 2.55  25 2.57  19 2.57
                            26 2.57
  29  0.333  0.997  0.549-  34 2.52  35 2.55  28 2.55  31 2.59  27 2.59  36 2.59  30 2.59  26 2.59
                            20 2.61
  30  0.670  0.997  0.549-  33 2.52  35 2.55  28 2.55  32 2.59  27 2.59  36 2.59  29 2.59  25 2.59
                            21 2.61
  31  0.997  0.333  0.549-  32 2.52  35 2.55  28 2.55  29 2.59  22 2.59  36 2.59  33 2.59  19 2.59
                            20 2.61
  32  0.670  0.333  0.549-  31 2.52  35 2.55  28 2.55  30 2.59  24 2.59  36 2.59  34 2.59  19 2.59
                            21 2.61
  33  0.997  0.670  0.549-  30 2.52  35 2.55  28 2.55  34 2.59  22 2.59  36 2.59  31 2.59  25 2.59
                            23 2.61
  34  0.333  0.670  0.549-  29 2.52  35 2.55  28 2.55  33 2.59  24 2.59  36 2.59  32 2.59  26 2.59
                            23 2.61
  35  0.667  0.667  0.549-  34 2.55  32 2.55  29 2.55  30 2.55  33 2.55  31 2.55  24 2.57  27 2.57
                            22 2.57
  36  0.333  0.333  0.549-  37 1.78  31 2.59  29 2.59  33 2.59  34 2.59  32 2.59  30 2.59  23 2.61
                            20 2.61  21 2.61
  37  0.333  0.333  0.633-  36 1.78

  LATTYP: Found a hexagonal cell.
 ALAT       =     7.6967864036
 C/A-ratio  =     2.7653617908

  Lattice vectors:

 A1 = (  -3.8483927580,  -6.6656128093,   0.0000000000)
 A2 = (   7.6967864037,   0.0000000000,   0.0000000000)
 A3 = (   0.0000000000,   0.0000000000,  21.2843990326)

Analysis of symmetry for initial positions (statically):
 Subroutine PRICEL returns:
 Original cell was already a primitive cell.

 Routine SETGRP: Setting up the symmetry group for a
 hexagonal supercell.

 Subroutine GETGRP returns: Found  6 space group operations
 (whereof  6 operations were pure point group operations)
 out of a pool of 24 trial point group operations.

The static configuration has the point symmetry C_3v.

Analysis of symmetry for dynamics (positions and initial velocities):
 Subroutine PRICEL returns:
 Original cell was already a primitive cell.

[...]

The dynamic configuration has the point symmetry C_3v.

Analysis of constrained symmetry for selective dynamics:
 Subroutine PRICEL returns:
 Original cell was already a primitive cell.

 Routine SETGRP: Setting up the symmetry group for a
 hexagonal supercell.

 Subroutine GETGRP returns: Found  6 space group operations
[...]
     24      -4.5239      2.00000
     25      -4.3898      2.00000
     26      -4.3449      2.00000
     27      -4.3095      2.00000
     28      -4.3028      2.00000
     29      -4.2584      2.00000
     30      -4.2448      2.00000
     31      -4.2433      2.00000
     32      -4.2344      2.00000
     33      -4.2205      2.00000
     34      -4.2046      2.00000
     35      -4.1844      2.00000
     36      -4.1083      2.00000
     37      -4.0798      2.00000
     38      -3.9374      2.00000
     39      -3.9287      2.00000
     40      -3.8838      2.00000
     41      -3.8547      2.00000
     42      -3.8464      2.00000
     43      -3.8280      2.00000
     44      -3.8238      2.00000
     45      -3.8061      2.00000
     46      -3.8023      2.00000
     47      -3.6487      2.00000
     48      -3.6127      2.00000
     49      -3.6081      2.00000
     50      -3.5901      2.00000
     51      -3.5481      2.00000
     52      -3.5335      2.00000
     53      -3.5223      2.00000
     54      -3.5176      2.00000
     55      -3.5037      2.00000
     56      -3.4978      2.00000
     57      -3.4696      2.00000
     58      -3.4647      2.00000
     59      -3.4523      2.00000
     60      -3.4484      2.00000
[...]
    238       6.4732      0.00000
    239       6.5044      0.00000
    240       6.5433      0.00000
    241       7.0865      0.00000
    242       7.0936      0.00000
    243       7.0980      0.00000
    244       7.1192      0.00000
    245       7.2039      0.00000
    246       7.2722      0.00000
    247       7.4185      0.00000
    248       7.4948      0.00000
    249       7.5665      0.00000
    250       7.6812      0.00000
    251       7.8102      0.00000
    252       7.9350      0.00000

 soft charge-density along one line, spin component           1
         0         1         2         3         4         5         6         7         8         9
 total charge-density along one line

------------------------ aborting loop because EDIFF is reached ----------------------------------------

 total charge

# of ion       s       p       d       tot
    1        0.449   0.284   9.189   9.921
    2        0.448   0.285   9.186   9.919
    3        0.448   0.285   9.186   9.919
    4        0.448   0.285   9.186   9.919
    5        0.449   0.284   9.184   9.918
    6        0.448   0.285   9.186   9.919
    7        0.448   0.285   9.186   9.919
    8        0.448   0.285   9.186   9.919
    9        0.448   0.284   9.188   9.920
   10        0.441   0.371   9.178   9.990
   11        0.441   0.367   9.181   9.989
   12        0.441   0.371   9.178   9.990
   13        0.441   0.367   9.181   9.989
   14        0.441   0.367   9.181   9.989
   15        0.438   0.370   9.177   9.985
   16        0.441   0.371   9.178   9.990
   17        0.438   0.370   9.177   9.985
   18        0.438   0.370   9.177   9.985
   19        0.441   0.365   9.182   9.988
   20        0.458   0.390   9.174  10.021
   21        0.458   0.390   9.174  10.021
   22        0.431   0.371   9.179   9.981
   23        0.458   0.390   9.174  10.021
   24        0.431   0.371   9.179   9.981
   25        0.441   0.365   9.182   9.988
   26        0.441   0.365   9.182   9.988
   27        0.431   0.371   9.179   9.981
   28        0.450   0.292   9.183   9.926
   29        0.472   0.307   9.175   9.954
   30        0.472   0.307   9.175   9.954
   31        0.472   0.307   9.175   9.954
   32        0.472   0.307   9.175   9.954
   33        0.472   0.307   9.175   9.954
   34        0.472   0.307   9.175   9.954
   35        0.450   0.294   9.181   9.925
   36        0.799   0.828   3.825   5.451
   37        1.332   2.212   0.000   3.545
tot         17.843  14.730 325.126 357.700

  FORCE on cell =-STRESS in cart. coord.  units (eV):
  Direction    XX          YY          ZZ          XY          YZ          ZX
  Alpha Z   889.64726   889.64726   889.64726
  Ewald  169570.75807169570.75772************     0.00036     0.00013     0.00016
  Hartree182396.53504182396.53506************     0.00002     0.00007     0.00006
  E(xc)   -2289.81704 -2289.81656 -2297.35078    -0.00041    -0.00003    -0.00006
  Local  ************************364923.16434     0.01863    -0.00061    -0.00093
  n-local  -772.22326  -760.39714  -783.02834     6.53599    -0.13862     0.31034
  augment  3309.29952  3309.31968  3333.76793    -0.01744     0.00031     0.00046
  Kinetic  3277.73480  3279.83037  3309.30519     2.62010     1.87375    -1.25008
  Fock        0.00000     0.00000     0.00000     0.00000     0.00000     0.00000
  Total      -2.08150    -2.08150     0.29857     0.00000     0.00000     0.00000
  in kB      -3.05405    -3.05405     0.43807     0.00000     0.00000     0.00000

 VOLUME and BASIS-vectors are now :
  energy-cutoff  :      500.00
  volume of cell :     1091.97
      direct lattice vectors                 reciprocal lattice vectors
     7.696786404  0.000000000  0.000000000     0.129924354 -0.075011849  0.000000000
     3.848392758  6.665612809  0.000000000     0.000000000  0.150023716  0.000000000
     0.000000000  0.000000000 21.284399033     0.000000000  0.000000000  0.046982769

  length of vectors
     7.696786404  7.696786404 21.284399033     0.150023716  0.150023716  0.046982769

 FORCES acting on ions
    electron-ion (+dipol)            ewald-force                    non-local-force                 convergence-correction
   -.416E-04 0.166E-06 0.345E+04   0.581E-04 -.426E-05 -.345E+04   0.106E-16 0.353E-17 -.217E+01   -.364E-03 -.176E-03 -.191E+00
   -.918E+00 -.730E+00 0.345E+04   0.815E+00 0.629E+00 -.345E+04   0.287E-01 0.712E-01 -.192E+01   0.758E-01 0.309E-01 -.156E+00
   0.918E+00 -.730E+00 0.345E+04   -.815E+00 0.629E+00 -.345E+04   -.287E-01 0.712E-01 -.192E+01   -.749E-01 0.333E-01 -.155E+00
   -.109E+01 -.430E+00 0.345E+04   0.952E+00 0.391E+00 -.345E+04   0.760E-01 -.108E-01 -.192E+01   0.647E-01 0.502E-01 -.156E+00
   -.642E-04 -.483E-05 0.345E+04   0.116E-03 -.101E-04 -.345E+04   -.182E-19 0.269E-17 -.187E+01   0.121E-01 0.742E-02 -.108E+00
   0.109E+01 -.430E+00 0.345E+04   -.952E+00 0.391E+00 -.345E+04   -.760E-01 -.108E-01 -.192E+01   -.662E-01 0.513E-01 -.155E+00
   -.173E+00 0.116E+01 0.345E+04   0.137E+00 -.102E+01 -.345E+04   0.473E-01 -.604E-01 -.192E+01   -.861E-02 -.816E-01 -.155E+00
   0.173E+00 0.116E+01 0.345E+04   -.138E+00 -.102E+01 -.345E+04   -.473E-01 -.604E-01 -.192E+01   0.119E-01 -.830E-01 -.155E+00
   -.143E-03 -.327E-04 0.345E+04   0.263E-03 0.204E-04 -.345E+04   -.315E-17 0.155E-17 -.213E+01   -.131E-01 -.679E-02 -.140E+00
   -.574E+01 -.331E+01 0.114E+04   0.584E+01 0.337E+01 -.114E+04   -.205E+00 -.118E+00 -.703E+00   0.881E-01 0.512E-01 -.139E+00
   -.911E-04 -.637E+01 0.112E+04   0.190E-03 0.616E+01 -.112E+04   -.123E-07 0.185E+00 -.587E+00   0.120E-01 0.664E-02 -.161E+00
   0.574E+01 -.331E+01 0.114E+04   -.584E+01 0.337E+01 -.114E+04   0.205E+00 -.118E+00 -.703E+00   -.899E-01 0.515E-01 -.140E+00
   -.551E+01 0.318E+01 0.112E+04   0.533E+01 -.308E+01 -.112E+04   0.160E+00 -.927E-01 -.587E+00   0.120E-01 0.800E-02 -.161E+00
   0.551E+01 0.318E+01 0.112E+04   -.533E+01 -.308E+01 -.112E+04   -.160E+00 -.927E-01 -.587E+00   0.111E-01 0.611E-02 -.164E+00
   -.140E-03 -.199E+01 0.114E+04   0.296E-03 0.194E+01 -.113E+04   -.394E-08 0.591E-01 -.790E+00   -.292E-02 0.731E-02 -.177E+00
   -.921E-04 0.663E+01 0.114E+04   0.187E-03 -.674E+01 -.114E+04   -.157E-07 0.236E+00 -.703E+00   -.125E-02 -.105E+00 -.139E+00
   -.172E+01 0.994E+00 0.114E+04   0.168E+01 -.969E+00 -.113E+04   0.512E-01 -.296E-01 -.790E+00   0.563E-02 -.666E-02 -.178E+00
   0.172E+01 0.994E+00 0.114E+04   -.168E+01 -.969E+00 -.113E+04   -.512E-01 -.296E-01 -.790E+00   -.367E-02 -.405E-02 -.175E+00
   -.664E-04 -.838E+01 -.117E+04   0.723E-04 0.824E+01 0.117E+04   -.447E-08 0.671E-01 0.131E+01   0.902E-03 0.699E-01 -.220E+00
   -.617E+02 -.356E+02 -.125E+04   0.614E+02 0.354E+02 0.125E+04   -.168E-01 -.968E-02 0.886E+00   -.280E-01 -.152E-01 -.335E+00
   0.617E+02 -.356E+02 -.125E+04   -.614E+02 0.354E+02 0.125E+04   0.168E-01 -.968E-02 0.886E+00   0.729E-02 -.192E-01 -.337E+00
   -.315E+02 0.182E+02 -.119E+04   0.311E+02 -.179E+02 0.119E+04   0.441E+00 -.255E+00 0.104E+01   0.439E-01 -.123E-01 -.304E+00
   -.845E-04 0.712E+02 -.125E+04   0.152E-03 -.709E+02 0.125E+04   -.129E-08 0.194E-01 0.886E+00   -.143E-01 0.154E-01 -.337E+00
   0.315E+02 0.182E+02 -.119E+04   -.311E+02 -.179E+02 0.119E+04   -.441E+00 -.255E+00 0.104E+01   -.198E-01 -.133E-01 -.304E+00
   0.726E+01 0.419E+01 -.117E+04   -.714E+01 -.412E+01 0.117E+04   -.581E-01 -.335E-01 0.131E+01   -.613E-01 -.363E-01 -.220E+00
   -.726E+01 0.419E+01 -.117E+04   0.714E+01 -.412E+01 0.117E+04   0.581E-01 -.335E-01 0.131E+01   0.382E-01 -.344E-01 -.220E+00
   -.120E-03 -.364E+02 -.119E+04   0.239E-03 0.359E+02 0.119E+04   -.339E-07 0.510E+00 0.104E+01   0.127E-01 0.439E-01 -.304E+00
   -.445E-04 0.131E-04 -.340E+04   0.449E-04 -.312E-04 0.340E+04   -.836E-18 -.219E-17 0.181E+01   -.174E-02 -.121E-02 0.164E+00
   -.439E+02 -.812E+02 -.340E+04   0.440E+02 0.811E+02 0.340E+04   -.212E+00 -.143E+00 0.245E+01   0.310E-02 0.200E-01 0.788E-01
   0.439E+02 -.812E+02 -.340E+04   -.440E+02 0.811E+02 0.340E+04   0.212E+00 -.143E+00 0.245E+01   0.196E-01 0.206E-01 0.774E-01
   -.923E+02 0.256E+01 -.340E+04   0.922E+02 -.243E+01 0.340E+04   -.230E+00 -.112E+00 0.245E+01   0.186E-01 -.717E-02 0.780E-01
   0.923E+02 0.256E+01 -.340E+04   -.922E+02 -.243E+01 0.340E+04   0.230E+00 -.112E+00 0.245E+01   0.358E-02 -.660E-02 0.792E-01
   -.484E+02 0.786E+02 -.340E+04   0.482E+02 -.787E+02 0.340E+04   -.179E-01 0.255E+00 0.245E+01   0.276E-01 0.652E-02 0.771E-01
   0.484E+02 0.786E+02 -.340E+04   -.482E+02 -.787E+02 0.340E+04   0.179E-01 0.255E+00 0.245E+01   -.366E-02 0.626E-02 0.794E-01
   -.143E-03 -.238E-04 -.342E+04   0.249E-03 0.408E-07 0.342E+04   0.463E-18 -.269E-17 0.209E+01   -.136E-01 -.741E-02 0.124E+00
   -.284E-04 -.825E-05 -.145E+04   0.604E-04 0.127E-04 0.145E+04   0.621E-17 0.834E-18 -.172E+01   -.327E-03 -.113E-03 0.180E-01
   0.104E-03 -.490E-04 -.174E+04   0.135E-04 0.629E-05 0.175E+04   0.312E-18 0.592E-19 -.164E+02   0.106E-02 0.669E-03 0.166E-01
   -.180E-03 -.557E-04 0.184E+02   0.791E-13 0.371E-12 0.127E-10   0.115E-15 -.180E-17 -.138E+02   0.663E-01 0.467E-01 -.459E+01

 POSITION                                       TOTAL-FORCE (eV/Angst)
      0.00000      0.00000      5.37156        -0.000000     -0.000000      0.016899
      2.56560      0.00000      5.37156         0.002000      0.002372      0.052962
      5.13119      0.00000      5.37156        -0.002000      0.002372      0.052962
      1.28280      2.22187      5.37156         0.003055      0.000546      0.052962
      3.84839      2.22187      5.37156        -0.000000     -0.000000      0.038690
      6.41399      2.22187      5.37156        -0.003055      0.000546      0.052962
      2.56560      4.44374      5.37156         0.001055     -0.002918      0.052962
      5.13119      4.44374      5.37156        -0.001055     -0.002918      0.052962
      7.69679      4.44374      5.37156        -0.000000      0.000000      0.030782
      1.28280      0.74062      7.46636        -0.019699     -0.011373     -0.068600
      3.84839      0.74062      7.46636         0.000000     -0.021833     -0.035517
      6.41399      0.74062      7.46636         0.019699     -0.011373     -0.068600
      2.56560      2.96249      7.46636        -0.018908      0.010917     -0.035517
      5.13119      2.96249      7.46636         0.018908      0.010917     -0.035517
      7.69679      2.96249      7.46636        -0.000000      0.014950      0.029776
      3.84839      5.18437      7.46636        -0.000000      0.022747     -0.068600
      6.41399      5.18437      7.46636         0.012947     -0.007475      0.029776
      8.97958      5.18437      7.46636        -0.012947     -0.007475      0.029776
      7.69679      1.48082      9.55187         0.000000     -0.010781      0.100053
      2.55960      1.47778      9.55047        -0.364574     -0.210487     -0.409054
      5.13719      1.47778      9.55047         0.364574     -0.210487     -0.409054
      8.97653      3.70488      9.56926         0.051881     -0.029953      0.058367
      3.84839      3.71005      9.55047        -0.000000      0.420974     -0.409054
      6.41705      3.70488      9.56926        -0.051881     -0.029953      0.058367
     10.26275      5.92520      9.55187         0.009337      0.005391      0.100053
      5.13082      5.92520      9.55187        -0.009337      0.005391      0.100053
      7.69679      5.92146      9.56926        -0.000000      0.059907      0.058367
      0.00000      0.00000     11.65662        -0.000000     -0.000000     -0.121185
      6.40243      6.64574     11.69071        -0.132330     -0.230824     -0.077687
      8.99114      6.64574     11.69071         0.132330     -0.230824     -0.077687
      8.95659      2.22180     11.69071        -0.266064      0.000810     -0.077687
      6.43698      2.22180     11.69071         0.266064      0.000810     -0.077687
     10.25095      4.46369     11.69071        -0.133734      0.230013     -0.077687
      5.14262      4.46369     11.69071         0.133734      0.230013     -0.077687
      7.69679      4.44374     11.67656        -0.000000     -0.000000     -0.133587
      3.84839      2.22187     11.69355        -0.000000     -0.000000      1.313050
      3.84839      2.22187     13.47303        -0.000000     -0.000000     -0.021372
    total drift:                                0.066158      0.046595     -0.035677

  FREE ENERGIE OF THE ION-ELECTRON SYSTEM (eV)
  free  energy   TOTEN  =      -140.47959905 eV

  energy  without entropy=     -140.47959905  energy(sigma->0) =     -140.47959905

 stress matrix after NEB project (eV)
     -2.08150      0.00000      0.00000
      0.00000     -2.08150     -0.00000
     -0.00000      0.00000      0.29857
  FORCES: max atom, RMS     0.021372    0.003513
  FORCE total and by dimension    0.021372    0.021372
  Stress total and by dimension    2.958789    2.081500
|           W    W    AA    RRRRR   N    N  II  N    N   GGGG   !!!           |
|           W    W   A  A   R    R  NN   N  II  NN   N  G    G  !!!           |
|           W    W  A    A  R    R  N N  N  II  N N  N  G       !!!           |
|           W WW W  AAAAAA  RRRRR   N  N N  II  N  N N  G  GGG   !            |
|           WW  WW  A    A  R   R   N   NN  II  N   NN  G    G                |
|           W    W  A    A  R    R  N    N  II  N    N   GGGG   !!!           |
|     Tetrahedron method does not include variations of the Fermi             |
|     occupations, so forces and stress will be inaccurate. We suggest        |
|     using a different smearing scheme ISMEAR = 1 or 2 for metals in         |
|     relaxations.                                                            |

 total charge

# of ion       s       p       d       tot
    1        0.449   0.284   9.189   9.921
    2        0.448   0.285   9.186   9.919
    3        0.448   0.285   9.186   9.919
    4        0.448   0.285   9.186   9.919
    5        0.449   0.284   9.184   9.918
    6        0.448   0.285   9.186   9.919
    7        0.448   0.285   9.186   9.919
    8        0.448   0.285   9.186   9.919
    9        0.448   0.284   9.188   9.920
   10        0.441   0.371   9.178   9.990
   11        0.441   0.367   9.181   9.989
   12        0.441   0.371   9.178   9.990
   13        0.441   0.367   9.181   9.989
   14        0.441   0.367   9.181   9.989
   15        0.438   0.370   9.177   9.985
   16        0.441   0.371   9.178   9.990
   17        0.438   0.370   9.177   9.985
   18        0.438   0.370   9.177   9.985
   19        0.441   0.365   9.182   9.988
   20        0.458   0.390   9.174  10.021
   21        0.458   0.390   9.174  10.021
   22        0.431   0.371   9.179   9.981
   23        0.458   0.390   9.174  10.021
   24        0.431   0.371   9.179   9.981
   25        0.441   0.365   9.182   9.988
   26        0.441   0.365   9.182   9.988
   27        0.431   0.371   9.179   9.981
   28        0.450   0.292   9.183   9.926
   29        0.472   0.307   9.175   9.954
   30        0.472   0.307   9.175   9.954
   31        0.472   0.307   9.175   9.954
   32        0.472   0.307   9.175   9.954
   33        0.472   0.307   9.175   9.954
   34        0.472   0.307   9.175   9.954
   35        0.450   0.294   9.181   9.925
   36        0.799   0.828   3.825   5.451
   37        1.332   2.212   0.000   3.545
tot         17.843  14.730 325.126 357.700

 BZINTS: Fermi energy:   -0.097589;  395.000000 electrons
         Band energy:-0.119074E+04;  BLOECHL correction:   -0.065139