 vasp.6.2.0 18Jan21 (build Jun 12 2021 23:27:24) complex

 executed on             LinuxIFC date 2022.05.30  18:32:33

 INCAR:
   ISMEAR = -5
   SIGMA = 0.1
   ISPIN = 1
   EDIFF = 1.d-5
   EDIFFG = -0.01
   NSW = 0
   NELM = 150
   ENCUT = 500
   ISIF = 2
   IBRION = 2
   LREAL = Auto
   ALGO = Fast
   ICHARG = 11
   LORBIT = 10
   LCHARG = .F.
   LWAVE = .F.

 POTCAR:    PAW_PBE Cu 22Jun2005
 POTCAR:    PAW_PBE Hf 20Jan2003
 POTCAR:    PAW_PBE O 08Apr2002
|           W    W    AA    RRRRR   N    N  II  N    N   GGGG   !!!           |
|           W    W   A  A   R    R  NN   N  II  NN   N  G    G  !!!           |
|           W    W  A    A  R    R  N N  N  II  N N  N  G       !!!           |
|           W WW W  AAAAAA  RRRRR   N  N N  II  N  N N  G  GGG   !            |
|           WW  WW  A    A  R   R   N   NN  II  N   NN  G    G                |
|           W    W  A    A  R    R  N    N  II  N    N   GGGG   !!!           |
|     For optimal performance we recommend to set                             |
|       NCORE = 2 up to number-of-cores-per-socket                            |
|     This setting can greatly improve the performance of VASP for DFT.       |
|     The default, NCORE=1 might be grossly inefficient on modern             |
|     multi-core architectures or massively parallel machines. Do your        |
|     Unfortunately you need to use the default for GW and RPA                |
|     calculations (for HF NCORE is supported but not extensively tested      |
|     yet).                                                                   |

 POTCAR:    PAW_PBE Cu 22Jun2005
   VRHFIN =Cu: d10 p1

   TITEL  = PAW_PBE Cu 22Jun2005
   POMASS =   63.546; ZVAL   =   11.000    mass and valenz
   ENMAX  =  295.446; ENMIN  =  221.585 eV

 POTCAR:    PAW_PBE Hf 20Jan2003
   VRHFIN =Hf: 6s5d

   TITEL  = PAW_PBE Hf 20Jan2003
   POMASS =  178.490; ZVAL   =    4.000    mass and valenz
   ENMAX  =  220.334; ENMIN  =  165.250 eV

 POTCAR:    PAW_PBE O 08Apr2002
   VRHFIN =O: s2p4

   TITEL  = PAW_PBE O 08Apr2002
   POMASS =   16.000; ZVAL   =    6.000    mass and valenz
   ENMAX  =  400.000; ENMIN  =  300.000 eV

 Optimization of the real space projectors (new method)

 maximal supplied QI-value         = 16.25
 optimisation between [QCUT,QGAM] = [ 11.38, 22.75] = [ 36.24,144.96] Ry
 Optimized for a Real-space Cutoff    1.52 Angstroem

   l    n(q)    QCUT    max X(q) W(low)/X(q) W(high)/X(q)  e(spline)
   2      9    11.376     4.610    0.21E-03    0.10E-03    0.26E-06
   2      9    11.376     8.522    0.33E-03    0.16E-03    0.37E-06
   0     10    11.376    51.609    0.62E-04    0.20E-04    0.13E-06
   0     10    11.376    27.747    0.54E-04    0.20E-04    0.13E-06
   1     10    11.376    20.408    0.13E-04    0.99E-04    0.19E-06
   1     10    11.376    13.425    0.12E-04    0.87E-04    0.17E-06
 Optimization of the real space projectors (new method)

[...]

   l    n(q)    QCUT    max X(q) W(low)/X(q) W(high)/X(q)  e(spline)
   2     10    11.350    48.111    0.20E-03    0.11E-03    0.41E-06
   2     10    11.350    40.545    0.19E-03    0.10E-03    0.39E-06
   0     11    11.350   121.658    0.22E-04    0.19E-04    0.24E-06
   0     11    11.350    71.177    0.17E-04    0.17E-04    0.23E-06
   1     11    11.350    14.183    0.25E-03    0.43E-03    0.12E-05
   1     11    11.350     8.257    0.17E-03    0.29E-03    0.81E-06
 Optimization of the real space projectors (new method)

 maximal supplied QI-value         = 24.76
 optimisation between [QCUT,QGAM] = [ 11.39, 22.77] = [ 36.31,145.25] Ry
 Optimized for a Real-space Cutoff    1.00 Angstroem

   l    n(q)    QCUT    max X(q) W(low)/X(q) W(high)/X(q)  e(spline)
   0      7    11.387    20.381    0.39E-03    0.13E-02    0.15E-06
   0      7    11.387    15.268    0.42E-03    0.14E-02    0.17E-06
   1      6    11.387     5.964    0.41E-03    0.11E-02    0.17E-06
   1      6    11.387     5.382    0.39E-03    0.87E-03    0.15E-06
  PAW_PBE Cu 22Jun2005                  :
  PAW_PBE Hf 20Jan2003                  :
  PAW_PBE O 08Apr2002                   :

 POSCAR: Cu-Hf-O2
  positions in direct lattice
  velocities in cartesian coordinates
 exchange correlation table for  LEXCH =        8
   RHO(1)=    0.500       N(1)  =     2000
   RHO(2)=  100.500       N(2)  =     4000

 VTST: version 3.2, (02/03/18)

 CHAIN: initializing optimizer

 OPT: Using VASP Conjugate-Gradient optimizer
 CHAIN: Read ICHAIN            0

 POSCAR: Cu-Hf-O2
  positions in direct lattice
  velocities in cartesian coordinates

 ion  position               nearest neighbor table
   1  0.000  0.000  0.226-   7 2.57   3 2.57   4 2.57   2 2.57   6 2.57   8 2.57  12 2.57  10 2.57
                            16 2.57
   2  0.333  0.000  0.226-   8 2.57   9 2.57   5 2.57   1 2.57   3 2.57  11 2.57   4 2.57  10 2.57
                            17 2.57
   3  0.667  0.000  0.226-   1 2.57   7 2.57   6 2.57   9 2.57   2 2.57  12 2.57   5 2.57  18 2.57
                            11 2.57
   4  0.000  0.333  0.226-   5 2.57   6 2.57   1 2.57   7 2.57   2 2.57  13 2.57   9 2.57  10 2.57
                            15 2.57
   5  0.333  0.333  0.226-   4 2.57   2 2.57   7 2.57  13 2.57   8 2.57   6 2.57   3 2.57  11 2.57
                            14 2.57
   6  0.667  0.333  0.226-   4 2.57   9 2.57  15 2.57   3 2.57   1 2.57   8 2.57  14 2.57   5 2.57
                            12 2.57
   7  0.000  0.667  0.226-   1 2.57   3 2.57  16 2.57  18 2.57   4 2.57   5 2.57   8 2.57   9 2.57
                            13 2.57
   8  0.333  0.667  0.226-   9 2.57   2 2.57  17 2.57   6 2.57   1 2.57   7 2.57   5 2.57  14 2.57
                            16 2.57
   9  0.667  0.667  0.226-   8 2.57   6 2.57   2 2.57  17 2.57   3 2.57   7 2.57   4 2.57  15 2.57
                            18 2.57
  10  0.111  0.111  0.314-  26 2.54  19 2.54  11 2.57  12 2.57  13 2.57   1 2.57   2 2.57   4 2.57
                            15 2.57  16 2.57  17 2.57  20 2.58
  11  0.444  0.111  0.314-  27 2.56  10 2.57  13 2.57   2 2.57  17 2.57  14 2.57  12 2.57   5 2.57
                             3 2.57  18 2.57  20 2.57  21 2.57
  12  0.778  0.111  0.314-  19 2.54  25 2.54  15 2.57  10 2.57  14 2.57  18 2.57   3 2.57   1 2.57
                            16 2.57  11 2.57   6 2.57  21 2.58
  13  0.111  0.444  0.314-  22 2.56  16 2.57  18 2.57  10 2.57  11 2.57  14 2.57   5 2.57   4 2.57
                             7 2.57  15 2.57  23 2.57  20 2.57
  14  0.444  0.444  0.314-  24 2.56  15 2.57  17 2.57  12 2.57  16 2.57  13 2.57  11 2.57   6 2.57
                             8 2.57   5 2.57  21 2.57  23 2.57
  15  0.778  0.444  0.314-  19 2.55  24 2.56  22 2.56  14 2.57  17 2.57  12 2.57   6 2.57  18 2.57
                            10 2.57   9 2.57  13 2.57   4 2.57
  16  0.111  0.778  0.314-  25 2.54  26 2.54  18 2.57  13 2.57   7 2.57  14 2.57  17 2.57  12 2.57
                            10 2.57   8 2.57   1 2.57  23 2.58
  17  0.444  0.778  0.314-  26 2.55  27 2.56  24 2.56  14 2.57  15 2.57   8 2.57   9 2.57  11 2.57
                            16 2.57  18 2.57  10 2.57   2 2.57
  18  0.778  0.778  0.314-  25 2.55  22 2.56  27 2.56  16 2.57  13 2.57   7 2.57  15 2.57  12 2.57
                            17 2.57   9 2.57   3 2.57  11 2.57
  19  0.889  0.221  0.401-  12 2.54  10 2.54  15 2.55  25 2.56  26 2.56  32 2.57  31 2.57  22 2.57
                            24 2.57  21 2.57  20 2.57  28 2.57
  20  0.223  0.223  0.402-  23 2.55  21 2.55  27 2.57  22 2.57  26 2.57  19 2.57  11 2.57  13 2.57
                            10 2.58  29 2.58  31 2.58  36 2.77
  21  0.555  0.223  0.402-  20 2.55  23 2.55  24 2.57  27 2.57  19 2.57  25 2.57  14 2.57  11 2.57
                            12 2.58  32 2.58  30 2.58  36 2.77
  22  0.889  0.556  0.402-  18 2.56  15 2.56  13 2.56  24 2.56  27 2.56  23 2.57  20 2.57  31 2.57
                            33 2.57  19 2.57  25 2.57  35 2.58
  23  0.223  0.555  0.402-  20 2.55  21 2.55  22 2.57  24 2.57  25 2.57  26 2.57  13 2.57  14 2.57
                            16 2.58  33 2.58  34 2.58  36 2.77
  24  0.556  0.556  0.402-  15 2.56  17 2.56  14 2.56  22 2.56  27 2.56  21 2.57  23 2.57  32 2.57
                            34 2.57  19 2.57  26 2.57  35 2.58
  25  0.889  0.889  0.401-  12 2.54  16 2.54  18 2.55  19 2.56  26 2.56  33 2.57  30 2.57  22 2.57
                            27 2.57  21 2.57  23 2.57  28 2.57
  26  0.221  0.889  0.401-  10 2.54  16 2.54  17 2.55  25 2.56  19 2.56  29 2.57  34 2.57  27 2.57
                            24 2.57  20 2.57  23 2.57  28 2.57
  27  0.556  0.889  0.402-  17 2.56  18 2.56  11 2.56  24 2.56  22 2.56  20 2.57  21 2.57  29 2.57
                            30 2.57  26 2.57  25 2.57  35 2.58
  28  0.000  0.000  0.489-  33 2.55  30 2.55  31 2.55  29 2.55  32 2.55  34 2.55  25 2.57  19 2.57
                            26 2.57
  29  0.334  0.994  0.490-  34 2.48  35 2.54  28 2.55  26 2.57  27 2.57  20 2.58  30 2.60  31 2.61
                            36 2.62
  30  0.672  0.994  0.490-  33 2.48  35 2.54  28 2.55  25 2.57  27 2.57  21 2.58  29 2.60  32 2.61
                            36 2.62
  31  0.994  0.334  0.490-  32 2.48  35 2.54  28 2.55  19 2.57  22 2.57  20 2.58  33 2.60  29 2.61
                            36 2.62
  32  0.672  0.334  0.490-  31 2.48  35 2.54  28 2.55  19 2.57  24 2.57  21 2.58  34 2.60  30 2.61
                            36 2.62
  33  0.994  0.672  0.490-  30 2.48  35 2.54  28 2.55  25 2.57  22 2.57  23 2.58  31 2.60  34 2.61
                            36 2.62
  34  0.334  0.672  0.490-  29 2.48  35 2.54  28 2.55  26 2.57  24 2.57  23 2.58  32 2.60  33 2.61
                            36 2.62
  35  0.667  0.667  0.490-  34 2.54  32 2.54  29 2.54  30 2.54  33 2.54  31 2.54  24 2.58  27 2.58
                            22 2.58
  36  0.333  0.333  0.501-  38 2.01  37 2.01  31 2.62  29 2.62  33 2.62  32 2.62  34 2.62  30 2.62
                            23 2.77  20 2.77  21 2.77
  37  0.238  0.333  0.579-  38 1.47  36 2.01
  38  0.429  0.333  0.579-  37 1.47  36 2.01

  LATTYP: Found a hexagonal cell.
 ALAT       =     7.6967864036
 C/A-ratio  =     3.0908716217

  Lattice vectors:

 A1 = (  -3.8483927580,  -6.6656128093,   0.0000000000)
 A2 = (   7.6967864037,   0.0000000000,   0.0000000000)
 A3 = (   0.0000000000,   0.0000000000,  23.7897786731)

Analysis of symmetry for initial positions (statically):
 Subroutine PRICEL returns:
 Original cell was already a primitive cell.

 Routine SETGRP: Setting up the symmetry group for a
 hexagonal supercell.

 Subroutine GETGRP returns: Found  2 space group operations
 (whereof  2 operations were pure point group operations)
 out of a pool of 24 trial point group operations.

The static configuration has the point symmetry C_1h.

Analysis of symmetry for dynamics (positions and initial velocities):
 Subroutine PRICEL returns:
 Original cell was already a primitive cell.

[...]

The dynamic configuration has the point symmetry C_1h.

Analysis of constrained symmetry for selective dynamics:
 Subroutine PRICEL returns:
 Original cell was already a primitive cell.

 Routine SETGRP: Setting up the symmetry group for a
 hexagonal supercell.

[...]
     33      -4.7624      2.00000
     34      -4.7464      2.00000
     35      -4.7435      2.00000
     36      -4.7354      2.00000
     37      -4.7310      2.00000
     38      -4.6754      2.00000
     39      -4.6307      2.00000
     40      -4.6006      2.00000
     41      -4.5766      2.00000
     42      -4.4356      2.00000
     43      -4.4153      2.00000
     44      -4.3648      2.00000
     45      -4.3552      2.00000
     46      -4.3384      2.00000
     47      -4.3281      2.00000
     48      -4.3216      2.00000
     49      -4.3123      2.00000
     50      -4.2967      2.00000
     51      -4.1632      2.00000
     52      -4.1311      2.00000
     53      -4.1142      2.00000
     54      -4.0997      2.00000
     55      -4.0472      2.00000
     56      -4.0338      2.00000
     57      -4.0213      2.00000
     58      -4.0145      2.00000
     59      -4.0018      2.00000
     60      -3.9968      2.00000
[...]
    238       5.4720      0.00000
    239       5.6042      0.00000
    240       5.6406      0.00000
    241       5.8910      0.00000
    242       5.9501      0.00000
    243       6.1893      0.00000
    244       6.2716      0.00000
    245       6.2994      0.00000
    246       6.4252      0.00000
    247       6.4849      0.00000
    248       6.5822      0.00000
    249       6.6778      0.00000
    250       6.7458      0.00000
    251       6.7955      0.00000
    252       6.8296      0.00000

 soft charge-density along one line, spin component           1
         0         1         2         3         4         5         6         7         8         9
 total charge-density along one line

------------------------ aborting loop because EDIFF is reached ----------------------------------------

 total charge

# of ion       s       p       d       tot
    1        0.450   0.283   9.188   9.921
    2        0.448   0.285   9.187   9.920
    3        0.448   0.285   9.187   9.920
    4        0.448   0.284   9.188   9.920
    5        0.449   0.284   9.186   9.918
    6        0.448   0.284   9.188   9.920
    7        0.448   0.285   9.187   9.920
    8        0.448   0.285   9.187   9.920
    9        0.448   0.284   9.189   9.921
   10        0.442   0.370   9.179   9.992
   11        0.440   0.366   9.182   9.987
   12        0.442   0.370   9.179   9.992
   13        0.440   0.365   9.182   9.987
   14        0.440   0.365   9.182   9.987
   15        0.439   0.372   9.178   9.989
   16        0.443   0.370   9.178   9.991
   17        0.440   0.372   9.178   9.990
   18        0.440   0.372   9.178   9.990
   19        0.442   0.371   9.181   9.993
   20        0.455   0.384   9.167  10.006
   21        0.455   0.384   9.167  10.006
   22        0.435   0.373   9.177   9.986
   23        0.457   0.382   9.169  10.008
   24        0.435   0.373   9.177   9.986
   25        0.444   0.370   9.181   9.996
   26        0.444   0.370   9.181   9.996
   27        0.436   0.372   9.179   9.987
   28        0.451   0.294   9.182   9.928
   29        0.479   0.312   9.177   9.968
   30        0.479   0.312   9.177   9.968
   31        0.482   0.297   9.188   9.967
   32        0.482   0.297   9.188   9.967
   33        0.479   0.312   9.177   9.968
   34        0.479   0.312   9.177   9.968
   35        0.451   0.297   9.182   9.929
   36        0.626   0.700   2.382   3.707
   37        1.608   3.256   0.000   4.865
   38        1.608   3.256   0.000   4.865
tot         19.629  18.906 323.711 362.246

  FORCE on cell =-STRESS in cart. coord.  units (eV):
  Direction    XX          YY          ZZ          XY          YZ          ZX
  Alpha Z   806.86075   806.86075   806.86075
  Ewald  219230.30000218891.66713************     0.00036    -0.38860     0.00017
  Hartree231864.02668231699.23972************     0.00002    -0.17543     0.00005
  E(xc)   -2323.05478 -2323.06582 -2328.81026    -0.00028     0.00851    -0.00005
  Local  ************************463548.43328     0.02016     0.41525    -0.00072
  n-local  -787.33575  -793.34847  -805.08744     1.60600    -0.11429     0.03766
  augment  3316.74029  3321.65871  3342.89300    -0.01808     0.02226     0.00035
  Kinetic  3402.21911  3444.52177  3459.81152     0.56373     0.14900    -0.22045
  Fock        0.00000     0.00000     0.00000     0.00000     0.00000     0.00000
  Total       0.66333     0.46598     0.15470    -0.00000    -0.08330     0.00000
  in kB       0.87076     0.61169     0.20308    -0.00000    -0.10936     0.00000

 VOLUME and BASIS-vectors are now :
  energy-cutoff  :      500.00
  volume of cell :     1220.51
      direct lattice vectors                 reciprocal lattice vectors
     7.696786404  0.000000000  0.000000000     0.129924354 -0.075011849  0.000000000
     3.848392758  6.665612809  0.000000000     0.000000000  0.150023716  0.000000000
     0.000000000  0.000000000 23.789778673     0.000000000  0.000000000  0.042034859

  length of vectors
     7.696786404  7.696786404 23.789778673     0.150023716  0.150023716  0.042034859

 FORCES acting on ions
    electron-ion (+dipol)            ewald-force                    non-local-force                 convergence-correction
   -.412E-04 -.207E-01 0.373E+04   0.581E-04 -.255E-01 -.372E+04   -.662E-09 0.995E-02 -.214E+01   -.222E-03 0.304E-01 -.127E+00
   -.121E+01 -.152E+01 0.372E+04   0.111E+01 0.135E+01 -.372E+04   0.284E-01 0.866E-01 -.193E+01   0.733E-01 0.822E-01 -.175E+00
   0.121E+01 -.152E+01 0.372E+04   -.111E+01 0.135E+01 -.372E+04   -.284E-01 0.866E-01 -.193E+01   -.725E-01 0.848E-01 -.175E+00
   -.186E+01 -.277E+00 0.372E+04   0.174E+01 0.273E+00 -.372E+04   0.928E-01 -.258E-01 -.204E+01   0.342E-01 0.261E-01 -.170E+00
   -.627E-04 0.370E-01 0.372E+04   0.116E-03 -.891E-04 -.372E+04   0.165E-08 -.248E-01 -.201E+01   0.121E-01 -.110E-01 -.110E+00
   0.186E+01 -.276E+00 0.372E+04   -.174E+01 0.273E+00 -.372E+04   -.928E-01 -.258E-01 -.204E+01   -.358E-01 0.274E-01 -.169E+00
   -.705E+00 0.177E+01 0.372E+04   0.634E+00 -.162E+01 -.372E+04   0.376E-01 -.548E-01 -.198E+01   0.355E-01 -.857E-01 -.197E+00
   0.706E+00 0.177E+01 0.372E+04   -.634E+00 -.162E+01 -.372E+04   -.376E-01 -.548E-01 -.198E+01   -.319E-01 -.871E-01 -.197E+00
   -.143E-03 0.287E-01 0.372E+04   0.263E-03 0.256E-01 -.372E+04   -.404E-09 0.606E-02 -.211E+01   -.133E-01 -.536E-01 -.191E+00
   -.119E+02 -.674E+01 0.127E+04   0.121E+02 0.677E+01 -.127E+04   -.193E+00 -.547E-01 -.759E+00   -.135E-01 0.325E-01 0.800E-01
   -.833E-04 -.128E+02 0.125E+04   0.189E-03 0.124E+02 -.125E+04   -.165E-07 0.248E+00 -.390E+00   0.113E-01 0.163E+00 0.336E-01
   0.119E+02 -.674E+01 0.127E+04   -.121E+02 0.677E+01 -.127E+04   0.193E+00 -.547E-01 -.759E+00   0.125E-01 0.341E-01 0.787E-01
   -.112E+02 0.635E+01 0.125E+04   0.109E+02 -.615E+01 -.125E+04   0.260E+00 -.138E+00 -.496E+00   0.818E-01 -.591E-01 0.581E-02
   0.112E+02 0.635E+01 0.125E+04   -.109E+02 -.615E+01 -.125E+04   -.260E+00 -.138E+00 -.496E+00   -.578E-01 -.595E-01 0.535E-02
   -.137E-03 -.951E+00 0.127E+04   0.295E-03 0.944E+00 -.127E+04   -.129E-08 0.193E-01 -.944E+00   -.344E-02 -.488E-02 0.771E-01
   -.915E-04 0.137E+02 0.127E+04   0.187E-03 -.139E+02 -.127E+04   -.107E-07 0.160E+00 -.774E+00   0.843E-04 -.313E-02 0.843E-01
   -.711E+00 0.395E+00 0.127E+04   0.704E+00 -.331E+00 -.127E+04   0.388E-01 -.310E-01 -.780E+00   -.248E-01 -.385E-01 0.739E-01
   0.712E+00 0.395E+00 0.127E+04   -.704E+00 -.331E+00 -.127E+04   -.388E-01 -.310E-01 -.780E+00   0.252E-01 -.362E-01 0.736E-01
   -.679E-04 -.819E+01 -.116E+04   0.727E-04 0.800E+01 0.116E+04   -.966E-08 0.145E+00 0.148E+01   0.106E-02 0.210E-01 -.311E-01
   -.716E+02 -.402E+02 -.129E+04   0.724E+02 0.406E+02 0.128E+04   -.845E+00 -.359E+00 0.314E+00   -.137E+00 -.555E-01 -.689E-01
   0.716E+02 -.402E+02 -.129E+04   -.724E+02 0.406E+02 0.128E+04   0.845E+00 -.359E+00 0.314E+00   0.117E+00 -.536E-01 -.705E-01
   -.331E+02 0.179E+02 -.119E+04   0.331E+02 -.177E+02 0.118E+04   0.168E+00 -.192E+00 0.845E+00   -.678E-01 -.385E-01 -.504E-01
   -.592E-04 0.808E+02 -.129E+04   0.156E-03 -.818E+02 0.129E+04   -.669E-07 0.100E+01 0.142E+00   0.130E-02 0.136E+00 -.973E-01
   0.331E+02 0.179E+02 -.119E+04   -.331E+02 -.177E+02 0.118E+04   -.168E+00 -.192E+00 0.845E+00   0.453E-01 -.364E-01 -.501E-01
   0.762E+01 0.501E+01 -.116E+04   -.766E+01 -.497E+01 0.116E+04   0.289E-02 -.511E-01 0.108E+01   0.349E-01 0.190E-01 -.229E-01
   -.762E+01 0.501E+01 -.116E+04   0.766E+01 -.497E+01 0.116E+04   -.289E-02 -.511E-01 0.108E+01   -.317E-01 0.179E-01 -.230E-01
   -.138E-03 -.382E+02 -.119E+04   0.240E-03 0.380E+02 0.119E+04   -.183E-07 0.275E+00 0.104E+01   -.132E-01 -.274E-01 -.445E-01
   -.262E-04 0.636E+01 -.357E+04   0.446E-04 -.659E+01 0.357E+04   -.870E-08 0.131E+00 0.188E+01   -.102E-02 0.709E-01 0.363E-02
   -.479E+02 -.796E+02 -.354E+04   0.480E+02 0.787E+02 0.353E+04   -.218E+00 0.437E+00 0.198E+01   0.383E-02 0.980E-01 0.614E-01
   0.479E+02 -.796E+02 -.354E+04   -.480E+02 0.787E+02 0.353E+04   0.218E+00 0.437E+00 0.198E+01   0.182E-01 0.999E-01 0.626E-01
   -.887E+02 0.452E+01 -.352E+04   0.878E+02 -.445E+01 0.352E+04   0.404E+00 -.943E-01 0.280E+01   -.120E-01 0.149E-01 0.924E-01
   0.887E+02 0.452E+01 -.352E+04   -.878E+02 -.445E+01 0.352E+04   -.404E+00 -.943E-01 0.280E+01   0.338E-01 0.167E-01 0.929E-01
   -.558E+02 0.749E+02 -.354E+04   0.557E+02 -.742E+02 0.353E+04   -.665E-01 -.311E+00 0.204E+01   0.210E-02 -.607E-01 0.804E-01
   0.558E+02 0.749E+02 -.354E+04   -.557E+02 -.742E+02 0.353E+04   0.665E-01 -.311E+00 0.204E+01   0.235E-01 -.610E-01 0.793E-01
   -.130E-03 -.639E+01 -.359E+04   0.252E-03 0.671E+01 0.359E+04   0.101E-07 -.152E+00 0.193E+01   -.148E-01 -.134E+00 0.610E-01
   -.251E-04 0.139E-01 -.122E+04   0.434E-04 -.275E-01 0.122E+04   0.228E-08 -.343E-01 -.206E+01   -.174E-03 -.122E-02 0.572E-01
   0.179E+03 0.152E+00 -.220E+04   -.210E+03 -.140E+00 0.221E+04   0.314E+02 -.550E-02 -.183E+02   -.256E-03 0.101E-02 0.162E-01
   -.179E+03 0.152E+00 -.220E+04   0.210E+03 -.140E+00 0.221E+04   -.314E+02 -.550E-02 -.183E+02   0.119E-03 0.112E-02 0.164E-01
   0.660E-04 -.266E+00 0.391E+02   -.114E-12 -.172E-12 0.000E+00   -.135E-07 0.202E+00 -.383E+02   0.352E-01 0.692E-01 -.834E+00

 POSITION                                       TOTAL-FORCE (eV/Angst)
      0.00000      0.00000      5.37156         0.000000     -0.005991      0.017923
      2.56560      0.00000      5.37156        -0.004069     -0.004779      0.071708
      5.13119      0.00000      5.37156         0.004069     -0.004779      0.071708
      1.28280      2.22187      5.37156         0.004129     -0.003006      0.063081
      3.84839      2.22187      5.37156        -0.000000      0.000890      0.054987
      6.41399      2.22187      5.37156        -0.004129     -0.003006      0.063081
      2.56560      4.44374      5.37156        -0.000132      0.007046      0.067128
      5.13119      4.44374      5.37156         0.000132      0.007046      0.067128
      7.69679      4.44374      5.37156        -0.000000      0.006596      0.036158
      1.28280      0.74062      7.46636         0.007575      0.005725     -0.098229
      3.84839      0.74062      7.46636         0.000000     -0.019028     -0.015906
      6.41399      0.74062      7.46636        -0.007575      0.005725     -0.098229
      2.56560      2.96249      7.46636        -0.012985      0.005349     -0.027402
      5.13119      2.96249      7.46636         0.012985      0.005349     -0.027402
      7.69679      2.96249      7.46636        -0.000000      0.007181     -0.034930
      3.84839      5.18437      7.46636         0.000000     -0.005494     -0.096552
      6.41399      5.18437      7.46636         0.006444     -0.004097     -0.026071
      8.97958      5.18437      7.46636        -0.006444     -0.004097     -0.026071
      7.69679      1.47625      9.53578         0.000000     -0.021816      0.070876
      2.57143      1.48462      9.57247        -0.175850     -0.076823     -0.219270
      5.12535      1.48462      9.57247         0.175850     -0.076823     -0.219270
      8.97869      3.70363      9.55450         0.052664     -0.019718      0.073818
      3.84839      3.69638      9.57247        -0.000000      0.192798     -0.236986
      6.41488      3.70363      9.55450        -0.052664     -0.019718      0.073818
     10.26671      5.92749      9.53578        -0.008999      0.005308      0.049148
      5.12686      5.92749      9.53578         0.008999      0.005308      0.049148
      7.69679      5.92396      9.55450        -0.000000      0.047907      0.088011
      0.00000      0.00000     11.64309         0.000000     -0.023641     -0.072843
      6.39641      6.62889     11.65568        -0.180261     -0.284492     -0.207391
      8.99717      6.62889     11.65568         0.180261     -0.284492     -0.207391
      8.93899      2.22500     11.65568        -0.477885     -0.013433     -0.248573
      6.45458      2.22500     11.65568         0.477885     -0.013433     -0.248573
     10.23937      4.47733     11.65568        -0.158617      0.293230     -0.209764
      5.15420      4.47733     11.65568         0.158617      0.293230     -0.209764
      7.69679      4.44374     11.66757        -0.000000      0.034062     -0.089164
      3.84839      2.22187     11.91603         0.000000     -0.049322      1.729668
      3.11130      2.22222     13.78303         0.002000      0.007619     -0.013804
      4.58548      2.22222     13.78303        -0.002000      0.007619     -0.013804
    total drift:                                0.035286      0.005805     -0.051772

  FREE ENERGIE OF THE ION-ELECTRON SYSTEM (eV)
  free  energy   TOTEN  =      -144.70541696 eV

  energy  without entropy=     -144.70541696  energy(sigma->0) =     -144.70541696

 stress matrix after NEB project (eV)
      0.66333     -0.00000      0.00000
     -0.00000      0.46598     -0.08330
      0.00000     -0.08330      0.15470
  FORCES: max atom, RMS     0.015894    0.003646
  FORCE total and by dimension    0.022477    0.013804
  Stress total and by dimension    0.833635    0.663325
|           W    W    AA    RRRRR   N    N  II  N    N   GGGG   !!!           |
|           W    W   A  A   R    R  NN   N  II  NN   N  G    G  !!!           |
|           W    W  A    A  R    R  N N  N  II  N N  N  G       !!!           |
|           W WW W  AAAAAA  RRRRR   N  N N  II  N  N N  G  GGG   !            |
|           WW  WW  A    A  R   R   N   NN  II  N   NN  G    G                |
|           W    W  A    A  R    R  N    N  II  N    N   GGGG   !!!           |
|     Tetrahedron method does not include variations of the Fermi             |
|     occupations, so forces and stress will be inaccurate. We suggest        |
|     using a different smearing scheme ISMEAR = 1 or 2 for metals in         |
|     relaxations.                                                            |

 total charge

# of ion       s       p       d       tot
    1        0.450   0.283   9.188   9.921
    2        0.448   0.285   9.187   9.920
    3        0.448   0.285   9.187   9.920
    4        0.448   0.284   9.188   9.920
    5        0.449   0.284   9.186   9.918
    6        0.448   0.284   9.188   9.920
    7        0.448   0.285   9.187   9.920
    8        0.448   0.285   9.187   9.920
    9        0.448   0.284   9.189   9.921
   10        0.442   0.370   9.179   9.992
   11        0.440   0.366   9.182   9.987
   12        0.442   0.370   9.179   9.992
   13        0.440   0.365   9.182   9.987
   14        0.440   0.365   9.182   9.987
   15        0.439   0.372   9.178   9.989
   16        0.443   0.370   9.178   9.991
   17        0.440   0.372   9.178   9.990
   18        0.440   0.372   9.178   9.990
   19        0.442   0.371   9.181   9.993
   20        0.455   0.384   9.167  10.006
   21        0.455   0.384   9.167  10.006
   22        0.435   0.373   9.177   9.986
   23        0.457   0.382   9.169  10.008
   24        0.435   0.373   9.177   9.986
   25        0.444   0.370   9.181   9.996
   26        0.444   0.370   9.181   9.996
   27        0.436   0.372   9.179   9.987
   28        0.451   0.294   9.182   9.928
   29        0.479   0.312   9.177   9.968
   30        0.479   0.312   9.177   9.968
   31        0.482   0.297   9.188   9.967
   32        0.482   0.297   9.188   9.967
   33        0.479   0.312   9.177   9.968
   34        0.479   0.312   9.177   9.968
   35        0.451   0.297   9.182   9.929
   36        0.626   0.700   2.382   3.707
   37        1.608   3.256   0.000   4.865
   38        1.608   3.256   0.000   4.865
tot         19.629  18.906 323.711 362.246

 BZINTS: Fermi energy:   -0.606740;  401.000000 electrons
         Band energy:-0.147007E+04;  BLOECHL correction:   -0.069303