 vasp.6.2.0 18Jan21 (build Jun 12 2021 23:27:24) complex

 executed on             LinuxIFC date 2022.05.27  05:34:29

 INCAR:
   ISMEAR = -5
   SIGMA = 0.1
   ISPIN = 1
   EDIFF = 1.d-5
   EDIFFG = -0.01
   NSW = 0
   NELM = 150
   ENCUT = 500
   ISIF = 2
   IBRION = 2
   LREAL = Auto
   ALGO = Fast
   ICHARG = 11
   LORBIT = 10
   LCHARG = .F.
   LWAVE = .F.

 POTCAR:    PAW_PBE Ag 02Apr2005
 POTCAR:    PAW_PBE Ni 02Aug2007
 POTCAR:    PAW_PBE H 15Jun2001
|           W    W    AA    RRRRR   N    N  II  N    N   GGGG   !!!           |
|           W    W   A  A   R    R  NN   N  II  NN   N  G    G  !!!           |
|           W    W  A    A  R    R  N N  N  II  N N  N  G       !!!           |
|           W WW W  AAAAAA  RRRRR   N  N N  II  N  N N  G  GGG   !            |
|           WW  WW  A    A  R   R   N   NN  II  N   NN  G    G                |
|           W    W  A    A  R    R  N    N  II  N    N   GGGG   !!!           |
|     For optimal performance we recommend to set                             |
|       NCORE = 2 up to number-of-cores-per-socket                            |
|     This setting can greatly improve the performance of VASP for DFT.       |
|     The default, NCORE=1 might be grossly inefficient on modern             |
|     multi-core architectures or massively parallel machines. Do your        |
|     Unfortunately you need to use the default for GW and RPA                |
|     calculations (for HF NCORE is supported but not extensively tested      |
|     yet).                                                                   |

 POTCAR:    PAW_PBE Ag 02Apr2005
   VRHFIN =Ag : s1 d10

   TITEL  = PAW_PBE Ag 02Apr2005
   POMASS =  107.868; ZVAL   =   11.000    mass and valenz
   ENMAX  =  249.844; ENMIN  =  187.383 eV

 POTCAR:    PAW_PBE Ni 02Aug2007
   VRHFIN =Ni:

   TITEL  = PAW_PBE Ni 02Aug2007
   POMASS =   58.690; ZVAL   =   10.000    mass and valenz
   ENMAX  =  269.532; ENMIN  =  202.149 eV

 POTCAR:    PAW_PBE H 15Jun2001
   VRHFIN =H: ultrasoft test

   TITEL  = PAW_PBE H 15Jun2001
   POMASS =    1.000; ZVAL   =    1.000    mass and valenz
   ENMAX  =  250.000; ENMIN  =  200.000 eV

 Optimization of the real space projectors (new method)

 maximal supplied QI-value         = 15.12
 optimisation between [QCUT,QGAM] = [ 11.34, 22.83] = [ 36.00,145.93] Ry
 Optimized for a Real-space Cutoff    1.43 Angstroem

   l    n(q)    QCUT    max X(q) W(low)/X(q) W(high)/X(q)  e(spline)
   2      9    11.338    53.897    0.16E-03    0.20E-03    0.28E-06
   2      9    11.338    52.416    0.16E-03    0.20E-03    0.29E-06
   0     10    11.338   122.045    0.31E-04    0.76E-04    0.15E-06
   0     10    11.338    73.629    0.30E-04    0.72E-04    0.15E-06
   1      9    11.338    15.255    0.20E-03    0.19E-04    0.17E-06
   1      9    11.338     9.562    0.16E-03    0.15E-04    0.14E-06
 Optimization of the real space projectors (new method)

[...]

   l    n(q)    QCUT    max X(q) W(low)/X(q) W(high)/X(q)  e(spline)
   2      8    11.376    60.317    0.19E-03    0.33E-04    0.13E-06
   2      8    11.376    55.921    0.20E-03    0.34E-04    0.14E-06
   0      9    11.376    51.690    0.82E-04    0.12E-03    0.20E-06
   0      9    11.376    30.015    0.74E-04    0.11E-03    0.18E-06
   1      9    11.376    18.849    0.39E-03    0.12E-03    0.13E-06
   1      9    11.376    14.624    0.33E-03    0.10E-03    0.11E-06
 Optimization of the real space projectors (new method)

 maximal supplied QI-value         = 34.20
 optimisation between [QCUT,QGAM] = [ 11.29, 22.57] = [ 35.68,142.71] Ry
 Optimized for a Real-space Cutoff    1.16 Angstroem

   l    n(q)    QCUT    max X(q) W(low)/X(q) W(high)/X(q)  e(spline)
   0      8    11.287    19.460    0.40E-03    0.73E-03    0.16E-06
   0      8    11.287    12.209    0.38E-03    0.70E-03    0.15E-06
   1      7    11.287     4.655    0.22E-03    0.25E-04    0.22E-06
  PAW_PBE Ag 02Apr2005                  :
  PAW_PBE Ni 02Aug2007                  :
  PAW_PBE H 15Jun2001                   :

 POSCAR: Ag-Ni-H2
  positions in direct lattice
  velocities in cartesian coordinates
 exchange correlation table for  LEXCH =        8
   RHO(1)=    0.500       N(1)  =     2000
   RHO(2)=  100.500       N(2)  =     4000

 VTST: version 3.2, (02/03/18)

 CHAIN: initializing optimizer

 OPT: Using VASP Conjugate-Gradient optimizer
 CHAIN: Read ICHAIN            0

 POSCAR: Ag-Ni-H2
  positions in direct lattice
  velocities in cartesian coordinates

 ion  position               nearest neighbor table
   1  0.000  0.000  0.238-   2 2.93   8 2.93   7 2.93   6 2.93   4 2.93  12 2.93  16 2.93  10 2.93
                             3 2.93
   2  0.333  0.000  0.238-   1 2.93   8 2.93   9 2.93   3 2.93   4 2.93   5 2.93  10 2.93  17 2.93
                            11 2.93
   3  0.667  0.000  0.238-   9 2.93   2 2.93   5 2.93  11 2.93   7 2.93  18 2.93   1 2.93   6 2.93
                            12 2.93
   4  0.000  0.333  0.238-   5 2.93   6 2.93   2 2.93   1 2.93   7 2.93  13 2.93  15 2.93   9 2.93
                            10 2.93
   5  0.333  0.333  0.238-   4 2.93   3 2.93   7 2.93   2 2.93   8 2.93  14 2.93  13 2.93  11 2.93
                             6 2.93
   6  0.667  0.333  0.238-   4 2.93   9 2.93   1 2.93  15 2.93   8 2.93  12 2.93   3 2.93   5 2.93
                            14 2.93
   7  0.000  0.667  0.238-   8 2.93   1 2.93   5 2.93   3 2.93   4 2.93  16 2.93  18 2.93  13 2.93
                             9 2.93
   8  0.333  0.667  0.238-   7 2.93   1 2.93   2 2.93   9 2.93   5 2.93  16 2.93   6 2.93  17 2.93
                            14 2.93
   9  0.667  0.667  0.238-   3 2.93   2 2.93   8 2.93   6 2.93  17 2.93   4 2.93  15 2.93   7 2.93
                            18 2.93
  10  0.111  0.111  0.346-  20 2.91  19 2.92  26 2.92  12 2.93  16 2.93  15 2.93  17 2.93  13 2.93
                            11 2.93   2 2.93   1 2.93   4 2.93
  11  0.444  0.111  0.346-  21 2.91  20 2.91  27 2.91  14 2.93  17 2.93  18 2.93   3 2.93  12 2.93
                            13 2.93  10 2.93   5 2.93   2 2.93
  12  0.778  0.111  0.346-  21 2.91  25 2.92  19 2.92  10 2.93  16 2.93  18 2.93  15 2.93  11 2.93
                             1 2.93  14 2.93   6 2.93   3 2.93
  13  0.111  0.444  0.346-  20 2.91  23 2.91  22 2.91  15 2.93  14 2.93  18 2.93  10 2.93  11 2.93
                            16 2.93   4 2.93   5 2.93   7 2.93
  14  0.444  0.444  0.346-  23 2.91  21 2.91  24 2.91  13 2.93  11 2.93  16 2.93   5 2.93  12 2.93
                            17 2.93   8 2.93  15 2.93   6 2.93
  15  0.778  0.444  0.346-  24 2.91  22 2.91  19 2.92  13 2.93  10 2.93  12 2.93  17 2.93  18 2.93
                             4 2.93   6 2.93   9 2.93  14 2.93
  16  0.111  0.778  0.346-  23 2.91  26 2.92  25 2.92  18 2.93  12 2.93  10 2.93  14 2.93  17 2.93
                            13 2.93   7 2.93   8 2.93   1 2.93
  17  0.444  0.778  0.346-  27 2.91  24 2.91  26 2.92  11 2.93  10 2.93   9 2.93  18 2.93  15 2.93
                            16 2.93   2 2.93  14 2.93   8 2.93
  18  0.778  0.778  0.346-  22 2.91  27 2.91  25 2.92  16 2.93  12 2.93  13 2.93  11 2.93  17 2.93
                            15 2.93   7 2.93   3 2.93   9 2.93
  19  0.889  0.223  0.454-  28 2.91  15 2.92  10 2.92  12 2.92  24 2.93  22 2.93  32 2.94  31 2.94
                            26 2.94  25 2.94  20 2.94  21 2.94
  20  0.223  0.223  0.453-  36 2.69  31 2.89  29 2.89  13 2.91  11 2.91  10 2.91  21 2.92  23 2.92
                            27 2.93  22 2.93  19 2.94  26 2.94
  21  0.554  0.223  0.453-  36 2.69  30 2.89  32 2.89  11 2.91  14 2.91  12 2.91  20 2.92  23 2.92
                            27 2.93  24 2.93  25 2.94  19 2.94
  22  0.889  0.556  0.453-  18 2.91  15 2.91  35 2.91  13 2.91  33 2.91  31 2.91  24 2.93  27 2.93
                            25 2.93  19 2.93  23 2.93  20 2.93
  23  0.223  0.554  0.453-  36 2.69  34 2.89  33 2.89  14 2.91  13 2.91  16 2.91  21 2.92  20 2.92
                            22 2.93  24 2.93  26 2.94  25 2.94
  24  0.556  0.556  0.453-  15 2.91  17 2.91  35 2.91  14 2.91  32 2.91  34 2.91  27 2.93  22 2.93
                            19 2.93  26 2.93  23 2.93  21 2.93
  25  0.889  0.889  0.454-  28 2.91  18 2.92  16 2.92  12 2.92  22 2.93  27 2.93  33 2.94  30 2.94
                            26 2.94  19 2.94  23 2.94  21 2.94
  26  0.223  0.889  0.454-  28 2.91  17 2.92  16 2.92  10 2.92  27 2.93  24 2.93  34 2.94  29 2.94
                            25 2.94  19 2.94  23 2.94  20 2.94
  27  0.556  0.889  0.453-  17 2.91  18 2.91  35 2.91  11 2.91  29 2.91  30 2.91  24 2.93  22 2.93
                            26 2.93  25 2.93  20 2.93  21 2.93
  28  0.000  0.000  0.560-  26 2.91  25 2.91  19 2.91  29 2.96  34 2.96  33 2.96  32 2.96  31 2.96
                            30 2.96
  29  0.333  0.007  0.560-  30 2.87  31 2.87  36 2.88  20 2.89  27 2.91  26 2.94  35 2.96  28 2.96
                            34 3.06
  30  0.659  0.007  0.560-  29 2.87  32 2.87  36 2.88  21 2.89  27 2.91  25 2.94  35 2.96  28 2.96
                            33 3.06
  31  0.007  0.333  0.560-  33 2.87  29 2.87  36 2.88  20 2.89  22 2.91  19 2.94  35 2.96  28 2.96
                            32 3.06
  32  0.659  0.333  0.560-  34 2.87  30 2.87  36 2.88  21 2.89  24 2.91  19 2.94  35 2.96  28 2.96
                            31 3.06
  33  0.007  0.659  0.560-  31 2.87  34 2.87  36 2.88  23 2.89  22 2.91  25 2.94  35 2.96  28 2.96
                            30 3.06
  34  0.333  0.659  0.560-  32 2.87  33 2.87  36 2.88  23 2.89  24 2.91  26 2.94  35 2.96  28 2.96
                            29 3.06
  35  0.667  0.667  0.560-  24 2.91  27 2.91  22 2.91  30 2.96  32 2.96  29 2.96  34 2.96  31 2.96
                            33 2.96
  36  0.333  0.333  0.547-  38 1.60  37 1.60  21 2.69  20 2.69  23 2.69  31 2.88  33 2.88  30 2.88
                            29 2.88  34 2.88  32 2.88
  37  0.283  0.333  0.617-  38 0.88  36 1.60
  38  0.384  0.333  0.617-  37 0.88  36 1.60

  LATTYP: Found a hexagonal cell.
 ALAT       =     8.7913665772
 C/A-ratio  =     2.5227160501

  Lattice vectors:

 A1 = (  -4.3956832886,  -7.6135467898,   0.0000000000)
 A2 = (   8.7913665771,   0.0000000000,   0.0000000000)
 A3 = (   0.0000000000,   0.0000000000,  22.1781215668)

Analysis of symmetry for initial positions (statically):
 Subroutine PRICEL returns:
 Original cell was already a primitive cell.

 Routine SETGRP: Setting up the symmetry group for a
 hexagonal supercell.

 Subroutine GETGRP returns: Found  2 space group operations
 (whereof  2 operations were pure point group operations)
 out of a pool of 24 trial point group operations.

The static configuration has the point symmetry C_1h.

Analysis of symmetry for dynamics (positions and initial velocities):
 Subroutine PRICEL returns:
 Original cell was already a primitive cell.

[...]

The dynamic configuration has the point symmetry C_1h.

Analysis of constrained symmetry for selective dynamics:
 Subroutine PRICEL returns:
 Original cell was already a primitive cell.

 Routine SETGRP: Setting up the symmetry group for a
 hexagonal supercell.

 Subroutine GETGRP returns: Found  2 space group operations
[...]
     33      -4.3945      2.00000
     34      -4.3329      2.00000
     35      -4.3183      2.00000
     36      -4.2916      2.00000
     37      -4.2831      2.00000
     38      -4.2585      2.00000
     39      -4.2321      2.00000
     40      -4.2215      2.00000
     41      -4.2147      2.00000
     42      -4.1957      2.00000
     43      -4.1862      2.00000
     44      -4.1180      2.00000
     45      -4.0852      2.00000
     46      -4.0788      2.00000
     47      -4.0704      2.00000
     48      -4.0637      2.00000
     49      -4.0601      2.00000
     50      -4.0419      2.00000
     51      -4.0374      2.00000
     52      -4.0162      2.00000
     53      -4.0123      2.00000
     54      -3.9484      2.00000
     55      -3.9395      2.00000
     56      -3.9296      2.00000
     57      -3.9248      2.00000
     58      -3.9097      2.00000
     59      -3.8967      2.00000
     60      -3.8569      2.00000
[...]
    238       6.9305      0.00000
    239       7.0757      0.00000
    240       7.1766      0.00000
    241       7.1897      0.00000
    242       7.2659      0.00000
    243       7.2929      0.00000
    244       7.3149      0.00000
    245       7.3637      0.00000
    246       7.4486      0.00000
    247       7.4899      0.00000
    248       7.6106      0.00000
    249       7.6221      0.00000
    250       7.8432      0.00000
    251       7.9596      0.00000
    252       8.0486      0.00000

 soft charge-density along one line, spin component           1
         0         1         2         3         4         5         6         7         8         9
 total charge-density along one line

------------------------ aborting loop because EDIFF is reached ----------------------------------------

 total charge

# of ion       s       p       d       tot
    1        0.414   0.204   9.177   9.795
    2        0.418   0.203   9.177   9.798
    3        0.418   0.203   9.177   9.798
    4        0.418   0.203   9.177   9.799
    5        0.416   0.204   9.176   9.796
    6        0.418   0.203   9.177   9.799
    7        0.418   0.203   9.177   9.798
    8        0.418   0.203   9.177   9.798
    9        0.415   0.204   9.177   9.797
   10        0.406   0.269   9.164   9.838
   11        0.409   0.267   9.166   9.843
   12        0.406   0.269   9.164   9.838
   13        0.409   0.268   9.166   9.843
   14        0.409   0.268   9.166   9.843
   15        0.401   0.272   9.165   9.837
   16        0.406   0.269   9.164   9.838
   17        0.401   0.271   9.165   9.837
   18        0.401   0.271   9.165   9.837
   19        0.405   0.266   9.168   9.838
   20        0.418   0.290   9.152   9.860
   21        0.418   0.290   9.152   9.860
   22        0.401   0.275   9.165   9.840
   23        0.417   0.291   9.152   9.860
   24        0.401   0.275   9.165   9.840
   25        0.404   0.266   9.168   9.838
   26        0.404   0.266   9.168   9.838
   27        0.401   0.275   9.165   9.840
   28        0.414   0.197   9.179   9.790
   29        0.415   0.202   9.181   9.798
   30        0.415   0.202   9.181   9.798
   31        0.413   0.207   9.178   9.798
   32        0.413   0.207   9.178   9.798
   33        0.415   0.202   9.182   9.799
   34        0.415   0.202   9.182   9.799
   35        0.413   0.196   9.181   9.790
   36        0.390   0.392   8.439   9.221
   37        0.543   0.032   0.000   0.576
   38        0.543   0.032   0.000   0.576
tot         15.860   8.818 329.412 354.090

  FORCE on cell =-STRESS in cart. coord.  units (eV):
  Direction    XX          YY          ZZ          XY          YZ          ZX
  Alpha Z   738.73103   738.73103   738.73103
  Ewald  122462.73725122436.49221************     0.00003     0.02962     0.00000
  Hartree132800.01612132793.47300************     0.00001     0.01388     0.00000
  E(xc)   -2090.31741 -2090.60342 -2095.67402    -0.00002     0.00052    -0.00000
  Local  ************************266629.47785     0.00050    -0.06872    -0.00005
  n-local  -336.94421  -336.33646  -342.35000     2.39246    -0.00812     0.08921
  augment  3398.59080  3400.37945  3400.40160    -0.00034     0.02656    -0.00001
  Kinetic  4862.17686  4867.89459  4883.93481     1.14818     0.01631     0.04485
  Fock        0.00000     0.00000     0.00000     0.00000     0.00000     0.00000
  Total      -8.71756    -8.52542    -0.92635    -0.00000     0.01005     0.00000
  in kB      -9.40887    -9.20149    -0.99981    -0.00000     0.01085     0.00000

 VOLUME and BASIS-vectors are now :
  energy-cutoff  :      500.00
  volume of cell :     1484.46
      direct lattice vectors                 reciprocal lattice vectors
     8.791366577  0.000000000  0.000000000     0.113747958 -0.065672414  0.000000000
     4.395683289  7.613546790  0.000000000     0.000000000  0.131344829  0.000000000
     0.000000000  0.000000000 22.178121567     0.000000000  0.000000000  0.045089481

  length of vectors
     8.791366577  8.791366577 22.178121567     0.131344829  0.131344829  0.045089481

 FORCES acting on ions
    electron-ion (+dipol)            ewald-force                    non-local-force                 convergence-correction
   0.458E-04 -.177E-01 0.251E+04   -.954E-04 -.250E-02 -.251E+04   0.492E-13 0.750E-02 -.226E+01   -.132E-03 0.135E-01 0.294E-01
   0.487E+00 0.486E+00 0.251E+04   -.574E+00 -.542E+00 -.251E+04   0.144E-01 -.282E-01 -.162E+01   0.750E-01 0.940E-01 0.141E-01
   -.487E+00 0.486E+00 0.251E+04   0.574E+00 -.542E+00 -.251E+04   -.144E-01 -.282E-01 -.162E+01   -.755E-01 0.960E-01 0.148E-01
   0.711E+00 0.219E+00 0.251E+04   -.754E+00 -.227E+00 -.251E+04   -.291E-01 0.213E-01 -.162E+01   0.842E-01 -.153E-01 0.418E-02
   -.780E-05 0.426E-01 0.252E+04   0.981E-04 0.680E-04 -.251E+04   -.112E-12 -.171E-01 -.160E+01   0.631E-02 -.240E-01 -.211E-01
   -.711E+00 0.219E+00 0.251E+04   0.754E+00 -.227E+00 -.251E+04   0.291E-01 0.213E-01 -.162E+01   -.857E-01 -.143E-01 0.515E-02
   0.159E+00 -.708E+00 0.251E+04   -.180E+00 0.769E+00 -.251E+04   -.276E-01 0.782E-02 -.162E+01   0.573E-01 -.787E-01 0.341E-02
   -.159E+00 -.708E+00 0.251E+04   0.180E+00 0.769E+00 -.251E+04   0.276E-01 0.782E-02 -.162E+01   -.556E-01 -.798E-01 0.366E-02
   0.363E-04 -.989E-02 0.251E+04   0.792E-04 0.242E-02 -.251E+04   -.124E-13 -.189E-02 -.193E+01   -.670E-02 0.888E-02 0.778E-01
   0.518E+01 0.303E+01 0.850E+03   -.486E+01 -.283E+01 -.849E+03   -.313E+00 -.192E+00 -.727E+00   0.211E-01 0.295E-02 0.750E-01
   -.294E-04 0.570E+01 0.860E+03   0.419E-04 -.587E+01 -.859E+03   0.401E-12 0.610E-01 -.580E+00   0.643E-02 0.801E-01 0.739E-01
   -.518E+01 0.303E+01 0.850E+03   0.486E+01 -.283E+01 -.849E+03   0.313E+00 -.192E+00 -.727E+00   -.230E-01 0.446E-02 0.756E-01
   0.489E+01 -.281E+01 0.860E+03   -.507E+01 0.294E+01 -.859E+03   0.607E-01 -.441E-01 -.583E+00   0.876E-01 -.686E-01 0.739E-01
   -.489E+01 -.281E+01 0.860E+03   0.507E+01 0.294E+01 -.859E+03   -.607E-01 -.441E-01 -.583E+00   -.766E-01 -.693E-01 0.741E-01
   0.166E-04 0.129E+01 0.851E+03   -.109E-03 -.129E+01 -.851E+03   -.162E-13 -.246E-02 -.600E+00   -.206E-02 -.680E-02 0.399E-01
   -.815E-05 -.603E+01 0.850E+03   0.208E-04 0.562E+01 -.849E+03   0.238E-11 0.363E+00 -.724E+00   0.333E-03 0.795E-02 0.762E-01
   0.109E+01 -.706E+00 0.851E+03   -.113E+01 0.659E+00 -.851E+03   -.385E-02 0.218E-01 -.609E+00   0.240E-01 0.302E-01 0.372E-01
   -.109E+01 -.706E+00 0.851E+03   0.113E+01 0.659E+00 -.851E+03   0.385E-02 0.218E-01 -.609E+00   -.242E-01 0.325E-01 0.376E-01
   0.434E-04 0.345E+01 -.849E+03   -.129E-03 -.350E+01 0.848E+03   0.270E-12 0.411E-01 0.654E+00   -.210E-02 -.135E-02 -.667E-01
   0.353E+02 0.206E+02 -.799E+03   -.345E+02 -.201E+02 0.800E+03   -.891E+00 -.535E+00 -.998E+00   0.100E+00 0.423E-01 -.181E-01
   -.353E+02 0.206E+02 -.799E+03   0.345E+02 -.201E+02 0.800E+03   0.891E+00 -.535E+00 -.998E+00   -.892E-01 0.435E-01 -.181E-01
   0.131E+02 -.771E+01 -.835E+03   -.134E+02 0.786E+01 0.835E+03   0.245E+00 -.132E+00 0.609E+00   0.330E-01 -.304E-01 -.493E-01
   -.623E-04 -.409E+02 -.799E+03   0.472E-04 0.400E+02 0.800E+03   0.667E-11 0.102E+01 -.977E+00   0.682E-02 -.109E+00 -.691E-02
   -.131E+02 -.771E+01 -.835E+03   0.134E+02 0.786E+01 0.835E+03   -.245E+00 -.132E+00 0.609E+00   -.347E-01 -.313E-01 -.484E-01
   -.293E+01 -.164E+01 -.849E+03   0.297E+01 0.166E+01 0.849E+03   -.309E-01 -.266E-01 0.709E+00   -.673E-03 0.146E-01 -.737E-01
   0.293E+01 -.164E+01 -.849E+03   -.297E+01 0.166E+01 0.849E+03   0.309E-01 -.266E-01 0.709E+00   0.482E-03 0.120E-01 -.737E-01
   0.205E-04 0.152E+02 -.836E+03   0.110E-03 -.155E+02 0.835E+03   0.171E-11 0.260E+00 0.592E+00   -.596E-03 0.649E-01 -.722E-01
   0.548E-04 0.405E+00 -.252E+04   -.115E-03 -.409E+00 0.252E+04   -.173E-12 -.263E-01 0.179E+01   -.128E-02 0.240E-01 0.134E-01
   0.246E+02 0.435E+02 -.252E+04   -.244E+02 -.433E+02 0.252E+04   -.292E+00 -.398E+00 0.220E+01   0.264E-01 0.124E+00 -.506E-01
   -.246E+02 0.435E+02 -.252E+04   0.244E+02 -.433E+02 0.252E+04   0.292E+00 -.398E+00 0.220E+01   -.163E-01 0.127E+00 -.510E-01
   0.515E+02 0.277E+00 -.252E+04   -.511E+02 -.191E+00 0.252E+04   -.562E+00 -.166E-01 0.212E+01   0.978E-01 -.545E-01 -.374E-01
   -.515E+02 0.277E+00 -.252E+04   0.511E+02 -.191E+00 0.252E+04   0.562E+00 -.166E-01 0.212E+01   -.995E-01 -.537E-01 -.385E-01
   0.242E+02 -.437E+02 -.252E+04   -.241E+02 0.435E+02 0.252E+04   -.257E+00 0.416E+00 0.221E+01   0.802E-01 -.713E-01 -.464E-01
   -.242E+02 -.437E+02 -.252E+04   0.241E+02 0.435E+02 0.252E+04   0.257E+00 0.416E+00 0.221E+01   -.682E-01 -.730E-01 -.472E-01
   0.235E-04 -.421E+00 -.252E+04   0.106E-03 0.400E+00 0.251E+04   0.258E-12 0.393E-01 0.183E+01   -.794E-02 -.150E-01 -.479E-01
   -.466E-04 -.605E-01 -.210E+04   0.957E-04 0.658E-01 0.210E+04   0.413E-13 0.628E-02 0.316E+01   0.990E-02 -.858E-02 -.576E-01
   0.211E+02 0.668E-03 -.300E+03   -.243E+02 -.166E-02 0.302E+03   0.317E+01 0.598E-03 -.125E+01   0.113E-01 -.958E-03 -.172E-01
   -.211E+02 0.672E-03 -.300E+03   0.243E+02 -.167E-02 0.302E+03   -.317E+01 0.598E-03 -.125E+01   -.111E-01 -.947E-03 -.173E-01
   0.322E-03 0.477E-01 0.315E+01   0.178E-13 -.103E-12 -.591E-11   -.419E-12 -.638E-01 -.296E+01   0.474E-01 0.170E-01 -.130E+00

 POSITION                                       TOTAL-FORCE (eV/Angst)
      0.00000      0.00000      5.28219         0.000000      0.000783      0.053732
      2.93046      0.00000      5.28219         0.002411      0.011005      0.036135
      5.86091      0.00000      5.28219        -0.002411      0.011005      0.036135
      1.46523      2.53785      5.28219         0.012540     -0.002217      0.038139
      4.39568      2.53785      5.28219         0.000000      0.001586      0.012009
      7.32614      2.53785      5.28219        -0.012540     -0.002217      0.038139
      2.93046      5.07570      5.28219         0.007671     -0.010229      0.038309
      5.86091      5.07570      5.28219        -0.007671     -0.010229      0.038309
      8.79137      5.07570      5.28219        -0.000000     -0.000503      0.039980
      1.46523      0.84595      7.67490         0.029824      0.017996     -0.007732
      4.39568      0.84595      7.67490        -0.000000     -0.034243     -0.091590
      7.32614      0.84595      7.67490        -0.029824      0.017996     -0.007732
      2.93046      3.38380      7.67490        -0.031966      0.018451     -0.090980
      5.86091      3.38380      7.67490         0.031966      0.018451     -0.090980
      8.79137      3.38380      7.67490        -0.000000     -0.014249     -0.003422
      4.39568      5.92165      7.67490        -0.000000     -0.036711     -0.007625
      7.32614      5.92165      7.67490        -0.014555      0.005978     -0.002382
     10.25659      5.92165      7.67490         0.014555      0.005978     -0.002382
      8.79137      1.69533     10.05818        -0.000000     -0.008182      0.000158
      2.93805      1.69629     10.04232         0.019216      0.010686     -0.063593
      5.85331      1.69629     10.04232        -0.019216      0.010686     -0.063593
     10.25424      4.23111     10.04634         0.024114     -0.016716      0.007023
      4.39568      4.22098     10.04232        -0.000000     -0.019792     -0.066778
      7.32849      4.23111     10.04634        -0.024114     -0.016716      0.007023
     11.71886      6.76588     10.05818         0.010365      0.003359     -0.001832
      5.86388      6.76588     10.05818        -0.010365      0.003359     -0.001832
      8.79137      6.76488     10.04634         0.000000      0.031950      0.012721
      0.00000      0.00000     12.42348        -0.000000     -0.006605     -0.002380
      2.96241      0.05505     12.41819        -0.069292     -0.136223     -0.060674
      5.82895      0.05505     12.41819         0.069292     -0.136223     -0.060674
      1.52888      2.53800     12.41819        -0.109838      0.015154     -0.034658
      7.26249      2.53800     12.41819         0.109838      0.015154     -0.034658
      2.96215      5.02050     12.41819        -0.093682      0.123575     -0.058690
      5.82922      5.02050     12.41819         0.093682      0.123575     -0.058690
      8.79137      5.07570     12.42030         0.000000      0.004079      0.008045
      4.39568      2.53785     12.13895         0.000000      0.002993      0.483529
      3.95374      2.53689     13.67425        -0.011739     -0.001372     -0.018256
      4.83762      2.53689     13.67425         0.011739     -0.001372     -0.018256
    total drift:                                0.047729      0.000887      0.064401

  FREE ENERGIE OF THE ION-ELECTRON SYSTEM (eV)
  free  energy   TOTEN  =      -100.68878694 eV

  energy  without entropy=     -100.68878694  energy(sigma->0) =     -100.68878694

 stress matrix after NEB project (eV)
     -8.71756     -0.00000      0.00000
     -0.00000     -8.52542      0.01005
      0.00000      0.01005     -0.92635
  FORCES: max atom, RMS     0.021748    0.004989
  FORCE total and by dimension    0.030756    0.018256
  Stress total and by dimension   12.228531    8.717564
|           W    W    AA    RRRRR   N    N  II  N    N   GGGG   !!!           |
|           W    W   A  A   R    R  NN   N  II  NN   N  G    G  !!!           |
|           W    W  A    A  R    R  N N  N  II  N N  N  G       !!!           |
|           W WW W  AAAAAA  RRRRR   N  N N  II  N  N N  G  GGG   !            |
|           WW  WW  A    A  R   R   N   NN  II  N   NN  G    G                |
|           W    W  A    A  R    R  N    N  II  N    N   GGGG   !!!           |
|     Tetrahedron method does not include variations of the Fermi             |
|     occupations, so forces and stress will be inaccurate. We suggest        |
|     using a different smearing scheme ISMEAR = 1 or 2 for metals in         |
|     relaxations.                                                            |

 total charge

# of ion       s       p       d       tot
    1        0.414   0.204   9.177   9.795
    2        0.418   0.203   9.177   9.798
    3        0.418   0.203   9.177   9.798
    4        0.418   0.203   9.177   9.799
    5        0.416   0.204   9.176   9.796
    6        0.418   0.203   9.177   9.799
    7        0.418   0.203   9.177   9.798
    8        0.418   0.203   9.177   9.798
    9        0.415   0.204   9.177   9.797
   10        0.406   0.269   9.164   9.838
   11        0.409   0.267   9.166   9.843
   12        0.406   0.269   9.164   9.838
   13        0.409   0.268   9.166   9.843
   14        0.409   0.268   9.166   9.843
   15        0.401   0.272   9.165   9.837
   16        0.406   0.269   9.164   9.838
   17        0.401   0.271   9.165   9.837
   18        0.401   0.271   9.165   9.837
   19        0.405   0.266   9.168   9.838
   20        0.418   0.290   9.152   9.860
   21        0.418   0.290   9.152   9.860
   22        0.401   0.275   9.165   9.840
   23        0.417   0.291   9.152   9.860
   24        0.401   0.275   9.165   9.840
   25        0.404   0.266   9.168   9.838
   26        0.404   0.266   9.168   9.838
   27        0.401   0.275   9.165   9.840
   28        0.414   0.197   9.179   9.790
   29        0.415   0.202   9.181   9.798
   30        0.415   0.202   9.181   9.798
   31        0.413   0.207   9.178   9.798
   32        0.413   0.207   9.178   9.798
   33        0.415   0.202   9.182   9.799
   34        0.415   0.202   9.182   9.799
   35        0.413   0.196   9.181   9.790
   36        0.390   0.392   8.439   9.221
   37        0.543   0.032   0.000   0.576
   38        0.543   0.032   0.000   0.576
tot         15.860   8.818 329.412 354.090

 BZINTS: Fermi energy:    0.928587;  397.000000 electrons
         Band energy:-0.124104E+04;  BLOECHL correction:   -0.055095