 vasp.6.2.0 18Jan21 (build Jun 12 2021 23:27:24) complex

 executed on             LinuxIFC date 2022.05.27  05:57:07

 INCAR:
   ISMEAR = -5
   SIGMA = 0.1
   ISPIN = 1
   EDIFF = 1.d-5
   EDIFFG = -0.01
   NSW = 0
   NELM = 150
   ENCUT = 500
   ISIF = 2
   IBRION = 2
   LREAL = Auto
   ALGO = Fast
   ICHARG = 11
   LORBIT = 10
   LCHARG = .F.
   LWAVE = .F.

 POTCAR:    PAW_PBE Cu 22Jun2005
 POTCAR:    PAW_PBE Ti 08Apr2002
 POTCAR:    PAW_PBE C 08Apr2002
 POTCAR:    PAW_PBE O 08Apr2002
|           W    W    AA    RRRRR   N    N  II  N    N   GGGG   !!!           |
|           W    W   A  A   R    R  NN   N  II  NN   N  G    G  !!!           |
|           W    W  A    A  R    R  N N  N  II  N N  N  G       !!!           |
|           W WW W  AAAAAA  RRRRR   N  N N  II  N  N N  G  GGG   !            |
|           WW  WW  A    A  R   R   N   NN  II  N   NN  G    G                |
|           W    W  A    A  R    R  N    N  II  N    N   GGGG   !!!           |
|     For optimal performance we recommend to set                             |
|       NCORE = 2 up to number-of-cores-per-socket                            |
|     This setting can greatly improve the performance of VASP for DFT.       |
|     The default, NCORE=1 might be grossly inefficient on modern             |
|     multi-core architectures or massively parallel machines. Do your        |
|     Unfortunately you need to use the default for GW and RPA                |
|     calculations (for HF NCORE is supported but not extensively tested      |
|     yet).                                                                   |

 POTCAR:    PAW_PBE Cu 22Jun2005
   VRHFIN =Cu: d10 p1

   TITEL  = PAW_PBE Cu 22Jun2005
   POMASS =   63.546; ZVAL   =   11.000    mass and valenz
   ENMAX  =  295.446; ENMIN  =  221.585 eV

 POTCAR:    PAW_PBE Ti 08Apr2002
   VRHFIN =Ti: d3 s1

   TITEL  = PAW_PBE Ti 08Apr2002
   POMASS =   47.880; ZVAL   =    4.000    mass and valenz
   ENMAX  =  178.330; ENMIN  =  133.747 eV

 POTCAR:    PAW_PBE C 08Apr2002
   VRHFIN =C: s2p2

[...]

 POTCAR:    PAW_PBE O 08Apr2002
   VRHFIN =O: s2p4

   TITEL  = PAW_PBE O 08Apr2002
   POMASS =   16.000; ZVAL   =    6.000    mass and valenz
   ENMAX  =  400.000; ENMIN  =  300.000 eV

 Optimization of the real space projectors (new method)

 maximal supplied QI-value         = 16.25
 optimisation between [QCUT,QGAM] = [ 11.38, 22.75] = [ 36.24,144.96] Ry
 Optimized for a Real-space Cutoff    1.52 Angstroem

   l    n(q)    QCUT    max X(q) W(low)/X(q) W(high)/X(q)  e(spline)
   2      9    11.376     4.610    0.21E-03    0.10E-03    0.26E-06
   2      9    11.376     8.522    0.33E-03    0.16E-03    0.37E-06
   0     10    11.376    51.609    0.62E-04    0.20E-04    0.13E-06
   0     10    11.376    27.747    0.54E-04    0.20E-04    0.13E-06
   1     10    11.376    20.408    0.13E-04    0.99E-04    0.19E-06
   1     10    11.376    13.425    0.12E-04    0.87E-04    0.17E-06
 Optimization of the real space projectors (new method)

[...]

   l    n(q)    QCUT    max X(q) W(low)/X(q) W(high)/X(q)  e(spline)
   0      7    11.310   115.676    0.43E-03    0.13E-02    0.19E-06
   0      7    11.310    87.132    0.43E-03    0.13E-02    0.18E-06
   1      6    11.310     4.429    0.42E-03    0.74E-03    0.11E-06
   1      6    11.310     2.733    0.34E-03    0.55E-03    0.92E-07
 Optimization of the real space projectors (new method)

 maximal supplied QI-value         = 24.76
 optimisation between [QCUT,QGAM] = [ 11.39, 22.77] = [ 36.31,145.25] Ry
 Optimized for a Real-space Cutoff    1.00 Angstroem

   l    n(q)    QCUT    max X(q) W(low)/X(q) W(high)/X(q)  e(spline)
   0      7    11.387    20.381    0.39E-03    0.13E-02    0.15E-06
   0      7    11.387    15.268    0.42E-03    0.14E-02    0.17E-06
   1      6    11.387     5.964    0.41E-03    0.11E-02    0.17E-06
   1      6    11.387     5.382    0.39E-03    0.87E-03    0.15E-06
  PAW_PBE Cu 22Jun2005                  :
  PAW_PBE Ti 08Apr2002                  :
  PAW_PBE C 08Apr2002                   :
  PAW_PBE O 08Apr2002                   :

 POSCAR: Cu-Ti-CO
  positions in direct lattice
  velocities in cartesian coordinates
 exchange correlation table for  LEXCH =        8
   RHO(1)=    0.500       N(1)  =     2000
   RHO(2)=  100.500       N(2)  =     4000

 VTST: version 3.2, (02/03/18)

 CHAIN: initializing optimizer

 OPT: Using VASP Conjugate-Gradient optimizer
 CHAIN: Read ICHAIN            0

 POSCAR: Cu-Ti-CO
  positions in direct lattice
  velocities in cartesian coordinates

 ion  position               nearest neighbor table
   1  0.000  0.000  0.252-   7 2.57   3 2.57   4 2.57   2 2.57   6 2.57   8 2.57  12 2.57  10 2.57
                            16 2.57
   2  0.333  0.000  0.252-   8 2.57   9 2.57   5 2.57   1 2.57   3 2.57  11 2.57   4 2.57  10 2.57
                            17 2.57
   3  0.667  0.000  0.252-   1 2.57   7 2.57   6 2.57   9 2.57   2 2.57  12 2.57   5 2.57  18 2.57
                            11 2.57
   4  0.000  0.333  0.252-   5 2.57   6 2.57   1 2.57   7 2.57   2 2.57  13 2.57   9 2.57  10 2.57
                            15 2.57
   5  0.333  0.333  0.252-  37 1.74   4 2.57   2 2.57   7 2.57  13 2.57   8 2.57   6 2.57   3 2.57
                            11 2.57  14 2.57
   6  0.667  0.333  0.252-   4 2.57   9 2.57  15 2.57   3 2.57   1 2.57   8 2.57  14 2.57   5 2.57
                            12 2.57
   7  0.000  0.667  0.252-   1 2.57   3 2.57  16 2.57  18 2.57   4 2.57   5 2.57   8 2.57   9 2.57
                            13 2.57
   8  0.333  0.667  0.252-   9 2.57   2 2.57  17 2.57   6 2.57   1 2.57   7 2.57   5 2.57  14 2.57
                            16 2.57
   9  0.667  0.667  0.252-   8 2.57   6 2.57   2 2.57  17 2.57   3 2.57   7 2.57   4 2.57  15 2.57
                            18 2.57
  10  0.111  0.111  0.351-  26 2.55  19 2.55  11 2.57  12 2.57  13 2.57   1 2.57   2 2.57   4 2.57
                            15 2.57  16 2.57  17 2.57  20 2.57
  11  0.444  0.111  0.351-  27 2.56  20 2.56  21 2.56  10 2.57  13 2.57   2 2.57  17 2.57  14 2.57
                            12 2.57   5 2.57   3 2.57  18 2.57
  12  0.778  0.111  0.351-  19 2.55  25 2.55  15 2.57  10 2.57  14 2.57  18 2.57   3 2.57   1 2.57
                            16 2.57  11 2.57   6 2.57  21 2.57
  13  0.111  0.444  0.351-  22 2.56  23 2.56  20 2.56  16 2.57  18 2.57  10 2.57  11 2.57  14 2.57
                             5 2.57   4 2.57   7 2.57  15 2.57
  14  0.444  0.444  0.351-  24 2.56  21 2.56  23 2.56  15 2.57  17 2.57  12 2.57  16 2.57  13 2.57
                            11 2.57   6 2.57   8 2.57   5 2.57
  15  0.778  0.444  0.351-  19 2.55  24 2.56  22 2.56  14 2.57  17 2.57  12 2.57   6 2.57  18 2.57
                            10 2.57   9 2.57  13 2.57   4 2.57
  16  0.111  0.778  0.351-  25 2.55  26 2.55  18 2.57  13 2.57   7 2.57  14 2.57  17 2.57  12 2.57
                            10 2.57   8 2.57   1 2.57  23 2.57
  17  0.444  0.778  0.351-  26 2.55  27 2.56  24 2.56  14 2.57  15 2.57   8 2.57   9 2.57  11 2.57
                            16 2.57  18 2.57  10 2.57   2 2.57
  18  0.778  0.778  0.351-  25 2.55  22 2.56  27 2.56  16 2.57  13 2.57   7 2.57  15 2.57  12 2.57
                            17 2.57   9 2.57   3 2.57  11 2.57
  19  0.889  0.222  0.448-  12 2.55  10 2.55  15 2.55  25 2.56  26 2.56  28 2.56  22 2.57  24 2.57
                            21 2.57  20 2.57  32 2.57  31 2.57
  20  0.223  0.223  0.449-  23 2.55  21 2.55  11 2.56  13 2.56  27 2.57  22 2.57  29 2.57  31 2.57
                            10 2.57  26 2.57  19 2.57  36 2.66
  21  0.555  0.223  0.449-  20 2.55  23 2.55  14 2.56  11 2.56  24 2.57  27 2.57  32 2.57  30 2.57
                            12 2.57  19 2.57  25 2.57  36 2.66
  22  0.889  0.556  0.449-  18 2.56  15 2.56  13 2.56  31 2.56  33 2.56  24 2.56  27 2.56  23 2.57
                            20 2.57  19 2.57  25 2.57  35 2.57
  23  0.223  0.555  0.449-  20 2.55  21 2.55  13 2.56  14 2.56  22 2.57  24 2.57  33 2.57  34 2.57
                            16 2.57  25 2.57  26 2.57  36 2.66
  24  0.556  0.556  0.449-  15 2.56  17 2.56  14 2.56  32 2.56  34 2.56  22 2.56  27 2.56  21 2.57
                            23 2.57  19 2.57  26 2.57  35 2.57
  25  0.889  0.889  0.448-  12 2.55  16 2.55  18 2.55  19 2.56  26 2.56  28 2.56  22 2.57  27 2.57
                            21 2.57  23 2.57  33 2.57  30 2.57
  26  0.222  0.889  0.448-  10 2.55  16 2.55  17 2.55  25 2.56  19 2.56  28 2.56  27 2.57  24 2.57
                            20 2.57  23 2.57  29 2.57  34 2.57
  27  0.556  0.889  0.449-  17 2.56  18 2.56  11 2.56  29 2.56  30 2.56  24 2.56  22 2.56  20 2.57
                            21 2.57  26 2.57  25 2.57  35 2.57
  28  0.000  0.000  0.547-  33 2.56  30 2.56  31 2.56  29 2.56  32 2.56  34 2.56  25 2.56  19 2.56
                            26 2.56
  29  0.334  0.998  0.547-  34 2.53  35 2.55  28 2.56  27 2.56  20 2.57  26 2.57  30 2.58  36 2.59
                            31 2.59
  30  0.669  0.998  0.547-  33 2.53  35 2.55  28 2.56  27 2.56  21 2.57  25 2.57  29 2.58  36 2.59
                            32 2.59
  31  0.998  0.334  0.547-  32 2.53  35 2.55  28 2.56  22 2.56  20 2.57  19 2.57  33 2.58  36 2.59
                            29 2.59
  32  0.669  0.334  0.547-  31 2.53  35 2.55  28 2.56  24 2.56  21 2.57  19 2.57  34 2.58  36 2.59
                            30 2.59
  33  0.998  0.669  0.547-  30 2.53  35 2.55  28 2.56  22 2.56  23 2.57  25 2.57  31 2.58  36 2.59
                            34 2.59
  34  0.334  0.669  0.547-  29 2.53  35 2.55  28 2.56  24 2.56  23 2.57  26 2.57  32 2.58  36 2.59
                            33 2.59
  35  0.667  0.667  0.548-  34 2.55  32 2.55  29 2.55  30 2.55  33 2.55  31 2.55  24 2.57  27 2.57
                            22 2.57
  36  0.333  0.333  0.553-  38 1.70  31 2.59  29 2.59  33 2.59  32 2.59  34 2.59  30 2.59  23 2.66
                            20 2.66  21 2.66
  37  0.333  0.333  0.171-   5 1.74
  38  0.333  0.333  0.633-  36 1.70

  LATTYP: Found a hexagonal cell.
 ALAT       =     7.6967864036
 C/A-ratio  =     2.7653617908

  Lattice vectors:

 A1 = (  -3.8483927580,  -6.6656128093,   0.0000000000)
 A2 = (   7.6967864037,   0.0000000000,   0.0000000000)
 A3 = (   0.0000000000,   0.0000000000,  21.2843990326)

Analysis of symmetry for initial positions (statically):
 Subroutine PRICEL returns:
 Original cell was already a primitive cell.

 Routine SETGRP: Setting up the symmetry group for a
 hexagonal supercell.

 Subroutine GETGRP returns: Found  6 space group operations
 (whereof  6 operations were pure point group operations)
 out of a pool of 24 trial point group operations.

The static configuration has the point symmetry C_3v.

Analysis of symmetry for dynamics (positions and initial velocities):
 Subroutine PRICEL returns:
 Original cell was already a primitive cell.

[...]

The dynamic configuration has the point symmetry C_3v.

Analysis of constrained symmetry for selective dynamics:
 Subroutine PRICEL returns:
 Original cell was already a primitive cell.

 Routine SETGRP: Setting up the symmetry group for a
 hexagonal supercell.

[...]
     33      -4.3559      2.00000
     34      -4.3397      2.00000
     35      -4.3376      2.00000
     36      -4.3031      2.00000
     37      -4.2766      2.00000
     38      -4.2473      2.00000
     39      -4.2077      2.00000
     40      -4.1766      2.00000
     41      -4.1307      2.00000
     42      -4.0284      2.00000
     43      -4.0160      2.00000
     44      -3.9665      2.00000
     45      -3.9519      2.00000
     46      -3.9360      2.00000
     47      -3.9253      2.00000
     48      -3.8874      2.00000
     49      -3.8720      2.00000
     50      -3.8391      2.00000
     51      -3.7615      2.00000
     52      -3.7103      2.00000
     53      -3.6965      2.00000
     54      -3.6760      2.00000
     55      -3.6581      2.00000
     56      -3.6542      2.00000
     57      -3.6255      2.00000
     58      -3.6132      2.00000
     59      -3.5885      2.00000
     60      -3.5706      2.00000
[...]
    238       6.0032      0.00000
    239       6.0389      0.00000
    240       6.0918      0.00000
    241       6.1891      0.00000
    242       6.2186      0.00000
    243       6.3775      0.00000
    244       6.8208      0.00000
    245       6.9542      0.00000
    246       7.0271      0.00000
    247       7.1337      0.00000
    248       7.1511      0.00000
    249       7.1959      0.00000
    250       7.3422      0.00000
    251       7.4140      0.00000
    252       7.5406      0.00000

 soft charge-density along one line, spin component           1
         0         1         2         3         4         5         6         7         8         9
 total charge-density along one line

------------------------ aborting loop because EDIFF is reached ----------------------------------------

 total charge

# of ion       s       p       d       tot
    1        0.450   0.278   9.193   9.921
    2        0.433   0.288   9.189   9.911
    3        0.433   0.288   9.189   9.911
    4        0.433   0.288   9.189   9.911
    5        0.552   0.552   9.078  10.182
    6        0.433   0.288   9.189   9.911
    7        0.433   0.288   9.189   9.911
    8        0.433   0.288   9.189   9.911
    9        0.447   0.279   9.196   9.922
   10        0.442   0.367   9.180   9.990
   11        0.446   0.367   9.181   9.994
   12        0.442   0.367   9.180   9.990
   13        0.446   0.367   9.181   9.994
   14        0.446   0.367   9.181   9.994
   15        0.439   0.374   9.170   9.983
   16        0.442   0.367   9.180   9.990
   17        0.439   0.374   9.170   9.983
   18        0.439   0.374   9.170   9.983
   19        0.444   0.368   9.183   9.995
   20        0.453   0.380   9.173  10.006
   21        0.453   0.380   9.173  10.006
   22        0.436   0.375   9.176   9.988
   23        0.453   0.380   9.173  10.006
   24        0.436   0.375   9.176   9.988
   25        0.444   0.368   9.183   9.995
   26        0.444   0.368   9.183   9.995
   27        0.436   0.375   9.176   9.988
   28        0.447   0.290   9.187   9.924
   29        0.471   0.295   9.178   9.945
   30        0.471   0.295   9.178   9.945
   31        0.471   0.295   9.178   9.945
   32        0.471   0.295   9.178   9.945
   33        0.471   0.295   9.178   9.945
   34        0.471   0.295   9.178   9.945
   35        0.451   0.293   9.182   9.927
   36        0.600   0.822   2.832   4.255
   37        1.029   1.078   0.000   2.107
   38        1.606   3.273   0.000   4.878
tot         18.994  17.062 324.063 360.118

  FORCE on cell =-STRESS in cart. coord.  units (eV):
  Direction    XX          YY          ZZ          XY          YZ          ZX
  Alpha Z   898.41545   898.41545   898.41545
  Ewald  169990.28375169990.28340************     0.00038     0.00014     0.00015
  Hartree182921.29263182921.29265************     0.00003     0.00007     0.00005
  E(xc)   -2305.10221 -2305.10174 -2310.94349    -0.00041    -0.00004    -0.00006
  Local  ************************365654.72665     0.01880    -0.00064    -0.00094
  n-local  -774.36402  -763.76115  -782.42358     5.79734    -0.04653     0.12747
  augment  3321.37205  3321.39234  3337.11518    -0.01759     0.00024     0.00041
  Kinetic  3338.54664  3336.22037  3356.74398    -0.05992     2.12446    -1.34141
  Fock        0.00000     0.00000     0.00000     0.00000     0.00000     0.00000
  Total      -4.01367    -4.01367    -0.42136     0.00000    -0.00000    -0.00000
  in kB      -5.88900    -5.88900    -0.61823     0.00000    -0.00000    -0.00000

 VOLUME and BASIS-vectors are now :
  energy-cutoff  :      500.00
  volume of cell :     1091.97
      direct lattice vectors                 reciprocal lattice vectors
     7.696786404  0.000000000  0.000000000     0.129924354 -0.075011849  0.000000000
     3.848392758  6.665612809  0.000000000     0.000000000  0.150023716  0.000000000
     0.000000000  0.000000000 21.284399033     0.000000000  0.000000000  0.046982769

  length of vectors
     7.696786404  7.696786404 21.284399033     0.150023716  0.150023716  0.046982769

 FORCES acting on ions
    electron-ion (+dipol)            ewald-force                    non-local-force                 convergence-correction
   -.389E-04 0.179E-05 0.342E+04   0.541E-04 -.522E-05 -.342E+04   0.357E-17 0.236E-17 -.243E+01   -.299E-03 -.151E-03 0.293E+00
   0.167E+02 0.297E+02 0.340E+04   -.172E+02 -.303E+02 -.340E+04   0.531E+00 0.961E+00 -.229E+01   -.604E-01 -.348E+00 0.476E+00
   -.167E+02 0.297E+02 0.340E+04   0.172E+02 -.303E+02 -.340E+04   -.531E+00 0.961E+00 -.229E+01   0.612E-01 -.345E+00 0.477E+00
   0.341E+02 -.363E+00 0.340E+04   -.348E+02 0.271E+00 -.340E+04   0.110E+01 -.204E-01 -.229E+01   -.331E+00 0.122E+00 0.476E+00
   -.411E-04 -.824E-05 0.322E+04   0.116E-03 -.101E-04 -.323E+04   -.429E-17 -.473E-17 0.307E+01   0.125E-01 0.761E-02 0.122E+01
   -.341E+02 -.363E+00 0.340E+04   0.348E+02 0.271E+00 -.340E+04   -.110E+01 -.204E-01 -.229E+01   0.330E+00 0.123E+00 0.477E+00
   0.174E+02 -.293E+02 0.340E+04   -.176E+02 0.300E+02 -.340E+04   0.567E+00 -.940E+00 -.229E+01   -.268E+00 0.226E+00 0.477E+00
   -.174E+02 -.293E+02 0.340E+04   0.176E+02 0.300E+02 -.340E+04   -.567E+00 -.940E+00 -.229E+01   0.272E+00 0.224E+00 0.477E+00
   -.148E-03 -.329E-04 0.342E+04   0.267E-03 0.213E-04 -.342E+04   -.755E-18 0.763E-18 -.247E+01   -.133E-01 -.682E-02 0.368E+00
   -.473E+01 -.273E+01 0.109E+04   0.512E+01 0.295E+01 -.109E+04   -.381E+00 -.220E+00 -.838E+00   -.989E-02 -.590E-02 -.143E+00
   -.889E-04 -.176E+01 0.107E+04   0.189E-03 0.215E+01 -.107E+04   0.953E-08 -.143E+00 -.479E+00   0.116E-01 -.204E+00 -.836E-01
   0.473E+01 -.273E+01 0.109E+04   -.512E+01 0.295E+01 -.109E+04   0.381E+00 -.220E+00 -.838E+00   0.855E-02 -.448E-02 -.144E+00
   -.152E+01 0.880E+00 0.107E+04   0.187E+01 -.108E+01 -.107E+04   -.124E+00 0.716E-01 -.479E+00   -.170E+00 0.112E+00 -.844E-01
   0.152E+01 0.880E+00 0.107E+04   -.187E+01 -.108E+01 -.107E+04   0.124E+00 0.716E-01 -.479E+00   0.194E+00 0.112E+00 -.849E-01
   -.142E-03 -.214E+01 0.110E+04   0.297E-03 0.195E+01 -.109E+04   -.111E-08 0.166E-01 -.565E+00   -.353E-02 0.154E+00 -.216E+00
   -.916E-04 0.546E+01 0.109E+04   0.186E-03 -.591E+01 -.109E+04   -.293E-07 0.440E+00 -.838E+00   -.587E-04 0.858E-02 -.144E+00
   -.185E+01 0.107E+01 0.110E+04   0.169E+01 -.974E+00 -.109E+04   0.144E-01 -.831E-02 -.565E+00   0.132E+00 -.800E-01 -.216E+00
   0.185E+01 0.107E+01 0.110E+04   -.169E+01 -.974E+00 -.109E+04   -.144E-01 -.831E-02 -.565E+00   -.132E+00 -.773E-01 -.215E+00
   -.698E-04 -.895E+01 -.120E+04   0.728E-04 0.882E+01 0.119E+04   -.866E-08 0.130E+00 0.128E+01   0.918E-03 -.459E-02 -.557E+00
   -.639E+02 -.369E+02 -.130E+04   0.646E+02 0.373E+02 0.130E+04   -.726E+00 -.419E+00 0.114E+00   -.116E+00 -.684E-01 -.506E+00
   0.639E+02 -.369E+02 -.130E+04   -.646E+02 0.373E+02 0.130E+04   0.726E+00 -.419E+00 0.114E+00   0.958E-01 -.671E-01 -.507E+00
   -.285E+02 0.165E+02 -.122E+04   0.284E+02 -.164E+02 0.122E+04   0.166E+00 -.956E-01 0.958E+00   -.551E-01 0.300E-01 -.537E+00
   -.724E-04 0.738E+02 -.130E+04   0.155E-03 -.746E+02 0.130E+04   -.558E-07 0.838E+00 0.114E+00   0.118E-01 0.116E+00 -.507E+00
   0.285E+02 0.165E+02 -.122E+04   -.284E+02 -.164E+02 0.122E+04   -.166E+00 -.956E-01 0.958E+00   0.532E-01 0.308E-01 -.537E+00
   0.775E+01 0.447E+01 -.120E+04   -.763E+01 -.441E+01 0.119E+04   -.113E+00 -.650E-01 0.128E+01   0.416E-02 0.338E-02 -.557E+00
   -.775E+01 0.447E+01 -.120E+04   0.763E+01 -.441E+01 0.119E+04   0.113E+00 -.650E-01 0.128E+01   -.295E-02 0.260E-02 -.557E+00
   -.134E-03 -.329E+02 -.122E+04   0.240E-03 0.328E+02 0.122E+04   -.127E-07 0.191E+00 0.958E+00   -.109E-02 -.613E-01 -.537E+00
   -.293E-04 0.217E-04 -.343E+04   0.447E-04 -.319E-04 0.343E+04   0.310E-17 0.135E-17 0.189E+01   0.303E-03 0.166E-03 -.633E-02
   -.416E+02 -.823E+02 -.342E+04   0.416E+02 0.821E+02 0.341E+04   -.175E+00 -.124E+00 0.250E+01   0.764E-01 0.694E-01 -.119E+00
   0.416E+02 -.823E+02 -.342E+04   -.416E+02 0.821E+02 0.341E+04   0.175E+00 -.124E+00 0.250E+01   -.761E-01 0.711E-01 -.118E+00
   -.921E+02 0.509E+01 -.342E+04   0.919E+02 -.503E+01 0.341E+04   -.195E+00 -.894E-01 0.250E+01   0.983E-01 0.311E-01 -.118E+00
   0.921E+02 0.509E+01 -.342E+04   -.919E+02 -.503E+01 0.341E+04   0.195E+00 -.894E-01 0.250E+01   -.985E-01 0.327E-01 -.118E+00
   -.504E+02 0.772E+02 -.342E+04   0.503E+02 -.771E+02 0.341E+04   -.202E-01 0.214E+00 0.250E+01   0.234E-01 -.101E+00 -.117E+00
   0.504E+02 0.772E+02 -.342E+04   -.503E+02 -.771E+02 0.341E+04   0.202E-01 0.214E+00 0.250E+01   -.201E-01 -.102E+00 -.118E+00
   -.124E-03 -.134E-04 -.345E+04   0.250E-03 0.791E-06 0.345E+04   0.102E-16 -.107E-16 0.203E+01   -.131E-01 -.652E-02 -.579E-01
   -.277E-04 -.805E-05 -.117E+04   0.467E-04 0.108E-04 0.117E+04   -.115E-17 0.325E-17 0.973E+00   0.504E-03 0.190E-03 -.413E-01
   0.210E-04 -.356E-04 0.153E+04   0.982E-05 0.873E-06 -.154E+04   -.133E-17 -.107E-18 0.110E+02   0.809E-03 0.486E-03 0.141E+00
   0.170E-03 -.835E-04 -.207E+04   0.150E-04 0.728E-05 0.209E+04   -.252E-18 0.403E-18 -.237E+02   0.293E-02 0.175E-02 -.139E+00
   -.601E-04 -.124E-03 0.928E+01   0.161E-12 0.255E-13 0.159E-10   -.398E-15 -.174E-15 -.698E+01   0.175E-01 -.416E-02 -.221E+01

 POSITION                                       TOTAL-FORCE (eV/Angst)
      0.00000      0.00000      5.37156        -0.000000     -0.000000      0.076007
      2.56560      0.00000      5.37156         0.019142      0.015102     -0.094674
      5.13119      0.00000      5.37156        -0.019142      0.015102     -0.094674
      1.28280      2.22187      5.37156         0.022650      0.009027     -0.094674
      3.84839      2.22187      5.37156        -0.000000     -0.000000      0.455292
      6.41399      2.22187      5.37156        -0.022650      0.009027     -0.094674
      2.56560      4.44374      5.37156         0.003508     -0.024129     -0.094674
      5.13119      4.44374      5.37156        -0.003508     -0.024129     -0.094674
      7.69679      4.44374      5.37156        -0.000000     -0.000000      0.105553
      1.28280      0.74062      7.46636        -0.000734     -0.000424     -0.094018
      3.84839      0.74062      7.46636        -0.000000      0.041164      0.103399
      6.41399      0.74062      7.46636         0.000734     -0.000424     -0.094018
      2.56560      2.96249      7.46636         0.035649     -0.020582      0.103399
      5.13119      2.96249      7.46636        -0.035649     -0.020582      0.103399
      7.69679      2.96249      7.46636         0.000000     -0.021513     -0.059015
      3.84839      5.18437      7.46636        -0.000000      0.000848     -0.094018
      6.41399      5.18437      7.46636        -0.018631      0.010757     -0.059015
      8.97958      5.18437      7.46636         0.018631      0.010757     -0.059015
      7.69679      1.47704      9.53921         0.000000     -0.007677      0.070610
      2.57092      1.48432      9.56248        -0.199792     -0.115350     -0.215576
      5.12587      1.48432      9.56248         0.199792     -0.115350     -0.215576
      8.97870      3.70363      9.55579         0.034371     -0.019844      0.043859
      3.84839      3.69697      9.56248        -0.000000      0.230700     -0.215576
      6.41487      3.70363      9.55579        -0.034371     -0.019844      0.043859
     10.26602      5.92709      9.53921         0.006648      0.003839      0.070610
      5.12755      5.92709      9.53921        -0.006648      0.003839      0.070610
      7.69679      5.92397      9.55579        -0.000000      0.039688      0.043859
      0.00000      0.00000     11.63511        -0.000000     -0.000000     -0.045268
      6.40848      6.64966     11.64831        -0.113128     -0.198474     -0.098173
      8.98509      6.64966     11.64831         0.113128     -0.198474     -0.098173
      8.96302      2.22507     11.64831        -0.228447      0.001266     -0.098173
      6.43055      2.22507     11.64831         0.228447      0.001266     -0.098173
     10.25132      4.45649     11.64831        -0.115320      0.197208     -0.098173
      5.14225      4.45649     11.64831         0.115320      0.197208     -0.098173
      7.69679      4.44374     11.65790         0.000000     -0.000000     -0.047119
      3.84839      2.22187     11.77538        -0.000000     -0.000000      1.030337
      3.84839      2.22187      3.63470        -0.000000     -0.000000      0.008524
      3.84839      2.22187     13.47926        -0.000000     -0.000000      0.025974
    total drift:                                0.017420     -0.004280      0.089225

  FREE ENERGIE OF THE ION-ELECTRON SYSTEM (eV)
  free  energy   TOTEN  =      -141.76048917 eV

  energy  without entropy=     -141.76048917  energy(sigma->0) =     -141.76048917

 stress matrix after NEB project (eV)
     -4.01367      0.00000     -0.00000
      0.00000     -4.01367     -0.00000
     -0.00000     -0.00000     -0.42136
  FORCES: max atom, RMS     0.025974    0.004435
  FORCE total and by dimension    0.027337    0.025974
  Stress total and by dimension    5.691808    4.013673
|           W    W    AA    RRRRR   N    N  II  N    N   GGGG   !!!           |
|           W    W   A  A   R    R  NN   N  II  NN   N  G    G  !!!           |
|           W    W  A    A  R    R  N N  N  II  N N  N  G       !!!           |
|           W WW W  AAAAAA  RRRRR   N  N N  II  N  N N  G  GGG   !            |
|           WW  WW  A    A  R   R   N   NN  II  N   NN  G    G                |
|           W    W  A    A  R    R  N    N  II  N    N   GGGG   !!!           |
|     Tetrahedron method does not include variations of the Fermi             |
|     occupations, so forces and stress will be inaccurate. We suggest        |
|     using a different smearing scheme ISMEAR = 1 or 2 for metals in         |
|     relaxations.                                                            |

 total charge

# of ion       s       p       d       tot
    1        0.450   0.278   9.193   9.921
    2        0.433   0.288   9.189   9.911
    3        0.433   0.288   9.189   9.911
    4        0.433   0.288   9.189   9.911
    5        0.552   0.552   9.078  10.182
    6        0.433   0.288   9.189   9.911
    7        0.433   0.288   9.189   9.911
    8        0.433   0.288   9.189   9.911
    9        0.447   0.279   9.196   9.922
   10        0.442   0.367   9.180   9.990
   11        0.446   0.367   9.181   9.994
   12        0.442   0.367   9.180   9.990
   13        0.446   0.367   9.181   9.994
   14        0.446   0.367   9.181   9.994
   15        0.439   0.374   9.170   9.983
   16        0.442   0.367   9.180   9.990
   17        0.439   0.374   9.170   9.983
   18        0.439   0.374   9.170   9.983
   19        0.444   0.368   9.183   9.995
   20        0.453   0.380   9.173  10.006
   21        0.453   0.380   9.173  10.006
   22        0.436   0.375   9.176   9.988
   23        0.453   0.380   9.173  10.006
   24        0.436   0.375   9.176   9.988
   25        0.444   0.368   9.183   9.995
   26        0.444   0.368   9.183   9.995
   27        0.436   0.375   9.176   9.988
   28        0.447   0.290   9.187   9.924
   29        0.471   0.295   9.178   9.945
   30        0.471   0.295   9.178   9.945
   31        0.471   0.295   9.178   9.945
   32        0.471   0.295   9.178   9.945
   33        0.471   0.295   9.178   9.945
   34        0.471   0.295   9.178   9.945
   35        0.451   0.293   9.182   9.927
   36        0.600   0.822   2.832   4.255
   37        1.029   1.078   0.000   2.107
   38        1.606   3.273   0.000   4.878
tot         18.994  17.062 324.063 360.118

 BZINTS: Fermi energy:   -0.169735;  399.000000 electrons
         Band energy:-0.127426E+04;  BLOECHL correction:   -0.025651