 vasp.6.2.0 18Jan21 (build Jun 12 2021 23:27:24) complex

 executed on             LinuxIFC date 2022.05.28  00:46:51

 INCAR:
   ISMEAR = -5
   SIGMA = 0.1
   ISPIN = 1
   EDIFF = 1.d-5
   EDIFFG = -0.01
   NSW = 0
   NELM = 150
   ENCUT = 500
   ISIF = 2
   IBRION = 2
   LREAL = Auto
   ALGO = Fast
   ICHARG = 11
   LORBIT = 10
   LCHARG = .F.
   LWAVE = .F.

 POTCAR:    PAW_PBE Au 04Oct2007
 POTCAR:    PAW_PBE Fe 06Sep2000
 POTCAR:    PAW_PBE O 08Apr2002
 POTCAR:    PAW_PBE H 15Jun2001
|           W    W    AA    RRRRR   N    N  II  N    N   GGGG   !!!           |
|           W    W   A  A   R    R  NN   N  II  NN   N  G    G  !!!           |
|           W    W  A    A  R    R  N N  N  II  N N  N  G       !!!           |
|           W WW W  AAAAAA  RRRRR   N  N N  II  N  N N  G  GGG   !            |
|           WW  WW  A    A  R   R   N   NN  II  N   NN  G    G                |
|           W    W  A    A  R    R  N    N  II  N    N   GGGG   !!!           |
|     For optimal performance we recommend to set                             |
|       NCORE = 2 up to number-of-cores-per-socket                            |
|     This setting can greatly improve the performance of VASP for DFT.       |
|     The default, NCORE=1 might be grossly inefficient on modern             |
|     multi-core architectures or massively parallel machines. Do your        |
|     Unfortunately you need to use the default for GW and RPA                |
|     calculations (for HF NCORE is supported but not extensively tested      |
|     yet).                                                                   |

 POTCAR:    PAW_PBE Au 04Oct2007
   VRHFIN =Au: s1d10

   TITEL  = PAW_PBE Au 04Oct2007
   POMASS =  196.966; ZVAL   =   11.000    mass and valenz
   ENMAX  =  229.943; ENMIN  =  172.457 eV

 POTCAR:    PAW_PBE Fe 06Sep2000
   VRHFIN =Fe:  d7 s1

   TITEL  = PAW_PBE Fe 06Sep2000
   POMASS =   55.847; ZVAL   =    8.000    mass and valenz
   ENMAX  =  267.882; ENMIN  =  200.911 eV

 POTCAR:    PAW_PBE O 08Apr2002
   VRHFIN =O: s2p4

   TITEL  = PAW_PBE O 08Apr2002
   POMASS =   16.000; ZVAL   =    6.000    mass and valenz
   ENMAX  =  400.000; ENMIN  =  300.000 eV

 POTCAR:    PAW_PBE H 15Jun2001
   VRHFIN =H: ultrasoft test

   TITEL  = PAW_PBE H 15Jun2001
   POMASS =    1.000; ZVAL   =    1.000    mass and valenz
   ENMAX  =  250.000; ENMIN  =  200.000 eV

 Optimization of the real space projectors (new method)

 maximal supplied QI-value         = 15.12
 optimisation between [QCUT,QGAM] = [ 11.34, 22.83] = [ 36.00,145.93] Ry
 Optimized for a Real-space Cutoff    1.39 Angstroem

   l    n(q)    QCUT    max X(q) W(low)/X(q) W(high)/X(q)  e(spline)
   2      9    11.338    60.898    0.39E-03    0.42E-03    0.21E-06
   2      9    11.338    58.894    0.40E-03    0.42E-03    0.22E-06
   0      9    11.338   109.617    0.13E-03    0.20E-04    0.13E-06
   0      9    11.338    75.026    0.13E-03    0.20E-04    0.13E-06
   1      9    11.338    16.344    0.33E-04    0.24E-03    0.18E-06
   1      9    11.338    10.160    0.26E-04    0.19E-03    0.15E-06
 Optimization of the real space projectors (new method)

[...]

   l    n(q)    QCUT    max X(q) W(low)/X(q) W(high)/X(q)  e(spline)
   0      7    11.387    20.381    0.39E-03    0.13E-02    0.15E-06
   0      7    11.387    15.268    0.42E-03    0.14E-02    0.17E-06
   1      6    11.387     5.964    0.41E-03    0.11E-02    0.17E-06
   1      6    11.387     5.382    0.39E-03    0.87E-03    0.15E-06
 Optimization of the real space projectors (new method)

 maximal supplied QI-value         = 34.20
 optimisation between [QCUT,QGAM] = [ 11.29, 22.57] = [ 35.68,142.71] Ry
 Optimized for a Real-space Cutoff    1.16 Angstroem

   l    n(q)    QCUT    max X(q) W(low)/X(q) W(high)/X(q)  e(spline)
   0      8    11.287    19.460    0.40E-03    0.73E-03    0.16E-06
   0      8    11.287    12.209    0.38E-03    0.70E-03    0.15E-06
   1      7    11.287     4.655    0.22E-03    0.25E-04    0.22E-06
  PAW_PBE Au 04Oct2007                  :
  PAW_PBE Fe 06Sep2000                  :
  PAW_PBE O 08Apr2002                   :
  PAW_PBE H 15Jun2001                   :

 POSCAR: Au-Fe-OOH
  positions in direct lattice
  velocities in cartesian coordinates
 exchange correlation table for  LEXCH =        8
   RHO(1)=    0.500       N(1)  =     2000
   RHO(2)=  100.500       N(2)  =     4000

 VTST: version 3.2, (02/03/18)

 CHAIN: initializing optimizer

 OPT: Using VASP Conjugate-Gradient optimizer
 CHAIN: Read ICHAIN            0

 POSCAR: Au-Fe-OOH
  positions in direct lattice
  velocities in cartesian coordinates

 ion  position               nearest neighbor table
   1  0.000  0.000  0.204-  16 2.94  12 2.94   6 2.94   8 2.94   7 2.94   3 2.94  10 2.94   4 2.94
                             2 2.94
   2  0.333  0.000  0.204-   9 2.94  11 2.94  17 2.94  10 2.94   8 2.94   4 2.94   5 2.94   1 2.94
                             3 2.94
   3  0.667  0.000  0.204-   7 2.94  18 2.94  12 2.94   1 2.94  11 2.94   5 2.94   6 2.94   9 2.94
                             2 2.94
   4  0.000  0.333  0.204-  10 2.94   6 2.94   5 2.94  13 2.94   2 2.94  15 2.94   9 2.94   1 2.94
                             7 2.94
   5  0.333  0.333  0.204-  13 2.94   7 2.94  11 2.94   4 2.94   2 2.94  14 2.94   3 2.94   8 2.94
                             6 2.94
   6  0.667  0.333  0.204-  15 2.94  14 2.94   1 2.94  12 2.94   4 2.94   9 2.94   8 2.94   3 2.94
                             5 2.94
   7  0.000  0.667  0.204-  18 2.94   3 2.94  16 2.94   5 2.94   1 2.94  13 2.94   8 2.94   4 2.94
                             9 2.94
   8  0.333  0.667  0.204-   9 2.94  17 2.94   1 2.94   2 2.94  14 2.94  16 2.94   6 2.94   7 2.94
                             5 2.94
   9  0.667  0.667  0.204-   2 2.94   8 2.94  17 2.94   6 2.94  15 2.94   4 2.94   3 2.94  18 2.94
                             7 2.94
  10  0.111  0.111  0.296-  20 2.93  26 2.94  19 2.94  11 2.94  17 2.94   2 2.94   4 2.94   1 2.94
                            12 2.94  16 2.94  13 2.94  15 2.94
  11  0.444  0.111  0.296-  20 2.91  21 2.91  27 2.93  13 2.94   2 2.94  10 2.94  17 2.94   5 2.94
                             3 2.94  18 2.94  14 2.94  12 2.94
  12  0.778  0.111  0.296-  21 2.93  25 2.94  19 2.94  16 2.94  18 2.94   1 2.94  14 2.94  15 2.94
                             3 2.94   6 2.94  10 2.94  11 2.94
  13  0.111  0.444  0.296-  23 2.91  20 2.91  22 2.93   5 2.94  18 2.94  11 2.94   7 2.94   4 2.94
                            16 2.94  10 2.94  14 2.94  15 2.94
  14  0.444  0.444  0.296-  21 2.91  23 2.91  24 2.93  15 2.94   6 2.94  12 2.94   8 2.94  17 2.94
                             5 2.94  16 2.94  13 2.94  11 2.94
  15  0.778  0.444  0.296-  24 2.92  22 2.92  19 2.94  14 2.94   6 2.94  17 2.94  12 2.94   9 2.94
                             4 2.94  10 2.94  13 2.94  18 2.94
  16  0.111  0.778  0.296-  23 2.93  25 2.94  26 2.94  18 2.94  12 2.94   7 2.94   1 2.94   8 2.94
                            13 2.94  10 2.94  14 2.94  17 2.94
  17  0.444  0.778  0.296-  27 2.92  24 2.92  26 2.94   9 2.94  15 2.94   2 2.94  10 2.94  11 2.94
                             8 2.94  14 2.94  16 2.94  18 2.94
  18  0.778  0.778  0.296-  22 2.92  27 2.92  25 2.94  16 2.94   7 2.94  13 2.94  12 2.94   3 2.94
                            11 2.94   9 2.94  15 2.94  17 2.94
  19  0.889  0.222  0.389-  10 2.94  12 2.94  15 2.94  26 2.94  25 2.94  24 2.94  22 2.94  28 2.95
                            21 2.95  20 2.95  32 2.98  31 2.98
  20  0.223  0.223  0.388-  36 2.70  23 2.91  21 2.91  11 2.91  13 2.91  29 2.92  31 2.92  10 2.93
                            27 2.95  22 2.95  26 2.95  19 2.95
  21  0.553  0.223  0.388-  36 2.70  20 2.91  23 2.91  14 2.91  11 2.91  30 2.92  32 2.92  12 2.93
                            27 2.95  24 2.95  25 2.95  19 2.95
  22  0.887  0.557  0.388-  24 2.91  27 2.91  18 2.92  15 2.92  13 2.93  25 2.94  19 2.94  33 2.95
                            31 2.95  23 2.95  20 2.95  35 2.95
  23  0.223  0.553  0.388-  36 2.70  20 2.91  21 2.91  13 2.91  14 2.91  33 2.92  34 2.92  16 2.93
                            22 2.95  24 2.95  25 2.95  26 2.95
  24  0.557  0.557  0.388-  27 2.91  22 2.91  15 2.92  17 2.92  14 2.93  26 2.94  19 2.94  32 2.95
                            34 2.95  21 2.95  23 2.95  35 2.95
  25  0.889  0.889  0.389-  16 2.94  12 2.94  18 2.94  19 2.94  26 2.94  22 2.94  27 2.94  28 2.95
                            23 2.95  21 2.95  33 2.98  30 2.98
  26  0.222  0.889  0.389-  10 2.94  16 2.94  17 2.94  19 2.94  25 2.94  27 2.94  24 2.94  28 2.95
                            20 2.95  23 2.95  29 2.98  34 2.98
  27  0.557  0.887  0.388-  24 2.91  22 2.91  17 2.92  18 2.92  11 2.93  26 2.94  25 2.94  29 2.95
                            30 2.95  20 2.95  21 2.95  35 2.95
  28  0.000  0.000  0.482-  25 2.95  19 2.95  26 2.95  34 2.98  32 2.98  33 2.98  30 2.98  31 2.98
                            29 2.98
  29  0.333  0.010  0.481-  30 2.85  31 2.85  36 2.87  20 2.92  27 2.95  26 2.98  35 2.98  28 2.98
                            34 3.11
  30  0.657  0.010  0.481-  29 2.85  32 2.85  36 2.87  21 2.92  27 2.95  25 2.98  35 2.98  28 2.98
                            33 3.11
  31  0.010  0.333  0.481-  33 2.85  29 2.85  36 2.87  20 2.92  22 2.95  19 2.98  35 2.98  28 2.98
                            32 3.11
  32  0.657  0.333  0.481-  34 2.85  30 2.85  36 2.87  21 2.92  24 2.95  19 2.98  35 2.98  28 2.98
                            31 3.11
  33  0.010  0.657  0.481-  31 2.85  34 2.85  36 2.87  23 2.92  22 2.95  25 2.98  35 2.98  28 2.98
                            30 3.11
  34  0.333  0.657  0.481-  32 2.85  33 2.85  36 2.87  23 2.92  24 2.95  26 2.98  35 2.98  28 2.98
                            29 3.11
  35  0.667  0.667  0.482-  24 2.95  27 2.95  22 2.95  29 2.98  34 2.98  32 2.98  31 2.98  30 2.98
                            33 2.98
  36  0.333  0.333  0.469-  37 1.70  20 2.70  23 2.70  21 2.70  33 2.87  31 2.87  29 2.87  30 2.87
                            34 2.87  32 2.87
  37  0.350  0.339  0.534-  38 1.61  36 1.70
  38  0.268  0.249  0.570-  39 0.98  37 1.61
  39  0.300  0.279  0.604-  38 0.98

  LATTYP: Found a hexagonal cell.
 ALAT       =     8.8135128021
 C/A-ratio  =     2.9412617888

  Lattice vectors:

 A1 = (  -4.4067569092,  -7.6327256898,   0.0000000000)
 A2 = (   8.8135128021,   0.0000000000,   0.0000000000)
 A3 = (   0.0000000000,   0.0000000000,  25.9228484302)

Analysis of symmetry for initial positions (statically):
 Subroutine PRICEL returns:
 Original cell was already a primitive cell.

 Routine SETGRP: Setting up the symmetry group for a
 hexagonal supercell.

 Subroutine GETGRP returns: Found  1 space group operations
 (whereof  1 operations were pure point group operations)
 out of a pool of 24 trial point group operations.

The static configuration has the point symmetry C_1 .

Analysis of symmetry for dynamics (positions and initial velocities):
 Subroutine PRICEL returns:
 Original cell was already a primitive cell.

[...]

The dynamic configuration has the point symmetry C_1 .

Analysis of constrained symmetry for selective dynamics:
 Subroutine PRICEL returns:
[...]
     41      -5.2428      2.00000
     42      -5.2326      2.00000
     43      -5.1807      2.00000
     44      -5.1200      2.00000
     45      -5.0900      2.00000
     46      -5.0667      2.00000
     47      -4.9947      2.00000
     48      -4.9926      2.00000
     49      -4.9760      2.00000
     50      -4.9165      2.00000
     51      -4.8709      2.00000
     52      -4.8528      2.00000
     53      -4.8233      2.00000
     54      -4.8089      2.00000
     55      -4.7973      2.00000
     56      -4.7935      2.00000
     57      -4.7749      2.00000
     58      -4.7393      2.00000
     59      -4.6953      2.00000
     60      -4.6766      2.00000
[...]
    238       5.2118      0.00000
    239       5.4025      0.00000
    240       5.4418      0.00000
    241       5.5441      0.00000
    242       5.7086      0.00000
    243       5.7486      0.00000
    244       5.7686      0.00000
    245       5.8012      0.00000
    246       5.8733      0.00000
    247       6.0962      0.00000
    248       6.1236      0.00000
    249       6.1481      0.00000
    250       6.1913      0.00000
    251       6.2909      0.00000
    252       6.3902      0.00000

 soft charge-density along one line, spin component           1
         0         1         2         3         4         5         6         7         8         9
 total charge-density along one line

------------------------ aborting loop because EDIFF is reached ----------------------------------------

 total charge

# of ion       s       p       d       tot
    1        0.546   0.239   8.769   9.554
    2        0.545   0.241   8.764   9.550
    3        0.544   0.242   8.764   9.549
    4        0.545   0.241   8.764   9.550
    5        0.544   0.241   8.762   9.547
    6        0.544   0.241   8.765   9.550
    7        0.544   0.242   8.763   9.549
    8        0.544   0.241   8.765   9.550
    9        0.542   0.240   8.767   9.549
   10        0.519   0.308   8.774   9.601
   11        0.519   0.309   8.777   9.606
   12        0.522   0.309   8.770   9.600
   13        0.519   0.309   8.777   9.606
   14        0.519   0.310   8.778   9.607
   15        0.517   0.309   8.776   9.602
   16        0.522   0.309   8.770   9.600
   17        0.517   0.309   8.776   9.602
   18        0.516   0.310   8.775   9.601
   19        0.515   0.301   8.776   9.592
   20        0.540   0.332   8.755   9.627
   21        0.548   0.332   8.749   9.629
   22        0.511   0.310   8.776   9.597
   23        0.549   0.332   8.749   9.629
   24        0.510   0.310   8.776   9.596
   25        0.516   0.299   8.778   9.593
   26        0.515   0.301   8.776   9.592
   27        0.511   0.310   8.776   9.597
   28        0.540   0.223   8.768   9.532
   29        0.544   0.233   8.765   9.542
   30        0.543   0.235   8.769   9.548
   31        0.546   0.233   8.764   9.544
   32        0.550   0.233   8.766   9.549
   33        0.545   0.236   8.767   9.548
   34        0.550   0.234   8.765   9.549
   35        0.535   0.224   8.769   9.528
   36        0.400   0.466   6.296   7.161
   37        1.617   3.195   0.000   4.811
   38        1.601   3.336   0.000   4.937
   39        0.617   0.112   0.000   0.729
tot         22.868  16.738 313.195 352.801

  FORCE on cell =-STRESS in cart. coord.  units (eV):
  Direction    XX          YY          ZZ          XY          YZ          ZX
  Alpha Z   894.32347   894.32347   894.32347
  Ewald  176415.61715176312.18790************    98.72999   -46.64018   -68.57878
  Hartree184988.88806184930.62122************    56.20291   -35.35751   -57.20164
  E(xc)   -1828.79041 -1828.93565 -1834.79045     0.13775    -0.00689     0.01533
  Local  ************************373412.69667  -144.12997    79.32658   123.34309
  n-local  -132.09085  -133.84137  -107.65039     1.78314    -1.67823    -2.45296
  augment  2418.36553  2419.03253  2426.85113    -0.66981     0.48881     0.33424
  Kinetic  5693.34236  5705.87430  5715.46758   -11.89043     3.90073     4.53322
  Fock        0.00000     0.00000     0.00000     0.00000     0.00000     0.00000
  Total     -22.84904   -22.99034     0.09151     0.16358     0.03331    -0.00749
  in kB     -20.99264   -21.12246     0.08407     0.15029     0.03060    -0.00688

 VOLUME and BASIS-vectors are now :
  energy-cutoff  :      500.00
  volume of cell :     1743.86
      direct lattice vectors                 reciprocal lattice vectors
     8.813512802  0.000000000  0.000000000     0.113462137 -0.065507406  0.000000000
     4.406756909  7.632725690  0.000000000     0.000000000  0.131014796  0.000000000
     0.000000000  0.000000000 25.922848430     0.000000000  0.000000000  0.038576008

  length of vectors
     8.813512802  8.813512802 25.922848430     0.131014796  0.131014796  0.038576008

 FORCES acting on ions
    electron-ion (+dipol)            ewald-force                    non-local-force                 convergence-correction
   0.186E-01 0.129E-01 0.280E+04   -.406E-01 -.301E-01 -.280E+04   0.155E-01 0.108E-01 -.729E+00   0.106E-02 0.255E-02 -.332E+00
   0.566E+00 0.514E+00 0.280E+04   -.710E+00 -.607E+00 -.280E+04   0.312E-01 0.506E-01 -.351E+00   0.106E+00 0.593E-01 -.344E+00
   -.579E+00 0.499E+00 0.280E+04   0.751E+00 -.579E+00 -.280E+04   -.522E-01 0.524E-01 -.300E+00   -.111E+00 0.285E-01 -.356E+00
   0.727E+00 0.216E+00 0.280E+04   -.875E+00 -.296E+00 -.280E+04   0.558E-01 0.412E-02 -.340E+00   0.105E+00 0.636E-01 -.343E+00
   -.112E+00 -.845E-01 0.280E+04   0.447E-01 0.452E-01 -.280E+04   0.675E-01 0.376E-01 -.286E+00   0.352E-02 0.492E-02 -.294E+00
   -.714E+00 0.306E+00 0.280E+04   0.830E+00 -.317E+00 -.280E+04   -.389E-01 -.284E-01 -.299E+00   -.832E-01 0.390E-01 -.392E+00
   0.128E+00 -.732E+00 0.280E+04   -.120E+00 0.923E+00 -.280E+04   0.238E-01 -.727E-01 -.288E+00   -.276E-01 -.114E+00 -.361E+00
   -.697E-01 -.760E+00 0.280E+04   0.124E+00 0.875E+00 -.280E+04   -.484E-01 -.238E-01 -.291E+00   -.105E-01 -.947E-01 -.398E+00
   -.850E-02 0.533E-02 0.280E+04   -.381E-02 -.146E-01 -.280E+04   -.607E-02 -.255E-02 -.472E+00   0.171E-01 0.103E-01 -.344E+00
   0.580E+01 0.330E+01 0.988E+03   -.580E+01 -.330E+01 -.987E+03   -.149E+00 -.922E-01 -.603E+00   0.169E+00 0.987E-01 0.234E+00
   -.336E+00 0.720E+01 0.998E+03   0.347E+00 -.738E+01 -.998E+03   0.238E-01 0.633E-01 -.361E+00   -.245E-01 0.636E-01 0.274E+00
   -.568E+01 0.339E+01 0.987E+03   0.545E+01 -.321E+01 -.986E+03   0.322E+00 -.181E+00 -.577E+00   -.103E+00 0.143E-01 0.215E+00
   0.611E+01 -.400E+01 0.998E+03   -.625E+01 0.410E+01 -.998E+03   0.596E-01 -.929E-02 -.351E+00   0.383E-01 -.537E-01 0.272E+00
   -.626E+01 -.369E+01 0.998E+03   0.650E+01 0.385E+01 -.998E+03   -.107E+00 -.652E-01 -.294E+00   -.104E+00 -.669E-01 0.271E+00
   0.229E+00 0.278E+01 0.990E+03   -.246E+00 -.289E+01 -.989E+03   -.280E-01 0.782E-02 -.469E+00   0.405E-01 0.612E-01 0.194E+00
   0.142E+00 -.649E+01 0.987E+03   -.905E-01 0.621E+01 -.986E+03   0.694E-02 0.362E+00 -.571E+00   -.437E-01 -.958E-01 0.218E+00
   0.259E+01 -.110E+01 0.990E+03   -.270E+01 0.114E+01 -.989E+03   -.694E-02 -.282E-01 -.475E+00   0.762E-01 0.551E-02 0.193E+00
   -.269E+01 -.142E+01 0.990E+03   0.279E+01 0.148E+01 -.989E+03   -.512E-01 -.217E-01 -.450E+00   -.335E-01 -.184E-01 0.190E+00
   0.243E+01 0.328E+01 -.860E+03   -.256E+01 -.354E+01 0.859E+03   0.111E+00 0.891E-01 0.662E+00   0.476E-01 0.135E+00 0.950E+00
   0.342E+02 0.188E+02 -.795E+03   -.341E+02 -.187E+02 0.794E+03   -.832E+00 -.477E+00 -.530E+00   0.618E+00 0.359E+00 0.171E+01
   -.371E+02 0.195E+02 -.800E+03   0.367E+02 -.192E+02 0.799E+03   0.111E+01 -.576E+00 -.697E+00   -.648E+00 0.301E+00 0.164E+01
   0.104E+02 -.755E+01 -.843E+03   -.110E+02 0.796E+01 0.841E+03   0.352E+00 -.255E+00 0.587E+00   0.272E+00 -.179E+00 0.971E+00
   -.893E+00 -.422E+02 -.802E+03   0.901E+00 0.416E+02 0.801E+03   0.671E-01 0.126E+01 -.723E+00   -.673E-01 -.716E+00 0.164E+01
   -.949E+01 -.551E+01 -.845E+03   0.100E+02 0.581E+01 0.843E+03   -.352E+00 -.201E+00 0.621E+00   -.213E+00 -.123E+00 0.103E+01
   -.332E+01 -.115E+01 -.863E+03   0.356E+01 0.129E+01 0.861E+03   -.859E-01 -.550E-01 0.674E+00   -.133E+00 -.747E-01 0.903E+00
   0.471E+01 0.888E+00 -.860E+03   -.500E+01 -.868E+00 0.859E+03   0.142E+00 0.468E-01 0.665E+00   0.143E+00 -.257E-01 0.951E+00
   -.135E+01 0.137E+02 -.842E+03   0.142E+01 -.144E+02 0.840E+03   -.472E-01 0.444E+00 0.596E+00   -.182E-01 0.325E+00 0.976E+00
   0.111E+02 0.728E+01 -.268E+04   -.112E+02 -.736E+01 0.268E+04   0.693E-01 0.360E-01 0.476E+00   0.541E-01 0.392E-01 0.935E+00
   0.529E+02 0.114E+03 -.261E+04   -.530E+02 -.114E+03 0.261E+04   -.427E+00 -.608E+00 0.119E+01   0.480E+00 0.803E+00 0.923E+00
   -.643E+02 0.900E+02 -.264E+04   0.646E+02 -.907E+02 0.264E+04   0.366E+00 -.491E+00 0.728E+00   -.528E+00 0.826E+00 0.891E+00
   0.120E+03 -.156E+02 -.262E+04   -.120E+03 0.157E+02 0.261E+04   -.819E+00 -.821E-01 0.107E+01   0.926E+00 0.210E-02 0.907E+00
   -.989E+02 -.179E+01 -.265E+04   0.996E+02 0.193E+01 0.265E+04   0.710E+00 -.158E+00 0.727E+00   -.985E+00 0.636E-01 0.907E+00
   0.428E+02 -.928E+02 -.265E+04   -.432E+02 0.933E+02 0.265E+04   -.316E+00 0.683E+00 0.624E+00   0.440E+00 -.853E+00 0.878E+00
   -.459E+02 -.824E+02 -.265E+04   0.462E+02 0.828E+02 0.265E+04   0.273E+00 0.741E+00 0.682E+00   -.420E+00 -.881E+00 0.902E+00
   0.168E+01 0.342E+01 -.269E+04   -.158E+01 -.335E+01 0.269E+04   -.651E-01 -.562E-01 0.494E+00   -.391E-01 -.162E-01 0.914E+00
   -.145E+01 -.113E+02 -.157E+04   0.750E+00 0.109E+02 0.157E+04   0.588E+00 0.283E+00 -.103E+00   0.325E-01 -.772E-03 0.107E+01
   -.126E+03 -.768E+02 -.175E+04   0.145E+03 0.874E+02 0.176E+04   -.183E+02 -.105E+02 -.121E+02   -.246E+00 -.111E+00 -.754E+00
   0.128E+03 0.762E+02 -.176E+04   -.157E+03 -.928E+02 0.173E+04   0.285E+02 0.163E+02 0.229E+02   0.469E+00 0.295E+00 -.493E+00
   -.270E+02 -.144E+02 -.342E+03   0.304E+02 0.162E+02 0.349E+03   -.331E+01 -.184E+01 -.713E+01   -.394E-02 0.519E-03 -.124E+00
   -.793E+01 -.481E+01 -.204E+02   -.995E-13 0.124E-12 0.155E-10   0.780E+01 0.459E+01 0.394E+01   0.196E+00 0.178E+00 0.166E+02

 POSITION                                       TOTAL-FORCE (eV/Angst)
      0.00000      0.00000      5.28038        -0.007181     -0.002845     -0.114353
      2.93784      0.00000      5.28038        -0.008821      0.017596     -0.051750
      5.87568      0.00000      5.28038         0.006008      0.001820     -0.039759
      1.46892      2.54424      5.28038         0.010661     -0.010848     -0.051651
      4.40676      2.54424      5.28038         0.002067      0.004172     -0.090002
      7.34459      2.54424      5.28038        -0.008114     -0.000159     -0.045393
      2.93784      5.08848      5.28038         0.002877      0.005724     -0.037502
      5.87568      5.08848      5.28038        -0.006733     -0.003087     -0.045418
      8.81351      5.08848      5.28038        -0.003119     -0.000598     -0.071027
      1.46892      0.84808      7.67911         0.015677      0.011040      0.106232
      4.40676      0.84808      7.67911         0.009226     -0.051430      0.041456
      7.34459      0.84808      7.67911        -0.008170      0.019876      0.135155
      2.93784      3.39232      7.67911        -0.042629      0.036690      0.043810
      5.87568      3.39232      7.67911         0.030190      0.020299      0.051720
      8.81351      3.39232      7.67911        -0.006641     -0.042122      0.092492
      4.40676      5.93656      7.67911         0.012873     -0.013379      0.132656
      7.34459      5.93656      7.67911        -0.041944      0.017905      0.092335
     10.28243      5.93656      7.67911         0.016401      0.012629      0.107286
      8.81351      1.69603     10.07519         0.024061     -0.030473     -0.012172
      2.95264      1.70471     10.05068        -0.067025     -0.038508     -0.129395
      5.86088      1.70471     10.05068         0.027084     -0.003391     -0.016314
     10.26798      4.24875     10.06116         0.037704     -0.021575      0.010831
      4.40676      4.22331     10.05068         0.006575      0.035363     -0.020643
      7.35905      4.24875     10.06116        -0.046292     -0.025903      0.011916
     11.75147      6.78471     10.07519         0.016802      0.012063     -0.023400
      5.87556      6.78471     10.07519        -0.013027      0.041700     -0.013135
      8.81351      6.76796     10.06116        -0.002991      0.047479      0.015982
      0.00000      0.00000     12.48698        -0.016076     -0.006430     -0.119067
      2.98147      0.07441     12.46921        -0.133439     -0.287424     -0.151508
      5.83205      0.07441     12.46921         0.178875     -0.386874     -0.187196
      1.55518      2.54482     12.46921        -0.291272      0.038936     -0.138109
      7.25833      2.54482     12.46921         0.384255      0.042981     -0.187564
      2.98047      5.01349     12.46921        -0.220742      0.303828     -0.168362
      5.83305      5.01349     12.46921         0.206452      0.296612     -0.173935
      8.81351      5.08848     12.49182        -0.002584      0.000408     -0.055896
      4.40676      2.54424     12.16047        -0.085221     -0.047934      1.148005
      4.58091      2.58715     13.84633        -0.076286     -0.040651      0.050660
      3.46477      1.90340     14.78846         0.070905      0.038547     -0.124070
      3.87517      2.13040     15.65230         0.029613      0.007963      0.027083
    total drift:                                0.071534     -0.038902      0.150179

  FREE ENERGIE OF THE ION-ELECTRON SYSTEM (eV)
  free  energy   TOTEN  =      -127.93144193 eV

  energy  without entropy=     -127.93144193  energy(sigma->0) =     -127.93144193

 stress matrix after NEB project (eV)
    -22.84904      0.16358     -0.00749
      0.16358    -22.99034      0.03331
     -0.00749      0.03331      0.09151
  FORCES: max atom, RMS     0.148009    0.029360
  FORCE total and by dimension    0.183355    0.124070
  Stress total and by dimension   32.414480   22.990337
|           W    W    AA    RRRRR   N    N  II  N    N   GGGG   !!!           |
|           W    W   A  A   R    R  NN   N  II  NN   N  G    G  !!!           |
|           W    W  A    A  R    R  N N  N  II  N N  N  G       !!!           |
|           W WW W  AAAAAA  RRRRR   N  N N  II  N  N N  G  GGG   !            |
|           WW  WW  A    A  R   R   N   NN  II  N   NN  G    G                |
|           W    W  A    A  R    R  N    N  II  N    N   GGGG   !!!           |
|     Tetrahedron method does not include variations of the Fermi             |
|     occupations, so forces and stress will be inaccurate. We suggest        |
|     using a different smearing scheme ISMEAR = 1 or 2 for metals in         |
|     relaxations.                                                            |

 total charge

# of ion       s       p       d       tot
    1        0.546   0.239   8.769   9.554
    2        0.545   0.241   8.764   9.550
    3        0.544   0.242   8.764   9.549
    4        0.545   0.241   8.764   9.550
    5        0.544   0.241   8.762   9.547
    6        0.544   0.241   8.765   9.550
    7        0.544   0.242   8.763   9.549
    8        0.544   0.241   8.765   9.550
    9        0.542   0.240   8.767   9.549
   10        0.519   0.308   8.774   9.601
   11        0.519   0.309   8.777   9.606
   12        0.522   0.309   8.770   9.600
   13        0.519   0.309   8.777   9.606
   14        0.519   0.310   8.778   9.607
   15        0.517   0.309   8.776   9.602
   16        0.522   0.309   8.770   9.600
   17        0.517   0.309   8.776   9.602
   18        0.516   0.310   8.775   9.601
   19        0.515   0.301   8.776   9.592
   20        0.540   0.332   8.755   9.627
   21        0.548   0.332   8.749   9.629
   22        0.511   0.310   8.776   9.597
   23        0.549   0.332   8.749   9.629
   24        0.510   0.310   8.776   9.596
   25        0.516   0.299   8.778   9.593
   26        0.515   0.301   8.776   9.592
   27        0.511   0.310   8.776   9.597
   28        0.540   0.223   8.768   9.532
   29        0.544   0.233   8.765   9.542
   30        0.543   0.235   8.769   9.548
   31        0.546   0.233   8.764   9.544
   32        0.550   0.233   8.766   9.549
   33        0.545   0.236   8.767   9.548
   34        0.550   0.234   8.765   9.549
   35        0.535   0.224   8.769   9.528
   36        0.400   0.466   6.296   7.161
   37        1.617   3.195   0.000   4.811
   38        1.601   3.336   0.000   4.937
   39        0.617   0.112   0.000   0.729
tot         22.868  16.738 313.195 352.801

 BZINTS: Fermi energy:   -0.019504;  406.000000 electrons
         Band energy:-0.157406E+04;  BLOECHL correction:   -0.060321