 vasp.6.2.0 18Jan21 (build Jun 12 2021 23:27:24) complex

 executed on             LinuxIFC date 2022.05.26  20:14:11

 INCAR:
   ISMEAR = -5
   SIGMA = 0.1
   ISPIN = 1
   EDIFF = 1.d-5
   EDIFFG = -0.01
   NSW = 0
   NELM = 150
   ENCUT = 500
   ISIF = 2
   IBRION = 2
   LREAL = Auto
   ALGO = Fast
   ICHARG = 11
   LORBIT = 10
   LCHARG = .F.
   LWAVE = .F.

 POTCAR:    PAW_PBE Au 04Oct2007
 POTCAR:    PAW_PBE Rh 04Feb2005
|           W    W    AA    RRRRR   N    N  II  N    N   GGGG   !!!           |
|           W    W   A  A   R    R  NN   N  II  NN   N  G    G  !!!           |
|           W    W  A    A  R    R  N N  N  II  N N  N  G       !!!           |
|           W WW W  AAAAAA  RRRRR   N  N N  II  N  N N  G  GGG   !            |
|           WW  WW  A    A  R   R   N   NN  II  N   NN  G    G                |
|           W    W  A    A  R    R  N    N  II  N    N   GGGG   !!!           |
|     For optimal performance we recommend to set                             |
|       NCORE = 2 up to number-of-cores-per-socket                            |
|     This setting can greatly improve the performance of VASP for DFT.       |
|     The default, NCORE=1 might be grossly inefficient on modern             |
|     multi-core architectures or massively parallel machines. Do your        |
|     Unfortunately you need to use the default for GW and RPA                |
|     calculations (for HF NCORE is supported but not extensively tested      |
|     yet).                                                                   |

 POTCAR:    PAW_PBE Au 04Oct2007
   VRHFIN =Au: s1d10

   TITEL  = PAW_PBE Au 04Oct2007
   POMASS =  196.966; ZVAL   =   11.000    mass and valenz
   ENMAX  =  229.943; ENMIN  =  172.457 eV

 POTCAR:    PAW_PBE Rh 04Feb2005
   VRHFIN =Rh: s1 d8

   TITEL  = PAW_PBE Rh 04Feb2005
   POMASS =  102.906; ZVAL   =    9.000    mass and valenz
   ENMAX  =  228.996; ENMIN  =  171.747 eV

 Optimization of the real space projectors (new method)

 maximal supplied QI-value         = 15.12
 optimisation between [QCUT,QGAM] = [ 11.34, 22.83] = [ 36.00,145.93] Ry
 Optimized for a Real-space Cutoff    1.39 Angstroem

   l    n(q)    QCUT    max X(q) W(low)/X(q) W(high)/X(q)  e(spline)
   2      9    11.338    60.898    0.39E-03    0.42E-03    0.21E-06
   2      9    11.338    58.894    0.40E-03    0.42E-03    0.22E-06
   0      9    11.338   109.617    0.13E-03    0.20E-04    0.13E-06
   0      9    11.338    75.026    0.13E-03    0.20E-04    0.13E-06
   1      9    11.338    16.344    0.33E-04    0.24E-03    0.18E-06
   1      9    11.338    10.160    0.26E-04    0.19E-03    0.15E-06
 Optimization of the real space projectors (new method)

 maximal supplied QI-value         = 13.98
 optimisation between [QCUT,QGAM] = [ 11.33, 22.79] = [ 35.93,145.49] Ry
 Optimized for a Real-space Cutoff    1.47 Angstroem

   l    n(q)    QCUT    max X(q) W(low)/X(q) W(high)/X(q)  e(spline)
   2      9    11.327    59.645    0.31E-03    0.12E-04    0.28E-06
   2      9    11.327    58.460    0.31E-03    0.12E-04    0.29E-06
   0     10    11.327    97.683    0.32E-04    0.83E-04    0.31E-06
   0     10    11.327    53.223    0.30E-04    0.78E-04    0.29E-06
   1     10    11.327    13.596    0.49E-03    0.95E-03    0.55E-06
   1     10    11.327     7.885    0.36E-03    0.71E-03    0.41E-06
  PAW_PBE Au 04Oct2007                  :
  PAW_PBE Rh 04Feb2005                  :

 POSCAR: Au-Rh
  positions in direct lattice
  velocities in cartesian coordinates
 exchange correlation table for  LEXCH =        8
   RHO(1)=    0.500       N(1)  =     2000
   RHO(2)=  100.500       N(2)  =     4000

 VTST: version 3.2, (02/03/18)

 CHAIN: initializing optimizer

 OPT: Using VASP Conjugate-Gradient optimizer
 CHAIN: Read ICHAIN            0

 POSCAR: Au-Rh
  positions in direct lattice
  velocities in cartesian coordinates

 ion  position               nearest neighbor table
   1  0.000  0.000  0.238-  16 2.94  12 2.94   6 2.94   8 2.94   7 2.94   3 2.94  10 2.94   4 2.94
                             2 2.94
   2  0.333  0.000  0.238-   9 2.94  11 2.94  17 2.94  10 2.94   8 2.94   4 2.94   5 2.94   1 2.94
                             3 2.94
   3  0.667  0.000  0.238-   7 2.94  18 2.94  12 2.94   1 2.94  11 2.94   5 2.94   6 2.94   9 2.94
                             2 2.94
   4  0.000  0.333  0.238-  10 2.94   6 2.94   5 2.94  13 2.94   2 2.94  15 2.94   9 2.94   1 2.94
                             7 2.94
   5  0.333  0.333  0.238-  13 2.94   7 2.94  11 2.94   4 2.94   2 2.94  14 2.94   3 2.94   8 2.94
                             6 2.94
   6  0.667  0.333  0.238-  15 2.94  14 2.94   1 2.94  12 2.94   4 2.94   9 2.94   8 2.94   3 2.94
                             5 2.94
   7  0.000  0.667  0.238-  18 2.94   3 2.94  16 2.94   5 2.94   1 2.94  13 2.94   8 2.94   4 2.94
                             9 2.94
   8  0.333  0.667  0.238-   9 2.94  17 2.94   1 2.94   2 2.94  14 2.94  16 2.94   6 2.94   7 2.94
                             5 2.94
   9  0.667  0.667  0.238-   2 2.94   8 2.94  17 2.94   6 2.94  15 2.94   4 2.94   3 2.94  18 2.94
                             7 2.94
  10  0.111  0.111  0.346-  20 2.91  26 2.93  19 2.93  11 2.94  17 2.94   2 2.94   4 2.94   1 2.94
                            12 2.94  16 2.94  13 2.94  15 2.94
  11  0.444  0.111  0.346-  20 2.91  21 2.91  27 2.93  13 2.94   2 2.94  10 2.94  17 2.94   5 2.94
                             3 2.94  18 2.94  14 2.94  12 2.94
  12  0.778  0.111  0.346-  21 2.91  25 2.93  19 2.93  16 2.94  18 2.94   1 2.94  14 2.94  15 2.94
                             3 2.94   6 2.94  10 2.94  11 2.94
  13  0.111  0.444  0.346-  23 2.91  20 2.91  22 2.93   5 2.94  18 2.94  11 2.94   7 2.94   4 2.94
                            16 2.94  10 2.94  14 2.94  15 2.94
  14  0.444  0.444  0.346-  21 2.91  23 2.91  24 2.93  15 2.94   6 2.94  12 2.94   8 2.94  17 2.94
                             5 2.94  16 2.94  13 2.94  11 2.94
  15  0.778  0.444  0.346-  24 2.93  22 2.93  19 2.93  14 2.94   6 2.94  17 2.94  12 2.94   9 2.94
                             4 2.94  10 2.94  13 2.94  18 2.94
  16  0.111  0.778  0.346-  23 2.91  25 2.93  26 2.93  18 2.94  12 2.94   7 2.94   1 2.94   8 2.94
                            13 2.94  10 2.94  14 2.94  17 2.94
  17  0.444  0.778  0.346-  27 2.93  24 2.93  26 2.93   9 2.94  15 2.94   2 2.94  10 2.94  11 2.94
                             8 2.94  14 2.94  16 2.94  18 2.94
  18  0.778  0.778  0.346-  22 2.93  27 2.93  25 2.93  16 2.94   7 2.94  13 2.94  12 2.94   3 2.94
                            11 2.94   9 2.94  15 2.94  17 2.94
  19  0.889  0.222  0.454-  15 2.93  10 2.93  12 2.93  21 2.94  20 2.94  24 2.94  22 2.94  26 2.94
                            25 2.94  28 2.96  32 2.96  31 2.96
  20  0.222  0.222  0.453-  36 2.79  10 2.91  11 2.91  13 2.91  26 2.94  19 2.94  23 2.94  21 2.94
                            27 2.94  22 2.94  29 2.95  31 2.95
  21  0.556  0.222  0.453-  36 2.79  12 2.91  14 2.91  11 2.91  25 2.94  19 2.94  20 2.94  23 2.94
                            27 2.94  24 2.94  30 2.95  32 2.95
  22  0.888  0.556  0.454-  24 2.92  27 2.92  18 2.93  15 2.93  13 2.93  25 2.94  19 2.94  23 2.94
                            20 2.94  33 2.95  31 2.95  35 2.96
  23  0.222  0.556  0.453-  36 2.79  16 2.91  13 2.91  14 2.91  25 2.94  26 2.94  20 2.94  21 2.94
                            22 2.94  24 2.94  33 2.95  34 2.95
  24  0.556  0.556  0.454-  27 2.92  22 2.92  15 2.93  17 2.93  14 2.93  26 2.94  19 2.94  21 2.94
                            23 2.94  32 2.95  34 2.95  35 2.96
  25  0.889  0.889  0.454-  18 2.93  16 2.93  12 2.93  23 2.94  21 2.94  22 2.94  27 2.94  19 2.94
                            26 2.94  28 2.96  33 2.96  30 2.96
  26  0.222  0.889  0.454-  17 2.93  10 2.93  16 2.93  20 2.94  23 2.94  27 2.94  24 2.94  19 2.94
                            25 2.94  28 2.96  29 2.96  34 2.96
  27  0.556  0.888  0.454-  24 2.92  22 2.92  17 2.93  18 2.93  11 2.93  26 2.94  25 2.94  20 2.94
                            21 2.94  29 2.95  30 2.95  35 2.96
  28  0.000  0.000  0.563-  34 2.95  32 2.95  33 2.95  30 2.95  31 2.95  29 2.95  25 2.96  19 2.96
                            26 2.96
  29  0.333  0.004  0.562-  31 2.90  30 2.90  36 2.91  20 2.95  27 2.95  28 2.95  35 2.96  26 2.96
                            34 3.01
  30  0.663  0.004  0.562-  32 2.90  29 2.90  36 2.91  21 2.95  27 2.95  28 2.95  35 2.96  25 2.96
                            33 3.01
  31  0.004  0.333  0.562-  29 2.90  33 2.90  36 2.91  20 2.95  22 2.95  28 2.95  35 2.96  19 2.96
                            32 3.01
  32  0.663  0.333  0.562-  30 2.90  34 2.90  36 2.91  21 2.95  24 2.95  28 2.95  35 2.96  19 2.96
                            31 3.01
  33  0.004  0.663  0.562-  34 2.90  31 2.90  36 2.91  23 2.95  22 2.95  28 2.95  35 2.96  25 2.96
                            30 3.01
  34  0.333  0.663  0.562-  33 2.90  32 2.90  36 2.91  23 2.95  24 2.95  28 2.95  35 2.96  26 2.96
                            29 3.01
  35  0.667  0.667  0.563-  29 2.96  34 2.96  32 2.96  31 2.96  30 2.96  33 2.96  24 2.96  27 2.96
                            22 2.96
  36  0.333  0.333  0.552-  20 2.79  23 2.79  21 2.79  33 2.91  31 2.91  29 2.91  30 2.91  34 2.91
                            32 2.91

  LATTYP: Found a hexagonal cell.
 ALAT       =     8.8135128021
 C/A-ratio  =     2.5184286595

  Lattice vectors:

 A1 = (  -4.4067569092,  -7.6327256898,   0.0000000000)
 A2 = (   8.8135128021,   0.0000000000,   0.0000000000)
 A3 = (   0.0000000000,   0.0000000000,  22.1962032318)

Analysis of symmetry for initial positions (statically):
 Subroutine PRICEL returns:
 Original cell was already a primitive cell.

 Routine SETGRP: Setting up the symmetry group for a
 hexagonal supercell.

 Subroutine GETGRP returns: Found  6 space group operations
 (whereof  6 operations were pure point group operations)
 out of a pool of 24 trial point group operations.

The static configuration has the point symmetry C_3v.

Analysis of symmetry for dynamics (positions and initial velocities):
 Subroutine PRICEL returns:
 Original cell was already a primitive cell.

[...]

The dynamic configuration has the point symmetry C_3v.

Analysis of constrained symmetry for selective dynamics:
 Subroutine PRICEL returns:
 Original cell was already a primitive cell.

 Routine SETGRP: Setting up the symmetry group for a
 hexagonal supercell.

 Subroutine GETGRP returns: Found  6 space group operations
 (whereof  6 operations were pure point group operations)
 out of a pool of 24 trial point group operations.

The constrained configuration has the point symmetry C_3v.

 Subroutine INISYM returns: Found  6 space group operations
 (whereof  6 operations are pure point group operations),
 and found     1 'primitive' translations

                                     Primitive cell

  volume of cell :    1493.1636

  direct lattice vectors                    reciprocal lattice vectors
     8.813512802  0.000000000  0.000000000     0.113462137 -0.065507406  0.000000000
     4.406756909  7.632725690  0.000000000     0.000000000  0.131014796  0.000000000
[...]
     15      -5.2286      2.00000
     16      -5.2268      2.00000
     17      -5.2087      2.00000
     18      -5.2004      2.00000
     19      -5.1312      2.00000
     20      -5.1268      2.00000
     21      -5.0966      2.00000
     22      -5.0560      2.00000
     23      -5.0318      2.00000
     24      -5.0264      2.00000
     25      -4.9984      2.00000
     26      -4.9837      2.00000
     27      -4.9099      2.00000
     28      -4.8246      2.00000
     29      -4.7521      2.00000
     30      -4.7514      2.00000
     31      -4.7184      2.00000
     32      -4.7150      2.00000
     33      -4.7030      2.00000
     34      -4.6470      2.00000
     35      -4.5479      2.00000
     36      -4.5434      2.00000
     37      -4.5147      2.00000
     38      -4.4876      2.00000
     39      -4.4393      2.00000
     40      -4.3695      2.00000
     41      -4.3399      2.00000
     42      -4.2923      2.00000
     43      -4.2649      2.00000
     44      -4.2611      2.00000
     45      -4.2481      2.00000
     46      -4.1494      2.00000
     47      -4.1179      2.00000
     48      -4.0936      2.00000
     49      -4.0878      2.00000
     50      -4.0794      2.00000
     51      -4.0688      2.00000
     52      -4.0533      2.00000
     53      -4.0149      2.00000
     54      -3.9749      2.00000
     55      -3.9578      2.00000
     56      -3.9201      2.00000
     57      -3.9130      2.00000
     58      -3.9105      2.00000
     59      -3.8990      2.00000
     60      -3.8897      2.00000
[...]
    238       6.7585      0.00000
    239       6.8092      0.00000
    240       6.8744      0.00000
    241       6.8928      0.00000
    242       7.0188      0.00000
    243       7.1790      0.00000
    244       7.2558      0.00000
    245       7.3305      0.00000
    246       7.6043      0.00000
    247       7.6583      0.00000
    248       7.7432      0.00000
    249       7.7475      0.00000
    250       7.9303      0.00000
    251       8.0524      0.00000
    252       8.0794      0.00000

 soft charge-density along one line, spin component           1
         0         1         2         3         4         5         6         7         8         9
 total charge-density along one line

------------------------ aborting loop because EDIFF is reached ----------------------------------------

 total charge

# of ion       s       p       d       tot
    1        0.542   0.240   8.766   9.548
    2        0.546   0.240   8.765   9.551
    3        0.546   0.240   8.765   9.551
    4        0.546   0.240   8.765   9.551
    5        0.540   0.242   8.763   9.545
    6        0.546   0.240   8.765   9.551
    7        0.546   0.240   8.765   9.551
    8        0.546   0.240   8.765   9.551
    9        0.542   0.240   8.769   9.551
   10        0.521   0.310   8.767   9.598
   11        0.522   0.306   8.779   9.607
   12        0.521   0.310   8.767   9.598
   13        0.522   0.306   8.779   9.607
   14        0.522   0.306   8.779   9.607
   15        0.516   0.307   8.776   9.600
   16        0.521   0.310   8.767   9.598
   17        0.516   0.307   8.776   9.600
   18        0.516   0.307   8.776   9.600
   19        0.518   0.303   8.776   9.597
   20        0.533   0.322   8.759   9.613
   21        0.533   0.322   8.759   9.613
   22        0.510   0.307   8.776   9.592
   23        0.533   0.322   8.759   9.613
   24        0.510   0.307   8.776   9.592
   25        0.518   0.303   8.776   9.597
   26        0.518   0.303   8.776   9.597
   27        0.510   0.307   8.776   9.592
   28        0.539   0.230   8.768   9.537
   29        0.552   0.238   8.755   9.545
   30        0.552   0.238   8.755   9.545
   31        0.552   0.238   8.755   9.545
   32        0.552   0.238   8.755   9.545
   33        0.552   0.238   8.755   9.545
   34        0.552   0.238   8.755   9.545
   35        0.535   0.231   8.769   9.535
   36        0.332   0.261   7.410   8.002
tot         18.972   9.878 314.261 343.112

  FORCE on cell =-STRESS in cart. coord.  units (eV):
  Direction    XX          YY          ZZ          XY          YZ          ZX
  Alpha Z   994.20544   994.20544   994.20544
  Ewald  119662.11646119662.11686************    -0.00034    -0.00009    -0.00016
  Hartree128291.09405128291.09405************    -0.00000    -0.00002    -0.00004
  E(xc)   -1770.01073 -1770.01071 -1777.38315    -0.00002    -0.00000    -0.00000
  Local  ************************260588.26817     0.00175     0.00004     0.00009
  n-local   -87.66329   -31.04443   -36.37238    25.47408    -1.28869     1.60988
  augment  2425.17272  2425.17426  2442.36668    -0.00133     0.00002     0.00003
  Kinetic  5448.36199  5466.25898  5513.78092     7.49979    -0.32115     0.76141
  Fock        0.00000     0.00000     0.00000     0.00000     0.00000     0.00000
  Total     -22.40242   -22.40242     3.05387    -0.00000     0.00000     0.00000
  in kB     -24.03799   -24.03798     3.27683    -0.00000     0.00000     0.00000

 VOLUME and BASIS-vectors are now :
  energy-cutoff  :      500.00
  volume of cell :     1493.16
      direct lattice vectors                 reciprocal lattice vectors
     8.813512802  0.000000000  0.000000000     0.113462137 -0.065507406  0.000000000
     4.406756909  7.632725690  0.000000000     0.000000000  0.131014796  0.000000000
     0.000000000  0.000000000 22.196203232     0.000000000  0.000000000  0.045052750

  length of vectors
     8.813512802  8.813512802 22.196203232     0.131014796  0.131014796  0.045052750

 FORCES acting on ions
    electron-ion (+dipol)            ewald-force                    non-local-force                 convergence-correction
   -.198E-04 -.164E-04 0.248E+04   0.519E-04 0.433E-04 -.248E+04   -.638E-17 0.712E-18 -.840E+00   -.203E-03 -.130E-03 -.406E+00
   0.229E+00 0.274E+00 0.248E+04   -.209E+00 -.255E+00 -.248E+04   0.107E-01 -.857E-03 -.298E+00   -.300E-01 -.112E-01 -.412E+00
   -.229E+00 0.274E+00 0.248E+04   0.209E+00 -.255E+00 -.248E+04   -.107E-01 -.857E-03 -.298E+00   0.302E-01 -.924E-02 -.411E+00
   0.351E+00 0.611E-01 0.248E+04   -.325E+00 -.539E-01 -.248E+04   0.462E-02 0.971E-02 -.298E+00   -.246E-01 -.204E-01 -.412E+00
   0.703E-05 -.241E-04 0.248E+04   0.951E-04 0.171E-05 -.248E+04   0.407E-19 -.104E-17 -.291E+00   0.430E-02 0.262E-02 -.389E+00
   -.351E+00 0.611E-01 0.248E+04   0.325E+00 -.540E-01 -.248E+04   -.462E-02 0.971E-02 -.298E+00   0.231E-01 -.194E-01 -.411E+00
   0.123E+00 -.335E+00 0.248E+04   -.116E+00 0.309E+00 -.248E+04   -.610E-02 -.886E-02 -.298E+00   0.718E-02 0.308E-01 -.411E+00
   -.123E+00 -.335E+00 0.248E+04   0.116E+00 0.309E+00 -.248E+04   0.610E-02 -.886E-02 -.298E+00   -.528E-02 0.297E-01 -.411E+00
   0.197E-04 -.416E-04 0.248E+04   0.166E-03 -.200E-04 -.248E+04   -.109E-17 0.168E-17 -.439E+00   -.464E-02 -.240E-02 -.406E+00
   0.293E+01 0.169E+01 0.818E+03   -.260E+01 -.150E+01 -.817E+03   -.221E+00 -.128E+00 -.671E+00   -.592E-01 -.343E-01 0.144E+00
   0.140E-04 0.287E+01 0.820E+03   0.149E-03 -.292E+01 -.820E+03   -.294E-09 -.441E-02 -.381E+00   0.380E-02 0.111E-01 0.277E+00
   -.293E+01 0.169E+01 0.818E+03   0.260E+01 -.150E+01 -.817E+03   0.221E+00 -.128E+00 -.671E+00   0.578E-01 -.328E-01 0.144E+00
   0.249E+01 -.144E+01 0.820E+03   -.253E+01 0.146E+01 -.820E+03   -.382E-02 0.221E-02 -.381E+00   0.118E-01 -.199E-02 0.277E+00
   -.249E+01 -.144E+01 0.820E+03   0.253E+01 0.146E+01 -.820E+03   0.382E-02 0.221E-02 -.381E+00   -.397E-02 -.243E-02 0.277E+00
   0.314E-04 0.868E+00 0.818E+03   0.236E-03 -.895E+00 -.817E+03   0.683E-09 0.103E-01 -.406E+00   -.240E-02 0.314E-02 0.181E+00
   -.212E-04 -.338E+01 0.818E+03   0.162E-03 0.300E+01 -.817E+03   0.170E-07 0.255E+00 -.671E+00   0.294E-03 0.665E-01 0.144E+00
   0.752E+00 -.434E+00 0.818E+03   -.775E+00 0.448E+00 -.817E+03   0.888E-02 -.513E-02 -.406E+00   0.177E-02 -.322E-02 0.181E+00
   -.752E+00 -.434E+00 0.818E+03   0.775E+00 0.448E+00 -.817E+03   -.888E-02 -.513E-02 -.406E+00   -.181E-02 -.130E-02 0.180E+00
   -.404E-04 0.259E+00 -.866E+03   0.541E-04 -.346E+00 0.865E+03   -.215E-09 -.324E-02 0.474E+00   -.506E-03 0.863E-01 0.555E+00
   0.422E+01 0.244E+01 -.849E+03   -.405E+01 -.234E+01 0.849E+03   -.520E+00 -.300E+00 -.557E+00   0.351E+00 0.202E+00 0.108E+01
   -.422E+01 0.244E+01 -.849E+03   0.405E+01 -.234E+01 0.849E+03   0.520E+00 -.300E+00 -.557E+00   -.350E+00 0.204E+00 0.108E+01
   -.180E+01 0.104E+01 -.862E+03   0.130E+01 -.749E+00 0.861E+03   0.293E+00 -.169E+00 0.564E+00   0.194E+00 -.117E+00 0.642E+00
   -.133E-04 -.488E+01 -.849E+03   0.143E-03 0.468E+01 0.849E+03   0.400E-07 0.601E+00 -.557E+00   0.175E-02 -.405E+00 0.108E+01
   0.180E+01 0.104E+01 -.862E+03   -.130E+01 -.750E+00 0.861E+03   -.293E+00 -.169E+00 0.564E+00   -.201E+00 -.116E+00 0.642E+00
   -.224E+00 -.129E+00 -.866E+03   0.299E+00 0.173E+00 0.865E+03   0.280E-02 0.162E-02 0.474E+00   -.729E-01 -.421E-01 0.554E+00
   0.224E+00 -.129E+00 -.866E+03   -.300E+00 0.173E+00 0.865E+03   -.280E-02 0.162E-02 0.474E+00   0.748E-01 -.435E-01 0.555E+00
   0.583E-05 -.208E+01 -.862E+03   0.201E-03 0.150E+01 0.861E+03   0.225E-07 0.339E+00 0.564E+00   -.439E-02 0.226E+00 0.642E+00
   -.796E-05 -.106E-04 -.249E+04   0.261E-04 0.310E-04 0.249E+04   -.303E-17 -.314E-18 0.528E+00   0.158E-03 0.745E-04 0.678E+00
   -.397E+01 -.728E+01 -.249E+04   0.410E+01 0.740E+01 0.249E+04   -.457E+00 -.641E+00 0.318E+00   0.324E+00 0.520E+00 0.627E+00
   0.397E+01 -.728E+01 -.249E+04   -.410E+01 0.740E+01 0.249E+04   0.457E+00 -.641E+00 0.318E+00   -.324E+00 0.522E+00 0.627E+00
   -.829E+01 0.200E+00 -.249E+04   0.846E+01 -.144E+00 0.249E+04   -.783E+00 -.754E-01 0.318E+00   0.613E+00 0.208E-01 0.627E+00
   0.829E+01 0.201E+00 -.249E+04   -.846E+01 -.144E+00 0.249E+04   0.783E+00 -.754E-01 0.318E+00   -.614E+00 0.220E-01 0.626E+00
   -.432E+01 0.708E+01 -.249E+04   0.435E+01 -.725E+01 0.249E+04   -.326E+00 0.716E+00 0.318E+00   0.290E+00 -.542E+00 0.627E+00
   0.432E+01 0.708E+01 -.249E+04   -.435E+01 -.725E+01 0.249E+04   0.326E+00 0.716E+00 0.318E+00   -.288E+00 -.542E+00 0.626E+00
   0.293E-04 -.323E-04 -.250E+04   0.148E-03 -.461E-04 0.249E+04   -.464E-18 -.621E-18 0.627E+00   -.472E-02 -.243E-02 0.632E+00
   -.217E-04 -.117E-04 -.198E+04   0.917E-04 0.821E-05 0.198E+04   0.149E-17 0.690E-18 0.324E+01   0.298E-02 0.181E-02 0.678E+00
   -.783E-03 -.778E-03 -.101E+02   -.798E-13 0.249E-12 -.864E-11   -.221E-15 -.222E-15 0.140E-01   0.469E-03 0.887E-03 0.107E+02

 POSITION                                       TOTAL-FORCE (eV/Angst)
      0.00000      0.00000      5.28038        -0.000000     -0.000000     -0.047241
      2.93784      0.00000      5.28038         0.000417      0.007786     -0.084718
      5.87568      0.00000      5.28038        -0.000417      0.007786     -0.084718
      1.46892      2.54424      5.28038         0.006951     -0.003532     -0.084718
      4.40676      2.54424      5.28038        -0.000000     -0.000000     -0.114467
      7.34459      2.54424      5.28038        -0.006951     -0.003532     -0.084718
      2.93784      5.08848      5.28038         0.006535     -0.004254     -0.084718
      5.87568      5.08848      5.28038        -0.006535     -0.004254     -0.084718
      8.81351      5.08848      5.28038        -0.000000     -0.000000     -0.082681
      1.46892      0.84808      7.67911         0.054252      0.031322      0.114421
      4.40676      0.84808      7.67911        -0.000000     -0.040745      0.037239
      7.34459      0.84808      7.67911        -0.054252      0.031322      0.114421
      2.93784      3.39232      7.67911        -0.035286      0.020372      0.037239
      5.87568      3.39232      7.67911         0.035286      0.020372      0.037239
      8.81351      3.39232      7.67911        -0.000000     -0.014256      0.118901
      4.40676      5.93656      7.67911        -0.000000     -0.062645      0.114421
      7.34459      5.93656      7.67911        -0.012346      0.007128      0.118901
     10.28243      5.93656      7.67911         0.012346      0.007128      0.118901
      8.81351      1.69621     10.07295        -0.000000     -0.004672     -0.011526
      2.93663      1.69546     10.04742        -0.000700     -0.000404     -0.022528
      5.87688      1.69546     10.04742         0.000700     -0.000404     -0.022528
     10.27557      4.24437     10.06760        -0.007989      0.004613     -0.019637
      4.40676      4.24180     10.04742         0.000000      0.000808     -0.022528
      7.35146      4.24437     10.06760         0.007989      0.004613     -0.019637
     11.75131      6.78462     10.07295         0.004046      0.002336     -0.011526
      5.87571      6.78462     10.07295        -0.004046      0.002336     -0.011526
      8.81351      6.77672     10.06760        -0.000000     -0.009225     -0.019637
      0.00000      0.00000     12.49471        -0.000000     -0.000000      0.002964
      2.95476      0.03042     12.47845        -0.000415     -0.004189      0.013421
      5.85875      0.03042     12.47845         0.000415     -0.004189      0.013421
      1.50372      2.54369     12.47845        -0.003835      0.001735      0.013421
      7.30979      2.54369     12.47845         0.003835      0.001735      0.013421
      2.95572      5.05862     12.47845        -0.003420      0.002454      0.013421
      5.85780      5.05862     12.47845         0.003420      0.002454      0.013421
      8.81351      5.08848     12.49462        -0.000000     -0.000000      0.000447
      4.40676      2.54424     12.26123         0.000000     -0.000000      0.018147
    total drift:                               -0.000315      0.000109      0.693952

  FREE ENERGIE OF THE ION-ELECTRON SYSTEM (eV)
  free  energy   TOTEN  =      -113.06760344 eV

  energy  without entropy=     -113.06760344  energy(sigma->0) =     -113.06760344

 stress matrix after NEB project (eV)
    -22.40242     -0.00000      0.00000
     -0.00000    -22.40242      0.00000
      0.00000      0.00000      3.05387
  FORCES: max atom, RMS     0.022542    0.011697
  FORCE total and by dimension    0.070185    0.022528
  Stress total and by dimension   31.828646   22.402418
|           W    W    AA    RRRRR   N    N  II  N    N   GGGG   !!!           |
|           W    W   A  A   R    R  NN   N  II  NN   N  G    G  !!!           |
|           W    W  A    A  R    R  N N  N  II  N N  N  G       !!!           |
|           W WW W  AAAAAA  RRRRR   N  N N  II  N  N N  G  GGG   !            |
|           WW  WW  A    A  R   R   N   NN  II  N   NN  G    G                |
|           W    W  A    A  R    R  N    N  II  N    N   GGGG   !!!           |
|     Tetrahedron method does not include variations of the Fermi             |
|     occupations, so forces and stress will be inaccurate. We suggest        |
|     using a different smearing scheme ISMEAR = 1 or 2 for metals in         |
|     relaxations.                                                            |

 total charge

# of ion       s       p       d       tot
    1        0.542   0.240   8.766   9.548
    2        0.546   0.240   8.765   9.551
    3        0.546   0.240   8.765   9.551
    4        0.546   0.240   8.765   9.551
    5        0.540   0.242   8.763   9.545
    6        0.546   0.240   8.765   9.551
    7        0.546   0.240   8.765   9.551
    8        0.546   0.240   8.765   9.551
    9        0.542   0.240   8.769   9.551
   10        0.521   0.310   8.767   9.598
   11        0.522   0.306   8.779   9.607
   12        0.521   0.310   8.767   9.598
   13        0.522   0.306   8.779   9.607
   14        0.522   0.306   8.779   9.607
   15        0.516   0.307   8.776   9.600
   16        0.521   0.310   8.767   9.598
   17        0.516   0.307   8.776   9.600
   18        0.516   0.307   8.776   9.600
   19        0.518   0.303   8.776   9.597
   20        0.533   0.322   8.759   9.613
   21        0.533   0.322   8.759   9.613
   22        0.510   0.307   8.776   9.592
   23        0.533   0.322   8.759   9.613
   24        0.510   0.307   8.776   9.592
   25        0.518   0.303   8.776   9.597
   26        0.518   0.303   8.776   9.597
   27        0.510   0.307   8.776   9.592
   28        0.539   0.230   8.768   9.537
   29        0.552   0.238   8.755   9.545
   30        0.552   0.238   8.755   9.545
   31        0.552   0.238   8.755   9.545
   32        0.552   0.238   8.755   9.545
   33        0.552   0.238   8.755   9.545
   34        0.552   0.238   8.755   9.545
   35        0.535   0.231   8.769   9.535
   36        0.332   0.261   7.410   8.002
tot         18.972   9.878 314.261 343.112

 BZINTS: Fermi energy:    0.684736;  394.000000 electrons
         Band energy:-0.116605E+04;  BLOECHL correction:   -0.095683