 vasp.6.2.0 18Jan21 (build Jun 12 2021 23:27:24) complex

 executed on             LinuxIFC date 2022.05.27  05:50:29

 INCAR:
   ISMEAR = -5
   SIGMA = 0.1
   ISPIN = 1
   EDIFF = 1.d-5
   EDIFFG = -0.01
   NSW = 0
   NELM = 150
   ENCUT = 500
   ISIF = 2
   IBRION = 2
   LREAL = Auto
   ALGO = Fast
   ICHARG = 11
   LORBIT = 10
   LCHARG = .F.
   LWAVE = .F.

 POTCAR:    PAW_PBE Ag 02Apr2005
 POTCAR:    PAW_PBE W 08Apr2002
 POTCAR:    PAW_PBE N 08Apr2002
|           W    W    AA    RRRRR   N    N  II  N    N   GGGG   !!!           |
|           W    W   A  A   R    R  NN   N  II  NN   N  G    G  !!!           |
|           W    W  A    A  R    R  N N  N  II  N N  N  G       !!!           |
|           W WW W  AAAAAA  RRRRR   N  N N  II  N  N N  G  GGG   !            |
|           WW  WW  A    A  R   R   N   NN  II  N   NN  G    G                |
|           W    W  A    A  R    R  N    N  II  N    N   GGGG   !!!           |
|     For optimal performance we recommend to set                             |
|       NCORE = 2 up to number-of-cores-per-socket                            |
|     This setting can greatly improve the performance of VASP for DFT.       |
|     The default, NCORE=1 might be grossly inefficient on modern             |
|     multi-core architectures or massively parallel machines. Do your        |
|     Unfortunately you need to use the default for GW and RPA                |
|     calculations (for HF NCORE is supported but not extensively tested      |
|     yet).                                                                   |

 POTCAR:    PAW_PBE Ag 02Apr2005
   VRHFIN =Ag : s1 d10

   TITEL  = PAW_PBE Ag 02Apr2005
   POMASS =  107.868; ZVAL   =   11.000    mass and valenz
   ENMAX  =  249.844; ENMIN  =  187.383 eV

 POTCAR:    PAW_PBE W 08Apr2002
   VRHFIN =W : 6s5d

[...]

 POTCAR:    PAW_PBE N 08Apr2002
   VRHFIN =N: s2p3

   TITEL  = PAW_PBE N 08Apr2002
   POMASS =   14.001; ZVAL   =    5.000    mass and valenz
   ENMAX  =  400.000; ENMIN  =  300.000 eV

 Optimization of the real space projectors (new method)

 maximal supplied QI-value         = 15.12
 optimisation between [QCUT,QGAM] = [ 11.34, 22.83] = [ 36.00,145.93] Ry
 Optimized for a Real-space Cutoff    1.43 Angstroem

   l    n(q)    QCUT    max X(q) W(low)/X(q) W(high)/X(q)  e(spline)
   2      9    11.338    53.897    0.16E-03    0.20E-03    0.28E-06
   2      9    11.338    52.416    0.16E-03    0.20E-03    0.29E-06
   0     10    11.338   122.045    0.31E-04    0.76E-04    0.15E-06
   0     10    11.338    73.629    0.30E-04    0.72E-04    0.15E-06
   1      9    11.338    15.255    0.20E-03    0.19E-04    0.17E-06
   1      9    11.338     9.562    0.16E-03    0.15E-04    0.14E-06
 Optimization of the real space projectors (new method)

[...]

   l    n(q)    QCUT    max X(q) W(low)/X(q) W(high)/X(q)  e(spline)
   2     10    11.429   130.855    0.22E-03    0.64E-03    0.11E-05
   2     10    11.429   114.007    0.22E-03    0.64E-03    0.11E-05
   0     11    11.429    84.709    0.39E-04    0.67E-04    0.23E-06
   0     11    11.429    49.163    0.35E-04    0.62E-04    0.21E-06
   1     10    11.429    15.765    0.84E-04    0.15E-03    0.24E-06
   1     10    11.429    10.638    0.58E-04    0.12E-03    0.19E-06
 Optimization of the real space projectors (new method)

 maximal supplied QI-value         = 25.13
 optimisation between [QCUT,QGAM] = [ 11.31, 22.87] = [ 35.82,146.48] Ry
 Optimized for a Real-space Cutoff    1.27 Angstroem

   l    n(q)    QCUT    max X(q) W(low)/X(q) W(high)/X(q)  e(spline)
   0      9    11.310    79.467    0.75E-04    0.16E-03    0.36E-06
   0      9    11.310    66.151    0.74E-04    0.16E-03    0.36E-06
   1      8    11.310    17.416    0.35E-03    0.12E-03    0.95E-06
   1      8    11.310    12.382    0.37E-03    0.13E-03    0.98E-06
  PAW_PBE Ag 02Apr2005                  :
  PAW_PBE W 08Apr2002                   :
  PAW_PBE N 08Apr2002                   :

 POSCAR: Ag-W-N2
  positions in direct lattice
  velocities in cartesian coordinates
 exchange correlation table for  LEXCH =        8
   RHO(1)=    0.500       N(1)  =     2000
   RHO(2)=  100.500       N(2)  =     4000

 VTST: version 3.2, (02/03/18)

 CHAIN: initializing optimizer

 OPT: Using VASP Conjugate-Gradient optimizer
 CHAIN: Read ICHAIN            0

 POSCAR: Ag-W-N2
  positions in direct lattice
  velocities in cartesian coordinates

 ion  position               nearest neighbor table
   1  0.000  0.000  0.238-   2 2.93   8 2.93   7 2.93   6 2.93   4 2.93  12 2.93  16 2.93  10 2.93
                             3 2.93
   2  0.333  0.000  0.238-   1 2.93   8 2.93   9 2.93   3 2.93   4 2.93   5 2.93  10 2.93  17 2.93
                            11 2.93
   3  0.667  0.000  0.238-   9 2.93   2 2.93   5 2.93  11 2.93   7 2.93  18 2.93   1 2.93   6 2.93
                            12 2.93
   4  0.000  0.333  0.238-   5 2.93   6 2.93   2 2.93   1 2.93   7 2.93  13 2.93  15 2.93   9 2.93
                            10 2.93
   5  0.333  0.333  0.238-   4 2.93   3 2.93   7 2.93   2 2.93   8 2.93  14 2.93  13 2.93  11 2.93
                             6 2.93
   6  0.667  0.333  0.238-   4 2.93   9 2.93   1 2.93  15 2.93   8 2.93  12 2.93   3 2.93   5 2.93
                            14 2.93
   7  0.000  0.667  0.238-   8 2.93   1 2.93   5 2.93   3 2.93   4 2.93  16 2.93  18 2.93  13 2.93
                             9 2.93
   8  0.333  0.667  0.238-   7 2.93   1 2.93   2 2.93   9 2.93   5 2.93  16 2.93   6 2.93  17 2.93
                            14 2.93
   9  0.667  0.667  0.238-   3 2.93   2 2.93   8 2.93   6 2.93  17 2.93   4 2.93  15 2.93   7 2.93
                            18 2.93
  10  0.111  0.111  0.346-  20 2.89  12 2.93  16 2.93  15 2.93  17 2.93  13 2.93  11 2.93   2 2.93
                             1 2.93   4 2.93  19 2.93  26 2.93
  11  0.444  0.111  0.346-  21 2.90  20 2.90  14 2.93  17 2.93  18 2.93   3 2.93  12 2.93  13 2.93
                            10 2.93   5 2.93   2 2.93  27 2.93
  12  0.778  0.111  0.346-  21 2.89  10 2.93  16 2.93  18 2.93  15 2.93  11 2.93   1 2.93  14 2.93
                             6 2.93   3 2.93  25 2.93  19 2.93
  13  0.111  0.444  0.346-  20 2.90  23 2.90  15 2.93  14 2.93  18 2.93  10 2.93  11 2.93  16 2.93
                             4 2.93   5 2.93   7 2.93  22 2.93
  14  0.444  0.444  0.346-  23 2.90  21 2.90  13 2.93  11 2.93  16 2.93   5 2.93  12 2.93  17 2.93
                             8 2.93  15 2.93   6 2.93  24 2.93
  15  0.778  0.444  0.346-  24 2.93  22 2.93  13 2.93  10 2.93  12 2.93  17 2.93  18 2.93   4 2.93
                             6 2.93   9 2.93  14 2.93  19 2.93
  16  0.111  0.778  0.346-  23 2.89  18 2.93  12 2.93  10 2.93  14 2.93  17 2.93  13 2.93   7 2.93
                             8 2.93   1 2.93  26 2.93  25 2.93
  17  0.444  0.778  0.346-  27 2.93  24 2.93  11 2.93  10 2.93   9 2.93  18 2.93  15 2.93  16 2.93
                             2 2.93  14 2.93   8 2.93  26 2.93
  18  0.778  0.778  0.346-  22 2.93  27 2.93  16 2.93  12 2.93  13 2.93  11 2.93  17 2.93  15 2.93
                             7 2.93   3 2.93   9 2.93  25 2.93
  19  0.889  0.223  0.454-  28 2.92  20 2.93  21 2.93  24 2.93  22 2.93  15 2.93  10 2.93  12 2.93
                            26 2.94  25 2.94  32 2.98  31 2.98
  20  0.222  0.222  0.452-  36 2.76  10 2.89  13 2.90  11 2.90  19 2.93  26 2.93  27 2.94  22 2.94
                            21 2.94  23 2.94  31 2.96  29 2.96
  21  0.556  0.222  0.452-  36 2.76  12 2.89  11 2.90  14 2.90  25 2.93  19 2.93  27 2.94  24 2.94
                            20 2.94  23 2.94  30 2.96  32 2.96
  22  0.888  0.556  0.454-  35 2.92  24 2.92  27 2.92  18 2.93  15 2.93  25 2.93  19 2.93  13 2.93
                            23 2.94  20 2.94  33 2.96  31 2.96
  23  0.222  0.556  0.452-  36 2.76  16 2.89  14 2.90  13 2.90  26 2.93  25 2.93  22 2.94  24 2.94
                            21 2.94  20 2.94  34 2.96  33 2.96
  24  0.556  0.556  0.454-  35 2.92  27 2.92  22 2.92  15 2.93  17 2.93  19 2.93  26 2.93  14 2.93
                            23 2.94  21 2.94  32 2.96  34 2.96
  25  0.889  0.889  0.454-  28 2.92  23 2.93  21 2.93  22 2.93  27 2.93  18 2.93  16 2.93  12 2.93
                            26 2.94  19 2.94  33 2.98  30 2.98
  26  0.223  0.889  0.454-  28 2.92  23 2.93  20 2.93  27 2.93  24 2.93  17 2.93  16 2.93  10 2.93
                            25 2.94  19 2.94  34 2.98  29 2.98
  27  0.556  0.888  0.454-  35 2.92  24 2.92  22 2.92  17 2.93  18 2.93  26 2.93  25 2.93  11 2.93
                            20 2.94  21 2.94  29 2.96  30 2.96
  28  0.000  0.000  0.562-  26 2.92  25 2.92  19 2.92  29 2.96  34 2.96  33 2.96  32 2.96  31 2.96
                            30 2.96
  29  0.333  0.007  0.563-  31 2.86  30 2.87  36 2.88  20 2.96  27 2.96  28 2.96  35 2.96  26 2.98
                            34 3.06
  30  0.659  0.007  0.563-  32 2.86  29 2.87  36 2.88  21 2.96  27 2.96  28 2.96  35 2.96  25 2.98
                            33 3.06
  31  0.007  0.333  0.563-  29 2.86  33 2.87  36 2.88  20 2.96  22 2.96  28 2.96  35 2.96  19 2.98
                            32 3.06
  32  0.659  0.333  0.563-  30 2.86  34 2.87  36 2.88  21 2.96  24 2.96  28 2.96  35 2.96  19 2.98
                            31 3.06
  33  0.007  0.659  0.563-  34 2.86  31 2.87  36 2.88  23 2.96  22 2.96  28 2.96  35 2.96  25 2.98
                            30 3.06
  34  0.333  0.659  0.563-  33 2.86  32 2.87  36 2.88  23 2.96  24 2.96  28 2.96  35 2.96  26 2.98
                            29 3.06
  35  0.667  0.667  0.561-  24 2.92  27 2.92  22 2.92  30 2.96  32 2.96  29 2.96  34 2.96  31 2.96
                            33 2.96
  36  0.333  0.333  0.550-  37 2.08  38 2.08  21 2.76  20 2.76  23 2.76  31 2.88  30 2.88  33 2.88
                            29 2.88  34 2.88  32 2.88
  37  0.263  0.335  0.640-  38 1.22  36 2.08
  38  0.402  0.335  0.640-  37 1.22  36 2.08

  LATTYP: Found a hexagonal cell.
 ALAT       =     8.7913665772
 C/A-ratio  =     2.5227160501

  Lattice vectors:

 A1 = (  -4.3956832886,  -7.6135467898,   0.0000000000)
 A2 = (   8.7913665771,   0.0000000000,   0.0000000000)
 A3 = (   0.0000000000,   0.0000000000,  22.1781215668)

Analysis of symmetry for initial positions (statically):
 Subroutine PRICEL returns:
 Original cell was already a primitive cell.

 Routine SETGRP: Setting up the symmetry group for a
 hexagonal supercell.

 Subroutine GETGRP returns: Found  2 space group operations
 (whereof  2 operations were pure point group operations)
 out of a pool of 24 trial point group operations.

The static configuration has the point symmetry C_1h.

Analysis of symmetry for dynamics (positions and initial velocities):
 Subroutine PRICEL returns:
 Original cell was already a primitive cell.

[...]

The dynamic configuration has the point symmetry C_1h.

Analysis of constrained symmetry for selective dynamics:
 Subroutine PRICEL returns:
 Original cell was already a primitive cell.

 Routine SETGRP: Setting up the symmetry group for a
 hexagonal supercell.

 Subroutine GETGRP returns: Found  2 space group operations
 (whereof  2 operations were pure point group operations)
[...]
     33      -4.5273      2.00000
     34      -4.5071      2.00000
     35      -4.4881      2.00000
     36      -4.4779      2.00000
     37      -4.4437      2.00000
     38      -4.4186      2.00000
     39      -4.3861      2.00000
     40      -4.3744      2.00000
     41      -4.3638      2.00000
     42      -4.3156      2.00000
     43      -4.3037      2.00000
     44      -4.2877      2.00000
     45      -4.2726      2.00000
     46      -4.2688      2.00000
     47      -4.2462      2.00000
     48      -4.1740      2.00000
     49      -4.1501      2.00000
     50      -4.1458      2.00000
     51      -4.1325      2.00000
     52      -4.1299      2.00000
     53      -4.1272      2.00000
     54      -4.1211      2.00000
     55      -4.1146      2.00000
     56      -4.1010      2.00000
     57      -4.0747      2.00000
     58      -4.0285      2.00000
     59      -4.0217      2.00000
     60      -4.0129      2.00000
[...]
    238       6.1712      0.00000
    239       6.2500      0.00000
    240       6.3296      0.00000
    241       6.3902      0.00000
    242       6.4686      0.00000
    243       6.4833      0.00000
    244       7.2134      0.00000
    245       7.2834      0.00000
    246       7.3476      0.00000
    247       7.3838      0.00000
    248       7.3886      0.00000
    249       7.4056      0.00000
    250       7.5051      0.00000
    251       7.6544      0.00000
    252       7.7060      0.00000

 soft charge-density along one line, spin component           1
         0         1         2         3         4         5         6         7         8         9
 total charge-density along one line

------------------------ aborting loop because EDIFF is reached ----------------------------------------

 total charge

# of ion       s       p       d       tot
    1        0.420   0.201   9.178   9.798
    2        0.416   0.205   9.176   9.796
    3        0.416   0.205   9.176   9.796
    4        0.417   0.203   9.177   9.797
    5        0.419   0.202   9.176   9.797
    6        0.417   0.203   9.177   9.797
    7        0.415   0.204   9.177   9.796
    8        0.415   0.204   9.177   9.796
    9        0.413   0.204   9.178   9.794
   10        0.408   0.269   9.164   9.841
   11        0.406   0.270   9.168   9.844
   12        0.408   0.269   9.164   9.841
   13        0.404   0.271   9.168   9.843
   14        0.404   0.271   9.168   9.843
   15        0.402   0.268   9.165   9.836
   16        0.412   0.269   9.161   9.842
   17        0.401   0.270   9.165   9.836
   18        0.401   0.270   9.165   9.836
   19        0.395   0.264   9.168   9.827
   20        0.439   0.314   9.131   9.884
   21        0.439   0.314   9.131   9.884
   22        0.391   0.273   9.167   9.830
   23        0.448   0.306   9.131   9.886
   24        0.391   0.273   9.167   9.830
   25        0.405   0.261   9.168   9.834
   26        0.405   0.261   9.168   9.834
   27        0.393   0.273   9.166   9.832
   28        0.414   0.196   9.176   9.787
   29        0.427   0.223   9.163   9.813
   30        0.427   0.223   9.163   9.813
   31        0.424   0.210   9.172   9.807
   32        0.424   0.210   9.172   9.807
   33        0.426   0.223   9.162   9.811
   34        0.426   0.223   9.162   9.811
   35        0.406   0.201   9.176   9.784
   36        0.592   0.502   4.036   5.129
   37        1.331   2.421   0.000   3.753
   38        1.331   2.421   0.000   3.753
tot         17.726  13.848 324.864 356.439

  FORCE on cell =-STRESS in cart. coord.  units (eV):
  Direction    XX          YY          ZZ          XY          YZ          ZX
  Alpha Z   775.53719   775.53719   775.53719
  Ewald  118998.67035118701.54467************     0.00004    -0.45272     0.00006
  Hartree129134.87321129023.76246************     0.00002    -0.24432     0.00002
  E(xc)   -2097.43185 -2097.77682 -2103.57296     0.00000     0.11945     0.00000
  Local  ************************259032.45722     0.00077     0.72948    -0.00016
  n-local  -356.70244  -342.48208  -352.64589     2.49771     0.27077     0.12386
  augment  3226.20984  3224.94483  3237.72876    -0.00012    -0.00964     0.00005
  Kinetic  5030.00335  5033.58686  5064.02382     1.29511    -0.54703    -0.01482
  Fock        0.00000     0.00000     0.00000     0.00000     0.00000     0.00000
  Total      -6.60348    -6.60436    -0.60175    -0.00000    -0.13400    -0.00000
  in kB      -7.12714    -7.12809    -0.64947    -0.00000    -0.14463    -0.00000

 VOLUME and BASIS-vectors are now :
  energy-cutoff  :      500.00
  volume of cell :     1484.46
      direct lattice vectors                 reciprocal lattice vectors
     8.791366577  0.000000000  0.000000000     0.113747958 -0.065672414  0.000000000
     4.395683289  7.613546790  0.000000000     0.000000000  0.131344829  0.000000000
     0.000000000  0.000000000 22.178121567     0.000000000  0.000000000  0.045089481

  length of vectors
     8.791366577  8.791366577 22.178121567     0.131344829  0.131344829  0.045089481

 FORCES acting on ions
    electron-ion (+dipol)            ewald-force                    non-local-force                 convergence-correction
   0.461E-04 -.479E-01 0.251E+04   -.953E-04 -.145E-01 -.250E+04   0.280E-12 0.426E-01 -.200E+01   -.203E-03 0.893E-02 -.158E+00
   0.151E+00 0.361E+00 0.251E+04   -.287E+00 -.456E+00 -.250E+04   0.124E+00 0.129E+00 -.159E+01   0.854E-02 -.325E-01 -.153E+00
   -.151E+00 0.361E+00 0.251E+04   0.287E+00 -.456E+00 -.250E+04   -.124E+00 0.129E+00 -.159E+01   -.899E-02 -.306E-01 -.152E+00
   0.570E+00 -.106E-03 0.251E+04   -.526E+00 -.307E-01 -.250E+04   0.536E-01 -.399E-01 -.161E+01   -.752E-01 0.630E-01 -.117E+00
   -.723E-05 -.448E-01 0.251E+04   0.980E-04 -.266E-02 -.250E+04   0.237E-12 0.360E-01 -.149E+01   0.626E-02 0.104E-01 -.110E+00
   -.570E+00 -.703E-04 0.251E+04   0.526E+00 -.308E-01 -.250E+04   -.536E-01 -.399E-01 -.161E+01   0.737E-01 0.638E-01 -.117E+00
   0.165E+00 -.382E+00 0.251E+04   -.238E+00 0.487E+00 -.250E+04   0.120E+00 -.102E+00 -.159E+01   -.468E-01 0.266E-02 -.208E+00
   -.165E+00 -.382E+00 0.251E+04   0.238E+00 0.487E+00 -.250E+04   -.120E+00 -.102E+00 -.159E+01   0.484E-01 0.160E-02 -.208E+00
   0.363E-04 0.163E+00 0.251E+04   0.792E-04 0.171E-01 -.250E+04   -.478E-12 -.727E-01 -.184E+01   -.658E-02 -.976E-01 -.194E+00
   0.490E+01 0.288E+01 0.857E+03   -.442E+01 -.268E+01 -.856E+03   -.473E+00 -.249E+00 -.754E+00   -.264E-01 0.493E-01 0.174E+00
   -.282E-04 0.412E+01 0.860E+03   0.404E-04 -.437E+01 -.860E+03   0.105E-11 0.160E+00 -.267E+00   0.687E-02 0.101E-01 0.249E+00
   -.490E+01 0.288E+01 0.857E+03   0.442E+01 -.268E+01 -.856E+03   0.473E+00 -.249E+00 -.754E+00   0.243E-01 0.501E-01 0.175E+00
   0.340E+01 -.196E+01 0.860E+03   -.367E+01 0.219E+01 -.860E+03   0.241E+00 -.151E+00 -.394E+00   -.277E-01 -.437E-01 0.211E+00
   -.340E+01 -.196E+01 0.860E+03   0.367E+01 0.219E+01 -.860E+03   -.241E+00 -.151E+00 -.394E+00   0.382E-01 -.453E-01 0.210E+00
   0.160E-04 0.470E+00 0.856E+03   -.108E-03 -.581E+00 -.855E+03   0.500E-12 0.761E-01 -.678E+00   -.173E-02 0.585E-02 0.171E+00
   -.822E-05 -.582E+01 0.857E+03   0.205E-04 0.516E+01 -.856E+03   0.418E-11 0.636E+00 -.683E+00   -.373E-03 0.411E-01 0.187E+00
   0.474E+00 -.308E+00 0.856E+03   -.559E+00 0.386E+00 -.855E+03   0.298E-01 -.451E-01 -.623E+00   0.324E-01 -.296E-01 0.168E+00
   -.474E+00 -.308E+00 0.856E+03   0.559E+00 0.386E+00 -.855E+03   -.298E-01 -.451E-01 -.623E+00   -.318E-01 -.273E-01 0.170E+00
   0.394E-04 -.126E+01 -.818E+03   -.128E-03 0.105E+01 0.817E+03   0.124E-11 0.188E+00 0.115E+01   -.649E-02 0.192E-01 0.610E+00
   -.405E+01 -.170E+01 -.793E+03   0.526E+01 0.213E+01 0.793E+03   -.149E+01 -.615E+00 -.971E+00   0.188E+00 0.154E+00 0.840E+00
   0.405E+01 -.170E+01 -.793E+03   -.526E+01 0.213E+01 0.793E+03   0.149E+01 -.615E+00 -.971E+00   -.187E+00 0.152E+00 0.840E+00
   -.300E+01 0.109E+01 -.809E+03   0.265E+01 -.717E+00 0.808E+03   0.351E+00 -.297E+00 0.682E+00   0.653E-01 -.933E-01 0.547E+00
   -.522E-04 0.349E+01 -.793E+03   0.404E-04 -.497E+01 0.794E+03   0.122E-10 0.185E+01 -.122E+01   -.659E-03 -.260E+00 0.900E+00
   0.300E+01 0.109E+01 -.809E+03   -.265E+01 -.717E+00 0.808E+03   -.351E+00 -.297E+00 0.682E+00   -.542E-01 -.961E-01 0.547E+00
   0.135E+01 0.101E+01 -.819E+03   -.140E+01 -.104E+01 0.818E+03   -.105E-01 0.166E-01 0.824E+00   0.515E-01 0.185E-01 0.584E+00
   -.135E+01 0.101E+01 -.819E+03   0.140E+01 -.104E+01 0.818E+03   0.105E-01 0.166E-01 0.824E+00   -.641E-01 0.180E-01 0.584E+00
   0.198E-04 -.367E+01 -.810E+03   0.109E-03 0.316E+01 0.809E+03   0.312E-11 0.476E+00 0.713E+00   0.732E-02 0.969E-01 0.513E+00
   0.532E-04 0.272E+01 -.243E+04   -.115E-03 -.298E+01 0.243E+04   0.118E-11 0.180E+00 0.168E+01   -.437E-03 0.427E-01 0.378E+00
   0.201E+02 0.427E+02 -.241E+04   -.194E+02 -.424E+02 0.241E+04   -.101E+01 -.972E+00 0.175E+01   0.129E+00 0.386E+00 0.429E+00
   -.201E+02 0.427E+02 -.241E+04   0.194E+02 -.424E+02 0.241E+04   0.101E+01 -.972E+00 0.175E+01   -.128E+00 0.386E+00 0.427E+00
   0.541E+02 0.104E+01 -.240E+04   -.539E+02 -.904E+00 0.240E+04   -.101E+01 -.130E+00 0.290E+01   0.412E+00 0.216E-02 0.394E+00
   -.541E+02 0.104E+01 -.240E+04   0.539E+02 -.904E+00 0.240E+04   0.101E+01 -.130E+00 0.290E+01   -.423E+00 0.146E-02 0.394E+00
   0.197E+02 -.444E+02 -.241E+04   -.194E+02 0.439E+02 0.241E+04   -.666E+00 0.116E+01 0.190E+01   0.226E+00 -.386E+00 0.436E+00
   -.197E+02 -.444E+02 -.241E+04   0.194E+02 0.439E+02 0.241E+04   0.666E+00 0.116E+01 0.190E+01   -.236E+00 -.387E+00 0.437E+00
   0.218E-04 -.307E+01 -.243E+04   0.106E-03 0.340E+01 0.243E+04   -.119E-11 -.181E+00 0.190E+01   -.476E-02 -.938E-01 0.423E+00
   -.171E-04 0.885E+00 -.111E+04   0.578E-04 -.101E+01 0.111E+04   -.278E-13 -.423E-02 0.127E+01   0.111E-02 0.239E-01 0.329E+00
   0.185E+03 0.320E+00 -.128E+04   -.222E+03 -.233E+00 0.130E+04   0.371E+02 -.970E-01 -.130E+02   0.161E+00 0.149E-01 -.250E+00
   -.185E+03 0.320E+00 -.128E+04   0.222E+03 -.233E+00 0.130E+04   -.371E+02 -.970E-01 -.130E+02   -.160E+00 0.149E-01 -.251E+00
   0.445E-03 -.628E+00 0.172E+02   -.284E-13 0.144E-12 -.819E-11   0.402E-11 0.613E+00 -.265E+02   -.105E-01 0.140E-01 0.941E+01

 POSITION                                       TOTAL-FORCE (eV/Angst)
      0.00000      0.00000      5.28219        -0.000000     -0.010888     -0.035247
      2.93046      0.00000      5.28219        -0.004033      0.002301      0.046836
      5.86091      0.00000      5.28219         0.004033      0.002301      0.046836
      1.46523      2.53785      5.28219         0.022737     -0.007315      0.027077
      4.39568      2.53785      5.28219        -0.000000     -0.000954      0.001778
      7.32614      2.53785      5.28219        -0.022737     -0.007315      0.027077
      2.93046      5.07570      5.28219        -0.000874      0.005010      0.042654
      5.86091      5.07570      5.28219         0.000874      0.005010      0.042654
      8.79137      5.07570      5.28219         0.000000      0.010125      0.021184
      1.46523      0.84595      7.67490        -0.018818      0.003411     -0.012589
      4.39568      0.84595      7.67490        -0.000000     -0.081860     -0.063449
      7.32614      0.84595      7.67490         0.018818      0.003411     -0.012589
      2.93046      3.38380      7.67490        -0.059351      0.038513     -0.067822
      5.86091      3.38380      7.67490         0.059351      0.038513     -0.067822
      8.79137      3.38380      7.67490        -0.000000     -0.029645      0.038977
      4.39568      5.92165      7.67490         0.000000      0.019201     -0.016998
      7.32614      5.92165      7.67490        -0.023020      0.004281      0.048669
     10.25659      5.92165      7.67490         0.023020      0.004281      0.048669
      8.79137      1.69504     10.07204        -0.000000     -0.004711      0.030462
      2.92602      1.68934     10.02478        -0.087770     -0.034744     -0.156346
      5.86534      1.68934     10.02478         0.087770     -0.034744     -0.156346
     10.25093      4.23302     10.06482         0.063555     -0.020669      0.022344
      4.39568      4.23487     10.02478         0.000000      0.123313     -0.158360
      7.33181      4.23302     10.06482        -0.063555     -0.020669      0.022344
     11.71910      6.76603     10.07204        -0.001051      0.004064     -0.001905
      5.86363      6.76603     10.07204         0.001051      0.004064     -0.001905
      8.79137      6.76105     10.06482         0.000000      0.062837      0.020183
      0.00000      0.00000     12.45341        -0.000000     -0.041796     -0.004551
      2.96185      0.05622     12.48740        -0.187060     -0.314502     -0.250270
      5.82952      0.05622     12.48740         0.187060     -0.314502     -0.250270
      1.52961      2.53693     12.48740        -0.427622      0.003860     -0.242454
      7.26176      2.53693     12.48740         0.427622      0.003860     -0.242454
      2.96344      5.02040     12.48740        -0.204760      0.308472     -0.271033
      5.82792      5.02040     12.48740         0.204760      0.308472     -0.271033
      8.79137      5.07570     12.44798         0.000000      0.059080      0.018431
      4.39568      2.53785     12.20252        -0.000000     -0.100330      1.777700
      3.78472      2.54909     14.19409         0.006211      0.005131     -0.000217
      5.00665      2.54909     14.19409        -0.006211      0.005131     -0.000217
    total drift:                               -0.010102     -0.001021      0.090057

  FREE ENERGIE OF THE ION-ELECTRON SYSTEM (eV)
  free  energy   TOTEN  =      -114.60052487 eV

  energy  without entropy=     -114.60052487  energy(sigma->0) =     -114.60052487

 stress matrix after NEB project (eV)
     -6.60348     -0.00000     -0.00000
     -0.00000     -6.60436     -0.13400
     -0.00000     -0.13400     -0.60175
  FORCES: max atom, RMS     0.008059    0.001849
  FORCE total and by dimension    0.011397    0.006211
  Stress total and by dimension    9.360640    6.604360
|           W    W    AA    RRRRR   N    N  II  N    N   GGGG   !!!           |
|           W    W   A  A   R    R  NN   N  II  NN   N  G    G  !!!           |
|           W    W  A    A  R    R  N N  N  II  N N  N  G       !!!           |
|           W WW W  AAAAAA  RRRRR   N  N N  II  N  N N  G  GGG   !            |
|           WW  WW  A    A  R   R   N   NN  II  N   NN  G    G                |
|           W    W  A    A  R    R  N    N  II  N    N   GGGG   !!!           |
|     Tetrahedron method does not include variations of the Fermi             |
|     occupations, so forces and stress will be inaccurate. We suggest        |
|     using a different smearing scheme ISMEAR = 1 or 2 for metals in         |
|     relaxations.                                                            |

 total charge

# of ion       s       p       d       tot
    1        0.420   0.201   9.178   9.798
    2        0.416   0.205   9.176   9.796
    3        0.416   0.205   9.176   9.796
    4        0.417   0.203   9.177   9.797
    5        0.419   0.202   9.176   9.797
    6        0.417   0.203   9.177   9.797
    7        0.415   0.204   9.177   9.796
    8        0.415   0.204   9.177   9.796
    9        0.413   0.204   9.178   9.794
   10        0.408   0.269   9.164   9.841
   11        0.406   0.270   9.168   9.844
   12        0.408   0.269   9.164   9.841
   13        0.404   0.271   9.168   9.843
   14        0.404   0.271   9.168   9.843
   15        0.402   0.268   9.165   9.836
   16        0.412   0.269   9.161   9.842
   17        0.401   0.270   9.165   9.836
   18        0.401   0.270   9.165   9.836
   19        0.395   0.264   9.168   9.827
   20        0.439   0.314   9.131   9.884
   21        0.439   0.314   9.131   9.884
   22        0.391   0.273   9.167   9.830
   23        0.448   0.306   9.131   9.886
   24        0.391   0.273   9.167   9.830
   25        0.405   0.261   9.168   9.834
   26        0.405   0.261   9.168   9.834
   27        0.393   0.273   9.166   9.832
   28        0.414   0.196   9.176   9.787
   29        0.427   0.223   9.163   9.813
   30        0.427   0.223   9.163   9.813
   31        0.424   0.210   9.172   9.807
   32        0.424   0.210   9.172   9.807
   33        0.426   0.223   9.162   9.811
   34        0.426   0.223   9.162   9.811
   35        0.406   0.201   9.176   9.784
   36        0.592   0.502   4.036   5.129
   37        1.331   2.421   0.000   3.753
   38        1.331   2.421   0.000   3.753
tot         17.726  13.848 324.864 356.439

 BZINTS: Fermi energy:    0.862428;  401.000000 electrons
         Band energy:-0.134681E+04;  BLOECHL correction:   -0.027880