 vasp.6.2.0 18Jan21 (build Jun 12 2021 23:27:24) complex

 executed on             LinuxIFC date 2022.05.30  18:45:53

 INCAR:
   ISMEAR = -5
   SIGMA = 0.1
   ISPIN = 1
   EDIFF = 1.d-5
   EDIFFG = -0.01
   NSW = 0
   NELM = 150
   ENCUT = 500
   ISIF = 2
   IBRION = 2
   LREAL = Auto
   ALGO = Fast
   ICHARG = 11
   LORBIT = 10
   LCHARG = .F.
   LWAVE = .F.

 POTCAR:    PAW_PBE Cu 22Jun2005
 POTCAR:    PAW_PBE Ir 06Sep2000
 POTCAR:    PAW_PBE C 08Apr2002
|           W    W    AA    RRRRR   N    N  II  N    N   GGGG   !!!           |
|           W    W   A  A   R    R  NN   N  II  NN   N  G    G  !!!           |
|           W    W  A    A  R    R  N N  N  II  N N  N  G       !!!           |
|           W WW W  AAAAAA  RRRRR   N  N N  II  N  N N  G  GGG   !            |
|           WW  WW  A    A  R   R   N   NN  II  N   NN  G    G                |
|           W    W  A    A  R    R  N    N  II  N    N   GGGG   !!!           |
|     For optimal performance we recommend to set                             |
|       NCORE = 2 up to number-of-cores-per-socket                            |
|     This setting can greatly improve the performance of VASP for DFT.       |
|     The default, NCORE=1 might be grossly inefficient on modern             |
|     multi-core architectures or massively parallel machines. Do your        |
|     Unfortunately you need to use the default for GW and RPA                |
|     calculations (for HF NCORE is supported but not extensively tested      |
|     yet).                                                                   |

 POTCAR:    PAW_PBE Cu 22Jun2005
   VRHFIN =Cu: d10 p1

   TITEL  = PAW_PBE Cu 22Jun2005
   POMASS =   63.546; ZVAL   =   11.000    mass and valenz
   ENMAX  =  295.446; ENMIN  =  221.585 eV

 POTCAR:    PAW_PBE Ir 06Sep2000
   VRHFIN =Ir: s1d8

   TITEL  = PAW_PBE Ir 06Sep2000
   POMASS =  192.220; ZVAL   =    9.000    mass and valenz
   ENMAX  =  210.864; ENMIN  =  158.148 eV

 POTCAR:    PAW_PBE C 08Apr2002
   VRHFIN =C: s2p2

   TITEL  = PAW_PBE C 08Apr2002
   POMASS =   12.011; ZVAL   =    4.000    mass and valenz
   ENMAX  =  400.000; ENMIN  =  300.000 eV

 Optimization of the real space projectors (new method)

 maximal supplied QI-value         = 16.25
 optimisation between [QCUT,QGAM] = [ 11.38, 22.75] = [ 36.24,144.96] Ry
 Optimized for a Real-space Cutoff    1.52 Angstroem

   l    n(q)    QCUT    max X(q) W(low)/X(q) W(high)/X(q)  e(spline)
   2      9    11.376     4.610    0.21E-03    0.10E-03    0.26E-06
   2      9    11.376     8.522    0.33E-03    0.16E-03    0.37E-06
   0     10    11.376    51.609    0.62E-04    0.20E-04    0.13E-06
   0     10    11.376    27.747    0.54E-04    0.20E-04    0.13E-06
   1     10    11.376    20.408    0.13E-04    0.99E-04    0.19E-06
   1     10    11.376    13.425    0.12E-04    0.87E-04    0.17E-06
 Optimization of the real space projectors (new method)

[...]

   l    n(q)    QCUT    max X(q) W(low)/X(q) W(high)/X(q)  e(spline)
   2      9    11.346   134.116    0.47E-03    0.13E-03    0.92E-06
   2      9    11.346   130.192    0.47E-03    0.13E-03    0.92E-06
   0     10    11.346    60.310    0.74E-04    0.13E-03    0.69E-06
   0     10    11.346    39.218    0.68E-04    0.12E-03    0.65E-06
   1     10    11.346    18.439    0.15E-03    0.34E-04    0.20E-06
   1     10    11.346    12.760    0.12E-03    0.31E-04    0.16E-06
 Optimization of the real space projectors (new method)

 maximal supplied QI-value         = 25.13
 optimisation between [QCUT,QGAM] = [ 11.31, 22.87] = [ 35.82,146.48] Ry
 Optimized for a Real-space Cutoff    1.00 Angstroem

   l    n(q)    QCUT    max X(q) W(low)/X(q) W(high)/X(q)  e(spline)
   0      7    11.310   115.676    0.43E-03    0.13E-02    0.19E-06
   0      7    11.310    87.132    0.43E-03    0.13E-02    0.18E-06
   1      6    11.310     4.429    0.42E-03    0.74E-03    0.11E-06
   1      6    11.310     2.733    0.34E-03    0.55E-03    0.92E-07
  PAW_PBE Cu 22Jun2005                  :
  PAW_PBE Ir 06Sep2000                  :
  PAW_PBE C 08Apr2002                   :

 POSCAR: Cu-Ir-C
  positions in direct lattice
  velocities in cartesian coordinates
 exchange correlation table for  LEXCH =        8
   RHO(1)=    0.500       N(1)  =     2000
   RHO(2)=  100.500       N(2)  =     4000

 VTST: version 3.2, (02/03/18)

 CHAIN: initializing optimizer

 OPT: Using VASP Conjugate-Gradient optimizer
 CHAIN: Read ICHAIN            0

 POSCAR: Cu-Ir-C
  positions in direct lattice
  velocities in cartesian coordinates

 ion  position               nearest neighbor table
   1  0.000  0.000  0.226-   7 2.57   3 2.57   4 2.57   2 2.57   6 2.57   8 2.57  12 2.57  10 2.57
                            16 2.57
   2  0.333  0.000  0.226-   8 2.57   9 2.57   5 2.57   1 2.57   3 2.57  11 2.57   4 2.57  10 2.57
                            17 2.57
   3  0.667  0.000  0.226-   1 2.57   7 2.57   6 2.57   9 2.57   2 2.57  12 2.57   5 2.57  18 2.57
                            11 2.57
   4  0.000  0.333  0.226-   5 2.57   6 2.57   1 2.57   7 2.57   2 2.57  13 2.57   9 2.57  10 2.57
                            15 2.57
   5  0.333  0.333  0.226-   4 2.57   2 2.57   7 2.57  13 2.57   8 2.57   6 2.57   3 2.57  11 2.57
                            14 2.57
   6  0.667  0.333  0.226-   4 2.57   9 2.57  15 2.57   3 2.57   1 2.57   8 2.57  14 2.57   5 2.57
                            12 2.57
   7  0.000  0.667  0.226-   1 2.57   3 2.57  16 2.57  18 2.57   4 2.57   5 2.57   8 2.57   9 2.57
                            13 2.57
   8  0.333  0.667  0.226-   9 2.57   2 2.57  17 2.57   6 2.57   1 2.57   7 2.57   5 2.57  14 2.57
                            16 2.57
   9  0.667  0.667  0.226-   8 2.57   6 2.57   2 2.57  17 2.57   3 2.57   7 2.57   4 2.57  15 2.57
                            18 2.57
  10  0.111  0.111  0.314-  20 2.53  11 2.57  12 2.57  13 2.57   1 2.57   2 2.57   4 2.57  15 2.57
                            16 2.57  17 2.57  26 2.57  19 2.57
  11  0.444  0.111  0.314-  20 2.55  21 2.55  10 2.57  13 2.57   2 2.57  17 2.57  14 2.57  12 2.57
                             5 2.57   3 2.57  18 2.57  27 2.57
  12  0.778  0.111  0.314-  21 2.53  15 2.57  10 2.57  14 2.57  18 2.57   3 2.57   1 2.57  16 2.57
                            11 2.57   6 2.57  19 2.57  25 2.57
  13  0.111  0.444  0.314-  23 2.55  20 2.55  16 2.57  18 2.57  10 2.57  11 2.57  14 2.57   5 2.57
                             4 2.57   7 2.57  15 2.57  22 2.57
  14  0.444  0.444  0.314-  21 2.55  23 2.55  15 2.57  17 2.57  12 2.57  16 2.57  13 2.57  11 2.57
                             6 2.57   8 2.57   5 2.57  24 2.57
  15  0.778  0.444  0.314-  19 2.56  24 2.56  22 2.56  14 2.57  17 2.57  12 2.57   6 2.57  18 2.57
                            10 2.57   9 2.57  13 2.57   4 2.57
  16  0.111  0.778  0.314-  23 2.53  18 2.57  13 2.57   7 2.57  14 2.57  17 2.57  12 2.57  10 2.57
                             8 2.57   1 2.57  25 2.57  26 2.57
  17  0.444  0.778  0.314-  26 2.56  27 2.56  24 2.56  14 2.57  15 2.57   8 2.57   9 2.57  11 2.57
                            16 2.57  18 2.57  10 2.57   2 2.57
  18  0.778  0.778  0.314-  25 2.56  22 2.56  27 2.56  16 2.57  13 2.57   7 2.57  15 2.57  12 2.57
                            17 2.57   9 2.57   3 2.57  11 2.57
  19  0.888  0.223  0.402-  28 2.55  21 2.55  20 2.55  22 2.56  24 2.56  15 2.56  32 2.56  31 2.56
                            12 2.57  10 2.57  25 2.58  26 2.58
  20  0.221  0.221  0.401-  10 2.53  11 2.55  13 2.55  26 2.55  19 2.55  36 2.55  27 2.57  22 2.57
                            29 2.59  31 2.59  23 2.59  21 2.59
  21  0.558  0.221  0.401-  12 2.53  14 2.55  11 2.55  19 2.55  25 2.55  36 2.55  24 2.57  27 2.57
                            32 2.59  30 2.59  20 2.59  23 2.59
  22  0.888  0.556  0.402-  35 2.54  24 2.56  27 2.56  19 2.56  25 2.56  18 2.56  15 2.56  13 2.57
                            23 2.57  20 2.57  31 2.57  33 2.57
  23  0.221  0.558  0.401-  16 2.53  13 2.55  14 2.55  25 2.55  26 2.55  36 2.55  22 2.57  24 2.57
                            33 2.59  34 2.59  20 2.59  21 2.59
  24  0.556  0.556  0.402-  35 2.54  22 2.56  27 2.56  19 2.56  26 2.56  15 2.56  17 2.56  14 2.57
                            21 2.57  23 2.57  32 2.57  34 2.57
  25  0.888  0.888  0.402-  28 2.55  21 2.55  23 2.55  22 2.56  27 2.56  18 2.56  33 2.56  30 2.56
                            16 2.57  12 2.57  19 2.58  26 2.58
  26  0.223  0.888  0.402-  28 2.55  20 2.55  23 2.55  27 2.56  24 2.56  17 2.56  29 2.56  34 2.56
                            10 2.57  16 2.57  25 2.58  19 2.58
  27  0.556  0.888  0.402-  35 2.54  24 2.56  22 2.56  26 2.56  25 2.56  17 2.56  18 2.56  11 2.57
                            20 2.57  21 2.57  29 2.57  30 2.57
  28  0.000  0.000  0.489-  25 2.55  19 2.55  26 2.55  33 2.56  30 2.56  31 2.56  29 2.56  32 2.56
                            34 2.56
  29  0.333  0.999  0.490-  34 2.55  28 2.56  26 2.56  35 2.57  31 2.57  27 2.57  36 2.57  30 2.58
                            20 2.59
  30  0.668  0.999  0.490-  33 2.55  28 2.56  25 2.56  35 2.57  32 2.57  27 2.57  36 2.57  29 2.58
                            21 2.59
  31  0.999  0.333  0.490-  32 2.55  28 2.56  19 2.56  35 2.57  29 2.57  22 2.57  36 2.57  33 2.58
                            20 2.59
  32  0.668  0.333  0.490-  31 2.55  28 2.56  19 2.56  35 2.57  30 2.57  24 2.57  36 2.57  34 2.58
                            21 2.59
  33  0.999  0.668  0.490-  30 2.55  28 2.56  25 2.56  35 2.57  34 2.57  22 2.57  36 2.57  31 2.58
                            23 2.59
  34  0.333  0.668  0.490-  29 2.55  28 2.56  26 2.56  35 2.57  33 2.57  24 2.57  36 2.57  32 2.58
                            23 2.59
  35  0.667  0.667  0.489-  24 2.54  27 2.54  22 2.54  34 2.57  32 2.57  29 2.57  30 2.57  33 2.57
                            31 2.57
  36  0.333  0.333  0.488-  37 1.75  23 2.55  20 2.55  21 2.55  31 2.57  29 2.57  33 2.57  34 2.57
                            32 2.57  30 2.57
  37  0.333  0.333  0.561-  36 1.75

  LATTYP: Found a hexagonal cell.
 ALAT       =     7.6967864036
 C/A-ratio  =     3.0908716217

  Lattice vectors:

 A1 = (  -3.8483927580,  -6.6656128093,   0.0000000000)
 A2 = (   7.6967864037,   0.0000000000,   0.0000000000)
 A3 = (   0.0000000000,   0.0000000000,  23.7897786731)

Analysis of symmetry for initial positions (statically):
 Subroutine PRICEL returns:
 Original cell was already a primitive cell.

 Routine SETGRP: Setting up the symmetry group for a
 hexagonal supercell.

 Subroutine GETGRP returns: Found  6 space group operations
 (whereof  6 operations were pure point group operations)
 out of a pool of 24 trial point group operations.

The static configuration has the point symmetry C_3v.

Analysis of symmetry for dynamics (positions and initial velocities):
 Subroutine PRICEL returns:
 Original cell was already a primitive cell.

[...]

The dynamic configuration has the point symmetry C_3v.

Analysis of constrained symmetry for selective dynamics:
 Subroutine PRICEL returns:
 Original cell was already a primitive cell.

 Routine SETGRP: Setting up the symmetry group for a
 hexagonal supercell.

 Subroutine GETGRP returns: Found  6 space group operations
[...]
     24      -4.8158      2.00000
     25      -4.7775      2.00000
     26      -4.7401      2.00000
     27      -4.6986      2.00000
     28      -4.6521      2.00000
     29      -4.6256      2.00000
     30      -4.5857      2.00000
     31      -4.5454      2.00000
     32      -4.5324      2.00000
     33      -4.5148      2.00000
     34      -4.5102      2.00000
     35      -4.4839      2.00000
     36      -4.4343      2.00000
     37      -4.3795      2.00000
     38      -4.3224      2.00000
     39      -4.2911      2.00000
     40      -4.2648      2.00000
     41      -4.1996      2.00000
     42      -4.1616      2.00000
     43      -4.1286      2.00000
     44      -4.1063      2.00000
     45      -4.0889      2.00000
     46      -4.0797      2.00000
     47      -3.9986      2.00000
     48      -3.9793      2.00000
     49      -3.9531      2.00000
     50      -3.9057      2.00000
     51      -3.8608      2.00000
     52      -3.8302      2.00000
     53      -3.8231      2.00000
     54      -3.7974      2.00000
     55      -3.7859      2.00000
     56      -3.7668      2.00000
     57      -3.7580      2.00000
     58      -3.7480      2.00000
     59      -3.7339      2.00000
     60      -3.7126      2.00000
[...]
    238       5.7445      0.00000
    239       5.9057      0.00000
    240       6.0070      0.00000
    241       6.0696      0.00000
    242       6.1241      0.00000
    243       6.3192      0.00000
    244       6.3536      0.00000
    245       6.5552      0.00000
    246       6.7185      0.00000
    247       6.8297      0.00000
    248       6.9037      0.00000
    249       7.0484      0.00000
    250       7.2846      0.00000
    251       7.3457      0.00000
    252       7.5513      0.00000

 soft charge-density along one line, spin component           1
         0         1         2         3         4         5         6         7         8         9
 total charge-density along one line

------------------------ aborting loop because EDIFF is reached ----------------------------------------

 total charge

# of ion       s       p       d       tot
    1        0.449   0.283   9.190   9.922
    2        0.448   0.285   9.187   9.920
    3        0.448   0.285   9.187   9.920
    4        0.448   0.285   9.187   9.920
    5        0.450   0.284   9.187   9.922
    6        0.448   0.285   9.187   9.920
    7        0.448   0.285   9.187   9.920
    8        0.448   0.285   9.187   9.920
    9        0.446   0.286   9.187   9.919
   10        0.442   0.370   9.180   9.992
   11        0.440   0.372   9.180   9.992
   12        0.442   0.370   9.180   9.992
   13        0.440   0.372   9.180   9.992
   14        0.440   0.372   9.180   9.992
   15        0.439   0.369   9.181   9.988
   16        0.442   0.370   9.180   9.992
   17        0.439   0.369   9.181   9.988
   18        0.439   0.369   9.181   9.988
   19        0.443   0.369   9.182   9.993
   20        0.454   0.390   9.178  10.022
   21        0.454   0.390   9.178  10.022
   22        0.434   0.373   9.181   9.988
   23        0.454   0.390   9.178  10.022
   24        0.434   0.373   9.181   9.988
   25        0.443   0.369   9.182   9.993
   26        0.443   0.369   9.182   9.993
   27        0.434   0.373   9.181   9.988
   28        0.456   0.287   9.194   9.936
   29        0.442   0.307   9.190   9.940
   30        0.442   0.307   9.190   9.940
   31        0.442   0.307   9.190   9.940
   32        0.442   0.307   9.190   9.940
   33        0.442   0.307   9.190   9.940
   34        0.442   0.307   9.190   9.940
   35        0.451   0.288   9.195   9.934
   36        0.807   0.756   7.223   8.786
   37        1.018   1.191   0.000   2.209
tot         17.375  13.658 328.682 359.715

  FORCE on cell =-STRESS in cart. coord.  units (eV):
  Direction    XX          YY          ZZ          XY          YZ          ZX
  Alpha Z   806.81644   806.81644   806.81644
  Ewald  224058.65485224058.65441************     0.00039     0.00011     0.00017
  Hartree236765.61156236765.61153************     0.00004     0.00005     0.00006
  E(xc)   -2302.53329 -2302.53280 -2307.07655    -0.00043    -0.00004    -0.00006
  Local  ************************474337.00085     0.01851    -0.00056    -0.00092
  n-local  -764.92451  -749.54665  -771.03871     8.13737    -0.04387     0.25116
  augment  3347.79144  3347.81185  3357.84223    -0.01767     0.00031     0.00057
  Kinetic  3305.92709  3308.51897  3313.03858     2.73804     1.88885    -1.42041
  Fock        0.00000     0.00000     0.00000     0.00000     0.00000     0.00000
  Total      -0.89456    -0.89456     2.38494     0.00000     0.00000     0.00000
  in kB      -1.17431    -1.17431     3.13075     0.00000     0.00000     0.00000

 VOLUME and BASIS-vectors are now :
  energy-cutoff  :      500.00
  volume of cell :     1220.51
      direct lattice vectors                 reciprocal lattice vectors
     7.696786404  0.000000000  0.000000000     0.129924354 -0.075011849  0.000000000
     3.848392758  6.665612809  0.000000000     0.000000000  0.150023716  0.000000000
     0.000000000  0.000000000 23.789778673     0.000000000  0.000000000  0.042034859

  length of vectors
     7.696786404  7.696786404 23.789778673     0.150023716  0.150023716  0.042034859

 FORCES acting on ions
    electron-ion (+dipol)            ewald-force                    non-local-force                 convergence-correction
   -.424E-04 -.261E-06 0.373E+04   0.580E-04 -.437E-05 -.373E+04   0.541E-17 -.308E-17 -.231E+01   -.335E-03 -.161E-03 -.489E+00
   -.480E-01 0.452E-01 0.373E+04   0.125E-01 -.705E-01 -.373E+04   0.162E-01 0.420E-01 -.202E+01   0.236E-01 -.645E-02 -.510E+00
   0.480E-01 0.452E-01 0.373E+04   -.125E-01 -.706E-01 -.373E+04   -.162E-01 0.420E-01 -.202E+01   -.227E-01 -.382E-02 -.509E+00
   0.152E-01 -.642E-01 0.373E+04   -.549E-01 0.461E-01 -.373E+04   0.445E-01 -.693E-02 -.202E+01   0.627E-02 0.236E-01 -.510E+00
   -.635E-04 -.441E-05 0.373E+04   0.116E-03 -.101E-04 -.373E+04   -.345E-17 -.130E-17 -.201E+01   0.122E-01 0.749E-02 -.365E+00
   -.152E-01 -.641E-01 0.373E+04   0.548E-01 0.460E-01 -.373E+04   -.445E-01 -.693E-02 -.202E+01   -.796E-02 0.248E-01 -.509E+00
   0.632E-01 0.189E-01 0.373E+04   -.674E-01 0.245E-01 -.373E+04   0.283E-01 -.351E-01 -.202E+01   -.146E-01 -.178E-01 -.509E+00
   -.631E-01 0.189E-01 0.373E+04   0.671E-01 0.245E-01 -.373E+04   -.283E-01 -.351E-01 -.202E+01   0.182E-01 -.193E-01 -.509E+00
   -.145E-03 -.333E-04 0.373E+04   0.263E-03 0.206E-04 -.373E+04   -.334E-17 -.310E-18 -.215E+01   -.133E-01 -.685E-02 -.499E+00
   0.304E+01 0.175E+01 0.126E+04   -.276E+01 -.159E+01 -.126E+04   -.276E+00 -.159E+00 -.825E+00   -.316E-01 -.183E-01 0.134E+00
   -.897E-04 -.120E-01 0.126E+04   0.191E-03 -.252E+00 -.126E+04   -.118E-07 0.178E+00 -.628E+00   0.118E-01 0.550E-01 0.109E+00
   -.304E+01 0.175E+01 0.126E+04   0.276E+01 -.159E+01 -.126E+04   0.276E+00 -.159E+00 -.825E+00   0.296E-01 -.162E-01 0.134E+00
   -.104E-01 0.610E-02 0.126E+04   -.218E+00 0.126E+00 -.126E+04   0.154E+00 -.889E-01 -.628E+00   0.540E-01 -.165E-01 0.109E+00
   0.106E-01 0.610E-02 0.126E+04   0.217E+00 0.126E+00 -.126E+04   -.154E+00 -.889E-01 -.628E+00   -.296E-01 -.174E-01 0.109E+00
   -.141E-03 0.103E+00 0.126E+04   0.299E-03 -.203E+00 -.126E+04   -.207E-08 0.311E-01 -.697E+00   -.407E-02 0.503E-01 0.859E-01
   -.889E-04 -.351E+01 0.126E+04   0.186E-03 0.319E+01 -.126E+04   -.212E-07 0.319E+00 -.825E+00   -.147E-03 0.325E-01 0.134E+00
   0.891E-01 -.516E-01 0.126E+04   -.176E+00 0.102E+00 -.126E+04   0.270E-01 -.156E-01 -.697E+00   0.423E-01 -.287E-01 0.857E-01
   -.890E-01 -.515E-01 0.126E+04   0.175E+00 0.102E+00 -.126E+04   -.270E-01 -.156E-01 -.697E+00   -.415E-01 -.257E-01 0.863E-01
   -.525E-04 0.855E+00 -.123E+04   0.686E-04 -.721E+00 0.123E+04   0.813E-08 -.122E+00 0.660E+00   -.252E-02 -.396E-01 0.433E+00
   -.227E+02 -.131E+02 -.122E+04   0.229E+02 0.132E+02 0.122E+04   -.336E+00 -.194E+00 0.597E+00   0.220E-01 0.126E-01 0.414E+00
   0.227E+02 -.131E+02 -.122E+04   -.229E+02 0.132E+02 0.122E+04   0.336E+00 -.194E+00 0.597E+00   0.209E-02 0.140E-01 0.414E+00
   -.154E+02 0.890E+01 -.123E+04   0.149E+02 -.860E+01 0.123E+04   0.570E+00 -.329E+00 0.110E+01   0.292E-02 -.278E-02 0.412E+00
   -.901E-04 0.263E+02 -.122E+04   0.145E-03 -.264E+02 0.122E+04   -.259E-07 0.388E+00 0.597E+00   0.120E-01 -.642E-02 0.413E+00
   0.154E+02 0.890E+01 -.123E+04   -.149E+02 -.860E+01 0.123E+04   -.570E+00 -.329E+00 0.110E+01   -.555E-02 -.408E-02 0.413E+00
   -.740E+00 -.427E+00 -.123E+04   0.625E+00 0.361E+00 0.123E+04   0.106E+00 0.610E-01 0.660E+00   0.358E-01 0.207E-01 0.433E+00
   0.740E+00 -.427E+00 -.123E+04   -.625E+00 0.361E+00 0.123E+04   -.106E+00 0.610E-01 0.660E+00   -.352E-01 0.178E-01 0.434E+00
   -.119E-03 -.178E+02 -.123E+04   0.243E-03 0.172E+02 0.123E+04   -.438E-07 0.658E+00 0.110E+01   -.993E-03 0.385E-02 0.413E+00
   -.431E-04 0.131E-04 -.367E+04   0.385E-04 -.333E-04 0.367E+04   0.100E-16 -.663E-17 0.218E+01   -.293E-03 -.117E-03 0.631E+00
   -.106E+02 -.131E+02 -.368E+04   0.102E+02 0.120E+02 0.368E+04   0.241E+00 0.665E+00 0.260E+01   -.222E-01 0.562E-01 0.577E+00
   0.106E+02 -.131E+02 -.368E+04   -.102E+02 0.120E+02 0.368E+04   -.241E+00 0.665E+00 0.260E+01   0.232E-01 0.587E-01 0.577E+00
   -.166E+02 -.261E+01 -.368E+04   0.155E+02 0.280E+01 0.368E+04   0.697E+00 -.123E+00 0.260E+01   0.377E-01 -.474E-01 0.577E+00
   0.166E+02 -.261E+01 -.368E+04   -.155E+02 0.280E+01 0.368E+04   -.697E+00 -.123E+00 0.260E+01   -.392E-01 -.464E-01 0.576E+00
   -.603E+01 0.157E+02 -.368E+04   0.533E+01 -.148E+02 0.368E+04   0.455E+00 -.542E+00 0.260E+01   0.624E-01 -.928E-02 0.577E+00
   0.603E+01 0.157E+02 -.368E+04   -.533E+01 -.148E+02 0.368E+04   -.455E+00 -.542E+00 0.260E+01   -.591E-01 -.107E-01 0.576E+00
   -.159E-03 -.318E-04 -.368E+04   0.255E-03 0.393E-05 0.367E+04   -.136E-17 -.188E-17 0.251E+01   -.133E-01 -.685E-02 0.555E+00
   -.468E-04 -.283E-04 -.282E+04   0.113E-03 0.218E-04 0.282E+04   -.715E-17 -.510E-17 0.113E+01   0.233E-02 0.139E-02 0.428E+00
   0.532E-04 -.225E-04 -.162E+04   0.122E-04 0.549E-05 0.164E+04   0.247E-18 0.390E-18 -.130E+02   0.707E-03 0.423E-03 -.896E-03
   -.136E-03 0.745E-05 0.399E+01   -.367E-14 -.112E-12 0.523E-11   0.103E-15 0.215E-15 -.953E+01   0.550E-01 0.287E-01 0.543E+01

 POSITION                                       TOTAL-FORCE (eV/Angst)
      0.00000      0.00000      5.37156         0.000000      0.000000      0.029568
      2.56560      0.00000      5.37156         0.004741      0.011352      0.077529
      5.13119      0.00000      5.37156        -0.004741      0.011352      0.077529
      1.28280      2.22187      5.37156         0.012202     -0.001570      0.077529
      3.84839      2.22187      5.37156         0.000000      0.000000      0.044673
      6.41399      2.22187      5.37156        -0.012202     -0.001570      0.077529
      2.56560      4.44374      5.37156         0.007460     -0.009782      0.077529
      5.13119      4.44374      5.37156        -0.007460     -0.009782      0.077529
      7.69679      4.44374      5.37156         0.000000      0.000000      0.073179
      1.28280      0.74062      7.46636        -0.031424     -0.018142     -0.053609
      3.84839      0.74062      7.46636         0.000000     -0.037470     -0.065561
      6.41399      0.74062      7.46636         0.031424     -0.018142     -0.053609
      2.56560      2.96249      7.46636        -0.032450      0.018735     -0.065561
      5.13119      2.96249      7.46636         0.032450      0.018735     -0.065561
      7.69679      2.96249      7.46636         0.000000     -0.018872     -0.020297
      3.84839      5.18437      7.46636        -0.000000      0.036285     -0.053609
      6.41399      5.18437      7.46636        -0.016343      0.009436     -0.020297
      8.97958      5.18437      7.46636         0.016343      0.009436     -0.020297
      7.69679      1.48769      9.56171         0.000000     -0.028971      0.007978
      2.55203      1.47342      9.53141        -0.166130     -0.095915     -0.304301
      5.14476      1.47342      9.53141         0.166130     -0.095915     -0.304301
      8.97489      3.70583      9.56026         0.041984     -0.024240      0.016813
      3.84839      3.71878      9.53141        -0.000000      0.191830     -0.304301
      6.41868      3.70583      9.56026        -0.041984     -0.024240      0.016813
     10.25680      5.92177      9.56171         0.025089      0.014485      0.007978
      5.13677      5.92177      9.56171        -0.025089      0.014485      0.007978
      7.69679      5.91957      9.56026        -0.000000      0.048479      0.016813
      0.00000      0.00000     11.63002         0.000000      0.000000     -0.021640
      6.40663      6.66047     11.66109        -0.161711     -0.310756     -0.137236
      8.98694      6.66047     11.66109         0.161711     -0.310756     -0.137236
      8.97145      2.21807     11.66109        -0.349978      0.015332     -0.137236
      6.42212      2.21807     11.66109         0.349978      0.015332     -0.137236
     10.26160      4.45269     11.66109        -0.188267      0.295424     -0.137236
      5.13197      4.45269     11.66109         0.188267      0.295424     -0.137236
      7.69679      4.44374     11.62915         0.000000      0.000000     -0.005851
      3.84839      2.22187     11.60012         0.000000      0.000000      1.526064
      3.84839      2.22187     13.35153         0.000000      0.000000     -0.030814
    total drift:                                0.054843      0.028686     -0.114244

  FREE ENERGIE OF THE ION-ELECTRON SYSTEM (eV)
  free  energy   TOTEN  =      -137.48999993 eV

  energy  without entropy=     -137.48999993  energy(sigma->0) =     -137.48999993

 stress matrix after NEB project (eV)
     -0.89456      0.00000      0.00000
      0.00000     -0.89456      0.00000
     -0.00000      0.00000      2.38494
  FORCES: max atom, RMS     0.030814    0.005066
  FORCE total and by dimension    0.030814    0.030814
  Stress total and by dimension    2.699709    2.384941
|           W    W    AA    RRRRR   N    N  II  N    N   GGGG   !!!           |
|           W    W   A  A   R    R  NN   N  II  NN   N  G    G  !!!           |
|           W    W  A    A  R    R  N N  N  II  N N  N  G       !!!           |
|           W WW W  AAAAAA  RRRRR   N  N N  II  N  N N  G  GGG   !            |
|           WW  WW  A    A  R   R   N   NN  II  N   NN  G    G                |
|           W    W  A    A  R    R  N    N  II  N    N   GGGG   !!!           |
|     Tetrahedron method does not include variations of the Fermi             |
|     occupations, so forces and stress will be inaccurate. We suggest        |
|     using a different smearing scheme ISMEAR = 1 or 2 for metals in         |
|     relaxations.                                                            |

 total charge

# of ion       s       p       d       tot
    1        0.449   0.283   9.190   9.922
    2        0.448   0.285   9.187   9.920
    3        0.448   0.285   9.187   9.920
    4        0.448   0.285   9.187   9.920
    5        0.450   0.284   9.187   9.922
    6        0.448   0.285   9.187   9.920
    7        0.448   0.285   9.187   9.920
    8        0.448   0.285   9.187   9.920
    9        0.446   0.286   9.187   9.919
   10        0.442   0.370   9.180   9.992
   11        0.440   0.372   9.180   9.992
   12        0.442   0.370   9.180   9.992
   13        0.440   0.372   9.180   9.992
   14        0.440   0.372   9.180   9.992
   15        0.439   0.369   9.181   9.988
   16        0.442   0.370   9.180   9.992
   17        0.439   0.369   9.181   9.988
   18        0.439   0.369   9.181   9.988
   19        0.443   0.369   9.182   9.993
   20        0.454   0.390   9.178  10.022
   21        0.454   0.390   9.178  10.022
   22        0.434   0.373   9.181   9.988
   23        0.454   0.390   9.178  10.022
   24        0.434   0.373   9.181   9.988
   25        0.443   0.369   9.182   9.993
   26        0.443   0.369   9.182   9.993
   27        0.434   0.373   9.181   9.988
   28        0.456   0.287   9.194   9.936
   29        0.442   0.307   9.190   9.940
   30        0.442   0.307   9.190   9.940
   31        0.442   0.307   9.190   9.940
   32        0.442   0.307   9.190   9.940
   33        0.442   0.307   9.190   9.940
   34        0.442   0.307   9.190   9.940
   35        0.451   0.288   9.195   9.934
   36        0.807   0.756   7.223   8.786
   37        1.018   1.191   0.000   2.209
tot         17.375  13.658 328.682 359.715

 BZINTS: Fermi energy:   -0.432794;  398.000000 electrons
         Band energy:-0.130629E+04;  BLOECHL correction:   -0.085139