 vasp.6.2.0 18Jan21 (build Jun 12 2021 23:27:24) complex

 executed on             LinuxIFC date 2022.05.26  19:23:06

 INCAR:
   ISMEAR = -5
   SIGMA = 0.1
   ISPIN = 1
   EDIFF = 1.d-5
   EDIFFG = -0.01
   NSW = 0
   NELM = 150
   ENCUT = 500
   ISIF = 2
   IBRION = 2
   LREAL = Auto
   ALGO = Fast
   ICHARG = 11
   LORBIT = 10
   LCHARG = .F.
   LWAVE = .F.

 POTCAR:    PAW_PBE Au 04Oct2007
 POTCAR:    PAW_PBE Mo 08Apr2002
 POTCAR:    PAW_PBE H 15Jun2001
|           W    W    AA    RRRRR   N    N  II  N    N   GGGG   !!!           |
|           W    W   A  A   R    R  NN   N  II  NN   N  G    G  !!!           |
|           W    W  A    A  R    R  N N  N  II  N N  N  G       !!!           |
|           W WW W  AAAAAA  RRRRR   N  N N  II  N  N N  G  GGG   !            |
|           WW  WW  A    A  R   R   N   NN  II  N   NN  G    G                |
|           W    W  A    A  R    R  N    N  II  N    N   GGGG   !!!           |
|     For optimal performance we recommend to set                             |
|       NCORE = 2 up to number-of-cores-per-socket                            |
|     This setting can greatly improve the performance of VASP for DFT.       |
|     The default, NCORE=1 might be grossly inefficient on modern             |
|     multi-core architectures or massively parallel machines. Do your        |
|     Unfortunately you need to use the default for GW and RPA                |
|     calculations (for HF NCORE is supported but not extensively tested      |
|     yet).                                                                   |

 POTCAR:    PAW_PBE Au 04Oct2007
   VRHFIN =Au: s1d10

   TITEL  = PAW_PBE Au 04Oct2007
   POMASS =  196.966; ZVAL   =   11.000    mass and valenz
   ENMAX  =  229.943; ENMIN  =  172.457 eV

 POTCAR:    PAW_PBE Mo 08Apr2002
   VRHFIN =Mo: 4p5s4d

   TITEL  = PAW_PBE Mo 08Apr2002
   POMASS =   95.940; ZVAL   =    6.000    mass and valenz
   ENMAX  =  224.584; ENMIN  =  168.438 eV

 POTCAR:    PAW_PBE H 15Jun2001
   VRHFIN =H: ultrasoft test

   TITEL  = PAW_PBE H 15Jun2001
   POMASS =    1.000; ZVAL   =    1.000    mass and valenz
   ENMAX  =  250.000; ENMIN  =  200.000 eV

 Optimization of the real space projectors (new method)

 maximal supplied QI-value         = 15.12
 optimisation between [QCUT,QGAM] = [ 11.34, 22.83] = [ 36.00,145.93] Ry
 Optimized for a Real-space Cutoff    1.39 Angstroem

   l    n(q)    QCUT    max X(q) W(low)/X(q) W(high)/X(q)  e(spline)
   2      9    11.338    60.898    0.39E-03    0.42E-03    0.21E-06
   2      9    11.338    58.894    0.40E-03    0.42E-03    0.22E-06
   0      9    11.338   109.617    0.13E-03    0.20E-04    0.13E-06
   0      9    11.338    75.026    0.13E-03    0.20E-04    0.13E-06
   1      9    11.338    16.344    0.33E-04    0.24E-03    0.18E-06
   1      9    11.338    10.160    0.26E-04    0.19E-03    0.15E-06
 Optimization of the real space projectors (new method)

[...]

   l    n(q)    QCUT    max X(q) W(low)/X(q) W(high)/X(q)  e(spline)
   2     10    11.429    80.908    0.27E-03    0.78E-03    0.13E-05
   2     10    11.429    79.000    0.27E-03    0.78E-03    0.13E-05
   0     11    11.429    52.066    0.33E-04    0.97E-04    0.72E-06
   0     11    11.429    24.514    0.27E-04    0.80E-04    0.60E-06
   1     10    11.429    16.033    0.31E-04    0.17E-03    0.36E-06
   1     10    11.429    11.179    0.22E-04    0.13E-03    0.29E-06
 Optimization of the real space projectors (new method)

 maximal supplied QI-value         = 34.20
 optimisation between [QCUT,QGAM] = [ 11.29, 22.57] = [ 35.68,142.71] Ry
 Optimized for a Real-space Cutoff    1.16 Angstroem

   l    n(q)    QCUT    max X(q) W(low)/X(q) W(high)/X(q)  e(spline)
   0      8    11.287    19.460    0.40E-03    0.73E-03    0.16E-06
   0      8    11.287    12.209    0.38E-03    0.70E-03    0.15E-06
   1      7    11.287     4.655    0.22E-03    0.25E-04    0.22E-06
  PAW_PBE Au 04Oct2007                  :
  PAW_PBE Mo 08Apr2002                  :
  PAW_PBE H 15Jun2001                   :

 POSCAR: Au-Mo-H
  positions in direct lattice
  velocities in cartesian coordinates
 exchange correlation table for  LEXCH =        8
   RHO(1)=    0.500       N(1)  =     2000
   RHO(2)=  100.500       N(2)  =     4000

 VTST: version 3.2, (02/03/18)

 CHAIN: initializing optimizer

 OPT: Using VASP Conjugate-Gradient optimizer
 CHAIN: Read ICHAIN            0

 POSCAR: Au-Mo-H
  positions in direct lattice
  velocities in cartesian coordinates

 ion  position               nearest neighbor table
   1  0.000  0.000  0.238-  16 2.94  12 2.94   6 2.94   8 2.94   7 2.94   3 2.94  10 2.94   4 2.94
                             2 2.94
   2  0.333  0.000  0.238-   9 2.94  11 2.94  17 2.94  10 2.94   8 2.94   4 2.94   5 2.94   1 2.94
                             3 2.94
   3  0.667  0.000  0.238-   7 2.94  18 2.94  12 2.94   1 2.94  11 2.94   5 2.94   6 2.94   9 2.94
                             2 2.94
   4  0.000  0.333  0.238-  10 2.94   6 2.94   5 2.94  13 2.94   2 2.94  15 2.94   9 2.94   1 2.94
                             7 2.94
   5  0.333  0.333  0.238-  13 2.94   7 2.94  11 2.94   4 2.94   2 2.94  14 2.94   3 2.94   8 2.94
                             6 2.94
   6  0.667  0.333  0.238-  15 2.94  14 2.94   1 2.94  12 2.94   4 2.94   9 2.94   8 2.94   3 2.94
                             5 2.94
   7  0.000  0.667  0.238-  18 2.94   3 2.94  16 2.94   5 2.94   1 2.94  13 2.94   8 2.94   4 2.94
                             9 2.94
   8  0.333  0.667  0.238-   9 2.94  17 2.94   1 2.94   2 2.94  14 2.94  16 2.94   6 2.94   7 2.94
                             5 2.94
   9  0.667  0.667  0.238-   2 2.94   8 2.94  17 2.94   6 2.94  15 2.94   4 2.94   3 2.94  18 2.94
                             7 2.94
  10  0.111  0.111  0.346-  20 2.91  11 2.94  17 2.94   2 2.94   4 2.94   1 2.94  12 2.94  16 2.94
                            13 2.94  15 2.94  26 2.95  19 2.95
  11  0.444  0.111  0.346-  20 2.91  21 2.91  13 2.94   2 2.94  10 2.94  17 2.94   5 2.94   3 2.94
                            18 2.94  14 2.94  12 2.94  27 2.94
  12  0.778  0.111  0.346-  21 2.91  16 2.94  18 2.94   1 2.94  14 2.94  15 2.94   3 2.94   6 2.94
                            10 2.94  11 2.94  25 2.95  19 2.95
  13  0.111  0.444  0.346-  23 2.91  20 2.91   5 2.94  18 2.94  11 2.94   7 2.94   4 2.94  16 2.94
                            10 2.94  14 2.94  15 2.94  22 2.94
  14  0.444  0.444  0.346-  21 2.91  23 2.91  15 2.94   6 2.94  12 2.94   8 2.94  17 2.94   5 2.94
                            16 2.94  13 2.94  11 2.94  24 2.94
  15  0.778  0.444  0.346-  24 2.93  22 2.93  14 2.94   6 2.94  17 2.94  12 2.94   9 2.94   4 2.94
                            10 2.94  13 2.94  18 2.94  19 2.95
  16  0.111  0.778  0.346-  23 2.91  18 2.94  12 2.94   7 2.94   1 2.94   8 2.94  13 2.94  10 2.94
                            14 2.94  17 2.94  25 2.95  26 2.95
  17  0.444  0.778  0.346-  27 2.93  24 2.93   9 2.94  15 2.94   2 2.94  10 2.94  11 2.94   8 2.94
                            14 2.94  16 2.94  18 2.94  26 2.95
  18  0.778  0.778  0.346-  22 2.93  27 2.93  16 2.94   7 2.94  13 2.94  12 2.94   3 2.94  11 2.94
                             9 2.94  15 2.94  17 2.94  25 2.95
  19  0.889  0.223  0.455-  24 2.93  22 2.93  21 2.94  20 2.94  28 2.95  26 2.95  25 2.95  15 2.95
                            10 2.95  12 2.95  32 3.02  31 3.02
  20  0.222  0.222  0.453-  36 2.77  11 2.91  13 2.91  10 2.91  23 2.94  21 2.94  26 2.94  19 2.94
                            27 2.95  22 2.95  29 2.98  31 2.98
  21  0.555  0.222  0.453-  36 2.77  14 2.91  11 2.91  12 2.91  20 2.94  23 2.94  25 2.94  19 2.94
                            27 2.95  24 2.95  30 2.98  32 2.98
  22  0.887  0.557  0.454-  24 2.91  27 2.91  18 2.93  15 2.93  25 2.93  19 2.93  13 2.94  35 2.95
                            23 2.95  20 2.95  33 3.00  31 3.00
  23  0.222  0.555  0.453-  36 2.77  13 2.91  14 2.91  16 2.91  20 2.94  21 2.94  25 2.94  26 2.94
                            22 2.95  24 2.95  33 2.98  34 2.98
  24  0.557  0.557  0.454-  27 2.91  22 2.91  15 2.93  17 2.93  26 2.93  19 2.93  14 2.94  35 2.95
                            21 2.95  23 2.95  32 3.00  34 3.00
  25  0.889  0.889  0.455-  22 2.93  27 2.93  23 2.94  21 2.94  28 2.95  19 2.95  26 2.95  18 2.95
                            16 2.95  12 2.95  33 3.02  30 3.02
  26  0.223  0.889  0.455-  27 2.93  24 2.93  20 2.94  23 2.94  28 2.95  19 2.95  25 2.95  17 2.95
                            10 2.95  16 2.95  29 3.02  34 3.02
  27  0.557  0.887  0.454-  24 2.91  22 2.91  17 2.93  18 2.93  26 2.93  25 2.93  11 2.94  35 2.95
                            20 2.95  21 2.95  29 3.00  30 3.00
  28  0.000  0.000  0.563-  25 2.95  19 2.95  26 2.95  34 2.98  32 2.98  33 2.98  30 2.98  31 2.98
                            29 2.98
  29  0.333  0.010  0.565-  30 2.85  31 2.85  36 2.87  20 2.98  35 2.98  28 2.98  27 3.00  26 3.02
                            34 3.11
  30  0.657  0.010  0.565-  29 2.85  32 2.85  36 2.87  21 2.98  35 2.98  28 2.98  27 3.00  25 3.02
                            33 3.11
  31  0.010  0.333  0.565-  33 2.85  29 2.85  36 2.87  20 2.98  35 2.98  28 2.98  22 3.00  19 3.02
                            32 3.11
  32  0.657  0.333  0.565-  34 2.85  30 2.85  36 2.87  21 2.98  35 2.98  28 2.98  24 3.00  19 3.02
                            31 3.11
  33  0.010  0.657  0.565-  31 2.85  34 2.85  36 2.87  23 2.98  35 2.98  28 2.98  22 3.00  25 3.02
                            30 3.11
  34  0.333  0.657  0.565-  32 2.85  33 2.85  36 2.87  23 2.98  35 2.98  28 2.98  24 3.00  26 3.02
                            29 3.11
  35  0.667  0.667  0.563-  24 2.95  27 2.95  22 2.95  29 2.98  34 2.98  32 2.98  31 2.98  30 2.98
                            33 2.98
  36  0.333  0.333  0.551-  37 1.70  20 2.77  23 2.77  21 2.77  33 2.87  31 2.87  29 2.87  30 2.87
                            34 2.87  32 2.87
  37  0.333  0.333  0.628-  36 1.70

  LATTYP: Found a hexagonal cell.
 ALAT       =     8.8135128021
 C/A-ratio  =     2.5184286595

  Lattice vectors:

 A1 = (  -4.4067569092,  -7.6327256898,   0.0000000000)
 A2 = (   8.8135128021,   0.0000000000,   0.0000000000)
 A3 = (   0.0000000000,   0.0000000000,  22.1962032318)

Analysis of symmetry for initial positions (statically):
 Subroutine PRICEL returns:
 Original cell was already a primitive cell.

 Routine SETGRP: Setting up the symmetry group for a
 hexagonal supercell.

 Subroutine GETGRP returns: Found  6 space group operations
 (whereof  6 operations were pure point group operations)
 out of a pool of 24 trial point group operations.

The static configuration has the point symmetry C_3v.

Analysis of symmetry for dynamics (positions and initial velocities):
 Subroutine PRICEL returns:
 Original cell was already a primitive cell.

[...]

The dynamic configuration has the point symmetry C_3v.

Analysis of constrained symmetry for selective dynamics:
 Subroutine PRICEL returns:
 Original cell was already a primitive cell.

 Routine SETGRP: Setting up the symmetry group for a
 hexagonal supercell.

 Subroutine GETGRP returns: Found  6 space group operations
 (whereof  6 operations were pure point group operations)
[...]
     24      -5.1022      2.00000
     25      -5.0844      2.00000
     26      -5.0580      2.00000
     27      -4.9987      2.00000
     28      -4.9576      2.00000
     29      -4.8686      2.00000
     30      -4.8589      2.00000
     31      -4.8489      2.00000
     32      -4.8059      2.00000
     33      -4.7935      2.00000
     34      -4.7848      2.00000
     35      -4.7181      2.00000
     36      -4.7102      2.00000
     37      -4.6157      2.00000
     38      -4.5812      2.00000
     39      -4.5329      2.00000
     40      -4.4675      2.00000
     41      -4.4388      2.00000
     42      -4.4034      2.00000
     43      -4.3800      2.00000
     44      -4.3649      2.00000
     45      -4.3415      2.00000
     46      -4.2471      2.00000
     47      -4.2411      2.00000
     48      -4.2024      2.00000
     49      -4.1798      2.00000
     50      -4.1693      2.00000
     51      -4.1655      2.00000
     52      -4.1460      2.00000
     53      -4.1240      2.00000
     54      -4.0778      2.00000
     55      -4.0561      2.00000
     56      -4.0380      2.00000
     57      -4.0292      2.00000
     58      -4.0133      2.00000
     59      -4.0107      2.00000
     60      -3.9861      2.00000
[...]
    238       6.6863      0.00000
    239       6.7231      0.00000
    240       6.7465      0.00000
    241       6.8134      0.00000
    242       6.8286      0.00000
    243       7.0848      0.00000
    244       7.1544      0.00000
    245       7.2663      0.00000
    246       7.5899      0.00000
    247       7.6257      0.00000
    248       7.7421      0.00000
    249       7.7919      0.00000
    250       7.8783      0.00000
    251       7.9327      0.00000
    252       8.0152      0.00000

 soft charge-density along one line, spin component           1
         0         1         2         3         4         5         6         7         8         9
 total charge-density along one line

------------------------ aborting loop because EDIFF is reached ----------------------------------------

 total charge

# of ion       s       p       d       tot
    1        0.548   0.236   8.771   9.555
    2        0.541   0.241   8.766   9.548
    3        0.541   0.241   8.766   9.548
    4        0.541   0.241   8.766   9.548
    5        0.548   0.240   8.761   9.549
    6        0.541   0.241   8.766   9.548
    7        0.541   0.241   8.766   9.548
    8        0.541   0.241   8.766   9.548
    9        0.544   0.239   8.767   9.550
   10        0.527   0.307   8.767   9.600
   11        0.522   0.307   8.780   9.610
   12        0.527   0.307   8.767   9.600
   13        0.522   0.307   8.780   9.610
   14        0.522   0.307   8.780   9.610
   15        0.517   0.307   8.777   9.600
   16        0.527   0.307   8.767   9.600
   17        0.517   0.307   8.777   9.600
   18        0.517   0.307   8.777   9.600
   19        0.515   0.295   8.774   9.584
   20        0.572   0.333   8.735   9.640
   21        0.572   0.333   8.735   9.640
   22        0.506   0.305   8.778   9.589
   23        0.572   0.333   8.735   9.640
   24        0.506   0.305   8.778   9.589
   25        0.515   0.295   8.774   9.584
   26        0.515   0.295   8.774   9.584
   27        0.506   0.305   8.778   9.589
   28        0.540   0.228   8.753   9.521
   29        0.577   0.244   8.732   9.553
   30        0.577   0.244   8.732   9.553
   31        0.577   0.244   8.732   9.553
   32        0.577   0.244   8.732   9.553
   33        0.577   0.244   8.732   9.553
   34        0.577   0.244   8.732   9.553
   35        0.536   0.227   8.757   9.520
   36        0.422   0.407   4.065   4.895
   37        0.518   0.012   0.000   0.530
tot         19.841  10.061 310.692 340.594

  FORCE on cell =-STRESS in cart. coord.  units (eV):
  Direction    XX          YY          ZZ          XY          YZ          ZX
  Alpha Z  1003.65382  1003.65382  1003.65382
  Ewald  117338.95550117338.95589************    -0.00033    -0.00009    -0.00017
  Hartree125828.96246125828.96246************     0.00000    -0.00002    -0.00005
  E(xc)   -1756.80215 -1756.80214 -1765.80045    -0.00001    -0.00000    -0.00000
  Local  ************************255557.56360     0.00172     0.00005     0.00010
  n-local   -94.50800   -43.85499   -39.51594    24.73753    -1.43731     1.55573
  augment  2371.40645  2371.40795  2393.31905    -0.00130     0.00000     0.00004
  Kinetic  5415.02555  5425.84275  5490.86061     5.91550    -0.26725     0.66512
  Fock        0.00000     0.00000     0.00000     0.00000     0.00000     0.00000
  Total     -22.89923   -22.89923     3.45670    -0.00000     0.00000    -0.00000
  in kB     -24.57107   -24.57107     3.70907    -0.00000     0.00000    -0.00000

 VOLUME and BASIS-vectors are now :
  energy-cutoff  :      500.00
  volume of cell :     1493.16
      direct lattice vectors                 reciprocal lattice vectors
     8.813512802  0.000000000  0.000000000     0.113462137 -0.065507406  0.000000000
     4.406756909  7.632725690  0.000000000     0.000000000  0.131014796  0.000000000
     0.000000000  0.000000000 22.196203232     0.000000000  0.000000000  0.045052750

  length of vectors
     8.813512802  8.813512802 22.196203232     0.131014796  0.131014796  0.045052750

 FORCES acting on ions
    electron-ion (+dipol)            ewald-force                    non-local-force                 convergence-correction
   -.197E-04 -.162E-04 0.246E+04   0.519E-04 0.433E-04 -.246E+04   0.113E-17 0.389E-17 -.786E+00   -.280E-03 -.175E-03 -.228E+00
   0.475E+00 -.144E+00 0.246E+04   -.512E+00 -.453E-01 -.246E+04   0.492E-01 0.166E+00 -.305E+00   -.146E-01 0.575E-02 -.256E+00
   -.475E+00 -.144E+00 0.246E+04   0.511E+00 -.453E-01 -.246E+04   -.492E-01 0.166E+00 -.305E+00   0.149E-01 0.779E-02 -.255E+00
   0.113E+00 0.483E+00 0.246E+04   -.295E+00 -.420E+00 -.246E+04   0.168E+00 -.402E-01 -.305E+00   -.224E-02 -.155E-01 -.256E+00
   0.721E-05 -.243E-04 0.246E+04   0.951E-04 0.174E-05 -.246E+04   -.207E-17 0.114E-19 0.197E+00   0.439E-02 0.267E-02 -.183E+00
   -.113E+00 0.483E+00 0.246E+04   0.295E+00 -.420E+00 -.246E+04   -.168E+00 -.402E-01 -.305E+00   0.581E-03 -.146E-01 -.255E+00
   -.362E+00 -.339E+00 0.246E+04   0.216E+00 0.466E+00 -.246E+04   0.119E+00 -.125E+00 -.305E+00   0.143E-01 0.902E-02 -.255E+00
   0.362E+00 -.339E+00 0.246E+04   -.217E+00 0.466E+00 -.246E+04   -.119E+00 -.125E+00 -.305E+00   -.124E-01 0.782E-02 -.255E+00
   0.198E-04 -.416E-04 0.246E+04   0.166E-03 -.200E-04 -.246E+04   0.723E-18 0.135E-18 -.460E+00   -.466E-02 -.241E-02 -.177E+00
   0.489E+01 0.282E+01 0.790E+03   -.441E+01 -.255E+01 -.790E+03   -.411E+00 -.238E+00 -.619E+00   -.935E-01 -.541E-01 0.338E+00
   0.143E-04 0.195E+01 0.794E+03   0.148E-03 -.186E+01 -.794E+03   -.110E-09 -.165E-02 -.706E-01   0.425E-02 -.131E+00 0.449E+00
   -.489E+01 0.282E+01 0.790E+03   0.441E+01 -.255E+01 -.790E+03   0.411E+00 -.238E+00 -.619E+00   0.916E-01 -.521E-01 0.339E+00
   0.169E+01 -.974E+00 0.794E+03   -.161E+01 0.930E+00 -.794E+03   -.143E-02 0.824E-03 -.706E-01   -.111E+00 0.692E-01 0.449E+00
   -.169E+01 -.974E+00 0.794E+03   0.161E+01 0.930E+00 -.794E+03   0.143E-02 0.824E-03 -.706E-01   0.119E+00 0.686E-01 0.450E+00
   0.319E-04 0.453E+01 0.794E+03   0.235E-03 -.474E+01 -.794E+03   0.312E-08 0.468E-01 -.550E+00   -.297E-02 0.970E-01 0.410E+00
   -.210E-04 -.565E+01 0.790E+03   0.162E-03 0.510E+01 -.790E+03   0.316E-07 0.475E+00 -.619E+00   0.397E-03 0.105E+00 0.339E+00
   0.392E+01 -.227E+01 0.794E+03   -.411E+01 0.237E+01 -.794E+03   0.405E-01 -.234E-01 -.550E+00   0.828E-01 -.507E-01 0.410E+00
   -.392E+01 -.227E+01 0.794E+03   0.411E+01 0.237E+01 -.794E+03   -.405E-01 -.234E-01 -.550E+00   -.827E-01 -.480E-01 0.410E+00
   -.423E-04 -.865E+00 -.896E+03   0.554E-04 0.588E+00 0.895E+03   0.374E-08 0.561E-01 0.602E+00   -.591E-02 0.191E+00 0.987E+00
   -.817E+01 -.472E+01 -.882E+03   0.895E+01 0.517E+01 0.882E+03   -.119E+01 -.687E+00 -.130E+01   0.302E+00 0.174E+00 0.157E+01
   0.817E+01 -.472E+01 -.882E+03   -.895E+01 0.517E+01 0.882E+03   0.119E+01 -.687E+00 -.130E+01   -.293E+00 0.176E+00 0.157E+01
   -.141E+02 0.816E+01 -.882E+03   0.137E+02 -.794E+01 0.881E+03   0.418E+00 -.242E+00 0.564E+00   -.189E-02 -.184E-02 0.104E+01
   -.918E-05 0.943E+01 -.882E+03   0.138E-03 -.103E+02 0.882E+03   0.915E-07 0.137E+01 -.130E+01   0.580E-02 -.342E+00 0.157E+01
   0.141E+02 0.816E+01 -.882E+03   -.137E+02 -.794E+01 0.881E+03   -.418E+00 -.242E+00 0.564E+00   -.629E-02 -.358E-02 0.104E+01
   0.749E+00 0.432E+00 -.896E+03   -.509E+00 -.294E+00 0.895E+03   -.486E-01 -.281E-01 0.602E+00   -.167E+00 -.967E-01 0.986E+00
   -.749E+00 0.432E+00 -.896E+03   0.509E+00 -.294E+00 0.895E+03   0.486E-01 -.281E-01 0.602E+00   0.162E+00 -.100E+00 0.987E+00
   0.871E-05 -.163E+02 -.882E+03   0.199E-03 0.159E+02 0.881E+03   0.322E-07 0.483E+00 0.564E+00   -.309E-02 -.751E-03 0.104E+01
   -.103E-04 -.108E-04 -.246E+04   0.274E-04 0.305E-04 0.246E+04   0.495E-17 0.168E-17 0.653E+00   -.278E-03 -.176E-03 0.545E+00
   -.366E+01 -.813E+01 -.247E+04   0.430E+01 0.917E+01 0.247E+04   -.105E+01 -.164E+01 -.970E-01   0.422E+00 0.567E+00 0.431E+00
   0.366E+01 -.813E+01 -.247E+04   -.430E+01 0.917E+01 0.247E+04   0.105E+01 -.164E+01 -.970E-01   -.421E+00 0.569E+00 0.430E+00
   -.887E+01 0.893E+00 -.247E+04   0.101E+02 -.867E+00 0.247E+04   -.195E+01 -.850E-01 -.970E-01   0.702E+00 0.816E-01 0.431E+00
   0.887E+01 0.893E+00 -.247E+04   -.101E+02 -.867E+00 0.247E+04   0.195E+01 -.850E-01 -.970E-01   -.703E+00 0.822E-01 0.429E+00
   -.521E+01 0.723E+01 -.247E+04   0.580E+01 -.831E+01 0.247E+04   -.900E+00 0.173E+01 -.970E-01   0.282E+00 -.649E+00 0.430E+00
   0.521E+01 0.723E+01 -.247E+04   -.580E+01 -.831E+01 0.247E+04   0.900E+00 0.173E+01 -.970E-01   -.280E+00 -.650E+00 0.429E+00
   0.326E-04 -.329E-04 -.246E+04   0.144E-03 -.461E-04 0.246E+04   0.481E-17 -.106E-17 0.790E+00   -.472E-02 -.243E-02 0.430E+00
   -.234E-04 -.222E-05 -.126E+04   0.625E-04 0.565E-05 0.126E+04   -.462E-17 -.564E-20 -.227E+01   0.108E-02 0.643E-03 0.465E+00
   0.580E-05 -.384E-05 -.267E+03   0.436E-05 0.270E-06 0.270E+03   0.762E-20 -.169E-18 -.223E+01   0.973E-04 0.579E-04 -.172E+00
   -.808E-03 -.781E-03 -.495E+01   -.383E-13 0.266E-12 0.796E-11   0.555E-15 0.887E-15 -.106E+02   -.123E-02 -.144E-03 0.161E+02

 POSITION                                       TOTAL-FORCE (eV/Angst)
      0.00000      0.00000      5.28038        -0.000000     -0.000000     -0.193750
      2.93784      0.00000      5.28038        -0.001676     -0.016655     -0.068108
      5.87568      0.00000      5.28038         0.001676     -0.016655     -0.068108
      1.46892      2.54424      5.28038        -0.015262      0.006877     -0.068108
      4.40676      2.54424      5.28038        -0.000000     -0.000000     -0.111225
      7.34459      2.54424      5.28038         0.015262      0.006877     -0.068108
      2.93784      5.08848      5.28038        -0.013586      0.009779     -0.068108
      5.87568      5.08848      5.28038         0.013586      0.009779     -0.068108
      8.81351      5.08848      5.28038        -0.000000     -0.000000     -0.107695
      1.46892      0.84808      7.67911        -0.025918     -0.014964      0.119928
      4.40676      0.84808      7.67911        -0.000000     -0.045242      0.019987
      7.34459      0.84808      7.67911         0.025918     -0.014964      0.119928
      2.93784      3.39232      7.67911        -0.039181      0.022621      0.019987
      5.87568      3.39232      7.67911         0.039181      0.022621      0.019987
      8.81351      3.39232      7.67911        -0.000000     -0.069213      0.103455
      4.40676      5.93656      7.67911         0.000000      0.029928      0.119928
      7.34459      5.93656      7.67911        -0.059940      0.034607      0.103455
     10.28243      5.93656      7.67911         0.059940      0.034607      0.103455
      8.81351      1.70181     10.09390        -0.000000     -0.029230     -0.006767
      2.93906      1.69686     10.04479        -0.110561     -0.063832     -0.082597
      5.87446      1.69686     10.04479         0.110561     -0.063832     -0.082597
     10.26694      4.24935     10.06849         0.041345     -0.023871     -0.005523
      4.40676      4.23900     10.04479         0.000000      0.127665     -0.082597
      7.36009      4.24935     10.06849        -0.041345     -0.023871     -0.005523
     11.74646      6.78182     10.09390         0.025314      0.014615     -0.006767
      5.88057      6.78182     10.09390        -0.025314      0.014615     -0.006767
      8.81351      6.76675     10.06849         0.000000      0.047742     -0.005523
      0.00000      0.00000     12.49934        -0.000000     -0.000000      0.004670
      2.98260      0.07565     12.53968         0.010062     -0.028075     -0.001097
      5.83091      0.07565     12.53968        -0.010062     -0.028075     -0.001097
      1.55682      2.54518     12.53968        -0.019282      0.022752     -0.001097
      7.25669      2.54518     12.53968         0.019282      0.022752     -0.001097
      2.98097      5.01189     12.53968        -0.029345      0.005323     -0.001097
      5.83254      5.01189     12.53968         0.029345      0.005323     -0.001097
      8.81351      5.08848     12.49853        -0.000000     -0.000000      0.085465
      4.40676      2.54424     12.23451        -0.000000     -0.000000      0.257528
      4.40676      2.54424     13.93109        -0.000000     -0.000000      0.034792
    total drift:                               -0.002035     -0.000925      0.535025

  FREE ENERGIE OF THE ION-ELECTRON SYSTEM (eV)
  free  energy   TOTEN  =      -118.89909526 eV

  energy  without entropy=     -118.89909526  energy(sigma->0) =     -118.89909526

 stress matrix after NEB project (eV)
    -22.89923     -0.00000     -0.00000
     -0.00000    -22.89923     -0.00000
     -0.00000      0.00000      3.45670
  FORCES: max atom, RMS     0.034792    0.005720
  FORCE total and by dimension    0.034792    0.034792
  Stress total and by dimension   32.568360   22.899229
|           W    W    AA    RRRRR   N    N  II  N    N   GGGG   !!!           |
|           W    W   A  A   R    R  NN   N  II  NN   N  G    G  !!!           |
|           W    W  A    A  R    R  N N  N  II  N N  N  G       !!!           |
|           W WW W  AAAAAA  RRRRR   N  N N  II  N  N N  G  GGG   !            |
|           WW  WW  A    A  R   R   N   NN  II  N   NN  G    G                |
|           W    W  A    A  R    R  N    N  II  N    N   GGGG   !!!           |
|     Tetrahedron method does not include variations of the Fermi             |
|     occupations, so forces and stress will be inaccurate. We suggest        |
|     using a different smearing scheme ISMEAR = 1 or 2 for metals in         |
|     relaxations.                                                            |

 total charge

# of ion       s       p       d       tot
    1        0.548   0.236   8.771   9.555
    2        0.541   0.241   8.766   9.548
    3        0.541   0.241   8.766   9.548
    4        0.541   0.241   8.766   9.548
    5        0.548   0.240   8.761   9.549
    6        0.541   0.241   8.766   9.548
    7        0.541   0.241   8.766   9.548
    8        0.541   0.241   8.766   9.548
    9        0.544   0.239   8.767   9.550
   10        0.527   0.307   8.767   9.600
   11        0.522   0.307   8.780   9.610
   12        0.527   0.307   8.767   9.600
   13        0.522   0.307   8.780   9.610
   14        0.522   0.307   8.780   9.610
   15        0.517   0.307   8.777   9.600
   16        0.527   0.307   8.767   9.600
   17        0.517   0.307   8.777   9.600
   18        0.517   0.307   8.777   9.600
   19        0.515   0.295   8.774   9.584
   20        0.572   0.333   8.735   9.640
   21        0.572   0.333   8.735   9.640
   22        0.506   0.305   8.778   9.589
   23        0.572   0.333   8.735   9.640
   24        0.506   0.305   8.778   9.589
   25        0.515   0.295   8.774   9.584
   26        0.515   0.295   8.774   9.584
   27        0.506   0.305   8.778   9.589
   28        0.540   0.228   8.753   9.521
   29        0.577   0.244   8.732   9.553
   30        0.577   0.244   8.732   9.553
   31        0.577   0.244   8.732   9.553
   32        0.577   0.244   8.732   9.553
   33        0.577   0.244   8.732   9.553
   34        0.577   0.244   8.732   9.553
   35        0.536   0.227   8.757   9.520
   36        0.422   0.407   4.065   4.895
   37        0.518   0.012   0.000   0.530
tot         19.841  10.061 310.692 340.594

 BZINTS: Fermi energy:    0.614951;  392.000000 electrons
         Band energy:-0.121254E+04;  BLOECHL correction:   -0.028725