 vasp.6.2.0 18Jan21 (build Jun 12 2021 23:27:24) complex

 executed on             LinuxIFC date 2022.05.27  06:20:35

 INCAR:
   ISMEAR = -5
   SIGMA = 0.1
   ISPIN = 1
   EDIFF = 1.d-5
   EDIFFG = -0.01
   NSW = 0
   NELM = 150
   ENCUT = 500
   ISIF = 2
   IBRION = 2
   LREAL = Auto
   ALGO = Fast
   ICHARG = 11
   LORBIT = 10
   LCHARG = .F.
   LWAVE = .F.

 POTCAR:    PAW_PBE Cu 22Jun2005
 POTCAR:    PAW_PBE Os 17Jan2003
 POTCAR:    PAW_PBE N 08Apr2002
|           W    W    AA    RRRRR   N    N  II  N    N   GGGG   !!!           |
|           W    W   A  A   R    R  NN   N  II  NN   N  G    G  !!!           |
|           W    W  A    A  R    R  N N  N  II  N N  N  G       !!!           |
|           W WW W  AAAAAA  RRRRR   N  N N  II  N  N N  G  GGG   !            |
|           WW  WW  A    A  R   R   N   NN  II  N   NN  G    G                |
|           W    W  A    A  R    R  N    N  II  N    N   GGGG   !!!           |
|     For optimal performance we recommend to set                             |
|       NCORE = 2 up to number-of-cores-per-socket                            |
|     This setting can greatly improve the performance of VASP for DFT.       |
|     The default, NCORE=1 might be grossly inefficient on modern             |
|     multi-core architectures or massively parallel machines. Do your        |
|     Unfortunately you need to use the default for GW and RPA                |
|     calculations (for HF NCORE is supported but not extensively tested      |
|     yet).                                                                   |

 POTCAR:    PAW_PBE Cu 22Jun2005
   VRHFIN =Cu: d10 p1

   TITEL  = PAW_PBE Cu 22Jun2005
   POMASS =   63.546; ZVAL   =   11.000    mass and valenz
   ENMAX  =  295.446; ENMIN  =  221.585 eV

 POTCAR:    PAW_PBE Os 17Jan2003
   VRHFIN =Os: 6s5d

   TITEL  = PAW_PBE Os 17Jan2003
   POMASS =  190.200; ZVAL   =    8.000    mass and valenz
   ENMAX  =  228.022; ENMIN  =  171.017 eV

 POTCAR:    PAW_PBE N 08Apr2002
   VRHFIN =N: s2p3

   TITEL  = PAW_PBE N 08Apr2002
   POMASS =   14.001; ZVAL   =    5.000    mass and valenz
   ENMAX  =  400.000; ENMIN  =  300.000 eV

 Optimization of the real space projectors (new method)

 maximal supplied QI-value         = 16.25
 optimisation between [QCUT,QGAM] = [ 11.38, 22.75] = [ 36.24,144.96] Ry
 Optimized for a Real-space Cutoff    1.52 Angstroem

   l    n(q)    QCUT    max X(q) W(low)/X(q) W(high)/X(q)  e(spline)
   2      9    11.376     4.610    0.21E-03    0.10E-03    0.26E-06
   2      9    11.376     8.522    0.33E-03    0.16E-03    0.37E-06
   0     10    11.376    51.609    0.62E-04    0.20E-04    0.13E-06
   0     10    11.376    27.747    0.54E-04    0.20E-04    0.13E-06
   1     10    11.376    20.408    0.13E-04    0.99E-04    0.19E-06
   1     10    11.376    13.425    0.12E-04    0.87E-04    0.17E-06
 Optimization of the real space projectors (new method)

[...]

   l    n(q)    QCUT    max X(q) W(low)/X(q) W(high)/X(q)  e(spline)
   2     10    11.327   152.873    0.32E-03    0.72E-03    0.11E-05
   2     10    11.327   151.010    0.32E-03    0.72E-03    0.11E-05
   0     11    11.327    72.114    0.43E-04    0.61E-04    0.13E-06
   0     11    11.327    44.596    0.40E-04    0.57E-04    0.12E-06
   1     10    11.327    13.742    0.16E-03    0.10E-03    0.19E-06
   1     10    11.327     8.461    0.12E-03    0.78E-04    0.15E-06
 Optimization of the real space projectors (new method)

 maximal supplied QI-value         = 25.13
 optimisation between [QCUT,QGAM] = [ 11.31, 22.87] = [ 35.82,146.48] Ry
 Optimized for a Real-space Cutoff    1.27 Angstroem

   l    n(q)    QCUT    max X(q) W(low)/X(q) W(high)/X(q)  e(spline)
   0      9    11.310    79.467    0.75E-04    0.16E-03    0.36E-06
   0      9    11.310    66.151    0.74E-04    0.16E-03    0.36E-06
   1      8    11.310    17.416    0.35E-03    0.12E-03    0.95E-06
   1      8    11.310    12.382    0.37E-03    0.13E-03    0.98E-06
  PAW_PBE Cu 22Jun2005                  :
  PAW_PBE Os 17Jan2003                  :
  PAW_PBE N 08Apr2002                   :

 POSCAR: Cu-Os-N2
  positions in direct lattice
  velocities in cartesian coordinates
 exchange correlation table for  LEXCH =        8
   RHO(1)=    0.500       N(1)  =     2000
   RHO(2)=  100.500       N(2)  =     4000

 VTST: version 3.2, (02/03/18)

 CHAIN: initializing optimizer

 OPT: Using VASP Conjugate-Gradient optimizer
 CHAIN: Read ICHAIN            0

 POSCAR: Cu-Os-N2
  positions in direct lattice
  velocities in cartesian coordinates

 ion  position               nearest neighbor table
   1  0.000  0.000  0.252-   7 2.57   3 2.57   4 2.57   2 2.57   6 2.57   8 2.57  12 2.57  10 2.57
                            16 2.57
   2  0.333  0.000  0.252-   8 2.57   9 2.57   5 2.57   1 2.57   3 2.57  11 2.57   4 2.57  10 2.57
                            17 2.57
   3  0.667  0.000  0.252-   1 2.57   7 2.57   6 2.57   9 2.57   2 2.57  12 2.57   5 2.57  18 2.57
                            11 2.57
   4  0.000  0.333  0.252-   5 2.57   6 2.57   1 2.57   7 2.57   2 2.57  13 2.57   9 2.57  10 2.57
                            15 2.57
   5  0.333  0.333  0.252-   4 2.57   2 2.57   7 2.57  13 2.57   8 2.57   6 2.57   3 2.57  11 2.57
                            14 2.57
   6  0.667  0.333  0.252-   4 2.57   9 2.57  15 2.57   3 2.57   1 2.57   8 2.57  14 2.57   5 2.57
                            12 2.57
   7  0.000  0.667  0.252-   1 2.57   3 2.57  16 2.57  18 2.57   4 2.57   5 2.57   8 2.57   9 2.57
                            13 2.57
   8  0.333  0.667  0.252-   9 2.57   2 2.57  17 2.57   6 2.57   1 2.57   7 2.57   5 2.57  14 2.57
                            16 2.57
   9  0.667  0.667  0.252-   8 2.57   6 2.57   2 2.57  17 2.57   3 2.57   7 2.57   4 2.57  15 2.57
                            18 2.57
  10  0.111  0.111  0.351-  20 2.53  11 2.57  12 2.57  13 2.57   1 2.57   2 2.57   4 2.57  15 2.57
                            16 2.57  17 2.57  26 2.57  19 2.57
  11  0.444  0.111  0.351-  20 2.54  21 2.54  10 2.57  13 2.57   2 2.57  17 2.57  14 2.57  12 2.57
                             5 2.57   3 2.57  18 2.57  27 2.57
  12  0.778  0.111  0.351-  21 2.53  15 2.57  10 2.57  14 2.57  18 2.57   3 2.57   1 2.57  16 2.57
                            11 2.57   6 2.57  19 2.57  25 2.57
  13  0.111  0.444  0.351-  23 2.54  20 2.54  16 2.57  18 2.57  10 2.57  11 2.57  14 2.57   5 2.57
                             4 2.57   7 2.57  15 2.57  22 2.57
  14  0.444  0.444  0.351-  21 2.54  23 2.54  15 2.57  17 2.57  12 2.57  16 2.57  13 2.57  11 2.57
                             6 2.57   8 2.57   5 2.57  24 2.57
  15  0.778  0.444  0.351-  19 2.56  14 2.57  17 2.57  12 2.57   6 2.57  18 2.57  10 2.57   9 2.57
                            13 2.57   4 2.57  24 2.57  22 2.57
  16  0.111  0.778  0.351-  23 2.53  18 2.57  13 2.57   7 2.57  14 2.57  17 2.57  12 2.57  10 2.57
                             8 2.57   1 2.57  25 2.57  26 2.57
  17  0.444  0.778  0.351-  26 2.56  14 2.57  15 2.57   8 2.57   9 2.57  11 2.57  16 2.57  18 2.57
                            10 2.57   2 2.57  27 2.57  24 2.57
  18  0.778  0.778  0.351-  25 2.56  16 2.57  13 2.57   7 2.57  15 2.57  12 2.57  17 2.57   9 2.57
                             3 2.57  11 2.57  22 2.57  27 2.57
  19  0.888  0.223  0.449-  21 2.55  20 2.55  28 2.55  22 2.56  24 2.56  15 2.56  12 2.57  10 2.57
                            32 2.57  31 2.57  25 2.57  26 2.57
  20  0.221  0.221  0.448-  10 2.53  36 2.53  11 2.54  13 2.54  26 2.55  19 2.55  27 2.57  22 2.57
                            23 2.59  21 2.59  29 2.60  31 2.60
  21  0.558  0.221  0.448-  12 2.53  36 2.53  14 2.54  11 2.54  19 2.55  25 2.55  24 2.57  27 2.57
                            20 2.59  23 2.59  32 2.60  30 2.60
  22  0.888  0.556  0.449-  35 2.55  24 2.55  27 2.55  19 2.56  25 2.56  18 2.57  15 2.57  23 2.57
                            20 2.57  13 2.57  31 2.58  33 2.58
  23  0.221  0.558  0.448-  16 2.53  36 2.53  13 2.54  14 2.54  25 2.55  26 2.55  22 2.57  24 2.57
                            20 2.59  21 2.59  33 2.60  34 2.60
  24  0.556  0.556  0.449-  35 2.55  22 2.55  27 2.55  19 2.56  26 2.56  15 2.57  17 2.57  21 2.57
                            23 2.57  14 2.57  32 2.58  34 2.58
  25  0.888  0.888  0.449-  21 2.55  23 2.55  28 2.55  22 2.56  27 2.56  18 2.56  16 2.57  12 2.57
                            33 2.57  30 2.57  19 2.57  26 2.57
  26  0.223  0.888  0.449-  20 2.55  23 2.55  28 2.55  27 2.56  24 2.56  17 2.56  10 2.57  16 2.57
                            29 2.57  34 2.57  25 2.57  19 2.57
  27  0.556  0.888  0.449-  35 2.55  24 2.55  22 2.55  26 2.56  25 2.56  17 2.57  18 2.57  20 2.57
                            21 2.57  11 2.57  29 2.58  30 2.58
  28  0.000  0.000  0.547-  25 2.55  19 2.55  26 2.55  33 2.56  30 2.56  31 2.56  29 2.56  32 2.56
                            34 2.56
  29  0.333  0.000  0.548-  31 2.56  28 2.56  34 2.57  36 2.57  35 2.57  30 2.57  26 2.57  27 2.58
                            20 2.60
  30  0.667  0.000  0.548-  32 2.56  28 2.56  33 2.57  36 2.57  35 2.57  29 2.57  25 2.57  27 2.58
                            21 2.60
  31  0.000  0.333  0.548-  29 2.56  28 2.56  32 2.57  36 2.57  35 2.57  33 2.57  19 2.57  22 2.58
                            20 2.60
  32  0.667  0.333  0.548-  30 2.56  28 2.56  31 2.57  36 2.57  35 2.57  34 2.57  19 2.57  24 2.58
                            21 2.60
  33  0.000  0.667  0.548-  34 2.56  28 2.56  30 2.57  36 2.57  35 2.57  31 2.57  25 2.57  22 2.58
                            23 2.60
  34  0.333  0.667  0.548-  33 2.56  28 2.56  29 2.57  36 2.57  35 2.57  32 2.57  26 2.57  24 2.58
                            23 2.60
  35  0.667  0.667  0.547-  24 2.55  27 2.55  22 2.55  34 2.57  32 2.57  29 2.57  30 2.57  33 2.57
                            31 2.57
  36  0.333  0.333  0.544-  37 2.40  38 2.40  23 2.53  20 2.53  21 2.53  31 2.57  29 2.57  33 2.57
                            34 2.57  32 2.57  30 2.57
  37  0.261  0.330  0.654-  38 1.14  36 2.40
  38  0.409  0.330  0.654-  37 1.14  36 2.40

  LATTYP: Found a hexagonal cell.
 ALAT       =     7.6967864036
 C/A-ratio  =     2.7653617908

  Lattice vectors:

 A1 = (  -3.8483927580,  -6.6656128093,   0.0000000000)
 A2 = (   7.6967864037,   0.0000000000,   0.0000000000)
 A3 = (   0.0000000000,   0.0000000000,  21.2843990326)

Analysis of symmetry for initial positions (statically):
 Subroutine PRICEL returns:
 Original cell was already a primitive cell.

 Routine SETGRP: Setting up the symmetry group for a
 hexagonal supercell.

 Subroutine GETGRP returns: Found  2 space group operations
 (whereof  2 operations were pure point group operations)
 out of a pool of 24 trial point group operations.

The static configuration has the point symmetry C_1h.

Analysis of symmetry for dynamics (positions and initial velocities):
 Subroutine PRICEL returns:
 Original cell was already a primitive cell.

[...]

The dynamic configuration has the point symmetry C_1h.

Analysis of constrained symmetry for selective dynamics:
 Subroutine PRICEL returns:
 Original cell was already a primitive cell.

 Routine SETGRP: Setting up the symmetry group for a
 hexagonal supercell.

[...]
     33      -3.8554      2.00000
     34      -3.8426      2.00000
     35      -3.8403      2.00000
     36      -3.8324      2.00000
     37      -3.8196      2.00000
     38      -3.8043      2.00000
     39      -3.7668      2.00000
     40      -3.7174      2.00000
     41      -3.6767      2.00000
     42      -3.5318      2.00000
     43      -3.5222      2.00000
     44      -3.4726      2.00000
     45      -3.4505      2.00000
     46      -3.4435      2.00000
     47      -3.4259      2.00000
     48      -3.4116      2.00000
     49      -3.4044      2.00000
     50      -3.3973      2.00000
     51      -3.2079      2.00000
     52      -3.1962      2.00000
     53      -3.1860      2.00000
     54      -3.1737      2.00000
     55      -3.1251      2.00000
     56      -3.1127      2.00000
     57      -3.1067      2.00000
     58      -3.1004      2.00000
     59      -3.0964      2.00000
     60      -3.0797      2.00000
[...]
    238       6.0549      0.00000
    239       6.1181      0.00000
    240       6.3769      0.00000
    241       6.3891      0.00000
    242       6.6124      0.00000
    243       6.7645      0.00000
    244       6.8706      0.00000
    245       6.9989      0.00000
    246       7.1141      0.00000
    247       7.1192      0.00000
    248       7.3099      0.00000
    249       7.4808      0.00000
    250       7.4863      0.00000
    251       7.5938      0.00000
    252       7.6671      0.00000

 soft charge-density along one line, spin component           1
         0         1         2         3         4         5         6         7         8         9
 total charge-density along one line

------------------------ aborting loop because EDIFF is reached ----------------------------------------

 total charge

# of ion       s       p       d       tot
    1        0.448   0.284   9.188   9.920
    2        0.450   0.285   9.186   9.921
    3        0.450   0.285   9.186   9.921
    4        0.450   0.285   9.186   9.921
    5        0.446   0.288   9.180   9.915
    6        0.450   0.285   9.186   9.921
    7        0.450   0.284   9.186   9.921
    8        0.450   0.284   9.186   9.921
    9        0.447   0.283   9.190   9.920
   10        0.442   0.373   9.173   9.988
   11        0.444   0.364   9.185   9.994
   12        0.442   0.373   9.173   9.988
   13        0.444   0.365   9.185   9.994
   14        0.444   0.365   9.185   9.994
   15        0.437   0.369   9.179   9.984
   16        0.442   0.373   9.173   9.988
   17        0.437   0.369   9.179   9.984
   18        0.437   0.369   9.179   9.984
   19        0.440   0.368   9.182   9.990
   20        0.455   0.401   9.163  10.020
   21        0.455   0.401   9.163  10.020
   22        0.430   0.370   9.184   9.984
   23        0.455   0.405   9.160  10.020
   24        0.430   0.370   9.184   9.984
   25        0.442   0.368   9.181   9.991
   26        0.442   0.368   9.181   9.991
   27        0.431   0.369   9.185   9.985
   28        0.448   0.289   9.191   9.928
   29        0.459   0.310   9.179   9.947
   30        0.459   0.310   9.179   9.947
   31        0.454   0.310   9.179   9.944
   32        0.454   0.310   9.179   9.944
   33        0.458   0.310   9.178   9.947
   34        0.458   0.310   9.178   9.947
   35        0.440   0.293   9.190   9.923
   36        0.606   0.470   6.088   7.164
   37        1.358   2.445   0.000   3.803
   38        1.358   2.445   0.000   3.803
tot         18.943  17.107 327.410 363.460

  FORCE on cell =-STRESS in cart. coord.  units (eV):
  Direction    XX          YY          ZZ          XY          YZ          ZX
  Alpha Z   924.62031   924.62031   924.62031
  Ewald  171210.22294170897.86061************     0.00040     1.28002     0.00017
  Hartree184245.67766184135.41037************     0.00004     1.64043     0.00006
  E(xc)   -2325.03034 -2326.26566 -2329.93373    -0.00026    -0.00458    -0.00004
  Local  ************************368305.21255     0.02009    -3.07945    -0.00074
  n-local  -807.30733  -796.16090  -815.18361     1.90654     0.10528     0.06423
  augment  3325.64340  3325.16513  3346.20001    -0.01840     0.00210     0.00035
  Kinetic  3426.59036  3442.60837  3466.79483     1.55770     0.22872    -0.17223
  Fock        0.00000     0.00000     0.00000     0.00000     0.00000     0.00000
  Total      -4.68057    -4.83577     1.04453     0.00000     0.17253    -0.00000
  in kB      -6.86749    -7.09521     1.53257     0.00000     0.25314    -0.00000

 VOLUME and BASIS-vectors are now :
  energy-cutoff  :      500.00
  volume of cell :     1091.97
      direct lattice vectors                 reciprocal lattice vectors
     7.696786404  0.000000000  0.000000000     0.129924354 -0.075011849  0.000000000
     3.848392758  6.665612809  0.000000000     0.000000000  0.150023716  0.000000000
     0.000000000  0.000000000 21.284399033     0.000000000  0.000000000  0.046982769

  length of vectors
     7.696786404  7.696786404 21.284399033     0.150023716  0.150023716  0.046982769

 FORCES acting on ions
    electron-ion (+dipol)            ewald-force                    non-local-force                 convergence-correction
   -.407E-04 0.255E-01 0.350E+04   0.580E-04 -.137E-01 -.349E+04   -.531E-09 0.797E-02 -.311E+01   -.344E-03 -.220E-01 -.360E+00
   -.998E-01 0.280E+00 0.350E+04   0.192E-01 -.181E+00 -.349E+04   0.332E-01 -.453E-01 -.177E+01   0.557E-01 -.344E-01 -.286E+00
   0.999E-01 0.280E+00 0.350E+04   -.193E-01 -.181E+00 -.349E+04   -.332E-01 -.453E-01 -.177E+01   -.549E-01 -.318E-01 -.285E+00
   0.147E+00 -.233E+00 0.350E+04   -.136E+00 0.104E+00 -.349E+04   0.121E-01 0.442E-01 -.183E+01   0.273E-03 0.786E-01 -.289E+00
   -.620E-04 -.655E-01 0.350E+04   0.116E-03 0.406E-02 -.349E+04   -.137E-08 0.206E-01 -.170E+01   0.122E-01 0.410E-01 -.153E+00
   -.147E+00 -.233E+00 0.350E+04   0.136E+00 0.104E+00 -.349E+04   -.121E-01 0.442E-01 -.183E+01   -.189E-02 0.798E-01 -.288E+00
   0.219E+00 -.354E-01 0.350E+04   -.155E+00 0.769E-01 -.349E+04   -.329E-01 -.158E-01 -.175E+01   -.135E-01 -.394E-01 -.295E+00
   -.219E+00 -.354E-01 0.350E+04   0.154E+00 0.769E-01 -.349E+04   0.329E-01 -.158E-01 -.175E+01   0.169E-01 -.408E-01 -.295E+00
   -.143E-03 0.268E-01 0.350E+04   0.263E-03 0.971E-02 -.349E+04   0.703E-09 -.106E-01 -.250E+01   -.132E-01 -.264E-01 -.327E+00
   0.345E+01 0.201E+01 0.121E+04   -.292E+01 -.177E+01 -.121E+04   -.604E+00 -.284E+00 -.126E+01   0.754E-01 0.531E-01 -.311E+00
   -.926E-04 0.103E+01 0.121E+04   0.190E-03 -.150E+01 -.121E+04   -.164E-07 0.246E+00 -.470E+00   0.121E-01 0.147E+00 -.257E+00
   -.345E+01 0.201E+01 0.121E+04   0.292E+01 -.177E+01 -.121E+04   0.604E+00 -.284E+00 -.126E+01   -.771E-01 0.544E-01 -.311E+00
   0.836E+00 -.529E+00 0.121E+04   -.122E+01 0.792E+00 -.121E+04   0.199E+00 -.175E+00 -.487E+00   0.135E+00 -.497E-01 -.279E+00
   -.836E+00 -.529E+00 0.121E+04   0.122E+01 0.792E+00 -.121E+04   -.199E+00 -.175E+00 -.487E+00   -.111E+00 -.510E-01 -.280E+00
   -.143E-03 -.446E+00 0.121E+04   0.299E-03 0.155E+00 -.121E+04   -.130E-07 0.195E+00 -.909E+00   -.358E-02 0.775E-01 -.355E+00
   -.921E-04 -.398E+01 0.121E+04   0.186E-03 0.337E+01 -.121E+04   -.471E-07 0.707E+00 -.131E+01   -.507E-03 -.118E+00 -.305E+00
   -.265E+00 0.199E+00 0.121E+04   0.641E-01 -.296E-01 -.121E+04   0.137E+00 -.112E+00 -.833E+00   0.417E-01 -.477E-01 -.343E+00
   0.265E+00 0.199E+00 0.121E+04   -.644E-01 -.296E-01 -.121E+04   -.137E+00 -.112E+00 -.833E+00   -.404E-01 -.447E-01 -.341E+00
   -.619E-04 -.127E+00 -.110E+04   0.687E-04 0.271E-01 0.110E+04   -.416E-08 0.625E-01 0.921E+00   -.110E-01 0.253E-01 -.298E+00
   -.236E+02 -.132E+02 -.110E+04   0.247E+02 0.139E+02 0.110E+04   -.121E+01 -.729E+00 -.110E+01   0.127E+00 0.361E-01 -.296E+00
   0.236E+02 -.132E+02 -.110E+04   -.247E+02 0.139E+02 0.110E+04   0.121E+01 -.729E+00 -.110E+01   -.146E+00 0.355E-01 -.297E+00
   -.170E+02 0.921E+01 -.110E+04   0.162E+02 -.864E+01 0.110E+04   0.787E+00 -.533E+00 0.944E+00   0.123E+00 -.559E-01 -.314E+00
   -.901E-04 0.263E+02 -.110E+04   0.145E-03 -.277E+02 0.110E+04   -.990E-07 0.149E+01 -.127E+01   0.117E-05 -.920E-01 -.293E+00
   0.170E+02 0.921E+01 -.110E+04   -.162E+02 -.864E+01 0.110E+04   -.787E+00 -.533E+00 0.944E+00   -.123E+00 -.572E-01 -.314E+00
   0.263E+00 0.583E+00 -.110E+04   -.232E+00 -.570E+00 0.110E+04   0.235E-02 0.374E-01 0.801E+00   -.378E-01 -.465E-01 -.285E+00
   -.263E+00 0.583E+00 -.110E+04   0.232E+00 -.570E+00 0.110E+04   -.235E-02 0.374E-01 0.801E+00   0.166E-01 -.473E-01 -.285E+00
   -.112E-03 -.195E+02 -.110E+04   0.242E-03 0.183E+02 0.110E+04   -.695E-07 0.104E+01 0.907E+00   0.931E-03 0.163E+00 -.297E+00
   -.436E-04 0.354E+01 -.336E+04   0.355E-04 -.349E+01 0.336E+04   0.266E-08 -.400E-01 0.215E+01   -.164E-03 -.411E-01 0.276E+00
   -.646E+01 -.269E+00 -.335E+04   0.693E+01 0.406E+00 0.335E+04   -.601E+00 -.365E+00 0.169E+01   0.470E-01 0.387E-01 0.258E+00
   0.646E+01 -.269E+00 -.335E+04   -.693E+01 0.406E+00 0.335E+04   0.601E+00 -.365E+00 0.169E+01   -.461E-01 0.402E-01 0.257E+00
   -.289E+01 -.324E+01 -.334E+04   0.304E+01 0.348E+01 0.334E+04   -.413E+00 -.226E+00 0.250E+01   0.716E-01 0.857E-02 0.266E+00
   0.289E+01 -.324E+01 -.334E+04   -.304E+01 0.347E+01 0.334E+04   0.413E+00 -.226E+00 0.250E+01   -.720E-01 0.942E-02 0.265E+00
   -.324E+01 0.419E+01 -.335E+04   0.337E+01 -.459E+01 0.335E+04   -.250E+00 0.598E+00 0.164E+01   0.373E-01 -.300E-01 0.257E+00
   0.324E+01 0.420E+01 -.335E+04   -.337E+01 -.459E+01 0.335E+04   0.250E+00 0.598E+00 0.164E+01   -.345E-01 -.309E-01 0.257E+00
   -.159E-03 -.269E+01 -.337E+04   0.256E-03 0.260E+01 0.337E+04   -.629E-08 0.944E-01 0.258E+01   -.127E-01 0.139E-01 0.330E+00
   -.434E-04 -.163E+01 -.226E+04   0.102E-03 0.169E+01 0.226E+04   -.278E-08 0.417E-01 0.386E+01   0.133E-02 -.701E-02 0.237E-01
   0.221E+03 -.322E+00 -.167E+04   -.263E+03 0.312E+00 0.167E+04   0.426E+02 0.652E-02 -.642E+01   0.592E-02 0.180E-03 0.780E-01
   -.221E+03 -.322E+00 -.167E+04   0.263E+03 0.312E+00 0.167E+04   -.426E+02 0.652E-02 -.642E+01   -.569E-02 0.217E-03 0.778E-01
   -.864E-04 -.249E+00 0.223E+02   0.227E-12 0.470E-12 -.955E-11   -.172E-07 0.258E+00 -.166E+02   -.256E-01 -.112E-01 -.569E+01

 POSITION                                       TOTAL-FORCE (eV/Angst)
      0.00000      0.00000      5.37156         0.000000     -0.002138      0.017990
      2.56560      0.00000      5.37156         0.007845      0.020264      0.071815
      5.13119      0.00000      5.37156        -0.007845      0.020264      0.071815
      1.28280      2.22187      5.37156         0.024599     -0.005075      0.066962
      3.84839      2.22187      5.37156        -0.000000      0.000244      0.019963
      6.41399      2.22187      5.37156        -0.024599     -0.005075      0.066962
      2.56560      4.44374      5.37156         0.016343     -0.014340      0.067205
      5.13119      4.44374      5.37156        -0.016343     -0.014340      0.067205
      7.69679      4.44374      5.37156         0.000000     -0.000387      0.022997
      1.28280      0.74062      7.46636         0.007299      0.009886     -0.047683
      3.84839      0.74062      7.46636         0.000000     -0.082142     -0.124560
      6.41399      0.74062      7.46636        -0.007299      0.009886     -0.047683
      2.56560      2.96249      7.46636        -0.064978      0.037546     -0.112171
      5.13119      2.96249      7.46636         0.064978      0.037546     -0.112171
      7.69679      2.96249      7.46636         0.000000     -0.019173      0.016836
      3.84839      5.18437      7.46636         0.000000     -0.020446     -0.037375
      6.41399      5.18437      7.46636        -0.022016      0.011979      0.026378
      8.97958      5.18437      7.46636         0.022016      0.011979      0.026378
      7.69679      1.48657      9.56400         0.000000     -0.011617      0.024331
      2.55408      1.47460      9.52990         0.032742     -0.010233     -0.104324
      5.14271      1.47460      9.52990        -0.032742     -0.010233     -0.104324
      8.97350      3.70663      9.56526         0.036271     -0.019312      0.006577
      3.84839      3.71642      9.52990         0.000000     -0.051178     -0.072199
      6.42007      3.70663      9.56526        -0.036271     -0.019312      0.006577
     10.25777      5.92233      9.56400         0.005954      0.003353     -0.006798
      5.13580      5.92233      9.56400        -0.005954      0.003353     -0.006798
      7.69679      5.91797      9.56526        -0.000000      0.034760     -0.009399
      0.00000      0.00000     11.64184         0.000000     -0.031542     -0.050624
      2.56182      0.00242     11.67254        -0.080670     -0.188525     -0.147022
      5.13496      0.00242     11.67254         0.080670     -0.188525     -0.147022
      1.28301      2.21740     11.67254        -0.195148      0.017677     -0.109336
      6.41378      2.21740     11.67254         0.195148      0.017677     -0.109336
      2.56958      4.44580     11.67254        -0.087861      0.171717     -0.134876
      5.12721      4.44580     11.67254         0.087861      0.171717     -0.134876
      7.69679      4.44374     11.64035        -0.000000      0.025157     -0.030753
      3.84839      2.22187     11.57579        -0.000000      0.095941      1.101016
      3.27601      2.19838     13.90994         0.003284     -0.003677     -0.015839
      4.42078      2.19838     13.90994        -0.003284     -0.003677     -0.015839
    total drift:                               -0.025697     -0.002505     -0.009961

  FREE ENERGIE OF THE ION-ELECTRON SYSTEM (eV)
  free  energy   TOTEN  =      -148.04246782 eV

  energy  without entropy=     -148.04246782  energy(sigma->0) =     -148.04246782

 stress matrix after NEB project (eV)
     -4.68057      0.00000     -0.00000
      0.00000     -4.83577      0.17253
     -0.00000      0.17253      1.04453
  FORCES: max atom, RMS     0.016589    0.003806
  FORCE total and by dimension    0.023460    0.015839
  Stress total and by dimension    6.814908    4.835772
|           W    W    AA    RRRRR   N    N  II  N    N   GGGG   !!!           |
|           W    W   A  A   R    R  NN   N  II  NN   N  G    G  !!!           |
|           W    W  A    A  R    R  N N  N  II  N N  N  G       !!!           |
|           W WW W  AAAAAA  RRRRR   N  N N  II  N  N N  G  GGG   !            |
|           WW  WW  A    A  R   R   N   NN  II  N   NN  G    G                |
|           W    W  A    A  R    R  N    N  II  N    N   GGGG   !!!           |
|     Tetrahedron method does not include variations of the Fermi             |
|     occupations, so forces and stress will be inaccurate. We suggest        |
|     using a different smearing scheme ISMEAR = 1 or 2 for metals in         |
|     relaxations.                                                            |

 total charge

# of ion       s       p       d       tot
    1        0.448   0.284   9.188   9.920
    2        0.450   0.285   9.186   9.921
    3        0.450   0.285   9.186   9.921
    4        0.450   0.285   9.186   9.921
    5        0.446   0.288   9.180   9.915
    6        0.450   0.285   9.186   9.921
    7        0.450   0.284   9.186   9.921
    8        0.450   0.284   9.186   9.921
    9        0.447   0.283   9.190   9.920
   10        0.442   0.373   9.173   9.988
   11        0.444   0.364   9.185   9.994
   12        0.442   0.373   9.173   9.988
   13        0.444   0.365   9.185   9.994
   14        0.444   0.365   9.185   9.994
   15        0.437   0.369   9.179   9.984
   16        0.442   0.373   9.173   9.988
   17        0.437   0.369   9.179   9.984
   18        0.437   0.369   9.179   9.984
   19        0.440   0.368   9.182   9.990
   20        0.455   0.401   9.163  10.020
   21        0.455   0.401   9.163  10.020
   22        0.430   0.370   9.184   9.984
   23        0.455   0.405   9.160  10.020
   24        0.430   0.370   9.184   9.984
   25        0.442   0.368   9.181   9.991
   26        0.442   0.368   9.181   9.991
   27        0.431   0.369   9.185   9.985
   28        0.448   0.289   9.191   9.928
   29        0.459   0.310   9.179   9.947
   30        0.459   0.310   9.179   9.947
   31        0.454   0.310   9.179   9.944
   32        0.454   0.310   9.179   9.944
   33        0.458   0.310   9.178   9.947
   34        0.458   0.310   9.178   9.947
   35        0.440   0.293   9.190   9.923
   36        0.606   0.470   6.088   7.164
   37        1.358   2.445   0.000   3.803
   38        1.358   2.445   0.000   3.803
tot         18.943  17.107 327.410 363.460

 BZINTS: Fermi energy:    0.248827;  403.000000 electrons
         Band energy:-0.110277E+04;  BLOECHL correction:   -0.052582