 vasp.6.2.0 18Jan21 (build Jun 12 2021 23:27:24) complex

 executed on             LinuxIFC date 2022.05.27  05:21:50

 INCAR:
   ISMEAR = -5
   SIGMA = 0.1
   ISPIN = 1
   EDIFF = 1.d-5
   EDIFFG = -0.01
   NSW = 0
   NELM = 150
   ENCUT = 500
   ISIF = 2
   IBRION = 2
   LREAL = Auto
   ALGO = Fast
   ICHARG = 11
   LORBIT = 10
   LCHARG = .F.
   LWAVE = .F.

 POTCAR:    PAW_PBE Au 04Oct2007
 POTCAR:    PAW_PBE Os 17Jan2003
 POTCAR:    PAW_PBE H 15Jun2001
|           W    W    AA    RRRRR   N    N  II  N    N   GGGG   !!!           |
|           W    W   A  A   R    R  NN   N  II  NN   N  G    G  !!!           |
|           W    W  A    A  R    R  N N  N  II  N N  N  G       !!!           |
|           W WW W  AAAAAA  RRRRR   N  N N  II  N  N N  G  GGG   !            |
|           WW  WW  A    A  R   R   N   NN  II  N   NN  G    G                |
|           W    W  A    A  R    R  N    N  II  N    N   GGGG   !!!           |
|     For optimal performance we recommend to set                             |
|       NCORE = 2 up to number-of-cores-per-socket                            |
|     This setting can greatly improve the performance of VASP for DFT.       |
|     The default, NCORE=1 might be grossly inefficient on modern             |
|     multi-core architectures or massively parallel machines. Do your        |
|     Unfortunately you need to use the default for GW and RPA                |
|     calculations (for HF NCORE is supported but not extensively tested      |
|     yet).                                                                   |

 POTCAR:    PAW_PBE Au 04Oct2007
   VRHFIN =Au: s1d10

   TITEL  = PAW_PBE Au 04Oct2007
   POMASS =  196.966; ZVAL   =   11.000    mass and valenz
   ENMAX  =  229.943; ENMIN  =  172.457 eV

 POTCAR:    PAW_PBE Os 17Jan2003
   VRHFIN =Os: 6s5d

   TITEL  = PAW_PBE Os 17Jan2003
   POMASS =  190.200; ZVAL   =    8.000    mass and valenz
   ENMAX  =  228.022; ENMIN  =  171.017 eV

 POTCAR:    PAW_PBE H 15Jun2001
   VRHFIN =H: ultrasoft test

   TITEL  = PAW_PBE H 15Jun2001
   POMASS =    1.000; ZVAL   =    1.000    mass and valenz
   ENMAX  =  250.000; ENMIN  =  200.000 eV

 Optimization of the real space projectors (new method)

 maximal supplied QI-value         = 15.12
 optimisation between [QCUT,QGAM] = [ 11.34, 22.83] = [ 36.00,145.93] Ry
 Optimized for a Real-space Cutoff    1.39 Angstroem

   l    n(q)    QCUT    max X(q) W(low)/X(q) W(high)/X(q)  e(spline)
   2      9    11.338    60.898    0.39E-03    0.42E-03    0.21E-06
   2      9    11.338    58.894    0.40E-03    0.42E-03    0.22E-06
   0      9    11.338   109.617    0.13E-03    0.20E-04    0.13E-06
   0      9    11.338    75.026    0.13E-03    0.20E-04    0.13E-06
   1      9    11.338    16.344    0.33E-04    0.24E-03    0.18E-06
   1      9    11.338    10.160    0.26E-04    0.19E-03    0.15E-06
 Optimization of the real space projectors (new method)

[...]

   l    n(q)    QCUT    max X(q) W(low)/X(q) W(high)/X(q)  e(spline)
   2     10    11.327   152.873    0.32E-03    0.72E-03    0.11E-05
   2     10    11.327   151.010    0.32E-03    0.72E-03    0.11E-05
   0     11    11.327    72.114    0.43E-04    0.61E-04    0.13E-06
   0     11    11.327    44.596    0.40E-04    0.57E-04    0.12E-06
   1     10    11.327    13.742    0.16E-03    0.10E-03    0.19E-06
   1     10    11.327     8.461    0.12E-03    0.78E-04    0.15E-06
 Optimization of the real space projectors (new method)

 maximal supplied QI-value         = 34.20
 optimisation between [QCUT,QGAM] = [ 11.29, 22.57] = [ 35.68,142.71] Ry
 Optimized for a Real-space Cutoff    1.16 Angstroem

   l    n(q)    QCUT    max X(q) W(low)/X(q) W(high)/X(q)  e(spline)
   0      8    11.287    19.460    0.40E-03    0.73E-03    0.16E-06
   0      8    11.287    12.209    0.38E-03    0.70E-03    0.15E-06
   1      7    11.287     4.655    0.22E-03    0.25E-04    0.22E-06
  PAW_PBE Au 04Oct2007                  :
  PAW_PBE Os 17Jan2003                  :
  PAW_PBE H 15Jun2001                   :

 POSCAR: Au-Os-H2
  positions in direct lattice
  velocities in cartesian coordinates
 exchange correlation table for  LEXCH =        8
   RHO(1)=    0.500       N(1)  =     2000
   RHO(2)=  100.500       N(2)  =     4000

 VTST: version 3.2, (02/03/18)

 CHAIN: initializing optimizer

 OPT: Using VASP Conjugate-Gradient optimizer
 CHAIN: Read ICHAIN            0

 POSCAR: Au-Os-H2
  positions in direct lattice
  velocities in cartesian coordinates

 ion  position               nearest neighbor table
   1  0.000  0.000  0.238-  16 2.94  12 2.94   6 2.94   8 2.94   7 2.94   3 2.94  10 2.94   4 2.94
                             2 2.94
   2  0.333  0.000  0.238-   9 2.94  11 2.94  17 2.94  10 2.94   8 2.94   4 2.94   5 2.94   1 2.94
                             3 2.94
   3  0.667  0.000  0.238-   7 2.94  18 2.94  12 2.94   1 2.94  11 2.94   5 2.94   6 2.94   9 2.94
                             2 2.94
   4  0.000  0.333  0.238-  10 2.94   6 2.94   5 2.94  13 2.94   2 2.94  15 2.94   9 2.94   1 2.94
                             7 2.94
   5  0.333  0.333  0.238-  13 2.94   7 2.94  11 2.94   4 2.94   2 2.94  14 2.94   3 2.94   8 2.94
                             6 2.94
   6  0.667  0.333  0.238-  15 2.94  14 2.94   1 2.94  12 2.94   4 2.94   9 2.94   8 2.94   3 2.94
                             5 2.94
   7  0.000  0.667  0.238-  18 2.94   3 2.94  16 2.94   5 2.94   1 2.94  13 2.94   8 2.94   4 2.94
                             9 2.94
   8  0.333  0.667  0.238-   9 2.94  17 2.94   1 2.94   2 2.94  14 2.94  16 2.94   6 2.94   7 2.94
                             5 2.94
   9  0.667  0.667  0.238-   2 2.94   8 2.94  17 2.94   6 2.94  15 2.94   4 2.94   3 2.94  18 2.94
                             7 2.94
  10  0.111  0.111  0.346-  20 2.90  11 2.94  17 2.94   2 2.94   4 2.94   1 2.94  12 2.94  16 2.94
                            13 2.94  15 2.94  26 2.95  19 2.95
  11  0.444  0.111  0.346-  20 2.91  21 2.91  27 2.94  13 2.94   2 2.94  10 2.94  17 2.94   5 2.94
                             3 2.94  18 2.94  14 2.94  12 2.94
  12  0.778  0.111  0.346-  21 2.90  16 2.94  18 2.94   1 2.94  14 2.94  15 2.94   3 2.94   6 2.94
                            10 2.94  11 2.94  25 2.95  19 2.95
  13  0.111  0.444  0.346-  23 2.91  20 2.91  22 2.94   5 2.94  18 2.94  11 2.94   7 2.94   4 2.94
                            16 2.94  10 2.94  14 2.94  15 2.94
  14  0.444  0.444  0.346-  21 2.91  23 2.91  24 2.94  15 2.94   6 2.94  12 2.94   8 2.94  17 2.94
                             5 2.94  16 2.94  13 2.94  11 2.94
  15  0.778  0.444  0.346-  24 2.92  22 2.92  14 2.94   6 2.94  17 2.94  12 2.94   9 2.94   4 2.94
                            10 2.94  13 2.94  18 2.94  19 2.95
  16  0.111  0.778  0.346-  23 2.90  18 2.94  12 2.94   7 2.94   1 2.94   8 2.94  13 2.94  10 2.94
                            14 2.94  17 2.94  25 2.95  26 2.95
  17  0.444  0.778  0.346-  27 2.92  24 2.92   9 2.94  15 2.94   2 2.94  10 2.94  11 2.94   8 2.94
                            14 2.94  16 2.94  18 2.94  26 2.95
  18  0.778  0.778  0.346-  22 2.92  27 2.92  16 2.94   7 2.94  13 2.94  12 2.94   3 2.94  11 2.94
                             9 2.94  15 2.94  17 2.94  25 2.95
  19  0.888  0.223  0.455-  24 2.93  22 2.93  21 2.93  20 2.93  28 2.95  15 2.95  26 2.95  25 2.95
                            10 2.95  12 2.95  32 2.98  31 2.98
  20  0.222  0.222  0.452-  36 2.77  10 2.90  11 2.91  13 2.91  26 2.93  19 2.93  23 2.95  21 2.95
                            27 2.96  22 2.96  29 2.96  31 2.96
  21  0.556  0.222  0.452-  36 2.77  12 2.90  14 2.91  11 2.91  25 2.93  19 2.93  20 2.95  23 2.95
                            27 2.96  24 2.96  30 2.96  32 2.96
  22  0.886  0.557  0.453-  24 2.90  27 2.90  18 2.92  15 2.92  25 2.93  19 2.93  13 2.94  35 2.95
                            23 2.96  20 2.96  33 2.98  31 2.98
  23  0.222  0.556  0.452-  36 2.77  16 2.90  13 2.91  14 2.91  25 2.93  26 2.93  20 2.95  21 2.95
                            22 2.96  24 2.96  33 2.96  34 2.96
  24  0.557  0.557  0.453-  27 2.90  22 2.90  15 2.92  17 2.92  26 2.93  19 2.93  14 2.94  35 2.95
                            21 2.96  23 2.96  32 2.98  34 2.98
  25  0.888  0.888  0.455-  22 2.93  27 2.93  23 2.93  21 2.93  28 2.95  18 2.95  19 2.95  26 2.95
                            16 2.95  12 2.95  33 2.98  30 2.98
  26  0.223  0.888  0.455-  27 2.93  24 2.93  20 2.93  23 2.93  28 2.95  17 2.95  19 2.95  25 2.95
                            10 2.95  16 2.95  29 2.98  34 2.98
  27  0.557  0.886  0.453-  24 2.90  22 2.90  17 2.92  18 2.92  26 2.93  25 2.93  11 2.94  35 2.95
                            20 2.96  21 2.96  29 2.98  30 2.98
  28  0.000  0.000  0.563-  25 2.95  19 2.95  26 2.95  34 2.98  32 2.98  33 2.98  30 2.98  31 2.98
                            29 2.98
  29  0.333  0.009  0.563-  31 2.86  30 2.86  36 2.88  20 2.96  28 2.98  35 2.98  27 2.98  26 2.98
                            34 3.09
  30  0.658  0.009  0.563-  32 2.86  29 2.86  36 2.88  21 2.96  28 2.98  35 2.98  27 2.98  25 2.98
                            33 3.09
  31  0.009  0.333  0.563-  29 2.86  33 2.86  36 2.88  20 2.96  28 2.98  35 2.98  22 2.98  19 2.98
                            32 3.09
  32  0.658  0.333  0.563-  30 2.86  34 2.86  36 2.88  21 2.96  28 2.98  35 2.98  24 2.98  19 2.98
                            31 3.09
  33  0.009  0.658  0.563-  34 2.86  31 2.86  36 2.88  23 2.96  28 2.98  35 2.98  22 2.98  25 2.98
                            30 3.09
  34  0.333  0.658  0.563-  33 2.86  32 2.86  36 2.88  23 2.96  28 2.98  35 2.98  24 2.98  26 2.98
                            29 3.09
  35  0.667  0.667  0.563-  24 2.95  27 2.95  22 2.95  29 2.98  34 2.98  32 2.98  31 2.98  30 2.98
                            33 2.98
  36  0.333  0.333  0.550-  38 1.63  37 1.63  20 2.77  23 2.77  21 2.77  33 2.88  31 2.88  29 2.88
                            30 2.88  34 2.88  32 2.88
  37  0.250  0.321  0.615-  36 1.63
  38  0.429  0.321  0.615-  36 1.63

  LATTYP: Found a hexagonal cell.
 ALAT       =     8.8135128021
 C/A-ratio  =     2.5184286595

  Lattice vectors:

 A1 = (  -4.4067569092,  -7.6327256898,   0.0000000000)
 A2 = (   8.8135128021,   0.0000000000,   0.0000000000)
 A3 = (   0.0000000000,   0.0000000000,  22.1962032318)

Analysis of symmetry for initial positions (statically):
 Subroutine PRICEL returns:
 Original cell was already a primitive cell.

 Routine SETGRP: Setting up the symmetry group for a
 hexagonal supercell.

 Subroutine GETGRP returns: Found  2 space group operations
 (whereof  2 operations were pure point group operations)
 out of a pool of 24 trial point group operations.

The static configuration has the point symmetry C_1h.

Analysis of symmetry for dynamics (positions and initial velocities):
 Subroutine PRICEL returns:
 Original cell was already a primitive cell.

[...]

The dynamic configuration has the point symmetry C_1h.

Analysis of constrained symmetry for selective dynamics:
 Subroutine PRICEL returns:
 Original cell was already a primitive cell.

 Routine SETGRP: Setting up the symmetry group for a
 hexagonal supercell.

 Subroutine GETGRP returns: Found  2 space group operations
[...]
     33      -4.6993      2.00000
     34      -4.6916      2.00000
     35      -4.6253      2.00000
     36      -4.5912      2.00000
     37      -4.5591      2.00000
     38      -4.4801      2.00000
     39      -4.4556      2.00000
     40      -4.3993      2.00000
     41      -4.3611      2.00000
     42      -4.3444      2.00000
     43      -4.3278      2.00000
     44      -4.2814      2.00000
     45      -4.2431      2.00000
     46      -4.2342      2.00000
     47      -4.1440      2.00000
     48      -4.1121      2.00000
     49      -4.0897      2.00000
     50      -4.0769      2.00000
     51      -4.0688      2.00000
     52      -4.0500      2.00000
     53      -4.0356      2.00000
     54      -4.0231      2.00000
     55      -3.9672      2.00000
     56      -3.9376      2.00000
     57      -3.9237      2.00000
     58      -3.9128      2.00000
     59      -3.9054      2.00000
     60      -3.8866      2.00000
[...]
    238       6.6505      0.00000
    239       6.6993      0.00000
    240       6.8133      0.00000
    241       6.8591      0.00000
    242       6.9037      0.00000
    243       6.9644      0.00000
    244       7.1885      0.00000
    245       7.2703      0.00000
    246       7.4938      0.00000
    247       7.5450      0.00000
    248       7.5513      0.00000
    249       7.6250      0.00000
    250       7.6807      0.00000
    251       7.8650      0.00000
    252       7.9475      0.00000

 soft charge-density along one line, spin component           1
         0         1         2         3         4         5         6         7         8         9
 total charge-density along one line

------------------------ aborting loop because EDIFF is reached ----------------------------------------

 total charge

# of ion       s       p       d       tot
    1        0.545   0.238   8.769   9.552
    2        0.544   0.240   8.764   9.549
    3        0.544   0.240   8.764   9.549
    4        0.545   0.240   8.764   9.550
    5        0.545   0.242   8.759   9.546
    6        0.545   0.240   8.764   9.550
    7        0.545   0.240   8.765   9.550
    8        0.545   0.240   8.765   9.550
    9        0.541   0.239   8.770   9.550
   10        0.521   0.307   8.768   9.596
   11        0.525   0.306   8.781   9.612
   12        0.521   0.307   8.768   9.596
   13        0.523   0.307   8.779   9.609
   14        0.523   0.307   8.779   9.609
   15        0.514   0.308   8.775   9.598
   16        0.524   0.308   8.765   9.596
   17        0.513   0.309   8.776   9.598
   18        0.513   0.309   8.776   9.598
   19        0.514   0.299   8.773   9.587
   20        0.552   0.332   8.753   9.637
   21        0.552   0.332   8.753   9.637
   22        0.507   0.310   8.775   9.592
   23        0.555   0.338   8.743   9.635
   24        0.507   0.310   8.775   9.592
   25        0.517   0.298   8.774   9.589
   26        0.517   0.298   8.774   9.589
   27        0.506   0.308   8.778   9.592
   28        0.538   0.226   8.769   9.533
   29        0.548   0.248   8.755   9.551
   30        0.548   0.248   8.755   9.551
   31        0.539   0.260   8.750   9.549
   32        0.539   0.260   8.750   9.549
   33        0.551   0.248   8.751   9.551
   34        0.551   0.248   8.751   9.551
   35        0.533   0.226   8.770   9.528
   36        0.568   0.546   6.086   7.200
   37        0.504   0.025   0.000   0.529
   38        0.504   0.025   0.000   0.529
tot         20.228  10.314 312.886 343.429

  FORCE on cell =-STRESS in cart. coord.  units (eV):
  Direction    XX          YY          ZZ          XY          YZ          ZX
  Alpha Z  1017.50839  1017.50839  1017.50839
  Ewald  119167.01864119135.63624************    -0.00033    -1.97464    -0.00016
  Hartree127739.11415127731.04743************     0.00000     0.44180    -0.00004
  E(xc)   -1769.93199 -1770.07887 -1777.74230     0.00000    -0.04128    -0.00000
  Local  ************************259494.82767     0.00184     0.19939     0.00011
  n-local   -85.48807   -85.98933   -58.18713     5.45359     0.39438     0.30167
  augment  2383.05744  2383.21782  2399.11018    -0.00136     0.09909     0.00005
  Kinetic  5480.23715  5484.55483  5529.77284     1.88415     1.39676     0.13689
  Fock        0.00000     0.00000     0.00000     0.00000     0.00000     0.00000
  Total     -20.65097   -20.70654     3.49826    -0.00000     0.51551     0.00000
  in kB     -22.15867   -22.21829     3.75366    -0.00000     0.55315     0.00000

 VOLUME and BASIS-vectors are now :
  energy-cutoff  :      500.00
  volume of cell :     1493.16
      direct lattice vectors                 reciprocal lattice vectors
     8.813512802  0.000000000  0.000000000     0.113462137 -0.065507406  0.000000000
     4.406756909  7.632725690  0.000000000     0.000000000  0.131014796  0.000000000
     0.000000000  0.000000000 22.196203232     0.000000000  0.000000000  0.045052750

  length of vectors
     8.813512802  8.813512802 22.196203232     0.131014796  0.131014796  0.045052750

 FORCES acting on ions
    electron-ion (+dipol)            ewald-force                    non-local-force                 convergence-correction
   -.199E-04 -.221E-01 0.248E+04   0.520E-04 -.113E-01 -.247E+04   0.176E-08 0.265E-01 -.101E+01   -.202E-03 0.481E-02 -.247E+00
   0.650E+00 0.179E+00 0.248E+04   -.719E+00 -.297E+00 -.248E+04   0.530E-01 0.838E-01 -.283E+00   0.209E-01 0.501E-01 -.312E+00
   -.650E+00 0.179E+00 0.248E+04   0.719E+00 -.297E+00 -.248E+04   -.530E-01 0.838E-01 -.283E+00   -.206E-01 0.520E-01 -.312E+00
   0.480E+00 0.475E+00 0.248E+04   -.607E+00 -.473E+00 -.248E+04   0.103E+00 0.569E-02 -.302E+00   0.384E-01 -.121E-01 -.306E+00
   0.714E-05 -.190E-01 0.248E+04   0.951E-04 0.687E-02 -.248E+04   0.118E-08 0.177E-01 -.732E-01   0.430E-02 -.228E-02 -.299E+00
   -.480E+00 0.475E+00 0.248E+04   0.607E+00 -.473E+00 -.248E+04   -.103E+00 0.569E-02 -.302E+00   -.400E-01 -.111E-01 -.305E+00
   -.189E+00 -.652E+00 0.248E+04   0.112E+00 0.770E+00 -.248E+04   0.528E-01 -.974E-01 -.245E+00   0.386E-01 -.316E-01 -.305E+00
   0.189E+00 -.652E+00 0.248E+04   -.112E+00 0.770E+00 -.248E+04   -.528E-01 -.974E-01 -.245E+00   -.367E-01 -.327E-01 -.305E+00
   0.197E-04 0.354E-01 0.248E+04   0.166E-03 0.468E-02 -.248E+04   -.181E-08 -.271E-01 -.643E+00   -.464E-02 -.152E-01 -.324E+00
   0.728E+01 0.421E+01 0.818E+03   -.691E+01 -.405E+01 -.817E+03   -.378E+00 -.171E+00 -.707E+00   -.801E-02 -.376E-02 -.314E-01
   0.144E-04 0.394E+01 0.825E+03   0.148E-03 -.405E+01 -.825E+03   0.482E-08 0.725E-01 -.281E+00   0.380E-02 -.498E-01 -.538E-01
   -.728E+01 0.421E+01 0.818E+03   0.691E+01 -.405E+01 -.817E+03   0.378E+00 -.171E+00 -.707E+00   0.671E-02 -.227E-02 -.318E-01
   0.342E+01 -.197E+01 0.825E+03   -.345E+01 0.208E+01 -.825E+03   0.422E-01 -.833E-01 -.261E+00   -.548E-01 0.430E-02 -.657E-01
   -.342E+01 -.197E+01 0.825E+03   0.345E+01 0.208E+01 -.825E+03   -.422E-01 -.833E-01 -.261E+00   0.626E-01 0.386E-02 -.658E-01
   0.312E-04 0.491E+01 0.822E+03   0.236E-03 -.498E+01 -.822E+03   0.148E-08 0.222E-01 -.535E+00   -.240E-02 0.128E-02 -.198E-01
   -.214E-04 -.850E+01 0.818E+03   0.163E-03 0.795E+01 -.817E+03   0.329E-07 0.494E+00 -.769E+00   0.296E-03 0.438E-01 -.259E-01
   0.434E+01 -.247E+01 0.822E+03   -.438E+01 0.251E+01 -.821E+03   -.834E-03 -.131E-01 -.527E+00   -.925E-02 0.780E-02 -.266E-01
   -.434E+01 -.247E+01 0.822E+03   0.438E+01 0.251E+01 -.821E+03   0.834E-03 -.131E-01 -.527E+00   0.921E-02 0.973E-02 -.269E-01
   -.425E-04 0.398E+01 -.871E+03   0.541E-04 -.394E+01 0.870E+03   -.245E-08 -.369E-01 0.633E+00   -.499E-03 -.148E-01 0.244E+00
   0.671E+01 0.420E+01 -.829E+03   -.587E+01 -.357E+01 0.829E+03   -.905E+00 -.673E+00 -.104E+01   0.241E-02 -.432E-01 0.356E+00
   -.671E+01 0.420E+01 -.829E+03   0.587E+01 -.357E+01 0.829E+03   0.905E+00 -.673E+00 -.104E+01   -.147E-02 -.413E-01 0.356E+00
   -.616E+01 0.307E+01 -.853E+03   0.580E+01 -.287E+01 0.852E+03   0.426E+00 -.244E+00 0.636E+00   -.124E-02 0.805E-02 0.280E+00
   -.115E-04 -.867E+01 -.830E+03   0.141E-03 0.734E+01 0.831E+03   0.858E-07 0.129E+01 -.119E+01   0.172E-02 0.338E-01 0.406E+00
   0.616E+01 0.307E+01 -.853E+03   -.580E+01 -.287E+01 0.852E+03   -.426E+00 -.244E+00 0.636E+00   -.568E-02 0.855E-02 0.280E+00
   -.342E+01 -.151E+01 -.872E+03   0.340E+01 0.150E+01 0.871E+03   0.240E-01 0.175E-01 0.534E+00   -.315E-03 -.467E-02 0.298E+00
   0.342E+01 -.151E+01 -.872E+03   -.340E+01 0.150E+01 0.871E+03   -.240E-01 0.175E-01 0.534E+00   0.224E-02 -.608E-02 0.298E+00
   0.106E-04 -.697E+01 -.853E+03   0.199E-03 0.637E+01 0.852E+03   0.407E-07 0.612E+00 0.651E+00   -.440E-02 0.311E-01 0.318E+00
   -.111E-04 0.191E+01 -.248E+04   0.279E-04 -.175E+01 0.248E+04   -.843E-08 -.127E+00 0.629E+00   0.170E-03 -.599E-01 0.381E+00
   0.986E+01 0.217E+02 -.248E+04   -.922E+01 -.213E+02 0.247E+04   -.742E+00 -.720E+00 0.393E+00   0.590E-01 0.134E-01 0.340E+00
   -.986E+01 0.217E+02 -.248E+04   0.922E+01 -.213E+02 0.247E+04   0.742E+00 -.720E+00 0.393E+00   -.590E-01 0.152E-01 0.340E+00
   0.266E+02 -.147E+01 -.247E+04   -.264E+02 0.163E+01 0.247E+04   -.613E+00 -.136E+00 0.601E+00   0.103E+00 0.199E-01 0.334E+00
   -.266E+02 -.147E+01 -.247E+04   0.264E+02 0.163E+01 0.247E+04   0.613E+00 -.136E+00 0.601E+00   -.104E+00 0.210E-01 0.334E+00
   0.868E+01 -.188E+02 -.248E+04   -.816E+01 0.181E+02 0.248E+04   -.585E+00 0.967E+00 0.275E+00   0.122E-01 -.222E-01 0.344E+00
   -.868E+01 -.188E+02 -.248E+04   0.816E+01 0.181E+02 0.248E+04   0.585E+00 0.967E+00 0.275E+00   -.101E-01 -.228E-01 0.343E+00
   0.317E-04 -.102E+01 -.248E+04   0.144E-03 0.870E+00 0.248E+04   0.693E-08 0.104E+00 0.689E+00   -.471E-02 0.496E-01 0.344E+00
   -.173E-04 -.476E+01 -.165E+04   0.836E-04 0.483E+01 0.165E+04   0.176E-07 0.265E+00 -.180E+01   0.148E-02 -.116E-01 0.260E+00
   0.664E+01 0.224E+00 -.283E+03   -.779E+01 -.352E+00 0.285E+03   0.116E+01 0.129E+00 -.231E+01   0.344E-02 -.267E-02 -.609E-02
   -.664E+01 0.224E+00 -.283E+03   0.779E+01 -.352E+00 0.285E+03   -.116E+01 0.129E+00 -.231E+01   -.333E-02 -.264E-02 -.621E-02
   -.780E-03 -.825E+00 0.791E+01   -.124E-13 0.177E-12 0.114E-11   0.559E-07 0.840E+00 -.102E+02   -.762E-03 -.142E-01 0.278E+01

 POSITION                                       TOTAL-FORCE (eV/Angst)
      0.00000      0.00000      5.28038        -0.000000     -0.002113     -0.131327
      2.93784      0.00000      5.28038         0.005207      0.016879     -0.063108
      5.87568      0.00000      5.28038        -0.005207      0.016879     -0.063108
      1.46892      2.54424      5.28038         0.015043     -0.003651     -0.062790
      4.40676      2.54424      5.28038         0.000000      0.003294     -0.101279
      7.34459      2.54424      5.28038        -0.015043     -0.003651     -0.062790
      2.93784      5.08848      5.28038         0.013435     -0.011235     -0.066390
      5.87568      5.08848      5.28038        -0.013435     -0.011235     -0.066390
      8.81351      5.08848      5.28038        -0.000000     -0.002207     -0.080397
      1.46892      0.84808      7.67911        -0.017273     -0.009675      0.143431
      4.40676      0.84808      7.67911        -0.000000     -0.078404      0.013350
      7.34459      0.84808      7.67911         0.017273     -0.009675      0.143431
      2.93784      3.39232      7.67911        -0.046958      0.030044      0.044304
      5.87568      3.39232      7.67911         0.046958      0.030044      0.044304
      8.81351      3.39232      7.67911        -0.000000     -0.052750      0.105512
      4.40676      5.93656      7.67911        -0.000000     -0.006738      0.163690
      7.34459      5.93656      7.67911        -0.052435      0.035430      0.112322
     10.28243      5.93656      7.67911         0.052435      0.035430      0.112322
      8.81351      1.70311     10.09495        -0.000000     -0.016127      0.028066
      2.93286      1.69329     10.03570        -0.063536     -0.089492     -0.260387
      5.88065      1.69329     10.03570         0.063536     -0.089492     -0.260387
     10.26497      4.25049     10.06286         0.064616     -0.031973     -0.003157
      4.40676      4.24615     10.03570        -0.000000     -0.008033     -0.176423
      7.36206      4.25049     10.06286        -0.064616     -0.031973     -0.003157
     11.74534      6.78117     10.09495        -0.001613      0.006844     -0.003277
      5.88169      6.78117     10.09495         0.001613      0.006844     -0.003277
      8.81351      6.76448     10.06286         0.000000      0.042007     -0.008306
      0.00000      0.00000     12.49897        -0.000000     -0.026881     -0.055729
      2.97514      0.06495     12.50272        -0.048366     -0.261296     -0.114896
      5.83837      0.06495     12.50272         0.048366     -0.261296     -0.114896
      1.54382      2.54408     12.50272        -0.313151      0.042640     -0.097641
      7.26969      2.54408     12.50272         0.313151      0.042640     -0.097641
      2.97543      5.02370     12.50272        -0.053556      0.188480     -0.052213
      5.83808      5.02370     12.50272         0.053556      0.188480     -0.052213
      8.81351      5.08848     12.49601        -0.000000     -0.000020     -0.017824
      4.40676      2.54424     12.21487         0.000000      0.324862      1.121952
      3.61757      2.44971     13.64212         0.010109     -0.001441     -0.006840
      5.19594      2.44971     13.64212        -0.010109     -0.001441     -0.006840
    total drift:                               -0.001542      0.000516      0.528580

  FREE ENERGIE OF THE ION-ELECTRON SYSTEM (eV)
  free  energy   TOTEN  =      -122.95245493 eV

  energy  without entropy=     -122.95245493  energy(sigma->0) =     -122.95245493

 stress matrix after NEB project (eV)
    -20.65097     -0.00000      0.00000
     -0.00000    -20.70654      0.51551
      0.00000      0.51551      3.49826
  FORCES: max atom, RMS     0.012290    0.002820
  FORCE total and by dimension    0.017381    0.010109
  Stress total and by dimension   29.461713   20.706537
|           W    W    AA    RRRRR   N    N  II  N    N   GGGG   !!!           |
|           W    W   A  A   R    R  NN   N  II  NN   N  G    G  !!!           |
|           W    W  A    A  R    R  N N  N  II  N N  N  G       !!!           |
|           W WW W  AAAAAA  RRRRR   N  N N  II  N  N N  G  GGG   !            |
|           WW  WW  A    A  R   R   N   NN  II  N   NN  G    G                |
|           W    W  A    A  R    R  N    N  II  N    N   GGGG   !!!           |
|     Tetrahedron method does not include variations of the Fermi             |
|     occupations, so forces and stress will be inaccurate. We suggest        |
|     using a different smearing scheme ISMEAR = 1 or 2 for metals in         |
|     relaxations.                                                            |

 total charge

# of ion       s       p       d       tot
    1        0.545   0.238   8.769   9.552
    2        0.544   0.240   8.764   9.549
    3        0.544   0.240   8.764   9.549
    4        0.545   0.240   8.764   9.550
    5        0.545   0.242   8.759   9.546
    6        0.545   0.240   8.764   9.550
    7        0.545   0.240   8.765   9.550
    8        0.545   0.240   8.765   9.550
    9        0.541   0.239   8.770   9.550
   10        0.521   0.307   8.768   9.596
   11        0.525   0.306   8.781   9.612
   12        0.521   0.307   8.768   9.596
   13        0.523   0.307   8.779   9.609
   14        0.523   0.307   8.779   9.609
   15        0.514   0.308   8.775   9.598
   16        0.524   0.308   8.765   9.596
   17        0.513   0.309   8.776   9.598
   18        0.513   0.309   8.776   9.598
   19        0.514   0.299   8.773   9.587
   20        0.552   0.332   8.753   9.637
   21        0.552   0.332   8.753   9.637
   22        0.507   0.310   8.775   9.592
   23        0.555   0.338   8.743   9.635
   24        0.507   0.310   8.775   9.592
   25        0.517   0.298   8.774   9.589
   26        0.517   0.298   8.774   9.589
   27        0.506   0.308   8.778   9.592
   28        0.538   0.226   8.769   9.533
   29        0.548   0.248   8.755   9.551
   30        0.548   0.248   8.755   9.551
   31        0.539   0.260   8.750   9.549
   32        0.539   0.260   8.750   9.549
   33        0.551   0.248   8.751   9.551
   34        0.551   0.248   8.751   9.551
   35        0.533   0.226   8.770   9.528
   36        0.568   0.546   6.086   7.200
   37        0.504   0.025   0.000   0.529
   38        0.504   0.025   0.000   0.529
tot         20.228  10.314 312.886 343.429

 BZINTS: Fermi energy:    0.719518;  395.000000 electrons
         Band energy:-0.117852E+04;  BLOECHL correction:   -0.076376