 vasp.6.2.0 18Jan21 (build Jun 12 2021 23:27:24) complex

 executed on             LinuxIFC date 2022.05.27  05:40:05

 INCAR:
   ISMEAR = -5
   SIGMA = 0.1
   ISPIN = 1
   EDIFF = 1.d-5
   EDIFFG = -0.01
   NSW = 0
   NELM = 150
   ENCUT = 500
   ISIF = 2
   IBRION = 2
   LREAL = Auto
   ALGO = Fast
   ICHARG = 11
   LORBIT = 10
   LCHARG = .F.
   LWAVE = .F.

 POTCAR:    PAW_PBE Ag 02Apr2005
 POTCAR:    PAW_PBE Nb_sv 25May2007
 POTCAR:    PAW_PBE H 15Jun2001
|           W    W    AA    RRRRR   N    N  II  N    N   GGGG   !!!           |
|           W    W   A  A   R    R  NN   N  II  NN   N  G    G  !!!           |
|           W    W  A    A  R    R  N N  N  II  N N  N  G       !!!           |
|           W WW W  AAAAAA  RRRRR   N  N N  II  N  N N  G  GGG   !            |
|           WW  WW  A    A  R   R   N   NN  II  N   NN  G    G                |
|           W    W  A    A  R    R  N    N  II  N    N   GGGG   !!!           |
|     For optimal performance we recommend to set                             |
|       NCORE = 2 up to number-of-cores-per-socket                            |
|     This setting can greatly improve the performance of VASP for DFT.       |
|     The default, NCORE=1 might be grossly inefficient on modern             |
|     multi-core architectures or massively parallel machines. Do your        |
|     Unfortunately you need to use the default for GW and RPA                |
|     calculations (for HF NCORE is supported but not extensively tested      |
|     yet).                                                                   |

 POTCAR:    PAW_PBE Ag 02Apr2005
   VRHFIN =Ag : s1 d10

   TITEL  = PAW_PBE Ag 02Apr2005
   POMASS =  107.868; ZVAL   =   11.000    mass and valenz
   ENMAX  =  249.844; ENMIN  =  187.383 eV

 POTCAR:    PAW_PBE Nb_sv 25May2007
   VRHFIN =Nb: 4p5s4d

   TITEL  = PAW_PBE Nb_sv 25May2007
   POMASS =   92.910; ZVAL   =   13.000    mass and valenz
   ENMAX  =  293.235; ENMIN  =  219.927 eV

 POTCAR:    PAW_PBE H 15Jun2001
   VRHFIN =H: ultrasoft test

   TITEL  = PAW_PBE H 15Jun2001
   POMASS =    1.000; ZVAL   =    1.000    mass and valenz
   ENMAX  =  250.000; ENMIN  =  200.000 eV

 Optimization of the real space projectors (new method)

 maximal supplied QI-value         = 15.12
 optimisation between [QCUT,QGAM] = [ 11.34, 22.83] = [ 36.00,145.93] Ry
 Optimized for a Real-space Cutoff    1.43 Angstroem

   l    n(q)    QCUT    max X(q) W(low)/X(q) W(high)/X(q)  e(spline)
   2      9    11.338    53.897    0.16E-03    0.20E-03    0.28E-06
   2      9    11.338    52.416    0.16E-03    0.20E-03    0.29E-06
   0     10    11.338   122.045    0.31E-04    0.76E-04    0.15E-06
   0     10    11.338    73.629    0.30E-04    0.72E-04    0.15E-06
   1      9    11.338    15.255    0.20E-03    0.19E-04    0.17E-06
   1      9    11.338     9.562    0.16E-03    0.15E-04    0.14E-06
 Optimization of the real space projectors (new method)

[...]

   l    n(q)    QCUT    max X(q) W(low)/X(q) W(high)/X(q)  e(spline)
   0     11    11.450    10.201    0.21E-04    0.96E-05    0.78E-07
   0     11    11.450     8.174    0.31E-04    0.18E-04    0.14E-06
   1     10    11.450     3.488    0.27E-04    0.12E-04    0.96E-07
   1     10    11.450     4.917    0.11E-03    0.11E-03    0.37E-06
   2     10    11.450   153.744    0.37E-03    0.81E-03    0.10E-05
   2     10    11.450   126.342    0.37E-03    0.81E-03    0.10E-05
 Optimization of the real space projectors (new method)

 maximal supplied QI-value         = 34.20
 optimisation between [QCUT,QGAM] = [ 11.29, 22.57] = [ 35.68,142.71] Ry
 Optimized for a Real-space Cutoff    1.16 Angstroem

   l    n(q)    QCUT    max X(q) W(low)/X(q) W(high)/X(q)  e(spline)
   0      8    11.287    19.460    0.40E-03    0.73E-03    0.16E-06
   0      8    11.287    12.209    0.38E-03    0.70E-03    0.15E-06
   1      7    11.287     4.655    0.22E-03    0.25E-04    0.22E-06
  PAW_PBE Ag 02Apr2005                  :
  PAW_PBE Nb_sv 25May2007               :
  PAW_PBE H 15Jun2001                   :

 POSCAR: Ag-Nb-H2
  positions in direct lattice
  velocities in cartesian coordinates
 exchange correlation table for  LEXCH =        8
   RHO(1)=    0.500       N(1)  =     2000
   RHO(2)=  100.500       N(2)  =     4000

 VTST: version 3.2, (02/03/18)

 CHAIN: initializing optimizer

 OPT: Using VASP Conjugate-Gradient optimizer
 CHAIN: Read ICHAIN            0

 POSCAR: Ag-Nb-H2
  positions in direct lattice
  velocities in cartesian coordinates

 ion  position               nearest neighbor table
   1  0.000  0.000  0.221-   2 2.93   8 2.93   7 2.93   6 2.93   4 2.93  12 2.93  16 2.93  10 2.93
                             3 2.93
   2  0.333  0.000  0.221-   1 2.93   8 2.93   9 2.93   3 2.93   4 2.93   5 2.93  10 2.93  17 2.93
                            11 2.93
   3  0.667  0.000  0.221-   9 2.93   2 2.93   5 2.93  11 2.93   7 2.93  18 2.93   1 2.93   6 2.93
                            12 2.93
   4  0.000  0.333  0.221-   5 2.93   6 2.93   2 2.93   1 2.93   7 2.93  13 2.93  15 2.93   9 2.93
                            10 2.93
   5  0.333  0.333  0.221-   4 2.93   3 2.93   7 2.93   2 2.93   8 2.93  14 2.93  13 2.93  11 2.93
                             6 2.93
   6  0.667  0.333  0.221-   4 2.93   9 2.93   1 2.93  15 2.93   8 2.93  12 2.93   3 2.93   5 2.93
                            14 2.93
   7  0.000  0.667  0.221-   8 2.93   1 2.93   5 2.93   3 2.93   4 2.93  16 2.93  18 2.93  13 2.93
                             9 2.93
   8  0.333  0.667  0.221-   7 2.93   1 2.93   2 2.93   9 2.93   5 2.93  16 2.93   6 2.93  17 2.93
                            14 2.93
   9  0.667  0.667  0.221-   3 2.93   2 2.93   8 2.93   6 2.93  17 2.93   4 2.93  15 2.93   7 2.93
                            18 2.93
  10  0.111  0.111  0.321-  20 2.90  19 2.93  26 2.93  12 2.93  16 2.93  15 2.93  17 2.93  13 2.93
                            11 2.93   2 2.93   1 2.93   4 2.93
  11  0.444  0.111  0.321-  21 2.90  20 2.90  14 2.93  17 2.93  18 2.93   3 2.93  12 2.93  13 2.93
                            10 2.93   5 2.93   2 2.93  27 2.93
  12  0.778  0.111  0.321-  21 2.90  25 2.93  19 2.93  10 2.93  16 2.93  18 2.93  15 2.93  11 2.93
                             1 2.93  14 2.93   6 2.93   3 2.93
  13  0.111  0.444  0.321-  20 2.90  23 2.90  15 2.93  14 2.93  18 2.93  10 2.93  11 2.93  16 2.93
                             4 2.93   5 2.93   7 2.93  22 2.93
  14  0.444  0.444  0.321-  23 2.90  21 2.90  13 2.93  11 2.93  16 2.93   5 2.93  12 2.93  17 2.93
                             8 2.93  15 2.93   6 2.93  24 2.93
  15  0.778  0.444  0.321-  19 2.93  13 2.93  10 2.93  12 2.93  17 2.93  18 2.93   4 2.93   6 2.93
                             9 2.93  14 2.93  24 2.93  22 2.93
  16  0.111  0.778  0.321-  23 2.90  26 2.93  25 2.93  18 2.93  12 2.93  10 2.93  14 2.93  17 2.93
                            13 2.93   7 2.93   8 2.93   1 2.93
  17  0.444  0.778  0.321-  26 2.93  11 2.93  10 2.93   9 2.93  18 2.93  15 2.93  16 2.93   2 2.93
                            14 2.93   8 2.93  27 2.93  24 2.93
  18  0.778  0.778  0.321-  25 2.93  16 2.93  12 2.93  13 2.93  11 2.93  17 2.93  15 2.93   7 2.93
                             3 2.93   9 2.93  22 2.93  27 2.93
  19  0.889  0.222  0.421-  15 2.93  10 2.93  12 2.93  20 2.93  21 2.93  28 2.93  24 2.93  22 2.93
                            26 2.93  25 2.93  32 2.97  31 2.97
  20  0.222  0.222  0.420-  36 2.82  10 2.90  13 2.90  11 2.90  19 2.93  26 2.93  27 2.93  22 2.93
                            21 2.94  23 2.94  31 2.97  29 2.97
  21  0.556  0.222  0.420-  36 2.82  12 2.90  11 2.90  14 2.90  25 2.93  19 2.93  27 2.93  24 2.93
                            20 2.94  23 2.94  30 2.97  32 2.97
  22  0.889  0.556  0.422-  24 2.93  27 2.93  25 2.93  19 2.93  18 2.93  15 2.93  23 2.93  20 2.93
                            35 2.93  13 2.93  33 2.95  31 2.95
  23  0.222  0.556  0.420-  36 2.82  16 2.90  14 2.90  13 2.90  26 2.93  25 2.93  22 2.93  24 2.93
                            21 2.94  20 2.94  34 2.97  33 2.97
  24  0.556  0.556  0.422-  27 2.93  22 2.93  19 2.93  26 2.93  15 2.93  17 2.93  23 2.93  21 2.93
                            35 2.93  14 2.93  32 2.95  34 2.95
  25  0.889  0.889  0.421-  18 2.93  16 2.93  12 2.93  23 2.93  21 2.93  28 2.93  22 2.93  27 2.93
                            26 2.93  19 2.93  33 2.97  30 2.97
  26  0.222  0.889  0.421-  17 2.93  16 2.93  10 2.93  23 2.93  20 2.93  28 2.93  27 2.93  24 2.93
                            25 2.93  19 2.93  34 2.97  29 2.97
  27  0.556  0.889  0.422-  24 2.93  22 2.93  26 2.93  25 2.93  17 2.93  18 2.93  20 2.93  21 2.93
                            35 2.93  11 2.93  29 2.95  30 2.95
  28  0.000  0.000  0.521-  26 2.93  25 2.93  19 2.93  29 2.95  34 2.95  33 2.95  32 2.95  31 2.95
                            30 2.95
  29  0.333  0.004  0.523-  30 2.90  31 2.90  36 2.91  35 2.95  28 2.95  27 2.95  20 2.97  26 2.97
                            34 2.99
  30  0.663  0.004  0.523-  29 2.90  32 2.90  36 2.91  35 2.95  28 2.95  27 2.95  21 2.97  25 2.97
                            33 2.99
  31  0.004  0.333  0.523-  33 2.90  29 2.90  36 2.91  35 2.95  28 2.95  22 2.95  20 2.97  19 2.97
                            32 2.99
  32  0.663  0.333  0.523-  34 2.90  30 2.90  36 2.91  35 2.95  28 2.95  24 2.95  21 2.97  19 2.97
                            31 2.99
  33  0.004  0.663  0.523-  31 2.90  34 2.90  36 2.91  35 2.95  28 2.95  22 2.95  23 2.97  25 2.97
                            30 2.99
  34  0.333  0.663  0.523-  32 2.90  33 2.90  36 2.91  35 2.95  28 2.95  24 2.95  23 2.97  26 2.97
                            29 2.99
  35  0.667  0.667  0.522-  24 2.93  27 2.93  22 2.93  30 2.95  29 2.95  32 2.95  34 2.95  31 2.95
                            33 2.95
  36  0.333  0.333  0.515-  37 1.92  38 1.92  21 2.82  20 2.82  23 2.82  31 2.91  33 2.91  30 2.91
                            29 2.91  34 2.91  32 2.91
  37  0.283  0.335  0.593-  38 0.87  36 1.92
  38  0.382  0.335  0.593-  37 0.87  36 1.92

  LATTYP: Found a hexagonal cell.
 ALAT       =     8.7913665772
 C/A-ratio  =     2.7161239332

  Lattice vectors:

 A1 = (  -4.3956832886,  -7.6135467898,   0.0000000000)
 A2 = (   8.7913665771,   0.0000000000,   0.0000000000)
 A3 = (   0.0000000000,   0.0000000000,  23.8784411658)

Analysis of symmetry for initial positions (statically):
 Subroutine PRICEL returns:
 Original cell was already a primitive cell.

 Routine SETGRP: Setting up the symmetry group for a
 hexagonal supercell.

 Subroutine GETGRP returns: Found  2 space group operations
 (whereof  2 operations were pure point group operations)
 out of a pool of 24 trial point group operations.

The static configuration has the point symmetry C_1h.

Analysis of symmetry for dynamics (positions and initial velocities):
 Subroutine PRICEL returns:
 Original cell was already a primitive cell.

[...]

The dynamic configuration has the point symmetry C_1h.

Analysis of constrained symmetry for selective dynamics:
 Subroutine PRICEL returns:
 Original cell was already a primitive cell.

 Routine SETGRP: Setting up the symmetry group for a
 hexagonal supercell.

 Subroutine GETGRP returns: Found  2 space group operations
[...]
     33      -4.8610      2.00000
     34      -4.8600      2.00000
     35      -4.8253      2.00000
     36      -4.8207      2.00000
     37      -4.7969      2.00000
     38      -4.7739      2.00000
     39      -4.7520      2.00000
     40      -4.7331      2.00000
     41      -4.7109      2.00000
     42      -4.6711      2.00000
     43      -4.6412      2.00000
     44      -4.6359      2.00000
     45      -4.6274      2.00000
     46      -4.6239      2.00000
     47      -4.6064      2.00000
     48      -4.5051      2.00000
     49      -4.4861      2.00000
     50      -4.4742      2.00000
     51      -4.4697      2.00000
     52      -4.4647      2.00000
     53      -4.4601      2.00000
     54      -4.4560      2.00000
     55      -4.4455      2.00000
     56      -4.4424      2.00000
     57      -4.4289      2.00000
     58      -4.3617      2.00000
     59      -4.3538      2.00000
     60      -4.3449      2.00000
[...]
    226       4.6114      0.00000
    227       4.6468      0.00000
    228       5.1710      0.00000
    229       5.2197      0.00000
    230       5.2439      0.00000
    231       5.3118      0.00000
    232       5.3662      0.00000
    233       5.4714      0.00000
    234       5.5438      0.00000
    235       5.5756      0.00000
    236       5.5849      0.00000
    237       5.8404      0.00000
    238       5.8819      0.00000
    239       5.9375      0.00000
    240       6.0034      0.00000

 soft charge-density along one line, spin component           1
         0         1         2         3         4         5         6         7         8         9
 total charge-density along one line

------------------------ aborting loop because EDIFF is reached ----------------------------------------

 total charge

# of ion       s       p       d       tot
    1        0.420   0.200   9.179   9.798
    2        0.415   0.204   9.177   9.796
    3        0.415   0.204   9.177   9.796
    4        0.415   0.203   9.178   9.796
    5        0.423   0.201   9.174   9.798
    6        0.415   0.203   9.178   9.796
    7        0.413   0.204   9.178   9.795
    8        0.413   0.204   9.178   9.795
    9        0.415   0.201   9.179   9.796
   10        0.411   0.268   9.161   9.840
   11        0.409   0.265   9.169   9.844
   12        0.411   0.268   9.161   9.840
   13        0.408   0.265   9.169   9.843
   14        0.408   0.265   9.169   9.843
   15        0.403   0.268   9.163   9.834
   16        0.412   0.269   9.160   9.841
   17        0.403   0.268   9.164   9.835
   18        0.403   0.268   9.164   9.835
   19        0.402   0.264   9.165   9.831
   20        0.443   0.299   9.134   9.877
   21        0.443   0.299   9.134   9.877
   22        0.391   0.271   9.166   9.829
   23        0.449   0.297   9.134   9.880
   24        0.391   0.271   9.166   9.829
   25        0.403   0.263   9.166   9.832
   26        0.403   0.263   9.166   9.832
   27        0.393   0.270   9.168   9.831
   28        0.405   0.201   9.176   9.782
   29        0.446   0.217   9.151   9.814
   30        0.446   0.217   9.151   9.814
   31        0.441   0.219   9.152   9.811
   32        0.441   0.219   9.152   9.811
   33        0.445   0.217   9.152   9.814
   34        0.445   0.217   9.152   9.814
   35        0.404   0.202   9.178   9.784
   36        2.170   5.977   2.408  10.555
   37        0.549   0.028   0.000   0.577
   38        0.549   0.028   0.000   0.577
tot         17.869  14.470 323.152 355.491

  FORCE on cell =-STRESS in cart. coord.  units (eV):
  Direction    XX          YY          ZZ          XY          YZ          ZX
  Alpha Z   707.24468   707.24468   707.24468
  Ewald  147578.92056147555.88334************     0.00003     0.68642     0.00001
  Hartree157726.00536157717.46396************     0.00001     0.13585     0.00001
  E(xc)   -2093.48643 -2093.80553 -2099.48581    -0.00002     0.00209     0.00000
  Local  ************************317004.63823     0.00028    -0.25305    -0.00006
  n-local  -326.74971  -326.48004  -323.30979     2.22884    -0.02245     0.10984
  augment  3238.20555  3237.73284  3252.78202    -0.00014    -0.02954     0.00003
  Kinetic  5024.11378  5025.33655  5061.87896     1.31403    -0.58582     0.10998
  Fock        0.00000     0.00000     0.00000     0.00000     0.00000     0.00000
  Total      -8.51374    -8.62209     0.45738    -0.00000    -0.06650    -0.00000
  in kB      -8.53456    -8.64318     0.45850    -0.00000    -0.06666    -0.00000

 VOLUME and BASIS-vectors are now :
  energy-cutoff  :      500.00
  volume of cell :     1598.27
      direct lattice vectors                 reciprocal lattice vectors
     8.791366577  0.000000000  0.000000000     0.113747958 -0.065672414  0.000000000
     4.395683289  7.613546790  0.000000000     0.000000000  0.131344829  0.000000000
     0.000000000  0.000000000 23.878441166     0.000000000  0.000000000  0.041878781

  length of vectors
     8.791366577  8.791366577 23.878441166     0.131344829  0.131344829  0.041878781

 FORCES acting on ions
    electron-ion (+dipol)            ewald-force                    non-local-force                 convergence-correction
   0.461E-04 0.462E-01 0.266E+04   -.954E-04 -.121E-02 -.266E+04   -.795E-13 -.121E-01 -.199E+01   -.129E-03 -.352E-01 0.599E-01
   0.182E+00 0.897E+00 0.266E+04   -.321E+00 -.965E+00 -.266E+04   0.157E+00 0.191E+00 -.152E+01   -.170E-01 -.117E+00 0.129E+00
   -.182E+00 0.897E+00 0.266E+04   0.321E+00 -.965E+00 -.266E+04   -.157E+00 0.191E+00 -.152E+01   0.165E-01 -.115E+00 0.130E+00
   0.897E+00 -.246E+00 0.266E+04   -.996E+00 0.203E+00 -.266E+04   0.197E+00 -.202E-01 -.155E+01   -.894E-01 0.581E-01 0.165E+00
   -.714E-05 -.125E+00 0.266E+04   0.980E-04 -.737E-03 -.266E+04   0.279E-12 0.424E-01 -.962E+00   0.630E-02 0.759E-01 0.309E+00
   -.897E+00 -.246E+00 0.266E+04   0.995E+00 0.203E+00 -.266E+04   -.197E+00 -.202E-01 -.155E+01   0.880E-01 0.591E-01 0.166E+00
   0.574E+00 -.599E+00 0.266E+04   -.674E+00 0.762E+00 -.266E+04   0.149E+00 -.202E+00 -.155E+01   -.517E-01 0.393E-01 0.812E-01
   -.574E+00 -.599E+00 0.266E+04   0.674E+00 0.762E+00 -.266E+04   -.149E+00 -.202E+00 -.155E+01   0.534E-01 0.383E-01 0.814E-01
   0.362E-04 0.100E-01 0.266E+04   0.792E-04 0.192E-02 -.265E+04   0.280E-13 0.426E-02 -.179E+01   -.670E-02 -.148E-01 0.857E-01
   0.565E+01 0.326E+01 0.915E+03   -.528E+01 -.306E+01 -.914E+03   -.388E+00 -.232E+00 -.802E+00   -.844E-02 0.222E-01 0.688E-01
   -.285E-04 0.920E+01 0.922E+03   0.410E-04 -.924E+01 -.922E+03   0.559E-12 0.851E-01 -.562E-01   0.640E-02 -.804E-01 0.337E-01
   -.565E+01 0.326E+01 0.915E+03   0.528E+01 -.306E+01 -.914E+03   0.388E+00 -.232E+00 -.802E+00   0.656E-02 0.237E-01 0.693E-01
   0.792E+01 -.454E+01 0.922E+03   -.799E+01 0.462E+01 -.922E+03   0.150E+00 -.728E-01 -.124E+00   -.104E+00 0.220E-01 0.264E-02
   -.792E+01 -.454E+01 0.922E+03   0.799E+01 0.462E+01 -.922E+03   -.150E+00 -.728E-01 -.124E+00   0.115E+00 0.213E-01 0.281E-02
   0.160E-04 -.241E+01 0.910E+03   -.109E-03 0.228E+01 -.909E+03   0.503E-12 0.765E-01 -.776E+00   -.202E-02 0.262E-01 0.276E-01
   -.816E-05 -.665E+01 0.915E+03   0.207E-04 0.610E+01 -.914E+03   0.341E-11 0.520E+00 -.712E+00   0.334E-03 0.529E-01 0.142E-01
   -.215E+01 0.121E+01 0.910E+03   0.197E+01 -.113E+01 -.909E+03   0.109E+00 -.397E-01 -.735E+00   0.524E-01 -.411E-01 0.198E-01
   0.215E+01 0.121E+01 0.910E+03   -.197E+01 -.113E+01 -.909E+03   -.109E+00 -.397E-01 -.735E+00   -.525E-01 -.389E-01 0.202E-01
   0.412E-04 -.407E+00 -.866E+03   -.131E-03 0.413E+00 0.865E+03   0.428E-12 0.652E-01 0.846E+00   -.187E-02 -.651E-01 -.677E-01
   0.399E+02 0.229E+02 -.802E+03   -.381E+02 -.221E+02 0.803E+03   -.147E+01 -.666E+00 -.130E+01   -.384E+00 -.136E+00 -.343E+00
   -.399E+02 0.229E+02 -.802E+03   0.381E+02 -.221E+02 0.803E+03   0.147E+01 -.666E+00 -.130E+01   0.395E+00 -.135E+00 -.343E+00
   0.152E+02 -.879E+01 -.861E+03   -.153E+02 0.894E+01 0.861E+03   0.257E+00 -.167E+00 0.338E+00   -.126E+00 0.171E-01 -.214E+00
   -.572E-04 -.461E+02 -.801E+03   0.489E-04 0.441E+02 0.803E+03   0.112E-10 0.171E+01 -.137E+01   0.680E-02 0.366E+00 -.456E+00
   -.152E+02 -.879E+01 -.861E+03   0.153E+02 0.894E+01 0.861E+03   -.257E+00 -.167E+00 0.338E+00   0.124E+00 0.161E-01 -.214E+00
   0.471E+00 0.200E+00 -.866E+03   -.421E+00 -.248E+00 0.865E+03   -.952E-01 -.348E-01 0.856E+00   0.395E-01 0.854E-01 -.797E-01
   -.471E+00 0.200E+00 -.866E+03   0.421E+00 -.248E+00 0.865E+03   0.952E-01 -.348E-01 0.856E+00   -.397E-01 0.833E-01 -.793E-01
   0.208E-04 0.176E+02 -.861E+03   0.109E-03 -.177E+02 0.861E+03   0.184E-11 0.281E+00 0.346E+00   -.470E-03 -.143E+00 -.242E+00
   0.541E-04 0.139E+00 -.262E+04   -.117E-03 -.270E+00 0.261E+04   0.320E-12 0.487E-01 0.184E+01   -.108E-03 0.635E-01 -.146E+00
   0.351E+02 0.560E+02 -.263E+04   -.338E+02 -.544E+02 0.263E+04   -.114E+01 -.157E+01 0.876E+00   -.236E+00 -.117E+00 -.128E+00
   -.351E+02 0.560E+02 -.263E+04   0.338E+02 -.544E+02 0.263E+04   0.114E+01 -.157E+01 0.876E+00   0.236E+00 -.115E+00 -.128E+00
   0.670E+02 0.284E+01 -.263E+04   -.649E+02 -.269E+01 0.263E+04   -.196E+01 -.870E-01 0.105E+01   -.154E+00 -.632E-01 -.109E+00
   -.670E+02 0.284E+01 -.263E+04   0.649E+02 -.269E+01 0.263E+04   0.196E+01 -.870E-01 0.105E+01   0.153E+00 -.624E-01 -.111E+00
   0.305E+02 -.590E+02 -.263E+04   -.295E+02 0.572E+02 0.263E+04   -.914E+00 0.166E+01 0.974E+00   -.115E+00 0.182E+00 -.638E-01
   -.305E+02 -.590E+02 -.263E+04   0.295E+02 0.572E+02 0.263E+04   0.914E+00 0.166E+01 0.974E+00   0.117E+00 0.181E+00 -.646E-01
   0.215E-04 -.280E+00 -.262E+04   0.106E-03 0.388E+00 0.262E+04   -.124E-12 -.189E-01 0.205E+01   -.676E-02 -.642E-01 -.132E+00
   0.229E-03 0.689E+00 -.292E+04   0.123E-03 -.761E+00 0.292E+04   -.594E-13 -.905E-02 0.375E+00   0.732E-02 -.682E-02 0.954E-01
   0.202E+02 -.155E+00 -.306E+03   -.234E+02 0.157E+00 0.307E+03   0.331E+01 -.623E-02 -.109E+01   -.169E-01 0.561E-02 0.240E-01
   -.202E+02 -.155E+00 -.306E+03   0.234E+02 0.157E+00 0.307E+03   -.331E+01 -.623E-02 -.109E+01   0.171E-01 0.562E-02 0.239E-01
   0.583E-03 -.408E+00 0.127E+02   0.110E-12 0.172E-12 -.352E-11   0.208E-11 0.316E+00 -.114E+02   0.265E-01 0.936E-01 -.131E+01

 POSITION                                       TOTAL-FORCE (eV/Angst)
      0.00000      0.00000      5.28219        -0.000000     -0.002355     -0.049851
      2.93046      0.00000      5.28219         0.001122      0.006672      0.024528
      5.86091      0.00000      5.28219        -0.001122      0.006672      0.024528
      1.46523      2.53785      5.28219         0.009323     -0.004764      0.016283
      4.39568      2.53785      5.28219        -0.000000     -0.007019     -0.019875
      7.32614      2.53785      5.28219        -0.009323     -0.004764      0.016283
      2.93046      5.07570      5.28219        -0.003731     -0.000262      0.031203
      5.86091      5.07570      5.28219         0.003731     -0.000262      0.031203
      8.79137      5.07570      5.28219         0.000000      0.001423      0.001517
      1.46523      0.84595      7.67490        -0.020480     -0.008560     -0.047289
      4.39568      0.84595      7.67490        -0.000000     -0.040644     -0.060877
      7.32614      0.84595      7.67490         0.020480     -0.008560     -0.047289
      2.93046      3.38380      7.67490        -0.031279      0.027715     -0.064443
      5.86091      3.38380      7.67490         0.031279      0.027715     -0.064443
      8.79137      3.38380      7.67490        -0.000000     -0.023621      0.015057
      4.39568      5.92165      7.67490         0.000000      0.026446     -0.046600
      7.32614      5.92165      7.67490        -0.020241      0.001732      0.015238
     10.25659      5.92165      7.67490         0.020241      0.001732      0.015238
      8.79137      1.69211     10.06133         0.000000      0.006179      0.063106
      2.92756      1.69022     10.03254        -0.059406     -0.035585     -0.089649
      5.86381      1.69022     10.03254         0.059406     -0.035585     -0.089649
     10.25459      4.23091     10.07004         0.003181     -0.006667      0.022185
      4.39568      4.23310     10.03254         0.000000      0.109058     -0.072195
      7.32815      4.23091     10.07004        -0.003181     -0.006667      0.022185
     11.72164      6.76749     10.06133        -0.005624      0.001488      0.035796
      5.86110      6.76749     10.06133         0.005624      0.001488      0.035796
      8.79137      6.76528     10.07004         0.000000      0.033183      0.022719
      0.00000      0.00000     12.45237        -0.000000     -0.018487     -0.009554
      2.94700      0.02679     12.48745        -0.003519     -0.015439      0.011382
      5.84437      0.02679     12.48745         0.003519     -0.015439      0.011382
      1.49670      2.53878     12.48745         0.033505      0.005831      0.065669
      7.29466      2.53878     12.48745        -0.033505      0.005831      0.065669
      2.94539      5.04797     12.48745        -0.020363      0.016239     -0.010474
      5.84598      5.04797     12.48745         0.020363      0.016239     -0.010474
      8.79137      5.07570     12.46721         0.000000      0.025342     -0.017204
      4.39568      2.53785     12.28926        -0.000000     -0.088254      0.183025
      3.96092      2.55304     14.16063         0.008474      0.000975     -0.015063
      4.83045      2.55304     14.16063        -0.008474      0.000975     -0.015063
    total drift:                                0.027087      0.001628     -0.003223

  FREE ENERGIE OF THE ION-ELECTRON SYSTEM (eV)
  free  energy   TOTEN  =      -104.04740909 eV

  energy  without entropy=     -104.04740909  energy(sigma->0) =     -104.04740909

 stress matrix after NEB project (eV)
     -8.51374     -0.00000     -0.00000
     -0.00000     -8.62209     -0.06650
     -0.00000     -0.06650      0.45738
  FORCES: max atom, RMS     0.017310    0.003971
  FORCE total and by dimension    0.024481    0.015063
  Stress total and by dimension   12.126094    8.622090
|           W    W    AA    RRRRR   N    N  II  N    N   GGGG   !!!           |
|           W    W   A  A   R    R  NN   N  II  NN   N  G    G  !!!           |
|           W    W  A    A  R    R  N N  N  II  N N  N  G       !!!           |
|           W WW W  AAAAAA  RRRRR   N  N N  II  N  N N  G  GGG   !            |
|           WW  WW  A    A  R   R   N   NN  II  N   NN  G    G                |
|           W    W  A    A  R    R  N    N  II  N    N   GGGG   !!!           |
|     Tetrahedron method does not include variations of the Fermi             |
|     occupations, so forces and stress will be inaccurate. We suggest        |
|     using a different smearing scheme ISMEAR = 1 or 2 for metals in         |
|     relaxations.                                                            |

 total charge

# of ion       s       p       d       tot
    1        0.420   0.200   9.179   9.798
    2        0.415   0.204   9.177   9.796
    3        0.415   0.204   9.177   9.796
    4        0.415   0.203   9.178   9.796
    5        0.423   0.201   9.174   9.798
    6        0.415   0.203   9.178   9.796
    7        0.413   0.204   9.178   9.795
    8        0.413   0.204   9.178   9.795
    9        0.415   0.201   9.179   9.796
   10        0.411   0.268   9.161   9.840
   11        0.409   0.265   9.169   9.844
   12        0.411   0.268   9.161   9.840
   13        0.408   0.265   9.169   9.843
   14        0.408   0.265   9.169   9.843
   15        0.403   0.268   9.163   9.834
   16        0.412   0.269   9.160   9.841
   17        0.403   0.268   9.164   9.835
   18        0.403   0.268   9.164   9.835
   19        0.402   0.264   9.165   9.831
   20        0.443   0.299   9.134   9.877
   21        0.443   0.299   9.134   9.877
   22        0.391   0.271   9.166   9.829
   23        0.449   0.297   9.134   9.880
   24        0.391   0.271   9.166   9.829
   25        0.403   0.263   9.166   9.832
   26        0.403   0.263   9.166   9.832
   27        0.393   0.270   9.168   9.831
   28        0.405   0.201   9.176   9.782
   29        0.446   0.217   9.151   9.814
   30        0.446   0.217   9.151   9.814
   31        0.441   0.219   9.152   9.811
   32        0.441   0.219   9.152   9.811
   33        0.445   0.217   9.152   9.814
   34        0.445   0.217   9.152   9.814
   35        0.404   0.202   9.178   9.784
   36        2.170   5.977   2.408  10.555
   37        0.549   0.028   0.000   0.577
   38        0.549   0.028   0.000   0.577
tot         17.869  14.470 323.152 355.491

 BZINTS: Fermi energy:    0.535256;  400.000000 electrons
         Band energy:-0.169387E+04;  BLOECHL correction:   -0.022399