 vasp.6.2.0 18Jan21 (build Jun 12 2021 23:27:24) complex

 executed on             LinuxIFC date 2022.05.28  00:59:56

 INCAR:
   ISMEAR = -5
   SIGMA = 0.1
   ISPIN = 1
   EDIFF = 1.d-5
   EDIFFG = -0.01
   NSW = 0
   NELM = 150
   ENCUT = 500
   ISIF = 2
   IBRION = 2
   LREAL = Auto
   ALGO = Fast
   ICHARG = 11
   LORBIT = 10
   LCHARG = .F.
   LWAVE = .F.

 POTCAR:    PAW_PBE Au 04Oct2007
 POTCAR:    PAW_PBE Ru 04Feb2005
 POTCAR:    PAW_PBE H 15Jun2001
 POTCAR:    PAW_PBE O 08Apr2002
|           W    W    AA    RRRRR   N    N  II  N    N   GGGG   !!!           |
|           W    W   A  A   R    R  NN   N  II  NN   N  G    G  !!!           |
|           W    W  A    A  R    R  N N  N  II  N N  N  G       !!!           |
|           W WW W  AAAAAA  RRRRR   N  N N  II  N  N N  G  GGG   !            |
|           WW  WW  A    A  R   R   N   NN  II  N   NN  G    G                |
|           W    W  A    A  R    R  N    N  II  N    N   GGGG   !!!           |
|     For optimal performance we recommend to set                             |
|       NCORE = 2 up to number-of-cores-per-socket                            |
|     This setting can greatly improve the performance of VASP for DFT.       |
|     The default, NCORE=1 might be grossly inefficient on modern             |
|     multi-core architectures or massively parallel machines. Do your        |
|     Unfortunately you need to use the default for GW and RPA                |
|     calculations (for HF NCORE is supported but not extensively tested      |
|     yet).                                                                   |

 POTCAR:    PAW_PBE Au 04Oct2007
   VRHFIN =Au: s1d10

   TITEL  = PAW_PBE Au 04Oct2007
   POMASS =  196.966; ZVAL   =   11.000    mass and valenz
   ENMAX  =  229.943; ENMIN  =  172.457 eV

 POTCAR:    PAW_PBE Ru 04Feb2005
   VRHFIN =Ru: s1 d7

   TITEL  = PAW_PBE Ru 04Feb2005
   POMASS =  101.070; ZVAL   =    8.000    mass and valenz
   ENMAX  =  213.271; ENMIN  =  159.953 eV

 POTCAR:    PAW_PBE H 15Jun2001
   VRHFIN =H: ultrasoft test

   TITEL  = PAW_PBE H 15Jun2001
   POMASS =    1.000; ZVAL   =    1.000    mass and valenz
   ENMAX  =  250.000; ENMIN  =  200.000 eV

 POTCAR:    PAW_PBE O 08Apr2002
   VRHFIN =O: s2p4

   TITEL  = PAW_PBE O 08Apr2002
   POMASS =   16.000; ZVAL   =    6.000    mass and valenz
   ENMAX  =  400.000; ENMIN  =  300.000 eV

 Optimization of the real space projectors (new method)

 maximal supplied QI-value         = 15.12
 optimisation between [QCUT,QGAM] = [ 11.34, 22.83] = [ 36.00,145.93] Ry
 Optimized for a Real-space Cutoff    1.39 Angstroem

   l    n(q)    QCUT    max X(q) W(low)/X(q) W(high)/X(q)  e(spline)
   2      9    11.338    60.898    0.39E-03    0.42E-03    0.21E-06
   2      9    11.338    58.894    0.40E-03    0.42E-03    0.22E-06
   0      9    11.338   109.617    0.13E-03    0.20E-04    0.13E-06
   0      9    11.338    75.026    0.13E-03    0.20E-04    0.13E-06
   1      9    11.338    16.344    0.33E-04    0.24E-03    0.18E-06
   1      9    11.338    10.160    0.26E-04    0.19E-03    0.15E-06
 Optimization of the real space projectors (new method)

[...]

   l    n(q)    QCUT    max X(q) W(low)/X(q) W(high)/X(q)  e(spline)
   0      8    11.287    19.460    0.40E-03    0.73E-03    0.16E-06
   0      8    11.287    12.209    0.38E-03    0.70E-03    0.15E-06
   1      7    11.287     4.655    0.22E-03    0.25E-04    0.22E-06
 Optimization of the real space projectors (new method)

 maximal supplied QI-value         = 24.76
 optimisation between [QCUT,QGAM] = [ 11.39, 22.77] = [ 36.31,145.25] Ry
 Optimized for a Real-space Cutoff    1.00 Angstroem

   l    n(q)    QCUT    max X(q) W(low)/X(q) W(high)/X(q)  e(spline)
   0      7    11.387    20.381    0.39E-03    0.13E-02    0.15E-06
   0      7    11.387    15.268    0.42E-03    0.14E-02    0.17E-06
   1      6    11.387     5.964    0.41E-03    0.11E-02    0.17E-06
   1      6    11.387     5.382    0.39E-03    0.87E-03    0.15E-06
  PAW_PBE Au 04Oct2007                  :
  PAW_PBE Ru 04Feb2005                  :
  PAW_PBE H 15Jun2001                   :
  PAW_PBE O 08Apr2002                   :

 POSCAR: Au-Ru-H2O
  positions in direct lattice
  velocities in cartesian coordinates
 exchange correlation table for  LEXCH =        8
   RHO(1)=    0.500       N(1)  =     2000
   RHO(2)=  100.500       N(2)  =     4000

 VTST: version 3.2, (02/03/18)

 CHAIN: initializing optimizer

 OPT: Using VASP Conjugate-Gradient optimizer
 CHAIN: Read ICHAIN            0

 POSCAR: Au-Ru-H2O
  positions in direct lattice
  velocities in cartesian coordinates

 ion  position               nearest neighbor table
   1  0.000  0.000  0.213-  16 2.94  12 2.94   6 2.94   8 2.94   7 2.94   3 2.94  10 2.94   4 2.94
                             2 2.94
   2  0.333  0.000  0.213-   9 2.94  11 2.94  17 2.94  10 2.94   8 2.94   4 2.94   5 2.94   1 2.94
                             3 2.94
   3  0.667  0.000  0.213-   7 2.94  18 2.94  12 2.94   1 2.94  11 2.94   5 2.94   6 2.94   9 2.94
                             2 2.94
   4  0.000  0.333  0.213-  10 2.94   6 2.94   5 2.94  13 2.94   2 2.94  15 2.94   9 2.94   1 2.94
                             7 2.94
   5  0.333  0.333  0.213-  13 2.94   7 2.94  11 2.94   4 2.94   2 2.94  14 2.94   3 2.94   8 2.94
                             6 2.94
   6  0.667  0.333  0.213-  15 2.94  14 2.94   1 2.94  12 2.94   4 2.94   9 2.94   8 2.94   3 2.94
                             5 2.94
   7  0.000  0.667  0.213-  18 2.94   3 2.94  16 2.94   5 2.94   1 2.94  13 2.94   8 2.94   4 2.94
                             9 2.94
   8  0.333  0.667  0.213-   9 2.94  17 2.94   1 2.94   2 2.94  14 2.94  16 2.94   6 2.94   7 2.94
                             5 2.94
   9  0.667  0.667  0.213-   2 2.94   8 2.94  17 2.94   6 2.94  15 2.94   4 2.94   3 2.94  18 2.94
                             7 2.94
  10  0.111  0.111  0.310-  20 2.91  26 2.94  19 2.94  11 2.94  17 2.94   2 2.94   4 2.94   1 2.94
                            12 2.94  16 2.94  13 2.94  15 2.94
  11  0.444  0.111  0.310-  20 2.91  21 2.91  27 2.94  13 2.94   2 2.94  10 2.94  17 2.94   5 2.94
                             3 2.94  18 2.94  14 2.94  12 2.94
  12  0.778  0.111  0.310-  21 2.91  25 2.94  19 2.94  16 2.94  18 2.94   1 2.94  14 2.94  15 2.94
                             3 2.94   6 2.94  10 2.94  11 2.94
  13  0.111  0.444  0.310-  23 2.91  20 2.91  22 2.94   5 2.94  18 2.94  11 2.94   7 2.94   4 2.94
                            16 2.94  10 2.94  14 2.94  15 2.94
  14  0.444  0.444  0.310-  21 2.91  23 2.91  24 2.94  15 2.94   6 2.94  12 2.94   8 2.94  17 2.94
                             5 2.94  16 2.94  13 2.94  11 2.94
  15  0.778  0.444  0.310-  24 2.92  22 2.92  19 2.94  14 2.94   6 2.94  17 2.94  12 2.94   9 2.94
                             4 2.94  10 2.94  13 2.94  18 2.94
  16  0.111  0.778  0.310-  23 2.91  25 2.94  26 2.94  18 2.94  12 2.94   7 2.94   1 2.94   8 2.94
                            13 2.94  10 2.94  14 2.94  17 2.94
  17  0.444  0.778  0.310-  27 2.92  24 2.92  26 2.94   9 2.94  15 2.94   2 2.94  10 2.94  11 2.94
                             8 2.94  14 2.94  16 2.94  18 2.94
  18  0.778  0.778  0.310-  22 2.92  27 2.92  25 2.94  16 2.94   7 2.94  13 2.94  12 2.94   3 2.94
                            11 2.94   9 2.94  15 2.94  17 2.94
  19  0.889  0.222  0.407-  15 2.94  10 2.94  12 2.94  24 2.94  22 2.94  26 2.94  25 2.94  21 2.94
                            20 2.94  28 2.95  32 2.97  31 2.97
  20  0.223  0.223  0.406-  36 2.78  11 2.91  13 2.91  10 2.91  23 2.93  21 2.93  29 2.94  31 2.94
                            26 2.94  19 2.94  27 2.95  22 2.95
  21  0.555  0.223  0.406-  36 2.78  14 2.91  11 2.91  12 2.91  20 2.93  23 2.93  30 2.94  32 2.94
                            25 2.94  19 2.94  27 2.95  24 2.95
  22  0.887  0.557  0.407-  24 2.91  27 2.91  18 2.92  15 2.92  13 2.94  25 2.94  19 2.94  23 2.95
                            20 2.95  35 2.96  33 2.96  31 2.96
  23  0.223  0.555  0.406-  36 2.78  13 2.91  14 2.91  16 2.91  20 2.93  21 2.93  33 2.94  34 2.94
                            25 2.94  26 2.94  22 2.95  24 2.95
  24  0.557  0.557  0.407-  27 2.91  22 2.91  15 2.92  17 2.92  14 2.94  26 2.94  19 2.94  21 2.95
                            23 2.95  35 2.96  32 2.96  34 2.96
  25  0.889  0.889  0.407-  18 2.94  16 2.94  12 2.94  22 2.94  27 2.94  19 2.94  26 2.94  23 2.94
                            21 2.94  28 2.95  33 2.97  30 2.97
  26  0.222  0.889  0.407-  17 2.94  10 2.94  16 2.94  27 2.94  24 2.94  19 2.94  25 2.94  20 2.94
                            23 2.94  28 2.95  29 2.97  34 2.97
  27  0.557  0.887  0.407-  24 2.91  22 2.91  17 2.92  18 2.92  11 2.94  26 2.94  25 2.94  20 2.95
                            21 2.95  35 2.96  29 2.96  30 2.96
  28  0.000  0.000  0.505-  25 2.95  19 2.95  26 2.95  34 2.97  32 2.97  33 2.97  30 2.97  31 2.97
                            29 2.97
  29  0.333  0.007  0.504-  31 2.88  30 2.88  36 2.89  20 2.94  27 2.96  28 2.97  35 2.97  26 2.97
                            34 3.05
  30  0.660  0.007  0.504-  32 2.88  29 2.88  36 2.89  21 2.94  27 2.96  28 2.97  35 2.97  25 2.97
                            33 3.05
  31  0.007  0.333  0.504-  29 2.88  33 2.88  36 2.89  20 2.94  22 2.96  28 2.97  35 2.97  19 2.97
                            32 3.05
  32  0.660  0.333  0.504-  30 2.88  34 2.88  36 2.89  21 2.94  24 2.96  28 2.97  35 2.97  19 2.97
                            31 3.05
  33  0.007  0.660  0.504-  34 2.88  31 2.88  36 2.89  23 2.94  22 2.96  28 2.97  35 2.97  25 2.97
                            30 3.05
  34  0.333  0.660  0.504-  33 2.88  32 2.88  36 2.89  23 2.94  24 2.96  28 2.97  35 2.97  26 2.97
                            29 3.05
  35  0.667  0.667  0.505-  24 2.96  27 2.96  22 2.96  29 2.97  34 2.97  32 2.97  31 2.97  30 2.97
                            33 2.97
  36  0.333  0.333  0.495-  39 2.22  20 2.78  23 2.78  21 2.78  33 2.89  31 2.89  29 2.89  30 2.89
                            34 2.89  32 2.89
  37  0.242  0.334  0.606-  39 0.97
  38  0.424  0.334  0.606-  39 0.97
  39  0.333  0.333  0.584-  37 0.97  38 0.97  36 2.22

  LATTYP: Found a hexagonal cell.
 ALAT       =     8.8135128021
 C/A-ratio  =     2.8075332270

  Lattice vectors:

 A1 = (  -4.4067569092,  -7.6327256898,   0.0000000000)
 A2 = (   8.8135128021,   0.0000000000,   0.0000000000)
 A3 = (   0.0000000000,   0.0000000000,  24.7442300386)

Analysis of symmetry for initial positions (statically):
 Subroutine PRICEL returns:
 Original cell was already a primitive cell.

 Routine SETGRP: Setting up the symmetry group for a
 hexagonal supercell.

 Subroutine GETGRP returns: Found  1 space group operations
 (whereof  1 operations were pure point group operations)
 out of a pool of 24 trial point group operations.

The static configuration has the point symmetry C_1 .

Analysis of symmetry for dynamics (positions and initial velocities):
 Subroutine PRICEL returns:
 Original cell was already a primitive cell.

[...]

The dynamic configuration has the point symmetry C_1 .

Analysis of constrained symmetry for selective dynamics:
 Subroutine PRICEL returns:
[...]
     41      -4.6782      2.00000
     42      -4.6230      2.00000
     43      -4.5599      2.00000
     44      -4.5469      2.00000
     45      -4.5056      2.00000
     46      -4.4671      2.00000
     47      -4.4473      2.00000
     48      -4.4400      2.00000
     49      -4.3334      2.00000
     50      -4.3130      2.00000
     51      -4.2873      2.00000
     52      -4.2755      2.00000
     53      -4.2696      2.00000
     54      -4.2600      2.00000
     55      -4.2504      2.00000
     56      -4.2045      2.00000
     57      -4.1995      2.00000
     58      -4.1413      2.00000
     59      -4.1254      2.00000
     60      -4.1107      2.00000
[...]
    238       5.9429      0.00000
    239       5.9985      0.00000
    240       6.2343      0.00000
    241       6.2445      0.00000
    242       6.3429      0.00000
    243       6.4454      0.00000
    244       6.5381      0.00000
    245       6.5717      0.00000
    246       6.6029      0.00000
    247       6.6194      0.00000
    248       6.6375      0.00000
    249       6.6797      0.00000
    250       6.7237      0.00000
    251       6.9045      0.00000
    252       6.9683      0.00000

 soft charge-density along one line, spin component           1
         0         1         2         3         4         5         6         7         8         9
 total charge-density along one line

------------------------ aborting loop because EDIFF is reached ----------------------------------------

 total charge

# of ion       s       p       d       tot
    1        0.546   0.239   8.766   9.550
    2        0.545   0.241   8.763   9.550
    3        0.545   0.241   8.763   9.550
    4        0.546   0.241   8.763   9.550
    5        0.541   0.243   8.761   9.545
    6        0.546   0.241   8.763   9.549
    7        0.545   0.241   8.764   9.550
    8        0.545   0.241   8.764   9.550
    9        0.541   0.239   8.769   9.550
   10        0.523   0.309   8.767   9.600
   11        0.523   0.307   8.780   9.610
   12        0.523   0.309   8.767   9.600
   13        0.523   0.307   8.780   9.610
   14        0.523   0.307   8.780   9.610
   15        0.515   0.308   8.777   9.600
   16        0.524   0.309   8.767   9.600
   17        0.515   0.308   8.776   9.600
   18        0.515   0.308   8.776   9.600
   19        0.520   0.301   8.774   9.595
   20        0.547   0.331   8.747   9.625
   21        0.547   0.331   8.747   9.625
   22        0.509   0.308   8.778   9.595
   23        0.548   0.332   8.745   9.625
   24        0.509   0.308   8.777   9.594
   25        0.518   0.301   8.775   9.594
   26        0.518   0.301   8.775   9.594
   27        0.509   0.308   8.777   9.594
   28        0.540   0.231   8.764   9.534
   29        0.559   0.245   8.750   9.554
   30        0.559   0.245   8.750   9.554
   31        0.563   0.249   8.746   9.558
   32        0.563   0.249   8.746   9.558
   33        0.559   0.245   8.750   9.554
   34        0.559   0.245   8.750   9.554
   35        0.533   0.231   8.766   9.530
   36        0.412   0.425   6.465   7.302
   37        0.611   0.123   0.000   0.734
   38        0.611   0.123   0.000   0.734
   39        1.546   3.655   0.000   5.201
tot         21.924  14.026 313.231 349.181

  FORCE on cell =-STRESS in cart. coord.  units (eV):
  Direction    XX          YY          ZZ          XY          YZ          ZX
  Alpha Z   913.39549   913.39549   913.39549
  Ewald  156697.65488156568.19054************    -0.02572     0.13167    -0.00202
  Hartree165223.82280165199.90139************    -0.00631     0.01401     0.00033
  E(xc)   -1801.09790 -1801.68023 -1807.87399    -0.00010    -0.00640     0.00003
  Local  ************************334242.52019     0.02731    -0.17135     0.00107
  n-local   -77.97375   -78.87869   -53.68267     0.00077     0.03280     0.00015
  augment  2418.05956  2420.77897  2434.24261    -0.00110     0.01675    -0.00008
  Kinetic  5572.82595  5609.50725  5637.27119     0.00793     0.00187    -0.00047
  Fock        0.00000     0.00000     0.00000     0.00000     0.00000     0.00000
  Total     -21.76862   -21.95650     2.44338     0.00277     0.01934    -0.00098
  in kB     -20.95265   -21.13348     2.35180     0.00267     0.01862    -0.00094

 VOLUME and BASIS-vectors are now :
  energy-cutoff  :      500.00
  volume of cell :     1664.57
      direct lattice vectors                 reciprocal lattice vectors
     8.813512802  0.000000000  0.000000000     0.113462137 -0.065507406  0.000000000
     4.406756909  7.632725690  0.000000000     0.000000000  0.131014796  0.000000000
     0.000000000  0.000000000 24.744230039     0.000000000  0.000000000  0.040413462

  length of vectors
     8.813512802  8.813512802 24.744230039     0.131014796  0.131014796  0.040413462

 FORCES acting on ions
    electron-ion (+dipol)            ewald-force                    non-local-force                 convergence-correction
   0.124E-02 -.931E-02 0.269E+04   0.561E-04 -.268E-02 -.269E+04   -.309E-04 0.838E-02 -.932E+00   -.129E-02 0.489E-02 -.212E+00
   0.381E+00 0.254E+00 0.269E+04   -.469E+00 -.333E+00 -.269E+04   0.493E-01 0.614E-01 -.170E+00   0.340E-01 0.355E-01 -.321E+00
   -.383E+00 0.243E+00 0.269E+04   0.469E+00 -.333E+00 -.269E+04   -.493E-01 0.615E-01 -.170E+00   -.326E-01 0.464E-01 -.319E+00
   0.415E+00 0.206E+00 0.269E+04   -.521E+00 -.241E+00 -.269E+04   0.693E-01 0.772E-02 -.154E+00   0.501E-01 0.147E-01 -.318E+00
   -.141E-01 -.100E-01 0.269E+04   0.887E-04 -.506E-04 -.269E+04   0.359E-04 0.728E-02 -.123E+00   0.142E-01 0.407E-02 -.311E+00
   -.405E+00 0.202E+00 0.269E+04   0.521E+00 -.241E+00 -.269E+04   -.694E-01 0.776E-02 -.155E+00   -.595E-01 0.196E-01 -.313E+00
   0.252E-01 -.456E+00 0.269E+04   -.517E-01 0.575E+00 -.269E+04   0.307E-01 -.703E-01 -.165E+00   0.113E-01 -.529E-01 -.327E+00
   -.346E-01 -.450E+00 0.269E+04   0.516E-01 0.575E+00 -.269E+04   -.306E-01 -.703E-01 -.165E+00   -.171E-02 -.592E-01 -.325E+00
   0.140E-01 0.220E-01 0.269E+04   0.168E-03 0.275E-02 -.269E+04   -.171E-04 -.124E-01 -.500E+00   -.143E-01 -.132E-01 -.279E+00
   0.475E+01 0.276E+01 0.923E+03   -.429E+01 -.250E+01 -.922E+03   -.375E+00 -.212E+00 -.826E+00   -.268E-01 -.143E-01 -.175E+00
   -.956E-02 0.455E+01 0.929E+03   0.107E-03 -.461E+01 -.928E+03   0.305E-04 0.540E-01 -.290E+00   0.965E-02 -.524E-01 -.142E+00
   -.475E+01 0.275E+01 0.923E+03   0.429E+01 -.250E+01 -.922E+03   0.375E+00 -.212E+00 -.826E+00   0.215E-01 -.651E-02 -.180E+00
   0.391E+01 -.226E+01 0.929E+03   -.398E+01 0.231E+01 -.928E+03   0.628E-01 -.415E-01 -.298E+00   -.424E-01 0.212E-01 -.146E+00
   -.393E+01 -.226E+01 0.929E+03   0.398E+01 0.231E+01 -.928E+03   -.628E-01 -.415E-01 -.298E+00   0.625E-01 0.202E-01 -.151E+00
   0.108E-01 0.267E+01 0.925E+03   0.275E-03 -.279E+01 -.924E+03   -.101E-03 0.299E-01 -.510E+00   -.110E-01 0.479E-01 -.166E+00
   -.322E-02 -.553E+01 0.923E+03   0.163E-03 0.496E+01 -.922E+03   -.218E-04 0.453E+00 -.841E+00   0.311E-02 0.387E-01 -.182E+00
   0.234E+01 -.135E+01 0.925E+03   -.243E+01 0.141E+01 -.924E+03   0.153E-01 -.149E-01 -.539E+00   0.346E-01 -.279E-01 -.156E+00
   -.234E+01 -.135E+01 0.925E+03   0.243E+01 0.141E+01 -.924E+03   -.154E-01 -.149E-01 -.539E+00   -.380E-01 -.190E-01 -.157E+00
   -.672E-02 0.231E+01 -.878E+03   0.358E-03 -.246E+01 0.877E+03   0.183E-05 0.228E-01 0.464E+00   0.656E-02 0.111E+00 0.427E+00
   0.115E+02 0.677E+01 -.842E+03   -.107E+02 -.630E+01 0.842E+03   -.997E+00 -.569E+00 -.981E+00   0.164E+00 0.893E-01 0.734E+00
   -.115E+02 0.676E+01 -.842E+03   0.107E+02 -.630E+01 0.842E+03   0.997E+00 -.569E+00 -.981E+00   -.166E+00 0.968E-01 0.731E+00
   -.118E+01 0.511E+00 -.866E+03   0.738E+00 -.276E+00 0.865E+03   0.410E+00 -.215E+00 0.568E+00   0.386E-01 -.274E-01 0.476E+00
   -.445E-02 -.135E+02 -.842E+03   -.743E-04 0.125E+02 0.842E+03   -.240E-05 0.119E+01 -.102E+01   0.456E-02 -.209E+00 0.741E+00
   0.118E+01 0.505E+00 -.866E+03   -.738E+00 -.276E+00 0.865E+03   -.410E+00 -.215E+00 0.568E+00   -.439E-01 -.219E-01 0.476E+00
   -.189E+01 -.105E+01 -.878E+03   0.205E+01 0.113E+01 0.877E+03   -.440E-01 -.257E-01 0.531E+00   -.983E-01 -.441E-01 0.422E+00
   0.187E+01 -.104E+01 -.878E+03   -.205E+01 0.113E+01 0.877E+03   0.441E-01 -.258E-01 0.531E+00   0.116E+00 -.461E-01 0.424E+00
   0.859E-02 -.137E+01 -.867E+03   0.834E-04 0.830E+00 0.866E+03   -.523E-04 0.491E+00 0.581E+00   -.865E-02 0.631E-01 0.469E+00
   -.356E-02 0.701E+00 -.263E+04   0.924E-03 -.725E+00 0.263E+04   0.986E-05 0.152E-01 0.267E+00   0.265E-02 0.178E-02 0.540E+00
   0.221E+02 0.391E+02 -.260E+04   -.217E+02 -.386E+02 0.260E+04   -.612E+00 -.864E+00 0.662E-01   0.131E+00 0.188E+00 0.472E+00
   -.221E+02 0.391E+02 -.260E+04   0.217E+02 -.386E+02 0.260E+04   0.612E+00 -.864E+00 0.660E-01   -.133E+00 0.197E+00 0.476E+00
   0.455E+02 0.382E+00 -.260E+04   -.446E+02 -.287E+00 0.260E+04   -.121E+01 -.110E+00 -.208E+00   0.244E+00 0.233E-01 0.470E+00
   -.455E+02 0.374E+00 -.260E+04   0.447E+02 -.286E+00 0.260E+04   0.121E+01 -.110E+00 -.208E+00   -.249E+00 0.304E-01 0.472E+00
   0.215E+02 -.395E+02 -.260E+04   -.212E+02 0.389E+02 0.260E+04   -.427E+00 0.971E+00 0.738E-01   0.888E-01 -.215E+00 0.472E+00
   -.215E+02 -.395E+02 -.260E+04   0.212E+02 0.389E+02 0.260E+04   0.427E+00 0.971E+00 0.742E-01   -.793E-01 -.216E+00 0.470E+00
   0.134E-01 -.709E+00 -.264E+04   0.466E-03 0.736E+00 0.264E+04   -.109E-04 -.133E-01 0.443E+00   -.141E-01 -.938E-02 0.476E+00
   -.193E-02 0.168E-01 -.170E+04   -.289E-02 -.211E-01 0.170E+04   0.173E-03 0.269E-01 0.237E+01   0.475E-02 -.835E-03 0.276E+00
   0.720E+02 -.122E+00 -.309E+03   -.793E+02 0.137E+00 0.313E+03   0.721E+01 -.113E-01 -.460E+01   0.667E-02 -.554E-03 -.178E-01
   -.720E+02 -.939E-01 -.309E+03   0.793E+02 0.106E+00 0.313E+03   -.721E+01 -.854E-02 -.460E+01   -.643E-02 -.465E-03 -.181E-01
   -.579E-02 0.117E+00 -.162E+04   0.570E-02 -.246E+00 0.159E+04   -.187E-02 0.131E+00 0.349E+02   0.356E-02 -.878E-02 -.209E+00
   -.230E-01 -.227E+00 -.255E+02   0.113E-12 -.674E-14 -.205E-11   -.144E-02 0.219E+00 0.214E+02   0.258E-01 0.921E-02 0.460E+01

 POSITION                                       TOTAL-FORCE (eV/Angst)
      0.00000      0.00000      5.28038        -0.000053      0.001243     -0.054490
      2.93784      0.00000      5.28038        -0.004850      0.017608     -0.011043
      5.87568      0.00000      5.28038         0.004790      0.017644     -0.011035
      1.46892      2.54424      5.28038         0.013095     -0.012416     -0.010205
      4.40676      2.54424      5.28038         0.000185      0.001218     -0.042621
      7.34459      2.54424      5.28038        -0.013195     -0.012420     -0.010107
      2.93784      5.08848      5.28038         0.015404     -0.005025     -0.009841
      5.87568      5.08848      5.28038        -0.015446     -0.005052     -0.009774
      8.81351      5.08848      5.28038        -0.000244     -0.000959     -0.029693
      1.46892      0.84808      7.67911         0.057167      0.034615      0.103105
      4.40676      0.84808      7.67911         0.000187     -0.061160     -0.007809
      7.34459      0.84808      7.67911        -0.057253      0.034655      0.103065
      2.93784      3.39232      7.67911        -0.047037      0.028787     -0.003968
      5.87568      3.39232      7.67911         0.047451      0.028809     -0.004032
      8.81351      3.39232      7.67911        -0.000122     -0.038579      0.070228
      4.40676      5.93656      7.67911         0.000004     -0.069348      0.104675
      7.34459      5.93656      7.67911        -0.032388      0.020426      0.069438
     10.28243      5.93656      7.67911         0.032296      0.020470      0.069448
      8.81351      1.69681     10.07567         0.000166     -0.021261     -0.027299
      2.94232      1.69875     10.04120         0.004794     -0.006253     -0.100428
      5.87120      1.69875     10.04120        -0.004848     -0.006197     -0.100484
     10.26751      4.24902     10.06295         0.009017     -0.008094     -0.023831
      4.40676      4.23523     10.04120         0.000003     -0.006394     -0.070925
      7.35952      4.24902     10.06295        -0.009145     -0.008112     -0.023803
     11.75079      6.78432     10.07567         0.020390      0.011653     -0.019044
      5.87624      6.78432     10.07567        -0.020011      0.011632     -0.018980
      8.81351      6.76742     10.06295        -0.000061      0.017603     -0.013968
      0.00000      0.00000     12.49459        -0.000013     -0.006843     -0.114379
      2.96623      0.05046     12.47837        -0.078617     -0.141300     -0.048625
      5.84728      0.05046     12.47837         0.078517     -0.141316     -0.048494
      1.52682      2.54360     12.47837        -0.134367      0.008389     -0.025134
      7.28669      2.54360     12.47837         0.134325      0.008457     -0.025172
      2.96734      5.03866     12.47837        -0.098493      0.130915     -0.050091
      5.84617      5.03866     12.47837         0.098480      0.130902     -0.050270
      8.81351      5.08848     12.49555        -0.000250      0.004488     -0.057546
      4.40676      2.54424     12.24198         0.000067      0.021709      0.598719
      3.60555      2.54586     15.00478        -0.001388      0.003185     -0.013485
      5.20808      2.54554     15.00481        -0.000116      0.002816     -0.014542
      4.40680      2.54440     14.45880         0.001559     -0.006492     -0.067561
    total drift:                                0.001400      0.001645      0.547272

  FREE ENERGIE OF THE ION-ELECTRON SYSTEM (eV)
  free  energy   TOTEN  =      -128.57176946 eV

  energy  without entropy=     -128.57176946  energy(sigma->0) =     -128.57176946

 stress matrix after NEB project (eV)
    -21.76862      0.00277     -0.00098
      0.00277    -21.95650      0.01934
     -0.00098      0.01934      2.44338
  FORCES: max atom, RMS     0.067890    0.011348
  FORCE total and by dimension    0.070869    0.067561
  Stress total and by dimension   31.015025   21.956503
|           W    W    AA    RRRRR   N    N  II  N    N   GGGG   !!!           |
|           W    W   A  A   R    R  NN   N  II  NN   N  G    G  !!!           |
|           W    W  A    A  R    R  N N  N  II  N N  N  G       !!!           |
|           W WW W  AAAAAA  RRRRR   N  N N  II  N  N N  G  GGG   !            |
|           WW  WW  A    A  R   R   N   NN  II  N   NN  G    G                |
|           W    W  A    A  R    R  N    N  II  N    N   GGGG   !!!           |
|     Tetrahedron method does not include variations of the Fermi             |
|     occupations, so forces and stress will be inaccurate. We suggest        |
|     using a different smearing scheme ISMEAR = 1 or 2 for metals in         |
|     relaxations.                                                            |

 total charge

# of ion       s       p       d       tot
    1        0.546   0.239   8.766   9.550
    2        0.545   0.241   8.763   9.550
    3        0.545   0.241   8.763   9.550
    4        0.546   0.241   8.763   9.550
    5        0.541   0.243   8.761   9.545
    6        0.546   0.241   8.763   9.549
    7        0.545   0.241   8.764   9.550
    8        0.545   0.241   8.764   9.550
    9        0.541   0.239   8.769   9.550
   10        0.523   0.309   8.767   9.600
   11        0.523   0.307   8.780   9.610
   12        0.523   0.309   8.767   9.600
   13        0.523   0.307   8.780   9.610
   14        0.523   0.307   8.780   9.610
   15        0.515   0.308   8.777   9.600
   16        0.524   0.309   8.767   9.600
   17        0.515   0.308   8.776   9.600
   18        0.515   0.308   8.776   9.600
   19        0.520   0.301   8.774   9.595
   20        0.547   0.331   8.747   9.625
   21        0.547   0.331   8.747   9.625
   22        0.509   0.308   8.778   9.595
   23        0.548   0.332   8.745   9.625
   24        0.509   0.308   8.777   9.594
   25        0.518   0.301   8.775   9.594
   26        0.518   0.301   8.775   9.594
   27        0.509   0.308   8.777   9.594
   28        0.540   0.231   8.764   9.534
   29        0.559   0.245   8.750   9.554
   30        0.559   0.245   8.750   9.554
   31        0.563   0.249   8.746   9.558
   32        0.563   0.249   8.746   9.558
   33        0.559   0.245   8.750   9.554
   34        0.559   0.245   8.750   9.554
   35        0.533   0.231   8.766   9.530
   36        0.412   0.425   6.465   7.302
   37        0.611   0.123   0.000   0.734
   38        0.611   0.123   0.000   0.734
   39        1.546   3.655   0.000   5.201
tot         21.924  14.026 313.231 349.181

 BZINTS: Fermi energy:    0.512763;  401.000000 electrons
         Band energy:-0.132653E+04;  BLOECHL correction:   -0.078077