 vasp.6.2.0 18Jan21 (build Jun 12 2021 23:27:24) complex

 executed on             LinuxIFC date 2022.05.30  18:03:39

 INCAR:
   ISMEAR = -5
   SIGMA = 0.1
   ISPIN = 1
   EDIFF = 1.d-5
   EDIFFG = -0.01
   NSW = 0
   NELM = 150
   ENCUT = 500
   ISIF = 2
   IBRION = 2
   LREAL = Auto
   ALGO = Fast
   ICHARG = 11
   LORBIT = 10
   LCHARG = .F.
   LWAVE = .F.

 POTCAR:    PAW_PBE Cu 22Jun2005
 POTCAR:    PAW_PBE Co 02Aug2007
 POTCAR:    PAW_PBE C 08Apr2002
 POTCAR:    PAW_PBE O 08Apr2002
 POTCAR:    PAW_PBE H 15Jun2001
|           W    W    AA    RRRRR   N    N  II  N    N   GGGG   !!!           |
|           W    W   A  A   R    R  NN   N  II  NN   N  G    G  !!!           |
|           W    W  A    A  R    R  N N  N  II  N N  N  G       !!!           |
|           W WW W  AAAAAA  RRRRR   N  N N  II  N  N N  G  GGG   !            |
|           WW  WW  A    A  R   R   N   NN  II  N   NN  G    G                |
|           W    W  A    A  R    R  N    N  II  N    N   GGGG   !!!           |
|     For optimal performance we recommend to set                             |
|       NCORE = 2 up to number-of-cores-per-socket                            |
|     This setting can greatly improve the performance of VASP for DFT.       |
|     The default, NCORE=1 might be grossly inefficient on modern             |
|     multi-core architectures or massively parallel machines. Do your        |
|     Unfortunately you need to use the default for GW and RPA                |
|     calculations (for HF NCORE is supported but not extensively tested      |
|     yet).                                                                   |

 POTCAR:    PAW_PBE Cu 22Jun2005
   VRHFIN =Cu: d10 p1

   TITEL  = PAW_PBE Cu 22Jun2005
   POMASS =   63.546; ZVAL   =   11.000    mass and valenz
   ENMAX  =  295.446; ENMIN  =  221.585 eV

 POTCAR:    PAW_PBE Co 02Aug2007
   VRHFIN =Co: d8 s1

   TITEL  = PAW_PBE Co 02Aug2007
   POMASS =   58.933; ZVAL   =    9.000    mass and valenz
   ENMAX  =  267.968; ENMIN  =  200.976 eV

 POTCAR:    PAW_PBE C 08Apr2002
   VRHFIN =C: s2p2

   TITEL  = PAW_PBE C 08Apr2002
   POMASS =   12.011; ZVAL   =    4.000    mass and valenz
   ENMAX  =  400.000; ENMIN  =  300.000 eV

 POTCAR:    PAW_PBE O 08Apr2002
   VRHFIN =O: s2p4

   TITEL  = PAW_PBE O 08Apr2002
   POMASS =   16.000; ZVAL   =    6.000    mass and valenz
   ENMAX  =  400.000; ENMIN  =  300.000 eV

 POTCAR:    PAW_PBE H 15Jun2001
   VRHFIN =H: ultrasoft test

   TITEL  = PAW_PBE H 15Jun2001
   POMASS =    1.000; ZVAL   =    1.000    mass and valenz
   ENMAX  =  250.000; ENMIN  =  200.000 eV

 Optimization of the real space projectors (new method)

 maximal supplied QI-value         = 16.25
 optimisation between [QCUT,QGAM] = [ 11.38, 22.75] = [ 36.24,144.96] Ry
 Optimized for a Real-space Cutoff    1.52 Angstroem

   l    n(q)    QCUT    max X(q) W(low)/X(q) W(high)/X(q)  e(spline)
   2      9    11.376     4.610    0.21E-03    0.10E-03    0.26E-06
   2      9    11.376     8.522    0.33E-03    0.16E-03    0.37E-06
   0     10    11.376    51.609    0.62E-04    0.20E-04    0.13E-06
   0     10    11.376    27.747    0.54E-04    0.20E-04    0.13E-06
   1     10    11.376    20.408    0.13E-04    0.99E-04    0.19E-06
   1     10    11.376    13.425    0.12E-04    0.87E-04    0.17E-06
 Optimization of the real space projectors (new method)

[...]

   l    n(q)    QCUT    max X(q) W(low)/X(q) W(high)/X(q)  e(spline)
   0      7    11.387    20.381    0.39E-03    0.13E-02    0.15E-06
   0      7    11.387    15.268    0.42E-03    0.14E-02    0.17E-06
   1      6    11.387     5.964    0.41E-03    0.11E-02    0.17E-06
   1      6    11.387     5.382    0.39E-03    0.87E-03    0.15E-06
 Optimization of the real space projectors (new method)

 maximal supplied QI-value         = 34.20
 optimisation between [QCUT,QGAM] = [ 11.29, 22.57] = [ 35.68,142.71] Ry
 Optimized for a Real-space Cutoff    1.16 Angstroem

   l    n(q)    QCUT    max X(q) W(low)/X(q) W(high)/X(q)  e(spline)
   0      8    11.287    19.460    0.40E-03    0.73E-03    0.16E-06
   0      8    11.287    12.209    0.38E-03    0.70E-03    0.15E-06
   1      7    11.287     4.655    0.22E-03    0.25E-04    0.22E-06
  PAW_PBE Cu 22Jun2005                  :
  PAW_PBE Co 02Aug2007                  :
  PAW_PBE C 08Apr2002                   :
  PAW_PBE O 08Apr2002                   :
  PAW_PBE H 15Jun2001                   :

 POSCAR: Cu-Co-COH
  positions in direct lattice
  velocities in cartesian coordinates
 exchange correlation table for  LEXCH =        8
   RHO(1)=    0.500       N(1)  =     2000
   RHO(2)=  100.500       N(2)  =     4000

 VTST: version 3.2, (02/03/18)

 CHAIN: initializing optimizer

 OPT: Using VASP Conjugate-Gradient optimizer
 CHAIN: Read ICHAIN            0

 POSCAR: Cu-Co-COH
  positions in direct lattice
  velocities in cartesian coordinates

 ion  position               nearest neighbor table
   1  0.000  0.000  0.206-   7 2.57   3 2.57   4 2.57   2 2.57   6 2.57   8 2.57  12 2.57  10 2.57
                            16 2.57
   2  0.333  0.000  0.206-   8 2.57   9 2.57   5 2.57   1 2.57   3 2.57  11 2.57   4 2.57  10 2.57
                            17 2.57
   3  0.667  0.000  0.206-   1 2.57   7 2.57   6 2.57   9 2.57   2 2.57  12 2.57   5 2.57  18 2.57
                            11 2.57
   4  0.000  0.333  0.206-   5 2.57   6 2.57   1 2.57   7 2.57   2 2.57  13 2.57   9 2.57  10 2.57
                            15 2.57
   5  0.333  0.333  0.206-   4 2.57   2 2.57   7 2.57  13 2.57   8 2.57   6 2.57   3 2.57  11 2.57
                            14 2.57
   6  0.667  0.333  0.206-   4 2.57   9 2.57  15 2.57   3 2.57   1 2.57   8 2.57  14 2.57   5 2.57
                            12 2.57
   7  0.000  0.667  0.206-   1 2.57   3 2.57  16 2.57  18 2.57   4 2.57   5 2.57   8 2.57   9 2.57
                            13 2.57
   8  0.333  0.667  0.206-   9 2.57   2 2.57  17 2.57   6 2.57   1 2.57   7 2.57   5 2.57  14 2.57
                            16 2.57
   9  0.667  0.667  0.206-   8 2.57   6 2.57   2 2.57  17 2.57   3 2.57   7 2.57   4 2.57  15 2.57
                            18 2.57
  10  0.111  0.111  0.286-  20 2.55  26 2.56  19 2.56  11 2.57  12 2.57  13 2.57   1 2.57   2 2.57
                             4 2.57  15 2.57  16 2.57  17 2.57
  11  0.444  0.111  0.286-  20 2.55  21 2.55  27 2.56  10 2.57  13 2.57   2 2.57  17 2.57  14 2.57
                            12 2.57   5 2.57   3 2.57  18 2.57
  12  0.778  0.111  0.286-  21 2.55  19 2.56  25 2.56  15 2.57  10 2.57  14 2.57  18 2.57   3 2.57
                             1 2.57  16 2.57  11 2.57   6 2.57
  13  0.111  0.444  0.286-  23 2.55  20 2.55  22 2.56  16 2.57  18 2.57  10 2.57  11 2.57  14 2.57
                             5 2.57   4 2.57   7 2.57  15 2.57
  14  0.444  0.444  0.286-  21 2.55  23 2.55  24 2.56  15 2.57  17 2.57  12 2.57  16 2.57  13 2.57
                            11 2.57   6 2.57   8 2.57   5 2.57
  15  0.778  0.444  0.286-  24 2.56  22 2.56  19 2.56  14 2.57  17 2.57  12 2.57   6 2.57  18 2.57
                            10 2.57   9 2.57  13 2.57   4 2.57
  16  0.111  0.778  0.286-  23 2.55  25 2.56  26 2.56  18 2.57  13 2.57   7 2.57  14 2.57  17 2.57
                            12 2.57  10 2.57   8 2.57   1 2.57
  17  0.444  0.778  0.286-  27 2.56  24 2.56  26 2.56  14 2.57  15 2.57   8 2.57   9 2.57  11 2.57
                            16 2.57  18 2.57  10 2.57   2 2.57
  18  0.778  0.778  0.286-  22 2.56  27 2.56  25 2.56  16 2.57  13 2.57   7 2.57  15 2.57  12 2.57
                            17 2.57   9 2.57   3 2.57  11 2.57
  19  0.889  0.223  0.366-  28 2.54  32 2.56  31 2.56  15 2.56  12 2.56  10 2.56  22 2.56  24 2.56
                            21 2.57  20 2.57  25 2.57  26 2.57
  20  0.222  0.222  0.365-  36 2.46  29 2.55  31 2.55  11 2.55  13 2.55  10 2.55  23 2.56  21 2.56
                            26 2.57  19 2.57  27 2.57  22 2.57
  21  0.555  0.222  0.365-  36 2.46  32 2.55  30 2.55  14 2.55  11 2.55  12 2.55  20 2.56  23 2.56
                            19 2.57  25 2.57  24 2.57  27 2.57
  22  0.889  0.556  0.366-  35 2.54  31 2.55  33 2.55  18 2.56  15 2.56  13 2.56  24 2.56  27 2.56
                            19 2.56  25 2.56  23 2.57  20 2.57
  23  0.222  0.555  0.365-  36 2.46  33 2.55  34 2.55  13 2.55  14 2.55  16 2.55  20 2.56  21 2.56
                            25 2.57  26 2.57  22 2.57  24 2.57
  24  0.556  0.556  0.366-  35 2.54  32 2.55  34 2.55  15 2.56  17 2.56  14 2.56  22 2.56  27 2.56
                            19 2.56  26 2.56  21 2.57  23 2.57
  25  0.889  0.889  0.366-  28 2.54  33 2.56  30 2.56  18 2.56  16 2.56  12 2.56  22 2.56  27 2.56
                            21 2.57  23 2.57  19 2.57  26 2.57
  26  0.223  0.889  0.366-  28 2.54  29 2.56  34 2.56  17 2.56  10 2.56  16 2.56  27 2.56  24 2.56
                            20 2.57  23 2.57  25 2.57  19 2.57
  27  0.556  0.889  0.366-  35 2.54  29 2.55  30 2.55  17 2.56  18 2.56  11 2.56  24 2.56  22 2.56
                            26 2.56  25 2.56  20 2.57  21 2.57
  28  0.000  0.000  0.445-  25 2.54  19 2.54  26 2.54  33 2.58  30 2.58  31 2.58  29 2.58  32 2.58
                            34 2.58
  29  0.333  0.003  0.445-  31 2.54  36 2.54  30 2.55  20 2.55  27 2.55  26 2.56  28 2.58  35 2.58
                            34 2.61
  30  0.664  0.003  0.445-  32 2.54  36 2.54  29 2.55  21 2.55  27 2.55  25 2.56  28 2.58  35 2.58
                            33 2.61
  31  0.003  0.333  0.445-  29 2.54  36 2.54  33 2.55  20 2.55  22 2.55  19 2.56  28 2.58  35 2.58
                            32 2.61
  32  0.664  0.333  0.445-  30 2.54  36 2.54  34 2.55  21 2.55  24 2.55  19 2.56  28 2.58  35 2.58
                            31 2.61
  33  0.003  0.664  0.445-  34 2.54  36 2.54  31 2.55  23 2.55  22 2.55  25 2.56  28 2.58  35 2.58
                            30 2.61
  34  0.333  0.664  0.445-  33 2.54  36 2.54  32 2.55  23 2.55  24 2.55  26 2.56  28 2.58  35 2.58
                            29 2.61
  35  0.667  0.667  0.445-  24 2.54  27 2.54  22 2.54  34 2.58  32 2.58  29 2.58  30 2.58  33 2.58
                            31 2.58
  36  0.333  0.333  0.441-  37 1.64  23 2.46  20 2.46  21 2.46  31 2.54  29 2.54  33 2.54  34 2.54
                            32 2.54  30 2.54
  37  0.333  0.333  0.503-  38 1.26  36 1.64
  38  0.333  0.333  0.551-  39 0.96  37 1.26
  39  0.333  0.333  0.588-  38 0.96

  LATTYP: Found a hexagonal cell.
 ALAT       =     7.6967864036
 C/A-ratio  =     3.3950614187

  Lattice vectors:

 A1 = (  -3.8483927580,  -6.6656128093,   0.0000000000)
 A2 = (   7.6967864037,   0.0000000000,   0.0000000000)
 A3 = (   0.0000000000,   0.0000000000,  26.1310625667)

Analysis of symmetry for initial positions (statically):
 Subroutine PRICEL returns:
 Original cell was already a primitive cell.

 Routine SETGRP: Setting up the symmetry group for a
 hexagonal supercell.

 Subroutine GETGRP returns: Found  6 space group operations
 (whereof  6 operations were pure point group operations)
 out of a pool of 24 trial point group operations.

The static configuration has the point symmetry C_3v.

Analysis of symmetry for dynamics (positions and initial velocities):
[...]
     41      -3.8732      2.00000
     42      -3.7878      2.00000
     43      -3.7821      2.00000
     44      -3.7037      2.00000
     45      -3.7017      2.00000
     46      -3.6956      2.00000
     47      -3.6629      2.00000
     48      -3.6566      2.00000
     49      -3.6444      2.00000
     50      -3.6302      2.00000
     51      -3.4547      2.00000
     52      -3.4394      2.00000
     53      -3.4322      2.00000
     54      -3.4249      2.00000
     55      -3.3737      2.00000
     56      -3.3684      2.00000
     57      -3.3617      2.00000
     58      -3.3437      2.00000
     59      -3.3367      2.00000
     60      -3.3188      2.00000
[...]
    238       5.1775      0.00000
    239       5.3411      0.00000
    240       5.3781      0.00000
    241       5.4572      0.00000
    242       5.4889      0.00000
    243       5.4919      0.00000
    244       5.6426      0.00000
    245       5.8295      0.00000
    246       5.8534      0.00000
    247       5.8652      0.00000
    248       6.0085      0.00000
    249       6.1533      0.00000
    250       6.2617      0.00000
    251       6.6294      0.00000
    252       6.8410      0.00000

 soft charge-density along one line, spin component           1
         0         1         2         3         4         5         6         7         8         9
 total charge-density along one line

------------------------ aborting loop because EDIFF is reached ----------------------------------------

 total charge

# of ion       s       p       d       tot
    1        0.447   0.284   9.189   9.921
    2        0.449   0.285   9.187   9.922
    3        0.449   0.285   9.187   9.922
    4        0.449   0.285   9.187   9.922
    5        0.449   0.287   9.186   9.921
    6        0.449   0.285   9.187   9.922
    7        0.449   0.285   9.187   9.922
    8        0.449   0.285   9.187   9.922
    9        0.446   0.287   9.186   9.919
   10        0.441   0.371   9.179   9.992
   11        0.443   0.370   9.181   9.994
   12        0.441   0.371   9.179   9.992
   13        0.443   0.370   9.181   9.994
   14        0.443   0.370   9.181   9.994
   15        0.438   0.371   9.181   9.990
   16        0.441   0.371   9.179   9.992
   17        0.438   0.371   9.181   9.990
   18        0.438   0.371   9.181   9.990
   19        0.442   0.370   9.181   9.992
   20        0.455   0.391   9.170  10.016
   21        0.455   0.391   9.170  10.016
   22        0.436   0.377   9.179   9.992
   23        0.455   0.391   9.170  10.016
   24        0.436   0.377   9.179   9.992
   25        0.442   0.370   9.181   9.992
   26        0.442   0.370   9.181   9.992
   27        0.436   0.377   9.179   9.992
   28        0.450   0.284   9.192   9.926
   29        0.440   0.297   9.190   9.926
   30        0.440   0.297   9.190   9.926
   31        0.440   0.297   9.190   9.926
   32        0.440   0.297   9.190   9.926
   33        0.440   0.297   9.190   9.926
   34        0.440   0.297   9.190   9.926
   35        0.448   0.285   9.192   9.924
   36        0.500   0.653   7.481   8.634
   37        0.934   1.430   0.000   2.364
   38        1.529   3.756   0.000   5.285
   39        0.559   0.132   0.000   0.691
tot         19.060  17.642 328.897 365.598

  FORCE on cell =-STRESS in cart. coord.  units (eV):
  Direction    XX          YY          ZZ          XY          YZ          ZX
  Alpha Z   731.12312   731.12312   731.12312
  Ewald  273874.16215273874.16168************     0.00043     0.00012     0.00019
  Hartree287039.37030287039.37024************     0.00006     0.00005     0.00008
  E(xc)   -2341.03957 -2341.03921 -2343.65159    -0.00031    -0.00004    -0.00006
  Local  ************************573838.33291     0.01875    -0.00060    -0.00102
  n-local  -795.30872  -782.73276  -801.82891     6.98065    -0.04397     0.12625
  augment  3476.07864  3476.09866  3474.07340    -0.01734     0.00036     0.00065
  Kinetic  3427.86613  3428.99120  3380.21941     2.39765     2.02497    -1.45972
  Fock        0.00000     0.00000     0.00000     0.00000     0.00000     0.00000
  Total      -3.53660    -3.53660     3.94365     0.00000    -0.00000    -0.00000
  in kB      -4.22658    -4.22658     4.71305     0.00000    -0.00000    -0.00000

 VOLUME and BASIS-vectors are now :
  energy-cutoff  :      500.00
  volume of cell :     1340.62
      direct lattice vectors                 reciprocal lattice vectors
     7.696786404  0.000000000  0.000000000     0.129924354 -0.075011849  0.000000000
     3.848392758  6.665612809  0.000000000     0.000000000  0.150023716  0.000000000
     0.000000000  0.000000000 26.131062567     0.000000000  0.000000000  0.038268631

  length of vectors
     7.696786404  7.696786404 26.131062567     0.150023716  0.150023716  0.038268631

 FORCES acting on ions
    electron-ion (+dipol)            ewald-force                    non-local-force                 convergence-correction
   -.436E-04 -.103E-05 0.396E+04   0.578E-04 -.443E-05 -.396E+04   -.312E-17 -.629E-18 -.294E+01   -.280E-03 -.129E-03 -.724E+00
   0.293E+00 0.362E+00 0.396E+04   -.277E+00 -.348E+00 -.396E+04   0.889E-02 0.435E-01 -.199E+01   -.171E-01 -.399E-01 -.614E+00
   -.293E+00 0.362E+00 0.396E+04   0.277E+00 -.348E+00 -.396E+04   -.889E-02 0.435E-01 -.199E+01   0.178E-01 -.374E-01 -.613E+00
   0.460E+00 0.727E-01 0.396E+04   -.440E+00 -.657E-01 -.396E+04   0.422E-01 -.141E-01 -.199E+01   -.430E-01 0.512E-02 -.614E+00
   -.704E-04 -.843E-05 0.396E+04   0.116E-03 -.101E-04 -.396E+04   0.481E-17 -.144E-17 -.190E+01   0.121E-01 0.740E-02 -.496E+00
   -.460E+00 0.728E-01 0.396E+04   0.440E+00 -.658E-01 -.396E+04   -.422E-01 -.141E-01 -.199E+01   0.415E-01 0.634E-02 -.613E+00
   0.167E+00 -.435E+00 0.396E+04   -.163E+00 0.414E+00 -.396E+04   0.333E-01 -.295E-01 -.199E+01   -.235E-01 0.341E-01 -.613E+00
   -.167E+00 -.435E+00 0.396E+04   0.163E+00 0.414E+00 -.396E+04   -.333E-01 -.295E-01 -.199E+01   0.269E-01 0.327E-01 -.613E+00
   -.146E-03 -.339E-04 0.396E+04   0.264E-03 0.206E-04 -.396E+04   -.507E-17 0.282E-17 -.245E+01   -.132E-01 -.680E-02 -.595E+00
   0.364E+01 0.210E+01 0.139E+04   -.320E+01 -.185E+01 -.139E+04   -.427E+00 -.247E+00 -.987E+00   -.227E-03 -.145E-03 0.201E-01
   -.889E-04 0.355E+01 0.139E+04   0.189E-03 -.360E+01 -.139E+04   -.377E-08 0.566E-01 -.687E+00   0.115E-01 -.275E-01 0.889E-01
   -.364E+01 0.210E+01 0.139E+04   0.320E+01 -.185E+01 -.139E+04   0.427E+00 -.247E+00 -.987E+00   -.116E-02 0.865E-03 0.190E-01
   0.307E+01 -.177E+01 0.139E+04   -.312E+01 0.180E+01 -.139E+04   0.490E-01 -.283E-01 -.687E+00   -.176E-01 0.245E-01 0.889E-01
   -.307E+01 -.177E+01 0.139E+04   0.312E+01 0.180E+01 -.139E+04   -.490E-01 -.283E-01 -.687E+00   0.410E-01 0.233E-01 0.868E-01
   -.143E-03 0.139E+00 0.139E+04   0.300E-03 -.260E+00 -.139E+04   -.297E-08 0.446E-01 -.824E+00   -.319E-02 0.606E-01 0.995E-02
   -.906E-04 -.420E+01 0.139E+04   0.185E-03 0.370E+01 -.139E+04   -.329E-07 0.494E+00 -.987E+00   -.759E-03 -.264E-02 0.189E-01
   0.120E+00 -.695E-01 0.139E+04   -.225E+00 0.130E+00 -.139E+04   0.386E-01 -.223E-01 -.824E+00   0.515E-01 -.330E-01 0.983E-02
   -.120E+00 -.694E-01 0.139E+04   0.225E+00 0.130E+00 -.139E+04   -.386E-01 -.223E-01 -.824E+00   -.505E-01 -.308E-01 0.109E-01
   -.568E-04 0.221E+01 -.121E+04   0.659E-04 -.224E+01 0.121E+04   -.111E-08 0.167E-01 0.767E+00   0.112E-01 0.183E-01 0.654E+00
   0.100E+02 0.580E+01 -.118E+04   -.912E+01 -.527E+01 0.118E+04   -.965E+00 -.557E+00 -.109E+01   0.109E-01 0.620E-02 0.540E+00
   -.100E+02 0.580E+01 -.118E+04   0.912E+01 -.527E+01 0.118E+04   0.965E+00 -.557E+00 -.109E+01   -.115E-01 0.575E-02 0.539E+00
   0.440E+01 -.254E+01 -.120E+04   -.466E+01 0.269E+01 0.120E+04   0.344E+00 -.199E+00 0.826E+00   -.178E-01 0.212E-01 0.596E+00
   -.746E-04 -.116E+02 -.118E+04   0.141E-03 0.105E+02 0.118E+04   -.742E-07 0.111E+01 -.109E+01   -.193E-02 -.140E-01 0.539E+00
   -.440E+01 -.254E+01 -.120E+04   0.466E+01 0.269E+01 0.120E+04   -.344E+00 -.199E+00 0.826E+00   0.392E-01 0.218E-01 0.596E+00
   -.191E+01 -.111E+01 -.121E+04   0.194E+01 0.112E+01 0.121E+04   -.145E-01 -.836E-02 0.767E+00   -.550E-03 -.301E-03 0.654E+00
   0.192E+01 -.111E+01 -.121E+04   -.194E+01 0.112E+01 0.121E+04   0.145E-01 -.836E-02 0.767E+00   0.218E-01 0.777E-03 0.654E+00
   -.131E-03 0.508E+01 -.120E+04   0.244E-03 -.538E+01 0.120E+04   -.265E-07 0.398E+00 0.826E+00   0.937E-02 -.261E-01 0.596E+00
   -.274E-04 0.200E-04 -.380E+04   0.303E-04 -.357E-04 0.379E+04   0.468E-18 -.837E-19 0.195E+01   0.249E-04 0.639E-04 0.840E+00
   0.257E+02 0.464E+02 -.377E+04   -.259E+02 -.469E+02 0.377E+04   0.149E+00 0.396E+00 0.284E+01   -.392E-01 -.600E-01 0.786E+00
   -.257E+02 0.464E+02 -.377E+04   0.259E+02 -.469E+02 0.377E+04   -.149E+00 0.396E+00 0.284E+01   0.395E-01 -.582E-01 0.786E+00
   0.530E+02 -.928E+00 -.377E+04   -.535E+02 0.101E+01 0.377E+04   0.417E+00 -.688E-01 0.284E+01   -.715E-01 -.403E-02 0.786E+00
   -.530E+02 -.927E+00 -.377E+04   0.535E+02 0.101E+01 0.377E+04   -.417E+00 -.688E-01 0.284E+01   0.708E-01 -.286E-02 0.787E+00
   0.273E+02 -.454E+02 -.377E+04   -.276E+02 0.458E+02 0.377E+04   0.268E+00 -.327E+00 0.284E+01   -.307E-01 0.633E-01 0.786E+00
   -.273E+02 -.454E+02 -.377E+04   0.276E+02 0.458E+02 0.377E+04   -.268E+00 -.327E+00 0.284E+01   0.336E-01 0.627E-01 0.787E+00
   -.134E-03 -.177E-04 -.380E+04   0.260E-03 0.762E-05 0.380E+04   0.172E-17 -.524E-17 0.217E+01   -.129E-01 -.662E-02 0.769E+00
   -.480E-04 -.126E-04 -.280E+04   0.119E-03 0.211E-04 0.280E+04   -.794E-17 0.370E-17 0.375E+01   0.515E-02 0.315E-02 0.550E+00
   -.378E-05 -.708E-04 -.157E+04   0.148E-04 0.647E-05 0.154E+04   0.426E-18 0.146E-18 0.199E+02   0.110E-02 0.667E-03 0.139E+00
   0.230E-03 -.709E-04 -.239E+04   0.322E-05 0.304E-05 0.240E+04   0.885E-18 0.236E-19 -.533E+01   0.336E-02 0.205E-02 0.341E-01
   0.290E-05 -.142E-04 -.427E+03   0.793E-07 0.199E-06 0.436E+03   0.159E-19 0.270E-20 -.849E+01   0.174E-03 0.106E-03 -.586E-02
   -.917E-04 -.201E-03 -.133E+02   -.130E-12 0.273E-12 0.512E-12   0.506E-16 -.223E-15 0.584E+01   0.922E-01 0.504E-01 0.727E+01

 POSITION                                       TOTAL-FORCE (eV/Angst)
      0.00000      0.00000      5.37156         0.000000     -0.000000      0.061351
      2.56560      0.00000      5.37156         0.008452      0.018725      0.100535
      5.13119      0.00000      5.37156        -0.008452      0.018725      0.100535
      1.28280      2.22187      5.37156         0.020442     -0.002043      0.100535
      3.84839      2.22187      5.37156         0.000000     -0.000000      0.086092
      6.41399      2.22187      5.37156        -0.020442     -0.002043      0.100535
      2.56560      4.44374      5.37156         0.011990     -0.016682      0.100535
      5.13119      4.44374      5.37156        -0.011990     -0.016682      0.100535
      7.69679      4.44374      5.37156         0.000000     -0.000000      0.075972
      1.28280      0.74062      7.46636         0.013929      0.008042     -0.055126
      3.84839      0.74062      7.46636         0.000000     -0.032213     -0.121068
      6.41399      0.74062      7.46636        -0.013929      0.008042     -0.055126
      2.56560      2.96249      7.46636        -0.027897      0.016106     -0.121068
      5.13119      2.96249      7.46636         0.027897      0.016106     -0.121068
      7.69679      2.96249      7.46636         0.000000     -0.016661     -0.038236
      3.84839      5.18437      7.46636         0.000000     -0.016083     -0.055126
      6.41399      5.18437      7.46636        -0.014429      0.008331     -0.038236
      8.97958      5.18437      7.46636         0.014429      0.008331     -0.038236
      7.69679      1.48420      9.55496         0.000000     -0.001255      0.030006
      2.56664      1.48185      9.54157        -0.039569     -0.022845     -0.225528
      5.13014      1.48185      9.54157         0.039569     -0.022845     -0.225528
      8.97778      3.70416      9.55304         0.056843     -0.032818      0.007500
      3.84839      3.70191      9.54157        -0.000000      0.045691     -0.225528
      6.41579      3.70416      9.55304        -0.056843     -0.032818      0.007500
     10.25982      5.92351      9.55496         0.001086      0.000627      0.030006
      5.13375      5.92351      9.55496        -0.001086      0.000627      0.030006
      7.69679      5.92291      9.55304        -0.000000      0.065636      0.007500
      0.00000      0.00000     11.62172         0.000000     -0.000000     -0.016647
      2.57582      0.02145     11.62841        -0.079471     -0.166273     -0.035849
      5.12097      0.02145     11.62841         0.079471     -0.166273     -0.035849
      1.30649      2.22000     11.62841        -0.183732      0.014313     -0.035849
      6.39030      2.22000     11.62841         0.183732      0.014313     -0.035849
      2.57906      4.42416     11.62841        -0.104261      0.151960     -0.035849
      5.11773      4.42416     11.62841         0.104261      0.151960     -0.035849
      7.69679      4.44374     11.62071         0.000000      0.000000      0.002928
      3.84839      2.22187     11.51210         0.000000     -0.000000      0.632680
      3.84839      2.22187     13.14795         0.000000      0.000000     -0.004910
      3.84839      2.22187     14.40729         0.000000     -0.000000     -0.007263
      3.84839      2.22187     15.36945         0.000000      0.000000     -0.010964
    total drift:                                0.092099      0.050219     -0.219901

  FREE ENERGIE OF THE ION-ELECTRON SYSTEM (eV)
  free  energy   TOTEN  =      -146.43191482 eV

  energy  without entropy=     -146.43191482  energy(sigma->0) =     -146.43191482

 stress matrix after NEB project (eV)
     -3.53660      0.00000     -0.00000
      0.00000     -3.53660     -0.00000
     -0.00000     -0.00000      3.94365
  FORCES: max atom, RMS     0.010964    0.002248
  FORCE total and by dimension    0.014038    0.010964
  Stress total and by dimension    6.369255    3.943650
|           W    W    AA    RRRRR   N    N  II  N    N   GGGG   !!!           |
|           W    W   A  A   R    R  NN   N  II  NN   N  G    G  !!!           |
|           W    W  A    A  R    R  N N  N  II  N N  N  G       !!!           |
|           W WW W  AAAAAA  RRRRR   N  N N  II  N  N N  G  GGG   !            |
|           WW  WW  A    A  R   R   N   NN  II  N   NN  G    G                |
|           W    W  A    A  R    R  N    N  II  N    N   GGGG   !!!           |
|     Tetrahedron method does not include variations of the Fermi             |
|     occupations, so forces and stress will be inaccurate. We suggest        |
|     using a different smearing scheme ISMEAR = 1 or 2 for metals in         |
|     relaxations.                                                            |

 total charge

# of ion       s       p       d       tot
    1        0.447   0.284   9.189   9.921
    2        0.449   0.285   9.187   9.922
    3        0.449   0.285   9.187   9.922
    4        0.449   0.285   9.187   9.922
    5        0.449   0.287   9.186   9.921
    6        0.449   0.285   9.187   9.922
    7        0.449   0.285   9.187   9.922
    8        0.449   0.285   9.187   9.922
    9        0.446   0.287   9.186   9.919
   10        0.441   0.371   9.179   9.992
   11        0.443   0.370   9.181   9.994
   12        0.441   0.371   9.179   9.992
   13        0.443   0.370   9.181   9.994
   14        0.443   0.370   9.181   9.994
   15        0.438   0.371   9.181   9.990
   16        0.441   0.371   9.179   9.992
   17        0.438   0.371   9.181   9.990
   18        0.438   0.371   9.181   9.990
   19        0.442   0.370   9.181   9.992
   20        0.455   0.391   9.170  10.016
   21        0.455   0.391   9.170  10.016
   22        0.436   0.377   9.179   9.992
   23        0.455   0.391   9.170  10.016
   24        0.436   0.377   9.179   9.992
   25        0.442   0.370   9.181   9.992
   26        0.442   0.370   9.181   9.992
   27        0.436   0.377   9.179   9.992
   28        0.450   0.284   9.192   9.926
   29        0.440   0.297   9.190   9.926
   30        0.440   0.297   9.190   9.926
   31        0.440   0.297   9.190   9.926
   32        0.440   0.297   9.190   9.926
   33        0.440   0.297   9.190   9.926
   34        0.440   0.297   9.190   9.926
   35        0.448   0.285   9.192   9.924
   36        0.500   0.653   7.481   8.634
   37        0.934   1.430   0.000   2.364
   38        1.529   3.756   0.000   5.285
   39        0.559   0.132   0.000   0.691
tot         19.060  17.642 328.897 365.598

 BZINTS: Fermi energy:   -0.026229;  405.000000 electrons
         Band energy:-0.122974E+04;  BLOECHL correction:   -0.060895