 vasp.6.2.0 18Jan21 (build Jun 12 2021 23:27:24) complex

 executed on             LinuxIFC date 2022.05.26  20:29:18

 INCAR:
   ISMEAR = -5
   SIGMA = 0.1
   ISPIN = 1
   EDIFF = 1.d-5
   EDIFFG = -0.01
   NSW = 0
   NELM = 150
   ENCUT = 500
   ISIF = 2
   IBRION = 2
   LREAL = Auto
   ALGO = Fast
   ICHARG = 11
   LORBIT = 10
   LCHARG = .F.
   LWAVE = .F.

 POTCAR:    PAW_PBE Cu 22Jun2005
 POTCAR:    PAW_PBE Re 17Jan2003
|           W    W    AA    RRRRR   N    N  II  N    N   GGGG   !!!           |
|           W    W   A  A   R    R  NN   N  II  NN   N  G    G  !!!           |
|           W    W  A    A  R    R  N N  N  II  N N  N  G       !!!           |
|           W WW W  AAAAAA  RRRRR   N  N N  II  N  N N  G  GGG   !            |
|           WW  WW  A    A  R   R   N   NN  II  N   NN  G    G                |
|           W    W  A    A  R    R  N    N  II  N    N   GGGG   !!!           |
|     For optimal performance we recommend to set                             |
|       NCORE = 2 up to number-of-cores-per-socket                            |
|     This setting can greatly improve the performance of VASP for DFT.       |
|     The default, NCORE=1 might be grossly inefficient on modern             |
|     multi-core architectures or massively parallel machines. Do your        |
|     Unfortunately you need to use the default for GW and RPA                |
|     calculations (for HF NCORE is supported but not extensively tested      |
|     yet).                                                                   |

 POTCAR:    PAW_PBE Cu 22Jun2005
   VRHFIN =Cu: d10 p1

   TITEL  = PAW_PBE Cu 22Jun2005
   POMASS =   63.546; ZVAL   =   11.000    mass and valenz
   ENMAX  =  295.446; ENMIN  =  221.585 eV

 POTCAR:    PAW_PBE Re 17Jan2003
   VRHFIN =Re: 5p6s5d

   TITEL  = PAW_PBE Re 17Jan2003
   POMASS =  186.207; ZVAL   =    7.000    mass and valenz
   ENMAX  =  226.216; ENMIN  =  169.662 eV

 Optimization of the real space projectors (new method)

 maximal supplied QI-value         = 16.25
 optimisation between [QCUT,QGAM] = [ 11.38, 22.75] = [ 36.24,144.96] Ry
 Optimized for a Real-space Cutoff    1.52 Angstroem

   l    n(q)    QCUT    max X(q) W(low)/X(q) W(high)/X(q)  e(spline)
   2      9    11.376     4.610    0.21E-03    0.10E-03    0.26E-06
   2      9    11.376     8.522    0.33E-03    0.16E-03    0.37E-06
   0     10    11.376    51.609    0.62E-04    0.20E-04    0.13E-06
   0     10    11.376    27.747    0.54E-04    0.20E-04    0.13E-06
   1     10    11.376    20.408    0.13E-04    0.99E-04    0.19E-06
   1     10    11.376    13.425    0.12E-04    0.87E-04    0.17E-06
 Optimization of the real space projectors (new method)

 maximal supplied QI-value         = 13.98
 optimisation between [QCUT,QGAM] = [ 11.33, 22.79] = [ 35.93,145.49] Ry
 Optimized for a Real-space Cutoff    1.56 Angstroem

   l    n(q)    QCUT    max X(q) W(low)/X(q) W(high)/X(q)  e(spline)
   2     10    11.327   884.633    0.22E-03    0.51E-03    0.88E-06
   2     10    11.327   796.723    0.22E-03    0.51E-03    0.88E-06
   0     11    11.327    65.348    0.44E-04    0.11E-03    0.75E-06
   0     11    11.327    39.642    0.40E-04    0.10E-03    0.69E-06
   1     10    11.327    13.988    0.15E-03    0.10E-03    0.19E-06
   1     10    11.327     8.682    0.11E-03    0.76E-04    0.14E-06
  PAW_PBE Cu 22Jun2005                  :
  PAW_PBE Re 17Jan2003                  :

 POSCAR: Cu-Re
  positions in direct lattice
  velocities in cartesian coordinates
 exchange correlation table for  LEXCH =        8
   RHO(1)=    0.500       N(1)  =     2000
   RHO(2)=  100.500       N(2)  =     4000

 VTST: version 3.2, (02/03/18)

 CHAIN: initializing optimizer

 OPT: Using VASP Conjugate-Gradient optimizer
 CHAIN: Read ICHAIN            0

 POSCAR: Cu-Re
  positions in direct lattice
  velocities in cartesian coordinates

 ion  position               nearest neighbor table
   1  0.000  0.000  0.252-   7 2.57   3 2.57   4 2.57   2 2.57   6 2.57   8 2.57  12 2.57  10 2.57
                            16 2.57
   2  0.333  0.000  0.252-   8 2.57   9 2.57   5 2.57   1 2.57   3 2.57  11 2.57   4 2.57  10 2.57
                            17 2.57
   3  0.667  0.000  0.252-   1 2.57   7 2.57   6 2.57   9 2.57   2 2.57  12 2.57   5 2.57  18 2.57
                            11 2.57
   4  0.000  0.333  0.252-   5 2.57   6 2.57   1 2.57   7 2.57   2 2.57  13 2.57   9 2.57  10 2.57
                            15 2.57
   5  0.333  0.333  0.252-   4 2.57   2 2.57   7 2.57  13 2.57   8 2.57   6 2.57   3 2.57  11 2.57
                            14 2.57
   6  0.667  0.333  0.252-   4 2.57   9 2.57  15 2.57   3 2.57   1 2.57   8 2.57  14 2.57   5 2.57
                            12 2.57
   7  0.000  0.667  0.252-   1 2.57   3 2.57  16 2.57  18 2.57   4 2.57   5 2.57   8 2.57   9 2.57
                            13 2.57
   8  0.333  0.667  0.252-   9 2.57   2 2.57  17 2.57   6 2.57   1 2.57   7 2.57   5 2.57  14 2.57
                            16 2.57
   9  0.667  0.667  0.252-   8 2.57   6 2.57   2 2.57  17 2.57   3 2.57   7 2.57   4 2.57  15 2.57
                            18 2.57
  10  0.111  0.111  0.351-  20 2.53  11 2.57  12 2.57  13 2.57   1 2.57   2 2.57   4 2.57  15 2.57
                            16 2.57  17 2.57  26 2.57  19 2.57
  11  0.444  0.111  0.351-  20 2.55  21 2.55  10 2.57  13 2.57   2 2.57  17 2.57  14 2.57  12 2.57
                             5 2.57   3 2.57  18 2.57  27 2.58
  12  0.778  0.111  0.351-  21 2.53  15 2.57  10 2.57  14 2.57  18 2.57   3 2.57   1 2.57  16 2.57
                            11 2.57   6 2.57  19 2.57  25 2.57
  13  0.111  0.444  0.351-  23 2.55  20 2.55  16 2.57  18 2.57  10 2.57  11 2.57  14 2.57   5 2.57
                             4 2.57   7 2.57  15 2.57  22 2.58
  14  0.444  0.444  0.351-  21 2.55  23 2.55  15 2.57  17 2.57  12 2.57  16 2.57  13 2.57  11 2.57
                             6 2.57   8 2.57   5 2.57  24 2.58
  15  0.778  0.444  0.351-  19 2.57  14 2.57  17 2.57  12 2.57   6 2.57  18 2.57  10 2.57   9 2.57
                            13 2.57   4 2.57  24 2.57  22 2.57
  16  0.111  0.778  0.351-  23 2.53  18 2.57  13 2.57   7 2.57  14 2.57  17 2.57  12 2.57  10 2.57
                             8 2.57   1 2.57  25 2.57  26 2.57
  17  0.444  0.778  0.351-  26 2.57  14 2.57  15 2.57   8 2.57   9 2.57  11 2.57  16 2.57  18 2.57
                            10 2.57   2 2.57  27 2.57  24 2.57
  18  0.778  0.778  0.351-  25 2.57  16 2.57  13 2.57   7 2.57  15 2.57  12 2.57  17 2.57   9 2.57
                             3 2.57  11 2.57  22 2.57  27 2.57
  19  0.889  0.223  0.449-  21 2.55  20 2.55  22 2.56  24 2.56  28 2.56  15 2.57  12 2.57  10 2.57
                            25 2.57  26 2.57  32 2.59  31 2.59
  20  0.221  0.221  0.448-  36 2.53  10 2.53  11 2.55  13 2.55  26 2.55  19 2.55  27 2.57  22 2.57
                            23 2.59  21 2.59  29 2.61  31 2.61
  21  0.558  0.221  0.448-  36 2.53  12 2.53  14 2.55  11 2.55  19 2.55  25 2.55  24 2.57  27 2.57
                            20 2.59  23 2.59  32 2.61  30 2.61
  22  0.888  0.556  0.450-  24 2.55  27 2.55  35 2.55  19 2.56  25 2.56  18 2.57  15 2.57  23 2.57
                            20 2.57  13 2.58  31 2.59  33 2.59
  23  0.221  0.558  0.448-  36 2.53  16 2.53  13 2.55  14 2.55  25 2.55  26 2.55  22 2.57  24 2.57
                            20 2.59  21 2.59  33 2.61  34 2.61
  24  0.556  0.556  0.450-  22 2.55  27 2.55  35 2.55  19 2.56  26 2.56  15 2.57  17 2.57  21 2.57
                            23 2.57  14 2.58  32 2.59  34 2.59
  25  0.889  0.889  0.449-  21 2.55  23 2.55  22 2.56  27 2.56  28 2.56  18 2.57  16 2.57  12 2.57
                            19 2.57  26 2.57  33 2.59  30 2.59
  26  0.223  0.889  0.449-  20 2.55  23 2.55  27 2.56  24 2.56  28 2.56  17 2.57  10 2.57  16 2.57
                            25 2.57  19 2.57  29 2.59  34 2.59
  27  0.556  0.888  0.450-  24 2.55  22 2.55  35 2.55  26 2.56  25 2.56  17 2.57  18 2.57  20 2.57
                            21 2.57  11 2.58  29 2.59  30 2.59
  28  0.000  0.000  0.548-  33 2.56  30 2.56  31 2.56  29 2.56  32 2.56  34 2.56  25 2.56  19 2.56
                            26 2.56
  29  0.333  0.000  0.549-  31 2.56  28 2.56  36 2.57  34 2.57  35 2.57  30 2.57  26 2.59  27 2.59
                            20 2.61
  30  0.667  0.000  0.549-  32 2.56  28 2.56  36 2.57  33 2.57  35 2.57  29 2.57  25 2.59  27 2.59
                            21 2.61
  31  0.000  0.333  0.549-  29 2.56  28 2.56  36 2.57  32 2.57  35 2.57  33 2.57  19 2.59  22 2.59
                            20 2.61
  32  0.667  0.333  0.549-  30 2.56  28 2.56  36 2.57  31 2.57  35 2.57  34 2.57  19 2.59  24 2.59
                            21 2.61
  33  0.000  0.667  0.549-  34 2.56  28 2.56  36 2.57  30 2.57  35 2.57  31 2.57  25 2.59  22 2.59
                            23 2.61
  34  0.333  0.667  0.549-  33 2.56  28 2.56  36 2.57  29 2.57  35 2.57  32 2.57  26 2.59  24 2.59
                            23 2.61
  35  0.667  0.667  0.548-  24 2.55  27 2.55  22 2.55  34 2.57  32 2.57  29 2.57  30 2.57  33 2.57
                            31 2.57
  36  0.333  0.333  0.544-  23 2.53  20 2.53  21 2.53  31 2.57  29 2.57  33 2.57  34 2.57  32 2.57
                            30 2.57

  LATTYP: Found a hexagonal cell.
 ALAT       =     7.6967864036
 C/A-ratio  =     2.7653617908

  Lattice vectors:

 A1 = (  -3.8483927580,  -6.6656128093,   0.0000000000)
 A2 = (   7.6967864037,   0.0000000000,   0.0000000000)
 A3 = (   0.0000000000,   0.0000000000,  21.2843990326)

Analysis of symmetry for initial positions (statically):
 Subroutine PRICEL returns:
 Original cell was already a primitive cell.

 Routine SETGRP: Setting up the symmetry group for a
 hexagonal supercell.

 Subroutine GETGRP returns: Found  6 space group operations
 (whereof  6 operations were pure point group operations)
 out of a pool of 24 trial point group operations.

The static configuration has the point symmetry C_3v.

Analysis of symmetry for dynamics (positions and initial velocities):
 Subroutine PRICEL returns:
 Original cell was already a primitive cell.

[...]

The dynamic configuration has the point symmetry C_3v.

Analysis of constrained symmetry for selective dynamics:
 Subroutine PRICEL returns:
 Original cell was already a primitive cell.

 Routine SETGRP: Setting up the symmetry group for a
 hexagonal supercell.

 Subroutine GETGRP returns: Found  6 space group operations
 (whereof  6 operations were pure point group operations)
 out of a pool of 24 trial point group operations.

The constrained configuration has the point symmetry C_3v.

 Subroutine INISYM returns: Found  6 space group operations
 (whereof  6 operations are pure point group operations),
 and found     1 'primitive' translations

                                     Primitive cell

  volume of cell :    1091.9705

  direct lattice vectors                    reciprocal lattice vectors
     7.696786404  0.000000000  0.000000000     0.129924354 -0.075011849  0.000000000
     3.848392758  6.665612809  0.000000000     0.000000000  0.150023716  0.000000000
[...]
     15      -4.5402      2.00000
     16      -4.5346      2.00000
     17      -4.5103      2.00000
     18      -4.4684      2.00000
     19      -4.4275      2.00000
     20      -4.3979      2.00000
     21      -4.3727      2.00000
     22      -4.3521      2.00000
     23      -4.3299      2.00000
     24      -4.2092      2.00000
     25      -4.1620      2.00000
     26      -4.1282      2.00000
     27      -4.1140      2.00000
     28      -4.0697      2.00000
     29      -4.0515      2.00000
     30      -4.0437      2.00000
     31      -4.0396      2.00000
     32      -4.0260      2.00000
     33      -4.0103      2.00000
     34      -3.9852      2.00000
     35      -3.9226      2.00000
     36      -3.8929      2.00000
     37      -3.7464      2.00000
     38      -3.7287      2.00000
     39      -3.6847      2.00000
     40      -3.6571      2.00000
     41      -3.6526      2.00000
     42      -3.6306      2.00000
     43      -3.6234      2.00000
     44      -3.6104      2.00000
     45      -3.6039      2.00000
     46      -3.4328      2.00000
     47      -3.4116      2.00000
     48      -3.3983      2.00000
     49      -3.3847      2.00000
     50      -3.3357      2.00000
     51      -3.3295      2.00000
     52      -3.3250      2.00000
     53      -3.3140      2.00000
     54      -3.3098      2.00000
     55      -3.3018      2.00000
     56      -3.2626      2.00000
     57      -3.2458      2.00000
     58      -3.2445      2.00000
     59      -3.2414      2.00000
     60      -3.2357      2.00000
[...]
    238       6.7101      0.00000
    239       6.7526      0.00000
    240       6.8913      0.00000
    241       6.9747      0.00000
    242       7.1488      0.00000
    243       7.2890      0.00000
    244       7.3165      0.00000
    245       7.4239      0.00000
    246       7.6336      0.00000
    247       7.6971      0.00000
    248       7.8975      0.00000
    249       8.0686      0.00000
    250       8.1881      0.00000
    251       8.3044      0.00000
    252       8.3594      0.00000

 soft charge-density along one line, spin component           1
         0         1         2         3         4         5         6         7         8         9
 total charge-density along one line

------------------------ aborting loop because EDIFF is reached ----------------------------------------

 total charge

# of ion       s       p       d       tot
    1        0.449   0.284   9.189   9.923
    2        0.448   0.285   9.187   9.921
    3        0.448   0.285   9.187   9.921
    4        0.448   0.285   9.187   9.921
    5        0.447   0.288   9.182   9.917
    6        0.448   0.285   9.187   9.921
    7        0.448   0.285   9.187   9.921
    8        0.448   0.285   9.187   9.921
    9        0.448   0.282   9.189   9.919
   10        0.444   0.373   9.174   9.992
   11        0.443   0.365   9.186   9.994
   12        0.444   0.373   9.174   9.992
   13        0.443   0.365   9.186   9.994
   14        0.443   0.365   9.186   9.994
   15        0.439   0.368   9.179   9.986
   16        0.444   0.373   9.174   9.992
   17        0.439   0.368   9.179   9.986
   18        0.439   0.368   9.179   9.986
   19        0.438   0.368   9.181   9.987
   20        0.462   0.408   9.156  10.026
   21        0.462   0.408   9.156  10.026
   22        0.429   0.368   9.185   9.982
   23        0.462   0.408   9.156  10.026
   24        0.429   0.368   9.185   9.982
   25        0.438   0.368   9.181   9.987
   26        0.438   0.368   9.181   9.987
   27        0.429   0.368   9.185   9.982
   28        0.446   0.289   9.181   9.917
   29        0.466   0.316   9.159   9.942
   30        0.466   0.316   9.159   9.942
   31        0.466   0.316   9.159   9.942
   32        0.466   0.316   9.159   9.942
   33        0.466   0.316   9.159   9.942
   34        0.466   0.316   9.159   9.942
   35        0.437   0.293   9.183   9.913
   36        0.602   0.369   4.783   5.754
tot         16.287  12.166 325.971 354.423

  FORCE on cell =-STRESS in cart. coord.  units (eV):
  Direction    XX          YY          ZZ          XY          YZ          ZX
  Alpha Z   883.89777   883.89777   883.89777
  Ewald  171333.15336171333.15299************     0.00036     0.00011     0.00014
  Hartree184164.39624184164.39624************     0.00002     0.00005     0.00005
  E(xc)   -2278.00707 -2278.00657 -2282.85998    -0.00043    -0.00003    -0.00006
  Local  ************************368670.78301     0.01841    -0.00055    -0.00087
  n-local  -780.90812  -766.52463  -790.67632     7.41325     0.09974    -0.07829
  augment  3315.86342  3315.88357  3340.11268    -0.01744     0.00032     0.00054
  Kinetic  3216.02266  3224.90677  3257.99826     5.58177     0.99622    -0.29761
  Fock        0.00000     0.00000     0.00000     0.00000     0.00000     0.00000
  Total      -7.39873    -7.39873     0.42275     0.00000    -0.00000     0.00000
  in kB     -10.85568   -10.85568     0.62027     0.00000    -0.00000     0.00000

 VOLUME and BASIS-vectors are now :
  energy-cutoff  :      500.00
  volume of cell :     1091.97
      direct lattice vectors                 reciprocal lattice vectors
     7.696786404  0.000000000  0.000000000     0.129924354 -0.075011849  0.000000000
     3.848392758  6.665612809  0.000000000     0.000000000  0.150023716  0.000000000
     0.000000000  0.000000000 21.284399033     0.000000000  0.000000000  0.046982769

  length of vectors
     7.696786404  7.696786404 21.284399033     0.150023716  0.150023716  0.046982769

 FORCES acting on ions
    electron-ion (+dipol)            ewald-force                    non-local-force                 convergence-correction
   -.416E-04 0.176E-06 0.345E+04   0.581E-04 -.431E-05 -.345E+04   -.835E-17 -.285E-17 -.275E+01   -.400E-03 -.198E-03 -.151E+00
   -.631E+00 -.140E-01 0.345E+04   0.294E+00 0.788E-01 -.345E+04   0.126E+00 0.520E-01 -.177E+01   0.206E+00 -.102E+00 -.164E+00
   0.631E+00 -.139E-01 0.345E+04   -.294E+00 0.787E-01 -.345E+04   -.126E+00 0.520E-01 -.177E+01   -.205E+00 -.993E-01 -.163E+00
   -.327E+00 -.539E+00 0.345E+04   0.215E+00 0.215E+00 -.345E+04   0.108E+00 0.831E-01 -.177E+01   0.151E-01 0.229E+00 -.164E+00
   -.617E-04 -.342E-05 0.345E+04   0.116E-03 -.101E-04 -.344E+04   -.307E-18 0.590E-18 -.148E+01   0.121E-01 0.741E-02 -.898E-01
   0.327E+00 -.539E+00 0.345E+04   -.215E+00 0.215E+00 -.345E+04   -.108E+00 0.831E-01 -.177E+01   -.166E-01 0.231E+00 -.163E+00
   0.303E+00 0.553E+00 0.345E+04   -.787E-01 -.294E+00 -.345E+04   -.180E-01 -.135E+00 -.177E+01   -.189E+00 -.128E+00 -.163E+00
   -.303E+00 0.553E+00 0.345E+04   0.784E-01 -.294E+00 -.345E+04   0.180E-01 -.135E+00 -.177E+01   0.192E+00 -.130E+00 -.163E+00
   -.144E-03 -.329E-04 0.345E+04   0.263E-03 0.205E-04 -.345E+04   -.991E-18 0.785E-18 -.231E+01   -.131E-01 -.674E-02 -.315E+00
   0.894E+00 0.516E+00 0.112E+04   -.477E+00 -.276E+00 -.112E+04   -.521E+00 -.301E+00 -.130E+01   0.105E+00 0.606E-01 0.540E+00
   -.913E-04 -.121E+01 0.111E+04   0.190E-03 0.946E+00 -.111E+04   -.120E-07 0.181E+00 -.136E+00   0.123E-01 0.308E-01 0.591E+00
   -.894E+00 0.516E+00 0.112E+04   0.477E+00 -.276E+00 -.112E+04   0.521E+00 -.301E+00 -.130E+01   -.107E+00 0.613E-01 0.540E+00
   -.105E+01 0.607E+00 0.111E+04   0.819E+00 -.473E+00 -.111E+04   0.157E+00 -.904E-01 -.136E+00   0.333E-01 -.397E-02 0.591E+00
   0.105E+01 0.607E+00 0.111E+04   -.820E+00 -.473E+00 -.111E+04   -.157E+00 -.904E-01 -.136E+00   -.993E-02 -.610E-02 0.588E+00
   -.142E-03 -.915E+00 0.112E+04   0.298E-03 0.537E+00 -.112E+04   -.134E-07 0.201E+00 -.952E+00   -.323E-02 0.164E+00 0.481E+00
   -.922E-04 -.103E+01 0.112E+04   0.186E-03 0.551E+00 -.112E+04   -.400E-07 0.601E+00 -.130E+01   -.131E-02 -.124E+00 0.540E+00
   -.792E+00 0.457E+00 0.112E+04   0.465E+00 -.268E+00 -.112E+04   0.174E+00 -.101E+00 -.952E+00   0.141E+00 -.848E-01 0.481E+00
   0.792E+00 0.457E+00 0.112E+04   -.465E+00 -.268E+00 -.112E+04   -.174E+00 -.101E+00 -.952E+00   -.139E+00 -.820E-01 0.484E+00
   -.592E-04 -.464E+01 -.122E+04   0.716E-04 0.448E+01 0.122E+04   0.110E-08 -.166E-01 0.777E+00   -.109E-01 0.167E+00 0.954E+00
   -.415E+02 -.240E+02 -.125E+04   0.422E+02 0.244E+02 0.125E+04   -.101E+01 -.582E+00 -.102E+01   0.268E+00 0.155E+00 0.125E+01
   0.415E+02 -.240E+02 -.125E+04   -.422E+02 0.244E+02 0.125E+04   0.101E+01 -.582E+00 -.102E+01   -.287E+00 0.151E+00 0.125E+01
   -.271E+02 0.157E+02 -.123E+04   0.262E+02 -.152E+02 0.123E+04   0.729E+00 -.421E+00 0.673E+00   0.188E+00 -.933E-01 0.880E+00
   -.898E-04 0.479E+02 -.125E+04   0.147E-03 -.488E+02 0.125E+04   -.776E-07 0.116E+01 -.102E+01   -.139E-01 -.325E+00 0.125E+01
   0.271E+02 0.157E+02 -.123E+04   -.262E+02 -.152E+02 0.123E+04   -.729E+00 -.421E+00 0.673E+00   -.164E+00 -.956E-01 0.880E+00
   0.402E+01 0.232E+01 -.122E+04   -.388E+01 -.224E+01 0.122E+04   0.143E-01 0.828E-02 0.777E+00   -.162E+00 -.937E-01 0.953E+00
   -.402E+01 0.232E+01 -.122E+04   0.388E+01 -.224E+01 0.122E+04   -.143E-01 0.828E-02 0.777E+00   0.139E+00 -.925E-01 0.954E+00
   -.113E-03 -.313E+02 -.123E+04   0.239E-03 0.303E+02 0.123E+04   -.561E-07 0.842E+00 0.673E+00   0.132E-01 0.209E+00 0.880E+00
   -.509E-04 0.850E-05 -.346E+04   0.438E-04 -.314E-04 0.346E+04   0.705E-17 0.823E-17 0.189E+01   -.463E-03 -.214E-03 0.554E+00
   -.416E+02 -.679E+02 -.348E+04   0.422E+02 0.685E+02 0.348E+04   -.849E+00 -.105E+01 0.836E+00   0.298E+00 0.425E+00 0.498E+00
   0.416E+02 -.679E+02 -.348E+04   -.422E+02 0.685E+02 0.348E+04   0.849E+00 -.105E+01 0.836E+00   -.297E+00 0.426E+00 0.496E+00
   -.796E+02 -.210E+01 -.348E+04   0.804E+02 0.225E+01 0.348E+04   -.134E+01 -.208E+00 0.836E+00   0.518E+00 0.455E-01 0.498E+00
   0.796E+02 -.210E+01 -.348E+04   -.804E+02 0.225E+01 0.348E+04   0.134E+01 -.208E+00 0.836E+00   -.517E+00 0.457E-01 0.498E+00
   -.380E+02 0.700E+02 -.348E+04   0.383E+02 -.708E+02 0.348E+04   -.488E+00 0.126E+01 0.836E+00   0.220E+00 -.470E+00 0.496E+00
   0.380E+02 0.700E+02 -.348E+04   -.383E+02 -.708E+02 0.348E+04   0.488E+00 0.126E+01 0.836E+00   -.218E+00 -.471E+00 0.498E+00
   -.147E-03 -.293E-04 -.347E+04   0.247E-03 0.265E-05 0.347E+04   -.189E-17 -.215E-17 0.261E+01   -.121E-01 -.616E-02 0.704E+00
   -.447E-04 -.111E-04 -.217E+04   0.892E-04 0.167E-04 0.217E+04   0.703E-17 0.176E-17 0.237E+01   0.546E-03 0.323E-03 0.364E+00
   -.224E-03 0.229E-04 -.602E+01   0.200E-12 0.115E-12 0.155E-10   0.838E-15 -.667E-15 -.112E+02   -.600E-02 -.655E-02 0.171E+02

 POSITION                                       TOTAL-FORCE (eV/Angst)
      0.00000      0.00000      5.37156         0.000000      0.000000     -0.018474
      2.56560      0.00000      5.37156        -0.004453      0.016114      0.056135
      5.13119      0.00000      5.37156         0.004453      0.016114      0.056135
      1.28280      2.22187      5.37156         0.011728     -0.011913      0.056135
      3.84839      2.22187      5.37156        -0.000000      0.000000      0.032591
      6.41399      2.22187      5.37156        -0.011728     -0.011913      0.056135
      2.56560      4.44374      5.37156         0.016182     -0.004200      0.056135
      5.13119      4.44374      5.37156        -0.016182     -0.004200      0.056135
      7.69679      4.44374      5.37156         0.000000      0.000000      0.030881
      1.28280      0.74062      7.46636         0.002949      0.001703     -0.060689
      3.84839      0.74062      7.46636         0.000000     -0.062115     -0.098804
      6.41399      0.74062      7.46636        -0.002949      0.001703     -0.060689
      2.56560      2.96249      7.46636        -0.053793      0.031057     -0.098804
      5.13119      2.96249      7.46636         0.053793      0.031057     -0.098804
      7.69679      2.96249      7.46636         0.000000     -0.013200      0.012164
      3.84839      5.18437      7.46636         0.000000     -0.003405     -0.060689
      6.41399      5.18437      7.46636        -0.011431      0.006600      0.012164
      8.97958      5.18437      7.46636         0.011431      0.006600      0.012164
      7.69679      1.48486      9.56345         0.000000     -0.003015     -0.002727
      2.55359      1.47432      9.53212        -0.000300     -0.000173      0.003058
      5.14319      1.47432      9.53212         0.000300     -0.000173      0.003058
      8.97343      3.70667      9.56919         0.001610     -0.000930     -0.010055
      3.84839      3.71698      9.53212        -0.000000      0.000347      0.003058
      6.42014      3.70667      9.56919        -0.001610     -0.000930     -0.010055
     10.25925      5.92318      9.56345         0.002611      0.001507     -0.002727
      5.13432      5.92318      9.56345        -0.002611      0.001507     -0.002727
      7.69679      5.91789      9.56919        -0.000000      0.001859     -0.010055
      0.00000      0.00000     11.65394         0.000000      0.000000      0.015257
      2.56263      0.00314     11.68588        -0.010572     -0.007311      0.014376
      5.13415      0.00314     11.68588         0.010572     -0.007311      0.014376
      1.28404      2.21774     11.68588        -0.011617     -0.005500      0.014376
      6.41275      2.21774     11.68588         0.011617     -0.005500      0.014376
      2.56979      4.44474     11.68588        -0.001045      0.012811      0.014376
      5.12699      4.44474     11.68588         0.001045      0.012811      0.014376
      7.69679      4.44374     11.65455         0.000000      0.000000      0.006239
      3.84839      2.22187     11.57229         0.000000      0.000000     -0.018395
    total drift:                               -0.006223     -0.006532     -0.057232

  FREE ENERGIE OF THE ION-ELECTRON SYSTEM (eV)
  free  energy   TOTEN  =      -132.02584886 eV

  energy  without entropy=     -132.02584886  energy(sigma->0) =     -132.02584886

 stress matrix after NEB project (eV)
     -7.39873      0.00000      0.00000
      0.00000     -7.39873     -0.00000
     -0.00000     -0.00000      0.42275
  FORCES: max atom, RMS     0.019284    0.009477
  FORCE total and by dimension    0.056860    0.018395
  Stress total and by dimension   10.471925    7.398734
|           W    W    AA    RRRRR   N    N  II  N    N   GGGG   !!!           |
|           W    W   A  A   R    R  NN   N  II  NN   N  G    G  !!!           |
|           W    W  A    A  R    R  N N  N  II  N N  N  G       !!!           |
|           W WW W  AAAAAA  RRRRR   N  N N  II  N  N N  G  GGG   !            |
|           WW  WW  A    A  R   R   N   NN  II  N   NN  G    G                |
|           W    W  A    A  R    R  N    N  II  N    N   GGGG   !!!           |
|     Tetrahedron method does not include variations of the Fermi             |
|     occupations, so forces and stress will be inaccurate. We suggest        |
|     using a different smearing scheme ISMEAR = 1 or 2 for metals in         |
|     relaxations.                                                            |

 total charge

# of ion       s       p       d       tot
    1        0.449   0.284   9.189   9.923
    2        0.448   0.285   9.187   9.921
    3        0.448   0.285   9.187   9.921
    4        0.448   0.285   9.187   9.921
    5        0.447   0.288   9.182   9.917
    6        0.448   0.285   9.187   9.921
    7        0.448   0.285   9.187   9.921
    8        0.448   0.285   9.187   9.921
    9        0.448   0.282   9.189   9.919
   10        0.444   0.373   9.174   9.992
   11        0.443   0.365   9.186   9.994
   12        0.444   0.373   9.174   9.992
   13        0.443   0.365   9.186   9.994
   14        0.443   0.365   9.186   9.994
   15        0.439   0.368   9.179   9.986
   16        0.444   0.373   9.174   9.992
   17        0.439   0.368   9.179   9.986
   18        0.439   0.368   9.179   9.986
   19        0.438   0.368   9.181   9.987
   20        0.462   0.408   9.156  10.026
   21        0.462   0.408   9.156  10.026
   22        0.429   0.368   9.185   9.982
   23        0.462   0.408   9.156  10.026
   24        0.429   0.368   9.185   9.982
   25        0.438   0.368   9.181   9.987
   26        0.438   0.368   9.181   9.987
   27        0.429   0.368   9.185   9.982
   28        0.446   0.289   9.181   9.917
   29        0.466   0.316   9.159   9.942
   30        0.466   0.316   9.159   9.942
   31        0.466   0.316   9.159   9.942
   32        0.466   0.316   9.159   9.942
   33        0.466   0.316   9.159   9.942
   34        0.466   0.316   9.159   9.942
   35        0.437   0.293   9.183   9.913
   36        0.602   0.369   4.783   5.754
tot         16.287  12.166 325.971 354.423

 BZINTS: Fermi energy:    0.061115;  392.000000 electrons
         Band energy:-0.108313E+04;  BLOECHL correction:   -0.036135