 vasp.6.2.0 18Jan21 (build Jun 12 2021 23:27:24) complex

 executed on             LinuxIFC date 2022.05.27  05:29:36

 INCAR:
   ISMEAR = -5
   SIGMA = 0.1
   ISPIN = 1
   EDIFF = 1.d-5
   EDIFFG = -0.01
   NSW = 0
   NELM = 150
   ENCUT = 500
   ISIF = 2
   IBRION = 2
   LREAL = Auto
   ALGO = Fast
   ICHARG = 11
   LORBIT = 10
   LCHARG = .F.
   LWAVE = .F.

 POTCAR:    PAW_PBE Ag 02Apr2005
 POTCAR:    PAW_PBE Mn 06Sep2000
 POTCAR:    PAW_PBE O 08Apr2002
 POTCAR:    PAW_PBE H 15Jun2001
|           W    W    AA    RRRRR   N    N  II  N    N   GGGG   !!!           |
|           W    W   A  A   R    R  NN   N  II  NN   N  G    G  !!!           |
|           W    W  A    A  R    R  N N  N  II  N N  N  G       !!!           |
|           W WW W  AAAAAA  RRRRR   N  N N  II  N  N N  G  GGG   !            |
|           WW  WW  A    A  R   R   N   NN  II  N   NN  G    G                |
|           W    W  A    A  R    R  N    N  II  N    N   GGGG   !!!           |
|     For optimal performance we recommend to set                             |
|       NCORE = 2 up to number-of-cores-per-socket                            |
|     This setting can greatly improve the performance of VASP for DFT.       |
|     The default, NCORE=1 might be grossly inefficient on modern             |
|     multi-core architectures or massively parallel machines. Do your        |
|     Unfortunately you need to use the default for GW and RPA                |
|     calculations (for HF NCORE is supported but not extensively tested      |
|     yet).                                                                   |

 POTCAR:    PAW_PBE Ag 02Apr2005
   VRHFIN =Ag : s1 d10

   TITEL  = PAW_PBE Ag 02Apr2005
   POMASS =  107.868; ZVAL   =   11.000    mass and valenz
   ENMAX  =  249.844; ENMIN  =  187.383 eV

 POTCAR:    PAW_PBE Mn 06Sep2000
   VRHFIN =Mn: d6 s1

   TITEL  = PAW_PBE Mn 06Sep2000
   POMASS =   54.938; ZVAL   =    7.000    mass and valenz
   ENMAX  =  269.864; ENMIN  =  202.398 eV

 POTCAR:    PAW_PBE O 08Apr2002
   VRHFIN =O: s2p4

   TITEL  = PAW_PBE O 08Apr2002
   POMASS =   16.000; ZVAL   =    6.000    mass and valenz
   ENMAX  =  400.000; ENMIN  =  300.000 eV

 POTCAR:    PAW_PBE H 15Jun2001
   VRHFIN =H: ultrasoft test

   TITEL  = PAW_PBE H 15Jun2001
   POMASS =    1.000; ZVAL   =    1.000    mass and valenz
   ENMAX  =  250.000; ENMIN  =  200.000 eV

 Optimization of the real space projectors (new method)

 maximal supplied QI-value         = 15.12
 optimisation between [QCUT,QGAM] = [ 11.34, 22.83] = [ 36.00,145.93] Ry
 Optimized for a Real-space Cutoff    1.43 Angstroem

   l    n(q)    QCUT    max X(q) W(low)/X(q) W(high)/X(q)  e(spline)
   2      9    11.338    53.897    0.16E-03    0.20E-03    0.28E-06
   2      9    11.338    52.416    0.16E-03    0.20E-03    0.29E-06
   0     10    11.338   122.045    0.31E-04    0.76E-04    0.15E-06
   0     10    11.338    73.629    0.30E-04    0.72E-04    0.15E-06
   1      9    11.338    15.255    0.20E-03    0.19E-04    0.17E-06
   1      9    11.338     9.562    0.16E-03    0.15E-04    0.14E-06
 Optimization of the real space projectors (new method)

[...]

   l    n(q)    QCUT    max X(q) W(low)/X(q) W(high)/X(q)  e(spline)
   0      7    11.387    20.381    0.39E-03    0.13E-02    0.15E-06
   0      7    11.387    15.268    0.42E-03    0.14E-02    0.17E-06
   1      6    11.387     5.964    0.41E-03    0.11E-02    0.17E-06
   1      6    11.387     5.382    0.39E-03    0.87E-03    0.15E-06
 Optimization of the real space projectors (new method)

 maximal supplied QI-value         = 34.20
 optimisation between [QCUT,QGAM] = [ 11.29, 22.57] = [ 35.68,142.71] Ry
 Optimized for a Real-space Cutoff    1.16 Angstroem

   l    n(q)    QCUT    max X(q) W(low)/X(q) W(high)/X(q)  e(spline)
   0      8    11.287    19.460    0.40E-03    0.73E-03    0.16E-06
   0      8    11.287    12.209    0.38E-03    0.70E-03    0.15E-06
   1      7    11.287     4.655    0.22E-03    0.25E-04    0.22E-06
  PAW_PBE Ag 02Apr2005                  :
  PAW_PBE Mn 06Sep2000                  :
  PAW_PBE O 08Apr2002                   :
  PAW_PBE H 15Jun2001                   :

 POSCAR: Ag-Mn-OH
  positions in direct lattice
  velocities in cartesian coordinates
 exchange correlation table for  LEXCH =        8
   RHO(1)=    0.500       N(1)  =     2000
   RHO(2)=  100.500       N(2)  =     4000

 VTST: version 3.2, (02/03/18)

 CHAIN: initializing optimizer

 OPT: Using VASP Conjugate-Gradient optimizer
 CHAIN: Read ICHAIN            0

 POSCAR: Ag-Mn-OH
  positions in direct lattice
  velocities in cartesian coordinates

 ion  position               nearest neighbor table
   1  0.000  0.000  0.238-   2 2.93   8 2.93   7 2.93   6 2.93   4 2.93  12 2.93  16 2.93  10 2.93
                             3 2.93
   2  0.333  0.000  0.238-   1 2.93   8 2.93   9 2.93   3 2.93   4 2.93   5 2.93  10 2.93  17 2.93
                            11 2.93
   3  0.667  0.000  0.238-   9 2.93   2 2.93   5 2.93  11 2.93   7 2.93  18 2.93   1 2.93   6 2.93
                            12 2.93
   4  0.000  0.333  0.238-   5 2.93   6 2.93   2 2.93   1 2.93   7 2.93  13 2.93  15 2.93   9 2.93
                            10 2.93
   5  0.333  0.333  0.238-   4 2.93   3 2.93   7 2.93   2 2.93   8 2.93  14 2.93  13 2.93  11 2.93
                             6 2.93
   6  0.667  0.333  0.238-   4 2.93   9 2.93   1 2.93  15 2.93   8 2.93  12 2.93   3 2.93   5 2.93
                            14 2.93
   7  0.000  0.667  0.238-   8 2.93   1 2.93   5 2.93   3 2.93   4 2.93  16 2.93  18 2.93  13 2.93
                             9 2.93
   8  0.333  0.667  0.238-   7 2.93   1 2.93   2 2.93   9 2.93   5 2.93  16 2.93   6 2.93  17 2.93
                            14 2.93
   9  0.667  0.667  0.238-   3 2.93   2 2.93   8 2.93   6 2.93  17 2.93   4 2.93  15 2.93   7 2.93
                            18 2.93
  10  0.111  0.111  0.346-  20 2.92  19 2.93  26 2.93  12 2.93  16 2.93  15 2.93  17 2.93  13 2.93
                            11 2.93   2 2.93   1 2.93   4 2.93
  11  0.444  0.111  0.346-  21 2.90  20 2.90  27 2.92  14 2.93  17 2.93  18 2.93   3 2.93  12 2.93
                            13 2.93  10 2.93   5 2.93   2 2.93
  12  0.778  0.111  0.346-  21 2.92  25 2.93  19 2.93  10 2.93  16 2.93  18 2.93  15 2.93  11 2.93
                             1 2.93  14 2.93   6 2.93   3 2.93
  13  0.111  0.444  0.346-  20 2.90  23 2.90  22 2.92  15 2.93  14 2.93  18 2.93  10 2.93  11 2.93
                            16 2.93   4 2.93   5 2.93   7 2.93
  14  0.444  0.444  0.346-  23 2.90  21 2.90  24 2.92  13 2.93  11 2.93  16 2.93   5 2.93  12 2.93
                            17 2.93   8 2.93  15 2.93   6 2.93
  15  0.778  0.444  0.346-  24 2.92  22 2.92  19 2.92  13 2.93  10 2.93  12 2.93  17 2.93  18 2.93
                             4 2.93   6 2.93   9 2.93  14 2.93
  16  0.111  0.778  0.346-  23 2.92  26 2.93  25 2.93  18 2.93  12 2.93  10 2.93  14 2.93  17 2.93
                            13 2.93   7 2.93   8 2.93   1 2.93
  17  0.444  0.778  0.346-  27 2.92  24 2.92  26 2.92  11 2.93  10 2.93   9 2.93  18 2.93  15 2.93
                            16 2.93   2 2.93  14 2.93   8 2.93
  18  0.778  0.778  0.346-  22 2.92  27 2.92  25 2.92  16 2.93  12 2.93  13 2.93  11 2.93  17 2.93
                            15 2.93   7 2.93   3 2.93   9 2.93
  19  0.889  0.223  0.454-  28 2.91  15 2.92  10 2.93  12 2.93  24 2.93  22 2.93  26 2.94  25 2.94
                            20 2.94  21 2.94  32 2.95  31 2.95
  20  0.223  0.223  0.453-  36 2.71  31 2.90  29 2.90  13 2.90  11 2.90  21 2.91  23 2.91  10 2.92
                            27 2.93  22 2.93  19 2.94  26 2.94
  21  0.554  0.223  0.453-  36 2.71  30 2.90  32 2.90  11 2.90  14 2.90  20 2.91  23 2.91  12 2.92
                            27 2.93  24 2.93  25 2.94  19 2.94
  22  0.888  0.556  0.453-  35 2.91  18 2.92  15 2.92  13 2.92  24 2.93  27 2.93  33 2.93  31 2.93
                            25 2.93  19 2.93  23 2.93  20 2.93
  23  0.223  0.554  0.453-  36 2.71  34 2.90  33 2.90  14 2.90  13 2.90  21 2.91  20 2.91  16 2.92
                            22 2.93  24 2.93  26 2.94  25 2.94
  24  0.556  0.556  0.453-  35 2.91  15 2.92  17 2.92  14 2.92  27 2.93  22 2.93  32 2.93  34 2.93
                            19 2.93  26 2.93  23 2.93  21 2.93
  25  0.889  0.889  0.454-  28 2.91  18 2.92  16 2.93  12 2.93  22 2.93  27 2.93  26 2.94  19 2.94
                            23 2.94  21 2.94  33 2.95  30 2.95
  26  0.223  0.889  0.454-  28 2.91  17 2.92  16 2.93  10 2.93  27 2.93  24 2.93  25 2.94  19 2.94
                            23 2.94  20 2.94  34 2.95  29 2.95
  27  0.556  0.888  0.453-  35 2.91  17 2.92  18 2.92  11 2.92  24 2.93  22 2.93  29 2.93  30 2.93
                            26 2.93  25 2.93  20 2.93  21 2.93
  28  0.000  0.000  0.560-  26 2.91  25 2.91  19 2.91  29 2.97  34 2.97  33 2.97  32 2.97  31 2.97
                            30 2.97
  29  0.333  0.008  0.561-  31 2.86  30 2.86  36 2.87  20 2.90  27 2.93  26 2.95  28 2.97  35 2.97
                            34 3.07
  30  0.659  0.008  0.561-  32 2.86  29 2.86  36 2.87  21 2.90  27 2.93  25 2.95  28 2.97  35 2.97
                            33 3.07
  31  0.008  0.333  0.561-  29 2.86  33 2.86  36 2.87  20 2.90  22 2.93  19 2.95  28 2.97  35 2.97
                            32 3.07
  32  0.659  0.333  0.561-  30 2.86  34 2.86  36 2.87  21 2.90  24 2.93  19 2.95  28 2.97  35 2.97
                            31 3.07
  33  0.008  0.659  0.561-  34 2.86  31 2.86  36 2.87  23 2.90  22 2.93  25 2.95  28 2.97  35 2.97
                            30 3.07
  34  0.333  0.659  0.561-  33 2.86  32 2.86  36 2.87  23 2.90  24 2.93  26 2.95  28 2.97  35 2.97
                            29 3.07
  35  0.667  0.667  0.560-  24 2.91  27 2.91  22 2.91  32 2.97  30 2.97  29 2.97  34 2.97  31 2.97
                            33 2.97
  36  0.333  0.333  0.549-  37 1.74  21 2.71  20 2.71  23 2.71  31 2.87  30 2.87  33 2.87  29 2.87
                            34 2.87  32 2.87
  37  0.333  0.333  0.627-  38 0.97  36 1.74
  38  0.333  0.333  0.671-  37 0.97

  LATTYP: Found a hexagonal cell.
 ALAT       =     8.7913665772
 C/A-ratio  =     2.5227160501

  Lattice vectors:

 A1 = (  -4.3956832886,  -7.6135467898,   0.0000000000)
 A2 = (   8.7913665771,   0.0000000000,   0.0000000000)
 A3 = (   0.0000000000,   0.0000000000,  22.1781215668)

Analysis of symmetry for initial positions (statically):
 Subroutine PRICEL returns:
 Original cell was already a primitive cell.

 Routine SETGRP: Setting up the symmetry group for a
 hexagonal supercell.

 Subroutine GETGRP returns: Found  6 space group operations
 (whereof  6 operations were pure point group operations)
 out of a pool of 24 trial point group operations.

The static configuration has the point symmetry C_3v.

Analysis of symmetry for dynamics (positions and initial velocities):
 Subroutine PRICEL returns:
 Original cell was already a primitive cell.

[...]

The dynamic configuration has the point symmetry C_3v.

Analysis of constrained symmetry for selective dynamics:
 Subroutine PRICEL returns:
 Original cell was already a primitive cell.

[...]
     33      -4.3219      2.00000
     34      -4.3064      2.00000
     35      -4.2498      2.00000
     36      -4.2228      2.00000
     37      -4.2043      2.00000
     38      -4.2002      2.00000
     39      -4.1651      2.00000
     40      -4.1472      2.00000
     41      -4.1250      2.00000
     42      -4.1183      2.00000
     43      -4.0965      2.00000
     44      -4.0863      2.00000
     45      -4.0091      2.00000
     46      -3.9934      2.00000
     47      -3.9752      2.00000
     48      -3.9707      2.00000
     49      -3.9616      2.00000
     50      -3.9577      2.00000
     51      -3.9439      2.00000
     52      -3.9381      2.00000
     53      -3.9178      2.00000
     54      -3.9152      2.00000
     55      -3.8692      2.00000
     56      -3.8557      2.00000
     57      -3.8381      2.00000
     58      -3.8290      2.00000
     59      -3.8229      2.00000
     60      -3.7991      2.00000
[...]
    238       6.3794      0.00000
    239       6.4524      0.00000
    240       6.4663      0.00000
    241       6.6878      0.00000
    242       7.1729      0.00000
    243       7.2576      0.00000
    244       7.3097      0.00000
    245       7.3134      0.00000
    246       7.4027      0.00000
    247       7.4098      0.00000
    248       7.4903      0.00000
    249       7.5047      0.00000
    250       7.5936      0.00000
    251       7.6710      0.00000
    252       7.8444      0.00000

 soft charge-density along one line, spin component           1
         0         1         2         3         4         5         6         7         8         9
 total charge-density along one line

------------------------ aborting loop because EDIFF is reached ----------------------------------------

 total charge

# of ion       s       p       d       tot
    1        0.419   0.201   9.178   9.799
    2        0.418   0.204   9.177   9.798
    3        0.418   0.204   9.177   9.798
    4        0.418   0.204   9.177   9.798
    5        0.418   0.204   9.176   9.798
    6        0.418   0.204   9.177   9.798
    7        0.418   0.204   9.177   9.798
    8        0.418   0.204   9.177   9.798
    9        0.414   0.204   9.178   9.796
   10        0.408   0.268   9.164   9.840
   11        0.407   0.269   9.167   9.844
   12        0.408   0.268   9.164   9.840
   13        0.407   0.269   9.167   9.844
   14        0.407   0.269   9.167   9.844
   15        0.402   0.269   9.166   9.838
   16        0.408   0.268   9.164   9.840
   17        0.402   0.269   9.166   9.838
   18        0.402   0.269   9.166   9.838
   19        0.402   0.264   9.168   9.835
   20        0.430   0.298   9.142   9.870
   21        0.430   0.298   9.142   9.870
   22        0.395   0.274   9.167   9.836
   23        0.430   0.298   9.142   9.870
   24        0.395   0.274   9.167   9.836
   25        0.402   0.264   9.168   9.835
   26        0.402   0.264   9.168   9.835
   27        0.395   0.274   9.167   9.836
   28        0.415   0.199   9.177   9.791
   29        0.412   0.208   9.179   9.799
   30        0.412   0.208   9.179   9.799
   31        0.412   0.208   9.179   9.799
   32        0.412   0.208   9.179   9.799
   33        0.412   0.208   9.179   9.799
   34        0.412   0.208   9.179   9.799
   35        0.408   0.201   9.178   9.787
   36        0.306   0.315   5.045   5.667
   37        1.558   3.518   0.000   5.076
   38        0.607   0.125   0.000   0.732
tot         16.860  12.364 325.993 355.216

  FORCE on cell =-STRESS in cart. coord.  units (eV):
  Direction    XX          YY          ZZ          XY          YZ          ZX
  Alpha Z   755.51317   755.51317   755.51317
  Ewald  120415.43063120415.43067************     0.00003    -0.00000     0.00004
  Hartree130818.71547130818.71549************     0.00001    -0.00000     0.00002
  E(xc)   -2094.69013 -2094.69015 -2098.85599     0.00001     0.00000     0.00000
  Local  ************************262422.80996     0.00050    -0.00006    -0.00017
  n-local  -380.08816  -363.53198  -372.91172    10.36974    -0.26267     0.22522
  augment  3257.66251  3257.66262  3260.83514    -0.00009     0.00004     0.00007
  Kinetic  4985.27816  4989.67612  4972.04587     4.62409     0.87466     0.05957
  Fock        0.00000     0.00000     0.00000     0.00000     0.00000     0.00000
  Total      -9.12404    -9.12404    -1.64616    -0.00000     0.00000     0.00000
  in kB      -9.84758    -9.84758    -1.77670    -0.00000     0.00000     0.00000

 VOLUME and BASIS-vectors are now :
  energy-cutoff  :      500.00
  volume of cell :     1484.46
      direct lattice vectors                 reciprocal lattice vectors
     8.791366577  0.000000000  0.000000000     0.113747958 -0.065672414  0.000000000
     4.395683289  7.613546790  0.000000000     0.000000000  0.131344829  0.000000000
     0.000000000  0.000000000 22.178121567     0.000000000  0.000000000  0.045089481

  length of vectors
     8.791366577  8.791366577 22.178121567     0.131344829  0.131344829  0.045089481

 FORCES acting on ions
    electron-ion (+dipol)            ewald-force                    non-local-force                 convergence-correction
   0.459E-04 -.283E-04 0.251E+04   -.954E-04 0.593E-04 -.251E+04   -.807E-17 -.245E-17 -.221E+01   -.105E-03 -.168E-03 -.146E+00
   0.363E+00 0.264E+00 0.251E+04   -.428E+00 -.408E+00 -.251E+04   0.439E-01 0.131E+00 -.156E+01   0.211E-01 0.193E-01 -.112E+00
   -.363E+00 0.264E+00 0.251E+04   0.428E+00 -.408E+00 -.251E+04   -.439E-01 0.131E+00 -.156E+01   -.216E-01 0.213E-01 -.111E+00
   0.410E+00 0.182E+00 0.251E+04   -.568E+00 -.167E+00 -.251E+04   0.135E+00 -.273E-01 -.156E+01   0.275E-01 0.876E-02 -.112E+00
   -.548E-05 -.186E-04 0.251E+04   0.981E-04 -.200E-05 -.251E+04   0.639E-18 0.411E-18 -.145E+01   0.624E-02 0.381E-02 -.156E+00
   -.410E+00 0.182E+00 0.251E+04   0.568E+00 -.167E+00 -.251E+04   -.135E+00 -.273E-01 -.156E+01   -.289E-01 0.968E-02 -.111E+00
   0.475E-01 -.446E+00 0.251E+04   -.140E+00 0.575E+00 -.251E+04   0.911E-01 -.103E+00 -.156E+01   0.805E-02 -.288E-01 -.111E+00
   -.474E-01 -.446E+00 0.251E+04   0.140E+00 0.575E+00 -.251E+04   -.911E-01 -.103E+00 -.156E+01   -.641E-02 -.298E-01 -.111E+00
   0.362E-04 -.130E-04 0.251E+04   0.792E-04 -.643E-04 -.251E+04   0.133E-17 -.137E-18 -.188E+01   -.666E-02 -.343E-02 -.387E-01
   0.410E+01 0.237E+01 0.852E+03   -.363E+01 -.209E+01 -.852E+03   -.459E+00 -.265E+00 -.773E+00   0.762E-02 0.442E-02 0.292E+00
   -.293E-04 0.463E+01 0.859E+03   0.415E-04 -.464E+01 -.859E+03   0.654E-12 0.996E-01 -.347E+00   0.629E-02 -.114E+00 0.379E+00
   -.410E+01 0.237E+01 0.852E+03   0.363E+01 -.209E+01 -.852E+03   0.459E+00 -.265E+00 -.773E+00   -.919E-02 0.550E-02 0.292E+00
   0.401E+01 -.231E+01 0.859E+03   -.401E+01 0.232E+01 -.859E+03   0.863E-01 -.498E-01 -.347E+00   -.960E-01 0.627E-01 0.379E+00
   -.401E+01 -.231E+01 0.859E+03   0.401E+01 0.232E+01 -.859E+03   -.863E-01 -.498E-01 -.347E+00   0.107E+00 0.618E-01 0.378E+00
   0.159E-04 0.994E+00 0.853E+03   -.108E-03 -.114E+01 -.853E+03   0.405E-12 0.617E-01 -.717E+00   -.163E-02 0.628E-01 0.283E+00
   -.823E-05 -.474E+01 0.852E+03   0.207E-04 0.419E+01 -.852E+03   0.348E-11 0.530E+00 -.773E+00   0.124E-03 -.108E-01 0.292E+00
   0.861E+00 -.497E+00 0.853E+03   -.987E+00 0.570E+00 -.853E+03   0.534E-01 -.308E-01 -.717E+00   0.535E-01 -.328E-01 0.283E+00
   -.861E+00 -.497E+00 0.853E+03   0.987E+00 0.570E+00 -.853E+03   -.534E-01 -.308E-01 -.717E+00   -.535E-01 -.309E-01 0.284E+00
   0.401E-04 0.470E+00 -.831E+03   -.128E-03 -.736E+00 0.830E+03   0.949E-12 0.145E+00 0.746E+00   -.165E-03 0.109E+00 0.425E+00
   0.144E+02 0.833E+01 -.803E+03   -.135E+02 -.780E+01 0.803E+03   -.129E+01 -.743E+00 -.117E+01   0.378E+00 0.218E+00 0.920E+00
   -.144E+02 0.833E+01 -.803E+03   0.135E+02 -.780E+01 0.803E+03   0.129E+01 -.743E+00 -.117E+01   -.378E+00 0.219E+00 0.920E+00
   0.543E+01 -.313E+01 -.820E+03   -.574E+01 0.332E+01 0.819E+03   0.258E+00 -.149E+00 0.570E+00   0.967E-01 -.554E-01 0.473E+00
   -.576E-04 -.167E+02 -.803E+03   0.431E-04 0.156E+02 0.803E+03   0.976E-11 0.149E+01 -.117E+01   0.798E-03 -.436E+00 0.920E+00
   -.543E+01 -.313E+01 -.820E+03   0.574E+01 0.332E+01 0.819E+03   -.258E+00 -.149E+00 0.570E+00   -.967E-01 -.558E-01 0.472E+00
   -.407E+00 -.235E+00 -.831E+03   0.638E+00 0.368E+00 0.830E+03   -.125E+00 -.723E-01 0.746E+00   -.942E-01 -.545E-01 0.424E+00
   0.407E+00 -.235E+00 -.831E+03   -.638E+00 0.368E+00 0.830E+03   0.125E+00 -.723E-01 0.746E+00   0.941E-01 -.548E-01 0.425E+00
   0.211E-04 0.626E+01 -.820E+03   0.110E-03 -.663E+01 0.819E+03   0.195E-11 0.298E+00 0.570E+00   -.238E-03 0.111E+00 0.473E+00
   0.544E-04 -.367E-04 -.247E+04   -.115E-03 0.778E-04 0.247E+04   -.904E-18 0.306E-18 0.163E+01   0.125E-02 0.589E-03 0.286E+00
   0.260E+02 0.437E+02 -.246E+04   -.262E+02 -.443E+02 0.246E+04   -.266E+00 -.175E+00 0.220E+01   0.322E+00 0.507E+00 0.264E+00
   -.260E+02 0.437E+02 -.246E+04   0.262E+02 -.443E+02 0.246E+04   0.266E+00 -.175E+00 0.220E+01   -.333E+00 0.508E+00 0.264E+00
   0.509E+02 0.681E+00 -.246E+04   -.514E+02 -.554E+00 0.246E+04   -.284E+00 -.143E+00 0.220E+01   0.600E+00 0.254E-01 0.264E+00
   -.509E+02 0.681E+00 -.246E+04   0.514E+02 -.554E+00 0.246E+04   0.284E+00 -.143E+00 0.220E+01   -.611E+00 0.263E-01 0.264E+00
   0.248E+02 -.444E+02 -.246E+04   -.252E+02 0.448E+02 0.246E+04   -.184E-01 0.318E+00 0.220E+01   0.274E+00 -.542E+00 0.264E+00
   -.248E+02 -.444E+02 -.246E+04   0.252E+02 0.448E+02 0.246E+04   0.184E-01 0.318E+00 0.220E+01   -.283E+00 -.542E+00 0.264E+00
   0.223E-04 -.125E-04 -.247E+04   0.106E-03 -.659E-04 0.247E+04   0.113E-17 -.611E-18 0.181E+01   -.537E-02 -.267E-02 0.252E+00
   -.324E-04 -.192E-04 -.133E+04   0.674E-04 0.931E-05 0.133E+04   -.128E-17 0.170E-17 0.650E+00   0.382E-02 0.231E-02 0.326E+00
   0.196E-03 -.916E-04 -.159E+04   0.299E-04 0.457E-06 0.157E+04   0.368E-17 0.248E-17 0.209E+02   0.406E-02 0.247E-02 -.698E+00
   0.777E-05 -.129E-04 -.319E+03   0.215E-05 0.931E-08 0.328E+03   0.166E-18 -.153E-19 -.845E+01   0.221E-03 0.135E-03 -.114E+00
   0.547E-03 -.806E-03 -.186E+02   -.395E-13 0.322E-12 -.665E-11   -.726E-16 0.115E-15 0.971E+01   -.139E-01 -.464E-02 0.894E+01

 POSITION                                       TOTAL-FORCE (eV/Angst)
      0.00000      0.00000      5.28219         0.000000     -0.000000     -0.006462
      2.93046      0.00000      5.28219         0.000152      0.006786      0.040848
      5.86091      0.00000      5.28219        -0.000152      0.006786      0.040848
      1.46523      2.53785      5.28219         0.005953     -0.003262      0.040848
      4.39568      2.53785      5.28219         0.000000      0.000000      0.027772
      7.32614      2.53785      5.28219        -0.005953     -0.003262      0.040848
      2.93046      5.07570      5.28219         0.005801     -0.003524      0.040848
      5.86091      5.07570      5.28219        -0.005801     -0.003524      0.040848
      8.79137      5.07570      5.28219         0.000000      0.000000      0.008094
      1.46523      0.84595      7.67490         0.024904      0.014378      0.006070
      4.39568      0.84595      7.67490        -0.000000     -0.027954     -0.062855
      7.32614      0.84595      7.67490        -0.024904      0.014378      0.006070
      2.93046      3.38380      7.67490        -0.024209      0.013977     -0.062855
      5.86091      3.38380      7.67490         0.024209      0.013977     -0.062855
      8.79137      3.38380      7.67490        -0.000000     -0.021657      0.011249
      4.39568      5.92165      7.67490        -0.000000     -0.028757      0.006070
      7.32614      5.92165      7.67490        -0.018755      0.010828      0.011249
     10.25659      5.92165      7.67490         0.018755      0.010828      0.011249
      8.79137      1.69455     10.06139        -0.000000     -0.012812      0.009808
      2.94158      1.69832     10.04035         0.000747      0.000431     -0.050172
      5.84978      1.69832     10.04035        -0.000747      0.000431     -0.050172
     10.25392      4.23129     10.05365         0.036158     -0.020876     -0.005244
      4.39568      4.21690     10.04035        -0.000000     -0.000863     -0.050172
      7.32881      4.23129     10.05365        -0.036158     -0.020876     -0.005244
     11.71953      6.76627     10.06139         0.011096      0.006406      0.009808
      5.86321      6.76627     10.06139        -0.011096      0.006406      0.009808
      8.79137      6.76451     10.05365         0.000000      0.041752     -0.005244
      0.00000      0.00000     12.42536         0.000000     -0.000000      0.014166
      2.96459      0.05999     12.43855        -0.125560     -0.242446     -0.165803
      5.82677      0.05999     12.43855         0.125560     -0.242446     -0.165803
      1.53425      2.53742     12.43855        -0.272744      0.012485     -0.165803
      7.25712      2.53742     12.43855         0.272744      0.012485     -0.165803
      2.96534      5.01614     12.43855        -0.147184      0.229961     -0.165803
      5.82603      5.01614     12.43855         0.147184      0.229961     -0.165803
      8.79137      5.07570     12.42471         0.000000      0.000000      0.040071
      4.39568      2.53785     12.16969         0.000000      0.000000      1.031476
      4.39568      2.53785     13.91257         0.000000     -0.000000     -0.136727
      4.39568      2.53785     14.87960         0.000000     -0.000000      0.044776
    total drift:                               -0.013370     -0.005447      0.043278

  FREE ENERGIE OF THE ION-ELECTRON SYSTEM (eV)
  free  energy   TOTEN  =      -106.05592699 eV

  energy  without entropy=     -106.05592699  energy(sigma->0) =     -106.05592699

 stress matrix after NEB project (eV)
     -9.12404     -0.00000      0.00000
     -0.00000     -9.12404      0.00000
      0.00000      0.00000     -1.64616
  FORCES: max atom, RMS     0.136727    0.023339
  FORCE total and by dimension    0.143872    0.136727
  Stress total and by dimension   13.007916    9.124035
|           W    W    AA    RRRRR   N    N  II  N    N   GGGG   !!!           |
|           W    W   A  A   R    R  NN   N  II  NN   N  G    G  !!!           |
|           W    W  A    A  R    R  N N  N  II  N N  N  G       !!!           |
|           W WW W  AAAAAA  RRRRR   N  N N  II  N  N N  G  GGG   !            |
|           WW  WW  A    A  R   R   N   NN  II  N   NN  G    G                |
|           W    W  A    A  R    R  N    N  II  N    N   GGGG   !!!           |
|     Tetrahedron method does not include variations of the Fermi             |
|     occupations, so forces and stress will be inaccurate. We suggest        |
|     using a different smearing scheme ISMEAR = 1 or 2 for metals in         |
|     relaxations.                                                            |

 total charge

# of ion       s       p       d       tot
    1        0.419   0.201   9.178   9.799
    2        0.418   0.204   9.177   9.798
    3        0.418   0.204   9.177   9.798
    4        0.418   0.204   9.177   9.798
    5        0.418   0.204   9.176   9.798
    6        0.418   0.204   9.177   9.798
    7        0.418   0.204   9.177   9.798
    8        0.418   0.204   9.177   9.798
    9        0.414   0.204   9.178   9.796
   10        0.408   0.268   9.164   9.840
   11        0.407   0.269   9.167   9.844
   12        0.408   0.268   9.164   9.840
   13        0.407   0.269   9.167   9.844
   14        0.407   0.269   9.167   9.844
   15        0.402   0.269   9.166   9.838
   16        0.408   0.268   9.164   9.840
   17        0.402   0.269   9.166   9.838
   18        0.402   0.269   9.166   9.838
   19        0.402   0.264   9.168   9.835
   20        0.430   0.298   9.142   9.870
   21        0.430   0.298   9.142   9.870
   22        0.395   0.274   9.167   9.836
   23        0.430   0.298   9.142   9.870
   24        0.395   0.274   9.167   9.836
   25        0.402   0.264   9.168   9.835
   26        0.402   0.264   9.168   9.835
   27        0.395   0.274   9.167   9.836
   28        0.415   0.199   9.177   9.791
   29        0.412   0.208   9.179   9.799
   30        0.412   0.208   9.179   9.799
   31        0.412   0.208   9.179   9.799
   32        0.412   0.208   9.179   9.799
   33        0.412   0.208   9.179   9.799
   34        0.412   0.208   9.179   9.799
   35        0.408   0.201   9.178   9.787
   36        0.306   0.315   5.045   5.667
   37        1.558   3.518   0.000   5.076
   38        0.607   0.125   0.000   0.732
tot         16.860  12.364 325.993 355.216

 BZINTS: Fermi energy:    1.037870;  399.000000 electrons
         Band energy:-0.124961E+04;  BLOECHL correction:   -0.025083