 vasp.6.2.0 18Jan21 (build Jun 12 2021 23:27:24) complex

 executed on             LinuxIFC date 2022.05.30  16:21:10

 INCAR:
   ISMEAR = -5
   SIGMA = 0.1
   ISPIN = 1
   EDIFF = 1.d-5
   NSW = 0
   NELM = 150
   ENCUT = 500
   ISIF = 2
   IBRION = 2
   LREAL = Auto
   ALGO = Fast
   ICHARG = 11
   LORBIT = 10
   LCHARG = .F.
   LWAVE = .F.

 POTCAR:    PAW_PBE Au 04Oct2007
 POTCAR:    PAW_PBE Rh 04Feb2005
 POTCAR:    PAW_PBE O 08Apr2002
|           W    W    AA    RRRRR   N    N  II  N    N   GGGG   !!!           |
|           W    W   A  A   R    R  NN   N  II  NN   N  G    G  !!!           |
|           W    W  A    A  R    R  N N  N  II  N N  N  G       !!!           |
|           W WW W  AAAAAA  RRRRR   N  N N  II  N  N N  G  GGG   !            |
|           WW  WW  A    A  R   R   N   NN  II  N   NN  G    G                |
|           W    W  A    A  R    R  N    N  II  N    N   GGGG   !!!           |
|     For optimal performance we recommend to set                             |
|       NCORE = 2 up to number-of-cores-per-socket                            |
|     This setting can greatly improve the performance of VASP for DFT.       |
|     The default, NCORE=1 might be grossly inefficient on modern             |
|     multi-core architectures or massively parallel machines. Do your        |
|     Unfortunately you need to use the default for GW and RPA                |
|     calculations (for HF NCORE is supported but not extensively tested      |
|     yet).                                                                   |

 POTCAR:    PAW_PBE Au 04Oct2007
   VRHFIN =Au: s1d10

   TITEL  = PAW_PBE Au 04Oct2007
   POMASS =  196.966; ZVAL   =   11.000    mass and valenz
   ENMAX  =  229.943; ENMIN  =  172.457 eV

 POTCAR:    PAW_PBE Rh 04Feb2005
   VRHFIN =Rh: s1 d8

   TITEL  = PAW_PBE Rh 04Feb2005
   POMASS =  102.906; ZVAL   =    9.000    mass and valenz
   ENMAX  =  228.996; ENMIN  =  171.747 eV

 POTCAR:    PAW_PBE O 08Apr2002
   VRHFIN =O: s2p4

   TITEL  = PAW_PBE O 08Apr2002
   POMASS =   16.000; ZVAL   =    6.000    mass and valenz
   ENMAX  =  400.000; ENMIN  =  300.000 eV

 Optimization of the real space projectors (new method)

 maximal supplied QI-value         = 15.12
 optimisation between [QCUT,QGAM] = [ 11.34, 22.83] = [ 36.00,145.93] Ry
 Optimized for a Real-space Cutoff    1.39 Angstroem

   l    n(q)    QCUT    max X(q) W(low)/X(q) W(high)/X(q)  e(spline)
   2      9    11.338    60.898    0.39E-03    0.42E-03    0.21E-06
   2      9    11.338    58.894    0.40E-03    0.42E-03    0.22E-06
   0      9    11.338   109.617    0.13E-03    0.20E-04    0.13E-06
   0      9    11.338    75.026    0.13E-03    0.20E-04    0.13E-06
   1      9    11.338    16.344    0.33E-04    0.24E-03    0.18E-06
   1      9    11.338    10.160    0.26E-04    0.19E-03    0.15E-06
 Optimization of the real space projectors (new method)

[...]

   l    n(q)    QCUT    max X(q) W(low)/X(q) W(high)/X(q)  e(spline)
   2      9    11.327    59.645    0.31E-03    0.12E-04    0.28E-06
   2      9    11.327    58.460    0.31E-03    0.12E-04    0.29E-06
   0     10    11.327    97.683    0.32E-04    0.83E-04    0.31E-06
   0     10    11.327    53.223    0.30E-04    0.78E-04    0.29E-06
   1     10    11.327    13.596    0.49E-03    0.95E-03    0.55E-06
   1     10    11.327     7.885    0.36E-03    0.71E-03    0.41E-06
 Optimization of the real space projectors (new method)

 maximal supplied QI-value         = 24.76
 optimisation between [QCUT,QGAM] = [ 11.39, 22.77] = [ 36.31,145.25] Ry
 Optimized for a Real-space Cutoff    1.00 Angstroem

   l    n(q)    QCUT    max X(q) W(low)/X(q) W(high)/X(q)  e(spline)
   0      7    11.387    20.381    0.39E-03    0.13E-02    0.15E-06
   0      7    11.387    15.268    0.42E-03    0.14E-02    0.17E-06
   1      6    11.387     5.964    0.41E-03    0.11E-02    0.17E-06
   1      6    11.387     5.382    0.39E-03    0.87E-03    0.15E-06
  PAW_PBE Au 04Oct2007                  :
  PAW_PBE Rh 04Feb2005                  :
  PAW_PBE O 08Apr2002                   :

 POSCAR: Au-Rh-O2
  positions in direct lattice
  velocities in cartesian coordinates
 exchange correlation table for  LEXCH =        8
   RHO(1)=    0.500       N(1)  =     2000
   RHO(2)=  100.500       N(2)  =     4000

 VTST: version 3.2, (02/03/18)

 CHAIN: initializing optimizer

 OPT: Using VASP Conjugate-Gradient optimizer
 CHAIN: Read ICHAIN            0

 POSCAR: Au-Rh-O2
  positions in direct lattice
  velocities in cartesian coordinates

 ion  position               nearest neighbor table
   1  0.000  0.000  0.217-  16 2.94  12 2.94   6 2.94   8 2.94   7 2.94   3 2.94  10 2.94   4 2.94
                             2 2.94
   2  0.333  0.000  0.217-   9 2.94  11 2.94  17 2.94  10 2.94   8 2.94   4 2.94   5 2.94   1 2.94
                             3 2.94
   3  0.667  0.000  0.217-   7 2.94  18 2.94  12 2.94   1 2.94  11 2.94   5 2.94   6 2.94   9 2.94
                             2 2.94
   4  0.000  0.333  0.217-  10 2.94   6 2.94   5 2.94  13 2.94   2 2.94  15 2.94   9 2.94   1 2.94
                             7 2.94
   5  0.333  0.333  0.217-  13 2.94   7 2.94  11 2.94   4 2.94   2 2.94  14 2.94   3 2.94   8 2.94
                             6 2.94
   6  0.667  0.333  0.217-  15 2.94  14 2.94   1 2.94  12 2.94   4 2.94   9 2.94   8 2.94   3 2.94
                             5 2.94
   7  0.000  0.667  0.217-  18 2.94   3 2.94  16 2.94   5 2.94   1 2.94  13 2.94   8 2.94   4 2.94
                             9 2.94
   8  0.333  0.667  0.217-   9 2.94  17 2.94   1 2.94   2 2.94  14 2.94  16 2.94   6 2.94   7 2.94
                             5 2.94
   9  0.667  0.667  0.217-   2 2.94   8 2.94  17 2.94   6 2.94  15 2.94   4 2.94   3 2.94  18 2.94
                             7 2.94
  10  0.111  0.111  0.316-  20 2.91  26 2.93  19 2.93  11 2.94  17 2.94   2 2.94   4 2.94   1 2.94
                            12 2.94  16 2.94  13 2.94  15 2.94
  11  0.444  0.111  0.316-  20 2.91  21 2.91  27 2.93  13 2.94   2 2.94  10 2.94  17 2.94   5 2.94
                             3 2.94  18 2.94  14 2.94  12 2.94
  12  0.778  0.111  0.316-  21 2.91  25 2.93  19 2.93  16 2.94  18 2.94   1 2.94  14 2.94  15 2.94
                             3 2.94   6 2.94  10 2.94  11 2.94
  13  0.111  0.444  0.316-  23 2.91  20 2.91  22 2.93   5 2.94  18 2.94  11 2.94   7 2.94   4 2.94
                            16 2.94  10 2.94  14 2.94  15 2.94
  14  0.444  0.444  0.316-  21 2.91  23 2.91  24 2.93  15 2.94   6 2.94  12 2.94   8 2.94  17 2.94
                             5 2.94  16 2.94  13 2.94  11 2.94
  15  0.778  0.444  0.316-  24 2.93  22 2.93  19 2.93  14 2.94   6 2.94  17 2.94  12 2.94   9 2.94
                             4 2.94  10 2.94  13 2.94  18 2.94
  16  0.111  0.778  0.316-  23 2.91  25 2.93  26 2.93  18 2.94  12 2.94   7 2.94   1 2.94   8 2.94
                            13 2.94  10 2.94  14 2.94  17 2.94
  17  0.444  0.778  0.316-  27 2.93  24 2.93  26 2.93   9 2.94  15 2.94   2 2.94  10 2.94  11 2.94
                             8 2.94  14 2.94  16 2.94  18 2.94
  18  0.778  0.778  0.316-  22 2.93  27 2.93  25 2.93  16 2.94   7 2.94  13 2.94  12 2.94   3 2.94
                            11 2.94   9 2.94  15 2.94  17 2.94
  19  0.889  0.222  0.414-  15 2.93  10 2.93  12 2.93  21 2.94  20 2.94  24 2.94  22 2.94  26 2.94
                            25 2.94  28 2.96  32 2.96  31 2.96
  20  0.222  0.222  0.413-  36 2.79  10 2.91  11 2.91  13 2.91  26 2.94  19 2.94  23 2.94  21 2.94
                            27 2.94  22 2.94  29 2.95  31 2.95
  21  0.556  0.222  0.413-  36 2.79  12 2.91  14 2.91  11 2.91  25 2.94  19 2.94  20 2.94  23 2.94
                            27 2.94  24 2.94  30 2.95  32 2.95
  22  0.888  0.556  0.414-  24 2.92  27 2.92  18 2.93  15 2.93  13 2.93  25 2.94  19 2.94  23 2.94
                            20 2.94  33 2.95  31 2.95  35 2.96
  23  0.222  0.556  0.413-  36 2.79  16 2.91  13 2.91  14 2.91  25 2.94  26 2.94  20 2.94  21 2.94
                            22 2.94  24 2.94  33 2.95  34 2.95
  24  0.556  0.556  0.414-  27 2.92  22 2.92  15 2.93  17 2.93  14 2.93  26 2.94  19 2.94  21 2.94
                            23 2.94  32 2.95  34 2.95  35 2.96
  25  0.889  0.889  0.414-  18 2.93  16 2.93  12 2.93  23 2.94  21 2.94  22 2.94  27 2.94  19 2.94
                            26 2.94  28 2.96  33 2.96  30 2.96
  26  0.222  0.889  0.414-  17 2.93  10 2.93  16 2.93  20 2.94  23 2.94  27 2.94  24 2.94  19 2.94
                            25 2.94  28 2.96  29 2.96  34 2.96
  27  0.556  0.888  0.414-  24 2.92  22 2.92  17 2.93  18 2.93  11 2.93  26 2.94  25 2.94  20 2.94
                            21 2.94  29 2.95  30 2.95  35 2.96
  28  0.000  0.000  0.514-  34 2.95  32 2.95  33 2.95  30 2.95  31 2.95  29 2.95  25 2.96  19 2.96
                            26 2.96
  29  0.333  0.004  0.513-  31 2.90  30 2.90  36 2.91  20 2.95  27 2.95  28 2.95  35 2.96  26 2.96
                            34 3.01
  30  0.663  0.004  0.513-  32 2.90  29 2.90  36 2.91  21 2.95  27 2.95  28 2.95  35 2.96  25 2.96
                            33 3.01
  31  0.004  0.333  0.513-  29 2.90  33 2.90  36 2.91  20 2.95  22 2.95  28 2.95  35 2.96  19 2.96
                            32 3.01
  32  0.663  0.333  0.513-  30 2.90  34 2.90  36 2.91  21 2.95  24 2.95  28 2.95  35 2.96  19 2.96
                            31 3.01
  33  0.004  0.663  0.513-  34 2.90  31 2.90  36 2.91  23 2.95  22 2.95  28 2.95  35 2.96  25 2.96
                            30 3.01
  34  0.333  0.663  0.513-  33 2.90  32 2.90  36 2.91  23 2.95  24 2.95  28 2.95  35 2.96  26 2.96
                            29 3.01
  35  0.667  0.667  0.514-  29 2.96  34 2.96  32 2.96  31 2.96  30 2.96  33 2.96  24 2.96  27 2.96
                            22 2.96
  36  0.333  0.333  0.504-  38 2.08  37 2.08  20 2.79  23 2.79  21 2.79  33 2.91  31 2.91  29 2.91
                            30 2.91  34 2.91  32 2.91
  37  0.257  0.332  0.585-  38 1.35  36 2.08
  38  0.411  0.332  0.585-  37 1.35  36 2.08

  LATTYP: Found a hexagonal cell.
 ALAT       =     8.8135128021
 C/A-ratio  =     2.7586513333

  Lattice vectors:

 A1 = (  -4.4067569092,  -7.6327256898,   0.0000000000)
 A2 = (   8.8135128021,   0.0000000000,   0.0000000000)
 A3 = (   0.0000000000,   0.0000000000,  24.3134088421)

Analysis of symmetry for initial positions (statically):
 Subroutine PRICEL returns:
 Original cell was already a primitive cell.

 Routine SETGRP: Setting up the symmetry group for a
 hexagonal supercell.

 Subroutine GETGRP returns: Found  2 space group operations
 (whereof  2 operations were pure point group operations)
 out of a pool of 24 trial point group operations.

The static configuration has the point symmetry C_1h.

Analysis of symmetry for dynamics (positions and initial velocities):
 Subroutine PRICEL returns:
 Original cell was already a primitive cell.

[...]

The dynamic configuration has the point symmetry C_1h.

Analysis of constrained symmetry for selective dynamics:
 Subroutine PRICEL returns:
 Original cell was already a primitive cell.

 Routine SETGRP: Setting up the symmetry group for a
 hexagonal supercell.

[...]
     33      -5.3429      2.00000
     34      -5.2687      2.00000
     35      -5.2614      2.00000
     36      -5.2415      2.00000
     37      -5.2345      2.00000
     38      -5.2173      2.00000
     39      -5.1368      2.00000
     40      -5.0704      2.00000
     41      -5.0669      2.00000
     42      -5.0320      2.00000
     43      -5.0035      2.00000
     44      -4.9495      2.00000
     45      -4.8900      2.00000
     46      -4.8512      2.00000
     47      -4.7982      2.00000
     48      -4.7906      2.00000
     49      -4.7760      2.00000
     50      -4.7693      2.00000
     51      -4.6659      2.00000
     52      -4.6383      2.00000
     53      -4.6091      2.00000
     54      -4.6032      2.00000
     55      -4.5925      2.00000
     56      -4.5866      2.00000
     57      -4.5808      2.00000
     58      -4.5371      2.00000
     59      -4.4919      2.00000
     60      -4.4579      2.00000
[...]
    238       5.6322      0.00000
    239       5.7629      0.00000
    240       5.9601      0.00000
    241       6.0182      0.00000
    242       6.0554      0.00000
    243       6.0659      0.00000
    244       6.1105      0.00000
    245       6.2913      0.00000
    246       6.3500      0.00000
    247       6.3982      0.00000
    248       6.4152      0.00000
    249       6.5679      0.00000
    250       6.7068      0.00000
    251       6.7979      0.00000
    252       6.8607      0.00000

 soft charge-density along one line, spin component           1
         0         1         2         3         4         5         6         7         8         9
 total charge-density along one line

------------------------ aborting loop because EDIFF is reached ----------------------------------------

 total charge

# of ion       s       p       d       tot
    1        0.544   0.239   8.768   9.550
    2        0.544   0.240   8.764   9.549
    3        0.544   0.240   8.764   9.549
    4        0.546   0.240   8.763   9.550
    5        0.542   0.242   8.761   9.544
    6        0.546   0.240   8.763   9.550
    7        0.544   0.240   8.764   9.549
    8        0.544   0.240   8.764   9.549
    9        0.541   0.240   8.768   9.548
   10        0.521   0.309   8.768   9.597
   11        0.522   0.306   8.779   9.607
   12        0.521   0.309   8.768   9.597
   13        0.521   0.306   8.778   9.606
   14        0.521   0.306   8.778   9.606
   15        0.514   0.308   8.774   9.596
   16        0.518   0.310   8.768   9.596
   17        0.514   0.308   8.776   9.598
   18        0.514   0.308   8.776   9.598
   19        0.515   0.302   8.780   9.596
   20        0.540   0.324   8.754   9.618
   21        0.540   0.324   8.754   9.618
   22        0.509   0.309   8.772   9.590
   23        0.533   0.327   8.759   9.619
   24        0.509   0.309   8.772   9.590
   25        0.516   0.303   8.775   9.595
   26        0.516   0.303   8.775   9.595
   27        0.509   0.308   8.773   9.590
   28        0.542   0.228   8.770   9.540
   29        0.540   0.233   8.770   9.543
   30        0.540   0.233   8.770   9.543
   31        0.533   0.235   8.778   9.547
   32        0.533   0.235   8.778   9.547
   33        0.539   0.233   8.774   9.545
   34        0.539   0.233   8.774   9.545
   35        0.540   0.228   8.771   9.539
   36        0.376   0.441   7.357   8.174
   37        1.609   3.260   0.000   4.869
   38        1.609   3.260   0.000   4.869
tot         22.147  16.561 314.303 353.011

  FORCE on cell =-STRESS in cart. coord.  units (eV):
  Direction    XX          YY          ZZ          XY          YZ          ZX
  Alpha Z   946.77132   946.77132   946.77132
  Ewald  152220.29380151805.08716************    -0.00031    -0.21897    -0.00010
  Hartree160737.50793160538.44193************     0.00001     0.16557    -0.00003
  E(xc)   -1828.92347 -1830.29792 -1835.99850     0.00000    -0.02134    -0.00000
  Local  ************************324915.12385     0.00278    -0.30626    -0.00004
  n-local  -101.45933  -107.24977   -78.67595     4.22587    -0.03325     0.20280
  augment  2435.80347  2444.76205  2449.40778    -0.00137     0.09362     0.00003
  Kinetic  5696.70723  5754.72713  5760.02789     1.01908     0.36357     0.08482
  Fock        0.00000     0.00000     0.00000     0.00000     0.00000     0.00000
  Total     -17.82760   -19.26890     1.00823    -0.00000     0.04294     0.00000
  in kB     -17.46340   -18.87526     0.98763    -0.00000     0.04207     0.00000

 VOLUME and BASIS-vectors are now :
  energy-cutoff  :      500.00
  volume of cell :     1635.59
      direct lattice vectors                 reciprocal lattice vectors
     8.813512802  0.000000000  0.000000000     0.113462137 -0.065507406  0.000000000
     4.406756909  7.632725690  0.000000000     0.000000000  0.131014796  0.000000000
     0.000000000  0.000000000 24.313408842     0.000000000  0.000000000  0.041129568

  length of vectors
     8.813512802  8.813512802 24.313408842     0.131014796  0.131014796  0.041129568

 FORCES acting on ions
    electron-ion (+dipol)            ewald-force                    non-local-force                 convergence-correction
   -.199E-04 0.550E-01 0.269E+04   0.519E-04 -.241E-01 -.269E+04   -.392E-09 -.589E-02 -.992E+00   -.203E-03 -.232E-01 -.342E+00
   0.308E+00 0.505E+00 0.269E+04   -.361E+00 -.539E+00 -.269E+04   0.958E-02 0.305E-01 -.302E+00   0.458E-01 0.212E-01 -.424E+00
   -.308E+00 0.505E+00 0.269E+04   0.361E+00 -.539E+00 -.269E+04   -.958E-02 0.305E-01 -.302E+00   -.455E-01 0.231E-01 -.423E+00
   0.471E+00 -.623E-02 0.269E+04   -.627E+00 -.519E-01 -.269E+04   0.866E-01 -.330E-04 -.309E+00   0.704E-01 0.427E-01 -.385E+00
   0.805E-05 -.553E-01 0.269E+04   0.951E-04 0.375E-02 -.269E+04   0.476E-09 0.715E-02 -.230E+00   0.430E-02 0.479E-01 -.358E+00
   -.471E+00 -.620E-02 0.269E+04   0.627E+00 -.520E-01 -.269E+04   -.866E-01 -.330E-04 -.309E+00   -.720E-01 0.436E-01 -.384E+00
   0.286E+00 -.469E+00 0.269E+04   -.265E+00 0.591E+00 -.269E+04   -.127E-01 -.524E-01 -.354E+00   0.172E-01 -.725E-01 -.440E+00
   -.286E+00 -.469E+00 0.269E+04   0.265E+00 0.591E+00 -.269E+04   0.127E-01 -.524E-01 -.354E+00   -.153E-01 -.736E-01 -.440E+00
   0.196E-04 0.167E-02 0.269E+04   0.166E-03 0.204E-01 -.269E+04   -.149E-08 -.224E-01 -.559E+00   -.464E-02 -.943E-02 -.429E+00
   0.464E+01 0.274E+01 0.953E+03   -.423E+01 -.261E+01 -.952E+03   -.338E+00 -.127E+00 -.709E+00   -.277E-01 0.275E-01 -.309E+00
   0.168E-04 0.547E+01 0.959E+03   0.148E-03 -.548E+01 -.958E+03   -.278E-08 -.417E-01 -.429E+00   0.380E-02 -.117E-01 -.292E+00
   -.464E+01 0.274E+01 0.953E+03   0.423E+01 -.261E+01 -.952E+03   0.338E+00 -.127E+00 -.709E+00   0.264E-01 0.290E-01 -.309E+00
   0.451E+01 -.276E+01 0.959E+03   -.458E+01 0.279E+01 -.958E+03   0.439E-01 -.258E-01 -.366E+00   -.126E-01 0.123E-01 -.315E+00
   -.451E+01 -.276E+01 0.959E+03   0.458E+01 0.279E+01 -.958E+03   -.439E-01 -.258E-01 -.366E+00   0.205E-01 0.119E-01 -.315E+00
   0.307E-04 0.381E+00 0.952E+03   0.236E-03 -.370E+00 -.951E+03   -.143E-09 -.215E-02 -.552E+00   -.240E-02 0.680E-03 -.347E+00
   -.218E-04 -.530E+01 0.953E+03   0.163E-03 0.491E+01 -.952E+03   0.229E-07 0.344E+00 -.735E+00   0.294E-03 0.469E-02 -.347E+00
   0.489E+00 -.240E+00 0.952E+03   -.434E+00 0.292E+00 -.951E+03   -.443E-01 -.120E-01 -.446E+00   -.135E-01 -.346E-01 -.323E+00
   -.489E+00 -.240E+00 0.952E+03   0.434E+00 0.292E+00 -.951E+03   0.443E-01 -.120E-01 -.446E+00   0.135E-01 -.327E-01 -.323E+00
   -.406E-04 0.332E+01 -.815E+03   0.526E-04 -.349E+01 0.814E+03   0.739E-08 0.111E+00 0.746E+00   -.505E-03 0.350E-01 -.132E+00
   0.199E+02 0.127E+02 -.768E+03   -.194E+02 -.122E+02 0.769E+03   -.734E+00 -.525E+00 -.866E+00   0.231E+00 0.785E-01 0.241E+00
   -.199E+02 0.127E+02 -.768E+03   0.194E+02 -.122E+02 0.769E+03   0.734E+00 -.525E+00 -.866E+00   -.230E+00 0.804E-01 0.241E+00
   0.924E+01 -.662E+01 -.806E+03   -.951E+01 0.673E+01 0.806E+03   0.242E+00 -.143E+00 0.577E+00   0.743E-01 0.365E-02 -.481E-01
   -.878E-05 -.244E+02 -.770E+03   0.145E-03 0.240E+02 0.770E+03   0.453E-07 0.680E+00 -.518E+00   0.175E-02 -.252E+00 0.325E+00
   -.924E+01 -.662E+01 -.806E+03   0.951E+01 0.673E+01 0.806E+03   -.242E+00 -.143E+00 0.577E+00   -.812E-01 0.412E-02 -.482E-01
   -.246E+01 -.727E+00 -.817E+03   0.253E+01 0.803E+00 0.816E+03   0.209E-02 -.339E-01 0.656E+00   -.604E-01 -.370E-01 -.301E-01
   0.246E+01 -.727E+00 -.817E+03   -.253E+01 0.803E+00 0.816E+03   -.209E-02 -.339E-01 0.656E+00   0.623E-01 -.384E-01 -.297E-01
   0.885E-05 0.108E+02 -.808E+03   0.199E-03 -.112E+02 0.807E+03   0.230E-07 0.345E+00 0.633E+00   -.439E-02 0.992E-01 0.535E-01
   -.140E-04 0.520E+01 -.258E+04   0.295E-04 -.500E+01 0.258E+04   -.636E-08 -.956E-01 0.427E+00   0.161E-03 -.106E+00 0.165E+00
   0.377E+02 0.773E+02 -.254E+04   -.377E+02 -.777E+02 0.254E+04   -.288E+00 -.399E-01 0.857E+00   0.158E+00 0.105E+00 -.296E-01
   -.377E+02 0.773E+02 -.254E+04   0.377E+02 -.777E+02 0.254E+04   0.288E+00 -.399E-01 0.857E+00   -.158E+00 0.107E+00 -.290E-01
   0.934E+02 -.410E+00 -.253E+04   -.944E+02 0.456E+00 0.252E+04   0.885E-01 -.349E-01 0.108E+01   0.254E+00 0.128E-01 -.205E-01
   -.934E+02 -.410E+00 -.253E+04   0.944E+02 0.456E+00 0.252E+04   -.885E-01 -.349E-01 0.108E+01   -.256E+00 0.139E-01 -.209E-01
   0.362E+02 -.761E+02 -.254E+04   -.363E+02 0.764E+02 0.254E+04   -.220E+00 0.979E-01 0.851E+00   0.129E+00 -.128E+00 0.122E-01
   -.362E+02 -.761E+02 -.254E+04   0.363E+02 0.764E+02 0.254E+04   0.220E+00 0.979E-01 0.851E+00   -.127E+00 -.129E+00 0.113E-01
   0.299E-04 -.464E+01 -.259E+04   0.145E-03 0.437E+01 0.259E+04   0.972E-08 0.146E+00 0.537E+00   -.472E-02 0.114E+00 0.113E+00
   0.181E-05 -.228E+01 -.174E+04   0.918E-04 0.225E+01 0.174E+04   -.851E-09 -.128E-01 0.875E+00   0.297E-02 0.104E-01 -.570E+00
   0.238E+03 0.987E-01 -.172E+04   -.278E+03 0.276E-01 0.174E+04   0.393E+02 -.136E+00 -.143E+02   -.198E+00 0.949E-02 -.446E+00
   -.238E+03 0.987E-01 -.172E+04   0.278E+03 0.276E-01 0.174E+04   -.393E+02 -.136E+00 -.143E+02   0.198E+00 0.959E-02 -.446E+00
   -.406E-03 0.552E+00 0.355E+02   -.114E-12 0.238E-12 0.341E-11   -.366E-07 -.549E+00 -.281E+02   0.907E-03 -.450E-03 -.719E+01

 POSITION                                       TOTAL-FORCE (eV/Angst)
      0.00000      0.00000      5.28038         0.000000      0.001770     -0.034922
      2.93784      0.00000      5.28038         0.001907      0.018932     -0.024132
      5.87568      0.00000      5.28038        -0.001907      0.018932     -0.024132
      1.46892      2.54424      5.28038         0.001427     -0.015071     -0.028886
      4.40676      2.54424      5.28038         0.000000      0.003400     -0.051861
      7.34459      2.54424      5.28038        -0.001427     -0.015071     -0.028886
      2.93784      5.08848      5.28038         0.024598     -0.003758     -0.017160
      5.87568      5.08848      5.28038        -0.024598     -0.003758     -0.017160
      8.81351      5.08848      5.28038        -0.000000     -0.009736     -0.026557
      1.46892      0.84808      7.67911         0.048111      0.021469      0.073821
      4.40676      0.84808      7.67911        -0.000000     -0.065960     -0.024606
      7.34459      0.84808      7.67911        -0.048111      0.021469      0.073821
      2.93784      3.39232      7.67911        -0.041544      0.016781     -0.013298
      5.87568      3.39232      7.67911         0.041544      0.016781     -0.013298
      8.81351      3.39232      7.67911         0.000000      0.009861      0.087286
      4.40676      5.93656      7.67911        -0.000000     -0.044253      0.080039
      7.34459      5.93656      7.67911        -0.002723      0.006134      0.074457
     10.28243      5.93656      7.67911         0.002723      0.006134      0.074457
      8.81351      1.69621     10.07295        -0.000000     -0.024648     -0.015546
      2.93663      1.69546     10.04742         0.001109      0.053272      0.011695
      5.87688      1.69546     10.04742        -0.001109      0.053272      0.011695
     10.27557      4.24437     10.06760         0.050443     -0.027837     -0.013966
      4.40676      4.24180     10.04742        -0.000000     -0.040066     -0.081934
      7.35146      4.24437     10.06760        -0.050443     -0.027837     -0.013966
     11.75131      6.78462     10.07295         0.009366      0.003856     -0.001796
      5.87571      6.78462     10.07295        -0.009366      0.003856     -0.001796
      8.81351      6.77672     10.06760         0.000000      0.026382     -0.008867
      0.00000      0.00000     12.49471        -0.000000     -0.000574     -0.015606
      2.95476      0.03042     12.47845        -0.138824     -0.291480     -0.155803
      5.85875      0.03042     12.47845         0.138824     -0.291480     -0.155803
      1.50372      2.54369     12.47845        -0.619314      0.024543     -0.320557
      7.30979      2.54369     12.47845         0.619314      0.024543     -0.320557
      2.95572      5.05862     12.47845        -0.178961      0.283716     -0.129284
      5.85780      5.05862     12.47845         0.178961      0.283716     -0.129284
      8.81351      5.08848     12.49462        -0.000000     -0.006130      0.020878
      4.40676      2.54424     12.26123        -0.000000     -0.030378      1.251122
      3.73028      2.53043     14.22451        -0.102422     -0.000390     -0.044803
      5.08323      2.53043     14.22451         0.102422     -0.000390     -0.044803
    total drift:                                0.000502      0.002028      0.227341

  FREE ENERGIE OF THE ION-ELECTRON SYSTEM (eV)
  free  energy   TOTEN  =      -123.00941530 eV

  energy  without entropy=     -123.00941530  energy(sigma->0) =     -123.00941530

 stress matrix after NEB project (eV)
    -17.82760     -0.00000      0.00000
     -0.00000    -19.26890      0.04294
      0.00000      0.04294      1.00823
  FORCES: max atom, RMS     0.111793    0.025647
  FORCE total and by dimension    0.158100    0.102422
  Stress total and by dimension   26.270404   19.268903
|           W    W    AA    RRRRR   N    N  II  N    N   GGGG   !!!           |
|           W    W   A  A   R    R  NN   N  II  NN   N  G    G  !!!           |
|           W    W  A    A  R    R  N N  N  II  N N  N  G       !!!           |
|           W WW W  AAAAAA  RRRRR   N  N N  II  N  N N  G  GGG   !            |
|           WW  WW  A    A  R   R   N   NN  II  N   NN  G    G                |
|           W    W  A    A  R    R  N    N  II  N    N   GGGG   !!!           |
|     Tetrahedron method does not include variations of the Fermi             |
|     occupations, so forces and stress will be inaccurate. We suggest        |
|     using a different smearing scheme ISMEAR = 1 or 2 for metals in         |
|     relaxations.                                                            |

 total charge

# of ion       s       p       d       tot
    1        0.544   0.239   8.768   9.550
    2        0.544   0.240   8.764   9.549
    3        0.544   0.240   8.764   9.549
    4        0.546   0.240   8.763   9.550
    5        0.542   0.242   8.761   9.544
    6        0.546   0.240   8.763   9.550
    7        0.544   0.240   8.764   9.549
    8        0.544   0.240   8.764   9.549
    9        0.541   0.240   8.768   9.548
   10        0.521   0.309   8.768   9.597
   11        0.522   0.306   8.779   9.607
   12        0.521   0.309   8.768   9.597
   13        0.521   0.306   8.778   9.606
   14        0.521   0.306   8.778   9.606
   15        0.514   0.308   8.774   9.596
   16        0.518   0.310   8.768   9.596
   17        0.514   0.308   8.776   9.598
   18        0.514   0.308   8.776   9.598
   19        0.515   0.302   8.780   9.596
   20        0.540   0.324   8.754   9.618
   21        0.540   0.324   8.754   9.618
   22        0.509   0.309   8.772   9.590
   23        0.533   0.327   8.759   9.619
   24        0.509   0.309   8.772   9.590
   25        0.516   0.303   8.775   9.595
   26        0.516   0.303   8.775   9.595
   27        0.509   0.308   8.773   9.590
   28        0.542   0.228   8.770   9.540
   29        0.540   0.233   8.770   9.543
   30        0.540   0.233   8.770   9.543
   31        0.533   0.235   8.778   9.547
   32        0.533   0.235   8.778   9.547
   33        0.539   0.233   8.774   9.545
   34        0.539   0.233   8.774   9.545
   35        0.540   0.228   8.771   9.539
   36        0.376   0.441   7.357   8.174
   37        1.609   3.260   0.000   4.869
   38        1.609   3.260   0.000   4.869
tot         22.147  16.561 314.303 353.011

 BZINTS: Fermi energy:    0.170611;  406.000000 electrons
         Band energy:-0.149052E+04;  BLOECHL correction:   -0.050805