 vasp.6.2.0 18Jan21 (build Jun 12 2021 23:27:24) complex

 executed on             LinuxIFC date 2022.05.26  19:30:44

 INCAR:
   ISMEAR = -5
   SIGMA = 0.1
   ISPIN = 1
   EDIFF = 1.d-5
   EDIFFG = -0.01
   NSW = 0
   NELM = 150
   ENCUT = 500
   ISIF = 2
   IBRION = 2
   LREAL = Auto
   ALGO = Fast
   ICHARG = 11
   LORBIT = 10
   LCHARG = .F.
   LWAVE = .F.

 POTCAR:    PAW_PBE Au 04Oct2007
 POTCAR:    PAW_PBE Ta 17Jan2003
 POTCAR:    PAW_PBE H 15Jun2001
|           W    W    AA    RRRRR   N    N  II  N    N   GGGG   !!!           |
|           W    W   A  A   R    R  NN   N  II  NN   N  G    G  !!!           |
|           W    W  A    A  R    R  N N  N  II  N N  N  G       !!!           |
|           W WW W  AAAAAA  RRRRR   N  N N  II  N  N N  G  GGG   !            |
|           WW  WW  A    A  R   R   N   NN  II  N   NN  G    G                |
|           W    W  A    A  R    R  N    N  II  N    N   GGGG   !!!           |
|     For optimal performance we recommend to set                             |
|       NCORE = 2 up to number-of-cores-per-socket                            |
|     This setting can greatly improve the performance of VASP for DFT.       |
|     The default, NCORE=1 might be grossly inefficient on modern             |
|     multi-core architectures or massively parallel machines. Do your        |
|     Unfortunately you need to use the default for GW and RPA                |
|     calculations (for HF NCORE is supported but not extensively tested      |
|     yet).                                                                   |

 POTCAR:    PAW_PBE Au 04Oct2007
   VRHFIN =Au: s1d10

   TITEL  = PAW_PBE Au 04Oct2007
   POMASS =  196.966; ZVAL   =   11.000    mass and valenz
   ENMAX  =  229.943; ENMIN  =  172.457 eV

 POTCAR:    PAW_PBE Ta 17Jan2003
   VRHFIN =Ta:  6s5d

   TITEL  = PAW_PBE Ta 17Jan2003
   POMASS =  180.948; ZVAL   =    5.000    mass and valenz
   ENMAX  =  223.667; ENMIN  =  167.750 eV

 POTCAR:    PAW_PBE H 15Jun2001
   VRHFIN =H: ultrasoft test

   TITEL  = PAW_PBE H 15Jun2001
   POMASS =    1.000; ZVAL   =    1.000    mass and valenz
   ENMAX  =  250.000; ENMIN  =  200.000 eV

 Optimization of the real space projectors (new method)

 maximal supplied QI-value         = 15.12
 optimisation between [QCUT,QGAM] = [ 11.34, 22.83] = [ 36.00,145.93] Ry
 Optimized for a Real-space Cutoff    1.39 Angstroem

   l    n(q)    QCUT    max X(q) W(low)/X(q) W(high)/X(q)  e(spline)
   2      9    11.338    60.898    0.39E-03    0.42E-03    0.21E-06
   2      9    11.338    58.894    0.40E-03    0.42E-03    0.22E-06
   0      9    11.338   109.617    0.13E-03    0.20E-04    0.13E-06
   0      9    11.338    75.026    0.13E-03    0.20E-04    0.13E-06
   1      9    11.338    16.344    0.33E-04    0.24E-03    0.18E-06
   1      9    11.338    10.160    0.26E-04    0.19E-03    0.15E-06
 Optimization of the real space projectors (new method)

[...]

   l    n(q)    QCUT    max X(q) W(low)/X(q) W(high)/X(q)  e(spline)
   2     10    11.437    62.315    0.14E-03    0.26E-03    0.80E-06
   2     10    11.437    52.185    0.14E-03    0.26E-03    0.80E-06
   0     11    11.437   103.837    0.25E-04    0.17E-04    0.84E-07
   0     11    11.437    59.728    0.20E-04    0.15E-04    0.73E-07
   1     11    11.437    13.958    0.47E-03    0.12E-03    0.89E-06
   1     11    11.437     8.441    0.33E-03    0.88E-04    0.61E-06
 Optimization of the real space projectors (new method)

 maximal supplied QI-value         = 34.20
 optimisation between [QCUT,QGAM] = [ 11.29, 22.57] = [ 35.68,142.71] Ry
 Optimized for a Real-space Cutoff    1.16 Angstroem

   l    n(q)    QCUT    max X(q) W(low)/X(q) W(high)/X(q)  e(spline)
   0      8    11.287    19.460    0.40E-03    0.73E-03    0.16E-06
   0      8    11.287    12.209    0.38E-03    0.70E-03    0.15E-06
   1      7    11.287     4.655    0.22E-03    0.25E-04    0.22E-06
  PAW_PBE Au 04Oct2007                  :
  PAW_PBE Ta 17Jan2003                  :
  PAW_PBE H 15Jun2001                   :

 POSCAR: Au-Ta-H
  positions in direct lattice
  velocities in cartesian coordinates
 exchange correlation table for  LEXCH =        8
   RHO(1)=    0.500       N(1)  =     2000
   RHO(2)=  100.500       N(2)  =     4000

 VTST: version 3.2, (02/03/18)

 CHAIN: initializing optimizer

 OPT: Using VASP Conjugate-Gradient optimizer
 CHAIN: Read ICHAIN            0

 POSCAR: Au-Ta-H
  positions in direct lattice
  velocities in cartesian coordinates

 ion  position               nearest neighbor table
   1  0.000  0.000  0.238-  16 2.94  12 2.94   6 2.94   8 2.94   7 2.94   3 2.94  10 2.94   4 2.94
                             2 2.94
   2  0.333  0.000  0.238-   9 2.94  11 2.94  17 2.94  10 2.94   8 2.94   4 2.94   5 2.94   1 2.94
                             3 2.94
   3  0.667  0.000  0.238-   7 2.94  18 2.94  12 2.94   1 2.94  11 2.94   5 2.94   6 2.94   9 2.94
                             2 2.94
   4  0.000  0.333  0.238-  10 2.94   6 2.94   5 2.94  13 2.94   2 2.94  15 2.94   9 2.94   1 2.94
                             7 2.94
   5  0.333  0.333  0.238-  13 2.94   7 2.94  11 2.94   4 2.94   2 2.94  14 2.94   3 2.94   8 2.94
                             6 2.94
   6  0.667  0.333  0.238-  15 2.94  14 2.94   1 2.94  12 2.94   4 2.94   9 2.94   8 2.94   3 2.94
                             5 2.94
   7  0.000  0.667  0.238-  18 2.94   3 2.94  16 2.94   5 2.94   1 2.94  13 2.94   8 2.94   4 2.94
                             9 2.94
   8  0.333  0.667  0.238-   9 2.94  17 2.94   1 2.94   2 2.94  14 2.94  16 2.94   6 2.94   7 2.94
                             5 2.94
   9  0.667  0.667  0.238-   2 2.94   8 2.94  17 2.94   6 2.94  15 2.94   4 2.94   3 2.94  18 2.94
                             7 2.94
  10  0.111  0.111  0.346-  20 2.91  11 2.94  17 2.94   2 2.94   4 2.94   1 2.94  12 2.94  16 2.94
                            13 2.94  15 2.94  26 2.96  19 2.96
  11  0.444  0.111  0.346-  20 2.91  21 2.91  13 2.94   2 2.94  10 2.94  17 2.94   5 2.94   3 2.94
                            18 2.94  14 2.94  12 2.94  27 2.94
  12  0.778  0.111  0.346-  21 2.91  16 2.94  18 2.94   1 2.94  14 2.94  15 2.94   3 2.94   6 2.94
                            10 2.94  11 2.94  25 2.96  19 2.96
  13  0.111  0.444  0.346-  23 2.91  20 2.91   5 2.94  18 2.94  11 2.94   7 2.94   4 2.94  16 2.94
                            10 2.94  14 2.94  15 2.94  22 2.94
  14  0.444  0.444  0.346-  21 2.91  23 2.91  15 2.94   6 2.94  12 2.94   8 2.94  17 2.94   5 2.94
                            16 2.94  13 2.94  11 2.94  24 2.94
  15  0.778  0.444  0.346-  24 2.92  22 2.92  14 2.94   6 2.94  17 2.94  12 2.94   9 2.94   4 2.94
                            10 2.94  13 2.94  18 2.94  19 2.95
  16  0.111  0.778  0.346-  23 2.91  18 2.94  12 2.94   7 2.94   1 2.94   8 2.94  13 2.94  10 2.94
                            14 2.94  17 2.94  25 2.96  26 2.96
  17  0.444  0.778  0.346-  27 2.92  24 2.92   9 2.94  15 2.94   2 2.94  10 2.94  11 2.94   8 2.94
                            14 2.94  16 2.94  18 2.94  26 2.95
  18  0.778  0.778  0.346-  22 2.92  27 2.92  16 2.94   7 2.94  13 2.94  12 2.94   3 2.94  11 2.94
                             9 2.94  15 2.94  17 2.94  25 2.95
  19  0.888  0.223  0.455-  24 2.93  22 2.93  21 2.93  20 2.93  28 2.95  15 2.95  26 2.95  25 2.95
                            10 2.96  12 2.96  32 3.06  31 3.06
  20  0.222  0.222  0.453-  36 2.74  10 2.91  11 2.91  13 2.91  26 2.93  19 2.93  23 2.95  21 2.95
                            27 2.95  22 2.95  29 2.99  31 2.99
  21  0.556  0.222  0.453-  36 2.74  12 2.91  14 2.91  11 2.91  25 2.93  19 2.93  20 2.95  23 2.95
                            27 2.95  24 2.95  30 2.99  32 2.99
  22  0.886  0.557  0.454-  24 2.91  27 2.91  18 2.92  15 2.92  25 2.93  19 2.93  13 2.94  23 2.95
                            20 2.95  35 2.96  33 3.03  31 3.03
  23  0.222  0.556  0.453-  36 2.74  16 2.91  13 2.91  14 2.91  25 2.93  26 2.93  20 2.95  21 2.95
                            22 2.95  24 2.95  33 2.99  34 2.99
  24  0.557  0.557  0.454-  27 2.91  22 2.91  15 2.92  17 2.92  26 2.93  19 2.93  14 2.94  21 2.95
                            23 2.95  35 2.96  32 3.03  34 3.03
  25  0.888  0.888  0.455-  22 2.93  27 2.93  23 2.93  21 2.93  28 2.95  18 2.95  19 2.95  26 2.95
                            16 2.96  12 2.96  33 3.06  30 3.06
  26  0.223  0.888  0.455-  27 2.93  24 2.93  20 2.93  23 2.93  28 2.95  17 2.95  19 2.95  25 2.95
                            10 2.96  16 2.96  29 3.06  34 3.06
  27  0.557  0.886  0.454-  24 2.91  22 2.91  17 2.92  18 2.92  26 2.93  25 2.93  11 2.94  20 2.95
                            21 2.95  35 2.96  29 3.03  30 3.03
  28  0.000  0.000  0.563-  25 2.95  19 2.95  26 2.95  34 3.00  32 3.00  33 3.00  30 3.00  31 3.00
                            29 3.00
  29  0.334  0.012  0.567-  30 2.82  31 2.84  36 2.85  35 2.99  20 2.99  28 3.00  27 3.03  26 3.06
                            34 3.16
  30  0.654  0.012  0.567-  29 2.82  32 2.84  36 2.85  35 2.99  21 2.99  28 3.00  27 3.03  25 3.06
                            33 3.16
  31  0.012  0.334  0.567-  33 2.82  29 2.84  36 2.85  35 2.99  20 2.99  28 3.00  22 3.03  19 3.06
                            32 3.16
  32  0.654  0.334  0.567-  34 2.82  30 2.84  36 2.85  35 2.99  21 2.99  28 3.00  24 3.03  19 3.06
                            31 3.16
  33  0.012  0.654  0.567-  31 2.82  34 2.84  36 2.85  35 2.99  23 2.99  28 3.00  22 3.03  25 3.06
                            30 3.16
  34  0.334  0.654  0.567-  32 2.82  33 2.84  36 2.85  35 2.99  23 2.99  28 3.00  24 3.03  26 3.06
                            29 3.16
  35  0.667  0.667  0.563-  24 2.96  27 2.96  22 2.96  29 2.99  34 2.99  32 2.99  31 2.99  30 2.99
                            33 2.99
  36  0.333  0.333  0.550-  37 1.77  20 2.74  23 2.74  21 2.74  33 2.85  31 2.85  29 2.85  30 2.85
                            34 2.85  32 2.85
  37  0.333  0.333  0.629-  36 1.77

  LATTYP: Found a hexagonal cell.
 ALAT       =     8.8135128021
 C/A-ratio  =     2.5184286595

  Lattice vectors:

 A1 = (  -4.4067569092,  -7.6327256898,   0.0000000000)
 A2 = (   8.8135128021,   0.0000000000,   0.0000000000)
 A3 = (   0.0000000000,   0.0000000000,  22.1962032318)

Analysis of symmetry for initial positions (statically):
 Subroutine PRICEL returns:
 Original cell was already a primitive cell.

 Routine SETGRP: Setting up the symmetry group for a
 hexagonal supercell.

 Subroutine GETGRP returns: Found  6 space group operations
 (whereof  6 operations were pure point group operations)
 out of a pool of 24 trial point group operations.

The static configuration has the point symmetry C_3v.

Analysis of symmetry for dynamics (positions and initial velocities):
 Subroutine PRICEL returns:
 Original cell was already a primitive cell.

[...]

The dynamic configuration has the point symmetry C_3v.

Analysis of constrained symmetry for selective dynamics:
 Subroutine PRICEL returns:
 Original cell was already a primitive cell.

 Routine SETGRP: Setting up the symmetry group for a
 hexagonal supercell.

 Subroutine GETGRP returns: Found  6 space group operations
 (whereof  6 operations were pure point group operations)
[...]
     24      -5.0918      2.00000
     25      -5.0804      2.00000
     26      -5.0413      2.00000
     27      -4.9986      2.00000
     28      -4.9744      2.00000
     29      -4.9271      2.00000
     30      -4.9048      2.00000
     31      -4.8748      2.00000
     32      -4.7975      2.00000
     33      -4.7818      2.00000
     34      -4.7635      2.00000
     35      -4.7426      2.00000
     36      -4.7357      2.00000
     37      -4.6396      2.00000
     38      -4.5626      2.00000
     39      -4.5163      2.00000
     40      -4.4718      2.00000
     41      -4.4343      2.00000
     42      -4.4125      2.00000
     43      -4.3799      2.00000
     44      -4.3693      2.00000
     45      -4.3335      2.00000
     46      -4.2679      2.00000
     47      -4.2499      2.00000
     48      -4.2084      2.00000
     49      -4.1840      2.00000
     50      -4.1789      2.00000
     51      -4.1529      2.00000
     52      -4.1395      2.00000
     53      -4.1312      2.00000
     54      -4.0975      2.00000
     55      -4.0615      2.00000
     56      -4.0511      2.00000
     57      -4.0333      2.00000
     58      -4.0240      2.00000
     59      -4.0089      2.00000
     60      -3.9919      2.00000
[...]
    238       6.6867      0.00000
    239       6.7404      0.00000
    240       6.8046      0.00000
    241       6.8758      0.00000
    242       6.9395      0.00000
    243       7.1168      0.00000
    244       7.1958      0.00000
    245       7.2670      0.00000
    246       7.6315      0.00000
    247       7.6423      0.00000
    248       7.8003      0.00000
    249       7.8156      0.00000
    250       7.9279      0.00000
    251       7.9507      0.00000
    252       7.9786      0.00000

 soft charge-density along one line, spin component           1
         0         1         2         3         4         5         6         7         8         9
 total charge-density along one line

------------------------ aborting loop because EDIFF is reached ----------------------------------------

 total charge

# of ion       s       p       d       tot
    1        0.551   0.236   8.767   9.554
    2        0.541   0.241   8.766   9.548
    3        0.541   0.241   8.766   9.548
    4        0.541   0.241   8.766   9.548
    5        0.548   0.241   8.761   9.550
    6        0.541   0.241   8.766   9.548
    7        0.541   0.241   8.766   9.548
    8        0.541   0.241   8.766   9.548
    9        0.544   0.239   8.767   9.550
   10        0.524   0.305   8.769   9.598
   11        0.520   0.307   8.780   9.607
   12        0.524   0.305   8.769   9.598
   13        0.520   0.307   8.780   9.607
   14        0.520   0.307   8.780   9.607
   15        0.516   0.307   8.773   9.596
   16        0.524   0.305   8.769   9.598
   17        0.516   0.307   8.773   9.596
   18        0.516   0.307   8.773   9.596
   19        0.518   0.293   8.771   9.582
   20        0.582   0.339   8.727   9.649
   21        0.582   0.339   8.727   9.649
   22        0.509   0.305   8.776   9.590
   23        0.582   0.339   8.727   9.649
   24        0.509   0.305   8.776   9.590
   25        0.518   0.293   8.771   9.582
   26        0.518   0.293   8.771   9.582
   27        0.509   0.305   8.776   9.590
   28        0.540   0.226   8.753   9.519
   29        0.595   0.247   8.726   9.567
   30        0.595   0.247   8.726   9.567
   31        0.595   0.247   8.726   9.567
   32        0.595   0.247   8.726   9.567
   33        0.595   0.247   8.726   9.567
   34        0.595   0.247   8.726   9.567
   35        0.536   0.227   8.757   9.520
   36        0.670   0.689   2.961   4.321
   37        0.534   0.010   0.000   0.543
tot         20.245  10.363 309.503 340.111

  FORCE on cell =-STRESS in cart. coord.  units (eV):
  Direction    XX          YY          ZZ          XY          YZ          ZX
  Alpha Z  1000.17932  1000.17932  1000.17932
  Ewald  116295.61787116295.61825************    -0.00033    -0.00009    -0.00017
  Hartree124743.00630124743.00629************     0.00000    -0.00002    -0.00005
  E(xc)   -1751.50138 -1751.50137 -1760.46278    -0.00001     0.00000     0.00000
  Local  ************************253309.35337     0.00170     0.00005     0.00011
  n-local   -73.51195   -25.62289   -18.63862    22.59036    -1.84285     1.57009
  augment  2363.97864  2363.98009  2385.05841    -0.00125     0.00004     0.00006
  Kinetic  5395.50902  5402.66614  5469.70198     3.63351     0.39595    -0.18258
  Fock        0.00000     0.00000     0.00000     0.00000     0.00000     0.00000
  Total     -22.12416   -22.12416     3.49478    -0.00000     0.00000    -0.00000
  in kB     -23.73942   -23.73941     3.74993    -0.00000     0.00000    -0.00000

 VOLUME and BASIS-vectors are now :
  energy-cutoff  :      500.00
  volume of cell :     1493.16
      direct lattice vectors                 reciprocal lattice vectors
     8.813512802  0.000000000  0.000000000     0.113462137 -0.065507406  0.000000000
     4.406756909  7.632725690  0.000000000     0.000000000  0.131014796  0.000000000
     0.000000000  0.000000000 22.196203232     0.000000000  0.000000000  0.045052750

  length of vectors
     8.813512802  8.813512802 22.196203232     0.131014796  0.131014796  0.045052750

 FORCES acting on ions
    electron-ion (+dipol)            ewald-force                    non-local-force                 convergence-correction
   -.197E-04 -.162E-04 0.245E+04   0.519E-04 0.433E-04 -.245E+04   0.199E-17 0.404E-17 -.598E+00   -.188E-03 -.121E-03 -.245E-01
   0.505E+00 -.151E+00 0.245E+04   -.478E+00 0.115E+00 -.245E+04   0.124E-01 0.104E+00 -.361E+00   -.385E-01 -.796E-01 -.347E-01
   -.505E+00 -.151E+00 0.245E+04   0.477E+00 0.115E+00 -.245E+04   -.124E-01 0.104E+00 -.361E+00   0.387E-01 -.777E-01 -.341E-01
   0.121E+00 0.513E+00 0.245E+04   -.139E+00 -.471E+00 -.245E+04   0.960E-01 -.411E-01 -.361E+00   -.881E-01 0.645E-02 -.347E-01
   0.721E-05 -.242E-04 0.245E+04   0.951E-04 0.174E-05 -.245E+04   -.400E-17 -.232E-17 0.999E-01   0.419E-02 0.258E-02 -.465E-01
   -.121E+00 0.513E+00 0.245E+04   0.139E+00 -.471E+00 -.245E+04   -.960E-01 -.411E-01 -.361E+00   0.866E-01 0.737E-02 -.339E-01
   -.383E+00 -.362E+00 0.245E+04   0.338E+00 0.356E+00 -.245E+04   0.836E-01 -.626E-01 -.361E+00   -.479E-01 0.724E-01 -.340E-01
   0.383E+00 -.362E+00 0.245E+04   -.338E+00 0.356E+00 -.245E+04   -.836E-01 -.626E-01 -.361E+00   0.497E-01 0.713E-01 -.340E-01
   0.198E-04 -.416E-04 0.245E+04   0.166E-03 -.200E-04 -.245E+04   0.746E-18 0.131E-17 -.347E+00   -.454E-02 -.238E-02 -.484E-01
   0.446E+01 0.258E+01 0.778E+03   -.419E+01 -.242E+01 -.778E+03   -.326E+00 -.188E+00 -.511E+00   -.319E-01 -.183E-01 0.603E-01
   0.140E-04 0.233E+00 0.780E+03   0.148E-03 -.101E+00 -.780E+03   -.260E-08 -.390E-01 -.134E+00   0.373E-02 -.151E+00 0.732E-01
   -.446E+01 0.258E+01 0.778E+03   0.419E+01 -.242E+01 -.778E+03   0.326E+00 -.188E+00 -.511E+00   0.308E-01 -.178E-01 0.587E-01
   0.202E+00 -.117E+00 0.780E+03   -.879E-01 0.507E-01 -.780E+03   -.338E-01 0.195E-01 -.134E+00   -.129E+00 0.792E-01 0.734E-01
   -.202E+00 -.117E+00 0.780E+03   0.877E-01 0.507E-01 -.780E+03   0.338E-01 0.195E-01 -.134E+00   0.136E+00 0.785E-01 0.715E-01
   0.320E-04 0.536E+01 0.784E+03   0.235E-03 -.541E+01 -.783E+03   0.762E-09 0.114E-01 -.449E+00   -.166E-02 -.190E-01 0.344E-01
   -.209E-04 -.515E+01 0.778E+03   0.162E-03 0.483E+01 -.778E+03   0.251E-07 0.377E+00 -.511E+00   -.240E-03 0.355E-01 0.592E-01
   0.464E+01 -.268E+01 0.784E+03   -.469E+01 0.271E+01 -.783E+03   0.991E-02 -.572E-02 -.449E+00   -.170E-01 0.814E-02 0.338E-01
   -.464E+01 -.268E+01 0.784E+03   0.469E+01 0.271E+01 -.783E+03   -.991E-02 -.572E-02 -.449E+00   0.174E-01 0.963E-02 0.346E-01
   -.429E-04 -.221E+01 -.909E+03   0.561E-04 0.225E+01 0.909E+03   -.308E-08 -.462E-01 0.598E+00   0.510E-02 -.154E-01 0.473E-01
   -.151E+02 -.872E+01 -.898E+03   0.162E+02 0.935E+01 0.899E+03   -.120E+01 -.692E+00 -.138E+01   -.168E-01 -.907E-02 0.175E+00
   0.151E+02 -.872E+01 -.898E+03   -.162E+02 0.935E+01 0.899E+03   0.120E+01 -.692E+00 -.138E+01   0.938E-02 -.933E-02 0.175E+00
   -.180E+02 0.104E+02 -.892E+03   0.176E+02 -.102E+02 0.891E+03   0.433E+00 -.250E+00 0.667E+00   0.356E-02 -.308E-02 0.581E-01
   -.921E-05 0.174E+02 -.898E+03   0.137E-03 -.187E+02 0.899E+03   0.921E-07 0.138E+01 -.138E+01   -.381E-02 0.133E-01 0.175E+00
   0.180E+02 0.104E+02 -.892E+03   -.176E+02 -.102E+02 0.891E+03   -.433E+00 -.250E+00 0.667E+00   -.216E-02 -.194E-02 0.575E-01
   0.192E+01 0.111E+01 -.909E+03   -.195E+01 -.113E+01 0.909E+03   0.400E-01 0.231E-01 0.598E+00   0.183E-01 0.980E-02 0.466E-01
   -.192E+01 0.111E+01 -.909E+03   0.195E+01 -.113E+01 0.909E+03   -.400E-01 0.231E-01 0.598E+00   -.177E-01 0.118E-01 0.473E-01
   0.934E-05 -.208E+02 -.892E+03   0.198E-03 0.203E+02 0.891E+03   0.333E-07 0.500E+00 0.667E+00   -.282E-03 0.435E-02 0.581E-01
   -.103E-04 -.105E-04 -.244E+04   0.275E-04 0.301E-04 0.244E+04   0.550E-17 0.584E-18 0.606E+00   0.156E-02 0.682E-03 0.376E-01
   -.687E+00 -.115E+02 -.246E+04   0.197E+01 0.134E+02 0.246E+04   -.138E+01 -.207E+01 -.238E+00   0.586E-01 0.820E-01 0.662E-01
   0.687E+00 -.115E+02 -.246E+04   -.197E+01 0.134E+02 0.246E+04   0.138E+01 -.207E+01 -.238E+00   -.650E-01 0.828E-01 0.665E-01
   -.103E+02 0.514E+01 -.246E+04   0.126E+02 -.498E+01 0.246E+04   -.249E+01 -.161E+00 -.238E+00   0.100E+00 0.986E-02 0.657E-01
   0.103E+02 0.514E+01 -.246E+04   -.126E+02 -.498E+01 0.246E+04   0.249E+01 -.161E+00 -.238E+00   -.107E+00 0.109E-01 0.669E-01
   -.959E+01 0.633E+01 -.246E+04   0.106E+02 -.839E+01 0.246E+04   -.110E+01 0.223E+01 -.238E+00   0.393E-01 -.978E-01 0.663E-01
   0.959E+01 0.633E+01 -.246E+04   -.106E+02 -.839E+01 0.246E+04   0.110E+01 0.223E+01 -.238E+00   -.441E-01 -.978E-01 0.669E-01
   0.337E-04 -.334E-04 -.244E+04   0.142E-03 -.460E-04 0.244E+04   -.531E-17 -.139E-17 0.681E+00   -.297E-02 -.170E-02 0.811E-01
   -.232E-04 0.684E-06 -.103E+04   0.528E-04 0.493E-05 0.104E+04   0.202E-17 0.168E-17 -.175E+01   0.466E-03 0.346E-03 0.586E-01
   0.566E-05 -.391E-05 -.260E+03   0.437E-05 0.280E-06 0.262E+03   -.206E-18 -.883E-19 -.220E+01   0.102E-03 0.652E-04 -.211E-01
   -.817E-03 -.781E-03 0.939E+01   -.380E-13 0.228E-12 -.128E-10   0.111E-14 -.444E-15 -.107E+02   -.148E-01 -.519E-02 0.157E+01

 POSITION                                       TOTAL-FORCE (eV/Angst)
      0.00000      0.00000      5.28038        -0.000000      0.000000     -0.170370
      2.93784      0.00000      5.28038         0.001748     -0.011459     -0.052926
      5.87568      0.00000      5.28038        -0.001748     -0.011459     -0.052926
      1.46892      2.54424      5.28038        -0.009050      0.007243     -0.052926
      4.40676      2.54424      5.28038        -0.000000     -0.000000     -0.072751
      7.34459      2.54424      5.28038         0.009050      0.007243     -0.052926
      2.93784      5.08848      5.28038        -0.010798      0.004216     -0.052926
      5.87568      5.08848      5.28038         0.010798      0.004216     -0.052926
      8.81351      5.08848      5.28038        -0.000000     -0.000000     -0.076135
      1.46892      0.84808      7.67911        -0.081655     -0.047144      0.080143
      4.40676      0.84808      7.67911        -0.000000     -0.060524     -0.007620
      7.34459      0.84808      7.67911         0.081655     -0.047144      0.080143
      2.93784      3.39232      7.67911        -0.052415      0.030262     -0.007620
      5.87568      3.39232      7.67911         0.052415      0.030262     -0.007620
      8.81351      3.39232      7.67911        -0.000000     -0.060990      0.128915
      4.40676      5.93656      7.67911         0.000000      0.094288      0.080143
      7.34459      5.93656      7.67911        -0.052819      0.030495      0.128915
     10.28243      5.93656      7.67911         0.052819      0.030495      0.128915
      8.81351      1.70341     10.09804        -0.000000     -0.026861     -0.027209
      2.93277      1.69323     10.04724        -0.118529     -0.068433     -0.176495
      5.88075      1.69323     10.04724         0.118529     -0.068433     -0.176495
     10.26617      4.24979     10.06844         0.045622     -0.026340      0.028167
      4.40676      4.24626     10.04724         0.000000      0.136865     -0.176495
      7.36086      4.24979     10.06844        -0.045622     -0.026340      0.028167
     11.74508      6.78102     10.09804         0.023262      0.013431     -0.027209
      5.88195      6.78102     10.09804        -0.023262      0.013431     -0.027209
      8.81351      6.76586     10.06844         0.000000      0.052680      0.028167
      0.00000      0.00000     12.50054        -0.000000     -0.000000      0.023409
      2.99863      0.09131     12.57640        -0.039533     -0.098317     -0.096080
      5.81488      0.09131     12.57640         0.039533     -0.098317     -0.096080
      1.57839      2.55123     12.57640        -0.104912      0.014922     -0.096080
      7.23512      2.55123     12.57640         0.104912      0.014922     -0.096080
      2.98652      4.99018     12.57640        -0.065379      0.083395     -0.096080
      5.82700      4.99018     12.57640         0.065379      0.083395     -0.096080
      8.81351      5.08848     12.50707        -0.000000     -0.000000      0.065598
      4.40676      2.54424     12.20058        -0.000000     -0.000000      1.053651
      4.40676      2.54424     13.96929        -0.000000      0.000000     -0.007069
    total drift:                               -0.015585     -0.005973      0.207235

  FREE ENERGIE OF THE ION-ELECTRON SYSTEM (eV)
  free  energy   TOTEN  =      -121.08411950 eV

  energy  without entropy=     -121.08411950  energy(sigma->0) =     -121.08411950

 stress matrix after NEB project (eV)
    -22.12416     -0.00000     -0.00000
     -0.00000    -22.12416      0.00000
     -0.00000      0.00000      3.49478
  FORCES: max atom, RMS     0.007069    0.001162
  FORCE total and by dimension    0.007069    0.007069
  Stress total and by dimension   31.482862   22.124163
|           W    W    AA    RRRRR   N    N  II  N    N   GGGG   !!!           |
|           W    W   A  A   R    R  NN   N  II  NN   N  G    G  !!!           |
|           W    W  A    A  R    R  N N  N  II  N N  N  G       !!!           |
|           W WW W  AAAAAA  RRRRR   N  N N  II  N  N N  G  GGG   !            |
|           WW  WW  A    A  R   R   N   NN  II  N   NN  G    G                |
|           W    W  A    A  R    R  N    N  II  N    N   GGGG   !!!           |
|     Tetrahedron method does not include variations of the Fermi             |
|     occupations, so forces and stress will be inaccurate. We suggest        |
|     using a different smearing scheme ISMEAR = 1 or 2 for metals in         |
|     relaxations.                                                            |

 total charge

# of ion       s       p       d       tot
    1        0.551   0.236   8.767   9.554
    2        0.541   0.241   8.766   9.548
    3        0.541   0.241   8.766   9.548
    4        0.541   0.241   8.766   9.548
    5        0.548   0.241   8.761   9.550
    6        0.541   0.241   8.766   9.548
    7        0.541   0.241   8.766   9.548
    8        0.541   0.241   8.766   9.548
    9        0.544   0.239   8.767   9.550
   10        0.524   0.305   8.769   9.598
   11        0.520   0.307   8.780   9.607
   12        0.524   0.305   8.769   9.598
   13        0.520   0.307   8.780   9.607
   14        0.520   0.307   8.780   9.607
   15        0.516   0.307   8.773   9.596
   16        0.524   0.305   8.769   9.598
   17        0.516   0.307   8.773   9.596
   18        0.516   0.307   8.773   9.596
   19        0.518   0.293   8.771   9.582
   20        0.582   0.339   8.727   9.649
   21        0.582   0.339   8.727   9.649
   22        0.509   0.305   8.776   9.590
   23        0.582   0.339   8.727   9.649
   24        0.509   0.305   8.776   9.590
   25        0.518   0.293   8.771   9.582
   26        0.518   0.293   8.771   9.582
   27        0.509   0.305   8.776   9.590
   28        0.540   0.226   8.753   9.519
   29        0.595   0.247   8.726   9.567
   30        0.595   0.247   8.726   9.567
   31        0.595   0.247   8.726   9.567
   32        0.595   0.247   8.726   9.567
   33        0.595   0.247   8.726   9.567
   34        0.595   0.247   8.726   9.567
   35        0.536   0.227   8.757   9.520
   36        0.670   0.689   2.961   4.321
   37        0.534   0.010   0.000   0.543
tot         20.245  10.363 309.503 340.111

 BZINTS: Fermi energy:    0.650734;  391.000000 electrons
         Band energy:-0.121416E+04;  BLOECHL correction:   -0.037653