 vasp.6.2.0 18Jan21 (build Jun 12 2021 23:27:24) complex

 executed on             LinuxIFC date 2022.05.30  18:12:17

 INCAR:
   ISMEAR = -5
   SIGMA = 0.1
   ISPIN = 1
   EDIFF = 1.d-5
   NSW = 0
   NELM = 150
   ENCUT = 500
   ISIF = 2
   IBRION = 2
   LREAL = Auto
   ALGO = Fast
   ICHARG = 11
   LORBIT = 10
   LCHARG = .F.
   LWAVE = .F.

 POTCAR:    PAW_PBE Cu 22Jun2005
 POTCAR:    PAW_PBE Zr_sv 04Jan2005
 POTCAR:    PAW_PBE C 08Apr2002
 POTCAR:    PAW_PBE O 08Apr2002
 POTCAR:    PAW_PBE H 15Jun2001
|           W    W    AA    RRRRR   N    N  II  N    N   GGGG   !!!           |
|           W    W   A  A   R    R  NN   N  II  NN   N  G    G  !!!           |
|           W    W  A    A  R    R  N N  N  II  N N  N  G       !!!           |
|           W WW W  AAAAAA  RRRRR   N  N N  II  N  N N  G  GGG   !            |
|           WW  WW  A    A  R   R   N   NN  II  N   NN  G    G                |
|           W    W  A    A  R    R  N    N  II  N    N   GGGG   !!!           |
|     For optimal performance we recommend to set                             |
|       NCORE = 2 up to number-of-cores-per-socket                            |
|     This setting can greatly improve the performance of VASP for DFT.       |
|     The default, NCORE=1 might be grossly inefficient on modern             |
|     multi-core architectures or massively parallel machines. Do your        |
|     Unfortunately you need to use the default for GW and RPA                |
|     calculations (for HF NCORE is supported but not extensively tested      |
|     yet).                                                                   |

 POTCAR:    PAW_PBE Cu 22Jun2005
   VRHFIN =Cu: d10 p1

   TITEL  = PAW_PBE Cu 22Jun2005
   POMASS =   63.546; ZVAL   =   11.000    mass and valenz
   ENMAX  =  295.446; ENMIN  =  221.585 eV

 POTCAR:    PAW_PBE Zr_sv 04Jan2005
   VRHFIN =Zr: 4s4p5s4d

   TITEL  = PAW_PBE Zr_sv 04Jan2005
   POMASS =   91.224; ZVAL   =   12.000    mass and valenz
   ENMAX  =  229.898; ENMIN  =  172.424 eV

 POTCAR:    PAW_PBE C 08Apr2002
   VRHFIN =C: s2p2

   TITEL  = PAW_PBE C 08Apr2002
   POMASS =   12.011; ZVAL   =    4.000    mass and valenz
   ENMAX  =  400.000; ENMIN  =  300.000 eV

 POTCAR:    PAW_PBE O 08Apr2002
   VRHFIN =O: s2p4

   TITEL  = PAW_PBE O 08Apr2002
   POMASS =   16.000; ZVAL   =    6.000    mass and valenz
   ENMAX  =  400.000; ENMIN  =  300.000 eV

 POTCAR:    PAW_PBE H 15Jun2001
   VRHFIN =H: ultrasoft test

   TITEL  = PAW_PBE H 15Jun2001
   POMASS =    1.000; ZVAL   =    1.000    mass and valenz
   ENMAX  =  250.000; ENMIN  =  200.000 eV

 Optimization of the real space projectors (new method)

 maximal supplied QI-value         = 16.25
 optimisation between [QCUT,QGAM] = [ 11.38, 22.75] = [ 36.24,144.96] Ry
 Optimized for a Real-space Cutoff    1.52 Angstroem

   l    n(q)    QCUT    max X(q) W(low)/X(q) W(high)/X(q)  e(spline)
   2      9    11.376     4.610    0.21E-03    0.10E-03    0.26E-06
   2      9    11.376     8.522    0.33E-03    0.16E-03    0.37E-06
   0     10    11.376    51.609    0.62E-04    0.20E-04    0.13E-06
   0     10    11.376    27.747    0.54E-04    0.20E-04    0.13E-06
   1     10    11.376    20.408    0.13E-04    0.99E-04    0.19E-06
   1     10    11.376    13.425    0.12E-04    0.87E-04    0.17E-06
 Optimization of the real space projectors (new method)

[...]

   l    n(q)    QCUT    max X(q) W(low)/X(q) W(high)/X(q)  e(spline)
   0      7    11.387    20.381    0.39E-03    0.13E-02    0.15E-06
   0      7    11.387    15.268    0.42E-03    0.14E-02    0.17E-06
   1      6    11.387     5.964    0.41E-03    0.11E-02    0.17E-06
   1      6    11.387     5.382    0.39E-03    0.87E-03    0.15E-06
 Optimization of the real space projectors (new method)

 maximal supplied QI-value         = 34.20
 optimisation between [QCUT,QGAM] = [ 11.29, 22.57] = [ 35.68,142.71] Ry
 Optimized for a Real-space Cutoff    1.16 Angstroem

   l    n(q)    QCUT    max X(q) W(low)/X(q) W(high)/X(q)  e(spline)
   0      8    11.287    19.460    0.40E-03    0.73E-03    0.16E-06
   0      8    11.287    12.209    0.38E-03    0.70E-03    0.15E-06
   1      7    11.287     4.655    0.22E-03    0.25E-04    0.22E-06
  PAW_PBE Cu 22Jun2005                  :
  PAW_PBE Zr_sv 04Jan2005               :
  PAW_PBE C 08Apr2002                   :
  PAW_PBE O 08Apr2002                   :
  PAW_PBE H 15Jun2001                   :

 POSCAR: Cu-Zr-COH
  positions in direct lattice
  velocities in cartesian coordinates
 exchange correlation table for  LEXCH =        8
   RHO(1)=    0.500       N(1)  =     2000
   RHO(2)=  100.500       N(2)  =     4000

 VTST: version 3.2, (02/03/18)

 CHAIN: initializing optimizer

 OPT: Using VASP Conjugate-Gradient optimizer
 CHAIN: Read ICHAIN            0

 POSCAR: Cu-Zr-COH
  positions in direct lattice
  velocities in cartesian coordinates

 ion  position               nearest neighbor table
   1  0.000  0.000  0.206-   7 2.57   3 2.57   4 2.57   2 2.57   6 2.57   8 2.57  12 2.57  10 2.57
                            16 2.57
   2  0.333  0.000  0.206-   8 2.57   9 2.57   5 2.57   1 2.57   3 2.57  11 2.57   4 2.57  10 2.57
                            17 2.57
   3  0.667  0.000  0.206-   1 2.57   7 2.57   6 2.57   9 2.57   2 2.57  12 2.57   5 2.57  18 2.57
                            11 2.57
   4  0.000  0.333  0.206-   5 2.57   6 2.57   1 2.57   7 2.57   2 2.57  13 2.57   9 2.57  10 2.57
                            15 2.57
   5  0.333  0.333  0.206-   4 2.57   2 2.57   7 2.57  13 2.57   8 2.57   6 2.57   3 2.57  11 2.57
                            14 2.57
   6  0.667  0.333  0.206-   4 2.57   9 2.57  15 2.57   3 2.57   1 2.57   8 2.57  14 2.57   5 2.57
                            12 2.57
   7  0.000  0.667  0.206-   1 2.57   3 2.57  16 2.57  18 2.57   4 2.57   5 2.57   8 2.57   9 2.57
                            13 2.57
   8  0.333  0.667  0.206-   9 2.57   2 2.57  17 2.57   6 2.57   1 2.57   7 2.57   5 2.57  14 2.57
                            16 2.57
   9  0.667  0.667  0.206-   8 2.57   6 2.57   2 2.57  17 2.57   3 2.57   7 2.57   4 2.57  15 2.57
                            18 2.57
  10  0.111  0.111  0.286-  26 2.54  19 2.54  11 2.57  12 2.57  13 2.57   1 2.57   2 2.57   4 2.57
                            15 2.57  16 2.57  17 2.57  20 2.59
  11  0.444  0.111  0.286-  27 2.56  10 2.57  13 2.57   2 2.57  17 2.57  14 2.57  12 2.57   5 2.57
                             3 2.57  18 2.57  20 2.58  21 2.58
  12  0.778  0.111  0.286-  19 2.54  25 2.54  15 2.57  10 2.57  14 2.57  18 2.57   3 2.57   1 2.57
                            16 2.57  11 2.57   6 2.57  21 2.59
  13  0.111  0.444  0.286-  22 2.56  16 2.57  18 2.57  10 2.57  11 2.57  14 2.57   5 2.57   4 2.57
                             7 2.57  15 2.57  23 2.58  20 2.58
  14  0.444  0.444  0.286-  24 2.56  15 2.57  17 2.57  12 2.57  16 2.57  13 2.57  11 2.57   6 2.57
                             8 2.57   5 2.57  21 2.58  23 2.58
  15  0.778  0.444  0.286-  19 2.54  24 2.56  22 2.56  14 2.57  17 2.57  12 2.57   6 2.57  18 2.57
                            10 2.57   9 2.57  13 2.57   4 2.57
  16  0.111  0.778  0.286-  25 2.54  26 2.54  18 2.57  13 2.57   7 2.57  14 2.57  17 2.57  12 2.57
                            10 2.57   8 2.57   1 2.57  23 2.59
  17  0.444  0.778  0.286-  26 2.54  27 2.56  24 2.56  14 2.57  15 2.57   8 2.57   9 2.57  11 2.57
                            16 2.57  18 2.57  10 2.57   2 2.57
  18  0.778  0.778  0.286-  25 2.54  22 2.56  27 2.56  16 2.57  13 2.57   7 2.57  15 2.57  12 2.57
                            17 2.57   9 2.57   3 2.57  11 2.57
  19  0.889  0.221  0.365-  12 2.54  10 2.54  15 2.54  25 2.55  26 2.55  32 2.56  31 2.56  22 2.57
                            24 2.57  28 2.57  21 2.58  20 2.58
  20  0.223  0.223  0.367-  23 2.55  21 2.55  29 2.57  31 2.57  27 2.57  22 2.57  26 2.58  19 2.58
                            11 2.58  13 2.58  10 2.59  36 2.86
  21  0.554  0.223  0.367-  20 2.55  23 2.55  32 2.57  30 2.57  24 2.57  27 2.57  19 2.58  25 2.58
                            14 2.58  11 2.58  12 2.59  36 2.86
  22  0.889  0.556  0.366-  18 2.56  15 2.56  13 2.56  31 2.56  33 2.56  24 2.57  27 2.57  23 2.57
                            20 2.57  19 2.57  25 2.57  35 2.58
  23  0.223  0.554  0.367-  20 2.55  21 2.55  33 2.57  34 2.57  22 2.57  24 2.57  25 2.58  26 2.58
                            13 2.58  14 2.58  16 2.59  36 2.86
  24  0.556  0.556  0.366-  15 2.56  17 2.56  14 2.56  32 2.56  34 2.56  22 2.57  27 2.57  21 2.57
                            23 2.57  19 2.57  26 2.57  35 2.58
  25  0.889  0.889  0.365-  12 2.54  16 2.54  18 2.54  19 2.55  26 2.55  33 2.56  30 2.56  22 2.57
                            27 2.57  28 2.57  21 2.58  23 2.58
  26  0.221  0.889  0.365-  10 2.54  16 2.54  17 2.54  25 2.55  19 2.55  29 2.56  34 2.56  27 2.57
                            24 2.57  28 2.57  20 2.58  23 2.58
  27  0.556  0.889  0.366-  17 2.56  18 2.56  11 2.56  29 2.56  30 2.56  24 2.57  22 2.57  20 2.57
                            21 2.57  26 2.57  25 2.57  35 2.58
  28  0.000  0.000  0.445-  33 2.55  30 2.55  31 2.55  29 2.55  32 2.55  34 2.55  25 2.57  19 2.57
                            26 2.57
  29  0.334  0.994  0.445-  34 2.47  35 2.54  28 2.55  27 2.56  26 2.56  20 2.57  30 2.60  31 2.62
                            36 2.64
  30  0.672  0.994  0.445-  33 2.47  35 2.54  28 2.55  27 2.56  25 2.56  21 2.57  29 2.60  32 2.62
                            36 2.64
  31  0.994  0.334  0.445-  32 2.47  35 2.54  28 2.55  22 2.56  19 2.56  20 2.57  33 2.60  29 2.62
                            36 2.64
  32  0.672  0.334  0.445-  31 2.47  35 2.54  28 2.55  24 2.56  19 2.56  21 2.57  34 2.60  30 2.62
                            36 2.64
  33  0.994  0.672  0.445-  30 2.47  35 2.54  28 2.55  22 2.56  25 2.56  23 2.57  31 2.60  34 2.62
                            36 2.64
  34  0.334  0.672  0.445-  29 2.47  35 2.54  28 2.55  24 2.56  26 2.56  23 2.57  32 2.60  33 2.62
                            36 2.64
  35  0.667  0.667  0.446-  34 2.54  32 2.54  29 2.54  30 2.54  33 2.54  31 2.54  24 2.58  27 2.58
                            22 2.58
  36  0.333  0.333  0.460-  37 2.08  31 2.64  29 2.64  33 2.64  32 2.64  34 2.64  30 2.64  23 2.86
                            20 2.86  21 2.86
  37  0.333  0.333  0.540-  38 1.27  36 2.08
  38  0.333  0.333  0.589-  39 0.96  37 1.27
  39  0.333  0.333  0.625-  38 0.96

  LATTYP: Found a hexagonal cell.
 ALAT       =     7.6967864036
 C/A-ratio  =     3.3950614187

  Lattice vectors:

 A1 = (  -3.8483927580,  -6.6656128093,   0.0000000000)
 A2 = (   7.6967864037,   0.0000000000,   0.0000000000)
 A3 = (   0.0000000000,   0.0000000000,  26.1310625667)

Analysis of symmetry for initial positions (statically):
 Subroutine PRICEL returns:
 Original cell was already a primitive cell.

 Routine SETGRP: Setting up the symmetry group for a
 hexagonal supercell.

 Subroutine GETGRP returns: Found  6 space group operations
 (whereof  6 operations were pure point group operations)
 out of a pool of 24 trial point group operations.

The static configuration has the point symmetry C_3v.

Analysis of symmetry for dynamics (positions and initial velocities):
[...]
     41      -4.1781      2.00000
     42      -4.1368      2.00000
     43      -4.0589      2.00000
     44      -4.0474      2.00000
     45      -3.9842      2.00000
     46      -3.8819      2.00000
     47      -3.8617      2.00000
     48      -3.8192      2.00000
     49      -3.8046      2.00000
     50      -3.7835      2.00000
     51      -3.7721      2.00000
     52      -3.7664      2.00000
     53      -3.7574      2.00000
     54      -3.7308      2.00000
     55      -3.5984      2.00000
     56      -3.5774      2.00000
     57      -3.5510      2.00000
     58      -3.5389      2.00000
     59      -3.4899      2.00000
     60      -3.4838      2.00000
[...]
    238       4.9307      0.00000
    239       5.1463      0.00000
    240       5.1656      0.00000
    241       5.2896      0.00000
    242       5.3668      0.00000
    243       5.5055      0.00000
    244       5.5932      0.00000
    245       5.6201      0.00000
    246       5.6612      0.00000
    247       5.7447      0.00000
    248       5.8841      0.00000
    249       5.9446      0.00000
    250       5.9897      0.00000
    251       6.0456      0.00000
    252       6.2972      0.00000

 soft charge-density along one line, spin component           1
         0         1         2         3         4         5         6         7         8         9
 total charge-density along one line

------------------------ aborting loop because EDIFF is reached ----------------------------------------

 total charge

# of ion       s       p       d       tot
    1        0.449   0.283   9.190   9.922
    2        0.447   0.286   9.187   9.920
    3        0.447   0.286   9.187   9.920
    4        0.447   0.286   9.187   9.920
    5        0.451   0.286   9.181   9.918
    6        0.447   0.286   9.187   9.920
    7        0.447   0.286   9.187   9.920
    8        0.447   0.286   9.187   9.920
    9        0.449   0.284   9.190   9.923
   10        0.442   0.372   9.177   9.991
   11        0.443   0.363   9.181   9.988
   12        0.442   0.372   9.177   9.991
   13        0.443   0.363   9.181   9.988
   14        0.443   0.363   9.181   9.988
   15        0.440   0.374   9.176   9.990
   16        0.442   0.372   9.177   9.991
   17        0.440   0.374   9.176   9.990
   18        0.440   0.374   9.176   9.990
   19        0.445   0.373   9.179   9.997
   20        0.454   0.375   9.168   9.997
   21        0.454   0.375   9.168   9.997
   22        0.434   0.376   9.178   9.988
   23        0.454   0.375   9.168   9.997
   24        0.434   0.376   9.178   9.988
   25        0.445   0.373   9.179   9.997
   26        0.445   0.373   9.179   9.997
   27        0.434   0.376   9.178   9.988
   28        0.443   0.297   9.184   9.923
   29        0.483   0.313   9.170   9.966
   30        0.483   0.313   9.170   9.966
   31        0.483   0.313   9.170   9.966
   32        0.483   0.313   9.170   9.966
   33        0.483   0.313   9.170   9.966
   34        0.483   0.313   9.170   9.966
   35        0.442   0.301   9.185   9.928
   36        2.215   5.994   1.722   9.931
   37        0.946   1.376   0.000   2.321
   38        1.527   3.741   0.000   5.268
   39        0.567   0.137   0.000   0.704
tot         21.040  22.988 322.971 366.999

  FORCE on cell =-STRESS in cart. coord.  units (eV):
  Direction    XX          YY          ZZ          XY          YZ          ZX
  Alpha Z   755.91226   755.91226   755.91226
  Ewald  270671.73744270671.73700************     0.00040     0.00014     0.00022
  Hartree283809.78772283809.78770************     0.00004     0.00007     0.00007
  E(xc)   -2345.62900 -2345.62855 -2348.17003    -0.00040    -0.00003    -0.00005
  Local  ************************567483.34937     0.01866    -0.00063    -0.00100
  n-local  -798.31055  -786.79877  -803.10281     6.48900    -0.12172     0.16021
  augment  3317.13179  3317.15159  3337.20717    -0.01714     0.00027     0.00049
  Kinetic  3571.93564  3573.09633  3548.73233     2.75252     1.87170    -1.30264
  Fock        0.00000     0.00000     0.00000     0.00000     0.00000     0.00000
  Total      -3.25699    -3.25699    -0.66030     0.00000     0.00000    -0.00000
  in kB      -3.89243    -3.89243    -0.78913     0.00000     0.00000    -0.00000

 VOLUME and BASIS-vectors are now :
  energy-cutoff  :      500.00
  volume of cell :     1340.62
      direct lattice vectors                 reciprocal lattice vectors
     7.696786404  0.000000000  0.000000000     0.129924354 -0.075011849  0.000000000
     3.848392758  6.665612809  0.000000000     0.000000000  0.150023716  0.000000000
     0.000000000  0.000000000 26.131062567     0.000000000  0.000000000  0.038268631

  length of vectors
     7.696786404  7.696786404 26.131062567     0.150023716  0.150023716  0.038268631

 FORCES acting on ions
    electron-ion (+dipol)            ewald-force                    non-local-force                 convergence-correction
   -.433E-04 -.888E-06 0.396E+04   0.579E-04 -.430E-05 -.396E+04   0.323E-17 -.316E-17 -.235E+01   -.335E-03 -.160E-03 0.192E+00
   -.103E+01 -.123E+01 0.396E+04   0.883E+00 0.935E+00 -.396E+04   0.111E+00 0.203E+00 -.187E+01   0.450E-01 0.103E+00 0.155E+00
   0.103E+01 -.123E+01 0.396E+04   -.883E+00 0.935E+00 -.396E+04   -.111E+00 0.203E+00 -.187E+01   -.442E-01 0.106E+00 0.156E+00
   -.158E+01 -.272E+00 0.396E+04   0.125E+01 0.297E+00 -.396E+04   0.231E+00 -.552E-02 -.187E+01   0.112E+00 -.125E-01 0.155E+00
   -.670E-04 -.658E-05 0.396E+04   0.116E-03 -.101E-04 -.396E+04   -.119E-16 0.488E-18 -.132E+01   0.122E-01 0.748E-02 0.272E+00
   0.158E+01 -.272E+00 0.396E+04   -.125E+01 0.297E+00 -.396E+04   -.231E+00 -.552E-02 -.187E+01   -.113E+00 -.113E-01 0.156E+00
   -.555E+00 0.151E+01 0.396E+04   0.368E+00 -.123E+01 -.396E+04   0.120E+00 -.197E+00 -.187E+01   0.693E-01 -.911E-01 0.156E+00
   0.555E+00 0.151E+01 0.396E+04   -.369E+00 -.123E+01 -.396E+04   -.120E+00 -.197E+00 -.187E+01   -.658E-01 -.926E-01 0.156E+00
   -.145E-03 -.336E-04 0.396E+04   0.263E-03 0.205E-04 -.396E+04   0.440E-17 -.743E-18 -.217E+01   -.133E-01 -.685E-02 0.182E+00
   -.104E+02 -.600E+01 0.141E+04   0.106E+02 0.611E+01 -.141E+04   -.205E+00 -.118E+00 -.893E+00   0.283E-01 0.163E-01 0.434E+00
   -.897E-04 -.841E+01 0.140E+04   0.189E-03 0.818E+01 -.140E+04   -.179E-07 0.269E+00 -.211E+00   0.118E-01 -.119E-01 0.438E+00
   0.104E+02 -.600E+01 0.141E+04   -.106E+02 0.611E+01 -.141E+04   0.205E+00 -.118E+00 -.893E+00   -.303E-01 0.184E-01 0.435E+00
   -.729E+01 0.421E+01 0.140E+04   0.709E+01 -.409E+01 -.140E+04   0.233E+00 -.135E+00 -.211E+00   -.392E-02 0.170E-01 0.438E+00
   0.729E+01 0.421E+01 0.140E+04   -.709E+01 -.409E+01 -.140E+04   -.233E+00 -.135E+00 -.211E+00   0.283E-01 0.160E-01 0.438E+00
   -.140E-03 -.206E+01 0.141E+04   0.296E-03 0.195E+01 -.141E+04   -.762E-08 0.114E+00 -.108E+01   -.405E-02 -.280E-02 0.373E+00
   -.903E-04 0.120E+02 0.141E+04   0.186E-03 -.122E+02 -.141E+04   -.158E-07 0.237E+00 -.893E+00   -.169E-03 -.366E-01 0.435E+00
   -.178E+01 0.103E+01 0.141E+04   0.168E+01 -.972E+00 -.141E+04   0.991E-01 -.572E-01 -.108E+01   -.377E-02 -.212E-02 0.373E+00
   0.178E+01 0.103E+01 0.141E+04   -.168E+01 -.972E+00 -.141E+04   -.991E-01 -.572E-01 -.108E+01   0.452E-02 0.919E-03 0.374E+00
   -.678E-04 -.468E+01 -.114E+04   0.670E-04 0.478E+01 0.114E+04   0.201E-08 -.302E-01 0.110E+01   -.248E-02 -.577E-01 0.368E+00
   -.255E+02 -.147E+02 -.122E+04   0.266E+02 0.153E+02 0.122E+04   -.115E+01 -.665E+00 -.585E+00   -.169E-01 -.990E-02 0.391E+00
   0.255E+02 -.147E+02 -.122E+04   -.266E+02 0.153E+02 0.122E+04   0.115E+01 -.665E+00 -.585E+00   0.410E-01 -.847E-02 0.390E+00
   -.108E+02 0.621E+01 -.116E+04   0.104E+02 -.603E+01 0.116E+04   0.233E+00 -.134E+00 0.523E+00   0.891E-01 -.525E-01 0.360E+00
   -.510E-04 0.294E+02 -.122E+04   0.149E-03 -.307E+02 0.122E+04   -.886E-07 0.133E+01 -.585E+00   0.120E-01 0.385E-01 0.390E+00
   0.108E+02 0.621E+01 -.116E+04   -.104E+02 -.603E+01 0.116E+04   -.233E+00 -.134E+00 0.523E+00   -.917E-01 -.538E-01 0.360E+00
   0.405E+01 0.234E+01 -.114E+04   -.414E+01 -.239E+01 0.114E+04   0.262E-01 0.151E-01 0.110E+01   0.515E-01 0.297E-01 0.367E+00
   -.405E+01 0.234E+01 -.114E+04   0.414E+01 -.239E+01 0.114E+04   -.262E-01 0.151E-01 0.110E+01   -.509E-01 0.269E-01 0.368E+00
   -.146E-03 -.124E+02 -.116E+04   0.243E-03 0.121E+02 0.116E+04   -.179E-07 0.268E+00 0.523E+00   -.950E-03 0.103E+00 0.360E+00
   -.167E-04 0.303E-04 -.373E+04   0.378E-04 -.334E-04 0.373E+04   -.400E-17 0.191E-17 0.213E+01   -.345E-03 -.148E-03 0.160E+00
   0.474E+01 -.561E+01 -.369E+04   -.473E+01 0.541E+01 0.369E+04   -.191E+00 -.630E-01 0.999E+00   0.965E-01 0.152E+00 0.132E+00
   -.474E+01 -.561E+01 -.369E+04   0.473E+01 0.541E+01 0.369E+04   0.191E+00 -.630E-01 0.999E+00   -.954E-01 0.155E+00 0.132E+00
   -.249E+01 0.692E+01 -.369E+04   0.232E+01 -.680E+01 0.369E+04   -.150E+00 -.134E+00 0.999E+00   0.180E+00 0.734E-02 0.132E+00
   0.249E+01 0.691E+01 -.369E+04   -.232E+01 -.680E+01 0.369E+04   0.150E+00 -.134E+00 0.999E+00   -.182E+00 0.831E-02 0.131E+00
   -.723E+01 -.130E+01 -.369E+04   0.705E+01 0.139E+01 0.369E+04   0.409E-01 0.197E+00 0.999E+00   0.865E-01 -.160E+00 0.132E+00
   0.723E+01 -.130E+01 -.369E+04   -.705E+01 0.139E+01 0.369E+04   -.409E-01 0.197E+00 0.999E+00   -.831E-01 -.162E+00 0.131E+00
   -.132E-03 -.724E-05 -.376E+04   0.260E-03 0.171E-07 0.376E+04   0.196E-17 0.700E-18 0.234E+01   -.133E-01 -.688E-02 0.207E+00
   0.159E-03 -.152E-03 -.415E+04   0.122E-03 0.327E-04 0.416E+04   0.103E-17 -.137E-17 -.143E+01   0.531E-02 0.320E-02 0.402E+00
   -.259E-05 -.769E-04 -.144E+04   0.415E-05 0.268E-05 0.142E+04   -.785E-18 -.105E-17 0.230E+02   0.104E-02 0.633E-03 -.604E-01
   0.227E-03 -.739E-04 -.213E+04   0.823E-06 0.119E-05 0.213E+04   -.253E-18 0.488E-18 -.251E+01   0.335E-02 0.205E-02 -.232E+00
   0.354E-05 -.141E-04 -.382E+03   0.250E-07 0.791E-07 0.391E+03   0.123E-18 0.275E-19 -.869E+01   0.175E-03 0.107E-03 -.345E-01
   0.163E-03 -.273E-03 -.101E+02   -.517E-13 0.155E-12 -.341E-11   -.951E-16 0.543E-16 0.334E+00   0.615E-01 0.327E-01 0.991E+01

 POSITION                                       TOTAL-FORCE (eV/Angst)
      0.00000      0.00000      5.37156         0.000000     -0.000000     -0.011948
      2.56560      0.00000      5.37156         0.013099      0.008961      0.054549
      5.13119      0.00000      5.37156        -0.013099      0.008961      0.054549
      1.28280      2.22187      5.37156         0.014310      0.006864      0.054549
      3.84839      2.22187      5.37156         0.000000     -0.000000      0.060060
      6.41399      2.22187      5.37156        -0.014310      0.006864      0.054549
      2.56560      4.44374      5.37156         0.001211     -0.015825      0.054549
      5.13119      4.44374      5.37156        -0.001211     -0.015825      0.054549
      7.69679      4.44374      5.37156        -0.000000     -0.000000      0.012902
      1.28280      0.74062      7.46636         0.022492      0.012986     -0.119178
      3.84839      0.74062      7.46636        -0.000000      0.021130     -0.006263
      6.41399      0.74062      7.46636        -0.022492      0.012986     -0.119178
      2.56560      2.96249      7.46636         0.018299     -0.010565     -0.006263
      5.13119      2.96249      7.46636        -0.018299     -0.010565     -0.006263
      7.69679      2.96249      7.46636         0.000000     -0.003700     -0.073929
      3.84839      5.18437      7.46636         0.000000     -0.025972     -0.119178
      6.41399      5.18437      7.46636        -0.003205      0.001850     -0.073929
      8.97958      5.18437      7.46636         0.003205      0.001850     -0.073929
      7.69679      1.47435      9.52922        -0.000000      0.011102      0.050332
      2.57570      1.48708      9.58099        -0.109311     -0.063111     -0.112994
      5.12109      1.48708      9.58099         0.109311     -0.063111     -0.112994
      8.97941      3.70322      9.55185         0.006780     -0.003915      0.036624
      3.84839      3.69145      9.58099        -0.000000      0.126222     -0.112994
      6.41416      3.70322      9.55185        -0.006780     -0.003915      0.036624
     10.26835      5.92844      9.52922        -0.009615     -0.005551      0.050332
      5.12522      5.92844      9.52922         0.009615     -0.005551      0.050332
      7.69679      5.92479      9.55185        -0.000000      0.007829      0.036624
      0.00000      0.00000     11.63765         0.000000     -0.000000     -0.006463
      6.39598      6.62341     11.64088        -0.081341     -0.114478      0.045182
      8.99759      6.62341     11.64088         0.081341     -0.114478      0.045182
      8.93403      2.22738     11.64088        -0.139812     -0.013205      0.045182
      6.45955      2.22738     11.64088         0.139812     -0.013205      0.045182
     10.23483      4.48044     11.64088        -0.058470      0.127683      0.045182
      5.15874      4.48044     11.64088         0.058470      0.127683      0.045182
      7.69679      4.44374     11.66679        -0.000000     -0.000000     -0.029593
      3.84839      2.22187     12.03290         0.000000     -0.000000     -0.007241
      3.84839      2.22187     14.11437         0.000000     -0.000000      0.076706
      3.84839      2.22187     15.38364         0.000000     -0.000000     -0.045517
      3.84839      2.22187     16.34097         0.000000     -0.000000      0.028937
    total drift:                                0.061695      0.032410      0.114361

  FREE ENERGIE OF THE ION-ELECTRON SYSTEM (eV)
  free  energy   TOTEN  =      -147.24614073 eV

  energy  without entropy=     -147.24614073  energy(sigma->0) =     -147.24614073

 stress matrix after NEB project (eV)
     -3.25699      0.00000     -0.00000
      0.00000     -3.25699      0.00000
     -0.00000      0.00000     -0.66030
  FORCES: max atom, RMS     0.076706    0.015015
  FORCE total and by dimension    0.093771    0.076706
  Stress total and by dimension    4.653171    3.256993
|           W    W    AA    RRRRR   N    N  II  N    N   GGGG   !!!           |
|           W    W   A  A   R    R  NN   N  II  NN   N  G    G  !!!           |
|           W    W  A    A  R    R  N N  N  II  N N  N  G       !!!           |
|           W WW W  AAAAAA  RRRRR   N  N N  II  N  N N  G  GGG   !            |
|           WW  WW  A    A  R   R   N   NN  II  N   NN  G    G                |
|           W    W  A    A  R    R  N    N  II  N    N   GGGG   !!!           |
|     Tetrahedron method does not include variations of the Fermi             |
|     occupations, so forces and stress will be inaccurate. We suggest        |
|     using a different smearing scheme ISMEAR = 1 or 2 for metals in         |
|     relaxations.                                                            |

 total charge

# of ion       s       p       d       tot
    1        0.449   0.283   9.190   9.922
    2        0.447   0.286   9.187   9.920
    3        0.447   0.286   9.187   9.920
    4        0.447   0.286   9.187   9.920
    5        0.451   0.286   9.181   9.918
    6        0.447   0.286   9.187   9.920
    7        0.447   0.286   9.187   9.920
    8        0.447   0.286   9.187   9.920
    9        0.449   0.284   9.190   9.923
   10        0.442   0.372   9.177   9.991
   11        0.443   0.363   9.181   9.988
   12        0.442   0.372   9.177   9.991
   13        0.443   0.363   9.181   9.988
   14        0.443   0.363   9.181   9.988
   15        0.440   0.374   9.176   9.990
   16        0.442   0.372   9.177   9.991
   17        0.440   0.374   9.176   9.990
   18        0.440   0.374   9.176   9.990
   19        0.445   0.373   9.179   9.997
   20        0.454   0.375   9.168   9.997
   21        0.454   0.375   9.168   9.997
   22        0.434   0.376   9.178   9.988
   23        0.454   0.375   9.168   9.997
   24        0.434   0.376   9.178   9.988
   25        0.445   0.373   9.179   9.997
   26        0.445   0.373   9.179   9.997
   27        0.434   0.376   9.178   9.988
   28        0.443   0.297   9.184   9.923
   29        0.483   0.313   9.170   9.966
   30        0.483   0.313   9.170   9.966
   31        0.483   0.313   9.170   9.966
   32        0.483   0.313   9.170   9.966
   33        0.483   0.313   9.170   9.966
   34        0.483   0.313   9.170   9.966
   35        0.442   0.301   9.185   9.928
   36        2.215   5.994   1.722   9.931
   37        0.946   1.376   0.000   2.321
   38        1.527   3.741   0.000   5.268
   39        0.567   0.137   0.000   0.704
tot         21.040  22.988 322.971 366.999

 BZINTS: Fermi energy:   -0.080485;  408.000000 electrons
         Band energy:-0.151170E+04;  BLOECHL correction:   -0.033156