 vasp.6.2.0 18Jan21 (build Jun 12 2021 23:27:24) complex

 executed on             LinuxIFC date 2022.05.28  01:19:32

 INCAR:
   ISMEAR = -5
   SIGMA = 0.1
   ISPIN = 1
   EDIFF = 1.d-5
   EDIFFG = -0.01
   NSW = 0
   NELM = 150
   ENCUT = 500
   ISIF = 2
   IBRION = 2
   LREAL = Auto
   ALGO = Fast
   ICHARG = 11
   LORBIT = 10
   LCHARG = .F.
   LWAVE = .F.

 POTCAR:    PAW_PBE Au 04Oct2007
 POTCAR:    PAW_PBE Pt 04Feb2005
 POTCAR:    PAW_PBE H 15Jun2001
 POTCAR:    PAW_PBE O 08Apr2002
|           W    W    AA    RRRRR   N    N  II  N    N   GGGG   !!!           |
|           W    W   A  A   R    R  NN   N  II  NN   N  G    G  !!!           |
|           W    W  A    A  R    R  N N  N  II  N N  N  G       !!!           |
|           W WW W  AAAAAA  RRRRR   N  N N  II  N  N N  G  GGG   !            |
|           WW  WW  A    A  R   R   N   NN  II  N   NN  G    G                |
|           W    W  A    A  R    R  N    N  II  N    N   GGGG   !!!           |
|     For optimal performance we recommend to set                             |
|       NCORE = 2 up to number-of-cores-per-socket                            |
|     This setting can greatly improve the performance of VASP for DFT.       |
|     The default, NCORE=1 might be grossly inefficient on modern             |
|     multi-core architectures or massively parallel machines. Do your        |
|     Unfortunately you need to use the default for GW and RPA                |
|     calculations (for HF NCORE is supported but not extensively tested      |
|     yet).                                                                   |

 POTCAR:    PAW_PBE Au 04Oct2007
   VRHFIN =Au: s1d10

   TITEL  = PAW_PBE Au 04Oct2007
   POMASS =  196.966; ZVAL   =   11.000    mass and valenz
   ENMAX  =  229.943; ENMIN  =  172.457 eV

 POTCAR:    PAW_PBE Pt 04Feb2005
   VRHFIN =Pt: s1d9

   TITEL  = PAW_PBE Pt 04Feb2005
   POMASS =  195.080; ZVAL   =   10.000    mass and valenz
   ENMAX  =  230.283; ENMIN  =  172.712 eV

 POTCAR:    PAW_PBE H 15Jun2001
   VRHFIN =H: ultrasoft test

   TITEL  = PAW_PBE H 15Jun2001
   POMASS =    1.000; ZVAL   =    1.000    mass and valenz
   ENMAX  =  250.000; ENMIN  =  200.000 eV

 POTCAR:    PAW_PBE O 08Apr2002
   VRHFIN =O: s2p4

   TITEL  = PAW_PBE O 08Apr2002
   POMASS =   16.000; ZVAL   =    6.000    mass and valenz
   ENMAX  =  400.000; ENMIN  =  300.000 eV

 Optimization of the real space projectors (new method)

 maximal supplied QI-value         = 15.12
 optimisation between [QCUT,QGAM] = [ 11.34, 22.83] = [ 36.00,145.93] Ry
 Optimized for a Real-space Cutoff    1.39 Angstroem

   l    n(q)    QCUT    max X(q) W(low)/X(q) W(high)/X(q)  e(spline)
   2      9    11.338    60.898    0.39E-03    0.42E-03    0.21E-06
   2      9    11.338    58.894    0.40E-03    0.42E-03    0.22E-06
   0      9    11.338   109.617    0.13E-03    0.20E-04    0.13E-06
   0      9    11.338    75.026    0.13E-03    0.20E-04    0.13E-06
   1      9    11.338    16.344    0.33E-04    0.24E-03    0.18E-06
   1      9    11.338    10.160    0.26E-04    0.19E-03    0.15E-06
 Optimization of the real space projectors (new method)

[...]

   l    n(q)    QCUT    max X(q) W(low)/X(q) W(high)/X(q)  e(spline)
   0      8    11.287    19.460    0.40E-03    0.73E-03    0.16E-06
   0      8    11.287    12.209    0.38E-03    0.70E-03    0.15E-06
   1      7    11.287     4.655    0.22E-03    0.25E-04    0.22E-06
 Optimization of the real space projectors (new method)

 maximal supplied QI-value         = 24.76
 optimisation between [QCUT,QGAM] = [ 11.39, 22.77] = [ 36.31,145.25] Ry
 Optimized for a Real-space Cutoff    1.00 Angstroem

   l    n(q)    QCUT    max X(q) W(low)/X(q) W(high)/X(q)  e(spline)
   0      7    11.387    20.381    0.39E-03    0.13E-02    0.15E-06
   0      7    11.387    15.268    0.42E-03    0.14E-02    0.17E-06
   1      6    11.387     5.964    0.41E-03    0.11E-02    0.17E-06
   1      6    11.387     5.382    0.39E-03    0.87E-03    0.15E-06
  PAW_PBE Au 04Oct2007                  :
  PAW_PBE Pt 04Feb2005                  :
  PAW_PBE H 15Jun2001                   :
  PAW_PBE O 08Apr2002                   :

 POSCAR: Au-Pt-H2O
  positions in direct lattice
  velocities in cartesian coordinates
 exchange correlation table for  LEXCH =        8
   RHO(1)=    0.500       N(1)  =     2000
   RHO(2)=  100.500       N(2)  =     4000

 VTST: version 3.2, (02/03/18)

 CHAIN: initializing optimizer

 OPT: Using VASP Conjugate-Gradient optimizer
 CHAIN: Read ICHAIN            0

 POSCAR: Au-Pt-H2O
  positions in direct lattice
  velocities in cartesian coordinates

 ion  position               nearest neighbor table
   1  0.000  0.000  0.213-  16 2.94  12 2.94   6 2.94   8 2.94   7 2.94   3 2.94  10 2.94   4 2.94
                             2 2.94
   2  0.333  0.000  0.213-   9 2.94  11 2.94  17 2.94  10 2.94   8 2.94   4 2.94   5 2.94   1 2.94
                             3 2.94
   3  0.667  0.000  0.213-   7 2.94  18 2.94  12 2.94   1 2.94  11 2.94   5 2.94   6 2.94   9 2.94
                             2 2.94
   4  0.000  0.333  0.213-  10 2.94   6 2.94   5 2.94  13 2.94   2 2.94  15 2.94   9 2.94   1 2.94
                             7 2.94
   5  0.333  0.333  0.213-  13 2.94   7 2.94  11 2.94   4 2.94   2 2.94  14 2.94   3 2.94   8 2.94
                             6 2.94
   6  0.667  0.333  0.213-  15 2.94  14 2.94   1 2.94  12 2.94   4 2.94   9 2.94   8 2.94   3 2.94
                             5 2.94
   7  0.000  0.667  0.213-  18 2.94   3 2.94  16 2.94   5 2.94   1 2.94  13 2.94   8 2.94   4 2.94
                             9 2.94
   8  0.333  0.667  0.213-   9 2.94  17 2.94   1 2.94   2 2.94  14 2.94  16 2.94   6 2.94   7 2.94
                             5 2.94
   9  0.667  0.667  0.213-   2 2.94   8 2.94  17 2.94   6 2.94  15 2.94   4 2.94   3 2.94  18 2.94
                             7 2.94
  10  0.111  0.111  0.310-  20 2.91  26 2.93  19 2.93  11 2.94  17 2.94   2 2.94   4 2.94   1 2.94
                            12 2.94  16 2.94  13 2.94  15 2.94
  11  0.444  0.111  0.310-  20 2.92  21 2.92  27 2.93  13 2.94   2 2.94  10 2.94  17 2.94   5 2.94
                             3 2.94  18 2.94  14 2.94  12 2.94
  12  0.778  0.111  0.310-  21 2.91  25 2.93  19 2.93  16 2.94  18 2.94   1 2.94  14 2.94  15 2.94
                             3 2.94   6 2.94  10 2.94  11 2.94
  13  0.111  0.444  0.310-  23 2.92  20 2.92  22 2.93   5 2.94  18 2.94  11 2.94   7 2.94   4 2.94
                            16 2.94  10 2.94  14 2.94  15 2.94
  14  0.444  0.444  0.310-  21 2.92  23 2.92  24 2.93  15 2.94   6 2.94  12 2.94   8 2.94  17 2.94
                             5 2.94  16 2.94  13 2.94  11 2.94
  15  0.778  0.444  0.310-  24 2.93  22 2.93  19 2.93  14 2.94   6 2.94  17 2.94  12 2.94   9 2.94
                             4 2.94  10 2.94  13 2.94  18 2.94
  16  0.111  0.778  0.310-  23 2.91  25 2.93  26 2.93  18 2.94  12 2.94   7 2.94   1 2.94   8 2.94
                            13 2.94  10 2.94  14 2.94  17 2.94
  17  0.444  0.778  0.310-  27 2.93  24 2.93  26 2.93   9 2.94  15 2.94   2 2.94  10 2.94  11 2.94
                             8 2.94  14 2.94  16 2.94  18 2.94
  18  0.778  0.778  0.310-  22 2.93  27 2.93  25 2.93  16 2.94   7 2.94  13 2.94  12 2.94   3 2.94
                            11 2.94   9 2.94  15 2.94  17 2.94
  19  0.889  0.222  0.407-  21 2.93  20 2.93  15 2.93  10 2.93  12 2.93  24 2.94  22 2.94  26 2.94
                            25 2.94  28 2.96  32 2.96  31 2.96
  20  0.221  0.221  0.406-  36 2.82  10 2.91  11 2.92  13 2.92  26 2.93  19 2.93  27 2.94  22 2.94
                            23 2.96  21 2.96  29 2.96  31 2.96
  21  0.557  0.221  0.406-  36 2.82  12 2.91  14 2.92  11 2.92  25 2.93  19 2.93  24 2.94  27 2.94
                            20 2.96  23 2.96  30 2.96  32 2.96
  22  0.888  0.556  0.407-  18 2.93  15 2.93  24 2.93  27 2.93  13 2.93  25 2.94  19 2.94  23 2.94
                            20 2.94  35 2.96  33 2.96  31 2.96
  23  0.221  0.557  0.406-  36 2.82  16 2.91  13 2.92  14 2.92  25 2.93  26 2.93  22 2.94  24 2.94
                            20 2.96  21 2.96  33 2.96  34 2.96
  24  0.556  0.556  0.407-  15 2.93  17 2.93  27 2.93  22 2.93  14 2.93  26 2.94  19 2.94  21 2.94
                            23 2.94  35 2.96  32 2.96  34 2.96
  25  0.889  0.889  0.407-  23 2.93  21 2.93  18 2.93  16 2.93  12 2.93  22 2.94  27 2.94  19 2.94
                            26 2.94  28 2.96  33 2.96  30 2.96
  26  0.222  0.889  0.407-  20 2.93  23 2.93  17 2.93  10 2.93  16 2.93  27 2.94  24 2.94  19 2.94
                            25 2.94  28 2.96  29 2.96  34 2.96
  27  0.556  0.888  0.407-  17 2.93  18 2.93  24 2.93  22 2.93  11 2.93  26 2.94  25 2.94  20 2.94
                            21 2.94  35 2.96  29 2.96  30 2.96
  28  0.000  0.000  0.505-  34 2.95  32 2.95  33 2.95  30 2.95  31 2.95  29 2.95  25 2.96  19 2.96
                            26 2.96
  29  0.333  0.002  0.505-  30 2.92  31 2.92  36 2.93  35 2.95  28 2.95  27 2.96  20 2.96  26 2.96
                            34 2.98
  30  0.664  0.002  0.505-  29 2.92  32 2.92  36 2.93  35 2.95  28 2.95  27 2.96  21 2.96  25 2.96
                            33 2.98
  31  0.002  0.333  0.505-  33 2.92  29 2.92  36 2.93  35 2.95  28 2.95  22 2.96  20 2.96  19 2.96
                            32 2.98
  32  0.664  0.333  0.505-  34 2.92  30 2.92  36 2.93  35 2.95  28 2.95  24 2.96  21 2.96  19 2.96
                            31 2.98
  33  0.002  0.664  0.505-  31 2.92  34 2.92  36 2.93  35 2.95  28 2.95  22 2.96  23 2.96  25 2.96
                            30 2.98
  34  0.333  0.664  0.505-  32 2.92  33 2.92  36 2.93  35 2.95  28 2.95  24 2.96  23 2.96  26 2.96
                            29 2.98
  35  0.667  0.667  0.505-  29 2.95  34 2.95  32 2.95  31 2.95  30 2.95  33 2.95  24 2.96  27 2.96
                            22 2.96
  36  0.333  0.333  0.497-  39 2.50  20 2.82  23 2.82  21 2.82  33 2.93  31 2.93  29 2.93  30 2.93
                            34 2.93  32 2.93
  37  0.204  0.415  0.602-  39 0.98
  38  0.380  0.414  0.602-  39 0.98
  39  0.331  0.337  0.598-  37 0.98  38 0.98  36 2.50

  LATTYP: Found a hexagonal cell.
 ALAT       =     8.8135128021
 C/A-ratio  =     2.8075332270

  Lattice vectors:

 A1 = (  -4.4067569092,  -7.6327256898,   0.0000000000)
 A2 = (   8.8135128021,   0.0000000000,   0.0000000000)
 A3 = (   0.0000000000,   0.0000000000,  24.7442300386)

Analysis of symmetry for initial positions (statically):
 Subroutine PRICEL returns:
 Original cell was already a primitive cell.

 Routine SETGRP: Setting up the symmetry group for a
 hexagonal supercell.

 Subroutine GETGRP returns: Found  1 space group operations
 (whereof  1 operations were pure point group operations)
 out of a pool of 24 trial point group operations.

The static configuration has the point symmetry C_1 .

Analysis of symmetry for dynamics (positions and initial velocities):
 Subroutine PRICEL returns:
 Original cell was already a primitive cell.

[...]

The dynamic configuration has the point symmetry C_1 .

Analysis of constrained symmetry for selective dynamics:
 Subroutine PRICEL returns:
[...]
     41      -4.8908      2.00000
     42      -4.8376      2.00000
     43      -4.7515      2.00000
     44      -4.7251      2.00000
     45      -4.6867      2.00000
     46      -4.6684      2.00000
     47      -4.6439      2.00000
     48      -4.6373      2.00000
     49      -4.5447      2.00000
     50      -4.5090      2.00000
     51      -4.4806      2.00000
     52      -4.4720      2.00000
     53      -4.4640      2.00000
     54      -4.4550      2.00000
     55      -4.4498      2.00000
     56      -4.4010      2.00000
     57      -4.3729      2.00000
     58      -4.3578      2.00000
     59      -4.3017      2.00000
     60      -4.2969      2.00000
[...]
    238       5.8073      0.00000
    239       6.0224      0.00000
    240       6.0693      0.00000
    241       6.1027      0.00000
    242       6.1288      0.00000
    243       6.3694      0.00000
    244       6.3927      0.00000
    245       6.4191      0.00000
    246       6.5153      0.00000
    247       6.5609      0.00000
    248       6.6615      0.00000
    249       6.7059      0.00000
    250       6.7355      0.00000
    251       6.7899      0.00000
    252       6.8527      0.00000

 soft charge-density along one line, spin component           1
         0         1         2         3         4         5         6         7         8         9
 total charge-density along one line

------------------------ aborting loop because EDIFF is reached ----------------------------------------

 total charge

# of ion       s       p       d       tot
    1        0.541   0.241   8.765   9.547
    2        0.546   0.240   8.766   9.552
    3        0.546   0.240   8.766   9.552
    4        0.546   0.240   8.766   9.552
    5        0.539   0.242   8.765   9.546
    6        0.546   0.240   8.766   9.552
    7        0.546   0.240   8.765   9.552
    8        0.546   0.240   8.765   9.552
    9        0.542   0.240   8.768   9.550
   10        0.519   0.310   8.769   9.598
   11        0.521   0.306   8.779   9.606
   12        0.519   0.310   8.769   9.598
   13        0.522   0.306   8.779   9.606
   14        0.522   0.306   8.779   9.606
   15        0.516   0.307   8.776   9.599
   16        0.519   0.310   8.769   9.598
   17        0.516   0.307   8.776   9.599
   18        0.516   0.307   8.776   9.599
   19        0.520   0.303   8.776   9.598
   20        0.523   0.320   8.763   9.606
   21        0.523   0.320   8.763   9.606
   22        0.514   0.305   8.774   9.592
   23        0.523   0.320   8.764   9.607
   24        0.514   0.305   8.774   9.592
   25        0.519   0.303   8.777   9.598
   26        0.519   0.303   8.776   9.598
   27        0.512   0.305   8.773   9.591
   28        0.541   0.233   8.767   9.542
   29        0.542   0.236   8.765   9.543
   30        0.542   0.236   8.765   9.543
   31        0.546   0.240   8.762   9.548
   32        0.546   0.240   8.762   9.548
   33        0.547   0.242   8.761   9.550
   34        0.547   0.242   8.761   9.550
   35        0.540   0.235   8.768   9.542
   36        0.536   0.348   8.079   8.963
   37        0.611   0.118   0.000   0.729
   38        0.611   0.118   0.000   0.729
   39        1.573   3.579   0.000   5.152
tot         21.917  13.784 314.990 350.690

  FORCE on cell =-STRESS in cart. coord.  units (eV):
  Direction    XX          YY          ZZ          XY          YZ          ZX
  Alpha Z   927.07985   927.07985   927.07985
  Ewald  157115.84650157060.12318************    -0.11031     9.22537     0.53179
  Hartree165661.11478165650.91762************    -0.02124    -0.83195     0.13374
  E(xc)   -1808.10791 -1808.32052 -1815.26324    -0.00042     0.02651     0.00211
  Local  ************************335238.77556     0.10120    -4.51939    -0.52157
  n-local   -86.78186   -87.69956   -66.41557     0.01144     0.09899     0.00422
  augment  2426.45275  2427.53708  2442.59113     0.00011    -0.24230    -0.00916
  Kinetic  5629.19596  5645.14533  5706.80005     0.02747    -3.65797    -0.13968
  Fock        0.00000     0.00000     0.00000     0.00000     0.00000     0.00000
  Total     -20.87356   -20.97603     1.10689     0.00825     0.09926     0.00145
  in kB     -20.09113   -20.18976     1.06540     0.00794     0.09554     0.00140

 VOLUME and BASIS-vectors are now :
  energy-cutoff  :      500.00
  volume of cell :     1664.57
      direct lattice vectors                 reciprocal lattice vectors
     8.813512802  0.000000000  0.000000000     0.113462137 -0.065507406  0.000000000
     4.406756909  7.632725690  0.000000000     0.000000000  0.131014796  0.000000000
     0.000000000  0.000000000 24.744230039     0.000000000  0.000000000  0.040413462

  length of vectors
     8.813512802  8.813512802 24.744230039     0.131014796  0.131014796  0.040413462

 FORCES acting on ions
    electron-ion (+dipol)            ewald-force                    non-local-force                 convergence-correction
   0.142E-02 -.540E-02 0.270E+04   -.140E-03 0.808E-02 -.270E+04   0.686E-04 -.483E-02 -.788E+00   -.139E-02 0.149E-02 -.384E+00
   0.177E+00 0.409E+00 0.270E+04   -.206E+00 -.317E+00 -.270E+04   0.662E-02 -.324E-01 -.267E+00   0.163E-01 -.509E-01 -.375E+00
   -.179E+00 0.397E+00 0.270E+04   0.206E+00 -.317E+00 -.270E+04   -.668E-02 -.324E-01 -.267E+00   -.149E-01 -.394E-01 -.373E+00
   0.451E+00 -.285E-01 0.270E+04   -.385E+00 -.335E-01 -.270E+04   -.250E-01 0.241E-01 -.258E+00   -.350E-01 0.324E-01 -.377E+00
   -.151E-01 0.461E-02 0.270E+04   0.564E-03 -.181E-01 -.270E+04   0.425E-04 0.650E-02 -.342E+00   0.147E-01 0.114E-01 -.427E+00
   -.440E+00 -.337E-01 0.270E+04   0.384E+00 -.335E-01 -.270E+04   0.249E-01 0.243E-01 -.258E+00   0.250E-01 0.375E-01 -.371E+00
   0.253E+00 -.369E+00 0.270E+04   -.179E+00 0.351E+00 -.270E+04   -.269E-01 0.840E-02 -.246E+00   -.373E-01 0.711E-02 -.373E+00
   -.263E+00 -.362E+00 0.270E+04   0.179E+00 0.350E+00 -.270E+04   0.269E-01 0.830E-02 -.246E+00   0.473E-01 0.393E-03 -.370E+00
   0.146E-01 -.122E-01 0.270E+04   -.104E-03 0.984E-02 -.270E+04   0.486E-04 -.256E-03 -.388E+00   -.148E-01 0.537E-03 -.393E+00
   0.355E+01 0.210E+01 0.940E+03   -.325E+01 -.191E+01 -.939E+03   -.179E+00 -.102E+00 -.652E+00   -.654E-01 -.514E-01 -.128E+00
   -.137E-01 0.304E+01 0.942E+03   0.253E-02 -.298E+01 -.941E+03   0.297E-04 -.296E-01 -.489E+00   0.114E-01 -.668E-01 -.594E-02
   -.354E+01 0.208E+01 0.940E+03   0.324E+01 -.190E+01 -.939E+03   0.179E+00 -.102E+00 -.653E+00   0.581E-01 -.406E-01 -.130E+00
   0.262E+01 -.143E+01 0.942E+03   -.256E+01 0.138E+01 -.941E+03   -.387E-01 0.181E-01 -.463E+00   -.497E-01 0.424E-01 -.699E-02
   -.264E+01 -.143E+01 0.942E+03   0.256E+01 0.138E+01 -.941E+03   0.387E-01 0.181E-01 -.463E+00   0.731E-01 0.412E-01 -.677E-02
   0.168E-01 0.469E+00 0.938E+03   -.296E-02 -.473E+00 -.938E+03   -.381E-04 -.274E-01 -.374E+00   -.139E-01 0.280E-01 -.855E-01
   -.562E-02 -.423E+01 0.940E+03   0.108E-02 0.387E+01 -.939E+03   -.680E-04 0.213E+00 -.605E+00   0.466E-02 0.775E-01 -.137E+00
   0.337E+00 -.300E+00 0.938E+03   -.331E+00 0.311E+00 -.938E+03   -.203E-01 0.727E-02 -.384E+00   0.151E-01 -.169E-01 -.776E-01
   -.332E+00 -.314E+00 0.938E+03   0.330E+00 0.314E+00 -.938E+03   0.203E-01 0.732E-02 -.383E+00   -.195E-01 -.527E-02 -.796E-01
   0.244E-01 0.166E+01 -.854E+03   -.198E-01 -.177E+01 0.854E+03   -.248E-03 -.126E-01 0.486E+00   -.446E-02 0.120E+00 0.413E+00
   0.972E+01 0.641E+01 -.822E+03   -.970E+01 -.639E+01 0.821E+03   -.184E+00 -.118E+00 -.231E+00   0.225E+00 0.126E+00 0.729E+00
   -.974E+01 0.638E+01 -.822E+03   0.972E+01 -.637E+01 0.821E+03   0.185E+00 -.118E+00 -.231E+00   -.219E+00 0.139E+00 0.728E+00
   0.376E+01 -.204E+01 -.847E+03   -.410E+01 0.225E+01 0.846E+03   0.216E+00 -.133E+00 0.569E+00   0.103E+00 -.605E-01 0.414E+00
   -.342E-01 -.112E+02 -.820E+03   0.212E-01 0.112E+02 0.820E+03   0.237E-03 0.194E+00 -.226E+00   0.129E-01 -.257E+00 0.729E+00
   -.371E+01 -.203E+01 -.847E+03   0.408E+01 0.223E+01 0.846E+03   -.216E+00 -.133E+00 0.569E+00   -.125E+00 -.601E-01 0.412E+00
   -.817E+00 -.133E+01 -.854E+03   0.956E+00 0.135E+01 0.853E+03   -.241E-01 0.368E-01 0.494E+00   -.108E+00 -.580E-01 0.408E+00
   0.811E+00 -.129E+01 -.854E+03   -.959E+00 0.133E+01 0.853E+03   0.242E-01 0.364E-01 0.494E+00   0.117E+00 -.672E-01 0.411E+00
   0.981E-02 0.343E+01 -.848E+03   0.252E-02 -.382E+01 0.847E+03   -.411E-04 0.255E+00 0.590E+00   -.125E-01 0.112E+00 0.413E+00
   0.314E-01 -.171E+01 -.263E+04   -.373E-01 0.172E+01 0.262E+04   0.371E-05 -.603E-02 0.351E+00   0.590E-02 0.425E-02 0.658E+00
   0.163E+02 0.297E+02 -.261E+04   -.164E+02 -.298E+02 0.261E+04   -.166E+00 -.187E+00 0.414E+00   0.167E+00 0.224E+00 0.576E+00
   -.163E+02 0.295E+02 -.261E+04   0.164E+02 -.297E+02 0.261E+04   0.167E+00 -.187E+00 0.413E+00   -.181E+00 0.235E+00 0.578E+00
   0.383E+02 0.385E+01 -.260E+04   -.383E+02 -.379E+01 0.260E+04   -.337E+00 -.697E-01 0.109E+00   0.281E+00 0.235E-01 0.579E+00
   -.380E+02 0.381E+01 -.260E+04   0.381E+02 -.376E+01 0.260E+04   0.337E+00 -.692E-01 0.112E+00   -.301E+00 0.305E-01 0.575E+00
   0.210E+02 -.366E+02 -.260E+04   -.211E+02 0.366E+02 0.260E+04   -.105E+00 0.337E+00 -.104E-01   0.116E+00 -.269E+00 0.582E+00
   -.210E+02 -.364E+02 -.260E+04   0.211E+02 0.364E+02 0.260E+04   0.105E+00 0.336E+00 -.692E-02   -.117E+00 -.272E+00 0.575E+00
   0.679E-01 -.222E+01 -.262E+04   -.568E-01 0.222E+01 0.262E+04   0.215E-03 -.125E-01 0.311E+00   -.115E-01 0.637E-02 0.579E+00
   -.265E+00 0.868E+01 -.218E+04   0.254E+00 -.869E+01 0.217E+04   -.951E-03 -.533E-01 0.315E+01   0.137E-01 0.373E-02 0.548E+00
   0.693E+02 -.485E+02 -.278E+03   -.761E+02 0.533E+02 0.278E+03   0.672E+01 -.477E+01 -.773E+00   0.313E-01 -.233E-01 -.266E-01
   -.694E+02 -.484E+02 -.278E+03   0.761E+02 0.532E+02 0.279E+03   -.671E+01 -.475E+01 -.835E+00   -.308E-01 -.230E-01 -.270E-01
   -.319E-01 0.611E+02 -.163E+04   0.883E-02 -.108E+03 0.163E+04   0.261E-01 0.467E+02 0.328E+01   0.504E-03 0.889E-02 -.288E+00
   -.907E-02 -.373E+02 -.638E+01   0.423E-13 0.156E-12 0.659E-11   0.281E-01 0.373E+02 0.150E+01   -.241E-01 -.485E-01 0.547E+01

 POSITION                                       TOTAL-FORCE (eV/Angst)
      0.00000      0.00000      5.28038         0.000091      0.000171      0.067307
      2.93784      0.00000      5.28038        -0.005323      0.008911     -0.005782
      5.87568      0.00000      5.28038         0.005630      0.008918     -0.005794
      1.46892      2.54424      5.28038         0.006109     -0.004634     -0.006319
      4.40676      2.54424      5.28038         0.000316      0.005145     -0.011550
      7.34459      2.54424      5.28038        -0.005834     -0.004661     -0.006262
      2.93784      5.08848      5.28038         0.010011     -0.002283     -0.003764
      5.87568      5.08848      5.28038        -0.009745     -0.002287     -0.003692
      8.81351      5.08848      5.28038        -0.000063     -0.001268      0.019012
      1.46892      0.84808      7.67911         0.060387      0.037143      0.075443
      4.40676      0.84808      7.67911         0.000378     -0.031759     -0.010253
      7.34459      0.84808      7.67911        -0.060229      0.037255      0.075400
      2.93784      3.39232      7.67911        -0.026996      0.015732     -0.006700
      5.87568      3.39232      7.67911         0.027790      0.015759     -0.006798
      8.81351      3.39232      7.67911        -0.000008     -0.002740      0.071096
      4.40676      5.93656      7.67911         0.000187     -0.068726      0.083734
      7.34459      5.93656      7.67911         0.001125      0.002831      0.071023
     10.28243      5.93656      7.67911        -0.000911      0.002933      0.071013
      8.81351      1.69709     10.07334         0.000099     -0.007334     -0.005008
      2.92757      1.69024     10.04824         0.053865      0.028020      0.007435
      5.88594      1.69024     10.04824        -0.053856      0.028322      0.007840
     10.27700      4.24354     10.06671        -0.027800      0.014841     -0.010762
      4.40676      4.25225     10.04824         0.000271     -0.056993     -0.005806
      7.35003      4.24354     10.06671         0.027574      0.014802     -0.010581
     11.75055      6.78418     10.07334         0.006925      0.006764     -0.004447
      5.87648      6.78418     10.07334        -0.006616      0.006713     -0.004287
      8.81351      6.77837     10.06671        -0.000104     -0.025776      0.008594
      0.00000      0.00000     12.49905         0.000134      0.001718     -0.029666
      2.94801      0.01573     12.49317        -0.029397     -0.069699     -0.097020
      5.86551      0.01573     12.49317         0.029235     -0.069362     -0.096691
      1.48763      2.54518     12.49317        -0.082606      0.016728     -0.083617
      7.32589      2.54518     12.49317         0.081632      0.016622     -0.083128
      2.94638      5.07181     12.49317        -0.058125      0.066782     -0.071753
      5.86714      5.07181     12.49317         0.057811      0.066422     -0.071888
      8.81351      5.08848     12.49660        -0.000075     -0.002060     -0.083250
      4.40676      2.54424     12.29817         0.001337     -0.050647      0.163096
      3.62815      3.16406     14.89410        -0.008050      0.010016      0.004466
      5.17808      3.16271     14.90128         0.001160      0.004487      0.000881
      4.40297      2.57551     14.79769         0.003670     -0.016807     -0.001523
    total drift:                               -0.005070     -0.032184      0.582090

  FREE ENERGIE OF THE ION-ELECTRON SYSTEM (eV)
  free  energy   TOTEN  =      -126.83179817 eV

  energy  without entropy=     -126.83179817  energy(sigma->0) =     -126.83179817

 stress matrix after NEB project (eV)
    -20.87356      0.00825      0.00145
      0.00825    -20.97603      0.09926
      0.00145      0.09926      1.10689
  FORCES: max atom, RMS     0.017270    0.003600
  FORCE total and by dimension    0.022485    0.016807
  Stress total and by dimension   29.613243   20.976025
|           W    W    AA    RRRRR   N    N  II  N    N   GGGG   !!!           |
|           W    W   A  A   R    R  NN   N  II  NN   N  G    G  !!!           |
|           W    W  A    A  R    R  N N  N  II  N N  N  G       !!!           |
|           W WW W  AAAAAA  RRRRR   N  N N  II  N  N N  G  GGG   !            |
|           WW  WW  A    A  R   R   N   NN  II  N   NN  G    G                |
|           W    W  A    A  R    R  N    N  II  N    N   GGGG   !!!           |
|     Tetrahedron method does not include variations of the Fermi             |
|     occupations, so forces and stress will be inaccurate. We suggest        |
|     using a different smearing scheme ISMEAR = 1 or 2 for metals in         |
|     relaxations.                                                            |

 total charge

# of ion       s       p       d       tot
    1        0.541   0.241   8.765   9.547
    2        0.546   0.240   8.766   9.552
    3        0.546   0.240   8.766   9.552
    4        0.546   0.240   8.766   9.552
    5        0.539   0.242   8.765   9.546
    6        0.546   0.240   8.766   9.552
    7        0.546   0.240   8.765   9.552
    8        0.546   0.240   8.765   9.552
    9        0.542   0.240   8.768   9.550
   10        0.519   0.310   8.769   9.598
   11        0.521   0.306   8.779   9.606
   12        0.519   0.310   8.769   9.598
   13        0.522   0.306   8.779   9.606
   14        0.522   0.306   8.779   9.606
   15        0.516   0.307   8.776   9.599
   16        0.519   0.310   8.769   9.598
   17        0.516   0.307   8.776   9.599
   18        0.516   0.307   8.776   9.599
   19        0.520   0.303   8.776   9.598
   20        0.523   0.320   8.763   9.606
   21        0.523   0.320   8.763   9.606
   22        0.514   0.305   8.774   9.592
   23        0.523   0.320   8.764   9.607
   24        0.514   0.305   8.774   9.592
   25        0.519   0.303   8.777   9.598
   26        0.519   0.303   8.776   9.598
   27        0.512   0.305   8.773   9.591
   28        0.541   0.233   8.767   9.542
   29        0.542   0.236   8.765   9.543
   30        0.542   0.236   8.765   9.543
   31        0.546   0.240   8.762   9.548
   32        0.546   0.240   8.762   9.548
   33        0.547   0.242   8.761   9.550
   34        0.547   0.242   8.761   9.550
   35        0.540   0.235   8.768   9.542
   36        0.536   0.348   8.079   8.963
   37        0.611   0.118   0.000   0.729
   38        0.611   0.118   0.000   0.729
   39        1.573   3.579   0.000   5.152
tot         21.917  13.784 314.990 350.690

 BZINTS: Fermi energy:    0.294869;  403.000000 electrons
         Band energy:-0.140423E+04;  BLOECHL correction:   -0.098365