 vasp.6.2.0 18Jan21 (build Jun 12 2021 23:27:24) complex

 executed on             LinuxIFC date 2022.05.28  00:57:33

 INCAR:
   ISMEAR = -5
   SIGMA = 0.1
   ISPIN = 1
   EDIFF = 1.d-5
   EDIFFG = -0.01
   NSW = 0
   NELM = 150
   ENCUT = 500
   ISIF = 2
   IBRION = 2
   LREAL = Auto
   ALGO = Fast
   ICHARG = 11
   LORBIT = 10
   LCHARG = .F.
   LWAVE = .F.

 POTCAR:    PAW_PBE Au 04Oct2007
 POTCAR:    PAW_PBE Ru 04Feb2005
 POTCAR:    PAW_PBE C 08Apr2002
 POTCAR:    PAW_PBE O 08Apr2002
|           W    W    AA    RRRRR   N    N  II  N    N   GGGG   !!!           |
|           W    W   A  A   R    R  NN   N  II  NN   N  G    G  !!!           |
|           W    W  A    A  R    R  N N  N  II  N N  N  G       !!!           |
|           W WW W  AAAAAA  RRRRR   N  N N  II  N  N N  G  GGG   !            |
|           WW  WW  A    A  R   R   N   NN  II  N   NN  G    G                |
|           W    W  A    A  R    R  N    N  II  N    N   GGGG   !!!           |
|     For optimal performance we recommend to set                             |
|       NCORE = 2 up to number-of-cores-per-socket                            |
|     This setting can greatly improve the performance of VASP for DFT.       |
|     The default, NCORE=1 might be grossly inefficient on modern             |
|     multi-core architectures or massively parallel machines. Do your        |
|     Unfortunately you need to use the default for GW and RPA                |
|     calculations (for HF NCORE is supported but not extensively tested      |
|     yet).                                                                   |

 POTCAR:    PAW_PBE Au 04Oct2007
   VRHFIN =Au: s1d10

   TITEL  = PAW_PBE Au 04Oct2007
   POMASS =  196.966; ZVAL   =   11.000    mass and valenz
   ENMAX  =  229.943; ENMIN  =  172.457 eV

 POTCAR:    PAW_PBE Ru 04Feb2005
   VRHFIN =Ru: s1 d7

   TITEL  = PAW_PBE Ru 04Feb2005
   POMASS =  101.070; ZVAL   =    8.000    mass and valenz
   ENMAX  =  213.271; ENMIN  =  159.953 eV

 POTCAR:    PAW_PBE C 08Apr2002
   VRHFIN =C: s2p2

   TITEL  = PAW_PBE C 08Apr2002
   POMASS =   12.011; ZVAL   =    4.000    mass and valenz
   ENMAX  =  400.000; ENMIN  =  300.000 eV

 POTCAR:    PAW_PBE O 08Apr2002
   VRHFIN =O: s2p4

   TITEL  = PAW_PBE O 08Apr2002
   POMASS =   16.000; ZVAL   =    6.000    mass and valenz
   ENMAX  =  400.000; ENMIN  =  300.000 eV

 Optimization of the real space projectors (new method)

 maximal supplied QI-value         = 15.12
 optimisation between [QCUT,QGAM] = [ 11.34, 22.83] = [ 36.00,145.93] Ry
 Optimized for a Real-space Cutoff    1.39 Angstroem

   l    n(q)    QCUT    max X(q) W(low)/X(q) W(high)/X(q)  e(spline)
   2      9    11.338    60.898    0.39E-03    0.42E-03    0.21E-06
   2      9    11.338    58.894    0.40E-03    0.42E-03    0.22E-06
   0      9    11.338   109.617    0.13E-03    0.20E-04    0.13E-06
   0      9    11.338    75.026    0.13E-03    0.20E-04    0.13E-06
   1      9    11.338    16.344    0.33E-04    0.24E-03    0.18E-06
   1      9    11.338    10.160    0.26E-04    0.19E-03    0.15E-06
 Optimization of the real space projectors (new method)

[...]

   l    n(q)    QCUT    max X(q) W(low)/X(q) W(high)/X(q)  e(spline)
   0      7    11.310   115.676    0.43E-03    0.13E-02    0.19E-06
   0      7    11.310    87.132    0.43E-03    0.13E-02    0.18E-06
   1      6    11.310     4.429    0.42E-03    0.74E-03    0.11E-06
   1      6    11.310     2.733    0.34E-03    0.55E-03    0.92E-07
 Optimization of the real space projectors (new method)

 maximal supplied QI-value         = 24.76
 optimisation between [QCUT,QGAM] = [ 11.39, 22.77] = [ 36.31,145.25] Ry
 Optimized for a Real-space Cutoff    1.00 Angstroem

   l    n(q)    QCUT    max X(q) W(low)/X(q) W(high)/X(q)  e(spline)
   0      7    11.387    20.381    0.39E-03    0.13E-02    0.15E-06
   0      7    11.387    15.268    0.42E-03    0.14E-02    0.17E-06
   1      6    11.387     5.964    0.41E-03    0.11E-02    0.17E-06
   1      6    11.387     5.382    0.39E-03    0.87E-03    0.15E-06
  PAW_PBE Au 04Oct2007                  :
  PAW_PBE Ru 04Feb2005                  :
  PAW_PBE C 08Apr2002                   :
  PAW_PBE O 08Apr2002                   :

 POSCAR: Au-Ru-CO2
  positions in direct lattice
  velocities in cartesian coordinates
 exchange correlation table for  LEXCH =        8
   RHO(1)=    0.500       N(1)  =     2000
   RHO(2)=  100.500       N(2)  =     4000

 VTST: version 3.2, (02/03/18)

 CHAIN: initializing optimizer

 OPT: Using VASP Conjugate-Gradient optimizer
 CHAIN: Read ICHAIN            0

 POSCAR: Au-Ru-CO2
  positions in direct lattice
  velocities in cartesian coordinates

 ion  position               nearest neighbor table
   1  0.000  0.000  0.205-  16 2.94  12 2.94   6 2.94   8 2.94   7 2.94   3 2.94  10 2.94   4 2.94
                             2 2.94
   2  0.333  0.000  0.205-   9 2.94  11 2.94  17 2.94  10 2.94   8 2.94   4 2.94   5 2.94   1 2.94
                             3 2.94
   3  0.667  0.000  0.205-   7 2.94  18 2.94  12 2.94   1 2.94  11 2.94   5 2.94   6 2.94   9 2.94
                             2 2.94
   4  0.000  0.333  0.205-  10 2.94   6 2.94   5 2.94  13 2.94   2 2.94  15 2.94   9 2.94   1 2.94
                             7 2.94
   5  0.333  0.333  0.205-  13 2.94   7 2.94  11 2.94   4 2.94   2 2.94  14 2.94   3 2.94   8 2.94
                             6 2.94
   6  0.667  0.333  0.205-  15 2.94  14 2.94   1 2.94  12 2.94   4 2.94   9 2.94   8 2.94   3 2.94
                             5 2.94
   7  0.000  0.667  0.205-  18 2.94   3 2.94  16 2.94   5 2.94   1 2.94  13 2.94   8 2.94   4 2.94
                             9 2.94
   8  0.333  0.667  0.205-   9 2.94  17 2.94   1 2.94   2 2.94  14 2.94  16 2.94   6 2.94   7 2.94
                             5 2.94
   9  0.667  0.667  0.205-   2 2.94   8 2.94  17 2.94   6 2.94  15 2.94   4 2.94   3 2.94  18 2.94
                             7 2.94
  10  0.111  0.111  0.298-  20 2.91  26 2.94  19 2.94  11 2.94  17 2.94   2 2.94   4 2.94   1 2.94
                            12 2.94  16 2.94  13 2.94  15 2.94
  11  0.444  0.111  0.298-  20 2.91  21 2.91  27 2.94  13 2.94   2 2.94  10 2.94  17 2.94   5 2.94
                             3 2.94  18 2.94  14 2.94  12 2.94
  12  0.778  0.111  0.298-  21 2.91  25 2.94  19 2.94  16 2.94  18 2.94   1 2.94  14 2.94  15 2.94
                             3 2.94   6 2.94  10 2.94  11 2.94
  13  0.111  0.444  0.298-  23 2.91  20 2.91  22 2.94   5 2.94  18 2.94  11 2.94   7 2.94   4 2.94
                            16 2.94  10 2.94  14 2.94  15 2.94
  14  0.444  0.444  0.298-  21 2.91  23 2.91  24 2.94  15 2.94   6 2.94  12 2.94   8 2.94  17 2.94
                             5 2.94  16 2.94  13 2.94  11 2.94
  15  0.778  0.444  0.298-  24 2.92  22 2.92  19 2.94  14 2.94   6 2.94  17 2.94  12 2.94   9 2.94
                             4 2.94  10 2.94  13 2.94  18 2.94
  16  0.111  0.778  0.298-  23 2.91  25 2.94  26 2.94  18 2.94  12 2.94   7 2.94   1 2.94   8 2.94
                            13 2.94  10 2.94  14 2.94  17 2.94
  17  0.444  0.778  0.298-  27 2.92  24 2.92  26 2.94   9 2.94  15 2.94   2 2.94  10 2.94  11 2.94
                             8 2.94  14 2.94  16 2.94  18 2.94
  18  0.778  0.778  0.298-  22 2.92  27 2.92  25 2.94  16 2.94   7 2.94  13 2.94  12 2.94   3 2.94
                            11 2.94   9 2.94  15 2.94  17 2.94
  19  0.889  0.222  0.391-  15 2.94  10 2.94  12 2.94  24 2.94  22 2.94  26 2.94  25 2.94  21 2.94
                            20 2.94  28 2.95  32 2.97  31 2.97
  20  0.223  0.223  0.389-  36 2.78  11 2.91  13 2.91  10 2.91  23 2.93  21 2.93  29 2.94  31 2.94
                            26 2.94  19 2.94  27 2.95  22 2.95
  21  0.555  0.223  0.389-  36 2.78  14 2.91  11 2.91  12 2.91  20 2.93  23 2.93  30 2.94  32 2.94
                            25 2.94  19 2.94  27 2.95  24 2.95
  22  0.887  0.557  0.390-  24 2.91  27 2.91  18 2.92  15 2.92  13 2.94  25 2.94  19 2.94  23 2.95
                            20 2.95  35 2.96  33 2.96  31 2.96
  23  0.223  0.555  0.389-  36 2.78  13 2.91  14 2.91  16 2.91  20 2.93  21 2.93  33 2.94  34 2.94
                            25 2.94  26 2.94  22 2.95  24 2.95
  24  0.557  0.557  0.390-  27 2.91  22 2.91  15 2.92  17 2.92  14 2.94  26 2.94  19 2.94  21 2.95
                            23 2.95  35 2.96  32 2.96  34 2.96
  25  0.889  0.889  0.391-  18 2.94  16 2.94  12 2.94  22 2.94  27 2.94  19 2.94  26 2.94  23 2.94
                            21 2.94  28 2.95  33 2.97  30 2.97
  26  0.222  0.889  0.391-  17 2.94  10 2.94  16 2.94  27 2.94  24 2.94  19 2.94  25 2.94  20 2.94
                            23 2.94  28 2.95  29 2.97  34 2.97
  27  0.557  0.887  0.390-  24 2.91  22 2.91  17 2.92  18 2.92  11 2.94  26 2.94  25 2.94  20 2.95
                            21 2.95  35 2.96  29 2.96  30 2.96
  28  0.000  0.000  0.484-  25 2.95  19 2.95  26 2.95  34 2.97  32 2.97  33 2.97  30 2.97  31 2.97
                            29 2.97
  29  0.333  0.007  0.484-  31 2.88  30 2.88  36 2.89  20 2.94  27 2.96  28 2.97  35 2.97  26 2.97
                            34 3.05
  30  0.660  0.007  0.484-  32 2.88  29 2.88  36 2.89  21 2.94  27 2.96  28 2.97  35 2.97  25 2.97
                            33 3.05
  31  0.007  0.333  0.484-  29 2.88  33 2.88  36 2.89  20 2.94  22 2.96  28 2.97  35 2.97  19 2.97
                            32 3.05
  32  0.660  0.333  0.484-  30 2.88  34 2.88  36 2.89  21 2.94  24 2.96  28 2.97  35 2.97  19 2.97
                            31 3.05
  33  0.007  0.660  0.484-  34 2.88  31 2.88  36 2.89  23 2.94  22 2.96  28 2.97  35 2.97  25 2.97
                            30 3.05
  34  0.333  0.660  0.484-  33 2.88  32 2.88  36 2.89  23 2.94  24 2.96  28 2.97  35 2.97  26 2.97
                            29 3.05
  35  0.667  0.667  0.484-  24 2.96  27 2.96  22 2.96  29 2.97  34 2.97  32 2.97  31 2.97  30 2.97
                            33 2.97
  36  0.333  0.333  0.475-  20 2.78  23 2.78  21 2.78  33 2.89  31 2.89  29 2.89  30 2.89  34 2.89
                            32 2.89
  37  0.333  0.344  0.625-  39 1.18  38 1.18
  38  0.205  0.334  0.624-  37 1.18
  39  0.461  0.355  0.626-  37 1.18

  LATTYP: Found a hexagonal cell.
 ALAT       =     8.8135128021
 C/A-ratio  =     2.9272033775

  Lattice vectors:

 A1 = (  -4.4067569092,  -7.6327256898,   0.0000000000)
 A2 = (   8.8135128021,   0.0000000000,   0.0000000000)
 A3 = (   0.0000000000,   0.0000000000,  25.7989444421)

Analysis of symmetry for initial positions (statically):
 Subroutine PRICEL returns:
 Original cell was already a primitive cell.

 Routine SETGRP: Setting up the symmetry group for a
 hexagonal supercell.

 Subroutine GETGRP returns: Found  1 space group operations
 (whereof  1 operations were pure point group operations)
 out of a pool of 24 trial point group operations.

The static configuration has the point symmetry C_1 .

Analysis of symmetry for dynamics (positions and initial velocities):
 Subroutine PRICEL returns:
 Original cell was already a primitive cell.

[...]

The dynamic configuration has the point symmetry C_1 .

Analysis of constrained symmetry for selective dynamics:
 Subroutine PRICEL returns:
[...]
     41      -5.2581      2.00000
     42      -5.2515      2.00000
     43      -5.2017      2.00000
     44      -5.1845      2.00000
     45      -5.1343      2.00000
     46      -5.0625      2.00000
     47      -5.0354      2.00000
     48      -4.9885      2.00000
     49      -4.9647      2.00000
     50      -4.9514      2.00000
     51      -4.9449      2.00000
     52      -4.8398      2.00000
     53      -4.8168      2.00000
     54      -4.7898      2.00000
     55      -4.7744      2.00000
     56      -4.7713      2.00000
     57      -4.7622      2.00000
     58      -4.7501      2.00000
     59      -4.7092      2.00000
     60      -4.6663      2.00000
[...]
    238       4.7991      0.00000
    239       5.0704      0.00000
    240       5.1495      0.00000
    241       5.2809      0.00000
    242       5.4936      0.00000
    243       5.5719      0.00000
    244       5.6613      0.00000
    245       5.7752      0.00000
    246       5.8272      0.00000
    247       5.8631      0.00000
    248       5.9412      0.00000
    249       6.1515      0.00000
    250       6.1994      0.00000
    251       6.2173      0.00000
    252       6.3324      0.00000

 soft charge-density along one line, spin component           1
         0         1         2         3         4         5         6         7         8         9
 total charge-density along one line

------------------------ aborting loop because EDIFF is reached ----------------------------------------

 total charge

# of ion       s       p       d       tot
    1        0.545   0.239   8.765   9.548
    2        0.545   0.241   8.764   9.550
    3        0.545   0.241   8.764   9.550
    4        0.545   0.241   8.764   9.550
    5        0.540   0.243   8.762   9.544
    6        0.545   0.241   8.764   9.550
    7        0.545   0.241   8.764   9.550
    8        0.545   0.241   8.764   9.549
    9        0.543   0.239   8.768   9.551
   10        0.524   0.310   8.766   9.599
   11        0.523   0.307   8.781   9.610
   12        0.524   0.310   8.766   9.599
   13        0.523   0.307   8.781   9.611
   14        0.523   0.307   8.781   9.610
   15        0.517   0.308   8.776   9.601
   16        0.524   0.309   8.766   9.599
   17        0.517   0.308   8.776   9.601
   18        0.517   0.308   8.776   9.601
   19        0.516   0.301   8.776   9.593
   20        0.542   0.331   8.749   9.622
   21        0.542   0.331   8.749   9.622
   22        0.508   0.308   8.778   9.594
   23        0.542   0.331   8.749   9.622
   24        0.508   0.308   8.778   9.594
   25        0.516   0.301   8.776   9.594
   26        0.516   0.301   8.776   9.593
   27        0.508   0.308   8.778   9.594
   28        0.538   0.228   8.763   9.529
   29        0.559   0.244   8.744   9.547
   30        0.559   0.245   8.744   9.547
   31        0.557   0.243   8.745   9.545
   32        0.558   0.243   8.745   9.546
   33        0.559   0.245   8.744   9.547
   34        0.559   0.245   8.744   9.547
   35        0.533   0.228   8.766   9.527
   36        0.411   0.342   6.481   7.234
   37        0.933   1.802   0.000   2.735
   38        1.607   3.530   0.000   5.137
   39        1.607   3.530   0.000   5.137
tot         23.266  18.884 313.228 355.378

  FORCE on cell =-STRESS in cart. coord.  units (eV):
  Direction    XX          YY          ZZ          XY          YZ          ZX
  Alpha Z   902.68064   902.68064   902.68064
  Ewald  167912.43296167126.81182************    52.61866    -1.45762    17.68181
  Hartree176196.26100175826.57285************    24.27179    -1.86479     7.88390
  E(xc)   -1837.55492 -1839.62993 -1847.16552     0.14201     0.00686     0.04797
  Local  ************************355444.06607   -72.02715     3.47920   -23.89414
  n-local  -104.41355   -98.43015   -73.35037    -0.40648     0.01405    -0.14614
  augment  2421.79833  2424.41178  2443.38619    -0.18172    -0.01620    -0.05753
  Kinetic  5714.58707  5779.14570  5839.62569    -4.40768    -0.13242    -1.51094
  Fock        0.00000     0.00000     0.00000     0.00000     0.00000     0.00000
  Total     -23.60554   -23.69172     3.36529     0.00943     0.02908     0.00493
  in kB     -21.79184   -21.87140     3.10672     0.00870     0.02684     0.00455

 VOLUME and BASIS-vectors are now :
  energy-cutoff  :      500.00
  volume of cell :     1735.52
      direct lattice vectors                 reciprocal lattice vectors
     8.813512802  0.000000000  0.000000000     0.113462137 -0.065507406  0.000000000
     4.406756909  7.632725690  0.000000000     0.000000000  0.131014796  0.000000000
     0.000000000  0.000000000 25.798944442     0.000000000  0.000000000  0.038761276

  length of vectors
     8.813512802  8.813512802 25.798944442     0.131014796  0.131014796  0.038761276

 FORCES acting on ions
    electron-ion (+dipol)            ewald-force                    non-local-force                 convergence-correction
   0.400E-03 0.150E-01 0.277E+04   -.106E-02 -.106E-01 -.277E+04   0.137E-03 -.661E-03 -.925E+00   0.229E-03 -.431E-02 -.699E-01
   0.406E+00 0.241E+00 0.277E+04   -.421E+00 -.262E+00 -.277E+04   0.271E-01 0.159E-01 -.291E+00   -.143E-01 0.133E-01 -.154E+00
   -.406E+00 0.233E+00 0.277E+04   0.422E+00 -.264E+00 -.277E+04   -.274E-01 0.159E-01 -.289E+00   0.140E-01 0.242E-01 -.152E+00
   0.406E+00 0.244E+00 0.277E+04   -.428E+00 -.244E+00 -.277E+04   0.276E-01 0.150E-01 -.294E+00   0.225E-02 -.214E-01 -.151E+00
   -.131E-01 -.374E-02 0.277E+04   -.131E-02 -.604E-02 -.277E+04   0.520E-03 -.418E-03 -.243E+00   0.141E-01 0.102E-01 -.155E+00
   -.397E+00 0.240E+00 0.277E+04   0.430E+00 -.246E+00 -.277E+04   -.281E-01 0.153E-01 -.293E+00   -.117E-01 -.156E-01 -.146E+00
   -.215E-01 -.483E+00 0.277E+04   -.892E-02 0.507E+00 -.277E+04   0.170E-02 -.304E-01 -.291E+00   0.374E-01 0.348E-02 -.152E+00
   0.150E-01 -.477E+00 0.277E+04   0.627E-02 0.508E+00 -.277E+04   -.198E-02 -.313E-01 -.291E+00   -.279E-01 -.255E-02 -.150E+00
   0.109E-01 -.124E-01 0.277E+04   0.268E-02 0.167E-01 -.277E+04   0.456E-03 0.240E-02 -.479E+00   -.143E-01 -.637E-02 -.112E+00
   0.425E+01 0.256E+01 0.975E+03   -.378E+01 -.229E+01 -.974E+03   -.313E+00 -.181E+00 -.816E+00   -.963E-01 -.578E-01 0.323E+00
   -.117E-01 0.391E+01 0.979E+03   0.273E-02 -.396E+01 -.979E+03   0.162E-03 0.185E-01 -.350E+00   0.906E-02 -.245E-01 0.404E+00
   -.425E+01 0.257E+01 0.975E+03   0.378E+01 -.231E+01 -.974E+03   0.313E+00 -.180E+00 -.816E+00   0.914E-01 -.493E-01 0.317E+00
   0.328E+01 -.195E+01 0.979E+03   -.334E+01 0.197E+01 -.979E+03   0.148E-01 -.775E-02 -.354E+00   -.118E-01 0.238E-01 0.399E+00
   -.329E+01 -.194E+01 0.979E+03   0.332E+01 0.196E+01 -.979E+03   -.144E-01 -.706E-02 -.353E+00   0.317E-01 0.239E-01 0.395E+00
   -.399E-02 0.278E+01 0.977E+03   0.140E-01 -.287E+01 -.977E+03   0.328E-03 0.265E-01 -.509E+00   -.104E-01 0.241E-01 0.376E+00
   0.128E-01 -.497E+01 0.975E+03   -.156E-01 0.444E+01 -.974E+03   -.410E-03 0.357E+00 -.811E+00   0.338E-02 0.966E-01 0.316E+00
   0.244E+01 -.149E+01 0.977E+03   -.251E+01 0.153E+01 -.976E+03   0.230E-01 -.131E-01 -.500E+00   0.140E-01 -.190E-01 0.374E+00
   -.245E+01 -.149E+01 0.977E+03   0.252E+01 0.153E+01 -.976E+03   -.232E-01 -.132E-01 -.498E+00   -.179E-01 -.106E-01 0.372E+00
   -.336E-01 0.212E+01 -.847E+03   0.252E-01 -.227E+01 0.846E+03   0.161E-02 0.173E-01 0.503E+00   0.717E-02 0.124E+00 0.839E+00
   0.615E+01 0.425E+01 -.821E+03   -.566E+01 -.396E+01 0.820E+03   -.737E+00 -.420E+00 -.785E+00   0.235E+00 0.128E+00 0.128E+01
   -.612E+01 0.436E+01 -.820E+03   0.564E+01 -.409E+01 0.820E+03   0.739E+00 -.420E+00 -.786E+00   -.237E+00 0.137E+00 0.127E+01
   -.440E+01 0.181E+01 -.838E+03   0.390E+01 -.150E+01 0.836E+03   0.395E+00 -.237E+00 0.591E+00   0.111E+00 -.756E-01 0.908E+00
   0.113E+00 -.786E+01 -.821E+03   -.118E+00 0.729E+01 0.820E+03   0.196E-03 0.846E+00 -.786E+00   0.509E-02 -.267E+00 0.127E+01
   0.428E+01 0.183E+01 -.837E+03   -.378E+01 -.153E+01 0.836E+03   -.398E+00 -.237E+00 0.590E+00   -.118E+00 -.695E-01 0.907E+00
   -.120E+01 -.675E+00 -.849E+03   0.131E+01 0.737E+00 0.847E+03   -.873E-02 -.418E-02 0.485E+00   -.925E-01 -.535E-01 0.836E+00
   0.127E+01 -.753E+00 -.848E+03   -.140E+01 0.816E+00 0.847E+03   0.102E-01 -.264E-02 0.488E+00   0.111E+00 -.550E-01 0.838E+00
   -.784E-01 -.511E+01 -.839E+03   0.887E-01 0.452E+01 0.837E+03   -.140E-02 0.457E+00 0.586E+00   -.897E-02 0.140E+00 0.910E+00
   0.330E+00 0.350E+01 -.262E+04   -.334E+00 -.350E+01 0.262E+04   -.936E-03 -.246E-02 0.499E+00   0.460E-02 0.269E-02 0.585E+00
   0.772E+01 0.197E+02 -.259E+04   -.725E+01 -.191E+02 0.259E+04   -.704E+00 -.100E+01 0.123E+00   0.231E+00 0.418E+00 0.484E+00
   -.803E+01 0.200E+02 -.260E+04   0.756E+01 -.194E+02 0.259E+04   0.706E+00 -.101E+01 0.988E-01   -.236E+00 0.425E+00 0.487E+00
   0.203E+02 0.113E+01 -.258E+04   -.195E+02 -.101E+01 0.258E+04   -.120E+01 -.104E+00 0.225E+00   0.466E+00 -.141E-01 0.491E+00
   -.206E+02 0.224E+01 -.258E+04   0.199E+02 -.214E+01 0.258E+04   0.121E+01 -.102E+00 0.214E+00   -.468E+00 -.661E-02 0.490E+00
   0.916E+01 -.216E+02 -.259E+04   -.889E+01 0.209E+02 0.259E+04   -.524E+00 0.111E+01 0.104E+00   0.257E+00 -.410E+00 0.494E+00
   -.829E+01 -.221E+02 -.259E+04   0.801E+01 0.214E+02 0.259E+04   0.525E+00 0.111E+01 0.112E+00   -.248E+00 -.408E+00 0.491E+00
   -.838E+00 -.522E+01 -.262E+04   0.852E+00 0.522E+01 0.262E+04   -.335E-03 0.165E-02 0.636E+00   -.137E-01 -.736E-02 0.489E+00
   0.219E+00 0.159E+01 -.178E+04   -.212E+00 -.158E+01 0.178E+04   -.124E-01 -.710E-02 0.374E+01   0.319E-02 -.113E-02 0.548E+00
   0.275E+00 -.289E-01 -.914E+03   -.277E+00 0.345E-01 0.914E+03   0.605E-02 -.622E-02 -.419E-01   -.210E-02 -.216E-02 -.158E+00
   0.261E+03 0.182E+02 -.137E+04   -.324E+03 -.225E+02 0.137E+04   0.637E+02 0.436E+01 0.158E+01   0.463E-01 -.988E-03 -.222E+00
   -.261E+03 -.174E+02 -.137E+04   0.325E+03 0.217E+02 0.137E+04   -.638E+02 -.429E+01 -.140E+01   -.459E-01 -.610E-02 -.196E+00
   0.180E-01 -.689E-01 -.135E+02   -.171E-12 -.782E-13 -.250E-11   -.394E-01 0.622E-01 -.162E+01   0.213E-01 0.575E-02 0.151E+02

 POSITION                                       TOTAL-FORCE (eV/Angst)
      0.00000      0.00000      5.28038        -0.000288     -0.000621     -0.098090
      2.93784      0.00000      5.28038        -0.001817      0.008787     -0.094317
      5.87568      0.00000      5.28038         0.002082      0.008930     -0.094242
      1.46892      2.54424      5.28038         0.007673     -0.005869     -0.095527
      4.40676      2.54424      5.28038         0.000157      0.000015     -0.129377
      7.34459      2.54424      5.28038        -0.007600     -0.006062     -0.095580
      2.93784      5.08848      5.28038         0.008699     -0.002851     -0.094954
      5.87568      5.08848      5.28038        -0.008582     -0.002905     -0.094992
      8.81351      5.08848      5.28038        -0.000314      0.000296     -0.110172
      1.46892      0.84808      7.67911         0.062540      0.036197      0.111906
      4.40676      0.84808      7.67911         0.000284     -0.058883     -0.006616
      7.34459      0.84808      7.67911        -0.062758      0.036659      0.112200
      2.93784      3.39232      7.67911        -0.052117      0.029680     -0.007838
      5.87568      3.39232      7.67911         0.052753      0.029764     -0.008133
      8.81351      3.39232      7.67911        -0.000130     -0.033600      0.084739
      4.40676      5.93656      7.67911         0.000148     -0.072479      0.111843
      7.34459      5.93656      7.67911        -0.029155      0.016067      0.084915
     10.28243      5.93656      7.67911         0.028938      0.016082      0.085018
      8.81351      1.69681     10.07567         0.000360     -0.008696      0.057780
      2.94232      1.69875     10.04120        -0.015479     -0.008303      0.005655
      5.87120      1.69875     10.04120         0.014057     -0.007100      0.007497
     10.26751      4.24902     10.06295         0.009742     -0.004916     -0.000569
      4.40676      4.23523     10.04120         0.000287      0.016429      0.005098
      7.35952      4.24902     10.06295        -0.009607     -0.004820     -0.000478
     11.75079      6.78432     10.07567         0.006906      0.004472      0.052933
      5.87624      6.78432     10.07567        -0.006397      0.004719      0.053898
      8.81351      6.76742     10.06295        -0.000099      0.009881     -0.004492
      0.00000      0.00000     12.49459         0.000031     -0.000189     -0.036953
      2.96623      0.05046     12.47837        -0.001244      0.000069      0.028076
      5.84728      0.05046     12.47837         0.001255      0.001895      0.030119
      1.52682      2.54360     12.47837        -0.004329     -0.000813      0.023544
      7.28669      2.54360     12.47837         0.003213     -0.001718      0.026224
      2.96734      5.03866     12.47837         0.004404      0.000886      0.029016
      5.84617      5.03866     12.47837        -0.004288      0.000984      0.029499
      8.81351      5.08848     12.49555        -0.000097      0.000185     -0.022458
      4.40676      2.54424     12.24198        -0.002292     -0.000947      0.026621
      4.45345      2.62893     16.13190         0.002239     -0.002669      0.010115
      3.28020      2.54855     16.10276        -0.001066     -0.000885      0.009198
      5.62661      2.70790     16.15825         0.001894      0.002332      0.008892
    total drift:                               -0.000149     -0.000961     -0.074706

  FREE ENERGIE OF THE ION-ELECTRON SYSTEM (eV)
  free  energy   TOTEN  =      -136.81296278 eV

  energy  without entropy=     -136.81296278  energy(sigma->0) =     -136.81296278

 stress matrix after NEB project (eV)
    -23.60554      0.00943      0.00493
      0.00943    -23.69172      0.02908
      0.00493      0.02908      3.36529
  FORCES: max atom, RMS     0.010698    0.002722
  FORCE total and by dimension    0.017002    0.010115
  Stress total and by dimension   33.613182   23.691720
|           W    W    AA    RRRRR   N    N  II  N    N   GGGG   !!!           |
|           W    W   A  A   R    R  NN   N  II  NN   N  G    G  !!!           |
|           W    W  A    A  R    R  N N  N  II  N N  N  G       !!!           |
|           W WW W  AAAAAA  RRRRR   N  N N  II  N  N N  G  GGG   !            |
|           WW  WW  A    A  R   R   N   NN  II  N   NN  G    G                |
|           W    W  A    A  R    R  N    N  II  N    N   GGGG   !!!           |
|     Tetrahedron method does not include variations of the Fermi             |
|     occupations, so forces and stress will be inaccurate. We suggest        |
|     using a different smearing scheme ISMEAR = 1 or 2 for metals in         |
|     relaxations.                                                            |

 total charge

# of ion       s       p       d       tot
    1        0.545   0.239   8.765   9.548
    2        0.545   0.241   8.764   9.550
    3        0.545   0.241   8.764   9.550
    4        0.545   0.241   8.764   9.550
    5        0.540   0.243   8.762   9.544
    6        0.545   0.241   8.764   9.550
    7        0.545   0.241   8.764   9.550
    8        0.545   0.241   8.764   9.549
    9        0.543   0.239   8.768   9.551
   10        0.524   0.310   8.766   9.599
   11        0.523   0.307   8.781   9.610
   12        0.524   0.310   8.766   9.599
   13        0.523   0.307   8.781   9.611
   14        0.523   0.307   8.781   9.610
   15        0.517   0.308   8.776   9.601
   16        0.524   0.309   8.766   9.599
   17        0.517   0.308   8.776   9.601
   18        0.517   0.308   8.776   9.601
   19        0.516   0.301   8.776   9.593
   20        0.542   0.331   8.749   9.622
   21        0.542   0.331   8.749   9.622
   22        0.508   0.308   8.778   9.594
   23        0.542   0.331   8.749   9.622
   24        0.508   0.308   8.778   9.594
   25        0.516   0.301   8.776   9.594
   26        0.516   0.301   8.776   9.593
   27        0.508   0.308   8.778   9.594
   28        0.538   0.228   8.763   9.529
   29        0.559   0.244   8.744   9.547
   30        0.559   0.245   8.744   9.547
   31        0.557   0.243   8.745   9.545
   32        0.558   0.243   8.745   9.546
   33        0.559   0.245   8.744   9.547
   34        0.559   0.245   8.744   9.547
   35        0.533   0.228   8.766   9.527
   36        0.411   0.342   6.481   7.234
   37        0.933   1.802   0.000   2.735
   38        1.607   3.530   0.000   5.137
   39        1.607   3.530   0.000   5.137
tot         23.266  18.884 313.228 355.378

 BZINTS: Fermi energy:    0.007039;  409.000000 electrons
         Band energy:-0.160878E+04;  BLOECHL correction:   -0.073720