 vasp.6.2.0 18Jan21 (build Jun 12 2021 23:27:24) complex

 executed on             LinuxIFC date 2022.05.26  19:20:24

 INCAR:
   ISMEAR = -5
   SIGMA = 0.1
   ISPIN = 1
   EDIFF = 1.d-5
   EDIFFG = -0.01
   NSW = 0
   NELM = 150
   ENCUT = 500
   ISIF = 2
   IBRION = 2
   LREAL = Auto
   ALGO = Fast
   ICHARG = 11
   LORBIT = 10
   LCHARG = .F.
   LWAVE = .F.

 POTCAR:    PAW_PBE Au 04Oct2007
 POTCAR:    PAW_PBE Fe 06Sep2000
 POTCAR:    PAW_PBE O 08Apr2002
|           W    W    AA    RRRRR   N    N  II  N    N   GGGG   !!!           |
|           W    W   A  A   R    R  NN   N  II  NN   N  G    G  !!!           |
|           W    W  A    A  R    R  N N  N  II  N N  N  G       !!!           |
|           W WW W  AAAAAA  RRRRR   N  N N  II  N  N N  G  GGG   !            |
|           WW  WW  A    A  R   R   N   NN  II  N   NN  G    G                |
|           W    W  A    A  R    R  N    N  II  N    N   GGGG   !!!           |
|     For optimal performance we recommend to set                             |
|       NCORE = 2 up to number-of-cores-per-socket                            |
|     This setting can greatly improve the performance of VASP for DFT.       |
|     The default, NCORE=1 might be grossly inefficient on modern             |
|     multi-core architectures or massively parallel machines. Do your        |
|     Unfortunately you need to use the default for GW and RPA                |
|     calculations (for HF NCORE is supported but not extensively tested      |
|     yet).                                                                   |

 POTCAR:    PAW_PBE Au 04Oct2007
   VRHFIN =Au: s1d10

   TITEL  = PAW_PBE Au 04Oct2007
   POMASS =  196.966; ZVAL   =   11.000    mass and valenz
   ENMAX  =  229.943; ENMIN  =  172.457 eV

 POTCAR:    PAW_PBE Fe 06Sep2000
   VRHFIN =Fe:  d7 s1

   TITEL  = PAW_PBE Fe 06Sep2000
   POMASS =   55.847; ZVAL   =    8.000    mass and valenz
   ENMAX  =  267.882; ENMIN  =  200.911 eV

 POTCAR:    PAW_PBE O 08Apr2002
   VRHFIN =O: s2p4

   TITEL  = PAW_PBE O 08Apr2002
   POMASS =   16.000; ZVAL   =    6.000    mass and valenz
   ENMAX  =  400.000; ENMIN  =  300.000 eV

 Optimization of the real space projectors (new method)

 maximal supplied QI-value         = 15.12
 optimisation between [QCUT,QGAM] = [ 11.34, 22.83] = [ 36.00,145.93] Ry
 Optimized for a Real-space Cutoff    1.39 Angstroem

   l    n(q)    QCUT    max X(q) W(low)/X(q) W(high)/X(q)  e(spline)
   2      9    11.338    60.898    0.39E-03    0.42E-03    0.21E-06
   2      9    11.338    58.894    0.40E-03    0.42E-03    0.22E-06
   0      9    11.338   109.617    0.13E-03    0.20E-04    0.13E-06
   0      9    11.338    75.026    0.13E-03    0.20E-04    0.13E-06
   1      9    11.338    16.344    0.33E-04    0.24E-03    0.18E-06
   1      9    11.338    10.160    0.26E-04    0.19E-03    0.15E-06
 Optimization of the real space projectors (new method)

[...]

   l    n(q)    QCUT    max X(q) W(low)/X(q) W(high)/X(q)  e(spline)
   2      8    11.376    80.901    0.45E-03    0.44E-04    0.21E-06
   2      8    11.376    75.754    0.45E-03    0.45E-04    0.22E-06
   0      9    11.376    58.752    0.65E-04    0.95E-04    0.17E-06
   0      9    11.376    30.679    0.59E-04    0.87E-04    0.16E-06
   1      9    11.376    17.977    0.38E-03    0.10E-03    0.14E-06
   1      9    11.376    13.559    0.31E-03    0.90E-04    0.12E-06
 Optimization of the real space projectors (new method)

 maximal supplied QI-value         = 24.76
 optimisation between [QCUT,QGAM] = [ 11.39, 22.77] = [ 36.31,145.25] Ry
 Optimized for a Real-space Cutoff    1.00 Angstroem

   l    n(q)    QCUT    max X(q) W(low)/X(q) W(high)/X(q)  e(spline)
   0      7    11.387    20.381    0.39E-03    0.13E-02    0.15E-06
   0      7    11.387    15.268    0.42E-03    0.14E-02    0.17E-06
   1      6    11.387     5.964    0.41E-03    0.11E-02    0.17E-06
   1      6    11.387     5.382    0.39E-03    0.87E-03    0.15E-06
  PAW_PBE Au 04Oct2007                  :
  PAW_PBE Fe 06Sep2000                  :
  PAW_PBE O 08Apr2002                   :

 POSCAR: Au-Fe-O
  positions in direct lattice
  velocities in cartesian coordinates
 exchange correlation table for  LEXCH =        8
   RHO(1)=    0.500       N(1)  =     2000
   RHO(2)=  100.500       N(2)  =     4000

 VTST: version 3.2, (02/03/18)

 CHAIN: initializing optimizer

 OPT: Using VASP Conjugate-Gradient optimizer
 CHAIN: Read ICHAIN            0

 POSCAR: Au-Fe-O
  positions in direct lattice
  velocities in cartesian coordinates

 ion  position               nearest neighbor table
   1  0.000  0.000  0.238-  16 2.94  12 2.94   6 2.94   8 2.94   7 2.94   3 2.94  10 2.94   4 2.94
                             2 2.94
   2  0.333  0.000  0.238-   9 2.94  11 2.94  17 2.94  10 2.94   8 2.94   4 2.94   5 2.94   1 2.94
                             3 2.94
   3  0.667  0.000  0.238-   7 2.94  18 2.94  12 2.94   1 2.94  11 2.94   5 2.94   6 2.94   9 2.94
                             2 2.94
   4  0.000  0.333  0.238-  10 2.94   6 2.94   5 2.94  13 2.94   2 2.94  15 2.94   9 2.94   1 2.94
                             7 2.94
   5  0.333  0.333  0.238-  13 2.94   7 2.94  11 2.94   4 2.94   2 2.94  14 2.94   3 2.94   8 2.94
                             6 2.94
   6  0.667  0.333  0.238-  15 2.94  14 2.94   1 2.94  12 2.94   4 2.94   9 2.94   8 2.94   3 2.94
                             5 2.94
   7  0.000  0.667  0.238-  18 2.94   3 2.94  16 2.94   5 2.94   1 2.94  13 2.94   8 2.94   4 2.94
                             9 2.94
   8  0.333  0.667  0.238-   9 2.94  17 2.94   1 2.94   2 2.94  14 2.94  16 2.94   6 2.94   7 2.94
                             5 2.94
   9  0.667  0.667  0.238-   2 2.94   8 2.94  17 2.94   6 2.94  15 2.94   4 2.94   3 2.94  18 2.94
                             7 2.94
  10  0.111  0.111  0.346-  20 2.93  26 2.94  19 2.94  11 2.94  17 2.94   2 2.94   4 2.94   1 2.94
                            12 2.94  16 2.94  13 2.94  15 2.94
  11  0.444  0.111  0.346-  20 2.91  21 2.91  27 2.93  13 2.94   2 2.94  10 2.94  17 2.94   5 2.94
                             3 2.94  18 2.94  14 2.94  12 2.94
  12  0.778  0.111  0.346-  21 2.93  25 2.94  19 2.94  16 2.94  18 2.94   1 2.94  14 2.94  15 2.94
                             3 2.94   6 2.94  10 2.94  11 2.94
  13  0.111  0.444  0.346-  23 2.91  20 2.91  22 2.93   5 2.94  18 2.94  11 2.94   7 2.94   4 2.94
                            16 2.94  10 2.94  14 2.94  15 2.94
  14  0.444  0.444  0.346-  21 2.91  23 2.91  24 2.93  15 2.94   6 2.94  12 2.94   8 2.94  17 2.94
                             5 2.94  16 2.94  13 2.94  11 2.94
  15  0.778  0.444  0.346-  24 2.92  22 2.92  19 2.94  14 2.94   6 2.94  17 2.94  12 2.94   9 2.94
                             4 2.94  10 2.94  13 2.94  18 2.94
  16  0.111  0.778  0.346-  23 2.93  25 2.94  26 2.94  18 2.94  12 2.94   7 2.94   1 2.94   8 2.94
                            13 2.94  10 2.94  14 2.94  17 2.94
  17  0.444  0.778  0.346-  27 2.92  24 2.92  26 2.94   9 2.94  15 2.94   2 2.94  10 2.94  11 2.94
                             8 2.94  14 2.94  16 2.94  18 2.94
  18  0.778  0.778  0.346-  22 2.92  27 2.92  25 2.94  16 2.94   7 2.94  13 2.94  12 2.94   3 2.94
                            11 2.94   9 2.94  15 2.94  17 2.94
  19  0.889  0.222  0.454-  10 2.94  12 2.94  15 2.94  26 2.94  25 2.94  24 2.94  22 2.94  28 2.95
                            21 2.95  20 2.95  32 2.98  31 2.98
  20  0.223  0.223  0.453-  36 2.70  23 2.91  21 2.91  11 2.91  13 2.91  29 2.92  31 2.92  10 2.93
                            27 2.95  22 2.95  26 2.95  19 2.95
  21  0.553  0.223  0.453-  36 2.70  20 2.91  23 2.91  14 2.91  11 2.91  30 2.92  32 2.92  12 2.93
                            27 2.95  24 2.95  25 2.95  19 2.95
  22  0.887  0.557  0.453-  24 2.91  27 2.91  18 2.92  15 2.92  13 2.93  25 2.94  19 2.94  33 2.95
                            31 2.95  23 2.95  20 2.95  35 2.95
  23  0.223  0.553  0.453-  36 2.70  20 2.91  21 2.91  13 2.91  14 2.91  33 2.92  34 2.92  16 2.93
                            22 2.95  24 2.95  25 2.95  26 2.95
  24  0.557  0.557  0.453-  27 2.91  22 2.91  15 2.92  17 2.92  14 2.93  26 2.94  19 2.94  32 2.95
                            34 2.95  21 2.95  23 2.95  35 2.95
  25  0.889  0.889  0.454-  16 2.94  12 2.94  18 2.94  19 2.94  26 2.94  22 2.94  27 2.94  28 2.95
                            23 2.95  21 2.95  33 2.98  30 2.98
  26  0.222  0.889  0.454-  10 2.94  16 2.94  17 2.94  19 2.94  25 2.94  27 2.94  24 2.94  28 2.95
                            20 2.95  23 2.95  29 2.98  34 2.98
  27  0.557  0.887  0.453-  24 2.91  22 2.91  17 2.92  18 2.92  11 2.93  26 2.94  25 2.94  29 2.95
                            30 2.95  20 2.95  21 2.95  35 2.95
  28  0.000  0.000  0.563-  25 2.95  19 2.95  26 2.95  34 2.98  32 2.98  33 2.98  30 2.98  31 2.98
                            29 2.98
  29  0.333  0.010  0.562-  30 2.85  31 2.85  36 2.87  20 2.92  27 2.95  26 2.98  35 2.98  28 2.98
                            34 3.11
  30  0.657  0.010  0.562-  29 2.85  32 2.85  36 2.87  21 2.92  27 2.95  25 2.98  35 2.98  28 2.98
                            33 3.11
  31  0.010  0.333  0.562-  33 2.85  29 2.85  36 2.87  20 2.92  22 2.95  19 2.98  35 2.98  28 2.98
                            32 3.11
  32  0.657  0.333  0.562-  34 2.85  30 2.85  36 2.87  21 2.92  24 2.95  19 2.98  35 2.98  28 2.98
                            31 3.11
  33  0.010  0.657  0.562-  31 2.85  34 2.85  36 2.87  23 2.92  22 2.95  25 2.98  35 2.98  28 2.98
                            30 3.11
  34  0.333  0.657  0.562-  32 2.85  33 2.85  36 2.87  23 2.92  24 2.95  26 2.98  35 2.98  28 2.98
                            29 3.11
  35  0.667  0.667  0.563-  24 2.95  27 2.95  22 2.95  29 2.98  34 2.98  32 2.98  31 2.98  30 2.98
                            33 2.98
  36  0.333  0.333  0.548-  37 1.60  20 2.70  23 2.70  21 2.70  33 2.87  31 2.87  29 2.87  30 2.87
                            34 2.87  32 2.87
  37  0.333  0.333  0.620-  36 1.60

  LATTYP: Found a hexagonal cell.
 ALAT       =     8.8135128021
 C/A-ratio  =     2.5184286595

  Lattice vectors:

 A1 = (  -4.4067569092,  -7.6327256898,   0.0000000000)
 A2 = (   8.8135128021,   0.0000000000,   0.0000000000)
 A3 = (   0.0000000000,   0.0000000000,  22.1962032318)

Analysis of symmetry for initial positions (statically):
 Subroutine PRICEL returns:
 Original cell was already a primitive cell.

 Routine SETGRP: Setting up the symmetry group for a
 hexagonal supercell.

 Subroutine GETGRP returns: Found  6 space group operations
 (whereof  6 operations were pure point group operations)
 out of a pool of 24 trial point group operations.

The static configuration has the point symmetry C_3v.

Analysis of symmetry for dynamics (positions and initial velocities):
 Subroutine PRICEL returns:
 Original cell was already a primitive cell.

[...]

The dynamic configuration has the point symmetry C_3v.

Analysis of constrained symmetry for selective dynamics:
 Subroutine PRICEL returns:
 Original cell was already a primitive cell.

 Routine SETGRP: Setting up the symmetry group for a
 hexagonal supercell.

 Subroutine GETGRP returns: Found  6 space group operations
[...]
     24      -5.1365      2.00000
     25      -5.1100      2.00000
     26      -5.1035      2.00000
     27      -5.0608      2.00000
     28      -4.9873      2.00000
     29      -4.9437      2.00000
     30      -4.8385      2.00000
     31      -4.8328      2.00000
     32      -4.8199      2.00000
     33      -4.8071      2.00000
     34      -4.7944      2.00000
     35      -4.7137      2.00000
     36      -4.6538      2.00000
     37      -4.6312      2.00000
     38      -4.6136      2.00000
     39      -4.5962      2.00000
     40      -4.5484      2.00000
     41      -4.4702      2.00000
     42      -4.4398      2.00000
     43      -4.4216      2.00000
     44      -4.3665      2.00000
     45      -4.3567      2.00000
     46      -4.3320      2.00000
     47      -4.2561      2.00000
     48      -4.2417      2.00000
     49      -4.2005      2.00000
     50      -4.1897      2.00000
     51      -4.1758      2.00000
     52      -4.1542      2.00000
     53      -4.1438      2.00000
     54      -4.1272      2.00000
     55      -4.1053      2.00000
     56      -4.0656      2.00000
     57      -4.0456      2.00000
     58      -4.0116      2.00000
     59      -4.0036      2.00000
     60      -3.9926      2.00000
[...]
    238       6.4208      0.00000
    239       6.4332      0.00000
    240       6.4711      0.00000
    241       6.5140      0.00000
    242       6.7414      0.00000
    243       6.7735      0.00000
    244       6.7872      0.00000
    245       6.8087      0.00000
    246       7.1047      0.00000
    247       7.1305      0.00000
    248       7.2640      0.00000
    249       7.4346      0.00000
    250       7.5979      0.00000
    251       7.7206      0.00000
    252       7.7322      0.00000

 soft charge-density along one line, spin component           1
         0         1         2         3         4         5         6         7         8         9
 total charge-density along one line

------------------------ aborting loop because EDIFF is reached ----------------------------------------

 total charge

# of ion       s       p       d       tot
    1        0.546   0.238   8.768   9.551
    2        0.543   0.241   8.764   9.548
    3        0.543   0.241   8.764   9.548
    4        0.543   0.241   8.764   9.548
    5        0.544   0.241   8.762   9.547
    6        0.543   0.241   8.764   9.548
    7        0.543   0.241   8.764   9.548
    8        0.543   0.241   8.764   9.548
    9        0.541   0.241   8.764   9.546
   10        0.522   0.308   8.771   9.600
   11        0.518   0.311   8.774   9.603
   12        0.522   0.308   8.771   9.600
   13        0.518   0.311   8.774   9.603
   14        0.518   0.311   8.774   9.603
   15        0.516   0.309   8.775   9.599
   16        0.522   0.308   8.771   9.600
   17        0.516   0.309   8.775   9.599
   18        0.516   0.309   8.775   9.599
   19        0.515   0.300   8.774   9.589
   20        0.546   0.332   8.751   9.629
   21        0.546   0.332   8.751   9.629
   22        0.510   0.309   8.774   9.594
   23        0.546   0.332   8.751   9.629
   24        0.510   0.309   8.774   9.594
   25        0.515   0.300   8.774   9.589
   26        0.515   0.300   8.774   9.589
   27        0.510   0.309   8.774   9.594
   28        0.540   0.222   8.771   9.532
   29        0.538   0.235   8.771   9.544
   30        0.538   0.235   8.771   9.544
   31        0.538   0.235   8.771   9.544
   32        0.538   0.235   8.771   9.544
   33        0.538   0.235   8.771   9.544
   34        0.538   0.235   8.771   9.544
   35        0.534   0.223   8.770   9.527
   36        0.438   0.557   6.386   7.381
   37        1.615   3.226   0.000   4.841
tot         20.625  13.410 313.286 347.321

  FORCE on cell =-STRESS in cart. coord.  units (eV):
  Direction    XX          YY          ZZ          XY          YZ          ZX
  Alpha Z  1019.62874  1019.62874  1019.62874
  Ewald  120108.47835120108.47879************    -0.00031    -0.00008    -0.00012
  Hartree128900.78258128900.78260************     0.00001    -0.00002    -0.00002
  E(xc)   -1796.12738 -1796.12736 -1802.51117    -0.00001     0.00000     0.00001
  Local  ************************261423.63660     0.00203     0.00002    -0.00002
  n-local  -131.33282   -82.60316   -80.37381    23.69649    -1.41444     1.58998
  augment  2413.70843  2413.71000  2419.86344    -0.00136     0.00002     0.00007
  Kinetic  5550.82406  5560.20283  5584.50248     5.05945     0.36965     0.35100
  Fock        0.00000     0.00000     0.00000     0.00000     0.00000     0.00000
  Total     -20.61058   -20.61058     1.41952    -0.00000    -0.00000    -0.00000
  in kB     -22.11533   -22.11533     1.52316    -0.00000    -0.00000    -0.00000

 VOLUME and BASIS-vectors are now :
  energy-cutoff  :      500.00
  volume of cell :     1493.16
      direct lattice vectors                 reciprocal lattice vectors
     8.813512802  0.000000000  0.000000000     0.113462137 -0.065507406  0.000000000
     4.406756909  7.632725690  0.000000000     0.000000000  0.131014796  0.000000000
     0.000000000  0.000000000 22.196203232     0.000000000  0.000000000  0.045052750

  length of vectors
     8.813512802  8.813512802 22.196203232     0.131014796  0.131014796  0.045052750

 FORCES acting on ions
    electron-ion (+dipol)            ewald-force                    non-local-force                 convergence-correction
   -.195E-04 -.162E-04 0.249E+04   0.519E-04 0.434E-04 -.249E+04   0.373E-17 0.169E-17 -.741E+00   -.238E-03 -.150E-03 -.335E+00
   0.583E+00 0.488E+00 0.249E+04   -.680E+00 -.513E+00 -.249E+04   0.309E-01 0.644E-01 -.321E+00   0.647E-01 -.291E-01 -.356E+00
   -.583E+00 0.488E+00 0.249E+04   0.680E+00 -.513E+00 -.249E+04   -.309E-01 0.644E-01 -.321E+00   -.644E-01 -.272E-01 -.355E+00
   0.714E+00 0.261E+00 0.249E+04   -.785E+00 -.332E+00 -.249E+04   0.712E-01 -.540E-02 -.321E+00   0.723E-02 0.706E-01 -.356E+00
   0.963E-05 -.227E-04 0.250E+04   0.951E-04 0.173E-05 -.250E+04   0.136E-17 0.136E-17 -.276E+00   0.428E-02 0.260E-02 -.302E+00
   -.714E+00 0.261E+00 0.249E+04   0.784E+00 -.332E+00 -.249E+04   -.712E-01 -.540E-02 -.321E+00   -.877E-02 0.715E-01 -.355E+00
   0.131E+00 -.749E+00 0.249E+04   -.104E+00 0.845E+00 -.249E+04   0.403E-01 -.590E-01 -.321E+00   -.557E-01 -.422E-01 -.355E+00
   -.131E+00 -.749E+00 0.249E+04   0.104E+00 0.846E+00 -.249E+04   -.403E-01 -.590E-01 -.321E+00   0.575E-01 -.433E-01 -.355E+00
   0.195E-04 -.415E-04 0.249E+04   0.166E-03 -.201E-04 -.249E+04   -.142E-17 0.279E-18 -.459E+00   -.459E-02 -.237E-02 -.310E+00
   0.543E+01 0.314E+01 0.848E+03   -.515E+01 -.297E+01 -.847E+03   -.273E+00 -.158E+00 -.573E+00   0.983E-03 0.451E-03 -.178E+00
   0.151E-04 0.676E+01 0.858E+03   0.147E-03 -.687E+01 -.858E+03   0.565E-08 0.848E-01 -.284E+00   0.405E-02 -.228E-01 -.182E+00
   -.543E+01 0.314E+01 0.848E+03   0.515E+01 -.297E+01 -.847E+03   0.273E+00 -.158E+00 -.573E+00   -.234E-02 0.161E-02 -.178E+00
   0.585E+01 -.338E+01 0.858E+03   -.595E+01 0.344E+01 -.858E+03   0.734E-01 -.424E-01 -.284E+00   -.174E-01 0.152E-01 -.182E+00
   -.585E+01 -.338E+01 0.858E+03   0.595E+01 0.344E+01 -.858E+03   -.734E-01 -.424E-01 -.284E+00   0.251E-01 0.143E-01 -.183E+00
   0.308E-04 0.298E+01 0.851E+03   0.236E-03 -.312E+01 -.850E+03   0.136E-09 0.204E-02 -.458E+00   -.224E-02 0.930E-01 -.178E+00
   -.215E-04 -.628E+01 0.848E+03   0.163E-03 0.594E+01 -.847E+03   0.210E-07 0.316E+00 -.573E+00   -.173E-04 -.286E-02 -.178E+00
   0.258E+01 -.149E+01 0.851E+03   -.270E+01 0.156E+01 -.850E+03   0.176E-02 -.102E-02 -.458E+00   0.796E-01 -.480E-01 -.178E+00
   -.258E+01 -.149E+01 0.851E+03   0.270E+01 0.156E+01 -.850E+03   -.176E-02 -.102E-02 -.458E+00   -.792E-01 -.460E-01 -.178E+00
   -.407E-04 0.294E+01 -.833E+03   0.536E-04 -.317E+01 0.832E+03   0.622E-08 0.934E-01 0.628E+00   -.318E-02 0.111E+00 0.107E+00
   0.328E+02 0.189E+02 -.779E+03   -.318E+02 -.183E+02 0.780E+03   -.984E+00 -.568E+00 -.662E+00   -.264E-01 -.154E-01 0.921E-01
   -.328E+02 0.189E+02 -.779E+03   0.318E+02 -.183E+02 0.780E+03   0.984E+00 -.568E+00 -.662E+00   0.221E-01 -.150E-01 0.919E-01
   0.815E+01 -.470E+01 -.817E+03   -.839E+01 0.484E+01 0.816E+03   0.354E+00 -.205E+00 0.628E+00   -.721E-01 0.389E-01 0.109E+00
   -.104E-04 -.378E+02 -.779E+03   0.143E-03 0.367E+02 0.780E+03   0.756E-07 0.114E+01 -.662E+00   -.218E-02 0.266E-01 0.919E-01
   -.815E+01 -.470E+01 -.817E+03   0.839E+01 0.484E+01 0.816E+03   -.354E+00 -.205E+00 0.628E+00   0.669E-01 0.386E-01 0.109E+00
   -.255E+01 -.147E+01 -.833E+03   0.275E+01 0.159E+01 0.832E+03   -.809E-01 -.467E-01 0.628E+00   -.996E-01 -.576E-01 0.107E+00
   0.255E+01 -.147E+01 -.833E+03   -.275E+01 0.159E+01 0.832E+03   0.809E-01 -.467E-01 0.628E+00   0.950E-01 -.583E-01 0.107E+00
   0.120E-04 0.941E+01 -.817E+03   0.196E-03 -.969E+01 0.816E+03   0.272E-07 0.409E+00 0.628E+00   -.290E-02 -.820E-01 0.109E+00
   -.131E-04 -.139E-04 -.247E+04   0.302E-04 0.348E-04 0.247E+04   -.714E-17 -.112E-17 0.591E+00   -.351E-04 -.382E-04 0.337E+00
   0.399E+02 0.668E+02 -.245E+04   -.398E+02 -.668E+02 0.245E+04   -.312E+00 -.383E+00 0.783E+00   0.622E-01 -.204E-01 0.320E+00
   -.399E+02 0.668E+02 -.245E+04   0.398E+02 -.668E+02 0.245E+04   0.312E+00 -.383E+00 0.783E+00   -.619E-01 -.187E-01 0.320E+00
   0.778E+02 0.113E+01 -.245E+04   -.777E+02 -.110E+01 0.245E+04   -.488E+00 -.789E-01 0.783E+00   0.135E-01 0.640E-01 0.320E+00
   -.778E+02 0.113E+01 -.245E+04   0.777E+02 -.110E+01 0.245E+04   0.488E+00 -.789E-01 0.783E+00   -.147E-01 0.648E-01 0.320E+00
   0.379E+02 -.679E+02 -.245E+04   -.379E+02 0.679E+02 0.245E+04   -.176E+00 0.462E+00 0.783E+00   -.471E-01 -.442E-01 0.320E+00
   -.379E+02 -.679E+02 -.245E+04   0.379E+02 0.679E+02 0.245E+04   0.176E+00 0.462E+00 0.783E+00   0.488E-01 -.451E-01 0.320E+00
   0.348E-04 -.278E-04 -.248E+04   0.141E-03 -.502E-04 0.247E+04   0.919E-18 0.498E-17 0.601E+00   -.442E-02 -.226E-02 0.268E+00
   -.286E-04 -.211E-04 -.147E+04   0.846E-04 0.789E-05 0.147E+04   -.143E-17 -.391E-17 0.116E+01   0.494E-02 0.302E-02 0.502E+00
   0.182E-03 -.959E-04 -.170E+04   0.287E-04 0.182E-05 0.173E+04   0.453E-18 -.728E-18 -.283E+02   0.373E-02 0.228E-02 0.167E+00
   -.581E-03 -.873E-03 0.279E+02   0.113E-12 0.336E-12 -.182E-11   -.278E-16 -.277E-15 -.268E+02   -.882E-02 -.428E-02 -.574E+00

 POSITION                                       TOTAL-FORCE (eV/Angst)
      0.00000      0.00000      5.28038        -0.000000      0.000000     -0.121398
      2.93784      0.00000      5.28038        -0.000999      0.010910     -0.055629
      5.87568      0.00000      5.28038         0.000999      0.010910     -0.055629
      1.46892      2.54424      5.28038         0.008949     -0.006320     -0.055629
      4.40676      2.54424      5.28038        -0.000000      0.000000     -0.087486
      7.34459      2.54424      5.28038        -0.008949     -0.006320     -0.055629
      2.93784      5.08848      5.28038         0.009948     -0.004590     -0.055629
      5.87568      5.08848      5.28038        -0.009948     -0.004590     -0.055629
      8.81351      5.08848      5.28038        -0.000000     -0.000000     -0.085031
      1.46892      0.84808      7.67911         0.016466      0.009506      0.141197
      4.40676      0.84808      7.67911        -0.000000     -0.055732      0.055088
      7.34459      0.84808      7.67911        -0.016466      0.009506      0.141197
      2.93784      3.39232      7.67911        -0.048266      0.027866      0.055088
      5.87568      3.39232      7.67911         0.048266      0.027866      0.055088
      8.81351      3.39232      7.67911        -0.000000     -0.039381      0.101375
      4.40676      5.93656      7.67911        -0.000000     -0.019013      0.141197
      7.34459      5.93656      7.67911        -0.034105      0.019691      0.101375
     10.28243      5.93656      7.67911         0.034105      0.019691      0.101375
      8.81351      1.69603     10.07519        -0.000000     -0.021287     -0.005643
      2.95264      1.70471     10.05068        -0.009250     -0.005341     -0.067695
      5.86088      1.70471     10.05068         0.009250     -0.005341     -0.067695
     10.26798      4.24875     10.06116         0.045848     -0.026471      0.002798
      4.40676      4.22331     10.05068         0.000000      0.010681     -0.067695
      7.35905      4.24875     10.06116        -0.045848     -0.026471      0.002798
     11.75147      6.78471     10.07519         0.018435      0.010644     -0.005643
      5.87556      6.78471     10.07519        -0.018435      0.010644     -0.005643
      8.81351      6.76796     10.06116         0.000000      0.052941      0.002798
      0.00000      0.00000     12.48698        -0.000000     -0.000000     -0.024877
      2.98147      0.07441     12.46921        -0.183833     -0.350439     -0.163063
      5.83205      0.07441     12.46921         0.183833     -0.350439     -0.163063
      1.55518      2.54482     12.46921        -0.395406      0.016016     -0.163063
      7.25833      2.54482     12.46921         0.395406      0.016016     -0.163063
      2.98047      5.01349     12.46921        -0.211573      0.334423     -0.163063
      5.83305      5.01349     12.46921         0.211573      0.334423     -0.163063
      8.81351      5.08848     12.49182        -0.000000      0.000000      0.004270
      4.40676      2.54424     12.16047        -0.000000      0.000000      0.943101
      4.40676      2.54424     13.76362        -0.000000     -0.000000      0.002216
    total drift:                               -0.009397     -0.005153      0.509951

  FREE ENERGIE OF THE ION-ELECTRON SYSTEM (eV)
  free  energy   TOTEN  =      -119.39040157 eV

  energy  without entropy=     -119.39040157  energy(sigma->0) =     -119.39040157

 stress matrix after NEB project (eV)
    -20.61058     -0.00000     -0.00000
     -0.00000    -20.61058      0.00000
     -0.00000     -0.00000      1.41952
  FORCES: max atom, RMS     0.002216    0.000364
  FORCE total and by dimension    0.002216    0.002216
  Stress total and by dimension   29.182304   20.610579
|           W    W    AA    RRRRR   N    N  II  N    N   GGGG   !!!           |
|           W    W   A  A   R    R  NN   N  II  NN   N  G    G  !!!           |
|           W    W  A    A  R    R  N N  N  II  N N  N  G       !!!           |
|           W WW W  AAAAAA  RRRRR   N  N N  II  N  N N  G  GGG   !            |
|           WW  WW  A    A  R   R   N   NN  II  N   NN  G    G                |
|           W    W  A    A  R    R  N    N  II  N    N   GGGG   !!!           |
|     Tetrahedron method does not include variations of the Fermi             |
|     occupations, so forces and stress will be inaccurate. We suggest        |
|     using a different smearing scheme ISMEAR = 1 or 2 for metals in         |
|     relaxations.                                                            |

 total charge

# of ion       s       p       d       tot
    1        0.546   0.238   8.768   9.551
    2        0.543   0.241   8.764   9.548
    3        0.543   0.241   8.764   9.548
    4        0.543   0.241   8.764   9.548
    5        0.544   0.241   8.762   9.547
    6        0.543   0.241   8.764   9.548
    7        0.543   0.241   8.764   9.548
    8        0.543   0.241   8.764   9.548
    9        0.541   0.241   8.764   9.546
   10        0.522   0.308   8.771   9.600
   11        0.518   0.311   8.774   9.603
   12        0.522   0.308   8.771   9.600
   13        0.518   0.311   8.774   9.603
   14        0.518   0.311   8.774   9.603
   15        0.516   0.309   8.775   9.599
   16        0.522   0.308   8.771   9.600
   17        0.516   0.309   8.775   9.599
   18        0.516   0.309   8.775   9.599
   19        0.515   0.300   8.774   9.589
   20        0.546   0.332   8.751   9.629
   21        0.546   0.332   8.751   9.629
   22        0.510   0.309   8.774   9.594
   23        0.546   0.332   8.751   9.629
   24        0.510   0.309   8.774   9.594
   25        0.515   0.300   8.774   9.589
   26        0.515   0.300   8.774   9.589
   27        0.510   0.309   8.774   9.594
   28        0.540   0.222   8.771   9.532
   29        0.538   0.235   8.771   9.544
   30        0.538   0.235   8.771   9.544
   31        0.538   0.235   8.771   9.544
   32        0.538   0.235   8.771   9.544
   33        0.538   0.235   8.771   9.544
   34        0.538   0.235   8.771   9.544
   35        0.534   0.223   8.770   9.527
   36        0.438   0.557   6.386   7.381
   37        1.615   3.226   0.000   4.841
tot         20.625  13.410 313.286 347.321

 BZINTS: Fermi energy:    0.626197;  399.000000 electrons
         Band energy:-0.125201E+04;  BLOECHL correction:   -0.060006