 vasp.6.2.0 18Jan21 (build Jun 12 2021 23:27:24) complex

 executed on             LinuxIFC date 2022.05.27  05:21:20

 INCAR:
   ISMEAR = -5
   SIGMA = 0.1
   ISPIN = 1
   EDIFF = 1.d-5
   EDIFFG = -0.01
   NSW = 0
   NELM = 150
   ENCUT = 500
   ISIF = 2
   IBRION = 2
   LREAL = Auto
   ALGO = Fast
   ICHARG = 11
   LORBIT = 10
   LCHARG = .F.
   LWAVE = .F.

 POTCAR:    PAW_PBE Au 04Oct2007
 POTCAR:    PAW_PBE Os 17Jan2003
 POTCAR:    PAW_PBE C 08Apr2002
 POTCAR:    PAW_PBE O 08Apr2002
|           W    W    AA    RRRRR   N    N  II  N    N   GGGG   !!!           |
|           W    W   A  A   R    R  NN   N  II  NN   N  G    G  !!!           |
|           W    W  A    A  R    R  N N  N  II  N N  N  G       !!!           |
|           W WW W  AAAAAA  RRRRR   N  N N  II  N  N N  G  GGG   !            |
|           WW  WW  A    A  R   R   N   NN  II  N   NN  G    G                |
|           W    W  A    A  R    R  N    N  II  N    N   GGGG   !!!           |
|     For optimal performance we recommend to set                             |
|       NCORE = 2 up to number-of-cores-per-socket                            |
|     This setting can greatly improve the performance of VASP for DFT.       |
|     The default, NCORE=1 might be grossly inefficient on modern             |
|     multi-core architectures or massively parallel machines. Do your        |
|     Unfortunately you need to use the default for GW and RPA                |
|     calculations (for HF NCORE is supported but not extensively tested      |
|     yet).                                                                   |

 POTCAR:    PAW_PBE Au 04Oct2007
   VRHFIN =Au: s1d10

   TITEL  = PAW_PBE Au 04Oct2007
   POMASS =  196.966; ZVAL   =   11.000    mass and valenz
   ENMAX  =  229.943; ENMIN  =  172.457 eV

 POTCAR:    PAW_PBE Os 17Jan2003
   VRHFIN =Os: 6s5d

   TITEL  = PAW_PBE Os 17Jan2003
   POMASS =  190.200; ZVAL   =    8.000    mass and valenz
   ENMAX  =  228.022; ENMIN  =  171.017 eV

 POTCAR:    PAW_PBE C 08Apr2002
   VRHFIN =C: s2p2

   TITEL  = PAW_PBE C 08Apr2002
   POMASS =   12.011; ZVAL   =    4.000    mass and valenz
   ENMAX  =  400.000; ENMIN  =  300.000 eV

 POTCAR:    PAW_PBE O 08Apr2002
   VRHFIN =O: s2p4

   TITEL  = PAW_PBE O 08Apr2002
   POMASS =   16.000; ZVAL   =    6.000    mass and valenz
   ENMAX  =  400.000; ENMIN  =  300.000 eV

 Optimization of the real space projectors (new method)

 maximal supplied QI-value         = 15.12
 optimisation between [QCUT,QGAM] = [ 11.34, 22.83] = [ 36.00,145.93] Ry
 Optimized for a Real-space Cutoff    1.39 Angstroem

   l    n(q)    QCUT    max X(q) W(low)/X(q) W(high)/X(q)  e(spline)
   2      9    11.338    60.898    0.39E-03    0.42E-03    0.21E-06
   2      9    11.338    58.894    0.40E-03    0.42E-03    0.22E-06
   0      9    11.338   109.617    0.13E-03    0.20E-04    0.13E-06
   0      9    11.338    75.026    0.13E-03    0.20E-04    0.13E-06
   1      9    11.338    16.344    0.33E-04    0.24E-03    0.18E-06
   1      9    11.338    10.160    0.26E-04    0.19E-03    0.15E-06
 Optimization of the real space projectors (new method)

[...]

   l    n(q)    QCUT    max X(q) W(low)/X(q) W(high)/X(q)  e(spline)
   0      7    11.310   115.676    0.43E-03    0.13E-02    0.19E-06
   0      7    11.310    87.132    0.43E-03    0.13E-02    0.18E-06
   1      6    11.310     4.429    0.42E-03    0.74E-03    0.11E-06
   1      6    11.310     2.733    0.34E-03    0.55E-03    0.92E-07
 Optimization of the real space projectors (new method)

 maximal supplied QI-value         = 24.76
 optimisation between [QCUT,QGAM] = [ 11.39, 22.77] = [ 36.31,145.25] Ry
 Optimized for a Real-space Cutoff    1.00 Angstroem

   l    n(q)    QCUT    max X(q) W(low)/X(q) W(high)/X(q)  e(spline)
   0      7    11.387    20.381    0.39E-03    0.13E-02    0.15E-06
   0      7    11.387    15.268    0.42E-03    0.14E-02    0.17E-06
   1      6    11.387     5.964    0.41E-03    0.11E-02    0.17E-06
   1      6    11.387     5.382    0.39E-03    0.87E-03    0.15E-06
  PAW_PBE Au 04Oct2007                  :
  PAW_PBE Os 17Jan2003                  :
  PAW_PBE C 08Apr2002                   :
  PAW_PBE O 08Apr2002                   :

 POSCAR: Au-Os-CO
  positions in direct lattice
  velocities in cartesian coordinates
 exchange correlation table for  LEXCH =        8
   RHO(1)=    0.500       N(1)  =     2000
   RHO(2)=  100.500       N(2)  =     4000

 VTST: version 3.2, (02/03/18)

 CHAIN: initializing optimizer

 OPT: Using VASP Conjugate-Gradient optimizer
 CHAIN: Read ICHAIN            0

 POSCAR: Au-Os-CO
  positions in direct lattice
  velocities in cartesian coordinates

 ion  position               nearest neighbor table
   1  0.000  0.000  0.238-  16 2.94  12 2.94   6 2.94   8 2.94   7 2.94   3 2.94  10 2.94   4 2.94
                             2 2.94
   2  0.333  0.000  0.238-   9 2.94  11 2.94  17 2.94  10 2.94   8 2.94   4 2.94   5 2.94   1 2.94
                             3 2.94
   3  0.667  0.000  0.238-   7 2.94  18 2.94  12 2.94   1 2.94  11 2.94   5 2.94   6 2.94   9 2.94
                             2 2.94
   4  0.000  0.333  0.238-  10 2.94   6 2.94   5 2.94  13 2.94   2 2.94  15 2.94   9 2.94   1 2.94
                             7 2.94
   5  0.333  0.333  0.238-  13 2.94   7 2.94  11 2.94   4 2.94   2 2.94  14 2.94   3 2.94   8 2.94
                             6 2.94
   6  0.667  0.333  0.238-  15 2.94  14 2.94   1 2.94  12 2.94   4 2.94   9 2.94   8 2.94   3 2.94
                             5 2.94
   7  0.000  0.667  0.238-  18 2.94   3 2.94  16 2.94   5 2.94   1 2.94  13 2.94   8 2.94   4 2.94
                             9 2.94
   8  0.333  0.667  0.238-   9 2.94  17 2.94   1 2.94   2 2.94  14 2.94  16 2.94   6 2.94   7 2.94
                             5 2.94
   9  0.667  0.667  0.238-   2 2.94   8 2.94  17 2.94   6 2.94  15 2.94   4 2.94   3 2.94  18 2.94
                             7 2.94
  10  0.111  0.111  0.346-  20 2.90  11 2.94  17 2.94   2 2.94   4 2.94   1 2.94  12 2.94  16 2.94
                            13 2.94  15 2.94  26 2.95  19 2.95
  11  0.444  0.111  0.346-  20 2.91  21 2.91  27 2.94  13 2.94   2 2.94  10 2.94  17 2.94   5 2.94
                             3 2.94  18 2.94  14 2.94  12 2.94
  12  0.778  0.111  0.346-  21 2.90  16 2.94  18 2.94   1 2.94  14 2.94  15 2.94   3 2.94   6 2.94
                            10 2.94  11 2.94  25 2.95  19 2.95
  13  0.111  0.444  0.346-  23 2.91  20 2.91  22 2.94   5 2.94  18 2.94  11 2.94   7 2.94   4 2.94
                            16 2.94  10 2.94  14 2.94  15 2.94
  14  0.444  0.444  0.346-  21 2.91  23 2.91  24 2.94  15 2.94   6 2.94  12 2.94   8 2.94  17 2.94
                             5 2.94  16 2.94  13 2.94  11 2.94
  15  0.778  0.444  0.346-  24 2.92  22 2.92  14 2.94   6 2.94  17 2.94  12 2.94   9 2.94   4 2.94
                            10 2.94  13 2.94  18 2.94  19 2.95
  16  0.111  0.778  0.346-  23 2.90  18 2.94  12 2.94   7 2.94   1 2.94   8 2.94  13 2.94  10 2.94
                            14 2.94  17 2.94  25 2.95  26 2.95
  17  0.444  0.778  0.346-  27 2.92  24 2.92   9 2.94  15 2.94   2 2.94  10 2.94  11 2.94   8 2.94
                            14 2.94  16 2.94  18 2.94  26 2.95
  18  0.778  0.778  0.346-  22 2.92  27 2.92  16 2.94   7 2.94  13 2.94  12 2.94   3 2.94  11 2.94
                             9 2.94  15 2.94  17 2.94  25 2.95
  19  0.888  0.223  0.455-  24 2.93  22 2.93  21 2.93  20 2.93  28 2.95  15 2.95  26 2.95  25 2.95
                            10 2.95  12 2.95  32 2.98  31 2.98
  20  0.222  0.222  0.452-  36 2.77  10 2.90  11 2.91  13 2.91  26 2.93  19 2.93  23 2.95  21 2.95
                            27 2.96  22 2.96  29 2.96  31 2.96
  21  0.556  0.222  0.452-  36 2.77  12 2.90  14 2.91  11 2.91  25 2.93  19 2.93  20 2.95  23 2.95
                            27 2.96  24 2.96  30 2.96  32 2.96
  22  0.886  0.557  0.453-  24 2.90  27 2.90  18 2.92  15 2.92  25 2.93  19 2.93  13 2.94  35 2.95
                            23 2.96  20 2.96  33 2.98  31 2.98
  23  0.222  0.556  0.452-  36 2.77  16 2.90  13 2.91  14 2.91  25 2.93  26 2.93  20 2.95  21 2.95
                            22 2.96  24 2.96  33 2.96  34 2.96
  24  0.557  0.557  0.453-  27 2.90  22 2.90  15 2.92  17 2.92  26 2.93  19 2.93  14 2.94  35 2.95
                            21 2.96  23 2.96  32 2.98  34 2.98
  25  0.888  0.888  0.455-  22 2.93  27 2.93  23 2.93  21 2.93  28 2.95  18 2.95  19 2.95  26 2.95
                            16 2.95  12 2.95  33 2.98  30 2.98
  26  0.223  0.888  0.455-  27 2.93  24 2.93  20 2.93  23 2.93  28 2.95  17 2.95  19 2.95  25 2.95
                            10 2.95  16 2.95  29 2.98  34 2.98
  27  0.557  0.886  0.453-  24 2.90  22 2.90  17 2.92  18 2.92  26 2.93  25 2.93  11 2.94  35 2.95
                            20 2.96  21 2.96  29 2.98  30 2.98
  28  0.000  0.000  0.563-  25 2.95  19 2.95  26 2.95  34 2.98  32 2.98  33 2.98  30 2.98  31 2.98
                            29 2.98
  29  0.333  0.009  0.563-  31 2.86  30 2.86  36 2.88  20 2.96  28 2.98  35 2.98  27 2.98  26 2.98
                            34 3.09
  30  0.658  0.009  0.563-  32 2.86  29 2.86  36 2.88  21 2.96  28 2.98  35 2.98  27 2.98  25 2.98
                            33 3.09
  31  0.009  0.333  0.563-  29 2.86  33 2.86  36 2.88  20 2.96  28 2.98  35 2.98  22 2.98  19 2.98
                            32 3.09
  32  0.658  0.333  0.563-  30 2.86  34 2.86  36 2.88  21 2.96  28 2.98  35 2.98  24 2.98  19 2.98
                            31 3.09
  33  0.009  0.658  0.563-  34 2.86  31 2.86  36 2.88  23 2.96  28 2.98  35 2.98  22 2.98  25 2.98
                            30 3.09
  34  0.333  0.658  0.563-  33 2.86  32 2.86  36 2.88  23 2.96  28 2.98  35 2.98  24 2.98  26 2.98
                            29 3.09
  35  0.667  0.667  0.563-  24 2.95  27 2.95  22 2.95  29 2.98  34 2.98  32 2.98  31 2.98  30 2.98
                            33 2.98
  36  0.333  0.333  0.550-  37 1.87  20 2.77  23 2.77  21 2.77  33 2.88  31 2.88  29 2.88  30 2.88
                            34 2.88  32 2.88
  37  0.333  0.333  0.635-  38 1.17  36 1.87
  38  0.333  0.333  0.687-  37 1.17

  LATTYP: Found a hexagonal cell.
 ALAT       =     8.8135128021
 C/A-ratio  =     2.5184286595

  Lattice vectors:

 A1 = (  -4.4067569092,  -7.6327256898,   0.0000000000)
 A2 = (   8.8135128021,   0.0000000000,   0.0000000000)
 A3 = (   0.0000000000,   0.0000000000,  22.1962032318)

Analysis of symmetry for initial positions (statically):
 Subroutine PRICEL returns:
 Original cell was already a primitive cell.

 Routine SETGRP: Setting up the symmetry group for a
 hexagonal supercell.

 Subroutine GETGRP returns: Found  6 space group operations
 (whereof  6 operations were pure point group operations)
 out of a pool of 24 trial point group operations.

The static configuration has the point symmetry C_3v.

Analysis of symmetry for dynamics (positions and initial velocities):
 Subroutine PRICEL returns:
 Original cell was already a primitive cell.

[...]

The dynamic configuration has the point symmetry C_3v.

Analysis of constrained symmetry for selective dynamics:
 Subroutine PRICEL returns:
[...]
     33      -4.8307      2.00000
     34      -4.7737      2.00000
     35      -4.7616      2.00000
     36      -4.7558      2.00000
     37      -4.7212      2.00000
     38      -4.7119      2.00000
     39      -4.7055      2.00000
     40      -4.6143      2.00000
     41      -4.5934      2.00000
     42      -4.5049      2.00000
     43      -4.5038      2.00000
     44      -4.4393      2.00000
     45      -4.3797      2.00000
     46      -4.3453      2.00000
     47      -4.2941      2.00000
     48      -4.2816      2.00000
     49      -4.2675      2.00000
     50      -4.2607      2.00000
     51      -4.1591      2.00000
     52      -4.1317      2.00000
     53      -4.1096      2.00000
     54      -4.0928      2.00000
     55      -4.0770      2.00000
     56      -4.0725      2.00000
     57      -4.0643      2.00000
     58      -4.0279      2.00000
     59      -3.9899      2.00000
     60      -3.9522      2.00000
[...]
    238       6.1444      0.00000
    239       6.4470      0.00000
    240       6.4835      0.00000
    241       6.5597      0.00000
    242       6.5728      0.00000
    243       6.5944      0.00000
    244       6.7961      0.00000
    245       6.8077      0.00000
    246       6.8599      0.00000
    247       6.9059      0.00000
    248       6.9140      0.00000
    249       7.2385      0.00000
    250       7.2752      0.00000
    251       7.3502      0.00000
    252       7.6857      0.00000

 soft charge-density along one line, spin component           1
         0         1         2         3         4         5         6         7         8         9
 total charge-density along one line

------------------------ aborting loop because EDIFF is reached ----------------------------------------

 total charge

# of ion       s       p       d       tot
    1        0.545   0.238   8.769   9.551
    2        0.545   0.240   8.765   9.550
    3        0.545   0.240   8.765   9.550
    4        0.545   0.240   8.765   9.550
    5        0.544   0.242   8.760   9.545
    6        0.545   0.240   8.765   9.550
    7        0.545   0.240   8.765   9.550
    8        0.545   0.240   8.765   9.550
    9        0.541   0.239   8.771   9.551
   10        0.521   0.308   8.768   9.597
   11        0.524   0.307   8.780   9.611
   12        0.521   0.308   8.768   9.597
   13        0.524   0.307   8.780   9.611
   14        0.524   0.307   8.780   9.611
   15        0.514   0.309   8.776   9.599
   16        0.521   0.308   8.768   9.597
   17        0.514   0.309   8.776   9.599
   18        0.514   0.309   8.776   9.599
   19        0.517   0.299   8.773   9.589
   20        0.552   0.334   8.750   9.636
   21        0.552   0.334   8.750   9.636
   22        0.507   0.309   8.777   9.593
   23        0.552   0.334   8.750   9.636
   24        0.507   0.309   8.777   9.593
   25        0.517   0.299   8.773   9.589
   26        0.517   0.299   8.773   9.589
   27        0.507   0.309   8.777   9.593
   28        0.538   0.226   8.769   9.532
   29        0.549   0.249   8.753   9.551
   30        0.549   0.249   8.753   9.551
   31        0.549   0.249   8.753   9.551
   32        0.549   0.249   8.753   9.551
   33        0.549   0.249   8.753   9.551
   34        0.549   0.249   8.753   9.551
   35        0.532   0.226   8.769   9.527
   36        0.571   0.556   6.069   7.196
   37        0.951   1.579   0.000   2.530
   38        1.611   3.530   0.000   5.141
tot         21.800  15.365 312.886 350.051

  FORCE on cell =-STRESS in cart. coord.  units (eV):
  Direction    XX          YY          ZZ          XY          YZ          ZX
  Alpha Z  1048.59447  1048.59447  1048.59447
  Ewald  117281.23003117281.23046************    -0.00032    -0.00008    -0.00013
  Hartree126161.39537126161.39538************     0.00001    -0.00002    -0.00004
  E(xc)   -1808.97248 -1808.97256 -1815.26043     0.00007    -0.00001    -0.00001
  Local  ************************255509.91109     0.00207     0.00001    -0.00001
  n-local  -128.96219   -77.56342   -80.85965    25.32317    -1.55719     1.57409
  augment  2389.45026  2389.45182  2403.92932    -0.00134    -0.00000     0.00003
  Kinetic  5657.42291  5671.80993  5678.09718     7.99283    -0.17154     0.58548
  Fock        0.00000     0.00000     0.00000     0.00000     0.00000     0.00000
  Total     -20.44238   -20.44237     3.39767    -0.00000     0.00000    -0.00000
  in kB     -21.93485   -21.93484     3.64572    -0.00000     0.00000    -0.00000

 VOLUME and BASIS-vectors are now :
  energy-cutoff  :      500.00
  volume of cell :     1493.16
      direct lattice vectors                 reciprocal lattice vectors
     8.813512802  0.000000000  0.000000000     0.113462137 -0.065507406  0.000000000
     4.406756909  7.632725690  0.000000000     0.000000000  0.131014796  0.000000000
     0.000000000  0.000000000 22.196203232     0.000000000  0.000000000  0.045052750

  length of vectors
     8.813512802  8.813512802 22.196203232     0.131014796  0.131014796  0.045052750

 FORCES acting on ions
    electron-ion (+dipol)            ewald-force                    non-local-force                 convergence-correction
   -.195E-04 -.162E-04 0.249E+04   0.520E-04 0.434E-04 -.249E+04   0.562E-18 -.218E-17 -.998E+00   -.203E-03 -.130E-03 -.304E+00
   0.728E+00 0.288E+00 0.249E+04   -.783E+00 -.404E+00 -.249E+04   0.506E-01 0.762E-01 -.293E+00   0.975E-02 0.573E-01 -.358E+00
   -.728E+00 0.288E+00 0.249E+04   0.783E+00 -.404E+00 -.249E+04   -.506E-01 0.762E-01 -.293E+00   -.946E-02 0.593E-01 -.358E+00
   0.614E+00 0.487E+00 0.249E+04   -.742E+00 -.476E+00 -.249E+04   0.913E-01 0.569E-02 -.293E+00   0.546E-01 -.203E-01 -.358E+00
   0.873E-05 -.233E-04 0.249E+04   0.951E-04 0.175E-05 -.249E+04   -.374E-17 -.216E-18 -.122E+00   0.430E-02 0.262E-02 -.324E+00
   -.614E+00 0.487E+00 0.249E+04   0.742E+00 -.476E+00 -.249E+04   -.913E-01 0.569E-02 -.293E+00   -.561E-01 -.193E-01 -.357E+00
   -.114E+00 -.775E+00 0.249E+04   0.417E-01 0.881E+00 -.249E+04   0.407E-01 -.819E-01 -.293E+00   0.467E-01 -.379E-01 -.358E+00
   0.114E+00 -.775E+00 0.249E+04   -.418E-01 0.881E+00 -.249E+04   -.407E-01 -.819E-01 -.293E+00   -.448E-01 -.389E-01 -.357E+00
   0.194E-04 -.416E-04 0.249E+04   0.166E-03 -.201E-04 -.249E+04   -.388E-18 0.129E-17 -.661E+00   -.464E-02 -.240E-02 -.399E+00
   0.788E+01 0.455E+01 0.857E+03   -.756E+01 -.436E+01 -.857E+03   -.358E+00 -.207E+00 -.712E+00   0.220E-01 0.126E-01 0.102E+00
   0.145E-04 0.481E+01 0.865E+03   0.148E-03 -.496E+01 -.865E+03   0.565E-08 0.848E-01 -.275E+00   0.380E-02 0.267E-02 0.961E-01
   -.788E+01 0.455E+01 0.857E+03   0.756E+01 -.436E+01 -.857E+03   0.358E+00 -.207E+00 -.712E+00   -.233E-01 0.141E-01 0.101E+00
   0.417E+01 -.241E+01 0.865E+03   -.429E+01 0.248E+01 -.865E+03   0.735E-01 -.424E-01 -.275E+00   0.450E-02 0.223E-02 0.961E-01
   -.417E+01 -.241E+01 0.865E+03   0.429E+01 0.248E+01 -.865E+03   -.735E-01 -.424E-01 -.275E+00   0.334E-02 0.179E-02 0.960E-01
   0.308E-04 0.483E+01 0.861E+03   0.236E-03 -.487E+01 -.860E+03   0.652E-09 0.980E-02 -.515E+00   -.241E-02 -.277E-01 0.900E-01
   -.215E-04 -.910E+01 0.857E+03   0.163E-03 0.873E+01 -.857E+03   0.275E-07 0.413E+00 -.712E+00   0.297E-03 -.273E-01 0.101E+00
   0.418E+01 -.241E+01 0.861E+03   -.422E+01 0.243E+01 -.860E+03   0.849E-02 -.490E-02 -.515E+00   -.250E-01 0.122E-01 0.901E-01
   -.418E+01 -.241E+01 0.861E+03   0.422E+01 0.243E+01 -.860E+03   -.849E-02 -.490E-02 -.515E+00   0.249E-01 0.141E-01 0.898E-01
   -.423E-04 0.482E+01 -.811E+03   0.536E-04 -.480E+01 0.810E+03   -.249E-08 -.373E-01 0.565E+00   -.530E-03 0.773E-02 0.533E+00
   0.128E+02 0.741E+01 -.759E+03   -.120E+02 -.693E+01 0.759E+03   -.106E+01 -.609E+00 -.978E+00   0.165E+00 0.953E-01 0.833E+00
   -.128E+02 0.741E+01 -.759E+03   0.120E+02 -.693E+01 0.759E+03   0.106E+01 -.609E+00 -.978E+00   -.164E+00 0.972E-01 0.832E+00
   -.189E+01 0.109E+01 -.791E+03   0.136E+01 -.786E+00 0.790E+03   0.462E+00 -.267E+00 0.649E+00   0.112E+00 -.690E-01 0.579E+00
   -.118E-04 -.148E+02 -.759E+03   0.142E-03 0.139E+02 0.759E+03   0.811E-07 0.122E+01 -.978E+00   0.175E-02 -.191E+00 0.832E+00
   0.189E+01 0.109E+01 -.791E+03   -.136E+01 -.786E+00 0.790E+03   -.462E+00 -.267E+00 0.649E+00   -.119E+00 -.685E-01 0.579E+00
   -.417E+01 -.241E+01 -.811E+03   0.416E+01 0.240E+01 0.810E+03   0.323E-01 0.187E-01 0.565E+00   -.484E-02 -.285E-02 0.533E+00
   0.417E+01 -.241E+01 -.811E+03   -.416E+01 0.240E+01 0.810E+03   -.323E-01 0.187E-01 0.565E+00   0.675E-02 -.429E-02 0.533E+00
   0.107E-04 -.219E+01 -.791E+03   0.198E-03 0.157E+01 0.790E+03   0.355E-07 0.533E+00 0.649E+00   -.439E-02 0.131E+00 0.579E+00
   -.140E-04 -.132E-04 -.242E+04   0.300E-04 0.347E-04 0.242E+04   0.127E-16 0.124E-17 0.676E+00   0.106E-03 0.428E-04 0.542E+00
   0.311E+02 0.545E+02 -.239E+04   -.308E+02 -.542E+02 0.239E+04   -.622E+00 -.855E+00 0.415E+00   0.199E+00 0.290E+00 0.470E+00
   -.311E+02 0.545E+02 -.239E+04   0.308E+02 -.542E+02 0.239E+04   0.622E+00 -.855E+00 0.415E+00   -.199E+00 0.292E+00 0.471E+00
   0.628E+02 -.323E+00 -.239E+04   -.623E+02 0.430E+00 0.239E+04   -.105E+01 -.111E+00 0.415E+00   0.350E+00 0.271E-01 0.470E+00
   -.628E+02 -.323E+00 -.239E+04   0.623E+02 0.430E+00 0.239E+04   0.105E+01 -.111E+00 0.415E+00   -.352E+00 0.283E-01 0.470E+00
   0.317E+02 -.542E+02 -.239E+04   -.315E+02 0.538E+02 0.239E+04   -.430E+00 0.966E+00 0.415E+00   0.154E+00 -.318E+00 0.471E+00
   -.317E+02 -.542E+02 -.239E+04   0.315E+02 0.538E+02 0.239E+04   0.430E+00 0.966E+00 0.415E+00   -.151E+00 -.319E+00 0.470E+00
   0.325E-04 -.274E-04 -.242E+04   0.142E-03 -.503E-04 0.242E+04   -.216E-17 -.480E-17 0.703E+00   -.478E-02 -.246E-02 0.511E+00
   -.121E-05 -.957E-05 -.151E+04   0.835E-04 0.756E-05 0.151E+04   0.111E-17 0.306E-17 -.101E+01   0.177E-02 0.107E-02 0.421E+00
   -.463E-05 -.858E-04 -.844E+03   0.145E-04 0.933E-06 0.831E+03   -.607E-18 0.150E-18 0.138E+02   0.121E-02 0.737E-03 -.201E+00
   0.242E-03 -.916E-04 -.151E+04   0.538E-05 0.523E-06 0.157E+04   0.796E-19 0.198E-19 -.595E+02   0.374E-02 0.229E-02 -.197E+00
   -.515E-03 -.935E-03 0.434E+02   -.299E-14 0.168E-12 -.159E-11   -.168E-15 0.109E-15 -.502E+02   0.399E-02 0.304E-02 0.742E+01

 POSITION                                       TOTAL-FORCE (eV/Angst)
      0.00000      0.00000      5.28038        -0.000000      0.000000     -0.124415
      2.93784      0.00000      5.28038         0.005752      0.018766     -0.063102
      5.87568      0.00000      5.28038        -0.005752      0.018766     -0.063102
      1.46892      2.54424      5.28038         0.019128     -0.004402     -0.063102
      4.40676      2.54424      5.28038        -0.000000      0.000000     -0.099345
      7.34459      2.54424      5.28038        -0.019128     -0.004402     -0.063102
      2.93784      5.08848      5.28038         0.013376     -0.014365     -0.063102
      5.87568      5.08848      5.28038        -0.013376     -0.014365     -0.063102
      8.81351      5.08848      5.28038        -0.000000      0.000000     -0.077442
      1.46892      0.84808      7.67911        -0.013690     -0.007904      0.147681
      4.40676      0.84808      7.67911        -0.000000     -0.061543      0.036675
      7.34459      0.84808      7.67911         0.013690     -0.007904      0.147681
      2.93784      3.39232      7.67911        -0.053298      0.030772      0.036675
      5.87568      3.39232      7.67911         0.053298      0.030772      0.036675
      8.81351      3.39232      7.67911        -0.000000     -0.059881      0.107388
      4.40676      5.93656      7.67911         0.000000      0.015808      0.147681
      7.34459      5.93656      7.67911        -0.051859      0.029941      0.107388
     10.28243      5.93656      7.67911         0.051859      0.029941      0.107388
      8.81351      1.70311     10.09495        -0.000000     -0.015553     -0.008542
      2.93286      1.69329     10.03570        -0.047069     -0.027175     -0.250218
      5.88065      1.69329     10.03570         0.047069     -0.027175     -0.250218
     10.26497      4.25049     10.06286         0.045885     -0.026492     -0.009447
      4.40676      4.24615     10.03570         0.000000      0.054350     -0.250218
      7.36206      4.25049     10.06286        -0.045885     -0.026492     -0.009447
     11.74534      6.78117     10.09495         0.013469      0.007776     -0.008542
      5.88169      6.78117     10.09495        -0.013469      0.007776     -0.008542
      8.81351      6.76448     10.06286         0.000000      0.052983     -0.009447
      0.00000      0.00000     12.49897        -0.000000      0.000000     -0.071235
      2.97514      0.06495     12.50272        -0.103306     -0.225236     -0.111588
      5.83837      0.06495     12.50272         0.103306     -0.225236     -0.111588
      1.54382      2.54408     12.50272        -0.246713      0.023152     -0.111588
      7.26969      2.54408     12.50272         0.246713      0.023152     -0.111588
      2.97543      5.02370     12.50272        -0.143407      0.202084     -0.111588
      5.83808      5.02370     12.50272         0.143407      0.202084     -0.111588
      8.81351      5.08848     12.49601        -0.000000      0.000000     -0.029234
      4.40676      2.54424     12.21487        -0.000000      0.000000      1.355440
      4.40676      2.54424     14.08736        -0.000000      0.000000      0.033116
      4.40676      2.54424     15.25831        -0.000000      0.000000     -0.009355
    total drift:                                0.003472      0.002106      0.592543

  FREE ENERGIE OF THE ION-ELECTRON SYSTEM (eV)
  free  energy   TOTEN  =      -132.44388898 eV

  energy  without entropy=     -132.44388898  energy(sigma->0) =     -132.44388898

 stress matrix after NEB project (eV)
    -20.44238     -0.00000     -0.00000
     -0.00000    -20.44237      0.00000
     -0.00000      0.00000      3.39767
  FORCES: max atom, RMS     0.033116    0.005582
  FORCE total and by dimension    0.034412    0.033116
  Stress total and by dimension   29.108857   20.442376
|           W    W    AA    RRRRR   N    N  II  N    N   GGGG   !!!           |
|           W    W   A  A   R    R  NN   N  II  NN   N  G    G  !!!           |
|           W    W  A    A  R    R  N N  N  II  N N  N  G       !!!           |
|           W WW W  AAAAAA  RRRRR   N  N N  II  N  N N  G  GGG   !            |
|           WW  WW  A    A  R   R   N   NN  II  N   NN  G    G                |
|           W    W  A    A  R    R  N    N  II  N    N   GGGG   !!!           |
|     Tetrahedron method does not include variations of the Fermi             |
|     occupations, so forces and stress will be inaccurate. We suggest        |
|     using a different smearing scheme ISMEAR = 1 or 2 for metals in         |
|     relaxations.                                                            |

 total charge

# of ion       s       p       d       tot
    1        0.545   0.238   8.769   9.551
    2        0.545   0.240   8.765   9.550
    3        0.545   0.240   8.765   9.550
    4        0.545   0.240   8.765   9.550
    5        0.544   0.242   8.760   9.545
    6        0.545   0.240   8.765   9.550
    7        0.545   0.240   8.765   9.550
    8        0.545   0.240   8.765   9.550
    9        0.541   0.239   8.771   9.551
   10        0.521   0.308   8.768   9.597
   11        0.524   0.307   8.780   9.611
   12        0.521   0.308   8.768   9.597
   13        0.524   0.307   8.780   9.611
   14        0.524   0.307   8.780   9.611
   15        0.514   0.309   8.776   9.599
   16        0.521   0.308   8.768   9.597
   17        0.514   0.309   8.776   9.599
   18        0.514   0.309   8.776   9.599
   19        0.517   0.299   8.773   9.589
   20        0.552   0.334   8.750   9.636
   21        0.552   0.334   8.750   9.636
   22        0.507   0.309   8.777   9.593
   23        0.552   0.334   8.750   9.636
   24        0.507   0.309   8.777   9.593
   25        0.517   0.299   8.773   9.589
   26        0.517   0.299   8.773   9.589
   27        0.507   0.309   8.777   9.593
   28        0.538   0.226   8.769   9.532
   29        0.549   0.249   8.753   9.551
   30        0.549   0.249   8.753   9.551
   31        0.549   0.249   8.753   9.551
   32        0.549   0.249   8.753   9.551
   33        0.549   0.249   8.753   9.551
   34        0.549   0.249   8.753   9.551
   35        0.532   0.226   8.769   9.527
   36        0.571   0.556   6.069   7.196
   37        0.951   1.579   0.000   2.530
   38        1.611   3.530   0.000   5.141
tot         21.800  15.365 312.886 350.051

 BZINTS: Fermi energy:    0.697966;  403.000000 electrons
         Band energy:-0.126694E+04;  BLOECHL correction:   -0.074188