 vasp.6.2.0 18Jan21 (build Jun 12 2021 23:27:24) complex

 executed on             LinuxIFC date 2022.05.27  06:17:10

 INCAR:
   ISMEAR = -5
   SIGMA = 0.1
   ISPIN = 1
   EDIFF = 1.d-5
   EDIFFG = -0.01
   NSW = 0
   NELM = 150
   ENCUT = 500
   ISIF = 2
   IBRION = 2
   LREAL = Auto
   ALGO = Fast
   ICHARG = 11
   LORBIT = 10
   LCHARG = .F.
   LWAVE = .F.

 POTCAR:    PAW_PBE Cu 22Jun2005
 POTCAR:    PAW_PBE W 08Apr2002
 POTCAR:    PAW_PBE O 08Apr2002
 POTCAR:    PAW_PBE H 15Jun2001
|           W    W    AA    RRRRR   N    N  II  N    N   GGGG   !!!           |
|           W    W   A  A   R    R  NN   N  II  NN   N  G    G  !!!           |
|           W    W  A    A  R    R  N N  N  II  N N  N  G       !!!           |
|           W WW W  AAAAAA  RRRRR   N  N N  II  N  N N  G  GGG   !            |
|           WW  WW  A    A  R   R   N   NN  II  N   NN  G    G                |
|           W    W  A    A  R    R  N    N  II  N    N   GGGG   !!!           |
|     For optimal performance we recommend to set                             |
|       NCORE = 2 up to number-of-cores-per-socket                            |
|     This setting can greatly improve the performance of VASP for DFT.       |
|     The default, NCORE=1 might be grossly inefficient on modern             |
|     multi-core architectures or massively parallel machines. Do your        |
|     Unfortunately you need to use the default for GW and RPA                |
|     calculations (for HF NCORE is supported but not extensively tested      |
|     yet).                                                                   |

 POTCAR:    PAW_PBE Cu 22Jun2005
   VRHFIN =Cu: d10 p1

   TITEL  = PAW_PBE Cu 22Jun2005
   POMASS =   63.546; ZVAL   =   11.000    mass and valenz
   ENMAX  =  295.446; ENMIN  =  221.585 eV

 POTCAR:    PAW_PBE W 08Apr2002
   VRHFIN =W : 6s5d

   TITEL  = PAW_PBE W 08Apr2002
   POMASS =  183.850; ZVAL   =    6.000    mass and valenz
   ENMAX  =  223.057; ENMIN  =  167.293 eV

 POTCAR:    PAW_PBE O 08Apr2002
   VRHFIN =O: s2p4

   TITEL  = PAW_PBE O 08Apr2002
   POMASS =   16.000; ZVAL   =    6.000    mass and valenz
   ENMAX  =  400.000; ENMIN  =  300.000 eV

 POTCAR:    PAW_PBE H 15Jun2001
   VRHFIN =H: ultrasoft test

   TITEL  = PAW_PBE H 15Jun2001
   POMASS =    1.000; ZVAL   =    1.000    mass and valenz
   ENMAX  =  250.000; ENMIN  =  200.000 eV

 Optimization of the real space projectors (new method)

 maximal supplied QI-value         = 16.25
 optimisation between [QCUT,QGAM] = [ 11.38, 22.75] = [ 36.24,144.96] Ry
 Optimized for a Real-space Cutoff    1.52 Angstroem

   l    n(q)    QCUT    max X(q) W(low)/X(q) W(high)/X(q)  e(spline)
   2      9    11.376     4.610    0.21E-03    0.10E-03    0.26E-06
   2      9    11.376     8.522    0.33E-03    0.16E-03    0.37E-06
   0     10    11.376    51.609    0.62E-04    0.20E-04    0.13E-06
   0     10    11.376    27.747    0.54E-04    0.20E-04    0.13E-06
   1     10    11.376    20.408    0.13E-04    0.99E-04    0.19E-06
   1     10    11.376    13.425    0.12E-04    0.87E-04    0.17E-06
 Optimization of the real space projectors (new method)

[...]

   l    n(q)    QCUT    max X(q) W(low)/X(q) W(high)/X(q)  e(spline)
   0      7    11.387    20.381    0.39E-03    0.13E-02    0.15E-06
   0      7    11.387    15.268    0.42E-03    0.14E-02    0.17E-06
   1      6    11.387     5.964    0.41E-03    0.11E-02    0.17E-06
   1      6    11.387     5.382    0.39E-03    0.87E-03    0.15E-06
 Optimization of the real space projectors (new method)

 maximal supplied QI-value         = 34.20
 optimisation between [QCUT,QGAM] = [ 11.29, 22.57] = [ 35.68,142.71] Ry
 Optimized for a Real-space Cutoff    1.16 Angstroem

   l    n(q)    QCUT    max X(q) W(low)/X(q) W(high)/X(q)  e(spline)
   0      8    11.287    19.460    0.40E-03    0.73E-03    0.16E-06
   0      8    11.287    12.209    0.38E-03    0.70E-03    0.15E-06
   1      7    11.287     4.655    0.22E-03    0.25E-04    0.22E-06
  PAW_PBE Cu 22Jun2005                  :
  PAW_PBE W 08Apr2002                   :
  PAW_PBE O 08Apr2002                   :
  PAW_PBE H 15Jun2001                   :

 POSCAR: Cu-W-OH
  positions in direct lattice
  velocities in cartesian coordinates
 exchange correlation table for  LEXCH =        8
   RHO(1)=    0.500       N(1)  =     2000
   RHO(2)=  100.500       N(2)  =     4000

 VTST: version 3.2, (02/03/18)

 CHAIN: initializing optimizer

 OPT: Using VASP Conjugate-Gradient optimizer
 CHAIN: Read ICHAIN            0

 POSCAR: Cu-W-OH
  positions in direct lattice
  velocities in cartesian coordinates

 ion  position               nearest neighbor table
   1  0.000  0.000  0.252-   7 2.57   3 2.57   4 2.57   2 2.57   6 2.57   8 2.57  12 2.57  10 2.57
                            16 2.57
   2  0.333  0.000  0.252-   8 2.57   9 2.57   5 2.57   1 2.57   3 2.57  11 2.57   4 2.57  10 2.57
                            17 2.57
   3  0.667  0.000  0.252-   1 2.57   7 2.57   6 2.57   9 2.57   2 2.57  12 2.57   5 2.57  18 2.57
                            11 2.57
   4  0.000  0.333  0.252-   5 2.57   6 2.57   1 2.57   7 2.57   2 2.57  13 2.57   9 2.57  10 2.57
                            15 2.57
   5  0.333  0.333  0.252-   4 2.57   2 2.57   7 2.57  13 2.57   8 2.57   6 2.57   3 2.57  11 2.57
                            14 2.57
   6  0.667  0.333  0.252-   4 2.57   9 2.57  15 2.57   3 2.57   1 2.57   8 2.57  14 2.57   5 2.57
                            12 2.57
   7  0.000  0.667  0.252-   1 2.57   3 2.57  16 2.57  18 2.57   4 2.57   5 2.57   8 2.57   9 2.57
                            13 2.57
   8  0.333  0.667  0.252-   9 2.57   2 2.57  17 2.57   6 2.57   1 2.57   7 2.57   5 2.57  14 2.57
                            16 2.57
   9  0.667  0.667  0.252-   8 2.57   6 2.57   2 2.57  17 2.57   3 2.57   7 2.57   4 2.57  15 2.57
                            18 2.57
  10  0.111  0.111  0.351-  20 2.54  11 2.57  12 2.57  13 2.57   1 2.57   2 2.57   4 2.57  15 2.57
                            16 2.57  17 2.57  26 2.57  19 2.57
  11  0.444  0.111  0.351-  20 2.55  21 2.55  10 2.57  13 2.57   2 2.57  17 2.57  14 2.57  12 2.57
                             5 2.57   3 2.57  18 2.57  27 2.58
  12  0.778  0.111  0.351-  21 2.54  15 2.57  10 2.57  14 2.57  18 2.57   3 2.57   1 2.57  16 2.57
                            11 2.57   6 2.57  19 2.57  25 2.57
  13  0.111  0.444  0.351-  23 2.55  20 2.55  16 2.57  18 2.57  10 2.57  11 2.57  14 2.57   5 2.57
                             4 2.57   7 2.57  15 2.57  22 2.58
  14  0.444  0.444  0.351-  21 2.55  23 2.55  15 2.57  17 2.57  12 2.57  16 2.57  13 2.57  11 2.57
                             6 2.57   8 2.57   5 2.57  24 2.58
  15  0.778  0.444  0.351-  19 2.57  14 2.57  17 2.57  12 2.57   6 2.57  18 2.57  10 2.57   9 2.57
                            13 2.57   4 2.57  24 2.57  22 2.57
  16  0.111  0.778  0.351-  23 2.54  18 2.57  13 2.57   7 2.57  14 2.57  17 2.57  12 2.57  10 2.57
                             8 2.57   1 2.57  25 2.57  26 2.57
  17  0.444  0.778  0.351-  26 2.57  14 2.57  15 2.57   8 2.57   9 2.57  11 2.57  16 2.57  18 2.57
                            10 2.57   2 2.57  27 2.57  24 2.57
  18  0.778  0.778  0.351-  25 2.57  16 2.57  13 2.57   7 2.57  15 2.57  12 2.57  17 2.57   9 2.57
                             3 2.57  11 2.57  22 2.57  27 2.57
  19  0.889  0.223  0.449-  21 2.55  20 2.55  22 2.56  24 2.56  15 2.57  12 2.57  10 2.57  25 2.57
                            26 2.57  28 2.57  32 2.60  31 2.60
  20  0.221  0.221  0.448-  10 2.54  36 2.54  11 2.55  13 2.55  26 2.55  19 2.55  27 2.57  22 2.57
                            23 2.59  21 2.59  29 2.62  31 2.62
  21  0.558  0.221  0.448-  12 2.54  36 2.54  14 2.55  11 2.55  19 2.55  25 2.55  24 2.57  27 2.57
                            20 2.59  23 2.59  32 2.62  30 2.62
  22  0.888  0.556  0.450-  24 2.56  27 2.56  19 2.56  25 2.56  35 2.56  23 2.57  20 2.57  18 2.57
                            15 2.57  13 2.58  31 2.59  33 2.59
  23  0.221  0.558  0.448-  16 2.54  36 2.54  13 2.55  14 2.55  25 2.55  26 2.55  22 2.57  24 2.57
                            20 2.59  21 2.59  33 2.62  34 2.62
  24  0.556  0.556  0.450-  22 2.56  27 2.56  19 2.56  26 2.56  35 2.56  21 2.57  23 2.57  15 2.57
                            17 2.57  14 2.58  32 2.59  34 2.59
  25  0.889  0.889  0.449-  21 2.55  23 2.55  22 2.56  27 2.56  18 2.57  16 2.57  12 2.57  19 2.57
                            26 2.57  28 2.57  33 2.60  30 2.60
  26  0.223  0.889  0.449-  20 2.55  23 2.55  27 2.56  24 2.56  17 2.57  10 2.57  16 2.57  25 2.57
                            19 2.57  28 2.57  29 2.60  34 2.60
  27  0.556  0.888  0.450-  24 2.56  22 2.56  26 2.56  25 2.56  35 2.56  20 2.57  21 2.57  17 2.57
                            18 2.57  11 2.58  29 2.59  30 2.59
  28  0.000  0.000  0.548-  33 2.56  30 2.56  31 2.56  29 2.56  32 2.56  34 2.56  25 2.57  19 2.57
                            26 2.57
  29  0.333  1.000  0.550-  34 2.56  28 2.56  35 2.57  31 2.57  36 2.57  30 2.57  27 2.59  26 2.60
                            20 2.62
  30  0.667  1.000  0.550-  33 2.56  28 2.56  35 2.57  32 2.57  36 2.57  29 2.57  27 2.59  25 2.60
                            21 2.62
  31  1.000  0.333  0.550-  32 2.56  28 2.56  35 2.57  29 2.57  36 2.57  33 2.57  22 2.59  19 2.60
                            20 2.62
  32  0.667  0.333  0.550-  31 2.56  28 2.56  35 2.57  30 2.57  36 2.57  34 2.57  24 2.59  19 2.60
                            21 2.62
  33  1.000  0.667  0.550-  30 2.56  28 2.56  35 2.57  34 2.57  36 2.57  31 2.57  22 2.59  25 2.60
                            23 2.62
  34  0.333  0.667  0.550-  29 2.56  28 2.56  35 2.57  33 2.57  36 2.57  32 2.57  24 2.59  26 2.60
                            23 2.62
  35  0.667  0.667  0.548-  24 2.56  27 2.56  22 2.56  34 2.57  32 2.57  29 2.57  30 2.57  33 2.57
                            31 2.57
  36  0.333  0.333  0.545-  37 1.88  23 2.54  20 2.54  21 2.54  31 2.57  29 2.57  33 2.57  34 2.57
                            32 2.57  30 2.57
  37  0.333  0.333  0.633-  38 0.97  36 1.88
  38  0.333  0.333  0.678-  37 0.97

  LATTYP: Found a hexagonal cell.
 ALAT       =     7.6967864036
 C/A-ratio  =     2.7653617908

  Lattice vectors:

 A1 = (  -3.8483927580,  -6.6656128093,   0.0000000000)
 A2 = (   7.6967864037,   0.0000000000,   0.0000000000)
 A3 = (   0.0000000000,   0.0000000000,  21.2843990326)

Analysis of symmetry for initial positions (statically):
 Subroutine PRICEL returns:
 Original cell was already a primitive cell.

 Routine SETGRP: Setting up the symmetry group for a
 hexagonal supercell.

 Subroutine GETGRP returns: Found  6 space group operations
 (whereof  6 operations were pure point group operations)
 out of a pool of 24 trial point group operations.

The static configuration has the point symmetry C_3v.

Analysis of symmetry for dynamics (positions and initial velocities):
 Subroutine PRICEL returns:
 Original cell was already a primitive cell.

[...]

The dynamic configuration has the point symmetry C_3v.

Analysis of constrained symmetry for selective dynamics:
 Subroutine PRICEL returns:
 Original cell was already a primitive cell.

[...]
     33      -3.6804      2.00000
     34      -3.6712      2.00000
     35      -3.6632      2.00000
     36      -3.6496      2.00000
     37      -3.6160      2.00000
     38      -3.5884      2.00000
     39      -3.5174      2.00000
     40      -3.5005      2.00000
     41      -3.3767      2.00000
     42      -3.3630      2.00000
     43      -3.2887      2.00000
     44      -3.2792      2.00000
     45      -3.2698      2.00000
     46      -3.2519      2.00000
     47      -3.2331      2.00000
     48      -3.2221      2.00000
     49      -3.2176      2.00000
     50      -3.0633      2.00000
     51      -3.0476      2.00000
     52      -3.0420      2.00000
     53      -3.0033      2.00000
     54      -2.9855      2.00000
     55      -2.9729      2.00000
     56      -2.9459      2.00000
     57      -2.9336      2.00000
     58      -2.9305      2.00000
     59      -2.9197      2.00000
     60      -2.9124      2.00000
[...]
    238       6.4716      0.00000
    239       6.5788      0.00000
    240       6.7455      0.00000
    241       6.8151      0.00000
    242       6.8663      0.00000
    243       7.0138      0.00000
    244       7.0343      0.00000
    245       7.2068      0.00000
    246       7.3763      0.00000
    247       7.5945      0.00000
    248       7.6727      0.00000
    249       7.7584      0.00000
    250       7.8620      0.00000
    251       8.0228      0.00000
    252       8.2623      0.00000

 soft charge-density along one line, spin component           1
         0         1         2         3         4         5         6         7         8         9
 total charge-density along one line

------------------------ aborting loop because EDIFF is reached ----------------------------------------

 total charge

# of ion       s       p       d       tot
    1        0.450   0.282   9.189   9.921
    2        0.448   0.286   9.185   9.919
    3        0.448   0.286   9.185   9.919
    4        0.448   0.286   9.185   9.919
    5        0.449   0.285   9.182   9.917
    6        0.448   0.286   9.185   9.919
    7        0.448   0.286   9.185   9.919
    8        0.448   0.286   9.185   9.919
    9        0.447   0.286   9.186   9.918
   10        0.444   0.370   9.177   9.992
   11        0.439   0.368   9.182   9.989
   12        0.444   0.370   9.177   9.992
   13        0.439   0.368   9.182   9.989
   14        0.439   0.368   9.182   9.989
   15        0.437   0.368   9.178   9.983
   16        0.444   0.370   9.177   9.992
   17        0.437   0.368   9.178   9.983
   18        0.437   0.368   9.178   9.983
   19        0.441   0.364   9.182   9.987
   20        0.474   0.410   9.150  10.035
   21        0.474   0.410   9.150  10.035
   22        0.428   0.370   9.180   9.977
   23        0.474   0.410   9.150  10.035
   24        0.428   0.370   9.180   9.977
   25        0.441   0.364   9.182   9.987
   26        0.441   0.364   9.182   9.987
   27        0.428   0.370   9.180   9.977
   28        0.452   0.292   9.179   9.923
   29        0.467   0.319   9.170   9.955
   30        0.467   0.319   9.170   9.955
   31        0.467   0.319   9.170   9.955
   32        0.467   0.319   9.170   9.955
   33        0.467   0.319   9.170   9.955
   34        0.467   0.319   9.170   9.955
   35        0.441   0.296   9.180   9.918
   36        0.701   0.660   4.100   5.460
   37        1.554   3.554   0.000   5.109
   38        0.601   0.126   0.000   0.727
tot         18.580  16.156 325.293 360.029

  FORCE on cell =-STRESS in cart. coord.  units (eV):
  Direction    XX          YY          ZZ          XY          YZ          ZX
  Alpha Z   901.72769   901.72769   901.72769
  Ewald  169927.20881169927.20842************     0.00038     0.00013     0.00017
  Hartree183087.89766183087.89765************     0.00003     0.00007     0.00006
  E(xc)   -2306.59685 -2306.59640 -2309.93376    -0.00039    -0.00003    -0.00005
  Local  ************************365985.56474     0.01873    -0.00062    -0.00096
  n-local  -797.51370  -782.90141  -798.56944     7.72665    -0.24061     0.40433
  augment  3320.85946  3320.87966  3339.09013    -0.01751     0.00033     0.00057
  Kinetic  3356.49356  3359.72227  3340.75740     3.26936     1.67746    -1.41702
  Fock        0.00000     0.00000     0.00000     0.00000     0.00000     0.00000
  Total      -4.70386    -4.70386     0.20036     0.00000    -0.00000    -0.00000
  in kB      -6.90166    -6.90166     0.29398     0.00000    -0.00000    -0.00000

 VOLUME and BASIS-vectors are now :
  energy-cutoff  :      500.00
  volume of cell :     1091.97
      direct lattice vectors                 reciprocal lattice vectors
     7.696786404  0.000000000  0.000000000     0.129924354 -0.075011849  0.000000000
     3.848392758  6.665612809  0.000000000     0.000000000  0.150023716  0.000000000
     0.000000000  0.000000000 21.284399033     0.000000000  0.000000000  0.046982769

  length of vectors
     7.696786404  7.696786404 21.284399033     0.150023716  0.150023716  0.046982769

 FORCES acting on ions
    electron-ion (+dipol)            ewald-force                    non-local-force                 convergence-correction
   -.417E-04 0.851E-07 0.347E+04   0.581E-04 -.430E-05 -.347E+04   -.210E-17 -.211E-18 -.254E+01   -.419E-03 -.254E-03 -.457E+00
   -.486E+00 -.325E+00 0.347E+04   0.437E+00 0.827E-01 -.347E+04   0.122E-01 0.199E+00 -.187E+01   0.405E-01 0.499E-01 -.398E+00
   0.486E+00 -.325E+00 0.347E+04   -.437E+00 0.827E-01 -.347E+04   -.122E-01 0.199E+00 -.187E+01   -.396E-01 0.524E-01 -.397E+00
   -.524E+00 -.259E+00 0.347E+04   0.290E+00 0.337E+00 -.347E+04   0.179E+00 -.891E-01 -.187E+01   0.636E-01 0.101E-01 -.398E+00
   -.655E-04 -.558E-05 0.347E+04   0.116E-03 -.101E-04 -.346E+04   0.737E-17 -.126E-17 -.169E+01   0.122E-01 0.748E-02 -.268E+00
   0.524E+00 -.259E+00 0.347E+04   -.290E+00 0.337E+00 -.347E+04   -.179E+00 -.891E-01 -.187E+01   -.652E-01 0.112E-01 -.397E+00
   -.380E-01 0.583E+00 0.347E+04   -.147E+00 -.420E+00 -.347E+04   0.167E+00 -.110E+00 -.187E+01   0.257E-01 -.605E-01 -.397E+00
   0.381E-01 0.583E+00 0.347E+04   0.147E+00 -.420E+00 -.347E+04   -.167E+00 -.110E+00 -.187E+01   -.222E-01 -.620E-01 -.397E+00
   -.144E-03 -.328E-04 0.347E+04   0.263E-03 0.205E-04 -.346E+04   -.122E-18 -.112E-17 -.219E+01   -.132E-01 -.675E-02 -.402E+00
   -.491E-01 -.283E-01 0.116E+04   0.571E+00 0.329E+00 -.116E+04   -.583E+00 -.337E+00 -.976E+00   0.223E-01 0.126E-01 -.608E+00
   -.915E-04 -.172E+01 0.115E+04   0.190E-03 0.125E+01 -.115E+04   -.189E-07 0.283E+00 -.265E+00   0.124E-01 0.108E+00 -.680E+00
   0.492E-01 -.283E-01 0.116E+04   -.571E+00 0.329E+00 -.116E+04   0.583E+00 -.337E+00 -.976E+00   -.246E-01 0.141E-01 -.607E+00
   -.149E+01 0.859E+00 0.115E+04   0.108E+01 -.626E+00 -.115E+04   0.245E+00 -.142E+00 -.265E+00   0.100E+00 -.422E-01 -.680E+00
   0.149E+01 0.859E+00 0.115E+04   -.108E+01 -.626E+00 -.115E+04   -.245E+00 -.142E+00 -.265E+00   -.760E-01 -.439E-01 -.681E+00
   -.142E-03 -.182E+01 0.116E+04   0.298E-03 0.162E+01 -.116E+04   -.631E-08 0.948E-01 -.907E+00   -.379E-02 0.836E-01 -.592E+00
   -.921E-04 0.567E-01 0.116E+04   0.186E-03 -.659E+00 -.116E+04   -.449E-07 0.674E+00 -.976E+00   -.766E-03 -.297E-01 -.607E+00
   -.157E+01 0.909E+00 0.116E+04   0.140E+01 -.809E+00 -.116E+04   0.821E-01 -.474E-01 -.907E+00   0.709E-01 -.452E-01 -.591E+00
   0.158E+01 0.909E+00 0.116E+04   -.140E+01 -.809E+00 -.116E+04   -.821E-01 -.474E-01 -.907E+00   -.694E-01 -.417E-01 -.588E+00
   -.595E-04 -.547E+01 -.115E+04   0.707E-04 0.552E+01 0.115E+04   0.237E-08 -.355E-01 0.107E+01   -.128E-01 -.551E-01 -.548E+00
   -.437E+02 -.253E+02 -.118E+04   0.451E+02 0.260E+02 0.118E+04   -.126E+01 -.727E+00 -.860E+00   -.145E+00 -.842E-01 -.904E+00
   0.437E+02 -.253E+02 -.118E+04   -.451E+02 0.260E+02 0.118E+04   0.126E+01 -.727E+00 -.860E+00   0.149E+00 -.858E-01 -.904E+00
   -.244E+02 0.141E+02 -.116E+04   0.241E+02 -.139E+02 0.116E+04   0.619E+00 -.358E+00 0.908E+00   -.242E+00 0.156E+00 -.558E+00
   -.885E-04 0.505E+02 -.118E+04   0.148E-03 -.520E+02 0.118E+04   -.968E-07 0.145E+01 -.860E+00   -.171E-03 0.171E+00 -.905E+00
   0.244E+02 0.141E+02 -.116E+04   -.241E+02 -.139E+02 0.116E+04   -.619E+00 -.358E+00 0.908E+00   0.242E+00 0.153E+00 -.558E+00
   0.474E+01 0.274E+01 -.115E+04   -.478E+01 -.276E+01 0.115E+04   0.308E-01 0.178E-01 0.107E+01   0.297E-01 0.170E-01 -.548E+00
   -.474E+01 0.274E+01 -.115E+04   0.478E+01 -.276E+01 0.115E+04   -.308E-01 0.178E-01 0.107E+01   -.529E-01 0.152E-01 -.548E+00
   -.114E-03 -.282E+02 -.116E+04   0.239E-03 0.279E+02 0.116E+04   -.476E-07 0.715E+00 0.908E+00   0.130E-01 -.288E+00 -.558E+00
   -.485E-04 0.986E-05 -.339E+04   0.396E-04 -.322E-04 0.338E+04   -.153E-16 0.124E-17 0.130E+01   -.658E-03 -.563E-03 0.624E-01
   -.232E+02 -.410E+02 -.338E+04   0.236E+02 0.410E+02 0.338E+04   -.353E+00 0.585E-01 0.165E+01   -.140E+00 -.415E+00 0.202E+00
   0.232E+02 -.410E+02 -.338E+04   -.236E+02 0.410E+02 0.338E+04   0.353E+00 0.585E-01 0.165E+01   0.141E+00 -.414E+00 0.200E+00
   -.471E+02 0.357E+00 -.338E+04   0.473E+02 -.104E+00 0.338E+04   -.126E+00 -.335E+00 0.165E+01   -.429E+00 0.862E-01 0.202E+00
   0.471E+02 0.357E+00 -.338E+04   -.473E+02 -.104E+00 0.338E+04   0.126E+00 -.335E+00 0.165E+01   0.429E+00 0.866E-01 0.202E+00
   -.239E+02 0.406E+02 -.338E+04   0.238E+02 -.409E+02 0.338E+04   0.227E+00 0.276E+00 0.165E+01   -.288E+00 0.329E+00 0.200E+00
   0.239E+02 0.406E+02 -.338E+04   -.238E+02 -.409E+02 0.338E+04   -.227E+00 0.276E+00 0.165E+01   0.290E+00 0.328E+00 0.201E+00
   -.152E-03 -.282E-04 -.340E+04   0.251E-03 0.268E-05 0.339E+04   0.140E-17 0.203E-18 0.202E+01   -.125E-01 -.602E-02 0.186E+00
   -.272E-04 -.652E-05 -.168E+04   0.757E-04 0.144E-04 0.168E+04   -.408E-18 -.171E-17 0.243E+01   0.864E-03 0.541E-03 0.590E-01
   0.189E-03 -.792E-04 -.204E+04   0.162E-04 0.766E-05 0.203E+04   0.600E-17 0.197E-17 0.179E+02   0.317E-02 0.194E-02 0.489E+00
   0.498E-05 -.131E-04 -.383E+03   0.635E-06 0.519E-06 0.392E+03   0.304E-19 0.228E-19 -.851E+01   0.174E-03 0.106E-03 0.346E-01
   -.101E-03 -.103E-03 0.883E+01   0.912E-13 0.266E-12 -.716E-11   -.326E-15 0.223E-15 0.428E+01   0.684E-02 0.124E-01 -.131E+02

 POSITION                                       TOTAL-FORCE (eV/Angst)
      0.00000      0.00000      5.37156        -0.000000     -0.000000     -0.015813
      2.56560      0.00000      5.37156         0.003529      0.008487      0.066859
      5.13119      0.00000      5.37156        -0.003529      0.008487      0.066859
      1.28280      2.22187      5.37156         0.009114     -0.001187      0.066859
      3.84839      2.22187      5.37156        -0.000000     -0.000000      0.052501
      6.41399      2.22187      5.37156        -0.009114     -0.001187      0.066859
      2.56560      4.44374      5.37156         0.005586     -0.007300      0.066859
      5.13119      4.44374      5.37156        -0.005586     -0.007300      0.066859
      7.69679      4.44374      5.37156        -0.000000     -0.000000      0.023916
      1.28280      0.74062      7.46636        -0.037695     -0.021763     -0.075688
      3.84839      0.74062      7.46636         0.000000     -0.081113     -0.081973
      6.41399      0.74062      7.46636         0.037695     -0.021763     -0.075688
      2.56560      2.96249      7.46636        -0.070246      0.040557     -0.081973
      5.13119      2.96249      7.46636         0.070246      0.040557     -0.081973
      7.69679      2.96249      7.46636         0.000000     -0.023357      0.035053
      3.84839      5.18437      7.46636        -0.000000      0.043526     -0.075688
      6.41399      5.18437      7.46636        -0.020227      0.011678      0.035053
      8.97958      5.18437      7.46636         0.020227      0.011678      0.035053
      7.69679      1.48345      9.56239         0.000000     -0.031236     -0.005630
      2.55319      1.47409      9.53589        -0.071283     -0.041155     -0.191640
      5.14360      1.47409      9.53589         0.071283     -0.041155     -0.191640
      8.97438      3.70612      9.57309         0.091466     -0.052808      0.013366
      3.84839      3.71744      9.53589        -0.000000      0.082311     -0.191640
      6.41919      3.70612      9.57309        -0.091466     -0.052808      0.013366
     10.26047      5.92389      9.56239         0.027051      0.015618     -0.005630
      5.13310      5.92389      9.56239        -0.027051      0.015618     -0.005630
      7.69679      5.91898      9.57309        -0.000000      0.105616      0.013366
      0.00000      0.00000     11.66245        -0.000000     -0.000000     -0.023825
      6.40959      6.66262     11.69844        -0.160684     -0.287429     -0.317749
      8.98399      6.66262     11.69844         0.160684     -0.287429     -0.317749
      8.97479      2.21956     11.69844        -0.329263      0.004558     -0.317749
      6.41878      2.21956     11.69844         0.329263      0.004558     -0.317749
     10.26199      4.44905     11.69844        -0.168579      0.282871     -0.317749
      5.13158      4.44905     11.69844         0.168579      0.282871     -0.317749
      7.69679      4.44374     11.67118        -0.000000     -0.000000      0.029131
      3.84839      2.22187     11.59207        -0.000000     -0.000000      2.398140
      3.84839      2.22187     13.47083        -0.000000     -0.000000     -0.046143
      3.84839      2.22187     14.43695        -0.000000     -0.000000      0.006971
    total drift:                                0.006734      0.012337     -0.035765

  FREE ENERGIE OF THE ION-ELECTRON SYSTEM (eV)
  free  energy   TOTEN  =      -144.11849195 eV

  energy  without entropy=     -144.11849195  energy(sigma->0) =     -144.11849195

 stress matrix after NEB project (eV)
     -4.70386      0.00000     -0.00000
      0.00000     -4.70386     -0.00000
     -0.00000     -0.00000      0.20036
  FORCES: max atom, RMS     0.046143    0.007570
  FORCE total and by dimension    0.046666    0.046143
  Stress total and by dimension    6.655274    4.703857
|           W    W    AA    RRRRR   N    N  II  N    N   GGGG   !!!           |
|           W    W   A  A   R    R  NN   N  II  NN   N  G    G  !!!           |
|           W    W  A    A  R    R  N N  N  II  N N  N  G       !!!           |
|           W WW W  AAAAAA  RRRRR   N  N N  II  N  N N  G  GGG   !            |
|           WW  WW  A    A  R   R   N   NN  II  N   NN  G    G                |
|           W    W  A    A  R    R  N    N  II  N    N   GGGG   !!!           |
|     Tetrahedron method does not include variations of the Fermi             |
|     occupations, so forces and stress will be inaccurate. We suggest        |
|     using a different smearing scheme ISMEAR = 1 or 2 for metals in         |
|     relaxations.                                                            |

 total charge

# of ion       s       p       d       tot
    1        0.450   0.282   9.189   9.921
    2        0.448   0.286   9.185   9.919
    3        0.448   0.286   9.185   9.919
    4        0.448   0.286   9.185   9.919
    5        0.449   0.285   9.182   9.917
    6        0.448   0.286   9.185   9.919
    7        0.448   0.286   9.185   9.919
    8        0.448   0.286   9.185   9.919
    9        0.447   0.286   9.186   9.918
   10        0.444   0.370   9.177   9.992
   11        0.439   0.368   9.182   9.989
   12        0.444   0.370   9.177   9.992
   13        0.439   0.368   9.182   9.989
   14        0.439   0.368   9.182   9.989
   15        0.437   0.368   9.178   9.983
   16        0.444   0.370   9.177   9.992
   17        0.437   0.368   9.178   9.983
   18        0.437   0.368   9.178   9.983
   19        0.441   0.364   9.182   9.987
   20        0.474   0.410   9.150  10.035
   21        0.474   0.410   9.150  10.035
   22        0.428   0.370   9.180   9.977
   23        0.474   0.410   9.150  10.035
   24        0.428   0.370   9.180   9.977
   25        0.441   0.364   9.182   9.987
   26        0.441   0.364   9.182   9.987
   27        0.428   0.370   9.180   9.977
   28        0.452   0.292   9.179   9.923
   29        0.467   0.319   9.170   9.955
   30        0.467   0.319   9.170   9.955
   31        0.467   0.319   9.170   9.955
   32        0.467   0.319   9.170   9.955
   33        0.467   0.319   9.170   9.955
   34        0.467   0.319   9.170   9.955
   35        0.441   0.296   9.180   9.918
   36        0.701   0.660   4.100   5.460
   37        1.554   3.554   0.000   5.109
   38        0.601   0.126   0.000   0.727
tot         18.580  16.156 325.293 360.029

 BZINTS: Fermi energy:    0.466057;  398.000000 electrons
         Band energy:-0.101440E+04;  BLOECHL correction:   -0.029077