 vasp.6.2.0 18Jan21 (build Jun 12 2021 23:27:24) complex

 executed on             LinuxIFC date 2022.05.27  06:17:00

 INCAR:
   ISMEAR = -5
   SIGMA = 0.1
   ISPIN = 1
   EDIFF = 1.d-5
   EDIFFG = -0.01
   NSW = 0
   NELM = 150
   ENCUT = 500
   ISIF = 2
   IBRION = 2
   LREAL = Auto
   ALGO = Fast
   ICHARG = 11
   LORBIT = 10
   LCHARG = .F.
   LWAVE = .F.

 POTCAR:    PAW_PBE Cu 22Jun2005
 POTCAR:    PAW_PBE W 08Apr2002
 POTCAR:    PAW_PBE C 08Apr2002
 POTCAR:    PAW_PBE O 08Apr2002
|           W    W    AA    RRRRR   N    N  II  N    N   GGGG   !!!           |
|           W    W   A  A   R    R  NN   N  II  NN   N  G    G  !!!           |
|           W    W  A    A  R    R  N N  N  II  N N  N  G       !!!           |
|           W WW W  AAAAAA  RRRRR   N  N N  II  N  N N  G  GGG   !            |
|           WW  WW  A    A  R   R   N   NN  II  N   NN  G    G                |
|           W    W  A    A  R    R  N    N  II  N    N   GGGG   !!!           |
|     For optimal performance we recommend to set                             |
|       NCORE = 2 up to number-of-cores-per-socket                            |
|     This setting can greatly improve the performance of VASP for DFT.       |
|     The default, NCORE=1 might be grossly inefficient on modern             |
|     multi-core architectures or massively parallel machines. Do your        |
|     Unfortunately you need to use the default for GW and RPA                |
|     calculations (for HF NCORE is supported but not extensively tested      |
|     yet).                                                                   |

 POTCAR:    PAW_PBE Cu 22Jun2005
   VRHFIN =Cu: d10 p1

   TITEL  = PAW_PBE Cu 22Jun2005
   POMASS =   63.546; ZVAL   =   11.000    mass and valenz
   ENMAX  =  295.446; ENMIN  =  221.585 eV

 POTCAR:    PAW_PBE W 08Apr2002
   VRHFIN =W : 6s5d

   TITEL  = PAW_PBE W 08Apr2002
   POMASS =  183.850; ZVAL   =    6.000    mass and valenz
   ENMAX  =  223.057; ENMIN  =  167.293 eV

 POTCAR:    PAW_PBE C 08Apr2002
   VRHFIN =C: s2p2

[...]

 POTCAR:    PAW_PBE O 08Apr2002
   VRHFIN =O: s2p4

   TITEL  = PAW_PBE O 08Apr2002
   POMASS =   16.000; ZVAL   =    6.000    mass and valenz
   ENMAX  =  400.000; ENMIN  =  300.000 eV

 Optimization of the real space projectors (new method)

 maximal supplied QI-value         = 16.25
 optimisation between [QCUT,QGAM] = [ 11.38, 22.75] = [ 36.24,144.96] Ry
 Optimized for a Real-space Cutoff    1.52 Angstroem

   l    n(q)    QCUT    max X(q) W(low)/X(q) W(high)/X(q)  e(spline)
   2      9    11.376     4.610    0.21E-03    0.10E-03    0.26E-06
   2      9    11.376     8.522    0.33E-03    0.16E-03    0.37E-06
   0     10    11.376    51.609    0.62E-04    0.20E-04    0.13E-06
   0     10    11.376    27.747    0.54E-04    0.20E-04    0.13E-06
   1     10    11.376    20.408    0.13E-04    0.99E-04    0.19E-06
   1     10    11.376    13.425    0.12E-04    0.87E-04    0.17E-06
 Optimization of the real space projectors (new method)

[...]

   l    n(q)    QCUT    max X(q) W(low)/X(q) W(high)/X(q)  e(spline)
   0      7    11.310   115.676    0.43E-03    0.13E-02    0.19E-06
   0      7    11.310    87.132    0.43E-03    0.13E-02    0.18E-06
   1      6    11.310     4.429    0.42E-03    0.74E-03    0.11E-06
   1      6    11.310     2.733    0.34E-03    0.55E-03    0.92E-07
 Optimization of the real space projectors (new method)

 maximal supplied QI-value         = 24.76
 optimisation between [QCUT,QGAM] = [ 11.39, 22.77] = [ 36.31,145.25] Ry
 Optimized for a Real-space Cutoff    1.00 Angstroem

   l    n(q)    QCUT    max X(q) W(low)/X(q) W(high)/X(q)  e(spline)
   0      7    11.387    20.381    0.39E-03    0.13E-02    0.15E-06
   0      7    11.387    15.268    0.42E-03    0.14E-02    0.17E-06
   1      6    11.387     5.964    0.41E-03    0.11E-02    0.17E-06
   1      6    11.387     5.382    0.39E-03    0.87E-03    0.15E-06
  PAW_PBE Cu 22Jun2005                  :
  PAW_PBE W 08Apr2002                   :
  PAW_PBE C 08Apr2002                   :
  PAW_PBE O 08Apr2002                   :

 POSCAR: Cu-W-CO
  positions in direct lattice
  velocities in cartesian coordinates
 exchange correlation table for  LEXCH =        8
   RHO(1)=    0.500       N(1)  =     2000
   RHO(2)=  100.500       N(2)  =     4000

 VTST: version 3.2, (02/03/18)

 CHAIN: initializing optimizer

 OPT: Using VASP Conjugate-Gradient optimizer
 CHAIN: Read ICHAIN            0

 POSCAR: Cu-W-CO
  positions in direct lattice
  velocities in cartesian coordinates

 ion  position               nearest neighbor table
   1  0.000  0.000  0.358-   7 2.57   3 2.57   4 2.57   2 2.57   6 2.57   8 2.57  12 2.57  10 2.57
                            16 2.57
   2  0.333  0.000  0.358-   8 2.57   9 2.57   5 2.57   1 2.57   3 2.57  11 2.57   4 2.57  10 2.57
                            17 2.57
   3  0.667  0.000  0.358-   1 2.57   7 2.57   6 2.57   9 2.57   2 2.57  12 2.57   5 2.57  18 2.57
                            11 2.57
   4  0.000  0.333  0.358-   5 2.57   6 2.57   1 2.57   7 2.57   2 2.57  13 2.57   9 2.57  10 2.57
                            15 2.57
   5  0.333  0.333  0.358-   4 2.57   2 2.57   7 2.57  13 2.57   8 2.57   6 2.57   3 2.57  11 2.57
                            14 2.57
   6  0.667  0.333  0.358-   4 2.57   9 2.57  15 2.57   3 2.57   1 2.57   8 2.57  14 2.57   5 2.57
                            12 2.57
   7  0.000  0.667  0.358-   1 2.57   3 2.57  16 2.57  18 2.57   4 2.57   5 2.57   8 2.57   9 2.57
                            13 2.57
   8  0.333  0.667  0.358-   9 2.57   2 2.57  17 2.57   6 2.57   1 2.57   7 2.57   5 2.57  14 2.57
                            16 2.57
   9  0.667  0.667  0.358-   8 2.57   6 2.57   2 2.57  17 2.57   3 2.57   7 2.57   4 2.57  15 2.57
                            18 2.57
  10  0.111  0.111  0.445-  20 2.54  11 2.57  12 2.57  13 2.57   1 2.57   2 2.57   4 2.57  15 2.57
                            16 2.57  17 2.57  26 2.57  19 2.57
  11  0.444  0.111  0.445-  20 2.55  21 2.55  10 2.57  13 2.57   2 2.57  17 2.57  14 2.57  12 2.57
                             5 2.57   3 2.57  18 2.57  27 2.58
  12  0.778  0.111  0.445-  21 2.54  15 2.57  10 2.57  14 2.57  18 2.57   3 2.57   1 2.57  16 2.57
                            11 2.57   6 2.57  19 2.57  25 2.57
  13  0.111  0.444  0.445-  23 2.55  20 2.55  16 2.57  18 2.57  10 2.57  11 2.57  14 2.57   5 2.57
                             4 2.57   7 2.57  15 2.57  22 2.58
  14  0.444  0.444  0.445-  21 2.55  23 2.55  15 2.57  17 2.57  12 2.57  16 2.57  13 2.57  11 2.57
                             6 2.57   8 2.57   5 2.57  24 2.58
  15  0.778  0.444  0.445-  19 2.57  14 2.57  17 2.57  12 2.57   6 2.57  18 2.57  10 2.57   9 2.57
                            13 2.57   4 2.57  24 2.57  22 2.57
  16  0.111  0.778  0.445-  23 2.54  18 2.57  13 2.57   7 2.57  14 2.57  17 2.57  12 2.57  10 2.57
                             8 2.57   1 2.57  25 2.57  26 2.57
  17  0.444  0.778  0.445-  26 2.57  14 2.57  15 2.57   8 2.57   9 2.57  11 2.57  16 2.57  18 2.57
                            10 2.57   2 2.57  27 2.57  24 2.57
  18  0.778  0.778  0.445-  25 2.57  16 2.57  13 2.57   7 2.57  15 2.57  12 2.57  17 2.57   9 2.57
                             3 2.57  11 2.57  22 2.57  27 2.57
  19  0.889  0.223  0.531-  21 2.55  20 2.55  22 2.56  24 2.56  15 2.57  12 2.57  10 2.57  25 2.57
                            26 2.57  28 2.57  32 2.60  31 2.60
  20  0.221  0.221  0.530-  10 2.54  36 2.54  11 2.55  13 2.55  26 2.55  19 2.55  27 2.57  22 2.57
                            23 2.59  21 2.59  29 2.62  31 2.62
  21  0.558  0.221  0.530-  12 2.54  36 2.54  14 2.55  11 2.55  19 2.55  25 2.55  24 2.57  27 2.57
                            20 2.59  23 2.59  32 2.62  30 2.62
  22  0.888  0.556  0.532-  24 2.56  27 2.56  19 2.56  25 2.56  35 2.56  23 2.57  20 2.57  18 2.57
                            15 2.57  13 2.58  31 2.59  33 2.59
  23  0.221  0.558  0.530-  16 2.54  36 2.54  13 2.55  14 2.55  25 2.55  26 2.55  22 2.57  24 2.57
                            20 2.59  21 2.59  33 2.62  34 2.62
  24  0.556  0.556  0.532-  22 2.56  27 2.56  19 2.56  26 2.56  35 2.56  21 2.57  23 2.57  15 2.57
                            17 2.57  14 2.58  32 2.59  34 2.59
  25  0.889  0.889  0.531-  21 2.55  23 2.55  22 2.56  27 2.56  18 2.57  16 2.57  12 2.57  19 2.57
                            26 2.57  28 2.57  33 2.60  30 2.60
  26  0.223  0.889  0.531-  20 2.55  23 2.55  27 2.56  24 2.56  17 2.57  10 2.57  16 2.57  25 2.57
                            19 2.57  28 2.57  29 2.60  34 2.60
  27  0.556  0.888  0.532-  24 2.56  22 2.56  26 2.56  25 2.56  35 2.56  20 2.57  21 2.57  17 2.57
                            18 2.57  11 2.58  29 2.59  30 2.59
  28  0.000  0.000  0.618-  33 2.56  30 2.56  31 2.56  29 2.56  32 2.56  34 2.56  25 2.57  19 2.57
                            26 2.57
  29  0.333  1.000  0.619-  34 2.56  28 2.56  35 2.57  31 2.57  36 2.57  30 2.57  27 2.59  26 2.60
                            20 2.62
  30  0.667  1.000  0.619-  33 2.56  28 2.56  35 2.57  32 2.57  36 2.57  29 2.57  27 2.59  25 2.60
                            21 2.62
  31  1.000  0.333  0.619-  32 2.56  28 2.56  35 2.57  29 2.57  36 2.57  33 2.57  22 2.59  19 2.60
                            20 2.62
  32  0.667  0.333  0.619-  31 2.56  28 2.56  35 2.57  30 2.57  36 2.57  34 2.57  24 2.59  19 2.60
                            21 2.62
  33  1.000  0.667  0.619-  30 2.56  28 2.56  35 2.57  34 2.57  36 2.57  31 2.57  22 2.59  25 2.60
                            23 2.62
  34  0.333  0.667  0.619-  29 2.56  28 2.56  35 2.57  33 2.57  36 2.57  32 2.57  24 2.59  26 2.60
                            23 2.62
  35  0.667  0.667  0.618-  24 2.56  27 2.56  22 2.56  34 2.57  32 2.57  29 2.57  30 2.57  33 2.57
                            31 2.57
  36  0.333  0.333  0.615-  37 2.00  23 2.54  20 2.54  21 2.54  31 2.57  29 2.57  33 2.57  34 2.57
                            32 2.57  30 2.57
  37  0.333  0.333  0.697-  38 1.17  36 2.00
  38  0.333  0.333  0.746-  37 1.17

  LATTYP: Found a hexagonal cell.
 ALAT       =     7.6967864036
 C/A-ratio  =     3.1481990266

  Lattice vectors:

 A1 = (  -3.8483927580,  -6.6656128093,   0.0000000000)
 A2 = (   7.6967864037,   0.0000000000,   0.0000000000)
 A3 = (   0.0000000000,   0.0000000000,  24.2310154638)

Analysis of symmetry for initial positions (statically):
 Subroutine PRICEL returns:
 Original cell was already a primitive cell.

 Routine SETGRP: Setting up the symmetry group for a
 hexagonal supercell.

 Subroutine GETGRP returns: Found  6 space group operations
 (whereof  6 operations were pure point group operations)
 out of a pool of 24 trial point group operations.

The static configuration has the point symmetry C_3v.

Analysis of symmetry for dynamics (positions and initial velocities):
 Subroutine PRICEL returns:
 Original cell was already a primitive cell.

[...]

The dynamic configuration has the point symmetry C_3v.

Analysis of constrained symmetry for selective dynamics:
 Subroutine PRICEL returns:
 Original cell was already a primitive cell.

 Routine SETGRP: Setting up the symmetry group for a
 hexagonal supercell.

[...]
     33      -4.7287      2.00000
     34      -4.7132      2.00000
     35      -4.7103      2.00000
     36      -4.6998      2.00000
     37      -4.6887      2.00000
     38      -4.6653      2.00000
     39      -4.6450      2.00000
     40      -4.5802      2.00000
     41      -4.5514      2.00000
     42      -4.4033      2.00000
     43      -4.3963      2.00000
     44      -4.3404      2.00000
     45      -4.3206      2.00000
     46      -4.3085      2.00000
     47      -4.2948      2.00000
     48      -4.2813      2.00000
     49      -4.2716      2.00000
     50      -4.2680      2.00000
     51      -4.0957      2.00000
     52      -4.0776      2.00000
     53      -4.0718      2.00000
     54      -4.0532      2.00000
     55      -4.0128      2.00000
     56      -4.0048      2.00000
     57      -3.9861      2.00000
     58      -3.9793      2.00000
     59      -3.9696      2.00000
     60      -3.9653      2.00000
[...]
    238       5.2721      0.00000
    239       5.4968      0.00000
    240       5.5803      0.00000
    241       5.6447      0.00000
    242       5.8297      0.00000
    243       5.8989      0.00000
    244       6.0655      0.00000
    245       6.0758      0.00000
    246       6.2408      0.00000
    247       6.2497      0.00000
    248       6.4910      0.00000
    249       6.6140      0.00000
    250       6.6545      0.00000
    251       6.7788      0.00000
    252       6.8506      0.00000

 soft charge-density along one line, spin component           1
         0         1         2         3         4         5         6         7         8         9
 total charge-density along one line

------------------------ aborting loop because EDIFF is reached ----------------------------------------

 total charge

# of ion       s       p       d       tot
    1        0.450   0.282   9.191   9.923
    2        0.447   0.285   9.187   9.919
    3        0.447   0.285   9.187   9.919
    4        0.447   0.285   9.187   9.919
    5        0.451   0.284   9.181   9.916
    6        0.447   0.285   9.187   9.919
    7        0.447   0.285   9.187   9.919
    8        0.447   0.285   9.187   9.919
    9        0.448   0.282   9.191   9.921
   10        0.444   0.372   9.174   9.990
   11        0.445   0.364   9.184   9.993
   12        0.444   0.372   9.174   9.990
   13        0.445   0.364   9.184   9.993
   14        0.445   0.364   9.184   9.993
   15        0.438   0.369   9.176   9.983
   16        0.444   0.372   9.174   9.990
   17        0.438   0.369   9.176   9.983
   18        0.438   0.369   9.176   9.983
   19        0.440   0.366   9.180   9.985
   20        0.471   0.403   9.159  10.032
   21        0.471   0.403   9.159  10.032
   22        0.427   0.369   9.183   9.979
   23        0.471   0.403   9.159  10.032
   24        0.427   0.369   9.183   9.979
   25        0.440   0.366   9.180   9.985
   26        0.440   0.366   9.180   9.985
   27        0.427   0.369   9.183   9.979
   28        0.445   0.290   9.183   9.918
   29        0.470   0.313   9.164   9.948
   30        0.470   0.313   9.164   9.948
   31        0.470   0.313   9.164   9.948
   32        0.470   0.313   9.164   9.948
   33        0.470   0.313   9.164   9.948
   34        0.470   0.313   9.164   9.948
   35        0.442   0.290   9.185   9.917
   36        0.683   0.630   4.211   5.524
   37        0.960   1.552   0.000   2.512
   38        1.611   3.529   0.000   5.140
tot         18.989  17.456 325.417 361.862

  FORCE on cell =-STRESS in cart. coord.  units (eV):
  Direction    XX          YY          ZZ          XY          YZ          ZX
  Alpha Z   803.88202   803.88202   803.88202
  Ewald  227243.92002227243.91963************     0.00038     0.00013     0.00016
  Hartree239962.60219239962.60220************     0.00003     0.00007     0.00005
  E(xc)   -2317.49550 -2317.49503 -2321.91725    -0.00041    -0.00003    -0.00005
  Local  ************************479957.25294     0.01880    -0.00061    -0.00094
  n-local  -792.65691  -778.35777  -805.75680     7.40506    -0.14078     0.32236
  augment  3317.30591  3317.32638  3343.66154    -0.01774     0.00030     0.00053
  Kinetic  3396.14684  3400.87718  3406.44614     3.41522     1.57126    -0.96139
  Fock        0.00000     0.00000     0.00000     0.00000     0.00000     0.00000
  Total      -6.01020    -6.01020     0.98173     0.00000    -0.00000    -0.00000
  in kB      -7.74601    -7.74601     1.26526     0.00000    -0.00000    -0.00000

 VOLUME and BASIS-vectors are now :
  energy-cutoff  :      500.00
  volume of cell :     1243.14
      direct lattice vectors                 reciprocal lattice vectors
     7.696786404  0.000000000  0.000000000     0.129924354 -0.075011849  0.000000000
     3.848392758  6.665612809  0.000000000     0.000000000  0.150023716  0.000000000
     0.000000000  0.000000000 24.231015464     0.000000000  0.000000000  0.041269422

  length of vectors
     7.696786404  7.696786404 24.231015464     0.150023716  0.150023716  0.041269422

 FORCES acting on ions
    electron-ion (+dipol)            ewald-force                    non-local-force                 convergence-correction
   -.430E-04 -.672E-06 0.376E+04   0.581E-04 -.430E-05 -.376E+04   0.317E-17 -.228E-17 -.270E+01   -.419E-03 -.254E-03 0.149E+00
   -.818E+00 -.365E+00 0.376E+04   0.452E+00 0.110E+00 -.375E+04   0.196E+00 0.237E+00 -.180E+01   0.172E+00 0.313E-01 0.151E+00
   0.818E+00 -.365E+00 0.376E+04   -.452E+00 0.110E+00 -.375E+04   -.196E+00 0.237E+00 -.180E+01   -.172E+00 0.338E-01 0.152E+00
   -.726E+00 -.526E+00 0.376E+04   0.321E+00 0.337E+00 -.375E+04   0.303E+00 0.514E-01 -.180E+01   0.113E+00 0.134E+00 0.151E+00
   -.675E-04 -.691E-05 0.376E+04   0.116E-03 -.101E-04 -.375E+04   -.459E-17 -.533E-17 -.114E+01   0.122E-01 0.748E-02 0.299E+00
   0.726E+00 -.526E+00 0.376E+04   -.321E+00 0.337E+00 -.375E+04   -.303E+00 0.514E-01 -.180E+01   -.115E+00 0.135E+00 0.152E+00
   0.930E-01 0.891E+00 0.376E+04   -.131E+00 -.446E+00 -.375E+04   0.107E+00 -.288E+00 -.180E+01   -.564E-01 -.166E+00 0.152E+00
   -.929E-01 0.891E+00 0.376E+04   0.131E+00 -.446E+00 -.375E+04   -.107E+00 -.288E+00 -.180E+01   0.598E-01 -.167E+00 0.152E+00
   -.145E-03 -.335E-04 0.376E+04   0.263E-03 0.205E-04 -.375E+04   0.355E-17 0.326E-18 -.239E+01   -.132E-01 -.675E-02 0.830E-01
   -.327E+00 -.189E+00 0.128E+04   0.728E+00 0.420E+00 -.128E+04   -.558E+00 -.322E+00 -.113E+01   0.118E+00 0.677E-01 0.113E+00
   -.923E-04 -.197E+01 0.127E+04   0.190E-03 0.149E+01 -.127E+04   -.225E-07 0.338E+00 -.701E-01   0.124E-01 0.103E+00 0.160E+00
   0.327E+00 -.189E+00 0.128E+04   -.729E+00 0.420E+00 -.128E+04   0.558E+00 -.322E+00 -.113E+01   -.120E+00 0.692E-01 0.114E+00
   -.170E+01 0.984E+00 0.127E+04   0.129E+01 -.746E+00 -.127E+04   0.293E+00 -.169E+00 -.701E-01   0.964E-01 -.400E-01 0.160E+00
   0.170E+01 0.984E+00 0.127E+04   -.129E+01 -.746E+00 -.127E+04   -.293E+00 -.169E+00 -.701E-01   -.722E-01 -.417E-01 0.159E+00
   -.143E-03 -.185E+01 0.128E+04   0.298E-03 0.158E+01 -.127E+04   -.126E-07 0.190E+00 -.103E+01   -.379E-02 0.712E-01 0.926E-01
   -.938E-04 0.377E+00 0.128E+04   0.186E-03 -.841E+00 -.128E+04   -.429E-07 0.644E+00 -.113E+01   -.766E-03 -.140E+00 0.115E+00
   -.161E+01 0.927E+00 0.128E+04   0.137E+01 -.790E+00 -.127E+04   0.164E+00 -.948E-01 -.103E+01   0.601E-01 -.390E-01 0.933E-01
   0.161E+01 0.927E+00 0.128E+04   -.137E+01 -.790E+00 -.127E+04   -.164E+00 -.948E-01 -.103E+01   -.587E-01 -.355E-01 0.959E-01
   -.619E-04 -.589E+01 -.121E+04   0.710E-04 0.571E+01 0.121E+04   -.479E-08 0.719E-01 0.109E+01   -.128E-01 0.962E-01 0.509E-01
   -.458E+02 -.264E+02 -.124E+04   0.467E+02 0.270E+02 0.124E+04   -.128E+01 -.736E+00 -.916E+00   0.125E+00 0.721E-01 0.284E-01
   0.458E+02 -.264E+02 -.124E+04   -.467E+02 0.270E+02 0.124E+04   0.128E+01 -.736E+00 -.916E+00   -.122E+00 0.705E-01 0.277E-01
   -.259E+02 0.150E+02 -.122E+04   0.251E+02 -.145E+02 0.122E+04   0.715E+00 -.413E+00 0.706E+00   0.126E+00 -.565E-01 -.615E-01
   -.910E-04 0.529E+02 -.124E+04   0.148E-03 -.540E+02 0.124E+04   -.981E-07 0.147E+01 -.916E+00   -.175E-03 -.141E+00 0.276E-01
   0.259E+02 0.150E+02 -.122E+04   -.251E+02 -.145E+02 0.122E+04   -.715E+00 -.413E+00 0.706E+00   -.126E+00 -.597E-01 -.615E-01
   0.510E+01 0.295E+01 -.121E+04   -.495E+01 -.286E+01 0.121E+04   -.623E-01 -.360E-01 0.109E+01   -.101E+00 -.587E-01 0.505E-01
   -.510E+01 0.295E+01 -.121E+04   0.495E+01 -.286E+01 0.121E+04   0.623E-01 -.360E-01 0.109E+01   0.781E-01 -.605E-01 0.509E-01
   -.117E-03 -.299E+02 -.122E+04   0.239E-03 0.290E+02 0.122E+04   -.549E-07 0.825E+00 0.706E+00   0.130E-01 0.137E+00 -.613E-01
   -.485E-04 0.100E-04 -.362E+04   0.396E-04 -.323E-04 0.361E+04   0.424E-17 -.905E-18 0.206E+01   -.657E-03 -.562E-03 0.160E+00
   -.261E+02 -.456E+02 -.361E+04   0.268E+02 0.465E+02 0.361E+04   -.778E+00 -.109E+01 0.117E+01   0.122E+00 0.143E+00 0.839E-01
   0.261E+02 -.456E+02 -.361E+04   -.268E+02 0.465E+02 0.361E+04   0.778E+00 -.109E+01 0.117E+01   -.121E+00 0.145E+00 0.820E-01
   -.526E+02 0.203E+00 -.361E+04   0.537E+02 -.984E-01 0.361E+04   -.133E+01 -.130E+00 0.117E+01   0.185E+00 0.337E-01 0.841E-01
   0.526E+02 0.203E+00 -.361E+04   -.537E+02 -.985E-01 0.361E+04   0.133E+01 -.130E+00 0.117E+01   -.186E+00 0.341E-01 0.833E-01
   -.265E+02 0.454E+02 -.361E+04   0.269E+02 -.464E+02 0.361E+04   -.553E+00 0.122E+01 0.117E+01   0.653E-01 -.177E+00 0.820E-01
   0.265E+02 0.454E+02 -.361E+04   -.269E+02 -.464E+02 0.361E+04   0.553E+00 0.122E+01 0.117E+01   -.626E-01 -.178E+00 0.825E-01
   -.151E-03 -.278E-04 -.363E+04   0.251E-03 0.276E-05 0.363E+04   0.360E-17 -.312E-18 0.265E+01   -.125E-01 -.602E-02 0.168E+00
   -.269E-04 -.494E-05 -.183E+04   0.757E-04 0.144E-04 0.184E+04   0.116E-18 0.206E-19 -.159E+01   0.803E-03 0.504E-03 0.359E-01
   -.598E-05 -.780E-04 -.131E+04   0.919E-05 0.459E-05 0.129E+04   -.167E-18 0.336E-18 0.162E+02   0.983E-03 0.598E-03 -.812E-01
   0.224E-03 -.745E-04 -.217E+04   0.221E-05 0.227E-05 0.223E+04   0.134E-17 0.604E-18 -.586E+02   0.322E-02 0.197E-02 -.634E-01
   -.102E-03 -.177E-03 0.501E+02   0.330E-13 0.170E-12 -.500E-11   -.550E-15 0.223E-15 -.534E+02   0.772E-02 0.130E-01 0.331E+01

 POSITION                                       TOTAL-FORCE (eV/Angst)
      0.00000      0.00000      8.68125        -0.000000     -0.000000     -0.063309
      2.56560      0.00000      8.68125         0.002725      0.013629      0.058412
      5.13119      0.00000      8.68125        -0.002725      0.013629      0.058412
      1.28280      2.22187      8.68125         0.013166     -0.004454      0.058412
      3.84839      2.22187      8.68125        -0.000000     -0.000000      0.030784
      6.41399      2.22187      8.68125        -0.013166     -0.004454      0.058412
      2.56560      4.44374      8.68125         0.010440     -0.009175      0.058412
      5.13119      4.44374      8.68125        -0.010440     -0.009175      0.058412
      7.69679      4.44374      8.68125        -0.000000     -0.000000      0.015290
      1.28280      0.74062     10.77605        -0.036953     -0.021335     -0.078289
      3.84839      0.74062     10.77605         0.000000     -0.040619     -0.056893
      6.41399      0.74062     10.77605         0.036953     -0.021335     -0.078289
      2.56560      2.96249     10.77605        -0.035177      0.020310     -0.056893
      5.13119      2.96249     10.77605         0.035177      0.020310     -0.056893
      7.69679      2.96249     10.77605         0.000000     -0.013989      0.006132
      3.84839      5.18437     10.77605        -0.000000      0.042670     -0.078289
      6.41399      5.18437     10.77605        -0.012115      0.006994      0.006132
      8.97958      5.18437     10.77605         0.012115      0.006994      0.006132
      7.69679      1.48345     12.87208         0.000000     -0.005160      0.064856
      2.55319      1.47409     12.84558        -0.212161     -0.122491     -0.280341
      5.14360      1.47409     12.84558         0.212161     -0.122491     -0.280341
      8.97438      3.70612     12.88278         0.036318     -0.020968      0.019886
      3.84839      3.71744     12.84558        -0.000000      0.244983     -0.280341
      6.41919      3.70612     12.88278        -0.036318     -0.020968      0.019886
     10.26047      5.92389     12.87208         0.004469      0.002580      0.064856
      5.13310      5.92389     12.87208        -0.004469      0.002580      0.064856
      7.69679      5.91898     12.88278        -0.000000      0.041937      0.019886
      0.00000      0.00000     14.97214        -0.000000     -0.000000     -0.078821
      6.40959      6.66262     15.00813        -0.021770     -0.054727     -0.018827
      8.98399      6.66262     15.00813         0.021770     -0.054727     -0.018827
      8.97479      2.21956     15.00813        -0.058280      0.008510     -0.018827
      6.41878      2.21956     15.00813         0.058280      0.008510     -0.018827
     10.26199      4.44905     15.00813        -0.036510      0.046217     -0.018827
      5.13158      4.44905     15.00813         0.036510      0.046217     -0.018827
      7.69679      4.44374     14.98086        -0.000000     -0.000000     -0.073985
      3.84839      2.22187     14.90176        -0.000000     -0.000000      0.924115
      3.84839      2.22187     16.90089        -0.000000     -0.000000     -0.014017
      3.84839      2.22187     18.07255        -0.000000     -0.000000     -0.003621
    total drift:                                0.007621      0.012807     -0.025509

  FREE ENERGIE OF THE ION-ELECTRON SYSTEM (eV)
  free  energy   TOTEN  =      -149.50990865 eV

  energy  without entropy=     -149.50990865  energy(sigma->0) =     -149.50990865

 stress matrix after NEB project (eV)
     -6.01020      0.00000     -0.00000
      0.00000     -6.01020      0.00000
      0.00000     -0.00000      0.98173
  FORCES: max atom, RMS     0.014017    0.002349
  FORCE total and by dimension    0.014478    0.014017
  Stress total and by dimension    8.556207    6.010195
|           W    W    AA    RRRRR   N    N  II  N    N   GGGG   !!!           |
|           W    W   A  A   R    R  NN   N  II  NN   N  G    G  !!!           |
|           W    W  A    A  R    R  N N  N  II  N N  N  G       !!!           |
|           W WW W  AAAAAA  RRRRR   N  N N  II  N  N N  G  GGG   !            |
|           WW  WW  A    A  R   R   N   NN  II  N   NN  G    G                |
|           W    W  A    A  R    R  N    N  II  N    N   GGGG   !!!           |
|     Tetrahedron method does not include variations of the Fermi             |
|     occupations, so forces and stress will be inaccurate. We suggest        |
|     using a different smearing scheme ISMEAR = 1 or 2 for metals in         |
|     relaxations.                                                            |

 total charge

# of ion       s       p       d       tot
    1        0.450   0.282   9.191   9.923
    2        0.447   0.285   9.187   9.919
    3        0.447   0.285   9.187   9.919
    4        0.447   0.285   9.187   9.919
    5        0.451   0.284   9.181   9.916
    6        0.447   0.285   9.187   9.919
    7        0.447   0.285   9.187   9.919
    8        0.447   0.285   9.187   9.919
    9        0.448   0.282   9.191   9.921
   10        0.444   0.372   9.174   9.990
   11        0.445   0.364   9.184   9.993
   12        0.444   0.372   9.174   9.990
   13        0.445   0.364   9.184   9.993
   14        0.445   0.364   9.184   9.993
   15        0.438   0.369   9.176   9.983
   16        0.444   0.372   9.174   9.990
   17        0.438   0.369   9.176   9.983
   18        0.438   0.369   9.176   9.983
   19        0.440   0.366   9.180   9.985
   20        0.471   0.403   9.159  10.032
   21        0.471   0.403   9.159  10.032
   22        0.427   0.369   9.183   9.979
   23        0.471   0.403   9.159  10.032
   24        0.427   0.369   9.183   9.979
   25        0.440   0.366   9.180   9.985
   26        0.440   0.366   9.180   9.985
   27        0.427   0.369   9.183   9.979
   28        0.445   0.290   9.183   9.918
   29        0.470   0.313   9.164   9.948
   30        0.470   0.313   9.164   9.948
   31        0.470   0.313   9.164   9.948
   32        0.470   0.313   9.164   9.948
   33        0.470   0.313   9.164   9.948
   34        0.470   0.313   9.164   9.948
   35        0.442   0.290   9.185   9.917
   36        0.683   0.630   4.211   5.524
   37        0.960   1.552   0.000   2.512
   38        1.611   3.529   0.000   5.140
tot         18.989  17.456 325.417 361.862

 BZINTS: Fermi energy:   -0.586140;  401.000000 electrons
         Band energy:-0.144670E+04;  BLOECHL correction:   -0.026954