 vasp.6.2.0 18Jan21 (build Jun 12 2021 23:27:24) complex

 executed on             LinuxIFC date 2022.05.26  20:02:07

 INCAR:
   ISMEAR = -5
   SIGMA = 0.1
   ISPIN = 1
   EDIFF = 1.d-5
   EDIFFG = -0.01
   NSW = 0
   NELM = 150
   ENCUT = 500
   ISIF = 2
   IBRION = 2
   LREAL = Auto
   ALGO = Fast
   ICHARG = 11
   LORBIT = 10
   LCHARG = .F.
   LWAVE = .F.

 POTCAR:    PAW_PBE Cu 22Jun2005
 POTCAR:    PAW_PBE Nb_sv 25May2007
 POTCAR:    PAW_PBE H 15Jun2001
|           W    W    AA    RRRRR   N    N  II  N    N   GGGG   !!!           |
|           W    W   A  A   R    R  NN   N  II  NN   N  G    G  !!!           |
|           W    W  A    A  R    R  N N  N  II  N N  N  G       !!!           |
|           W WW W  AAAAAA  RRRRR   N  N N  II  N  N N  G  GGG   !            |
|           WW  WW  A    A  R   R   N   NN  II  N   NN  G    G                |
|           W    W  A    A  R    R  N    N  II  N    N   GGGG   !!!           |
|     For optimal performance we recommend to set                             |
|       NCORE = 2 up to number-of-cores-per-socket                            |
|     This setting can greatly improve the performance of VASP for DFT.       |
|     The default, NCORE=1 might be grossly inefficient on modern             |
|     multi-core architectures or massively parallel machines. Do your        |
|     Unfortunately you need to use the default for GW and RPA                |
|     calculations (for HF NCORE is supported but not extensively tested      |
|     yet).                                                                   |

 POTCAR:    PAW_PBE Cu 22Jun2005
   VRHFIN =Cu: d10 p1

   TITEL  = PAW_PBE Cu 22Jun2005
   POMASS =   63.546; ZVAL   =   11.000    mass and valenz
   ENMAX  =  295.446; ENMIN  =  221.585 eV

 POTCAR:    PAW_PBE Nb_sv 25May2007
   VRHFIN =Nb: 4p5s4d

   TITEL  = PAW_PBE Nb_sv 25May2007
   POMASS =   92.910; ZVAL   =   13.000    mass and valenz
   ENMAX  =  293.235; ENMIN  =  219.927 eV

 POTCAR:    PAW_PBE H 15Jun2001
   VRHFIN =H: ultrasoft test

   TITEL  = PAW_PBE H 15Jun2001
   POMASS =    1.000; ZVAL   =    1.000    mass and valenz
   ENMAX  =  250.000; ENMIN  =  200.000 eV

 Optimization of the real space projectors (new method)

 maximal supplied QI-value         = 16.25
 optimisation between [QCUT,QGAM] = [ 11.38, 22.75] = [ 36.24,144.96] Ry
 Optimized for a Real-space Cutoff    1.52 Angstroem

   l    n(q)    QCUT    max X(q) W(low)/X(q) W(high)/X(q)  e(spline)
   2      9    11.376     4.610    0.21E-03    0.10E-03    0.26E-06
   2      9    11.376     8.522    0.33E-03    0.16E-03    0.37E-06
   0     10    11.376    51.609    0.62E-04    0.20E-04    0.13E-06
   0     10    11.376    27.747    0.54E-04    0.20E-04    0.13E-06
   1     10    11.376    20.408    0.13E-04    0.99E-04    0.19E-06
   1     10    11.376    13.425    0.12E-04    0.87E-04    0.17E-06
 Optimization of the real space projectors (new method)

[...]

   l    n(q)    QCUT    max X(q) W(low)/X(q) W(high)/X(q)  e(spline)
   0     11    11.450    10.201    0.21E-04    0.96E-05    0.78E-07
   0     11    11.450     8.174    0.31E-04    0.18E-04    0.14E-06
   1     10    11.450     3.488    0.27E-04    0.12E-04    0.96E-07
   1     10    11.450     4.917    0.11E-03    0.11E-03    0.37E-06
   2     10    11.450   153.744    0.37E-03    0.81E-03    0.10E-05
   2     10    11.450   126.342    0.37E-03    0.81E-03    0.10E-05
 Optimization of the real space projectors (new method)

 maximal supplied QI-value         = 34.20
 optimisation between [QCUT,QGAM] = [ 11.29, 22.57] = [ 35.68,142.71] Ry
 Optimized for a Real-space Cutoff    1.16 Angstroem

   l    n(q)    QCUT    max X(q) W(low)/X(q) W(high)/X(q)  e(spline)
   0      8    11.287    19.460    0.40E-03    0.73E-03    0.16E-06
   0      8    11.287    12.209    0.38E-03    0.70E-03    0.15E-06
   1      7    11.287     4.655    0.22E-03    0.25E-04    0.22E-06
  PAW_PBE Cu 22Jun2005                  :
  PAW_PBE Nb_sv 25May2007               :
  PAW_PBE H 15Jun2001                   :

 POSCAR: Cu-Nb-H
  positions in direct lattice
  velocities in cartesian coordinates
 exchange correlation table for  LEXCH =        8
   RHO(1)=    0.500       N(1)  =     2000
   RHO(2)=  100.500       N(2)  =     4000

 VTST: version 3.2, (02/03/18)

 CHAIN: initializing optimizer

 OPT: Using VASP Conjugate-Gradient optimizer
 CHAIN: Read ICHAIN            0

 POSCAR: Cu-Nb-H
  positions in direct lattice
  velocities in cartesian coordinates

 ion  position               nearest neighbor table
   1  0.000  0.000  0.252-   7 2.57   3 2.57   4 2.57   2 2.57   6 2.57   8 2.57  12 2.57  10 2.57
                            16 2.57
   2  0.333  0.000  0.252-   8 2.57   9 2.57   5 2.57   1 2.57   3 2.57  11 2.57   4 2.57  10 2.57
                            17 2.57
   3  0.667  0.000  0.252-   1 2.57   7 2.57   6 2.57   9 2.57   2 2.57  12 2.57   5 2.57  18 2.57
                            11 2.57
   4  0.000  0.333  0.252-   5 2.57   6 2.57   1 2.57   7 2.57   2 2.57  13 2.57   9 2.57  10 2.57
                            15 2.57
   5  0.333  0.333  0.252-   4 2.57   2 2.57   7 2.57  13 2.57   8 2.57   6 2.57   3 2.57  11 2.57
                            14 2.57
   6  0.667  0.333  0.252-   4 2.57   9 2.57  15 2.57   3 2.57   1 2.57   8 2.57  14 2.57   5 2.57
                            12 2.57
   7  0.000  0.667  0.252-   1 2.57   3 2.57  16 2.57  18 2.57   4 2.57   5 2.57   8 2.57   9 2.57
                            13 2.57
   8  0.333  0.667  0.252-   9 2.57   2 2.57  17 2.57   6 2.57   1 2.57   7 2.57   5 2.57  14 2.57
                            16 2.57
   9  0.667  0.667  0.252-   8 2.57   6 2.57   2 2.57  17 2.57   3 2.57   7 2.57   4 2.57  15 2.57
                            18 2.57
  10  0.111  0.111  0.351-  26 2.55  19 2.55  11 2.57  12 2.57  13 2.57   1 2.57   2 2.57   4 2.57
                            15 2.57  16 2.57  17 2.57  20 2.57
  11  0.444  0.111  0.351-  20 2.57  21 2.57  10 2.57  13 2.57   2 2.57  17 2.57  14 2.57  12 2.57
                             5 2.57   3 2.57  18 2.57  27 2.57
  12  0.778  0.111  0.351-  19 2.55  25 2.55  15 2.57  10 2.57  14 2.57  18 2.57   3 2.57   1 2.57
                            16 2.57  11 2.57   6 2.57  21 2.57
  13  0.111  0.444  0.351-  23 2.57  20 2.57  16 2.57  18 2.57  10 2.57  11 2.57  14 2.57   5 2.57
                             4 2.57   7 2.57  15 2.57  22 2.57
  14  0.444  0.444  0.351-  21 2.57  23 2.57  15 2.57  17 2.57  12 2.57  16 2.57  13 2.57  11 2.57
                             6 2.57   8 2.57   5 2.57  24 2.57
  15  0.778  0.444  0.351-  19 2.55  14 2.57  17 2.57  12 2.57   6 2.57  18 2.57  10 2.57   9 2.57
                            13 2.57   4 2.57  24 2.57  22 2.57
  16  0.111  0.778  0.351-  25 2.55  26 2.55  18 2.57  13 2.57   7 2.57  14 2.57  17 2.57  12 2.57
                            10 2.57   8 2.57   1 2.57  23 2.57
  17  0.444  0.778  0.351-  26 2.55  14 2.57  15 2.57   8 2.57   9 2.57  11 2.57  16 2.57  18 2.57
                            10 2.57   2 2.57  27 2.57  24 2.57
  18  0.778  0.778  0.351-  25 2.55  16 2.57  13 2.57   7 2.57  15 2.57  12 2.57  17 2.57   9 2.57
                             3 2.57  11 2.57  22 2.57  27 2.57
  19  0.889  0.222  0.448-  12 2.55  10 2.55  15 2.55  25 2.56  26 2.56  21 2.57  20 2.57  22 2.57
                            24 2.57  28 2.57  32 2.58  31 2.58
  20  0.222  0.222  0.449-  23 2.56  21 2.56  11 2.57  13 2.57  10 2.57  26 2.57  19 2.57  27 2.57
                            22 2.57  29 2.59  31 2.59  36 2.66
  21  0.555  0.222  0.449-  20 2.56  23 2.56  14 2.57  11 2.57  12 2.57  19 2.57  25 2.57  24 2.57
                            27 2.57  32 2.59  30 2.59  36 2.66
  22  0.889  0.556  0.449-  24 2.56  27 2.56  18 2.57  15 2.57  23 2.57  20 2.57  19 2.57  25 2.57
                            13 2.57  35 2.57  31 2.57  33 2.57
  23  0.222  0.555  0.449-  20 2.56  21 2.56  13 2.57  14 2.57  16 2.57  25 2.57  26 2.57  22 2.57
                            24 2.57  33 2.59  34 2.59  36 2.66
  24  0.556  0.556  0.449-  22 2.56  27 2.56  15 2.57  17 2.57  21 2.57  23 2.57  19 2.57  26 2.57
                            14 2.57  35 2.57  32 2.57  34 2.57
  25  0.889  0.889  0.448-  12 2.55  16 2.55  18 2.55  19 2.56  26 2.56  21 2.57  23 2.57  22 2.57
                            27 2.57  28 2.57  33 2.58  30 2.58
  26  0.222  0.889  0.448-  10 2.55  16 2.55  17 2.55  25 2.56  19 2.56  20 2.57  23 2.57  27 2.57
                            24 2.57  28 2.57  29 2.58  34 2.58
  27  0.556  0.889  0.449-  24 2.56  22 2.56  17 2.57  18 2.57  20 2.57  21 2.57  26 2.57  25 2.57
                            11 2.57  35 2.57  29 2.57  30 2.57
  28  0.000  0.000  0.547-  33 2.55  30 2.55  31 2.55  29 2.55  32 2.55  34 2.55  25 2.57  19 2.57
                            26 2.57
  29  0.334  0.996  0.548-  34 2.51  35 2.55  28 2.55  27 2.57  26 2.58  20 2.59  30 2.59  36 2.60
                            31 2.60
  30  0.670  0.996  0.548-  33 2.51  35 2.55  28 2.55  27 2.57  25 2.58  21 2.59  29 2.59  36 2.60
                            32 2.60
  31  0.996  0.334  0.548-  32 2.51  35 2.55  28 2.55  22 2.57  19 2.58  20 2.59  33 2.59  36 2.60
                            29 2.60
  32  0.670  0.334  0.548-  31 2.51  35 2.55  28 2.55  24 2.57  19 2.58  21 2.59  34 2.59  36 2.60
                            30 2.60
  33  0.996  0.670  0.548-  30 2.51  35 2.55  28 2.55  22 2.57  25 2.58  23 2.59  31 2.59  36 2.60
                            34 2.60
  34  0.334  0.670  0.548-  29 2.51  35 2.55  28 2.55  24 2.57  26 2.58  23 2.59  32 2.59  36 2.60
                            33 2.60
  35  0.667  0.667  0.548-  34 2.55  32 2.55  29 2.55  30 2.55  33 2.55  31 2.55  24 2.57  27 2.57
                            22 2.57
  36  0.333  0.333  0.553-  37 1.79  31 2.60  29 2.60  33 2.60  32 2.60  34 2.60  30 2.60  23 2.66
                            20 2.66  21 2.66
  37  0.333  0.333  0.637-  36 1.79

  LATTYP: Found a hexagonal cell.
 ALAT       =     7.6967864036
 C/A-ratio  =     2.7653617908

  Lattice vectors:

 A1 = (  -3.8483927580,  -6.6656128093,   0.0000000000)
 A2 = (   7.6967864037,   0.0000000000,   0.0000000000)
 A3 = (   0.0000000000,   0.0000000000,  21.2843990326)

Analysis of symmetry for initial positions (statically):
 Subroutine PRICEL returns:
 Original cell was already a primitive cell.

 Routine SETGRP: Setting up the symmetry group for a
 hexagonal supercell.

 Subroutine GETGRP returns: Found  6 space group operations
 (whereof  6 operations were pure point group operations)
 out of a pool of 24 trial point group operations.

The static configuration has the point symmetry C_3v.

Analysis of symmetry for dynamics (positions and initial velocities):
 Subroutine PRICEL returns:
 Original cell was already a primitive cell.

[...]

The dynamic configuration has the point symmetry C_3v.

Analysis of constrained symmetry for selective dynamics:
 Subroutine PRICEL returns:
 Original cell was already a primitive cell.

 Routine SETGRP: Setting up the symmetry group for a
 hexagonal supercell.

 Subroutine GETGRP returns: Found  6 space group operations
 (whereof  6 operations were pure point group operations)
[...]
     24      -4.4099      2.00000
     25      -4.3858      2.00000
     26      -4.3594      2.00000
     27      -4.3349      2.00000
     28      -4.2222      2.00000
     29      -4.1638      2.00000
     30      -4.1401      2.00000
     31      -4.1354      2.00000
     32      -4.0896      2.00000
     33      -4.0780      2.00000
     34      -4.0743      2.00000
     35      -4.0687      2.00000
     36      -4.0562      2.00000
     37      -4.0243      2.00000
     38      -3.9951      2.00000
     39      -3.9352      2.00000
     40      -3.9080      2.00000
     41      -3.7690      2.00000
     42      -3.7601      2.00000
     43      -3.7088      2.00000
     44      -3.6869      2.00000
     45      -3.6774      2.00000
     46      -3.6572      2.00000
     47      -3.6508      2.00000
     48      -3.6440      2.00000
     49      -3.6376      2.00000
     50      -3.4864      2.00000
     51      -3.4525      2.00000
     52      -3.4432      2.00000
     53      -3.4249      2.00000
     54      -3.3829      2.00000
     55      -3.3731      2.00000
     56      -3.3601      2.00000
     57      -3.3466      2.00000
     58      -3.3346      2.00000
     59      -3.3318      2.00000
     60      -3.2958      2.00000
[...]
    238       6.1989      0.00000
    239       6.3071      0.00000
    240       6.5900      0.00000
    241       6.6096      0.00000
    242       7.0430      0.00000
    243       7.0702      0.00000
    244       7.1408      0.00000
    245       7.1952      0.00000
    246       7.2916      0.00000
    247       7.3710      0.00000
    248       7.4418      0.00000
    249       7.5029      0.00000
    250       7.5702      0.00000
    251       7.7267      0.00000
    252       7.8325      0.00000

 soft charge-density along one line, spin component           1
         0         1         2         3         4         5         6         7         8         9
 total charge-density along one line

------------------------ aborting loop because EDIFF is reached ----------------------------------------

 total charge

# of ion       s       p       d       tot
    1        0.450   0.281   9.189   9.921
    2        0.447   0.286   9.186   9.919
    3        0.447   0.286   9.186   9.919
    4        0.447   0.286   9.186   9.919
    5        0.450   0.285   9.182   9.917
    6        0.447   0.286   9.186   9.919
    7        0.447   0.286   9.186   9.919
    8        0.447   0.286   9.186   9.919
    9        0.450   0.284   9.187   9.921
   10        0.443   0.371   9.177   9.990
   11        0.441   0.365   9.182   9.988
   12        0.443   0.371   9.177   9.990
   13        0.441   0.365   9.182   9.988
   14        0.441   0.365   9.182   9.988
   15        0.439   0.371   9.176   9.986
   16        0.443   0.371   9.177   9.990
   17        0.439   0.371   9.176   9.986
   18        0.439   0.371   9.176   9.986
   19        0.443   0.369   9.181   9.993
   20        0.466   0.386   9.163  10.015
   21        0.466   0.386   9.163  10.015
   22        0.431   0.374   9.178   9.984
   23        0.466   0.386   9.163  10.015
   24        0.431   0.374   9.178   9.984
   25        0.443   0.369   9.181   9.993
   26        0.443   0.369   9.181   9.993
   27        0.431   0.374   9.178   9.984
   28        0.445   0.295   9.181   9.920
   29        0.482   0.315   9.159   9.956
   30        0.482   0.315   9.159   9.956
   31        0.482   0.315   9.159   9.956
   32        0.482   0.315   9.159   9.956
   33        0.482   0.315   9.159   9.956
   34        0.482   0.315   9.159   9.956
   35        0.440   0.299   9.181   9.920
   36        2.225   6.005   2.384  10.614
   37        0.528   0.008   0.000   0.536
tot         18.554  17.773 323.545 359.872

  FORCE on cell =-STRESS in cart. coord.  units (eV):
  Direction    XX          YY          ZZ          XY          YZ          ZX
  Alpha Z   893.04122   893.04122   893.04122
  Ewald  174932.76670174932.76622************     0.00040     0.00011     0.00019
  Hartree188002.07923188002.07918************     0.00004     0.00005     0.00007
  E(xc)   -2308.32760 -2308.32710 -2312.91443    -0.00044    -0.00003    -0.00006
  Local  ************************376674.30178     0.01840    -0.00056    -0.00094
  n-local  -769.95491  -758.37578  -775.83495     6.39778    -0.38646     0.16277
  augment  3325.33517  3325.35511  3348.42707    -0.01726     0.00025     0.00049
  Kinetic  3383.28234  3386.07699  3419.09618     1.63775     1.86542    -1.21511
  Fock        0.00000     0.00000     0.00000     0.00000     0.00000     0.00000
  Total      -5.68414    -5.68414    -0.65915     0.00000     0.00000     0.00000
  in kB      -8.33997    -8.33997    -0.96713     0.00000     0.00000     0.00000

 VOLUME and BASIS-vectors are now :
  energy-cutoff  :      500.00
  volume of cell :     1091.97
      direct lattice vectors                 reciprocal lattice vectors
     7.696786404  0.000000000  0.000000000     0.129924354 -0.075011849  0.000000000
     3.848392758  6.665612809  0.000000000     0.000000000  0.150023716  0.000000000
     0.000000000  0.000000000 21.284399033     0.000000000  0.000000000  0.046982769

  length of vectors
     7.696786404  7.696786404 21.284399033     0.150023716  0.150023716  0.046982769

 FORCES acting on ions
    electron-ion (+dipol)            ewald-force                    non-local-force                 convergence-correction
   -.412E-04 0.378E-06 0.350E+04   0.579E-04 -.434E-05 -.350E+04   0.858E-18 -.360E-17 -.235E+01   -.335E-03 -.161E-03 -.205E-01
   -.509E+00 -.209E+00 0.350E+04   0.465E+00 0.630E-01 -.350E+04   0.533E-01 0.174E+00 -.197E+01   0.208E-02 -.257E-01 0.120E+00
   0.509E+00 -.209E+00 0.350E+04   -.465E+00 0.630E-01 -.350E+04   -.533E-01 0.174E+00 -.197E+01   -.124E-02 -.231E-01 0.121E+00
   -.435E+00 -.337E+00 0.350E+04   0.287E+00 0.371E+00 -.350E+04   0.178E+00 -.411E-01 -.197E+01   -.211E-01 0.146E-01 0.120E+00
   -.620E-04 -.368E-05 0.350E+04   0.116E-03 -.101E-04 -.349E+04   -.166E-17 0.206E-17 -.160E+01   0.122E-01 0.749E-02 0.198E+00
   0.435E+00 -.337E+00 0.350E+04   -.287E+00 0.371E+00 -.350E+04   -.178E+00 -.411E-01 -.197E+01   0.195E-01 0.158E-01 0.121E+00
   0.738E-01 0.545E+00 0.350E+04   -.178E+00 -.434E+00 -.350E+04   0.124E+00 -.133E+00 -.197E+01   -.206E-01 0.104E-01 0.121E+00
   -.737E-01 0.545E+00 0.350E+04   0.178E+00 -.434E+00 -.350E+04   -.124E+00 -.133E+00 -.197E+01   0.241E-01 0.893E-02 0.121E+00
   -.144E-03 -.328E-04 0.350E+04   0.263E-03 0.205E-04 -.350E+04   0.235E-17 0.125E-17 -.202E+01   -.133E-01 -.685E-02 0.915E-01
   -.356E+01 -.205E+01 0.120E+04   0.380E+01 0.219E+01 -.120E+04   -.310E+00 -.179E+00 -.879E+00   0.533E-01 0.308E-01 -.394E-01
   -.908E-04 -.554E+00 0.119E+04   0.190E-03 0.194E+00 -.119E+04   -.205E-07 0.308E+00 -.223E+00   0.118E-01 0.245E-01 -.473E-01
   0.356E+01 -.205E+01 0.120E+04   -.380E+01 0.219E+01 -.120E+04   0.310E+00 -.179E+00 -.879E+00   -.553E-01 0.328E-01 -.387E-01
   -.480E+00 0.277E+00 0.119E+04   0.168E+00 -.974E-01 -.119E+04   0.267E+00 -.154E+00 -.223E+00   0.276E-01 -.121E-02 -.472E-01
   0.480E+00 0.277E+00 0.119E+04   -.169E+00 -.974E-01 -.119E+04   -.267E+00 -.154E+00 -.223E+00   -.318E-02 -.220E-02 -.471E-01
   -.142E-03 -.322E+01 0.119E+04   0.297E-03 0.305E+01 -.119E+04   -.831E-08 0.125E+00 -.979E+00   -.407E-02 0.441E-01 -.421E-01
   -.913E-04 0.411E+01 0.120E+04   0.186E-03 -.439E+01 -.120E+04   -.238E-07 0.358E+00 -.879E+00   -.152E-03 -.656E-01 -.388E-01
   -.279E+01 0.161E+01 0.119E+04   0.264E+01 -.153E+01 -.119E+04   0.108E+00 -.624E-01 -.979E+00   0.368E-01 -.256E-01 -.422E-01
   0.279E+01 0.161E+01 0.119E+04   -.264E+01 -.153E+01 -.119E+04   -.108E+00 -.624E-01 -.979E+00   -.361E-01 -.225E-01 -.416E-01
   -.678E-04 -.295E+01 -.112E+04   0.650E-04 0.301E+01 0.112E+04   0.412E-08 -.619E-01 0.108E+01   -.234E-02 -.939E-02 -.160E-01
   0.274E+01 0.158E+01 -.113E+04   -.181E+01 -.105E+01 0.113E+04   -.103E+01 -.596E+00 -.695E+00   -.395E-01 -.229E-01 -.380E-01
   -.274E+01 0.158E+01 -.113E+04   0.181E+01 -.105E+01 0.113E+04   0.103E+01 -.596E+00 -.695E+00   0.635E-01 -.211E-01 -.377E-01
   -.220E+01 0.127E+01 -.113E+04   0.193E+01 -.112E+01 0.113E+04   0.364E+00 -.210E+00 0.697E+00   -.505E-01 0.284E-01 -.447E-01
   -.600E-04 -.316E+01 -.113E+04   0.142E-03 0.210E+01 0.113E+04   -.794E-07 0.119E+01 -.695E+00   0.123E-01 0.643E-01 -.378E-01
   0.220E+01 0.127E+01 -.113E+04   -.193E+01 -.112E+01 0.113E+04   -.364E+00 -.210E+00 0.697E+00   0.477E-01 0.267E-01 -.451E-01
   0.256E+01 0.148E+01 -.112E+04   -.260E+01 -.150E+01 0.112E+04   0.536E-01 0.310E-01 0.108E+01   0.944E-02 0.547E-02 -.170E-01
   -.256E+01 0.148E+01 -.112E+04   0.260E+01 -.150E+01 0.112E+04   -.536E-01 0.310E-01 0.108E+01   -.895E-02 0.287E-02 -.160E-01
   -.131E-03 -.254E+01 -.113E+04   0.243E-03 0.223E+01 0.113E+04   -.280E-07 0.421E+00 0.697E+00   -.710E-03 -.580E-01 -.446E-01
   -.297E-04 0.218E-04 -.344E+04   0.377E-04 -.331E-04 0.344E+04   0.160E-17 0.132E-17 0.188E+01   0.125E-02 0.773E-03 0.116E+00
   0.104E+02 0.904E+01 -.345E+04   -.984E+01 -.855E+01 0.344E+04   -.600E+00 -.531E+00 0.820E+00   0.643E-02 0.406E-02 0.103E+00
   -.104E+02 0.904E+01 -.345E+04   0.984E+01 -.855E+01 0.344E+04   0.600E+00 -.531E+00 0.820E+00   -.272E-01 0.669E-02 0.103E+00
   0.130E+02 0.450E+01 -.345E+04   -.123E+02 -.425E+01 0.344E+04   -.760E+00 -.254E+00 0.820E+00   0.680E-02 0.347E-02 0.103E+00
   -.130E+02 0.450E+01 -.345E+04   0.123E+02 -.425E+01 0.344E+04   0.760E+00 -.254E+00 0.820E+00   -.304E-01 0.445E-02 0.102E+00
   0.262E+01 -.135E+02 -.345E+04   -.249E+01 0.128E+02 0.344E+04   -.159E+00 0.785E+00 0.820E+00   -.781E-02 -.269E-01 0.103E+00
   -.262E+01 -.135E+02 -.345E+04   0.249E+01 0.128E+02 0.344E+04   0.159E+00 0.785E+00 0.820E+00   -.106E-01 -.285E-01 0.102E+00
   -.145E-03 -.180E-04 -.346E+04   0.258E-03 0.127E-05 0.346E+04   0.131E-17 -.294E-17 0.232E+01   -.117E-01 -.595E-02 0.120E+00
   0.116E-03 -.183E-03 -.410E+04   0.151E-03 0.344E-04 0.410E+04   0.181E-17 -.529E-18 -.150E+01   0.832E-02 0.498E-02 0.186E+00
   0.627E-05 -.622E-05 -.384E+03   0.231E-05 0.114E-05 0.386E+03   0.133E-18 -.153E-19 -.200E+01   0.157E-03 0.928E-04 -.168E-01
   -.445E-04 -.127E-03 0.138E+02   0.160E-12 0.104E-12 -.682E-12   0.142E-15 -.337E-15 -.151E+02   -.177E-02 -.398E-02 0.133E+01

 POSITION                                       TOTAL-FORCE (eV/Angst)
      0.00000      0.00000      5.37156        -0.000000      0.000000     -0.009493
      2.56560      0.00000      5.37156         0.011427      0.004155      0.060355
      5.13119      0.00000      5.37156        -0.011427      0.004155      0.060355
      1.28280      2.22187      5.37156         0.009312      0.007818      0.060355
      3.84839      2.22187      5.37156        -0.000000      0.000000      0.056295
      6.41399      2.22187      5.37156        -0.009312      0.007818      0.060355
      2.56560      4.44374      5.37156        -0.002115     -0.011973      0.060355
      5.13119      4.44374      5.37156         0.002115     -0.011973      0.060355
      7.69679      4.44374      5.37156        -0.000000     -0.000000      0.024151
      1.28280      0.74062      7.46636        -0.013208     -0.007625     -0.104798
      3.84839      0.74062      7.46636         0.000000     -0.033833     -0.030512
      6.41399      0.74062      7.46636         0.013208     -0.007625     -0.104798
      2.56560      2.96249      7.46636        -0.029300      0.016916     -0.030512
      5.13119      2.96249      7.46636         0.029300      0.016916     -0.030512
      7.69679      2.96249      7.46636        -0.000000      0.004025     -0.014787
      3.84839      5.18437      7.46636        -0.000000      0.015251     -0.104798
      6.41399      5.18437      7.46636         0.003486     -0.002013     -0.014787
      8.97958      5.18437      7.46636        -0.003486     -0.002013     -0.014787
      7.69679      1.47855      9.54201         0.000000     -0.017929      0.013740
      2.56706      1.48209      9.56134        -0.156971     -0.090627     -0.212528
      5.12972      1.48209      9.56134         0.156971     -0.090627     -0.212528
      8.97774      3.70418      9.56312         0.051500     -0.029734      0.016892
      3.84839      3.70142      9.56134        -0.000000      0.181254     -0.212528
      6.41583      3.70418      9.56312        -0.051500     -0.029734      0.016892
     10.26471      5.92634      9.54201         0.015527      0.008965      0.013740
      5.12886      5.92634      9.54201        -0.015527      0.008965      0.013740
      7.69679      5.92286      9.56312        -0.000000      0.059467      0.016892
      0.00000      0.00000     11.64396        -0.000000      0.000000      0.028943
      6.40056      6.63873     11.66709        -0.009236     -0.036686     -0.073647
      8.99302      6.63873     11.66709         0.009236     -0.036686     -0.073647
      8.94959      2.22368     11.66709        -0.036389      0.010344     -0.073647
      6.44399      2.22368     11.66709         0.036389      0.010344     -0.073647
     10.24582      4.46882     11.66709        -0.027153      0.026342     -0.073647
      5.14776      4.46882     11.66709         0.027153      0.026342     -0.073647
      7.69679      4.44374     11.66626        -0.000000      0.000000      0.039698
      3.84839      2.22187     11.77465        -0.000000      0.000000      0.929626
      3.84839      2.22187     13.56702        -0.000000      0.000000      0.006513
    total drift:                               -0.001819     -0.004108     -0.021173

  FREE ENERGIE OF THE ION-ELECTRON SYSTEM (eV)
  free  energy   TOTEN  =      -134.20414343 eV

  energy  without entropy=     -134.20414343  energy(sigma->0) =     -134.20414343

 stress matrix after NEB project (eV)
     -5.68414      0.00000      0.00000
      0.00000     -5.68414      0.00000
     -0.00000      0.00000     -0.65915
  FORCES: max atom, RMS     0.006513    0.001071
  FORCE total and by dimension    0.006513    0.006513
  Stress total and by dimension    8.065572    5.684144
|           W    W    AA    RRRRR   N    N  II  N    N   GGGG   !!!           |
|           W    W   A  A   R    R  NN   N  II  NN   N  G    G  !!!           |
|           W    W  A    A  R    R  N N  N  II  N N  N  G       !!!           |
|           W WW W  AAAAAA  RRRRR   N  N N  II  N  N N  G  GGG   !            |
|           WW  WW  A    A  R   R   N   NN  II  N   NN  G    G                |
|           W    W  A    A  R    R  N    N  II  N    N   GGGG   !!!           |
|     Tetrahedron method does not include variations of the Fermi             |
|     occupations, so forces and stress will be inaccurate. We suggest        |
|     using a different smearing scheme ISMEAR = 1 or 2 for metals in         |
|     relaxations.                                                            |

 total charge

# of ion       s       p       d       tot
    1        0.450   0.281   9.189   9.921
    2        0.447   0.286   9.186   9.919
    3        0.447   0.286   9.186   9.919
    4        0.447   0.286   9.186   9.919
    5        0.450   0.285   9.182   9.917
    6        0.447   0.286   9.186   9.919
    7        0.447   0.286   9.186   9.919
    8        0.447   0.286   9.186   9.919
    9        0.450   0.284   9.187   9.921
   10        0.443   0.371   9.177   9.990
   11        0.441   0.365   9.182   9.988
   12        0.443   0.371   9.177   9.990
   13        0.441   0.365   9.182   9.988
   14        0.441   0.365   9.182   9.988
   15        0.439   0.371   9.176   9.986
   16        0.443   0.371   9.177   9.990
   17        0.439   0.371   9.176   9.986
   18        0.439   0.371   9.176   9.986
   19        0.443   0.369   9.181   9.993
   20        0.466   0.386   9.163  10.015
   21        0.466   0.386   9.163  10.015
   22        0.431   0.374   9.178   9.984
   23        0.466   0.386   9.163  10.015
   24        0.431   0.374   9.178   9.984
   25        0.443   0.369   9.181   9.993
   26        0.443   0.369   9.181   9.993
   27        0.431   0.374   9.178   9.984
   28        0.445   0.295   9.181   9.920
   29        0.482   0.315   9.159   9.956
   30        0.482   0.315   9.159   9.956
   31        0.482   0.315   9.159   9.956
   32        0.482   0.315   9.159   9.956
   33        0.482   0.315   9.159   9.956
   34        0.482   0.315   9.159   9.956
   35        0.440   0.299   9.181   9.920
   36        2.225   6.005   2.384  10.614
   37        0.528   0.008   0.000   0.536
tot         18.554  17.773 323.545 359.872

 BZINTS: Fermi energy:    0.081204;  399.000000 electrons
         Band energy:-0.139325E+04;  BLOECHL correction:   -0.022427