 vasp.6.2.0 18Jan21 (build Jun 12 2021 23:27:24) complex

 executed on             LinuxIFC date 2022.05.30  17:24:31

 INCAR:
   ISMEAR = -5
   SIGMA = 0.1
   ISPIN = 1
   EDIFF = 1.d-5
   EDIFFG = -0.01
   NSW = 0
   NELM = 150
   ENCUT = 500
   ISIF = 2
   IBRION = 2
   LREAL = Auto
   ALGO = Fast
   ICHARG = 11
   LORBIT = 10
   LCHARG = .F.
   LWAVE = .F.

 POTCAR:    PAW_PBE Ag 02Apr2005
 POTCAR:    PAW_PBE Rh 04Feb2005
 POTCAR:    PAW_PBE C 08Apr2002
|           W    W    AA    RRRRR   N    N  II  N    N   GGGG   !!!           |
|           W    W   A  A   R    R  NN   N  II  NN   N  G    G  !!!           |
|           W    W  A    A  R    R  N N  N  II  N N  N  G       !!!           |
|           W WW W  AAAAAA  RRRRR   N  N N  II  N  N N  G  GGG   !            |
|           WW  WW  A    A  R   R   N   NN  II  N   NN  G    G                |
|           W    W  A    A  R    R  N    N  II  N    N   GGGG   !!!           |
|     For optimal performance we recommend to set                             |
|       NCORE = 2 up to number-of-cores-per-socket                            |
|     This setting can greatly improve the performance of VASP for DFT.       |
|     The default, NCORE=1 might be grossly inefficient on modern             |
|     multi-core architectures or massively parallel machines. Do your        |
|     Unfortunately you need to use the default for GW and RPA                |
|     calculations (for HF NCORE is supported but not extensively tested      |
|     yet).                                                                   |

 POTCAR:    PAW_PBE Ag 02Apr2005
   VRHFIN =Ag : s1 d10

   TITEL  = PAW_PBE Ag 02Apr2005
   POMASS =  107.868; ZVAL   =   11.000    mass and valenz
   ENMAX  =  249.844; ENMIN  =  187.383 eV

 POTCAR:    PAW_PBE Rh 04Feb2005
   VRHFIN =Rh: s1 d8

   TITEL  = PAW_PBE Rh 04Feb2005
   POMASS =  102.906; ZVAL   =    9.000    mass and valenz
   ENMAX  =  228.996; ENMIN  =  171.747 eV

 POTCAR:    PAW_PBE C 08Apr2002
   VRHFIN =C: s2p2

   TITEL  = PAW_PBE C 08Apr2002
   POMASS =   12.011; ZVAL   =    4.000    mass and valenz
   ENMAX  =  400.000; ENMIN  =  300.000 eV

 Optimization of the real space projectors (new method)

 maximal supplied QI-value         = 15.12
 optimisation between [QCUT,QGAM] = [ 11.34, 22.83] = [ 36.00,145.93] Ry
 Optimized for a Real-space Cutoff    1.43 Angstroem

   l    n(q)    QCUT    max X(q) W(low)/X(q) W(high)/X(q)  e(spline)
   2      9    11.338    53.897    0.16E-03    0.20E-03    0.28E-06
   2      9    11.338    52.416    0.16E-03    0.20E-03    0.29E-06
   0     10    11.338   122.045    0.31E-04    0.76E-04    0.15E-06
   0     10    11.338    73.629    0.30E-04    0.72E-04    0.15E-06
   1      9    11.338    15.255    0.20E-03    0.19E-04    0.17E-06
   1      9    11.338     9.562    0.16E-03    0.15E-04    0.14E-06
 Optimization of the real space projectors (new method)

[...]

   l    n(q)    QCUT    max X(q) W(low)/X(q) W(high)/X(q)  e(spline)
   2      9    11.327    59.645    0.31E-03    0.12E-04    0.28E-06
   2      9    11.327    58.460    0.31E-03    0.12E-04    0.29E-06
   0     10    11.327    97.683    0.32E-04    0.83E-04    0.31E-06
   0     10    11.327    53.223    0.30E-04    0.78E-04    0.29E-06
   1     10    11.327    13.596    0.49E-03    0.95E-03    0.55E-06
   1     10    11.327     7.885    0.36E-03    0.71E-03    0.41E-06
 Optimization of the real space projectors (new method)

 maximal supplied QI-value         = 25.13
 optimisation between [QCUT,QGAM] = [ 11.31, 22.87] = [ 35.82,146.48] Ry
 Optimized for a Real-space Cutoff    1.00 Angstroem

   l    n(q)    QCUT    max X(q) W(low)/X(q) W(high)/X(q)  e(spline)
   0      7    11.310   115.676    0.43E-03    0.13E-02    0.19E-06
   0      7    11.310    87.132    0.43E-03    0.13E-02    0.18E-06
   1      6    11.310     4.429    0.42E-03    0.74E-03    0.11E-06
   1      6    11.310     2.733    0.34E-03    0.55E-03    0.92E-07
  PAW_PBE Ag 02Apr2005                  :
  PAW_PBE Rh 04Feb2005                  :
  PAW_PBE C 08Apr2002                   :

 POSCAR: Ag-Rh-C
  positions in direct lattice
  velocities in cartesian coordinates
 exchange correlation table for  LEXCH =        8
   RHO(1)=    0.500       N(1)  =     2000
   RHO(2)=  100.500       N(2)  =     4000

 VTST: version 3.2, (02/03/18)

 CHAIN: initializing optimizer

 OPT: Using VASP Conjugate-Gradient optimizer
 CHAIN: Read ICHAIN            0

 POSCAR: Ag-Rh-C
  positions in direct lattice
  velocities in cartesian coordinates

 ion  position               nearest neighbor table
   1  0.000  0.000  0.217-   2 2.93   8 2.93   7 2.93   6 2.93   4 2.93  12 2.93  16 2.93  10 2.93
                             3 2.93
   2  0.333  0.000  0.217-   1 2.93   8 2.93   9 2.93   3 2.93   4 2.93   5 2.93  10 2.93  17 2.93
                            11 2.93
   3  0.667  0.000  0.217-   9 2.93   2 2.93   5 2.93  11 2.93   7 2.93  18 2.93   1 2.93   6 2.93
                            12 2.93
   4  0.000  0.333  0.217-   5 2.93   6 2.93   2 2.93   1 2.93   7 2.93  13 2.93  15 2.93   9 2.93
                            10 2.93
   5  0.333  0.333  0.217-   4 2.93   3 2.93   7 2.93   2 2.93   8 2.93  14 2.93  13 2.93  11 2.93
                             6 2.93
   6  0.667  0.333  0.217-   4 2.93   9 2.93   1 2.93  15 2.93   8 2.93  12 2.93   3 2.93   5 2.93
                            14 2.93
   7  0.000  0.667  0.217-   8 2.93   1 2.93   5 2.93   3 2.93   4 2.93  16 2.93  18 2.93  13 2.93
                             9 2.93
   8  0.333  0.667  0.217-   7 2.93   1 2.93   2 2.93   9 2.93   5 2.93  16 2.93   6 2.93  17 2.93
                            14 2.93
   9  0.667  0.667  0.217-   3 2.93   2 2.93   8 2.93   6 2.93  17 2.93   4 2.93  15 2.93   7 2.93
                            18 2.93
  10  0.111  0.111  0.315-  20 2.90  19 2.93  26 2.93  12 2.93  16 2.93  15 2.93  17 2.93  13 2.93
                            11 2.93   2 2.93   1 2.93   4 2.93
  11  0.444  0.111  0.315-  21 2.90  20 2.90  27 2.92  14 2.93  17 2.93  18 2.93   3 2.93  12 2.93
                            13 2.93  10 2.93   5 2.93   2 2.93
  12  0.778  0.111  0.315-  21 2.90  25 2.93  19 2.93  10 2.93  16 2.93  18 2.93  15 2.93  11 2.93
                             1 2.93  14 2.93   6 2.93   3 2.93
  13  0.111  0.444  0.315-  20 2.90  23 2.90  22 2.92  15 2.93  14 2.93  18 2.93  10 2.93  11 2.93
                            16 2.93   4 2.93   5 2.93   7 2.93
  14  0.444  0.444  0.315-  23 2.90  21 2.90  24 2.92  13 2.93  11 2.93  16 2.93   5 2.93  12 2.93
                            17 2.93   8 2.93  15 2.93   6 2.93
  15  0.778  0.444  0.315-  24 2.92  22 2.92  19 2.92  13 2.93  10 2.93  12 2.93  17 2.93  18 2.93
                             4 2.93   6 2.93   9 2.93  14 2.93
  16  0.111  0.778  0.315-  23 2.90  26 2.93  25 2.93  18 2.93  12 2.93  10 2.93  14 2.93  17 2.93
                            13 2.93   7 2.93   8 2.93   1 2.93
  17  0.444  0.778  0.315-  27 2.92  24 2.92  26 2.92  11 2.93  10 2.93   9 2.93  18 2.93  15 2.93
                            16 2.93   2 2.93  14 2.93   8 2.93
  18  0.778  0.778  0.315-  22 2.92  27 2.92  25 2.92  16 2.93  12 2.93  13 2.93  11 2.93  17 2.93
                            15 2.93   7 2.93   3 2.93   9 2.93
  19  0.889  0.223  0.413-  28 2.91  15 2.92  10 2.93  12 2.93  24 2.93  22 2.93  32 2.93  31 2.93
                            20 2.93  21 2.93  26 2.94  25 2.94
  20  0.222  0.222  0.412-  36 2.78  13 2.90  11 2.90  10 2.90  31 2.91  29 2.91  21 2.92  23 2.92
                            27 2.93  22 2.93  19 2.93  26 2.93
  21  0.555  0.222  0.412-  36 2.78  11 2.90  14 2.90  12 2.90  30 2.91  32 2.91  20 2.92  23 2.92
                            27 2.93  24 2.93  25 2.93  19 2.93
  22  0.889  0.556  0.413-  35 2.90  18 2.92  15 2.92  13 2.92  33 2.92  31 2.92  25 2.93  19 2.93
                            24 2.93  27 2.93  23 2.93  20 2.93
  23  0.222  0.555  0.412-  36 2.78  14 2.90  13 2.90  16 2.90  34 2.91  33 2.91  21 2.92  20 2.92
                            22 2.93  24 2.93  26 2.93  25 2.93
  24  0.556  0.556  0.413-  35 2.90  15 2.92  17 2.92  14 2.92  32 2.92  34 2.92  19 2.93  26 2.93
                            27 2.93  22 2.93  23 2.93  21 2.93
  25  0.889  0.889  0.413-  28 2.91  18 2.92  16 2.93  12 2.93  22 2.93  27 2.93  33 2.93  30 2.93
                            23 2.93  21 2.93  26 2.94  19 2.94
  26  0.223  0.889  0.413-  28 2.91  17 2.92  16 2.93  10 2.93  27 2.93  24 2.93  34 2.93  29 2.93
                            23 2.93  20 2.93  25 2.94  19 2.94
  27  0.556  0.889  0.413-  35 2.90  17 2.92  18 2.92  11 2.92  29 2.92  30 2.92  26 2.93  25 2.93
                            24 2.93  22 2.93  20 2.93  21 2.93
  28  0.000  0.000  0.510-  26 2.91  25 2.91  19 2.91  29 2.95  34 2.95  33 2.95  32 2.95  31 2.95
                            30 2.95
  29  0.333  0.005  0.510-  31 2.88  30 2.89  36 2.89  20 2.91  27 2.92  26 2.93  28 2.95  35 2.95
                            34 3.02
  30  0.662  0.005  0.510-  32 2.88  29 2.89  36 2.89  21 2.91  27 2.92  25 2.93  28 2.95  35 2.95
                            33 3.02
  31  0.005  0.333  0.510-  29 2.88  33 2.89  36 2.89  20 2.91  22 2.92  19 2.93  28 2.95  35 2.95
                            32 3.02
  32  0.662  0.333  0.510-  30 2.88  34 2.89  36 2.89  21 2.91  24 2.92  19 2.93  28 2.95  35 2.95
                            31 3.02
  33  0.005  0.662  0.510-  34 2.88  31 2.89  36 2.89  23 2.91  22 2.92  25 2.93  28 2.95  35 2.95
                            30 3.02
  34  0.333  0.662  0.510-  33 2.88  32 2.89  36 2.89  23 2.91  24 2.92  26 2.93  28 2.95  35 2.95
                            29 3.02
  35  0.667  0.667  0.510-  24 2.90  27 2.90  22 2.90  30 2.95  32 2.95  29 2.95  34 2.95  31 2.95
                            33 2.95
  36  0.333  0.333  0.502-  37 1.69  21 2.78  20 2.78  23 2.78  31 2.89  30 2.89  33 2.89  29 2.89
                            34 2.89  32 2.89
  37  0.333  0.333  0.571-  36 1.69

  LATTYP: Found a hexagonal cell.
 ALAT       =     8.7913665772
 C/A-ratio  =     2.7711238095

  Lattice vectors:

 A1 = (  -4.3956832886,  -7.6135467898,   0.0000000000)
 A2 = (   8.7913665771,   0.0000000000,   0.0000000000)
 A3 = (   0.0000000000,   0.0000000000,  24.3619652401)

Analysis of symmetry for initial positions (statically):
 Subroutine PRICEL returns:
 Original cell was already a primitive cell.

 Routine SETGRP: Setting up the symmetry group for a
 hexagonal supercell.

 Subroutine GETGRP returns: Found  6 space group operations
 (whereof  6 operations were pure point group operations)
 out of a pool of 24 trial point group operations.

The static configuration has the point symmetry C_3v.

Analysis of symmetry for dynamics (positions and initial velocities):
 Subroutine PRICEL returns:
 Original cell was already a primitive cell.

[...]

The dynamic configuration has the point symmetry C_3v.

Analysis of constrained symmetry for selective dynamics:
 Subroutine PRICEL returns:
 Original cell was already a primitive cell.

 Routine SETGRP: Setting up the symmetry group for a
 hexagonal supercell.

 Subroutine GETGRP returns: Found  6 space group operations
[...]
     24      -5.0825      2.00000
     25      -5.0771      2.00000
     26      -5.0489      2.00000
     27      -5.0385      2.00000
     28      -5.0145      2.00000
     29      -5.0143      2.00000
     30      -4.9933      2.00000
     31      -4.9771      2.00000
     32      -4.9752      2.00000
     33      -4.9401      2.00000
     34      -4.9369      2.00000
     35      -4.8777      2.00000
     36      -4.8667      2.00000
     37      -4.8563      2.00000
     38      -4.8392      2.00000
     39      -4.8146      2.00000
     40      -4.7977      2.00000
     41      -4.7843      2.00000
     42      -4.7725      2.00000
     43      -4.7503      2.00000
     44      -4.6723      2.00000
     45      -4.6362      2.00000
     46      -4.6312      2.00000
     47      -4.6243      2.00000
     48      -4.6197      2.00000
     49      -4.6103      2.00000
     50      -4.5997      2.00000
     51      -4.5957      2.00000
     52      -4.5902      2.00000
     53      -4.5839      2.00000
     54      -4.5175      2.00000
     55      -4.5047      2.00000
     56      -4.4893      2.00000
     57      -4.4811      2.00000
     58      -4.4774      2.00000
     59      -4.4633      2.00000
     60      -4.4408      2.00000
[...]
    238       5.8429      0.00000
    239       5.9487      0.00000
    240       5.9815      0.00000
    241       6.4635      0.00000
    242       6.4777      0.00000
    243       6.6537      0.00000
    244       6.6884      0.00000
    245       6.7569      0.00000
    246       6.7846      0.00000
    247       6.8326      0.00000
    248       6.9121      0.00000
    249       6.9811      0.00000
    250       7.1521      0.00000
    251       7.2123      0.00000
    252       7.2596      0.00000

 soft charge-density along one line, spin component           1
         0         1         2         3         4         5         6         7         8         9
 total charge-density along one line

------------------------ aborting loop because EDIFF is reached ----------------------------------------

 total charge

# of ion       s       p       d       tot
    1        0.416   0.204   9.177   9.796
    2        0.416   0.204   9.177   9.796
    3        0.416   0.204   9.177   9.796
    4        0.416   0.204   9.177   9.796
    5        0.419   0.202   9.177   9.797
    6        0.416   0.204   9.177   9.796
    7        0.416   0.204   9.177   9.796
    8        0.416   0.204   9.177   9.796
    9        0.414   0.205   9.176   9.795
   10        0.407   0.269   9.165   9.841
   11        0.402   0.273   9.164   9.840
   12        0.407   0.269   9.165   9.841
   13        0.402   0.273   9.164   9.840
   14        0.402   0.273   9.164   9.840
   15        0.404   0.269   9.165   9.838
   16        0.407   0.269   9.165   9.841
   17        0.404   0.269   9.165   9.838
   18        0.404   0.269   9.165   9.838
   19        0.406   0.266   9.167   9.839
   20        0.421   0.290   9.155   9.866
   21        0.421   0.290   9.155   9.866
   22        0.398   0.275   9.165   9.839
   23        0.421   0.290   9.155   9.866
   24        0.398   0.275   9.165   9.839
   25        0.406   0.266   9.167   9.839
   26        0.406   0.266   9.167   9.839
   27        0.398   0.275   9.165   9.839
   28        0.419   0.196   9.181   9.796
   29        0.407   0.210   9.181   9.798
   30        0.407   0.210   9.181   9.798
   31        0.407   0.210   9.181   9.798
   32        0.407   0.210   9.181   9.798
   33        0.407   0.210   9.181   9.798
   34        0.407   0.210   9.181   9.798
   35        0.419   0.196   9.182   9.797
   36        0.526   0.543   7.657   8.726
   37        1.029   1.186   0.000   2.215
tot         15.894  10.145 328.637 354.676

  FORCE on cell =-STRESS in cart. coord.  units (eV):
  Direction    XX          YY          ZZ          XY          YZ          ZX
  Alpha Z   680.62107   680.62107   680.62107
  Ewald  154294.68704154294.68708************     0.00002     0.00000     0.00002
  Hartree164259.05576164259.05577************     0.00001    -0.00000     0.00001
  E(xc)   -2086.25238 -2086.25236 -2091.63027    -0.00002    -0.00000    -0.00000
  Local  ************************330070.09774     0.00025    -0.00004    -0.00011
  n-local  -324.17891  -306.13513  -308.95305    11.28349    -0.38815     0.58588
  augment  3281.86090  3281.86112  3280.49904    -0.00019    -0.00003    -0.00001
  Kinetic  4939.43278  4941.56485  4942.68167     4.19606     1.23613    -0.46120
  Fock        0.00000     0.00000     0.00000     0.00000     0.00000     0.00000
  Total      -6.52794    -6.52794    -0.02004    -0.00000    -0.00000     0.00000
  in kB      -6.41403    -6.41403    -0.01969    -0.00000    -0.00000     0.00000

 VOLUME and BASIS-vectors are now :
  energy-cutoff  :      500.00
  volume of cell :     1630.63
      direct lattice vectors                 reciprocal lattice vectors
     8.791366577  0.000000000  0.000000000     0.113747958 -0.065672414  0.000000000
     4.395683289  7.613546790  0.000000000     0.000000000  0.131344829  0.000000000
     0.000000000  0.000000000 24.361965240     0.000000000  0.000000000  0.041047592

  length of vectors
     8.791366577  8.791366577 24.361965240     0.131344829  0.131344829  0.041047592

 FORCES acting on ions
    electron-ion (+dipol)            ewald-force                    non-local-force                 convergence-correction
   0.462E-04 -.281E-04 0.268E+04   -.954E-04 0.593E-04 -.268E+04   0.225E-18 0.183E-17 -.175E+01   -.171E-03 -.165E-03 0.119E+00
   0.324E+00 0.496E+00 0.268E+04   -.405E+00 -.469E+00 -.268E+04   0.787E-02 -.818E-02 -.165E+01   0.731E-01 -.189E-01 0.176E+00
   -.324E+00 0.496E+00 0.268E+04   0.405E+00 -.469E+00 -.268E+04   -.787E-02 -.818E-02 -.165E+01   -.735E-01 -.170E-01 0.177E+00
   0.592E+00 0.326E-01 0.268E+04   -.609E+00 -.116E+00 -.268E+04   -.315E-02 0.109E-01 -.165E+01   0.204E-01 0.729E-01 0.176E+00
   -.726E-05 -.196E-04 0.269E+04   0.981E-04 -.199E-05 -.268E+04   -.191E-17 -.710E-18 -.182E+01   0.625E-02 0.382E-02 0.187E+00
   -.592E+00 0.326E-01 0.268E+04   0.609E+00 -.116E+00 -.268E+04   0.315E-02 0.109E-01 -.165E+01   -.218E-01 0.738E-01 0.177E+00
   0.268E+00 -.529E+00 0.268E+04   -.204E+00 0.585E+00 -.268E+04   -.110E-01 -.273E-02 -.165E+01   -.510E-01 -.547E-01 0.177E+00
   -.268E+00 -.529E+00 0.268E+04   0.204E+00 0.585E+00 -.268E+04   0.110E-01 -.273E-02 -.165E+01   0.526E-01 -.557E-01 0.177E+00
   0.364E-04 -.131E-04 0.268E+04   0.792E-04 -.643E-04 -.268E+04   0.125E-17 0.154E-17 -.164E+01   -.661E-02 -.343E-02 0.215E+00
   0.436E+01 0.252E+01 0.911E+03   -.435E+01 -.251E+01 -.910E+03   -.130E+00 -.750E-01 -.589E+00   0.109E+00 0.630E-01 0.181E+00
   -.287E-04 0.457E+01 0.917E+03   0.413E-04 -.470E+01 -.917E+03   0.543E-12 0.827E-01 -.622E+00   0.661E-02 0.202E-01 0.175E+00
   -.436E+01 0.252E+01 0.911E+03   0.435E+01 -.251E+01 -.910E+03   0.130E+00 -.750E-01 -.589E+00   -.111E+00 0.640E-01 0.182E+00
   0.396E+01 -.229E+01 0.917E+03   -.407E+01 0.235E+01 -.917E+03   0.716E-01 -.414E-01 -.622E+00   0.207E-01 -.436E-02 0.175E+00
   -.396E+01 -.229E+01 0.917E+03   0.407E+01 0.235E+01 -.917E+03   -.716E-01 -.414E-01 -.622E+00   -.989E-02 -.575E-02 0.174E+00
   0.164E-04 0.580E+00 0.911E+03   -.108E-03 -.603E+00 -.910E+03   -.129E-12 -.196E-01 -.486E+00   -.171E-02 0.318E-01 0.170E+00
   -.783E-05 -.503E+01 0.911E+03   0.206E-04 0.503E+01 -.910E+03   0.986E-12 0.150E+00 -.589E+00   -.238E-03 -.128E+00 0.181E+00
   0.502E+00 -.290E+00 0.911E+03   -.522E+00 0.301E+00 -.910E+03   -.169E-01 0.978E-02 -.486E+00   0.268E-01 -.174E-01 0.169E+00
   -.502E+00 -.290E+00 0.911E+03   0.522E+00 0.301E+00 -.910E+03   0.169E-01 0.978E-02 -.486E+00   -.263E-01 -.153E-01 0.171E+00
   0.405E-04 0.230E+01 -.892E+03   -.129E-03 -.225E+01 0.892E+03   -.459E-12 -.698E-01 0.492E+00   -.657E-02 0.107E-01 0.176E-01
   0.140E+02 0.810E+01 -.860E+03   -.136E+02 -.787E+01 0.860E+03   -.621E+00 -.359E+00 -.173E+00   0.697E-01 0.410E-01 0.260E-01
   -.140E+02 0.810E+01 -.860E+03   0.136E+02 -.787E+01 0.860E+03   0.621E+00 -.359E+00 -.173E+00   -.681E-01 0.396E-01 0.253E-01
   0.556E+01 -.321E+01 -.883E+03   -.593E+01 0.342E+01 0.883E+03   0.293E+00 -.169E+00 0.709E+00   0.706E-01 -.391E-01 -.424E-01
   -.562E-04 -.162E+02 -.860E+03   0.439E-04 0.157E+02 0.860E+03   0.471E-11 0.717E+00 -.173E+00   -.543E-02 -.878E-01 0.254E-01
   -.556E+01 -.321E+01 -.883E+03   0.593E+01 0.342E+01 0.883E+03   -.293E+00 -.169E+00 0.709E+00   -.691E-01 -.406E-01 -.418E-01
   -.199E+01 -.115E+01 -.892E+03   0.195E+01 0.113E+01 0.892E+03   0.605E-01 0.349E-01 0.492E+00   -.169E-01 -.915E-02 0.177E-01
   0.199E+01 -.115E+01 -.892E+03   -.195E+01 0.113E+01 0.892E+03   -.605E-01 0.349E-01 0.492E+00   0.607E-02 -.101E-01 0.176E-01
   0.199E-04 0.642E+01 -.883E+03   0.110E-03 -.685E+01 0.883E+03   0.222E-11 0.338E+00 0.709E+00   0.993E-03 0.801E-01 -.424E-01
   0.540E-04 -.374E-04 -.267E+04   -.116E-03 0.781E-04 0.266E+04   -.490E-17 0.816E-18 0.190E+01   -.149E-02 -.713E-03 -.533E-01
   0.184E+02 0.326E+02 -.266E+04   -.182E+02 -.323E+02 0.266E+04   -.272E+00 -.457E+00 0.213E+01   0.458E-01 0.118E-01 -.788E-01
   -.184E+02 0.326E+02 -.266E+04   0.182E+02 -.323E+02 0.266E+04   0.272E+00 -.457E+00 0.213E+01   -.356E-01 0.131E-01 -.797E-01
   0.374E+02 -.397E+00 -.266E+04   -.371E+02 0.376E+00 0.266E+04   -.531E+00 -.675E-02 0.213E+01   0.333E-01 0.340E-01 -.790E-01
   -.374E+02 -.397E+00 -.266E+04   0.371E+02 0.376E+00 0.266E+04   0.531E+00 -.675E-02 0.213E+01   -.238E-01 0.343E-01 -.795E-01
   0.191E+02 -.322E+02 -.266E+04   -.189E+02 0.320E+02 0.266E+04   -.260E+00 0.464E+00 0.213E+01   -.631E-02 -.371E-01 -.797E-01
   -.191E+02 -.322E+02 -.266E+04   0.189E+02 0.320E+02 0.266E+04   0.260E+00 0.464E+00 0.213E+01   0.177E-01 -.379E-01 -.789E-01
   0.229E-04 -.119E-04 -.266E+04   0.106E-03 -.662E-04 0.266E+04   0.265E-17 -.272E-17 0.197E+01   -.744E-02 -.400E-02 -.836E-01
   -.923E-06 -.182E-04 -.195E+04   0.860E-04 0.106E-04 0.195E+04   -.391E-17 0.294E-17 -.463E+01   0.212E-02 0.155E-02 -.487E-01
   0.472E-04 -.279E-04 -.123E+04   0.194E-04 0.298E-06 0.124E+04   -.822E-18 -.696E-18 -.117E+02   0.590E-03 0.372E-03 -.858E-01
   0.418E-03 -.728E-03 0.143E+02   0.277E-13 -.168E-12 -.841E-11   -.208E-17 0.222E-15 -.168E+02   0.194E-01 0.931E-02 0.241E+01

 POSITION                                       TOTAL-FORCE (eV/Angst)
      0.00000      0.00000      5.28219        -0.000000      0.000000      0.016615
      2.93046      0.00000      5.28219         0.000730      0.001427      0.021882
      5.86091      0.00000      5.28219        -0.000730      0.001427      0.021882
      1.46523      2.53785      5.28219         0.001601     -0.000081      0.021882
      4.39568      2.53785      5.28219        -0.000000     -0.000000     -0.006816
      7.32614      2.53785      5.28219        -0.001601     -0.000081      0.021882
      2.93046      5.07570      5.28219         0.000870     -0.001346      0.021882
      5.86091      5.07570      5.28219        -0.000870     -0.001346      0.021882
      8.79137      5.07570      5.28219        -0.000000      0.000000      0.030419
      1.46523      0.84595      7.67490        -0.015971     -0.009221     -0.009913
      4.39568      0.84595      7.67490        -0.000000     -0.024086     -0.052650
      7.32614      0.84595      7.67490         0.015971     -0.009221     -0.009913
      2.93046      3.38380      7.67490        -0.020859      0.012043     -0.052650
      5.86091      3.38380      7.67490         0.020859      0.012043     -0.052650
      8.79137      3.38380      7.67490        -0.000000     -0.011187      0.001372
      4.39568      5.92165      7.67490         0.000000      0.018442     -0.009913
      7.32614      5.92165      7.67490        -0.009688      0.005594      0.001372
     10.25659      5.92165      7.67490         0.009688      0.005594      0.001372
      8.79137      1.69615     10.06050        -0.000000     -0.005581     -0.010226
      2.93321      1.69349     10.03240        -0.151669     -0.087566     -0.187270
      5.85816      1.69349     10.03240         0.151669     -0.087566     -0.187270
     10.25564      4.23030     10.05204        -0.007956      0.004593     -0.007134
      4.39568      4.22657     10.03240         0.000000      0.175132     -0.187270
      7.32709      4.23030     10.05204         0.007956      0.004593     -0.007134
     11.71814      6.76547     10.06050         0.004833      0.002790     -0.010226
      5.86459      6.76547     10.06050        -0.004833      0.002790     -0.010226
      8.79137      6.76650     10.05204        -0.000000     -0.009187     -0.007134
      0.00000      0.00000     12.42190        -0.000000     -0.000000      0.017431
      2.95118      0.03878     12.42853        -0.105450     -0.187561     -0.042249
      5.84018      0.03878     12.42853         0.105450     -0.187561     -0.042249
      1.50917      2.53641     12.42853        -0.215157      0.002458     -0.042249
      7.28219      2.53641     12.42853         0.215157      0.002458     -0.042249
      2.95367      5.03836     12.42853        -0.109708      0.185102     -0.042249
      5.83769      5.03836     12.42853         0.109708      0.185102     -0.042249
      8.79137      5.07570     12.41313        -0.000000      0.000000      0.018192
      4.39568      2.53785     12.23685        -0.000000     -0.000000      0.851133
      4.39568      2.53785     13.92269        -0.000000     -0.000000     -0.007307
    total drift:                                0.019779      0.008587     -0.082379

  FREE ENERGIE OF THE ION-ELECTRON SYSTEM (eV)
  free  energy   TOTEN  =      -102.24139632 eV

  energy  without entropy=     -102.24139632  energy(sigma->0) =     -102.24139632

 stress matrix after NEB project (eV)
     -6.52794     -0.00000      0.00000
     -0.00000     -6.52794      0.00000
      0.00000     -0.00000     -0.02004
  FORCES: max atom, RMS     0.007307    0.001201
  FORCE total and by dimension    0.007307    0.007307
  Stress total and by dimension    9.231923    6.527940
|           W    W    AA    RRRRR   N    N  II  N    N   GGGG   !!!           |
|           W    W   A  A   R    R  NN   N  II  NN   N  G    G  !!!           |
|           W    W  A    A  R    R  N N  N  II  N N  N  G       !!!           |
|           W WW W  AAAAAA  RRRRR   N  N N  II  N  N N  G  GGG   !            |
|           WW  WW  A    A  R   R   N   NN  II  N   NN  G    G                |
|           W    W  A    A  R    R  N    N  II  N    N   GGGG   !!!           |
|     Tetrahedron method does not include variations of the Fermi             |
|     occupations, so forces and stress will be inaccurate. We suggest        |
|     using a different smearing scheme ISMEAR = 1 or 2 for metals in         |
|     relaxations.                                                            |

 total charge

# of ion       s       p       d       tot
    1        0.416   0.204   9.177   9.796
    2        0.416   0.204   9.177   9.796
    3        0.416   0.204   9.177   9.796
    4        0.416   0.204   9.177   9.796
    5        0.419   0.202   9.177   9.797
    6        0.416   0.204   9.177   9.796
    7        0.416   0.204   9.177   9.796
    8        0.416   0.204   9.177   9.796
    9        0.414   0.205   9.176   9.795
   10        0.407   0.269   9.165   9.841
   11        0.402   0.273   9.164   9.840
   12        0.407   0.269   9.165   9.841
   13        0.402   0.273   9.164   9.840
   14        0.402   0.273   9.164   9.840
   15        0.404   0.269   9.165   9.838
   16        0.407   0.269   9.165   9.841
   17        0.404   0.269   9.165   9.838
   18        0.404   0.269   9.165   9.838
   19        0.406   0.266   9.167   9.839
   20        0.421   0.290   9.155   9.866
   21        0.421   0.290   9.155   9.866
   22        0.398   0.275   9.165   9.839
   23        0.421   0.290   9.155   9.866
   24        0.398   0.275   9.165   9.839
   25        0.406   0.266   9.167   9.839
   26        0.406   0.266   9.167   9.839
   27        0.398   0.275   9.165   9.839
   28        0.419   0.196   9.181   9.796
   29        0.407   0.210   9.181   9.798
   30        0.407   0.210   9.181   9.798
   31        0.407   0.210   9.181   9.798
   32        0.407   0.210   9.181   9.798
   33        0.407   0.210   9.181   9.798
   34        0.407   0.210   9.181   9.798
   35        0.419   0.196   9.182   9.797
   36        0.526   0.543   7.657   8.726
   37        1.029   1.186   0.000   2.215
tot         15.894  10.145 328.637 354.676

 BZINTS: Fermi energy:    0.376950;  398.000000 electrons
         Band energy:-0.147872E+04;  BLOECHL correction:   -0.099464