 vasp.6.2.0 18Jan21 (build Jun 12 2021 23:27:24) complex

 executed on             LinuxIFC date 2022.05.30  18:26:38

 INCAR:
   ISMEAR = -5
   SIGMA = 0.1
   ISPIN = 1
   EDIFF = 1.d-5
   EDIFFG = -0.01
   NSW = 0
   NELM = 150
   ENCUT = 500
   ISIF = 2
   IBRION = 2
   LREAL = Auto
   ALGO = Fast
   ICHARG = 11
   LORBIT = 10
   LCHARG = .F.
   LWAVE = .F.

 POTCAR:    PAW_PBE Cu 22Jun2005
 POTCAR:    PAW_PBE Rh 04Feb2005
 POTCAR:    PAW_PBE O 08Apr2002
|           W    W    AA    RRRRR   N    N  II  N    N   GGGG   !!!           |
|           W    W   A  A   R    R  NN   N  II  NN   N  G    G  !!!           |
|           W    W  A    A  R    R  N N  N  II  N N  N  G       !!!           |
|           W WW W  AAAAAA  RRRRR   N  N N  II  N  N N  G  GGG   !            |
|           WW  WW  A    A  R   R   N   NN  II  N   NN  G    G                |
|           W    W  A    A  R    R  N    N  II  N    N   GGGG   !!!           |
|     For optimal performance we recommend to set                             |
|       NCORE = 2 up to number-of-cores-per-socket                            |
|     This setting can greatly improve the performance of VASP for DFT.       |
|     The default, NCORE=1 might be grossly inefficient on modern             |
|     multi-core architectures or massively parallel machines. Do your        |
|     Unfortunately you need to use the default for GW and RPA                |
|     calculations (for HF NCORE is supported but not extensively tested      |
|     yet).                                                                   |

 POTCAR:    PAW_PBE Cu 22Jun2005
   VRHFIN =Cu: d10 p1

   TITEL  = PAW_PBE Cu 22Jun2005
   POMASS =   63.546; ZVAL   =   11.000    mass and valenz
   ENMAX  =  295.446; ENMIN  =  221.585 eV

 POTCAR:    PAW_PBE Rh 04Feb2005
   VRHFIN =Rh: s1 d8

   TITEL  = PAW_PBE Rh 04Feb2005
   POMASS =  102.906; ZVAL   =    9.000    mass and valenz
   ENMAX  =  228.996; ENMIN  =  171.747 eV

 POTCAR:    PAW_PBE O 08Apr2002
   VRHFIN =O: s2p4

   TITEL  = PAW_PBE O 08Apr2002
   POMASS =   16.000; ZVAL   =    6.000    mass and valenz
   ENMAX  =  400.000; ENMIN  =  300.000 eV

 Optimization of the real space projectors (new method)

 maximal supplied QI-value         = 16.25
 optimisation between [QCUT,QGAM] = [ 11.38, 22.75] = [ 36.24,144.96] Ry
 Optimized for a Real-space Cutoff    1.52 Angstroem

   l    n(q)    QCUT    max X(q) W(low)/X(q) W(high)/X(q)  e(spline)
   2      9    11.376     4.610    0.21E-03    0.10E-03    0.26E-06
   2      9    11.376     8.522    0.33E-03    0.16E-03    0.37E-06
   0     10    11.376    51.609    0.62E-04    0.20E-04    0.13E-06
   0     10    11.376    27.747    0.54E-04    0.20E-04    0.13E-06
   1     10    11.376    20.408    0.13E-04    0.99E-04    0.19E-06
   1     10    11.376    13.425    0.12E-04    0.87E-04    0.17E-06
 Optimization of the real space projectors (new method)

[...]

   l    n(q)    QCUT    max X(q) W(low)/X(q) W(high)/X(q)  e(spline)
   2      9    11.327    59.645    0.31E-03    0.12E-04    0.28E-06
   2      9    11.327    58.460    0.31E-03    0.12E-04    0.29E-06
   0     10    11.327    97.683    0.32E-04    0.83E-04    0.31E-06
   0     10    11.327    53.223    0.30E-04    0.78E-04    0.29E-06
   1     10    11.327    13.596    0.49E-03    0.95E-03    0.55E-06
   1     10    11.327     7.885    0.36E-03    0.71E-03    0.41E-06
 Optimization of the real space projectors (new method)

 maximal supplied QI-value         = 24.76
 optimisation between [QCUT,QGAM] = [ 11.39, 22.77] = [ 36.31,145.25] Ry
 Optimized for a Real-space Cutoff    1.00 Angstroem

   l    n(q)    QCUT    max X(q) W(low)/X(q) W(high)/X(q)  e(spline)
   0      7    11.387    20.381    0.39E-03    0.13E-02    0.15E-06
   0      7    11.387    15.268    0.42E-03    0.14E-02    0.17E-06
   1      6    11.387     5.964    0.41E-03    0.11E-02    0.17E-06
   1      6    11.387     5.382    0.39E-03    0.87E-03    0.15E-06
  PAW_PBE Cu 22Jun2005                  :
  PAW_PBE Rh 04Feb2005                  :
  PAW_PBE O 08Apr2002                   :

 POSCAR: Cu-Rh-O2
  positions in direct lattice
  velocities in cartesian coordinates
 exchange correlation table for  LEXCH =        8
   RHO(1)=    0.500       N(1)  =     2000
   RHO(2)=  100.500       N(2)  =     4000

 VTST: version 3.2, (02/03/18)

 CHAIN: initializing optimizer

 OPT: Using VASP Conjugate-Gradient optimizer
 CHAIN: Read ICHAIN            0

 POSCAR: Cu-Rh-O2
  positions in direct lattice
  velocities in cartesian coordinates

 ion  position               nearest neighbor table
   1  0.000  0.000  0.226-   7 2.57   3 2.57   4 2.57   2 2.57   6 2.57   8 2.57  12 2.57  10 2.57
                            16 2.57
   2  0.333  0.000  0.226-   8 2.57   9 2.57   5 2.57   1 2.57   3 2.57  11 2.57   4 2.57  10 2.57
                            17 2.57
   3  0.667  0.000  0.226-   1 2.57   7 2.57   6 2.57   9 2.57   2 2.57  12 2.57   5 2.57  18 2.57
                            11 2.57
   4  0.000  0.333  0.226-   5 2.57   6 2.57   1 2.57   7 2.57   2 2.57  13 2.57   9 2.57  10 2.57
                            15 2.57
   5  0.333  0.333  0.226-   4 2.57   2 2.57   7 2.57  13 2.57   8 2.57   6 2.57   3 2.57  11 2.57
                            14 2.57
   6  0.667  0.333  0.226-   4 2.57   9 2.57  15 2.57   3 2.57   1 2.57   8 2.57  14 2.57   5 2.57
                            12 2.57
   7  0.000  0.667  0.226-   1 2.57   3 2.57  16 2.57  18 2.57   4 2.57   5 2.57   8 2.57   9 2.57
                            13 2.57
   8  0.333  0.667  0.226-   9 2.57   2 2.57  17 2.57   6 2.57   1 2.57   7 2.57   5 2.57  14 2.57
                            16 2.57
   9  0.667  0.667  0.226-   8 2.57   6 2.57   2 2.57  17 2.57   3 2.57   7 2.57   4 2.57  15 2.57
                            18 2.57
  10  0.111  0.111  0.314-  20 2.55  26 2.56  19 2.56  11 2.57  12 2.57  13 2.57   1 2.57   2 2.57
                             4 2.57  15 2.57  16 2.57  17 2.57
  11  0.444  0.111  0.314-  20 2.55  21 2.55  27 2.56  10 2.57  13 2.57   2 2.57  17 2.57  14 2.57
                            12 2.57   5 2.57   3 2.57  18 2.57
  12  0.778  0.111  0.314-  21 2.55  19 2.56  25 2.56  15 2.57  10 2.57  14 2.57  18 2.57   3 2.57
                             1 2.57  16 2.57  11 2.57   6 2.57
  13  0.111  0.444  0.314-  23 2.55  20 2.55  22 2.56  16 2.57  18 2.57  10 2.57  11 2.57  14 2.57
                             5 2.57   4 2.57   7 2.57  15 2.57
  14  0.444  0.444  0.314-  21 2.55  23 2.55  24 2.56  15 2.57  17 2.57  12 2.57  16 2.57  13 2.57
                            11 2.57   6 2.57   8 2.57   5 2.57
  15  0.778  0.444  0.314-  19 2.56  24 2.56  22 2.56  14 2.57  17 2.57  12 2.57   6 2.57  18 2.57
                            10 2.57   9 2.57  13 2.57   4 2.57
  16  0.111  0.778  0.314-  23 2.55  25 2.56  26 2.56  18 2.57  13 2.57   7 2.57  14 2.57  17 2.57
                            12 2.57  10 2.57   8 2.57   1 2.57
  17  0.444  0.778  0.314-  26 2.56  27 2.56  24 2.56  14 2.57  15 2.57   8 2.57   9 2.57  11 2.57
                            16 2.57  18 2.57  10 2.57   2 2.57
  18  0.778  0.778  0.314-  25 2.56  22 2.56  27 2.56  16 2.57  13 2.57   7 2.57  15 2.57  12 2.57
                            17 2.57   9 2.57   3 2.57  11 2.57
  19  0.889  0.223  0.401-  28 2.55  32 2.55  31 2.55  15 2.56  12 2.56  10 2.56  21 2.56  20 2.56
                            22 2.56  24 2.56  25 2.57  26 2.57
  20  0.222  0.222  0.401-  10 2.55  11 2.55  13 2.55  26 2.56  19 2.56  27 2.57  22 2.57  36 2.57
                            29 2.58  31 2.58  23 2.58  21 2.58
  21  0.557  0.222  0.401-  12 2.55  14 2.55  11 2.55  19 2.56  25 2.56  24 2.57  27 2.57  36 2.57
                            32 2.58  30 2.58  20 2.58  23 2.58
  22  0.889  0.556  0.402-  35 2.54  31 2.56  33 2.56  18 2.56  15 2.56  19 2.56  25 2.56  13 2.56
                            24 2.56  27 2.56  23 2.57  20 2.57
  23  0.222  0.557  0.401-  16 2.55  13 2.55  14 2.55  25 2.56  26 2.56  22 2.57  24 2.57  36 2.57
                            33 2.58  34 2.58  20 2.58  21 2.58
  24  0.556  0.556  0.402-  35 2.54  32 2.56  34 2.56  15 2.56  17 2.56  19 2.56  26 2.56  14 2.56
                            22 2.56  27 2.56  21 2.57  23 2.57
  25  0.889  0.889  0.401-  28 2.55  33 2.55  30 2.55  18 2.56  16 2.56  12 2.56  21 2.56  23 2.56
                            22 2.56  27 2.56  19 2.57  26 2.57
  26  0.223  0.889  0.401-  28 2.55  29 2.55  34 2.55  17 2.56  10 2.56  16 2.56  20 2.56  23 2.56
                            27 2.56  24 2.56  25 2.57  19 2.57
  27  0.556  0.889  0.402-  35 2.54  29 2.56  30 2.56  17 2.56  18 2.56  26 2.56  25 2.56  11 2.56
                            24 2.56  22 2.56  20 2.57  21 2.57
  28  0.000  0.000  0.488-  25 2.55  19 2.55  26 2.55  33 2.56  30 2.56  31 2.56  29 2.56  32 2.56
                            34 2.56
  29  0.333  0.998  0.489-  34 2.54  26 2.55  28 2.56  27 2.56  35 2.56  31 2.58  20 2.58  36 2.58
                            30 2.59
  30  0.669  0.998  0.489-  33 2.54  25 2.55  28 2.56  27 2.56  35 2.56  32 2.58  21 2.58  36 2.58
                            29 2.59
  31  0.998  0.333  0.489-  32 2.54  19 2.55  28 2.56  22 2.56  35 2.56  29 2.58  20 2.58  36 2.58
                            33 2.59
  32  0.669  0.333  0.489-  31 2.54  19 2.55  28 2.56  24 2.56  35 2.56  30 2.58  21 2.58  36 2.58
                            34 2.59
  33  0.998  0.669  0.489-  30 2.54  25 2.55  28 2.56  22 2.56  35 2.56  34 2.58  23 2.58  36 2.58
                            31 2.59
  34  0.333  0.669  0.489-  29 2.54  26 2.55  28 2.56  24 2.56  35 2.56  33 2.58  23 2.58  36 2.58
                            32 2.59
  35  0.667  0.667  0.489-  24 2.54  27 2.54  22 2.54  34 2.56  32 2.56  29 2.56  30 2.56  33 2.56
                            31 2.56
  36  0.333  0.333  0.489-  37 2.07  38 2.07  23 2.57  20 2.57  21 2.57  31 2.58  29 2.58  33 2.58
                            34 2.58  32 2.58  30 2.58
  37  0.246  0.329  0.571-  38 1.38  36 2.07
  38  0.425  0.329  0.571-  37 1.38  36 2.07

  LATTYP: Found a hexagonal cell.
 ALAT       =     7.6967864036
 C/A-ratio  =     3.0908716217

  Lattice vectors:

 A1 = (  -3.8483927580,  -6.6656128093,   0.0000000000)
 A2 = (   7.6967864037,   0.0000000000,   0.0000000000)
 A3 = (   0.0000000000,   0.0000000000,  23.7897786731)

Analysis of symmetry for initial positions (statically):
 Subroutine PRICEL returns:
 Original cell was already a primitive cell.

 Routine SETGRP: Setting up the symmetry group for a
 hexagonal supercell.

 Subroutine GETGRP returns: Found  2 space group operations
 (whereof  2 operations were pure point group operations)
 out of a pool of 24 trial point group operations.

The static configuration has the point symmetry C_1h.

Analysis of symmetry for dynamics (positions and initial velocities):
 Subroutine PRICEL returns:
 Original cell was already a primitive cell.

[...]

The dynamic configuration has the point symmetry C_1h.

Analysis of constrained symmetry for selective dynamics:
 Subroutine PRICEL returns:
 Original cell was already a primitive cell.

 Routine SETGRP: Setting up the symmetry group for a
 hexagonal supercell.

[...]
     33      -4.5918      2.00000
     34      -4.5850      2.00000
     35      -4.5734      2.00000
     36      -4.5618      2.00000
     37      -4.5418      2.00000
     38      -4.5291      2.00000
     39      -4.4998      2.00000
     40      -4.4497      2.00000
     41      -4.3645      2.00000
     42      -4.2626      2.00000
     43      -4.2511      2.00000
     44      -4.2475      2.00000
     45      -4.1853      2.00000
     46      -4.1824      2.00000
     47      -4.1673      2.00000
     48      -4.1429      2.00000
     49      -4.1330      2.00000
     50      -4.1219      2.00000
     51      -3.9663      2.00000
     52      -3.9327      2.00000
     53      -3.9217      2.00000
     54      -3.9132      2.00000
     55      -3.8905      2.00000
     56      -3.8551      2.00000
     57      -3.8440      2.00000
     58      -3.8351      2.00000
     59      -3.8300      2.00000
     60      -3.8157      2.00000
[...]
    238       5.3557      0.00000
    239       5.5125      0.00000
    240       5.6739      0.00000
    241       5.7630      0.00000
    242       5.9186      0.00000
    243       6.0425      0.00000
    244       6.1407      0.00000
    245       6.1492      0.00000
    246       6.2359      0.00000
    247       6.4017      0.00000
    248       6.4269      0.00000
    249       6.6198      0.00000
    250       6.7522      0.00000
    251       6.8328      0.00000
    252       6.9059      0.00000

 soft charge-density along one line, spin component           1
         0         1         2         3         4         5         6         7         8         9
 total charge-density along one line

------------------------ aborting loop because EDIFF is reached ----------------------------------------

 total charge

# of ion       s       p       d       tot
    1        0.447   0.285   9.188   9.919
    2        0.449   0.283   9.188   9.920
    3        0.449   0.283   9.188   9.920
    4        0.449   0.285   9.187   9.921
    5        0.446   0.287   9.184   9.917
    6        0.449   0.285   9.187   9.921
    7        0.449   0.285   9.185   9.920
    8        0.449   0.285   9.185   9.920
    9        0.446   0.284   9.188   9.918
   10        0.441   0.373   9.175   9.989
   11        0.443   0.367   9.183   9.993
   12        0.441   0.373   9.175   9.989
   13        0.444   0.367   9.183   9.994
   14        0.444   0.367   9.183   9.994
   15        0.437   0.372   9.177   9.986
   16        0.441   0.372   9.177   9.991
   17        0.437   0.370   9.180   9.987
   18        0.437   0.370   9.180   9.987
   19        0.441   0.370   9.186   9.997
   20        0.451   0.385   9.171  10.007
   21        0.451   0.385   9.171  10.007
   22        0.434   0.373   9.181   9.989
   23        0.445   0.388   9.170  10.003
   24        0.434   0.373   9.181   9.989
   25        0.442   0.372   9.181   9.995
   26        0.442   0.372   9.181   9.995
   27        0.435   0.373   9.180   9.988
   28        0.454   0.287   9.195   9.936
   29        0.445   0.291   9.194   9.931
   30        0.445   0.291   9.194   9.931
   31        0.441   0.295   9.196   9.932
   32        0.441   0.295   9.196   9.932
   33        0.444   0.292   9.195   9.931
   34        0.444   0.292   9.195   9.931
   35        0.449   0.289   9.195   9.933
   36        0.470   0.552   7.448   8.470
   37        1.606   3.259   0.000   4.865
   38        1.606   3.259   0.000   4.865
tot         19.220  18.687 328.902 366.809

  FORCE on cell =-STRESS in cart. coord.  units (eV):
  Direction    XX          YY          ZZ          XY          YZ          ZX
  Alpha Z   809.96587   809.96587   809.96587
  Ewald  225705.43225225306.76609************     0.00041     0.10137     0.00020
  Hartree238513.28991238320.47098************     0.00005     1.35843     0.00007
  E(xc)   -2348.65951 -2349.90519 -2353.31015    -0.00031    -0.03861    -0.00004
  Local  ************************477040.77282     0.02055    -1.93756    -0.00079
  n-local  -796.19317  -805.05177  -812.76766     1.90276    -0.09526     0.07011
  augment  3374.85189  3383.96145  3391.96907    -0.01854     0.22117     0.00039
  Kinetic  3477.74039  3537.06764  3518.37342     1.10602     0.47084    -0.15926
  Fock        0.00000     0.00000     0.00000     0.00000     0.00000     0.00000
  Total      -3.20339    -4.55288    -1.04746     0.00000     0.08039    -0.00000
  in kB      -4.20514    -5.97664    -1.37501     0.00000     0.10552    -0.00000

 VOLUME and BASIS-vectors are now :
  energy-cutoff  :      500.00
  volume of cell :     1220.51
      direct lattice vectors                 reciprocal lattice vectors
     7.696786404  0.000000000  0.000000000     0.129924354 -0.075011849  0.000000000
     3.848392758  6.665612809  0.000000000     0.000000000  0.150023716  0.000000000
     0.000000000  0.000000000 23.789778673     0.000000000  0.000000000  0.042034859

  length of vectors
     7.696786404  7.696786404 23.789778673     0.150023716  0.150023716  0.042034859

 FORCES acting on ions
    electron-ion (+dipol)            ewald-force                    non-local-force                 convergence-correction
   -.414E-04 -.360E-02 0.378E+04   0.579E-04 -.310E-01 -.378E+04   -.235E-08 0.353E-01 -.304E+01   -.411E-03 -.803E-02 -.520E+00
   -.151E+00 0.212E+00 0.378E+04   0.151E+00 -.652E-01 -.378E+04   -.352E-01 -.930E-02 -.194E+01   0.397E-01 -.115E+00 -.437E+00
   0.151E+00 0.212E+00 0.378E+04   -.152E+00 -.653E-01 -.378E+04   0.352E-01 -.930E-02 -.194E+01   -.388E-01 -.112E+00 -.436E+00
   -.102E+00 -.195E+00 0.378E+04   0.456E-01 0.156E+00 -.378E+04   0.473E-01 0.138E-01 -.197E+01   0.173E-01 0.256E-01 -.486E+00
   -.640E-04 0.541E-01 0.378E+04   0.116E-03 0.828E-02 -.378E+04   0.249E-08 -.375E-01 -.179E+01   0.123E-01 -.230E-01 -.343E+00
   0.102E+00 -.195E+00 0.378E+04   -.457E-01 0.156E+00 -.378E+04   -.473E-01 0.138E-01 -.197E+01   -.191E-01 0.268E-01 -.484E+00
   0.335E+00 0.385E-01 0.378E+04   -.105E+00 -.911E-01 -.378E+04   -.703E-01 -.366E-02 -.196E+01   -.130E+00 0.452E-01 -.425E+00
   -.334E+00 0.385E-01 0.378E+04   0.105E+00 -.911E-01 -.378E+04   0.703E-01 -.366E-02 -.196E+01   0.134E+00 0.437E-01 -.425E+00
   -.144E-03 -.256E+00 0.378E+04   0.263E-03 0.228E-01 -.378E+04   -.522E-08 0.784E-01 -.248E+01   -.132E-01 0.146E+00 -.439E+00
   0.851E+00 0.749E+00 0.134E+04   -.350E+00 -.408E+00 -.134E+04   -.489E+00 -.259E+00 -.105E+01   0.134E-01 -.653E-01 -.239E+00
   -.853E-04 0.210E+00 0.134E+04   0.190E-03 -.226E+00 -.133E+04   -.346E-08 0.519E-01 -.640E+00   0.123E-01 -.729E-01 -.207E+00
   -.851E+00 0.749E+00 0.134E+04   0.350E+00 -.408E+00 -.134E+04   0.489E+00 -.259E+00 -.105E+01   -.159E-01 -.631E-01 -.237E+00
   -.373E-01 -.252E+00 0.134E+04   -.425E-02 0.199E+00 -.133E+04   0.468E-01 0.579E-02 -.555E+00   -.286E-01 0.616E-01 -.118E+00
   0.374E-01 -.252E+00 0.134E+04   0.394E-02 0.199E+00 -.133E+04   -.468E-01 0.579E-02 -.555E+00   0.533E-01 0.602E-01 -.118E+00
   -.140E-03 -.160E+01 0.134E+04   0.298E-03 0.140E+01 -.134E+04   -.708E-08 0.106E+00 -.873E+00   -.434E-02 0.948E-01 -.284E+00
   -.891E-04 -.929E+00 0.134E+04   0.186E-03 0.414E+00 -.134E+04   -.306E-07 0.459E+00 -.110E+01   -.286E-03 0.200E-01 -.176E+00
   -.116E+01 0.629E+00 0.134E+04   0.106E+01 -.585E+00 -.134E+04   0.303E-01 -.347E-01 -.722E+00   0.693E-01 -.250E-02 -.333E+00
   0.116E+01 0.629E+00 0.134E+04   -.106E+01 -.585E+00 -.134E+04   -.303E-01 -.347E-01 -.722E+00   -.682E-01 0.107E-02 -.331E+00
   -.597E-04 0.112E+01 -.112E+04   0.668E-04 -.120E+01 0.112E+04   -.828E-08 0.124E+00 0.993E+00   -.146E-01 -.529E-01 -.210E+00
   -.147E+02 -.728E+01 -.112E+04   0.154E+02 0.797E+01 0.112E+04   -.911E+00 -.765E+00 -.116E+01   0.173E+00 0.869E-01 -.951E-01
   0.147E+02 -.728E+01 -.112E+04   -.154E+02 0.797E+01 0.112E+04   0.911E+00 -.765E+00 -.116E+01   -.147E+00 0.874E-01 -.955E-01
   -.708E+01 0.256E+01 -.113E+04   0.663E+01 -.226E+01 0.113E+04   0.381E+00 -.311E+00 0.957E+00   0.125E+00 -.356E-01 -.281E+00
   -.683E-04 0.151E+02 -.113E+04   0.145E-03 -.160E+02 0.113E+04   -.617E-07 0.926E+00 -.664E+00   0.122E-01 -.111E+00 -.392E-01
   0.708E+01 0.256E+01 -.113E+04   -.663E+01 -.226E+01 0.113E+04   -.381E+00 -.311E+00 0.957E+00   -.128E+00 -.389E-01 -.281E+00
   -.628E+00 0.735E+00 -.112E+04   0.532E+00 -.649E+00 0.112E+04   0.376E-01 -.401E-01 0.869E+00   0.526E-01 -.395E-01 -.206E+00
   0.628E+00 0.735E+00 -.112E+04   -.532E+00 -.650E+00 0.112E+04   -.376E-01 -.401E-01 0.869E+00   -.744E-01 -.434E-01 -.205E+00
   -.126E-03 -.756E+01 -.113E+04   0.245E-03 0.702E+01 0.113E+04   -.318E-07 0.477E+00 0.968E+00   0.863E-03 0.883E-01 -.246E+00
   -.302E-04 0.740E+01 -.359E+04   0.333E-04 -.726E+01 0.359E+04   0.956E-08 -.144E+00 0.217E+01   -.763E-03 -.278E-01 -.127E+00
   0.818E+01 0.303E+02 -.356E+04   -.838E+01 -.317E+02 0.356E+04   0.119E+00 0.119E+01 0.311E+01   -.457E-01 -.260E-01 -.437E+00
   -.818E+01 0.303E+02 -.356E+04   0.838E+01 -.317E+02 0.356E+04   -.119E+00 0.119E+01 0.311E+01   0.473E-01 -.234E-01 -.438E+00
   0.343E+02 -.279E+01 -.354E+04   -.360E+02 0.307E+01 0.354E+04   0.137E+01 -.199E+00 0.366E+01   -.481E-02 -.554E-01 -.398E+00
   -.343E+02 -.279E+01 -.354E+04   0.360E+02 0.307E+01 0.354E+04   -.137E+01 -.199E+00 0.366E+01   0.284E-02 -.549E-01 -.400E+00
   0.828E+01 -.259E+02 -.357E+04   -.880E+01 0.270E+02 0.356E+04   0.323E+00 -.948E+00 0.298E+01   0.527E-01 0.677E-01 -.464E+00
   -.828E+01 -.259E+02 -.357E+04   0.880E+01 0.270E+02 0.356E+04   -.323E+00 -.948E+00 0.298E+01   -.496E-01 0.656E-01 -.465E+00
   -.160E-03 -.586E+01 -.360E+04   0.261E-03 0.564E+01 0.359E+04   -.149E-07 0.224E+00 0.246E+01   -.131E-01 0.273E-01 -.202E+00
   -.373E-04 -.480E+01 -.266E+04   0.111E-03 0.484E+01 0.266E+04   -.500E-08 0.751E-01 0.243E+01   0.341E-02 0.174E-01 -.106E+01
   0.228E+03 -.466E-01 -.234E+04   -.264E+03 0.112E-03 0.236E+04   0.368E+02 0.344E-01 -.153E+02   -.410E+00 0.943E-02 -.350E+00
   -.228E+03 -.467E-01 -.234E+04   0.264E+03 0.104E-03 0.236E+04   -.368E+02 0.344E-01 -.153E+02   0.414E+00 0.950E-02 -.350E+00
   0.112E-03 0.315E+00 0.400E+02   0.114E-12 -.123E-12 0.546E-11   0.186E-07 -.279E+00 -.277E+02   0.294E-01 0.135E-01 -.124E+02

 POSITION                                       TOTAL-FORCE (eV/Angst)
      0.00000      0.00000      5.37156         0.000000     -0.008635      0.052957
      2.56560      0.00000      5.37156         0.004269      0.022126      0.075698
      5.13119      0.00000      5.37156        -0.004269      0.022126      0.075698
      1.28280      2.22187      5.37156         0.009395     -0.000241      0.084356
      3.84839      2.22187      5.37156        -0.000000      0.000605      0.063234
      6.41399      2.22187      5.37156        -0.009395     -0.000241      0.084356
      2.56560      4.44374      5.37156         0.027193     -0.013113      0.080357
      5.13119      4.44374      5.37156        -0.027193     -0.013113      0.080357
      7.69679      4.44374      5.37156         0.000000     -0.010313      0.051143
      1.28280      0.74062      7.46636         0.026437      0.015444     -0.067446
      3.84839      0.74062      7.46636         0.000000     -0.038880     -0.107128
      6.41399      0.74062      7.46636        -0.026437      0.015444     -0.067446
      2.56560      2.96249      7.46636        -0.035577      0.012270     -0.113929
      5.13119      2.96249      7.46636         0.035577      0.012270     -0.113929
      7.69679      2.96249      7.46636         0.000000     -0.000868     -0.030568
      3.84839      5.18437      7.46636         0.000000     -0.037505     -0.071991
      6.41399      5.18437      7.46636        -0.001803      0.008068     -0.016248
      8.97958      5.18437      7.46636         0.001803      0.008068     -0.016248
      7.69679      1.48472      9.55134         0.000000     -0.014077      0.030592
      2.55991      1.47796      9.54139        -0.006937      0.008045     -0.118916
      5.13688      1.47796      9.54139         0.006937      0.008045     -0.118916
      8.97851      3.70374      9.55759         0.054809     -0.044152      0.017977
      3.84839      3.70969      9.54139         0.000000     -0.074360     -0.111915
      6.41506      3.70374      9.55759        -0.054809     -0.044152      0.017977
     10.25938      5.92325      9.55134         0.005499      0.002361      0.017669
      5.13420      5.92325      9.55134        -0.005499      0.002361      0.017669
      7.69679      5.92375      9.55759        -0.000000      0.021154      0.003837
      0.00000      0.00000     11.61948         0.000000     -0.036651      0.005534
      6.40389      6.65412     11.64269        -0.130922     -0.210714     -0.092622
      8.98968      6.65412     11.64269         0.130922     -0.210714     -0.092622
      8.96459      2.21887     11.64269        -0.341874      0.021971     -0.203187
      6.42899      2.21887     11.64269         0.341874      0.021971     -0.203187
     10.25748      4.45823     11.64269        -0.152287      0.200399     -0.084390
      5.13610      4.45823     11.64269         0.152287      0.200399     -0.084390
      7.69679      4.44374     11.62337        -0.000000      0.028866      0.029208
      3.84839      2.22187     11.63466        -0.000000      0.133751      1.042920
      3.15822      2.19137     13.58936        -0.158448     -0.004007     -0.058228
      4.53857      2.19137     13.58936         0.158448     -0.004007     -0.058228
    total drift:                                0.029505      0.049913     -0.054694

  FREE ENERGIE OF THE ION-ELECTRON SYSTEM (eV)
  free  energy   TOTEN  =      -139.48019457 eV

  energy  without entropy=     -139.48019457  energy(sigma->0) =     -139.48019457

 stress matrix after NEB project (eV)
     -3.20339      0.00000     -0.00000
      0.00000     -4.55288      0.08039
     -0.00000      0.08039     -1.04746
  FORCES: max atom, RMS     0.168856    0.038738
  FORCE total and by dimension    0.238799    0.158448
  Stress total and by dimension    5.665737    4.552885
|           W    W    AA    RRRRR   N    N  II  N    N   GGGG   !!!           |
|           W    W   A  A   R    R  NN   N  II  NN   N  G    G  !!!           |
|           W    W  A    A  R    R  N N  N  II  N N  N  G       !!!           |
|           W WW W  AAAAAA  RRRRR   N  N N  II  N  N N  G  GGG   !            |
|           WW  WW  A    A  R   R   N   NN  II  N   NN  G    G                |
|           W    W  A    A  R    R  N    N  II  N    N   GGGG   !!!           |
|     Tetrahedron method does not include variations of the Fermi             |
|     occupations, so forces and stress will be inaccurate. We suggest        |
|     using a different smearing scheme ISMEAR = 1 or 2 for metals in         |
|     relaxations.                                                            |

 total charge

# of ion       s       p       d       tot
    1        0.447   0.285   9.188   9.919
    2        0.449   0.283   9.188   9.920
    3        0.449   0.283   9.188   9.920
    4        0.449   0.285   9.187   9.921
    5        0.446   0.287   9.184   9.917
    6        0.449   0.285   9.187   9.921
    7        0.449   0.285   9.185   9.920
    8        0.449   0.285   9.185   9.920
    9        0.446   0.284   9.188   9.918
   10        0.441   0.373   9.175   9.989
   11        0.443   0.367   9.183   9.993
   12        0.441   0.373   9.175   9.989
   13        0.444   0.367   9.183   9.994
   14        0.444   0.367   9.183   9.994
   15        0.437   0.372   9.177   9.986
   16        0.441   0.372   9.177   9.991
   17        0.437   0.370   9.180   9.987
   18        0.437   0.370   9.180   9.987
   19        0.441   0.370   9.186   9.997
   20        0.451   0.385   9.171  10.007
   21        0.451   0.385   9.171  10.007
   22        0.434   0.373   9.181   9.989
   23        0.445   0.388   9.170  10.003
   24        0.434   0.373   9.181   9.989
   25        0.442   0.372   9.181   9.995
   26        0.442   0.372   9.181   9.995
   27        0.435   0.373   9.180   9.988
   28        0.454   0.287   9.195   9.936
   29        0.445   0.291   9.194   9.931
   30        0.445   0.291   9.194   9.931
   31        0.441   0.295   9.196   9.932
   32        0.441   0.295   9.196   9.932
   33        0.444   0.292   9.195   9.931
   34        0.444   0.292   9.195   9.931
   35        0.449   0.289   9.195   9.933
   36        0.470   0.552   7.448   8.470
   37        1.606   3.259   0.000   4.865
   38        1.606   3.259   0.000   4.865
tot         19.220  18.687 328.902 366.809

 BZINTS: Fermi energy:   -0.489129;  406.000000 electrons
         Band energy:-0.141076E+04;  BLOECHL correction:   -0.042330