 vasp.6.2.0 18Jan21 (build Jun 12 2021 23:27:24) complex

 executed on             LinuxIFC date 2022.05.28  01:54:43

 INCAR:
   ISMEAR = -5
   SIGMA = 0.1
   ISPIN = 1
   EDIFF = 1.d-5
   EDIFFG = -0.01
   NSW = 0
   NELM = 150
   ENCUT = 500
   ISIF = 2
   IBRION = 2
   LREAL = Auto
   ALGO = Fast
   ICHARG = 11
   LORBIT = 10
   LCHARG = .F.
   LWAVE = .F.

 POTCAR:    PAW_PBE Ag 02Apr2005
 POTCAR:    PAW_PBE Pd 04Jan2005
 POTCAR:    PAW_PBE O 08Apr2002
 POTCAR:    PAW_PBE H 15Jun2001
|           W    W    AA    RRRRR   N    N  II  N    N   GGGG   !!!           |
|           W    W   A  A   R    R  NN   N  II  NN   N  G    G  !!!           |
|           W    W  A    A  R    R  N N  N  II  N N  N  G       !!!           |
|           W WW W  AAAAAA  RRRRR   N  N N  II  N  N N  G  GGG   !            |
|           WW  WW  A    A  R   R   N   NN  II  N   NN  G    G                |
|           W    W  A    A  R    R  N    N  II  N    N   GGGG   !!!           |
|     For optimal performance we recommend to set                             |
|       NCORE = 2 up to number-of-cores-per-socket                            |
|     This setting can greatly improve the performance of VASP for DFT.       |
|     The default, NCORE=1 might be grossly inefficient on modern             |
|     multi-core architectures or massively parallel machines. Do your        |
|     Unfortunately you need to use the default for GW and RPA                |
|     calculations (for HF NCORE is supported but not extensively tested      |
|     yet).                                                                   |

 POTCAR:    PAW_PBE Ag 02Apr2005
   VRHFIN =Ag : s1 d10

   TITEL  = PAW_PBE Ag 02Apr2005
   POMASS =  107.868; ZVAL   =   11.000    mass and valenz
   ENMAX  =  249.844; ENMIN  =  187.383 eV

 POTCAR:    PAW_PBE Pd 04Jan2005
   VRHFIN =Pd : s1 d9

   TITEL  = PAW_PBE Pd 04Jan2005
   POMASS =  106.420; ZVAL   =   10.000    mass and valenz
   ENMAX  =  250.925; ENMIN  =  188.194 eV

 POTCAR:    PAW_PBE O 08Apr2002
   VRHFIN =O: s2p4

   TITEL  = PAW_PBE O 08Apr2002
   POMASS =   16.000; ZVAL   =    6.000    mass and valenz
   ENMAX  =  400.000; ENMIN  =  300.000 eV

 POTCAR:    PAW_PBE H 15Jun2001
   VRHFIN =H: ultrasoft test

   TITEL  = PAW_PBE H 15Jun2001
   POMASS =    1.000; ZVAL   =    1.000    mass and valenz
   ENMAX  =  250.000; ENMIN  =  200.000 eV

 Optimization of the real space projectors (new method)

 maximal supplied QI-value         = 15.12
 optimisation between [QCUT,QGAM] = [ 11.34, 22.83] = [ 36.00,145.93] Ry
 Optimized for a Real-space Cutoff    1.43 Angstroem

   l    n(q)    QCUT    max X(q) W(low)/X(q) W(high)/X(q)  e(spline)
   2      9    11.338    53.897    0.16E-03    0.20E-03    0.28E-06
   2      9    11.338    52.416    0.16E-03    0.20E-03    0.29E-06
   0     10    11.338   122.045    0.31E-04    0.76E-04    0.15E-06
   0     10    11.338    73.629    0.30E-04    0.72E-04    0.15E-06
   1      9    11.338    15.255    0.20E-03    0.19E-04    0.17E-06
   1      9    11.338     9.562    0.16E-03    0.15E-04    0.14E-06
 Optimization of the real space projectors (new method)

[...]

   l    n(q)    QCUT    max X(q) W(low)/X(q) W(high)/X(q)  e(spline)
   0      7    11.387    20.381    0.39E-03    0.13E-02    0.15E-06
   0      7    11.387    15.268    0.42E-03    0.14E-02    0.17E-06
   1      6    11.387     5.964    0.41E-03    0.11E-02    0.17E-06
   1      6    11.387     5.382    0.39E-03    0.87E-03    0.15E-06
 Optimization of the real space projectors (new method)

 maximal supplied QI-value         = 34.20
 optimisation between [QCUT,QGAM] = [ 11.29, 22.57] = [ 35.68,142.71] Ry
 Optimized for a Real-space Cutoff    1.16 Angstroem

   l    n(q)    QCUT    max X(q) W(low)/X(q) W(high)/X(q)  e(spline)
   0      8    11.287    19.460    0.40E-03    0.73E-03    0.16E-06
   0      8    11.287    12.209    0.38E-03    0.70E-03    0.15E-06
   1      7    11.287     4.655    0.22E-03    0.25E-04    0.22E-06
  PAW_PBE Ag 02Apr2005                  :
  PAW_PBE Pd 04Jan2005                  :
  PAW_PBE O 08Apr2002                   :
  PAW_PBE H 15Jun2001                   :

 POSCAR: Ag-Pd-OOH
  positions in direct lattice
  velocities in cartesian coordinates
 exchange correlation table for  LEXCH =        8
   RHO(1)=    0.500       N(1)  =     2000
   RHO(2)=  100.500       N(2)  =     4000

 VTST: version 3.2, (02/03/18)

 CHAIN: initializing optimizer

 OPT: Using VASP Conjugate-Gradient optimizer
 CHAIN: Read ICHAIN            0

 POSCAR: Ag-Pd-OOH
  positions in direct lattice
  velocities in cartesian coordinates

 ion  position               nearest neighbor table
   1  0.000  0.000  0.204-   2 2.93   8 2.93   7 2.93   6 2.93   4 2.93  12 2.93  16 2.93  10 2.93
                             3 2.93
   2  0.333  0.000  0.204-   1 2.93   8 2.93   9 2.93   3 2.93   4 2.93   5 2.93  10 2.93  17 2.93
                            11 2.93
   3  0.667  0.000  0.204-   9 2.93   2 2.93   5 2.93  11 2.93   7 2.93  18 2.93   1 2.93   6 2.93
                            12 2.93
   4  0.000  0.333  0.204-   5 2.93   6 2.93   2 2.93   1 2.93   7 2.93  13 2.93  15 2.93   9 2.93
                            10 2.93
   5  0.333  0.333  0.204-   4 2.93   3 2.93   7 2.93   2 2.93   8 2.93  14 2.93  13 2.93  11 2.93
                             6 2.93
   6  0.667  0.333  0.204-   4 2.93   9 2.93   1 2.93  15 2.93   8 2.93  12 2.93   3 2.93   5 2.93
                            14 2.93
   7  0.000  0.667  0.204-   8 2.93   1 2.93   5 2.93   3 2.93   4 2.93  16 2.93  18 2.93  13 2.93
                             9 2.93
   8  0.333  0.667  0.204-   7 2.93   1 2.93   2 2.93   9 2.93   5 2.93  16 2.93   6 2.93  17 2.93
                            14 2.93
   9  0.667  0.667  0.204-   3 2.93   2 2.93   8 2.93   6 2.93  17 2.93   4 2.93  15 2.93   7 2.93
                            18 2.93
  10  0.111  0.111  0.296-  20 2.91  19 2.92  26 2.92  12 2.93  16 2.93  15 2.93  17 2.93  13 2.93
                            11 2.93   2 2.93   1 2.93   4 2.93
  11  0.444  0.111  0.296-  21 2.91  20 2.91  27 2.91  14 2.93  17 2.93  18 2.93   3 2.93  12 2.93
                            13 2.93  10 2.93   5 2.93   2 2.93
  12  0.778  0.111  0.296-  21 2.91  25 2.92  19 2.92  10 2.93  16 2.93  18 2.93  15 2.93  11 2.93
                             1 2.93  14 2.93   6 2.93   3 2.93
  13  0.111  0.444  0.296-  20 2.91  23 2.91  22 2.91  15 2.93  14 2.93  18 2.93  10 2.93  11 2.93
                            16 2.93   4 2.93   5 2.93   7 2.93
  14  0.444  0.444  0.296-  23 2.91  21 2.91  24 2.91  13 2.93  11 2.93  16 2.93   5 2.93  12 2.93
                            17 2.93   8 2.93  15 2.93   6 2.93
  15  0.778  0.444  0.296-  24 2.91  22 2.91  19 2.92  13 2.93  10 2.93  12 2.93  17 2.93  18 2.93
                             4 2.93   6 2.93   9 2.93  14 2.93
  16  0.111  0.778  0.296-  23 2.91  26 2.92  25 2.92  18 2.93  12 2.93  10 2.93  14 2.93  17 2.93
                            13 2.93   7 2.93   8 2.93   1 2.93
  17  0.444  0.778  0.296-  27 2.91  24 2.91  26 2.92  11 2.93  10 2.93   9 2.93  18 2.93  15 2.93
                            16 2.93   2 2.93  14 2.93   8 2.93
  18  0.778  0.778  0.296-  22 2.91  27 2.91  25 2.92  16 2.93  12 2.93  13 2.93  11 2.93  17 2.93
                            15 2.93   7 2.93   3 2.93   9 2.93
  19  0.889  0.223  0.388-  28 2.91  15 2.92  10 2.92  12 2.92  32 2.92  31 2.92  20 2.93  21 2.93
                            24 2.93  22 2.93  26 2.93  25 2.93
  20  0.222  0.222  0.388-  36 2.81  10 2.91  13 2.91  11 2.91  31 2.91  29 2.91  19 2.93  26 2.93
                            27 2.93  22 2.93  21 2.94  23 2.94
  21  0.556  0.222  0.388-  36 2.81  12 2.91  11 2.91  14 2.91  30 2.91  32 2.91  25 2.93  19 2.93
                            27 2.93  24 2.93  20 2.94  23 2.94
  22  0.889  0.556  0.388-  35 2.91  18 2.91  15 2.91  13 2.91  33 2.92  31 2.92  25 2.93  19 2.93
                            24 2.93  27 2.93  23 2.93  20 2.93
  23  0.222  0.556  0.388-  36 2.81  16 2.91  14 2.91  13 2.91  34 2.91  33 2.91  26 2.93  25 2.93
                            22 2.93  24 2.93  21 2.94  20 2.94
  24  0.556  0.556  0.388-  35 2.91  15 2.91  17 2.91  14 2.91  32 2.92  34 2.92  19 2.93  26 2.93
                            27 2.93  22 2.93  23 2.93  21 2.93
  25  0.889  0.889  0.388-  28 2.91  18 2.92  16 2.92  12 2.92  33 2.92  30 2.92  23 2.93  21 2.93
                            22 2.93  27 2.93  26 2.93  19 2.93
  26  0.223  0.889  0.388-  28 2.91  17 2.92  16 2.92  10 2.92  34 2.92  29 2.92  23 2.93  20 2.93
                            27 2.93  24 2.93  25 2.93  19 2.93
  27  0.556  0.889  0.388-  35 2.91  17 2.91  18 2.91  11 2.91  29 2.92  30 2.92  26 2.93  25 2.93
                            24 2.93  22 2.93  20 2.93  21 2.93
  28  0.000  0.000  0.479-  26 2.91  25 2.91  19 2.91  29 2.94  34 2.94  33 2.94  32 2.94  31 2.94
                            30 2.94
  29  0.333  0.003  0.480-  30 2.91  31 2.91  36 2.91  20 2.91  27 2.92  26 2.92  35 2.94  28 2.94
                            34 2.98
  30  0.664  0.003  0.480-  29 2.91  32 2.91  36 2.91  21 2.91  27 2.92  25 2.92  35 2.94  28 2.94
                            33 2.98
  31  0.003  0.333  0.480-  33 2.91  29 2.91  36 2.91  20 2.91  22 2.92  19 2.92  35 2.94  28 2.94
                            32 2.98
  32  0.664  0.333  0.480-  37 2.44  34 2.91  30 2.91  36 2.91  21 2.91  24 2.92  19 2.92  35 2.94
                            28 2.94  31 2.98
  33  0.003  0.664  0.480-  31 2.91  34 2.91  36 2.91  23 2.91  22 2.92  25 2.92  35 2.94  28 2.94
                            30 2.98
  34  0.333  0.664  0.480-  37 2.38  32 2.91  33 2.91  36 2.91  23 2.91  24 2.92  26 2.92  35 2.94
                            28 2.94  29 2.98
  35  0.667  0.667  0.479-  24 2.91  27 2.91  22 2.91  30 2.94  29 2.94  32 2.94  34 2.94  31 2.94
                            33 2.94
  36  0.333  0.333  0.474-  37 2.15  21 2.81  20 2.81  23 2.81  31 2.91  33 2.91  30 2.91  29 2.91
                            34 2.91  32 2.91
  37  0.417  0.428  0.539-  38 1.49  36 2.15  34 2.38  32 2.44
  38  0.353  0.423  0.592-  39 0.98  37 1.49
  39  0.461  0.327  0.607-  38 0.98

  LATTYP: Found a hexagonal cell.
 ALAT       =     8.7913665772
 C/A-ratio  =     2.9469639759

  Lattice vectors:

 A1 = (  -4.3956832886,  -7.6135467898,   0.0000000000)
 A2 = (   8.7913665771,   0.0000000000,   0.0000000000)
 A3 = (   0.0000000000,   0.0000000000,  25.9078406020)

Analysis of symmetry for initial positions (statically):
 Subroutine PRICEL returns:
 Original cell was already a primitive cell.

 Routine SETGRP: Setting up the symmetry group for a
 hexagonal supercell.

 Subroutine GETGRP returns: Found  1 space group operations
 (whereof  1 operations were pure point group operations)
 out of a pool of 24 trial point group operations.

The static configuration has the point symmetry C_1 .

Analysis of symmetry for dynamics (positions and initial velocities):
 Subroutine PRICEL returns:
 Original cell was already a primitive cell.

[...]

The dynamic configuration has the point symmetry C_1 .

Analysis of constrained symmetry for selective dynamics:
 Subroutine PRICEL returns:
[...]
     41      -5.0276      2.00000
     42      -5.0135      2.00000
     43      -5.0030      2.00000
     44      -4.9876      2.00000
     45      -4.9700      2.00000
     46      -4.9546      2.00000
     47      -4.9303      2.00000
     48      -4.8776      2.00000
     49      -4.8540      2.00000
     50      -4.8470      2.00000
     51      -4.8378      2.00000
     52      -4.8313      2.00000
     53      -4.8241      2.00000
     54      -4.8081      2.00000
     55      -4.7983      2.00000
     56      -4.7843      2.00000
     57      -4.7596      2.00000
     58      -4.7211      2.00000
     59      -4.7112      2.00000
     60      -4.7018      2.00000
[...]
    238       5.2187      0.00000
    239       5.3415      0.00000
    240       5.4880      0.00000
    241       5.5857      0.00000
    242       5.6189      0.00000
    243       5.7497      0.00000
    244       5.8291      0.00000
    245       5.9103      0.00000
    246       6.0056      0.00000
    247       6.1432      0.00000
    248       6.2005      0.00000
    249       6.2625      0.00000
    250       6.3707      0.00000
    251       6.4978      0.00000
    252       6.5749      0.00000

 soft charge-density along one line, spin component           1
         0         1         2         3         4         5         6         7         8         9
 total charge-density along one line

------------------------ aborting loop because EDIFF is reached ----------------------------------------

 total charge

# of ion       s       p       d       tot
    1        0.415   0.203   9.178   9.797
    2        0.420   0.203   9.176   9.799
    3        0.418   0.203   9.178   9.798
    4        0.419   0.203   9.176   9.798
    5        0.417   0.204   9.177   9.797
    6        0.417   0.203   9.177   9.798
    7        0.418   0.203   9.178   9.798
    8        0.416   0.204   9.178   9.797
    9        0.416   0.203   9.178   9.797
   10        0.406   0.272   9.162   9.840
   11        0.408   0.267   9.167   9.843
   12        0.404   0.271   9.165   9.840
   13        0.409   0.267   9.167   9.843
   14        0.408   0.268   9.167   9.843
   15        0.403   0.271   9.165   9.839
   16        0.405   0.270   9.166   9.841
   17        0.403   0.271   9.165   9.839
   18        0.403   0.271   9.166   9.839
   19        0.403   0.271   9.167   9.841
   20        0.418   0.282   9.151   9.852
   21        0.409   0.279   9.163   9.851
   22        0.401   0.271   9.168   9.840
   23        0.409   0.279   9.164   9.852
   24        0.402   0.275   9.163   9.840
   25        0.402   0.270   9.167   9.839
   26        0.402   0.273   9.165   9.840
   27        0.401   0.271   9.168   9.840
   28        0.420   0.197   9.182   9.798
   29        0.413   0.203   9.181   9.797
   30        0.409   0.201   9.185   9.795
   31        0.413   0.202   9.181   9.797
   32        0.388   0.213   9.190   9.791
   33        0.406   0.198   9.188   9.792
   34        0.381   0.223   9.185   9.789
   35        0.412   0.200   9.183   9.795
   36        0.414   0.326   8.536   9.276
   37        1.591   3.245   0.000   4.836
   38        1.590   3.381   0.000   4.971
   39        0.625   0.115   0.000   0.740
tot         18.514  15.433 329.572 363.519

  FORCE on cell =-STRESS in cart. coord.  units (eV):
  Direction    XX          YY          ZZ          XY          YZ          ZX
  Alpha Z   663.56435   663.56435   663.56435
  Ewald  178460.62409178439.75163************   -22.38413   -52.81203  -103.24015
  Hartree188660.50313188641.84274************    -3.26595   -23.54348   -74.13465
  E(xc)   -2144.70564 -2144.73288 -2149.15631    -0.07459    -0.06647     0.01668
  Local  ************************377964.77706    17.76994    68.83212   171.05766
  n-local  -377.19741  -378.70571  -379.72675     0.27965    -0.25793    -2.54610
  augment  3307.70128  3308.47960  3312.98935     0.24960     0.04939     0.36399
  Kinetic  5184.97386  5186.55866  5176.44737     7.26169     7.93337     8.51866
  Fock        0.00000     0.00000     0.00000     0.00000     0.00000     0.00000
  Total      -6.81962    -6.83682    -0.97786    -0.16379     0.13496     0.03608
  in kB      -6.30081    -6.31670    -0.90347    -0.15133     0.12469     0.03334

 VOLUME and BASIS-vectors are now :
  energy-cutoff  :      500.00
  volume of cell :     1734.10
      direct lattice vectors                 reciprocal lattice vectors
     8.791366577  0.000000000  0.000000000     0.113747958 -0.065672414  0.000000000
     4.395683289  7.613546790  0.000000000     0.000000000  0.131344829  0.000000000
     0.000000000  0.000000000 25.907840602     0.000000000  0.000000000  0.038598354

  length of vectors
     8.791366577  8.791366577 25.907840602     0.131344829  0.131344829  0.038598354

 FORCES acting on ions
    electron-ion (+dipol)            ewald-force                    non-local-force                 convergence-correction
   0.887E-01 0.123E-01 0.283E+04   0.491E-01 0.488E-01 -.283E+04   -.940E-01 -.448E-01 -.214E+01   -.240E-01 -.605E-02 -.275E+00
   0.103E+00 0.110E+00 0.283E+04   -.232E+00 -.201E+00 -.283E+04   0.105E+00 0.697E-01 -.154E+01   0.161E-01 0.307E-01 -.210E+00
   -.203E+00 0.413E+00 0.283E+04   0.183E+00 -.408E+00 -.283E+04   0.275E-03 -.153E-01 -.172E+01   0.778E-02 0.198E-01 -.283E+00
   0.183E+00 0.467E-01 0.283E+04   -.308E+00 -.113E+00 -.283E+04   0.103E+00 0.476E-01 -.160E+01   0.293E-01 0.845E-02 -.208E+00
   0.381E+00 0.262E+00 0.283E+04   -.206E+00 -.142E+00 -.283E+04   -.142E+00 -.975E-01 -.154E+01   -.290E-01 -.194E-01 -.179E+00
   -.553E+00 0.220E+00 0.283E+04   0.514E+00 -.175E+00 -.283E+04   0.186E-01 -.460E-01 -.177E+01   0.904E-02 0.530E-02 -.290E+00
   0.292E+00 -.403E+00 0.283E+04   -.279E+00 0.375E+00 -.283E+04   -.153E-01 0.206E-01 -.168E+01   0.642E-02 -.795E-02 -.268E+00
   -.114E+00 -.574E+00 0.283E+04   0.126E+00 0.524E+00 -.283E+04   -.254E-01 0.406E-01 -.179E+01   0.110E-01 -.750E-03 -.286E+00
   -.176E+00 -.910E-01 0.283E+04   0.153E+00 0.909E-01 -.283E+04   0.472E-01 0.282E-01 -.193E+01   -.255E-01 -.287E-01 -.259E+00
   0.253E+01 0.136E+01 0.101E+04   -.224E+01 -.125E+01 -.101E+04   -.305E+00 -.139E+00 -.880E+00   0.316E-01 0.327E-01 0.797E-01
   0.797E+00 0.339E+01 0.102E+04   -.852E+00 -.345E+01 -.102E+04   0.558E-01 0.595E-02 -.414E+00   -.442E-02 0.398E-01 0.182E+00
   -.328E+01 0.256E+01 0.101E+04   0.309E+01 -.253E+01 -.101E+04   0.198E+00 -.769E-01 -.647E+00   -.229E-01 0.341E-01 0.117E+00
   0.338E+01 -.852E+00 0.102E+04   -.346E+01 0.838E+00 -.102E+04   0.461E-01 0.383E-01 -.446E+00   0.222E-01 -.165E-01 0.175E+00
   -.185E+01 -.911E+00 0.102E+04   0.195E+01 0.944E+00 -.102E+04   -.758E-01 -.239E-01 -.673E+00   -.137E-01 -.622E-02 0.160E+00
   -.153E+01 0.281E+00 0.101E+04   0.151E+01 -.307E+00 -.101E+04   0.172E-01 0.147E-01 -.720E+00   0.328E-02 0.112E-01 0.723E-01
   0.639E+00 -.424E+01 0.101E+04   -.684E+00 0.410E+01 -.101E+04   0.239E-01 0.184E+00 -.640E+00   0.514E-02 -.459E-01 0.120E+00
   -.678E+00 -.147E+01 0.101E+04   0.639E+00 0.151E+01 -.101E+04   0.281E-01 -.157E-01 -.714E+00   0.123E-01 -.149E-01 0.813E-01
   0.220E-01 -.104E+00 0.101E+04   0.443E-01 0.151E+00 -.101E+04   -.330E-01 -.136E-01 -.615E+00   -.187E-01 -.249E-01 0.127E+00
   -.786E+01 0.517E+01 -.834E+03   0.776E+01 -.516E+01 0.833E+03   0.428E-01 0.416E-01 0.615E+00   -.127E-02 -.198E-01 0.388E+00
   0.176E+02 0.107E+02 -.812E+03   -.169E+02 -.103E+02 0.813E+03   -.804E+00 -.455E+00 -.107E+01   0.198E+00 0.119E+00 0.487E+00
   -.958E+01 0.190E+02 -.795E+03   0.933E+01 -.187E+02 0.794E+03   0.450E+00 -.274E+00 -.413E+00   -.203E+00 0.470E-01 0.558E+00
   0.562E+01 -.356E+01 -.830E+03   -.584E+01 0.361E+01 0.829E+03   0.116E+00 -.688E-01 0.619E+00   0.126E+00 -.283E-02 0.360E+00
   0.113E+02 -.168E+02 -.792E+03   -.112E+02 0.165E+02 0.792E+03   -.316E-01 0.493E+00 -.423E+00   -.605E-01 -.200E+00 0.553E+00
   -.169E+02 -.899E+01 -.811E+03   0.170E+02 0.905E+01 0.811E+03   -.316E-01 -.372E-01 0.295E+00   -.763E-01 -.436E-01 0.372E+00
   0.711E+00 -.758E+00 -.835E+03   -.639E+00 0.812E+00 0.834E+03   -.129E-01 -.302E-01 0.740E+00   -.408E-01 -.228E-01 0.420E+00
   0.709E-01 -.105E+02 -.833E+03   -.123E+00 0.103E+02 0.832E+03   0.627E-01 0.850E-01 0.505E+00   -.185E-01 0.735E-02 0.391E+00
   -.800E+00 0.576E+01 -.831E+03   0.766E+00 -.598E+01 0.830E+03   -.370E-01 0.135E+00 0.632E+00   0.612E-01 0.107E+00 0.368E+00
   -.743E+01 -.873E+01 -.269E+04   0.745E+01 0.871E+01 0.269E+04   0.811E-01 0.803E-01 0.183E+01   -.828E-01 -.417E-01 0.411E+00
   0.158E+02 0.141E+02 -.269E+04   -.157E+02 -.141E+02 0.269E+04   -.248E+00 -.286E+00 0.188E+01   0.124E+00 0.187E+00 0.335E+00
   -.839E+01 0.617E+02 -.268E+04   0.816E+01 -.621E+02 0.268E+04   0.268E+00 0.156E+00 0.217E+01   -.338E-01 0.186E+00 0.427E+00
   0.246E+02 0.950E+01 -.269E+04   -.244E+02 -.944E+01 0.269E+04   -.397E+00 -.779E-01 0.192E+01   0.209E+00 0.668E-02 0.338E+00
   -.131E+03 0.500E+02 -.260E+04   0.133E+03 -.505E+02 0.259E+04   -.907E+00 0.305E+00 0.277E+01   -.352E+00 -.264E-02 0.474E+00
   0.569E+02 -.436E+02 -.267E+04   -.576E+02 0.437E+02 0.267E+04   0.428E+00 0.570E-01 0.241E+01   0.144E+00 -.111E+00 0.412E+00
   -.322E+02 -.144E+03 -.258E+04   0.328E+02 0.145E+03 0.258E+04   -.327E+00 -.791E+00 0.251E+01   -.180E+00 -.312E+00 0.462E+00
   -.303E+02 -.177E+02 -.269E+04   0.303E+02 0.178E+02 0.268E+04   -.507E-03 -.179E-01 0.208E+01   0.337E-01 0.200E-01 0.378E+00
   0.107E+03 0.726E+02 -.221E+04   -.107E+03 -.729E+02 0.221E+04   -.217E+00 -.317E-01 0.878E+00   0.118E+00 0.606E-01 0.332E+00
   -.698E+02 -.662E+01 -.166E+04   0.847E+02 0.103E+02 0.164E+04   -.147E+02 -.359E+01 0.156E+02   -.226E+00 -.148E+00 -.835E-01
   0.106E+03 -.291E+02 -.177E+04   -.138E+03 0.586E+02 0.178E+04   0.328E+02 -.295E+02 -.107E+02   0.344E-01 -.353E-01 -.210E+00
   -.427E+02 0.694E+02 -.305E+03   0.471E+02 -.756E+02 0.308E+03   -.439E+01 0.613E+01 -.332E+01   -.899E-02 0.152E-01 -.279E-01
   -.119E+02 0.278E+02 -.617E+01   0.711E-14 0.995E-13 -.150E-10   0.121E+02 -.277E+02 0.664E-01   -.220E+00 -.173E+00 0.600E+01

 POSITION                                       TOTAL-FORCE (eV/Angst)
      0.00000      0.00000      5.28219         0.020427      0.011496      0.043646
      2.93046      0.00000      5.28219        -0.007148      0.010669      0.026621
      5.86091      0.00000      5.28219        -0.010422      0.011638      0.044615
      1.46523      2.53785      5.28219         0.006869     -0.009221      0.029624
      4.39568      2.53785      5.28219         0.004563      0.004535      0.016064
      7.32614      2.53785      5.28219        -0.010654      0.005887      0.039660
      2.93046      5.07570      5.28219         0.004583     -0.014190      0.042142
      5.86091      5.07570      5.28219        -0.001534     -0.009346      0.037072
      8.79137      5.07570      5.28219        -0.000656      0.000662      0.025738
      1.46523      0.84595      7.67490         0.015597      0.002535      0.005666
      4.39568      0.84595      7.67490        -0.002839     -0.018292     -0.057813
      7.32614      0.84595      7.67490        -0.016914     -0.007603     -0.023477
      2.93046      3.38380      7.67490        -0.015512      0.008453     -0.061855
      5.86091      3.38380      7.67490         0.013107      0.004244     -0.085025
      8.79137      3.38380      7.67490         0.006671      0.001542     -0.027441
      4.39568      5.92165      7.67490        -0.014515     -0.005764     -0.030624
      7.32614      5.92165      7.67490         0.002266      0.013089     -0.031665
     10.25659      5.92165      7.67490         0.015202      0.009481     -0.013077
      8.79137      1.69432     10.05238        -0.052739      0.029248      0.044163
      2.92802      1.69049     10.04000         0.078765      0.048116      0.038763
      5.86334      1.69049     10.04000        -0.001966      0.018142     -0.048239
     10.25637      4.22988     10.04709         0.022283     -0.018684      0.020108
      4.39568      4.23256     10.04000         0.009661     -0.003964     -0.051845
      7.32637      4.22988     10.04709        -0.037168     -0.017518      0.041878
     11.71973      6.76639     10.05238         0.018721      0.001909      0.033959
      5.86300      6.76639     10.05238        -0.007510     -0.072250      0.071788
      8.79137      6.76733     10.04709        -0.008618      0.024127      0.014834
      0.00000      0.00000     12.42253         0.013123      0.017304     -0.021301
      2.94245      0.01904     12.42445        -0.029754     -0.024339     -0.029854
      5.84892      0.01904     12.42445         0.005621     -0.115211     -0.067591
      1.48772      2.53872     12.42445        -0.047007     -0.015466     -0.024106
      7.30365      2.53872     12.42445         0.383398     -0.172868     -0.042783
      2.94095      5.05579     12.42445        -0.122480      0.072674     -0.063218
      5.85042      5.05579     12.42445         0.050522      0.390907      0.011310
      8.79137      5.07570     12.41807         0.042956      0.026123     -0.024272
      4.39568      2.53785     12.28633        -0.290080     -0.193632      0.178206
      5.54530      3.26069     13.95667        -0.022913     -0.008900     -0.026495
      4.96405      3.22193     15.32957        -0.014787      0.009703     -0.043547
      5.49136      2.49160     15.71351         0.000883     -0.015238      0.008370
    total drift:                               -0.025752     -0.049580     -0.097374

  FREE ENERGIE OF THE ION-ELECTRON SYSTEM (eV)
  free  energy   TOTEN  =      -108.51630644 eV

  energy  without entropy=     -108.51630644  energy(sigma->0) =     -108.51630644

 stress matrix after NEB project (eV)
     -6.81962     -0.16379      0.03608
     -0.16379     -6.83682      0.13496
      0.03608      0.13496     -0.97786
  FORCES: max atom, RMS     0.047002    0.009895
  FORCE total and by dimension    0.061793    0.043547
  Stress total and by dimension    9.710731    6.836823
|           W    W    AA    RRRRR   N    N  II  N    N   GGGG   !!!           |
|           W    W   A  A   R    R  NN   N  II  NN   N  G    G  !!!           |
|           W    W  A    A  R    R  N N  N  II  N N  N  G       !!!           |
|           W WW W  AAAAAA  RRRRR   N  N N  II  N  N N  G  GGG   !            |
|           WW  WW  A    A  R   R   N   NN  II  N   NN  G    G                |
|           W    W  A    A  R    R  N    N  II  N    N   GGGG   !!!           |
|     Tetrahedron method does not include variations of the Fermi             |
|     occupations, so forces and stress will be inaccurate. We suggest        |
|     using a different smearing scheme ISMEAR = 1 or 2 for metals in         |
|     relaxations.                                                            |

 total charge

# of ion       s       p       d       tot
    1        0.415   0.203   9.178   9.797
    2        0.420   0.203   9.176   9.799
    3        0.418   0.203   9.178   9.798
    4        0.419   0.203   9.176   9.798
    5        0.417   0.204   9.177   9.797
    6        0.417   0.203   9.177   9.798
    7        0.418   0.203   9.178   9.798
    8        0.416   0.204   9.178   9.797
    9        0.416   0.203   9.178   9.797
   10        0.406   0.272   9.162   9.840
   11        0.408   0.267   9.167   9.843
   12        0.404   0.271   9.165   9.840
   13        0.409   0.267   9.167   9.843
   14        0.408   0.268   9.167   9.843
   15        0.403   0.271   9.165   9.839
   16        0.405   0.270   9.166   9.841
   17        0.403   0.271   9.165   9.839
   18        0.403   0.271   9.166   9.839
   19        0.403   0.271   9.167   9.841
   20        0.418   0.282   9.151   9.852
   21        0.409   0.279   9.163   9.851
   22        0.401   0.271   9.168   9.840
   23        0.409   0.279   9.164   9.852
   24        0.402   0.275   9.163   9.840
   25        0.402   0.270   9.167   9.839
   26        0.402   0.273   9.165   9.840
   27        0.401   0.271   9.168   9.840
   28        0.420   0.197   9.182   9.798
   29        0.413   0.203   9.181   9.797
   30        0.409   0.201   9.185   9.795
   31        0.413   0.202   9.181   9.797
   32        0.388   0.213   9.190   9.791
   33        0.406   0.198   9.188   9.792
   34        0.381   0.223   9.185   9.789
   35        0.412   0.200   9.183   9.795
   36        0.414   0.326   8.536   9.276
   37        1.591   3.245   0.000   4.836
   38        1.590   3.381   0.000   4.971
   39        0.625   0.115   0.000   0.740
tot         18.514  15.433 329.572 363.519

 BZINTS: Fermi energy:    0.125352;  408.000000 electrons
         Band energy:-0.165516E+04;  BLOECHL correction:   -0.053392