 vasp.6.2.0 18Jan21 (build Jun 12 2021 23:27:24) complex

 executed on             LinuxIFC date 2022.05.28  00:37:14

 INCAR:
   ISMEAR = -5
   SIGMA = 0.1
   ISPIN = 1
   EDIFF = 1.d-5
   EDIFFG = -0.01
   NSW = 0
   NELM = 150
   ENCUT = 500
   ISIF = 2
   IBRION = 2
   LREAL = Auto
   ALGO = Fast
   ICHARG = 11
   LORBIT = 10
   LCHARG = .F.
   LWAVE = .F.

 POTCAR:    PAW_PBE Au 04Oct2007
 POTCAR:    PAW_PBE Ti 08Apr2002
 POTCAR:    PAW_PBE O 08Apr2002
 POTCAR:    PAW_PBE H 15Jun2001
|           W    W    AA    RRRRR   N    N  II  N    N   GGGG   !!!           |
|           W    W   A  A   R    R  NN   N  II  NN   N  G    G  !!!           |
|           W    W  A    A  R    R  N N  N  II  N N  N  G       !!!           |
|           W WW W  AAAAAA  RRRRR   N  N N  II  N  N N  G  GGG   !            |
|           WW  WW  A    A  R   R   N   NN  II  N   NN  G    G                |
|           W    W  A    A  R    R  N    N  II  N    N   GGGG   !!!           |
|     For optimal performance we recommend to set                             |
|       NCORE = 2 up to number-of-cores-per-socket                            |
|     This setting can greatly improve the performance of VASP for DFT.       |
|     The default, NCORE=1 might be grossly inefficient on modern             |
|     multi-core architectures or massively parallel machines. Do your        |
|     Unfortunately you need to use the default for GW and RPA                |
|     calculations (for HF NCORE is supported but not extensively tested      |
|     yet).                                                                   |

 POTCAR:    PAW_PBE Au 04Oct2007
   VRHFIN =Au: s1d10

   TITEL  = PAW_PBE Au 04Oct2007
   POMASS =  196.966; ZVAL   =   11.000    mass and valenz
   ENMAX  =  229.943; ENMIN  =  172.457 eV

 POTCAR:    PAW_PBE Ti 08Apr2002
   VRHFIN =Ti: d3 s1

   TITEL  = PAW_PBE Ti 08Apr2002
   POMASS =   47.880; ZVAL   =    4.000    mass and valenz
   ENMAX  =  178.330; ENMIN  =  133.747 eV

 POTCAR:    PAW_PBE O 08Apr2002
   VRHFIN =O: s2p4

   TITEL  = PAW_PBE O 08Apr2002
   POMASS =   16.000; ZVAL   =    6.000    mass and valenz
   ENMAX  =  400.000; ENMIN  =  300.000 eV

 POTCAR:    PAW_PBE H 15Jun2001
   VRHFIN =H: ultrasoft test

   TITEL  = PAW_PBE H 15Jun2001
   POMASS =    1.000; ZVAL   =    1.000    mass and valenz
   ENMAX  =  250.000; ENMIN  =  200.000 eV

 Optimization of the real space projectors (new method)

 maximal supplied QI-value         = 15.12
 optimisation between [QCUT,QGAM] = [ 11.34, 22.83] = [ 36.00,145.93] Ry
 Optimized for a Real-space Cutoff    1.39 Angstroem

   l    n(q)    QCUT    max X(q) W(low)/X(q) W(high)/X(q)  e(spline)
   2      9    11.338    60.898    0.39E-03    0.42E-03    0.21E-06
   2      9    11.338    58.894    0.40E-03    0.42E-03    0.22E-06
   0      9    11.338   109.617    0.13E-03    0.20E-04    0.13E-06
   0      9    11.338    75.026    0.13E-03    0.20E-04    0.13E-06
   1      9    11.338    16.344    0.33E-04    0.24E-03    0.18E-06
   1      9    11.338    10.160    0.26E-04    0.19E-03    0.15E-06
 Optimization of the real space projectors (new method)

[...]

   l    n(q)    QCUT    max X(q) W(low)/X(q) W(high)/X(q)  e(spline)
   0      7    11.387    20.381    0.39E-03    0.13E-02    0.15E-06
   0      7    11.387    15.268    0.42E-03    0.14E-02    0.17E-06
   1      6    11.387     5.964    0.41E-03    0.11E-02    0.17E-06
   1      6    11.387     5.382    0.39E-03    0.87E-03    0.15E-06
 Optimization of the real space projectors (new method)

 maximal supplied QI-value         = 34.20
 optimisation between [QCUT,QGAM] = [ 11.29, 22.57] = [ 35.68,142.71] Ry
 Optimized for a Real-space Cutoff    1.16 Angstroem

   l    n(q)    QCUT    max X(q) W(low)/X(q) W(high)/X(q)  e(spline)
   0      8    11.287    19.460    0.40E-03    0.73E-03    0.16E-06
   0      8    11.287    12.209    0.38E-03    0.70E-03    0.15E-06
   1      7    11.287     4.655    0.22E-03    0.25E-04    0.22E-06
  PAW_PBE Au 04Oct2007                  :
  PAW_PBE Ti 08Apr2002                  :
  PAW_PBE O 08Apr2002                   :
  PAW_PBE H 15Jun2001                   :

 POSCAR: Au-Ti-OOH
  positions in direct lattice
  velocities in cartesian coordinates
 exchange correlation table for  LEXCH =        8
   RHO(1)=    0.500       N(1)  =     2000
   RHO(2)=  100.500       N(2)  =     4000

 VTST: version 3.2, (02/03/18)

 CHAIN: initializing optimizer

 OPT: Using VASP Conjugate-Gradient optimizer
 CHAIN: Read ICHAIN            0

 POSCAR: Au-Ti-OOH
  positions in direct lattice
  velocities in cartesian coordinates

 ion  position               nearest neighbor table
   1  0.000  0.000  0.204-  16 2.94  12 2.94   6 2.94   8 2.94   7 2.94   3 2.94  10 2.94   4 2.94
                             2 2.94
   2  0.333  0.000  0.204-   9 2.94  11 2.94  17 2.94  10 2.94   8 2.94   4 2.94   5 2.94   1 2.94
                             3 2.94
   3  0.667  0.000  0.204-   7 2.94  18 2.94  12 2.94   1 2.94  11 2.94   5 2.94   6 2.94   9 2.94
                             2 2.94
   4  0.000  0.333  0.204-  10 2.94   6 2.94   5 2.94  13 2.94   2 2.94  15 2.94   9 2.94   1 2.94
                             7 2.94
   5  0.333  0.333  0.204-  13 2.94   7 2.94  11 2.94   4 2.94   2 2.94  14 2.94   3 2.94   8 2.94
                             6 2.94
   6  0.667  0.333  0.204-  15 2.94  14 2.94   1 2.94  12 2.94   4 2.94   9 2.94   8 2.94   3 2.94
                             5 2.94
   7  0.000  0.667  0.204-  18 2.94   3 2.94  16 2.94   5 2.94   1 2.94  13 2.94   8 2.94   4 2.94
                             9 2.94
   8  0.333  0.667  0.204-   9 2.94  17 2.94   1 2.94   2 2.94  14 2.94  16 2.94   6 2.94   7 2.94
                             5 2.94
   9  0.667  0.667  0.204-   2 2.94   8 2.94  17 2.94   6 2.94  15 2.94   4 2.94   3 2.94  18 2.94
                             7 2.94
  10  0.111  0.111  0.296-  26 2.93  19 2.93  20 2.93  11 2.94  17 2.94   2 2.94   4 2.94   1 2.94
                            12 2.94  16 2.94  13 2.94  15 2.94
  11  0.444  0.111  0.296-  20 2.92  21 2.92  27 2.94  13 2.94   2 2.94  10 2.94  17 2.94   5 2.94
                             3 2.94  18 2.94  14 2.94  12 2.94
  12  0.778  0.111  0.296-  25 2.93  19 2.93  21 2.93  16 2.94  18 2.94   1 2.94  14 2.94  15 2.94
                             3 2.94   6 2.94  10 2.94  11 2.94
  13  0.111  0.444  0.296-  23 2.92  20 2.92  22 2.94   5 2.94  18 2.94  11 2.94   7 2.94   4 2.94
                            16 2.94  10 2.94  14 2.94  15 2.94
  14  0.444  0.444  0.296-  21 2.92  23 2.92  24 2.94  15 2.94   6 2.94  12 2.94   8 2.94  17 2.94
                             5 2.94  16 2.94  13 2.94  11 2.94
  15  0.778  0.444  0.296-  24 2.92  22 2.92  19 2.93  14 2.94   6 2.94  17 2.94  12 2.94   9 2.94
                             4 2.94  10 2.94  13 2.94  18 2.94
  16  0.111  0.778  0.296-  25 2.93  26 2.93  23 2.93  18 2.94  12 2.94   7 2.94   1 2.94   8 2.94
                            13 2.94  10 2.94  14 2.94  17 2.94
  17  0.444  0.778  0.296-  27 2.92  24 2.92  26 2.93   9 2.94  15 2.94   2 2.94  10 2.94  11 2.94
                             8 2.94  14 2.94  16 2.94  18 2.94
  18  0.778  0.778  0.296-  22 2.92  27 2.92  25 2.93  16 2.94   7 2.94  13 2.94  12 2.94   3 2.94
                            11 2.94   9 2.94  15 2.94  17 2.94
  19  0.889  0.222  0.389-  10 2.93  12 2.93  15 2.93  26 2.94  25 2.94  24 2.94  22 2.94  21 2.95
                            20 2.95  28 2.95  32 3.03  31 3.03
  20  0.223  0.223  0.388-  36 2.76  23 2.91  21 2.91  11 2.92  13 2.92  10 2.93  27 2.95  22 2.95
                            26 2.95  19 2.95  29 2.96  31 2.96
  21  0.554  0.223  0.388-  36 2.76  20 2.91  23 2.91  14 2.92  11 2.92  12 2.93  27 2.95  24 2.95
                            25 2.95  19 2.95  30 2.96  32 2.96
  22  0.887  0.556  0.388-  24 2.92  27 2.92  18 2.92  15 2.92  13 2.94  25 2.94  19 2.94  23 2.95
                            20 2.95  35 2.96  33 2.99  31 2.99
  23  0.223  0.554  0.388-  36 2.76  20 2.91  21 2.91  13 2.92  14 2.92  16 2.93  22 2.95  24 2.95
                            25 2.95  26 2.95  33 2.96  34 2.96
  24  0.556  0.556  0.388-  27 2.92  22 2.92  15 2.92  17 2.92  14 2.94  26 2.94  19 2.94  21 2.95
                            23 2.95  35 2.96  32 2.99  34 2.99
  25  0.889  0.889  0.389-  16 2.93  12 2.93  18 2.93  19 2.94  26 2.94  22 2.94  27 2.94  23 2.95
                            21 2.95  28 2.95  33 3.03  30 3.03
  26  0.222  0.889  0.389-  10 2.93  16 2.93  17 2.93  19 2.94  25 2.94  27 2.94  24 2.94  20 2.95
                            23 2.95  28 2.95  29 3.03  34 3.03
  27  0.556  0.887  0.388-  24 2.92  22 2.92  17 2.92  18 2.92  11 2.94  26 2.94  25 2.94  20 2.95
                            21 2.95  35 2.96  29 2.99  30 2.99
  28  0.000  0.000  0.482-  25 2.95  19 2.95  26 2.95  34 2.98  32 2.98  33 2.98  30 2.98  31 2.98
                            29 2.98
  29  0.334  0.009  0.483-  30 2.85  31 2.86  36 2.87  20 2.96  35 2.98  28 2.98  27 2.99  26 3.03
                            34 3.10
  30  0.657  0.009  0.483-  29 2.85  32 2.86  36 2.87  21 2.96  35 2.98  28 2.98  27 2.99  25 3.03
                            33 3.10
  31  0.009  0.334  0.483-  33 2.85  29 2.86  36 2.87  20 2.96  35 2.98  28 2.98  22 2.99  19 3.03
                            32 3.10
  32  0.657  0.334  0.483-  34 2.85  30 2.86  36 2.87  21 2.96  35 2.98  28 2.98  24 2.99  19 3.03
                            31 3.10
  33  0.009  0.657  0.483-  31 2.85  34 2.86  36 2.87  23 2.96  35 2.98  28 2.98  22 2.99  25 3.03
                            30 3.10
  34  0.334  0.657  0.483-  32 2.85  33 2.86  36 2.87  23 2.96  35 2.98  28 2.98  24 2.99  26 3.03
                            29 3.10
  35  0.667  0.667  0.482-  24 2.96  27 2.96  22 2.96  29 2.98  34 2.98  32 2.98  31 2.98  30 2.98
                            33 2.98
  36  0.333  0.333  0.473-  37 1.80  20 2.76  23 2.76  21 2.76  33 2.87  31 2.87  29 2.87  30 2.87
                            34 2.87  32 2.87
  37  0.333  0.333  0.542-  38 1.40  36 1.80
  38  0.334  0.333  0.596-  39 0.99  37 1.40
  39  0.442  0.335  0.604-  38 0.99

  LATTYP: Found a hexagonal cell.
 ALAT       =     8.8135128021
 C/A-ratio  =     2.9412617888

  Lattice vectors:

 A1 = (  -4.4067569092,  -7.6327256898,   0.0000000000)
 A2 = (   8.8135128021,   0.0000000000,   0.0000000000)
 A3 = (   0.0000000000,   0.0000000000,  25.9228484302)

Analysis of symmetry for initial positions (statically):
 Subroutine PRICEL returns:
 Original cell was already a primitive cell.

 Routine SETGRP: Setting up the symmetry group for a
 hexagonal supercell.

 Subroutine GETGRP returns: Found  1 space group operations
 (whereof  1 operations were pure point group operations)
 out of a pool of 24 trial point group operations.

The static configuration has the point symmetry C_1 .

Analysis of symmetry for dynamics (positions and initial velocities):
 Subroutine PRICEL returns:
 Original cell was already a primitive cell.

[...]

The dynamic configuration has the point symmetry C_1 .

Analysis of constrained symmetry for selective dynamics:
 Subroutine PRICEL returns:
[...]
     41      -5.2522      2.00000
     42      -5.1753      2.00000
     43      -5.1610      2.00000
     44      -5.1011      2.00000
     45      -5.0393      2.00000
     46      -5.0127      2.00000
     47      -4.9673      2.00000
     48      -4.9534      2.00000
     49      -4.9380      2.00000
     50      -4.9087      2.00000
     51      -4.8202      2.00000
     52      -4.8068      2.00000
     53      -4.7796      2.00000
     54      -4.7494      2.00000
     55      -4.7409      2.00000
     56      -4.7380      2.00000
     57      -4.7147      2.00000
     58      -4.6985      2.00000
     59      -4.6506      2.00000
     60      -4.6227      2.00000
[...]
    238       5.2248      0.00000
    239       5.4266      0.00000
    240       5.4994      0.00000
    241       5.5480      0.00000
    242       5.7489      0.00000
    243       5.7842      0.00000
    244       5.8162      0.00000
    245       5.8297      0.00000
    246       5.9839      0.00000
    247       6.0988      0.00000
    248       6.1341      0.00000
    249       6.1545      0.00000
    250       6.2442      0.00000
    251       6.3034      0.00000
    252       6.3604      0.00000

 soft charge-density along one line, spin component           1
         0         1         2         3         4         5         6         7         8         9
 total charge-density along one line

------------------------ aborting loop because EDIFF is reached ----------------------------------------

 total charge

# of ion       s       p       d       tot
    1        0.548   0.238   8.764   9.550
    2        0.543   0.241   8.765   9.549
    3        0.543   0.241   8.765   9.548
    4        0.543   0.241   8.765   9.548
    5        0.544   0.241   8.762   9.547
    6        0.543   0.241   8.764   9.548
    7        0.543   0.241   8.765   9.548
    8        0.543   0.241   8.765   9.548
    9        0.541   0.240   8.767   9.548
   10        0.523   0.306   8.771   9.600
   11        0.520   0.307   8.779   9.606
   12        0.523   0.306   8.771   9.601
   13        0.520   0.307   8.779   9.606
   14        0.520   0.307   8.779   9.607
   15        0.515   0.309   8.772   9.596
   16        0.523   0.306   8.771   9.600
   17        0.515   0.309   8.772   9.596
   18        0.514   0.309   8.772   9.596
   19        0.521   0.296   8.773   9.590
   20        0.556   0.331   8.742   9.629
   21        0.557   0.331   8.741   9.630
   22        0.511   0.307   8.773   9.591
   23        0.556   0.332   8.741   9.629
   24        0.512   0.306   8.773   9.592
   25        0.520   0.296   8.773   9.589
   26        0.520   0.296   8.773   9.589
   27        0.511   0.307   8.773   9.591
   28        0.542   0.229   8.756   9.528
   29        0.575   0.237   8.749   9.561
   30        0.576   0.238   8.748   9.562
   31        0.575   0.237   8.749   9.561
   32        0.579   0.241   8.745   9.565
   33        0.575   0.237   8.749   9.561
   34        0.576   0.238   8.748   9.562
   35        0.540   0.232   8.755   9.526
   36        0.458   0.669   2.455   3.582
   37        1.576   3.364   0.000   4.940
   38        1.589   3.400   0.000   4.989
   39        0.609   0.112   0.000   0.720
tot         23.098  17.166 309.166 349.430

  FORCE on cell =-STRESS in cart. coord.  units (eV):
  Direction    XX          YY          ZZ          XY          YZ          ZX
  Alpha Z   885.90752   885.90752   885.90752
  Ewald  170631.59066170536.80223************     1.65827     0.57869    31.35242
  Hartree179062.05876179042.24975************     0.41627     0.13327     7.82286
  E(xc)   -1805.19863 -1805.70987 -1812.84516     0.00662    -0.00654     0.07759
  Local  ************************361423.65033    -1.68746    -0.59945   -32.86332
  n-local  -102.76086  -102.78956   -68.96406     0.04007     0.02437     0.49800
  augment  2382.96876  2384.77039  2396.95405    -0.03184    -0.00870    -0.39084
  Kinetic  5642.90612  5667.27161  5660.08310    -0.37493    -0.10643    -6.35550
  Fock        0.00000     0.00000     0.00000     0.00000     0.00000     0.00000
  Total     -20.87284   -20.89746     1.05977     0.02699     0.01521     0.14120
  in kB     -19.17701   -19.19962     0.97367     0.02480     0.01397     0.12973

 VOLUME and BASIS-vectors are now :
  energy-cutoff  :      500.00
  volume of cell :     1743.86
      direct lattice vectors                 reciprocal lattice vectors
     8.813512802  0.000000000  0.000000000     0.113462137 -0.065507406  0.000000000
     4.406756909  7.632725690  0.000000000     0.000000000  0.131014796  0.000000000
     0.000000000  0.000000000 25.922848430     0.000000000  0.000000000  0.038576008

  length of vectors
     8.813512802  8.813512802 25.922848430     0.131014796  0.131014796  0.038576008

 FORCES acting on ions
    electron-ion (+dipol)            ewald-force                    non-local-force                 convergence-correction
   0.118E-02 -.345E-02 0.276E+04   0.313E-02 -.110E-02 -.276E+04   -.148E-02 0.238E-02 -.619E+00   -.446E-02 0.292E-02 -.688E-01
   0.140E+00 -.189E+00 0.276E+04   -.172E+00 0.183E+00 -.276E+04   -.300E-02 0.689E-01 -.322E+00   0.307E-01 -.572E-01 -.161E+00
   -.139E+00 -.193E+00 0.276E+04   0.169E+00 0.177E+00 -.276E+04   0.357E-02 0.710E-01 -.294E+00   -.269E-01 -.471E-01 -.159E+00
   -.968E-01 0.206E+00 0.276E+04   0.745E-01 -.239E+00 -.276E+04   0.581E-01 -.307E-01 -.306E+00   -.367E-01 0.546E-01 -.159E+00
   -.121E-01 -.766E-02 0.276E+04   -.619E-02 -.562E-04 -.276E+04   0.601E-02 0.148E-02 -.211E+00   0.148E-01 0.629E-02 -.220E+00
   0.103E+00 0.207E+00 0.276E+04   -.683E-01 -.239E+00 -.276E+04   -.637E-01 -.326E-01 -.272E+00   0.274E-01 0.551E-01 -.152E+00
   -.224E+00 -.156E-01 0.276E+04   0.241E+00 0.559E-01 -.276E+04   0.534E-01 -.364E-01 -.309E+00   -.588E-01 -.520E-03 -.156E+00
   0.224E+00 -.132E-01 0.276E+04   -.244E+00 0.614E-01 -.276E+04   -.548E-01 -.397E-01 -.290E+00   0.652E-01 -.681E-02 -.150E+00
   0.703E-02 0.730E-02 0.276E+04   0.332E-02 0.118E-02 -.276E+04   0.237E-03 -.302E-02 -.487E+00   -.122E-01 -.626E-02 -.163E+00
   0.545E+00 0.321E+00 0.940E+03   -.156E+00 -.946E-01 -.939E+03   -.291E+00 -.171E+00 -.525E+00   -.806E-01 -.461E-01 -.252E+00
   0.280E-01 -.206E+00 0.941E+03   -.339E-01 0.252E+00 -.940E+03   -.640E-02 0.442E-01 -.277E+00   0.118E-01 -.155E+00 -.182E+00
   -.582E+00 0.348E+00 0.940E+03   0.190E+00 -.124E+00 -.939E+03   0.299E+00 -.176E+00 -.507E+00   0.753E-01 -.378E-01 -.267E+00
   -.169E+00 0.108E+00 0.941E+03   0.206E+00 -.133E+00 -.940E+03   0.362E-01 -.255E-01 -.277E+00   -.128E+00 0.821E-01 -.177E+00
   0.187E+00 0.944E-01 0.941E+03   -.248E+00 -.117E+00 -.940E+03   -.346E-01 -.230E-01 -.247E+00   0.151E+00 0.787E-01 -.185E+00
   -.252E-01 0.284E+01 0.944E+03   0.419E-01 -.292E+01 -.943E+03   -.163E-02 -.394E-02 -.414E+00   -.147E-01 0.525E-01 -.183E+00
   0.985E-02 -.657E+00 0.940E+03   -.798E-02 0.203E+00 -.939E+03   -.396E-02 0.342E+00 -.530E+00   0.318E-02 0.899E-01 -.265E+00
   0.247E+01 -.145E+01 0.944E+03   -.253E+01 0.149E+01 -.943E+03   -.825E-02 0.680E-02 -.428E+00   0.445E-01 -.335E-01 -.183E+00
   -.247E+01 -.141E+01 0.944E+03   0.254E+01 0.144E+01 -.943E+03   0.634E-02 0.457E-02 -.425E+00   -.509E-01 -.233E-01 -.192E+00
   -.323E+00 -.329E+01 -.892E+03   0.290E+00 0.308E+01 0.891E+03   0.227E-01 0.518E-01 0.685E+00   0.810E-02 0.124E+00 0.337E-01
   -.108E+02 -.635E+01 -.896E+03   0.118E+02 0.691E+01 0.897E+03   -.108E+01 -.635E+00 -.860E+00   0.262E-01 0.180E-01 0.193E+00
   0.111E+02 -.622E+01 -.896E+03   -.121E+02 0.678E+01 0.896E+03   0.106E+01 -.646E+00 -.919E+00   -.290E-01 0.369E-01 0.193E+00
   -.987E+01 0.569E+01 -.883E+03   0.966E+01 -.555E+01 0.883E+03   0.336E+00 -.193E+00 0.686E+00   -.752E-01 0.207E-01 0.284E-01
   0.247E+00 0.126E+02 -.896E+03   -.252E+00 -.137E+02 0.897E+03   -.592E-02 0.124E+01 -.875E+00   0.123E-01 -.439E-01 0.190E+00
   0.963E+01 0.545E+01 -.883E+03   -.941E+01 -.533E+01 0.882E+03   -.334E+00 -.178E+00 0.648E+00   0.603E-01 0.279E-01 0.315E-01
   0.283E+01 0.184E+01 -.892E+03   -.267E+01 -.173E+01 0.891E+03   -.425E-01 -.387E-01 0.711E+00   -.789E-01 -.467E-01 0.293E-01
   -.292E+01 0.153E+01 -.892E+03   0.273E+01 -.143E+01 0.891E+03   0.535E-01 -.268E-01 0.717E+00   0.108E+00 -.520E-01 0.320E-01
   0.775E-01 -.112E+02 -.883E+03   -.533E-01 0.110E+02 0.883E+03   -.631E-02 0.386E+00 0.682E+00   -.167E-01 -.737E-01 0.253E-01
   -.826E+00 0.333E+00 -.264E+04   0.827E+00 -.342E+00 0.264E+04   -.132E-01 0.362E-02 0.198E+00   0.132E-01 0.769E-02 0.208E+00
   0.200E+02 0.274E+02 -.262E+04   -.193E+02 -.264E+02 0.262E+04   -.920E+00 -.135E+01 0.306E+00   0.103E+00 0.800E-01 0.118E+00
   -.190E+02 0.296E+02 -.262E+04   0.183E+02 -.286E+02 0.262E+04   0.927E+00 -.138E+01 0.179E+00   -.116E+00 0.933E-01 0.121E+00
   0.329E+02 0.298E+01 -.262E+04   -.317E+02 -.288E+01 0.262E+04   -.162E+01 -.129E+00 0.286E+00   0.121E+00 0.516E-01 0.119E+00
   -.359E+02 0.298E+01 -.261E+04   0.346E+02 -.291E+01 0.261E+04   0.171E+01 -.130E+00 -.620E-01   -.126E+00 0.681E-01 0.124E+00
   0.148E+02 -.303E+02 -.262E+04   -.143E+02 0.292E+02 0.262E+04   -.707E+00 0.148E+01 0.299E+00   0.209E-01 -.151E+00 0.122E+00
   -.139E+02 -.326E+02 -.262E+04   0.133E+02 0.315E+02 0.262E+04   0.713E+00 0.151E+01 0.176E+00   -.437E-02 -.146E+00 0.121E+00
   -.825E+00 -.345E+00 -.265E+04   0.857E+00 0.366E+00 0.265E+04   -.127E-01 -.125E-01 0.343E+00   -.184E-01 -.112E-01 0.122E+00
   0.897E+00 0.460E-02 -.805E+03   -.862E+00 0.155E-02 0.804E+03   -.322E-01 -.111E-02 0.187E+01   0.162E-02 0.112E-02 0.531E-01
   0.110E+02 0.217E+00 -.148E+04   -.130E+02 -.252E+00 0.145E+04   0.201E+01 0.378E-01 0.234E+02   -.440E-02 -.107E-02 -.146E+00
   0.462E+02 0.726E+00 -.172E+04   -.859E+02 -.138E+01 0.175E+04   0.397E+02 0.656E+00 -.308E+02   -.966E-02 -.390E-02 -.102E-02
   -.891E+02 -.147E+01 -.282E+03   0.971E+02 0.161E+01 0.284E+03   -.799E+01 -.132E+00 -.174E+01   0.334E-02 0.140E-03 0.234E-03
   -.338E+02 -.518E+00 0.128E+02   -.568E-13 -.133E-12 0.819E-11   0.338E+02 0.510E+00 -.108E+02   0.962E-02 0.852E-02 -.156E+01

 POSITION                                       TOTAL-FORCE (eV/Angst)
      0.00000      0.00000      5.28038        -0.001341      0.000733     -0.148381
      2.93784      0.00000      5.28038        -0.005033      0.005963     -0.060469
      5.87568      0.00000      5.28038         0.006937      0.008047     -0.061502
      1.46892      2.54424      5.28038        -0.000668     -0.009171     -0.057834
      4.40676      2.54424      5.28038         0.002814      0.000029     -0.067464
      7.34459      2.54424      5.28038        -0.000969     -0.009602     -0.059470
      2.93784      5.08848      5.28038         0.011259      0.003412     -0.060866
      5.87568      5.08848      5.28038        -0.009614      0.001625     -0.060775
      8.81351      5.08848      5.28038        -0.001284     -0.000838     -0.065368
      1.46892      0.84808      7.67911         0.017045      0.009157      0.077612
      4.40676      0.84808      7.67911        -0.000271     -0.064398      0.018948
      7.34459      0.84808      7.67911        -0.017388      0.010286      0.081485
      2.93784      3.39232      7.67911        -0.055170      0.031725      0.020586
      5.87568      3.39232      7.67911         0.055982      0.032745      0.020334
      8.81351      3.39232      7.67911         0.000698     -0.026683      0.113174
      4.40676      5.93656      7.67911         0.001378     -0.021728      0.080537
      7.34459      5.93656      7.67911        -0.024544      0.014507      0.112340
     10.28243      5.93656      7.67911         0.022755      0.013152      0.113756
      8.81351      1.69614     10.07331        -0.001189     -0.039005     -0.017249
      2.94950      1.70289     10.06400        -0.099849     -0.057698     -0.095669
      5.86402      1.70289     10.06400         0.089702     -0.051311     -0.103456
     10.27143      4.24676     10.06599         0.053872     -0.030991      0.027168
      4.40676      4.22694     10.06400         0.002511      0.107343     -0.104548
      7.35560      4.24676     10.06599        -0.051117     -0.030391      0.016478
     11.75137      6.78466     10.07331         0.033640      0.019876     -0.012116
      5.87566      6.78466     10.07331        -0.033442      0.017539     -0.008004
      8.81351      6.77194     10.06599         0.001438      0.060321      0.026282
      0.00000      0.00000     12.49013         0.001758      0.001942     -0.086403
      2.98093      0.06833     12.52966        -0.138431     -0.273622     -0.218535
      5.83259      0.06833     12.52966         0.140235     -0.268988     -0.209336
      1.54964      2.54739     12.52966        -0.311846      0.015410     -0.224768
      7.26387      2.54739     12.52966         0.303241      0.016249     -0.199134
      2.97547      5.01700     12.52966        -0.164656      0.257555     -0.215126
      5.83804      5.01700     12.52966         0.166956      0.252542     -0.206263
      8.81351      5.08848     12.50181         0.001187     -0.002305      0.024130
      4.40676      2.54424     12.25739         0.004539      0.006134      1.592448
      4.40467      2.54393     14.06196        -0.000231      0.001309      0.013522
      4.40861      2.54424     15.45880        -0.002774     -0.003250      0.003606
      5.37525      2.56027     15.64882         0.001872      0.002379      0.000330
    total drift:                               -0.011078      0.001071      0.388917

  FREE ENERGIE OF THE ION-ELECTRON SYSTEM (eV)
  free  energy   TOTEN  =      -130.47695004 eV

  energy  without entropy=     -130.47695004  energy(sigma->0) =     -130.47695004

 stress matrix after NEB project (eV)
    -20.87284      0.02699      0.14120
      0.02699    -20.89746      0.01521
      0.14120      0.01521      1.05977
  FORCES: max atom, RMS     0.013587    0.002403
  FORCE total and by dimension    0.015005    0.013522
  Stress total and by dimension   29.555782   20.897458
|           W    W    AA    RRRRR   N    N  II  N    N   GGGG   !!!           |
|           W    W   A  A   R    R  NN   N  II  NN   N  G    G  !!!           |
|           W    W  A    A  R    R  N N  N  II  N N  N  G       !!!           |
|           W WW W  AAAAAA  RRRRR   N  N N  II  N  N N  G  GGG   !            |
|           WW  WW  A    A  R   R   N   NN  II  N   NN  G    G                |
|           W    W  A    A  R    R  N    N  II  N    N   GGGG   !!!           |
|     Tetrahedron method does not include variations of the Fermi             |
|     occupations, so forces and stress will be inaccurate. We suggest        |
|     using a different smearing scheme ISMEAR = 1 or 2 for metals in         |
|     relaxations.                                                            |

 total charge

# of ion       s       p       d       tot
    1        0.548   0.238   8.764   9.550
    2        0.543   0.241   8.765   9.549
    3        0.543   0.241   8.765   9.548
    4        0.543   0.241   8.765   9.548
    5        0.544   0.241   8.762   9.547
    6        0.543   0.241   8.764   9.548
    7        0.543   0.241   8.765   9.548
    8        0.543   0.241   8.765   9.548
    9        0.541   0.240   8.767   9.548
   10        0.523   0.306   8.771   9.600
   11        0.520   0.307   8.779   9.606
   12        0.523   0.306   8.771   9.601
   13        0.520   0.307   8.779   9.606
   14        0.520   0.307   8.779   9.607
   15        0.515   0.309   8.772   9.596
   16        0.523   0.306   8.771   9.600
   17        0.515   0.309   8.772   9.596
   18        0.514   0.309   8.772   9.596
   19        0.521   0.296   8.773   9.590
   20        0.556   0.331   8.742   9.629
   21        0.557   0.331   8.741   9.630
   22        0.511   0.307   8.773   9.591
   23        0.556   0.332   8.741   9.629
   24        0.512   0.306   8.773   9.592
   25        0.520   0.296   8.773   9.589
   26        0.520   0.296   8.773   9.589
   27        0.511   0.307   8.773   9.591
   28        0.542   0.229   8.756   9.528
   29        0.575   0.237   8.749   9.561
   30        0.576   0.238   8.748   9.562
   31        0.575   0.237   8.749   9.561
   32        0.579   0.241   8.745   9.565
   33        0.575   0.237   8.749   9.561
   34        0.576   0.238   8.748   9.562
   35        0.540   0.232   8.755   9.526
   36        0.458   0.669   2.455   3.582
   37        1.576   3.364   0.000   4.940
   38        1.589   3.400   0.000   4.989
   39        0.609   0.112   0.000   0.720
tot         23.098  17.166 309.166 349.430

 BZINTS: Fermi energy:    0.057570;  402.000000 electrons
         Band energy:-0.157165E+04;  BLOECHL correction:   -0.057957