 vasp.6.2.0 18Jan21 (build Jun 12 2021 23:27:24) complex

 executed on             LinuxIFC date 2022.05.26  19:59:19

 INCAR:
   ISMEAR = -5
   SIGMA = 0.1
   ISPIN = 1
   EDIFF = 1.d-5
   EDIFFG = -0.01
   NSW = 0
   NELM = 150
   ENCUT = 500
   ISIF = 2
   IBRION = 2
   LREAL = Auto
   ALGO = Fast
   ICHARG = 11
   LORBIT = 10
   LCHARG = .F.
   LWAVE = .F.

 POTCAR:    PAW_PBE Cu 22Jun2005
 POTCAR:    PAW_PBE Fe 06Sep2000
 POTCAR:    PAW_PBE N 08Apr2002
|           W    W    AA    RRRRR   N    N  II  N    N   GGGG   !!!           |
|           W    W   A  A   R    R  NN   N  II  NN   N  G    G  !!!           |
|           W    W  A    A  R    R  N N  N  II  N N  N  G       !!!           |
|           W WW W  AAAAAA  RRRRR   N  N N  II  N  N N  G  GGG   !            |
|           WW  WW  A    A  R   R   N   NN  II  N   NN  G    G                |
|           W    W  A    A  R    R  N    N  II  N    N   GGGG   !!!           |
|     For optimal performance we recommend to set                             |
|       NCORE = 2 up to number-of-cores-per-socket                            |
|     This setting can greatly improve the performance of VASP for DFT.       |
|     The default, NCORE=1 might be grossly inefficient on modern             |
|     multi-core architectures or massively parallel machines. Do your        |
|     Unfortunately you need to use the default for GW and RPA                |
|     calculations (for HF NCORE is supported but not extensively tested      |
|     yet).                                                                   |

 POTCAR:    PAW_PBE Cu 22Jun2005
   VRHFIN =Cu: d10 p1

   TITEL  = PAW_PBE Cu 22Jun2005
   POMASS =   63.546; ZVAL   =   11.000    mass and valenz
   ENMAX  =  295.446; ENMIN  =  221.585 eV

 POTCAR:    PAW_PBE Fe 06Sep2000
   VRHFIN =Fe:  d7 s1

   TITEL  = PAW_PBE Fe 06Sep2000
   POMASS =   55.847; ZVAL   =    8.000    mass and valenz
   ENMAX  =  267.882; ENMIN  =  200.911 eV

 POTCAR:    PAW_PBE N 08Apr2002
   VRHFIN =N: s2p3

   TITEL  = PAW_PBE N 08Apr2002
   POMASS =   14.001; ZVAL   =    5.000    mass and valenz
   ENMAX  =  400.000; ENMIN  =  300.000 eV

 Optimization of the real space projectors (new method)

 maximal supplied QI-value         = 16.25
 optimisation between [QCUT,QGAM] = [ 11.38, 22.75] = [ 36.24,144.96] Ry
 Optimized for a Real-space Cutoff    1.52 Angstroem

   l    n(q)    QCUT    max X(q) W(low)/X(q) W(high)/X(q)  e(spline)
   2      9    11.376     4.610    0.21E-03    0.10E-03    0.26E-06
   2      9    11.376     8.522    0.33E-03    0.16E-03    0.37E-06
   0     10    11.376    51.609    0.62E-04    0.20E-04    0.13E-06
   0     10    11.376    27.747    0.54E-04    0.20E-04    0.13E-06
   1     10    11.376    20.408    0.13E-04    0.99E-04    0.19E-06
   1     10    11.376    13.425    0.12E-04    0.87E-04    0.17E-06
 Optimization of the real space projectors (new method)

[...]

   l    n(q)    QCUT    max X(q) W(low)/X(q) W(high)/X(q)  e(spline)
   2      8    11.376    80.901    0.45E-03    0.44E-04    0.21E-06
   2      8    11.376    75.754    0.45E-03    0.45E-04    0.22E-06
   0      9    11.376    58.752    0.65E-04    0.95E-04    0.17E-06
   0      9    11.376    30.679    0.59E-04    0.87E-04    0.16E-06
   1      9    11.376    17.977    0.38E-03    0.10E-03    0.14E-06
   1      9    11.376    13.559    0.31E-03    0.90E-04    0.12E-06
 Optimization of the real space projectors (new method)

 maximal supplied QI-value         = 25.13
 optimisation between [QCUT,QGAM] = [ 11.31, 22.87] = [ 35.82,146.48] Ry
 Optimized for a Real-space Cutoff    1.27 Angstroem

   l    n(q)    QCUT    max X(q) W(low)/X(q) W(high)/X(q)  e(spline)
   0      9    11.310    79.467    0.75E-04    0.16E-03    0.36E-06
   0      9    11.310    66.151    0.74E-04    0.16E-03    0.36E-06
   1      8    11.310    17.416    0.35E-03    0.12E-03    0.95E-06
   1      8    11.310    12.382    0.37E-03    0.13E-03    0.98E-06
  PAW_PBE Cu 22Jun2005                  :
  PAW_PBE Fe 06Sep2000                  :
  PAW_PBE N 08Apr2002                   :

 POSCAR: Cu-Fe-N
  positions in direct lattice
  velocities in cartesian coordinates
 exchange correlation table for  LEXCH =        8
   RHO(1)=    0.500       N(1)  =     2000
   RHO(2)=  100.500       N(2)  =     4000

 VTST: version 3.2, (02/03/18)

 CHAIN: initializing optimizer

 OPT: Using VASP Conjugate-Gradient optimizer
 CHAIN: Read ICHAIN            0

 POSCAR: Cu-Fe-N
  positions in direct lattice
  velocities in cartesian coordinates

 ion  position               nearest neighbor table
   1  0.000  0.000  0.252-   7 2.57   3 2.57   4 2.57   2 2.57   6 2.57   8 2.57  12 2.57  10 2.57
                            16 2.57
   2  0.333  0.000  0.252-   8 2.57   9 2.57   5 2.57   1 2.57   3 2.57  11 2.57   4 2.57  10 2.57
                            17 2.57
   3  0.667  0.000  0.252-   1 2.57   7 2.57   6 2.57   9 2.57   2 2.57  12 2.57   5 2.57  18 2.57
                            11 2.57
   4  0.000  0.333  0.252-   5 2.57   6 2.57   1 2.57   7 2.57   2 2.57  13 2.57   9 2.57  10 2.57
                            15 2.57
   5  0.333  0.333  0.252-   4 2.57   2 2.57   7 2.57  13 2.57   8 2.57   6 2.57   3 2.57  11 2.57
                            14 2.57
   6  0.667  0.333  0.252-   4 2.57   9 2.57  15 2.57   3 2.57   1 2.57   8 2.57  14 2.57   5 2.57
                            12 2.57
   7  0.000  0.667  0.252-   1 2.57   3 2.57  16 2.57  18 2.57   4 2.57   5 2.57   8 2.57   9 2.57
                            13 2.57
   8  0.333  0.667  0.252-   9 2.57   2 2.57  17 2.57   6 2.57   1 2.57   7 2.57   5 2.57  14 2.57
                            16 2.57
   9  0.667  0.667  0.252-   8 2.57   6 2.57   2 2.57  17 2.57   3 2.57   7 2.57   4 2.57  15 2.57
                            18 2.57
  10  0.111  0.111  0.351-  20 2.55  26 2.56  19 2.56  11 2.57  12 2.57  13 2.57   1 2.57   2 2.57
                             4 2.57  15 2.57  16 2.57  17 2.57
  11  0.444  0.111  0.351-  20 2.55  21 2.55  27 2.56  10 2.57  13 2.57   2 2.57  17 2.57  14 2.57
                            12 2.57   5 2.57   3 2.57  18 2.57
  12  0.778  0.111  0.351-  21 2.55  19 2.56  25 2.56  15 2.57  10 2.57  14 2.57  18 2.57   3 2.57
                             1 2.57  16 2.57  11 2.57   6 2.57
  13  0.111  0.444  0.351-  23 2.55  20 2.55  22 2.56  16 2.57  18 2.57  10 2.57  11 2.57  14 2.57
                             5 2.57   4 2.57   7 2.57  15 2.57
  14  0.444  0.444  0.351-  21 2.55  23 2.55  24 2.56  15 2.57  17 2.57  12 2.57  16 2.57  13 2.57
                            11 2.57   6 2.57   8 2.57   5 2.57
  15  0.778  0.444  0.351-  19 2.56  24 2.56  22 2.56  14 2.57  17 2.57  12 2.57   6 2.57  18 2.57
                            10 2.57   9 2.57  13 2.57   4 2.57
  16  0.111  0.778  0.351-  23 2.55  25 2.56  26 2.56  18 2.57  13 2.57   7 2.57  14 2.57  17 2.57
                            12 2.57  10 2.57   8 2.57   1 2.57
  17  0.444  0.778  0.351-  26 2.56  27 2.56  24 2.56  14 2.57  15 2.57   8 2.57   9 2.57  11 2.57
                            16 2.57  18 2.57  10 2.57   2 2.57
  18  0.778  0.778  0.351-  25 2.56  22 2.56  27 2.56  16 2.57  13 2.57   7 2.57  15 2.57  12 2.57
                            17 2.57   9 2.57   3 2.57  11 2.57
  19  0.889  0.223  0.449-  28 2.55  15 2.56  12 2.56  10 2.56  22 2.56  24 2.56  32 2.57  31 2.57
                            21 2.57  20 2.57  25 2.57  26 2.57
  20  0.222  0.222  0.448-  36 2.47  11 2.55  13 2.55  10 2.55  29 2.55  31 2.55  23 2.56  21 2.56
                            26 2.57  19 2.57  27 2.57  22 2.57
  21  0.555  0.222  0.448-  36 2.47  14 2.55  11 2.55  12 2.55  32 2.55  30 2.55  20 2.56  23 2.56
                            19 2.57  25 2.57  24 2.57  27 2.57
  22  0.888  0.556  0.449-  35 2.54  31 2.56  33 2.56  18 2.56  15 2.56  24 2.56  27 2.56  13 2.56
                            19 2.56  25 2.56  23 2.57  20 2.57
  23  0.222  0.555  0.448-  36 2.47  13 2.55  14 2.55  16 2.55  33 2.55  34 2.55  20 2.56  21 2.56
                            25 2.57  26 2.57  22 2.57  24 2.57
  24  0.556  0.556  0.449-  35 2.54  32 2.56  34 2.56  15 2.56  17 2.56  22 2.56  27 2.56  14 2.56
                            19 2.56  26 2.56  21 2.57  23 2.57
  25  0.889  0.889  0.449-  28 2.55  18 2.56  16 2.56  12 2.56  22 2.56  27 2.56  33 2.57  30 2.57
                            21 2.57  23 2.57  19 2.57  26 2.57
  26  0.223  0.889  0.449-  28 2.55  17 2.56  10 2.56  16 2.56  27 2.56  24 2.56  29 2.57  34 2.57
                            20 2.57  23 2.57  25 2.57  19 2.57
  27  0.556  0.888  0.449-  35 2.54  29 2.56  30 2.56  17 2.56  18 2.56  24 2.56  22 2.56  11 2.56
                            26 2.56  25 2.56  20 2.57  21 2.57
  28  0.000  0.000  0.546-  25 2.55  19 2.55  26 2.55  33 2.58  30 2.58  31 2.58  29 2.58  32 2.58
                            34 2.58
  29  0.333  0.003  0.547-  31 2.54  30 2.54  36 2.54  20 2.55  27 2.56  26 2.57  28 2.58  35 2.58
                            34 2.61
  30  0.664  0.003  0.547-  32 2.54  29 2.54  36 2.54  21 2.55  27 2.56  25 2.57  28 2.58  35 2.58
                            33 2.61
  31  0.003  0.333  0.547-  29 2.54  33 2.54  36 2.54  20 2.55  22 2.56  19 2.57  28 2.58  35 2.58
                            32 2.61
  32  0.664  0.333  0.547-  30 2.54  34 2.54  36 2.54  21 2.55  24 2.56  19 2.57  28 2.58  35 2.58
                            31 2.61
  33  0.003  0.664  0.547-  34 2.54  31 2.54  36 2.54  23 2.55  22 2.56  25 2.57  28 2.58  35 2.58
                            30 2.61
  34  0.333  0.664  0.547-  33 2.54  32 2.54  36 2.54  23 2.55  24 2.56  26 2.57  28 2.58  35 2.58
                            29 2.61
  35  0.667  0.667  0.546-  24 2.54  27 2.54  22 2.54  34 2.58  32 2.58  29 2.58  30 2.58  33 2.58
                            31 2.58
  36  0.333  0.333  0.541-  37 1.56  23 2.47  20 2.47  21 2.47  31 2.54  29 2.54  33 2.54  34 2.54
                            32 2.54  30 2.54
  37  0.333  0.333  0.614-  36 1.56

  LATTYP: Found a hexagonal cell.
 ALAT       =     7.6967864036
 C/A-ratio  =     2.7653617908

  Lattice vectors:

 A1 = (  -3.8483927580,  -6.6656128093,   0.0000000000)
 A2 = (   7.6967864037,   0.0000000000,   0.0000000000)
 A3 = (   0.0000000000,   0.0000000000,  21.2843990326)

Analysis of symmetry for initial positions (statically):
 Subroutine PRICEL returns:
 Original cell was already a primitive cell.

 Routine SETGRP: Setting up the symmetry group for a
 hexagonal supercell.

 Subroutine GETGRP returns: Found  6 space group operations
 (whereof  6 operations were pure point group operations)
 out of a pool of 24 trial point group operations.

The static configuration has the point symmetry C_3v.

Analysis of symmetry for dynamics (positions and initial velocities):
 Subroutine PRICEL returns:
 Original cell was already a primitive cell.

[...]

The dynamic configuration has the point symmetry C_3v.

Analysis of constrained symmetry for selective dynamics:
 Subroutine PRICEL returns:
 Original cell was already a primitive cell.

 Routine SETGRP: Setting up the symmetry group for a
 hexagonal supercell.

 Subroutine GETGRP returns: Found  6 space group operations
[...]
     24      -4.3354      2.00000
     25      -4.2435      2.00000
     26      -4.1649      2.00000
     27      -4.1284      2.00000
     28      -4.1044      2.00000
     29      -4.0822      2.00000
     30      -4.0789      2.00000
     31      -4.0662      2.00000
     32      -4.0586      2.00000
     33      -4.0361      2.00000
     34      -3.9850      2.00000
     35      -3.9563      2.00000
     36      -3.9291      2.00000
     37      -3.8743      2.00000
     38      -3.8577      2.00000
     39      -3.8290      2.00000
     40      -3.8051      2.00000
     41      -3.7512      2.00000
     42      -3.7113      2.00000
     43      -3.6654      2.00000
     44      -3.6531      2.00000
     45      -3.6223      2.00000
     46      -3.6137      2.00000
     47      -3.5654      2.00000
     48      -3.5327      2.00000
     49      -3.5068      2.00000
     50      -3.4091      2.00000
     51      -3.3836      2.00000
     52      -3.3811      2.00000
     53      -3.3582      2.00000
     54      -3.3356      2.00000
     55      -3.3302      2.00000
     56      -3.2979      2.00000
     57      -3.2782      2.00000
     58      -3.2669      2.00000
     59      -3.2607      2.00000
     60      -3.2478      2.00000
[...]
    238       6.1897      0.00000
    239       6.3328      0.00000
    240       6.4244      0.00000
    241       6.9077      0.00000
    242       6.9296      0.00000
    243       7.0690      0.00000
    244       7.1199      0.00000
    245       7.2108      0.00000
    246       7.2650      0.00000
    247       7.3554      0.00000
    248       7.4793      0.00000
    249       7.5128      0.00000
    250       7.7394      0.00000
    251       7.8086      0.00000
    252       7.9699      0.00000

 soft charge-density along one line, spin component           1
         0         1         2         3         4         5         6         7         8         9
 total charge-density along one line

------------------------ aborting loop because EDIFF is reached ----------------------------------------

 total charge

# of ion       s       p       d       tot
    1        0.450   0.282   9.190   9.923
    2        0.448   0.285   9.187   9.920
    3        0.448   0.285   9.187   9.920
    4        0.448   0.285   9.187   9.920
    5        0.450   0.284   9.187   9.921
    6        0.448   0.285   9.187   9.920
    7        0.448   0.285   9.187   9.920
    8        0.448   0.285   9.187   9.920
    9        0.447   0.285   9.187   9.919
   10        0.442   0.370   9.180   9.991
   11        0.440   0.371   9.180   9.992
   12        0.442   0.370   9.180   9.991
   13        0.440   0.371   9.180   9.992
   14        0.440   0.371   9.180   9.992
   15        0.440   0.369   9.181   9.990
   16        0.442   0.370   9.180   9.991
   17        0.440   0.369   9.181   9.990
   18        0.440   0.369   9.181   9.990
   19        0.442   0.368   9.181   9.991
   20        0.458   0.390   9.170  10.019
   21        0.458   0.390   9.170  10.019
   22        0.435   0.375   9.181   9.990
   23        0.458   0.390   9.170  10.019
   24        0.435   0.375   9.181   9.990
   25        0.442   0.368   9.181   9.991
   26        0.442   0.368   9.181   9.991
   27        0.435   0.375   9.181   9.990
   28        0.451   0.280   9.194   9.926
   29        0.441   0.294   9.190   9.924
   30        0.441   0.294   9.190   9.924
   31        0.441   0.294   9.190   9.924
   32        0.441   0.294   9.190   9.924
   33        0.441   0.294   9.190   9.924
   34        0.441   0.294   9.190   9.924
   35        0.447   0.282   9.194   9.923
   36        0.566   0.686   6.552   7.804
   37        1.358   2.159   0.000   3.517
tot         17.473  14.461 327.982 359.917

  FORCE on cell =-STRESS in cart. coord.  units (eV):
  Direction    XX          YY          ZZ          XY          YZ          ZX
  Alpha Z   887.46711   887.46711   887.46711
  Ewald  174158.00499174158.00455************     0.00041     0.00011     0.00019
  Hartree187241.55346187241.55342************     0.00005     0.00005     0.00008
  E(xc)   -2306.90863 -2306.90815 -2311.23445    -0.00041    -0.00003    -0.00006
  Local  ************************374716.61365     0.01854    -0.00058    -0.00099
  n-local  -798.82753  -785.25030  -804.79310     7.32262    -0.10328     0.31973
  augment  3349.11148  3349.13137  3356.21884    -0.01723     0.00026     0.00055
  Kinetic  3301.44510  3303.48611  3308.28835     2.60552     1.79719    -1.31951
  Fock        0.00000     0.00000     0.00000     0.00000     0.00000     0.00000
  Total      -4.58584    -4.58584     1.51145     0.00000     0.00000    -0.00000
  in kB      -6.72851    -6.72851     2.21765     0.00000     0.00000    -0.00000

 VOLUME and BASIS-vectors are now :
  energy-cutoff  :      500.00
  volume of cell :     1091.97
      direct lattice vectors                 reciprocal lattice vectors
     7.696786404  0.000000000  0.000000000     0.129924354 -0.075011849  0.000000000
     3.848392758  6.665612809  0.000000000     0.000000000  0.150023716  0.000000000
     0.000000000  0.000000000 21.284399033     0.000000000  0.000000000  0.046982769

  length of vectors
     7.696786404  7.696786404 21.284399033     0.150023716  0.150023716  0.046982769

 FORCES acting on ions
    electron-ion (+dipol)            ewald-force                    non-local-force                 convergence-correction
   -.416E-04 0.158E-06 0.349E+04   0.579E-04 -.441E-05 -.349E+04   0.154E-17 -.258E-17 -.232E+01   -.325E-03 -.155E-03 -.455E+00
   0.783E-01 0.138E+00 0.349E+04   -.155E+00 -.184E+00 -.349E+04   0.303E-01 0.556E-01 -.199E+01   0.494E-01 0.242E-02 -.469E+00
   -.783E-01 0.138E+00 0.349E+04   0.155E+00 -.184E+00 -.349E+04   -.303E-01 0.556E-01 -.199E+01   -.486E-01 0.484E-02 -.468E+00
   0.159E+00 -.143E-02 0.349E+04   -.237E+00 -.424E-01 -.349E+04   0.633E-01 -.154E-02 -.199E+01   0.269E-01 0.415E-01 -.469E+00
   -.649E-04 -.528E-05 0.349E+04   0.116E-03 -.101E-04 -.349E+04   -.548E-17 0.233E-17 -.193E+01   0.121E-01 0.738E-02 -.320E+00
   -.159E+00 -.134E-02 0.349E+04   0.237E+00 -.426E-01 -.349E+04   -.633E-01 -.154E-02 -.199E+01   -.284E-01 0.427E-01 -.468E+00
   0.808E-01 -.137E+00 0.349E+04   -.820E-01 0.227E+00 -.349E+04   0.330E-01 -.540E-01 -.199E+01   -.201E-01 -.445E-01 -.468E+00
   -.807E-01 -.137E+00 0.349E+04   0.817E-01 0.227E+00 -.349E+04   -.330E-01 -.540E-01 -.199E+01   0.234E-01 -.459E-01 -.468E+00
   -.144E-03 -.329E-04 0.349E+04   0.263E-03 0.206E-04 -.349E+04   0.773E-17 -.590E-18 -.210E+01   -.131E-01 -.675E-02 -.437E+00
   0.224E+01 0.129E+01 0.118E+04   -.194E+01 -.112E+01 -.118E+04   -.289E+00 -.167E+00 -.839E+00   -.214E-01 -.124E-01 0.239E-01
   -.904E-04 0.194E+01 0.118E+04   0.189E-03 -.226E+01 -.118E+04   -.140E-07 0.210E+00 -.563E+00   0.118E-01 0.831E-01 0.391E-01
   -.224E+01 0.129E+01 0.118E+04   0.194E+01 -.112E+01 -.118E+04   0.289E+00 -.167E+00 -.839E+00   0.199E-01 -.118E-01 0.230E-01
   0.168E+01 -.969E+00 0.118E+04   -.195E+01 0.113E+01 -.118E+04   0.182E+00 -.105E+00 -.563E+00   0.783E-01 -.305E-01 0.391E-01
   -.168E+01 -.969E+00 0.118E+04   0.195E+01 0.113E+01 -.118E+04   -.182E+00 -.105E+00 -.563E+00   -.552E-01 -.322E-01 0.361E-01
   -.143E-03 0.251E+00 0.118E+04   0.299E-03 -.394E+00 -.118E+04   -.356E-08 0.534E-01 -.763E+00   -.297E-02 0.726E-01 -.177E-01
   -.912E-04 -.258E+01 0.118E+04   0.185E-03 0.224E+01 -.118E+04   -.222E-07 0.333E+00 -.839E+00   -.116E-02 0.219E-01 0.229E-01
   0.217E+00 -.126E+00 0.118E+04   -.341E+00 0.197E+00 -.118E+04   0.462E-01 -.267E-01 -.763E+00   0.621E-01 -.389E-01 -.178E-01
   -.217E+00 -.126E+00 0.118E+04   0.341E+00 0.197E+00 -.118E+04   -.462E-01 -.267E-01 -.763E+00   -.604E-01 -.366E-01 -.156E-01
   -.585E-04 0.663E+00 -.115E+04   0.675E-04 -.655E+00 0.115E+04   0.122E-08 -.184E-01 0.744E+00   0.132E-02 0.214E-02 0.259E+00
   -.144E+01 -.831E+00 -.114E+04   0.202E+01 0.117E+01 0.114E+04   -.830E+00 -.479E+00 -.128E+00   0.116E+00 0.671E-01 0.354E+00
   0.144E+01 -.831E+00 -.114E+04   -.202E+01 0.117E+01 0.114E+04   0.830E+00 -.479E+00 -.128E+00   -.138E+00 0.649E-01 0.354E+00
   -.261E+01 0.151E+01 -.115E+04   0.220E+01 -.127E+01 0.115E+04   0.399E+00 -.230E+00 0.892E+00   0.650E-01 -.241E-01 0.189E+00
   -.771E-04 0.166E+01 -.114E+04   0.143E-03 -.234E+01 0.114E+04   -.638E-07 0.958E+00 -.128E+00   -.137E-01 -.153E+00 0.354E+00
   0.261E+01 0.151E+01 -.115E+04   -.220E+01 -.127E+01 0.115E+04   -.399E+00 -.230E+00 0.892E+00   -.414E-01 -.248E-01 0.188E+00
   -.574E+00 -.331E+00 -.115E+04   0.567E+00 0.327E+00 0.115E+04   0.159E-01 0.919E-02 0.744E+00   -.382E-02 -.219E-02 0.258E+00
   0.574E+00 -.331E+00 -.115E+04   -.567E+00 0.327E+00 0.115E+04   -.159E-01 0.919E-02 0.744E+00   0.286E-02 0.276E-03 0.259E+00
   -.126E-03 -.302E+01 -.115E+04   0.242E-03 0.254E+01 0.115E+04   -.307E-07 0.461E+00 0.892E+00   0.115E-01 0.683E-01 0.189E+00
   -.335E-04 0.170E-04 -.345E+04   0.340E-04 -.346E-04 0.345E+04   -.556E-17 -.422E-17 0.231E+01   0.143E-02 0.876E-03 0.462E+00
   0.111E+02 0.199E+02 -.344E+04   -.114E+02 -.206E+02 0.344E+04   0.612E-01 0.296E+00 0.309E+01   0.875E-01 0.177E+00 0.377E+00
   -.111E+02 0.199E+02 -.344E+04   0.114E+02 -.206E+02 0.344E+04   -.612E-01 0.296E+00 0.309E+01   -.109E+00 0.178E+00 0.376E+00
   0.228E+02 -.304E+00 -.344E+04   -.235E+02 0.402E+00 0.344E+04   0.287E+00 -.950E-01 0.309E+01   0.197E+00 -.128E-01 0.377E+00
   -.228E+02 -.303E+00 -.344E+04   0.235E+02 0.401E+00 0.344E+04   -.287E+00 -.950E-01 0.309E+01   -.219E+00 -.120E-01 0.378E+00
   0.117E+02 -.196E+02 -.344E+04   -.121E+02 0.202E+02 0.344E+04   0.226E+00 -.201E+00 0.309E+01   0.999E-01 -.183E+00 0.376E+00
   -.117E+02 -.196E+02 -.344E+04   0.121E+02 0.202E+02 0.344E+04   -.226E+00 -.201E+00 0.309E+01   -.119E+00 -.184E+00 0.379E+00
   -.132E-03 -.183E-04 -.346E+04   0.256E-03 0.671E-05 0.345E+04   0.111E-16 0.125E-17 0.245E+01   -.108E-01 -.543E-02 0.505E+00
   -.607E-04 -.291E-04 -.225E+04   0.105E-03 0.189E-04 0.225E+04   -.266E-17 -.551E-18 0.521E+01   0.482E-02 0.291E-02 0.250E+00
   0.106E-03 -.466E-04 -.192E+04   0.203E-04 0.860E-05 0.194E+04   -.972E-18 -.466E-18 -.202E+02   0.181E-02 0.109E-02 -.164E+00
   -.177E-03 -.759E-04 0.101E+02   0.187E-12 0.188E-12 0.159E-11   -.203E-16 0.557E-16 -.119E+02   -.322E-01 -.215E-01 0.183E+01

 POSITION                                       TOTAL-FORCE (eV/Angst)
      0.00000      0.00000      5.37156        -0.000000     -0.000000      0.008378
      2.56560      0.00000      5.37156         0.002989      0.013207      0.073240
      5.13119      0.00000      5.37156        -0.002989      0.013207      0.073240
      1.28280      2.22187      5.37156         0.012932     -0.004015      0.073240
      3.84839      2.22187      5.37156        -0.000000     -0.000000      0.041743
      6.41399      2.22187      5.37156        -0.012932     -0.004015      0.073240
      2.56560      4.44374      5.37156         0.009943     -0.009192      0.073240
      5.13119      4.44374      5.37156        -0.009943     -0.009192      0.073240
      7.69679      4.44374      5.37156        -0.000000     -0.000000      0.059574
      1.28280      0.74062      7.46636        -0.010763     -0.006214     -0.051238
      3.84839      0.74062      7.46636         0.000000     -0.031421     -0.064008
      6.41399      0.74062      7.46636         0.010763     -0.006214     -0.051238
      2.56560      2.96249      7.46636        -0.027212      0.015711     -0.064008
      5.13119      2.96249      7.46636         0.027212      0.015711     -0.064008
      7.69679      2.96249      7.46636         0.000000     -0.017038     -0.036681
      3.84839      5.18437      7.46636        -0.000000      0.012428     -0.051238
      6.41399      5.18437      7.46636        -0.014756      0.008519     -0.036681
      8.97958      5.18437      7.46636         0.014756      0.008519     -0.036681
      7.69679      1.48386      9.55425         0.000000     -0.007907      0.049361
      2.56752      1.48236      9.54187        -0.118737     -0.068553     -0.183334
      5.12927      1.48236      9.54187         0.118737     -0.068553     -0.183334
      8.97669      3.70479      9.55452         0.042263     -0.024401      0.027604
      3.84839      3.70090      9.54187        -0.000000      0.137105     -0.183334
      6.41688      3.70479      9.55452        -0.042263     -0.024401      0.027604
     10.26012      5.92368      9.55425         0.006848      0.003954      0.049361
      5.13345      5.92368      9.55425        -0.006848      0.003954      0.049361
      7.69679      5.92165      9.55452        -0.000000      0.048801      0.027604
      0.00000      0.00000     11.62539        -0.000000     -0.000000     -0.035903
      2.57645      0.02208     11.63568        -0.118216     -0.197350     -0.104080
      5.12034      0.02208     11.63568         0.118216     -0.197350     -0.104080
      1.30734      2.22023     11.63568        -0.230018     -0.003703     -0.104080
      6.38944      2.22023     11.63568         0.230018     -0.003703     -0.104080
      2.57929      4.42331     11.63568        -0.111802      0.201053     -0.104080
      5.11749      4.42331     11.63568         0.111802      0.201053     -0.104080
      7.69679      4.44374     11.62587        -0.000000     -0.000000     -0.021440
      3.84839      2.22187     11.51524        -0.000000     -0.000000      0.939890
      3.84839      2.22187     13.07831        -0.000000     -0.000000     -0.032308
    total drift:                               -0.032347     -0.021601      0.002452

  FREE ENERGIE OF THE ION-ELECTRON SYSTEM (eV)
  free  energy   TOTEN  =      -136.82372460 eV

  energy  without entropy=     -136.82372460  energy(sigma->0) =     -136.82372460

 stress matrix after NEB project (eV)
     -4.58584      0.00000     -0.00000
      0.00000     -4.58584     -0.00000
     -0.00000      0.00000      1.51145
  FORCES: max atom, RMS     0.032308    0.005311
  FORCE total and by dimension    0.032308    0.032308
  Stress total and by dimension    6.659155    4.585841
|           W    W    AA    RRRRR   N    N  II  N    N   GGGG   !!!           |
|           W    W   A  A   R    R  NN   N  II  NN   N  G    G  !!!           |
|           W    W  A    A  R    R  N N  N  II  N N  N  G       !!!           |
|           W WW W  AAAAAA  RRRRR   N  N N  II  N  N N  G  GGG   !            |
|           WW  WW  A    A  R   R   N   NN  II  N   NN  G    G                |
|           W    W  A    A  R    R  N    N  II  N    N   GGGG   !!!           |
|     Tetrahedron method does not include variations of the Fermi             |
|     occupations, so forces and stress will be inaccurate. We suggest        |
|     using a different smearing scheme ISMEAR = 1 or 2 for metals in         |
|     relaxations.                                                            |

 total charge

# of ion       s       p       d       tot
    1        0.450   0.282   9.190   9.923
    2        0.448   0.285   9.187   9.920
    3        0.448   0.285   9.187   9.920
    4        0.448   0.285   9.187   9.920
    5        0.450   0.284   9.187   9.921
    6        0.448   0.285   9.187   9.920
    7        0.448   0.285   9.187   9.920
    8        0.448   0.285   9.187   9.920
    9        0.447   0.285   9.187   9.919
   10        0.442   0.370   9.180   9.991
   11        0.440   0.371   9.180   9.992
   12        0.442   0.370   9.180   9.991
   13        0.440   0.371   9.180   9.992
   14        0.440   0.371   9.180   9.992
   15        0.440   0.369   9.181   9.990
   16        0.442   0.370   9.180   9.991
   17        0.440   0.369   9.181   9.990
   18        0.440   0.369   9.181   9.990
   19        0.442   0.368   9.181   9.991
   20        0.458   0.390   9.170  10.019
   21        0.458   0.390   9.170  10.019
   22        0.435   0.375   9.181   9.990
   23        0.458   0.390   9.170  10.019
   24        0.435   0.375   9.181   9.990
   25        0.442   0.368   9.181   9.991
   26        0.442   0.368   9.181   9.991
   27        0.435   0.375   9.181   9.990
   28        0.451   0.280   9.194   9.926
   29        0.441   0.294   9.190   9.924
   30        0.441   0.294   9.190   9.924
   31        0.441   0.294   9.190   9.924
   32        0.441   0.294   9.190   9.924
   33        0.441   0.294   9.190   9.924
   34        0.441   0.294   9.190   9.924
   35        0.447   0.282   9.194   9.923
   36        0.566   0.686   6.552   7.804
   37        1.358   2.159   0.000   3.517
tot         17.473  14.461 327.982 359.917

 BZINTS: Fermi energy:    0.024664;  398.000000 electrons
         Band energy:-0.112241E+04;  BLOECHL correction:   -0.068402