 vasp.6.2.0 18Jan21 (build Jun 12 2021 23:27:24) complex

 executed on             LinuxIFC date 2022.05.27  05:47:08

 INCAR:
   ISMEAR = -5
   SIGMA = 0.1
   ISPIN = 1
   EDIFF = 1.d-5
   EDIFFG = -0.01
   NSW = 0
   NELM = 150
   ENCUT = 500
   ISIF = 2
   IBRION = 2
   LREAL = Auto
   ALGO = Fast
   ICHARG = 11
   LORBIT = 10
   LCHARG = .F.
   LWAVE = .F.

 POTCAR:    PAW_PBE Ag 02Apr2005
 POTCAR:    PAW_PBE Hf 20Jan2003
 POTCAR:    PAW_PBE H 15Jun2001
|           W    W    AA    RRRRR   N    N  II  N    N   GGGG   !!!           |
|           W    W   A  A   R    R  NN   N  II  NN   N  G    G  !!!           |
|           W    W  A    A  R    R  N N  N  II  N N  N  G       !!!           |
|           W WW W  AAAAAA  RRRRR   N  N N  II  N  N N  G  GGG   !            |
|           WW  WW  A    A  R   R   N   NN  II  N   NN  G    G                |
|           W    W  A    A  R    R  N    N  II  N    N   GGGG   !!!           |
|     For optimal performance we recommend to set                             |
|       NCORE = 2 up to number-of-cores-per-socket                            |
|     This setting can greatly improve the performance of VASP for DFT.       |
|     The default, NCORE=1 might be grossly inefficient on modern             |
|     multi-core architectures or massively parallel machines. Do your        |
|     Unfortunately you need to use the default for GW and RPA                |
|     calculations (for HF NCORE is supported but not extensively tested      |
|     yet).                                                                   |

 POTCAR:    PAW_PBE Ag 02Apr2005
   VRHFIN =Ag : s1 d10

   TITEL  = PAW_PBE Ag 02Apr2005
   POMASS =  107.868; ZVAL   =   11.000    mass and valenz
   ENMAX  =  249.844; ENMIN  =  187.383 eV

 POTCAR:    PAW_PBE Hf 20Jan2003
   VRHFIN =Hf: 6s5d

   TITEL  = PAW_PBE Hf 20Jan2003
   POMASS =  178.490; ZVAL   =    4.000    mass and valenz
   ENMAX  =  220.334; ENMIN  =  165.250 eV

 POTCAR:    PAW_PBE H 15Jun2001
   VRHFIN =H: ultrasoft test

   TITEL  = PAW_PBE H 15Jun2001
   POMASS =    1.000; ZVAL   =    1.000    mass and valenz
   ENMAX  =  250.000; ENMIN  =  200.000 eV

 Optimization of the real space projectors (new method)

 maximal supplied QI-value         = 15.12
 optimisation between [QCUT,QGAM] = [ 11.34, 22.83] = [ 36.00,145.93] Ry
 Optimized for a Real-space Cutoff    1.43 Angstroem

   l    n(q)    QCUT    max X(q) W(low)/X(q) W(high)/X(q)  e(spline)
   2      9    11.338    53.897    0.16E-03    0.20E-03    0.28E-06
   2      9    11.338    52.416    0.16E-03    0.20E-03    0.29E-06
   0     10    11.338   122.045    0.31E-04    0.76E-04    0.15E-06
   0     10    11.338    73.629    0.30E-04    0.72E-04    0.15E-06
   1      9    11.338    15.255    0.20E-03    0.19E-04    0.17E-06
   1      9    11.338     9.562    0.16E-03    0.15E-04    0.14E-06
 Optimization of the real space projectors (new method)

[...]

   l    n(q)    QCUT    max X(q) W(low)/X(q) W(high)/X(q)  e(spline)
   2     10    11.350    48.111    0.20E-03    0.11E-03    0.41E-06
   2     10    11.350    40.545    0.19E-03    0.10E-03    0.39E-06
   0     11    11.350   121.658    0.22E-04    0.19E-04    0.24E-06
   0     11    11.350    71.177    0.17E-04    0.17E-04    0.23E-06
   1     11    11.350    14.183    0.25E-03    0.43E-03    0.12E-05
   1     11    11.350     8.257    0.17E-03    0.29E-03    0.81E-06
 Optimization of the real space projectors (new method)

 maximal supplied QI-value         = 34.20
 optimisation between [QCUT,QGAM] = [ 11.29, 22.57] = [ 35.68,142.71] Ry
 Optimized for a Real-space Cutoff    1.16 Angstroem

   l    n(q)    QCUT    max X(q) W(low)/X(q) W(high)/X(q)  e(spline)
   0      8    11.287    19.460    0.40E-03    0.73E-03    0.16E-06
   0      8    11.287    12.209    0.38E-03    0.70E-03    0.15E-06
   1      7    11.287     4.655    0.22E-03    0.25E-04    0.22E-06
  PAW_PBE Ag 02Apr2005                  :
  PAW_PBE Hf 20Jan2003                  :
  PAW_PBE H 15Jun2001                   :

 POSCAR: Ag-Hf-H2
  positions in direct lattice
  velocities in cartesian coordinates
 exchange correlation table for  LEXCH =        8
   RHO(1)=    0.500       N(1)  =     2000
   RHO(2)=  100.500       N(2)  =     4000

 VTST: version 3.2, (02/03/18)

 CHAIN: initializing optimizer

 OPT: Using VASP Conjugate-Gradient optimizer
 CHAIN: Read ICHAIN            0

 POSCAR: Ag-Hf-H2
  positions in direct lattice
  velocities in cartesian coordinates

 ion  position               nearest neighbor table
   1  0.000  0.000  0.238-   2 2.93   8 2.93   7 2.93   6 2.93   4 2.93  12 2.93  16 2.93  10 2.93
                             3 2.93
   2  0.333  0.000  0.238-   1 2.93   8 2.93   9 2.93   3 2.93   4 2.93   5 2.93  10 2.93  17 2.93
                            11 2.93
   3  0.667  0.000  0.238-   9 2.93   2 2.93   5 2.93  11 2.93   7 2.93  18 2.93   1 2.93   6 2.93
                            12 2.93
   4  0.000  0.333  0.238-   5 2.93   6 2.93   2 2.93   1 2.93   7 2.93  13 2.93  15 2.93   9 2.93
                            10 2.93
   5  0.333  0.333  0.238-   4 2.93   3 2.93   7 2.93   2 2.93   8 2.93  14 2.93  13 2.93  11 2.93
                             6 2.93
   6  0.667  0.333  0.238-   4 2.93   9 2.93   1 2.93  15 2.93   8 2.93  12 2.93   3 2.93   5 2.93
                            14 2.93
   7  0.000  0.667  0.238-   8 2.93   1 2.93   5 2.93   3 2.93   4 2.93  16 2.93  18 2.93  13 2.93
                             9 2.93
   8  0.333  0.667  0.238-   7 2.93   1 2.93   2 2.93   9 2.93   5 2.93  16 2.93   6 2.93  17 2.93
                            14 2.93
   9  0.667  0.667  0.238-   3 2.93   2 2.93   8 2.93   6 2.93  17 2.93   4 2.93  15 2.93   7 2.93
                            18 2.93
  10  0.111  0.111  0.346-  20 2.90  19 2.92  26 2.92  12 2.93  16 2.93  15 2.93  17 2.93  13 2.93
                            11 2.93   2 2.93   1 2.93   4 2.93
  11  0.444  0.111  0.346-  21 2.90  20 2.90  14 2.93  17 2.93  18 2.93   3 2.93  12 2.93  13 2.93
                            10 2.93   5 2.93   2 2.93  27 2.93
  12  0.778  0.111  0.346-  21 2.90  25 2.92  19 2.92  10 2.93  16 2.93  18 2.93  15 2.93  11 2.93
                             1 2.93  14 2.93   6 2.93   3 2.93
  13  0.111  0.444  0.346-  20 2.90  23 2.90  15 2.93  14 2.93  18 2.93  10 2.93  11 2.93  16 2.93
                             4 2.93   5 2.93   7 2.93  22 2.93
  14  0.444  0.444  0.346-  23 2.90  21 2.90  13 2.93  11 2.93  16 2.93   5 2.93  12 2.93  17 2.93
                             8 2.93  15 2.93   6 2.93  24 2.93
  15  0.778  0.444  0.346-  19 2.92  24 2.93  22 2.93  13 2.93  10 2.93  12 2.93  17 2.93  18 2.93
                             4 2.93   6 2.93   9 2.93  14 2.93
  16  0.111  0.778  0.346-  23 2.90  26 2.92  25 2.92  18 2.93  12 2.93  10 2.93  14 2.93  17 2.93
                            13 2.93   7 2.93   8 2.93   1 2.93
  17  0.444  0.778  0.346-  26 2.92  27 2.93  24 2.93  11 2.93  10 2.93   9 2.93  18 2.93  15 2.93
                            16 2.93   2 2.93  14 2.93   8 2.93
  18  0.778  0.778  0.346-  25 2.92  22 2.93  27 2.93  16 2.93  12 2.93  13 2.93  11 2.93  17 2.93
                            15 2.93   7 2.93   3 2.93   9 2.93
  19  0.889  0.222  0.454-  10 2.92  12 2.92  15 2.92  20 2.93  21 2.93  26 2.93  25 2.93  24 2.93
                            22 2.93  28 2.94  32 2.98  31 2.98
  20  0.222  0.222  0.452-  36 2.86  10 2.90  13 2.90  11 2.90  19 2.93  26 2.93  27 2.93  22 2.93
                            21 2.94  23 2.94  31 2.97  29 2.97
  21  0.556  0.222  0.452-  36 2.86  12 2.90  11 2.90  14 2.90  25 2.93  19 2.93  27 2.93  24 2.93
                            20 2.94  23 2.94  30 2.97  32 2.97
  22  0.889  0.556  0.454-  24 2.93  27 2.93  18 2.93  15 2.93  25 2.93  19 2.93  13 2.93  23 2.93
                            20 2.93  35 2.94  33 2.96  31 2.96
  23  0.222  0.556  0.452-  36 2.86  16 2.90  14 2.90  13 2.90  26 2.93  25 2.93  22 2.93  24 2.93
                            21 2.94  20 2.94  34 2.97  33 2.97
  24  0.556  0.556  0.454-  27 2.93  22 2.93  15 2.93  17 2.93  19 2.93  26 2.93  14 2.93  23 2.93
                            21 2.93  35 2.94  32 2.96  34 2.96
  25  0.889  0.889  0.454-  16 2.92  12 2.92  18 2.92  23 2.93  21 2.93  26 2.93  19 2.93  22 2.93
                            27 2.93  28 2.94  33 2.98  30 2.98
  26  0.222  0.889  0.454-  16 2.92  10 2.92  17 2.92  23 2.93  20 2.93  25 2.93  19 2.93  27 2.93
                            24 2.93  28 2.94  34 2.98  29 2.98
  27  0.556  0.889  0.454-  24 2.93  22 2.93  17 2.93  18 2.93  26 2.93  25 2.93  11 2.93  20 2.93
                            21 2.93  35 2.94  29 2.96  30 2.96
  28  0.000  0.000  0.562-  26 2.94  25 2.94  19 2.94  29 2.94  34 2.94  33 2.94  32 2.94  31 2.94
                            30 2.94
  29  0.333  0.003  0.563-  30 2.90  31 2.91  36 2.91  35 2.94  28 2.94  27 2.96  20 2.97  26 2.98
                            34 2.98
  30  0.664  0.003  0.563-  29 2.90  32 2.91  36 2.91  35 2.94  28 2.94  27 2.96  21 2.97  25 2.98
                            33 2.98
  31  0.003  0.333  0.563-  33 2.90  29 2.91  36 2.91  35 2.94  28 2.94  22 2.96  20 2.97  19 2.98
                            32 2.98
  32  0.664  0.333  0.563-  34 2.90  30 2.91  36 2.91  35 2.94  28 2.94  24 2.96  21 2.97  19 2.98
                            31 2.98
  33  0.003  0.664  0.563-  31 2.90  34 2.91  36 2.91  35 2.94  28 2.94  22 2.96  23 2.97  25 2.98
                            30 2.98
  34  0.333  0.664  0.563-  32 2.90  33 2.91  36 2.91  35 2.94  28 2.94  24 2.96  23 2.97  26 2.98
                            29 2.98
  35  0.667  0.667  0.563-  30 2.94  29 2.94  32 2.94  34 2.94  31 2.94  33 2.94  24 2.94  27 2.94
                            22 2.94
  36  0.333  0.333  0.556-  37 2.13  38 2.13  21 2.86  20 2.86  23 2.86  31 2.91  33 2.91  30 2.91
                            29 2.91  34 2.91  32 2.91
  37  0.285  0.338  0.650-  38 0.81  36 2.13
  38  0.377  0.338  0.650-  37 0.81  36 2.13

  LATTYP: Found a hexagonal cell.
 ALAT       =     8.7913665772
 C/A-ratio  =     2.5227160501

  Lattice vectors:

 A1 = (  -4.3956832886,  -7.6135467898,   0.0000000000)
 A2 = (   8.7913665771,   0.0000000000,   0.0000000000)
 A3 = (   0.0000000000,   0.0000000000,  22.1781215668)

Analysis of symmetry for initial positions (statically):
 Subroutine PRICEL returns:
 Original cell was already a primitive cell.

 Routine SETGRP: Setting up the symmetry group for a
 hexagonal supercell.

 Subroutine GETGRP returns: Found  2 space group operations
 (whereof  2 operations were pure point group operations)
 out of a pool of 24 trial point group operations.

The static configuration has the point symmetry C_1h.

Analysis of symmetry for dynamics (positions and initial velocities):
 Subroutine PRICEL returns:
 Original cell was already a primitive cell.

[...]

The dynamic configuration has the point symmetry C_1h.

Analysis of constrained symmetry for selective dynamics:
 Subroutine PRICEL returns:
 Original cell was already a primitive cell.

 Routine SETGRP: Setting up the symmetry group for a
 hexagonal supercell.

 Subroutine GETGRP returns: Found  2 space group operations
[...]
     33      -4.4291      2.00000
     34      -4.4238      2.00000
     35      -4.3967      2.00000
     36      -4.3817      2.00000
     37      -4.3435      2.00000
     38      -4.3087      2.00000
     39      -4.2765      2.00000
     40      -4.2714      2.00000
     41      -4.2656      2.00000
     42      -4.2523      2.00000
     43      -4.2383      2.00000
     44      -4.1497      2.00000
     45      -4.1308      2.00000
     46      -4.1225      2.00000
     47      -4.1080      2.00000
     48      -4.0982      2.00000
     49      -4.0962      2.00000
     50      -4.0886      2.00000
     51      -4.0817      2.00000
     52      -4.0707      2.00000
     53      -4.0657      2.00000
     54      -4.0086      2.00000
     55      -3.9985      2.00000
     56      -3.9872      2.00000
     57      -3.9703      2.00000
     58      -3.9600      2.00000
     59      -3.9388      2.00000
     60      -3.9272      2.00000
[...]
    238       6.7981      0.00000
    239       7.0453      0.00000
    240       7.2285      0.00000
    241       7.2552      0.00000
    242       7.2999      0.00000
    243       7.3231      0.00000
    244       7.3502      0.00000
    245       7.4182      0.00000
    246       7.4920      0.00000
    247       7.6042      0.00000
    248       7.6687      0.00000
    249       7.7231      0.00000
    250       7.8610      0.00000
    251       7.9298      0.00000
    252       8.0074      0.00000

 soft charge-density along one line, spin component           1
         0         1         2         3         4         5         6         7         8         9
 total charge-density along one line

------------------------ aborting loop because EDIFF is reached ----------------------------------------

 total charge

# of ion       s       p       d       tot
    1        0.423   0.199   9.178   9.801
    2        0.414   0.204   9.177   9.795
    3        0.414   0.204   9.177   9.795
    4        0.413   0.204   9.178   9.795
    5        0.421   0.203   9.175   9.798
    6        0.413   0.204   9.178   9.795
    7        0.413   0.204   9.178   9.795
    8        0.413   0.204   9.178   9.795
    9        0.419   0.202   9.177   9.798
   10        0.412   0.270   9.161   9.843
   11        0.407   0.268   9.168   9.842
   12        0.412   0.270   9.161   9.843
   13        0.406   0.267   9.169   9.842
   14        0.406   0.267   9.169   9.842
   15        0.404   0.268   9.165   9.836
   16        0.411   0.270   9.161   9.842
   17        0.403   0.268   9.165   9.836
   18        0.403   0.268   9.165   9.836
   19        0.402   0.267   9.162   9.832
   20        0.444   0.300   9.129   9.873
   21        0.444   0.300   9.129   9.873
   22        0.395   0.270   9.165   9.831
   23        0.441   0.300   9.130   9.871
   24        0.395   0.270   9.165   9.831
   25        0.404   0.265   9.164   9.833
   26        0.404   0.265   9.164   9.833
   27        0.396   0.269   9.165   9.831
   28        0.407   0.205   9.173   9.785
   29        0.455   0.223   9.141   9.819
   30        0.455   0.223   9.141   9.819
   31        0.452   0.226   9.141   9.819
   32        0.452   0.226   9.141   9.819
   33        0.454   0.223   9.142   9.820
   34        0.454   0.223   9.142   9.820
   35        0.404   0.205   9.175   9.784
   36        0.553   0.450   1.819   2.821
   37        0.572   0.029   0.000   0.601
   38        0.572   0.029   0.000   0.601
tot         16.360   9.016 322.468 347.844

  FORCE on cell =-STRESS in cart. coord.  units (eV):
  Direction    XX          YY          ZZ          XY          YZ          ZX
  Alpha Z   735.87279   735.87279   735.87279
  Ewald  117475.40288117458.25599************    -0.00003    -0.85784    -0.00001
  Hartree127477.76468127476.83322************    -0.00001    -0.95669    -0.00001
  E(xc)   -2050.26009 -2050.13853 -2056.22548    -0.00002    -0.02395     0.00000
  Local  ************************255972.94057     0.00037     1.76655    -0.00002
  n-local  -312.15033  -310.21622  -315.82316     2.37521    -0.23065     0.14175
  augment  3219.00830  3218.86152  3233.58382    -0.00016     0.06859     0.00001
  Kinetic  4810.60006  4813.70350  4849.58733     0.63472     0.12989    -0.02680
  Fock        0.00000     0.00000     0.00000     0.00000     0.00000     0.00000
  Total      -8.93981    -8.84859    -0.49153    -0.00000    -0.10412    -0.00000
  in kB      -9.64874    -9.55029    -0.53051    -0.00000    -0.11237    -0.00000

 VOLUME and BASIS-vectors are now :
  energy-cutoff  :      500.00
  volume of cell :     1484.46
      direct lattice vectors                 reciprocal lattice vectors
     8.791366577  0.000000000  0.000000000     0.113747958 -0.065672414  0.000000000
     4.395683289  7.613546790  0.000000000     0.000000000  0.131344829  0.000000000
     0.000000000  0.000000000 22.178121567     0.000000000  0.000000000  0.045089481

  length of vectors
     8.791366577  8.791366577 22.178121567     0.131344829  0.131344829  0.045089481

 FORCES acting on ions
    electron-ion (+dipol)            ewald-force                    non-local-force                 convergence-correction
   0.459E-04 0.524E-01 0.247E+04   -.953E-04 -.329E-03 -.247E+04   -.363E-12 -.552E-01 -.173E+01   -.830E-04 0.300E-02 0.605E-01
   -.369E+00 -.280E+00 0.247E+04   0.368E+00 0.191E+00 -.247E+04   0.964E-02 0.129E+00 -.162E+01   0.475E-03 -.435E-01 0.138E+00
   0.370E+00 -.280E+00 0.247E+04   -.368E+00 0.191E+00 -.247E+04   -.964E-02 0.129E+00 -.162E+01   -.105E-02 -.416E-01 0.139E+00
   -.490E+00 -.218E+00 0.247E+04   0.350E+00 0.222E+00 -.247E+04   0.177E+00 -.505E-01 -.170E+01   -.353E-01 0.493E-01 0.117E+00
   -.759E-05 0.733E-01 0.247E+04   0.980E-04 -.157E-02 -.247E+04   -.224E-12 -.341E-01 -.112E+01   0.618E-02 -.318E-01 0.287E+00
   0.490E+00 -.218E+00 0.247E+04   -.350E+00 0.222E+00 -.247E+04   -.177E+00 -.505E-01 -.170E+01   0.340E-01 0.502E-01 0.118E+00
   0.412E-01 0.432E+00 0.247E+04   -.189E-01 -.413E+00 -.247E+04   0.766E-01 -.497E-01 -.163E+01   -.968E-01 0.245E-01 0.149E+00
   -.411E-01 0.432E+00 0.247E+04   0.188E-01 -.413E+00 -.247E+04   -.766E-01 -.497E-01 -.163E+01   0.984E-01 0.235E-01 0.149E+00
   0.363E-04 0.111E-01 0.247E+04   0.792E-04 0.186E-02 -.247E+04   0.164E-12 0.250E-01 -.157E+01   -.663E-02 -.334E-01 0.162E+00
   -.154E+01 -.885E+00 0.792E+03   0.174E+01 0.993E+00 -.791E+03   -.261E+00 -.160E+00 -.698E+00   0.211E-01 0.322E-01 0.182E+00
   -.280E-04 -.215E+01 0.784E+03   0.399E-04 0.207E+01 -.784E+03   0.262E-12 0.398E-01 -.199E+00   0.617E-02 -.117E-01 0.161E+00
   0.154E+01 -.885E+00 0.792E+03   -.174E+01 0.993E+00 -.791E+03   0.261E+00 -.160E+00 -.698E+00   -.224E-01 0.329E-01 0.181E+00
   -.189E+01 0.108E+01 0.784E+03   0.180E+01 -.104E+01 -.784E+03   0.616E-01 -.365E-01 -.159E+00   -.592E-02 0.251E-01 0.173E+00
   0.189E+01 0.108E+01 0.784E+03   -.180E+01 -.104E+01 -.784E+03   -.616E-01 -.365E-01 -.159E+00   0.162E-01 0.242E-01 0.171E+00
   0.152E-04 -.996E+00 0.790E+03   -.107E-03 0.903E+00 -.789E+03   0.212E-12 0.323E-01 -.738E+00   -.126E-02 0.515E-01 0.142E+00
   -.816E-05 0.178E+01 0.792E+03   0.205E-04 -.200E+01 -.791E+03   0.207E-11 0.315E+00 -.630E+00   -.968E-04 -.589E-01 0.207E+00
   -.885E+00 0.494E+00 0.790E+03   0.784E+00 -.440E+00 -.789E+03   0.428E-01 -.636E-02 -.604E+00   0.476E-01 -.458E-01 0.173E+00
   0.884E+00 0.494E+00 0.790E+03   -.784E+00 -.439E+00 -.789E+03   -.428E-01 -.636E-02 -.604E+00   -.474E-01 -.443E-01 0.174E+00
   0.386E-04 -.736E+01 -.889E+03   -.124E-03 0.739E+01 0.889E+03   0.723E-13 0.110E-01 0.708E+00   0.112E-02 -.335E-01 0.223E-01
   -.429E+02 -.245E+02 -.932E+03   0.440E+02 0.253E+02 0.933E+03   -.103E+01 -.667E+00 -.815E+00   -.144E-01 -.115E+00 0.963E-02
   0.429E+02 -.245E+02 -.932E+03   -.440E+02 0.253E+02 0.933E+03   0.103E+01 -.667E+00 -.815E+00   0.347E-02 -.116E+00 0.886E-02
   -.205E+02 0.117E+02 -.897E+03   0.203E+02 -.117E+02 0.897E+03   0.118E+00 -.634E-01 0.378E+00   0.833E-02 0.558E-01 -.558E-01
   -.484E-04 0.494E+02 -.932E+03   0.342E-04 -.507E+02 0.933E+03   0.776E-11 0.118E+01 -.585E+00   -.557E-02 0.102E+00 0.738E-01
   0.205E+02 0.117E+02 -.897E+03   -.203E+02 -.117E+02 0.897E+03   -.118E+00 -.634E-01 0.378E+00   -.667E-02 0.564E-01 -.558E-01
   0.645E+01 0.372E+01 -.889E+03   -.647E+01 -.370E+01 0.889E+03   0.104E-01 0.192E-02 0.732E+00   0.141E-01 -.208E-01 0.833E-01
   -.645E+01 0.372E+01 -.889E+03   0.647E+01 -.370E+01 0.889E+03   -.104E-01 0.192E-02 0.732E+00   -.140E-01 -.198E-01 0.837E-01
   0.188E-04 -.237E+02 -.898E+03   0.110E-03 0.235E+02 0.897E+03   0.996E-12 0.152E+00 0.440E+00   -.316E-03 0.277E-01 0.120E-01
   0.541E-04 0.163E+00 -.247E+04   -.114E-03 -.115E+00 0.247E+04   0.116E-12 0.177E-01 0.166E+01   0.314E-03 -.729E-01 -.238E+00
   -.342E+02 -.632E+02 -.247E+04   0.352E+02 0.647E+02 0.247E+04   -.102E+01 -.151E+01 0.640E+00   0.350E-01 -.617E-01 -.250E+00
   0.342E+02 -.632E+02 -.247E+04   -.352E+02 0.647E+02 0.247E+04   0.102E+01 -.151E+01 0.640E+00   -.359E-01 -.609E-01 -.250E+00
   -.709E+02 0.269E+01 -.247E+04   0.729E+02 -.253E+01 0.247E+04   -.190E+01 -.129E+00 0.548E+00   -.578E-01 -.214E-01 -.283E+00
   0.709E+02 0.269E+01 -.247E+04   -.729E+02 -.253E+01 0.247E+04   0.190E+01 -.129E+00 0.548E+00   0.581E-01 -.205E-01 -.282E+00
   -.379E+02 0.601E+02 -.247E+04   0.387E+02 -.619E+02 0.247E+04   -.817E+00 0.166E+01 0.669E+00   0.427E-01 0.946E-01 -.292E+00
   0.379E+02 0.601E+02 -.247E+04   -.387E+02 -.619E+02 0.247E+04   0.817E+00 0.166E+01 0.669E+00   -.414E-01 0.948E-01 -.292E+00
   0.277E-04 -.406E+00 -.248E+04   0.102E-03 0.385E+00 0.248E+04   -.300E-12 -.457E-01 0.184E+01   -.627E-02 0.759E-01 -.188E+00
   -.211E-04 0.449E+00 -.861E+03   0.378E-04 -.433E+00 0.860E+03   -.420E-12 -.640E-01 0.120E+01   0.283E-04 -.660E-02 -.105E+00
   0.153E+02 0.267E+00 -.244E+03   -.196E+02 -.239E+00 0.245E+03   0.420E+01 -.191E-01 -.806E+00   -.367E-02 -.323E-02 0.363E-02
   -.153E+02 0.267E+00 -.244E+03   0.196E+02 -.239E+00 0.245E+03   -.420E+01 -.191E-01 -.806E+00   0.369E-02 -.322E-02 0.362E-02
   0.303E-03 0.284E+00 0.100E+02   0.320E-13 -.225E-13 -.276E-11   -.160E-11 -.243E+00 -.109E+02   -.584E-02 -.435E-01 0.891E+00

 POSITION                                       TOTAL-FORCE (eV/Angst)
      0.00000      0.00000      5.28219        -0.000000     -0.000157     -0.017009
      2.93046      0.00000      5.28219         0.009214     -0.003168      0.033657
      5.86091      0.00000      5.28219        -0.009214     -0.003168      0.033657
      1.46523      2.53785      5.28219         0.001750      0.003673      0.028787
      4.39568      2.53785      5.28219         0.000000      0.005870      0.010615
      7.32614      2.53785      5.28219        -0.001750      0.003673      0.028787
      2.93046      5.07570      5.28219         0.001418     -0.006120      0.028435
      5.86091      5.07570      5.28219        -0.001418     -0.006120      0.028435
      8.79137      5.07570      5.28219         0.000000      0.004596      0.005971
      1.46523      0.84595      7.67490        -0.035649     -0.019736     -0.069945
      4.39568      0.84595      7.67490        -0.000000     -0.052932     -0.072870
      7.32614      0.84595      7.67490         0.035649     -0.019736     -0.069945
      2.93046      3.38380      7.67490        -0.043000      0.030168     -0.079146
      5.86091      3.38380      7.67490         0.043000      0.030168     -0.079146
      8.79137      3.38380      7.67490        -0.000000     -0.009401      0.004630
      4.39568      5.92165      7.67490         0.000000      0.039961     -0.066695
      7.32614      5.92165      7.67490        -0.010093      0.002830      0.022462
     10.25659      5.92165      7.67490         0.010093      0.002830      0.022462
      8.79137      1.69178     10.05827         0.000000      0.010155      0.046729
      2.92613      1.68940     10.03306        -0.025263      0.009298     -0.032383
      5.86523      1.68940     10.03306         0.025263      0.009298     -0.032383
     10.25456      4.23092     10.06776        -0.006628     -0.007551      0.030612
      4.39568      4.23474     10.03306         0.000000      0.016112     -0.026692
      7.32817      4.23092     10.06776         0.006628     -0.007551      0.030612
     11.72193      6.76766     10.05827        -0.001014      0.006691      0.015165
      5.86080      6.76766     10.05827         0.001014      0.006691      0.015165
      8.79137      6.76525     10.06776         0.000000      0.002631      0.030400
      0.00000      0.00000     12.45716        -0.000000     -0.007125      0.006166
      2.94326      0.02074     12.49530        -0.036013     -0.036577     -0.019651
      5.84810      0.02074     12.49530         0.036013     -0.036577     -0.019651
      1.48959      2.53857     12.49530         0.029985      0.000310      0.054872
      7.30177      2.53857     12.49530        -0.029985      0.000310      0.054872
      2.94201      5.05424     12.49530        -0.044941      0.032444     -0.025077
      5.84935      5.05424     12.49530         0.044941      0.032444     -0.025077
      8.79137      5.07570     12.47846         0.000000      0.009919     -0.008848
      4.39568      2.53785     12.33403        -0.000000     -0.054277      0.154894
      3.99241      2.57674     14.42434        -0.051503      0.005061     -0.021433
      4.79896      2.57674     14.42434         0.051503      0.005061     -0.021433
    total drift:                               -0.005538     -0.001988      0.066352

  FREE ENERGIE OF THE ION-ELECTRON SYSTEM (eV)
  free  energy   TOTEN  =      -104.94634423 eV

  energy  without entropy=     -104.94634423  energy(sigma->0) =     -104.94634423

 stress matrix after NEB project (eV)
     -8.93981     -0.00000     -0.00000
     -0.00000     -8.84859     -0.10412
     -0.00000     -0.10412     -0.49153
  FORCES: max atom, RMS     0.056014    0.012851
  FORCE total and by dimension    0.079216    0.051503
  Stress total and by dimension   12.588926    8.939810
|           W    W    AA    RRRRR   N    N  II  N    N   GGGG   !!!           |
|           W    W   A  A   R    R  NN   N  II  NN   N  G    G  !!!           |
|           W    W  A    A  R    R  N N  N  II  N N  N  G       !!!           |
|           W WW W  AAAAAA  RRRRR   N  N N  II  N  N N  G  GGG   !            |
|           WW  WW  A    A  R   R   N   NN  II  N   NN  G    G                |
|           W    W  A    A  R    R  N    N  II  N    N   GGGG   !!!           |
|     Tetrahedron method does not include variations of the Fermi             |
|     occupations, so forces and stress will be inaccurate. We suggest        |
|     using a different smearing scheme ISMEAR = 1 or 2 for metals in         |
|     relaxations.                                                            |

 total charge

# of ion       s       p       d       tot
    1        0.423   0.199   9.178   9.801
    2        0.414   0.204   9.177   9.795
    3        0.414   0.204   9.177   9.795
    4        0.413   0.204   9.178   9.795
    5        0.421   0.203   9.175   9.798
    6        0.413   0.204   9.178   9.795
    7        0.413   0.204   9.178   9.795
    8        0.413   0.204   9.178   9.795
    9        0.419   0.202   9.177   9.798
   10        0.412   0.270   9.161   9.843
   11        0.407   0.268   9.168   9.842
   12        0.412   0.270   9.161   9.843
   13        0.406   0.267   9.169   9.842
   14        0.406   0.267   9.169   9.842
   15        0.404   0.268   9.165   9.836
   16        0.411   0.270   9.161   9.842
   17        0.403   0.268   9.165   9.836
   18        0.403   0.268   9.165   9.836
   19        0.402   0.267   9.162   9.832
   20        0.444   0.300   9.129   9.873
   21        0.444   0.300   9.129   9.873
   22        0.395   0.270   9.165   9.831
   23        0.441   0.300   9.130   9.871
   24        0.395   0.270   9.165   9.831
   25        0.404   0.265   9.164   9.833
   26        0.404   0.265   9.164   9.833
   27        0.396   0.269   9.165   9.831
   28        0.407   0.205   9.173   9.785
   29        0.455   0.223   9.141   9.819
   30        0.455   0.223   9.141   9.819
   31        0.452   0.226   9.141   9.819
   32        0.452   0.226   9.141   9.819
   33        0.454   0.223   9.142   9.820
   34        0.454   0.223   9.142   9.820
   35        0.404   0.205   9.175   9.784
   36        0.553   0.450   1.819   2.821
   37        0.572   0.029   0.000   0.601
   38        0.572   0.029   0.000   0.601
tot         16.360   9.016 322.468 347.844

 BZINTS: Fermi energy:    0.954671;  391.000000 electrons
         Band energy:-0.125896E+04;  BLOECHL correction:   -0.025788