 vasp.6.2.0 18Jan21 (build Jun 12 2021 23:27:24) complex

 executed on             LinuxIFC date 2022.05.26  19:52:58

 INCAR:
   ISMEAR = -5
   SIGMA = 0.1
   ISPIN = 1
   EDIFF = 1.d-5
   EDIFFG = -0.01
   NSW = 0
   NELM = 150
   ENCUT = 500
   ISIF = 2
   IBRION = 2
   LREAL = Auto
   ALGO = Fast
   ICHARG = 11
   LORBIT = 10
   LCHARG = .F.
   LWAVE = .F.

 POTCAR:    PAW_PBE Ag 02Apr2005
 POTCAR:    PAW_PBE Re 17Jan2003
 POTCAR:    PAW_PBE H 15Jun2001
|           W    W    AA    RRRRR   N    N  II  N    N   GGGG   !!!           |
|           W    W   A  A   R    R  NN   N  II  NN   N  G    G  !!!           |
|           W    W  A    A  R    R  N N  N  II  N N  N  G       !!!           |
|           W WW W  AAAAAA  RRRRR   N  N N  II  N  N N  G  GGG   !            |
|           WW  WW  A    A  R   R   N   NN  II  N   NN  G    G                |
|           W    W  A    A  R    R  N    N  II  N    N   GGGG   !!!           |
|     For optimal performance we recommend to set                             |
|       NCORE = 2 up to number-of-cores-per-socket                            |
|     This setting can greatly improve the performance of VASP for DFT.       |
|     The default, NCORE=1 might be grossly inefficient on modern             |
|     multi-core architectures or massively parallel machines. Do your        |
|     Unfortunately you need to use the default for GW and RPA                |
|     calculations (for HF NCORE is supported but not extensively tested      |
|     yet).                                                                   |

 POTCAR:    PAW_PBE Ag 02Apr2005
   VRHFIN =Ag : s1 d10

   TITEL  = PAW_PBE Ag 02Apr2005
   POMASS =  107.868; ZVAL   =   11.000    mass and valenz
   ENMAX  =  249.844; ENMIN  =  187.383 eV

 POTCAR:    PAW_PBE Re 17Jan2003
   VRHFIN =Re: 5p6s5d

   TITEL  = PAW_PBE Re 17Jan2003
   POMASS =  186.207; ZVAL   =    7.000    mass and valenz
   ENMAX  =  226.216; ENMIN  =  169.662 eV

 POTCAR:    PAW_PBE H 15Jun2001
   VRHFIN =H: ultrasoft test

   TITEL  = PAW_PBE H 15Jun2001
   POMASS =    1.000; ZVAL   =    1.000    mass and valenz
   ENMAX  =  250.000; ENMIN  =  200.000 eV

 Optimization of the real space projectors (new method)

 maximal supplied QI-value         = 15.12
 optimisation between [QCUT,QGAM] = [ 11.34, 22.83] = [ 36.00,145.93] Ry
 Optimized for a Real-space Cutoff    1.43 Angstroem

   l    n(q)    QCUT    max X(q) W(low)/X(q) W(high)/X(q)  e(spline)
   2      9    11.338    53.897    0.16E-03    0.20E-03    0.28E-06
   2      9    11.338    52.416    0.16E-03    0.20E-03    0.29E-06
   0     10    11.338   122.045    0.31E-04    0.76E-04    0.15E-06
   0     10    11.338    73.629    0.30E-04    0.72E-04    0.15E-06
   1      9    11.338    15.255    0.20E-03    0.19E-04    0.17E-06
   1      9    11.338     9.562    0.16E-03    0.15E-04    0.14E-06
 Optimization of the real space projectors (new method)

[...]

   l    n(q)    QCUT    max X(q) W(low)/X(q) W(high)/X(q)  e(spline)
   2     10    11.327   884.633    0.22E-03    0.51E-03    0.88E-06
   2     10    11.327   796.723    0.22E-03    0.51E-03    0.88E-06
   0     11    11.327    65.348    0.44E-04    0.11E-03    0.75E-06
   0     11    11.327    39.642    0.40E-04    0.10E-03    0.69E-06
   1     10    11.327    13.988    0.15E-03    0.10E-03    0.19E-06
   1     10    11.327     8.682    0.11E-03    0.76E-04    0.14E-06
 Optimization of the real space projectors (new method)

 maximal supplied QI-value         = 34.20
 optimisation between [QCUT,QGAM] = [ 11.29, 22.57] = [ 35.68,142.71] Ry
 Optimized for a Real-space Cutoff    1.16 Angstroem

   l    n(q)    QCUT    max X(q) W(low)/X(q) W(high)/X(q)  e(spline)
   0      8    11.287    19.460    0.40E-03    0.73E-03    0.16E-06
   0      8    11.287    12.209    0.38E-03    0.70E-03    0.15E-06
   1      7    11.287     4.655    0.22E-03    0.25E-04    0.22E-06
  PAW_PBE Ag 02Apr2005                  :
  PAW_PBE Re 17Jan2003                  :
  PAW_PBE H 15Jun2001                   :

 POSCAR: Ag-Re-H
  positions in direct lattice
  velocities in cartesian coordinates
 exchange correlation table for  LEXCH =        8
   RHO(1)=    0.500       N(1)  =     2000
   RHO(2)=  100.500       N(2)  =     4000

 VTST: version 3.2, (02/03/18)

 CHAIN: initializing optimizer

 OPT: Using VASP Conjugate-Gradient optimizer
 CHAIN: Read ICHAIN            0

 POSCAR: Ag-Re-H
  positions in direct lattice
  velocities in cartesian coordinates

 ion  position               nearest neighbor table
   1  0.000  0.000  0.238-   2 2.93   8 2.93   7 2.93   6 2.93   4 2.93  12 2.93  16 2.93  10 2.93
                             3 2.93
   2  0.333  0.000  0.238-   1 2.93   8 2.93   9 2.93   3 2.93   4 2.93   5 2.93  10 2.93  17 2.93
                            11 2.93
   3  0.667  0.000  0.238-   9 2.93   2 2.93   5 2.93  11 2.93   7 2.93  18 2.93   1 2.93   6 2.93
                            12 2.93
   4  0.000  0.333  0.238-   5 2.93   6 2.93   2 2.93   1 2.93   7 2.93  13 2.93  15 2.93   9 2.93
                            10 2.93
   5  0.333  0.333  0.238-   4 2.93   3 2.93   7 2.93   2 2.93   8 2.93  14 2.93  13 2.93  11 2.93
                             6 2.93
   6  0.667  0.333  0.238-   4 2.93   9 2.93   1 2.93  15 2.93   8 2.93  12 2.93   3 2.93   5 2.93
                            14 2.93
   7  0.000  0.667  0.238-   8 2.93   1 2.93   5 2.93   3 2.93   4 2.93  16 2.93  18 2.93  13 2.93
                             9 2.93
   8  0.333  0.667  0.238-   7 2.93   1 2.93   2 2.93   9 2.93   5 2.93  16 2.93   6 2.93  17 2.93
                            14 2.93
   9  0.667  0.667  0.238-   3 2.93   2 2.93   8 2.93   6 2.93  17 2.93   4 2.93  15 2.93   7 2.93
                            18 2.93
  10  0.111  0.111  0.346-  20 2.89  12 2.93  16 2.93  15 2.93  17 2.93  13 2.93  11 2.93   2 2.93
                             1 2.93   4 2.93  19 2.93  26 2.93
  11  0.444  0.111  0.346-  21 2.89  20 2.89  27 2.93  14 2.93  17 2.93  18 2.93   3 2.93  12 2.93
                            13 2.93  10 2.93   5 2.93   2 2.93
  12  0.778  0.111  0.346-  21 2.89  10 2.93  16 2.93  18 2.93  15 2.93  11 2.93   1 2.93  14 2.93
                             6 2.93   3 2.93  25 2.93  19 2.93
  13  0.111  0.444  0.346-  20 2.89  23 2.89  22 2.93  15 2.93  14 2.93  18 2.93  10 2.93  11 2.93
                            16 2.93   4 2.93   5 2.93   7 2.93
  14  0.444  0.444  0.346-  23 2.89  21 2.89  24 2.93  13 2.93  11 2.93  16 2.93   5 2.93  12 2.93
                            17 2.93   8 2.93  15 2.93   6 2.93
  15  0.778  0.444  0.346-  24 2.92  22 2.92  19 2.93  13 2.93  10 2.93  12 2.93  17 2.93  18 2.93
                             4 2.93   6 2.93   9 2.93  14 2.93
  16  0.111  0.778  0.346-  23 2.89  18 2.93  12 2.93  10 2.93  14 2.93  17 2.93  13 2.93   7 2.93
                             8 2.93   1 2.93  26 2.93  25 2.93
  17  0.444  0.778  0.346-  27 2.92  24 2.92  26 2.93  11 2.93  10 2.93   9 2.93  18 2.93  15 2.93
                            16 2.93   2 2.93  14 2.93   8 2.93
  18  0.778  0.778  0.346-  22 2.92  27 2.92  25 2.93  16 2.93  12 2.93  13 2.93  11 2.93  17 2.93
                            15 2.93   7 2.93   3 2.93   9 2.93
  19  0.889  0.223  0.454-  28 2.91  24 2.93  22 2.93  15 2.93  20 2.93  21 2.93  10 2.93  12 2.93
                            26 2.94  25 2.94  32 2.97  31 2.97
  20  0.222  0.222  0.452-  36 2.76  10 2.89  13 2.89  11 2.89  19 2.93  26 2.93  21 2.93  23 2.93
                            27 2.94  22 2.94  31 2.94  29 2.94
  21  0.556  0.222  0.452-  36 2.76  12 2.89  11 2.89  14 2.89  25 2.93  19 2.93  20 2.93  23 2.93
                            27 2.94  24 2.94  30 2.94  32 2.94
  22  0.888  0.556  0.453-  35 2.91  24 2.92  27 2.92  18 2.92  15 2.92  13 2.93  25 2.93  19 2.93
                            23 2.94  20 2.94  33 2.95  31 2.95
  23  0.222  0.556  0.452-  36 2.76  16 2.89  14 2.89  13 2.89  26 2.93  25 2.93  21 2.93  20 2.93
                            22 2.94  24 2.94  34 2.94  33 2.94
  24  0.556  0.556  0.453-  35 2.91  27 2.92  22 2.92  15 2.92  17 2.92  14 2.93  19 2.93  26 2.93
                            23 2.94  21 2.94  32 2.95  34 2.95
  25  0.889  0.889  0.454-  28 2.91  22 2.93  27 2.93  18 2.93  23 2.93  21 2.93  16 2.93  12 2.93
                            26 2.94  19 2.94  33 2.97  30 2.97
  26  0.223  0.889  0.454-  28 2.91  27 2.93  24 2.93  17 2.93  23 2.93  20 2.93  16 2.93  10 2.93
                            25 2.94  19 2.94  34 2.97  29 2.97
  27  0.556  0.888  0.453-  35 2.91  24 2.92  22 2.92  17 2.92  18 2.92  11 2.93  26 2.93  25 2.93
                            20 2.94  21 2.94  29 2.95  30 2.95
  28  0.000  0.000  0.560-  26 2.91  25 2.91  19 2.91  29 2.96  34 2.96  33 2.96  32 2.96  31 2.96
                            30 2.96
  29  0.333  0.008  0.562-  31 2.86  30 2.87  36 2.88  20 2.94  27 2.95  28 2.96  26 2.97  35 2.97
                            34 3.06
  30  0.659  0.008  0.562-  32 2.86  29 2.87  36 2.88  21 2.94  27 2.95  28 2.96  25 2.97  35 2.97
                            33 3.06
  31  0.008  0.333  0.562-  29 2.86  33 2.87  36 2.88  20 2.94  22 2.95  28 2.96  19 2.97  35 2.97
                            32 3.06
  32  0.659  0.333  0.562-  30 2.86  34 2.87  36 2.88  21 2.94  24 2.95  28 2.96  19 2.97  35 2.97
                            31 3.06
  33  0.008  0.659  0.562-  34 2.86  31 2.87  36 2.88  23 2.94  22 2.95  28 2.96  25 2.97  35 2.97
                            30 3.06
  34  0.333  0.659  0.562-  33 2.86  32 2.87  36 2.88  23 2.94  24 2.95  28 2.96  26 2.97  35 2.97
                            29 3.06
  35  0.667  0.667  0.560-  24 2.91  27 2.91  22 2.91  30 2.97  32 2.97  29 2.97  34 2.97  31 2.97
                            33 2.97
  36  0.333  0.333  0.550-  37 1.67  21 2.76  20 2.76  23 2.76  31 2.88  30 2.88  33 2.88  29 2.88
                            34 2.88  32 2.88
  37  0.333  0.333  0.625-  36 1.67

  LATTYP: Found a hexagonal cell.
 ALAT       =     8.7913665772
 C/A-ratio  =     2.5227160501

  Lattice vectors:

 A1 = (  -4.3956832886,  -7.6135467898,   0.0000000000)
 A2 = (   8.7913665771,   0.0000000000,   0.0000000000)
 A3 = (   0.0000000000,   0.0000000000,  22.1781215668)

Analysis of symmetry for initial positions (statically):
 Subroutine PRICEL returns:
 Original cell was already a primitive cell.

 Routine SETGRP: Setting up the symmetry group for a
 hexagonal supercell.

 Subroutine GETGRP returns: Found  6 space group operations
 (whereof  6 operations were pure point group operations)
 out of a pool of 24 trial point group operations.

The static configuration has the point symmetry C_3v.

Analysis of symmetry for dynamics (positions and initial velocities):
 Subroutine PRICEL returns:
 Original cell was already a primitive cell.

[...]

The dynamic configuration has the point symmetry C_3v.

Analysis of constrained symmetry for selective dynamics:
 Subroutine PRICEL returns:
 Original cell was already a primitive cell.

 Routine SETGRP: Setting up the symmetry group for a
 hexagonal supercell.

 Subroutine GETGRP returns: Found  6 space group operations
 (whereof  6 operations were pure point group operations)
[...]
     24      -4.7214      2.00000
     25      -4.6965      2.00000
     26      -4.6821      2.00000
     27      -4.6654      2.00000
     28      -4.6540      2.00000
     29      -4.6478      2.00000
     30      -4.6292      2.00000
     31      -4.6179      2.00000
     32      -4.5807      2.00000
     33      -4.5672      2.00000
     34      -4.5235      2.00000
     35      -4.5011      2.00000
     36      -4.4876      2.00000
     37      -4.4499      2.00000
     38      -4.4273      2.00000
     39      -4.4173      2.00000
     40      -4.4089      2.00000
     41      -4.3971      2.00000
     42      -4.3888      2.00000
     43      -4.3161      2.00000
     44      -4.2803      2.00000
     45      -4.2721      2.00000
     46      -4.2612      2.00000
     47      -4.2515      2.00000
     48      -4.2508      2.00000
     49      -4.2375      2.00000
     50      -4.2337      2.00000
     51      -4.2258      2.00000
     52      -4.2211      2.00000
     53      -4.1471      2.00000
     54      -4.1380      2.00000
     55      -4.1294      2.00000
     56      -4.1228      2.00000
     57      -4.1034      2.00000
     58      -4.0914      2.00000
     59      -4.0619      2.00000
     60      -4.0503      2.00000
[...]
    238       7.1466      0.00000
    239       7.1954      0.00000
    240       7.2289      0.00000
    241       7.2416      0.00000
    242       7.2756      0.00000
    243       7.3087      0.00000
    244       7.3656      0.00000
    245       7.5155      0.00000
    246       7.5490      0.00000
    247       7.5624      0.00000
    248       7.6433      0.00000
    249       7.6738      0.00000
    250       7.9116      0.00000
    251       7.9314      0.00000
    252       8.1055      0.00000

 soft charge-density along one line, spin component           1
         0         1         2         3         4         5         6         7         8         9
 total charge-density along one line

------------------------ aborting loop because EDIFF is reached ----------------------------------------

 total charge

# of ion       s       p       d       tot
    1        0.421   0.200   9.180   9.801
    2        0.415   0.204   9.178   9.797
    3        0.415   0.204   9.178   9.797
    4        0.415   0.204   9.178   9.797
    5        0.422   0.201   9.176   9.799
    6        0.415   0.204   9.178   9.797
    7        0.415   0.204   9.178   9.797
    8        0.415   0.204   9.178   9.797
    9        0.417   0.201   9.179   9.797
   10        0.410   0.270   9.162   9.842
   11        0.409   0.268   9.169   9.847
   12        0.410   0.270   9.162   9.842
   13        0.409   0.268   9.169   9.847
   14        0.409   0.268   9.169   9.847
   15        0.405   0.268   9.165   9.839
   16        0.410   0.270   9.162   9.842
   17        0.405   0.268   9.165   9.839
   18        0.405   0.268   9.165   9.839
   19        0.400   0.263   9.168   9.832
   20        0.443   0.304   9.138   9.886
   21        0.443   0.304   9.138   9.886
   22        0.393   0.272   9.169   9.834
   23        0.443   0.304   9.138   9.886
   24        0.393   0.272   9.169   9.834
   25        0.400   0.263   9.168   9.832
   26        0.400   0.263   9.168   9.832
   27        0.393   0.272   9.169   9.834
   28        0.410   0.197   9.177   9.783
   29        0.427   0.217   9.159   9.803
   30        0.427   0.217   9.159   9.803
   31        0.427   0.217   9.159   9.803
   32        0.427   0.217   9.159   9.803
   33        0.427   0.217   9.159   9.803
   34        0.427   0.217   9.159   9.803
   35        0.402   0.198   9.181   9.780
   36        0.549   0.362   4.675   5.585
   37        0.530   0.017   0.000   0.547
tot         15.581   8.837 325.509 349.927

  FORCE on cell =-STRESS in cart. coord.  units (eV):
  Direction    XX          YY          ZZ          XY          YZ          ZX
  Alpha Z   752.95227   752.95227   752.95227
  Ewald  119945.69452119945.69447************     0.00000    -0.00000    -0.00001
  Hartree129972.32544129972.32541************    -0.00000    -0.00000    -0.00000
  E(xc)   -2063.01167 -2063.01165 -2069.93030    -0.00002    -0.00000    -0.00000
  Local  ************************261269.01582     0.00020    -0.00003    -0.00005
  n-local  -352.58698  -331.64501  -343.13175    11.83689    -0.34745     0.40000
  augment  3227.30022  3227.30039  3240.93568    -0.00015    -0.00001    -0.00004
  Kinetic  4863.25811  4870.18180  4904.15539     5.13332     0.40080     0.69067
  Fock        0.00000     0.00000     0.00000     0.00000     0.00000     0.00000
  Total     -10.07241   -10.07241     0.39328    -0.00000    -0.00000     0.00000
  in kB     -10.87116   -10.87116     0.42446    -0.00000    -0.00000     0.00000

 VOLUME and BASIS-vectors are now :
  energy-cutoff  :      500.00
  volume of cell :     1484.46
      direct lattice vectors                 reciprocal lattice vectors
     8.791366577  0.000000000  0.000000000     0.113747958 -0.065672414  0.000000000
     4.395683289  7.613546790  0.000000000     0.000000000  0.131344829  0.000000000
     0.000000000  0.000000000 22.178121567     0.000000000  0.000000000  0.045089481

  length of vectors
     8.791366577  8.791366577 22.178121567     0.131344829  0.131344829  0.045089481

 FORCES acting on ions
    electron-ion (+dipol)            ewald-force                    non-local-force                 convergence-correction
   0.460E-04 -.282E-04 0.249E+04   -.954E-04 0.593E-04 -.249E+04   0.306E-17 -.372E-17 -.203E+01   -.271E-04 -.122E-03 0.232E+00
   0.241E-01 0.214E+00 0.249E+04   -.341E+00 -.338E+00 -.249E+04   0.160E+00 0.198E+00 -.152E+01   0.149E+00 -.718E-01 0.317E+00
   -.240E-01 0.214E+00 0.249E+04   0.341E+00 -.338E+00 -.249E+04   -.160E+00 0.198E+00 -.152E+01   -.150E+00 -.699E-01 0.317E+00
   0.197E+00 -.862E-01 0.249E+04   -.463E+00 -.126E+00 -.249E+04   0.251E+00 0.397E-01 -.152E+01   0.127E-01 0.165E+00 0.317E+00
   -.802E-05 -.203E-04 0.249E+04   0.980E-04 -.197E-05 -.249E+04   -.101E-18 -.160E-17 -.102E+01   0.615E-02 0.376E-02 0.455E+00
   -.197E+00 -.862E-01 0.249E+04   0.463E+00 -.126E+00 -.249E+04   -.251E+00 0.397E-01 -.152E+01   -.140E-01 0.166E+00 0.317E+00
   0.173E+00 -.128E+00 0.249E+04   -.122E+00 0.464E+00 -.249E+04   0.913E-01 -.238E+00 -.152E+01   -.135E+00 -.944E-01 0.317E+00
   -.173E+00 -.128E+00 0.249E+04   0.122E+00 0.464E+00 -.249E+04   -.913E-01 -.238E+00 -.152E+01   0.137E+00 -.953E-01 0.317E+00
   0.362E-04 -.132E-04 0.249E+04   0.792E-04 -.643E-04 -.249E+04   -.201E-17 0.361E-18 -.180E+01   -.665E-02 -.343E-02 0.231E+00
   0.472E+01 0.273E+01 0.813E+03   -.433E+01 -.250E+01 -.813E+03   -.448E+00 -.259E+00 -.809E+00   0.340E-01 0.197E-01 0.872E+00
   -.284E-04 0.358E+01 0.816E+03   0.406E-04 -.366E+01 -.817E+03   0.975E-12 0.148E+00 -.157E+00   0.582E-02 -.891E-01 0.942E+00
   -.472E+01 0.273E+01 0.813E+03   0.433E+01 -.250E+01 -.813E+03   0.448E+00 -.259E+00 -.809E+00   -.349E-01 0.202E-01 0.870E+00
   0.310E+01 -.179E+01 0.816E+03   -.317E+01 0.183E+01 -.817E+03   0.129E+00 -.742E-01 -.157E+00   -.744E-01 0.496E-01 0.942E+00
   -.310E+01 -.179E+01 0.816E+03   0.317E+01 0.183E+01 -.817E+03   -.129E+00 -.742E-01 -.157E+00   0.845E-01 0.491E-01 0.940E+00
   0.158E-04 0.122E+01 0.814E+03   -.108E-03 -.147E+01 -.814E+03   0.970E-12 0.148E+00 -.800E+00   -.107E-02 0.697E-01 0.826E+00
   -.806E-05 -.545E+01 0.813E+03   0.205E-04 0.500E+01 -.813E+03   0.340E-11 0.518E+00 -.809E+00   0.464E-05 -.405E-01 0.870E+00
   0.106E+01 -.612E+00 0.814E+03   -.127E+01 0.736E+00 -.814E+03   0.128E+00 -.738E-01 -.800E+00   0.598E-01 -.358E-01 0.826E+00
   -.106E+01 -.612E+00 0.814E+03   0.127E+01 0.736E+00 -.814E+03   -.128E+00 -.738E-01 -.800E+00   -.599E-01 -.346E-01 0.827E+00
   0.391E-04 -.154E+01 -.887E+03   -.127E-03 0.130E+01 0.885E+03   0.968E-12 0.147E+00 0.824E+00   0.689E-02 0.745E-01 0.114E+01
   -.466E+01 -.269E+01 -.871E+03   0.577E+01 0.333E+01 0.870E+03   -.151E+01 -.872E+00 -.149E+01   0.294E+00 0.170E+00 0.170E+01
   0.466E+01 -.269E+01 -.871E+03   -.577E+01 0.333E+01 0.870E+03   0.151E+01 -.872E+00 -.149E+01   -.306E+00 0.170E+00 0.170E+01
   -.743E+01 0.429E+01 -.878E+03   0.682E+01 -.394E+01 0.877E+03   0.417E+00 -.240E+00 0.351E+00   0.227E+00 -.133E+00 0.106E+01
   -.520E-04 0.538E+01 -.871E+03   0.400E-04 -.666E+01 0.870E+03   0.115E-10 0.174E+01 -.149E+01   -.571E-02 -.350E+00 0.170E+01
   0.743E+01 0.429E+01 -.878E+03   -.682E+01 -.394E+01 0.877E+03   -.417E+00 -.240E+00 0.351E+00   -.226E+00 -.130E+00 0.106E+01
   0.134E+01 0.771E+00 -.887E+03   -.113E+01 -.649E+00 0.885E+03   -.128E+00 -.737E-01 0.824E+00   -.566E-01 -.329E-01 0.114E+01
   -.134E+01 0.771E+00 -.887E+03   0.113E+01 -.650E+00 0.885E+03   0.128E+00 -.737E-01 0.824E+00   0.677E-01 -.314E-01 0.114E+01
   0.200E-04 -.858E+01 -.878E+03   0.110E-03 0.787E+01 0.877E+03   0.316E-11 0.481E+00 0.351E+00   -.189E-02 0.263E+00 0.106E+01
   0.533E-04 -.362E-04 -.250E+04   -.113E-03 0.769E-04 0.249E+04   0.114E-16 0.157E-17 0.200E+01   -.618E-03 -.491E-03 0.310E+00
   -.415E+01 -.620E+01 -.251E+04   0.476E+01 0.703E+01 0.251E+04   -.104E+01 -.159E+01 0.133E+01   0.445E+00 0.741E+00 0.260E+00
   0.415E+01 -.620E+01 -.251E+04   -.476E+01 0.703E+01 0.251E+04   0.104E+01 -.159E+01 0.133E+01   -.437E+00 0.742E+00 0.261E+00
   -.744E+01 -.495E+00 -.251E+04   0.847E+01 0.605E+00 0.251E+04   -.190E+01 -.107E+00 0.133E+01   0.864E+00 0.157E-01 0.260E+00
   0.744E+01 -.495E+00 -.251E+04   -.847E+01 0.605E+00 0.251E+04   0.190E+01 -.107E+00 0.133E+01   -.854E+00 0.170E-01 0.261E+00
   -.329E+01 0.669E+01 -.251E+04   0.371E+01 -.764E+01 0.251E+04   -.857E+00 0.170E+01 0.133E+01   0.424E+00 -.748E+00 0.261E+00
   0.329E+01 0.669E+01 -.251E+04   -.371E+01 -.764E+01 0.251E+04   0.857E+00 0.170E+01 0.133E+01   -.413E+00 -.748E+00 0.261E+00
   0.252E-04 -.137E-04 -.250E+04   0.104E-03 -.648E-04 0.250E+04   -.628E-17 -.202E-17 0.218E+01   -.768E-02 -.400E-02 0.423E+00
   -.225E-04 -.102E-04 -.150E+04   0.677E-04 0.862E-05 0.150E+04   0.259E-18 0.912E-18 -.265E+01   -.152E-03 -.628E-04 0.471E+00
   0.547E-05 -.434E-05 -.276E+03   0.525E-05 0.829E-07 0.279E+03   0.188E-18 -.631E-20 -.250E+01   0.109E-04 0.919E-05 -.241E+00
   0.309E-03 -.713E-03 -.117E+02   0.702E-13 -.938E-13 0.335E-11   0.327E-15 0.665E-15 -.132E+02   0.351E-01 0.235E-01 0.250E+02

 POSITION                                       TOTAL-FORCE (eV/Angst)
      0.00000      0.00000      5.28219         0.000000     -0.000000     -0.068220
      2.93046      0.00000      5.28219        -0.006952      0.002945      0.021416
      5.86091      0.00000      5.28219         0.006952      0.002945      0.021416
      1.46523      2.53785      5.28219        -0.000926     -0.007493      0.021416
      4.39568      2.53785      5.28219         0.000000     -0.000000     -0.026832
      7.32614      2.53785      5.28219         0.000926     -0.007493      0.021416
      2.93046      5.07570      5.28219         0.006026      0.004548      0.021416
      5.86091      5.07570      5.28219        -0.006026      0.004548      0.021416
      8.79137      5.07570      5.28219         0.000000     -0.000000     -0.008731
      1.46523      0.84595      7.67490        -0.018760     -0.010831     -0.022878
      4.39568      0.84595      7.67490        -0.000000     -0.027974     -0.058001
      7.32614      0.84595      7.67490         0.018760     -0.010831     -0.022878
      2.93046      3.38380      7.67490        -0.024226      0.013987     -0.058001
      5.86091      3.38380      7.67490         0.024226      0.013987     -0.058001
      8.79137      3.38380      7.67490        -0.000000     -0.031453     -0.008064
      4.39568      5.92165      7.67490         0.000000      0.021663     -0.022878
      7.32614      5.92165      7.67490        -0.027240      0.015727     -0.008064
     10.25659      5.92165      7.67490         0.027240      0.015727     -0.008064
      8.79137      1.69725     10.06774        -0.000000     -0.025067      0.006511
      2.92950      1.69135     10.02116        -0.104950     -0.060593     -0.093673
      5.86187      1.69135     10.02116         0.104950     -0.060593     -0.093673
     10.25061      4.23320     10.05696         0.030641     -0.017690      0.002057
      4.39568      4.23086     10.02116         0.000000      0.121186     -0.093673
      7.33212      4.23320     10.05696        -0.030641     -0.017690      0.002057
     11.71719      6.76492     10.06774         0.021709      0.012534      0.006511
      5.86555      6.76492     10.06774        -0.021709      0.012534      0.006511
      8.79137      6.76069     10.05696         0.000000      0.035381      0.002057
      0.00000      0.00000     12.43040         0.000000     -0.000000      0.038562
      2.96174      0.05879     12.46433         0.009648     -0.016081      0.025627
      5.82963      0.05879     12.46433        -0.009648     -0.016081      0.025627
      1.53179      2.53554     12.46433        -0.009103      0.016396      0.025627
      7.25958      2.53554     12.46433         0.009103      0.016396      0.025627
      2.96573      5.01921     12.46433        -0.018751     -0.000314      0.025627
      5.82563      5.01921     12.46433         0.018751     -0.000314      0.025627
      8.79137      5.07570     12.42552         0.000000     -0.000000      0.045020
      4.39568      2.53785     12.19879         0.000000     -0.000000      0.206336
      4.39568      2.53785     13.86515         0.000000     -0.000000      0.053753
    total drift:                                0.035453      0.022774      0.074189

  FREE ENERGIE OF THE ION-ELECTRON SYSTEM (eV)
  free  energy   TOTEN  =      -101.15967604 eV

  energy  without entropy=     -101.15967604  energy(sigma->0) =     -101.15967604

 stress matrix after NEB project (eV)
    -10.07241     -0.00000      0.00000
     -0.00000    -10.07241      0.00000
     -0.00000     -0.00000      0.39328
  FORCES: max atom, RMS     0.053753    0.008837
  FORCE total and by dimension    0.053753    0.053753
  Stress total and by dimension   14.249967   10.072410
|           W    W    AA    RRRRR   N    N  II  N    N   GGGG   !!!           |
|           W    W   A  A   R    R  NN   N  II  NN   N  G    G  !!!           |
|           W    W  A    A  R    R  N N  N  II  N N  N  G       !!!           |
|           W WW W  AAAAAA  RRRRR   N  N N  II  N  N N  G  GGG   !            |
|           WW  WW  A    A  R   R   N   NN  II  N   NN  G    G                |
|           W    W  A    A  R    R  N    N  II  N    N   GGGG   !!!           |
|     Tetrahedron method does not include variations of the Fermi             |
|     occupations, so forces and stress will be inaccurate. We suggest        |
|     using a different smearing scheme ISMEAR = 1 or 2 for metals in         |
|     relaxations.                                                            |

 total charge

# of ion       s       p       d       tot
    1        0.421   0.200   9.180   9.801
    2        0.415   0.204   9.178   9.797
    3        0.415   0.204   9.178   9.797
    4        0.415   0.204   9.178   9.797
    5        0.422   0.201   9.176   9.799
    6        0.415   0.204   9.178   9.797
    7        0.415   0.204   9.178   9.797
    8        0.415   0.204   9.178   9.797
    9        0.417   0.201   9.179   9.797
   10        0.410   0.270   9.162   9.842
   11        0.409   0.268   9.169   9.847
   12        0.410   0.270   9.162   9.842
   13        0.409   0.268   9.169   9.847
   14        0.409   0.268   9.169   9.847
   15        0.405   0.268   9.165   9.839
   16        0.410   0.270   9.162   9.842
   17        0.405   0.268   9.165   9.839
   18        0.405   0.268   9.165   9.839
   19        0.400   0.263   9.168   9.832
   20        0.443   0.304   9.138   9.886
   21        0.443   0.304   9.138   9.886
   22        0.393   0.272   9.169   9.834
   23        0.443   0.304   9.138   9.886
   24        0.393   0.272   9.169   9.834
   25        0.400   0.263   9.168   9.832
   26        0.400   0.263   9.168   9.832
   27        0.393   0.272   9.169   9.834
   28        0.410   0.197   9.177   9.783
   29        0.427   0.217   9.159   9.803
   30        0.427   0.217   9.159   9.803
   31        0.427   0.217   9.159   9.803
   32        0.427   0.217   9.159   9.803
   33        0.427   0.217   9.159   9.803
   34        0.427   0.217   9.159   9.803
   35        0.402   0.198   9.181   9.780
   36        0.549   0.362   4.675   5.585
   37        0.530   0.017   0.000   0.547
tot         15.581   8.837 325.509 349.927

 BZINTS: Fermi energy:    0.719471;  393.000000 electrons
         Band energy:-0.130460E+04;  BLOECHL correction:   -0.019803