 vasp.6.2.0 18Jan21 (build Jun 12 2021 23:27:24) complex

 executed on             LinuxIFC date 2022.05.26  20:27:29

 INCAR:
   ISMEAR = -5
   SIGMA = 0.1
   ISPIN = 1
   EDIFF = 1.d-5
   EDIFFG = -0.01
   NSW = 0
   NELM = 150
   ENCUT = 500
   ISIF = 2
   IBRION = 2
   LREAL = Auto
   ALGO = Fast
   ICHARG = 11
   LORBIT = 10
   LCHARG = .F.
   LWAVE = .F.

 POTCAR:    PAW_PBE Cu 22Jun2005
 POTCAR:    PAW_PBE Rh 04Feb2005
|           W    W    AA    RRRRR   N    N  II  N    N   GGGG   !!!           |
|           W    W   A  A   R    R  NN   N  II  NN   N  G    G  !!!           |
|           W    W  A    A  R    R  N N  N  II  N N  N  G       !!!           |
|           W WW W  AAAAAA  RRRRR   N  N N  II  N  N N  G  GGG   !            |
|           WW  WW  A    A  R   R   N   NN  II  N   NN  G    G                |
|           W    W  A    A  R    R  N    N  II  N    N   GGGG   !!!           |
|     For optimal performance we recommend to set                             |
|       NCORE = 2 up to number-of-cores-per-socket                            |
|     This setting can greatly improve the performance of VASP for DFT.       |
|     The default, NCORE=1 might be grossly inefficient on modern             |
|     multi-core architectures or massively parallel machines. Do your        |
|     Unfortunately you need to use the default for GW and RPA                |
|     calculations (for HF NCORE is supported but not extensively tested      |
|     yet).                                                                   |

 POTCAR:    PAW_PBE Cu 22Jun2005
   VRHFIN =Cu: d10 p1

   TITEL  = PAW_PBE Cu 22Jun2005
   POMASS =   63.546; ZVAL   =   11.000    mass and valenz
   ENMAX  =  295.446; ENMIN  =  221.585 eV

 POTCAR:    PAW_PBE Rh 04Feb2005
   VRHFIN =Rh: s1 d8

   TITEL  = PAW_PBE Rh 04Feb2005
   POMASS =  102.906; ZVAL   =    9.000    mass and valenz
   ENMAX  =  228.996; ENMIN  =  171.747 eV

 Optimization of the real space projectors (new method)

 maximal supplied QI-value         = 16.25
 optimisation between [QCUT,QGAM] = [ 11.38, 22.75] = [ 36.24,144.96] Ry
 Optimized for a Real-space Cutoff    1.52 Angstroem

   l    n(q)    QCUT    max X(q) W(low)/X(q) W(high)/X(q)  e(spline)
   2      9    11.376     4.610    0.21E-03    0.10E-03    0.26E-06
   2      9    11.376     8.522    0.33E-03    0.16E-03    0.37E-06
   0     10    11.376    51.609    0.62E-04    0.20E-04    0.13E-06
   0     10    11.376    27.747    0.54E-04    0.20E-04    0.13E-06
   1     10    11.376    20.408    0.13E-04    0.99E-04    0.19E-06
   1     10    11.376    13.425    0.12E-04    0.87E-04    0.17E-06
 Optimization of the real space projectors (new method)

 maximal supplied QI-value         = 13.98
 optimisation between [QCUT,QGAM] = [ 11.33, 22.79] = [ 35.93,145.49] Ry
 Optimized for a Real-space Cutoff    1.47 Angstroem

   l    n(q)    QCUT    max X(q) W(low)/X(q) W(high)/X(q)  e(spline)
   2      9    11.327    59.645    0.31E-03    0.12E-04    0.28E-06
   2      9    11.327    58.460    0.31E-03    0.12E-04    0.29E-06
   0     10    11.327    97.683    0.32E-04    0.83E-04    0.31E-06
   0     10    11.327    53.223    0.30E-04    0.78E-04    0.29E-06
   1     10    11.327    13.596    0.49E-03    0.95E-03    0.55E-06
   1     10    11.327     7.885    0.36E-03    0.71E-03    0.41E-06
  PAW_PBE Cu 22Jun2005                  :
  PAW_PBE Rh 04Feb2005                  :

 POSCAR: Cu-Rh
  positions in direct lattice
  velocities in cartesian coordinates
 exchange correlation table for  LEXCH =        8
   RHO(1)=    0.500       N(1)  =     2000
   RHO(2)=  100.500       N(2)  =     4000

 VTST: version 3.2, (02/03/18)

 CHAIN: initializing optimizer

 OPT: Using VASP Conjugate-Gradient optimizer
 CHAIN: Read ICHAIN            0

 POSCAR: Cu-Rh
  positions in direct lattice
  velocities in cartesian coordinates

 ion  position               nearest neighbor table
   1  0.000  0.000  0.252-   7 2.57   3 2.57   4 2.57   2 2.57   6 2.57   8 2.57  12 2.57  10 2.57
                            16 2.57
   2  0.333  0.000  0.252-   8 2.57   9 2.57   5 2.57   1 2.57   3 2.57  11 2.57   4 2.57  10 2.57
                            17 2.57
   3  0.667  0.000  0.252-   1 2.57   7 2.57   6 2.57   9 2.57   2 2.57  12 2.57   5 2.57  18 2.57
                            11 2.57
   4  0.000  0.333  0.252-   5 2.57   6 2.57   1 2.57   7 2.57   2 2.57  13 2.57   9 2.57  10 2.57
                            15 2.57
   5  0.333  0.333  0.252-   4 2.57   2 2.57   7 2.57  13 2.57   8 2.57   6 2.57   3 2.57  11 2.57
                            14 2.57
   6  0.667  0.333  0.252-   4 2.57   9 2.57  15 2.57   3 2.57   1 2.57   8 2.57  14 2.57   5 2.57
                            12 2.57
   7  0.000  0.667  0.252-   1 2.57   3 2.57  16 2.57  18 2.57   4 2.57   5 2.57   8 2.57   9 2.57
                            13 2.57
   8  0.333  0.667  0.252-   9 2.57   2 2.57  17 2.57   6 2.57   1 2.57   7 2.57   5 2.57  14 2.57
                            16 2.57
   9  0.667  0.667  0.252-   8 2.57   6 2.57   2 2.57  17 2.57   3 2.57   7 2.57   4 2.57  15 2.57
                            18 2.57
  10  0.111  0.111  0.351-  20 2.55  26 2.56  19 2.56  11 2.57  12 2.57  13 2.57   1 2.57   2 2.57
                             4 2.57  15 2.57  16 2.57  17 2.57
  11  0.444  0.111  0.351-  20 2.55  21 2.55  27 2.56  10 2.57  13 2.57   2 2.57  17 2.57  14 2.57
                            12 2.57   5 2.57   3 2.57  18 2.57
  12  0.778  0.111  0.351-  21 2.55  19 2.56  25 2.56  15 2.57  10 2.57  14 2.57  18 2.57   3 2.57
                             1 2.57  16 2.57  11 2.57   6 2.57
  13  0.111  0.444  0.351-  23 2.55  20 2.55  22 2.56  16 2.57  18 2.57  10 2.57  11 2.57  14 2.57
                             5 2.57   4 2.57   7 2.57  15 2.57
  14  0.444  0.444  0.351-  21 2.55  23 2.55  24 2.56  15 2.57  17 2.57  12 2.57  16 2.57  13 2.57
                            11 2.57   6 2.57   8 2.57   5 2.57
  15  0.778  0.444  0.351-  19 2.56  24 2.56  22 2.56  14 2.57  17 2.57  12 2.57   6 2.57  18 2.57
                            10 2.57   9 2.57  13 2.57   4 2.57
  16  0.111  0.778  0.351-  23 2.55  25 2.56  26 2.56  18 2.57  13 2.57   7 2.57  14 2.57  17 2.57
                            12 2.57  10 2.57   8 2.57   1 2.57
  17  0.444  0.778  0.351-  26 2.56  27 2.56  24 2.56  14 2.57  15 2.57   8 2.57   9 2.57  11 2.57
                            16 2.57  18 2.57  10 2.57   2 2.57
  18  0.778  0.778  0.351-  25 2.56  22 2.56  27 2.56  16 2.57  13 2.57   7 2.57  15 2.57  12 2.57
                            17 2.57   9 2.57   3 2.57  11 2.57
  19  0.889  0.223  0.449-  28 2.55  32 2.55  31 2.55  15 2.56  12 2.56  10 2.56  21 2.56  20 2.56
                            22 2.56  24 2.56  25 2.57  26 2.57
  20  0.222  0.222  0.448-  10 2.55  11 2.55  13 2.55  26 2.56  19 2.56  27 2.57  22 2.57  36 2.57
                            29 2.58  31 2.58  23 2.58  21 2.58
  21  0.557  0.222  0.448-  12 2.55  14 2.55  11 2.55  19 2.56  25 2.56  24 2.57  27 2.57  36 2.57
                            32 2.58  30 2.58  20 2.58  23 2.58
  22  0.889  0.556  0.449-  35 2.54  31 2.56  33 2.56  18 2.56  15 2.56  19 2.56  25 2.56  13 2.56
                            24 2.56  27 2.56  23 2.57  20 2.57
  23  0.222  0.557  0.448-  16 2.55  13 2.55  14 2.55  25 2.56  26 2.56  22 2.57  24 2.57  36 2.57
                            33 2.58  34 2.58  20 2.58  21 2.58
  24  0.556  0.556  0.449-  35 2.54  32 2.56  34 2.56  15 2.56  17 2.56  19 2.56  26 2.56  14 2.56
                            22 2.56  27 2.56  21 2.57  23 2.57
  25  0.889  0.889  0.449-  28 2.55  33 2.55  30 2.55  18 2.56  16 2.56  12 2.56  21 2.56  23 2.56
                            22 2.56  27 2.56  19 2.57  26 2.57
  26  0.223  0.889  0.449-  28 2.55  29 2.55  34 2.55  17 2.56  10 2.56  16 2.56  20 2.56  23 2.56
                            27 2.56  24 2.56  25 2.57  19 2.57
  27  0.556  0.889  0.449-  35 2.54  29 2.56  30 2.56  17 2.56  18 2.56  26 2.56  25 2.56  11 2.56
                            24 2.56  22 2.56  20 2.57  21 2.57
  28  0.000  0.000  0.546-  25 2.55  19 2.55  26 2.55  33 2.56  30 2.56  31 2.56  29 2.56  32 2.56
                            34 2.56
  29  0.333  0.998  0.547-  34 2.54  26 2.55  28 2.56  27 2.56  35 2.56  31 2.58  20 2.58  36 2.58
                            30 2.59
  30  0.669  0.998  0.547-  33 2.54  25 2.55  28 2.56  27 2.56  35 2.56  32 2.58  21 2.58  36 2.58
                            29 2.59
  31  0.998  0.333  0.547-  32 2.54  19 2.55  28 2.56  22 2.56  35 2.56  29 2.58  20 2.58  36 2.58
                            33 2.59
  32  0.669  0.333  0.547-  31 2.54  19 2.55  28 2.56  24 2.56  35 2.56  30 2.58  21 2.58  36 2.58
                            34 2.59
  33  0.998  0.669  0.547-  30 2.54  25 2.55  28 2.56  22 2.56  35 2.56  34 2.58  23 2.58  36 2.58
                            31 2.59
  34  0.333  0.669  0.547-  29 2.54  26 2.55  28 2.56  24 2.56  35 2.56  33 2.58  23 2.58  36 2.58
                            32 2.59
  35  0.667  0.667  0.546-  24 2.54  27 2.54  22 2.54  34 2.56  32 2.56  29 2.56  30 2.56  33 2.56
                            31 2.56
  36  0.333  0.333  0.547-  23 2.57  20 2.57  21 2.57  31 2.58  29 2.58  33 2.58  34 2.58  32 2.58
                            30 2.58

  LATTYP: Found a hexagonal cell.
 ALAT       =     7.6967864036
 C/A-ratio  =     2.7653617908

  Lattice vectors:

 A1 = (  -3.8483927580,  -6.6656128093,   0.0000000000)
 A2 = (   7.6967864037,   0.0000000000,   0.0000000000)
 A3 = (   0.0000000000,   0.0000000000,  21.2843990326)

Analysis of symmetry for initial positions (statically):
 Subroutine PRICEL returns:
 Original cell was already a primitive cell.

 Routine SETGRP: Setting up the symmetry group for a
 hexagonal supercell.

 Subroutine GETGRP returns: Found  6 space group operations
 (whereof  6 operations were pure point group operations)
 out of a pool of 24 trial point group operations.

The static configuration has the point symmetry C_3v.

Analysis of symmetry for dynamics (positions and initial velocities):
 Subroutine PRICEL returns:
 Original cell was already a primitive cell.

[...]

The dynamic configuration has the point symmetry C_3v.

Analysis of constrained symmetry for selective dynamics:
 Subroutine PRICEL returns:
 Original cell was already a primitive cell.

 Routine SETGRP: Setting up the symmetry group for a
 hexagonal supercell.

 Subroutine GETGRP returns: Found  6 space group operations
 (whereof  6 operations were pure point group operations)
 out of a pool of 24 trial point group operations.

The constrained configuration has the point symmetry C_3v.

 Subroutine INISYM returns: Found  6 space group operations
 (whereof  6 operations are pure point group operations),
 and found     1 'primitive' translations

                                     Primitive cell

  volume of cell :    1091.9705

  direct lattice vectors                    reciprocal lattice vectors
     7.696786404  0.000000000  0.000000000     0.129924354 -0.075011849  0.000000000
     3.848392758  6.665612809  0.000000000     0.000000000  0.150023716  0.000000000
[...]
     15      -4.4328      2.00000
     16      -4.4314      2.00000
     17      -4.4135      2.00000
     18      -4.3479      2.00000
     19      -4.3393      2.00000
     20      -4.2812      2.00000
     21      -4.2690      2.00000
     22      -4.2482      2.00000
     23      -4.2198      2.00000
     24      -4.0538      2.00000
     25      -4.0330      2.00000
     26      -4.0056      2.00000
     27      -3.9756      2.00000
     28      -3.9752      2.00000
     29      -3.9678      2.00000
     30      -3.9608      2.00000
     31      -3.9373      2.00000
     32      -3.9211      2.00000
     33      -3.9171      2.00000
     34      -3.8532      2.00000
     35      -3.8134      2.00000
     36      -3.7410      2.00000
     37      -3.6461      2.00000
     38      -3.6430      2.00000
     39      -3.5771      2.00000
     40      -3.5668      2.00000
     41      -3.5559      2.00000
     42      -3.5311      2.00000
     43      -3.5242      2.00000
     44      -3.5172      2.00000
     45      -3.5156      2.00000
     46      -3.3163      2.00000
     47      -3.3074      2.00000
     48      -3.3012      2.00000
     49      -3.2965      2.00000
     50      -3.2330      2.00000
     51      -3.2276      2.00000
     52      -3.2245      2.00000
     53      -3.2115      2.00000
     54      -3.2038      2.00000
     55      -3.1848      2.00000
     56      -3.1534      2.00000
     57      -3.1517      2.00000
     58      -3.1471      2.00000
     59      -3.1448      2.00000
     60      -3.1400      2.00000
[...]
    238       6.8936      0.00000
    239       6.9538      0.00000
    240       7.0663      0.00000
    241       7.1296      0.00000
    242       7.3358      0.00000
    243       7.3588      0.00000
    244       7.4395      0.00000
    245       7.4928      0.00000
    246       7.6907      0.00000
    247       7.7650      0.00000
    248       7.9642      0.00000
    249       8.0755      0.00000
    250       8.2430      0.00000
    251       8.3380      0.00000
    252       8.4921      0.00000

 soft charge-density along one line, spin component           1
         0         1         2         3         4         5         6         7         8         9
 total charge-density along one line

------------------------ aborting loop because EDIFF is reached ----------------------------------------

 total charge

# of ion       s       p       d       tot
    1        0.446   0.287   9.188   9.921
    2        0.450   0.284   9.187   9.921
    3        0.450   0.284   9.187   9.921
    4        0.450   0.284   9.187   9.921
    5        0.443   0.288   9.182   9.914
    6        0.450   0.284   9.187   9.921
    7        0.450   0.284   9.187   9.921
    8        0.450   0.284   9.187   9.921
    9        0.448   0.283   9.189   9.920
   10        0.441   0.374   9.173   9.989
   11        0.444   0.365   9.184   9.993
   12        0.441   0.374   9.173   9.989
   13        0.444   0.365   9.184   9.993
   14        0.444   0.365   9.184   9.993
   15        0.439   0.369   9.180   9.988
   16        0.441   0.374   9.173   9.989
   17        0.439   0.369   9.180   9.988
   18        0.439   0.369   9.180   9.988
   19        0.443   0.372   9.182   9.997
   20        0.444   0.381   9.176  10.001
   21        0.444   0.381   9.176  10.001
   22        0.436   0.372   9.182   9.990
   23        0.444   0.381   9.176  10.001
   24        0.436   0.372   9.182   9.990
   25        0.443   0.372   9.182   9.997
   26        0.443   0.372   9.182   9.997
   27        0.436   0.372   9.182   9.990
   28        0.451   0.291   9.192   9.934
   29        0.454   0.298   9.183   9.935
   30        0.454   0.298   9.183   9.935
   31        0.454   0.298   9.183   9.935
   32        0.454   0.298   9.183   9.935
   33        0.454   0.298   9.183   9.935
   34        0.454   0.298   9.183   9.935
   35        0.445   0.294   9.192   9.931
   36        0.452   0.342   7.530   8.324
tot         16.047  11.981 328.919 356.947

  FORCE on cell =-STRESS in cart. coord.  units (eV):
  Direction    XX          YY          ZZ          XY          YZ          ZX
  Alpha Z   861.83654   861.83654   861.83654
  Ewald  173711.23950173711.23910************     0.00037     0.00011     0.00016
  Hartree186660.77147186660.77145************     0.00003     0.00005     0.00006
  E(xc)   -2289.63653 -2289.63605 -2294.47888    -0.00042    -0.00003    -0.00006
  Local  ************************373798.50789     0.01853    -0.00054    -0.00089
  n-local  -763.20073  -747.42114  -772.40677     8.40114    -0.05559     0.22959
  augment  3365.87262  3365.89287  3385.62064    -0.01754     0.00024     0.00042
  Kinetic  3237.31597  3244.14311  3270.21638     4.57377     1.44905    -1.08178
  Fock        0.00000     0.00000     0.00000     0.00000     0.00000     0.00000
  Total      -5.25741    -5.25741     1.17428     0.00000    -0.00000    -0.00000
  in kB      -7.71386    -7.71386     1.72295     0.00000    -0.00000    -0.00000

 VOLUME and BASIS-vectors are now :
  energy-cutoff  :      500.00
  volume of cell :     1091.97
      direct lattice vectors                 reciprocal lattice vectors
     7.696786404  0.000000000  0.000000000     0.129924354 -0.075011849  0.000000000
     3.848392758  6.665612809  0.000000000     0.000000000  0.150023716  0.000000000
     0.000000000  0.000000000 21.284399033     0.000000000  0.000000000  0.046982769

  length of vectors
     7.696786404  7.696786404 21.284399033     0.150023716  0.150023716  0.046982769

 FORCES acting on ions
    electron-ion (+dipol)            ewald-force                    non-local-force                 convergence-correction
   -.415E-04 0.218E-06 0.347E+04   0.580E-04 -.436E-05 -.347E+04   -.137E-16 0.155E-17 -.265E+01   -.410E-03 -.204E-03 -.348E+00
   -.374E+00 -.119E-01 0.347E+04   0.282E+00 0.185E+00 -.347E+04   -.139E-02 -.119E+00 -.188E+01   0.934E-01 -.466E-01 -.221E+00
   0.374E+00 -.119E-01 0.347E+04   -.282E+00 0.185E+00 -.347E+04   0.139E-02 -.119E+00 -.188E+01   -.925E-01 -.440E-01 -.220E+00
   -.197E+00 -.318E+00 0.347E+04   0.301E+00 0.152E+00 -.347E+04   -.104E+00 0.582E-01 -.188E+01   0.642E-02 0.104E+00 -.221E+00
   -.619E-04 -.339E-05 0.347E+04   0.116E-03 -.101E-04 -.347E+04   -.681E-17 0.124E-17 -.198E+01   0.123E-01 0.751E-02 -.189E+00
   0.197E+00 -.318E+00 0.347E+04   -.302E+00 0.152E+00 -.347E+04   0.104E+00 0.582E-01 -.188E+01   -.816E-02 0.105E+00 -.219E+00
   0.177E+00 0.330E+00 0.347E+04   0.193E-01 -.337E+00 -.347E+04   -.102E+00 0.606E-01 -.188E+01   -.843E-01 -.582E-01 -.220E+00
   -.177E+00 0.330E+00 0.347E+04   -.195E-01 -.337E+00 -.347E+04   0.102E+00 0.606E-01 -.188E+01   0.878E-01 -.597E-01 -.219E+00
   -.144E-03 -.330E-04 0.347E+04   0.263E-03 0.205E-04 -.347E+04   0.147E-17 0.141E-17 -.226E+01   -.132E-01 -.684E-02 -.264E+00
   -.934E+00 -.539E+00 0.115E+04   0.106E+01 0.612E+00 -.115E+04   -.213E+00 -.123E+00 -.100E+01   0.124E+00 0.714E-01 -.785E-01
   -.910E-04 -.217E+01 0.114E+04   0.190E-03 0.200E+01 -.114E+04   -.224E-08 0.337E-01 -.668E+00   0.123E-01 0.106E+00 -.231E-01
   0.934E+00 -.539E+00 0.115E+04   -.106E+01 0.612E+00 -.115E+04   0.213E+00 -.123E+00 -.100E+01   -.126E+00 0.736E-01 -.766E-01
   -.188E+01 0.108E+01 0.114E+04   0.173E+01 -.100E+01 -.114E+04   0.292E-01 -.168E-01 -.668E+00   0.985E-01 -.416E-01 -.231E-01
   0.188E+01 0.108E+01 0.114E+04   -.173E+01 -.100E+01 -.114E+04   -.292E-01 -.168E-01 -.668E+00   -.739E-01 -.430E-01 -.227E-01
   -.142E-03 -.108E+01 0.115E+04   0.298E-03 0.894E+00 -.115E+04   -.823E-08 0.124E+00 -.736E+00   -.433E-02 0.626E-01 -.140E+00
   -.919E-04 0.108E+01 0.115E+04   0.186E-03 -.122E+01 -.115E+04   -.164E-07 0.246E+00 -.100E+01   -.287E-03 -.147E+00 -.767E-01
   -.937E+00 0.541E+00 0.115E+04   0.774E+00 -.447E+00 -.115E+04   0.107E+00 -.618E-01 -.736E+00   0.527E-01 -.351E-01 -.140E+00
   0.937E+00 0.541E+00 0.115E+04   -.775E+00 -.447E+00 -.115E+04   -.107E+00 -.618E-01 -.736E+00   -.516E-01 -.315E-01 -.139E+00
   -.601E-04 -.178E+01 -.118E+04   0.696E-04 0.182E+01 0.118E+04   0.559E-08 -.839E-01 0.558E+00   -.145E-01 0.395E-01 -.280E-01
   -.281E+02 -.162E+02 -.121E+04   0.283E+02 0.164E+02 0.121E+04   -.470E+00 -.272E+00 -.477E+00   0.238E+00 0.137E+00 0.108E+00
   0.281E+02 -.162E+02 -.121E+04   -.283E+02 0.164E+02 0.121E+04   0.470E+00 -.272E+00 -.477E+00   -.212E+00 0.138E+00 0.108E+00
   -.168E+02 0.972E+01 -.120E+04   0.161E+02 -.929E+01 0.119E+04   0.489E+00 -.282E+00 0.756E+00   0.229E+00 -.131E+00 -.929E-01
   -.798E-04 0.324E+02 -.121E+04   0.148E-03 -.327E+02 0.121E+04   -.362E-07 0.543E+00 -.477E+00   0.121E-01 -.253E+00 0.108E+00
   0.168E+02 0.972E+01 -.120E+04   -.161E+02 -.929E+01 0.119E+04   -.489E+00 -.282E+00 0.756E+00   -.231E+00 -.134E+00 -.929E-01
   0.155E+01 0.892E+00 -.118E+04   -.158E+01 -.910E+00 0.118E+04   0.727E-01 0.420E-01 0.558E+00   -.490E-01 -.283E-01 -.284E-01
   -.155E+01 0.892E+00 -.118E+04   0.158E+01 -.910E+00 0.118E+04   -.727E-01 0.420E-01 0.558E+00   0.273E-01 -.321E-01 -.279E-01
   -.126E-03 -.194E+02 -.120E+04   0.243E-03 0.186E+02 0.119E+04   -.376E-07 0.565E+00 0.756E+00   0.854E-03 0.264E+00 -.928E-01
   -.361E-04 0.170E-04 -.348E+04   0.432E-04 -.326E-04 0.347E+04   -.120E-17 0.775E-17 0.219E+01   -.662E-03 -.329E-03 0.367E+00
   -.290E+02 -.471E+02 -.349E+04   0.292E+02 0.471E+02 0.349E+04   -.350E+00 -.277E+00 0.179E+01   0.134E+00 0.264E+00 0.253E+00
   0.290E+02 -.471E+02 -.349E+04   -.292E+02 0.471E+02 0.349E+04   0.350E+00 -.277E+00 0.179E+01   -.133E+00 0.266E+00 0.252E+00
   -.553E+02 -.155E+01 -.349E+04   0.554E+02 0.173E+01 0.349E+04   -.415E+00 -.164E+00 0.179E+01   0.296E+00 -.155E-01 0.253E+00
   0.553E+02 -.155E+01 -.349E+04   -.554E+02 0.173E+01 0.349E+04   0.415E+00 -.164E+00 0.179E+01   -.297E+00 -.151E-01 0.251E+00
   -.263E+02 0.487E+02 -.349E+04   0.262E+02 -.489E+02 0.349E+04   -.651E-01 0.442E+00 0.179E+01   0.164E+00 -.248E+00 0.252E+00
   0.263E+02 0.487E+02 -.349E+04   -.262E+02 -.489E+02 0.349E+04   0.651E-01 0.442E+00 0.179E+01   -.161E+00 -.250E+00 0.251E+00
   -.148E-03 -.276E-04 -.348E+04   0.252E-03 0.250E-05 0.348E+04   0.468E-18 0.201E-18 0.254E+01   -.130E-01 -.671E-02 0.322E+00
   -.576E-04 -.247E-04 -.285E+04   0.111E-03 0.224E-04 0.284E+04   -.240E-17 -.814E-18 0.395E+01   0.305E-02 0.182E-02 0.189E+00
   -.224E-03 0.598E-05 0.400E+01   0.122E-12 -.897E-15 0.000E+00   0.123E-15 -.112E-15 -.348E+01   0.250E-01 0.114E-01 -.491E+00

 POSITION                                       TOTAL-FORCE (eV/Angst)
      0.00000      0.00000      5.37156         0.000000      0.000000      0.086769
      2.56560      0.00000      5.37156         0.000238      0.009031      0.059963
      5.13119      0.00000      5.37156        -0.000238      0.009031      0.059963
      1.28280      2.22187      5.37156         0.007940     -0.004309      0.059963
      3.84839      2.22187      5.37156        -0.000000     -0.000000      0.038262
      6.41399      2.22187      5.37156        -0.007940     -0.004309      0.059963
      2.56560      4.44374      5.37156         0.007702     -0.004722      0.059963
      5.13119      4.44374      5.37156        -0.007702     -0.004722      0.059963
      7.69679      4.44374      5.37156        -0.000000     -0.000000      0.044188
      1.28280      0.74062      7.46636         0.038281      0.022102     -0.064024
      3.84839      0.74062      7.46636         0.000000     -0.034720     -0.100870
      6.41399      0.74062      7.46636        -0.038281      0.022102     -0.064024
      2.56560      2.96249      7.46636        -0.030068      0.017360     -0.100870
      5.13119      2.96249      7.46636         0.030068      0.017360     -0.100870
      7.69679      2.96249      7.46636         0.000000     -0.001993     -0.018965
      3.84839      5.18437      7.46636         0.000000     -0.044203     -0.064024
      6.41399      5.18437      7.46636        -0.001726      0.000997     -0.018965
      8.97958      5.18437      7.46636         0.001726      0.000997     -0.018965
      7.69679      1.48472      9.55134         0.000000     -0.003049     -0.011807
      2.55991      1.47796      9.54139         0.000238      0.000137     -0.012085
      5.13688      1.47796      9.54139        -0.000238      0.000137     -0.012085
      8.97851      3.70374      9.55759        -0.010618      0.006131     -0.011667
      3.84839      3.70969      9.54139         0.000000     -0.000275     -0.012085
      6.41506      3.70374      9.55759         0.010618      0.006131     -0.011667
     10.25938      5.92325      9.55134         0.002641      0.001525     -0.011807
      5.13420      5.92325      9.55134        -0.002641      0.001525     -0.011807
      7.69679      5.92375      9.55759         0.000000     -0.012261     -0.011667
      0.00000      0.00000     11.61948         0.000000      0.000000      0.028608
      6.40389      6.65412     11.64269        -0.002722     -0.005714      0.014214
      8.98968      6.65412     11.64269         0.002722     -0.005714      0.014214
      8.96459      2.21887     11.64269        -0.006309      0.000499      0.014214
      6.42899      2.21887     11.64269         0.006309      0.000499      0.014214
     10.25748      4.45823     11.64269        -0.003587      0.005214      0.014214
      5.13610      4.45823     11.64269         0.003587      0.005214      0.014214
      7.69679      4.44374     11.62337        -0.000000      0.000000      0.011801
      3.84839      2.22187     11.63466         0.000000      0.000000      0.003563
    total drift:                                0.024796      0.011399      0.027608

  FREE ENERGIE OF THE ION-ELECTRON SYSTEM (eV)
  free  energy   TOTEN  =      -129.23952104 eV

  energy  without entropy=     -129.23952104  energy(sigma->0) =     -129.23952104

 stress matrix after NEB project (eV)
     -5.25741      0.00000     -0.00000
      0.00000     -5.25741     -0.00000
     -0.00000     -0.00000      1.17428
  FORCES: max atom, RMS     0.028608    0.010758
  FORCE total and by dimension    0.064551    0.028608
  Stress total and by dimension    7.527262    5.257411
|           W    W    AA    RRRRR   N    N  II  N    N   GGGG   !!!           |
|           W    W   A  A   R    R  NN   N  II  NN   N  G    G  !!!           |
|           W    W  A    A  R    R  N N  N  II  N N  N  G       !!!           |
|           W WW W  AAAAAA  RRRRR   N  N N  II  N  N N  G  GGG   !            |
|           WW  WW  A    A  R   R   N   NN  II  N   NN  G    G                |
|           W    W  A    A  R    R  N    N  II  N    N   GGGG   !!!           |
|     Tetrahedron method does not include variations of the Fermi             |
|     occupations, so forces and stress will be inaccurate. We suggest        |
|     using a different smearing scheme ISMEAR = 1 or 2 for metals in         |
|     relaxations.                                                            |

 total charge

# of ion       s       p       d       tot
    1        0.446   0.287   9.188   9.921
    2        0.450   0.284   9.187   9.921
    3        0.450   0.284   9.187   9.921
    4        0.450   0.284   9.187   9.921
    5        0.443   0.288   9.182   9.914
    6        0.450   0.284   9.187   9.921
    7        0.450   0.284   9.187   9.921
    8        0.450   0.284   9.187   9.921
    9        0.448   0.283   9.189   9.920
   10        0.441   0.374   9.173   9.989
   11        0.444   0.365   9.184   9.993
   12        0.441   0.374   9.173   9.989
   13        0.444   0.365   9.184   9.993
   14        0.444   0.365   9.184   9.993
   15        0.439   0.369   9.180   9.988
   16        0.441   0.374   9.173   9.989
   17        0.439   0.369   9.180   9.988
   18        0.439   0.369   9.180   9.988
   19        0.443   0.372   9.182   9.997
   20        0.444   0.381   9.176  10.001
   21        0.444   0.381   9.176  10.001
   22        0.436   0.372   9.182   9.990
   23        0.444   0.381   9.176  10.001
   24        0.436   0.372   9.182   9.990
   25        0.443   0.372   9.182   9.997
   26        0.443   0.372   9.182   9.997
   27        0.436   0.372   9.182   9.990
   28        0.451   0.291   9.192   9.934
   29        0.454   0.298   9.183   9.935
   30        0.454   0.298   9.183   9.935
   31        0.454   0.298   9.183   9.935
   32        0.454   0.298   9.183   9.935
   33        0.454   0.298   9.183   9.935
   34        0.454   0.298   9.183   9.935
   35        0.445   0.294   9.192   9.931
   36        0.452   0.342   7.530   8.324
tot         16.047  11.981 328.919 356.947

 BZINTS: Fermi energy:    0.116678;  394.000000 electrons
         Band energy:-0.104402E+04;  BLOECHL correction:   -0.070489