 vasp.6.2.0 18Jan21 (build Jun 12 2021 23:27:24) complex

 executed on             LinuxIFC date 2022.05.28  00:41:49

 INCAR:
   ISMEAR = -5
   SIGMA = 0.1
   ISPIN = 1
   EDIFF = 1.d-5
   EDIFFG = -0.01
   NSW = 0
   NELM = 150
   ENCUT = 500
   ISIF = 2
   IBRION = 2
   LREAL = Auto
   ALGO = Fast
   ICHARG = 11
   LORBIT = 10
   LCHARG = .F.
   LWAVE = .F.

 POTCAR:    PAW_PBE Au 04Oct2007
 POTCAR:    PAW_PBE Cr 06Sep2000
 POTCAR:    PAW_PBE H 15Jun2001
 POTCAR:    PAW_PBE O 08Apr2002
|           W    W    AA    RRRRR   N    N  II  N    N   GGGG   !!!           |
|           W    W   A  A   R    R  NN   N  II  NN   N  G    G  !!!           |
|           W    W  A    A  R    R  N N  N  II  N N  N  G       !!!           |
|           W WW W  AAAAAA  RRRRR   N  N N  II  N  N N  G  GGG   !            |
|           WW  WW  A    A  R   R   N   NN  II  N   NN  G    G                |
|           W    W  A    A  R    R  N    N  II  N    N   GGGG   !!!           |
|     For optimal performance we recommend to set                             |
|       NCORE = 2 up to number-of-cores-per-socket                            |
|     This setting can greatly improve the performance of VASP for DFT.       |
|     The default, NCORE=1 might be grossly inefficient on modern             |
|     multi-core architectures or massively parallel machines. Do your        |
|     Unfortunately you need to use the default for GW and RPA                |
|     calculations (for HF NCORE is supported but not extensively tested      |
|     yet).                                                                   |

 POTCAR:    PAW_PBE Au 04Oct2007
   VRHFIN =Au: s1d10

   TITEL  = PAW_PBE Au 04Oct2007
   POMASS =  196.966; ZVAL   =   11.000    mass and valenz
   ENMAX  =  229.943; ENMIN  =  172.457 eV

 POTCAR:    PAW_PBE Cr 06Sep2000
   VRHFIN =Cr : d5 s1

   TITEL  = PAW_PBE Cr 06Sep2000
   POMASS =   51.996; ZVAL   =    6.000    mass and valenz
   ENMAX  =  227.080; ENMIN  =  170.310 eV

 POTCAR:    PAW_PBE H 15Jun2001
   VRHFIN =H: ultrasoft test

   TITEL  = PAW_PBE H 15Jun2001
   POMASS =    1.000; ZVAL   =    1.000    mass and valenz
   ENMAX  =  250.000; ENMIN  =  200.000 eV

 POTCAR:    PAW_PBE O 08Apr2002
   VRHFIN =O: s2p4

   TITEL  = PAW_PBE O 08Apr2002
   POMASS =   16.000; ZVAL   =    6.000    mass and valenz
   ENMAX  =  400.000; ENMIN  =  300.000 eV

 Optimization of the real space projectors (new method)

 maximal supplied QI-value         = 15.12
 optimisation between [QCUT,QGAM] = [ 11.34, 22.83] = [ 36.00,145.93] Ry
 Optimized for a Real-space Cutoff    1.39 Angstroem

   l    n(q)    QCUT    max X(q) W(low)/X(q) W(high)/X(q)  e(spline)
   2      9    11.338    60.898    0.39E-03    0.42E-03    0.21E-06
   2      9    11.338    58.894    0.40E-03    0.42E-03    0.22E-06
   0      9    11.338   109.617    0.13E-03    0.20E-04    0.13E-06
   0      9    11.338    75.026    0.13E-03    0.20E-04    0.13E-06
   1      9    11.338    16.344    0.33E-04    0.24E-03    0.18E-06
   1      9    11.338    10.160    0.26E-04    0.19E-03    0.15E-06
 Optimization of the real space projectors (new method)

[...]

   l    n(q)    QCUT    max X(q) W(low)/X(q) W(high)/X(q)  e(spline)
   0      8    11.287    19.460    0.40E-03    0.73E-03    0.16E-06
   0      8    11.287    12.209    0.38E-03    0.70E-03    0.15E-06
   1      7    11.287     4.655    0.22E-03    0.25E-04    0.22E-06
 Optimization of the real space projectors (new method)

 maximal supplied QI-value         = 24.76
 optimisation between [QCUT,QGAM] = [ 11.39, 22.77] = [ 36.31,145.25] Ry
 Optimized for a Real-space Cutoff    1.00 Angstroem

   l    n(q)    QCUT    max X(q) W(low)/X(q) W(high)/X(q)  e(spline)
   0      7    11.387    20.381    0.39E-03    0.13E-02    0.15E-06
   0      7    11.387    15.268    0.42E-03    0.14E-02    0.17E-06
   1      6    11.387     5.964    0.41E-03    0.11E-02    0.17E-06
   1      6    11.387     5.382    0.39E-03    0.87E-03    0.15E-06
  PAW_PBE Au 04Oct2007                  :
  PAW_PBE Cr 06Sep2000                  :
  PAW_PBE H 15Jun2001                   :
  PAW_PBE O 08Apr2002                   :

 POSCAR: Au-Cr-H2O
  positions in direct lattice
  velocities in cartesian coordinates
 exchange correlation table for  LEXCH =        8
   RHO(1)=    0.500       N(1)  =     2000
   RHO(2)=  100.500       N(2)  =     4000

 VTST: version 3.2, (02/03/18)

 CHAIN: initializing optimizer

 OPT: Using VASP Conjugate-Gradient optimizer
 CHAIN: Read ICHAIN            0

 POSCAR: Au-Cr-H2O
  positions in direct lattice
  velocities in cartesian coordinates

 ion  position               nearest neighbor table
   1  0.000  0.000  0.213-  16 2.94  12 2.94   6 2.94   8 2.94   7 2.94   3 2.94  10 2.94   4 2.94
                             2 2.94
   2  0.333  0.000  0.213-   9 2.94  11 2.94  17 2.94  10 2.94   8 2.94   4 2.94   5 2.94   1 2.94
                             3 2.94
   3  0.667  0.000  0.213-   7 2.94  18 2.94  12 2.94   1 2.94  11 2.94   5 2.94   6 2.94   9 2.94
                             2 2.94
   4  0.000  0.333  0.213-  10 2.94   6 2.94   5 2.94  13 2.94   2 2.94  15 2.94   9 2.94   1 2.94
                             7 2.94
   5  0.333  0.333  0.213-  13 2.94   7 2.94  11 2.94   4 2.94   2 2.94  14 2.94   3 2.94   8 2.94
                             6 2.94
   6  0.667  0.333  0.213-  15 2.94  14 2.94   1 2.94  12 2.94   4 2.94   9 2.94   8 2.94   3 2.94
                             5 2.94
   7  0.000  0.667  0.213-  18 2.94   3 2.94  16 2.94   5 2.94   1 2.94  13 2.94   8 2.94   4 2.94
                             9 2.94
   8  0.333  0.667  0.213-   9 2.94  17 2.94   1 2.94   2 2.94  14 2.94  16 2.94   6 2.94   7 2.94
                             5 2.94
   9  0.667  0.667  0.213-   2 2.94   8 2.94  17 2.94   6 2.94  15 2.94   4 2.94   3 2.94  18 2.94
                             7 2.94
  10  0.111  0.111  0.310-  20 2.92  26 2.94  19 2.94  11 2.94  17 2.94   2 2.94   4 2.94   1 2.94
                            12 2.94  16 2.94  13 2.94  15 2.94
  11  0.444  0.111  0.310-  20 2.91  21 2.91  27 2.93  13 2.94   2 2.94  10 2.94  17 2.94   5 2.94
                             3 2.94  18 2.94  14 2.94  12 2.94
  12  0.778  0.111  0.310-  21 2.92  25 2.94  19 2.94  16 2.94  18 2.94   1 2.94  14 2.94  15 2.94
                             3 2.94   6 2.94  10 2.94  11 2.94
  13  0.111  0.444  0.310-  23 2.91  20 2.91  22 2.93   5 2.94  18 2.94  11 2.94   7 2.94   4 2.94
                            16 2.94  10 2.94  14 2.94  15 2.94
  14  0.444  0.444  0.310-  21 2.91  23 2.91  24 2.93  15 2.94   6 2.94  12 2.94   8 2.94  17 2.94
                             5 2.94  16 2.94  13 2.94  11 2.94
  15  0.778  0.444  0.310-  24 2.92  22 2.92  19 2.94  14 2.94   6 2.94  17 2.94  12 2.94   9 2.94
                             4 2.94  10 2.94  13 2.94  18 2.94
  16  0.111  0.778  0.310-  23 2.92  25 2.94  26 2.94  18 2.94  12 2.94   7 2.94   1 2.94   8 2.94
                            13 2.94  10 2.94  14 2.94  17 2.94
  17  0.444  0.778  0.310-  27 2.92  24 2.92  26 2.94   9 2.94  15 2.94   2 2.94  10 2.94  11 2.94
                             8 2.94  14 2.94  16 2.94  18 2.94
  18  0.778  0.778  0.310-  22 2.92  27 2.92  25 2.94  16 2.94   7 2.94  13 2.94  12 2.94   3 2.94
                            11 2.94   9 2.94  15 2.94  17 2.94
  19  0.889  0.222  0.407-  10 2.94  12 2.94  15 2.94  26 2.94  25 2.94  24 2.94  22 2.94  28 2.95
                            21 2.95  20 2.95  32 3.00  31 3.00
  20  0.223  0.223  0.406-  36 2.71  11 2.91  13 2.91  23 2.91  21 2.91  29 2.92  31 2.92  10 2.92
                            26 2.95  19 2.95  27 2.96  22 2.96
  21  0.553  0.223  0.406-  36 2.71  14 2.91  11 2.91  20 2.91  23 2.91  30 2.92  32 2.92  12 2.92
                            25 2.95  19 2.95  27 2.96  24 2.96
  22  0.886  0.557  0.406-  24 2.90  27 2.90  18 2.92  15 2.92  13 2.93  25 2.94  19 2.94  23 2.96
                            20 2.96  35 2.96  33 2.96  31 2.96
  23  0.223  0.553  0.406-  36 2.71  13 2.91  14 2.91  20 2.91  21 2.91  33 2.92  34 2.92  16 2.92
                            25 2.95  26 2.95  22 2.96  24 2.96
  24  0.557  0.557  0.406-  27 2.90  22 2.90  15 2.92  17 2.92  14 2.93  26 2.94  19 2.94  21 2.96
                            23 2.96  35 2.96  32 2.96  34 2.96
  25  0.889  0.889  0.407-  16 2.94  12 2.94  18 2.94  19 2.94  26 2.94  22 2.94  27 2.94  28 2.95
                            23 2.95  21 2.95  33 3.00  30 3.00
  26  0.222  0.889  0.407-  10 2.94  16 2.94  17 2.94  19 2.94  25 2.94  27 2.94  24 2.94  28 2.95
                            20 2.95  23 2.95  29 3.00  34 3.00
  27  0.557  0.886  0.406-  24 2.90  22 2.90  17 2.92  18 2.92  11 2.93  26 2.94  25 2.94  20 2.96
                            21 2.96  35 2.96  29 2.96  30 2.96
  28  0.000  0.000  0.505-  25 2.95  19 2.95  26 2.95  34 2.99  32 2.99  33 2.99  30 2.99  31 2.99
                            29 2.99
  29  0.334  0.011  0.504-  30 2.84  31 2.84  36 2.86  20 2.92  27 2.96  35 2.99  28 2.99  26 3.00
                            34 3.13
  30  0.655  0.011  0.504-  29 2.84  32 2.84  36 2.86  21 2.92  27 2.96  35 2.99  28 2.99  25 3.00
                            33 3.13
  31  0.011  0.334  0.504-  33 2.84  29 2.84  36 2.86  20 2.92  22 2.96  35 2.99  28 2.99  19 3.00
                            32 3.13
  32  0.655  0.334  0.504-  34 2.84  30 2.84  36 2.86  21 2.92  24 2.96  35 2.99  28 2.99  19 3.00
                            31 3.13
  33  0.011  0.655  0.504-  31 2.84  34 2.84  36 2.86  23 2.92  22 2.96  35 2.99  28 2.99  25 3.00
                            30 3.13
  34  0.334  0.655  0.504-  32 2.84  33 2.84  36 2.86  23 2.92  24 2.96  35 2.99  28 2.99  26 3.00
                            29 3.13
  35  0.667  0.667  0.505-  24 2.96  27 2.96  22 2.96  29 2.99  34 2.99  32 2.99  31 2.99  30 2.99
                            33 2.99
  36  0.333  0.333  0.492-  39 2.13  20 2.71  23 2.71  21 2.71  33 2.86  31 2.86  29 2.86  30 2.86
                            34 2.86  32 2.86
  37  0.279  0.264  0.587-  39 0.98
  38  0.458  0.262  0.587-  39 0.98
  39  0.333  0.334  0.578-  37 0.98  38 0.98  36 2.13

  LATTYP: Found a hexagonal cell.
 ALAT       =     8.8135128021
 C/A-ratio  =     2.8075332270

  Lattice vectors:

 A1 = (  -4.4067569092,  -7.6327256898,   0.0000000000)
 A2 = (   8.8135128021,   0.0000000000,   0.0000000000)
 A3 = (   0.0000000000,   0.0000000000,  24.7442300386)

Analysis of symmetry for initial positions (statically):
 Subroutine PRICEL returns:
 Original cell was already a primitive cell.

 Routine SETGRP: Setting up the symmetry group for a
 hexagonal supercell.

 Subroutine GETGRP returns: Found  1 space group operations
 (whereof  1 operations were pure point group operations)
 out of a pool of 24 trial point group operations.

The static configuration has the point symmetry C_1 .

Analysis of symmetry for dynamics (positions and initial velocities):
 Subroutine PRICEL returns:
 Original cell was already a primitive cell.

[...]

The dynamic configuration has the point symmetry C_1 .

Analysis of constrained symmetry for selective dynamics:
 Subroutine PRICEL returns:
[...]
     41      -4.8900      2.00000
     42      -4.8427      2.00000
     43      -4.7834      2.00000
     44      -4.7472      2.00000
     45      -4.7280      2.00000
     46      -4.6673      2.00000
     47      -4.6640      2.00000
     48      -4.6418      2.00000
     49      -4.6276      2.00000
     50      -4.5363      2.00000
     51      -4.5065      2.00000
     52      -4.4823      2.00000
     53      -4.4659      2.00000
     54      -4.4631      2.00000
     55      -4.4606      2.00000
     56      -4.4353      2.00000
     57      -4.4065      2.00000
     58      -4.3615      2.00000
     59      -4.3423      2.00000
     60      -4.3211      2.00000
[...]
    238       5.8037      0.00000
    239       6.0001      0.00000
    240       6.0537      0.00000
    241       6.0751      0.00000
    242       6.1148      0.00000
    243       6.3229      0.00000
    244       6.3742      0.00000
    245       6.4118      0.00000
    246       6.4998      0.00000
    247       6.5654      0.00000
    248       6.6101      0.00000
    249       6.6476      0.00000
    250       6.7283      0.00000
    251       6.8295      0.00000
    252       6.8801      0.00000

 soft charge-density along one line, spin component           1
         0         1         2         3         4         5         6         7         8         9
 total charge-density along one line

------------------------ aborting loop because EDIFF is reached ----------------------------------------

 total charge

# of ion       s       p       d       tot
    1        0.548   0.238   8.767   9.552
    2        0.544   0.241   8.764   9.549
    3        0.544   0.241   8.764   9.549
    4        0.544   0.241   8.765   9.549
    5        0.545   0.241   8.761   9.546
    6        0.544   0.241   8.764   9.549
    7        0.543   0.241   8.765   9.549
    8        0.543   0.241   8.765   9.549
    9        0.543   0.239   8.767   9.549
   10        0.526   0.308   8.767   9.601
   11        0.523   0.308   8.780   9.610
   12        0.526   0.308   8.767   9.601
   13        0.522   0.308   8.780   9.610
   14        0.522   0.308   8.780   9.610
   15        0.517   0.309   8.775   9.600
   16        0.526   0.308   8.767   9.601
   17        0.517   0.309   8.775   9.601
   18        0.517   0.309   8.775   9.601
   19        0.519   0.298   8.774   9.591
   20        0.560   0.337   8.740   9.638
   21        0.560   0.337   8.740   9.638
   22        0.509   0.309   8.776   9.594
   23        0.560   0.337   8.740   9.637
   24        0.509   0.309   8.776   9.594
   25        0.517   0.298   8.775   9.590
   26        0.517   0.298   8.775   9.590
   27        0.511   0.309   8.775   9.595
   28        0.540   0.226   8.755   9.521
   29        0.576   0.250   8.741   9.567
   30        0.576   0.250   8.741   9.567
   31        0.576   0.248   8.741   9.565
   32        0.576   0.248   8.741   9.565
   33        0.570   0.241   8.746   9.557
   34        0.570   0.241   8.746   9.557
   35        0.535   0.225   8.760   9.520
   36        0.352   0.390   4.193   4.935
   37        0.600   0.117   0.000   0.717
   38        0.600   0.117   0.000   0.717
   39        1.568   3.613   0.000   5.182
tot         21.993  13.939 310.884 346.816

  FORCE on cell =-STRESS in cart. coord.  units (eV):
  Direction    XX          YY          ZZ          XY          YZ          ZX
  Alpha Z   911.60398   911.60398   911.60398
  Ewald  155928.28150155862.60697************    -0.40516   -14.32892    -0.17084
  Hartree164334.08922164321.61951************    -0.07813     1.72191    -0.09187
  E(xc)   -1788.94836 -1789.10337 -1796.62750    -0.00116    -0.00394    -0.00024
  Local  ************************332556.39500     0.37657     5.98517     0.23059
  n-local   -88.49219   -89.24327   -60.50273    -0.01568    -0.03524    -0.00067
  augment  2398.07620  2398.85655  2417.91762     0.00372     0.24611     0.00054
  Kinetic  5526.94488  5544.97689  5607.01649     0.11395     6.31096     0.02107
  Fock        0.00000     0.00000     0.00000     0.00000     0.00000     0.00000
  Total     -21.27291   -21.40053     1.91022    -0.00590    -0.10394    -0.01143
  in kB     -20.47551   -20.59835     1.83861    -0.00567    -0.10004    -0.01100

 VOLUME and BASIS-vectors are now :
  energy-cutoff  :      500.00
  volume of cell :     1664.57
      direct lattice vectors                 reciprocal lattice vectors
     8.813512802  0.000000000  0.000000000     0.113462137 -0.065507406  0.000000000
     4.406756909  7.632725690  0.000000000     0.000000000  0.131014796  0.000000000
     0.000000000  0.000000000 24.744230039     0.000000000  0.000000000  0.040413462

  length of vectors
     8.813512802  8.813512802 24.744230039     0.131014796  0.131014796  0.040413462

 FORCES acting on ions
    electron-ion (+dipol)            ewald-force                    non-local-force                 convergence-correction
   0.166E-02 0.925E-02 0.268E+04   0.220E-03 -.105E-01 -.268E+04   -.117E-03 0.116E-01 -.733E+00   -.179E-02 -.775E-02 -.416E-01
   0.386E+00 0.596E-01 0.268E+04   -.556E+00 -.174E+00 -.268E+04   0.730E-01 0.121E+00 -.196E+00   0.846E-01 -.849E-02 -.860E-01
   -.387E+00 0.498E-01 0.268E+04   0.555E+00 -.174E+00 -.268E+04   -.730E-01 0.121E+00 -.196E+00   -.828E-01 0.160E-02 -.825E-01
   0.272E+00 0.325E+00 0.268E+04   -.419E+00 -.382E+00 -.268E+04   0.119E+00 -.153E-01 -.188E+00   0.225E-01 0.621E-01 -.781E-01
   -.136E-01 -.406E-01 0.268E+04   -.169E-03 0.174E-01 -.268E+04   0.130E-03 0.382E-03 0.265E-01   0.138E-01 0.189E-01 -.133E+00
   -.263E+00 0.320E+00 0.268E+04   0.419E+00 -.382E+00 -.268E+04   -.119E+00 -.151E-01 -.188E+00   -.316E-01 0.663E-01 -.734E-01
   -.202E+00 -.377E+00 0.268E+04   0.136E+00 0.556E+00 -.268E+04   0.740E-01 -.107E+00 -.244E+00   -.112E-01 -.596E-01 -.114E+00
   0.193E+00 -.370E+00 0.268E+04   -.136E+00 0.556E+00 -.268E+04   -.739E-01 -.107E+00 -.244E+00   0.199E-01 -.661E-01 -.113E+00
   0.131E-01 0.147E-01 0.268E+04   0.256E-03 -.659E-02 -.268E+04   -.606E-04 -.544E-02 -.420E+00   -.135E-01 -.145E-02 -.476E-01
   0.410E+01 0.237E+01 0.906E+03   -.359E+01 -.207E+01 -.905E+03   -.340E+00 -.206E+00 -.722E+00   -.128E+00 -.735E-01 -.613E-01
   -.983E-02 0.385E+01 0.912E+03   -.155E-02 -.371E+01 -.912E+03   0.157E-03 0.123E-01 -.211E+00   0.114E-01 -.203E+00 -.572E-01
   -.409E+01 0.236E+01 0.906E+03   0.360E+01 -.207E+01 -.905E+03   0.340E+00 -.206E+00 -.722E+00   0.121E+00 -.686E-01 -.658E-01
   0.331E+01 -.203E+01 0.912E+03   -.321E+01 0.196E+01 -.912E+03   0.352E-01 -.963E-02 -.248E+00   -.165E+00 0.103E+00 -.710E-01
   -.333E+01 -.203E+01 0.912E+03   0.321E+01 0.196E+01 -.912E+03   -.354E-01 -.964E-02 -.248E+00   0.183E+00 0.990E-01 -.792E-01
   0.753E-02 0.402E+01 0.910E+03   0.184E-02 -.423E+01 -.909E+03   -.289E-03 0.232E-01 -.573E+00   -.918E-02 0.129E+00 0.873E-01
   -.180E-03 -.464E+01 0.906E+03   0.127E-03 0.404E+01 -.905E+03   0.202E-03 0.416E+00 -.756E+00   -.891E-04 0.150E+00 -.714E-01
   0.358E+01 -.196E+01 0.910E+03   -.375E+01 0.206E+01 -.909E+03   0.114E-01 -.896E-02 -.601E+00   0.114E+00 -.676E-01 0.671E-01
   -.358E+01 -.196E+01 0.910E+03   0.375E+01 0.206E+01 -.909E+03   -.115E-01 -.850E-02 -.600E+00   -.114E+00 -.589E-01 0.710E-01
   -.138E-01 0.452E+00 -.899E+03   0.120E-01 -.739E+00 0.898E+03   -.791E-03 0.606E-01 0.481E+00   0.242E-02 0.197E+00 0.617E+00
   0.104E+02 0.538E+01 -.868E+03   -.907E+01 -.461E+01 0.869E+03   -.113E+01 -.617E+00 -.111E+01   -.222E+00 -.151E+00 0.647E+00
   -.104E+02 0.538E+01 -.868E+03   0.906E+01 -.461E+01 0.869E+03   0.113E+01 -.616E+00 -.111E+01   0.210E+00 -.152E+00 0.643E+00
   -.270E+01 0.130E+01 -.883E+03   0.258E+01 -.123E+01 0.882E+03   0.381E+00 -.199E+00 0.538E+00   -.238E+00 0.117E+00 0.623E+00
   0.162E-01 -.122E+02 -.870E+03   -.953E-02 0.106E+02 0.870E+03   0.168E-03 0.135E+01 -.106E+01   -.715E-02 0.278E+00 0.643E+00
   0.269E+01 0.129E+01 -.883E+03   -.257E+01 -.122E+01 0.882E+03   -.381E+00 -.200E+00 0.539E+00   0.241E+00 0.118E+00 0.622E+00
   -.879E+00 0.353E+00 -.899E+03   0.111E+01 -.179E+00 0.898E+03   -.406E-01 -.681E-01 0.581E+00   -.164E+00 -.900E-01 0.623E+00
   0.872E+00 0.339E+00 -.899E+03   -.111E+01 -.168E+00 0.898E+03   0.413E-01 -.686E-01 0.583E+00   0.166E+00 -.875E-01 0.626E+00
   0.575E-02 -.226E+01 -.882E+03   -.455E-02 0.209E+01 0.881E+03   -.156E-03 0.435E+00 0.486E+00   -.102E-02 -.238E+00 0.607E+00
   -.334E-01 0.212E+01 -.263E+04   0.318E-01 -.219E+01 0.263E+04   -.185E-03 0.486E-01 0.351E+00   0.178E-02 0.201E-03 0.364E+00
   0.304E+02 0.483E+02 -.260E+04   -.297E+02 -.469E+02 0.260E+04   -.930E+00 -.150E+01 -.433E+00   0.756E-01 -.610E-01 0.209E+00
   -.304E+02 0.484E+02 -.260E+04   0.296E+02 -.470E+02 0.260E+04   0.931E+00 -.151E+01 -.438E+00   -.774E-01 -.583E-01 0.209E+00
   0.536E+02 -.110E+01 -.260E+04   -.519E+02 0.108E+01 0.260E+04   -.182E+01 -.739E-01 -.388E+00   -.481E-01 0.116E+00 0.265E+00
   -.537E+02 -.113E+01 -.260E+04   0.520E+02 0.110E+01 0.260E+04   0.182E+01 -.734E-01 -.381E+00   0.488E-01 0.120E+00 0.267E+00
   0.212E+02 -.441E+02 -.261E+04   -.205E+02 0.428E+02 0.261E+04   -.710E+00 0.142E+01 0.885E-01   -.474E-01 -.640E-01 0.277E+00
   -.212E+02 -.442E+02 -.261E+04   0.205E+02 0.429E+02 0.261E+04   0.708E+00 0.141E+01 0.935E-01   0.530E-01 -.630E-01 0.278E+00
   -.337E-02 0.127E+01 -.264E+04   0.129E-01 -.122E+01 0.264E+04   0.533E-03 -.513E-02 0.520E+00   -.104E-01 -.393E-01 0.194E+00
   0.102E+00 -.470E+01 -.125E+04   -.999E-01 0.476E+01 0.125E+04   0.293E-03 -.919E-01 0.686E+00   0.141E-02 0.134E-01 0.294E+00
   0.671E+02 0.419E+02 -.294E+03   -.738E+02 -.462E+02 0.296E+03   0.674E+01 0.428E+01 -.186E+01   -.280E-01 -.153E-01 0.583E-02
   -.665E+02 0.428E+02 -.294E+03   0.732E+02 -.471E+02 0.296E+03   -.669E+01 0.436E+01 -.186E+01   0.278E-01 -.155E-01 0.587E-02
   -.301E+00 -.557E+02 -.165E+04   0.584E+00 0.979E+02 0.165E+04   -.286E+00 -.423E+02 0.714E+01   -.240E-04 0.450E-01 0.167E+00
   0.231E+00 0.339E+02 -.298E+01   -.333E-15 -.142E-12 0.114E-11   -.231E+00 -.339E+02 -.363E+01   -.149E-02 -.149E-01 0.724E+01

 POSITION                                       TOTAL-FORCE (eV/Angst)
      0.00000      0.00000      5.28038         0.000031      0.002294     -0.109614
      2.93784      0.00000      5.28038        -0.011997     -0.001839     -0.015312
      5.87568      0.00000      5.28038         0.012130     -0.001818     -0.015396
      1.46892      2.54424      5.28038        -0.005933     -0.011025     -0.014375
      4.40676      2.54424      5.28038         0.000253     -0.004248     -0.040724
      7.34459      2.54424      5.28038         0.006083     -0.011083     -0.014277
      2.93784      5.08848      5.28038        -0.002601      0.012062     -0.011236
      5.87568      5.08848      5.28038         0.002704      0.012113     -0.011224
      8.81351      5.08848      5.28038        -0.000110      0.000884     -0.037430
      1.46892      0.84808      7.67911         0.037360      0.020438      0.084997
      4.40676      0.84808      7.67911         0.000235     -0.044718     -0.016325
      7.34459      0.84808      7.67911        -0.037293      0.020446      0.085067
      2.93784      3.39232      7.67911        -0.031775      0.024129     -0.016409
      5.87568      3.39232      7.67911         0.032378      0.024270     -0.016550
      8.81351      3.39232      7.67911        -0.000036     -0.055750      0.037168
      4.40676      5.93656      7.67911         0.000122     -0.038685      0.072772
      7.34459      5.93656      7.67911        -0.048082      0.026357      0.039073
     10.28243      5.93656      7.67911         0.048204      0.026524      0.039078
      8.81351      1.69581     10.07501        -0.000046     -0.030076     -0.018039
      2.95207      1.70438     10.04871        -0.014584      0.002618     -0.054293
      5.86144      1.70438     10.04871         0.013775      0.002701     -0.055007
     10.26527      4.25031     10.05786         0.023565     -0.016149      0.005413
      4.40676      4.22397     10.04871        -0.000281      0.034886     -0.003430
      7.36176      4.25031     10.05786        -0.023449     -0.016325      0.005726
     11.75166      6.78482     10.07501         0.027715      0.015558     -0.015553
      5.87537      6.78482     10.07501        -0.027551      0.015583     -0.015531
      8.81351      6.76483     10.05786         0.000087      0.028041     -0.005545
      0.00000      0.00000     12.48798         0.000090     -0.015581     -0.139826
      2.98892      0.08359     12.48152        -0.078223     -0.147165     -0.010910
      5.82460      0.08359     12.48152         0.078627     -0.148016     -0.010920
      1.56685      2.54668     12.48152        -0.135925      0.018700     -0.015052
      7.24666      2.54668     12.48152         0.137999      0.018839     -0.016755
      2.98469      5.00245     12.48152        -0.108551      0.122436     -0.060606
      5.82882      5.00245     12.48152         0.109152      0.123496     -0.061357
      8.81351      5.08848     12.49580        -0.000273      0.000301     -0.055373
      4.40676      2.54424     12.17616         0.003649     -0.019908      0.516619
      3.61919      2.01320     14.53555         0.006477      0.005885     -0.004161
      5.19227      2.00327     14.53602        -0.011941      0.010083     -0.009385
      4.40913      2.54920     14.30694        -0.001987     -0.006257     -0.015299
    total drift:                               -0.002461      0.011579      0.621981

  FREE ENERGIE OF THE ION-ELECTRON SYSTEM (eV)
  free  energy   TOTEN  =      -128.77865916 eV

  energy  without entropy=     -128.77865916  energy(sigma->0) =     -128.77865916

 stress matrix after NEB project (eV)
    -21.27291     -0.00590     -0.01143
     -0.00590    -21.40053     -0.10394
     -0.01143     -0.10394      1.91022
  FORCES: max atom, RMS     0.018230    0.004247
  FORCE total and by dimension    0.026522    0.015299
  Stress total and by dimension   30.235578   21.400532
|           W    W    AA    RRRRR   N    N  II  N    N   GGGG   !!!           |
|           W    W   A  A   R    R  NN   N  II  NN   N  G    G  !!!           |
|           W    W  A    A  R    R  N N  N  II  N N  N  G       !!!           |
|           W WW W  AAAAAA  RRRRR   N  N N  II  N  N N  G  GGG   !            |
|           WW  WW  A    A  R   R   N   NN  II  N   NN  G    G                |
|           W    W  A    A  R    R  N    N  II  N    N   GGGG   !!!           |
|     Tetrahedron method does not include variations of the Fermi             |
|     occupations, so forces and stress will be inaccurate. We suggest        |
|     using a different smearing scheme ISMEAR = 1 or 2 for metals in         |
|     relaxations.                                                            |

 total charge

# of ion       s       p       d       tot
    1        0.548   0.238   8.767   9.552
    2        0.544   0.241   8.764   9.549
    3        0.544   0.241   8.764   9.549
    4        0.544   0.241   8.765   9.549
    5        0.545   0.241   8.761   9.546
    6        0.544   0.241   8.764   9.549
    7        0.543   0.241   8.765   9.549
    8        0.543   0.241   8.765   9.549
    9        0.543   0.239   8.767   9.549
   10        0.526   0.308   8.767   9.601
   11        0.523   0.308   8.780   9.610
   12        0.526   0.308   8.767   9.601
   13        0.522   0.308   8.780   9.610
   14        0.522   0.308   8.780   9.610
   15        0.517   0.309   8.775   9.600
   16        0.526   0.308   8.767   9.601
   17        0.517   0.309   8.775   9.601
   18        0.517   0.309   8.775   9.601
   19        0.519   0.298   8.774   9.591
   20        0.560   0.337   8.740   9.638
   21        0.560   0.337   8.740   9.638
   22        0.509   0.309   8.776   9.594
   23        0.560   0.337   8.740   9.637
   24        0.509   0.309   8.776   9.594
   25        0.517   0.298   8.775   9.590
   26        0.517   0.298   8.775   9.590
   27        0.511   0.309   8.775   9.595
   28        0.540   0.226   8.755   9.521
   29        0.576   0.250   8.741   9.567
   30        0.576   0.250   8.741   9.567
   31        0.576   0.248   8.741   9.565
   32        0.576   0.248   8.741   9.565
   33        0.570   0.241   8.746   9.557
   34        0.570   0.241   8.746   9.557
   35        0.535   0.225   8.760   9.520
   36        0.352   0.390   4.193   4.935
   37        0.600   0.117   0.000   0.717
   38        0.600   0.117   0.000   0.717
   39        1.568   3.613   0.000   5.182
tot         21.993  13.939 310.884 346.816

 BZINTS: Fermi energy:    0.333143;  399.000000 electrons
         Band energy:-0.140565E+04;  BLOECHL correction:   -0.027420