 vasp.6.2.0 18Jan21 (build Jun 12 2021 23:27:24) complex

 executed on             LinuxIFC date 2022.05.26  19:25:32

 INCAR:
   ISMEAR = -5
   SIGMA = 0.1
   ISPIN = 1
   EDIFF = 1.d-5
   EDIFFG = -0.01
   NSW = 0
   NELM = 150
   ENCUT = 500
   ISIF = 2
   IBRION = 2
   LREAL = Auto
   ALGO = Fast
   ICHARG = 11
   LORBIT = 10
   LCHARG = .F.
   LWAVE = .F.

 POTCAR:    PAW_PBE Au 04Oct2007
 POTCAR:    PAW_PBE Nb_sv 25May2007
 POTCAR:    PAW_PBE H 15Jun2001
|           W    W    AA    RRRRR   N    N  II  N    N   GGGG   !!!           |
|           W    W   A  A   R    R  NN   N  II  NN   N  G    G  !!!           |
|           W    W  A    A  R    R  N N  N  II  N N  N  G       !!!           |
|           W WW W  AAAAAA  RRRRR   N  N N  II  N  N N  G  GGG   !            |
|           WW  WW  A    A  R   R   N   NN  II  N   NN  G    G                |
|           W    W  A    A  R    R  N    N  II  N    N   GGGG   !!!           |
|     For optimal performance we recommend to set                             |
|       NCORE = 2 up to number-of-cores-per-socket                            |
|     This setting can greatly improve the performance of VASP for DFT.       |
|     The default, NCORE=1 might be grossly inefficient on modern             |
|     multi-core architectures or massively parallel machines. Do your        |
|     Unfortunately you need to use the default for GW and RPA                |
|     calculations (for HF NCORE is supported but not extensively tested      |
|     yet).                                                                   |

 POTCAR:    PAW_PBE Au 04Oct2007
   VRHFIN =Au: s1d10

   TITEL  = PAW_PBE Au 04Oct2007
   POMASS =  196.966; ZVAL   =   11.000    mass and valenz
   ENMAX  =  229.943; ENMIN  =  172.457 eV

 POTCAR:    PAW_PBE Nb_sv 25May2007
   VRHFIN =Nb: 4p5s4d

   TITEL  = PAW_PBE Nb_sv 25May2007
   POMASS =   92.910; ZVAL   =   13.000    mass and valenz
   ENMAX  =  293.235; ENMIN  =  219.927 eV

 POTCAR:    PAW_PBE H 15Jun2001
   VRHFIN =H: ultrasoft test

   TITEL  = PAW_PBE H 15Jun2001
   POMASS =    1.000; ZVAL   =    1.000    mass and valenz
   ENMAX  =  250.000; ENMIN  =  200.000 eV

 Optimization of the real space projectors (new method)

 maximal supplied QI-value         = 15.12
 optimisation between [QCUT,QGAM] = [ 11.34, 22.83] = [ 36.00,145.93] Ry
 Optimized for a Real-space Cutoff    1.39 Angstroem

   l    n(q)    QCUT    max X(q) W(low)/X(q) W(high)/X(q)  e(spline)
   2      9    11.338    60.898    0.39E-03    0.42E-03    0.21E-06
   2      9    11.338    58.894    0.40E-03    0.42E-03    0.22E-06
   0      9    11.338   109.617    0.13E-03    0.20E-04    0.13E-06
   0      9    11.338    75.026    0.13E-03    0.20E-04    0.13E-06
   1      9    11.338    16.344    0.33E-04    0.24E-03    0.18E-06
   1      9    11.338    10.160    0.26E-04    0.19E-03    0.15E-06
 Optimization of the real space projectors (new method)

[...]

   l    n(q)    QCUT    max X(q) W(low)/X(q) W(high)/X(q)  e(spline)
   0     11    11.450    10.201    0.21E-04    0.96E-05    0.78E-07
   0     11    11.450     8.174    0.31E-04    0.18E-04    0.14E-06
   1     10    11.450     3.488    0.27E-04    0.12E-04    0.96E-07
   1     10    11.450     4.917    0.11E-03    0.11E-03    0.37E-06
   2     10    11.450   153.744    0.37E-03    0.81E-03    0.10E-05
   2     10    11.450   126.342    0.37E-03    0.81E-03    0.10E-05
 Optimization of the real space projectors (new method)

 maximal supplied QI-value         = 34.20
 optimisation between [QCUT,QGAM] = [ 11.29, 22.57] = [ 35.68,142.71] Ry
 Optimized for a Real-space Cutoff    1.16 Angstroem

   l    n(q)    QCUT    max X(q) W(low)/X(q) W(high)/X(q)  e(spline)
   0      8    11.287    19.460    0.40E-03    0.73E-03    0.16E-06
   0      8    11.287    12.209    0.38E-03    0.70E-03    0.15E-06
   1      7    11.287     4.655    0.22E-03    0.25E-04    0.22E-06
  PAW_PBE Au 04Oct2007                  :
  PAW_PBE Nb_sv 25May2007               :
  PAW_PBE H 15Jun2001                   :

 POSCAR: Au-Nb-H
  positions in direct lattice
  velocities in cartesian coordinates
 exchange correlation table for  LEXCH =        8
   RHO(1)=    0.500       N(1)  =     2000
   RHO(2)=  100.500       N(2)  =     4000

 VTST: version 3.2, (02/03/18)

 CHAIN: initializing optimizer

 OPT: Using VASP Conjugate-Gradient optimizer
 CHAIN: Read ICHAIN            0

 POSCAR: Au-Nb-H
  positions in direct lattice
  velocities in cartesian coordinates

 ion  position               nearest neighbor table
   1  0.000  0.000  0.238-  16 2.94  12 2.94   6 2.94   8 2.94   7 2.94   3 2.94  10 2.94   4 2.94
                             2 2.94
   2  0.333  0.000  0.238-   9 2.94  11 2.94  17 2.94  10 2.94   8 2.94   4 2.94   5 2.94   1 2.94
                             3 2.94
   3  0.667  0.000  0.238-   7 2.94  18 2.94  12 2.94   1 2.94  11 2.94   5 2.94   6 2.94   9 2.94
                             2 2.94
   4  0.000  0.333  0.238-  10 2.94   6 2.94   5 2.94  13 2.94   2 2.94  15 2.94   9 2.94   1 2.94
                             7 2.94
   5  0.333  0.333  0.238-  13 2.94   7 2.94  11 2.94   4 2.94   2 2.94  14 2.94   3 2.94   8 2.94
                             6 2.94
   6  0.667  0.333  0.238-  15 2.94  14 2.94   1 2.94  12 2.94   4 2.94   9 2.94   8 2.94   3 2.94
                             5 2.94
   7  0.000  0.667  0.238-  18 2.94   3 2.94  16 2.94   5 2.94   1 2.94  13 2.94   8 2.94   4 2.94
                             9 2.94
   8  0.333  0.667  0.238-   9 2.94  17 2.94   1 2.94   2 2.94  14 2.94  16 2.94   6 2.94   7 2.94
                             5 2.94
   9  0.667  0.667  0.238-   2 2.94   8 2.94  17 2.94   6 2.94  15 2.94   4 2.94   3 2.94  18 2.94
                             7 2.94
  10  0.111  0.111  0.346-  20 2.91  11 2.94  17 2.94   2 2.94   4 2.94   1 2.94  12 2.94  16 2.94
                            13 2.94  15 2.94  26 2.95  19 2.95
  11  0.444  0.111  0.346-  20 2.91  21 2.91  13 2.94   2 2.94  10 2.94  17 2.94   5 2.94   3 2.94
                            18 2.94  14 2.94  12 2.94  27 2.94
  12  0.778  0.111  0.346-  21 2.91  16 2.94  18 2.94   1 2.94  14 2.94  15 2.94   3 2.94   6 2.94
                            10 2.94  11 2.94  25 2.95  19 2.95
  13  0.111  0.444  0.346-  23 2.91  20 2.91   5 2.94  18 2.94  11 2.94   7 2.94   4 2.94  16 2.94
                            10 2.94  14 2.94  15 2.94  22 2.94
  14  0.444  0.444  0.346-  21 2.91  23 2.91  15 2.94   6 2.94  12 2.94   8 2.94  17 2.94   5 2.94
                            16 2.94  13 2.94  11 2.94  24 2.94
  15  0.778  0.444  0.346-  24 2.93  22 2.93  14 2.94   6 2.94  17 2.94  12 2.94   9 2.94   4 2.94
                            10 2.94  13 2.94  18 2.94  19 2.94
  16  0.111  0.778  0.346-  23 2.91  18 2.94  12 2.94   7 2.94   1 2.94   8 2.94  13 2.94  10 2.94
                            14 2.94  17 2.94  25 2.95  26 2.95
  17  0.444  0.778  0.346-  27 2.93  24 2.93   9 2.94  15 2.94   2 2.94  10 2.94  11 2.94   8 2.94
                            14 2.94  16 2.94  18 2.94  26 2.94
  18  0.778  0.778  0.346-  22 2.93  27 2.93  16 2.94   7 2.94  13 2.94  12 2.94   3 2.94  11 2.94
                             9 2.94  15 2.94  17 2.94  25 2.94
  19  0.889  0.223  0.454-  24 2.93  22 2.93  21 2.94  20 2.94  15 2.94  26 2.94  25 2.94  10 2.95
                            12 2.95  28 2.95  32 3.04  31 3.04
  20  0.222  0.222  0.453-  36 2.78  10 2.91  11 2.91  13 2.91  26 2.94  19 2.94  23 2.94  21 2.94
                            27 2.95  22 2.95  29 2.99  31 2.99
  21  0.556  0.222  0.453-  36 2.78  12 2.91  14 2.91  11 2.91  25 2.94  19 2.94  20 2.94  23 2.94
                            27 2.95  24 2.95  30 2.99  32 2.99
  22  0.887  0.557  0.454-  24 2.91  27 2.91  18 2.93  15 2.93  25 2.93  19 2.93  13 2.94  23 2.95
                            20 2.95  35 2.96  33 3.02  31 3.02
  23  0.222  0.556  0.453-  36 2.78  16 2.91  13 2.91  14 2.91  25 2.94  26 2.94  20 2.94  21 2.94
                            22 2.95  24 2.95  33 2.99  34 2.99
  24  0.557  0.557  0.454-  27 2.91  22 2.91  15 2.93  17 2.93  26 2.93  19 2.93  14 2.94  21 2.95
                            23 2.95  35 2.96  32 3.02  34 3.02
  25  0.889  0.889  0.454-  22 2.93  27 2.93  23 2.94  21 2.94  18 2.94  19 2.94  26 2.94  16 2.95
                            12 2.95  28 2.95  33 3.04  30 3.04
  26  0.223  0.889  0.454-  27 2.93  24 2.93  20 2.94  23 2.94  17 2.94  19 2.94  25 2.94  10 2.95
                            16 2.95  28 2.95  29 3.04  34 3.04
  27  0.557  0.887  0.454-  24 2.91  22 2.91  17 2.93  18 2.93  26 2.93  25 2.93  11 2.94  20 2.95
                            21 2.95  35 2.96  29 3.02  30 3.02
  28  0.000  0.000  0.563-  25 2.95  19 2.95  26 2.95  34 2.98  32 2.98  33 2.98  30 2.98  31 2.98
                            29 2.98
  29  0.334  0.009  0.566-  30 2.85  31 2.86  36 2.87  35 2.98  28 2.98  20 2.99  27 3.02  26 3.04
                            34 3.10
  30  0.657  0.009  0.566-  29 2.85  32 2.86  36 2.87  35 2.98  28 2.98  21 2.99  27 3.02  25 3.04
                            33 3.10
  31  0.009  0.334  0.566-  33 2.85  29 2.86  36 2.87  35 2.98  28 2.98  20 2.99  22 3.02  19 3.04
                            32 3.10
  32  0.657  0.334  0.566-  34 2.85  30 2.86  36 2.87  35 2.98  28 2.98  21 2.99  24 3.02  19 3.04
                            31 3.10
  33  0.009  0.657  0.566-  31 2.85  34 2.86  36 2.87  35 2.98  28 2.98  23 2.99  22 3.02  25 3.04
                            30 3.10
  34  0.334  0.657  0.566-  32 2.85  33 2.86  36 2.87  35 2.98  28 2.98  23 2.99  24 3.02  26 3.04
                            29 3.10
  35  0.667  0.667  0.563-  24 2.96  27 2.96  22 2.96  29 2.98  34 2.98  32 2.98  31 2.98  30 2.98
                            33 2.98
  36  0.333  0.333  0.552-  37 1.77  20 2.78  23 2.78  21 2.78  33 2.87  31 2.87  29 2.87  30 2.87
                            34 2.87  32 2.87
  37  0.333  0.333  0.631-  36 1.77

  LATTYP: Found a hexagonal cell.
 ALAT       =     8.8135128021
 C/A-ratio  =     2.5184286595

  Lattice vectors:

 A1 = (  -4.4067569092,  -7.6327256898,   0.0000000000)
 A2 = (   8.8135128021,   0.0000000000,   0.0000000000)
 A3 = (   0.0000000000,   0.0000000000,  22.1962032318)

Analysis of symmetry for initial positions (statically):
 Subroutine PRICEL returns:
 Original cell was already a primitive cell.

 Routine SETGRP: Setting up the symmetry group for a
 hexagonal supercell.

 Subroutine GETGRP returns: Found  6 space group operations
 (whereof  6 operations were pure point group operations)
 out of a pool of 24 trial point group operations.

The static configuration has the point symmetry C_3v.

Analysis of symmetry for dynamics (positions and initial velocities):
 Subroutine PRICEL returns:
 Original cell was already a primitive cell.

[...]

The dynamic configuration has the point symmetry C_3v.

Analysis of constrained symmetry for selective dynamics:
 Subroutine PRICEL returns:
 Original cell was already a primitive cell.

 Routine SETGRP: Setting up the symmetry group for a
 hexagonal supercell.

 Subroutine GETGRP returns: Found  6 space group operations
 (whereof  6 operations were pure point group operations)
[...]
     24      -5.1443      2.00000
     25      -5.1406      2.00000
     26      -5.1272      2.00000
     27      -5.0587      2.00000
     28      -5.0298      2.00000
     29      -5.0087      2.00000
     30      -4.9824      2.00000
     31      -4.9255      2.00000
     32      -4.8960      2.00000
     33      -4.8281      2.00000
     34      -4.8025      2.00000
     35      -4.7813      2.00000
     36      -4.7314      2.00000
     37      -4.7217      2.00000
     38      -4.7074      2.00000
     39      -4.6670      2.00000
     40      -4.6628      2.00000
     41      -4.5478      2.00000
     42      -4.5049      2.00000
     43      -4.4555      2.00000
     44      -4.4007      2.00000
     45      -4.3681      2.00000
     46      -4.3411      2.00000
     47      -4.3127      2.00000
     48      -4.2971      2.00000
     49      -4.2672      2.00000
     50      -4.1831      2.00000
     51      -4.1777      2.00000
     52      -4.1371      2.00000
     53      -4.1124      2.00000
     54      -4.1018      2.00000
     55      -4.0918      2.00000
     56      -4.0747      2.00000
     57      -4.0602      2.00000
     58      -4.0181      2.00000
     59      -3.9853      2.00000
     60      -3.9739      2.00000
[...]
    238       6.4533      0.00000
    239       6.5360      0.00000
    240       6.5603      0.00000
    241       6.5840      0.00000
    242       6.7560      0.00000
    243       6.7971      0.00000
    244       6.8327      0.00000
    245       6.9076      0.00000
    246       6.9350      0.00000
    247       7.1581      0.00000
    248       7.2413      0.00000
    249       7.3530      0.00000
    250       7.6929      0.00000
    251       7.7161      0.00000
    252       7.8711      0.00000

 soft charge-density along one line, spin component           1
         0         1         2         3         4         5         6         7         8         9
 total charge-density along one line

------------------------ aborting loop because EDIFF is reached ----------------------------------------

 total charge

# of ion       s       p       d       tot
    1        0.550   0.236   8.769   9.554
    2        0.541   0.241   8.766   9.548
    3        0.541   0.241   8.766   9.548
    4        0.541   0.241   8.766   9.548
    5        0.548   0.241   8.761   9.550
    6        0.541   0.241   8.766   9.548
    7        0.541   0.241   8.766   9.548
    8        0.541   0.241   8.766   9.548
    9        0.544   0.239   8.767   9.550
   10        0.525   0.306   8.769   9.600
   11        0.521   0.307   8.780   9.608
   12        0.525   0.306   8.769   9.600
   13        0.521   0.307   8.780   9.608
   14        0.521   0.307   8.780   9.608
   15        0.516   0.307   8.773   9.597
   16        0.525   0.306   8.769   9.600
   17        0.516   0.307   8.773   9.597
   18        0.516   0.307   8.773   9.597
   19        0.518   0.295   8.772   9.585
   20        0.578   0.333   8.732   9.642
   21        0.578   0.333   8.732   9.642
   22        0.508   0.306   8.776   9.590
   23        0.578   0.333   8.732   9.642
   24        0.508   0.306   8.776   9.590
   25        0.518   0.295   8.772   9.585
   26        0.518   0.295   8.772   9.585
   27        0.508   0.306   8.776   9.590
   28        0.541   0.229   8.753   9.523
   29        0.590   0.244   8.728   9.562
   30        0.590   0.244   8.728   9.562
   31        0.590   0.244   8.728   9.562
   32        0.590   0.244   8.728   9.562
   33        0.590   0.244   8.728   9.562
   34        0.590   0.244   8.728   9.562
   35        0.537   0.230   8.757   9.523
   36        2.188   6.008   2.249  10.445
   37        0.527   0.010   0.000   0.537
tot         21.720  15.663 308.823 346.206

  FORCE on cell =-STRESS in cart. coord.  units (eV):
  Direction    XX          YY          ZZ          XY          YZ          ZX
  Alpha Z  1021.64428  1021.64428  1021.64428
  Ewald  120378.65762120378.65808************    -0.00032    -0.00008    -0.00015
  Hartree129158.75149129158.75151************     0.00001    -0.00002    -0.00004
  E(xc)   -1789.23225 -1789.23223 -1796.53327    -0.00002    -0.00000    -0.00000
  Local  ************************262309.21828     0.00165     0.00004     0.00007
  n-local   -75.78321   -29.39132   -26.87888    22.28998    -1.82999     1.26577
  augment  2380.53974  2380.54123  2402.97977    -0.00128     0.00001     0.00003
  Kinetic  5583.64841  5593.16443  5667.46946     4.36645     0.31443     0.21892
  Fock        0.00000     0.00000     0.00000     0.00000     0.00000     0.00000
  Total     -21.85758   -21.85758     3.55366    -0.00000     0.00000    -0.00000
  in kB     -23.45337   -23.45337     3.81311    -0.00000     0.00000    -0.00000

 VOLUME and BASIS-vectors are now :
  energy-cutoff  :      500.00
  volume of cell :     1493.16
      direct lattice vectors                 reciprocal lattice vectors
     8.813512802  0.000000000  0.000000000     0.113462137 -0.065507406  0.000000000
     4.406756909  7.632725690  0.000000000     0.000000000  0.131014796  0.000000000
     0.000000000  0.000000000 22.196203232     0.000000000  0.000000000  0.045052750

  length of vectors
     8.813512802  8.813512802 22.196203232     0.131014796  0.131014796  0.045052750

 FORCES acting on ions
    electron-ion (+dipol)            ewald-force                    non-local-force                 convergence-correction
   -.199E-04 -.164E-04 0.249E+04   0.520E-04 0.434E-04 -.249E+04   0.711E-17 -.885E-18 -.637E+00   -.240E-03 -.152E-03 -.321E-01
   0.861E+00 0.798E+00 0.249E+04   -.825E+00 -.824E+00 -.249E+04   0.204E-01 0.113E+00 -.353E+00   -.537E-01 -.987E-01 -.369E-01
   -.861E+00 0.798E+00 0.249E+04   0.825E+00 -.824E+00 -.249E+04   -.204E-01 0.113E+00 -.353E+00   0.540E-01 -.967E-01 -.362E-01
   0.112E+01 0.347E+00 0.249E+04   -.113E+01 -.303E+00 -.249E+04   0.108E+00 -.388E-01 -.353E+00   -.112E+00 0.280E-02 -.369E-01
   0.770E-05 -.241E-04 0.250E+04   0.951E-04 0.173E-05 -.250E+04   0.325E-17 0.286E-17 0.113E+00   0.428E-02 0.261E-02 -.435E-01
   -.112E+01 0.347E+00 0.249E+04   0.113E+01 -.303E+00 -.249E+04   -.108E+00 -.388E-01 -.353E+00   0.111E+00 0.371E-02 -.360E-01
   0.261E+00 -.115E+01 0.249E+04   -.301E+00 0.113E+01 -.249E+04   0.877E-01 -.742E-01 -.353E+00   -.567E-01 0.951E-01 -.362E-01
   -.261E+00 -.115E+01 0.249E+04   0.301E+00 0.113E+01 -.249E+04   -.877E-01 -.742E-01 -.353E+00   0.586E-01 0.940E-01 -.360E-01
   0.198E-04 -.415E-04 0.249E+04   0.166E-03 -.201E-04 -.249E+04   -.767E-18 -.179E-19 -.375E+00   -.459E-02 -.237E-02 -.377E-01
   0.842E+01 0.486E+01 0.848E+03   -.812E+01 -.469E+01 -.847E+03   -.324E+00 -.187E+00 -.543E+00   -.419E-01 -.243E-01 0.110E+00
   0.159E-04 0.937E+01 0.860E+03   0.147E-03 -.920E+01 -.860E+03   -.222E-08 -.333E-01 -.124E+00   0.402E-02 -.190E+00 0.144E+00
   -.842E+01 0.486E+01 0.848E+03   0.812E+01 -.469E+01 -.847E+03   0.324E+00 -.187E+00 -.543E+00   0.405E-01 -.232E-01 0.110E+00
   0.811E+01 -.468E+01 0.860E+03   -.796E+01 0.460E+01 -.860E+03   -.289E-01 0.167E-01 -.124E+00   -.162E+00 0.986E-01 0.144E+00
   -.811E+01 -.468E+01 0.860E+03   0.796E+01 0.460E+01 -.860E+03   0.289E-01 0.167E-01 -.124E+00   0.170E+00 0.978E-01 0.143E+00
   0.304E-04 0.260E+01 0.849E+03   0.236E-03 -.267E+01 -.848E+03   0.134E-08 0.201E-01 -.483E+00   -.230E-02 -.770E-03 0.966E-01
   -.218E-04 -.972E+01 0.848E+03   0.163E-03 0.938E+01 -.847E+03   0.249E-07 0.374E+00 -.543E+00   -.671E-04 0.466E-01 0.110E+00
   0.225E+01 -.130E+01 0.849E+03   -.231E+01 0.133E+01 -.848E+03   0.174E-01 -.101E-01 -.483E+00   -.157E-02 -.118E-02 0.967E-01
   -.225E+01 -.130E+01 0.849E+03   0.231E+01 0.133E+01 -.848E+03   -.174E-01 -.101E-01 -.483E+00   0.188E-02 0.832E-03 0.973E-01
   -.423E-04 0.226E+01 -.843E+03   0.519E-04 -.230E+01 0.842E+03   -.120E-08 -.181E-01 0.623E+00   -.656E-03 0.281E-01 0.196E+00
   0.539E+02 0.311E+02 -.754E+03   -.528E+02 -.305E+02 0.755E+03   -.118E+01 -.681E+00 -.132E+01   0.208E-01 0.119E-01 0.432E+00
   -.539E+02 0.311E+02 -.754E+03   0.528E+02 -.305E+02 0.755E+03   0.118E+01 -.681E+00 -.132E+01   -.201E-01 0.124E-01 0.432E+00
   0.118E+02 -.684E+01 -.823E+03   -.122E+02 0.704E+01 0.822E+03   0.394E+00 -.227E+00 0.641E+00   0.104E-01 -.573E-02 0.216E+00
   -.948E-05 -.622E+02 -.754E+03   0.144E-03 0.610E+02 0.755E+03   0.906E-07 0.136E+01 -.132E+01   0.457E-03 -.236E-01 0.432E+00
   -.118E+02 -.684E+01 -.823E+03   0.122E+02 0.704E+01 0.822E+03   -.394E+00 -.227E+00 0.641E+00   -.106E-01 -.610E-02 0.216E+00
   -.196E+01 -.113E+01 -.843E+03   0.199E+01 0.115E+01 0.842E+03   0.157E-01 0.904E-02 0.623E+00   -.240E-01 -.139E-01 0.196E+00
   0.196E+01 -.113E+01 -.843E+03   -.199E+01 0.115E+01 0.842E+03   -.157E-01 0.904E-02 0.623E+00   0.244E-01 -.146E-01 0.196E+00
   0.144E-04 0.137E+02 -.823E+03   0.194E-03 -.141E+02 0.822E+03   0.303E-07 0.455E+00 0.641E+00   -.329E-03 0.118E-01 0.216E+00
   -.154E-04 -.138E-04 -.246E+04   0.300E-04 0.350E-04 0.246E+04   -.114E-17 0.572E-19 0.572E+00   -.868E-04 -.686E-04 0.780E-01
   0.492E+02 0.800E+02 -.249E+04   -.482E+02 -.784E+02 0.249E+04   -.122E+01 -.186E+01 -.225E+00   0.121E+00 0.188E+00 0.759E-01
   -.492E+02 0.800E+02 -.249E+04   0.482E+02 -.784E+02 0.249E+04   0.122E+01 -.186E+01 -.225E+00   -.121E+00 0.190E+00 0.758E-01
   0.939E+02 0.261E+01 -.249E+04   -.920E+02 -.248E+01 0.249E+04   -.222E+01 -.120E+00 -.225E+00   0.223E+00 0.107E-01 0.760E-01
   -.939E+02 0.261E+01 -.249E+04   0.920E+02 -.248E+01 0.249E+04   0.222E+01 -.120E+00 -.225E+00   -.225E+00 0.115E-01 0.757E-01
   0.447E+02 -.827E+02 -.249E+04   -.439E+02 0.809E+02 0.249E+04   -.101E+01 0.198E+01 -.225E+00   0.104E+00 -.199E+00 0.758E-01
   -.447E+02 -.827E+02 -.249E+04   0.439E+02 0.809E+02 0.249E+04   0.101E+01 0.198E+01 -.225E+00   -.102E+00 -.200E+00 0.757E-01
   0.326E-04 -.272E-04 -.246E+04   0.141E-03 -.506E-04 0.246E+04   -.953E-17 -.273E-17 0.713E+00   -.446E-02 -.228E-02 0.942E-01
   0.232E-03 -.155E-03 -.273E+04   0.135E-03 0.122E-04 0.273E+04   0.112E-17 -.831E-18 -.215E+01   0.704E-02 0.430E-02 0.206E+00
   0.788E-05 -.538E-05 -.298E+03   0.411E-05 0.260E-06 0.300E+03   -.147E-18 0.720E-19 -.214E+01   0.136E-03 0.822E-04 -.510E-01
   -.516E-03 -.913E-03 0.723E+01   0.807E-13 0.100E-12 -.466E-11   -.856E-17 0.441E-15 -.110E+02   0.116E-01 0.743E-02 0.403E+01

 POSITION                                       TOTAL-FORCE (eV/Angst)
      0.00000      0.00000      5.28038         0.000000      0.000000     -0.170314
      2.93784      0.00000      5.28038         0.003128     -0.010258     -0.054215
      5.87568      0.00000      5.28038        -0.003128     -0.010258     -0.054215
      1.46892      2.54424      5.28038        -0.007320      0.007838     -0.054215
      4.40676      2.54424      5.28038         0.000000      0.000000     -0.077525
      7.34459      2.54424      5.28038         0.007320      0.007838     -0.054215
      2.93784      5.08848      5.28038        -0.010448      0.002420     -0.054215
      5.87568      5.08848      5.28038         0.010448      0.002420     -0.054215
      8.81351      5.08848      5.28038         0.000000      0.000000     -0.083032
      1.46892      0.84808      7.67911        -0.066227     -0.038236      0.063558
      4.40676      0.84808      7.67911        -0.000000     -0.051620      0.002614
      7.34459      0.84808      7.67911         0.066227     -0.038236      0.063558
      2.93784      3.39232      7.67911        -0.044705      0.025810      0.002614
      5.87568      3.39232      7.67911         0.044705      0.025810      0.002614
      8.81351      3.39232      7.67911        -0.000000     -0.046618      0.120024
      4.40676      5.93656      7.67911         0.000000      0.076473      0.063558
      7.34459      5.93656      7.67911        -0.040372      0.023309      0.120024
     10.28243      5.93656      7.67911         0.040372      0.023309      0.120024
      8.81351      1.70030     10.08698        -0.000000     -0.028438     -0.017356
      2.93503      1.69454     10.04736        -0.114001     -0.065818     -0.146508
      5.87848      1.69454     10.04736         0.114001     -0.065818     -0.146508
     10.26776      4.24887     10.06889         0.051142     -0.029527      0.025630
      4.40676      4.24365     10.04736         0.000000      0.131637     -0.146508
      7.35926      4.24887     10.06889        -0.051142     -0.029527      0.025630
     11.74777      6.78258     10.08698         0.024628      0.014219     -0.017356
      5.87926      6.78258     10.08698        -0.024628      0.014219     -0.017356
      8.81351      6.76771     10.06889         0.000000      0.059054      0.025630
      0.00000      0.00000     12.49943         0.000000      0.000000      0.024868
      2.98194      0.07009     12.55649        -0.019746     -0.068217     -0.054795
      5.83157      0.07009     12.55649         0.019746     -0.068217     -0.054795
      1.55167      2.54739     12.55649        -0.068951      0.017008     -0.054795
      7.26184      2.54739     12.55649         0.068951      0.017008     -0.054795
      2.97649      5.01524     12.55649        -0.049205      0.051209     -0.054795
      5.83702      5.01524     12.55649         0.049205      0.051209     -0.054795
      8.81351      5.08848     12.50498         0.000000      0.000000      0.068694
      4.40676      2.54424     12.24418         0.000000      0.000000      0.740804
      4.40676      2.54424     14.01019         0.000000      0.000000      0.006678
    total drift:                                0.011050      0.006517      0.270483

  FREE ENERGIE OF THE ION-ELECTRON SYSTEM (eV)
  free  energy   TOTEN  =      -119.46205382 eV

  energy  without entropy=     -119.46205382  energy(sigma->0) =     -119.46205382

 stress matrix after NEB project (eV)
    -21.85758     -0.00000     -0.00000
     -0.00000    -21.85758      0.00000
     -0.00000      0.00000      3.55366
  FORCES: max atom, RMS     0.006678    0.001098
  FORCE total and by dimension    0.006678    0.006678
  Stress total and by dimension   31.114886   21.857581
|           W    W    AA    RRRRR   N    N  II  N    N   GGGG   !!!           |
|           W    W   A  A   R    R  NN   N  II  NN   N  G    G  !!!           |
|           W    W  A    A  R    R  N N  N  II  N N  N  G       !!!           |
|           W WW W  AAAAAA  RRRRR   N  N N  II  N  N N  G  GGG   !            |
|           WW  WW  A    A  R   R   N   NN  II  N   NN  G    G                |
|           W    W  A    A  R    R  N    N  II  N    N   GGGG   !!!           |
|     Tetrahedron method does not include variations of the Fermi             |
|     occupations, so forces and stress will be inaccurate. We suggest        |
|     using a different smearing scheme ISMEAR = 1 or 2 for metals in         |
|     relaxations.                                                            |

 total charge

# of ion       s       p       d       tot
    1        0.550   0.236   8.769   9.554
    2        0.541   0.241   8.766   9.548
    3        0.541   0.241   8.766   9.548
    4        0.541   0.241   8.766   9.548
    5        0.548   0.241   8.761   9.550
    6        0.541   0.241   8.766   9.548
    7        0.541   0.241   8.766   9.548
    8        0.541   0.241   8.766   9.548
    9        0.544   0.239   8.767   9.550
   10        0.525   0.306   8.769   9.600
   11        0.521   0.307   8.780   9.608
   12        0.525   0.306   8.769   9.600
   13        0.521   0.307   8.780   9.608
   14        0.521   0.307   8.780   9.608
   15        0.516   0.307   8.773   9.597
   16        0.525   0.306   8.769   9.600
   17        0.516   0.307   8.773   9.597
   18        0.516   0.307   8.773   9.597
   19        0.518   0.295   8.772   9.585
   20        0.578   0.333   8.732   9.642
   21        0.578   0.333   8.732   9.642
   22        0.508   0.306   8.776   9.590
   23        0.578   0.333   8.732   9.642
   24        0.508   0.306   8.776   9.590
   25        0.518   0.295   8.772   9.585
   26        0.518   0.295   8.772   9.585
   27        0.508   0.306   8.776   9.590
   28        0.541   0.229   8.753   9.523
   29        0.590   0.244   8.728   9.562
   30        0.590   0.244   8.728   9.562
   31        0.590   0.244   8.728   9.562
   32        0.590   0.244   8.728   9.562
   33        0.590   0.244   8.728   9.562
   34        0.590   0.244   8.728   9.562
   35        0.537   0.230   8.757   9.523
   36        2.188   6.008   2.249  10.445
   37        0.527   0.010   0.000   0.537
tot         21.720  15.663 308.823 346.206

 BZINTS: Fermi energy:    0.705255;  399.000000 electrons
         Band energy:-0.148271E+04;  BLOECHL correction:   -0.033400