 vasp.6.2.0 18Jan21 (build Jun 12 2021 23:27:24) complex

 executed on             LinuxIFC date 2022.05.27  05:25:22

 INCAR:
   ISMEAR = -5
   SIGMA = 0.1
   ISPIN = 1
   EDIFF = 1.d-5
   EDIFFG = -0.01
   NSW = 0
   NELM = 150
   ENCUT = 500
   ISIF = 2
   IBRION = 2
   LREAL = Auto
   ALGO = Fast
   ICHARG = 11
   LORBIT = 10
   LCHARG = .F.
   LWAVE = .F.

 POTCAR:    PAW_PBE Au 04Oct2007
 POTCAR:    PAW_PBE Pt 04Feb2005
 POTCAR:    PAW_PBE N 08Apr2002
|           W    W    AA    RRRRR   N    N  II  N    N   GGGG   !!!           |
|           W    W   A  A   R    R  NN   N  II  NN   N  G    G  !!!           |
|           W    W  A    A  R    R  N N  N  II  N N  N  G       !!!           |
|           W WW W  AAAAAA  RRRRR   N  N N  II  N  N N  G  GGG   !            |
|           WW  WW  A    A  R   R   N   NN  II  N   NN  G    G                |
|           W    W  A    A  R    R  N    N  II  N    N   GGGG   !!!           |
|     For optimal performance we recommend to set                             |
|       NCORE = 2 up to number-of-cores-per-socket                            |
|     This setting can greatly improve the performance of VASP for DFT.       |
|     The default, NCORE=1 might be grossly inefficient on modern             |
|     multi-core architectures or massively parallel machines. Do your        |
|     Unfortunately you need to use the default for GW and RPA                |
|     calculations (for HF NCORE is supported but not extensively tested      |
|     yet).                                                                   |

 POTCAR:    PAW_PBE Au 04Oct2007
   VRHFIN =Au: s1d10

   TITEL  = PAW_PBE Au 04Oct2007
   POMASS =  196.966; ZVAL   =   11.000    mass and valenz
   ENMAX  =  229.943; ENMIN  =  172.457 eV

 POTCAR:    PAW_PBE Pt 04Feb2005
   VRHFIN =Pt: s1d9

   TITEL  = PAW_PBE Pt 04Feb2005
   POMASS =  195.080; ZVAL   =   10.000    mass and valenz
   ENMAX  =  230.283; ENMIN  =  172.712 eV

 POTCAR:    PAW_PBE N 08Apr2002
   VRHFIN =N: s2p3

   TITEL  = PAW_PBE N 08Apr2002
   POMASS =   14.001; ZVAL   =    5.000    mass and valenz
   ENMAX  =  400.000; ENMIN  =  300.000 eV

 Optimization of the real space projectors (new method)

 maximal supplied QI-value         = 15.12
 optimisation between [QCUT,QGAM] = [ 11.34, 22.83] = [ 36.00,145.93] Ry
 Optimized for a Real-space Cutoff    1.39 Angstroem

   l    n(q)    QCUT    max X(q) W(low)/X(q) W(high)/X(q)  e(spline)
   2      9    11.338    60.898    0.39E-03    0.42E-03    0.21E-06
   2      9    11.338    58.894    0.40E-03    0.42E-03    0.22E-06
   0      9    11.338   109.617    0.13E-03    0.20E-04    0.13E-06
   0      9    11.338    75.026    0.13E-03    0.20E-04    0.13E-06
   1      9    11.338    16.344    0.33E-04    0.24E-03    0.18E-06
   1      9    11.338    10.160    0.26E-04    0.19E-03    0.15E-06
 Optimization of the real space projectors (new method)

[...]

   l    n(q)    QCUT    max X(q) W(low)/X(q) W(high)/X(q)  e(spline)
   2      9    11.346    66.195    0.31E-03    0.12E-04    0.29E-06
   2      9    11.346    64.643    0.32E-03    0.12E-04    0.29E-06
   0     10    11.346    95.520    0.90E-04    0.16E-04    0.19E-06
   0     10    11.346    63.403    0.87E-04    0.15E-04    0.19E-06
   1     10    11.346    19.961    0.17E-03    0.21E-03    0.11E-06
   1     10    11.346    13.289    0.14E-03    0.18E-03    0.89E-07
 Optimization of the real space projectors (new method)

 maximal supplied QI-value         = 25.13
 optimisation between [QCUT,QGAM] = [ 11.31, 22.87] = [ 35.82,146.48] Ry
 Optimized for a Real-space Cutoff    1.27 Angstroem

   l    n(q)    QCUT    max X(q) W(low)/X(q) W(high)/X(q)  e(spline)
   0      9    11.310    79.467    0.75E-04    0.16E-03    0.36E-06
   0      9    11.310    66.151    0.74E-04    0.16E-03    0.36E-06
   1      8    11.310    17.416    0.35E-03    0.12E-03    0.95E-06
   1      8    11.310    12.382    0.37E-03    0.13E-03    0.98E-06
  PAW_PBE Au 04Oct2007                  :
  PAW_PBE Pt 04Feb2005                  :
  PAW_PBE N 08Apr2002                   :

 POSCAR: Au-Pt-N2
  positions in direct lattice
  velocities in cartesian coordinates
 exchange correlation table for  LEXCH =        8
   RHO(1)=    0.500       N(1)  =     2000
   RHO(2)=  100.500       N(2)  =     4000

 VTST: version 3.2, (02/03/18)

 CHAIN: initializing optimizer

 OPT: Using VASP Conjugate-Gradient optimizer
 CHAIN: Read ICHAIN            0

 POSCAR: Au-Pt-N2
  positions in direct lattice
  velocities in cartesian coordinates

 ion  position               nearest neighbor table
   1  0.000  0.000  0.238-  16 2.94  12 2.94   6 2.94   8 2.94   7 2.94   3 2.94  10 2.94   4 2.94
                             2 2.94
   2  0.333  0.000  0.238-   9 2.94  11 2.94  17 2.94  10 2.94   8 2.94   4 2.94   5 2.94   1 2.94
                             3 2.94
   3  0.667  0.000  0.238-   7 2.94  18 2.94  12 2.94   1 2.94  11 2.94   5 2.94   6 2.94   9 2.94
                             2 2.94
   4  0.000  0.333  0.238-  10 2.94   6 2.94   5 2.94  13 2.94   2 2.94  15 2.94   9 2.94   1 2.94
                             7 2.94
   5  0.333  0.333  0.238-  13 2.94   7 2.94  11 2.94   4 2.94   2 2.94  14 2.94   3 2.94   8 2.94
                             6 2.94
   6  0.667  0.333  0.238-  15 2.94  14 2.94   1 2.94  12 2.94   4 2.94   9 2.94   8 2.94   3 2.94
                             5 2.94
   7  0.000  0.667  0.238-  18 2.94   3 2.94  16 2.94   5 2.94   1 2.94  13 2.94   8 2.94   4 2.94
                             9 2.94
   8  0.333  0.667  0.238-   9 2.94  17 2.94   1 2.94   2 2.94  14 2.94  16 2.94   6 2.94   7 2.94
                             5 2.94
   9  0.667  0.667  0.238-   2 2.94   8 2.94  17 2.94   6 2.94  15 2.94   4 2.94   3 2.94  18 2.94
                             7 2.94
  10  0.111  0.111  0.346-  20 2.91  26 2.93  19 2.93  11 2.94  17 2.94   2 2.94   4 2.94   1 2.94
                            12 2.94  16 2.94  13 2.94  15 2.94
  11  0.444  0.111  0.346-  20 2.92  21 2.92  27 2.93  13 2.94   2 2.94  10 2.94  17 2.94   5 2.94
                             3 2.94  18 2.94  14 2.94  12 2.94
  12  0.778  0.111  0.346-  21 2.91  25 2.93  19 2.93  16 2.94  18 2.94   1 2.94  14 2.94  15 2.94
                             3 2.94   6 2.94  10 2.94  11 2.94
  13  0.111  0.444  0.346-  23 2.92  20 2.92  22 2.93   5 2.94  18 2.94  11 2.94   7 2.94   4 2.94
                            16 2.94  10 2.94  14 2.94  15 2.94
  14  0.444  0.444  0.346-  21 2.92  23 2.92  24 2.93  15 2.94   6 2.94  12 2.94   8 2.94  17 2.94
                             5 2.94  16 2.94  13 2.94  11 2.94
  15  0.778  0.444  0.346-  24 2.93  22 2.93  19 2.93  14 2.94   6 2.94  17 2.94  12 2.94   9 2.94
                             4 2.94  10 2.94  13 2.94  18 2.94
  16  0.111  0.778  0.346-  23 2.91  25 2.93  26 2.93  18 2.94  12 2.94   7 2.94   1 2.94   8 2.94
                            13 2.94  10 2.94  14 2.94  17 2.94
  17  0.444  0.778  0.346-  27 2.93  24 2.93  26 2.93   9 2.94  15 2.94   2 2.94  10 2.94  11 2.94
                             8 2.94  14 2.94  16 2.94  18 2.94
  18  0.778  0.778  0.346-  22 2.93  27 2.93  25 2.93  16 2.94   7 2.94  13 2.94  12 2.94   3 2.94
                            11 2.94   9 2.94  15 2.94  17 2.94
  19  0.889  0.222  0.454-  21 2.93  20 2.93  15 2.93  10 2.93  12 2.93  24 2.94  22 2.94  26 2.94
                            25 2.94  28 2.96  32 2.96  31 2.96
  20  0.221  0.221  0.453-  36 2.82  10 2.91  11 2.92  13 2.92  26 2.93  19 2.93  27 2.94  22 2.94
                            23 2.96  21 2.96  29 2.96  31 2.96
  21  0.557  0.221  0.453-  36 2.82  12 2.91  14 2.92  11 2.92  25 2.93  19 2.93  24 2.94  27 2.94
                            20 2.96  23 2.96  30 2.96  32 2.96
  22  0.888  0.556  0.454-  18 2.93  15 2.93  24 2.93  27 2.93  13 2.93  25 2.94  19 2.94  23 2.94
                            20 2.94  35 2.96  33 2.96  31 2.96
  23  0.221  0.557  0.453-  36 2.82  16 2.91  13 2.92  14 2.92  25 2.93  26 2.93  22 2.94  24 2.94
                            20 2.96  21 2.96  33 2.96  34 2.96
  24  0.556  0.556  0.454-  15 2.93  17 2.93  27 2.93  22 2.93  14 2.93  26 2.94  19 2.94  21 2.94
                            23 2.94  35 2.96  32 2.96  34 2.96
  25  0.889  0.889  0.454-  23 2.93  21 2.93  18 2.93  16 2.93  12 2.93  22 2.94  27 2.94  19 2.94
                            26 2.94  28 2.96  33 2.96  30 2.96
  26  0.222  0.889  0.454-  20 2.93  23 2.93  17 2.93  10 2.93  16 2.93  27 2.94  24 2.94  19 2.94
                            25 2.94  28 2.96  29 2.96  34 2.96
  27  0.556  0.888  0.454-  17 2.93  18 2.93  24 2.93  22 2.93  11 2.93  26 2.94  25 2.94  20 2.94
                            21 2.94  35 2.96  29 2.96  30 2.96
  28  0.000  0.000  0.563-  34 2.95  32 2.95  33 2.95  30 2.95  31 2.95  29 2.95  25 2.96  19 2.96
                            26 2.96
  29  0.333  0.002  0.563-  30 2.92  31 2.92  36 2.93  35 2.95  28 2.95  27 2.96  20 2.96  26 2.96
                            34 2.98
  30  0.664  0.002  0.563-  29 2.92  32 2.92  36 2.93  35 2.95  28 2.95  27 2.96  21 2.96  25 2.96
                            33 2.98
  31  0.002  0.333  0.563-  33 2.92  29 2.92  36 2.93  35 2.95  28 2.95  22 2.96  20 2.96  19 2.96
                            32 2.98
  32  0.664  0.333  0.563-  34 2.92  30 2.92  36 2.93  35 2.95  28 2.95  24 2.96  21 2.96  19 2.96
                            31 2.98
  33  0.002  0.664  0.563-  31 2.92  34 2.92  36 2.93  35 2.95  28 2.95  22 2.96  23 2.96  25 2.96
                            30 2.98
  34  0.333  0.664  0.563-  32 2.92  33 2.92  36 2.93  35 2.95  28 2.95  24 2.96  23 2.96  26 2.96
                            29 2.98
  35  0.667  0.667  0.563-  29 2.95  34 2.95  32 2.95  31 2.95  30 2.95  33 2.95  24 2.96  27 2.96
                            22 2.96
  36  0.333  0.333  0.554-  20 2.82  23 2.82  21 2.82  33 2.93  31 2.93  29 2.93  30 2.93  34 2.93
                            32 2.93
  37  0.270  0.333  0.725-  38 1.11
  38  0.397  0.333  0.725-  37 1.11

  LATTYP: Found a hexagonal cell.
 ALAT       =     8.8135128021
 C/A-ratio  =     2.5184286595

  Lattice vectors:

 A1 = (  -4.4067569092,  -7.6327256898,   0.0000000000)
 A2 = (   8.8135128021,   0.0000000000,   0.0000000000)
 A3 = (   0.0000000000,   0.0000000000,  22.1962032318)

Analysis of symmetry for initial positions (statically):
 Subroutine PRICEL returns:
 Original cell was already a primitive cell.

 Routine SETGRP: Setting up the symmetry group for a
 hexagonal supercell.

 Subroutine GETGRP returns: Found  2 space group operations
 (whereof  2 operations were pure point group operations)
 out of a pool of 24 trial point group operations.

The static configuration has the point symmetry C_1h.

Analysis of symmetry for dynamics (positions and initial velocities):
 Subroutine PRICEL returns:
 Original cell was already a primitive cell.

[...]

The dynamic configuration has the point symmetry C_1h.

Analysis of constrained symmetry for selective dynamics:
 Subroutine PRICEL returns:
 Original cell was already a primitive cell.

 Routine SETGRP: Setting up the symmetry group for a
 hexagonal supercell.

[...]
     33      -4.6427      2.00000
     34      -4.6376      2.00000
     35      -4.6327      2.00000
     36      -4.6126      2.00000
     37      -4.6110      2.00000
     38      -4.5989      2.00000
     39      -4.4978      2.00000
     40      -4.4706      2.00000
     41      -4.4063      2.00000
     42      -4.4017      2.00000
     43      -4.3468      2.00000
     44      -4.2634      2.00000
     45      -4.2338      2.00000
     46      -4.1877      2.00000
     47      -4.1707      2.00000
     48      -4.1540      2.00000
     49      -4.1465      2.00000
     50      -4.1315      2.00000
     51      -4.0531      2.00000
     52      -4.0077      2.00000
     53      -3.9862      2.00000
     54      -3.9792      2.00000
     55      -3.9715      2.00000
     56      -3.9620      2.00000
     57      -3.9568      2.00000
     58      -3.9111      2.00000
     59      -3.8700      2.00000
     60      -3.8583      2.00000
[...]
    238       6.2223      0.00000
    239       6.3280      0.00000
    240       6.4311      0.00000
    241       6.4516      0.00000
    242       6.5706      0.00000
    243       6.6131      0.00000
    244       6.6247      0.00000
    245       6.7415      0.00000
    246       6.8958      0.00000
    247       6.9554      0.00000
    248       7.0022      0.00000
    249       7.1002      0.00000
    250       7.2802      0.00000
    251       7.3058      0.00000
    252       7.4117      0.00000

 soft charge-density along one line, spin component           1
         0         1         2         3         4         5         6         7         8         9
 total charge-density along one line

------------------------ aborting loop because EDIFF is reached ----------------------------------------

 total charge

# of ion       s       p       d       tot
    1        0.543   0.241   8.765   9.549
    2        0.545   0.240   8.765   9.551
    3        0.545   0.240   8.765   9.551
    4        0.545   0.240   8.765   9.551
    5        0.542   0.241   8.765   9.548
    6        0.545   0.240   8.765   9.551
    7        0.545   0.240   8.765   9.551
    8        0.545   0.240   8.765   9.551
    9        0.544   0.240   8.766   9.550
   10        0.518   0.310   8.769   9.597
   11        0.520   0.306   8.776   9.603
   12        0.518   0.310   8.769   9.597
   13        0.520   0.306   8.776   9.603
   14        0.520   0.306   8.776   9.603
   15        0.516   0.307   8.775   9.598
   16        0.519   0.310   8.769   9.597
   17        0.516   0.307   8.775   9.598
   18        0.516   0.307   8.775   9.598
   19        0.517   0.302   8.775   9.594
   20        0.523   0.316   8.767   9.605
   21        0.523   0.316   8.767   9.605
   22        0.512   0.304   8.773   9.590
   23        0.523   0.316   8.767   9.605
   24        0.512   0.304   8.773   9.590
   25        0.517   0.302   8.775   9.594
   26        0.517   0.302   8.775   9.594
   27        0.512   0.304   8.773   9.590
   28        0.540   0.231   8.768   9.540
   29        0.543   0.237   8.760   9.541
   30        0.543   0.237   8.760   9.541
   31        0.543   0.237   8.760   9.540
   32        0.543   0.237   8.760   9.540
   33        0.543   0.237   8.760   9.541
   34        0.543   0.237   8.760   9.541
   35        0.538   0.232   8.769   9.539
   36        0.557   0.307   8.125   8.989
   37        1.373   2.469   0.000   3.841
   38        1.373   2.469   0.000   3.841
tot         21.862  14.829 315.019 351.710

  FORCE on cell =-STRESS in cart. coord.  units (eV):
  Direction    XX          YY          ZZ          XY          YZ          ZX
  Alpha Z  1042.72031  1042.72031  1042.72031
  Ewald  115679.45851115358.11794************    -0.00034     0.01097    -0.00015
  Hartree124450.64443124336.30520************     0.00000     0.00975    -0.00004
  E(xc)   -1812.93509 -1814.17901 -1821.60307    -0.00000    -0.00006    -0.00000
  Local  ************************252176.73968     0.00251    -0.02258     0.00005
  n-local   -88.34771   -75.81951   -50.33454     4.54907     0.00065     0.33729
  augment  2421.63993  2421.34605  2437.38113    -0.00145    -0.00017     0.00006
  Kinetic  5668.69929  5686.81232  5742.47037     0.99317     0.00019     0.19228
  Fock        0.00000     0.00000     0.00000     0.00000     0.00000     0.00000
  Total     -21.56628   -21.55459     1.40881    -0.00000    -0.00124    -0.00000
  in kB     -23.14081   -23.12826     1.51166    -0.00000    -0.00133    -0.00000

 VOLUME and BASIS-vectors are now :
  energy-cutoff  :      500.00
  volume of cell :     1493.16
      direct lattice vectors                 reciprocal lattice vectors
     8.813512802  0.000000000  0.000000000     0.113462137 -0.065507406  0.000000000
     4.406756909  7.632725690  0.000000000     0.000000000  0.131014796  0.000000000
     0.000000000  0.000000000 22.196203232     0.000000000  0.000000000  0.045052750

  length of vectors
     8.813512802  8.813512802 22.196203232     0.131014796  0.131014796  0.045052750

 FORCES acting on ions
    electron-ion (+dipol)            ewald-force                    non-local-force                 convergence-correction
   -.201E-04 0.484E-02 0.248E+04   0.519E-04 -.442E-02 -.248E+04   -.598E-10 -.898E-03 -.623E+00   -.202E-03 0.171E-03 -.438E-01
   0.175E+00 0.365E+00 0.248E+04   -.191E+00 -.288E+00 -.248E+04   0.810E-02 -.181E-01 -.332E+00   0.676E-02 -.584E-01 -.605E-01
   -.175E+00 0.365E+00 0.248E+04   0.191E+00 -.288E+00 -.248E+04   -.810E-02 -.181E-01 -.332E+00   -.647E-02 -.564E-01 -.599E-01
   0.400E+00 -.328E-01 0.248E+04   -.341E+00 -.238E-01 -.248E+04   -.108E-01 0.157E-01 -.336E+00   -.478E-01 0.386E-01 -.586E-01
   0.706E-05 -.765E-02 0.248E+04   0.952E-04 0.109E-03 -.248E+04   0.621E-11 0.933E-04 -.323E+00   0.430E-02 0.755E-02 -.102E+00
   -.400E+00 -.328E-01 0.248E+04   0.341E+00 -.239E-01 -.248E+04   0.108E-01 0.157E-01 -.336E+00   0.462E-01 0.396E-01 -.576E-01
   0.224E+00 -.332E+00 0.248E+04   -.150E+00 0.312E+00 -.248E+04   -.191E-01 0.241E-02 -.332E+00   -.520E-01 0.190E-01 -.561E-01
   -.224E+00 -.332E+00 0.248E+04   0.150E+00 0.312E+00 -.248E+04   0.191E-01 0.241E-02 -.332E+00   0.539E-01 0.180E-01 -.558E-01
   0.198E-04 0.204E-02 0.248E+04   0.166E-03 0.433E-02 -.248E+04   0.661E-10 0.993E-03 -.393E+00   -.464E-02 -.721E-02 -.392E-01
   0.314E+01 0.183E+01 0.861E+03   -.288E+01 -.168E+01 -.860E+03   -.128E+00 -.739E-01 -.531E+00   -.978E-01 -.532E-01 0.108E+00
   0.134E-04 0.244E+01 0.862E+03   0.149E-03 -.235E+01 -.862E+03   -.213E-08 -.319E-01 -.425E+00   0.380E-02 -.767E-01 0.147E+00
   -.314E+01 0.183E+01 0.861E+03   0.287E+01 -.168E+01 -.860E+03   0.128E+00 -.739E-01 -.531E+00   0.965E-01 -.517E-01 0.108E+00
   0.210E+01 -.123E+01 0.862E+03   -.201E+01 0.118E+01 -.862E+03   -.277E-01 0.161E-01 -.426E+00   -.688E-01 0.477E-01 0.149E+00
   -.210E+01 -.123E+01 0.862E+03   0.201E+01 0.118E+01 -.862E+03   0.277E-01 0.161E-01 -.426E+00   0.766E-01 0.472E-01 0.149E+00
   0.312E-04 0.508E+00 0.860E+03   0.236E-03 -.536E+00 -.859E+03   0.357E-09 0.537E-02 -.379E+00   -.240E-02 0.144E-01 0.122E+00
   -.215E-04 -.362E+01 0.861E+03   0.163E-03 0.333E+01 -.860E+03   0.987E-08 0.148E+00 -.529E+00   0.299E-03 0.106E+00 0.107E+00
   0.455E+00 -.263E+00 0.860E+03   -.477E+00 0.283E+00 -.859E+03   0.488E-02 -.313E-02 -.374E+00   0.955E-02 -.136E-01 0.120E+00
   -.456E+00 -.263E+00 0.860E+03   0.477E+00 0.283E+00 -.859E+03   -.488E-02 -.313E-02 -.374E+00   -.960E-02 -.117E-01 0.120E+00
   -.411E-04 0.970E+00 -.791E+03   0.533E-04 -.104E+01 0.790E+03   -.563E-09 -.846E-02 0.500E+00   -.332E-03 0.707E-01 -.288E-02
   0.601E+01 0.357E+01 -.766E+03   -.592E+01 -.352E+01 0.766E+03   -.112E+00 -.625E-01 -.361E-01   0.211E-01 0.201E-01 0.115E+00
   -.601E+01 0.357E+01 -.766E+03   0.592E+01 -.352E+01 0.766E+03   0.112E+00 -.625E-01 -.361E-01   -.203E-01 0.223E-01 0.115E+00
   0.787E+00 -.597E+00 -.786E+03   -.106E+01 0.766E+00 0.785E+03   0.216E+00 -.127E+00 0.590E+00   0.431E-01 -.351E-01 0.313E-01
   -.153E-04 -.710E+01 -.767E+03   0.144E-03 0.700E+01 0.766E+03   0.841E-08 0.126E+00 -.351E-01   0.193E-02 -.301E-01 0.116E+00
   -.787E+00 -.597E+00 -.786E+03   0.106E+01 0.766E+00 0.785E+03   -.216E+00 -.127E+00 0.590E+00   -.501E-01 -.349E-01 0.309E-01
   -.770E+00 -.381E+00 -.791E+03   0.818E+00 0.411E+00 0.791E+03   0.105E-01 0.608E-02 0.495E+00   -.529E-01 -.330E-01 -.512E-02
   0.770E+00 -.381E+00 -.791E+03   -.818E+00 0.411E+00 0.791E+03   -.105E-01 0.608E-02 0.495E+00   0.547E-01 -.342E-01 -.434E-02
   0.628E-05 0.957E+00 -.786E+03   0.201E-03 -.127E+01 0.785E+03   0.166E-07 0.249E+00 0.588E+00   -.422E-02 0.475E-01 0.321E-01
   -.105E-04 0.878E+00 -.241E+04   0.271E-04 -.883E+00 0.241E+04   -.593E-10 -.891E-03 0.488E+00   0.133E-02 0.490E-02 0.116E+00
   0.777E+01 0.135E+02 -.239E+04   -.756E+01 -.133E+02 0.239E+04   -.233E+00 -.275E+00 0.341E+00   0.243E-01 -.209E-01 0.206E-01
   -.777E+01 0.135E+02 -.239E+04   0.756E+01 -.133E+02 0.239E+04   0.233E+00 -.275E+00 0.341E+00   -.304E-01 -.190E-01 0.212E-01
   0.154E+02 0.624E+00 -.239E+04   -.150E+02 -.594E+00 0.239E+04   -.347E+00 -.621E-01 0.383E+00   -.675E-02 0.343E-01 0.197E-01
   -.154E+02 0.625E+00 -.239E+04   0.150E+02 -.594E+00 0.239E+04   0.347E+00 -.621E-01 0.383E+00   -.790E-03 0.354E-01 0.193E-01
   0.664E+01 -.142E+02 -.239E+04   -.649E+01 0.138E+02 0.239E+04   -.126E+00 0.337E+00 0.342E+00   -.322E-01 -.252E-01 0.197E-01
   -.664E+01 -.142E+02 -.239E+04   0.649E+01 0.138E+02 0.239E+04   0.126E+00 0.337E+00 0.342E+00   0.280E-01 -.260E-01 0.187E-01
   0.280E-04 -.855E+00 -.241E+04   0.148E-03 0.863E+00 0.241E+04   0.712E-10 0.107E-02 0.516E+00   -.354E-02 -.793E-02 0.629E-01
   -.887E-06 -.331E-01 -.207E+04   0.101E-03 0.246E-01 0.207E+04   -.178E-10 -.268E-03 0.177E+01   0.410E-02 0.875E-02 0.926E-01
   0.240E+03 -.450E-02 -.919E+03   -.286E+03 0.230E-02 0.920E+03   0.456E+02 -.147E-03 0.173E-01   0.378E-02 0.228E-02 -.289E-01
   -.240E+03 -.448E-02 -.919E+03   0.286E+03 0.230E-02 0.920E+03   -.456E+02 -.147E-03 0.173E-01   -.371E-02 0.230E-02 -.290E-01
   -.624E-03 0.977E-02 -.135E+01   0.000E+00 0.132E-12 0.261E-11   -.849E-10 -.128E-02 0.760E+00   -.147E-01 -.907E-02 0.136E+01

 POSITION                                       TOTAL-FORCE (eV/Angst)
      0.00000      0.00000      5.28038        -0.000000     -0.000290     -0.038812
      2.93784      0.00000      5.28038        -0.001384      0.001017     -0.079497
      5.87568      0.00000      5.28038         0.001384      0.001017     -0.079497
      1.46892      2.54424      5.28038         0.000396     -0.001798     -0.079851
      4.40676      2.54424      5.28038         0.000000      0.000121     -0.095008
      7.34459      2.54424      5.28038        -0.000396     -0.001798     -0.079851
      2.93784      5.08848      5.28038         0.001768      0.000865     -0.079784
      5.87568      5.08848      5.28038        -0.001768      0.000865     -0.079784
      8.81351      5.08848      5.28038         0.000000      0.000172     -0.072375
      1.46892      0.84808      7.67911         0.035302      0.020700      0.104119
      4.40676      0.84808      7.67911        -0.000000     -0.017401      0.051363
      7.34459      0.84808      7.67911        -0.035302      0.020700      0.104119
      2.93784      3.39232      7.67911        -0.015489      0.009230      0.051039
      5.87568      3.39232      7.67911         0.015489      0.009230      0.051039
      8.81351      3.39232      7.67911        -0.000000     -0.008056      0.100132
      4.40676      5.93656      7.67911        -0.000000     -0.041132      0.104105
      7.34459      5.93656      7.67911        -0.007120      0.003671      0.100625
     10.28243      5.93656      7.67911         0.007120      0.003671      0.100625
      8.81351      1.69709     10.07334        -0.000000     -0.005390      0.012246
      2.92757      1.69024     10.04824         0.007091      0.004013     -0.004813
      5.88594      1.69024     10.04824        -0.007091      0.004013     -0.004813
     10.27700      4.24354     10.06671        -0.010768      0.006161      0.010124
      4.40676      4.25225     10.04824        -0.000000     -0.008127     -0.005155
      7.35003      4.24354     10.06671         0.010768      0.006161      0.010124
     11.75055      6.78418     10.07334         0.004556      0.002908      0.010150
      5.87648      6.78418     10.07334        -0.004556      0.002908      0.010150
      8.81351      6.77837     10.06671        -0.000000     -0.012381      0.008903
      0.00000      0.00000     12.49905        -0.000000     -0.000703     -0.034910
      2.94801      0.01573     12.49317         0.003504     -0.000525     -0.007936
      5.86551      0.01573     12.49317        -0.003504     -0.000525     -0.007936
      1.48763      2.54518     12.49317         0.002087      0.002805     -0.007679
      7.32589      2.54518     12.49317        -0.002087      0.002805     -0.007679
      2.94638      5.07181     12.49317        -0.001158     -0.002666     -0.007914
      5.86714      5.07181     12.49317         0.001158     -0.002666     -0.007914
      8.81351      5.08848     12.49660         0.000000      0.000465     -0.023576
      4.40676      2.54424     12.29817         0.000000      0.000029     -0.032218
      3.84985      2.54288     16.10052         0.001624     -0.000034      0.004070
      4.96366      2.54288     16.10052        -0.001624     -0.000034      0.004070
    total drift:                               -0.015289     -0.000577      0.762764

  FREE ENERGIE OF THE ION-ELECTRON SYSTEM (eV)
  free  energy   TOTEN  =      -129.08130549 eV

  energy  without entropy=     -129.08130549  energy(sigma->0) =     -129.08130549

 stress matrix after NEB project (eV)
    -21.56628     -0.00000     -0.00000
     -0.00000    -21.55459     -0.00124
     -0.00000     -0.00124      1.40881
  FORCES: max atom, RMS     0.004382    0.001005
  FORCE total and by dimension    0.006197    0.004070
  Stress total and by dimension   30.523593   21.566283
|           W    W    AA    RRRRR   N    N  II  N    N   GGGG   !!!           |
|           W    W   A  A   R    R  NN   N  II  NN   N  G    G  !!!           |
|           W    W  A    A  R    R  N N  N  II  N N  N  G       !!!           |
|           W WW W  AAAAAA  RRRRR   N  N N  II  N  N N  G  GGG   !            |
|           WW  WW  A    A  R   R   N   NN  II  N   NN  G    G                |
|           W    W  A    A  R    R  N    N  II  N    N   GGGG   !!!           |
|     Tetrahedron method does not include variations of the Fermi             |
|     occupations, so forces and stress will be inaccurate. We suggest        |
|     using a different smearing scheme ISMEAR = 1 or 2 for metals in         |
|     relaxations.                                                            |

 total charge

# of ion       s       p       d       tot
    1        0.543   0.241   8.765   9.549
    2        0.545   0.240   8.765   9.551
    3        0.545   0.240   8.765   9.551
    4        0.545   0.240   8.765   9.551
    5        0.542   0.241   8.765   9.548
    6        0.545   0.240   8.765   9.551
    7        0.545   0.240   8.765   9.551
    8        0.545   0.240   8.765   9.551
    9        0.544   0.240   8.766   9.550
   10        0.518   0.310   8.769   9.597
   11        0.520   0.306   8.776   9.603
   12        0.518   0.310   8.769   9.597
   13        0.520   0.306   8.776   9.603
   14        0.520   0.306   8.776   9.603
   15        0.516   0.307   8.775   9.598
   16        0.519   0.310   8.769   9.597
   17        0.516   0.307   8.775   9.598
   18        0.516   0.307   8.775   9.598
   19        0.517   0.302   8.775   9.594
   20        0.523   0.316   8.767   9.605
   21        0.523   0.316   8.767   9.605
   22        0.512   0.304   8.773   9.590
   23        0.523   0.316   8.767   9.605
   24        0.512   0.304   8.773   9.590
   25        0.517   0.302   8.775   9.594
   26        0.517   0.302   8.775   9.594
   27        0.512   0.304   8.773   9.590
   28        0.540   0.231   8.768   9.540
   29        0.543   0.237   8.760   9.541
   30        0.543   0.237   8.760   9.541
   31        0.543   0.237   8.760   9.540
   32        0.543   0.237   8.760   9.540
   33        0.543   0.237   8.760   9.541
   34        0.543   0.237   8.760   9.541
   35        0.538   0.232   8.769   9.539
   36        0.557   0.307   8.125   8.989
   37        1.373   2.469   0.000   3.841
   38        1.373   2.469   0.000   3.841
tot         21.862  14.829 315.019 351.710

 BZINTS: Fermi energy:    0.777590;  405.000000 electrons
         Band energy:-0.121969E+04;  BLOECHL correction:   -0.114726