 vasp.6.2.0 18Jan21 (build Jun 12 2021 23:27:24) complex

 executed on             LinuxIFC date 2022.05.26  20:08:24

 INCAR:
   ISMEAR = -5
   SIGMA = 0.1
   ISPIN = 1
   EDIFF = 1.d-5
   EDIFFG = -0.01
   NSW = 0
   NELM = 150
   ENCUT = 500
   ISIF = 2
   IBRION = 2
   LREAL = Auto
   ALGO = Fast
   ICHARG = 11
   LORBIT = 10
   LCHARG = .F.
   LWAVE = .F.

 POTCAR:    PAW_PBE Cu 22Jun2005
 POTCAR:    PAW_PBE Re 17Jan2003
 POTCAR:    PAW_PBE H 15Jun2001
|           W    W    AA    RRRRR   N    N  II  N    N   GGGG   !!!           |
|           W    W   A  A   R    R  NN   N  II  NN   N  G    G  !!!           |
|           W    W  A    A  R    R  N N  N  II  N N  N  G       !!!           |
|           W WW W  AAAAAA  RRRRR   N  N N  II  N  N N  G  GGG   !            |
|           WW  WW  A    A  R   R   N   NN  II  N   NN  G    G                |
|           W    W  A    A  R    R  N    N  II  N    N   GGGG   !!!           |
|     For optimal performance we recommend to set                             |
|       NCORE = 2 up to number-of-cores-per-socket                            |
|     This setting can greatly improve the performance of VASP for DFT.       |
|     The default, NCORE=1 might be grossly inefficient on modern             |
|     multi-core architectures or massively parallel machines. Do your        |
|     Unfortunately you need to use the default for GW and RPA                |
|     calculations (for HF NCORE is supported but not extensively tested      |
|     yet).                                                                   |

 POTCAR:    PAW_PBE Cu 22Jun2005
   VRHFIN =Cu: d10 p1

   TITEL  = PAW_PBE Cu 22Jun2005
   POMASS =   63.546; ZVAL   =   11.000    mass and valenz
   ENMAX  =  295.446; ENMIN  =  221.585 eV

 POTCAR:    PAW_PBE Re 17Jan2003
   VRHFIN =Re: 5p6s5d

   TITEL  = PAW_PBE Re 17Jan2003
   POMASS =  186.207; ZVAL   =    7.000    mass and valenz
   ENMAX  =  226.216; ENMIN  =  169.662 eV

 POTCAR:    PAW_PBE H 15Jun2001
   VRHFIN =H: ultrasoft test

   TITEL  = PAW_PBE H 15Jun2001
   POMASS =    1.000; ZVAL   =    1.000    mass and valenz
   ENMAX  =  250.000; ENMIN  =  200.000 eV

 Optimization of the real space projectors (new method)

 maximal supplied QI-value         = 16.25
 optimisation between [QCUT,QGAM] = [ 11.38, 22.75] = [ 36.24,144.96] Ry
 Optimized for a Real-space Cutoff    1.52 Angstroem

   l    n(q)    QCUT    max X(q) W(low)/X(q) W(high)/X(q)  e(spline)
   2      9    11.376     4.610    0.21E-03    0.10E-03    0.26E-06
   2      9    11.376     8.522    0.33E-03    0.16E-03    0.37E-06
   0     10    11.376    51.609    0.62E-04    0.20E-04    0.13E-06
   0     10    11.376    27.747    0.54E-04    0.20E-04    0.13E-06
   1     10    11.376    20.408    0.13E-04    0.99E-04    0.19E-06
   1     10    11.376    13.425    0.12E-04    0.87E-04    0.17E-06
 Optimization of the real space projectors (new method)

[...]

   l    n(q)    QCUT    max X(q) W(low)/X(q) W(high)/X(q)  e(spline)
   2     10    11.327   884.633    0.22E-03    0.51E-03    0.88E-06
   2     10    11.327   796.723    0.22E-03    0.51E-03    0.88E-06
   0     11    11.327    65.348    0.44E-04    0.11E-03    0.75E-06
   0     11    11.327    39.642    0.40E-04    0.10E-03    0.69E-06
   1     10    11.327    13.988    0.15E-03    0.10E-03    0.19E-06
   1     10    11.327     8.682    0.11E-03    0.76E-04    0.14E-06
 Optimization of the real space projectors (new method)

 maximal supplied QI-value         = 34.20
 optimisation between [QCUT,QGAM] = [ 11.29, 22.57] = [ 35.68,142.71] Ry
 Optimized for a Real-space Cutoff    1.16 Angstroem

   l    n(q)    QCUT    max X(q) W(low)/X(q) W(high)/X(q)  e(spline)
   0      8    11.287    19.460    0.40E-03    0.73E-03    0.16E-06
   0      8    11.287    12.209    0.38E-03    0.70E-03    0.15E-06
   1      7    11.287     4.655    0.22E-03    0.25E-04    0.22E-06
  PAW_PBE Cu 22Jun2005                  :
  PAW_PBE Re 17Jan2003                  :
  PAW_PBE H 15Jun2001                   :

 POSCAR: Cu-Re-H
  positions in direct lattice
  velocities in cartesian coordinates
 exchange correlation table for  LEXCH =        8
   RHO(1)=    0.500       N(1)  =     2000
   RHO(2)=  100.500       N(2)  =     4000

 VTST: version 3.2, (02/03/18)

 CHAIN: initializing optimizer

 OPT: Using VASP Conjugate-Gradient optimizer
 CHAIN: Read ICHAIN            0

 POSCAR: Cu-Re-H
  positions in direct lattice
  velocities in cartesian coordinates

 ion  position               nearest neighbor table
   1  0.000  0.000  0.252-   7 2.57   3 2.57   4 2.57   2 2.57   6 2.57   8 2.57  12 2.57  10 2.57
                            16 2.57
   2  0.333  0.000  0.252-   8 2.57   9 2.57   5 2.57   1 2.57   3 2.57  11 2.57   4 2.57  10 2.57
                            17 2.57
   3  0.667  0.000  0.252-   1 2.57   7 2.57   6 2.57   9 2.57   2 2.57  12 2.57   5 2.57  18 2.57
                            11 2.57
   4  0.000  0.333  0.252-   5 2.57   6 2.57   1 2.57   7 2.57   2 2.57  13 2.57   9 2.57  10 2.57
                            15 2.57
   5  0.333  0.333  0.252-   4 2.57   2 2.57   7 2.57  13 2.57   8 2.57   6 2.57   3 2.57  11 2.57
                            14 2.57
   6  0.667  0.333  0.252-   4 2.57   9 2.57  15 2.57   3 2.57   1 2.57   8 2.57  14 2.57   5 2.57
                            12 2.57
   7  0.000  0.667  0.252-   1 2.57   3 2.57  16 2.57  18 2.57   4 2.57   5 2.57   8 2.57   9 2.57
                            13 2.57
   8  0.333  0.667  0.252-   9 2.57   2 2.57  17 2.57   6 2.57   1 2.57   7 2.57   5 2.57  14 2.57
                            16 2.57
   9  0.667  0.667  0.252-   8 2.57   6 2.57   2 2.57  17 2.57   3 2.57   7 2.57   4 2.57  15 2.57
                            18 2.57
  10  0.111  0.111  0.351-  20 2.53  11 2.57  12 2.57  13 2.57   1 2.57   2 2.57   4 2.57  15 2.57
                            16 2.57  17 2.57  26 2.57  19 2.57
  11  0.444  0.111  0.351-  20 2.55  21 2.55  10 2.57  13 2.57   2 2.57  17 2.57  14 2.57  12 2.57
                             5 2.57   3 2.57  18 2.57  27 2.58
  12  0.778  0.111  0.351-  21 2.53  15 2.57  10 2.57  14 2.57  18 2.57   3 2.57   1 2.57  16 2.57
                            11 2.57   6 2.57  19 2.57  25 2.57
  13  0.111  0.444  0.351-  23 2.55  20 2.55  16 2.57  18 2.57  10 2.57  11 2.57  14 2.57   5 2.57
                             4 2.57   7 2.57  15 2.57  22 2.58
  14  0.444  0.444  0.351-  21 2.55  23 2.55  15 2.57  17 2.57  12 2.57  16 2.57  13 2.57  11 2.57
                             6 2.57   8 2.57   5 2.57  24 2.58
  15  0.778  0.444  0.351-  19 2.57  14 2.57  17 2.57  12 2.57   6 2.57  18 2.57  10 2.57   9 2.57
                            13 2.57   4 2.57  24 2.57  22 2.57
  16  0.111  0.778  0.351-  23 2.53  18 2.57  13 2.57   7 2.57  14 2.57  17 2.57  12 2.57  10 2.57
                             8 2.57   1 2.57  25 2.57  26 2.57
  17  0.444  0.778  0.351-  26 2.57  14 2.57  15 2.57   8 2.57   9 2.57  11 2.57  16 2.57  18 2.57
                            10 2.57   2 2.57  27 2.57  24 2.57
  18  0.778  0.778  0.351-  25 2.57  16 2.57  13 2.57   7 2.57  15 2.57  12 2.57  17 2.57   9 2.57
                             3 2.57  11 2.57  22 2.57  27 2.57
  19  0.889  0.223  0.449-  21 2.55  20 2.55  22 2.56  24 2.56  28 2.56  15 2.57  12 2.57  10 2.57
                            25 2.57  26 2.57  32 2.59  31 2.59
  20  0.221  0.221  0.448-  36 2.53  10 2.53  11 2.55  13 2.55  26 2.55  19 2.55  27 2.57  22 2.57
                            23 2.59  21 2.59  29 2.61  31 2.61
  21  0.558  0.221  0.448-  36 2.53  12 2.53  14 2.55  11 2.55  19 2.55  25 2.55  24 2.57  27 2.57
                            20 2.59  23 2.59  32 2.61  30 2.61
  22  0.888  0.556  0.450-  24 2.55  27 2.55  35 2.55  19 2.56  25 2.56  18 2.57  15 2.57  23 2.57
                            20 2.57  13 2.58  31 2.59  33 2.59
  23  0.221  0.558  0.448-  36 2.53  16 2.53  13 2.55  14 2.55  25 2.55  26 2.55  22 2.57  24 2.57
                            20 2.59  21 2.59  33 2.61  34 2.61
  24  0.556  0.556  0.450-  22 2.55  27 2.55  35 2.55  19 2.56  26 2.56  15 2.57  17 2.57  21 2.57
                            23 2.57  14 2.58  32 2.59  34 2.59
  25  0.889  0.889  0.449-  21 2.55  23 2.55  22 2.56  27 2.56  28 2.56  18 2.57  16 2.57  12 2.57
                            19 2.57  26 2.57  33 2.59  30 2.59
  26  0.223  0.889  0.449-  20 2.55  23 2.55  27 2.56  24 2.56  28 2.56  17 2.57  10 2.57  16 2.57
                            25 2.57  19 2.57  29 2.59  34 2.59
  27  0.556  0.888  0.450-  24 2.55  22 2.55  35 2.55  26 2.56  25 2.56  17 2.57  18 2.57  20 2.57
                            21 2.57  11 2.58  29 2.59  30 2.59
  28  0.000  0.000  0.548-  33 2.56  30 2.56  31 2.56  29 2.56  32 2.56  34 2.56  25 2.56  19 2.56
                            26 2.56
  29  0.333  0.000  0.549-  31 2.56  28 2.56  36 2.57  34 2.57  35 2.57  30 2.57  26 2.59  27 2.59
                            20 2.61
  30  0.667  0.000  0.549-  32 2.56  28 2.56  36 2.57  33 2.57  35 2.57  29 2.57  25 2.59  27 2.59
                            21 2.61
  31  0.000  0.333  0.549-  29 2.56  28 2.56  36 2.57  32 2.57  35 2.57  33 2.57  19 2.59  22 2.59
                            20 2.61
  32  0.667  0.333  0.549-  30 2.56  28 2.56  36 2.57  31 2.57  35 2.57  34 2.57  19 2.59  24 2.59
                            21 2.61
  33  0.000  0.667  0.549-  34 2.56  28 2.56  36 2.57  30 2.57  35 2.57  31 2.57  25 2.59  22 2.59
                            23 2.61
  34  0.333  0.667  0.549-  33 2.56  28 2.56  36 2.57  29 2.57  35 2.57  32 2.57  26 2.59  24 2.59
                            23 2.61
  35  0.667  0.667  0.548-  24 2.55  27 2.55  22 2.55  34 2.57  32 2.57  29 2.57  30 2.57  33 2.57
                            31 2.57
  36  0.333  0.333  0.544-  37 1.68  23 2.53  20 2.53  21 2.53  31 2.57  29 2.57  33 2.57  34 2.57
                            32 2.57  30 2.57
  37  0.333  0.333  0.623-  36 1.68

  LATTYP: Found a hexagonal cell.
 ALAT       =     7.6967864036
 C/A-ratio  =     2.7653617908

  Lattice vectors:

 A1 = (  -3.8483927580,  -6.6656128093,   0.0000000000)
 A2 = (   7.6967864037,   0.0000000000,   0.0000000000)
 A3 = (   0.0000000000,   0.0000000000,  21.2843990326)

Analysis of symmetry for initial positions (statically):
 Subroutine PRICEL returns:
 Original cell was already a primitive cell.

 Routine SETGRP: Setting up the symmetry group for a
 hexagonal supercell.

 Subroutine GETGRP returns: Found  6 space group operations
 (whereof  6 operations were pure point group operations)
 out of a pool of 24 trial point group operations.

The static configuration has the point symmetry C_3v.

Analysis of symmetry for dynamics (positions and initial velocities):
 Subroutine PRICEL returns:
 Original cell was already a primitive cell.

[...]

The dynamic configuration has the point symmetry C_3v.

Analysis of constrained symmetry for selective dynamics:
 Subroutine PRICEL returns:
 Original cell was already a primitive cell.

 Routine SETGRP: Setting up the symmetry group for a
 hexagonal supercell.

 Subroutine GETGRP returns: Found  6 space group operations
 (whereof  6 operations were pure point group operations)
[...]
     24      -4.2855      2.00000
     25      -4.2520      2.00000
     26      -4.2354      2.00000
     27      -4.1956      2.00000
     28      -4.1715      2.00000
     29      -4.1390      2.00000
     30      -4.1277      2.00000
     31      -4.1217      2.00000
     32      -4.1093      2.00000
     33      -4.0893      2.00000
     34      -4.0658      2.00000
     35      -3.9997      2.00000
     36      -3.9742      2.00000
     37      -3.8956      2.00000
     38      -3.8130      2.00000
     39      -3.7745      2.00000
     40      -3.7559      2.00000
     41      -3.7340      2.00000
     42      -3.7147      2.00000
     43      -3.7053      2.00000
     44      -3.6903      2.00000
     45      -3.6836      2.00000
     46      -3.5692      2.00000
     47      -3.4915      2.00000
     48      -3.4774      2.00000
     49      -3.4629      2.00000
     50      -3.4358      2.00000
     51      -3.4145      2.00000
     52      -3.4100      2.00000
     53      -3.3976      2.00000
     54      -3.3887      2.00000
     55      -3.3785      2.00000
     56      -3.3451      2.00000
     57      -3.3397      2.00000
     58      -3.3275      2.00000
     59      -3.3211      2.00000
     60      -3.3143      2.00000
[...]
    238       6.9105      0.00000
    239       6.9168      0.00000
    240       7.0238      0.00000
    241       7.0932      0.00000
    242       7.2185      0.00000
    243       7.3082      0.00000
    244       7.3288      0.00000
    245       7.4250      0.00000
    246       7.4655      0.00000
    247       7.6530      0.00000
    248       7.7908      0.00000
    249       7.9635      0.00000
    250       8.1102      0.00000
    251       8.2037      0.00000
    252       8.4679      0.00000

 soft charge-density along one line, spin component           1
         0         1         2         3         4         5         6         7         8         9
 total charge-density along one line

------------------------ aborting loop because EDIFF is reached ----------------------------------------

 total charge

# of ion       s       p       d       tot
    1        0.451   0.283   9.192   9.926
    2        0.447   0.286   9.188   9.921
    3        0.447   0.286   9.188   9.921
    4        0.447   0.286   9.188   9.921
    5        0.451   0.284   9.181   9.917
    6        0.447   0.286   9.188   9.921
    7        0.447   0.286   9.188   9.921
    8        0.447   0.286   9.188   9.921
    9        0.448   0.282   9.192   9.922
   10        0.445   0.373   9.175   9.992
   11        0.444   0.366   9.185   9.996
   12        0.445   0.373   9.175   9.992
   13        0.444   0.366   9.185   9.996
   14        0.444   0.366   9.185   9.996
   15        0.439   0.369   9.179   9.986
   16        0.445   0.373   9.175   9.992
   17        0.439   0.369   9.179   9.986
   18        0.439   0.369   9.179   9.986
   19        0.439   0.366   9.183   9.988
   20        0.471   0.401   9.161  10.033
   21        0.471   0.401   9.161  10.033
   22        0.428   0.370   9.184   9.982
   23        0.471   0.401   9.161  10.033
   24        0.428   0.370   9.184   9.982
   25        0.439   0.366   9.183   9.988
   26        0.439   0.366   9.183   9.988
   27        0.428   0.370   9.184   9.982
   28        0.447   0.289   9.180   9.915
   29        0.465   0.311   9.163   9.939
   30        0.465   0.311   9.163   9.939
   31        0.465   0.311   9.163   9.939
   32        0.465   0.311   9.163   9.939
   33        0.465   0.311   9.163   9.939
   34        0.465   0.311   9.163   9.939
   35        0.439   0.290   9.185   9.914
   36        0.624   0.490   4.785   5.899
   37        0.522   0.015   0.000   0.537
tot         16.852  12.248 326.018 355.118

  FORCE on cell =-STRESS in cart. coord.  units (eV):
  Direction    XX          YY          ZZ          XY          YZ          ZX
  Alpha Z   887.02939   887.02939   887.02939
  Ewald  171405.27871171405.27833************     0.00037     0.00011     0.00015
  Hartree184217.93381184217.93381************     0.00003     0.00005     0.00005
  E(xc)   -2281.15118 -2281.15068 -2286.54419    -0.00043    -0.00003    -0.00006
  Local  ************************368814.57766     0.01840    -0.00056    -0.00088
  n-local  -781.81081  -765.91000  -786.60019     8.37448     0.06151     0.23744
  augment  3315.18722  3315.20736  3340.63331    -0.01744     0.00031     0.00053
  Kinetic  3225.66647  3232.08384  3264.83209     3.89510     1.14254    -0.69737
  Fock        0.00000     0.00000     0.00000     0.00000     0.00000     0.00000
  Total      -5.19514    -5.19514     2.46424     0.00000    -0.00000    -0.00000
  in kB      -7.62250    -7.62250     3.61562     0.00000    -0.00000    -0.00000

 VOLUME and BASIS-vectors are now :
  energy-cutoff  :      500.00
  volume of cell :     1091.97
      direct lattice vectors                 reciprocal lattice vectors
     7.696786404  0.000000000  0.000000000     0.129924354 -0.075011849  0.000000000
     3.848392758  6.665612809  0.000000000     0.000000000  0.150023716  0.000000000
     0.000000000  0.000000000 21.284399033     0.000000000  0.000000000  0.046982769

  length of vectors
     7.696786404  7.696786404 21.284399033     0.150023716  0.150023716  0.046982769

 FORCES acting on ions
    electron-ion (+dipol)            ewald-force                    non-local-force                 convergence-correction
   -.416E-04 0.179E-06 0.345E+04   0.581E-04 -.432E-05 -.345E+04   0.733E-18 0.223E-17 -.264E+01   -.400E-03 -.198E-03 0.111E+00
   -.804E+00 -.282E+00 0.345E+04   0.276E+00 0.488E-01 -.345E+04   0.211E+00 0.245E+00 -.180E+01   0.313E+00 0.299E-03 0.364E-01
   0.804E+00 -.282E+00 0.345E+04   -.276E+00 0.487E-01 -.345E+04   -.211E+00 0.245E+00 -.180E+01   -.312E+00 0.273E-02 0.374E-01
   -.646E+00 -.556E+00 0.345E+04   0.180E+00 0.215E+00 -.345E+04   0.318E+00 0.598E-01 -.180E+01   0.157E+00 0.271E+00 0.364E-01
   -.612E-04 -.326E-05 0.345E+04   0.116E-03 -.101E-04 -.345E+04   0.377E-17 0.566E-17 -.111E+01   0.121E-01 0.741E-02 0.206E+00
   0.646E+00 -.556E+00 0.345E+04   -.180E+00 0.215E+00 -.345E+04   -.318E+00 0.598E-01 -.180E+01   -.158E+00 0.272E+00 0.375E-01
   0.158E+00 0.837E+00 0.345E+04   -.960E-01 -.264E+00 -.345E+04   0.107E+00 -.305E+00 -.180E+01   -.154E+00 -.272E+00 0.376E-01
   -.158E+00 0.837E+00 0.345E+04   0.958E-01 -.264E+00 -.345E+04   -.107E+00 -.305E+00 -.180E+01   0.157E+00 -.273E+00 0.375E-01
   -.144E-03 -.328E-04 0.345E+04   0.263E-03 0.205E-04 -.345E+04   -.401E-17 -.477E-18 -.231E+01   -.131E-01 -.674E-02 -.134E+00
   0.110E+01 0.636E+00 0.113E+04   -.663E+00 -.383E+00 -.113E+04   -.559E+00 -.323E+00 -.114E+01   0.829E-01 0.478E-01 0.943E+00
   -.915E-04 -.120E+01 0.112E+04   0.190E-03 0.671E+00 -.112E+04   -.227E-07 0.340E+00 -.483E-01   0.123E-01 0.156E+00 0.100E+01
   -.110E+01 0.636E+00 0.113E+04   0.663E+00 -.383E+00 -.113E+04   0.559E+00 -.323E+00 -.114E+01   -.848E-01 0.485E-01 0.944E+00
   -.104E+01 0.601E+00 0.112E+04   0.581E+00 -.336E+00 -.112E+04   0.295E+00 -.170E+00 -.483E-01   0.142E+00 -.667E-01 0.100E+01
   0.104E+01 0.601E+00 0.112E+04   -.581E+00 -.336E+00 -.112E+04   -.295E+00 -.170E+00 -.483E-01   -.119E+00 -.688E-01 0.999E+00
   -.142E-03 -.941E+00 0.113E+04   0.298E-03 0.583E+00 -.113E+04   -.148E-07 0.223E+00 -.104E+01   -.323E-02 0.116E+00 0.893E+00
   -.922E-04 -.127E+01 0.113E+04   0.186E-03 0.766E+00 -.113E+04   -.430E-07 0.645E+00 -.114E+01   -.131E-02 -.989E-01 0.943E+00
   -.815E+00 0.470E+00 0.113E+04   0.505E+00 -.291E+00 -.113E+04   0.193E+00 -.111E+00 -.104E+01   0.992E-01 -.606E-01 0.893E+00
   0.815E+00 0.470E+00 0.113E+04   -.505E+00 -.291E+00 -.113E+04   -.193E+00 -.111E+00 -.104E+01   -.972E-01 -.578E-01 0.896E+00
   -.593E-04 -.444E+01 -.121E+04   0.712E-04 0.420E+01 0.121E+04   -.371E-08 0.558E-01 0.104E+01   -.109E-01 0.139E+00 0.158E+01
   -.396E+02 -.229E+02 -.123E+04   0.404E+02 0.233E+02 0.123E+04   -.133E+01 -.767E+00 -.118E+01   0.346E+00 0.200E+00 0.203E+01
   0.396E+02 -.229E+02 -.123E+04   -.404E+02 0.233E+02 0.123E+04   0.133E+01 -.767E+00 -.118E+01   -.365E+00 0.196E+00 0.203E+01
   -.260E+02 0.150E+02 -.122E+04   0.250E+02 -.144E+02 0.122E+04   0.744E+00 -.430E+00 0.625E+00   0.268E+00 -.139E+00 0.148E+01
   -.902E-04 0.458E+02 -.123E+04   0.147E-03 -.467E+02 0.123E+04   -.102E-06 0.153E+01 -.118E+01   -.139E-01 -.416E+00 0.202E+01
   0.260E+02 0.150E+02 -.122E+04   -.250E+02 -.144E+02 0.122E+04   -.744E+00 -.430E+00 0.625E+00   -.244E+00 -.142E+00 0.148E+01
   0.384E+01 0.222E+01 -.121E+04   -.364E+01 -.210E+01 0.121E+04   -.483E-01 -.279E-01 0.104E+01   -.139E+00 -.801E-01 0.158E+01
   -.384E+01 0.222E+01 -.121E+04   0.364E+01 -.210E+01 0.121E+04   0.483E-01 -.279E-01 0.104E+01   0.116E+00 -.789E-01 0.158E+01
   -.113E-03 -.300E+02 -.122E+04   0.240E-03 0.289E+02 0.122E+04   -.572E-07 0.859E+00 0.625E+00   0.132E-01 0.302E+00 0.148E+01
   -.502E-04 0.893E-05 -.345E+04   0.428E-04 -.317E-04 0.345E+04   -.748E-17 -.301E-17 0.212E+01   -.473E-03 -.220E-03 0.709E+00
   -.367E+02 -.594E+02 -.347E+04   0.371E+02 0.597E+02 0.347E+04   -.775E+00 -.988E+00 0.104E+01   0.449E+00 0.703E+00 0.682E+00
   0.367E+02 -.594E+02 -.347E+04   -.371E+02 0.597E+02 0.347E+04   0.775E+00 -.988E+00 0.104E+01   -.448E+00 0.704E+00 0.680E+00
   -.698E+02 -.208E+01 -.347E+04   0.702E+02 0.224E+01 0.347E+04   -.124E+01 -.177E+00 0.104E+01   0.834E+00 0.368E-01 0.682E+00
   0.698E+02 -.208E+01 -.347E+04   -.702E+02 0.224E+01 0.347E+04   0.124E+01 -.177E+00 0.104E+01   -.833E+00 0.370E-01 0.682E+00
   -.331E+02 0.615E+02 -.347E+04   0.332E+02 -.620E+02 0.347E+04   -.468E+00 0.117E+01 0.104E+01   0.386E+00 -.740E+00 0.680E+00
   0.331E+02 0.615E+02 -.347E+04   -.332E+02 -.620E+02 0.347E+04   0.468E+00 0.117E+01 0.104E+01   -.384E+00 -.740E+00 0.682E+00
   -.148E-03 -.294E-04 -.346E+04   0.248E-03 0.288E-05 0.346E+04   -.359E-17 -.387E-17 0.273E+01   -.121E-01 -.617E-02 0.937E+00
   -.431E-04 -.130E-04 -.213E+04   0.892E-04 0.167E-04 0.213E+04   -.194E-17 -.152E-17 -.221E+01   0.591E-03 0.351E-03 0.596E+00
   0.402E-05 -.528E-05 -.368E+03   0.352E-05 0.152E-05 0.371E+03   -.663E-18 -.185E-18 -.241E+01   0.681E-04 0.395E-04 -.171E+00
   -.209E-03 0.236E-04 -.148E+02   0.223E-12 0.975E-13 0.202E-10   -.173E-15 -.450E-15 -.156E+02   -.596E-02 -.653E-02 0.304E+02

 POSITION                                       TOTAL-FORCE (eV/Angst)
      0.00000      0.00000      5.37156        -0.000000      0.000000     -0.071264
      2.56560      0.00000      5.37156        -0.003981      0.013557      0.057907
      5.13119      0.00000      5.37156         0.003981      0.013557      0.057907
      1.28280      2.22187      5.37156         0.009751     -0.010226      0.057907
      3.84839      2.22187      5.37156        -0.000000      0.000000      0.018317
      6.41399      2.22187      5.37156        -0.009751     -0.010226      0.057907
      2.56560      4.44374      5.37156         0.013732     -0.003331      0.057907
      5.13119      4.44374      5.37156        -0.013732     -0.003331      0.057907
      7.69679      4.44374      5.37156        -0.000000     -0.000000      0.019770
      1.28280      0.74062      7.46636        -0.036168     -0.020881     -0.074744
      3.84839      0.74062      7.46636         0.000000     -0.039975     -0.048135
      6.41399      0.74062      7.46636         0.036168     -0.020881     -0.074744
      2.56560      2.96249      7.46636        -0.034619      0.019987     -0.048135
      5.13119      2.96249      7.46636         0.034619      0.019987     -0.048135
      7.69679      2.96249      7.46636         0.000000     -0.019880     -0.009454
      3.84839      5.18437      7.46636        -0.000000      0.041763     -0.074744
      6.41399      5.18437      7.46636        -0.017216      0.009940     -0.009454
      8.97958      5.18437      7.46636         0.017216      0.009940     -0.009454
      7.69679      1.48486      9.56345         0.000000     -0.030457      0.017088
      2.55359      1.47432      9.53212        -0.172033     -0.099324     -0.193287
      5.14319      1.47432      9.53212         0.172033     -0.099324     -0.193287
      8.97343      3.70667      9.56919         0.050658     -0.029248     -0.008542
      3.84839      3.71698      9.53212        -0.000000      0.198647     -0.193287
      6.42014      3.70667      9.56919        -0.050658     -0.029248     -0.008542
     10.25925      5.92318      9.56345         0.026377      0.015229      0.017088
      5.13432      5.92318      9.56345        -0.026377      0.015229      0.017088
      7.69679      5.91789      9.56919        -0.000000      0.058495     -0.008542
      0.00000      0.00000     11.65394        -0.000000      0.000000      0.015484
      2.56263      0.00314     11.68588         0.011545     -0.010170     -0.002994
      5.13415      0.00314     11.68588        -0.011545     -0.010170     -0.002994
      1.28404      2.21774     11.68588        -0.003035      0.015083     -0.002994
      6.41275      2.21774     11.68588         0.003035      0.015083     -0.002994
      2.56979      4.44474     11.68588        -0.014579     -0.004913     -0.002994
      5.12699      4.44474     11.68588         0.014579     -0.004913     -0.002994
      7.69679      4.44374     11.65455        -0.000000     -0.000000      0.031498
      3.84839      2.22187     11.57229        -0.000000      0.000000      0.574447
      3.84839      2.22187     13.25533        -0.000000      0.000000      0.033494
    total drift:                               -0.006167     -0.006508     -0.053670

  FREE ENERGIE OF THE ION-ELECTRON SYSTEM (eV)
  free  energy   TOTEN  =      -135.83830636 eV

  energy  without entropy=     -135.83830636  energy(sigma->0) =     -135.83830636

 stress matrix after NEB project (eV)
     -5.19514      0.00000     -0.00000
      0.00000     -5.19514     -0.00000
     -0.00000     -0.00000      2.46424
  FORCES: max atom, RMS     0.033494    0.005506
  FORCE total and by dimension    0.033494    0.033494
  Stress total and by dimension    7.749293    5.195145
|           W    W    AA    RRRRR   N    N  II  N    N   GGGG   !!!           |
|           W    W   A  A   R    R  NN   N  II  NN   N  G    G  !!!           |
|           W    W  A    A  R    R  N N  N  II  N N  N  G       !!!           |
|           W WW W  AAAAAA  RRRRR   N  N N  II  N  N N  G  GGG   !            |
|           WW  WW  A    A  R   R   N   NN  II  N   NN  G    G                |
|           W    W  A    A  R    R  N    N  II  N    N   GGGG   !!!           |
|     Tetrahedron method does not include variations of the Fermi             |
|     occupations, so forces and stress will be inaccurate. We suggest        |
|     using a different smearing scheme ISMEAR = 1 or 2 for metals in         |
|     relaxations.                                                            |

 total charge

# of ion       s       p       d       tot
    1        0.451   0.283   9.192   9.926
    2        0.447   0.286   9.188   9.921
    3        0.447   0.286   9.188   9.921
    4        0.447   0.286   9.188   9.921
    5        0.451   0.284   9.181   9.917
    6        0.447   0.286   9.188   9.921
    7        0.447   0.286   9.188   9.921
    8        0.447   0.286   9.188   9.921
    9        0.448   0.282   9.192   9.922
   10        0.445   0.373   9.175   9.992
   11        0.444   0.366   9.185   9.996
   12        0.445   0.373   9.175   9.992
   13        0.444   0.366   9.185   9.996
   14        0.444   0.366   9.185   9.996
   15        0.439   0.369   9.179   9.986
   16        0.445   0.373   9.175   9.992
   17        0.439   0.369   9.179   9.986
   18        0.439   0.369   9.179   9.986
   19        0.439   0.366   9.183   9.988
   20        0.471   0.401   9.161  10.033
   21        0.471   0.401   9.161  10.033
   22        0.428   0.370   9.184   9.982
   23        0.471   0.401   9.161  10.033
   24        0.428   0.370   9.184   9.982
   25        0.439   0.366   9.183   9.988
   26        0.439   0.366   9.183   9.988
   27        0.428   0.370   9.184   9.982
   28        0.447   0.289   9.180   9.915
   29        0.465   0.311   9.163   9.939
   30        0.465   0.311   9.163   9.939
   31        0.465   0.311   9.163   9.939
   32        0.465   0.311   9.163   9.939
   33        0.465   0.311   9.163   9.939
   34        0.465   0.311   9.163   9.939
   35        0.439   0.290   9.185   9.914
   36        0.624   0.490   4.785   5.899
   37        0.522   0.015   0.000   0.537
tot         16.852  12.248 326.018 355.118

 BZINTS: Fermi energy:   -0.014660;  393.000000 electrons
         Band energy:-0.111859E+04;  BLOECHL correction:   -0.022387