 vasp.6.2.0 18Jan21 (build Jun 12 2021 23:27:24) complex

 executed on             LinuxIFC date 2022.05.26  19:39:36

 INCAR:
   ISMEAR = -5
   SIGMA = 0.1
   ISPIN = 1
   EDIFF = 1.d-5
   EDIFFG = -0.01
   NSW = 0
   NELM = 150
   ENCUT = 500
   ISIF = 2
   IBRION = 2
   LREAL = Auto
   ALGO = Fast
   ICHARG = 11
   LORBIT = 10
   LCHARG = .F.
   LWAVE = .F.

 POTCAR:    PAW_PBE Ag 02Apr2005
 POTCAR:    PAW_PBE Cr 06Sep2000
 POTCAR:    PAW_PBE O 08Apr2002
|           W    W    AA    RRRRR   N    N  II  N    N   GGGG   !!!           |
|           W    W   A  A   R    R  NN   N  II  NN   N  G    G  !!!           |
|           W    W  A    A  R    R  N N  N  II  N N  N  G       !!!           |
|           W WW W  AAAAAA  RRRRR   N  N N  II  N  N N  G  GGG   !            |
|           WW  WW  A    A  R   R   N   NN  II  N   NN  G    G                |
|           W    W  A    A  R    R  N    N  II  N    N   GGGG   !!!           |
|     For optimal performance we recommend to set                             |
|       NCORE = 2 up to number-of-cores-per-socket                            |
|     This setting can greatly improve the performance of VASP for DFT.       |
|     The default, NCORE=1 might be grossly inefficient on modern             |
|     multi-core architectures or massively parallel machines. Do your        |
|     Unfortunately you need to use the default for GW and RPA                |
|     calculations (for HF NCORE is supported but not extensively tested      |
|     yet).                                                                   |

 POTCAR:    PAW_PBE Ag 02Apr2005
   VRHFIN =Ag : s1 d10

   TITEL  = PAW_PBE Ag 02Apr2005
   POMASS =  107.868; ZVAL   =   11.000    mass and valenz
   ENMAX  =  249.844; ENMIN  =  187.383 eV

 POTCAR:    PAW_PBE Cr 06Sep2000
   VRHFIN =Cr : d5 s1

   TITEL  = PAW_PBE Cr 06Sep2000
   POMASS =   51.996; ZVAL   =    6.000    mass and valenz
   ENMAX  =  227.080; ENMIN  =  170.310 eV

 POTCAR:    PAW_PBE O 08Apr2002
   VRHFIN =O: s2p4

   TITEL  = PAW_PBE O 08Apr2002
   POMASS =   16.000; ZVAL   =    6.000    mass and valenz
   ENMAX  =  400.000; ENMIN  =  300.000 eV

 Optimization of the real space projectors (new method)

 maximal supplied QI-value         = 15.12
 optimisation between [QCUT,QGAM] = [ 11.34, 22.83] = [ 36.00,145.93] Ry
 Optimized for a Real-space Cutoff    1.43 Angstroem

   l    n(q)    QCUT    max X(q) W(low)/X(q) W(high)/X(q)  e(spline)
   2      9    11.338    53.897    0.16E-03    0.20E-03    0.28E-06
   2      9    11.338    52.416    0.16E-03    0.20E-03    0.29E-06
   0     10    11.338   122.045    0.31E-04    0.76E-04    0.15E-06
   0     10    11.338    73.629    0.30E-04    0.72E-04    0.15E-06
   1      9    11.338    15.255    0.20E-03    0.19E-04    0.17E-06
   1      9    11.338     9.562    0.16E-03    0.15E-04    0.14E-06
 Optimization of the real space projectors (new method)

[...]

   l    n(q)    QCUT    max X(q) W(low)/X(q) W(high)/X(q)  e(spline)
   2      9    11.338    94.395    0.18E-03    0.10E-02    0.64E-06
   2      9    11.338    88.078    0.18E-03    0.10E-02    0.65E-06
   0     10    11.338    50.173    0.13E-03    0.16E-03    0.96E-07
   0     10    11.338    24.906    0.12E-03    0.14E-03    0.88E-07
   1      9    11.338    12.133    0.13E-03    0.15E-03    0.24E-06
   1      9    11.338     7.290    0.10E-03    0.10E-03    0.18E-06
 Optimization of the real space projectors (new method)

 maximal supplied QI-value         = 24.76
 optimisation between [QCUT,QGAM] = [ 11.39, 22.77] = [ 36.31,145.25] Ry
 Optimized for a Real-space Cutoff    1.00 Angstroem

   l    n(q)    QCUT    max X(q) W(low)/X(q) W(high)/X(q)  e(spline)
   0      7    11.387    20.381    0.39E-03    0.13E-02    0.15E-06
   0      7    11.387    15.268    0.42E-03    0.14E-02    0.17E-06
   1      6    11.387     5.964    0.41E-03    0.11E-02    0.17E-06
   1      6    11.387     5.382    0.39E-03    0.87E-03    0.15E-06
  PAW_PBE Ag 02Apr2005                  :
  PAW_PBE Cr 06Sep2000                  :
  PAW_PBE O 08Apr2002                   :

 POSCAR: Ag-Cr-O
  positions in direct lattice
  velocities in cartesian coordinates
 exchange correlation table for  LEXCH =        8
   RHO(1)=    0.500       N(1)  =     2000
   RHO(2)=  100.500       N(2)  =     4000

 VTST: version 3.2, (02/03/18)

 CHAIN: initializing optimizer

 OPT: Using VASP Conjugate-Gradient optimizer
 CHAIN: Read ICHAIN            0

 POSCAR: Ag-Cr-O
  positions in direct lattice
  velocities in cartesian coordinates

 ion  position               nearest neighbor table
   1  0.000  0.000  0.238-   2 2.93   8 2.93   7 2.93   6 2.93   4 2.93  12 2.93  16 2.93  10 2.93
                             3 2.93
   2  0.333  0.000  0.238-   1 2.93   8 2.93   9 2.93   3 2.93   4 2.93   5 2.93  10 2.93  17 2.93
                            11 2.93
   3  0.667  0.000  0.238-   9 2.93   2 2.93   5 2.93  11 2.93   7 2.93  18 2.93   1 2.93   6 2.93
                            12 2.93
   4  0.000  0.333  0.238-   5 2.93   6 2.93   2 2.93   1 2.93   7 2.93  13 2.93  15 2.93   9 2.93
                            10 2.93
   5  0.333  0.333  0.238-   4 2.93   3 2.93   7 2.93   2 2.93   8 2.93  14 2.93  13 2.93  11 2.93
                             6 2.93
   6  0.667  0.333  0.238-   4 2.93   9 2.93   1 2.93  15 2.93   8 2.93  12 2.93   3 2.93   5 2.93
                            14 2.93
   7  0.000  0.667  0.238-   8 2.93   1 2.93   5 2.93   3 2.93   4 2.93  16 2.93  18 2.93  13 2.93
                             9 2.93
   8  0.333  0.667  0.238-   7 2.93   1 2.93   2 2.93   9 2.93   5 2.93  16 2.93   6 2.93  17 2.93
                            14 2.93
   9  0.667  0.667  0.238-   3 2.93   2 2.93   8 2.93   6 2.93  17 2.93   4 2.93  15 2.93   7 2.93
                            18 2.93
  10  0.111  0.111  0.346-  20 2.91  19 2.92  26 2.92  12 2.93  16 2.93  15 2.93  17 2.93  13 2.93
                            11 2.93   2 2.93   1 2.93   4 2.93
  11  0.444  0.111  0.346-  21 2.90  20 2.90  27 2.92  14 2.93  17 2.93  18 2.93   3 2.93  12 2.93
                            13 2.93  10 2.93   5 2.93   2 2.93
  12  0.778  0.111  0.346-  21 2.91  25 2.92  19 2.92  10 2.93  16 2.93  18 2.93  15 2.93  11 2.93
                             1 2.93  14 2.93   6 2.93   3 2.93
  13  0.111  0.444  0.346-  20 2.90  23 2.90  22 2.92  15 2.93  14 2.93  18 2.93  10 2.93  11 2.93
                            16 2.93   4 2.93   5 2.93   7 2.93
  14  0.444  0.444  0.346-  23 2.90  21 2.90  24 2.92  13 2.93  11 2.93  16 2.93   5 2.93  12 2.93
                            17 2.93   8 2.93  15 2.93   6 2.93
  15  0.778  0.444  0.346-  24 2.92  22 2.92  19 2.92  13 2.93  10 2.93  12 2.93  17 2.93  18 2.93
                             4 2.93   6 2.93   9 2.93  14 2.93
  16  0.111  0.778  0.346-  23 2.91  26 2.92  25 2.92  18 2.93  12 2.93  10 2.93  14 2.93  17 2.93
                            13 2.93   7 2.93   8 2.93   1 2.93
  17  0.444  0.778  0.346-  27 2.92  24 2.92  26 2.92  11 2.93  10 2.93   9 2.93  18 2.93  15 2.93
                            16 2.93   2 2.93  14 2.93   8 2.93
  18  0.778  0.778  0.346-  22 2.92  27 2.92  25 2.92  16 2.93  12 2.93  13 2.93  11 2.93  17 2.93
                            15 2.93   7 2.93   3 2.93   9 2.93
  19  0.889  0.222  0.454-  28 2.91  15 2.92  10 2.92  12 2.92  24 2.93  22 2.93  26 2.93  25 2.93
                            20 2.94  21 2.94  32 2.96  31 2.96
  20  0.223  0.223  0.453-  36 2.73  13 2.90  11 2.90  21 2.91  23 2.91  10 2.91  31 2.91  29 2.91
                            27 2.93  22 2.93  19 2.94  26 2.94
  21  0.554  0.223  0.453-  36 2.73  11 2.90  14 2.90  20 2.91  23 2.91  12 2.91  30 2.91  32 2.91
                            27 2.93  24 2.93  25 2.94  19 2.94
  22  0.888  0.556  0.453-  35 2.91  18 2.92  15 2.92  13 2.92  24 2.92  27 2.92  25 2.93  19 2.93
                            33 2.93  31 2.93  23 2.93  20 2.93
  23  0.223  0.554  0.453-  36 2.73  14 2.90  13 2.90  21 2.91  20 2.91  16 2.91  34 2.91  33 2.91
                            22 2.93  24 2.93  26 2.94  25 2.94
  24  0.556  0.556  0.453-  35 2.91  15 2.92  17 2.92  14 2.92  27 2.92  22 2.92  19 2.93  26 2.93
                            32 2.93  34 2.93  23 2.93  21 2.93
  25  0.889  0.889  0.454-  28 2.91  18 2.92  16 2.92  12 2.92  22 2.93  27 2.93  26 2.93  19 2.93
                            23 2.94  21 2.94  33 2.96  30 2.96
  26  0.222  0.889  0.454-  28 2.91  17 2.92  16 2.92  10 2.92  27 2.93  24 2.93  25 2.93  19 2.93
                            23 2.94  20 2.94  34 2.96  29 2.96
  27  0.556  0.888  0.453-  35 2.91  17 2.92  18 2.92  11 2.92  24 2.92  22 2.92  26 2.93  25 2.93
                            29 2.93  30 2.93  20 2.93  21 2.93
  28  0.000  0.000  0.560-  26 2.91  25 2.91  19 2.91  29 2.96  34 2.96  33 2.96  32 2.96  31 2.96
                            30 2.96
  29  0.333  0.007  0.561-  30 2.87  31 2.87  36 2.88  20 2.91  27 2.93  26 2.96  35 2.96  28 2.96
                            34 3.06
  30  0.659  0.007  0.561-  29 2.87  32 2.87  36 2.88  21 2.91  27 2.93  25 2.96  35 2.96  28 2.96
                            33 3.06
  31  0.007  0.333  0.561-  33 2.87  29 2.87  36 2.88  20 2.91  22 2.93  19 2.96  35 2.96  28 2.96
                            32 3.06
  32  0.659  0.333  0.561-  34 2.87  30 2.87  36 2.88  21 2.91  24 2.93  19 2.96  35 2.96  28 2.96
                            31 3.06
  33  0.007  0.659  0.561-  31 2.87  34 2.87  36 2.88  23 2.91  22 2.93  25 2.96  35 2.96  28 2.96
                            30 3.06
  34  0.333  0.659  0.561-  32 2.87  33 2.87  36 2.88  23 2.91  24 2.93  26 2.96  35 2.96  28 2.96
                            29 3.06
  35  0.667  0.667  0.560-  24 2.91  27 2.91  22 2.91  30 2.96  32 2.96  29 2.96  34 2.96  31 2.96
                            33 2.96
  36  0.333  0.333  0.550-  37 1.61  21 2.73  20 2.73  23 2.73  31 2.88  33 2.88  30 2.88  29 2.88
                            34 2.88  32 2.88
  37  0.333  0.333  0.622-  36 1.61

  LATTYP: Found a hexagonal cell.
 ALAT       =     8.7913665772
 C/A-ratio  =     2.5227160501

  Lattice vectors:

 A1 = (  -4.3956832886,  -7.6135467898,   0.0000000000)
 A2 = (   8.7913665771,   0.0000000000,   0.0000000000)
 A3 = (   0.0000000000,   0.0000000000,  22.1781215668)

Analysis of symmetry for initial positions (statically):
 Subroutine PRICEL returns:
 Original cell was already a primitive cell.

 Routine SETGRP: Setting up the symmetry group for a
 hexagonal supercell.

 Subroutine GETGRP returns: Found  6 space group operations
 (whereof  6 operations were pure point group operations)
 out of a pool of 24 trial point group operations.

The static configuration has the point symmetry C_3v.

Analysis of symmetry for dynamics (positions and initial velocities):
 Subroutine PRICEL returns:
 Original cell was already a primitive cell.

[...]

The dynamic configuration has the point symmetry C_3v.

Analysis of constrained symmetry for selective dynamics:
 Subroutine PRICEL returns:
 Original cell was already a primitive cell.

 Routine SETGRP: Setting up the symmetry group for a
 hexagonal supercell.

 Subroutine GETGRP returns: Found  6 space group operations
[...]
     24      -4.6813      2.00000
     25      -4.6595      2.00000
     26      -4.6334      2.00000
     27      -4.6181      2.00000
     28      -4.5978      2.00000
     29      -4.5928      2.00000
     30      -4.5848      2.00000
     31      -4.5682      2.00000
     32      -4.5570      2.00000
     33      -4.5399      2.00000
     34      -4.4965      2.00000
     35      -4.4598      2.00000
     36      -4.4480      2.00000
     37      -4.4380      2.00000
     38      -4.4093      2.00000
     39      -4.3895      2.00000
     40      -4.3685      2.00000
     41      -4.3555      2.00000
     42      -4.3375      2.00000
     43      -4.3264      2.00000
     44      -4.2836      2.00000
     45      -4.2364      2.00000
     46      -4.2230      2.00000
     47      -4.2087      2.00000
     48      -4.2014      2.00000
     49      -4.1947      2.00000
     50      -4.1831      2.00000
     51      -4.1759      2.00000
     52      -4.1644      2.00000
     53      -4.1562      2.00000
     54      -4.1103      2.00000
     55      -4.1022      2.00000
     56      -4.0885      2.00000
     57      -4.0796      2.00000
     58      -4.0643      2.00000
     59      -4.0508      2.00000
     60      -4.0354      2.00000
[...]
    238       6.2634      0.00000
    239       6.3137      0.00000
    240       6.3645      0.00000
    241       7.0362      0.00000
    242       7.1720      0.00000
    243       7.1918      0.00000
    244       7.2217      0.00000
    245       7.2902      0.00000
    246       7.3894      0.00000
    247       7.4059      0.00000
    248       7.4763      0.00000
    249       7.5496      0.00000
    250       7.6050      0.00000
    251       7.6491      0.00000
    252       7.7178      0.00000

 soft charge-density along one line, spin component           1
         0         1         2         3         4         5         6         7         8         9
 total charge-density along one line

------------------------ aborting loop because EDIFF is reached ----------------------------------------

 total charge

# of ion       s       p       d       tot
    1        0.420   0.200   9.178   9.798
    2        0.416   0.204   9.176   9.796
    3        0.416   0.204   9.176   9.796
    4        0.416   0.204   9.176   9.796
    5        0.419   0.202   9.177   9.797
    6        0.416   0.204   9.176   9.796
    7        0.416   0.204   9.176   9.796
    8        0.416   0.204   9.176   9.796
    9        0.413   0.204   9.177   9.794
   10        0.407   0.269   9.165   9.840
   11        0.403   0.272   9.166   9.841
   12        0.407   0.269   9.165   9.840
   13        0.403   0.272   9.166   9.841
   14        0.403   0.272   9.166   9.841
   15        0.403   0.270   9.165   9.838
   16        0.407   0.269   9.165   9.840
   17        0.403   0.270   9.165   9.838
   18        0.403   0.270   9.165   9.838
   19        0.403   0.264   9.168   9.835
   20        0.432   0.298   9.141   9.871
   21        0.432   0.298   9.141   9.871
   22        0.395   0.276   9.164   9.835
   23        0.432   0.298   9.141   9.871
   24        0.395   0.276   9.164   9.835
   25        0.403   0.264   9.168   9.835
   26        0.403   0.264   9.168   9.835
   27        0.395   0.276   9.164   9.835
   28        0.418   0.194   9.177   9.789
   29        0.413   0.208   9.177   9.798
   30        0.413   0.208   9.177   9.798
   31        0.413   0.208   9.177   9.798
   32        0.413   0.208   9.177   9.798
   33        0.413   0.208   9.177   9.798
   34        0.413   0.208   9.177   9.798
   35        0.413   0.198   9.177   9.788
   36        0.499   0.615   4.536   5.650
   37        1.611   3.277   0.000   4.888
tot         16.498  12.304 325.449 354.250

  FORCE on cell =-STRESS in cart. coord.  units (eV):
  Direction    XX          YY          ZZ          XY          YZ          ZX
  Alpha Z   748.40451   748.40451   748.40451
  Ewald  120166.22048120166.22049************     0.00002    -0.00001     0.00003
  Hartree130403.58168130403.58168************     0.00001    -0.00000     0.00001
  E(xc)   -2084.61659 -2084.61658 -2090.06772    -0.00001     0.00000     0.00000
  Local  ************************261805.46692     0.00045    -0.00005    -0.00016
  n-local  -359.38521  -341.96453  -351.37141    10.58313    -0.44864     0.57295
  augment  3255.56813  3255.56831  3259.14925    -0.00016    -0.00000     0.00002
  Kinetic  4949.13240  4951.33256  4958.06906     3.88182     0.92696    -0.48575
  Fock        0.00000     0.00000     0.00000     0.00000     0.00000     0.00000
  Total      -7.74909    -7.74909    -0.83717    -0.00000     0.00000     0.00000
  in kB      -8.36359    -8.36359    -0.90356    -0.00000     0.00000     0.00000

 VOLUME and BASIS-vectors are now :
  energy-cutoff  :      500.00
  volume of cell :     1484.46
      direct lattice vectors                 reciprocal lattice vectors
     8.791366577  0.000000000  0.000000000     0.113747958 -0.065672414  0.000000000
     4.395683289  7.613546790  0.000000000     0.000000000  0.131344829  0.000000000
     0.000000000  0.000000000 22.178121567     0.000000000  0.000000000  0.045089481

  length of vectors
     8.791366577  8.791366577 22.178121567     0.131344829  0.131344829  0.045089481

 FORCES acting on ions
    electron-ion (+dipol)            ewald-force                    non-local-force                 convergence-correction
   0.459E-04 -.282E-04 0.250E+04   -.954E-04 0.593E-04 -.250E+04   0.469E-18 0.633E-18 -.187E+01   -.120E-03 -.176E-03 -.228E+00
   0.253E+00 0.243E+00 0.250E+04   -.260E+00 -.250E+00 -.250E+04   0.108E-01 0.714E-01 -.165E+01   0.942E-03 -.560E-01 -.241E+00
   -.253E+00 0.243E+00 0.250E+04   0.261E+00 -.250E+00 -.250E+04   -.108E-01 0.714E-01 -.165E+01   -.148E-02 -.542E-01 -.240E+00
   0.337E+00 0.978E-01 0.250E+04   -.346E+00 -.101E+00 -.250E+04   0.672E-01 -.263E-01 -.165E+01   -.478E-01 0.290E-01 -.241E+00
   -.577E-05 -.187E-04 0.250E+04   0.981E-04 -.200E-05 -.250E+04   -.247E-17 0.124E-17 -.155E+01   0.616E-02 0.377E-02 -.155E+00
   -.337E+00 0.978E-01 0.250E+04   0.346E+00 -.101E+00 -.250E+04   -.672E-01 -.263E-01 -.165E+01   0.465E-01 0.299E-01 -.240E+00
   0.837E-01 -.341E+00 0.250E+04   -.860E-01 0.350E+00 -.250E+04   0.564E-01 -.450E-01 -.165E+01   -.472E-01 0.264E-01 -.240E+00
   -.836E-01 -.341E+00 0.250E+04   0.860E-01 0.350E+00 -.250E+04   -.564E-01 -.450E-01 -.165E+01   0.488E-01 0.254E-01 -.240E+00
   0.361E-04 -.131E-04 0.250E+04   0.792E-04 -.643E-04 -.250E+04   -.262E-17 0.192E-17 -.174E+01   -.657E-02 -.338E-02 -.238E+00
   0.265E+01 0.153E+01 0.840E+03   -.230E+01 -.133E+01 -.839E+03   -.319E+00 -.184E+00 -.637E+00   -.258E-01 -.149E-01 -.538E-01
   -.288E-04 0.270E+01 0.844E+03   0.412E-04 -.298E+01 -.843E+03   0.120E-11 0.182E+00 -.484E+00   0.638E-02 0.615E-01 -.571E-01
   -.265E+01 0.153E+01 0.840E+03   0.230E+01 -.133E+01 -.839E+03   0.319E+00 -.184E+00 -.637E+00   0.243E-01 -.145E-01 -.545E-01
   0.233E+01 -.135E+01 0.844E+03   -.259E+01 0.149E+01 -.843E+03   0.158E+00 -.912E-01 -.484E+00   0.563E-01 -.252E-01 -.571E-01
   -.233E+01 -.135E+01 0.844E+03   0.259E+01 0.149E+01 -.843E+03   -.158E+00 -.912E-01 -.484E+00   -.463E-01 -.265E-01 -.595E-01
   0.157E-04 0.741E+00 0.841E+03   -.108E-03 -.859E+00 -.840E+03   0.302E-12 0.460E-01 -.657E+00   -.117E-02 0.499E-01 -.444E-01
   -.798E-05 -.305E+01 0.840E+03   0.207E-04 0.266E+01 -.839E+03   0.242E-11 0.368E+00 -.637E+00   -.454E-03 0.283E-01 -.545E-01
   0.642E+00 -.371E+00 0.841E+03   -.744E+00 0.429E+00 -.840E+03   0.398E-01 -.230E-01 -.657E+00   0.426E-01 -.260E-01 -.444E-01
   -.642E+00 -.371E+00 0.841E+03   0.744E+00 0.429E+00 -.840E+03   -.398E-01 -.230E-01 -.657E+00   -.421E-01 -.243E-01 -.427E-01
   0.397E-04 -.997E+00 -.845E+03   -.127E-03 0.105E+01 0.844E+03   0.107E-12 0.162E-01 0.803E+00   0.941E-03 -.621E-01 0.361E+00
   0.205E+01 0.119E+01 -.832E+03   -.122E+01 -.705E+00 0.833E+03   -.980E+00 -.566E+00 -.586E+00   0.394E-01 0.228E-01 0.345E+00
   -.205E+01 0.119E+01 -.832E+03   0.122E+01 -.705E+00 0.833E+03   0.980E+00 -.566E+00 -.586E+00   -.505E-01 0.208E-01 0.345E+00
   0.255E+00 -.148E+00 -.838E+03   -.399E+00 0.231E+00 0.837E+03   0.230E+00 -.133E+00 0.619E+00   -.428E-01 0.322E-01 0.233E+00
   -.553E-04 -.237E+01 -.832E+03   0.410E-04 0.141E+01 0.833E+03   0.743E-11 0.113E+01 -.586E+00   -.688E-02 -.534E-01 0.345E+00
   -.256E+00 -.147E+00 -.838E+03   0.399E+00 0.230E+00 0.837E+03   -.230E+00 -.133E+00 0.619E+00   0.552E-01 0.320E-01 0.233E+00
   0.864E+00 0.499E+00 -.845E+03   -.906E+00 -.523E+00 0.844E+03   -.141E-01 -.812E-02 0.803E+00   0.522E-01 0.300E-01 0.361E+00
   -.864E+00 0.499E+00 -.845E+03   0.906E+00 -.523E+00 0.844E+03   0.141E-01 -.812E-02 0.803E+00   -.536E-01 0.317E-01 0.361E+00
   0.207E-04 0.295E+00 -.838E+03   0.110E-03 -.461E+00 0.837E+03   0.174E-11 0.266E+00 0.619E+00   0.576E-02 -.532E-01 0.233E+00
   0.541E-04 -.366E-04 -.248E+04   -.114E-03 0.775E-04 0.248E+04   0.116E-17 0.604E-17 0.183E+01   0.407E-04 -.111E-03 0.328E+00
   0.171E+02 0.267E+02 -.247E+04   -.166E+02 -.262E+02 0.246E+04   -.490E+00 -.592E+00 0.232E+01   -.107E+00 -.454E-01 0.297E+00
   -.171E+02 0.267E+02 -.247E+04   0.166E+02 -.262E+02 0.246E+04   0.490E+00 -.592E+00 0.232E+01   0.106E+00 -.446E-01 0.297E+00
   0.316E+02 0.142E+01 -.247E+04   -.310E+02 -.123E+01 0.246E+04   -.758E+00 -.128E+00 0.232E+01   -.925E-01 -.696E-01 0.297E+00
   -.316E+02 0.142E+01 -.247E+04   0.310E+02 -.123E+01 0.246E+04   0.758E+00 -.128E+00 0.232E+01   0.923E-01 -.690E-01 0.299E+00
   0.146E+02 -.281E+02 -.247E+04   -.144E+02 0.275E+02 0.246E+04   -.268E+00 0.720E+00 0.232E+01   0.148E-01 0.115E+00 0.297E+00
   -.146E+02 -.281E+02 -.247E+04   0.144E+02 0.275E+02 0.246E+04   0.268E+00 0.720E+00 0.232E+01   -.140E-01 0.115E+00 0.298E+00
   0.233E-04 -.128E-04 -.248E+04   0.106E-03 -.657E-04 0.248E+04   -.959E-18 -.149E-19 0.193E+01   -.604E-02 -.306E-02 0.294E+00
   -.146E-04 -.750E-05 -.112E+04   0.576E-04 0.774E-05 0.112E+04   -.764E-18 -.175E-17 -.447E+00   0.146E-02 0.901E-03 0.446E-01
   0.177E-03 -.969E-04 -.164E+04   0.328E-04 0.566E-06 0.166E+04   0.204E-17 -.455E-18 -.281E+02   0.343E-02 0.211E-02 -.739E-01
   0.541E-03 -.781E-03 0.261E+02   -.125E-12 -.390E-13 -.136E-11   0.333E-15 -.113E-15 -.288E+02   0.117E-01 0.101E-01 0.266E+01

 POSITION                                       TOTAL-FORCE (eV/Angst)
      0.00000      0.00000      5.28219        -0.000000     -0.000000     -0.012954
      2.93046      0.00000      5.28219         0.005045      0.009408      0.042739
      5.86091      0.00000      5.28219        -0.005045      0.009408      0.042739
      1.46523      2.53785      5.28219         0.010670     -0.000335      0.042739
      4.39568      2.53785      5.28219        -0.000000     -0.000000      0.008357
      7.32614      2.53785      5.28219        -0.010670     -0.000335      0.042739
      2.93046      5.07570      5.28219         0.005625     -0.009073      0.042739
      5.86091      5.07570      5.28219        -0.005625     -0.009073      0.042739
      8.79137      5.07570      5.28219        -0.000000     -0.000000      0.033082
      1.46523      0.84595      7.67490         0.000893      0.000516     -0.008077
      4.39568      0.84595      7.67490        -0.000000     -0.047723     -0.038960
      7.32614      0.84595      7.67490        -0.000893      0.000516     -0.008077
      2.93046      3.38380      7.67490        -0.041330      0.023862     -0.038960
      5.86091      3.38380      7.67490         0.041330      0.023862     -0.038960
      8.79137      3.38380      7.67490        -0.000000     -0.021711      0.018220
      4.39568      5.92165      7.67490        -0.000000     -0.001032     -0.008077
      7.32614      5.92165      7.67490        -0.018802      0.010855      0.018220
     10.25659      5.92165      7.67490         0.018802      0.010855      0.018220
      8.79137      1.69374     10.05841         0.000000      0.004045      0.018496
      2.93927      1.69699     10.03909        -0.102892     -0.059405     -0.075104
      5.85210      1.69699     10.03909         0.102892     -0.059405     -0.075104
     10.25385      4.23133     10.05420         0.037030     -0.021380      0.021919
      4.39568      4.21957     10.03909         0.000000      0.118809     -0.075104
      7.32888      4.23133     10.05420        -0.037030     -0.021380      0.021919
     11.72023      6.76668     10.05841        -0.003503     -0.002022      0.018496
      5.86251      6.76668     10.05841         0.003503     -0.002022      0.018496
      8.79137      6.76443     10.05420         0.000000      0.042759      0.021919
      0.00000      0.00000     12.42643        -0.000000     -0.000000     -0.001757
      2.96234      0.05459     12.44639        -0.105131     -0.174514     -0.167608
      5.82903      0.05459     12.44639         0.105131     -0.174514     -0.167608
      1.52844      2.53816     12.44639        -0.203699     -0.003790     -0.167608
      7.26292      2.53816     12.44639         0.203699     -0.003790     -0.167608
      2.96179      5.02079     12.44639        -0.098567      0.178303     -0.167608
      5.82958      5.02079     12.44639         0.098567      0.178303     -0.167608
      8.79137      5.07570     12.42906        -0.000000      0.000000      0.003480
      4.39568      2.53785     12.18689        -0.000000      0.000000      0.922953
      4.39568      2.53785     13.79337        -0.000000     -0.000000     -0.013429
    total drift:                                0.012203      0.009290     -0.070113

  FREE ENERGIE OF THE ION-ELECTRON SYSTEM (eV)
  free  energy   TOTEN  =      -103.65121830 eV

  energy  without entropy=     -103.65121830  energy(sigma->0) =     -103.65121830

 stress matrix after NEB project (eV)
     -7.74909     -0.00000      0.00000
     -0.00000     -7.74909     -0.00000
     -0.00000      0.00000     -0.83717
  FORCES: max atom, RMS     0.013429    0.002208
  FORCE total and by dimension    0.013429    0.013429
  Stress total and by dimension   10.990793    7.749086
|           W    W    AA    RRRRR   N    N  II  N    N   GGGG   !!!           |
|           W    W   A  A   R    R  NN   N  II  NN   N  G    G  !!!           |
|           W    W  A    A  R    R  N N  N  II  N N  N  G       !!!           |
|           W WW W  AAAAAA  RRRRR   N  N N  II  N  N N  G  GGG   !            |
|           WW  WW  A    A  R   R   N   NN  II  N   NN  G    G                |
|           W    W  A    A  R    R  N    N  II  N    N   GGGG   !!!           |
|     Tetrahedron method does not include variations of the Fermi             |
|     occupations, so forces and stress will be inaccurate. We suggest        |
|     using a different smearing scheme ISMEAR = 1 or 2 for metals in         |
|     relaxations.                                                            |

 total charge

# of ion       s       p       d       tot
    1        0.420   0.200   9.178   9.798
    2        0.416   0.204   9.176   9.796
    3        0.416   0.204   9.176   9.796
    4        0.416   0.204   9.176   9.796
    5        0.419   0.202   9.177   9.797
    6        0.416   0.204   9.176   9.796
    7        0.416   0.204   9.176   9.796
    8        0.416   0.204   9.176   9.796
    9        0.413   0.204   9.177   9.794
   10        0.407   0.269   9.165   9.840
   11        0.403   0.272   9.166   9.841
   12        0.407   0.269   9.165   9.840
   13        0.403   0.272   9.166   9.841
   14        0.403   0.272   9.166   9.841
   15        0.403   0.270   9.165   9.838
   16        0.407   0.269   9.165   9.840
   17        0.403   0.270   9.165   9.838
   18        0.403   0.270   9.165   9.838
   19        0.403   0.264   9.168   9.835
   20        0.432   0.298   9.141   9.871
   21        0.432   0.298   9.141   9.871
   22        0.395   0.276   9.164   9.835
   23        0.432   0.298   9.141   9.871
   24        0.395   0.276   9.164   9.835
   25        0.403   0.264   9.168   9.835
   26        0.403   0.264   9.168   9.835
   27        0.395   0.276   9.164   9.835
   28        0.418   0.194   9.177   9.789
   29        0.413   0.208   9.177   9.798
   30        0.413   0.208   9.177   9.798
   31        0.413   0.208   9.177   9.798
   32        0.413   0.208   9.177   9.798
   33        0.413   0.208   9.177   9.798
   34        0.413   0.208   9.177   9.798
   35        0.413   0.198   9.177   9.788
   36        0.499   0.615   4.536   5.650
   37        1.611   3.277   0.000   4.888
tot         16.498  12.304 325.449 354.250

 BZINTS: Fermi energy:    0.780734;  397.000000 electrons
         Band energy:-0.133156E+04;  BLOECHL correction:   -0.029293