 vasp.6.2.0 18Jan21 (build Jun 12 2021 23:27:24) complex

 executed on             LinuxIFC date 2022.05.26  20:16:56

 INCAR:
   ISMEAR = -5
   SIGMA = 0.1
   ISPIN = 1
   EDIFF = 1.d-5
   EDIFFG = -0.01
   NSW = 0
   NELM = 150
   ENCUT = 500
   ISIF = 2
   IBRION = 2
   LREAL = Auto
   ALGO = Fast
   ICHARG = 11
   LORBIT = 10
   LCHARG = .F.
   LWAVE = .F.

 POTCAR:    PAW_PBE Au 04Oct2007
 POTCAR:    PAW_PBE Ir 06Sep2000
|           W    W    AA    RRRRR   N    N  II  N    N   GGGG   !!!           |
|           W    W   A  A   R    R  NN   N  II  NN   N  G    G  !!!           |
|           W    W  A    A  R    R  N N  N  II  N N  N  G       !!!           |
|           W WW W  AAAAAA  RRRRR   N  N N  II  N  N N  G  GGG   !            |
|           WW  WW  A    A  R   R   N   NN  II  N   NN  G    G                |
|           W    W  A    A  R    R  N    N  II  N    N   GGGG   !!!           |
|     For optimal performance we recommend to set                             |
|       NCORE = 2 up to number-of-cores-per-socket                            |
|     This setting can greatly improve the performance of VASP for DFT.       |
|     The default, NCORE=1 might be grossly inefficient on modern             |
|     multi-core architectures or massively parallel machines. Do your        |
|     Unfortunately you need to use the default for GW and RPA                |
|     calculations (for HF NCORE is supported but not extensively tested      |
|     yet).                                                                   |

 POTCAR:    PAW_PBE Au 04Oct2007
   VRHFIN =Au: s1d10

   TITEL  = PAW_PBE Au 04Oct2007
   POMASS =  196.966; ZVAL   =   11.000    mass and valenz
   ENMAX  =  229.943; ENMIN  =  172.457 eV

 POTCAR:    PAW_PBE Ir 06Sep2000
   VRHFIN =Ir: s1d8

   TITEL  = PAW_PBE Ir 06Sep2000
   POMASS =  192.220; ZVAL   =    9.000    mass and valenz
   ENMAX  =  210.864; ENMIN  =  158.148 eV

 Optimization of the real space projectors (new method)

 maximal supplied QI-value         = 15.12
 optimisation between [QCUT,QGAM] = [ 11.34, 22.83] = [ 36.00,145.93] Ry
 Optimized for a Real-space Cutoff    1.39 Angstroem

   l    n(q)    QCUT    max X(q) W(low)/X(q) W(high)/X(q)  e(spline)
   2      9    11.338    60.898    0.39E-03    0.42E-03    0.21E-06
   2      9    11.338    58.894    0.40E-03    0.42E-03    0.22E-06
   0      9    11.338   109.617    0.13E-03    0.20E-04    0.13E-06
   0      9    11.338    75.026    0.13E-03    0.20E-04    0.13E-06
   1      9    11.338    16.344    0.33E-04    0.24E-03    0.18E-06
   1      9    11.338    10.160    0.26E-04    0.19E-03    0.15E-06
 Optimization of the real space projectors (new method)

 maximal supplied QI-value         = 14.36
 optimisation between [QCUT,QGAM] = [ 11.35, 22.84] = [ 36.05,146.02] Ry
 Optimized for a Real-space Cutoff    1.52 Angstroem

   l    n(q)    QCUT    max X(q) W(low)/X(q) W(high)/X(q)  e(spline)
   2      9    11.346   134.116    0.47E-03    0.13E-03    0.92E-06
   2      9    11.346   130.192    0.47E-03    0.13E-03    0.92E-06
   0     10    11.346    60.310    0.74E-04    0.13E-03    0.69E-06
   0     10    11.346    39.218    0.68E-04    0.12E-03    0.65E-06
   1     10    11.346    18.439    0.15E-03    0.34E-04    0.20E-06
   1     10    11.346    12.760    0.12E-03    0.31E-04    0.16E-06
  PAW_PBE Au 04Oct2007                  :
  PAW_PBE Ir 06Sep2000                  :

 POSCAR: Au-Ir
  positions in direct lattice
  velocities in cartesian coordinates
 exchange correlation table for  LEXCH =        8
   RHO(1)=    0.500       N(1)  =     2000
   RHO(2)=  100.500       N(2)  =     4000

 VTST: version 3.2, (02/03/18)

 CHAIN: initializing optimizer

 OPT: Using VASP Conjugate-Gradient optimizer
 CHAIN: Read ICHAIN            0

 POSCAR: Au-Ir
  positions in direct lattice
  velocities in cartesian coordinates

 ion  position               nearest neighbor table
   1  0.000  0.000  0.238-  16 2.94  12 2.94   6 2.94   8 2.94   7 2.94   3 2.94  10 2.94   4 2.94
                             2 2.94
   2  0.333  0.000  0.238-   9 2.94  11 2.94  17 2.94  10 2.94   8 2.94   4 2.94   5 2.94   1 2.94
                             3 2.94
   3  0.667  0.000  0.238-   7 2.94  18 2.94  12 2.94   1 2.94  11 2.94   5 2.94   6 2.94   9 2.94
                             2 2.94
   4  0.000  0.333  0.238-  10 2.94   6 2.94   5 2.94  13 2.94   2 2.94  15 2.94   9 2.94   1 2.94
                             7 2.94
   5  0.333  0.333  0.238-  13 2.94   7 2.94  11 2.94   4 2.94   2 2.94  14 2.94   3 2.94   8 2.94
                             6 2.94
   6  0.667  0.333  0.238-  15 2.94  14 2.94   1 2.94  12 2.94   4 2.94   9 2.94   8 2.94   3 2.94
                             5 2.94
   7  0.000  0.667  0.238-  18 2.94   3 2.94  16 2.94   5 2.94   1 2.94  13 2.94   8 2.94   4 2.94
                             9 2.94
   8  0.333  0.667  0.238-   9 2.94  17 2.94   1 2.94   2 2.94  14 2.94  16 2.94   6 2.94   7 2.94
                             5 2.94
   9  0.667  0.667  0.238-   2 2.94   8 2.94  17 2.94   6 2.94  15 2.94   4 2.94   3 2.94  18 2.94
                             7 2.94
  10  0.111  0.111  0.346-  20 2.90  11 2.94  17 2.94   2 2.94   4 2.94   1 2.94  12 2.94  16 2.94
                            13 2.94  15 2.94  26 2.94  19 2.94
  11  0.444  0.111  0.346-  20 2.91  21 2.91  27 2.93  13 2.94   2 2.94  10 2.94  17 2.94   5 2.94
                             3 2.94  18 2.94  14 2.94  12 2.94
  12  0.778  0.111  0.346-  21 2.90  16 2.94  18 2.94   1 2.94  14 2.94  15 2.94   3 2.94   6 2.94
                            10 2.94  11 2.94  25 2.94  19 2.94
  13  0.111  0.444  0.346-  23 2.91  20 2.91  22 2.93   5 2.94  18 2.94  11 2.94   7 2.94   4 2.94
                            16 2.94  10 2.94  14 2.94  15 2.94
  14  0.444  0.444  0.346-  21 2.91  23 2.91  24 2.93  15 2.94   6 2.94  12 2.94   8 2.94  17 2.94
                             5 2.94  16 2.94  13 2.94  11 2.94
  15  0.778  0.444  0.346-  24 2.92  22 2.92  14 2.94   6 2.94  17 2.94  12 2.94   9 2.94   4 2.94
                            10 2.94  13 2.94  18 2.94  19 2.94
  16  0.111  0.778  0.346-  23 2.90  18 2.94  12 2.94   7 2.94   1 2.94   8 2.94  13 2.94  10 2.94
                            14 2.94  17 2.94  25 2.94  26 2.94
  17  0.444  0.778  0.346-  27 2.92  24 2.92   9 2.94  15 2.94   2 2.94  10 2.94  11 2.94   8 2.94
                            14 2.94  16 2.94  18 2.94  26 2.94
  18  0.778  0.778  0.346-  22 2.92  27 2.92  16 2.94   7 2.94  13 2.94  12 2.94   3 2.94  11 2.94
                             9 2.94  15 2.94  17 2.94  25 2.94
  19  0.889  0.223  0.454-  21 2.93  20 2.93  24 2.93  22 2.93  15 2.94  10 2.94  12 2.94  26 2.95
                            25 2.95  28 2.95  32 2.96  31 2.96
  20  0.222  0.222  0.452-  36 2.78  10 2.90  11 2.91  13 2.91  26 2.93  19 2.93  29 2.95  31 2.95
                            27 2.95  22 2.95  23 2.95  21 2.95
  21  0.557  0.222  0.452-  36 2.78  12 2.90  14 2.91  11 2.91  25 2.93  19 2.93  30 2.95  32 2.95
                            24 2.95  27 2.95  20 2.95  23 2.95
  22  0.887  0.557  0.453-  24 2.91  27 2.91  18 2.92  15 2.92  13 2.93  25 2.93  19 2.93  23 2.95
                            20 2.95  35 2.95  33 2.96  31 2.96
  23  0.222  0.557  0.452-  36 2.78  16 2.90  13 2.91  14 2.91  25 2.93  26 2.93  33 2.95  34 2.95
                            22 2.95  24 2.95  20 2.95  21 2.95
  24  0.557  0.557  0.453-  27 2.91  22 2.91  15 2.92  17 2.92  14 2.93  26 2.93  19 2.93  21 2.95
                            23 2.95  35 2.95  32 2.96  34 2.96
  25  0.889  0.889  0.454-  23 2.93  21 2.93  22 2.93  27 2.93  18 2.94  16 2.94  12 2.94  19 2.95
                            26 2.95  28 2.95  33 2.96  30 2.96
  26  0.223  0.889  0.454-  20 2.93  23 2.93  27 2.93  24 2.93  17 2.94  10 2.94  16 2.94  19 2.95
                            25 2.95  28 2.95  29 2.96  34 2.96
  27  0.557  0.887  0.453-  24 2.91  22 2.91  17 2.92  18 2.92  11 2.93  26 2.93  25 2.93  20 2.95
                            21 2.95  35 2.95  29 2.96  30 2.96
  28  0.000  0.000  0.563-  25 2.95  19 2.95  26 2.95  34 2.96  32 2.96  33 2.96  30 2.96  31 2.96
                            29 2.96
  29  0.333  0.005  0.562-  31 2.89  30 2.89  36 2.90  20 2.95  28 2.96  35 2.96  27 2.96  26 2.96
                            34 3.03
  30  0.661  0.005  0.562-  32 2.89  29 2.89  36 2.90  21 2.95  28 2.96  35 2.96  27 2.96  25 2.96
                            33 3.03
  31  0.005  0.333  0.562-  29 2.89  33 2.89  36 2.90  20 2.95  28 2.96  35 2.96  22 2.96  19 2.96
                            32 3.03
  32  0.661  0.333  0.562-  30 2.89  34 2.89  36 2.90  21 2.95  28 2.96  35 2.96  24 2.96  19 2.96
                            31 3.03
  33  0.005  0.661  0.562-  34 2.89  31 2.89  36 2.90  23 2.95  28 2.96  35 2.96  22 2.96  25 2.96
                            30 3.03
  34  0.333  0.661  0.562-  33 2.89  32 2.89  36 2.90  23 2.95  28 2.96  35 2.96  24 2.96  26 2.96
                            29 3.03
  35  0.667  0.667  0.563-  24 2.95  27 2.95  22 2.95  29 2.96  34 2.96  32 2.96  31 2.96  30 2.96
                            33 2.96
  36  0.333  0.333  0.551-  20 2.78  23 2.78  21 2.78  33 2.90  31 2.90  29 2.90  30 2.90  34 2.90
                            32 2.90

  LATTYP: Found a hexagonal cell.
 ALAT       =     8.8135128021
 C/A-ratio  =     2.5184286595

  Lattice vectors:

 A1 = (  -4.4067569092,  -7.6327256898,   0.0000000000)
 A2 = (   8.8135128021,   0.0000000000,   0.0000000000)
 A3 = (   0.0000000000,   0.0000000000,  22.1962032318)

Analysis of symmetry for initial positions (statically):
 Subroutine PRICEL returns:
 Original cell was already a primitive cell.

 Routine SETGRP: Setting up the symmetry group for a
 hexagonal supercell.

 Subroutine GETGRP returns: Found  6 space group operations
 (whereof  6 operations were pure point group operations)
 out of a pool of 24 trial point group operations.

The static configuration has the point symmetry C_3v.

Analysis of symmetry for dynamics (positions and initial velocities):
 Subroutine PRICEL returns:
 Original cell was already a primitive cell.

[...]

The dynamic configuration has the point symmetry C_3v.

Analysis of constrained symmetry for selective dynamics:
 Subroutine PRICEL returns:
 Original cell was already a primitive cell.

 Routine SETGRP: Setting up the symmetry group for a
 hexagonal supercell.

 Subroutine GETGRP returns: Found  6 space group operations
 (whereof  6 operations were pure point group operations)
 out of a pool of 24 trial point group operations.

The constrained configuration has the point symmetry C_3v.

 Subroutine INISYM returns: Found  6 space group operations
 (whereof  6 operations are pure point group operations),
 and found     1 'primitive' translations

                                     Primitive cell

  volume of cell :    1493.1636

  direct lattice vectors                    reciprocal lattice vectors
     8.813512802  0.000000000  0.000000000     0.113462137 -0.065507406  0.000000000
     4.406756909  7.632725690  0.000000000     0.000000000  0.131014796  0.000000000
[...]
     15      -5.2551      2.00000
     16      -5.2536      2.00000
     17      -5.2473      2.00000
     18      -5.2266      2.00000
     19      -5.1650      2.00000
     20      -5.1577      2.00000
     21      -5.1307      2.00000
     22      -5.1223      2.00000
     23      -5.0898      2.00000
     24      -5.0588      2.00000
     25      -5.0578      2.00000
     26      -5.0116      2.00000
     27      -4.9394      2.00000
     28      -4.8813      2.00000
     29      -4.7966      2.00000
     30      -4.7848      2.00000
     31      -4.7774      2.00000
     32      -4.7536      2.00000
     33      -4.7461      2.00000
     34      -4.7404      2.00000
     35      -4.6417      2.00000
     36      -4.6106      2.00000
     37      -4.5492      2.00000
     38      -4.5379      2.00000
     39      -4.4849      2.00000
     40      -4.4045      2.00000
     41      -4.3775      2.00000
     42      -4.3313      2.00000
     43      -4.3128      2.00000
     44      -4.2937      2.00000
     45      -4.2898      2.00000
     46      -4.1888      2.00000
     47      -4.1558      2.00000
     48      -4.1285      2.00000
     49      -4.1177      2.00000
     50      -4.1123      2.00000
     51      -4.1064      2.00000
     52      -4.0959      2.00000
     53      -4.0510      2.00000
     54      -4.0103      2.00000
     55      -3.9958      2.00000
     56      -3.9519      2.00000
     57      -3.9485      2.00000
     58      -3.9436      2.00000
     59      -3.9338      2.00000
     60      -3.9256      2.00000
[...]
    238       6.7506      0.00000
    239       6.7789      0.00000
    240       6.8490      0.00000
    241       6.8831      0.00000
    242       7.0044      0.00000
    243       7.1507      0.00000
    244       7.1895      0.00000
    245       7.2942      0.00000
    246       7.5917      0.00000
    247       7.6421      0.00000
    248       7.7339      0.00000
    249       7.7371      0.00000
    250       7.9189      0.00000
    251       8.0345      0.00000
    252       8.0503      0.00000

 soft charge-density along one line, spin component           1
         0         1         2         3         4         5         6         7         8         9
 total charge-density along one line

------------------------ aborting loop because EDIFF is reached ----------------------------------------

 total charge

# of ion       s       p       d       tot
    1        0.542   0.240   8.766   9.548
    2        0.545   0.240   8.765   9.551
    3        0.545   0.240   8.765   9.551
    4        0.545   0.240   8.765   9.551
    5        0.540   0.243   8.763   9.546
    6        0.545   0.240   8.765   9.551
    7        0.545   0.240   8.765   9.551
    8        0.545   0.240   8.765   9.551
    9        0.543   0.239   8.768   9.550
   10        0.522   0.310   8.766   9.598
   11        0.522   0.307   8.779   9.608
   12        0.522   0.310   8.766   9.598
   13        0.522   0.307   8.779   9.608
   14        0.522   0.307   8.779   9.608
   15        0.517   0.308   8.777   9.601
   16        0.522   0.310   8.766   9.598
   17        0.517   0.308   8.777   9.601
   18        0.517   0.308   8.777   9.601
   19        0.516   0.302   8.775   9.594
   20        0.534   0.329   8.755   9.618
   21        0.534   0.329   8.755   9.618
   22        0.510   0.308   8.778   9.596
   23        0.534   0.329   8.755   9.618
   24        0.510   0.308   8.778   9.596
   25        0.516   0.302   8.775   9.594
   26        0.516   0.302   8.775   9.594
   27        0.510   0.308   8.778   9.596
   28        0.537   0.229   8.769   9.535
   29        0.549   0.245   8.749   9.543
   30        0.549   0.245   8.749   9.543
   31        0.549   0.245   8.749   9.543
   32        0.549   0.245   8.749   9.543
   33        0.549   0.245   8.749   9.543
   34        0.549   0.245   8.749   9.543
   35        0.533   0.230   8.770   9.533
   36        0.532   0.306   6.979   7.817
tot         19.158   9.991 313.792 342.941

  FORCE on cell =-STRESS in cart. coord.  units (eV):
  Direction    XX          YY          ZZ          XY          YZ          ZX
  Alpha Z  1011.37439  1011.37439  1011.37439
  Ewald  119661.17733119661.17773************    -0.00034    -0.00009    -0.00017
  Hartree128255.00586128255.00586************    -0.00000    -0.00002    -0.00004
  E(xc)   -1768.04427 -1768.04426 -1775.58333    -0.00001    -0.00000    -0.00000
  Local  ************************260575.41553     0.00173     0.00004     0.00009
  n-local   -98.90946   -42.48320   -45.69125    25.88045    -1.29152     1.64840
  augment  2406.08078  2406.08231  2423.44180    -0.00132     0.00002     0.00004
  Kinetic  5452.32928  5469.95144  5519.34078     7.56339    -0.39563     0.81214
  Fock        0.00000     0.00000     0.00000     0.00000     0.00000     0.00000
  Total     -23.01665   -23.01665     3.27211    -0.00000    -0.00000     0.00000
  in kB     -24.69707   -24.69707     3.51100    -0.00000    -0.00000     0.00000

 VOLUME and BASIS-vectors are now :
  energy-cutoff  :      500.00
  volume of cell :     1493.16
      direct lattice vectors                 reciprocal lattice vectors
     8.813512802  0.000000000  0.000000000     0.113462137 -0.065507406  0.000000000
     4.406756909  7.632725690  0.000000000     0.000000000  0.131014796  0.000000000
     0.000000000  0.000000000 22.196203232     0.000000000  0.000000000  0.045052750

  length of vectors
     8.813512802  8.813512802 22.196203232     0.131014796  0.131014796  0.045052750

 FORCES acting on ions
    electron-ion (+dipol)            ewald-force                    non-local-force                 convergence-correction
   -.198E-04 -.163E-04 0.248E+04   0.519E-04 0.433E-04 -.248E+04   0.141E-17 -.106E-17 -.875E+00   -.296E-03 -.184E-03 -.363E+00
   0.475E+00 0.245E+00 0.248E+04   -.447E+00 -.191E+00 -.248E+04   0.132E-01 -.265E-02 -.292E+00   -.384E-01 -.437E-01 -.342E+00
   -.475E+00 0.245E+00 0.248E+04   0.447E+00 -.191E+00 -.248E+04   -.132E-01 -.265E-02 -.292E+00   0.388E-01 -.418E-01 -.342E+00
   0.450E+00 0.289E+00 0.248E+04   -.389E+00 -.292E+00 -.248E+04   0.429E-02 0.127E-01 -.292E+00   -.570E-01 -.115E-01 -.343E+00
   0.698E-05 -.241E-04 0.248E+04   0.952E-04 0.174E-05 -.248E+04   -.287E-17 0.202E-17 -.242E+00   0.432E-02 0.262E-02 -.318E+00
   -.450E+00 0.289E+00 0.248E+04   0.389E+00 -.292E+00 -.248E+04   -.429E-02 0.127E-01 -.292E+00   0.554E-01 -.106E-01 -.342E+00
   -.254E-01 -.534E+00 0.248E+04   0.581E-01 0.483E+00 -.248E+04   -.887E-02 -.101E-01 -.292E+00   -.167E-01 0.545E-01 -.342E+00
   0.253E-01 -.534E+00 0.248E+04   -.583E-01 0.483E+00 -.248E+04   0.887E-02 -.101E-01 -.292E+00   0.186E-01 0.533E-01 -.342E+00
   0.198E-04 -.415E-04 0.248E+04   0.166E-03 -.200E-04 -.248E+04   -.522E-17 0.401E-18 -.435E+00   -.456E-02 -.236E-02 -.372E+00
   0.511E+01 0.295E+01 0.817E+03   -.473E+01 -.273E+01 -.816E+03   -.260E+00 -.150E+00 -.711E+00   -.729E-01 -.422E-01 0.228E+00
   0.139E-04 0.268E+01 0.820E+03   0.149E-03 -.272E+01 -.820E+03   -.134E-08 -.201E-01 -.375E+00   0.436E-02 0.150E-01 0.370E+00
   -.511E+01 0.295E+01 0.817E+03   0.473E+01 -.273E+01 -.816E+03   0.260E+00 -.150E+00 -.711E+00   0.711E-01 -.410E-01 0.228E+00
   0.232E+01 -.134E+01 0.820E+03   -.235E+01 0.136E+01 -.820E+03   -.174E-01 0.101E-01 -.375E+00   0.155E-01 -.346E-02 0.370E+00
   -.232E+01 -.134E+01 0.820E+03   0.235E+01 0.136E+01 -.820E+03   0.174E-01 0.101E-01 -.375E+00   -.777E-02 -.463E-02 0.369E+00
   0.316E-04 0.338E+01 0.819E+03   0.236E-03 -.339E+01 -.819E+03   -.279E-09 -.419E-02 -.431E+00   -.249E-02 -.190E-01 0.250E+00
   -.214E-04 -.590E+01 0.817E+03   0.163E-03 0.546E+01 -.816E+03   0.200E-07 0.300E+00 -.711E+00   -.176E-03 0.820E-01 0.228E+00
   0.292E+01 -.169E+01 0.819E+03   -.293E+01 0.169E+01 -.819E+03   -.363E-02 0.210E-02 -.431E+00   -.174E-01 0.776E-02 0.250E+00
   -.292E+01 -.169E+01 0.819E+03   0.293E+01 0.169E+01 -.819E+03   0.363E-02 0.210E-02 -.431E+00   0.180E-01 0.102E-01 0.252E+00
   -.411E-04 0.311E+01 -.873E+03   0.539E-04 -.308E+01 0.872E+03   -.407E-08 -.611E-01 0.401E+00   -.463E-02 0.279E-01 0.575E+00
   0.333E+01 0.192E+01 -.845E+03   -.335E+01 -.194E+01 0.844E+03   -.380E+00 -.219E+00 -.488E+00   0.402E+00 0.232E+00 0.115E+01
   -.333E+01 0.192E+01 -.845E+03   0.335E+01 -.194E+01 0.844E+03   0.380E+00 -.219E+00 -.488E+00   -.400E+00 0.232E+00 0.115E+01
   -.636E+01 0.367E+01 -.862E+03   0.579E+01 -.334E+01 0.861E+03   0.373E+00 -.215E+00 0.598E+00   0.203E+00 -.115E+00 0.652E+00
   -.131E-04 -.384E+01 -.845E+03   0.142E-03 0.387E+01 0.844E+03   0.292E-07 0.439E+00 -.488E+00   0.440E-03 -.462E+00 0.115E+01
   0.636E+01 0.367E+01 -.862E+03   -.579E+01 -.334E+01 0.861E+03   -.373E+00 -.215E+00 0.598E+00   -.203E+00 -.117E+00 0.651E+00
   -.269E+01 -.155E+01 -.873E+03   0.266E+01 0.154E+01 0.872E+03   0.529E-01 0.305E-01 0.401E+00   -.286E-01 -.165E-01 0.575E+00
   0.269E+01 -.155E+01 -.873E+03   -.266E+01 0.154E+01 0.872E+03   -.529E-01 0.305E-01 0.401E+00   0.222E-01 -.179E-01 0.575E+00
   0.762E-05 -.734E+01 -.862E+03   0.201E-03 0.668E+01 0.861E+03   0.286E-07 0.430E+00 0.598E+00   0.106E-02 0.233E+00 0.652E+00
   -.866E-05 -.105E-04 -.250E+04   0.265E-04 0.310E-04 0.249E+04   0.123E-16 0.218E-17 0.556E+00   -.339E-03 -.212E-03 0.551E+00
   -.179E+01 -.291E+01 -.250E+04   0.195E+01 0.301E+01 0.249E+04   -.488E+00 -.644E+00 0.214E+00   0.330E+00 0.541E+00 0.536E+00
   0.179E+01 -.291E+01 -.250E+04   -.195E+01 0.301E+01 0.249E+04   0.488E+00 -.644E+00 0.214E+00   -.329E+00 0.543E+00 0.535E+00
   -.341E+01 -.956E-01 -.250E+04   0.358E+01 0.185E+00 0.249E+04   -.802E+00 -.100E+00 0.214E+00   0.634E+00 0.151E-01 0.536E+00
   0.341E+01 -.956E-01 -.250E+04   -.358E+01 0.185E+00 0.249E+04   0.802E+00 -.100E+00 0.214E+00   -.635E+00 0.155E-01 0.536E+00
   -.162E+01 0.300E+01 -.250E+04   0.163E+01 -.320E+01 0.249E+04   -.314E+00 0.744E+00 0.214E+00   0.305E+00 -.556E+00 0.535E+00
   0.162E+01 0.300E+01 -.250E+04   -.163E+01 -.320E+01 0.249E+04   0.314E+00 0.744E+00 0.214E+00   -.304E+00 -.557E+00 0.536E+00
   0.299E-04 -.321E-04 -.250E+04   0.147E-03 -.464E-04 0.249E+04   -.138E-18 0.734E-18 0.637E+00   -.425E-02 -.216E-02 0.563E+00
   -.207E-04 -.860E-05 -.197E+04   0.926E-04 0.834E-05 0.197E+04   -.643E-18 0.226E-18 0.180E+01   0.215E-02 0.130E-02 0.661E+00
   -.785E-03 -.772E-03 -.898E+01   -.126E-12 0.709E-13 -.102E-10   0.388E-15 -.221E-15 -.203E+01   -.361E-03 0.379E-03 0.116E+02

 POSITION                                       TOTAL-FORCE (eV/Angst)
      0.00000      0.00000      5.28038         0.000000     -0.000000     -0.036268
      2.93784      0.00000      5.28038         0.003166      0.008738     -0.082786
      5.87568      0.00000      5.28038        -0.003166      0.008738     -0.082786
      1.46892      2.54424      5.28038         0.009150     -0.001627     -0.082786
      4.40676      2.54424      5.28038         0.000000     -0.000000     -0.116215
      7.34459      2.54424      5.28038        -0.009150     -0.001627     -0.082786
      2.93784      5.08848      5.28038         0.005984     -0.007111     -0.082786
      5.87568      5.08848      5.28038        -0.005984     -0.007111     -0.082786
      8.81351      5.08848      5.28038         0.000000     -0.000000     -0.076855
      1.46892      0.84808      7.67911         0.048677      0.028103      0.141428
      4.40676      0.84808      7.67911        -0.000000     -0.044261      0.023798
      7.34459      0.84808      7.67911        -0.048677      0.028103      0.141428
      2.93784      3.39232      7.67911        -0.038331      0.022130      0.023798
      5.87568      3.39232      7.67911         0.038331      0.022130      0.023798
      8.81351      3.39232      7.67911        -0.000000     -0.033131      0.099131
      4.40676      5.93656      7.67911        -0.000000     -0.056207      0.141428
      7.34459      5.93656      7.67911        -0.028693      0.016566      0.099131
     10.28243      5.93656      7.67911         0.028693      0.016566      0.099131
      8.81351      1.70038     10.08128         0.000000      0.000003     -0.011584
      2.93047      1.69191     10.03818        -0.004091     -0.002362     -0.022172
      5.88304      1.69191     10.03818         0.004091     -0.002362     -0.022172
     10.26792      4.24878     10.06124         0.003731     -0.002154     -0.015480
      4.40676      4.24891     10.03818         0.000000      0.004724     -0.022172
      7.35911      4.24878     10.06124        -0.003731     -0.002154     -0.015480
     11.74770      6.78254     10.08128        -0.000003     -0.000002     -0.011584
      5.87933      6.78254     10.08128         0.000003     -0.000002     -0.011584
      8.81351      6.76789     10.06124         0.000000      0.004309     -0.015480
      0.00000      0.00000     12.49619         0.000000     -0.000000     -0.000001
      2.96082      0.04010     12.48308         0.004246     -0.000808      0.008151
      5.85269      0.04010     12.48308        -0.004246     -0.000808      0.008151
      1.51514      2.54410     12.48308         0.001423      0.004081      0.008151
      7.29838      2.54410     12.48308        -0.001423      0.004081      0.008151
      2.96107      5.04853     12.48308        -0.002822     -0.003273      0.008151
      5.85244      5.04853     12.48308         0.002822     -0.003273      0.008151
      8.81351      5.08848     12.49171         0.000000     -0.000000      0.002703
      4.40676      2.54424     12.23647         0.000000     -0.000000      0.029084
    total drift:                               -0.001145     -0.000393      0.538990

  FREE ENERGIE OF THE ION-ELECTRON SYSTEM (eV)
  free  energy   TOTEN  =      -113.83757343 eV

  energy  without entropy=     -113.83757343  energy(sigma->0) =     -113.83757343

 stress matrix after NEB project (eV)
    -23.01665     -0.00000      0.00000
     -0.00000    -23.01665      0.00000
      0.00000     -0.00000      3.27211
  FORCES: max atom, RMS     0.029084    0.010649
  FORCE total and by dimension    0.063897    0.029084
  Stress total and by dimension   32.714513   23.016655
|           W    W    AA    RRRRR   N    N  II  N    N   GGGG   !!!           |
|           W    W   A  A   R    R  NN   N  II  NN   N  G    G  !!!           |
|           W    W  A    A  R    R  N N  N  II  N N  N  G       !!!           |
|           W WW W  AAAAAA  RRRRR   N  N N  II  N  N N  G  GGG   !            |
|           WW  WW  A    A  R   R   N   NN  II  N   NN  G    G                |
|           W    W  A    A  R    R  N    N  II  N    N   GGGG   !!!           |
|     Tetrahedron method does not include variations of the Fermi             |
|     occupations, so forces and stress will be inaccurate. We suggest        |
|     using a different smearing scheme ISMEAR = 1 or 2 for metals in         |
|     relaxations.                                                            |

 total charge

# of ion       s       p       d       tot
    1        0.542   0.240   8.766   9.548
    2        0.545   0.240   8.765   9.551
    3        0.545   0.240   8.765   9.551
    4        0.545   0.240   8.765   9.551
    5        0.540   0.243   8.763   9.546
    6        0.545   0.240   8.765   9.551
    7        0.545   0.240   8.765   9.551
    8        0.545   0.240   8.765   9.551
    9        0.543   0.239   8.768   9.550
   10        0.522   0.310   8.766   9.598
   11        0.522   0.307   8.779   9.608
   12        0.522   0.310   8.766   9.598
   13        0.522   0.307   8.779   9.608
   14        0.522   0.307   8.779   9.608
   15        0.517   0.308   8.777   9.601
   16        0.522   0.310   8.766   9.598
   17        0.517   0.308   8.777   9.601
   18        0.517   0.308   8.777   9.601
   19        0.516   0.302   8.775   9.594
   20        0.534   0.329   8.755   9.618
   21        0.534   0.329   8.755   9.618
   22        0.510   0.308   8.778   9.596
   23        0.534   0.329   8.755   9.618
   24        0.510   0.308   8.778   9.596
   25        0.516   0.302   8.775   9.594
   26        0.516   0.302   8.775   9.594
   27        0.510   0.308   8.778   9.596
   28        0.537   0.229   8.769   9.535
   29        0.549   0.245   8.749   9.543
   30        0.549   0.245   8.749   9.543
   31        0.549   0.245   8.749   9.543
   32        0.549   0.245   8.749   9.543
   33        0.549   0.245   8.749   9.543
   34        0.549   0.245   8.749   9.543
   35        0.533   0.230   8.770   9.533
   36        0.532   0.306   6.979   7.817
tot         19.158   9.991 313.792 342.941

 BZINTS: Fermi energy:    0.663347;  394.000000 electrons
         Band energy:-0.118143E+04;  BLOECHL correction:   -0.096873