 vasp.6.2.0 18Jan21 (build Jun 12 2021 23:27:24) complex

 executed on             LinuxIFC date 2022.05.27  05:57:43

 INCAR:
   ISMEAR = -5
   SIGMA = 0.1
   ISPIN = 1
   EDIFF = 1.d-5
   EDIFFG = -0.01
   NSW = 0
   NELM = 150
   ENCUT = 500
   ISIF = 2
   IBRION = 2
   LREAL = Auto
   ALGO = Fast
   ICHARG = 11
   LORBIT = 10
   LCHARG = .F.
   LWAVE = .F.

 POTCAR:    PAW_PBE Cu 22Jun2005
 POTCAR:    PAW_PBE Ti 08Apr2002
 POTCAR:    PAW_PBE H 15Jun2001
|           W    W    AA    RRRRR   N    N  II  N    N   GGGG   !!!           |
|           W    W   A  A   R    R  NN   N  II  NN   N  G    G  !!!           |
|           W    W  A    A  R    R  N N  N  II  N N  N  G       !!!           |
|           W WW W  AAAAAA  RRRRR   N  N N  II  N  N N  G  GGG   !            |
|           WW  WW  A    A  R   R   N   NN  II  N   NN  G    G                |
|           W    W  A    A  R    R  N    N  II  N    N   GGGG   !!!           |
|     For optimal performance we recommend to set                             |
|       NCORE = 2 up to number-of-cores-per-socket                            |
|     This setting can greatly improve the performance of VASP for DFT.       |
|     The default, NCORE=1 might be grossly inefficient on modern             |
|     multi-core architectures or massively parallel machines. Do your        |
|     Unfortunately you need to use the default for GW and RPA                |
|     calculations (for HF NCORE is supported but not extensively tested      |
|     yet).                                                                   |

 POTCAR:    PAW_PBE Cu 22Jun2005
   VRHFIN =Cu: d10 p1

   TITEL  = PAW_PBE Cu 22Jun2005
   POMASS =   63.546; ZVAL   =   11.000    mass and valenz
   ENMAX  =  295.446; ENMIN  =  221.585 eV

 POTCAR:    PAW_PBE Ti 08Apr2002
   VRHFIN =Ti: d3 s1

   TITEL  = PAW_PBE Ti 08Apr2002
   POMASS =   47.880; ZVAL   =    4.000    mass and valenz
   ENMAX  =  178.330; ENMIN  =  133.747 eV

 POTCAR:    PAW_PBE H 15Jun2001
   VRHFIN =H: ultrasoft test

   TITEL  = PAW_PBE H 15Jun2001
   POMASS =    1.000; ZVAL   =    1.000    mass and valenz
   ENMAX  =  250.000; ENMIN  =  200.000 eV

 Optimization of the real space projectors (new method)

 maximal supplied QI-value         = 16.25
 optimisation between [QCUT,QGAM] = [ 11.38, 22.75] = [ 36.24,144.96] Ry
 Optimized for a Real-space Cutoff    1.52 Angstroem

   l    n(q)    QCUT    max X(q) W(low)/X(q) W(high)/X(q)  e(spline)
   2      9    11.376     4.610    0.21E-03    0.10E-03    0.26E-06
   2      9    11.376     8.522    0.33E-03    0.16E-03    0.37E-06
   0     10    11.376    51.609    0.62E-04    0.20E-04    0.13E-06
   0     10    11.376    27.747    0.54E-04    0.20E-04    0.13E-06
   1     10    11.376    20.408    0.13E-04    0.99E-04    0.19E-06
   1     10    11.376    13.425    0.12E-04    0.87E-04    0.17E-06
 Optimization of the real space projectors (new method)

[...]

   l    n(q)    QCUT    max X(q) W(low)/X(q) W(high)/X(q)  e(spline)
   2     10    11.404    49.363    0.27E-03    0.67E-03    0.76E-06
   2     10    11.404    47.669    0.26E-03    0.65E-03    0.73E-06
   0     11    11.404    26.374    0.17E-03    0.20E-03    0.34E-06
   0     11    11.404    11.549    0.14E-03    0.16E-03    0.29E-06
   1     10    11.404     9.492    0.33E-04    0.56E-04    0.16E-06
 Optimization of the real space projectors (new method)

 maximal supplied QI-value         = 34.20
 optimisation between [QCUT,QGAM] = [ 11.29, 22.57] = [ 35.68,142.71] Ry
 Optimized for a Real-space Cutoff    1.16 Angstroem

   l    n(q)    QCUT    max X(q) W(low)/X(q) W(high)/X(q)  e(spline)
   0      8    11.287    19.460    0.40E-03    0.73E-03    0.16E-06
   0      8    11.287    12.209    0.38E-03    0.70E-03    0.15E-06
   1      7    11.287     4.655    0.22E-03    0.25E-04    0.22E-06
  PAW_PBE Cu 22Jun2005                  :
  PAW_PBE Ti 08Apr2002                  :
  PAW_PBE H 15Jun2001                   :

 POSCAR: Cu-Ti-H2
  positions in direct lattice
  velocities in cartesian coordinates
 exchange correlation table for  LEXCH =        8
   RHO(1)=    0.500       N(1)  =     2000
   RHO(2)=  100.500       N(2)  =     4000

 VTST: version 3.2, (02/03/18)

 CHAIN: initializing optimizer

 OPT: Using VASP Conjugate-Gradient optimizer
 CHAIN: Read ICHAIN            0

 POSCAR: Cu-Ti-H2
  positions in direct lattice
  velocities in cartesian coordinates

 ion  position               nearest neighbor table
   1  0.000  0.000  0.252-   7 2.57   3 2.57   4 2.57   2 2.57   6 2.57   8 2.57  12 2.57  10 2.57
                            16 2.57
   2  0.333  0.000  0.252-   8 2.57   9 2.57   5 2.57   1 2.57   3 2.57  11 2.57   4 2.57  10 2.57
                            17 2.57
   3  0.667  0.000  0.252-   1 2.57   7 2.57   6 2.57   9 2.57   2 2.57  12 2.57   5 2.57  18 2.57
                            11 2.57
   4  0.000  0.333  0.252-   5 2.57   6 2.57   1 2.57   7 2.57   2 2.57  13 2.57   9 2.57  10 2.57
                            15 2.57
   5  0.333  0.333  0.252-   4 2.57   2 2.57   7 2.57  13 2.57   8 2.57   6 2.57   3 2.57  11 2.57
                            14 2.57
   6  0.667  0.333  0.252-   4 2.57   9 2.57  15 2.57   3 2.57   1 2.57   8 2.57  14 2.57   5 2.57
                            12 2.57
   7  0.000  0.667  0.252-   1 2.57   3 2.57  16 2.57  18 2.57   4 2.57   5 2.57   8 2.57   9 2.57
                            13 2.57
   8  0.333  0.667  0.252-   9 2.57   2 2.57  17 2.57   6 2.57   1 2.57   7 2.57   5 2.57  14 2.57
                            16 2.57
   9  0.667  0.667  0.252-   8 2.57   6 2.57   2 2.57  17 2.57   3 2.57   7 2.57   4 2.57  15 2.57
                            18 2.57
  10  0.111  0.111  0.351-  26 2.55  19 2.55  11 2.57  12 2.57  13 2.57   1 2.57   2 2.57   4 2.57
                            15 2.57  16 2.57  17 2.57  20 2.57
  11  0.444  0.111  0.351-  27 2.56  20 2.56  21 2.56  10 2.57  13 2.57   2 2.57  17 2.57  14 2.57
                            12 2.57   5 2.57   3 2.57  18 2.57
  12  0.778  0.111  0.351-  19 2.55  25 2.55  15 2.57  10 2.57  14 2.57  18 2.57   3 2.57   1 2.57
                            16 2.57  11 2.57   6 2.57  21 2.57
  13  0.111  0.444  0.351-  22 2.56  23 2.56  20 2.56  16 2.57  18 2.57  10 2.57  11 2.57  14 2.57
                             5 2.57   4 2.57   7 2.57  15 2.57
  14  0.444  0.444  0.351-  24 2.56  21 2.56  23 2.56  15 2.57  17 2.57  12 2.57  16 2.57  13 2.57
                            11 2.57   6 2.57   8 2.57   5 2.57
  15  0.778  0.444  0.351-  19 2.55  24 2.56  22 2.56  14 2.57  17 2.57  12 2.57   6 2.57  18 2.57
                            10 2.57   9 2.57  13 2.57   4 2.57
  16  0.111  0.778  0.351-  25 2.55  26 2.55  18 2.57  13 2.57   7 2.57  14 2.57  17 2.57  12 2.57
                            10 2.57   8 2.57   1 2.57  23 2.57
  17  0.444  0.778  0.351-  26 2.55  27 2.56  24 2.56  14 2.57  15 2.57   8 2.57   9 2.57  11 2.57
                            16 2.57  18 2.57  10 2.57   2 2.57
  18  0.778  0.778  0.351-  25 2.55  22 2.56  27 2.56  16 2.57  13 2.57   7 2.57  15 2.57  12 2.57
                            17 2.57   9 2.57   3 2.57  11 2.57
  19  0.889  0.222  0.448-  12 2.55  10 2.55  15 2.55  25 2.56  26 2.56  28 2.56  22 2.57  24 2.57
                            21 2.57  20 2.57  32 2.57  31 2.57
  20  0.223  0.223  0.449-  23 2.55  21 2.55  11 2.56  13 2.56  27 2.57  22 2.57  29 2.57  31 2.57
                            10 2.57  26 2.57  19 2.57  36 2.66
  21  0.555  0.223  0.449-  20 2.55  23 2.55  14 2.56  11 2.56  24 2.57  27 2.57  32 2.57  30 2.57
                            12 2.57  19 2.57  25 2.57  36 2.66
  22  0.889  0.556  0.449-  18 2.56  15 2.56  13 2.56  31 2.56  33 2.56  24 2.56  27 2.56  23 2.57
                            20 2.57  19 2.57  25 2.57  35 2.57
  23  0.223  0.555  0.449-  20 2.55  21 2.55  13 2.56  14 2.56  22 2.57  24 2.57  33 2.57  34 2.57
                            16 2.57  25 2.57  26 2.57  36 2.66
  24  0.556  0.556  0.449-  15 2.56  17 2.56  14 2.56  32 2.56  34 2.56  22 2.56  27 2.56  21 2.57
                            23 2.57  19 2.57  26 2.57  35 2.57
  25  0.889  0.889  0.448-  12 2.55  16 2.55  18 2.55  19 2.56  26 2.56  28 2.56  22 2.57  27 2.57
                            21 2.57  23 2.57  33 2.57  30 2.57
  26  0.222  0.889  0.448-  10 2.55  16 2.55  17 2.55  25 2.56  19 2.56  28 2.56  27 2.57  24 2.57
                            20 2.57  23 2.57  29 2.57  34 2.57
  27  0.556  0.889  0.449-  17 2.56  18 2.56  11 2.56  29 2.56  30 2.56  24 2.56  22 2.56  20 2.57
                            21 2.57  26 2.57  25 2.57  35 2.57
  28  0.000  0.000  0.547-  33 2.56  30 2.56  31 2.56  29 2.56  32 2.56  34 2.56  25 2.56  19 2.56
                            26 2.56
  29  0.334  0.998  0.547-  34 2.53  35 2.55  28 2.56  27 2.56  20 2.57  26 2.57  30 2.58  36 2.59
                            31 2.59
  30  0.669  0.998  0.547-  33 2.53  35 2.55  28 2.56  27 2.56  21 2.57  25 2.57  29 2.58  36 2.59
                            32 2.59
  31  0.998  0.334  0.547-  32 2.53  35 2.55  28 2.56  22 2.56  20 2.57  19 2.57  33 2.58  36 2.59
                            29 2.59
  32  0.669  0.334  0.547-  31 2.53  35 2.55  28 2.56  24 2.56  21 2.57  19 2.57  34 2.58  36 2.59
                            30 2.59
  33  0.998  0.669  0.547-  30 2.53  35 2.55  28 2.56  22 2.56  23 2.57  25 2.57  31 2.58  36 2.59
                            34 2.59
  34  0.334  0.669  0.547-  29 2.53  35 2.55  28 2.56  24 2.56  23 2.57  26 2.57  32 2.58  36 2.59
                            33 2.59
  35  0.667  0.667  0.548-  34 2.55  32 2.55  29 2.55  30 2.55  33 2.55  31 2.55  24 2.57  27 2.57
                            22 2.57
  36  0.333  0.333  0.553-  31 2.59  29 2.59  33 2.59  32 2.59  34 2.59  30 2.59  23 2.66  20 2.66
                            21 2.66
  37  0.281  0.334  0.648-  38 0.79
  38  0.384  0.334  0.648-  37 0.79

  LATTYP: Found a hexagonal cell.
 ALAT       =     7.6967864036
 C/A-ratio  =     2.7653617908

  Lattice vectors:

 A1 = (  -3.8483927580,  -6.6656128093,   0.0000000000)
 A2 = (   7.6967864037,   0.0000000000,   0.0000000000)
 A3 = (   0.0000000000,   0.0000000000,  21.2843990326)

Analysis of symmetry for initial positions (statically):
 Subroutine PRICEL returns:
 Original cell was already a primitive cell.

 Routine SETGRP: Setting up the symmetry group for a
 hexagonal supercell.

 Subroutine GETGRP returns: Found  2 space group operations
 (whereof  2 operations were pure point group operations)
 out of a pool of 24 trial point group operations.

The static configuration has the point symmetry C_1h.

Analysis of symmetry for dynamics (positions and initial velocities):
 Subroutine PRICEL returns:
 Original cell was already a primitive cell.

[...]

The dynamic configuration has the point symmetry C_1h.

Analysis of constrained symmetry for selective dynamics:
 Subroutine PRICEL returns:
 Original cell was already a primitive cell.

 Routine SETGRP: Setting up the symmetry group for a
 hexagonal supercell.

 Subroutine GETGRP returns: Found  2 space group operations
 (whereof  2 operations were pure point group operations)
 out of a pool of 24 trial point group operations.

[...]
     33      -3.8997      2.00000
     34      -3.8753      2.00000
     35      -3.8383      2.00000
     36      -3.7768      2.00000
     37      -3.7548      2.00000
     38      -3.6252      2.00000
     39      -3.6160      2.00000
     40      -3.5511      2.00000
     41      -3.5449      2.00000
     42      -3.5332      2.00000
     43      -3.5072      2.00000
     44      -3.5016      2.00000
     45      -3.4963      2.00000
     46      -3.4917      2.00000
     47      -3.3203      2.00000
     48      -3.3077      2.00000
     49      -3.2923      2.00000
     50      -3.2717      2.00000
     51      -3.2302      2.00000
     52      -3.2218      2.00000
     53      -3.2048      2.00000
     54      -3.2019      2.00000
     55      -3.1867      2.00000
     56      -3.1825      2.00000
     57      -3.1502      2.00000
     58      -3.1411      2.00000
     59      -3.1329      2.00000
     60      -3.1227      2.00000
[...]
    238       6.6201      0.00000
    239       6.7721      0.00000
    240       6.7769      0.00000
    241       6.9822      0.00000
    242       6.9901      0.00000
    243       7.0943      0.00000
    244       7.3008      0.00000
    245       7.3544      0.00000
    246       7.4455      0.00000
    247       7.5160      0.00000
    248       7.6321      0.00000
    249       7.8699      0.00000
    250       8.0106      0.00000
    251       8.1026      0.00000
    252       8.1730      0.00000

 soft charge-density along one line, spin component           1
         0         1         2         3         4         5         6         7         8         9
 total charge-density along one line

------------------------ aborting loop because EDIFF is reached ----------------------------------------

 total charge

# of ion       s       p       d       tot
    1        0.450   0.282   9.188   9.920
    2        0.447   0.286   9.185   9.918
    3        0.447   0.286   9.185   9.918
    4        0.446   0.285   9.187   9.918
    5        0.449   0.287   9.181   9.917
    6        0.446   0.285   9.187   9.918
    7        0.446   0.286   9.186   9.918
    8        0.446   0.286   9.186   9.918
    9        0.450   0.283   9.188   9.920
   10        0.443   0.371   9.175   9.989
   11        0.443   0.365   9.181   9.989
   12        0.443   0.371   9.175   9.989
   13        0.442   0.365   9.182   9.989
   14        0.442   0.365   9.182   9.989
   15        0.440   0.371   9.175   9.987
   16        0.442   0.371   9.175   9.989
   17        0.440   0.371   9.175   9.986
   18        0.440   0.371   9.175   9.986
   19        0.444   0.373   9.177   9.994
   20        0.459   0.384   9.160  10.004
   21        0.459   0.384   9.160  10.004
   22        0.435   0.375   9.178   9.988
   23        0.459   0.384   9.161  10.004
   24        0.435   0.375   9.178   9.988
   25        0.445   0.371   9.178   9.994
   26        0.445   0.371   9.178   9.994
   27        0.435   0.375   9.178   9.988
   28        0.444   0.294   9.182   9.919
   29        0.479   0.309   9.161   9.949
   30        0.479   0.309   9.161   9.949
   31        0.478   0.310   9.160   9.948
   32        0.478   0.310   9.160   9.948
   33        0.479   0.309   9.162   9.949
   34        0.479   0.309   9.162   9.949
   35        0.441   0.297   9.181   9.920
   36        0.486   0.578   2.390   3.454
   37        0.580   0.029   0.000   0.609
   38        0.580   0.029   0.000   0.609
tot         17.420  12.362 323.535 353.317

  FORCE on cell =-STRESS in cart. coord.  units (eV):
  Direction    XX          YY          ZZ          XY          YZ          ZX
  Alpha Z   866.50067   866.50067   866.50067
  Ewald  169710.05693169692.63292************     0.00034    -0.17977     0.00015
  Hartree182534.97734182534.03447************     0.00002    -0.20053     0.00005
  E(xc)   -2267.52620 -2267.54214 -2271.72957    -0.00031    -0.00864    -0.00004
  Local  ************************365093.66793     0.01965     0.38954    -0.00066
  n-local  -761.18945  -759.73695  -773.10926     1.60752    -0.08456     0.05107
  augment  3313.78479  3313.52372  3335.79385    -0.01839     0.01708     0.00028
  Kinetic  3164.59226  3170.09460  3200.09951     0.51332     0.01892    -0.27101
  Fock        0.00000     0.00000     0.00000     0.00000     0.00000     0.00000
  Total      -9.38768    -9.25161    -2.98715     0.00000    -0.04797     0.00000
  in kB     -13.77394   -13.57429    -4.38285     0.00000    -0.07038     0.00000

 VOLUME and BASIS-vectors are now :
  energy-cutoff  :      500.00
  volume of cell :     1091.97
      direct lattice vectors                 reciprocal lattice vectors
     7.696786404  0.000000000  0.000000000     0.129924354 -0.075011849  0.000000000
     3.848392758  6.665612809  0.000000000     0.000000000  0.150023716  0.000000000
     0.000000000  0.000000000 21.284399033     0.000000000  0.000000000  0.046982769

  length of vectors
     7.696786404  7.696786404 21.284399033     0.150023716  0.150023716  0.046982769

 FORCES acting on ions
    electron-ion (+dipol)            ewald-force                    non-local-force                 convergence-correction
   -.406E-04 0.201E-01 0.344E+04   0.581E-04 -.112E-02 -.343E+04   0.167E-08 -.251E-01 -.220E+01   -.261E-03 0.163E-02 0.162E+00
   -.990E+00 -.109E+01 0.343E+04   0.980E+00 0.115E+01 -.343E+04   0.431E-01 0.837E-01 -.190E+01   -.197E-01 -.142E+00 0.283E+00
   0.990E+00 -.109E+01 0.343E+04   -.980E+00 0.115E+01 -.343E+04   -.431E-01 0.837E-01 -.190E+01   0.204E-01 -.139E+00 0.283E+00
   -.148E+01 -.295E+00 0.343E+04   0.149E+01 0.271E+00 -.343E+04   0.122E+00 -.135E-01 -.199E+01   -.119E+00 0.390E-01 0.226E+00
   -.618E-04 0.377E-01 0.343E+04   0.116E-03 -.300E-03 -.343E+04   0.185E-08 -.278E-01 -.151E+01   0.122E-01 -.891E-02 0.456E+00
   0.148E+01 -.295E+00 0.343E+04   -.149E+01 0.271E+00 -.343E+04   -.122E+00 -.135E-01 -.199E+01   0.117E+00 0.403E-01 0.227E+00
   -.421E+00 0.138E+01 0.343E+04   0.510E+00 -.142E+01 -.343E+04   0.445E-01 -.648E-01 -.191E+01   -.124E+00 0.999E-01 0.282E+00
   0.422E+00 0.138E+01 0.343E+04   -.510E+00 -.142E+01 -.343E+04   -.445E-01 -.648E-01 -.191E+01   0.127E+00 0.985E-01 0.282E+00
   -.143E-03 -.363E-01 0.344E+04   0.263E-03 0.142E-02 -.343E+04   -.170E-08 0.256E-01 -.195E+01   -.133E-01 0.137E-01 0.221E+00
   -.100E+02 -.574E+01 0.111E+04   0.102E+02 0.589E+01 -.110E+04   -.203E+00 -.135E+00 -.923E+00   0.330E-01 -.120E-01 -.292E+00
   -.902E-04 -.108E+02 0.109E+04   0.189E-03 0.106E+02 -.109E+04   -.146E-07 0.220E+00 -.274E+00   0.116E-01 -.712E-01 -.289E+00
   0.100E+02 -.574E+01 0.111E+04   -.102E+02 0.589E+01 -.110E+04   0.203E+00 -.135E+00 -.923E+00   -.343E-01 -.106E-01 -.293E+00
   -.935E+01 0.539E+01 0.109E+04   0.917E+01 -.529E+01 -.109E+04   0.202E+00 -.123E+00 -.285E+00   -.311E-01 0.386E-01 -.288E+00
   0.935E+01 0.539E+01 0.109E+04   -.917E+01 -.529E+01 -.109E+04   -.202E+00 -.123E+00 -.285E+00   0.547E-01 0.381E-01 -.289E+00
   -.139E-03 -.933E+00 0.111E+04   0.296E-03 0.790E+00 -.111E+04   -.531E-08 0.797E-01 -.972E+00   -.351E-02 0.646E-01 -.346E+00
   -.928E-04 0.116E+02 0.111E+04   0.187E-03 -.118E+02 -.110E+04   -.170E-07 0.255E+00 -.863E+00   -.636E-04 -.179E-01 -.274E+00
   -.798E+00 0.423E+00 0.111E+04   0.680E+00 -.387E+00 -.111E+04   0.693E-01 -.287E-01 -.855E+00   0.510E-01 -.114E-01 -.309E+00
   0.798E+00 0.423E+00 0.111E+04   -.680E+00 -.387E+00 -.111E+04   -.693E-01 -.287E-01 -.855E+00   -.504E-01 -.878E-02 -.309E+00
   -.673E-04 -.991E+01 -.121E+04   0.743E-04 0.997E+01 0.121E+04   0.254E-08 -.382E-01 0.854E+00   0.946E-03 -.218E-01 -.739E+00
   -.710E+02 -.408E+02 -.132E+04   0.722E+02 0.416E+02 0.132E+04   -.109E+01 -.614E+00 -.611E+00   -.176E+00 -.150E+00 -.881E+00
   0.710E+02 -.408E+02 -.132E+04   -.722E+02 0.416E+02 0.132E+04   0.109E+01 -.614E+00 -.611E+00   0.155E+00 -.148E+00 -.882E+00
   -.339E+02 0.195E+02 -.123E+04   0.337E+02 -.194E+02 0.123E+04   0.258E+00 -.152E+00 0.554E+00   -.546E-01 0.683E-01 -.679E+00
   -.713E-04 0.818E+02 -.132E+04   0.156E-03 -.833E+02 0.132E+04   -.825E-07 0.124E+01 -.504E+00   0.117E-01 0.223E+00 -.821E+00
   0.339E+02 0.195E+02 -.123E+04   -.337E+02 -.194E+02 0.123E+04   -.258E+00 -.152E+00 0.554E+00   0.527E-01 0.691E-01 -.679E+00
   0.864E+01 0.501E+01 -.121E+04   -.868E+01 -.502E+01 0.121E+04   0.468E-01 0.293E-01 0.909E+00   -.376E-02 -.800E-02 -.742E+00
   -.864E+01 0.501E+01 -.121E+04   0.868E+01 -.502E+01 0.121E+04   -.468E-01 0.293E-01 0.909E+00   0.499E-02 -.874E-02 -.742E+00
   -.134E-03 -.392E+02 -.123E+04   0.239E-03 0.389E+02 0.123E+04   -.193E-07 0.289E+00 0.607E+00   -.110E-02 -.606E-01 -.677E+00
   -.326E-04 0.270E+00 -.345E+04   0.489E-04 -.284E+00 0.345E+04   -.389E-08 0.585E-01 0.198E+01   0.357E-03 -.440E-01 -.300E+00
   -.599E+02 -.113E+03 -.345E+04   0.606E+02 0.114E+03 0.345E+04   -.657E+00 -.807E+00 0.629E+00   -.116E-01 -.150E+00 -.455E+00
   0.599E+02 -.113E+03 -.345E+04   -.606E+02 0.114E+03 0.345E+04   0.657E+00 -.807E+00 0.629E+00   0.119E-01 -.148E+00 -.455E+00
   -.128E+03 0.527E+01 -.345E+04   0.129E+03 -.512E+01 0.345E+04   -.112E+01 -.164E+00 0.518E+00   -.107E+00 0.145E-01 -.465E+00
   0.128E+03 0.527E+01 -.345E+04   -.129E+03 -.512E+01 0.345E+04   0.112E+01 -.164E+00 0.518E+00   0.107E+00 0.161E-01 -.465E+00
   -.689E+02 0.108E+03 -.345E+04   0.693E+02 -.109E+03 0.345E+04   -.375E+00 0.976E+00 0.666E+00   -.507E-01 0.131E+00 -.460E+00
   0.689E+02 0.108E+03 -.345E+04   -.693E+02 -.109E+03 0.345E+04   0.375E+00 0.976E+00 0.666E+00   0.539E-01 0.131E+00 -.461E+00
   -.120E-03 -.335E+00 -.346E+04   0.246E-03 0.349E+00 0.346E+04   0.423E-08 -.635E-01 0.230E+01   -.131E-01 0.489E-01 -.320E+00
   -.324E-04 0.877E-01 -.126E+04   0.467E-04 -.893E-01 0.126E+04   0.204E-08 -.307E-01 0.187E+01   0.347E-03 -.842E-03 -.139E+00
   0.165E+02 0.495E-01 -.331E+03   -.210E+02 -.417E-01 0.331E+03   0.449E+01 -.356E-02 -.691E+00   -.698E-02 -.499E-03 0.286E-01
   -.165E+02 0.495E-01 -.331E+03   0.210E+02 -.417E-01 0.331E+03   -.449E+01 -.356E-02 -.691E+00   0.702E-02 -.491E-03 0.286E-01
   -.233E-03 0.770E-01 0.230E+02   0.171E-12 0.628E-13 0.909E-12   0.338E-08 -.507E-01 -.124E+02   0.139E-01 -.266E-01 -.106E+02

 POSITION                                       TOTAL-FORCE (eV/Angst)
      0.00000      0.00000      5.37156         0.000000     -0.004475     -0.001022
      2.56560      0.00000      5.37156         0.013371      0.009943      0.050849
      5.13119      0.00000      5.37156        -0.013371      0.009943      0.050849
      1.28280      2.22187      5.37156         0.018173      0.002888      0.046111
      3.84839      2.22187      5.37156        -0.000000      0.000718      0.051643
      6.41399      2.22187      5.37156        -0.018173      0.002888      0.046111
      2.56560      4.44374      5.37156         0.007004     -0.014281      0.045155
      5.13119      4.44374      5.37156        -0.007004     -0.014281      0.045155
      7.69679      4.44374      5.37156        -0.000000      0.004356      0.023059
      1.28280      0.74062      7.46636        -0.002268      0.002135     -0.106827
      3.84839      0.74062      7.46636         0.000000     -0.026883     -0.050406
      6.41399      0.74062      7.46636         0.002268      0.002135     -0.106827
      2.56560      2.96249      7.46636        -0.019700      0.016518     -0.051750
      5.13119      2.96249      7.46636         0.019700      0.016518     -0.051750
      7.69679      2.96249      7.46636        -0.000000      0.000992     -0.047759
      3.84839      5.18437      7.46636         0.000000     -0.001925     -0.100407
      6.41399      5.18437      7.46636         0.001726     -0.002310     -0.028833
      8.97958      5.18437      7.46636        -0.001726     -0.002310     -0.028833
      7.69679      1.47704      9.53921        -0.000000      0.003306      0.024814
      2.57092      1.48432      9.56248        -0.008220      0.005555     -0.042968
      5.12587      1.48432      9.56248         0.008220      0.005555     -0.042968
      8.97870      3.70363      9.55579        -0.001280     -0.008206      0.019950
      3.84839      3.69697      9.56248        -0.000000      0.009083     -0.046991
      6.41487      3.70363      9.55579         0.001280     -0.008206      0.019950
     10.26602      5.92709      9.53921         0.006745      0.006193      0.013840
      5.12755      5.92709      9.53921        -0.006745      0.006193      0.013840
      7.69679      5.92397      9.55579        -0.000000      0.009656      0.025187
      0.00000      0.00000     11.63511        -0.000000      0.000261      0.033243
      6.40848      6.64966     11.64831        -0.033329     -0.015870     -0.010431
      8.98509      6.64966     11.64831         0.033329     -0.015870     -0.010431
      8.96302      2.22507     11.64831         0.028292     -0.002769      0.061252
      6.43055      2.22507     11.64831        -0.028292     -0.002769      0.061252
     10.25132      4.45649     11.64831        -0.028697      0.015802     -0.010831
      5.14225      4.45649     11.64831         0.028697      0.015802     -0.010831
      7.69679      4.44374     11.65790         0.000000     -0.000740      0.016143
      3.84839      2.22187     11.77538         0.000000     -0.033130      0.131792
      3.45340      2.22924     13.79130        -0.019824      0.003793     -0.015165
      4.24339      2.22924     13.79130         0.019824      0.003793     -0.015165
    total drift:                                0.013624     -0.000338      0.018369

  FREE ENERGIE OF THE ION-ELECTRON SYSTEM (eV)
  free  energy   TOTEN  =      -136.59076163 eV

  energy  without entropy=     -136.59076163  energy(sigma->0) =     -136.59076163

 stress matrix after NEB project (eV)
     -9.38768      0.00000      0.00000
      0.00000     -9.25161     -0.04797
      0.00000     -0.04797     -2.98715
  FORCES: max atom, RMS     0.025246    0.005792
  FORCE total and by dimension    0.035703    0.019824
  Stress total and by dimension   13.514756    9.387684
|           W    W    AA    RRRRR   N    N  II  N    N   GGGG   !!!           |
|           W    W   A  A   R    R  NN   N  II  NN   N  G    G  !!!           |
|           W    W  A    A  R    R  N N  N  II  N N  N  G       !!!           |
|           W WW W  AAAAAA  RRRRR   N  N N  II  N  N N  G  GGG   !            |
|           WW  WW  A    A  R   R   N   NN  II  N   NN  G    G                |
|           W    W  A    A  R    R  N    N  II  N    N   GGGG   !!!           |
|     Tetrahedron method does not include variations of the Fermi             |
|     occupations, so forces and stress will be inaccurate. We suggest        |
|     using a different smearing scheme ISMEAR = 1 or 2 for metals in         |
|     relaxations.                                                            |

 total charge

# of ion       s       p       d       tot
    1        0.450   0.282   9.188   9.920
    2        0.447   0.286   9.185   9.918
    3        0.447   0.286   9.185   9.918
    4        0.446   0.285   9.187   9.918
    5        0.449   0.287   9.181   9.917
    6        0.446   0.285   9.187   9.918
    7        0.446   0.286   9.186   9.918
    8        0.446   0.286   9.186   9.918
    9        0.450   0.283   9.188   9.920
   10        0.443   0.371   9.175   9.989
   11        0.443   0.365   9.181   9.989
   12        0.443   0.371   9.175   9.989
   13        0.442   0.365   9.182   9.989
   14        0.442   0.365   9.182   9.989
   15        0.440   0.371   9.175   9.987
   16        0.442   0.371   9.175   9.989
   17        0.440   0.371   9.175   9.986
   18        0.440   0.371   9.175   9.986
   19        0.444   0.373   9.177   9.994
   20        0.459   0.384   9.160  10.004
   21        0.459   0.384   9.160  10.004
   22        0.435   0.375   9.178   9.988
   23        0.459   0.384   9.161  10.004
   24        0.435   0.375   9.178   9.988
   25        0.445   0.371   9.178   9.994
   26        0.445   0.371   9.178   9.994
   27        0.435   0.375   9.178   9.988
   28        0.444   0.294   9.182   9.919
   29        0.479   0.309   9.161   9.949
   30        0.479   0.309   9.161   9.949
   31        0.478   0.310   9.160   9.948
   32        0.478   0.310   9.160   9.948
   33        0.479   0.309   9.162   9.949
   34        0.479   0.309   9.162   9.949
   35        0.441   0.297   9.181   9.920
   36        0.486   0.578   2.390   3.454
   37        0.580   0.029   0.000   0.609
   38        0.580   0.029   0.000   0.609
tot         17.420  12.362 323.535 353.317

 BZINTS: Fermi energy:    0.216417;  391.000000 electrons
         Band energy:-0.105096E+04;  BLOECHL correction:   -0.028172