 vasp.6.2.0 18Jan21 (build Jun 12 2021 23:27:24) complex

 executed on             LinuxIFC date 2022.05.30  18:49:30

 INCAR:
   ISMEAR = -5
   SIGMA = 0.1
   ISPIN = 1
   EDIFF = 1.d-5
   EDIFFG = -0.01
   NSW = 0
   NELM = 150
   ENCUT = 500
   ISIF = 2
   IBRION = 2
   LREAL = Auto
   ALGO = Fast
   ICHARG = 11
   LORBIT = 10
   LCHARG = .F.
   LWAVE = .F.

 POTCAR:    PAW_PBE Cu 22Jun2005
 POTCAR:    PAW_PBE Pt 04Feb2005
 POTCAR:    PAW_PBE O 08Apr2002
|           W    W    AA    RRRRR   N    N  II  N    N   GGGG   !!!           |
|           W    W   A  A   R    R  NN   N  II  NN   N  G    G  !!!           |
|           W    W  A    A  R    R  N N  N  II  N N  N  G       !!!           |
|           W WW W  AAAAAA  RRRRR   N  N N  II  N  N N  G  GGG   !            |
|           WW  WW  A    A  R   R   N   NN  II  N   NN  G    G                |
|           W    W  A    A  R    R  N    N  II  N    N   GGGG   !!!           |
|     For optimal performance we recommend to set                             |
|       NCORE = 2 up to number-of-cores-per-socket                            |
|     This setting can greatly improve the performance of VASP for DFT.       |
|     The default, NCORE=1 might be grossly inefficient on modern             |
|     multi-core architectures or massively parallel machines. Do your        |
|     Unfortunately you need to use the default for GW and RPA                |
|     calculations (for HF NCORE is supported but not extensively tested      |
|     yet).                                                                   |

 POTCAR:    PAW_PBE Cu 22Jun2005
   VRHFIN =Cu: d10 p1

   TITEL  = PAW_PBE Cu 22Jun2005
   POMASS =   63.546; ZVAL   =   11.000    mass and valenz
   ENMAX  =  295.446; ENMIN  =  221.585 eV

 POTCAR:    PAW_PBE Pt 04Feb2005
   VRHFIN =Pt: s1d9

   TITEL  = PAW_PBE Pt 04Feb2005
   POMASS =  195.080; ZVAL   =   10.000    mass and valenz
   ENMAX  =  230.283; ENMIN  =  172.712 eV

 POTCAR:    PAW_PBE O 08Apr2002
   VRHFIN =O: s2p4

   TITEL  = PAW_PBE O 08Apr2002
   POMASS =   16.000; ZVAL   =    6.000    mass and valenz
   ENMAX  =  400.000; ENMIN  =  300.000 eV

 Optimization of the real space projectors (new method)

 maximal supplied QI-value         = 16.25
 optimisation between [QCUT,QGAM] = [ 11.38, 22.75] = [ 36.24,144.96] Ry
 Optimized for a Real-space Cutoff    1.52 Angstroem

   l    n(q)    QCUT    max X(q) W(low)/X(q) W(high)/X(q)  e(spline)
   2      9    11.376     4.610    0.21E-03    0.10E-03    0.26E-06
   2      9    11.376     8.522    0.33E-03    0.16E-03    0.37E-06
   0     10    11.376    51.609    0.62E-04    0.20E-04    0.13E-06
   0     10    11.376    27.747    0.54E-04    0.20E-04    0.13E-06
   1     10    11.376    20.408    0.13E-04    0.99E-04    0.19E-06
   1     10    11.376    13.425    0.12E-04    0.87E-04    0.17E-06
 Optimization of the real space projectors (new method)

[...]

   l    n(q)    QCUT    max X(q) W(low)/X(q) W(high)/X(q)  e(spline)
   2      9    11.346    66.195    0.31E-03    0.12E-04    0.29E-06
   2      9    11.346    64.643    0.32E-03    0.12E-04    0.29E-06
   0     10    11.346    95.520    0.90E-04    0.16E-04    0.19E-06
   0     10    11.346    63.403    0.87E-04    0.15E-04    0.19E-06
   1     10    11.346    19.961    0.17E-03    0.21E-03    0.11E-06
   1     10    11.346    13.289    0.14E-03    0.18E-03    0.89E-07
 Optimization of the real space projectors (new method)

 maximal supplied QI-value         = 24.76
 optimisation between [QCUT,QGAM] = [ 11.39, 22.77] = [ 36.31,145.25] Ry
 Optimized for a Real-space Cutoff    1.00 Angstroem

   l    n(q)    QCUT    max X(q) W(low)/X(q) W(high)/X(q)  e(spline)
   0      7    11.387    20.381    0.39E-03    0.13E-02    0.15E-06
   0      7    11.387    15.268    0.42E-03    0.14E-02    0.17E-06
   1      6    11.387     5.964    0.41E-03    0.11E-02    0.17E-06
   1      6    11.387     5.382    0.39E-03    0.87E-03    0.15E-06
  PAW_PBE Cu 22Jun2005                  :
  PAW_PBE Pt 04Feb2005                  :
  PAW_PBE O 08Apr2002                   :

 POSCAR: Cu-Pt-O2
  positions in direct lattice
  velocities in cartesian coordinates
 exchange correlation table for  LEXCH =        8
   RHO(1)=    0.500       N(1)  =     2000
   RHO(2)=  100.500       N(2)  =     4000

 VTST: version 3.2, (02/03/18)

 CHAIN: initializing optimizer

 OPT: Using VASP Conjugate-Gradient optimizer
 CHAIN: Read ICHAIN            0

 POSCAR: Cu-Pt-O2
  positions in direct lattice
  velocities in cartesian coordinates

 ion  position               nearest neighbor table
   1  0.000  0.000  0.226-   7 2.57   3 2.57   4 2.57   2 2.57   6 2.57   8 2.57  12 2.57  10 2.57
                            16 2.57
   2  0.333  0.000  0.226-   8 2.57   9 2.57   5 2.57   1 2.57   3 2.57  11 2.57   4 2.57  10 2.57
                            17 2.57
   3  0.667  0.000  0.226-   1 2.57   7 2.57   6 2.57   9 2.57   2 2.57  12 2.57   5 2.57  18 2.57
                            11 2.57
   4  0.000  0.333  0.226-   5 2.57   6 2.57   1 2.57   7 2.57   2 2.57  13 2.57   9 2.57  10 2.57
                            15 2.57
   5  0.333  0.333  0.226-   4 2.57   2 2.57   7 2.57  13 2.57   8 2.57   6 2.57   3 2.57  11 2.57
                            14 2.57
   6  0.667  0.333  0.226-   4 2.57   9 2.57  15 2.57   3 2.57   1 2.57   8 2.57  14 2.57   5 2.57
                            12 2.57
   7  0.000  0.667  0.226-   1 2.57   3 2.57  16 2.57  18 2.57   4 2.57   5 2.57   8 2.57   9 2.57
                            13 2.57
   8  0.333  0.667  0.226-   9 2.57   2 2.57  17 2.57   6 2.57   1 2.57   7 2.57   5 2.57  14 2.57
                            16 2.57
   9  0.667  0.667  0.226-   8 2.57   6 2.57   2 2.57  17 2.57   3 2.57   7 2.57   4 2.57  15 2.57
                            18 2.57
  10  0.111  0.111  0.314-  20 2.53  26 2.56  19 2.56  11 2.57  12 2.57  13 2.57   1 2.57   2 2.57
                             4 2.57  15 2.57  16 2.57  17 2.57
  11  0.444  0.111  0.314-  20 2.55  21 2.55  27 2.56  10 2.57  13 2.57   2 2.57  17 2.57  14 2.57
                            12 2.57   5 2.57   3 2.57  18 2.57
  12  0.778  0.111  0.314-  21 2.53  19 2.56  25 2.56  15 2.57  10 2.57  14 2.57  18 2.57   3 2.57
                             1 2.57  16 2.57  11 2.57   6 2.57
  13  0.111  0.444  0.314-  23 2.55  20 2.55  22 2.56  16 2.57  18 2.57  10 2.57  11 2.57  14 2.57
                             5 2.57   4 2.57   7 2.57  15 2.57
  14  0.444  0.444  0.314-  21 2.55  23 2.55  24 2.56  15 2.57  17 2.57  12 2.57  16 2.57  13 2.57
                            11 2.57   6 2.57   8 2.57   5 2.57
  15  0.778  0.444  0.314-  19 2.56  24 2.56  22 2.56  14 2.57  17 2.57  12 2.57   6 2.57  18 2.57
                            10 2.57   9 2.57  13 2.57   4 2.57
  16  0.111  0.778  0.314-  23 2.53  25 2.56  26 2.56  18 2.57  13 2.57   7 2.57  14 2.57  17 2.57
                            12 2.57  10 2.57   8 2.57   1 2.57
  17  0.444  0.778  0.314-  26 2.56  27 2.56  24 2.56  14 2.57  15 2.57   8 2.57   9 2.57  11 2.57
                            16 2.57  18 2.57  10 2.57   2 2.57
  18  0.778  0.778  0.314-  25 2.56  22 2.56  27 2.56  16 2.57  13 2.57   7 2.57  15 2.57  12 2.57
                            17 2.57   9 2.57   3 2.57  11 2.57
  19  0.888  0.223  0.402-  28 2.54  32 2.55  31 2.55  21 2.55  20 2.55  15 2.56  12 2.56  10 2.56
                            22 2.56  24 2.56  25 2.58  26 2.58
  20  0.221  0.221  0.401-  10 2.53  11 2.55  13 2.55  26 2.55  19 2.55  27 2.57  22 2.57  29 2.59
                            31 2.59  36 2.60  23 2.60  21 2.60
  21  0.558  0.221  0.401-  12 2.53  14 2.55  11 2.55  19 2.55  25 2.55  24 2.57  27 2.57  32 2.59
                            30 2.59  36 2.60  20 2.60  23 2.60
  22  0.889  0.556  0.401-  35 2.54  18 2.56  15 2.56  13 2.56  19 2.56  25 2.56  24 2.56  27 2.56
                            31 2.57  33 2.57  23 2.57  20 2.57
  23  0.221  0.558  0.401-  16 2.53  13 2.55  14 2.55  25 2.55  26 2.55  22 2.57  24 2.57  33 2.59
                            34 2.59  36 2.60  20 2.60  21 2.60
  24  0.556  0.556  0.401-  35 2.54  15 2.56  17 2.56  14 2.56  19 2.56  26 2.56  22 2.56  27 2.56
                            32 2.57  34 2.57  21 2.57  23 2.57
  25  0.888  0.888  0.402-  28 2.54  33 2.55  30 2.55  21 2.55  23 2.55  18 2.56  16 2.56  12 2.56
                            22 2.56  27 2.56  19 2.58  26 2.58
  26  0.223  0.888  0.402-  28 2.54  29 2.55  34 2.55  20 2.55  23 2.55  17 2.56  10 2.56  16 2.56
                            27 2.56  24 2.56  25 2.58  19 2.58
  27  0.556  0.889  0.401-  35 2.54  17 2.56  18 2.56  11 2.56  26 2.56  25 2.56  24 2.56  22 2.56
                            29 2.57  30 2.57  20 2.57  21 2.57
  28  0.000  0.000  0.488-  25 2.54  19 2.54  26 2.54  33 2.55  30 2.55  31 2.55  29 2.55  32 2.55
                            34 2.55
  29  0.333  0.997  0.489-  34 2.52  26 2.55  28 2.55  35 2.56  27 2.57  31 2.59  20 2.59  36 2.59
                            30 2.59
  30  0.670  0.997  0.489-  33 2.52  25 2.55  28 2.55  35 2.56  27 2.57  32 2.59  21 2.59  36 2.59
                            29 2.59
  31  0.997  0.333  0.489-  32 2.52  19 2.55  28 2.55  35 2.56  22 2.57  29 2.59  20 2.59  36 2.59
                            33 2.59
  32  0.670  0.333  0.489-  31 2.52  19 2.55  28 2.55  35 2.56  24 2.57  30 2.59  21 2.59  36 2.59
                            34 2.59
  33  0.997  0.670  0.489-  30 2.52  25 2.55  28 2.55  35 2.56  22 2.57  34 2.59  23 2.59  36 2.59
                            31 2.59
  34  0.333  0.670  0.489-  29 2.52  26 2.55  28 2.55  35 2.56  24 2.57  33 2.59  23 2.59  36 2.59
                            32 2.59
  35  0.667  0.667  0.488-  24 2.54  27 2.54  22 2.54  34 2.56  32 2.56  29 2.56  30 2.56  33 2.56
                            31 2.56
  36  0.333  0.333  0.490-  37 2.18  38 2.18  31 2.59  29 2.59  33 2.59  34 2.59  32 2.59  30 2.59
                            23 2.60  20 2.60  21 2.60
  37  0.245  0.331  0.577-  38 1.37  36 2.18
  38  0.424  0.331  0.577-  37 1.37  36 2.18

  LATTYP: Found a hexagonal cell.
 ALAT       =     7.6967864036
 C/A-ratio  =     3.0908716217

  Lattice vectors:

 A1 = (  -3.8483927580,  -6.6656128093,   0.0000000000)
 A2 = (   7.6967864037,   0.0000000000,   0.0000000000)
 A3 = (   0.0000000000,   0.0000000000,  23.7897786731)

Analysis of symmetry for initial positions (statically):
 Subroutine PRICEL returns:
 Original cell was already a primitive cell.

 Routine SETGRP: Setting up the symmetry group for a
 hexagonal supercell.

 Subroutine GETGRP returns: Found  2 space group operations
 (whereof  2 operations were pure point group operations)
 out of a pool of 24 trial point group operations.

The static configuration has the point symmetry C_1h.

Analysis of symmetry for dynamics (positions and initial velocities):
 Subroutine PRICEL returns:
 Original cell was already a primitive cell.

[...]

The dynamic configuration has the point symmetry C_1h.

Analysis of constrained symmetry for selective dynamics:
 Subroutine PRICEL returns:
 Original cell was already a primitive cell.

 Routine SETGRP: Setting up the symmetry group for a
 hexagonal supercell.

[...]
     33      -4.6671      2.00000
     34      -4.6173      2.00000
     35      -4.6072      2.00000
     36      -4.5959      2.00000
     37      -4.5901      2.00000
     38      -4.5739      2.00000
     39      -4.5524      2.00000
     40      -4.5076      2.00000
     41      -4.4418      2.00000
     42      -4.3337      2.00000
     43      -4.2853      2.00000
     44      -4.2815      2.00000
     45      -4.2441      2.00000
     46      -4.2164      2.00000
     47      -4.1968      2.00000
     48      -4.1751      2.00000
     49      -4.1689      2.00000
     50      -4.1592      2.00000
     51      -4.0305      2.00000
     52      -4.0181      2.00000
     53      -3.9807      2.00000
     54      -3.9461      2.00000
     55      -3.9308      2.00000
     56      -3.9005      2.00000
     57      -3.8859      2.00000
     58      -3.8672      2.00000
     59      -3.8525      2.00000
     60      -3.8504      2.00000
[...]
    238       5.3419      0.00000
    239       5.5396      0.00000
    240       5.6541      0.00000
    241       5.7510      0.00000
    242       5.8996      0.00000
    243       6.0215      0.00000
    244       6.1344      0.00000
    245       6.1422      0.00000
    246       6.1951      0.00000
    247       6.3153      0.00000
    248       6.4314      0.00000
    249       6.6167      0.00000
    250       6.6679      0.00000
    251       6.7650      0.00000
    252       6.8189      0.00000

 soft charge-density along one line, spin component           1
         0         1         2         3         4         5         6         7         8         9
 total charge-density along one line

------------------------ aborting loop because EDIFF is reached ----------------------------------------

 total charge

# of ion       s       p       d       tot
    1        0.445   0.285   9.187   9.917
    2        0.450   0.283   9.188   9.921
    3        0.450   0.283   9.188   9.921
    4        0.449   0.284   9.189   9.922
    5        0.446   0.287   9.187   9.920
    6        0.449   0.284   9.189   9.922
    7        0.449   0.285   9.186   9.920
    8        0.449   0.285   9.186   9.920
    9        0.445   0.285   9.187   9.917
   10        0.441   0.375   9.175   9.992
   11        0.444   0.370   9.182   9.996
   12        0.441   0.375   9.175   9.992
   13        0.443   0.370   9.182   9.995
   14        0.443   0.370   9.182   9.995
   15        0.438   0.372   9.179   9.989
   16        0.442   0.373   9.178   9.993
   17        0.438   0.370   9.183   9.991
   18        0.438   0.370   9.183   9.991
   19        0.442   0.372   9.184   9.999
   20        0.440   0.389   9.174  10.002
   21        0.440   0.389   9.174  10.002
   22        0.437   0.371   9.183   9.991
   23        0.437   0.386   9.178  10.001
   24        0.437   0.371   9.183   9.991
   25        0.442   0.374   9.182   9.999
   26        0.442   0.374   9.182   9.999
   27        0.437   0.373   9.181   9.991
   28        0.455   0.289   9.195   9.938
   29        0.443   0.294   9.198   9.935
   30        0.443   0.294   9.198   9.935
   31        0.436   0.298   9.199   9.932
   32        0.436   0.298   9.199   9.932
   33        0.442   0.294   9.199   9.935
   34        0.442   0.294   9.199   9.935
   35        0.451   0.290   9.194   9.936
   36        0.680   0.610   8.032   9.323
   37        1.607   3.238   0.000   4.845
   38        1.607   3.238   0.000   4.845
tot         19.399  18.742 329.540 367.681

  FORCE on cell =-STRESS in cart. coord.  units (eV):
  Direction    XX          YY          ZZ          XY          YZ          ZX
  Alpha Z   823.10944   823.10944   823.10944
  Ewald  226027.34671225627.62137************     0.00041    -0.07038     0.00019
  Hartree238878.96185238686.83053************     0.00005     0.20507     0.00007
  E(xc)   -2350.41520 -2351.49931 -2355.14467    -0.00029    -0.01607    -0.00005
  Local  ************************477766.30750     0.02051    -0.03692    -0.00078
  n-local  -790.31131  -796.51768  -808.92846     1.75448     0.03016     0.09794
  augment  3367.88044  3376.63387  3386.42759    -0.01828     0.00837     0.00040
  Kinetic  3508.90916  3569.26871  3552.50028     0.98062    -0.23765    -0.10167
  Fock        0.00000     0.00000     0.00000     0.00000     0.00000     0.00000
  Total      -1.38620    -1.06151     1.95922     0.00000    -0.11742     0.00000
  in kB      -1.81969    -1.39346     2.57190     0.00000    -0.15414     0.00000

 VOLUME and BASIS-vectors are now :
  energy-cutoff  :      500.00
  volume of cell :     1220.51
      direct lattice vectors                 reciprocal lattice vectors
     7.696786404  0.000000000  0.000000000     0.129924354 -0.075011849  0.000000000
     3.848392758  6.665612809  0.000000000     0.000000000  0.150023716  0.000000000
     0.000000000  0.000000000 23.789778673     0.000000000  0.000000000  0.042034859

  length of vectors
     7.696786404  7.696786404 23.789778673     0.150023716  0.150023716  0.042034859

 FORCES acting on ions
    electron-ion (+dipol)            ewald-force                    non-local-force                 convergence-correction
   -.414E-04 0.284E-03 0.379E+04   0.579E-04 -.252E-01 -.378E+04   -.296E-08 0.445E-01 -.287E+01   -.327E-03 -.204E-01 -.912E+00
   0.728E-01 0.322E+00 0.379E+04   0.624E-01 -.482E-01 -.378E+04   -.734E-01 -.964E-01 -.198E+01   -.620E-01 -.164E+00 -.795E+00
   -.728E-01 0.322E+00 0.379E+04   -.624E-01 -.482E-01 -.378E+04   0.734E-01 -.964E-01 -.198E+01   0.628E-01 -.161E+00 -.794E+00
   0.212E+00 -.471E-01 0.379E+04   0.109E-01 0.685E-01 -.378E+04   -.100E+00 0.205E-01 -.199E+01   -.113E+00 -.412E-01 -.777E+00
   -.637E-04 0.155E+00 0.379E+04   0.116E-03 0.311E-02 -.378E+04   0.652E-08 -.979E-01 -.203E+01   0.121E-01 -.581E-01 -.652E+00
   -.212E+00 -.470E-01 0.379E+04   -.110E-01 0.683E-01 -.378E+04   0.100E+00 0.205E-01 -.199E+01   0.112E+00 -.400E-01 -.776E+00
   0.279E+00 -.303E+00 0.379E+04   -.509E-01 -.203E-01 -.378E+04   -.104E+00 0.119E+00 -.201E+01   -.101E+00 0.197E+00 -.758E+00
   -.279E+00 -.303E+00 0.379E+04   0.506E-01 -.203E-01 -.378E+04   0.104E+00 0.119E+00 -.201E+01   0.105E+00 0.195E+00 -.759E+00
   -.144E-03 -.246E+00 0.379E+04   0.263E-03 0.221E-01 -.378E+04   -.668E-08 0.100E+00 -.231E+01   -.131E-01 0.124E+00 -.802E+00
   0.274E+01 0.186E+01 0.135E+04   -.223E+01 -.147E+01 -.135E+04   -.374E+00 -.286E+00 -.103E+01   -.103E+00 -.876E-01 -.129E+00
   -.851E-04 -.392E+00 0.135E+04   0.191E-03 0.562E+00 -.134E+04   0.713E-08 -.107E+00 -.950E+00   0.118E-01 -.898E-01 -.277E-01
   -.274E+01 0.186E+01 0.135E+04   0.222E+01 -.147E+01 -.135E+04   0.374E+00 -.286E+00 -.103E+01   0.101E+00 -.870E-01 -.130E+00
   -.462E+00 0.540E-01 0.135E+04   0.658E+00 -.231E+00 -.134E+04   -.132E+00 0.115E+00 -.859E+00   -.896E-01 0.744E-01 0.529E-01
   0.462E+00 0.540E-01 0.135E+04   -.659E+00 -.231E+00 -.134E+04   0.132E+00 0.115E+00 -.859E+00   0.113E+00 0.726E-01 0.499E-01
   -.141E-03 -.442E+00 0.135E+04   0.299E-03 0.360E+00 -.135E+04   -.416E-08 0.624E-01 -.648E+00   -.298E-02 0.172E-01 -.127E+00
   -.890E-04 -.306E+01 0.135E+04   0.186E-03 0.261E+01 -.135E+04   -.190E-07 0.285E+00 -.103E+01   -.118E-02 0.117E+00 -.153E+00
   -.194E+00 0.135E-01 0.135E+04   0.192E+00 -.620E-01 -.135E+04   -.531E-02 0.492E-01 -.540E+00   0.121E-01 0.659E-02 -.178E+00
   0.194E+00 0.135E-01 0.135E+04   -.193E+00 -.620E-01 -.135E+04   0.531E-02 0.492E-01 -.540E+00   -.104E-01 0.889E-02 -.176E+00
   -.544E-04 0.232E+01 -.111E+04   0.671E-04 -.250E+01 0.111E+04   -.636E-08 0.955E-01 0.824E+00   0.108E-02 0.514E-01 0.293E+00
   -.195E+02 -.103E+02 -.111E+04   0.196E+02 0.104E+02 0.111E+04   -.151E+00 -.123E+00 -.220E+00   0.809E-01 0.132E+00 0.444E+00
   0.195E+02 -.103E+02 -.111E+04   -.196E+02 0.104E+02 0.111E+04   0.151E+00 -.123E+00 -.220E+00   -.102E+00 0.130E+00 0.443E+00
   -.953E+01 0.429E+01 -.112E+04   0.904E+01 -.388E+01 0.112E+04   0.497E+00 -.374E+00 0.117E+01   0.245E-01 -.561E-01 0.402E+00
   -.772E-04 0.213E+02 -.111E+04   0.146E-03 -.211E+02 0.111E+04   0.565E-08 -.849E-01 0.176E+00   -.139E-01 -.193E+00 0.491E+00
   0.953E+01 0.429E+01 -.112E+04   -.904E+01 -.388E+01 0.112E+04   -.497E+00 -.374E+00 0.117E+01   -.826E-03 -.565E-01 0.402E+00
   -.163E+01 -.185E+00 -.112E+04   0.159E+01 0.261E+00 0.112E+04   0.624E-01 -.655E-01 0.737E+00   0.132E-01 -.712E-02 0.280E+00
   0.163E+01 -.185E+00 -.112E+04   -.159E+01 0.261E+00 0.112E+04   -.624E-01 -.655E-01 0.737E+00   -.141E-01 -.498E-02 0.280E+00
   -.123E-03 -.103E+02 -.112E+04   0.246E-03 0.101E+02 0.112E+04   -.224E-07 0.337E+00 0.109E+01   0.113E-01 -.421E-01 0.408E+00
   -.326E-04 0.639E+01 -.358E+04   0.339E-04 -.620E+01 0.358E+04   0.165E-07 -.248E+00 0.210E+01   -.107E-03 0.258E-01 0.534E+00
   0.744E+01 0.273E+02 -.356E+04   -.772E+01 -.288E+02 0.356E+04   0.208E+00 0.131E+01 0.292E+01   -.383E-01 -.639E-01 0.381E+00
   -.744E+01 0.273E+02 -.356E+04   0.772E+01 -.288E+02 0.356E+04   -.208E+00 0.131E+01 0.292E+01   0.388E-01 -.628E-01 0.380E+00
   0.305E+02 -.193E+01 -.355E+04   -.326E+02 0.209E+01 0.354E+04   0.183E+01 -.151E+00 0.326E+01   -.750E-01 0.155E-01 0.433E+00
   -.305E+02 -.193E+01 -.355E+04   0.326E+02 0.209E+01 0.354E+04   -.183E+01 -.151E+00 0.326E+01   0.750E-01 0.162E-01 0.434E+00
   0.896E+01 -.247E+02 -.356E+04   -.949E+01 0.261E+02 0.356E+04   0.432E+00 -.119E+01 0.281E+01   -.419E-01 0.255E-01 0.369E+00
   -.896E+01 -.247E+02 -.356E+04   0.949E+01 0.261E+02 0.356E+04   -.432E+00 -.119E+01 0.281E+01   0.444E-01 0.252E-01 0.370E+00
   -.169E-03 -.575E+01 -.359E+04   0.262E-03 0.555E+01 0.358E+04   -.174E-07 0.262E+00 0.230E+01   -.123E-01 -.376E-01 0.472E+00
   -.276E-04 -.194E+01 -.299E+04   0.122E-03 0.194E+01 0.299E+04   0.143E-08 -.214E-01 0.581E+01   0.201E-02 0.258E-01 -.166E+00
   0.233E+03 0.380E-01 -.232E+04   -.270E+03 -.399E-01 0.234E+04   0.372E+02 -.608E-02 -.134E+02   -.176E+00 0.303E-02 -.163E+00
   -.233E+03 0.379E-01 -.232E+04   0.270E+03 -.399E-01 0.234E+04   -.372E+02 -.608E-02 -.134E+02   0.176E+00 0.307E-02 -.163E+00
   0.124E-03 0.758E+00 0.212E+02   0.000E+00 -.211E-12 0.114E-10   0.489E-07 -.735E+00 -.198E+02   0.254E-01 -.751E-02 -.152E+01

 POSITION                                       TOTAL-FORCE (eV/Angst)
      0.00000      0.00000      5.37156         0.000000     -0.001246      0.100194
      2.56560      0.00000      5.37156        -0.000685      0.014412      0.068709
      5.13119      0.00000      5.37156         0.000685      0.014412      0.068709
      1.28280      2.22187      5.37156         0.009926      0.000821      0.073146
      3.84839      2.22187      5.37156        -0.000000      0.001837      0.047171
      6.41399      2.22187      5.37156        -0.009926      0.000821      0.073146
      2.56560      4.44374      5.37156         0.021281     -0.009321      0.074146
      5.13119      4.44374      5.37156        -0.021281     -0.009321      0.074146
      7.69679      4.44374      5.37156        -0.000000      0.000779      0.077571
      1.28280      0.74062      7.46636         0.035637      0.019148     -0.055982
      3.84839      0.74062      7.46636         0.000000     -0.027236     -0.147335
      6.41399      0.74062      7.46636        -0.035637      0.019148     -0.055982
      2.56560      2.96249      7.46636        -0.036119      0.011518     -0.159038
      5.13119      2.96249      7.46636         0.036119      0.011518     -0.159038
      7.69679      2.96249      7.46636         0.000000     -0.002835     -0.036079
      3.84839      5.18437      7.46636         0.000000     -0.051875     -0.078046
      6.41399      5.18437      7.46636         0.004360      0.007986     -0.038122
      8.97958      5.18437      7.46636        -0.004360      0.007986     -0.038122
      7.69679      1.48680      9.55287         0.000000     -0.028631     -0.017014
      2.54973      1.47208      9.52995         0.115449      0.080194      0.059039
      5.14706      1.47208      9.52995        -0.115449      0.080194      0.059039
      8.97744      3.70436      9.55084         0.017378     -0.019313      0.026736
      3.84839      3.72144      9.52995         0.000000     -0.121059     -0.010010
      6.41613      3.70436      9.55084        -0.017378     -0.019313      0.026736
     10.25757      5.92221      9.55287         0.033961      0.003941     -0.007314
      5.13600      5.92221      9.55287        -0.033961      0.003941     -0.007314
      7.69679      5.92251      9.55084        -0.000000      0.017428      0.037958
      0.00000      0.00000     11.61595         0.000000     -0.032384      0.001730
      6.40108      6.64688     11.64473        -0.115290     -0.236170     -0.075150
      8.99249      6.64688     11.64473         0.115290     -0.236170     -0.075150
      8.95691      2.22006     11.64473        -0.314116      0.016745     -0.159063
      6.43666      2.22006     11.64473         0.314116      0.016745     -0.159063
     10.25261      4.46428     11.64473        -0.148529      0.221427     -0.067342
      5.14096      4.46428     11.64473         0.148529      0.221427     -0.067342
      7.69679      4.44374     11.61500        -0.000000      0.026953      0.036819
      3.84839      2.22187     11.65010        -0.000000      0.006309      0.615494
      3.16100      2.20888     13.71984        -0.061433     -0.005407     -0.053988
      4.53578      2.20888     13.71984         0.061433     -0.005407     -0.053988
    total drift:                                0.025488      0.016004     -0.091858

  FREE ENERGIE OF THE ION-ELECTRON SYSTEM (eV)
  free  energy   TOTEN  =      -138.27310610 eV

  energy  without entropy=     -138.27310610  energy(sigma->0) =     -138.27310610

 stress matrix after NEB project (eV)
     -1.38620      0.00000      0.00000
      0.00000     -1.06151     -0.11742
      0.00000     -0.11742      1.95922
  FORCES: max atom, RMS     0.081963    0.018804
  FORCE total and by dimension    0.115913    0.061433
  Stress total and by dimension    2.629542    1.959224
|           W    W    AA    RRRRR   N    N  II  N    N   GGGG   !!!           |
|           W    W   A  A   R    R  NN   N  II  NN   N  G    G  !!!           |
|           W    W  A    A  R    R  N N  N  II  N N  N  G       !!!           |
|           W WW W  AAAAAA  RRRRR   N  N N  II  N  N N  G  GGG   !            |
|           WW  WW  A    A  R   R   N   NN  II  N   NN  G    G                |
|           W    W  A    A  R    R  N    N  II  N    N   GGGG   !!!           |
|     Tetrahedron method does not include variations of the Fermi             |
|     occupations, so forces and stress will be inaccurate. We suggest        |
|     using a different smearing scheme ISMEAR = 1 or 2 for metals in         |
|     relaxations.                                                            |

 total charge

# of ion       s       p       d       tot
    1        0.445   0.285   9.187   9.917
    2        0.450   0.283   9.188   9.921
    3        0.450   0.283   9.188   9.921
    4        0.449   0.284   9.189   9.922
    5        0.446   0.287   9.187   9.920
    6        0.449   0.284   9.189   9.922
    7        0.449   0.285   9.186   9.920
    8        0.449   0.285   9.186   9.920
    9        0.445   0.285   9.187   9.917
   10        0.441   0.375   9.175   9.992
   11        0.444   0.370   9.182   9.996
   12        0.441   0.375   9.175   9.992
   13        0.443   0.370   9.182   9.995
   14        0.443   0.370   9.182   9.995
   15        0.438   0.372   9.179   9.989
   16        0.442   0.373   9.178   9.993
   17        0.438   0.370   9.183   9.991
   18        0.438   0.370   9.183   9.991
   19        0.442   0.372   9.184   9.999
   20        0.440   0.389   9.174  10.002
   21        0.440   0.389   9.174  10.002
   22        0.437   0.371   9.183   9.991
   23        0.437   0.386   9.178  10.001
   24        0.437   0.371   9.183   9.991
   25        0.442   0.374   9.182   9.999
   26        0.442   0.374   9.182   9.999
   27        0.437   0.373   9.181   9.991
   28        0.455   0.289   9.195   9.938
   29        0.443   0.294   9.198   9.935
   30        0.443   0.294   9.198   9.935
   31        0.436   0.298   9.199   9.932
   32        0.436   0.298   9.199   9.932
   33        0.442   0.294   9.199   9.935
   34        0.442   0.294   9.199   9.935
   35        0.451   0.290   9.194   9.936
   36        0.680   0.610   8.032   9.323
   37        1.607   3.238   0.000   4.845
   38        1.607   3.238   0.000   4.845
tot         19.399  18.742 329.540 367.681

 BZINTS: Fermi energy:   -0.517548;  407.000000 electrons
         Band energy:-0.142868E+04;  BLOECHL correction:   -0.043010