 vasp.6.2.0 18Jan21 (build Jun 12 2021 23:27:24) complex

 executed on             LinuxIFC date 2022.05.28  01:38:33

 INCAR:
   ISMEAR = -5
   SIGMA = 0.1
   ISPIN = 1
   EDIFF = 1.d-5
   EDIFFG = -0.01
   NSW = 0
   NELM = 150
   ENCUT = 500
   ISIF = 2
   IBRION = 2
   LREAL = Auto
   ALGO = Fast
   ICHARG = 11
   LORBIT = 10
   LCHARG = .F.
   LWAVE = .F.

 POTCAR:    PAW_PBE Ag 02Apr2005
 POTCAR:    PAW_PBE Ni 02Aug2007
 POTCAR:    PAW_PBE O 08Apr2002
 POTCAR:    PAW_PBE H 15Jun2001
|           W    W    AA    RRRRR   N    N  II  N    N   GGGG   !!!           |
|           W    W   A  A   R    R  NN   N  II  NN   N  G    G  !!!           |
|           W    W  A    A  R    R  N N  N  II  N N  N  G       !!!           |
|           W WW W  AAAAAA  RRRRR   N  N N  II  N  N N  G  GGG   !            |
|           WW  WW  A    A  R   R   N   NN  II  N   NN  G    G                |
|           W    W  A    A  R    R  N    N  II  N    N   GGGG   !!!           |
|     For optimal performance we recommend to set                             |
|       NCORE = 2 up to number-of-cores-per-socket                            |
|     This setting can greatly improve the performance of VASP for DFT.       |
|     The default, NCORE=1 might be grossly inefficient on modern             |
|     multi-core architectures or massively parallel machines. Do your        |
|     Unfortunately you need to use the default for GW and RPA                |
|     calculations (for HF NCORE is supported but not extensively tested      |
|     yet).                                                                   |

 POTCAR:    PAW_PBE Ag 02Apr2005
   VRHFIN =Ag : s1 d10

   TITEL  = PAW_PBE Ag 02Apr2005
   POMASS =  107.868; ZVAL   =   11.000    mass and valenz
   ENMAX  =  249.844; ENMIN  =  187.383 eV

 POTCAR:    PAW_PBE Ni 02Aug2007
   VRHFIN =Ni:

   TITEL  = PAW_PBE Ni 02Aug2007
   POMASS =   58.690; ZVAL   =   10.000    mass and valenz
   ENMAX  =  269.532; ENMIN  =  202.149 eV

 POTCAR:    PAW_PBE O 08Apr2002
   VRHFIN =O: s2p4

   TITEL  = PAW_PBE O 08Apr2002
   POMASS =   16.000; ZVAL   =    6.000    mass and valenz
   ENMAX  =  400.000; ENMIN  =  300.000 eV

 POTCAR:    PAW_PBE H 15Jun2001
   VRHFIN =H: ultrasoft test

   TITEL  = PAW_PBE H 15Jun2001
   POMASS =    1.000; ZVAL   =    1.000    mass and valenz
   ENMAX  =  250.000; ENMIN  =  200.000 eV

 Optimization of the real space projectors (new method)

 maximal supplied QI-value         = 15.12
 optimisation between [QCUT,QGAM] = [ 11.34, 22.83] = [ 36.00,145.93] Ry
 Optimized for a Real-space Cutoff    1.43 Angstroem

   l    n(q)    QCUT    max X(q) W(low)/X(q) W(high)/X(q)  e(spline)
   2      9    11.338    53.897    0.16E-03    0.20E-03    0.28E-06
   2      9    11.338    52.416    0.16E-03    0.20E-03    0.29E-06
   0     10    11.338   122.045    0.31E-04    0.76E-04    0.15E-06
   0     10    11.338    73.629    0.30E-04    0.72E-04    0.15E-06
   1      9    11.338    15.255    0.20E-03    0.19E-04    0.17E-06
   1      9    11.338     9.562    0.16E-03    0.15E-04    0.14E-06
 Optimization of the real space projectors (new method)

[...]

   l    n(q)    QCUT    max X(q) W(low)/X(q) W(high)/X(q)  e(spline)
   0      7    11.387    20.381    0.39E-03    0.13E-02    0.15E-06
   0      7    11.387    15.268    0.42E-03    0.14E-02    0.17E-06
   1      6    11.387     5.964    0.41E-03    0.11E-02    0.17E-06
   1      6    11.387     5.382    0.39E-03    0.87E-03    0.15E-06
 Optimization of the real space projectors (new method)

 maximal supplied QI-value         = 34.20
 optimisation between [QCUT,QGAM] = [ 11.29, 22.57] = [ 35.68,142.71] Ry
 Optimized for a Real-space Cutoff    1.16 Angstroem

   l    n(q)    QCUT    max X(q) W(low)/X(q) W(high)/X(q)  e(spline)
   0      8    11.287    19.460    0.40E-03    0.73E-03    0.16E-06
   0      8    11.287    12.209    0.38E-03    0.70E-03    0.15E-06
   1      7    11.287     4.655    0.22E-03    0.25E-04    0.22E-06
  PAW_PBE Ag 02Apr2005                  :
  PAW_PBE Ni 02Aug2007                  :
  PAW_PBE O 08Apr2002                   :
  PAW_PBE H 15Jun2001                   :

 POSCAR: Ag-Ni-OOH
  positions in direct lattice
  velocities in cartesian coordinates
 exchange correlation table for  LEXCH =        8
   RHO(1)=    0.500       N(1)  =     2000
   RHO(2)=  100.500       N(2)  =     4000

 VTST: version 3.2, (02/03/18)

 CHAIN: initializing optimizer

 OPT: Using VASP Conjugate-Gradient optimizer
 CHAIN: Read ICHAIN            0

 POSCAR: Ag-Ni-OOH
  positions in direct lattice
  velocities in cartesian coordinates

 ion  position               nearest neighbor table
   1  0.000  0.000  0.204-   2 2.93   8 2.93   7 2.93   6 2.93   4 2.93  12 2.93  16 2.93  10 2.93
                             3 2.93
   2  0.333  0.000  0.204-   1 2.93   8 2.93   9 2.93   3 2.93   4 2.93   5 2.93  10 2.93  17 2.93
                            11 2.93
   3  0.667  0.000  0.204-   9 2.93   2 2.93   5 2.93  11 2.93   7 2.93  18 2.93   1 2.93   6 2.93
                            12 2.93
   4  0.000  0.333  0.204-   5 2.93   6 2.93   2 2.93   1 2.93   7 2.93  13 2.93  15 2.93   9 2.93
                            10 2.93
   5  0.333  0.333  0.204-   4 2.93   3 2.93   7 2.93   2 2.93   8 2.93  14 2.93  13 2.93  11 2.93
                             6 2.93
   6  0.667  0.333  0.204-   4 2.93   9 2.93   1 2.93  15 2.93   8 2.93  12 2.93   3 2.93   5 2.93
                            14 2.93
   7  0.000  0.667  0.204-   8 2.93   1 2.93   5 2.93   3 2.93   4 2.93  16 2.93  18 2.93  13 2.93
                             9 2.93
   8  0.333  0.667  0.204-   7 2.93   1 2.93   2 2.93   9 2.93   5 2.93  16 2.93   6 2.93  17 2.93
                            14 2.93
   9  0.667  0.667  0.204-   3 2.93   2 2.93   8 2.93   6 2.93  17 2.93   4 2.93  15 2.93   7 2.93
                            18 2.93
  10  0.111  0.111  0.296-  20 2.91  19 2.92  26 2.92  12 2.93  16 2.93  15 2.93  17 2.93  13 2.93
                            11 2.93   2 2.93   1 2.93   4 2.93
  11  0.444  0.111  0.296-  21 2.91  20 2.91  27 2.91  14 2.93  17 2.93  18 2.93   3 2.93  12 2.93
                            13 2.93  10 2.93   5 2.93   2 2.93
  12  0.778  0.111  0.296-  21 2.91  25 2.92  19 2.92  10 2.93  16 2.93  18 2.93  15 2.93  11 2.93
                             1 2.93  14 2.93   6 2.93   3 2.93
  13  0.111  0.444  0.296-  20 2.91  23 2.91  22 2.91  15 2.93  14 2.93  18 2.93  10 2.93  11 2.93
                            16 2.93   4 2.93   5 2.93   7 2.93
  14  0.444  0.444  0.296-  23 2.91  21 2.91  24 2.91  13 2.93  11 2.93  16 2.93   5 2.93  12 2.93
                            17 2.93   8 2.93  15 2.93   6 2.93
  15  0.778  0.444  0.296-  24 2.91  22 2.91  19 2.92  13 2.93  10 2.93  12 2.93  17 2.93  18 2.93
                             4 2.93   6 2.93   9 2.93  14 2.93
  16  0.111  0.778  0.296-  23 2.91  26 2.92  25 2.92  18 2.93  12 2.93  10 2.93  14 2.93  17 2.93
                            13 2.93   7 2.93   8 2.93   1 2.93
  17  0.444  0.778  0.296-  27 2.91  24 2.91  26 2.92  11 2.93  10 2.93   9 2.93  18 2.93  15 2.93
                            16 2.93   2 2.93  14 2.93   8 2.93
  18  0.778  0.778  0.296-  22 2.91  27 2.91  25 2.92  16 2.93  12 2.93  13 2.93  11 2.93  17 2.93
                            15 2.93   7 2.93   3 2.93   9 2.93
  19  0.889  0.223  0.388-  28 2.91  15 2.92  10 2.92  12 2.92  24 2.93  22 2.93  32 2.94  31 2.94
                            26 2.94  25 2.94  20 2.94  21 2.94
  20  0.223  0.223  0.388-  36 2.69  31 2.89  29 2.89  13 2.91  11 2.91  10 2.91  21 2.92  23 2.92
                            27 2.93  22 2.93  19 2.94  26 2.94
  21  0.554  0.223  0.388-  36 2.69  30 2.89  32 2.89  11 2.91  14 2.91  12 2.91  20 2.92  23 2.92
                            27 2.93  24 2.93  25 2.94  19 2.94
  22  0.889  0.556  0.388-  18 2.91  15 2.91  35 2.91  13 2.91  33 2.91  31 2.91  24 2.93  27 2.93
                            25 2.93  19 2.93  23 2.93  20 2.93
  23  0.223  0.554  0.388-  36 2.69  34 2.89  33 2.89  14 2.91  13 2.91  16 2.91  21 2.92  20 2.92
                            22 2.93  24 2.93  26 2.94  25 2.94
  24  0.556  0.556  0.388-  15 2.91  17 2.91  35 2.91  14 2.91  32 2.91  34 2.91  27 2.93  22 2.93
                            19 2.93  26 2.93  23 2.93  21 2.93
  25  0.889  0.889  0.388-  28 2.91  18 2.92  16 2.92  12 2.92  22 2.93  27 2.93  33 2.94  30 2.94
                            26 2.94  19 2.94  23 2.94  21 2.94
  26  0.223  0.889  0.388-  28 2.91  17 2.92  16 2.92  10 2.92  27 2.93  24 2.93  34 2.94  29 2.94
                            25 2.94  19 2.94  23 2.94  20 2.94
  27  0.556  0.889  0.388-  17 2.91  18 2.91  35 2.91  11 2.91  29 2.91  30 2.91  24 2.93  22 2.93
                            26 2.93  25 2.93  20 2.93  21 2.93
  28  0.000  0.000  0.480-  26 2.91  25 2.91  19 2.91  29 2.96  34 2.96  33 2.96  32 2.96  31 2.96
                            30 2.96
  29  0.333  0.007  0.479-  30 2.87  31 2.87  36 2.88  20 2.89  27 2.91  26 2.94  35 2.96  28 2.96
                            34 3.06
  30  0.659  0.007  0.479-  29 2.87  32 2.87  36 2.88  21 2.89  27 2.91  25 2.94  35 2.96  28 2.96
                            33 3.06
  31  0.007  0.333  0.479-  33 2.87  29 2.87  36 2.88  20 2.89  22 2.91  19 2.94  35 2.96  28 2.96
                            32 3.06
  32  0.659  0.333  0.479-  37 2.61  34 2.87  30 2.87  36 2.88  21 2.89  24 2.91  19 2.94  35 2.96
                            28 2.96  31 3.06
  33  0.007  0.659  0.479-  31 2.87  34 2.87  36 2.88  23 2.89  22 2.91  25 2.94  35 2.96  28 2.96
                            30 3.06
  34  0.333  0.659  0.479-  37 2.59  32 2.87  33 2.87  36 2.88  23 2.89  24 2.91  26 2.94  35 2.96
                            28 2.96  29 3.06
  35  0.667  0.667  0.479-  24 2.91  27 2.91  22 2.91  30 2.96  32 2.96  29 2.96  34 2.96  31 2.96
                            33 2.96
  36  0.333  0.333  0.469-  37 1.83  21 2.69  20 2.69  23 2.69  31 2.88  33 2.88  30 2.88  29 2.88
                            34 2.88  32 2.88
  37  0.384  0.388  0.532-  38 1.53  36 1.83  34 2.59  32 2.61
  38  0.316  0.331  0.579-  39 0.98  37 1.53
  39  0.389  0.342  0.605-  38 0.98

  LATTYP: Found a hexagonal cell.
 ALAT       =     8.7913665772
 C/A-ratio  =     2.9469639759

  Lattice vectors:

 A1 = (  -4.3956832886,  -7.6135467898,   0.0000000000)
 A2 = (   8.7913665771,   0.0000000000,   0.0000000000)
 A3 = (   0.0000000000,   0.0000000000,  25.9078406020)

Analysis of symmetry for initial positions (statically):
 Subroutine PRICEL returns:
 Original cell was already a primitive cell.

 Routine SETGRP: Setting up the symmetry group for a
 hexagonal supercell.

 Subroutine GETGRP returns: Found  1 space group operations
 (whereof  1 operations were pure point group operations)
 out of a pool of 24 trial point group operations.

The static configuration has the point symmetry C_1 .

Analysis of symmetry for dynamics (positions and initial velocities):
 Subroutine PRICEL returns:
 Original cell was already a primitive cell.

[...]

The dynamic configuration has the point symmetry C_1 .

Analysis of constrained symmetry for selective dynamics:
 Subroutine PRICEL returns:
[...]
     41      -4.9987      2.00000
     42      -4.9775      2.00000
     43      -4.9692      2.00000
     44      -4.9550      2.00000
     45      -4.9434      2.00000
     46      -4.9289      2.00000
     47      -4.8657      2.00000
     48      -4.8398      2.00000
     49      -4.8292      2.00000
     50      -4.8196      2.00000
     51      -4.8094      2.00000
     52      -4.8064      2.00000
     53      -4.8007      2.00000
     54      -4.7880      2.00000
     55      -4.7705      2.00000
     56      -4.7591      2.00000
     57      -4.7497      2.00000
     58      -4.6881      2.00000
     59      -4.6854      2.00000
     60      -4.6718      2.00000
[...]
    238       5.1653      0.00000
    239       5.2511      0.00000
    240       5.4064      0.00000
    241       5.5559      0.00000
    242       5.6091      0.00000
    243       5.6808      0.00000
    244       5.7242      0.00000
    245       5.8171      0.00000
    246       5.8982      0.00000
    247       6.1190      0.00000
    248       6.1599      0.00000
    249       6.2026      0.00000
    250       6.3496      0.00000
    251       6.4812      0.00000
    252       6.6051      0.00000

 soft charge-density along one line, spin component           1
         0         1         2         3         4         5         6         7         8         9
 total charge-density along one line

------------------------ aborting loop because EDIFF is reached ----------------------------------------

 total charge

# of ion       s       p       d       tot
    1        0.416   0.203   9.178   9.796
    2        0.419   0.204   9.176   9.798
    3        0.418   0.203   9.177   9.798
    4        0.419   0.204   9.176   9.799
    5        0.417   0.204   9.176   9.797
    6        0.417   0.203   9.177   9.798
    7        0.418   0.203   9.177   9.798
    8        0.417   0.203   9.178   9.798
    9        0.415   0.204   9.179   9.797
   10        0.407   0.269   9.163   9.839
   11        0.408   0.268   9.167   9.843
   12        0.404   0.270   9.165   9.838
   13        0.408   0.268   9.167   9.843
   14        0.408   0.268   9.167   9.843
   15        0.402   0.271   9.165   9.838
   16        0.404   0.269   9.165   9.838
   17        0.402   0.271   9.165   9.838
   18        0.403   0.271   9.165   9.838
   19        0.402   0.269   9.166   9.837
   20        0.424   0.289   9.147   9.860
   21        0.416   0.290   9.155   9.860
   22        0.402   0.272   9.168   9.842
   23        0.416   0.289   9.155   9.860
   24        0.401   0.276   9.164   9.841
   25        0.401   0.269   9.165   9.835
   26        0.402   0.269   9.166   9.836
   27        0.402   0.272   9.168   9.842
   28        0.416   0.194   9.181   9.791
   29        0.412   0.199   9.182   9.793
   30        0.403   0.199   9.188   9.790
   31        0.413   0.199   9.182   9.794
   32        0.394   0.203   9.191   9.788
   33        0.402   0.198   9.189   9.788
   34        0.393   0.204   9.190   9.787
   35        0.411   0.197   9.180   9.788
   36        0.416   0.359   8.353   9.129
   37        1.595   3.250   0.000   4.846
   38        1.593   3.373   0.000   4.966
   39        0.624   0.114   0.000   0.738
tot         18.537  15.440 329.371 363.348

  FORCE on cell =-STRESS in cart. coord.  units (eV):
  Direction    XX          YY          ZZ          XY          YZ          ZX
  Alpha Z   660.22906   660.22906   660.22906
  Ewald  179815.46838179681.46948************    76.80990   -46.51620   -54.83807
  Hartree190069.12193190009.42645************    40.93236   -30.49985   -52.96401
  E(xc)   -2146.74533 -2147.12811 -2151.34050     0.17560    -0.07287     0.01707
  Local  ************************380518.40277  -107.85201    72.43836   108.65130
  n-local  -381.85910  -383.62388  -385.00255     1.32918    -1.56609    -2.95679
  augment  3410.79096  3413.22498  3411.14663    -1.38308    -0.59110    -1.58478
  Kinetic  5114.78562  5138.09193  5115.27115   -10.00036     6.95242     3.83652
  Fock        0.00000     0.00000     0.00000     0.00000     0.00000     0.00000
  Total      -9.25185    -9.31944    -1.97338     0.01159     0.14466     0.16126
  in kB      -8.54800    -8.61045    -1.82325     0.01071     0.13366     0.14899

 VOLUME and BASIS-vectors are now :
  energy-cutoff  :      500.00
  volume of cell :     1734.10
      direct lattice vectors                 reciprocal lattice vectors
     8.791366577  0.000000000  0.000000000     0.113747958 -0.065672414  0.000000000
     4.395683289  7.613546790  0.000000000     0.000000000  0.131344829  0.000000000
     0.000000000  0.000000000 25.907840602     0.000000000  0.000000000  0.038598354

  length of vectors
     8.791366577  8.791366577 25.907840602     0.131344829  0.131344829  0.038598354

 FORCES acting on ions
    electron-ion (+dipol)            ewald-force                    non-local-force                 convergence-correction
   0.879E-01 0.377E-01 0.283E+04   0.395E-01 0.277E-01 -.283E+04   -.818E-01 -.410E-01 -.215E+01   -.271E-01 -.138E-01 -.167E+00
   0.582E+00 0.563E+00 0.283E+04   -.673E+00 -.663E+00 -.283E+04   0.947E-01 0.715E-01 -.153E+01   -.692E-02 0.432E-01 -.124E+00
   -.692E+00 0.740E+00 0.283E+04   0.634E+00 -.777E+00 -.283E+04   0.722E-02 0.291E-01 -.166E+01   0.377E-01 0.167E-01 -.189E+00
   0.787E+00 0.228E+00 0.283E+04   -.915E+00 -.257E+00 -.283E+04   0.106E+00 0.497E-01 -.153E+01   0.331E-01 -.303E-01 -.123E+00
   0.200E+00 0.117E+00 0.284E+04   -.121E+00 -.784E-01 -.283E+04   -.904E-01 -.470E-01 -.154E+01   0.116E-01 0.808E-02 -.123E+00
   -.989E+00 0.314E+00 0.283E+04   0.104E+01 -.280E+00 -.283E+04   -.188E-01 -.446E-01 -.178E+01   -.382E-01 0.996E-02 -.236E+00
   0.299E+00 -.968E+00 0.283E+04   -.361E+00 0.943E+00 -.283E+04   0.254E-01 -.155E-01 -.164E+01   0.371E-01 0.247E-01 -.176E+00
   -.227E+00 -.101E+01 0.283E+04   0.282E+00 0.104E+01 -.283E+04   -.486E-01 -.301E-03 -.178E+01   -.121E-01 -.398E-01 -.227E+00
   -.503E-01 -.283E-01 0.283E+04   0.784E-01 0.486E-01 -.283E+04   0.950E-02 -.113E-02 -.194E+01   -.332E-01 -.164E-01 -.182E+00
   0.593E+01 0.342E+01 0.102E+04   -.561E+01 -.324E+01 -.101E+04   -.332E+00 -.183E+00 -.804E+00   0.220E-01 0.115E-01 0.145E+00
   0.516E+00 0.774E+01 0.103E+04   -.567E+00 -.788E+01 -.103E+04   0.541E-01 0.685E-01 -.343E+00   -.696E-02 0.450E-01 0.245E+00
   -.643E+01 0.401E+01 0.102E+04   0.617E+01 -.393E+01 -.102E+04   0.263E+00 -.867E-01 -.636E+00   -.173E-01 0.254E-02 0.140E+00
   0.696E+01 -.337E+01 0.103E+04   -.711E+01 0.340E+01 -.103E+04   0.872E-01 0.445E-02 -.338E+00   0.353E-01 -.247E-01 0.247E+00
   -.610E+01 -.348E+01 0.103E+04   0.626E+01 0.356E+01 -.103E+04   -.104E+00 -.593E-01 -.596E+00   -.403E-01 -.194E-01 0.206E+00
   -.842E+00 0.105E+01 0.102E+04   0.846E+00 -.107E+01 -.102E+04   -.238E-01 0.823E-02 -.696E+00   0.202E-01 0.894E-04 0.121E+00
   0.247E+00 -.763E+01 0.102E+04   -.313E+00 0.736E+01 -.102E+04   0.587E-01 0.275E+00 -.652E+00   -.410E-02 -.204E-01 0.135E+00
   0.457E+00 -.128E+01 0.102E+04   -.466E+00 0.130E+01 -.102E+04   -.547E-02 -.288E-01 -.704E+00   0.489E-02 0.172E-01 0.117E+00
   -.715E+00 -.468E+00 0.102E+04   0.778E+00 0.502E+00 -.102E+04   -.427E-01 -.193E-01 -.649E+00   0.949E-03 -.217E-02 0.147E+00
   -.468E+01 0.625E+01 -.844E+03   0.455E+01 -.633E+01 0.843E+03   0.822E-01 0.100E+00 0.698E+00   0.246E-01 -.122E-01 0.215E+00
   0.476E+02 0.278E+02 -.780E+03   -.469E+02 -.274E+02 0.780E+03   -.103E+01 -.606E+00 -.103E+01   0.327E+00 0.189E+00 0.501E+00
   -.430E+02 0.325E+02 -.768E+03   0.425E+02 -.322E+02 0.768E+03   0.790E+00 -.433E+00 -.602E+00   -.329E+00 0.158E+00 0.510E+00
   0.195E+02 -.110E+02 -.828E+03   -.197E+02 0.111E+02 0.827E+03   0.901E-01 -.668E-01 0.555E+00   0.129E+00 -.409E-01 0.212E+00
   0.641E+01 -.533E+02 -.767E+03   -.640E+01 0.527E+02 0.767E+03   0.223E-01 0.897E+00 -.628E+00   -.273E-01 -.362E+00 0.500E+00
   -.257E+02 -.147E+02 -.819E+03   0.259E+02 0.148E+02 0.818E+03   -.826E-01 -.505E-01 0.453E+00   -.105E+00 -.597E-01 0.214E+00
   -.305E+01 -.212E+01 -.844E+03   0.313E+01 0.217E+01 0.843E+03   -.436E-01 -.336E-01 0.761E+00   -.244E-01 -.172E-01 0.246E+00
   0.284E+01 -.744E+01 -.843E+03   -.298E+01 0.736E+01 0.843E+03   0.132E+00 0.315E-01 0.681E+00   -.984E-04 0.250E-01 0.212E+00
   0.141E+00 0.220E+02 -.829E+03   -.144E+00 -.222E+02 0.828E+03   -.264E-01 0.123E+00 0.560E+00   0.270E-01 0.132E+00 0.214E+00
   -.479E+01 -.353E+01 -.271E+04   0.470E+01 0.346E+01 0.271E+04   0.133E+00 0.884E-01 0.186E+01   -.381E-01 -.111E-01 0.162E+00
   0.485E+02 0.770E+02 -.269E+04   -.484E+02 -.770E+02 0.269E+04   -.256E+00 -.406E+00 0.219E+01   0.129E+00 0.262E+00 -.902E-04
   -.440E+02 0.105E+03 -.268E+04   0.439E+02 -.106E+03 0.268E+04   0.180E+00 0.240E+00 0.250E+01   -.721E-01 0.200E+00 0.407E-01
   0.925E+02 0.495E+01 -.269E+04   -.925E+02 -.492E+01 0.269E+04   -.473E+00 -.796E-02 0.219E+01   0.277E+00 -.427E-01 -.703E-02
   -.157E+03 0.194E+02 -.265E+04   0.158E+03 -.195E+02 0.265E+04   -.591E+00 0.292E-01 0.293E+01   -.258E+00 -.491E-01 0.669E-01
   0.710E+02 -.935E+02 -.268E+04   -.717E+02 0.938E+02 0.268E+04   0.380E+00 -.448E-01 0.259E+01   0.128E+00 -.150E+00 0.219E-01
   -.647E+02 -.147E+03 -.265E+04   0.653E+02 0.148E+03 0.264E+04   -.337E+00 -.538E+00 0.292E+01   -.141E+00 -.199E+00 0.614E-01
   -.117E+02 -.741E+01 -.271E+04   0.116E+02 0.734E+01 0.271E+04   0.791E-01 0.453E-01 0.190E+01   0.349E-01 0.283E-01 0.147E+00
   0.877E+02 0.554E+02 -.206E+04   -.878E+02 -.556E+02 0.206E+04   0.334E-01 0.119E+00 -.175E+01   -.630E-01 -.532E-01 -.353E+00
   -.117E+03 -.635E+02 -.174E+04   0.137E+03 0.746E+02 0.173E+04   -.192E+02 -.108E+02 0.511E+01   -.275E+00 -.226E+00 -.505E+00
   0.139E+03 0.582E+02 -.179E+04   -.180E+03 -.686E+02 0.179E+04   0.417E+02 0.104E+02 0.798E+01   0.162E-02 -.395E-01 -.131E+00
   -.547E+02 -.298E+01 -.333E+03   0.604E+02 0.366E+01 0.339E+03   -.567E+01 -.676E+00 -.588E+01   0.647E-02 0.243E-03 0.237E-02
   -.157E+02 0.186E+01 -.740E+01   0.213E-13 -.147E-13 -.733E-11   0.159E+02 -.162E+01 0.504E+01   -.231E+00 -.256E+00 0.228E+01

 POSITION                                       TOTAL-FORCE (eV/Angst)
      0.00000      0.00000      5.28219         0.018623      0.010918      0.025945
      2.93046      0.00000      5.28219        -0.002911      0.014836      0.031364
      5.86091      0.00000      5.28219        -0.013425      0.008455      0.042222
      1.46523      2.53785      5.28219         0.011121     -0.009963      0.032218
      4.39568      2.53785      5.28219        -0.000201      0.000036      0.021513
      7.32614      2.53785      5.28219        -0.010232     -0.000338      0.041253
      2.93046      5.07570      5.28219         0.000764     -0.015275      0.041199
      5.86091      5.07570      5.28219        -0.005605     -0.008320      0.039067
      8.79137      5.07570      5.28219         0.004477      0.003050      0.020530
      1.46523      0.84595      7.67490         0.012288      0.006700      0.002033
      4.39568      0.84595      7.67490        -0.003679     -0.023420     -0.063633
      7.32614      0.84595      7.67490        -0.015656     -0.002807     -0.000343
      2.93046      3.38380      7.67490        -0.021940      0.008930     -0.064320
      5.86091      3.38380      7.67490         0.020050      0.010273     -0.087585
      8.79137      3.38380      7.67490         0.000913     -0.010659     -0.019621
      4.39568      5.92165      7.67490        -0.011035     -0.010311     -0.004036
      7.32614      5.92165      7.67490        -0.008843      0.007858     -0.020488
     10.25659      5.92165      7.67490         0.021215      0.012354     -0.012296
      8.79137      1.69533     10.05818        -0.020767      0.012702      0.036312
      2.93805      1.69629     10.04232         0.037109      0.022172     -0.035157
      5.85331      1.69629     10.04232        -0.009960      0.010467     -0.058123
     10.25424      4.23111     10.04634         0.036852     -0.021135      0.010134
      4.39568      4.22098     10.04232         0.002707     -0.009452     -0.066826
      7.32849      4.23111     10.04634        -0.055416     -0.029860      0.047137
     11.71886      6.76588     10.05818         0.010602      0.001881      0.038849
      5.86388      6.76588     10.05818        -0.001251     -0.027339      0.041283
      8.79137      6.76488     10.04634        -0.001762      0.039614      0.007740
      0.00000      0.00000     12.42348         0.007628      0.005750     -0.019132
      2.96241      0.05505     12.41819        -0.068267     -0.089783     -0.038149
      5.82895      0.05505     12.41819         0.050041     -0.187733     -0.083735
      1.52888      2.53800     12.41819        -0.119962     -0.014892     -0.040404
      7.26249      2.53800     12.41819         0.322206     -0.063471     -0.062549
      2.96215      5.02050     12.41819        -0.149395      0.146911     -0.075436
      5.82922      5.02050     12.41819         0.112259      0.310550     -0.047757
      8.79137      5.07570     12.42030         0.013183      0.006507     -0.018036
      4.39568      2.53785     12.13895        -0.155454     -0.114195      0.390912
      5.07957      2.95551     13.78748         0.013668      0.006003     -0.021465
      4.23820      2.52353     14.98790        -0.023606     -0.009553     -0.019622
      4.92338      2.60741     15.68329         0.003659      0.002540     -0.010997
    total drift:                               -0.003251     -0.010378     -0.077421

  FREE ENERGIE OF THE ION-ELECTRON SYSTEM (eV)
  free  energy   TOTEN  =      -108.30885223 eV

  energy  without entropy=     -108.30885223  energy(sigma->0) =     -108.30885223

 stress matrix after NEB project (eV)
     -9.25185      0.01159      0.16126
      0.01159     -9.31944      0.14466
      0.16126      0.14466     -1.97338
  FORCES: max atom, RMS     0.032149    0.006902
  FORCE total and by dimension    0.043103    0.023606
  Stress total and by dimension   13.282963    9.319445
|           W    W    AA    RRRRR   N    N  II  N    N   GGGG   !!!           |
|           W    W   A  A   R    R  NN   N  II  NN   N  G    G  !!!           |
|           W    W  A    A  R    R  N N  N  II  N N  N  G       !!!           |
|           W WW W  AAAAAA  RRRRR   N  N N  II  N  N N  G  GGG   !            |
|           WW  WW  A    A  R   R   N   NN  II  N   NN  G    G                |
|           W    W  A    A  R    R  N    N  II  N    N   GGGG   !!!           |
|     Tetrahedron method does not include variations of the Fermi             |
|     occupations, so forces and stress will be inaccurate. We suggest        |
|     using a different smearing scheme ISMEAR = 1 or 2 for metals in         |
|     relaxations.                                                            |

 total charge

# of ion       s       p       d       tot
    1        0.416   0.203   9.178   9.796
    2        0.419   0.204   9.176   9.798
    3        0.418   0.203   9.177   9.798
    4        0.419   0.204   9.176   9.799
    5        0.417   0.204   9.176   9.797
    6        0.417   0.203   9.177   9.798
    7        0.418   0.203   9.177   9.798
    8        0.417   0.203   9.178   9.798
    9        0.415   0.204   9.179   9.797
   10        0.407   0.269   9.163   9.839
   11        0.408   0.268   9.167   9.843
   12        0.404   0.270   9.165   9.838
   13        0.408   0.268   9.167   9.843
   14        0.408   0.268   9.167   9.843
   15        0.402   0.271   9.165   9.838
   16        0.404   0.269   9.165   9.838
   17        0.402   0.271   9.165   9.838
   18        0.403   0.271   9.165   9.838
   19        0.402   0.269   9.166   9.837
   20        0.424   0.289   9.147   9.860
   21        0.416   0.290   9.155   9.860
   22        0.402   0.272   9.168   9.842
   23        0.416   0.289   9.155   9.860
   24        0.401   0.276   9.164   9.841
   25        0.401   0.269   9.165   9.835
   26        0.402   0.269   9.166   9.836
   27        0.402   0.272   9.168   9.842
   28        0.416   0.194   9.181   9.791
   29        0.412   0.199   9.182   9.793
   30        0.403   0.199   9.188   9.790
   31        0.413   0.199   9.182   9.794
   32        0.394   0.203   9.191   9.788
   33        0.402   0.198   9.189   9.788
   34        0.393   0.204   9.190   9.787
   35        0.411   0.197   9.180   9.788
   36        0.416   0.359   8.353   9.129
   37        1.595   3.250   0.000   4.846
   38        1.593   3.373   0.000   4.966
   39        0.624   0.114   0.000   0.738
tot         18.537  15.440 329.371 363.348

 BZINTS: Fermi energy:    0.171408;  408.000000 electrons
         Band energy:-0.163896E+04;  BLOECHL correction:   -0.042581