 vasp.6.2.0 18Jan21 (build Jun 12 2021 23:27:24) complex

 executed on             LinuxIFC date 2022.05.28  01:53:41

 INCAR:
   ISMEAR = -5
   SIGMA = 0.1
   ISPIN = 1
   EDIFF = 1.d-5
   EDIFFG = -0.01
   NSW = 0
   NELM = 150
   ENCUT = 500
   ISIF = 2
   IBRION = 2
   LREAL = Auto
   ALGO = Fast
   ICHARG = 11
   LORBIT = 10
   LCHARG = .F.
   LWAVE = .F.

 POTCAR:    PAW_PBE Ag 02Apr2005
 POTCAR:    PAW_PBE Rh 04Feb2005
 POTCAR:    PAW_PBE O 08Apr2002
 POTCAR:    PAW_PBE H 15Jun2001
|           W    W    AA    RRRRR   N    N  II  N    N   GGGG   !!!           |
|           W    W   A  A   R    R  NN   N  II  NN   N  G    G  !!!           |
|           W    W  A    A  R    R  N N  N  II  N N  N  G       !!!           |
|           W WW W  AAAAAA  RRRRR   N  N N  II  N  N N  G  GGG   !            |
|           WW  WW  A    A  R   R   N   NN  II  N   NN  G    G                |
|           W    W  A    A  R    R  N    N  II  N    N   GGGG   !!!           |
|     For optimal performance we recommend to set                             |
|       NCORE = 2 up to number-of-cores-per-socket                            |
|     This setting can greatly improve the performance of VASP for DFT.       |
|     The default, NCORE=1 might be grossly inefficient on modern             |
|     multi-core architectures or massively parallel machines. Do your        |
|     Unfortunately you need to use the default for GW and RPA                |
|     calculations (for HF NCORE is supported but not extensively tested      |
|     yet).                                                                   |

 POTCAR:    PAW_PBE Ag 02Apr2005
   VRHFIN =Ag : s1 d10

   TITEL  = PAW_PBE Ag 02Apr2005
   POMASS =  107.868; ZVAL   =   11.000    mass and valenz
   ENMAX  =  249.844; ENMIN  =  187.383 eV

 POTCAR:    PAW_PBE Rh 04Feb2005
   VRHFIN =Rh: s1 d8

   TITEL  = PAW_PBE Rh 04Feb2005
   POMASS =  102.906; ZVAL   =    9.000    mass and valenz
   ENMAX  =  228.996; ENMIN  =  171.747 eV

 POTCAR:    PAW_PBE O 08Apr2002
   VRHFIN =O: s2p4

   TITEL  = PAW_PBE O 08Apr2002
   POMASS =   16.000; ZVAL   =    6.000    mass and valenz
   ENMAX  =  400.000; ENMIN  =  300.000 eV

 POTCAR:    PAW_PBE H 15Jun2001
   VRHFIN =H: ultrasoft test

   TITEL  = PAW_PBE H 15Jun2001
   POMASS =    1.000; ZVAL   =    1.000    mass and valenz
   ENMAX  =  250.000; ENMIN  =  200.000 eV

 Optimization of the real space projectors (new method)

 maximal supplied QI-value         = 15.12
 optimisation between [QCUT,QGAM] = [ 11.34, 22.83] = [ 36.00,145.93] Ry
 Optimized for a Real-space Cutoff    1.43 Angstroem

   l    n(q)    QCUT    max X(q) W(low)/X(q) W(high)/X(q)  e(spline)
   2      9    11.338    53.897    0.16E-03    0.20E-03    0.28E-06
   2      9    11.338    52.416    0.16E-03    0.20E-03    0.29E-06
   0     10    11.338   122.045    0.31E-04    0.76E-04    0.15E-06
   0     10    11.338    73.629    0.30E-04    0.72E-04    0.15E-06
   1      9    11.338    15.255    0.20E-03    0.19E-04    0.17E-06
   1      9    11.338     9.562    0.16E-03    0.15E-04    0.14E-06
 Optimization of the real space projectors (new method)

[...]

   l    n(q)    QCUT    max X(q) W(low)/X(q) W(high)/X(q)  e(spline)
   0      7    11.387    20.381    0.39E-03    0.13E-02    0.15E-06
   0      7    11.387    15.268    0.42E-03    0.14E-02    0.17E-06
   1      6    11.387     5.964    0.41E-03    0.11E-02    0.17E-06
   1      6    11.387     5.382    0.39E-03    0.87E-03    0.15E-06
 Optimization of the real space projectors (new method)

 maximal supplied QI-value         = 34.20
 optimisation between [QCUT,QGAM] = [ 11.29, 22.57] = [ 35.68,142.71] Ry
 Optimized for a Real-space Cutoff    1.16 Angstroem

   l    n(q)    QCUT    max X(q) W(low)/X(q) W(high)/X(q)  e(spline)
   0      8    11.287    19.460    0.40E-03    0.73E-03    0.16E-06
   0      8    11.287    12.209    0.38E-03    0.70E-03    0.15E-06
   1      7    11.287     4.655    0.22E-03    0.25E-04    0.22E-06
  PAW_PBE Ag 02Apr2005                  :
  PAW_PBE Rh 04Feb2005                  :
  PAW_PBE O 08Apr2002                   :
  PAW_PBE H 15Jun2001                   :

 POSCAR: Ag-Rh-OOH
  positions in direct lattice
  velocities in cartesian coordinates
 exchange correlation table for  LEXCH =        8
   RHO(1)=    0.500       N(1)  =     2000
   RHO(2)=  100.500       N(2)  =     4000

 VTST: version 3.2, (02/03/18)

 CHAIN: initializing optimizer

 OPT: Using VASP Conjugate-Gradient optimizer
 CHAIN: Read ICHAIN            0

 POSCAR: Ag-Rh-OOH
  positions in direct lattice
  velocities in cartesian coordinates

 ion  position               nearest neighbor table
   1  0.000  0.000  0.204-   2 2.93   8 2.93   7 2.93   6 2.93   4 2.93  12 2.93  16 2.93  10 2.93
                             3 2.93
   2  0.333  0.000  0.204-   1 2.93   8 2.93   9 2.93   3 2.93   4 2.93   5 2.93  10 2.93  17 2.93
                            11 2.93
   3  0.667  0.000  0.204-   9 2.93   2 2.93   5 2.93  11 2.93   7 2.93  18 2.93   1 2.93   6 2.93
                            12 2.93
   4  0.000  0.333  0.204-   5 2.93   6 2.93   2 2.93   1 2.93   7 2.93  13 2.93  15 2.93   9 2.93
                            10 2.93
   5  0.333  0.333  0.204-   4 2.93   3 2.93   7 2.93   2 2.93   8 2.93  14 2.93  13 2.93  11 2.93
                             6 2.93
   6  0.667  0.333  0.204-   4 2.93   9 2.93   1 2.93  15 2.93   8 2.93  12 2.93   3 2.93   5 2.93
                            14 2.93
   7  0.000  0.667  0.204-   8 2.93   1 2.93   5 2.93   3 2.93   4 2.93  16 2.93  18 2.93  13 2.93
                             9 2.93
   8  0.333  0.667  0.204-   7 2.93   1 2.93   2 2.93   9 2.93   5 2.93  16 2.93   6 2.93  17 2.93
                            14 2.93
   9  0.667  0.667  0.204-   3 2.93   2 2.93   8 2.93   6 2.93  17 2.93   4 2.93  15 2.93   7 2.93
                            18 2.93
  10  0.111  0.111  0.296-  20 2.90  19 2.93  26 2.93  12 2.93  16 2.93  15 2.93  17 2.93  13 2.93
                            11 2.93   2 2.93   1 2.93   4 2.93
  11  0.444  0.111  0.296-  21 2.90  20 2.90  27 2.92  14 2.93  17 2.93  18 2.93   3 2.93  12 2.93
                            13 2.93  10 2.93   5 2.93   2 2.93
  12  0.778  0.111  0.296-  21 2.90  25 2.93  19 2.93  10 2.93  16 2.93  18 2.93  15 2.93  11 2.93
                             1 2.93  14 2.93   6 2.93   3 2.93
  13  0.111  0.444  0.296-  20 2.90  23 2.90  22 2.92  15 2.93  14 2.93  18 2.93  10 2.93  11 2.93
                            16 2.93   4 2.93   5 2.93   7 2.93
  14  0.444  0.444  0.296-  23 2.90  21 2.90  24 2.92  13 2.93  11 2.93  16 2.93   5 2.93  12 2.93
                            17 2.93   8 2.93  15 2.93   6 2.93
  15  0.778  0.444  0.296-  24 2.92  22 2.92  19 2.92  13 2.93  10 2.93  12 2.93  17 2.93  18 2.93
                             4 2.93   6 2.93   9 2.93  14 2.93
  16  0.111  0.778  0.296-  23 2.90  26 2.93  25 2.93  18 2.93  12 2.93  10 2.93  14 2.93  17 2.93
                            13 2.93   7 2.93   8 2.93   1 2.93
  17  0.444  0.778  0.296-  27 2.92  24 2.92  26 2.92  11 2.93  10 2.93   9 2.93  18 2.93  15 2.93
                            16 2.93   2 2.93  14 2.93   8 2.93
  18  0.778  0.778  0.296-  22 2.92  27 2.92  25 2.92  16 2.93  12 2.93  13 2.93  11 2.93  17 2.93
                            15 2.93   7 2.93   3 2.93   9 2.93
  19  0.889  0.223  0.388-  28 2.91  15 2.92  10 2.93  12 2.93  24 2.93  22 2.93  32 2.93  31 2.93
                            20 2.93  21 2.93  26 2.94  25 2.94
  20  0.222  0.222  0.387-  36 2.78  13 2.90  11 2.90  10 2.90  31 2.91  29 2.91  21 2.92  23 2.92
                            27 2.93  22 2.93  19 2.93  26 2.93
  21  0.555  0.222  0.387-  36 2.78  11 2.90  14 2.90  12 2.90  30 2.91  32 2.91  20 2.92  23 2.92
                            27 2.93  24 2.93  25 2.93  19 2.93
  22  0.889  0.556  0.388-  35 2.90  18 2.92  15 2.92  13 2.92  33 2.92  31 2.92  25 2.93  19 2.93
                            24 2.93  27 2.93  23 2.93  20 2.93
  23  0.222  0.555  0.387-  36 2.78  14 2.90  13 2.90  16 2.90  34 2.91  33 2.91  21 2.92  20 2.92
                            22 2.93  24 2.93  26 2.93  25 2.93
  24  0.556  0.556  0.388-  35 2.90  15 2.92  17 2.92  14 2.92  32 2.92  34 2.92  19 2.93  26 2.93
                            27 2.93  22 2.93  23 2.93  21 2.93
  25  0.889  0.889  0.388-  28 2.91  18 2.92  16 2.93  12 2.93  22 2.93  27 2.93  33 2.93  30 2.93
                            23 2.93  21 2.93  26 2.94  19 2.94
  26  0.223  0.889  0.388-  28 2.91  17 2.92  16 2.93  10 2.93  27 2.93  24 2.93  34 2.93  29 2.93
                            23 2.93  20 2.93  25 2.94  19 2.94
  27  0.556  0.889  0.388-  35 2.90  17 2.92  18 2.92  11 2.92  29 2.92  30 2.92  26 2.93  25 2.93
                            24 2.93  22 2.93  20 2.93  21 2.93
  28  0.000  0.000  0.479-  26 2.91  25 2.91  19 2.91  29 2.95  34 2.95  33 2.95  32 2.95  31 2.95
                            30 2.95
  29  0.333  0.005  0.480-  31 2.88  30 2.89  36 2.89  20 2.91  27 2.92  26 2.93  28 2.95  35 2.95
                            34 3.02
  30  0.662  0.005  0.480-  32 2.88  29 2.89  36 2.89  21 2.91  27 2.92  25 2.93  28 2.95  35 2.95
                            33 3.02
  31  0.005  0.333  0.480-  29 2.88  33 2.89  36 2.89  20 2.91  22 2.92  19 2.93  28 2.95  35 2.95
                            32 3.02
  32  0.662  0.333  0.480-  30 2.88  34 2.89  36 2.89  21 2.91  24 2.92  19 2.93  28 2.95  35 2.95
                            31 3.02
  33  0.005  0.662  0.480-  34 2.88  31 2.89  36 2.89  23 2.91  22 2.92  25 2.93  28 2.95  35 2.95
                            30 3.02
  34  0.333  0.662  0.480-  33 2.88  32 2.89  36 2.89  23 2.91  24 2.92  26 2.93  28 2.95  35 2.95
                            29 3.02
  35  0.667  0.667  0.479-  24 2.90  27 2.90  22 2.90  30 2.95  32 2.95  29 2.95  34 2.95  31 2.95
                            33 2.95
  36  0.333  0.333  0.472-  37 1.93  21 2.78  20 2.78  23 2.78  31 2.89  30 2.89  33 2.89  29 2.89
                            34 2.89  32 2.89
  37  0.330  0.331  0.547-  38 1.52  36 1.93
  38  0.253  0.224  0.569-  39 0.98  37 1.52
  39  0.331  0.173  0.599-  38 0.98

  LATTYP: Found a hexagonal cell.
 ALAT       =     8.7913665772
 C/A-ratio  =     2.9469639759

  Lattice vectors:

 A1 = (  -4.3956832886,  -7.6135467898,   0.0000000000)
 A2 = (   8.7913665771,   0.0000000000,   0.0000000000)
 A3 = (   0.0000000000,   0.0000000000,  25.9078406020)

Analysis of symmetry for initial positions (statically):
 Subroutine PRICEL returns:
 Original cell was already a primitive cell.

 Routine SETGRP: Setting up the symmetry group for a
 hexagonal supercell.

 Subroutine GETGRP returns: Found  1 space group operations
 (whereof  1 operations were pure point group operations)
 out of a pool of 24 trial point group operations.

The static configuration has the point symmetry C_1 .

Analysis of symmetry for dynamics (positions and initial velocities):
 Subroutine PRICEL returns:
 Original cell was already a primitive cell.

[...]

The dynamic configuration has the point symmetry C_1 .

Analysis of constrained symmetry for selective dynamics:
 Subroutine PRICEL returns:
[...]
     41      -4.9800      2.00000
     42      -4.9636      2.00000
     43      -4.9395      2.00000
     44      -4.9303      2.00000
     45      -4.9049      2.00000
     46      -4.8959      2.00000
     47      -4.8561      2.00000
     48      -4.8160      2.00000
     49      -4.7882      2.00000
     50      -4.7818      2.00000
     51      -4.7696      2.00000
     52      -4.7660      2.00000
     53      -4.7616      2.00000
     54      -4.7454      2.00000
     55      -4.7417      2.00000
     56      -4.7235      2.00000
     57      -4.7126      2.00000
     58      -4.6458      2.00000
     59      -4.6429      2.00000
     60      -4.6366      2.00000
[...]
    238       5.1967      0.00000
    239       5.2676      0.00000
    240       5.4412      0.00000
    241       5.5901      0.00000
    242       5.6686      0.00000
    243       5.7441      0.00000
    244       5.7865      0.00000
    245       5.8681      0.00000
    246       5.9718      0.00000
    247       6.1831      0.00000
    248       6.2372      0.00000
    249       6.2580      0.00000
    250       6.5056      0.00000
    251       6.5972      0.00000
    252       6.6317      0.00000

 soft charge-density along one line, spin component           1
         0         1         2         3         4         5         6         7         8         9
 total charge-density along one line

------------------------ aborting loop because EDIFF is reached ----------------------------------------

 total charge

# of ion       s       p       d       tot
    1        0.417   0.202   9.178   9.797
    2        0.416   0.203   9.178   9.798
    3        0.418   0.203   9.177   9.798
    4        0.417   0.203   9.178   9.799
    5        0.419   0.204   9.176   9.798
    6        0.418   0.203   9.177   9.798
    7        0.416   0.204   9.177   9.798
    8        0.418   0.203   9.177   9.798
    9        0.412   0.204   9.179   9.795
   10        0.406   0.268   9.166   9.840
   11        0.408   0.268   9.168   9.844
   12        0.407   0.269   9.164   9.841
   13        0.407   0.269   9.167   9.844
   14        0.407   0.269   9.168   9.844
   15        0.403   0.270   9.166   9.838
   16        0.408   0.269   9.164   9.841
   17        0.403   0.269   9.166   9.838
   18        0.402   0.271   9.165   9.838
   19        0.403   0.269   9.166   9.837
   20        0.418   0.288   9.156   9.863
   21        0.425   0.290   9.150   9.864
   22        0.398   0.272   9.168   9.839
   23        0.426   0.288   9.152   9.865
   24        0.400   0.272   9.168   9.840
   25        0.405   0.268   9.166   9.839
   26        0.401   0.269   9.165   9.836
   27        0.397   0.273   9.168   9.838
   28        0.417   0.195   9.183   9.796
   29        0.400   0.207   9.182   9.789
   30        0.408   0.206   9.182   9.796
   31        0.403   0.202   9.187   9.792
   32        0.411   0.205   9.181   9.797
   33        0.405   0.205   9.183   9.793
   34        0.413   0.204   9.180   9.798
   35        0.409   0.201   9.181   9.790
   36        0.427   0.396   7.439   8.262
   37        1.601   3.215   0.000   4.816
   38        1.593   3.375   0.000   4.968
   39        0.618   0.112   0.000   0.730
tot         18.579  15.464 328.450 362.493

  FORCE on cell =-STRESS in cart. coord.  units (eV):
  Direction    XX          YY          ZZ          XY          YZ          ZX
  Alpha Z   661.10497   661.10497   661.10497
  Ewald  178463.63105178385.03449************   123.09421   -95.12035   -53.12353
  Hartree188600.26345188556.75454************    75.21483   -37.73239   -36.45588
  E(xc)   -2134.65257 -2134.74141 -2139.03593     0.10683    -0.27207    -0.05744
  Local  ************************377976.28437  -186.01998   115.40199    86.31671
  n-local  -368.70301  -370.84426  -372.20420     3.98688    -1.81853    -2.23793
  augment  3292.59563  3293.59692  3297.01488    -1.62827     1.87755     1.04685
  Kinetic  5148.68124  5160.58306  5162.48377   -14.53061    17.41572     4.50031
  Fock        0.00000     0.00000     0.00000     0.00000     0.00000     0.00000
  Total      -7.59077    -7.86687    -0.04756     0.22390    -0.24809    -0.01091
  in kB      -7.01329    -7.26839    -0.04394     0.20687    -0.22922    -0.01008

 VOLUME and BASIS-vectors are now :
  energy-cutoff  :      500.00
  volume of cell :     1734.10
      direct lattice vectors                 reciprocal lattice vectors
     8.791366577  0.000000000  0.000000000     0.113747958 -0.065672414  0.000000000
     4.395683289  7.613546790  0.000000000     0.000000000  0.131344829  0.000000000
     0.000000000  0.000000000 25.907840602     0.000000000  0.000000000  0.038598354

  length of vectors
     8.791366577  8.791366577 25.907840602     0.131344829  0.131344829  0.038598354

 FORCES acting on ions
    electron-ion (+dipol)            ewald-force                    non-local-force                 convergence-correction
   0.932E-01 0.408E-01 0.282E+04   -.793E-01 -.443E-01 -.282E+04   0.129E-01 0.264E-01 -.216E+01   -.334E-01 -.263E-01 -.133E+00
   0.374E+00 0.552E+00 0.283E+04   -.445E+00 -.626E+00 -.282E+04   0.499E-01 0.992E-01 -.168E+01   0.279E-01 -.147E-01 -.160E+00
   -.490E+00 0.407E+00 0.282E+04   0.524E+00 -.557E+00 -.282E+04   -.479E-01 0.127E+00 -.158E+01   0.129E-01 0.307E-01 -.151E+00
   0.668E+00 0.308E-01 0.282E+04   -.766E+00 -.555E-01 -.282E+04   0.896E-01 -.567E-03 -.163E+01   0.176E-01 0.266E-01 -.145E+00
   -.165E+00 -.869E-01 0.283E+04   0.997E-01 0.732E-01 -.282E+04   0.451E-01 0.286E-01 -.149E+01   0.265E-01 -.745E-02 -.114E+00
   -.512E+00 0.115E+00 0.282E+04   0.666E+00 -.907E-01 -.282E+04   -.122E+00 -.289E-01 -.154E+01   -.482E-01 0.463E-02 -.101E+00
   0.170E+00 -.621E+00 0.282E+04   -.222E+00 0.716E+00 -.282E+04   0.528E-01 -.110E+00 -.158E+01   0.806E-02 0.108E-01 -.171E+00
   -.196E+00 -.505E+00 0.282E+04   0.241E+00 0.613E+00 -.282E+04   -.717E-01 -.106E+00 -.152E+01   0.142E-01 -.187E-01 -.106E+00
   0.758E-01 0.720E-01 0.282E+04   -.192E-01 -.281E-01 -.282E+04   -.172E-01 -.348E-01 -.198E+01   -.383E-01 -.106E-01 -.191E+00
   0.568E+01 0.323E+01 0.101E+04   -.544E+01 -.305E+01 -.101E+04   -.293E+00 -.168E+00 -.764E+00   0.518E-01 -.136E-01 0.412E+00
   -.650E+00 0.530E+01 0.101E+04   0.718E+00 -.544E+01 -.101E+04   -.324E-01 0.140E+00 -.397E+00   -.254E-01 -.421E-01 0.449E+00
   -.508E+01 0.295E+01 0.101E+04   0.472E+01 -.277E+01 -.100E+04   0.388E+00 -.211E+00 -.756E+00   -.355E-01 0.311E-01 0.337E+00
   0.427E+01 -.329E+01 0.101E+04   -.443E+01 0.342E+01 -.101E+04   0.134E+00 -.111E+00 -.334E+00   0.919E-03 -.462E-02 0.447E+00
   -.489E+01 -.288E+01 0.101E+04   0.500E+01 0.293E+01 -.101E+04   -.154E+00 -.872E-01 -.267E+00   0.707E-01 0.558E-01 0.408E+00
   0.655E+00 0.135E+00 0.101E+04   -.572E+00 -.254E+00 -.101E+04   -.304E-01 0.582E-01 -.685E+00   -.540E-01 0.401E-01 0.357E+00
   0.744E-01 -.579E+01 0.101E+04   -.113E+00 0.539E+01 -.100E+04   0.799E-02 0.439E+00 -.746E+00   0.391E-01 -.397E-01 0.369E+00
   0.480E+00 0.528E+00 0.101E+04   -.539E+00 -.483E+00 -.101E+04   0.460E-01 -.192E-01 -.731E+00   -.716E-02 -.192E-01 0.387E+00
   -.567E+00 -.240E+00 0.101E+04   0.652E+00 0.246E+00 -.100E+04   -.435E-01 -.257E-03 -.666E+00   -.253E-01 0.652E-02 0.362E+00
   0.512E+01 0.237E+01 -.845E+03   -.517E+01 -.249E+01 0.844E+03   0.638E-01 0.860E-01 0.686E+00   0.926E-02 0.269E-01 0.508E+00
   0.176E+02 0.918E+01 -.794E+03   -.168E+02 -.865E+01 0.794E+03   -.990E+00 -.618E+00 -.797E+00   0.214E+00 0.745E-01 0.748E+00
   -.229E+02 0.922E+01 -.806E+03   0.219E+02 -.853E+01 0.806E+03   0.123E+01 -.766E+00 -.969E+00   -.235E+00 0.997E-01 0.769E+00
   0.101E+02 -.837E+01 -.835E+03   -.104E+02 0.857E+01 0.833E+03   0.225E+00 -.182E+00 0.573E+00   0.593E-01 -.339E-01 0.556E+00
   -.272E+01 -.244E+02 -.807E+03   0.272E+01 0.232E+02 0.807E+03   0.962E-02 0.147E+01 -.922E+00   -.974E-02 -.244E+00 0.747E+00
   -.740E+01 -.403E+01 -.839E+03   0.763E+01 0.407E+01 0.838E+03   -.197E+00 -.811E-01 0.545E+00   -.550E-01 0.187E-01 0.478E+00
   -.284E+01 -.115E+01 -.849E+03   0.293E+01 0.119E+01 0.848E+03   -.484E-01 -.257E-01 0.692E+00   -.458E-01 -.249E-01 0.533E+00
   0.535E+01 0.346E+01 -.845E+03   -.554E+01 -.337E+01 0.843E+03   0.120E+00 -.377E-01 0.669E+00   0.873E-01 -.277E-01 0.477E+00
   -.252E+01 0.138E+02 -.833E+03   0.261E+01 -.141E+02 0.832E+03   -.383E-01 0.262E+00 0.564E+00   -.596E-01 0.880E-01 0.519E+00
   0.192E+02 0.105E+02 -.269E+04   -.193E+02 -.106E+02 0.269E+04   0.838E-01 0.508E-01 0.202E+01   -.833E-02 0.907E-02 0.436E+00
   0.354E+02 0.104E+03 -.261E+04   -.352E+02 -.104E+03 0.261E+04   -.352E+00 0.862E-01 0.275E+01   0.144E+00 0.293E+00 0.363E+00
   -.540E+02 0.598E+02 -.267E+04   0.540E+02 -.601E+02 0.266E+04   0.279E+00 -.148E+00 0.211E+01   -.123E+00 0.312E+00 0.334E+00
   0.103E+03 -.265E+02 -.262E+04   -.103E+03 0.269E+02 0.262E+04   -.859E-01 -.292E+00 0.268E+01   0.365E+00 -.154E-03 0.371E+00
   -.555E+02 -.516E+01 -.268E+04   0.554E+02 0.555E+01 0.268E+04   0.556E+00 -.254E+00 0.203E+01   -.269E+00 -.933E-01 0.329E+00
   0.255E+02 -.696E+02 -.267E+04   -.258E+02 0.699E+02 0.267E+04   0.296E-01 0.158E+00 0.218E+01   0.179E+00 -.300E+00 0.345E+00
   -.292E+02 -.432E+02 -.268E+04   0.294E+02 0.429E+02 0.268E+04   0.856E-01 0.626E+00 0.205E+01   -.179E+00 -.178E+00 0.330E+00
   0.325E+01 0.610E+01 -.269E+04   -.317E+01 -.606E+01 0.269E+04   -.910E-01 -.579E-01 0.200E+01   0.163E-01 0.102E-01 0.371E+00
   -.373E+02 -.268E+02 -.189E+04   0.372E+02 0.266E+02 0.189E+04   0.171E+00 0.219E+00 -.226E+01   -.502E-01 -.253E-01 0.402E+00
   -.149E+03 -.113E+03 -.175E+04   0.171E+03 0.130E+03 0.176E+04   -.217E+02 -.173E+02 -.102E+02   -.961E-01 -.515E-01 -.218E+00
   0.157E+03 0.767E+02 -.176E+04   -.194E+03 -.734E+02 0.174E+04   0.364E+02 -.347E+01 0.201E+02   0.235E+00 0.144E+00 -.205E+00
   -.304E+02 0.442E+02 -.339E+03   0.341E+02 -.474E+02 0.345E+03   -.371E+01 0.320E+01 -.648E+01   0.320E-02 0.230E-01 -.423E-01
   -.123E+02 0.169E+02 -.995E+01   0.497E-13 -.568E-13 0.966E-12   0.121E+02 -.170E+02 -.446E+00   0.184E+00 0.130E+00 0.104E+02

 POSITION                                       TOTAL-FORCE (eV/Angst)
      0.00000      0.00000      5.28219        -0.007220     -0.005093     -0.004674
      2.93046      0.00000      5.28219         0.006652      0.009141      0.034130
      5.86091      0.00000      5.28219        -0.001498      0.005528      0.029722
      1.46523      2.53785      5.28219         0.009289     -0.000383      0.036869
      4.39568      2.53785      5.28219         0.005843      0.005819      0.010240
      7.32614      2.53785      5.28219        -0.016193     -0.001638      0.027036
      2.93046      5.07570      5.28219         0.008292     -0.006291      0.040576
      5.86091      5.07570      5.28219        -0.013306     -0.017864      0.028610
      8.79137      5.07570      5.28219         0.000533     -0.003274      0.016138
      1.46523      0.84595      7.67490        -0.001371      0.000776     -0.017472
      4.39568      0.84595      7.67490         0.009976     -0.037810     -0.074631
      7.32614      0.84595      7.67490        -0.006384      0.006831      0.013318
      2.93046      3.38380      7.67490        -0.028595      0.016919     -0.069404
      5.86091      3.38380      7.67490         0.024421      0.011363     -0.050290
      8.79137      3.38380      7.67490        -0.002432     -0.022134     -0.008588
      4.39568      5.92165      7.67490         0.008019     -0.002130     -0.001467
      7.32614      5.92165      7.67490        -0.021041      0.005296     -0.015371
     10.25659      5.92165      7.67490         0.015567      0.010951     -0.001809
      8.79137      1.69615     10.06050         0.023473     -0.003688      0.016065
      2.93321      1.69349     10.03240        -0.021705     -0.011072     -0.134185
      5.85816      1.69349     10.03240        -0.023923      0.015438     -0.085528
     10.25564      4.23030     10.05204         0.019731     -0.018185     -0.015797
      4.39568      4.22657     10.03240        -0.001086     -0.000453     -0.113103
      7.32709      4.23030     10.05204        -0.028185     -0.025668     -0.020389
     11.71814      6.76547     10.06050         0.000258     -0.007171     -0.011542
      5.86459      6.76547     10.06050         0.008506      0.023915      0.025574
      8.79137      6.76650     10.05204        -0.007079      0.024189     -0.000678
      0.00000      0.00000     12.42190        -0.029130     -0.018715     -0.015494
      2.95118      0.03878     12.42853        -0.065143     -0.137833      0.017810
      5.84018      0.03878     12.42853         0.091327     -0.163450     -0.082993
      1.50917      2.53641     12.42853        -0.228639      0.030517     -0.082604
      7.28219      2.53641     12.42853         0.143691      0.038346     -0.051525
      2.95367      5.03836     12.42853        -0.089495      0.163691     -0.062787
      5.83769      5.03836     12.42853         0.100919      0.101245     -0.047596
      8.79137      5.07570     12.41313         0.003499     -0.002168      0.025877
      4.39568      2.53785     12.23685         0.104987      0.014976      0.727890
      4.35814      2.52228     14.16894        -0.012054     -0.009290     -0.059420
      3.21029      1.70238     14.74337         0.012698      0.021007     -0.023984
      3.66625      1.31702     15.52337         0.006798     -0.011638      0.001478
    total drift:                                0.023622      0.064738      0.006225

  FREE ENERGIE OF THE ION-ELECTRON SYSTEM (eV)
  free  energy   TOTEN  =      -109.99778697 eV

  energy  without entropy=     -109.99778697  energy(sigma->0) =     -109.99778697

 stress matrix after NEB project (eV)
     -7.59077      0.22390     -0.01091
      0.22390     -7.86687     -0.24809
     -0.01091     -0.24809     -0.04756
  FORCES: max atom, RMS     0.061338    0.011462
  FORCE total and by dimension    0.071582    0.059420
  Stress total and by dimension   10.942271    7.866874
|           W    W    AA    RRRRR   N    N  II  N    N   GGGG   !!!           |
|           W    W   A  A   R    R  NN   N  II  NN   N  G    G  !!!           |
|           W    W  A    A  R    R  N N  N  II  N N  N  G       !!!           |
|           W WW W  AAAAAA  RRRRR   N  N N  II  N  N N  G  GGG   !            |
|           WW  WW  A    A  R   R   N   NN  II  N   NN  G    G                |
|           W    W  A    A  R    R  N    N  II  N    N   GGGG   !!!           |
|     Tetrahedron method does not include variations of the Fermi             |
|     occupations, so forces and stress will be inaccurate. We suggest        |
|     using a different smearing scheme ISMEAR = 1 or 2 for metals in         |
|     relaxations.                                                            |

 total charge

# of ion       s       p       d       tot
    1        0.417   0.202   9.178   9.797
    2        0.416   0.203   9.178   9.798
    3        0.418   0.203   9.177   9.798
    4        0.417   0.203   9.178   9.799
    5        0.419   0.204   9.176   9.798
    6        0.418   0.203   9.177   9.798
    7        0.416   0.204   9.177   9.798
    8        0.418   0.203   9.177   9.798
    9        0.412   0.204   9.179   9.795
   10        0.406   0.268   9.166   9.840
   11        0.408   0.268   9.168   9.844
   12        0.407   0.269   9.164   9.841
   13        0.407   0.269   9.167   9.844
   14        0.407   0.269   9.168   9.844
   15        0.403   0.270   9.166   9.838
   16        0.408   0.269   9.164   9.841
   17        0.403   0.269   9.166   9.838
   18        0.402   0.271   9.165   9.838
   19        0.403   0.269   9.166   9.837
   20        0.418   0.288   9.156   9.863
   21        0.425   0.290   9.150   9.864
   22        0.398   0.272   9.168   9.839
   23        0.426   0.288   9.152   9.865
   24        0.400   0.272   9.168   9.840
   25        0.405   0.268   9.166   9.839
   26        0.401   0.269   9.165   9.836
   27        0.397   0.273   9.168   9.838
   28        0.417   0.195   9.183   9.796
   29        0.400   0.207   9.182   9.789
   30        0.408   0.206   9.182   9.796
   31        0.403   0.202   9.187   9.792
   32        0.411   0.205   9.181   9.797
   33        0.405   0.205   9.183   9.793
   34        0.413   0.204   9.180   9.798
   35        0.409   0.201   9.181   9.790
   36        0.427   0.396   7.439   8.262
   37        1.601   3.215   0.000   4.816
   38        1.593   3.375   0.000   4.968
   39        0.618   0.112   0.000   0.730
tot         18.579  15.464 328.450 362.493

 BZINTS: Fermi energy:    0.177110;  407.000000 electrons
         Band energy:-0.162728E+04;  BLOECHL correction:   -0.043006