 vasp.6.2.0 18Jan21 (build Jun 12 2021 23:27:24) complex

 executed on             LinuxIFC date 2022.05.26  20:12:00

 INCAR:
   ISMEAR = -5
   SIGMA = 0.1
   ISPIN = 1
   EDIFF = 1.d-5
   EDIFFG = -0.01
   NSW = 0
   NELM = 150
   ENCUT = 500
   ISIF = 2
   IBRION = 2
   LREAL = Auto
   ALGO = Fast
   ICHARG = 11
   LORBIT = 10
   LCHARG = .F.
   LWAVE = .F.

 POTCAR:    PAW_PBE Au 04Oct2007
 POTCAR:    PAW_PBE Co 02Aug2007
|           W    W    AA    RRRRR   N    N  II  N    N   GGGG   !!!           |
|           W    W   A  A   R    R  NN   N  II  NN   N  G    G  !!!           |
|           W    W  A    A  R    R  N N  N  II  N N  N  G       !!!           |
|           W WW W  AAAAAA  RRRRR   N  N N  II  N  N N  G  GGG   !            |
|           WW  WW  A    A  R   R   N   NN  II  N   NN  G    G                |
|           W    W  A    A  R    R  N    N  II  N    N   GGGG   !!!           |
|     For optimal performance we recommend to set                             |
|       NCORE = 2 up to number-of-cores-per-socket                            |
|     This setting can greatly improve the performance of VASP for DFT.       |
|     The default, NCORE=1 might be grossly inefficient on modern             |
|     multi-core architectures or massively parallel machines. Do your        |
|     Unfortunately you need to use the default for GW and RPA                |
|     calculations (for HF NCORE is supported but not extensively tested      |
|     yet).                                                                   |

 POTCAR:    PAW_PBE Au 04Oct2007
   VRHFIN =Au: s1d10

   TITEL  = PAW_PBE Au 04Oct2007
   POMASS =  196.966; ZVAL   =   11.000    mass and valenz
   ENMAX  =  229.943; ENMIN  =  172.457 eV

 POTCAR:    PAW_PBE Co 02Aug2007
   VRHFIN =Co: d8 s1

   TITEL  = PAW_PBE Co 02Aug2007
   POMASS =   58.933; ZVAL   =    9.000    mass and valenz
   ENMAX  =  267.968; ENMIN  =  200.976 eV

 Optimization of the real space projectors (new method)

 maximal supplied QI-value         = 15.12
 optimisation between [QCUT,QGAM] = [ 11.34, 22.83] = [ 36.00,145.93] Ry
 Optimized for a Real-space Cutoff    1.39 Angstroem

   l    n(q)    QCUT    max X(q) W(low)/X(q) W(high)/X(q)  e(spline)
   2      9    11.338    60.898    0.39E-03    0.42E-03    0.21E-06
   2      9    11.338    58.894    0.40E-03    0.42E-03    0.22E-06
   0      9    11.338   109.617    0.13E-03    0.20E-04    0.13E-06
   0      9    11.338    75.026    0.13E-03    0.20E-04    0.13E-06
   1      9    11.338    16.344    0.33E-04    0.24E-03    0.18E-06
   1      9    11.338    10.160    0.26E-04    0.19E-03    0.15E-06
 Optimization of the real space projectors (new method)

 maximal supplied QI-value         = 16.25
 optimisation between [QCUT,QGAM] = [ 11.38, 22.75] = [ 36.24,144.96] Ry
 Optimized for a Real-space Cutoff    1.39 Angstroem

   l    n(q)    QCUT    max X(q) W(low)/X(q) W(high)/X(q)  e(spline)
   2      8    11.376    65.824    0.20E-03    0.32E-04    0.13E-06
   2      8    11.376    61.429    0.20E-03    0.33E-04    0.14E-06
   0      9    11.376    56.174    0.76E-04    0.11E-03    0.19E-06
   0      9    11.376    31.263    0.69E-04    0.99E-04    0.17E-06
   1      9    11.376    19.828    0.35E-03    0.11E-03    0.12E-06
   1      9    11.376    15.139    0.29E-03    0.94E-04    0.10E-06
  PAW_PBE Au 04Oct2007                  :
  PAW_PBE Co 02Aug2007                  :

 POSCAR: Au-Co
  positions in direct lattice
  velocities in cartesian coordinates
 exchange correlation table for  LEXCH =        8
   RHO(1)=    0.500       N(1)  =     2000
   RHO(2)=  100.500       N(2)  =     4000

 VTST: version 3.2, (02/03/18)

 CHAIN: initializing optimizer

 OPT: Using VASP Conjugate-Gradient optimizer
 CHAIN: Read ICHAIN            0

 POSCAR: Au-Co
  positions in direct lattice
  velocities in cartesian coordinates

 ion  position               nearest neighbor table
   1  0.000  0.000  0.238-  16 2.94  12 2.94   6 2.94   8 2.94   7 2.94   3 2.94  10 2.94   4 2.94
                             2 2.94
   2  0.333  0.000  0.238-   9 2.94  11 2.94  17 2.94  10 2.94   8 2.94   4 2.94   5 2.94   1 2.94
                             3 2.94
   3  0.667  0.000  0.238-   7 2.94  18 2.94  12 2.94   1 2.94  11 2.94   5 2.94   6 2.94   9 2.94
                             2 2.94
   4  0.000  0.333  0.238-  10 2.94   6 2.94   5 2.94  13 2.94   2 2.94  15 2.94   9 2.94   1 2.94
                             7 2.94
   5  0.333  0.333  0.238-  13 2.94   7 2.94  11 2.94   4 2.94   2 2.94  14 2.94   3 2.94   8 2.94
                             6 2.94
   6  0.667  0.333  0.238-  15 2.94  14 2.94   1 2.94  12 2.94   4 2.94   9 2.94   8 2.94   3 2.94
                             5 2.94
   7  0.000  0.667  0.238-  18 2.94   3 2.94  16 2.94   5 2.94   1 2.94  13 2.94   8 2.94   4 2.94
                             9 2.94
   8  0.333  0.667  0.238-   9 2.94  17 2.94   1 2.94   2 2.94  14 2.94  16 2.94   6 2.94   7 2.94
                             5 2.94
   9  0.667  0.667  0.238-   2 2.94   8 2.94  17 2.94   6 2.94  15 2.94   4 2.94   3 2.94  18 2.94
                             7 2.94
  10  0.111  0.111  0.346-  20 2.92  26 2.93  19 2.93  11 2.94  17 2.94   2 2.94   4 2.94   1 2.94
                            12 2.94  16 2.94  13 2.94  15 2.94
  11  0.444  0.111  0.346-  20 2.91  21 2.91  27 2.93  13 2.94   2 2.94  10 2.94  17 2.94   5 2.94
                             3 2.94  18 2.94  14 2.94  12 2.94
  12  0.778  0.111  0.346-  21 2.92  25 2.93  19 2.93  16 2.94  18 2.94   1 2.94  14 2.94  15 2.94
                             3 2.94   6 2.94  10 2.94  11 2.94
  13  0.111  0.444  0.346-  23 2.91  20 2.91  22 2.93   5 2.94  18 2.94  11 2.94   7 2.94   4 2.94
                            16 2.94  10 2.94  14 2.94  15 2.94
  14  0.444  0.444  0.346-  21 2.91  23 2.91  24 2.93  15 2.94   6 2.94  12 2.94   8 2.94  17 2.94
                             5 2.94  16 2.94  13 2.94  11 2.94
  15  0.778  0.444  0.346-  24 2.92  22 2.92  19 2.93  14 2.94   6 2.94  17 2.94  12 2.94   9 2.94
                             4 2.94  10 2.94  13 2.94  18 2.94
  16  0.111  0.778  0.346-  23 2.92  25 2.93  26 2.93  18 2.94  12 2.94   7 2.94   1 2.94   8 2.94
                            13 2.94  10 2.94  14 2.94  17 2.94
  17  0.444  0.778  0.346-  27 2.92  24 2.92  26 2.93   9 2.94  15 2.94   2 2.94  10 2.94  11 2.94
                             8 2.94  14 2.94  16 2.94  18 2.94
  18  0.778  0.778  0.346-  22 2.92  27 2.92  25 2.93  16 2.94   7 2.94  13 2.94  12 2.94   3 2.94
                            11 2.94   9 2.94  15 2.94  17 2.94
  19  0.889  0.222  0.454-  10 2.93  12 2.93  15 2.93  26 2.94  25 2.94  24 2.94  22 2.94  28 2.94
                            21 2.95  20 2.95  32 2.96  31 2.96
  20  0.223  0.223  0.453-  36 2.69  29 2.91  31 2.91  11 2.91  13 2.91  23 2.91  21 2.91  10 2.92
                            27 2.95  22 2.95  26 2.95  19 2.95
  21  0.554  0.223  0.453-  36 2.69  30 2.91  32 2.91  14 2.91  11 2.91  20 2.91  23 2.91  12 2.92
                            27 2.95  24 2.95  25 2.95  19 2.95
  22  0.887  0.557  0.453-  24 2.91  27 2.91  18 2.92  15 2.92  13 2.93  25 2.94  19 2.94  33 2.94
                            31 2.94  23 2.95  20 2.95  35 2.96
  23  0.223  0.554  0.453-  36 2.69  33 2.91  34 2.91  13 2.91  14 2.91  20 2.91  21 2.91  16 2.92
                            22 2.95  24 2.95  25 2.95  26 2.95
  24  0.557  0.557  0.453-  27 2.91  22 2.91  15 2.92  17 2.92  14 2.93  26 2.94  19 2.94  32 2.94
                            34 2.94  21 2.95  23 2.95  35 2.96
  25  0.889  0.889  0.454-  16 2.93  12 2.93  18 2.93  19 2.94  26 2.94  22 2.94  27 2.94  28 2.94
                            23 2.95  21 2.95  33 2.96  30 2.96
  26  0.222  0.889  0.454-  10 2.93  16 2.93  17 2.93  19 2.94  25 2.94  27 2.94  24 2.94  28 2.94
                            20 2.95  23 2.95  29 2.96  34 2.96
  27  0.557  0.887  0.453-  24 2.91  22 2.91  17 2.92  18 2.92  11 2.93  26 2.94  25 2.94  29 2.94
                            30 2.94  20 2.95  21 2.95  35 2.96
  28  0.000  0.000  0.562-  25 2.94  19 2.94  26 2.94  34 2.98  32 2.98  33 2.98  30 2.98  31 2.98
                            29 2.98
  29  0.334  0.008  0.561-  30 2.86  31 2.87  36 2.88  20 2.91  27 2.94  26 2.96  35 2.98  28 2.98
                            34 3.09
  30  0.658  0.008  0.561-  29 2.86  32 2.87  36 2.88  21 2.91  27 2.94  25 2.96  35 2.98  28 2.98
                            33 3.09
  31  0.008  0.334  0.561-  33 2.86  29 2.87  36 2.88  20 2.91  22 2.94  19 2.96  35 2.98  28 2.98
                            32 3.09
  32  0.658  0.334  0.561-  34 2.86  30 2.87  36 2.88  21 2.91  24 2.94  19 2.96  35 2.98  28 2.98
                            31 3.09
  33  0.008  0.658  0.561-  31 2.86  34 2.87  36 2.88  23 2.91  22 2.94  25 2.96  35 2.98  28 2.98
                            30 3.09
  34  0.334  0.658  0.561-  32 2.86  33 2.87  36 2.88  23 2.91  24 2.94  26 2.96  35 2.98  28 2.98
                            29 3.09
  35  0.667  0.667  0.563-  24 2.96  27 2.96  22 2.96  29 2.98  34 2.98  32 2.98  31 2.98  30 2.98
                            33 2.98
  36  0.333  0.333  0.547-  20 2.69  23 2.69  21 2.69  33 2.88  31 2.88  29 2.88  30 2.88  34 2.88
                            32 2.88

  LATTYP: Found a hexagonal cell.
 ALAT       =     8.8135128021
 C/A-ratio  =     2.5184286595

  Lattice vectors:

 A1 = (  -4.4067569092,  -7.6327256898,   0.0000000000)
 A2 = (   8.8135128021,   0.0000000000,   0.0000000000)
 A3 = (   0.0000000000,   0.0000000000,  22.1962032318)

Analysis of symmetry for initial positions (statically):
 Subroutine PRICEL returns:
 Original cell was already a primitive cell.

 Routine SETGRP: Setting up the symmetry group for a
 hexagonal supercell.

 Subroutine GETGRP returns: Found  6 space group operations
 (whereof  6 operations were pure point group operations)
 out of a pool of 24 trial point group operations.

The static configuration has the point symmetry C_3v.

Analysis of symmetry for dynamics (positions and initial velocities):
 Subroutine PRICEL returns:
 Original cell was already a primitive cell.

[...]

The dynamic configuration has the point symmetry C_3v.

Analysis of constrained symmetry for selective dynamics:
 Subroutine PRICEL returns:
 Original cell was already a primitive cell.

 Routine SETGRP: Setting up the symmetry group for a
 hexagonal supercell.

 Subroutine GETGRP returns: Found  6 space group operations
 (whereof  6 operations were pure point group operations)
 out of a pool of 24 trial point group operations.

The constrained configuration has the point symmetry C_3v.

 Subroutine INISYM returns: Found  6 space group operations
 (whereof  6 operations are pure point group operations),
 and found     1 'primitive' translations

                                     Primitive cell

  volume of cell :    1493.1636

  direct lattice vectors                    reciprocal lattice vectors
     8.813512802  0.000000000  0.000000000     0.113462137 -0.065507406  0.000000000
     4.406756909  7.632725690  0.000000000     0.000000000  0.131014796  0.000000000
[...]
     15      -5.2603      2.00000
     16      -5.2549      2.00000
     17      -5.2502      2.00000
     18      -5.2409      2.00000
     19      -5.1737      2.00000
     20      -5.1687      2.00000
     21      -5.1199      2.00000
     22      -5.1011      2.00000
     23      -5.0739      2.00000
     24      -5.0641      2.00000
     25      -5.0490      2.00000
     26      -5.0134      2.00000
     27      -4.9332      2.00000
     28      -4.8710      2.00000
     29      -4.7813      2.00000
     30      -4.7749      2.00000
     31      -4.7615      2.00000
     32      -4.7568      2.00000
     33      -4.7417      2.00000
     34      -4.6736      2.00000
     35      -4.5785      2.00000
     36      -4.5573      2.00000
     37      -4.5507      2.00000
     38      -4.5463      2.00000
     39      -4.4945      2.00000
     40      -4.4099      2.00000
     41      -4.3748      2.00000
     42      -4.3169      2.00000
     43      -4.2958      2.00000
     44      -4.2947      2.00000
     45      -4.2867      2.00000
     46      -4.1804      2.00000
     47      -4.1711      2.00000
     48      -4.1361      2.00000
     49      -4.1192      2.00000
     50      -4.1146      2.00000
     51      -4.1048      2.00000
     52      -4.0829      2.00000
     53      -4.0513      2.00000
     54      -4.0100      2.00000
     55      -4.0025      2.00000
     56      -3.9677      2.00000
     57      -3.9553      2.00000
     58      -3.9445      2.00000
     59      -3.9323      2.00000
     60      -3.9216      2.00000
[...]
    238       6.7181      0.00000
    239       6.7803      0.00000
    240       6.8133      0.00000
    241       6.8302      0.00000
    242       6.9112      0.00000
    243       7.1163      0.00000
    244       7.1673      0.00000
    245       7.2809      0.00000
    246       7.5804      0.00000
    247       7.6136      0.00000
    248       7.6935      0.00000
    249       7.7134      0.00000
    250       7.8927      0.00000
    251       7.9950      0.00000
    252       8.0086      0.00000

 soft charge-density along one line, spin component           1
         0         1         2         3         4         5         6         7         8         9
 total charge-density along one line

------------------------ aborting loop because EDIFF is reached ----------------------------------------

 total charge

# of ion       s       p       d       tot
    1        0.545   0.239   8.766   9.551
    2        0.545   0.241   8.765   9.551
    3        0.545   0.241   8.765   9.551
    4        0.545   0.241   8.765   9.551
    5        0.542   0.242   8.763   9.546
    6        0.545   0.241   8.765   9.551
    7        0.545   0.241   8.765   9.551
    8        0.545   0.241   8.765   9.551
    9        0.543   0.239   8.768   9.551
   10        0.522   0.308   8.769   9.599
   11        0.521   0.308   8.779   9.608
   12        0.522   0.308   8.769   9.599
   13        0.521   0.308   8.779   9.608
   14        0.521   0.308   8.779   9.608
   15        0.518   0.309   8.776   9.603
   16        0.522   0.308   8.769   9.599
   17        0.518   0.309   8.776   9.603
   18        0.518   0.309   8.776   9.603
   19        0.517   0.303   8.776   9.596
   20        0.539   0.328   8.757   9.624
   21        0.539   0.328   8.757   9.624
   22        0.512   0.311   8.776   9.599
   23        0.539   0.328   8.757   9.624
   24        0.512   0.311   8.776   9.599
   25        0.517   0.303   8.776   9.596
   26        0.517   0.303   8.776   9.596
   27        0.512   0.311   8.776   9.599
   28        0.539   0.226   8.767   9.532
   29        0.555   0.237   8.756   9.548
   30        0.555   0.237   8.756   9.548
   31        0.555   0.237   8.756   9.548
   32        0.555   0.237   8.756   9.548
   33        0.555   0.237   8.756   9.548
   34        0.555   0.237   8.756   9.548
   35        0.535   0.224   8.769   9.529
   36        0.315   0.224   7.264   7.803
tot         19.007   9.859 314.121 342.987

  FORCE on cell =-STRESS in cart. coord.  units (eV):
  Direction    XX          YY          ZZ          XY          YZ          ZX
  Alpha Z   990.36299   990.36299   990.36299
  Ewald  120300.46161120300.46203************    -0.00032    -0.00009    -0.00016
  Hartree128982.61362128982.61363************     0.00000    -0.00002    -0.00004
  E(xc)   -1773.16629 -1773.16625 -1780.24573    -0.00004    -0.00000    -0.00000
  Local  ************************261807.33726     0.00181     0.00004     0.00009
  n-local   -93.01202   -40.80710   -43.27645    23.79056    -1.35073     1.57578
  augment  2522.50176  2522.50324  2538.21997    -0.00128     0.00002     0.00003
  Kinetic  5413.00589  5428.63606  5473.51267     6.78656    -0.30813     0.82380
  Fock        0.00000     0.00000     0.00000     0.00000     0.00000     0.00000
  Total     -24.92578   -24.92578     0.74972    -0.00000     0.00000    -0.00000
  in kB     -26.74558   -26.74557     0.80445    -0.00000     0.00000    -0.00000

 VOLUME and BASIS-vectors are now :
  energy-cutoff  :      500.00
  volume of cell :     1493.16
      direct lattice vectors                 reciprocal lattice vectors
     8.813512802  0.000000000  0.000000000     0.113462137 -0.065507406  0.000000000
     4.406756909  7.632725690  0.000000000     0.000000000  0.131014796  0.000000000
     0.000000000  0.000000000 22.196203232     0.000000000  0.000000000  0.045052750

  length of vectors
     8.813512802  8.813512802 22.196203232     0.131014796  0.131014796  0.045052750

 FORCES acting on ions
    electron-ion (+dipol)            ewald-force                    non-local-force                 convergence-correction
   -.198E-04 -.164E-04 0.248E+04   0.519E-04 0.434E-04 -.248E+04   0.419E-17 -.127E-17 -.728E+00   -.174E-03 -.113E-03 -.392E+00
   0.563E+00 0.344E+00 0.248E+04   -.572E+00 -.364E+00 -.248E+04   0.119E-01 0.145E-01 -.321E+00   -.550E-02 0.822E-02 -.409E+00
   -.563E+00 0.344E+00 0.248E+04   0.572E+00 -.364E+00 -.248E+04   -.119E-01 0.145E-01 -.321E+00   0.576E-02 0.102E-01 -.408E+00
   0.580E+00 0.315E+00 0.248E+04   -.601E+00 -.313E+00 -.248E+04   0.185E-01 0.309E-02 -.321E+00   0.441E-02 -.890E-02 -.409E+00
   0.740E-05 -.239E-04 0.248E+04   0.951E-04 0.173E-05 -.248E+04   -.164E-17 0.293E-19 -.287E+00   0.427E-02 0.263E-02 -.389E+00
   -.580E+00 0.315E+00 0.248E+04   0.601E+00 -.313E+00 -.248E+04   -.185E-01 0.309E-02 -.321E+00   -.595E-02 -.792E-02 -.408E+00
   0.168E-01 -.660E+00 0.248E+04   -.297E-01 0.677E+00 -.248E+04   0.657E-02 -.176E-01 -.321E+00   0.117E-01 -.137E-03 -.408E+00
   -.168E-01 -.660E+00 0.248E+04   0.295E-01 0.677E+00 -.248E+04   -.657E-02 -.176E-01 -.321E+00   -.985E-02 -.120E-02 -.408E+00
   0.198E-04 -.415E-04 0.248E+04   0.166E-03 -.201E-04 -.248E+04   0.141E-18 0.394E-19 -.419E+00   -.464E-02 -.244E-02 -.426E+00
   0.429E+01 0.247E+01 0.819E+03   -.403E+01 -.232E+01 -.818E+03   -.195E+00 -.113E+00 -.631E+00   -.274E-01 -.157E-01 0.215E+00
   0.149E-04 0.521E+01 0.827E+03   0.147E-03 -.530E+01 -.827E+03   0.550E-09 0.825E-02 -.374E+00   0.364E-02 0.522E-01 0.337E+00
   -.429E+01 0.247E+01 0.819E+03   0.403E+01 -.232E+01 -.818E+03   0.195E+00 -.113E+00 -.631E+00   0.262E-01 -.144E-01 0.214E+00
   0.451E+01 -.260E+01 0.827E+03   -.459E+01 0.265E+01 -.827E+03   0.715E-02 -.413E-02 -.374E+00   0.471E-01 -.226E-01 0.337E+00
   -.451E+01 -.260E+01 0.827E+03   0.459E+01 0.265E+01 -.827E+03   -.715E-02 -.413E-02 -.374E+00   -.395E-01 -.229E-01 0.337E+00
   0.313E-04 0.305E+01 0.822E+03   0.236E-03 -.310E+01 -.821E+03   0.909E-09 0.137E-01 -.470E+00   -.216E-02 -.344E-02 0.223E+00
   -.216E-04 -.495E+01 0.819E+03   0.163E-03 0.465E+01 -.818E+03   0.150E-07 0.225E+00 -.631E+00   0.340E-03 0.299E-01 0.215E+00
   0.264E+01 -.152E+01 0.822E+03   -.268E+01 0.155E+01 -.821E+03   0.118E-01 -.683E-02 -.470E+00   -.376E-02 -.788E-04 0.222E+00
   -.264E+01 -.152E+01 0.822E+03   0.268E+01 0.155E+01 -.821E+03   -.118E-01 -.683E-02 -.470E+00   0.368E-02 0.169E-02 0.222E+00
   -.396E-04 0.138E+01 -.874E+03   0.542E-04 -.146E+01 0.873E+03   0.170E-08 0.255E-01 0.469E+00   0.348E-02 0.618E-01 0.737E+00
   0.262E+02 0.151E+02 -.837E+03   -.261E+02 -.151E+02 0.836E+03   -.686E+00 -.396E+00 -.617E+00   0.582E+00 0.336E+00 0.155E+01
   -.262E+02 0.151E+02 -.837E+03   0.261E+02 -.151E+02 0.836E+03   0.686E+00 -.396E+00 -.617E+00   -.582E+00 0.338E+00 0.155E+01
   0.407E+01 -.235E+01 -.862E+03   -.465E+01 0.268E+01 0.861E+03   0.295E+00 -.170E+00 0.515E+00   0.275E+00 -.165E+00 0.845E+00
   -.118E-04 -.303E+02 -.837E+03   0.143E-03 0.302E+02 0.836E+03   0.527E-07 0.792E+00 -.617E+00   0.164E-02 -.673E+00 0.155E+01
   -.407E+01 -.235E+01 -.862E+03   0.465E+01 0.268E+01 0.861E+03   -.295E+00 -.170E+00 0.515E+00   -.282E+00 -.164E+00 0.845E+00
   -.119E+01 -.690E+00 -.874E+03   0.126E+01 0.728E+00 0.873E+03   -.221E-01 -.127E-01 0.469E+00   -.463E-01 -.275E-01 0.736E+00
   0.119E+01 -.690E+00 -.874E+03   -.126E+01 0.728E+00 0.873E+03   0.221E-01 -.127E-01 0.469E+00   0.483E-01 -.282E-01 0.737E+00
   0.976E-05 0.470E+01 -.862E+03   0.198E-03 -.537E+01 0.861E+03   0.226E-07 0.340E+00 0.515E+00   -.451E-02 0.320E+00 0.845E+00
   -.972E-05 -.122E-04 -.251E+04   0.280E-04 0.319E-04 0.250E+04   -.254E-17 -.181E-17 0.641E+00   0.401E-03 0.132E-04 0.755E+00
   0.110E+02 0.166E+02 -.251E+04   -.109E+02 -.164E+02 0.251E+04   -.634E+00 -.945E+00 0.323E+00   0.480E+00 0.795E+00 0.693E+00
   -.110E+02 0.166E+02 -.251E+04   0.109E+02 -.164E+02 0.251E+04   0.634E+00 -.945E+00 0.323E+00   -.480E+00 0.797E+00 0.694E+00
   0.199E+02 0.127E+01 -.251E+04   -.197E+02 -.122E+01 0.251E+04   -.114E+01 -.769E-01 0.323E+00   0.928E+00 0.177E-01 0.692E+00
   -.199E+02 0.127E+01 -.251E+04   0.197E+02 -.122E+01 0.251E+04   0.114E+01 -.769E-01 0.323E+00   -.930E+00 0.191E-01 0.692E+00
   0.884E+01 -.179E+02 -.251E+04   -.879E+01 0.177E+02 0.251E+04   -.501E+00 0.102E+01 0.323E+00   0.451E+00 -.814E+00 0.693E+00
   -.884E+01 -.179E+02 -.251E+04   0.879E+01 0.177E+02 0.251E+04   0.501E+00 0.102E+01 0.323E+00   -.449E+00 -.815E+00 0.692E+00
   0.340E-04 -.315E-04 -.251E+04   0.144E-03 -.472E-04 0.251E+04   -.113E-17 -.102E-17 0.630E+00   -.468E-02 -.269E-02 0.731E+00
   -.406E-04 0.280E-05 -.197E+04   0.951E-04 0.891E-05 0.197E+04   -.670E-18 -.671E-18 0.252E+01   0.586E-02 0.371E-02 0.888E+00
   -.793E-03 -.771E-03 -.132E+02   -.879E-14 -.171E-13 0.455E-12   -.113E-15 -.169E-17 -.963E+00   0.588E-02 0.695E-02 0.146E+02

 POSITION                                       TOTAL-FORCE (eV/Angst)
      0.00000      0.00000      5.28038         0.000000     -0.000000     -0.077926
      2.93784      0.00000      5.28038        -0.001794      0.003870     -0.068134
      5.87568      0.00000      5.28038         0.001794      0.003870     -0.068134
      1.46892      2.54424      5.28038         0.002455     -0.003488     -0.068134
      4.40676      2.54424      5.28038         0.000000     -0.000000     -0.097935
      7.34459      2.54424      5.28038        -0.002455     -0.003488     -0.068134
      2.93784      5.08848      5.28038         0.004248     -0.000382     -0.068134
      5.87568      5.08848      5.28038        -0.004248     -0.000382     -0.068134
      8.81351      5.08848      5.28038        -0.000000     -0.000000     -0.077337
      1.46892      0.84808      7.67911         0.037457      0.021626      0.114882
      4.40676      0.84808      7.67911        -0.000000     -0.033654      0.026942
      7.34459      0.84808      7.67911        -0.037457      0.021626      0.114882
      2.93784      3.39232      7.67911        -0.029145      0.016827      0.026942
      5.87568      3.39232      7.67911         0.029145      0.016827      0.026942
      8.81351      3.39232      7.67911        -0.000000     -0.037635      0.089904
      4.40676      5.93656      7.67911        -0.000000     -0.043252      0.114882
      7.34459      5.93656      7.67911        -0.032593      0.018817      0.089904
     10.28243      5.93656      7.67911         0.032593      0.018817      0.089904
      8.81351      1.69524     10.07173         0.000000      0.005463     -0.001253
      2.95099      1.70376     10.05075         0.002048      0.001182     -0.016166
      5.86252      1.70376     10.05075        -0.002048      0.001182     -0.016166
     10.26977      4.24772     10.05674        -0.006026      0.003479     -0.013601
      4.40676      4.22522     10.05075        -0.000000     -0.002364     -0.016166
      7.35726      4.24772     10.05674         0.006026      0.003479     -0.013601
     11.75215      6.78511     10.07173        -0.004731     -0.002732     -0.001253
      5.87488      6.78511     10.07173         0.004731     -0.002732     -0.001253
      8.81351      6.77002     10.05674        -0.000000     -0.006959     -0.013601
      0.00000      0.00000     12.47665         0.000000     -0.000000      0.004190
      2.97645      0.06424     12.45579        -0.007485     -0.007001      0.007466
      5.83706      0.06424     12.45579         0.007485     -0.007001      0.007466
      1.54386      2.54556     12.45579        -0.009806     -0.002981      0.007466
      7.26966      2.54556     12.45579         0.009806     -0.002981      0.007466
      2.97417      5.02293     12.45579        -0.002321      0.009983      0.007466
      5.83935      5.02293     12.45579         0.002321      0.009983      0.007466
      8.81351      5.08848     12.49078         0.000000     -0.000000     -0.007821
      4.40676      2.54424     12.15093         0.000000      0.000000      0.018711
    total drift:                                0.005086      0.006182      0.426816

  FREE ENERGIE OF THE ION-ELECTRON SYSTEM (eV)
  free  energy   TOTEN  =      -112.08721233 eV

  energy  without entropy=     -112.08721233  energy(sigma->0) =     -112.08721233

 stress matrix after NEB project (eV)
    -24.92578     -0.00000     -0.00000
     -0.00000    -24.92578      0.00000
     -0.00000      0.00000      0.74972
  FORCES: max atom, RMS     0.018711    0.009112
  FORCE total and by dimension    0.054670    0.018711
  Stress total and by dimension   35.258347   24.925780
|           W    W    AA    RRRRR   N    N  II  N    N   GGGG   !!!           |
|           W    W   A  A   R    R  NN   N  II  NN   N  G    G  !!!           |
|           W    W  A    A  R    R  N N  N  II  N N  N  G       !!!           |
|           W WW W  AAAAAA  RRRRR   N  N N  II  N  N N  G  GGG   !            |
|           WW  WW  A    A  R   R   N   NN  II  N   NN  G    G                |
|           W    W  A    A  R    R  N    N  II  N    N   GGGG   !!!           |
|     Tetrahedron method does not include variations of the Fermi             |
|     occupations, so forces and stress will be inaccurate. We suggest        |
|     using a different smearing scheme ISMEAR = 1 or 2 for metals in         |
|     relaxations.                                                            |

 total charge

# of ion       s       p       d       tot
    1        0.545   0.239   8.766   9.551
    2        0.545   0.241   8.765   9.551
    3        0.545   0.241   8.765   9.551
    4        0.545   0.241   8.765   9.551
    5        0.542   0.242   8.763   9.546
    6        0.545   0.241   8.765   9.551
    7        0.545   0.241   8.765   9.551
    8        0.545   0.241   8.765   9.551
    9        0.543   0.239   8.768   9.551
   10        0.522   0.308   8.769   9.599
   11        0.521   0.308   8.779   9.608
   12        0.522   0.308   8.769   9.599
   13        0.521   0.308   8.779   9.608
   14        0.521   0.308   8.779   9.608
   15        0.518   0.309   8.776   9.603
   16        0.522   0.308   8.769   9.599
   17        0.518   0.309   8.776   9.603
   18        0.518   0.309   8.776   9.603
   19        0.517   0.303   8.776   9.596
   20        0.539   0.328   8.757   9.624
   21        0.539   0.328   8.757   9.624
   22        0.512   0.311   8.776   9.599
   23        0.539   0.328   8.757   9.624
   24        0.512   0.311   8.776   9.599
   25        0.517   0.303   8.776   9.596
   26        0.517   0.303   8.776   9.596
   27        0.512   0.311   8.776   9.599
   28        0.539   0.226   8.767   9.532
   29        0.555   0.237   8.756   9.548
   30        0.555   0.237   8.756   9.548
   31        0.555   0.237   8.756   9.548
   32        0.555   0.237   8.756   9.548
   33        0.555   0.237   8.756   9.548
   34        0.555   0.237   8.756   9.548
   35        0.535   0.224   8.769   9.529
   36        0.315   0.224   7.264   7.803
tot         19.007   9.859 314.121 342.987

 BZINTS: Fermi energy:    0.658456;  394.000000 electrons
         Band energy:-0.117529E+04;  BLOECHL correction:   -0.074954