 vasp.6.2.0 18Jan21 (build Jun 12 2021 23:27:24) complex

 executed on             LinuxIFC date 2022.05.30  17:02:02

 INCAR:
   ISMEAR = -5
   SIGMA = 0.1
   ISPIN = 1
   EDIFF = 1.d-5
   EDIFFG = -0.01
   NSW = 0
   NELM = 150
   ENCUT = 500
   ISIF = 2
   IBRION = 2
   LREAL = Auto
   ALGO = Fast
   ICHARG = 11
   LORBIT = 10
   LCHARG = .F.
   LWAVE = .F.

 POTCAR:    PAW_PBE Ag 02Apr2005
 POTCAR:    PAW_PBE Co 02Aug2007
 POTCAR:    PAW_PBE C 08Apr2002
 POTCAR:    PAW_PBE O 08Apr2002
 POTCAR:    PAW_PBE H 15Jun2001
|           W    W    AA    RRRRR   N    N  II  N    N   GGGG   !!!           |
|           W    W   A  A   R    R  NN   N  II  NN   N  G    G  !!!           |
|           W    W  A    A  R    R  N N  N  II  N N  N  G       !!!           |
|           W WW W  AAAAAA  RRRRR   N  N N  II  N  N N  G  GGG   !            |
|           WW  WW  A    A  R   R   N   NN  II  N   NN  G    G                |
|           W    W  A    A  R    R  N    N  II  N    N   GGGG   !!!           |
|     For optimal performance we recommend to set                             |
|       NCORE = 2 up to number-of-cores-per-socket                            |
|     This setting can greatly improve the performance of VASP for DFT.       |
|     The default, NCORE=1 might be grossly inefficient on modern             |
|     multi-core architectures or massively parallel machines. Do your        |
|     Unfortunately you need to use the default for GW and RPA                |
|     calculations (for HF NCORE is supported but not extensively tested      |
|     yet).                                                                   |

 POTCAR:    PAW_PBE Ag 02Apr2005
   VRHFIN =Ag : s1 d10

   TITEL  = PAW_PBE Ag 02Apr2005
   POMASS =  107.868; ZVAL   =   11.000    mass and valenz
   ENMAX  =  249.844; ENMIN  =  187.383 eV

 POTCAR:    PAW_PBE Co 02Aug2007
   VRHFIN =Co: d8 s1

   TITEL  = PAW_PBE Co 02Aug2007
   POMASS =   58.933; ZVAL   =    9.000    mass and valenz
   ENMAX  =  267.968; ENMIN  =  200.976 eV

 POTCAR:    PAW_PBE C 08Apr2002
   VRHFIN =C: s2p2

[...]

 POTCAR:    PAW_PBE O 08Apr2002
   VRHFIN =O: s2p4

   TITEL  = PAW_PBE O 08Apr2002
   POMASS =   16.000; ZVAL   =    6.000    mass and valenz
   ENMAX  =  400.000; ENMIN  =  300.000 eV

 POTCAR:    PAW_PBE H 15Jun2001
   VRHFIN =H: ultrasoft test

   TITEL  = PAW_PBE H 15Jun2001
   POMASS =    1.000; ZVAL   =    1.000    mass and valenz
   ENMAX  =  250.000; ENMIN  =  200.000 eV

 Optimization of the real space projectors (new method)

 maximal supplied QI-value         = 15.12
 optimisation between [QCUT,QGAM] = [ 11.34, 22.83] = [ 36.00,145.93] Ry
 Optimized for a Real-space Cutoff    1.43 Angstroem

   l    n(q)    QCUT    max X(q) W(low)/X(q) W(high)/X(q)  e(spline)
   2      9    11.338    53.897    0.16E-03    0.20E-03    0.28E-06
   2      9    11.338    52.416    0.16E-03    0.20E-03    0.29E-06
   0     10    11.338   122.045    0.31E-04    0.76E-04    0.15E-06
   0     10    11.338    73.629    0.30E-04    0.72E-04    0.15E-06
   1      9    11.338    15.255    0.20E-03    0.19E-04    0.17E-06
   1      9    11.338     9.562    0.16E-03    0.15E-04    0.14E-06
 Optimization of the real space projectors (new method)

[...]

   l    n(q)    QCUT    max X(q) W(low)/X(q) W(high)/X(q)  e(spline)
   0      7    11.387    20.381    0.39E-03    0.13E-02    0.15E-06
   0      7    11.387    15.268    0.42E-03    0.14E-02    0.17E-06
   1      6    11.387     5.964    0.41E-03    0.11E-02    0.17E-06
   1      6    11.387     5.382    0.39E-03    0.87E-03    0.15E-06
 Optimization of the real space projectors (new method)

 maximal supplied QI-value         = 34.20
 optimisation between [QCUT,QGAM] = [ 11.29, 22.57] = [ 35.68,142.71] Ry
 Optimized for a Real-space Cutoff    1.16 Angstroem

   l    n(q)    QCUT    max X(q) W(low)/X(q) W(high)/X(q)  e(spline)
   0      8    11.287    19.460    0.40E-03    0.73E-03    0.16E-06
   0      8    11.287    12.209    0.38E-03    0.70E-03    0.15E-06
   1      7    11.287     4.655    0.22E-03    0.25E-04    0.22E-06
  PAW_PBE Ag 02Apr2005                  :
  PAW_PBE Co 02Aug2007                  :
  PAW_PBE C 08Apr2002                   :
  PAW_PBE O 08Apr2002                   :
  PAW_PBE H 15Jun2001                   :

 POSCAR: Ag-Co-COH
  positions in direct lattice
  velocities in cartesian coordinates
 exchange correlation table for  LEXCH =        8
   RHO(1)=    0.500       N(1)  =     2000
   RHO(2)=  100.500       N(2)  =     4000

 VTST: version 3.2, (02/03/18)

 CHAIN: initializing optimizer

 OPT: Using VASP Conjugate-Gradient optimizer
 CHAIN: Read ICHAIN            0

 POSCAR: Ag-Co-COH
  positions in direct lattice
  velocities in cartesian coordinates

 ion  position               nearest neighbor table
   1  0.000  0.000  0.199-   2 2.93   8 2.93   7 2.93   6 2.93   4 2.93  12 2.93  16 2.93  10 2.93
                             3 2.93
   2  0.333  0.000  0.199-   1 2.93   8 2.93   9 2.93   3 2.93   4 2.93   5 2.93  10 2.93  17 2.93
                            11 2.93
   3  0.667  0.000  0.199-   9 2.93   2 2.93   5 2.93  11 2.93   7 2.93  18 2.93   1 2.93   6 2.93
                            12 2.93
   4  0.000  0.333  0.199-   5 2.93   6 2.93   2 2.93   1 2.93   7 2.93  13 2.93  15 2.93   9 2.93
                            10 2.93
   5  0.333  0.333  0.199-   4 2.93   3 2.93   7 2.93   2 2.93   8 2.93  14 2.93  13 2.93  11 2.93
                             6 2.93
   6  0.667  0.333  0.199-   4 2.93   9 2.93   1 2.93  15 2.93   8 2.93  12 2.93   3 2.93   5 2.93
                            14 2.93
   7  0.000  0.667  0.199-   8 2.93   1 2.93   5 2.93   3 2.93   4 2.93  16 2.93  18 2.93  13 2.93
                             9 2.93
   8  0.333  0.667  0.199-   7 2.93   1 2.93   2 2.93   9 2.93   5 2.93  16 2.93   6 2.93  17 2.93
                            14 2.93
   9  0.667  0.667  0.199-   3 2.93   2 2.93   8 2.93   6 2.93  17 2.93   4 2.93  15 2.93   7 2.93
                            18 2.93
  10  0.111  0.111  0.289-  20 2.92  19 2.93  26 2.93  12 2.93  16 2.93  15 2.93  17 2.93  13 2.93
                            11 2.93   2 2.93   1 2.93   4 2.93
  11  0.444  0.111  0.289-  21 2.90  20 2.90  27 2.92  14 2.93  17 2.93  18 2.93   3 2.93  12 2.93
                            13 2.93  10 2.93   5 2.93   2 2.93
  12  0.778  0.111  0.289-  21 2.92  25 2.93  19 2.93  10 2.93  16 2.93  18 2.93  15 2.93  11 2.93
                             1 2.93  14 2.93   6 2.93   3 2.93
  13  0.111  0.444  0.289-  20 2.90  23 2.90  22 2.92  15 2.93  14 2.93  18 2.93  10 2.93  11 2.93
                            16 2.93   4 2.93   5 2.93   7 2.93
  14  0.444  0.444  0.289-  23 2.90  21 2.90  24 2.92  13 2.93  11 2.93  16 2.93   5 2.93  12 2.93
                            17 2.93   8 2.93  15 2.93   6 2.93
  15  0.778  0.444  0.289-  24 2.91  22 2.91  19 2.92  13 2.93  10 2.93  12 2.93  17 2.93  18 2.93
                             4 2.93   6 2.93   9 2.93  14 2.93
  16  0.111  0.778  0.289-  23 2.92  26 2.93  25 2.93  18 2.93  12 2.93  10 2.93  14 2.93  17 2.93
                            13 2.93   7 2.93   8 2.93   1 2.93
  17  0.444  0.778  0.289-  27 2.91  24 2.91  26 2.92  11 2.93  10 2.93   9 2.93  18 2.93  15 2.93
                            16 2.93   2 2.93  14 2.93   8 2.93
  18  0.778  0.778  0.289-  22 2.91  27 2.91  25 2.92  16 2.93  12 2.93  13 2.93  11 2.93  17 2.93
                            15 2.93   7 2.93   3 2.93   9 2.93
  19  0.889  0.222  0.379-  28 2.91  15 2.92  10 2.93  12 2.93  24 2.93  22 2.93  26 2.93  25 2.93
                            32 2.94  31 2.94  20 2.94  21 2.94
  20  0.223  0.223  0.378-  36 2.69  31 2.89  29 2.89  13 2.90  11 2.90  21 2.91  23 2.91  10 2.92
                            27 2.93  22 2.93  19 2.94  26 2.94
  21  0.554  0.223  0.378-  36 2.69  30 2.89  32 2.89  11 2.90  14 2.90  20 2.91  23 2.91  12 2.92
                            27 2.93  24 2.93  25 2.94  19 2.94
  22  0.888  0.556  0.378-  35 2.91  33 2.91  31 2.91  18 2.91  15 2.91  13 2.92  24 2.92  27 2.92
                            25 2.93  19 2.93  23 2.93  20 2.93
  23  0.223  0.554  0.378-  36 2.69  34 2.89  33 2.89  14 2.90  13 2.90  21 2.91  20 2.91  16 2.92
                            22 2.93  24 2.93  26 2.94  25 2.94
  24  0.556  0.556  0.378-  35 2.91  32 2.91  34 2.91  15 2.91  17 2.91  14 2.92  27 2.92  22 2.92
                            19 2.93  26 2.93  23 2.93  21 2.93
  25  0.889  0.889  0.379-  28 2.91  18 2.92  16 2.93  12 2.93  22 2.93  27 2.93  26 2.93  19 2.93
                            33 2.94  30 2.94  23 2.94  21 2.94
  26  0.222  0.889  0.379-  28 2.91  17 2.92  16 2.93  10 2.93  27 2.93  24 2.93  25 2.93  19 2.93
                            34 2.94  29 2.94  23 2.94  20 2.94
  27  0.556  0.888  0.378-  35 2.91  29 2.91  30 2.91  17 2.91  18 2.91  11 2.92  24 2.92  22 2.92
                            26 2.93  25 2.93  20 2.93  21 2.93
  28  0.000  0.000  0.467-  26 2.91  25 2.91  19 2.91  29 2.97  34 2.97  33 2.97  32 2.97  31 2.97
                            30 2.97
  29  0.333  0.008  0.467-  31 2.86  30 2.86  36 2.87  20 2.89  27 2.91  26 2.94  28 2.97  35 2.97
                            34 3.07
  30  0.659  0.008  0.467-  32 2.86  29 2.86  36 2.87  21 2.89  27 2.91  25 2.94  28 2.97  35 2.97
                            33 3.07
  31  0.008  0.333  0.467-  29 2.86  33 2.86  36 2.87  20 2.89  22 2.91  19 2.94  28 2.97  35 2.97
                            32 3.07
  32  0.659  0.333  0.467-  30 2.86  34 2.86  36 2.87  21 2.89  24 2.91  19 2.94  28 2.97  35 2.97
                            31 3.07
  33  0.008  0.659  0.467-  34 2.86  31 2.86  36 2.87  23 2.89  22 2.91  25 2.94  28 2.97  35 2.97
                            30 3.07
  34  0.333  0.659  0.467-  33 2.86  32 2.86  36 2.87  23 2.89  24 2.91  26 2.94  28 2.97  35 2.97
                            29 3.07
  35  0.667  0.667  0.467-  24 2.91  27 2.91  22 2.91  32 2.97  30 2.97  29 2.97  34 2.97  31 2.97
                            33 2.97
  36  0.333  0.333  0.457-  37 1.64  21 2.69  20 2.69  23 2.69  31 2.87  30 2.87  33 2.87  29 2.87
                            34 2.87  32 2.87
  37  0.333  0.333  0.518-  38 1.26  36 1.64
  38  0.333  0.333  0.566-  39 0.96  37 1.26
  39  0.333  0.333  0.602-  38 0.96

  LATTYP: Found a hexagonal cell.
 ALAT       =     8.7913665772
 C/A-ratio  =     3.0233954145

  Lattice vectors:

 A1 = (  -4.3956832886,  -7.6135467898,   0.0000000000)
 A2 = (   8.7913665771,   0.0000000000,   0.0000000000)
 A3 = (   0.0000000000,   0.0000000000,  26.5797773968)

Analysis of symmetry for initial positions (statically):
 Subroutine PRICEL returns:
 Original cell was already a primitive cell.

 Routine SETGRP: Setting up the symmetry group for a
 hexagonal supercell.

 Subroutine GETGRP returns: Found  6 space group operations
 (whereof  6 operations were pure point group operations)
 out of a pool of 24 trial point group operations.

The static configuration has the point symmetry C_3v.

Analysis of symmetry for dynamics (positions and initial velocities):
 Subroutine PRICEL returns:
 Original cell was already a primitive cell.

[...]

[...]
     41      -4.6867      2.00000
     42      -4.6682      2.00000
     43      -4.6371      2.00000
     44      -4.6314      2.00000
     45      -4.6163      2.00000
     46      -4.6057      2.00000
     47      -4.5844      2.00000
     48      -4.5245      2.00000
     49      -4.4932      2.00000
     50      -4.4859      2.00000
     51      -4.4773      2.00000
     52      -4.4701      2.00000
     53      -4.4656      2.00000
     54      -4.4463      2.00000
     55      -4.4442      2.00000
     56      -4.4259      2.00000
     57      -4.4245      2.00000
     58      -4.3580      2.00000
     59      -4.3483      2.00000
     60      -4.3367      2.00000
[...]
    238       5.2501      0.00000
    239       5.3407      0.00000
    240       5.4640      0.00000
    241       5.5618      0.00000
    242       5.7274      0.00000
    243       5.7631      0.00000
    244       5.7910      0.00000
    245       5.7992      0.00000
    246       5.8597      0.00000
    247       5.8837      0.00000
    248       5.8997      0.00000
    249       6.0624      0.00000
    250       6.1397      0.00000
    251       6.5986      0.00000
    252       6.8289      0.00000

 soft charge-density along one line, spin component           1
         0         1         2         3         4         5         6         7         8         9
 total charge-density along one line

------------------------ aborting loop because EDIFF is reached ----------------------------------------

 total charge

# of ion       s       p       d       tot
    1        0.416   0.204   9.177   9.796
    2        0.418   0.204   9.177   9.798
    3        0.418   0.204   9.177   9.798
    4        0.418   0.204   9.177   9.798
    5        0.418   0.203   9.176   9.797
    6        0.418   0.204   9.177   9.798
    7        0.418   0.204   9.177   9.798
    8        0.418   0.204   9.177   9.798
    9        0.414   0.205   9.177   9.796
   10        0.407   0.268   9.164   9.839
   11        0.408   0.269   9.166   9.843
   12        0.407   0.268   9.164   9.839
   13        0.408   0.269   9.166   9.843
   14        0.408   0.269   9.166   9.843
   15        0.401   0.271   9.165   9.837
   16        0.407   0.268   9.164   9.839
   17        0.401   0.271   9.165   9.837
   18        0.401   0.271   9.165   9.837
   19        0.405   0.266   9.166   9.837
   20        0.425   0.293   9.149   9.868
   21        0.425   0.293   9.149   9.868
   22        0.398   0.276   9.164   9.839
   23        0.425   0.293   9.149   9.868
   24        0.398   0.276   9.164   9.839
   25        0.405   0.266   9.166   9.837
   26        0.405   0.266   9.166   9.837
   27        0.398   0.276   9.164   9.839
   28        0.416   0.197   9.179   9.792
   29        0.406   0.210   9.180   9.796
   30        0.406   0.210   9.180   9.796
   31        0.406   0.210   9.180   9.796
   32        0.406   0.210   9.180   9.796
   33        0.406   0.210   9.180   9.796
   34        0.406   0.210   9.180   9.796
   35        0.415   0.196   9.180   9.791
   36        0.439   0.521   7.478   8.438
   37        0.938   1.427   0.000   2.364
   38        1.530   3.752   0.000   5.282
   39        0.559   0.132   0.000   0.691
tot         17.823  14.248 328.426 360.497

  FORCE on cell =-STRESS in cart. coord.  units (eV):
  Direction    XX          YY          ZZ          XY          YZ          ZX
  Alpha Z   637.31373   637.31373   637.31373
  Ewald  188738.75846188738.75857************     0.00006     0.00000     0.00006
  Hartree199021.67098199021.67103************     0.00003    -0.00000     0.00003
  E(xc)   -2123.28826 -2123.28842 -2126.86245     0.00014    -0.00002    -0.00003
  Local  ************************398619.10109     0.00067    -0.00007    -0.00021
  n-local  -363.24312  -347.43409  -357.75968     9.97848    -0.38026     0.40307
  augment  3388.55285  3388.55309  3379.50482    -0.00021    -0.00004    -0.00002
  Kinetic  5064.23343  5065.25635  5017.85715     3.57193     1.22307    -0.50637
  Fock        0.00000     0.00000     0.00000     0.00000     0.00000     0.00000
  Total      -8.36960    -8.36960    -0.25310    -0.00000     0.00000    -0.00000
  in kB      -7.53738    -7.53738    -0.22793    -0.00000     0.00000    -0.00000

 VOLUME and BASIS-vectors are now :
  energy-cutoff  :      500.00
  volume of cell :     1779.08
      direct lattice vectors                 reciprocal lattice vectors
     8.791366577  0.000000000  0.000000000     0.113747958 -0.065672414  0.000000000
     4.395683289  7.613546790  0.000000000     0.000000000  0.131344829  0.000000000
     0.000000000  0.000000000 26.579777397     0.000000000  0.000000000  0.037622587

  length of vectors
     8.791366577  8.791366577 26.579777397     0.131344829  0.131344829  0.037622587

 FORCES acting on ions
    electron-ion (+dipol)            ewald-force                    non-local-force                 convergence-correction
   0.457E-04 -.284E-04 0.286E+04   -.954E-04 0.593E-04 -.286E+04   -.443E-17 0.474E-18 -.226E+01   -.201E-03 -.223E-03 -.411E-01
   0.579E+00 0.546E+00 0.286E+04   -.665E+00 -.694E+00 -.286E+04   0.276E-01 0.486E-01 -.157E+01   0.626E-01 0.108E+00 -.868E-01
   -.579E+00 0.546E+00 0.286E+04   0.665E+00 -.694E+00 -.286E+04   -.276E-01 0.486E-01 -.157E+01   -.631E-01 0.110E+00 -.859E-01
   0.763E+00 0.228E+00 0.286E+04   -.934E+00 -.229E+00 -.286E+04   0.559E-01 -.419E-03 -.157E+01   0.125E+00 0.355E-03 -.868E-01
   -.365E-05 -.175E-04 0.286E+04   0.981E-04 -.199E-05 -.286E+04   0.307E-17 -.105E-17 -.152E+01   0.626E-02 0.382E-02 -.121E+00
   -.763E+00 0.228E+00 0.286E+04   0.934E+00 -.229E+00 -.286E+04   -.559E-01 -.419E-03 -.157E+01   -.127E+00 0.118E-02 -.860E-01
   0.184E+00 -.775E+00 0.286E+04   -.269E+00 0.923E+00 -.286E+04   0.283E-01 -.482E-01 -.157E+01   0.642E-01 -.109E+00 -.859E-01
   -.184E+00 -.774E+00 0.286E+04   0.269E+00 0.923E+00 -.286E+04   -.283E-01 -.482E-01 -.157E+01   -.626E-01 -.110E+00 -.859E-01
   0.368E-04 -.127E-04 0.286E+04   0.792E-04 -.643E-04 -.286E+04   -.863E-18 -.655E-18 -.191E+01   -.659E-02 -.339E-02 -.111E-01
   0.613E+01 0.354E+01 0.101E+04   -.574E+01 -.331E+01 -.100E+04   -.392E+00 -.226E+00 -.739E+00   0.204E-01 0.118E-01 0.836E-01
   -.297E-04 0.733E+01 0.102E+04   0.419E-04 -.759E+01 -.102E+04   0.678E-12 0.103E+00 -.489E+00   0.686E-02 0.110E+00 0.828E-01
   -.613E+01 0.354E+01 0.101E+04   0.574E+01 -.331E+01 -.100E+04   0.392E+00 -.226E+00 -.739E+00   -.225E-01 0.126E-01 0.846E-01
   0.635E+01 -.367E+01 0.102E+04   -.657E+01 0.380E+01 -.102E+04   0.894E-01 -.516E-01 -.489E+00   0.988E-01 -.492E-01 0.827E-01
   -.635E+01 -.367E+01 0.102E+04   0.657E+01 0.380E+01 -.102E+04   -.894E-01 -.516E-01 -.489E+00   -.883E-01 -.507E-01 0.815E-01
   0.162E-04 0.135E+01 0.101E+04   -.109E-03 -.136E+01 -.101E+04   -.323E-13 -.491E-02 -.681E+00   -.175E-02 -.197E-02 0.853E-01
   -.760E-05 -.708E+01 0.101E+04   0.208E-04 0.663E+01 -.100E+04   0.297E-11 0.453E+00 -.739E+00   -.348E-03 -.259E-01 0.846E-01
   0.117E+01 -.674E+00 0.101E+04   -.118E+01 0.680E+00 -.101E+04   -.425E-02 0.246E-02 -.681E+00   -.261E-02 -.542E-03 0.853E-01
   -.117E+01 -.674E+00 0.101E+04   0.118E+01 0.680E+00 -.101E+04   0.425E-02 0.246E-02 -.681E+00   0.325E-02 0.185E-02 0.875E-01
   0.419E-04 0.347E+01 -.885E+03   -.130E-03 -.353E+01 0.884E+03   0.128E-12 0.195E-01 0.633E+00   -.660E-02 0.510E-01 0.102E-01
   0.381E+02 0.220E+02 -.824E+03   -.371E+02 -.214E+02 0.825E+03   -.108E+01 -.623E+00 -.117E+01   0.513E-01 0.296E-01 -.602E-02
   -.381E+02 0.220E+02 -.824E+03   0.371E+02 -.214E+02 0.825E+03   0.108E+01 -.623E+00 -.117E+01   -.500E-01 0.278E-01 -.617E-02
   0.157E+02 -.907E+01 -.868E+03   -.159E+02 0.917E+01 0.868E+03   0.225E+00 -.130E+00 0.545E+00   -.354E-02 0.110E-01 0.311E-01
   -.613E-04 -.439E+02 -.824E+03   0.474E-04 0.428E+02 0.825E+03   0.819E-11 0.125E+01 -.117E+01   -.609E-03 -.566E-01 -.613E-02
   -.157E+02 -.907E+01 -.868E+03   0.159E+02 0.917E+01 0.868E+03   -.225E+00 -.130E+00 0.545E+00   0.145E-01 0.847E-02 0.312E-01
   -.300E+01 -.173E+01 -.885E+03   0.306E+01 0.177E+01 0.884E+03   -.169E-01 -.975E-02 0.633E+00   -.529E-01 -.307E-01 0.980E-02
   0.300E+01 -.173E+01 -.885E+03   -.306E+01 0.177E+01 0.884E+03   0.169E-01 -.975E-02 0.633E+00   0.406E-01 -.314E-01 0.102E-01
   0.209E-04 0.181E+02 -.868E+03   0.109E-03 -.183E+02 0.868E+03   0.171E-11 0.260E+00 0.545E+00   0.711E-02 -.860E-02 0.311E-01
   0.540E-04 -.376E-04 -.276E+04   -.116E-03 0.783E-04 0.276E+04   0.201E-17 0.104E-17 0.165E+01   -.485E-03 -.417E-03 0.468E-01
   0.457E+02 0.792E+02 -.273E+04   -.456E+02 -.791E+02 0.273E+04   -.205E+00 -.308E+00 0.216E+01   0.932E-02 -.735E-03 0.332E-01
   -.457E+02 0.792E+02 -.273E+04   0.456E+02 -.791E+02 0.273E+04   0.205E+00 -.308E+00 0.216E+01   -.929E-02 0.462E-03 0.317E-01
   0.915E+02 -.400E-01 -.273E+04   -.913E+02 0.716E-01 0.273E+04   -.369E+00 -.234E-01 0.216E+01   0.425E-02 0.861E-02 0.332E-01
   -.915E+02 -.400E-01 -.273E+04   0.913E+02 0.714E-01 0.273E+04   0.369E+00 -.234E-01 0.216E+01   -.526E-02 0.870E-02 0.328E-01
   0.458E+02 -.792E+02 -.273E+04   -.457E+02 0.790E+02 0.273E+04   -.164E+00 0.331E+00 0.216E+01   -.378E-02 -.774E-02 0.316E-01
   -.458E+02 -.792E+02 -.273E+04   0.457E+02 0.790E+02 0.273E+04   0.164E+00 0.331E+00 0.216E+01   0.452E-02 -.884E-02 0.328E-01
   0.210E-04 -.117E-04 -.276E+04   0.107E-03 -.666E-04 0.276E+04   0.228E-16 -.210E-17 0.171E+01   -.612E-02 -.310E-02 -.126E-01
   -.282E-04 -.156E-04 -.191E+04   0.866E-04 0.126E-04 0.190E+04   -.156E-16 -.555E-19 0.172E+01   0.636E-02 0.388E-02 -.851E-01
   0.129E-05 -.722E-04 -.112E+04   0.218E-04 0.385E-06 0.110E+04   -.245E-17 -.181E-17 0.201E+02   0.132E-02 0.808E-03 0.183E-01
   0.239E-03 -.901E-04 -.181E+04   0.110E-04 0.308E-07 0.181E+04   -.548E-18 -.602E-18 -.477E+01   0.388E-02 0.238E-02 0.153E-01
   0.644E-05 -.141E-04 -.342E+03   0.737E-06 -.288E-08 0.351E+03   0.141E-19 0.132E-19 -.847E+01   0.204E-03 0.125E-03 0.131E-02
   0.615E-03 -.869E-03 -.444E+01   -.171E-12 0.153E-12 0.978E-11   -.235E-16 -.455E-17 0.417E+01   0.177E-01 0.138E-01 0.351E+00

 POSITION                                       TOTAL-FORCE (eV/Angst)
      0.00000      0.00000      5.28219        -0.000000      0.000000      0.034240
      2.93046      0.00000      5.28219         0.004427      0.010005      0.043074
      5.86091      0.00000      5.28219        -0.004427      0.010005      0.043074
      1.46523      2.53785      5.28219         0.010878     -0.001169      0.043074
      4.39568      2.53785      5.28219        -0.000000     -0.000000      0.021413
      7.32614      2.53785      5.28219        -0.010878     -0.001169      0.043074
      2.93046      5.07570      5.28219         0.006452     -0.008836      0.043074
      5.86091      5.07570      5.28219        -0.006452     -0.008836      0.043074
      8.79137      5.07570      5.28219        -0.000000     -0.000000      0.037085
      1.46523      0.84595      7.67490         0.023077      0.013324     -0.000571
      4.39568      0.84595      7.67490        -0.000000     -0.046319     -0.091758
      7.32614      0.84595      7.67490        -0.023077      0.013324     -0.000571
      2.93046      3.38380      7.67490        -0.040114      0.023160     -0.091758
      5.86091      3.38380      7.67490         0.040114      0.023160     -0.091758
      8.79137      3.38380      7.67490        -0.000000     -0.020386      0.002188
      4.39568      5.92165      7.67490        -0.000000     -0.026647     -0.000571
      7.32614      5.92165      7.67490        -0.017655      0.010193      0.002188
     10.25659      5.92165      7.67490         0.017655      0.010193      0.002188
      8.79137      1.69398     10.06180         0.000000      0.008454      0.011081
      2.94231      1.69874     10.03918        -0.046489     -0.026841     -0.139774
      5.84906      1.69874     10.03918         0.046489     -0.026841     -0.139774
     10.25255      4.23208     10.04993         0.040396     -0.023323     -0.011377
      4.39568      4.21606     10.03918         0.000000      0.053681     -0.139774
      7.33018      4.23208     10.04993        -0.040396     -0.023323     -0.011377
     11.72002      6.76656     10.06180        -0.007321     -0.004227      0.011081
      5.86271      6.76656     10.06180         0.007321     -0.004227      0.011081
      8.79137      6.76293     10.04993         0.000000      0.046645     -0.011377
      0.00000      0.00000     12.42562        -0.000000      0.000000      0.006827
      2.96563      0.06260     12.41952        -0.063683     -0.142820     -0.045313
      5.82574      0.06260     12.41952         0.063683     -0.142820     -0.045313
      1.53702      2.53701     12.41952        -0.155527      0.016259     -0.045313
      7.25434      2.53701     12.41952         0.155527      0.016259     -0.045313
      2.96708      5.01394     12.41952        -0.091844      0.126561     -0.045313
      5.82429      5.01394     12.41952         0.091844      0.126561     -0.045313
      8.79137      5.07570     12.42127        -0.000000     -0.000000      0.009572
      4.39568      2.53785     12.13550        -0.000000     -0.000000      0.610678
      4.39568      2.53785     13.77302        -0.000000      0.000000     -0.033245
      4.39568      2.53785     15.03647        -0.000000     -0.000000      0.018338
      4.39568      2.53785     15.99895        -0.000000      0.000000     -0.000841
    total drift:                                0.018309      0.012893      0.077781

  FREE ENERGIE OF THE ION-ELECTRON SYSTEM (eV)
  free  energy   TOTEN  =      -112.39922965 eV

  energy  without entropy=     -112.39922965  energy(sigma->0) =     -112.39922965

 stress matrix after NEB project (eV)
     -8.36960     -0.00000     -0.00000
     -0.00000     -8.36960      0.00000
      0.00000      0.00000     -0.25310
  FORCES: max atom, RMS     0.033245    0.006081
  FORCE total and by dimension    0.037977    0.033245
  Stress total and by dimension   11.839108    8.369600
|           W    W    AA    RRRRR   N    N  II  N    N   GGGG   !!!           |
|           W    W   A  A   R    R  NN   N  II  NN   N  G    G  !!!           |
|           W    W  A    A  R    R  N N  N  II  N N  N  G       !!!           |
|           W WW W  AAAAAA  RRRRR   N  N N  II  N  N N  G  GGG   !            |
|           WW  WW  A    A  R   R   N   NN  II  N   NN  G    G                |
|           W    W  A    A  R    R  N    N  II  N    N   GGGG   !!!           |
|     Tetrahedron method does not include variations of the Fermi             |
|     occupations, so forces and stress will be inaccurate. We suggest        |
|     using a different smearing scheme ISMEAR = 1 or 2 for metals in         |
|     relaxations.                                                            |

 total charge

# of ion       s       p       d       tot
    1        0.416   0.204   9.177   9.796
    2        0.418   0.204   9.177   9.798
    3        0.418   0.204   9.177   9.798
    4        0.418   0.204   9.177   9.798
    5        0.418   0.203   9.176   9.797
    6        0.418   0.204   9.177   9.798
    7        0.418   0.204   9.177   9.798
    8        0.418   0.204   9.177   9.798
    9        0.414   0.205   9.177   9.796
   10        0.407   0.268   9.164   9.839
   11        0.408   0.269   9.166   9.843
   12        0.407   0.268   9.164   9.839
   13        0.408   0.269   9.166   9.843
   14        0.408   0.269   9.166   9.843
   15        0.401   0.271   9.165   9.837
   16        0.407   0.268   9.164   9.839
   17        0.401   0.271   9.165   9.837
   18        0.401   0.271   9.165   9.837
   19        0.405   0.266   9.166   9.837
   20        0.425   0.293   9.149   9.868
   21        0.425   0.293   9.149   9.868
   22        0.398   0.276   9.164   9.839
   23        0.425   0.293   9.149   9.868
   24        0.398   0.276   9.164   9.839
   25        0.405   0.266   9.166   9.837
   26        0.405   0.266   9.166   9.837
   27        0.398   0.276   9.164   9.839
   28        0.416   0.197   9.179   9.792
   29        0.406   0.210   9.180   9.796
   30        0.406   0.210   9.180   9.796
   31        0.406   0.210   9.180   9.796
   32        0.406   0.210   9.180   9.796
   33        0.406   0.210   9.180   9.796
   34        0.406   0.210   9.180   9.796
   35        0.415   0.196   9.180   9.791
   36        0.439   0.521   7.478   8.438
   37        0.938   1.427   0.000   2.364
   38        1.530   3.752   0.000   5.282
   39        0.559   0.132   0.000   0.691
tot         17.823  14.248 328.426 360.497

 BZINTS: Fermi energy:    0.524555;  405.000000 electrons
         Band energy:-0.151078E+04;  BLOECHL correction:   -0.048391