 vasp.6.2.0 18Jan21 (build Jun 12 2021 23:27:24) complex

 executed on             LinuxIFC date 2022.05.26  19:41:37

 INCAR:
   ISMEAR = -5
   SIGMA = 0.1
   ISPIN = 1
   EDIFF = 1.d-5
   EDIFFG = -0.01
   NSW = 0
   NELM = 150
   ENCUT = 500
   ISIF = 2
   IBRION = 2
   LREAL = Auto
   ALGO = Fast
   ICHARG = 11
   LORBIT = 10
   LCHARG = .F.
   LWAVE = .F.

 POTCAR:    PAW_PBE Ag 02Apr2005
 POTCAR:    PAW_PBE Fe 06Sep2000
 POTCAR:    PAW_PBE O 08Apr2002
|           W    W    AA    RRRRR   N    N  II  N    N   GGGG   !!!           |
|           W    W   A  A   R    R  NN   N  II  NN   N  G    G  !!!           |
|           W    W  A    A  R    R  N N  N  II  N N  N  G       !!!           |
|           W WW W  AAAAAA  RRRRR   N  N N  II  N  N N  G  GGG   !            |
|           WW  WW  A    A  R   R   N   NN  II  N   NN  G    G                |
|           W    W  A    A  R    R  N    N  II  N    N   GGGG   !!!           |
|     For optimal performance we recommend to set                             |
|       NCORE = 2 up to number-of-cores-per-socket                            |
|     This setting can greatly improve the performance of VASP for DFT.       |
|     The default, NCORE=1 might be grossly inefficient on modern             |
|     multi-core architectures or massively parallel machines. Do your        |
|     Unfortunately you need to use the default for GW and RPA                |
|     calculations (for HF NCORE is supported but not extensively tested      |
|     yet).                                                                   |

 POTCAR:    PAW_PBE Ag 02Apr2005
   VRHFIN =Ag : s1 d10

   TITEL  = PAW_PBE Ag 02Apr2005
   POMASS =  107.868; ZVAL   =   11.000    mass and valenz
   ENMAX  =  249.844; ENMIN  =  187.383 eV

 POTCAR:    PAW_PBE Fe 06Sep2000
   VRHFIN =Fe:  d7 s1

   TITEL  = PAW_PBE Fe 06Sep2000
   POMASS =   55.847; ZVAL   =    8.000    mass and valenz
   ENMAX  =  267.882; ENMIN  =  200.911 eV

 POTCAR:    PAW_PBE O 08Apr2002
   VRHFIN =O: s2p4

   TITEL  = PAW_PBE O 08Apr2002
   POMASS =   16.000; ZVAL   =    6.000    mass and valenz
   ENMAX  =  400.000; ENMIN  =  300.000 eV

 Optimization of the real space projectors (new method)

 maximal supplied QI-value         = 15.12
 optimisation between [QCUT,QGAM] = [ 11.34, 22.83] = [ 36.00,145.93] Ry
 Optimized for a Real-space Cutoff    1.43 Angstroem

   l    n(q)    QCUT    max X(q) W(low)/X(q) W(high)/X(q)  e(spline)
   2      9    11.338    53.897    0.16E-03    0.20E-03    0.28E-06
   2      9    11.338    52.416    0.16E-03    0.20E-03    0.29E-06
   0     10    11.338   122.045    0.31E-04    0.76E-04    0.15E-06
   0     10    11.338    73.629    0.30E-04    0.72E-04    0.15E-06
   1      9    11.338    15.255    0.20E-03    0.19E-04    0.17E-06
   1      9    11.338     9.562    0.16E-03    0.15E-04    0.14E-06
 Optimization of the real space projectors (new method)

[...]

   l    n(q)    QCUT    max X(q) W(low)/X(q) W(high)/X(q)  e(spline)
   2      8    11.376    80.901    0.45E-03    0.44E-04    0.21E-06
   2      8    11.376    75.754    0.45E-03    0.45E-04    0.22E-06
   0      9    11.376    58.752    0.65E-04    0.95E-04    0.17E-06
   0      9    11.376    30.679    0.59E-04    0.87E-04    0.16E-06
   1      9    11.376    17.977    0.38E-03    0.10E-03    0.14E-06
   1      9    11.376    13.559    0.31E-03    0.90E-04    0.12E-06
 Optimization of the real space projectors (new method)

 maximal supplied QI-value         = 24.76
 optimisation between [QCUT,QGAM] = [ 11.39, 22.77] = [ 36.31,145.25] Ry
 Optimized for a Real-space Cutoff    1.00 Angstroem

   l    n(q)    QCUT    max X(q) W(low)/X(q) W(high)/X(q)  e(spline)
   0      7    11.387    20.381    0.39E-03    0.13E-02    0.15E-06
   0      7    11.387    15.268    0.42E-03    0.14E-02    0.17E-06
   1      6    11.387     5.964    0.41E-03    0.11E-02    0.17E-06
   1      6    11.387     5.382    0.39E-03    0.87E-03    0.15E-06
  PAW_PBE Ag 02Apr2005                  :
  PAW_PBE Fe 06Sep2000                  :
  PAW_PBE O 08Apr2002                   :

 POSCAR: Ag-Fe-O
  positions in direct lattice
  velocities in cartesian coordinates
 exchange correlation table for  LEXCH =        8
   RHO(1)=    0.500       N(1)  =     2000
   RHO(2)=  100.500       N(2)  =     4000

 VTST: version 3.2, (02/03/18)

 CHAIN: initializing optimizer

 OPT: Using VASP Conjugate-Gradient optimizer
 CHAIN: Read ICHAIN            0

 POSCAR: Ag-Fe-O
  positions in direct lattice
  velocities in cartesian coordinates

 ion  position               nearest neighbor table
   1  0.000  0.000  0.238-   2 2.93   8 2.93   7 2.93   6 2.93   4 2.93  12 2.93  16 2.93  10 2.93
                             3 2.93
   2  0.333  0.000  0.238-   1 2.93   8 2.93   9 2.93   3 2.93   4 2.93   5 2.93  10 2.93  17 2.93
                            11 2.93
   3  0.667  0.000  0.238-   9 2.93   2 2.93   5 2.93  11 2.93   7 2.93  18 2.93   1 2.93   6 2.93
                            12 2.93
   4  0.000  0.333  0.238-   5 2.93   6 2.93   2 2.93   1 2.93   7 2.93  13 2.93  15 2.93   9 2.93
                            10 2.93
   5  0.333  0.333  0.238-   4 2.93   3 2.93   7 2.93   2 2.93   8 2.93  14 2.93  13 2.93  11 2.93
                             6 2.93
   6  0.667  0.333  0.238-   4 2.93   9 2.93   1 2.93  15 2.93   8 2.93  12 2.93   3 2.93   5 2.93
                            14 2.93
   7  0.000  0.667  0.238-   8 2.93   1 2.93   5 2.93   3 2.93   4 2.93  16 2.93  18 2.93  13 2.93
                             9 2.93
   8  0.333  0.667  0.238-   7 2.93   1 2.93   2 2.93   9 2.93   5 2.93  16 2.93   6 2.93  17 2.93
                            14 2.93
   9  0.667  0.667  0.238-   3 2.93   2 2.93   8 2.93   6 2.93  17 2.93   4 2.93  15 2.93   7 2.93
                            18 2.93
  10  0.111  0.111  0.346-  20 2.92  19 2.93  26 2.93  12 2.93  16 2.93  15 2.93  17 2.93  13 2.93
                            11 2.93   2 2.93   1 2.93   4 2.93
  11  0.444  0.111  0.346-  21 2.90  20 2.90  27 2.92  14 2.93  17 2.93  18 2.93   3 2.93  12 2.93
                            13 2.93  10 2.93   5 2.93   2 2.93
  12  0.778  0.111  0.346-  21 2.92  25 2.93  19 2.93  10 2.93  16 2.93  18 2.93  15 2.93  11 2.93
                             1 2.93  14 2.93   6 2.93   3 2.93
  13  0.111  0.444  0.346-  20 2.90  23 2.90  22 2.92  15 2.93  14 2.93  18 2.93  10 2.93  11 2.93
                            16 2.93   4 2.93   5 2.93   7 2.93
  14  0.444  0.444  0.346-  23 2.90  21 2.90  24 2.92  13 2.93  11 2.93  16 2.93   5 2.93  12 2.93
                            17 2.93   8 2.93  15 2.93   6 2.93
  15  0.778  0.444  0.346-  24 2.92  22 2.92  19 2.93  13 2.93  10 2.93  12 2.93  17 2.93  18 2.93
                             4 2.93   6 2.93   9 2.93  14 2.93
  16  0.111  0.778  0.346-  23 2.92  26 2.93  25 2.93  18 2.93  12 2.93  10 2.93  14 2.93  17 2.93
                            13 2.93   7 2.93   8 2.93   1 2.93
  17  0.444  0.778  0.346-  27 2.92  24 2.92  26 2.93  11 2.93  10 2.93   9 2.93  18 2.93  15 2.93
                            16 2.93   2 2.93  14 2.93   8 2.93
  18  0.778  0.778  0.346-  22 2.92  27 2.92  25 2.93  16 2.93  12 2.93  13 2.93  11 2.93  17 2.93
                            15 2.93   7 2.93   3 2.93   9 2.93
  19  0.889  0.222  0.454-  28 2.91  15 2.93  10 2.93  12 2.93  24 2.93  22 2.93  26 2.93  25 2.93
                            20 2.94  21 2.94  32 2.94  31 2.94
  20  0.223  0.223  0.453-  36 2.70  31 2.89  29 2.89  13 2.90  11 2.90  21 2.91  23 2.91  10 2.92
                            27 2.94  22 2.94  19 2.94  26 2.94
  21  0.554  0.223  0.453-  36 2.70  30 2.89  32 2.89  11 2.90  14 2.90  20 2.91  23 2.91  12 2.92
                            27 2.94  24 2.94  25 2.94  19 2.94
  22  0.888  0.556  0.453-  35 2.91  18 2.92  15 2.92  33 2.92  31 2.92  13 2.92  24 2.92  27 2.92
                            25 2.93  19 2.93  23 2.94  20 2.94
  23  0.223  0.554  0.453-  36 2.70  34 2.89  33 2.89  14 2.90  13 2.90  21 2.91  20 2.91  16 2.92
                            22 2.94  24 2.94  26 2.94  25 2.94
  24  0.556  0.556  0.453-  35 2.91  15 2.92  17 2.92  32 2.92  34 2.92  14 2.92  27 2.92  22 2.92
                            19 2.93  26 2.93  23 2.94  21 2.94
  25  0.889  0.889  0.454-  28 2.91  18 2.93  16 2.93  12 2.93  22 2.93  27 2.93  26 2.93  19 2.93
                            23 2.94  21 2.94  33 2.94  30 2.94
  26  0.222  0.889  0.454-  28 2.91  17 2.93  16 2.93  10 2.93  27 2.93  24 2.93  25 2.93  19 2.93
                            23 2.94  20 2.94  34 2.94  29 2.94
  27  0.556  0.888  0.453-  35 2.91  17 2.92  18 2.92  29 2.92  30 2.92  11 2.92  24 2.92  22 2.92
                            26 2.93  25 2.93  20 2.94  21 2.94
  28  0.000  0.000  0.560-  26 2.91  25 2.91  19 2.91  29 2.97  34 2.97  33 2.97  32 2.97  31 2.97
                            30 2.97
  29  0.333  0.008  0.560-  31 2.86  30 2.86  36 2.87  20 2.89  27 2.92  26 2.94  28 2.97  35 2.97
                            34 3.07
  30  0.659  0.008  0.560-  32 2.86  29 2.86  36 2.87  21 2.89  27 2.92  25 2.94  28 2.97  35 2.97
                            33 3.07
  31  0.008  0.333  0.560-  29 2.86  33 2.86  36 2.87  20 2.89  22 2.92  19 2.94  28 2.97  35 2.97
                            32 3.07
  32  0.659  0.333  0.560-  30 2.86  34 2.86  36 2.87  21 2.89  24 2.92  19 2.94  28 2.97  35 2.97
                            31 3.07
  33  0.008  0.659  0.560-  34 2.86  31 2.86  36 2.87  23 2.89  22 2.92  25 2.94  28 2.97  35 2.97
                            30 3.07
  34  0.333  0.659  0.560-  33 2.86  32 2.86  36 2.87  23 2.89  24 2.92  26 2.94  28 2.97  35 2.97
                            29 3.07
  35  0.667  0.667  0.560-  24 2.91  27 2.91  22 2.91  32 2.97  30 2.97  29 2.97  34 2.97  31 2.97
                            33 2.97
  36  0.333  0.333  0.548-  37 1.61  21 2.70  20 2.70  23 2.70  31 2.87  30 2.87  33 2.87  29 2.87
                            34 2.87  32 2.87
  37  0.333  0.333  0.620-  36 1.61

  LATTYP: Found a hexagonal cell.
 ALAT       =     8.7913665772
 C/A-ratio  =     2.5227160501

  Lattice vectors:

 A1 = (  -4.3956832886,  -7.6135467898,   0.0000000000)
 A2 = (   8.7913665771,   0.0000000000,   0.0000000000)
 A3 = (   0.0000000000,   0.0000000000,  22.1781215668)

Analysis of symmetry for initial positions (statically):
 Subroutine PRICEL returns:
 Original cell was already a primitive cell.

 Routine SETGRP: Setting up the symmetry group for a
 hexagonal supercell.

 Subroutine GETGRP returns: Found  6 space group operations
 (whereof  6 operations were pure point group operations)
 out of a pool of 24 trial point group operations.

The static configuration has the point symmetry C_3v.

Analysis of symmetry for dynamics (positions and initial velocities):
 Subroutine PRICEL returns:
 Original cell was already a primitive cell.

[...]

The dynamic configuration has the point symmetry C_3v.

Analysis of constrained symmetry for selective dynamics:
 Subroutine PRICEL returns:
 Original cell was already a primitive cell.

 Routine SETGRP: Setting up the symmetry group for a
 hexagonal supercell.

 Subroutine GETGRP returns: Found  6 space group operations
[...]
     24      -4.7065      2.00000
     25      -4.6934      2.00000
     26      -4.6640      2.00000
     27      -4.6426      2.00000
     28      -4.6288      2.00000
     29      -4.6205      2.00000
     30      -4.6116      2.00000
     31      -4.5945      2.00000
     32      -4.5910      2.00000
     33      -4.5642      2.00000
     34      -4.5187      2.00000
     35      -4.4857      2.00000
     36      -4.4693      2.00000
     37      -4.4506      2.00000
     38      -4.4283      2.00000
     39      -4.4065      2.00000
     40      -4.3902      2.00000
     41      -4.3889      2.00000
     42      -4.3627      2.00000
     43      -4.3443      2.00000
     44      -4.3093      2.00000
     45      -4.2633      2.00000
     46      -4.2506      2.00000
     47      -4.2409      2.00000
     48      -4.2275      2.00000
     49      -4.2225      2.00000
     50      -4.2072      2.00000
     51      -4.2023      2.00000
     52      -4.1930      2.00000
     53      -4.1794      2.00000
     54      -4.1265      2.00000
     55      -4.1094      2.00000
     56      -4.1054      2.00000
     57      -4.0932      2.00000
     58      -4.0878      2.00000
     59      -4.0603      2.00000
     60      -4.0555      2.00000
[...]
    238       6.2397      0.00000
    239       6.2892      0.00000
    240       6.3413      0.00000
    241       6.9842      0.00000
    242       7.1526      0.00000
    243       7.2002      0.00000
    244       7.2398      0.00000
    245       7.3004      0.00000
    246       7.3304      0.00000
    247       7.3667      0.00000
    248       7.4581      0.00000
    249       7.5637      0.00000
    250       7.6015      0.00000
    251       7.6055      0.00000
    252       7.6819      0.00000

 soft charge-density along one line, spin component           1
         0         1         2         3         4         5         6         7         8         9
 total charge-density along one line

------------------------ aborting loop because EDIFF is reached ----------------------------------------

 total charge

# of ion       s       p       d       tot
    1        0.418   0.201   9.179   9.797
    2        0.416   0.203   9.177   9.797
    3        0.416   0.203   9.177   9.797
    4        0.416   0.203   9.177   9.797
    5        0.418   0.204   9.176   9.798
    6        0.416   0.203   9.177   9.797
    7        0.416   0.203   9.177   9.797
    8        0.416   0.203   9.177   9.797
    9        0.413   0.203   9.178   9.794
   10        0.408   0.268   9.164   9.839
   11        0.405   0.271   9.166   9.842
   12        0.408   0.268   9.164   9.839
   13        0.405   0.271   9.166   9.842
   14        0.405   0.271   9.166   9.842
   15        0.403   0.268   9.166   9.838
   16        0.408   0.268   9.164   9.839
   17        0.403   0.268   9.166   9.838
   18        0.403   0.268   9.166   9.838
   19        0.402   0.266   9.166   9.834
   20        0.428   0.295   9.148   9.871
   21        0.428   0.295   9.148   9.871
   22        0.397   0.273   9.167   9.837
   23        0.428   0.295   9.148   9.871
   24        0.397   0.273   9.167   9.837
   25        0.402   0.266   9.166   9.834
   26        0.402   0.266   9.166   9.834
   27        0.397   0.273   9.167   9.837
   28        0.415   0.194   9.182   9.791
   29        0.401   0.206   9.183   9.790
   30        0.401   0.206   9.183   9.790
   31        0.401   0.206   9.183   9.790
   32        0.401   0.206   9.183   9.790
   33        0.401   0.206   9.183   9.790
   34        0.401   0.206   9.183   9.790
   35        0.410   0.195   9.181   9.786
   36        0.467   0.531   6.376   7.375
   37        1.609   3.243   0.000   4.853
tot         16.385  12.148 327.366 355.898

  FORCE on cell =-STRESS in cart. coord.  units (eV):
  Direction    XX          YY          ZZ          XY          YZ          ZX
  Alpha Z   756.88085   756.88085   756.88085
  Ewald  121549.73622121549.73629************     0.00004    -0.00000     0.00004
  Hartree131871.32818131871.32821************     0.00002    -0.00000     0.00002
  E(xc)   -2097.67818 -2097.67818 -2102.56381     0.00000     0.00000     0.00000
  Local  ************************264701.81898     0.00046    -0.00005    -0.00017
  n-local  -381.00812  -363.59912  -372.43980    10.85657    -0.41798     0.47334
  augment  3266.38717  3266.38736  3267.61854    -0.00016     0.00001     0.00005
  Kinetic  4972.84007  4975.24317  4981.01839     3.44787     1.22526    -0.30611
  Fock        0.00000     0.00000     0.00000     0.00000     0.00000     0.00000
  Total      -9.30238    -9.30238    -1.36041    -0.00000    -0.00000     0.00000
  in kB     -10.04007   -10.04007    -1.46829    -0.00000    -0.00000     0.00000

 VOLUME and BASIS-vectors are now :
  energy-cutoff  :      500.00
  volume of cell :     1484.46
      direct lattice vectors                 reciprocal lattice vectors
     8.791366577  0.000000000  0.000000000     0.113747958 -0.065672414  0.000000000
     4.395683289  7.613546790  0.000000000     0.000000000  0.131344829  0.000000000
     0.000000000  0.000000000 22.178121567     0.000000000  0.000000000  0.045089481

  length of vectors
     8.791366577  8.791366577 22.178121567     0.131344829  0.131344829  0.045089481

 FORCES acting on ions
    electron-ion (+dipol)            ewald-force                    non-local-force                 convergence-correction
   0.459E-04 -.283E-04 0.251E+04   -.954E-04 0.593E-04 -.251E+04   0.833E-17 -.135E-17 -.203E+01   -.164E-03 -.201E-03 0.686E-01
   0.524E+00 0.602E+00 0.251E+04   -.566E+00 -.563E+00 -.251E+04   0.446E-01 0.729E-01 -.159E+01   -.885E-03 -.981E-01 0.668E-01
   -.524E+00 0.602E+00 0.251E+04   0.566E+00 -.563E+00 -.251E+04   -.446E-01 0.729E-01 -.159E+01   0.396E-03 -.962E-01 0.676E-01
   0.783E+00 0.153E+00 0.251E+04   -.771E+00 -.208E+00 -.251E+04   0.855E-01 0.218E-02 -.159E+01   -.852E-01 0.485E-01 0.668E-01
   -.538E-05 -.186E-04 0.252E+04   0.981E-04 -.199E-05 -.252E+04   0.165E-17 -.485E-18 -.151E+01   0.628E-02 0.384E-02 0.325E-01
   -.783E+00 0.153E+00 0.251E+04   0.770E+00 -.208E+00 -.251E+04   -.855E-01 0.218E-02 -.159E+01   0.838E-01 0.493E-01 0.677E-01
   0.259E+00 -.754E+00 0.251E+04   -.205E+00 0.771E+00 -.251E+04   0.408E-01 -.751E-01 -.159E+01   -.826E-01 0.489E-01 0.676E-01
   -.259E+00 -.754E+00 0.251E+04   0.205E+00 0.771E+00 -.251E+04   -.408E-01 -.751E-01 -.159E+01   0.842E-01 0.479E-01 0.678E-01
   0.360E-04 -.132E-04 0.251E+04   0.792E-04 -.643E-04 -.251E+04   0.161E-17 -.130E-17 -.178E+01   -.664E-02 -.342E-02 0.721E-01
   0.515E+01 0.297E+01 0.858E+03   -.475E+01 -.274E+01 -.857E+03   -.326E+00 -.188E+00 -.731E+00   -.624E-01 -.360E-01 0.136E+00
   -.291E-04 0.642E+01 0.867E+03   0.417E-04 -.637E+01 -.867E+03   0.700E-12 0.107E+00 -.335E+00   0.665E-02 -.180E+00 0.195E+00
   -.515E+01 0.297E+01 0.858E+03   0.475E+01 -.274E+01 -.857E+03   0.326E+00 -.188E+00 -.731E+00   0.604E-01 -.348E-01 0.136E+00
   0.556E+01 -.321E+01 0.867E+03   -.552E+01 0.318E+01 -.867E+03   0.924E-01 -.533E-01 -.335E+00   -.153E+00 0.959E-01 0.195E+00
   -.556E+01 -.321E+01 0.867E+03   0.552E+01 0.318E+01 -.867E+03   -.924E-01 -.533E-01 -.335E+00   0.164E+00 0.947E-01 0.194E+00
   0.162E-04 0.136E+01 0.859E+03   -.109E-03 -.145E+01 -.858E+03   0.243E-12 0.370E-01 -.637E+00   -.186E-02 0.363E-01 0.147E+00
   -.793E-05 -.594E+01 0.858E+03   0.208E-04 0.549E+01 -.857E+03   0.247E-11 0.376E+00 -.731E+00   0.166E-04 0.697E-01 0.136E+00
   0.118E+01 -.681E+00 0.859E+03   -.126E+01 0.726E+00 -.858E+03   0.320E-01 -.185E-01 -.637E+00   0.305E-01 -.198E-01 0.147E+00
   -.118E+01 -.681E+00 0.859E+03   0.126E+01 0.726E+00 -.858E+03   -.320E-01 -.185E-01 -.637E+00   -.302E-01 -.174E-01 0.148E+00
   0.410E-04 0.166E+01 -.832E+03   -.129E-03 -.179E+01 0.831E+03   0.558E-12 0.850E-01 0.608E+00   -.649E-02 0.505E-01 0.172E+00
   0.273E+02 0.158E+02 -.787E+03   -.262E+02 -.151E+02 0.788E+03   -.114E+01 -.658E+00 -.755E+00   0.295E-01 0.171E-01 0.382E+00
   -.273E+02 0.158E+02 -.787E+03   0.262E+02 -.151E+02 0.788E+03   0.114E+01 -.658E+00 -.755E+00   -.280E-01 0.167E-01 0.382E+00
   0.101E+02 -.585E+01 -.819E+03   -.104E+02 0.598E+01 0.818E+03   0.257E+00 -.149E+00 0.632E+00   -.139E-01 0.999E-02 0.220E+00
   -.598E-04 -.315E+02 -.787E+03   0.453E-04 0.303E+02 0.788E+03   0.864E-11 0.132E+01 -.755E+00   0.774E-03 -.320E-01 0.382E+00
   -.101E+02 -.585E+01 -.819E+03   0.104E+02 0.598E+01 0.818E+03   -.257E+00 -.149E+00 0.632E+00   0.141E-01 0.824E-02 0.220E+00
   -.144E+01 -.831E+00 -.832E+03   0.155E+01 0.897E+00 0.831E+03   -.736E-01 -.425E-01 0.608E+00   -.510E-01 -.296E-01 0.171E+00
   0.144E+01 -.831E+00 -.832E+03   -.155E+01 0.897E+00 0.831E+03   0.736E-01 -.425E-01 0.608E+00   0.402E-01 -.310E-01 0.172E+00
   0.213E-04 0.117E+02 -.819E+03   0.109E-03 -.120E+02 0.818E+03   0.195E-11 0.297E+00 0.632E+00   0.103E-02 -.171E-01 0.220E+00
   0.545E-04 -.370E-04 -.249E+04   -.115E-03 0.778E-04 0.249E+04   -.332E-17 -.583E-17 0.189E+01   -.260E-03 -.286E-03 0.699E-01
   0.335E+02 0.583E+02 -.248E+04   -.336E+02 -.586E+02 0.247E+04   -.119E+00 -.633E-01 0.237E+01   0.122E+00 0.111E+00 0.102E+00
   -.335E+02 0.583E+02 -.248E+04   0.336E+02 -.586E+02 0.247E+04   0.119E+00 -.633E-01 0.237E+01   -.122E+00 0.113E+00 0.102E+00
   0.673E+02 -.173E+00 -.248E+04   -.675E+02 0.204E+00 0.247E+04   -.114E+00 -.711E-01 0.237E+01   0.158E+00 0.498E-01 0.102E+00
   -.673E+02 -.173E+00 -.248E+04   0.675E+02 0.204E+00 0.247E+04   0.114E+00 -.711E-01 0.237E+01   -.159E+00 0.502E-01 0.102E+00
   0.338E+02 -.582E+02 -.248E+04   -.339E+02 0.584E+02 0.247E+04   0.455E-02 0.134E+00 0.237E+01   0.374E-01 -.161E+00 0.102E+00
   -.338E+02 -.582E+02 -.248E+04   0.339E+02 0.584E+02 0.247E+04   -.455E-02 0.134E+00 0.237E+01   -.362E-01 -.162E+00 0.102E+00
   0.219E-04 -.127E-04 -.249E+04   0.106E-03 -.660E-04 0.249E+04   -.375E-17 -.391E-18 0.194E+01   -.640E-02 -.327E-02 0.103E+00
   -.331E-04 -.270E-04 -.149E+04   0.771E-04 0.110E-04 0.149E+04   -.507E-18 -.155E-19 0.437E+00   0.504E-02 0.307E-02 0.217E+00
   0.179E-03 -.955E-04 -.171E+04   0.332E-04 0.595E-06 0.174E+04   -.560E-18 -.174E-17 -.274E+02   0.375E-02 0.230E-02 -.341E+00
   0.530E-03 -.803E-03 0.225E+02   -.184E-13 0.138E-12 -.250E-11   -.468E-15 0.275E-15 -.274E+02   0.136E-02 0.422E-02 0.499E+01

 POSITION                                       TOTAL-FORCE (eV/Angst)
      0.00000      0.00000      5.28219         0.000000      0.000000     -0.015300
      2.93046      0.00000      5.28219         0.002596      0.014311      0.030737
      5.86091      0.00000      5.28219        -0.002596      0.014311      0.030737
      1.46523      2.53785      5.28219         0.013692     -0.004907      0.030737
      4.39568      2.53785      5.28219         0.000000      0.000000      0.018067
      7.32614      2.53785      5.28219        -0.013692     -0.004907      0.030737
      2.93046      5.07570      5.28219         0.011096     -0.009404      0.030737
      5.86091      5.07570      5.28219        -0.011096     -0.009404      0.030737
      8.79137      5.07570      5.28219         0.000000      0.000000      0.008086
      1.46523      0.84595      7.67490         0.006006      0.003467      0.012424
      4.39568      0.84595      7.67490        -0.000000     -0.023636     -0.045962
      7.32614      0.84595      7.67490        -0.006006      0.003467      0.012424
      2.93046      3.38380      7.67490        -0.020470      0.011818     -0.045962
      5.86091      3.38380      7.67490         0.020470      0.011818     -0.045962
      8.79137      3.38380      7.67490        -0.000000     -0.018832     -0.001053
      4.39568      5.92165      7.67490        -0.000000     -0.006935      0.012424
      7.32614      5.92165      7.67490        -0.016309      0.009416     -0.001053
     10.25659      5.92165      7.67490         0.016309      0.009416     -0.001053
      8.79137      1.69341     10.06265         0.000000      0.005700      0.013257
      2.94295      1.69911     10.03964        -0.024401     -0.014088     -0.104442
      5.84841      1.69911     10.03964         0.024401     -0.014088     -0.104442
     10.25212      4.23233     10.05217         0.025140     -0.014515     -0.008322
      4.39568      4.21532     10.03964         0.000000      0.028176     -0.104442
      7.33061      4.23233     10.05217        -0.025140     -0.014515     -0.008322
     11.72051      6.76684     10.06265        -0.004936     -0.002850      0.013257
      5.86222      6.76684     10.06265         0.004936     -0.002850      0.013257
      8.79137      6.76243     10.05217         0.000000      0.029030     -0.008322
      0.00000      0.00000     12.42704         0.000000      0.000000     -0.009284
      2.96539      0.06299     12.42777        -0.102035     -0.195066     -0.103310
      5.82597      0.06299     12.42777         0.102035     -0.195066     -0.103310
      1.53725      2.53661     12.42777        -0.219950      0.009169     -0.103310
      7.25412      2.53661     12.42777         0.219950      0.009169     -0.103310
      2.96754      5.01395     12.42777        -0.117915      0.185898     -0.103310
      5.82383      5.01395     12.42777         0.117915      0.185898     -0.103310
      8.79137      5.07570     12.42264         0.000000      0.000000      0.007808
      4.39568      2.53785     12.15183         0.000000     -0.000000      0.868785
      4.39568      2.53785     13.76102         0.000000      0.000000     -0.040431
    total drift:                                0.001885      0.003420      0.120996

  FREE ENERGIE OF THE ION-ELECTRON SYSTEM (eV)
  free  energy   TOTEN  =      -101.82298454 eV

  energy  without entropy=     -101.82298454  energy(sigma->0) =     -101.82298454

 stress matrix after NEB project (eV)
     -9.30238     -0.00000      0.00000
     -0.00000     -9.30238     -0.00000
      0.00000     -0.00000     -1.36041
  FORCES: max atom, RMS     0.040431    0.006647
  FORCE total and by dimension    0.040431    0.040431
  Stress total and by dimension   13.225706    9.302381
|           W    W    AA    RRRRR   N    N  II  N    N   GGGG   !!!           |
|           W    W   A  A   R    R  NN   N  II  NN   N  G    G  !!!           |
|           W    W  A    A  R    R  N N  N  II  N N  N  G       !!!           |
|           W WW W  AAAAAA  RRRRR   N  N N  II  N  N N  G  GGG   !            |
|           WW  WW  A    A  R   R   N   NN  II  N   NN  G    G                |
|           W    W  A    A  R    R  N    N  II  N    N   GGGG   !!!           |
|     Tetrahedron method does not include variations of the Fermi             |
|     occupations, so forces and stress will be inaccurate. We suggest        |
|     using a different smearing scheme ISMEAR = 1 or 2 for metals in         |
|     relaxations.                                                            |

 total charge

# of ion       s       p       d       tot
    1        0.418   0.201   9.179   9.797
    2        0.416   0.203   9.177   9.797
    3        0.416   0.203   9.177   9.797
    4        0.416   0.203   9.177   9.797
    5        0.418   0.204   9.176   9.798
    6        0.416   0.203   9.177   9.797
    7        0.416   0.203   9.177   9.797
    8        0.416   0.203   9.177   9.797
    9        0.413   0.203   9.178   9.794
   10        0.408   0.268   9.164   9.839
   11        0.405   0.271   9.166   9.842
   12        0.408   0.268   9.164   9.839
   13        0.405   0.271   9.166   9.842
   14        0.405   0.271   9.166   9.842
   15        0.403   0.268   9.166   9.838
   16        0.408   0.268   9.164   9.839
   17        0.403   0.268   9.166   9.838
   18        0.403   0.268   9.166   9.838
   19        0.402   0.266   9.166   9.834
   20        0.428   0.295   9.148   9.871
   21        0.428   0.295   9.148   9.871
   22        0.397   0.273   9.167   9.837
   23        0.428   0.295   9.148   9.871
   24        0.397   0.273   9.167   9.837
   25        0.402   0.266   9.166   9.834
   26        0.402   0.266   9.166   9.834
   27        0.397   0.273   9.167   9.837
   28        0.415   0.194   9.182   9.791
   29        0.401   0.206   9.183   9.790
   30        0.401   0.206   9.183   9.790
   31        0.401   0.206   9.183   9.790
   32        0.401   0.206   9.183   9.790
   33        0.401   0.206   9.183   9.790
   34        0.401   0.206   9.183   9.790
   35        0.410   0.195   9.181   9.786
   36        0.467   0.531   6.376   7.375
   37        1.609   3.243   0.000   4.853
tot         16.385  12.148 327.366 355.898

 BZINTS: Fermi energy:    0.753034;  399.000000 electrons
         Band energy:-0.134035E+04;  BLOECHL correction:   -0.045702