 vasp.6.2.0 18Jan21 (build Jun 12 2021 23:27:24) complex

 executed on             LinuxIFC date 2022.05.27  06:10:07

 INCAR:
   ISMEAR = -5
   SIGMA = 0.1
   ISPIN = 1
   EDIFF = 1.d-5
   EDIFFG = -0.01
   NSW = 0
   NELM = 150
   ENCUT = 500
   ISIF = 2
   IBRION = 2
   LREAL = Auto
   ALGO = Fast
   ICHARG = 11
   LORBIT = 10
   LCHARG = .F.
   LWAVE = .F.

 POTCAR:    PAW_PBE Cu 22Jun2005
 POTCAR:    PAW_PBE Ru 04Feb2005
 POTCAR:    PAW_PBE C 08Apr2002
 POTCAR:    PAW_PBE O 08Apr2002
|           W    W    AA    RRRRR   N    N  II  N    N   GGGG   !!!           |
|           W    W   A  A   R    R  NN   N  II  NN   N  G    G  !!!           |
|           W    W  A    A  R    R  N N  N  II  N N  N  G       !!!           |
|           W WW W  AAAAAA  RRRRR   N  N N  II  N  N N  G  GGG   !            |
|           WW  WW  A    A  R   R   N   NN  II  N   NN  G    G                |
|           W    W  A    A  R    R  N    N  II  N    N   GGGG   !!!           |
|     For optimal performance we recommend to set                             |
|       NCORE = 2 up to number-of-cores-per-socket                            |
|     This setting can greatly improve the performance of VASP for DFT.       |
|     The default, NCORE=1 might be grossly inefficient on modern             |
|     multi-core architectures or massively parallel machines. Do your        |
|     Unfortunately you need to use the default for GW and RPA                |
|     calculations (for HF NCORE is supported but not extensively tested      |
|     yet).                                                                   |

 POTCAR:    PAW_PBE Cu 22Jun2005
   VRHFIN =Cu: d10 p1

   TITEL  = PAW_PBE Cu 22Jun2005
   POMASS =   63.546; ZVAL   =   11.000    mass and valenz
   ENMAX  =  295.446; ENMIN  =  221.585 eV

 POTCAR:    PAW_PBE Ru 04Feb2005
   VRHFIN =Ru: s1 d7

   TITEL  = PAW_PBE Ru 04Feb2005
   POMASS =  101.070; ZVAL   =    8.000    mass and valenz
   ENMAX  =  213.271; ENMIN  =  159.953 eV

 POTCAR:    PAW_PBE C 08Apr2002
   VRHFIN =C: s2p2

   TITEL  = PAW_PBE C 08Apr2002
   POMASS =   12.011; ZVAL   =    4.000    mass and valenz
   ENMAX  =  400.000; ENMIN  =  300.000 eV

 POTCAR:    PAW_PBE O 08Apr2002
   VRHFIN =O: s2p4

   TITEL  = PAW_PBE O 08Apr2002
   POMASS =   16.000; ZVAL   =    6.000    mass and valenz
   ENMAX  =  400.000; ENMIN  =  300.000 eV

 Optimization of the real space projectors (new method)

 maximal supplied QI-value         = 16.25
 optimisation between [QCUT,QGAM] = [ 11.38, 22.75] = [ 36.24,144.96] Ry
 Optimized for a Real-space Cutoff    1.52 Angstroem

   l    n(q)    QCUT    max X(q) W(low)/X(q) W(high)/X(q)  e(spline)
   2      9    11.376     4.610    0.21E-03    0.10E-03    0.26E-06
   2      9    11.376     8.522    0.33E-03    0.16E-03    0.37E-06
   0     10    11.376    51.609    0.62E-04    0.20E-04    0.13E-06
   0     10    11.376    27.747    0.54E-04    0.20E-04    0.13E-06
   1     10    11.376    20.408    0.13E-04    0.99E-04    0.19E-06
   1     10    11.376    13.425    0.12E-04    0.87E-04    0.17E-06
 Optimization of the real space projectors (new method)

[...]

   l    n(q)    QCUT    max X(q) W(low)/X(q) W(high)/X(q)  e(spline)
   0      7    11.310   115.676    0.43E-03    0.13E-02    0.19E-06
   0      7    11.310    87.132    0.43E-03    0.13E-02    0.18E-06
   1      6    11.310     4.429    0.42E-03    0.74E-03    0.11E-06
   1      6    11.310     2.733    0.34E-03    0.55E-03    0.92E-07
 Optimization of the real space projectors (new method)

 maximal supplied QI-value         = 24.76
 optimisation between [QCUT,QGAM] = [ 11.39, 22.77] = [ 36.31,145.25] Ry
 Optimized for a Real-space Cutoff    1.00 Angstroem

   l    n(q)    QCUT    max X(q) W(low)/X(q) W(high)/X(q)  e(spline)
   0      7    11.387    20.381    0.39E-03    0.13E-02    0.15E-06
   0      7    11.387    15.268    0.42E-03    0.14E-02    0.17E-06
   1      6    11.387     5.964    0.41E-03    0.11E-02    0.17E-06
   1      6    11.387     5.382    0.39E-03    0.87E-03    0.15E-06
  PAW_PBE Cu 22Jun2005                  :
  PAW_PBE Ru 04Feb2005                  :
  PAW_PBE C 08Apr2002                   :
  PAW_PBE O 08Apr2002                   :

 POSCAR: Cu-Ru-CO
  positions in direct lattice
  velocities in cartesian coordinates
 exchange correlation table for  LEXCH =        8
   RHO(1)=    0.500       N(1)  =     2000
   RHO(2)=  100.500       N(2)  =     4000

 VTST: version 3.2, (02/03/18)

 CHAIN: initializing optimizer

 OPT: Using VASP Conjugate-Gradient optimizer
 CHAIN: Read ICHAIN            0

 POSCAR: Cu-Ru-CO
  positions in direct lattice
  velocities in cartesian coordinates

 ion  position               nearest neighbor table
   1  0.000  0.000  0.252-   7 2.57   3 2.57   4 2.57   2 2.57   6 2.57   8 2.57  12 2.57  10 2.57
                            16 2.57
   2  0.333  0.000  0.252-   8 2.57   9 2.57   5 2.57   1 2.57   3 2.57  11 2.57   4 2.57  10 2.57
                            17 2.57
   3  0.667  0.000  0.252-   1 2.57   7 2.57   6 2.57   9 2.57   2 2.57  12 2.57   5 2.57  18 2.57
                            11 2.57
   4  0.000  0.333  0.252-   5 2.57   6 2.57   1 2.57   7 2.57   2 2.57  13 2.57   9 2.57  10 2.57
                            15 2.57
   5  0.333  0.333  0.252-   4 2.57   2 2.57   7 2.57  13 2.57   8 2.57   6 2.57   3 2.57  11 2.57
                            14 2.57
   6  0.667  0.333  0.252-   4 2.57   9 2.57  15 2.57   3 2.57   1 2.57   8 2.57  14 2.57   5 2.57
                            12 2.57
   7  0.000  0.667  0.252-   1 2.57   3 2.57  16 2.57  18 2.57   4 2.57   5 2.57   8 2.57   9 2.57
                            13 2.57
   8  0.333  0.667  0.252-   9 2.57   2 2.57  17 2.57   6 2.57   1 2.57   7 2.57   5 2.57  14 2.57
                            16 2.57
   9  0.667  0.667  0.252-   8 2.57   6 2.57   2 2.57  17 2.57   3 2.57   7 2.57   4 2.57  15 2.57
                            18 2.57
  10  0.111  0.111  0.351-  20 2.55  26 2.56  19 2.56  11 2.57  12 2.57  13 2.57   1 2.57   2 2.57
                             4 2.57  15 2.57  16 2.57  17 2.57
  11  0.444  0.111  0.351-  20 2.55  21 2.55  10 2.57  13 2.57   2 2.57  17 2.57  14 2.57  12 2.57
                             5 2.57   3 2.57  18 2.57  27 2.57
  12  0.778  0.111  0.351-  21 2.55  19 2.56  25 2.56  15 2.57  10 2.57  14 2.57  18 2.57   3 2.57
                             1 2.57  16 2.57  11 2.57   6 2.57
  13  0.111  0.444  0.351-  23 2.55  20 2.55  16 2.57  18 2.57  10 2.57  11 2.57  14 2.57   5 2.57
                             4 2.57   7 2.57  15 2.57  22 2.57
  14  0.444  0.444  0.351-  21 2.55  23 2.55  15 2.57  17 2.57  12 2.57  16 2.57  13 2.57  11 2.57
                             6 2.57   8 2.57   5 2.57  24 2.57
  15  0.778  0.444  0.351-  19 2.56  14 2.57  17 2.57  12 2.57   6 2.57  18 2.57  10 2.57   9 2.57
                            13 2.57   4 2.57  24 2.57  22 2.57
  16  0.111  0.778  0.351-  23 2.55  25 2.56  26 2.56  18 2.57  13 2.57   7 2.57  14 2.57  17 2.57
                            12 2.57  10 2.57   8 2.57   1 2.57
  17  0.444  0.778  0.351-  26 2.56  14 2.57  15 2.57   8 2.57   9 2.57  11 2.57  16 2.57  18 2.57
                            10 2.57   2 2.57  27 2.57  24 2.57
  18  0.778  0.778  0.351-  25 2.56  16 2.57  13 2.57   7 2.57  15 2.57  12 2.57  17 2.57   9 2.57
                             3 2.57  11 2.57  22 2.57  27 2.57
  19  0.889  0.223  0.449-  28 2.55  15 2.56  21 2.56  20 2.56  12 2.56  10 2.56  22 2.56  24 2.56
                            32 2.56  31 2.56  25 2.57  26 2.57
  20  0.222  0.222  0.448-  10 2.55  11 2.55  13 2.55  36 2.55  26 2.56  19 2.56  27 2.57  22 2.57
                            23 2.57  21 2.57  29 2.58  31 2.58
  21  0.556  0.222  0.448-  12 2.55  14 2.55  11 2.55  36 2.55  19 2.56  25 2.56  24 2.57  27 2.57
                            20 2.57  23 2.57  32 2.58  30 2.58
  22  0.888  0.556  0.449-  35 2.55  24 2.56  27 2.56  19 2.56  25 2.56  18 2.57  15 2.57  31 2.57
                            33 2.57  23 2.57  20 2.57  13 2.57
  23  0.222  0.556  0.448-  16 2.55  13 2.55  14 2.55  36 2.55  25 2.56  26 2.56  22 2.57  24 2.57
                            20 2.57  21 2.57  33 2.58  34 2.58
  24  0.556  0.556  0.449-  35 2.55  22 2.56  27 2.56  19 2.56  26 2.56  15 2.57  17 2.57  32 2.57
                            34 2.57  21 2.57  23 2.57  14 2.57
  25  0.889  0.889  0.449-  28 2.55  18 2.56  21 2.56  23 2.56  16 2.56  12 2.56  22 2.56  27 2.56
                            33 2.56  30 2.56  19 2.57  26 2.57
  26  0.223  0.889  0.449-  28 2.55  17 2.56  20 2.56  23 2.56  10 2.56  16 2.56  27 2.56  24 2.56
                            29 2.56  34 2.56  25 2.57  19 2.57
  27  0.556  0.888  0.449-  35 2.55  24 2.56  22 2.56  26 2.56  25 2.56  17 2.57  18 2.57  29 2.57
                            30 2.57  20 2.57  21 2.57  11 2.57
  28  0.000  0.000  0.546-  25 2.55  19 2.55  26 2.55  33 2.56  30 2.56  31 2.56  29 2.56  32 2.56
                            34 2.56
  29  0.333  0.999  0.548-  34 2.55  28 2.56  26 2.56  35 2.56  27 2.57  31 2.57  36 2.57  30 2.58
                            20 2.58
  30  0.668  0.999  0.548-  33 2.55  28 2.56  25 2.56  35 2.56  27 2.57  32 2.57  36 2.57  29 2.58
                            21 2.58
  31  0.999  0.333  0.548-  32 2.55  28 2.56  19 2.56  35 2.56  22 2.57  29 2.57  36 2.57  33 2.58
                            20 2.58
  32  0.668  0.333  0.548-  31 2.55  28 2.56  19 2.56  35 2.56  24 2.57  30 2.57  36 2.57  34 2.58
                            21 2.58
  33  0.999  0.668  0.548-  30 2.55  28 2.56  25 2.56  35 2.56  22 2.57  34 2.57  36 2.57  31 2.58
                            23 2.58
  34  0.333  0.668  0.548-  29 2.55  28 2.56  26 2.56  35 2.56  24 2.57  33 2.57  36 2.57  32 2.58
                            23 2.58
  35  0.667  0.667  0.547-  24 2.55  27 2.55  22 2.55  34 2.56  32 2.56  29 2.56  30 2.56  33 2.56
                            31 2.56
  36  0.333  0.333  0.546-  37 1.87  23 2.55  20 2.55  21 2.55  31 2.57  29 2.57  33 2.57  34 2.57
                            32 2.57  30 2.57
  37  0.333  0.333  0.633-  38 1.17  36 1.87
  38  0.333  0.333  0.688-  37 1.17

  LATTYP: Found a hexagonal cell.
 ALAT       =     7.6967864036
 C/A-ratio  =     2.7653617908

  Lattice vectors:

 A1 = (  -3.8483927580,  -6.6656128093,   0.0000000000)
 A2 = (   7.6967864037,   0.0000000000,   0.0000000000)
 A3 = (   0.0000000000,   0.0000000000,  21.2843990326)

Analysis of symmetry for initial positions (statically):
 Subroutine PRICEL returns:
 Original cell was already a primitive cell.

 Routine SETGRP: Setting up the symmetry group for a
 hexagonal supercell.

 Subroutine GETGRP returns: Found  6 space group operations
 (whereof  6 operations were pure point group operations)
 out of a pool of 24 trial point group operations.

The static configuration has the point symmetry C_3v.

Analysis of symmetry for dynamics (positions and initial velocities):
 Subroutine PRICEL returns:
 Original cell was already a primitive cell.

[...]

The dynamic configuration has the point symmetry C_3v.

Analysis of constrained symmetry for selective dynamics:
 Subroutine PRICEL returns:
[...]
     33      -3.9800      2.00000
     34      -3.9755      2.00000
     35      -3.9657      2.00000
     36      -3.9384      2.00000
     37      -3.9290      2.00000
     38      -3.9237      2.00000
     39      -3.8625      2.00000
     40      -3.8230      2.00000
     41      -3.7489      2.00000
     42      -3.6557      2.00000
     43      -3.6429      2.00000
     44      -3.5881      2.00000
     45      -3.5753      2.00000
     46      -3.5641      2.00000
     47      -3.5402      2.00000
     48      -3.5322      2.00000
     49      -3.5252      2.00000
     50      -3.5177      2.00000
     51      -3.3223      2.00000
     52      -3.3115      2.00000
     53      -3.3074      2.00000
     54      -3.3006      2.00000
     55      -3.2452      2.00000
     56      -3.2380      2.00000
     57      -3.2238      2.00000
     58      -3.2199      2.00000
     59      -3.2116      2.00000
     60      -3.1934      2.00000
[...]
    238       5.9583      0.00000
    239       6.2065      0.00000
    240       6.2264      0.00000
    241       6.2984      0.00000
    242       6.4736      0.00000
    243       6.5690      0.00000
    244       7.1046      0.00000
    245       7.1148      0.00000
    246       7.2049      0.00000
    247       7.2151      0.00000
    248       7.3535      0.00000
    249       7.4524      0.00000
    250       7.5346      0.00000
    251       7.5790      0.00000
    252       7.5944      0.00000

 soft charge-density along one line, spin component           1
         0         1         2         3         4         5         6         7         8         9
 total charge-density along one line

------------------------ aborting loop because EDIFF is reached ----------------------------------------

 total charge

# of ion       s       p       d       tot
    1        0.448   0.283   9.189   9.921
    2        0.449   0.285   9.186   9.920
    3        0.449   0.285   9.186   9.920
    4        0.449   0.285   9.186   9.920
    5        0.449   0.287   9.179   9.915
    6        0.449   0.285   9.186   9.920
    7        0.449   0.285   9.186   9.920
    8        0.449   0.285   9.186   9.920
    9        0.447   0.283   9.191   9.921
   10        0.441   0.372   9.174   9.987
   11        0.444   0.365   9.184   9.993
   12        0.441   0.372   9.174   9.987
   13        0.444   0.365   9.184   9.993
   14        0.444   0.365   9.184   9.993
   15        0.437   0.371   9.177   9.984
   16        0.441   0.372   9.174   9.987
   17        0.437   0.371   9.177   9.984
   18        0.437   0.371   9.177   9.984
   19        0.442   0.370   9.181   9.993
   20        0.458   0.386   9.172  10.016
   21        0.458   0.386   9.172  10.016
   22        0.431   0.374   9.180   9.986
   23        0.458   0.386   9.172  10.016
   24        0.431   0.374   9.180   9.986
   25        0.442   0.370   9.181   9.993
   26        0.442   0.370   9.181   9.993
   27        0.431   0.374   9.180   9.986
   28        0.450   0.288   9.195   9.932
   29        0.453   0.304   9.182   9.938
   30        0.453   0.304   9.182   9.938
   31        0.453   0.304   9.182   9.938
   32        0.453   0.304   9.182   9.938
   33        0.453   0.304   9.182   9.938
   34        0.453   0.304   9.182   9.938
   35        0.445   0.291   9.193   9.928
   36        0.622   0.749   6.856   8.227
   37        0.956   1.553   0.000   2.509
   38        1.612   3.530   0.000   5.142
tot         18.797  17.509 328.215 364.521

  FORCE on cell =-STRESS in cart. coord.  units (eV):
  Direction    XX          YY          ZZ          XY          YZ          ZX
  Alpha Z   896.07216   896.07216   896.07216
  Ewald  170400.85393170400.85351************     0.00040     0.00012     0.00018
  Hartree183611.56668183611.56666************     0.00004     0.00006     0.00007
  E(xc)   -2329.72041 -2329.71996 -2333.09874    -0.00038    -0.00003    -0.00006
  Local  ************************366852.28702     0.01884    -0.00060    -0.00098
  n-local  -774.96648  -758.28950  -782.70373     8.89341    -0.08371     0.26786
  augment  3359.89538  3359.91586  3375.45108    -0.01774     0.00027     0.00043
  Kinetic  3420.65869  3426.84286  3413.12879     4.42785     1.68597    -1.33802
  Fock        0.00000     0.00000     0.00000     0.00000     0.00000     0.00000
  Total      -4.65125    -4.65125     2.00815     0.00000     0.00000    -0.00000
  in kB      -6.82448    -6.82448     2.94642     0.00000     0.00000    -0.00000

 VOLUME and BASIS-vectors are now :
  energy-cutoff  :      500.00
  volume of cell :     1091.97
      direct lattice vectors                 reciprocal lattice vectors
     7.696786404  0.000000000  0.000000000     0.129924354 -0.075011849  0.000000000
     3.848392758  6.665612809  0.000000000     0.000000000  0.150023716  0.000000000
     0.000000000  0.000000000 21.284399033     0.000000000  0.000000000  0.046982769

  length of vectors
     7.696786404  7.696786404 21.284399033     0.150023716  0.150023716  0.046982769

 FORCES acting on ions
    electron-ion (+dipol)            ewald-force                    non-local-force                 convergence-correction
   -.416E-04 0.142E-06 0.349E+04   0.580E-04 -.436E-05 -.349E+04   0.498E-17 -.343E-18 -.297E+01   -.354E-03 -.172E-03 -.341E+00
   -.283E+00 0.932E-02 0.349E+04   0.194E+00 -.653E-03 -.349E+04   0.703E-01 0.694E-01 -.188E+01   0.315E-01 -.525E-01 -.275E+00
   0.283E+00 0.935E-02 0.349E+04   -.194E+00 -.695E-03 -.349E+04   -.703E-01 0.694E-01 -.188E+01   -.306E-01 -.500E-01 -.274E+00
   -.134E+00 -.250E+00 0.349E+04   0.964E-01 0.168E+00 -.349E+04   0.952E-01 0.262E-01 -.188E+01   -.297E-01 0.534E-01 -.275E+00
   -.647E-04 -.517E-05 0.349E+04   0.116E-03 -.101E-04 -.349E+04   -.112E-16 -.149E-17 -.153E+01   0.121E-01 0.743E-02 -.159E+00
   0.134E+00 -.250E+00 0.349E+04   -.965E-01 0.168E+00 -.349E+04   -.952E-01 0.262E-01 -.188E+01   0.281E-01 0.546E-01 -.274E+00
   0.150E+00 0.241E+00 0.349E+04   -.977E-01 -.168E+00 -.349E+04   0.249E-01 -.956E-01 -.188E+01   -.586E-01 -.155E-02 -.274E+00
   -.150E+00 0.241E+00 0.349E+04   0.974E-01 -.168E+00 -.349E+04   -.249E-01 -.956E-01 -.188E+01   0.620E-01 -.299E-02 -.274E+00
   -.144E-03 -.330E-04 0.349E+04   0.263E-03 0.205E-04 -.349E+04   -.137E-17 -.135E-17 -.256E+01   -.131E-01 -.678E-02 -.309E+00
   0.403E+00 0.233E+00 0.121E+04   -.305E-01 -.177E-01 -.121E+04   -.457E+00 -.264E+00 -.112E+01   0.750E-01 0.433E-01 -.447E+00
   -.908E-04 -.396E+00 0.120E+04   0.190E-03 -.121E-01 -.120E+04   -.193E-07 0.290E+00 -.440E+00   0.119E-01 0.749E-01 -.378E+00
   -.403E+00 0.233E+00 0.121E+04   0.303E-01 -.177E-01 -.121E+04   0.457E+00 -.264E+00 -.112E+01   -.768E-01 0.444E-01 -.447E+00
   -.343E+00 0.198E+00 0.120E+04   -.104E-01 0.588E-02 -.120E+04   0.251E+00 -.145E+00 -.440E+00   0.713E-01 -.263E-01 -.378E+00
   0.343E+00 0.198E+00 0.120E+04   0.101E-01 0.588E-02 -.120E+04   -.251E+00 -.145E+00 -.440E+00   -.477E-01 -.279E-01 -.380E+00
   -.142E-03 -.120E+01 0.121E+04   0.298E-03 0.951E+00 -.120E+04   -.104E-07 0.156E+00 -.100E+01   -.346E-02 0.851E-01 -.441E+00
   -.917E-04 -.466E+00 0.121E+04   0.186E-03 0.353E-01 -.121E+04   -.352E-07 0.528E+00 -.112E+01   -.900E-03 -.899E-01 -.447E+00
   -.104E+01 0.602E+00 0.121E+04   0.824E+00 -.475E+00 -.120E+04   0.135E+00 -.779E-01 -.100E+01   0.727E-01 -.456E-01 -.441E+00
   0.104E+01 0.602E+00 0.121E+04   -.824E+00 -.475E+00 -.120E+04   -.135E+00 -.779E-01 -.100E+01   -.713E-01 -.428E-01 -.439E+00
   -.601E-04 -.155E+01 -.109E+04   0.685E-04 0.148E+01 0.109E+04   0.112E-08 -.169E-01 0.911E+00   -.991E-03 0.926E-01 -.606E+00
   -.229E+02 -.132E+02 -.111E+04   0.240E+02 0.139E+02 0.111E+04   -.129E+01 -.747E+00 -.858E+00   0.109E+00 0.629E-01 -.526E+00
   0.229E+02 -.132E+02 -.111E+04   -.240E+02 0.139E+02 0.111E+04   0.129E+01 -.747E+00 -.858E+00   -.108E+00 0.611E-01 -.528E+00
   -.144E+02 0.830E+01 -.110E+04   0.138E+02 -.797E+01 0.110E+04   0.527E+00 -.304E+00 0.789E+00   0.103E+00 -.465E-01 -.596E+00
   -.829E-04 0.265E+02 -.111E+04   0.146E-03 -.277E+02 0.111E+04   -.995E-07 0.149E+01 -.858E+00   -.211E-02 -.125E+00 -.528E+00
   0.144E+02 0.830E+01 -.110E+04   -.138E+02 -.797E+01 0.110E+04   -.527E+00 -.304E+00 0.789E+00   -.807E-01 -.475E-01 -.595E+00
   0.134E+01 0.774E+00 -.109E+04   -.128E+01 -.741E+00 0.109E+04   0.146E-01 0.843E-02 0.911E+00   -.810E-01 -.468E-01 -.606E+00
   -.134E+01 0.774E+00 -.109E+04   0.128E+01 -.741E+00 0.109E+04   -.146E-01 0.843E-02 0.911E+00   0.800E-01 -.469E-01 -.606E+00
   -.122E-03 -.166E+02 -.110E+04   0.243E-03 0.159E+02 0.110E+04   -.405E-07 0.608E+00 0.789E+00   0.110E-01 0.112E+00 -.596E+00
   -.370E-04 0.163E-04 -.337E+04   0.369E-04 -.338E-04 0.337E+04   -.139E-16 -.665E-17 0.246E+01   -.192E-02 -.106E-02 0.242E+00
   -.780E+01 -.113E+02 -.335E+04   0.800E+01 0.113E+02 0.335E+04   -.325E+00 -.197E+00 0.223E+01   0.109E+00 0.160E+00 0.169E+00
   0.780E+01 -.113E+02 -.335E+04   -.800E+01 0.113E+02 0.335E+04   0.325E+00 -.197E+00 0.223E+01   -.863E-01 0.162E+00 0.168E+00
   -.137E+02 -.109E+01 -.335E+04   0.138E+02 0.127E+01 0.335E+04   -.333E+00 -.183E+00 0.223E+01   0.193E+00 0.141E-01 0.169E+00
   0.137E+02 -.109E+01 -.335E+04   -.138E+02 0.127E+01 0.335E+04   0.333E+00 -.183E+00 0.223E+01   -.172E+00 0.148E-01 0.169E+00
   -.592E+01 0.124E+02 -.335E+04   0.580E+01 -.126E+02 0.335E+04   -.815E-02 0.380E+00 0.223E+01   0.970E-01 -.156E+00 0.168E+00
   0.592E+01 0.124E+02 -.335E+04   -.580E+01 -.126E+02 0.335E+04   0.815E-02 0.380E+00 0.223E+01   -.726E-01 -.157E+00 0.169E+00
   -.153E-03 -.274E-04 -.338E+04   0.256E-03 0.423E-05 0.337E+04   -.469E-18 -.174E-17 0.277E+01   -.142E-01 -.738E-02 0.248E+00
   -.423E-04 -.213E-04 -.227E+04   0.100E-03 0.198E-04 0.228E+04   0.210E-17 0.448E-18 -.490E+01   0.661E-03 0.424E-03 0.655E-01
   -.656E-05 -.789E-04 -.121E+04   0.101E-04 0.491E-05 0.119E+04   0.172E-18 -.786E-19 0.152E+02   0.876E-03 0.535E-03 0.776E-01
   0.224E-03 -.746E-04 -.193E+04   0.252E-05 0.245E-05 0.199E+04   0.322E-19 0.636E-19 -.585E+02   0.319E-02 0.195E-02 0.870E-01
   -.675E-04 -.174E-03 0.629E+02   0.147E-12 0.477E-12 -.614E-11   0.146E-15 -.130E-17 -.531E+02   0.119E+00 0.659E-01 -.971E+01

 POSITION                                       TOTAL-FORCE (eV/Angst)
      0.00000      0.00000      5.37156         0.000000     -0.000000     -0.003270
      2.56560      0.00000      5.37156         0.012897      0.026614      0.069560
      5.13119      0.00000      5.37156        -0.012897      0.026614      0.069560
      1.28280      2.22187      5.37156         0.029497     -0.002138      0.069560
      3.84839      2.22187      5.37156         0.000000      0.000000      0.042634
      6.41399      2.22187      5.37156        -0.029497     -0.002138      0.069560
      2.56560      4.44374      5.37156         0.016600     -0.024476      0.069560
      5.13119      4.44374      5.37156        -0.016600     -0.024476      0.069560
      7.69679      4.44374      5.37156         0.000000      0.000000      0.022172
      1.28280      0.74062      7.46636        -0.007865     -0.004541     -0.065039
      3.84839      0.74062      7.46636         0.000000     -0.049908     -0.064651
      6.41399      0.74062      7.46636         0.007865     -0.004541     -0.065039
      2.56560      2.96249      7.46636        -0.043222      0.024954     -0.064651
      5.13119      2.96249      7.46636         0.043222      0.024954     -0.064651
      7.69679      2.96249      7.46636         0.000000     -0.012899     -0.011524
      3.84839      5.18437      7.46636        -0.000000      0.009082     -0.065039
      6.41399      5.18437      7.46636        -0.011171      0.006450     -0.011524
      8.97958      5.18437      7.46636         0.011171      0.006450     -0.011524
      7.69679      1.48414      9.55535        -0.000000      0.009664      0.046194
      2.56128      1.47875      9.53998        -0.127409     -0.073560     -0.323252
      5.13551      1.47875      9.53998         0.127409     -0.073560     -0.323252
      8.97644      3.70493      9.56275         0.048148     -0.027798     -0.005690
      3.84839      3.70811      9.53998        -0.000000      0.147119     -0.323252
      6.41713      3.70493      9.56275        -0.048148     -0.027798     -0.005690
     10.25987      5.92354      9.55535        -0.008369     -0.004832      0.046194
      5.13370      5.92354      9.55535         0.008369     -0.004832      0.046194
      7.69679      5.92136      9.56275        -0.000000      0.055596     -0.005690
      0.00000      0.00000     11.63109         0.000000      0.000000     -0.061184
      6.40750      6.66078     11.65531        -0.034728     -0.070252     -0.018636
      8.98608      6.66078     11.65531         0.034728     -0.070252     -0.018636
      8.97216      2.21866     11.65531        -0.078204      0.005050     -0.018636
      6.42142      2.21866     11.65531         0.078204      0.005050     -0.018636
     10.26144      4.45178     11.65531        -0.043476      0.065201     -0.018636
      5.13213      4.45178     11.65531         0.043476      0.065201     -0.018636
      7.69679      4.44374     11.63516         0.000000      0.000000     -0.049647
      3.84839      2.22187     11.61289         0.000000      0.000000      0.993186
      3.84839      2.22187     13.47996         0.000000      0.000000      0.049437
      3.84839      2.22187     14.65190         0.000000     -0.000000     -0.026981
    total drift:                                0.119080      0.065678      0.082090

  FREE ENERGIE OF THE ION-ELECTRON SYSTEM (eV)
  free  energy   TOTEN  =      -147.22160413 eV

  energy  without entropy=     -147.22160413  energy(sigma->0) =     -147.22160413

 stress matrix after NEB project (eV)
     -4.65125      0.00000     -0.00000
      0.00000     -4.65125     -0.00000
     -0.00000      0.00000      2.00815
  FORCES: max atom, RMS     0.049437    0.009136
  FORCE total and by dimension    0.056321    0.049437
  Stress total and by dimension    6.877565    4.651250
|           W    W    AA    RRRRR   N    N  II  N    N   GGGG   !!!           |
|           W    W   A  A   R    R  NN   N  II  NN   N  G    G  !!!           |
|           W    W  A    A  R    R  N N  N  II  N N  N  G       !!!           |
|           W WW W  AAAAAA  RRRRR   N  N N  II  N  N N  G  GGG   !            |
|           WW  WW  A    A  R   R   N   NN  II  N   NN  G    G                |
|           W    W  A    A  R    R  N    N  II  N    N   GGGG   !!!           |
|     Tetrahedron method does not include variations of the Fermi             |
|     occupations, so forces and stress will be inaccurate. We suggest        |
|     using a different smearing scheme ISMEAR = 1 or 2 for metals in         |
|     relaxations.                                                            |

 total charge

# of ion       s       p       d       tot
    1        0.448   0.283   9.189   9.921
    2        0.449   0.285   9.186   9.920
    3        0.449   0.285   9.186   9.920
    4        0.449   0.285   9.186   9.920
    5        0.449   0.287   9.179   9.915
    6        0.449   0.285   9.186   9.920
    7        0.449   0.285   9.186   9.920
    8        0.449   0.285   9.186   9.920
    9        0.447   0.283   9.191   9.921
   10        0.441   0.372   9.174   9.987
   11        0.444   0.365   9.184   9.993
   12        0.441   0.372   9.174   9.987
   13        0.444   0.365   9.184   9.993
   14        0.444   0.365   9.184   9.993
   15        0.437   0.371   9.177   9.984
   16        0.441   0.372   9.174   9.987
   17        0.437   0.371   9.177   9.984
   18        0.437   0.371   9.177   9.984
   19        0.442   0.370   9.181   9.993
   20        0.458   0.386   9.172  10.016
   21        0.458   0.386   9.172  10.016
   22        0.431   0.374   9.180   9.986
   23        0.458   0.386   9.172  10.016
   24        0.431   0.374   9.180   9.986
   25        0.442   0.370   9.181   9.993
   26        0.442   0.370   9.181   9.993
   27        0.431   0.374   9.180   9.986
   28        0.450   0.288   9.195   9.932
   29        0.453   0.304   9.182   9.938
   30        0.453   0.304   9.182   9.938
   31        0.453   0.304   9.182   9.938
   32        0.453   0.304   9.182   9.938
   33        0.453   0.304   9.182   9.938
   34        0.453   0.304   9.182   9.938
   35        0.445   0.291   9.193   9.928
   36        0.622   0.749   6.856   8.227
   37        0.956   1.553   0.000   2.509
   38        1.612   3.530   0.000   5.142
tot         18.797  17.509 328.215 364.521

 BZINTS: Fermi energy:    0.108643;  403.000000 electrons
         Band energy:-0.114590E+04;  BLOECHL correction:   -0.055382