 vasp.6.2.0 18Jan21 (build Jun 12 2021 23:27:24) complex

 executed on             LinuxIFC date 2022.05.26  20:07:21

 INCAR:
   ISMEAR = -5
   SIGMA = 0.1
   ISPIN = 1
   EDIFF = 1.d-5
   EDIFFG = -0.01
   NSW = 0
   NELM = 150
   ENCUT = 500
   ISIF = 2
   IBRION = 2
   LREAL = Auto
   ALGO = Fast
   ICHARG = 11
   LORBIT = 10
   LCHARG = .F.
   LWAVE = .F.

 POTCAR:    PAW_PBE Cu 22Jun2005
 POTCAR:    PAW_PBE W 08Apr2002
 POTCAR:    PAW_PBE H 15Jun2001
|           W    W    AA    RRRRR   N    N  II  N    N   GGGG   !!!           |
|           W    W   A  A   R    R  NN   N  II  NN   N  G    G  !!!           |
|           W    W  A    A  R    R  N N  N  II  N N  N  G       !!!           |
|           W WW W  AAAAAA  RRRRR   N  N N  II  N  N N  G  GGG   !            |
|           WW  WW  A    A  R   R   N   NN  II  N   NN  G    G                |
|           W    W  A    A  R    R  N    N  II  N    N   GGGG   !!!           |
|     For optimal performance we recommend to set                             |
|       NCORE = 2 up to number-of-cores-per-socket                            |
|     This setting can greatly improve the performance of VASP for DFT.       |
|     The default, NCORE=1 might be grossly inefficient on modern             |
|     multi-core architectures or massively parallel machines. Do your        |
|     Unfortunately you need to use the default for GW and RPA                |
|     calculations (for HF NCORE is supported but not extensively tested      |
|     yet).                                                                   |

 POTCAR:    PAW_PBE Cu 22Jun2005
   VRHFIN =Cu: d10 p1

   TITEL  = PAW_PBE Cu 22Jun2005
   POMASS =   63.546; ZVAL   =   11.000    mass and valenz
   ENMAX  =  295.446; ENMIN  =  221.585 eV

 POTCAR:    PAW_PBE W 08Apr2002
   VRHFIN =W : 6s5d

   TITEL  = PAW_PBE W 08Apr2002
   POMASS =  183.850; ZVAL   =    6.000    mass and valenz
   ENMAX  =  223.057; ENMIN  =  167.293 eV

 POTCAR:    PAW_PBE H 15Jun2001
   VRHFIN =H: ultrasoft test

   TITEL  = PAW_PBE H 15Jun2001
   POMASS =    1.000; ZVAL   =    1.000    mass and valenz
   ENMAX  =  250.000; ENMIN  =  200.000 eV

 Optimization of the real space projectors (new method)

 maximal supplied QI-value         = 16.25
 optimisation between [QCUT,QGAM] = [ 11.38, 22.75] = [ 36.24,144.96] Ry
 Optimized for a Real-space Cutoff    1.52 Angstroem

   l    n(q)    QCUT    max X(q) W(low)/X(q) W(high)/X(q)  e(spline)
   2      9    11.376     4.610    0.21E-03    0.10E-03    0.26E-06
   2      9    11.376     8.522    0.33E-03    0.16E-03    0.37E-06
   0     10    11.376    51.609    0.62E-04    0.20E-04    0.13E-06
   0     10    11.376    27.747    0.54E-04    0.20E-04    0.13E-06
   1     10    11.376    20.408    0.13E-04    0.99E-04    0.19E-06
   1     10    11.376    13.425    0.12E-04    0.87E-04    0.17E-06
 Optimization of the real space projectors (new method)

[...]

   l    n(q)    QCUT    max X(q) W(low)/X(q) W(high)/X(q)  e(spline)
   2     10    11.429   130.855    0.22E-03    0.64E-03    0.11E-05
   2     10    11.429   114.007    0.22E-03    0.64E-03    0.11E-05
   0     11    11.429    84.709    0.39E-04    0.67E-04    0.23E-06
   0     11    11.429    49.163    0.35E-04    0.62E-04    0.21E-06
   1     10    11.429    15.765    0.84E-04    0.15E-03    0.24E-06
   1     10    11.429    10.638    0.58E-04    0.12E-03    0.19E-06
 Optimization of the real space projectors (new method)

 maximal supplied QI-value         = 34.20
 optimisation between [QCUT,QGAM] = [ 11.29, 22.57] = [ 35.68,142.71] Ry
 Optimized for a Real-space Cutoff    1.16 Angstroem

   l    n(q)    QCUT    max X(q) W(low)/X(q) W(high)/X(q)  e(spline)
   0      8    11.287    19.460    0.40E-03    0.73E-03    0.16E-06
   0      8    11.287    12.209    0.38E-03    0.70E-03    0.15E-06
   1      7    11.287     4.655    0.22E-03    0.25E-04    0.22E-06
  PAW_PBE Cu 22Jun2005                  :
  PAW_PBE W 08Apr2002                   :
  PAW_PBE H 15Jun2001                   :

 POSCAR: Cu-W-H
  positions in direct lattice
  velocities in cartesian coordinates
 exchange correlation table for  LEXCH =        8
   RHO(1)=    0.500       N(1)  =     2000
   RHO(2)=  100.500       N(2)  =     4000

 VTST: version 3.2, (02/03/18)

 CHAIN: initializing optimizer

 OPT: Using VASP Conjugate-Gradient optimizer
 CHAIN: Read ICHAIN            0

 POSCAR: Cu-W-H
  positions in direct lattice
  velocities in cartesian coordinates

 ion  position               nearest neighbor table
   1  0.000  0.000  0.252-   7 2.57   3 2.57   4 2.57   2 2.57   6 2.57   8 2.57  12 2.57  10 2.57
                            16 2.57
   2  0.333  0.000  0.252-   8 2.57   9 2.57   5 2.57   1 2.57   3 2.57  11 2.57   4 2.57  10 2.57
                            17 2.57
   3  0.667  0.000  0.252-   1 2.57   7 2.57   6 2.57   9 2.57   2 2.57  12 2.57   5 2.57  18 2.57
                            11 2.57
   4  0.000  0.333  0.252-   5 2.57   6 2.57   1 2.57   7 2.57   2 2.57  13 2.57   9 2.57  10 2.57
                            15 2.57
   5  0.333  0.333  0.252-   4 2.57   2 2.57   7 2.57  13 2.57   8 2.57   6 2.57   3 2.57  11 2.57
                            14 2.57
   6  0.667  0.333  0.252-   4 2.57   9 2.57  15 2.57   3 2.57   1 2.57   8 2.57  14 2.57   5 2.57
                            12 2.57
   7  0.000  0.667  0.252-   1 2.57   3 2.57  16 2.57  18 2.57   4 2.57   5 2.57   8 2.57   9 2.57
                            13 2.57
   8  0.333  0.667  0.252-   9 2.57   2 2.57  17 2.57   6 2.57   1 2.57   7 2.57   5 2.57  14 2.57
                            16 2.57
   9  0.667  0.667  0.252-   8 2.57   6 2.57   2 2.57  17 2.57   3 2.57   7 2.57   4 2.57  15 2.57
                            18 2.57
  10  0.111  0.111  0.351-  20 2.54  11 2.57  12 2.57  13 2.57   1 2.57   2 2.57   4 2.57  15 2.57
                            16 2.57  17 2.57  26 2.57  19 2.57
  11  0.444  0.111  0.351-  20 2.55  21 2.55  10 2.57  13 2.57   2 2.57  17 2.57  14 2.57  12 2.57
                             5 2.57   3 2.57  18 2.57  27 2.58
  12  0.778  0.111  0.351-  21 2.54  15 2.57  10 2.57  14 2.57  18 2.57   3 2.57   1 2.57  16 2.57
                            11 2.57   6 2.57  19 2.57  25 2.57
  13  0.111  0.444  0.351-  23 2.55  20 2.55  16 2.57  18 2.57  10 2.57  11 2.57  14 2.57   5 2.57
                             4 2.57   7 2.57  15 2.57  22 2.58
  14  0.444  0.444  0.351-  21 2.55  23 2.55  15 2.57  17 2.57  12 2.57  16 2.57  13 2.57  11 2.57
                             6 2.57   8 2.57   5 2.57  24 2.58
  15  0.778  0.444  0.351-  19 2.57  14 2.57  17 2.57  12 2.57   6 2.57  18 2.57  10 2.57   9 2.57
                            13 2.57   4 2.57  24 2.57  22 2.57
  16  0.111  0.778  0.351-  23 2.54  18 2.57  13 2.57   7 2.57  14 2.57  17 2.57  12 2.57  10 2.57
                             8 2.57   1 2.57  25 2.57  26 2.57
  17  0.444  0.778  0.351-  26 2.57  14 2.57  15 2.57   8 2.57   9 2.57  11 2.57  16 2.57  18 2.57
                            10 2.57   2 2.57  27 2.57  24 2.57
  18  0.778  0.778  0.351-  25 2.57  16 2.57  13 2.57   7 2.57  15 2.57  12 2.57  17 2.57   9 2.57
                             3 2.57  11 2.57  22 2.57  27 2.57
  19  0.889  0.223  0.449-  21 2.55  20 2.55  22 2.56  24 2.56  15 2.57  12 2.57  10 2.57  25 2.57
                            26 2.57  28 2.57  32 2.60  31 2.60
  20  0.221  0.221  0.448-  10 2.54  36 2.54  11 2.55  13 2.55  26 2.55  19 2.55  27 2.57  22 2.57
                            23 2.59  21 2.59  29 2.62  31 2.62
  21  0.558  0.221  0.448-  12 2.54  36 2.54  14 2.55  11 2.55  19 2.55  25 2.55  24 2.57  27 2.57
                            20 2.59  23 2.59  32 2.62  30 2.62
  22  0.888  0.556  0.450-  24 2.56  27 2.56  19 2.56  25 2.56  35 2.56  23 2.57  20 2.57  18 2.57
                            15 2.57  13 2.58  31 2.59  33 2.59
  23  0.221  0.558  0.448-  16 2.54  36 2.54  13 2.55  14 2.55  25 2.55  26 2.55  22 2.57  24 2.57
                            20 2.59  21 2.59  33 2.62  34 2.62
  24  0.556  0.556  0.450-  22 2.56  27 2.56  19 2.56  26 2.56  35 2.56  21 2.57  23 2.57  15 2.57
                            17 2.57  14 2.58  32 2.59  34 2.59
  25  0.889  0.889  0.449-  21 2.55  23 2.55  22 2.56  27 2.56  18 2.57  16 2.57  12 2.57  19 2.57
                            26 2.57  28 2.57  33 2.60  30 2.60
  26  0.223  0.889  0.449-  20 2.55  23 2.55  27 2.56  24 2.56  17 2.57  10 2.57  16 2.57  25 2.57
                            19 2.57  28 2.57  29 2.60  34 2.60
  27  0.556  0.888  0.450-  24 2.56  22 2.56  26 2.56  25 2.56  35 2.56  20 2.57  21 2.57  17 2.57
                            18 2.57  11 2.58  29 2.59  30 2.59
  28  0.000  0.000  0.548-  33 2.56  30 2.56  31 2.56  29 2.56  32 2.56  34 2.56  25 2.57  19 2.57
                            26 2.57
  29  0.333  1.000  0.550-  34 2.56  28 2.56  35 2.57  31 2.57  36 2.57  30 2.57  27 2.59  26 2.60
                            20 2.62
  30  0.667  1.000  0.550-  33 2.56  28 2.56  35 2.57  32 2.57  36 2.57  29 2.57  27 2.59  25 2.60
                            21 2.62
  31  1.000  0.333  0.550-  32 2.56  28 2.56  35 2.57  29 2.57  36 2.57  33 2.57  22 2.59  19 2.60
                            20 2.62
  32  0.667  0.333  0.550-  31 2.56  28 2.56  35 2.57  30 2.57  36 2.57  34 2.57  24 2.59  19 2.60
                            21 2.62
  33  1.000  0.667  0.550-  30 2.56  28 2.56  35 2.57  34 2.57  36 2.57  31 2.57  22 2.59  25 2.60
                            23 2.62
  34  0.333  0.667  0.550-  29 2.56  28 2.56  35 2.57  33 2.57  36 2.57  32 2.57  24 2.59  26 2.60
                            23 2.62
  35  0.667  0.667  0.548-  24 2.56  27 2.56  22 2.56  34 2.57  32 2.57  29 2.57  30 2.57  33 2.57
                            31 2.57
  36  0.333  0.333  0.545-  37 1.73  23 2.54  20 2.54  21 2.54  31 2.57  29 2.57  33 2.57  34 2.57
                            32 2.57  30 2.57
  37  0.333  0.333  0.626-  36 1.73

  LATTYP: Found a hexagonal cell.
 ALAT       =     7.6967864036
 C/A-ratio  =     2.7653617908

  Lattice vectors:

 A1 = (  -3.8483927580,  -6.6656128093,   0.0000000000)
 A2 = (   7.6967864037,   0.0000000000,   0.0000000000)
 A3 = (   0.0000000000,   0.0000000000,  21.2843990326)

Analysis of symmetry for initial positions (statically):
 Subroutine PRICEL returns:
 Original cell was already a primitive cell.

 Routine SETGRP: Setting up the symmetry group for a
 hexagonal supercell.

 Subroutine GETGRP returns: Found  6 space group operations
 (whereof  6 operations were pure point group operations)
 out of a pool of 24 trial point group operations.

The static configuration has the point symmetry C_3v.

Analysis of symmetry for dynamics (positions and initial velocities):
 Subroutine PRICEL returns:
 Original cell was already a primitive cell.

[...]

The dynamic configuration has the point symmetry C_3v.

Analysis of constrained symmetry for selective dynamics:
 Subroutine PRICEL returns:
 Original cell was already a primitive cell.

 Routine SETGRP: Setting up the symmetry group for a
 hexagonal supercell.

 Subroutine GETGRP returns: Found  6 space group operations
 (whereof  6 operations were pure point group operations)
[...]
     24      -4.3070      2.00000
     25      -4.2631      2.00000
     26      -4.2461      2.00000
     27      -4.2121      2.00000
     28      -4.1821      2.00000
     29      -4.1513      2.00000
     30      -4.1421      2.00000
     31      -4.1380      2.00000
     32      -4.1211      2.00000
     33      -4.1029      2.00000
     34      -4.0826      2.00000
     35      -4.0115      2.00000
     36      -3.9836      2.00000
     37      -3.8903      2.00000
     38      -3.8304      2.00000
     39      -3.7826      2.00000
     40      -3.7718      2.00000
     41      -3.7457      2.00000
     42      -3.7325      2.00000
     43      -3.7170      2.00000
     44      -3.7031      2.00000
     45      -3.6967      2.00000
     46      -3.5689      2.00000
     47      -3.5127      2.00000
     48      -3.5049      2.00000
     49      -3.4826      2.00000
     50      -3.4602      2.00000
     51      -3.4431      2.00000
     52      -3.4336      2.00000
     53      -3.4133      2.00000
     54      -3.4083      2.00000
     55      -3.3975      2.00000
     56      -3.3706      2.00000
     57      -3.3591      2.00000
     58      -3.3483      2.00000
     59      -3.3431      2.00000
     60      -3.3301      2.00000
[...]
    238       6.9400      0.00000
    239       6.9452      0.00000
    240       7.0240      0.00000
    241       7.0961      0.00000
    242       7.2203      0.00000
    243       7.3084      0.00000
    244       7.3516      0.00000
    245       7.4095      0.00000
    246       7.4787      0.00000
    247       7.6488      0.00000
    248       7.7722      0.00000
    249       7.9657      0.00000
    250       8.0894      0.00000
    251       8.1814      0.00000
    252       8.4605      0.00000

 soft charge-density along one line, spin component           1
         0         1         2         3         4         5         6         7         8         9
 total charge-density along one line

------------------------ aborting loop because EDIFF is reached ----------------------------------------

 total charge

# of ion       s       p       d       tot
    1        0.450   0.280   9.191   9.921
    2        0.446   0.286   9.186   9.918
    3        0.446   0.286   9.186   9.918
    4        0.446   0.286   9.186   9.918
    5        0.452   0.284   9.182   9.918
    6        0.446   0.286   9.186   9.918
    7        0.446   0.286   9.186   9.918
    8        0.446   0.286   9.186   9.918
    9        0.448   0.283   9.188   9.919
   10        0.444   0.371   9.175   9.990
   11        0.442   0.365   9.183   9.991
   12        0.444   0.371   9.175   9.990
   13        0.442   0.365   9.183   9.991
   14        0.442   0.365   9.183   9.991
   15        0.438   0.368   9.176   9.983
   16        0.444   0.371   9.175   9.990
   17        0.438   0.368   9.176   9.983
   18        0.438   0.368   9.176   9.983
   19        0.440   0.365   9.181   9.985
   20        0.476   0.401   9.159  10.036
   21        0.476   0.401   9.159  10.036
   22        0.428   0.369   9.182   9.979
   23        0.476   0.401   9.159  10.036
   24        0.428   0.369   9.182   9.979
   25        0.440   0.365   9.181   9.985
   26        0.440   0.365   9.181   9.985
   27        0.428   0.369   9.182   9.979
   28        0.445   0.290   9.179   9.914
   29        0.474   0.314   9.159   9.947
   30        0.474   0.314   9.159   9.947
   31        0.474   0.314   9.159   9.947
   32        0.474   0.314   9.159   9.947
   33        0.474   0.314   9.159   9.947
   34        0.474   0.314   9.159   9.947
   35        0.438   0.292   9.182   9.912
   36        0.698   0.562   4.066   5.326
   37        0.525   0.012   0.000   0.537
tot         16.981  12.315 325.228 354.523

  FORCE on cell =-STRESS in cart. coord.  units (eV):
  Direction    XX          YY          ZZ          XY          YZ          ZX
  Alpha Z   879.82006   879.82006   879.82006
  Ewald  170293.17373170293.17337************     0.00036     0.00012     0.00014
  Hartree183058.74698183058.74699************     0.00002     0.00006     0.00005
  E(xc)   -2275.28132 -2275.28083 -2280.54192    -0.00043    -0.00003    -0.00006
  Local  ************************366405.73011     0.01842    -0.00056    -0.00087
  n-local  -773.28811  -758.19579  -778.65560     7.75603    -0.17571     0.41022
  augment  3312.17560  3312.19579  3337.10094    -0.01749     0.00032     0.00057
  Kinetic  3206.83049  3210.41640  3244.17502     2.69785     1.37356    -1.01430
  Fock        0.00000     0.00000     0.00000     0.00000     0.00000     0.00000
  Total      -6.27819    -6.27819     0.53941     0.00000    -0.00000     0.00000
  in kB      -9.21158    -9.21158     0.79144     0.00000    -0.00000     0.00000

 VOLUME and BASIS-vectors are now :
  energy-cutoff  :      500.00
  volume of cell :     1091.97
      direct lattice vectors                 reciprocal lattice vectors
     7.696786404  0.000000000  0.000000000     0.129924354 -0.075011849  0.000000000
     3.848392758  6.665612809  0.000000000     0.000000000  0.150023716  0.000000000
     0.000000000  0.000000000 21.284399033     0.000000000  0.000000000  0.046982769

  length of vectors
     7.696786404  7.696786404 21.284399033     0.150023716  0.150023716  0.046982769

 FORCES acting on ions
    electron-ion (+dipol)            ewald-force                    non-local-force                 convergence-correction
   -.416E-04 0.170E-06 0.344E+04   0.581E-04 -.428E-05 -.344E+04   0.412E-17 -.170E-17 -.253E+01   -.419E-03 -.253E-03 -.110E+00
   -.619E+00 -.406E+00 0.344E+04   0.511E+00 0.212E+00 -.344E+04   0.121E+00 0.288E+00 -.193E+01   -.408E-02 -.864E-01 -.459E-01
   0.619E+00 -.406E+00 0.344E+04   -.512E+00 0.212E+00 -.344E+04   -.121E+00 0.288E+00 -.193E+01   0.500E-02 -.838E-01 -.448E-01
   -.661E+00 -.333E+00 0.344E+04   0.439E+00 0.337E+00 -.344E+04   0.310E+00 -.393E-01 -.193E+01   -.767E-01 0.396E-01 -.459E-01
   -.612E-04 -.328E-05 0.344E+04   0.116E-03 -.101E-04 -.344E+04   0.747E-17 -.500E-17 -.102E+01   0.122E-01 0.748E-02 0.205E+00
   0.661E+00 -.333E+00 0.344E+04   -.440E+00 0.337E+00 -.344E+04   -.310E+00 -.393E-01 -.193E+01   0.751E-01 0.407E-01 -.446E-01
   -.419E-01 0.739E+00 0.344E+04   -.720E-01 -.549E+00 -.344E+04   0.189E+00 -.249E+00 -.193E+01   -.701E-01 0.462E-01 -.446E-01
   0.421E-01 0.739E+00 0.344E+04   0.717E-01 -.549E+00 -.344E+04   -.189E+00 -.249E+00 -.193E+01   0.735E-01 0.447E-01 -.445E-01
   -.144E-03 -.328E-04 0.344E+04   0.263E-03 0.204E-04 -.344E+04   0.804E-18 -.227E-17 -.216E+01   -.132E-01 -.675E-02 -.862E-01
   -.821E+00 -.474E+00 0.112E+04   0.137E+01 0.792E+00 -.111E+04   -.518E+00 -.299E+00 -.950E+00   -.926E-01 -.537E-01 -.402E+00
   -.915E-04 -.267E+01 0.110E+04   0.190E-03 0.243E+01 -.110E+04   -.168E-07 0.252E+00 0.368E-01   0.124E-01 -.471E-01 -.440E+00
   0.821E+00 -.474E+00 0.112E+04   -.137E+01 0.792E+00 -.111E+04   0.518E+00 -.299E+00 -.950E+00   0.903E-01 -.523E-01 -.401E+00
   -.231E+01 0.134E+01 0.110E+04   0.210E+01 -.121E+01 -.110E+04   0.218E+00 -.126E+00 0.368E-01   -.339E-01 0.352E-01 -.440E+00
   0.231E+01 0.134E+01 0.110E+04   -.210E+01 -.121E+01 -.110E+04   -.218E+00 -.126E+00 0.368E-01   0.580E-01 0.335E-01 -.441E+00
   -.142E-03 -.173E+01 0.111E+04   0.297E-03 0.142E+01 -.111E+04   -.112E-07 0.169E+00 -.102E+01   -.379E-02 0.120E+00 -.407E+00
   -.923E-04 0.948E+00 0.112E+04   0.186E-03 -.158E+01 -.111E+04   -.398E-07 0.598E+00 -.950E+00   -.767E-03 0.103E+00 -.400E+00
   -.149E+01 0.862E+00 0.111E+04   0.123E+01 -.708E+00 -.111E+04   0.146E+00 -.844E-01 -.102E+01   0.102E+00 -.632E-01 -.407E+00
   0.149E+01 0.863E+00 0.111E+04   -.123E+01 -.708E+00 -.111E+04   -.146E+00 -.844E-01 -.102E+01   -.101E+00 -.598E-01 -.404E+00
   -.610E-04 -.671E+01 -.121E+04   0.723E-04 0.676E+01 0.121E+04   0.600E-09 -.901E-02 0.120E+01   -.128E-01 -.762E-01 -.364E+00
   -.513E+02 -.296E+02 -.126E+04   0.527E+02 0.304E+02 0.126E+04   -.116E+01 -.672E+00 -.102E+01   -.384E+00 -.222E+00 -.814E+00
   0.513E+02 -.296E+02 -.126E+04   -.527E+02 0.304E+02 0.126E+04   0.116E+01 -.672E+00 -.102E+01   0.388E+00 -.224E+00 -.815E+00
   -.298E+02 0.172E+02 -.123E+04   0.296E+02 -.171E+02 0.123E+04   0.588E+00 -.339E+00 0.654E+00   -.287E+00 0.182E+00 -.420E+00
   -.905E-04 0.592E+02 -.126E+04   0.149E-03 -.608E+02 0.126E+04   -.895E-07 0.134E+01 -.102E+01   -.192E-03 0.447E+00 -.815E+00
   0.298E+02 0.172E+02 -.123E+04   -.296E+02 -.171E+02 0.123E+04   -.588E+00 -.339E+00 0.654E+00   0.287E+00 0.179E+00 -.420E+00
   0.581E+01 0.335E+01 -.121E+04   -.586E+01 -.338E+01 0.121E+04   0.780E-02 0.450E-02 0.120E+01   0.480E-01 0.275E-01 -.364E+00
   -.581E+01 0.335E+01 -.121E+04   0.586E+01 -.338E+01 0.121E+04   -.780E-02 0.450E-02 0.120E+01   -.712E-01 0.258E-01 -.364E+00
   -.113E-03 -.344E+02 -.123E+04   0.238E-03 0.342E+02 0.123E+04   -.452E-07 0.679E+00 0.654E+00   0.130E-01 -.341E+00 -.420E+00
   -.517E-04 0.824E-05 -.344E+04   0.449E-04 -.309E-04 0.344E+04   0.878E-17 -.187E-17 0.202E+01   -.608E-03 -.533E-03 0.556E-01
   -.461E+02 -.804E+02 -.346E+04   0.471E+02 0.817E+02 0.346E+04   -.843E+00 -.980E+00 0.806E+00   -.163E+00 -.340E+00 0.128E+00
   0.461E+02 -.804E+02 -.346E+04   -.471E+02 0.817E+02 0.346E+04   0.843E+00 -.980E+00 0.806E+00   0.164E+00 -.339E+00 0.126E+00
   -.927E+02 0.293E+00 -.346E+04   0.943E+02 -.578E-01 0.346E+04   -.127E+01 -.240E+00 0.806E+00   -.376E+00 0.286E-01 0.128E+00
   0.927E+02 0.293E+00 -.346E+04   -.943E+02 -.579E-01 0.346E+04   0.127E+01 -.240E+00 0.806E+00   0.375E+00 0.290E-01 0.127E+00
   -.466E+02 0.801E+02 -.346E+04   0.472E+02 -.817E+02 0.346E+04   -.427E+00 0.122E+01 0.806E+00   -.211E+00 0.312E+00 0.126E+00
   0.466E+02 0.801E+02 -.346E+04   -.472E+02 -.817E+02 0.346E+04   0.427E+00 0.122E+01 0.806E+00   0.214E+00 0.311E+00 0.127E+00
   -.145E-03 -.277E-04 -.345E+04   0.246E-03 0.149E-05 0.345E+04   0.163E-17 0.167E-17 0.260E+01   -.124E-01 -.599E-02 0.729E-01
   -.398E-04 -.789E-05 -.182E+04   0.757E-04 0.144E-04 0.182E+04   0.678E-19 -.574E-18 -.159E+01   0.689E-03 0.434E-03 0.166E+00
   0.403E-05 -.511E-05 -.359E+03   0.327E-05 0.144E-05 0.362E+03   -.172E-18 0.158E-19 -.225E+01   0.719E-04 0.427E-04 0.564E-01
   -.216E-03 0.247E-04 0.226E+02   0.101E-12 0.265E-12 -.117E-10   -.540E-16 0.889E-15 -.149E+02   0.370E-02 0.105E-01 -.768E+01

 POSITION                                       TOTAL-FORCE (eV/Angst)
      0.00000      0.00000      5.37156        -0.000000     -0.000000     -0.041978
      2.56560      0.00000      5.37156         0.009622      0.009143      0.061921
      5.13119      0.00000      5.37156        -0.009622      0.009143      0.061921
      1.28280      2.22187      5.37156         0.012729      0.003761      0.061921
      3.84839      2.22187      5.37156        -0.000000     -0.000000      0.038938
      6.41399      2.22187      5.37156        -0.012729      0.003761      0.061921
      2.56560      4.44374      5.37156         0.003107     -0.012904      0.061921
      5.13119      4.44374      5.37156        -0.003107     -0.012904      0.061921
      7.69679      4.44374      5.37156        -0.000000     -0.000000      0.027312
      1.28280      0.74062      7.46636        -0.056788     -0.032787     -0.085593
      3.84839      0.74062      7.46636         0.000000     -0.048135     -0.056403
      6.41399      0.74062      7.46636         0.056788     -0.032787     -0.085593
      2.56560      2.96249      7.46636        -0.041686      0.024068     -0.056403
      5.13119      2.96249      7.46636         0.041686      0.024068     -0.056403
      7.69679      2.96249      7.46636         0.000000     -0.021180      0.003204
      3.84839      5.18437      7.46636        -0.000000      0.065573     -0.085593
      6.41399      5.18437      7.46636        -0.018342      0.010590      0.003204
      8.97958      5.18437      7.46636         0.018342      0.010590      0.003204
      7.69679      1.48345      9.56239         0.000000     -0.020415      0.025520
      2.55319      1.47409      9.53589        -0.177964     -0.102748     -0.196880
      5.14360      1.47409      9.53589         0.177964     -0.102748     -0.196880
      8.97438      3.70612      9.57309         0.068840     -0.039745      0.012690
      3.84839      3.71744      9.53589        -0.000000      0.205495     -0.196880
      6.41919      3.70612      9.57309        -0.068840     -0.039745      0.012690
     10.26047      5.92389      9.56239         0.017680      0.010207      0.025520
      5.13310      5.92389      9.56239        -0.017680      0.010207      0.025520
      7.69679      5.91898      9.57309        -0.000000      0.079489      0.012690
      0.00000      0.00000     11.66245        -0.000000     -0.000000      0.014668
      6.40959      6.66262     11.69844         0.009368     -0.030257     -0.062550
      8.98399      6.66262     11.69844        -0.009368     -0.030257     -0.062550
      8.97479      2.21956     11.69844        -0.021519      0.023241     -0.062550
      6.41878      2.21956     11.69844         0.021519      0.023241     -0.062550
     10.26199      4.44905     11.69844        -0.030887      0.007016     -0.062550
      5.13158      4.44905     11.69844         0.030887      0.007016     -0.062550
      7.69679      4.44374     11.67118        -0.000000     -0.000000      0.056689
      3.84839      2.22187     11.59207        -0.000000     -0.000000      0.813989
      3.84839      2.22187     13.32551        -0.000000     -0.000000     -0.013461
    total drift:                                0.003484      0.010549     -0.037910

  FREE ENERGIE OF THE ION-ELECTRON SYSTEM (eV)
  free  energy   TOTEN  =      -136.08567397 eV

  energy  without entropy=     -136.08567397  energy(sigma->0) =     -136.08567397

 stress matrix after NEB project (eV)
     -6.27819      0.00000      0.00000
      0.00000     -6.27819     -0.00000
     -0.00000     -0.00000      0.53941
  FORCES: max atom, RMS     0.013461    0.002213
  FORCE total and by dimension    0.013461    0.013461
  Stress total and by dimension    8.895070    6.278189
|           W    W    AA    RRRRR   N    N  II  N    N   GGGG   !!!           |
|           W    W   A  A   R    R  NN   N  II  NN   N  G    G  !!!           |
|           W    W  A    A  R    R  N N  N  II  N N  N  G       !!!           |
|           W WW W  AAAAAA  RRRRR   N  N N  II  N  N N  G  GGG   !            |
|           WW  WW  A    A  R   R   N   NN  II  N   NN  G    G                |
|           W    W  A    A  R    R  N    N  II  N    N   GGGG   !!!           |
|     Tetrahedron method does not include variations of the Fermi             |
|     occupations, so forces and stress will be inaccurate. We suggest        |
|     using a different smearing scheme ISMEAR = 1 or 2 for metals in         |
|     relaxations.                                                            |

 total charge

# of ion       s       p       d       tot
    1        0.450   0.280   9.191   9.921
    2        0.446   0.286   9.186   9.918
    3        0.446   0.286   9.186   9.918
    4        0.446   0.286   9.186   9.918
    5        0.452   0.284   9.182   9.918
    6        0.446   0.286   9.186   9.918
    7        0.446   0.286   9.186   9.918
    8        0.446   0.286   9.186   9.918
    9        0.448   0.283   9.188   9.919
   10        0.444   0.371   9.175   9.990
   11        0.442   0.365   9.183   9.991
   12        0.444   0.371   9.175   9.990
   13        0.442   0.365   9.183   9.991
   14        0.442   0.365   9.183   9.991
   15        0.438   0.368   9.176   9.983
   16        0.444   0.371   9.175   9.990
   17        0.438   0.368   9.176   9.983
   18        0.438   0.368   9.176   9.983
   19        0.440   0.365   9.181   9.985
   20        0.476   0.401   9.159  10.036
   21        0.476   0.401   9.159  10.036
   22        0.428   0.369   9.182   9.979
   23        0.476   0.401   9.159  10.036
   24        0.428   0.369   9.182   9.979
   25        0.440   0.365   9.181   9.985
   26        0.440   0.365   9.181   9.985
   27        0.428   0.369   9.182   9.979
   28        0.445   0.290   9.179   9.914
   29        0.474   0.314   9.159   9.947
   30        0.474   0.314   9.159   9.947
   31        0.474   0.314   9.159   9.947
   32        0.474   0.314   9.159   9.947
   33        0.474   0.314   9.159   9.947
   34        0.474   0.314   9.159   9.947
   35        0.438   0.292   9.182   9.912
   36        0.698   0.562   4.066   5.326
   37        0.525   0.012   0.000   0.537
tot         16.981  12.315 325.228 354.523

 BZINTS: Fermi energy:   -0.016102;  392.000000 electrons
         Band energy:-0.112540E+04;  BLOECHL correction:   -0.021146