 vasp.6.2.0 18Jan21 (build Jun 12 2021 23:27:24) complex

 executed on             LinuxIFC date 2022.05.27  05:05:55

 INCAR:
   ISMEAR = -5
   SIGMA = 0.1
   ISPIN = 1
   EDIFF = 1.d-5
   EDIFFG = -0.01
   NSW = 0
   NELM = 150
   ENCUT = 500
   ISIF = 2
   IBRION = 2
   LREAL = Auto
   ALGO = Fast
   ICHARG = 11
   LORBIT = 10
   LCHARG = .F.
   LWAVE = .F.

 POTCAR:    PAW_PBE Au 04Oct2007
 POTCAR:    PAW_PBE Ni 02Aug2007
 POTCAR:    PAW_PBE C 08Apr2002
 POTCAR:    PAW_PBE O 08Apr2002
|           W    W    AA    RRRRR   N    N  II  N    N   GGGG   !!!           |
|           W    W   A  A   R    R  NN   N  II  NN   N  G    G  !!!           |
|           W    W  A    A  R    R  N N  N  II  N N  N  G       !!!           |
|           W WW W  AAAAAA  RRRRR   N  N N  II  N  N N  G  GGG   !            |
|           WW  WW  A    A  R   R   N   NN  II  N   NN  G    G                |
|           W    W  A    A  R    R  N    N  II  N    N   GGGG   !!!           |
|     For optimal performance we recommend to set                             |
|       NCORE = 2 up to number-of-cores-per-socket                            |
|     This setting can greatly improve the performance of VASP for DFT.       |
|     The default, NCORE=1 might be grossly inefficient on modern             |
|     multi-core architectures or massively parallel machines. Do your        |
|     Unfortunately you need to use the default for GW and RPA                |
|     calculations (for HF NCORE is supported but not extensively tested      |
|     yet).                                                                   |

 POTCAR:    PAW_PBE Au 04Oct2007
   VRHFIN =Au: s1d10

   TITEL  = PAW_PBE Au 04Oct2007
   POMASS =  196.966; ZVAL   =   11.000    mass and valenz
   ENMAX  =  229.943; ENMIN  =  172.457 eV

 POTCAR:    PAW_PBE Ni 02Aug2007
   VRHFIN =Ni:

   TITEL  = PAW_PBE Ni 02Aug2007
   POMASS =   58.690; ZVAL   =   10.000    mass and valenz
   ENMAX  =  269.532; ENMIN  =  202.149 eV

 POTCAR:    PAW_PBE C 08Apr2002
   VRHFIN =C: s2p2

   TITEL  = PAW_PBE C 08Apr2002
   POMASS =   12.011; ZVAL   =    4.000    mass and valenz
   ENMAX  =  400.000; ENMIN  =  300.000 eV

 POTCAR:    PAW_PBE O 08Apr2002
   VRHFIN =O: s2p4

   TITEL  = PAW_PBE O 08Apr2002
   POMASS =   16.000; ZVAL   =    6.000    mass and valenz
   ENMAX  =  400.000; ENMIN  =  300.000 eV

 Optimization of the real space projectors (new method)

 maximal supplied QI-value         = 15.12
 optimisation between [QCUT,QGAM] = [ 11.34, 22.83] = [ 36.00,145.93] Ry
 Optimized for a Real-space Cutoff    1.39 Angstroem

   l    n(q)    QCUT    max X(q) W(low)/X(q) W(high)/X(q)  e(spline)
   2      9    11.338    60.898    0.39E-03    0.42E-03    0.21E-06
   2      9    11.338    58.894    0.40E-03    0.42E-03    0.22E-06
   0      9    11.338   109.617    0.13E-03    0.20E-04    0.13E-06
   0      9    11.338    75.026    0.13E-03    0.20E-04    0.13E-06
   1      9    11.338    16.344    0.33E-04    0.24E-03    0.18E-06
   1      9    11.338    10.160    0.26E-04    0.19E-03    0.15E-06
 Optimization of the real space projectors (new method)

[...]

   l    n(q)    QCUT    max X(q) W(low)/X(q) W(high)/X(q)  e(spline)
   0      7    11.310   115.676    0.43E-03    0.13E-02    0.19E-06
   0      7    11.310    87.132    0.43E-03    0.13E-02    0.18E-06
   1      6    11.310     4.429    0.42E-03    0.74E-03    0.11E-06
   1      6    11.310     2.733    0.34E-03    0.55E-03    0.92E-07
 Optimization of the real space projectors (new method)

 maximal supplied QI-value         = 24.76
 optimisation between [QCUT,QGAM] = [ 11.39, 22.77] = [ 36.31,145.25] Ry
 Optimized for a Real-space Cutoff    1.00 Angstroem

   l    n(q)    QCUT    max X(q) W(low)/X(q) W(high)/X(q)  e(spline)
   0      7    11.387    20.381    0.39E-03    0.13E-02    0.15E-06
   0      7    11.387    15.268    0.42E-03    0.14E-02    0.17E-06
   1      6    11.387     5.964    0.41E-03    0.11E-02    0.17E-06
   1      6    11.387     5.382    0.39E-03    0.87E-03    0.15E-06
  PAW_PBE Au 04Oct2007                  :
  PAW_PBE Ni 02Aug2007                  :
  PAW_PBE C 08Apr2002                   :
  PAW_PBE O 08Apr2002                   :

 POSCAR: Au-Ni-CO
  positions in direct lattice
  velocities in cartesian coordinates
 exchange correlation table for  LEXCH =        8
   RHO(1)=    0.500       N(1)  =     2000
   RHO(2)=  100.500       N(2)  =     4000

 VTST: version 3.2, (02/03/18)

 CHAIN: initializing optimizer

 OPT: Using VASP Conjugate-Gradient optimizer
 CHAIN: Read ICHAIN            0

 POSCAR: Au-Ni-CO
  positions in direct lattice
  velocities in cartesian coordinates

 ion  position               nearest neighbor table
   1  0.000  0.000  0.238-  16 2.94  12 2.94   6 2.94   8 2.94   7 2.94   3 2.94  10 2.94   4 2.94
                             2 2.94
   2  0.333  0.000  0.238-   9 2.94  11 2.94  17 2.94  10 2.94   8 2.94   4 2.94   5 2.94   1 2.94
                             3 2.94
   3  0.667  0.000  0.238-   7 2.94  18 2.94  12 2.94   1 2.94  11 2.94   5 2.94   6 2.94   9 2.94
                             2 2.94
   4  0.000  0.333  0.238-  10 2.94   6 2.94   5 2.94  13 2.94   2 2.94  15 2.94   9 2.94   1 2.94
                             7 2.94
   5  0.333  0.333  0.238-  13 2.94   7 2.94  11 2.94   4 2.94   2 2.94  14 2.94   3 2.94   8 2.94
                             6 2.94
   6  0.667  0.333  0.238-  15 2.94  14 2.94   1 2.94  12 2.94   4 2.94   9 2.94   8 2.94   3 2.94
                             5 2.94
   7  0.000  0.667  0.238-  18 2.94   3 2.94  16 2.94   5 2.94   1 2.94  13 2.94   8 2.94   4 2.94
                             9 2.94
   8  0.333  0.667  0.238-   9 2.94  17 2.94   1 2.94   2 2.94  14 2.94  16 2.94   6 2.94   7 2.94
                             5 2.94
   9  0.667  0.667  0.238-   2 2.94   8 2.94  17 2.94   6 2.94  15 2.94   4 2.94   3 2.94  18 2.94
                             7 2.94
  10  0.111  0.111  0.346-  20 2.93  26 2.93  19 2.93  11 2.94  17 2.94   2 2.94   4 2.94   1 2.94
                            12 2.94  16 2.94  13 2.94  15 2.94
  11  0.444  0.111  0.346-  20 2.92  21 2.92  27 2.93  13 2.94   2 2.94  10 2.94  17 2.94   5 2.94
                             3 2.94  18 2.94  14 2.94  12 2.94
  12  0.778  0.111  0.346-  21 2.93  25 2.93  19 2.93  16 2.94  18 2.94   1 2.94  14 2.94  15 2.94
                             3 2.94   6 2.94  10 2.94  11 2.94
  13  0.111  0.444  0.346-  23 2.92  20 2.92  22 2.93   5 2.94  18 2.94  11 2.94   7 2.94   4 2.94
                            16 2.94  10 2.94  14 2.94  15 2.94
  14  0.444  0.444  0.346-  21 2.92  23 2.92  24 2.93  15 2.94   6 2.94  12 2.94   8 2.94  17 2.94
                             5 2.94  16 2.94  13 2.94  11 2.94
  15  0.778  0.444  0.346-  24 2.92  22 2.92  19 2.93  14 2.94   6 2.94  17 2.94  12 2.94   9 2.94
                             4 2.94  10 2.94  13 2.94  18 2.94
  16  0.111  0.778  0.346-  23 2.93  25 2.93  26 2.93  18 2.94  12 2.94   7 2.94   1 2.94   8 2.94
                            13 2.94  10 2.94  14 2.94  17 2.94
  17  0.444  0.778  0.346-  27 2.92  24 2.92  26 2.93   9 2.94  15 2.94   2 2.94  10 2.94  11 2.94
                             8 2.94  14 2.94  16 2.94  18 2.94
  18  0.778  0.778  0.346-  22 2.92  27 2.92  25 2.93  16 2.94   7 2.94  13 2.94  12 2.94   3 2.94
                            11 2.94   9 2.94  15 2.94  17 2.94
  19  0.889  0.222  0.454-  10 2.93  12 2.93  15 2.93  26 2.93  25 2.93  24 2.94  22 2.94  21 2.95
                            20 2.95  28 2.95  32 2.96  31 2.96
  20  0.223  0.223  0.453-  36 2.70  29 2.91  31 2.91  11 2.92  13 2.92  23 2.92  21 2.92  10 2.93
                            27 2.95  22 2.95  26 2.95  19 2.95
  21  0.554  0.223  0.453-  36 2.70  30 2.91  32 2.91  14 2.92  11 2.92  20 2.92  23 2.92  12 2.93
                            27 2.95  24 2.95  25 2.95  19 2.95
  22  0.888  0.556  0.453-  18 2.92  15 2.92  24 2.92  27 2.92  13 2.93  25 2.94  19 2.94  33 2.94
                            31 2.94  23 2.95  20 2.95  35 2.96
  23  0.223  0.554  0.453-  36 2.70  33 2.91  34 2.91  13 2.92  14 2.92  20 2.92  21 2.92  16 2.93
                            22 2.95  24 2.95  25 2.95  26 2.95
  24  0.556  0.556  0.453-  15 2.92  17 2.92  27 2.92  22 2.92  14 2.93  26 2.94  19 2.94  32 2.94
                            34 2.94  21 2.95  23 2.95  35 2.96
  25  0.889  0.889  0.454-  16 2.93  12 2.93  18 2.93  19 2.93  26 2.93  22 2.94  27 2.94  23 2.95
                            21 2.95  28 2.95  33 2.96  30 2.96
  26  0.222  0.889  0.454-  10 2.93  16 2.93  17 2.93  19 2.93  25 2.93  27 2.94  24 2.94  20 2.95
                            23 2.95  28 2.95  29 2.96  34 2.96
  27  0.556  0.888  0.453-  17 2.92  18 2.92  24 2.92  22 2.92  11 2.93  26 2.94  25 2.94  29 2.94
                            30 2.94  20 2.95  21 2.95  35 2.96
  28  0.000  0.000  0.563-  25 2.95  19 2.95  26 2.95  34 2.97  32 2.97  33 2.97  30 2.97  31 2.97
                            29 2.97
  29  0.334  0.007  0.561-  30 2.87  31 2.88  36 2.89  20 2.91  27 2.94  26 2.96  35 2.97  28 2.97
                            34 3.06
  30  0.660  0.007  0.561-  29 2.87  32 2.88  36 2.89  21 2.91  27 2.94  25 2.96  35 2.97  28 2.97
                            33 3.06
  31  0.007  0.334  0.561-  33 2.87  29 2.88  36 2.89  20 2.91  22 2.94  19 2.96  35 2.97  28 2.97
                            32 3.06
  32  0.660  0.334  0.561-  34 2.87  30 2.88  36 2.89  21 2.91  24 2.94  19 2.96  35 2.97  28 2.97
                            31 3.06
  33  0.007  0.660  0.561-  31 2.87  34 2.88  36 2.89  23 2.91  22 2.94  25 2.96  35 2.97  28 2.97
                            30 3.06
  34  0.334  0.660  0.561-  32 2.87  33 2.88  36 2.89  23 2.91  24 2.94  26 2.96  35 2.97  28 2.97
                            29 3.06
  35  0.667  0.667  0.563-  24 2.96  27 2.96  22 2.96  29 2.97  34 2.97  32 2.97  31 2.97  30 2.97
                            33 2.97
  36  0.333  0.333  0.548-  37 1.77  20 2.70  23 2.70  21 2.70  33 2.89  31 2.89  29 2.89  30 2.89
                            34 2.89  32 2.89
  37  0.333  0.333  0.628-  38 1.16  36 1.77
  38  0.333  0.333  0.680-  37 1.16

  LATTYP: Found a hexagonal cell.
 ALAT       =     8.8135128021
 C/A-ratio  =     2.5184286595

  Lattice vectors:

 A1 = (  -4.4067569092,  -7.6327256898,   0.0000000000)
 A2 = (   8.8135128021,   0.0000000000,   0.0000000000)
 A3 = (   0.0000000000,   0.0000000000,  22.1962032318)

Analysis of symmetry for initial positions (statically):
 Subroutine PRICEL returns:
 Original cell was already a primitive cell.

 Routine SETGRP: Setting up the symmetry group for a
 hexagonal supercell.

 Subroutine GETGRP returns: Found  6 space group operations
 (whereof  6 operations were pure point group operations)
 out of a pool of 24 trial point group operations.

The static configuration has the point symmetry C_3v.

Analysis of symmetry for dynamics (positions and initial velocities):
 Subroutine PRICEL returns:
 Original cell was already a primitive cell.

[...]

The dynamic configuration has the point symmetry C_3v.

Analysis of constrained symmetry for selective dynamics:
 Subroutine PRICEL returns:
[...]
     33      -4.7689      2.00000
     34      -4.6820      2.00000
     35      -4.6696      2.00000
     36      -4.6605      2.00000
     37      -4.6572      2.00000
     38      -4.6389      2.00000
     39      -4.5392      2.00000
     40      -4.4669      2.00000
     41      -4.4593      2.00000
     42      -4.4534      2.00000
     43      -4.4201      2.00000
     44      -4.3715      2.00000
     45      -4.3073      2.00000
     46      -4.2873      2.00000
     47      -4.2237      2.00000
     48      -4.2021      2.00000
     49      -4.1924      2.00000
     50      -4.1892      2.00000
     51      -4.0790      2.00000
     52      -4.0623      2.00000
     53      -4.0281      2.00000
     54      -4.0234      2.00000
     55      -4.0111      2.00000
     56      -4.0072      2.00000
     57      -3.9872      2.00000
     58      -3.9485      2.00000
     59      -3.9105      2.00000
     60      -3.8773      2.00000
[...]
    238       6.1671      0.00000
    239       6.4492      0.00000
    240       6.5002      0.00000
    241       6.5214      0.00000
    242       6.5524      0.00000
    243       6.5666      0.00000
    244       6.6558      0.00000
    245       6.8133      0.00000
    246       6.8843      0.00000
    247       6.9134      0.00000
    248       6.9638      0.00000
    249       7.2461      0.00000
    250       7.2714      0.00000
    251       7.3539      0.00000
    252       7.5610      0.00000

 soft charge-density along one line, spin component           1
         0         1         2         3         4         5         6         7         8         9
 total charge-density along one line

------------------------ aborting loop because EDIFF is reached ----------------------------------------

 total charge

# of ion       s       p       d       tot
    1        0.542   0.239   8.767   9.547
    2        0.545   0.240   8.766   9.550
    3        0.545   0.240   8.766   9.550
    4        0.545   0.240   8.766   9.550
    5        0.543   0.241   8.765   9.549
    6        0.545   0.240   8.766   9.550
    7        0.545   0.240   8.766   9.550
    8        0.545   0.240   8.766   9.550
    9        0.541   0.240   8.768   9.549
   10        0.520   0.307   8.774   9.600
   11        0.523   0.307   8.778   9.608
   12        0.520   0.307   8.774   9.600
   13        0.523   0.307   8.778   9.608
   14        0.523   0.307   8.778   9.608
   15        0.514   0.310   8.775   9.599
   16        0.520   0.307   8.774   9.600
   17        0.514   0.310   8.775   9.599
   18        0.514   0.310   8.775   9.599
   19        0.517   0.302   8.777   9.596
   20        0.538   0.326   8.759   9.622
   21        0.538   0.326   8.759   9.622
   22        0.514   0.310   8.774   9.598
   23        0.538   0.326   8.759   9.622
   24        0.514   0.310   8.774   9.598
   25        0.517   0.302   8.777   9.596
   26        0.517   0.302   8.777   9.596
   27        0.514   0.310   8.774   9.598
   28        0.539   0.226   8.767   9.532
   29        0.542   0.233   8.773   9.548
   30        0.542   0.233   8.773   9.548
   31        0.542   0.233   8.773   9.548
   32        0.542   0.233   8.773   9.548
   33        0.542   0.233   8.773   9.548
   34        0.542   0.233   8.773   9.548
   35        0.540   0.225   8.769   9.534
   36        0.420   0.478   8.399   9.298
   37        0.972   1.539   0.000   2.511
   38        1.618   3.526   0.000   5.144
tot         21.610  15.136 315.376 352.122

  FORCE on cell =-STRESS in cart. coord.  units (eV):
  Direction    XX          YY          ZZ          XY          YZ          ZX
  Alpha Z  1030.93198  1030.93198  1030.93198
  Ewald  119459.74888119459.74934************    -0.00031    -0.00008    -0.00011
  Hartree128578.71459128578.71461************     0.00001    -0.00002    -0.00002
  E(xc)   -1827.73023 -1827.73031 -1832.92235     0.00007    -0.00001    -0.00002
  Local  ************************259965.36691     0.00229     0.00001    -0.00004
  n-local  -109.55722   -65.41301   -74.66722    22.36765    -1.39134     1.39969
  augment  2554.38018  2554.38195  2555.05800    -0.00153     0.00001     0.00005
  Kinetic  5623.63426  5630.76451  5637.88460     4.99153     0.20030     0.43095
  Fock        0.00000     0.00000     0.00000     0.00000     0.00000     0.00000
  Total     -18.60012   -18.60012     2.37087    -0.00000     0.00000     0.00000
  in kB     -19.95809   -19.95808     2.54396    -0.00000     0.00000     0.00000

 VOLUME and BASIS-vectors are now :
  energy-cutoff  :      500.00
  volume of cell :     1493.16
      direct lattice vectors                 reciprocal lattice vectors
     8.813512802  0.000000000  0.000000000     0.113462137 -0.065507406  0.000000000
     4.406756909  7.632725690  0.000000000     0.000000000  0.131014796  0.000000000
     0.000000000  0.000000000 22.196203232     0.000000000  0.000000000  0.045052750

  length of vectors
     8.813512802  8.813512802 22.196203232     0.131014796  0.131014796  0.045052750

 FORCES acting on ions
    electron-ion (+dipol)            ewald-force                    non-local-force                 convergence-correction
   -.194E-04 -.162E-04 0.251E+04   0.519E-04 0.434E-04 -.251E+04   -.131E-17 0.218E-17 -.980E+00   -.261E-03 -.164E-03 -.582E+00
   0.558E+00 0.591E+00 0.251E+04   -.600E+00 -.600E+00 -.251E+04   0.397E-01 0.552E-01 -.366E+00   -.194E-03 -.350E-01 -.641E+00
   -.558E+00 0.591E+00 0.251E+04   0.600E+00 -.600E+00 -.251E+04   -.397E-01 0.552E-01 -.366E+00   0.539E-03 -.330E-01 -.640E+00
   0.790E+00 0.188E+00 0.251E+04   -.820E+00 -.219E+00 -.251E+04   0.677E-01 0.680E-02 -.366E+00   -.304E-01 0.173E-01 -.641E+00
   0.924E-05 -.229E-04 0.251E+04   0.951E-04 0.172E-05 -.251E+04   -.189E-17 -.297E-17 -.285E+00   0.434E-02 0.264E-02 -.612E+00
   -.790E+00 0.188E+00 0.251E+04   0.820E+00 -.219E+00 -.251E+04   -.677E-01 0.680E-02 -.366E+00   0.288E-01 0.182E-01 -.640E+00
   0.233E+00 -.778E+00 0.251E+04   -.220E+00 0.820E+00 -.251E+04   0.280E-01 -.620E-01 -.366E+00   -.283E-01 0.170E-01 -.640E+00
   -.233E+00 -.778E+00 0.251E+04   0.220E+00 0.820E+00 -.251E+04   -.280E-01 -.620E-01 -.366E+00   0.302E-01 0.158E-01 -.640E+00
   0.194E-04 -.415E-04 0.251E+04   0.166E-03 -.201E-04 -.251E+04   -.163E-17 -.114E-17 -.617E+00   -.462E-02 -.239E-02 -.660E+00
   0.515E+01 0.297E+01 0.883E+03   -.474E+01 -.274E+01 -.882E+03   -.266E+00 -.154E+00 -.619E+00   -.968E-01 -.560E-01 -.321E+00
   0.152E-04 0.685E+01 0.893E+03   0.147E-03 -.683E+01 -.892E+03   0.243E-08 0.365E-01 -.374E+00   0.417E-02 -.862E-01 -.308E+00
   -.515E+01 0.297E+01 0.883E+03   0.474E+01 -.274E+01 -.882E+03   0.266E+00 -.154E+00 -.619E+00   0.952E-01 -.544E-01 -.320E+00
   0.593E+01 -.342E+01 0.893E+03   -.591E+01 0.341E+01 -.892E+03   0.316E-01 -.183E-01 -.374E+00   -.723E-01 0.470E-01 -.308E+00
   -.593E+01 -.342E+01 0.893E+03   0.591E+01 0.341E+01 -.892E+03   -.316E-01 -.183E-01 -.374E+00   0.803E-01 0.462E-01 -.308E+00
   0.303E-04 0.172E+01 0.883E+03   0.237E-03 -.171E+01 -.883E+03   -.226E-08 -.339E-01 -.489E+00   -.262E-02 0.114E-01 -.304E+00
   -.218E-04 -.594E+01 0.883E+03   0.163E-03 0.548E+01 -.882E+03   0.204E-07 0.307E+00 -.619E+00   0.190E-03 0.110E+00 -.320E+00
   0.149E+01 -.860E+00 0.883E+03   -.149E+01 0.857E+00 -.883E+03   -.293E-01 0.169E-01 -.489E+00   0.883E-02 -.755E-02 -.304E+00
   -.149E+01 -.860E+00 0.883E+03   0.148E+01 0.857E+00 -.883E+03   0.293E-01 0.169E-01 -.489E+00   -.859E-02 -.521E-02 -.303E+00
   -.392E-04 0.348E+01 -.784E+03   0.526E-04 -.357E+01 0.783E+03   0.636E-08 0.955E-01 0.736E+00   -.460E-02 0.545E-02 0.321E+00
   0.443E+02 0.256E+02 -.720E+03   -.434E+02 -.251E+02 0.721E+03   -.819E+00 -.473E+00 -.875E+00   -.269E-01 -.156E-01 0.413E+00
   -.443E+02 0.256E+02 -.720E+03   0.434E+02 -.251E+02 0.721E+03   0.819E+00 -.473E+00 -.875E+00   0.293E-01 -.144E-01 0.413E+00
   0.168E+02 -.970E+01 -.769E+03   -.169E+02 0.975E+01 0.768E+03   0.220E+00 -.127E+00 0.566E+00   -.766E-01 0.414E-01 0.342E+00
   -.142E-04 -.511E+02 -.720E+03   0.145E-03 0.501E+02 0.721E+03   0.629E-07 0.945E+00 -.875E+00   0.193E-02 0.326E-01 0.413E+00
   -.168E+02 -.970E+01 -.769E+03   0.169E+02 0.975E+01 0.768E+03   -.220E+00 -.127E+00 0.566E+00   0.697E-01 0.403E-01 0.342E+00
   -.301E+01 -.174E+01 -.784E+03   0.309E+01 0.179E+01 0.783E+03   -.827E-01 -.478E-01 0.736E+00   -.761E-02 -.446E-02 0.321E+00
   0.301E+01 -.174E+01 -.784E+03   -.309E+01 0.179E+01 0.783E+03   0.827E-01 -.478E-01 0.736E+00   0.274E-02 -.668E-02 0.321E+00
   0.110E-04 0.194E+02 -.769E+03   0.196E-03 -.195E+02 0.768E+03   0.169E-07 0.254E+00 0.566E+00   -.297E-02 -.871E-01 0.342E+00
   -.134E-04 -.149E-04 -.244E+04   0.306E-04 0.364E-04 0.244E+04   -.501E-17 -.396E-17 0.467E+00   -.229E-03 -.152E-03 0.610E+00
   0.475E+02 0.797E+02 -.241E+04   -.475E+02 -.796E+02 0.241E+04   -.179E+00 -.306E+00 0.777E+00   0.292E-01 0.190E-01 0.597E+00
   -.475E+02 0.797E+02 -.241E+04   0.475E+02 -.796E+02 0.241E+04   0.179E+00 -.306E+00 0.777E+00   -.286E-01 0.211E-01 0.597E+00
   0.928E+02 0.133E+01 -.241E+04   -.927E+02 -.132E+01 0.241E+04   -.354E+00 -.171E-02 0.777E+00   0.311E-01 0.158E-01 0.597E+00
   -.928E+02 0.133E+01 -.241E+04   0.927E+02 -.132E+01 0.241E+04   0.354E+00 -.171E-02 0.777E+00   -.329E-01 0.165E-01 0.596E+00
   0.452E+02 -.810E+02 -.241E+04   -.452E+02 0.810E+02 0.241E+04   -.176E+00 0.308E+00 0.777E+00   0.404E-02 -.354E-01 0.597E+00
   -.452E+02 -.810E+02 -.241E+04   0.452E+02 0.810E+02 0.241E+04   0.176E+00 0.308E+00 0.777E+00   -.215E-02 -.367E-01 0.596E+00
   0.340E-04 -.259E-04 -.244E+04   0.142E-03 -.518E-04 0.244E+04   0.247E-17 -.949E-17 0.426E+00   -.464E-02 -.238E-02 0.568E+00
   -.421E-04 -.180E-04 -.188E+04   0.105E-03 0.985E-05 0.188E+04   0.333E-17 0.216E-17 -.480E+00   0.104E-01 0.635E-02 0.700E+00
   -.452E-05 -.831E-04 -.909E+03   0.163E-04 0.107E-05 0.892E+03   -.604E-20 -.121E-18 0.175E+02   0.138E-02 0.843E-03 0.559E-01
   0.242E-03 -.911E-04 -.158E+04   0.647E-05 0.610E-06 0.164E+04   0.116E-18 0.755E-19 -.600E+02   0.380E-02 0.233E-02 -.533E-01
   -.507E-03 -.936E-03 0.451E+02   0.106E-12 -.857E-13 0.318E-11   0.145E-15 -.118E-15 -.447E+02   0.497E-02 0.390E-02 0.198E+00

 POSITION                                       TOTAL-FORCE (eV/Angst)
      0.00000      0.00000      5.28038        -0.000000     -0.000000     -0.059208
      2.93784      0.00000      5.28038        -0.002155      0.011296     -0.035397
      5.87568      0.00000      5.28038         0.002155      0.011296     -0.035397
      1.46892      2.54424      5.28038         0.008705     -0.007514     -0.035397
      4.40676      2.54424      5.28038        -0.000000      0.000000     -0.052513
      7.34459      2.54424      5.28038        -0.008705     -0.007514     -0.035397
      2.93784      5.08848      5.28038         0.010860     -0.003782     -0.035397
      5.87568      5.08848      5.28038        -0.010860     -0.003782     -0.035397
      8.81351      5.08848      5.28038        -0.000000      0.000000     -0.040095
      1.46892      0.84808      7.67911         0.043432      0.025076      0.105871
      4.40676      0.84808      7.67911        -0.000000     -0.031419      0.027275
      7.34459      0.84808      7.67911        -0.043432      0.025076      0.105871
      2.93784      3.39232      7.67911        -0.027210      0.015710      0.027275
      5.87568      3.39232      7.67911         0.027210      0.015710      0.027275
      8.81351      3.39232      7.67911        -0.000000     -0.017056      0.090575
      4.40676      5.93656      7.67911        -0.000000     -0.050151      0.105871
      7.34459      5.93656      7.67911        -0.014771      0.008528      0.090575
     10.28243      5.93656      7.67911         0.014771      0.008528      0.090575
      8.81351      1.69394     10.07055         0.000000      0.005159      0.002401
      2.94670      1.70128     10.05847         0.007663      0.004424     -0.120748
      5.86681      1.70128     10.05847        -0.007663      0.004424     -0.120748
     10.27376      4.24541     10.05945         0.053630     -0.030963     -0.010452
      4.40676      4.23017     10.05847        -0.000000     -0.008848     -0.120748
      7.35327      4.24541     10.05945        -0.053630     -0.030963     -0.010452
     11.75328      6.78576     10.07055        -0.004468     -0.002580      0.002401
      5.87375      6.78576     10.07055         0.004468     -0.002580      0.002401
      8.81351      6.77463     10.05945         0.000000      0.061927     -0.010452
      0.00000      0.00000     12.48855        -0.000000      0.000000     -0.023457
      2.97006      0.05170     12.45862        -0.110236     -0.230730     -0.099804
      5.84345      0.05170     12.45862         0.110236     -0.230730     -0.099804
      1.52981      2.54630     12.45862        -0.254936      0.019898     -0.099804
      7.28371      2.54630     12.45862         0.254936      0.019898     -0.099804
      2.96650      5.03473     12.45862        -0.144700      0.210832     -0.099804
      5.84701      5.03473     12.45862         0.144700      0.210832     -0.099804
      8.81351      5.08848     12.49203        -0.000000      0.000000     -0.005236
      4.40676      2.54424     12.16149        -0.000000     -0.000000      0.700866
      4.40676      2.54424     13.92849        -0.000000     -0.000000      0.009450
      4.40676      2.54424     15.08967        -0.000000      0.000000     -0.003362
    total drift:                                0.004460      0.002959      0.619427

  FREE ENERGIE OF THE ION-ELECTRON SYSTEM (eV)
  free  energy   TOTEN  =      -127.69719739 eV

  energy  without entropy=     -127.69719739  energy(sigma->0) =     -127.69719739

 stress matrix after NEB project (eV)
    -18.60012     -0.00000      0.00000
     -0.00000    -18.60012      0.00000
      0.00000      0.00000      2.37087
  FORCES: max atom, RMS     0.009450    0.001627
  FORCE total and by dimension    0.010030    0.009450
  Stress total and by dimension   26.411166   18.600117
|           W    W    AA    RRRRR   N    N  II  N    N   GGGG   !!!           |
|           W    W   A  A   R    R  NN   N  II  NN   N  G    G  !!!           |
|           W    W  A    A  R    R  N N  N  II  N N  N  G       !!!           |
|           W WW W  AAAAAA  RRRRR   N  N N  II  N  N N  G  GGG   !            |
|           WW  WW  A    A  R   R   N   NN  II  N   NN  G    G                |
|           W    W  A    A  R    R  N    N  II  N    N   GGGG   !!!           |
|     Tetrahedron method does not include variations of the Fermi             |
|     occupations, so forces and stress will be inaccurate. We suggest        |
|     using a different smearing scheme ISMEAR = 1 or 2 for metals in         |
|     relaxations.                                                            |

 total charge

# of ion       s       p       d       tot
    1        0.542   0.239   8.767   9.547
    2        0.545   0.240   8.766   9.550
    3        0.545   0.240   8.766   9.550
    4        0.545   0.240   8.766   9.550
    5        0.543   0.241   8.765   9.549
    6        0.545   0.240   8.766   9.550
    7        0.545   0.240   8.766   9.550
    8        0.545   0.240   8.766   9.550
    9        0.541   0.240   8.768   9.549
   10        0.520   0.307   8.774   9.600
   11        0.523   0.307   8.778   9.608
   12        0.520   0.307   8.774   9.600
   13        0.523   0.307   8.778   9.608
   14        0.523   0.307   8.778   9.608
   15        0.514   0.310   8.775   9.599
   16        0.520   0.307   8.774   9.600
   17        0.514   0.310   8.775   9.599
   18        0.514   0.310   8.775   9.599
   19        0.517   0.302   8.777   9.596
   20        0.538   0.326   8.759   9.622
   21        0.538   0.326   8.759   9.622
   22        0.514   0.310   8.774   9.598
   23        0.538   0.326   8.759   9.622
   24        0.514   0.310   8.774   9.598
   25        0.517   0.302   8.777   9.596
   26        0.517   0.302   8.777   9.596
   27        0.514   0.310   8.774   9.598
   28        0.539   0.226   8.767   9.532
   29        0.542   0.233   8.773   9.548
   30        0.542   0.233   8.773   9.548
   31        0.542   0.233   8.773   9.548
   32        0.542   0.233   8.773   9.548
   33        0.542   0.233   8.773   9.548
   34        0.542   0.233   8.773   9.548
   35        0.540   0.225   8.769   9.534
   36        0.420   0.478   8.399   9.298
   37        0.972   1.539   0.000   2.511
   38        1.618   3.526   0.000   5.144
tot         21.610  15.136 315.376 352.122

 BZINTS: Fermi energy:    0.746862;  405.000000 electrons
         Band energy:-0.124218E+04;  BLOECHL correction:   -0.075017