 vasp.6.2.0 18Jan21 (build Jun 12 2021 23:27:24) complex

 executed on             LinuxIFC date 2022.05.26  20:09:54

 INCAR:
   ISMEAR = -5
   SIGMA = 0.1
   ISPIN = 1
   EDIFF = 1.d-5
   EDIFFG = -0.01
   NSW = 0
   NELM = 150
   ENCUT = 500
   ISIF = 2
   IBRION = 2
   LREAL = Auto
   ALGO = Fast
   ICHARG = 11
   LORBIT = 10
   LCHARG = .F.
   LWAVE = .F.

 POTCAR:    PAW_PBE Cu 22Jun2005
 POTCAR:    PAW_PBE Ir 06Sep2000
 POTCAR:    PAW_PBE O 08Apr2002
|           W    W    AA    RRRRR   N    N  II  N    N   GGGG   !!!           |
|           W    W   A  A   R    R  NN   N  II  NN   N  G    G  !!!           |
|           W    W  A    A  R    R  N N  N  II  N N  N  G       !!!           |
|           W WW W  AAAAAA  RRRRR   N  N N  II  N  N N  G  GGG   !            |
|           WW  WW  A    A  R   R   N   NN  II  N   NN  G    G                |
|           W    W  A    A  R    R  N    N  II  N    N   GGGG   !!!           |
|     For optimal performance we recommend to set                             |
|       NCORE = 2 up to number-of-cores-per-socket                            |
|     This setting can greatly improve the performance of VASP for DFT.       |
|     The default, NCORE=1 might be grossly inefficient on modern             |
|     multi-core architectures or massively parallel machines. Do your        |
|     Unfortunately you need to use the default for GW and RPA                |
|     calculations (for HF NCORE is supported but not extensively tested      |
|     yet).                                                                   |

 POTCAR:    PAW_PBE Cu 22Jun2005
   VRHFIN =Cu: d10 p1

   TITEL  = PAW_PBE Cu 22Jun2005
   POMASS =   63.546; ZVAL   =   11.000    mass and valenz
   ENMAX  =  295.446; ENMIN  =  221.585 eV

 POTCAR:    PAW_PBE Ir 06Sep2000
   VRHFIN =Ir: s1d8

   TITEL  = PAW_PBE Ir 06Sep2000
   POMASS =  192.220; ZVAL   =    9.000    mass and valenz
   ENMAX  =  210.864; ENMIN  =  158.148 eV

 POTCAR:    PAW_PBE O 08Apr2002
   VRHFIN =O: s2p4

   TITEL  = PAW_PBE O 08Apr2002
   POMASS =   16.000; ZVAL   =    6.000    mass and valenz
   ENMAX  =  400.000; ENMIN  =  300.000 eV

 Optimization of the real space projectors (new method)

 maximal supplied QI-value         = 16.25
 optimisation between [QCUT,QGAM] = [ 11.38, 22.75] = [ 36.24,144.96] Ry
 Optimized for a Real-space Cutoff    1.52 Angstroem

   l    n(q)    QCUT    max X(q) W(low)/X(q) W(high)/X(q)  e(spline)
   2      9    11.376     4.610    0.21E-03    0.10E-03    0.26E-06
   2      9    11.376     8.522    0.33E-03    0.16E-03    0.37E-06
   0     10    11.376    51.609    0.62E-04    0.20E-04    0.13E-06
   0     10    11.376    27.747    0.54E-04    0.20E-04    0.13E-06
   1     10    11.376    20.408    0.13E-04    0.99E-04    0.19E-06
   1     10    11.376    13.425    0.12E-04    0.87E-04    0.17E-06
 Optimization of the real space projectors (new method)

[...]

   l    n(q)    QCUT    max X(q) W(low)/X(q) W(high)/X(q)  e(spline)
   2      9    11.346   134.116    0.47E-03    0.13E-03    0.92E-06
   2      9    11.346   130.192    0.47E-03    0.13E-03    0.92E-06
   0     10    11.346    60.310    0.74E-04    0.13E-03    0.69E-06
   0     10    11.346    39.218    0.68E-04    0.12E-03    0.65E-06
   1     10    11.346    18.439    0.15E-03    0.34E-04    0.20E-06
   1     10    11.346    12.760    0.12E-03    0.31E-04    0.16E-06
 Optimization of the real space projectors (new method)

 maximal supplied QI-value         = 24.76
 optimisation between [QCUT,QGAM] = [ 11.39, 22.77] = [ 36.31,145.25] Ry
 Optimized for a Real-space Cutoff    1.00 Angstroem

   l    n(q)    QCUT    max X(q) W(low)/X(q) W(high)/X(q)  e(spline)
   0      7    11.387    20.381    0.39E-03    0.13E-02    0.15E-06
   0      7    11.387    15.268    0.42E-03    0.14E-02    0.17E-06
   1      6    11.387     5.964    0.41E-03    0.11E-02    0.17E-06
   1      6    11.387     5.382    0.39E-03    0.87E-03    0.15E-06
  PAW_PBE Cu 22Jun2005                  :
  PAW_PBE Ir 06Sep2000                  :
  PAW_PBE O 08Apr2002                   :

 POSCAR: Cu-Ir-O
  positions in direct lattice
  velocities in cartesian coordinates
 exchange correlation table for  LEXCH =        8
   RHO(1)=    0.500       N(1)  =     2000
   RHO(2)=  100.500       N(2)  =     4000

 VTST: version 3.2, (02/03/18)

 CHAIN: initializing optimizer

 OPT: Using VASP Conjugate-Gradient optimizer
 CHAIN: Read ICHAIN            0

 POSCAR: Cu-Ir-O
  positions in direct lattice
  velocities in cartesian coordinates

 ion  position               nearest neighbor table
   1  0.000  0.000  0.252-   7 2.57   3 2.57   4 2.57   2 2.57   6 2.57   8 2.57  12 2.57  10 2.57
                            16 2.57
   2  0.333  0.000  0.252-   8 2.57   9 2.57   5 2.57   1 2.57   3 2.57  11 2.57   4 2.57  10 2.57
                            17 2.57
   3  0.667  0.000  0.252-   1 2.57   7 2.57   6 2.57   9 2.57   2 2.57  12 2.57   5 2.57  18 2.57
                            11 2.57
   4  0.000  0.333  0.252-   5 2.57   6 2.57   1 2.57   7 2.57   2 2.57  13 2.57   9 2.57  10 2.57
                            15 2.57
   5  0.333  0.333  0.252-   4 2.57   2 2.57   7 2.57  13 2.57   8 2.57   6 2.57   3 2.57  11 2.57
                            14 2.57
   6  0.667  0.333  0.252-   4 2.57   9 2.57  15 2.57   3 2.57   1 2.57   8 2.57  14 2.57   5 2.57
                            12 2.57
   7  0.000  0.667  0.252-   1 2.57   3 2.57  16 2.57  18 2.57   4 2.57   5 2.57   8 2.57   9 2.57
                            13 2.57
   8  0.333  0.667  0.252-   9 2.57   2 2.57  17 2.57   6 2.57   1 2.57   7 2.57   5 2.57  14 2.57
                            16 2.57
   9  0.667  0.667  0.252-   8 2.57   6 2.57   2 2.57  17 2.57   3 2.57   7 2.57   4 2.57  15 2.57
                            18 2.57
  10  0.111  0.111  0.351-  20 2.53  11 2.57  12 2.57  13 2.57   1 2.57   2 2.57   4 2.57  15 2.57
                            16 2.57  17 2.57  26 2.57  19 2.57
  11  0.444  0.111  0.351-  20 2.55  21 2.55  10 2.57  13 2.57   2 2.57  17 2.57  14 2.57  12 2.57
                             5 2.57   3 2.57  18 2.57  27 2.57
  12  0.778  0.111  0.351-  21 2.53  15 2.57  10 2.57  14 2.57  18 2.57   3 2.57   1 2.57  16 2.57
                            11 2.57   6 2.57  19 2.57  25 2.57
  13  0.111  0.444  0.351-  23 2.55  20 2.55  16 2.57  18 2.57  10 2.57  11 2.57  14 2.57   5 2.57
                             4 2.57   7 2.57  15 2.57  22 2.57
  14  0.444  0.444  0.351-  21 2.55  23 2.55  15 2.57  17 2.57  12 2.57  16 2.57  13 2.57  11 2.57
                             6 2.57   8 2.57   5 2.57  24 2.57
  15  0.778  0.444  0.351-  19 2.56  24 2.56  22 2.56  14 2.57  17 2.57  12 2.57   6 2.57  18 2.57
                            10 2.57   9 2.57  13 2.57   4 2.57
  16  0.111  0.778  0.351-  23 2.53  18 2.57  13 2.57   7 2.57  14 2.57  17 2.57  12 2.57  10 2.57
                             8 2.57   1 2.57  25 2.57  26 2.57
  17  0.444  0.778  0.351-  26 2.56  27 2.56  24 2.56  14 2.57  15 2.57   8 2.57   9 2.57  11 2.57
                            16 2.57  18 2.57  10 2.57   2 2.57
  18  0.778  0.778  0.351-  25 2.56  22 2.56  27 2.56  16 2.57  13 2.57   7 2.57  15 2.57  12 2.57
                            17 2.57   9 2.57   3 2.57  11 2.57
  19  0.888  0.223  0.449-  28 2.55  21 2.55  20 2.55  22 2.56  24 2.56  15 2.56  32 2.56  31 2.56
                            12 2.57  10 2.57  25 2.58  26 2.58
  20  0.221  0.221  0.448-  10 2.53  11 2.55  13 2.55  26 2.55  19 2.55  36 2.55  27 2.57  22 2.57
                            29 2.59  31 2.59  23 2.59  21 2.59
  21  0.558  0.221  0.448-  12 2.53  14 2.55  11 2.55  19 2.55  25 2.55  36 2.55  24 2.57  27 2.57
                            32 2.59  30 2.59  20 2.59  23 2.59
  22  0.888  0.556  0.449-  35 2.54  24 2.56  27 2.56  19 2.56  25 2.56  18 2.56  15 2.56  13 2.57
                            23 2.57  20 2.57  31 2.57  33 2.57
  23  0.221  0.558  0.448-  16 2.53  13 2.55  14 2.55  25 2.55  26 2.55  36 2.55  22 2.57  24 2.57
                            33 2.59  34 2.59  20 2.59  21 2.59
  24  0.556  0.556  0.449-  35 2.54  22 2.56  27 2.56  19 2.56  26 2.56  15 2.56  17 2.56  14 2.57
                            21 2.57  23 2.57  32 2.57  34 2.57
  25  0.888  0.888  0.449-  28 2.55  21 2.55  23 2.55  22 2.56  27 2.56  18 2.56  33 2.56  30 2.56
                            16 2.57  12 2.57  19 2.58  26 2.58
  26  0.223  0.888  0.449-  28 2.55  20 2.55  23 2.55  27 2.56  24 2.56  17 2.56  29 2.56  34 2.56
                            10 2.57  16 2.57  25 2.58  19 2.58
  27  0.556  0.888  0.449-  35 2.54  24 2.56  22 2.56  26 2.56  25 2.56  17 2.56  18 2.56  11 2.57
                            20 2.57  21 2.57  29 2.57  30 2.57
  28  0.000  0.000  0.546-  25 2.55  19 2.55  26 2.55  33 2.56  30 2.56  31 2.56  29 2.56  32 2.56
                            34 2.56
  29  0.333  0.999  0.548-  34 2.55  28 2.56  26 2.56  35 2.57  31 2.57  27 2.57  36 2.57  30 2.58
                            20 2.59
  30  0.668  0.999  0.548-  33 2.55  28 2.56  25 2.56  35 2.57  32 2.57  27 2.57  36 2.57  29 2.58
                            21 2.59
  31  0.999  0.333  0.548-  32 2.55  28 2.56  19 2.56  35 2.57  29 2.57  22 2.57  36 2.57  33 2.58
                            20 2.59
  32  0.668  0.333  0.548-  31 2.55  28 2.56  19 2.56  35 2.57  30 2.57  24 2.57  36 2.57  34 2.58
                            21 2.59
  33  0.999  0.668  0.548-  30 2.55  28 2.56  25 2.56  35 2.57  34 2.57  22 2.57  36 2.57  31 2.58
                            23 2.59
  34  0.333  0.668  0.548-  29 2.55  28 2.56  26 2.56  35 2.57  33 2.57  24 2.57  36 2.57  32 2.58
                            23 2.59
  35  0.667  0.667  0.546-  24 2.54  27 2.54  22 2.54  34 2.57  32 2.57  29 2.57  30 2.57  33 2.57
                            31 2.57
  36  0.333  0.333  0.545-  37 1.81  23 2.55  20 2.55  21 2.55  31 2.57  29 2.57  33 2.57  34 2.57
                            32 2.57  30 2.57
  37  0.333  0.333  0.630-  36 1.81

  LATTYP: Found a hexagonal cell.
 ALAT       =     7.6967864036
 C/A-ratio  =     2.7653617908

  Lattice vectors:

 A1 = (  -3.8483927580,  -6.6656128093,   0.0000000000)
 A2 = (   7.6967864037,   0.0000000000,   0.0000000000)
 A3 = (   0.0000000000,   0.0000000000,  21.2843990326)

Analysis of symmetry for initial positions (statically):
 Subroutine PRICEL returns:
 Original cell was already a primitive cell.

 Routine SETGRP: Setting up the symmetry group for a
 hexagonal supercell.

 Subroutine GETGRP returns: Found  6 space group operations
 (whereof  6 operations were pure point group operations)
 out of a pool of 24 trial point group operations.

The static configuration has the point symmetry C_3v.

Analysis of symmetry for dynamics (positions and initial velocities):
 Subroutine PRICEL returns:
 Original cell was already a primitive cell.

[...]

The dynamic configuration has the point symmetry C_3v.

Analysis of constrained symmetry for selective dynamics:
 Subroutine PRICEL returns:
 Original cell was already a primitive cell.

 Routine SETGRP: Setting up the symmetry group for a
 hexagonal supercell.

 Subroutine GETGRP returns: Found  6 space group operations
[...]
     24      -4.4007      2.00000
     25      -4.3697      2.00000
     26      -4.3320      2.00000
     27      -4.3186      2.00000
     28      -4.3134      2.00000
     29      -4.2539      2.00000
     30      -4.1665      2.00000
     31      -4.1460      2.00000
     32      -4.1124      2.00000
     33      -4.0900      2.00000
     34      -4.0865      2.00000
     35      -4.0711      2.00000
     36      -4.0433      2.00000
     37      -4.0244      2.00000
     38      -3.9856      2.00000
     39      -3.9232      2.00000
     40      -3.8989      2.00000
     41      -3.7730      2.00000
     42      -3.7650      2.00000
     43      -3.7047      2.00000
     44      -3.6841      2.00000
     45      -3.6687      2.00000
     46      -3.6601      2.00000
     47      -3.6370      2.00000
     48      -3.6002      2.00000
     49      -3.5932      2.00000
     50      -3.4889      2.00000
     51      -3.4393      2.00000
     52      -3.4234      2.00000
     53      -3.4130      2.00000
     54      -3.3741      2.00000
     55      -3.3630      2.00000
     56      -3.3508      2.00000
     57      -3.3464      2.00000
     58      -3.3302      2.00000
     59      -3.3211      2.00000
     60      -3.2932      2.00000
[...]
    238       6.2956      0.00000
    239       6.3774      0.00000
    240       6.4574      0.00000
    241       7.0249      0.00000
    242       7.0298      0.00000
    243       7.1283      0.00000
    244       7.1668      0.00000
    245       7.2368      0.00000
    246       7.3258      0.00000
    247       7.3602      0.00000
    248       7.5044      0.00000
    249       7.5584      0.00000
    250       7.7270      0.00000
    251       7.8003      0.00000
    252       7.9514      0.00000

 soft charge-density along one line, spin component           1
         0         1         2         3         4         5         6         7         8         9
 total charge-density along one line

------------------------ aborting loop because EDIFF is reached ----------------------------------------

 total charge

# of ion       s       p       d       tot
    1        0.449   0.283   9.190   9.923
    2        0.450   0.284   9.187   9.921
    3        0.450   0.284   9.187   9.921
    4        0.450   0.284   9.187   9.921
    5        0.449   0.286   9.184   9.919
    6        0.450   0.284   9.187   9.921
    7        0.450   0.284   9.187   9.921
    8        0.450   0.284   9.187   9.921
    9        0.446   0.284   9.186   9.915
   10        0.444   0.372   9.178   9.993
   11        0.442   0.370   9.182   9.994
   12        0.444   0.372   9.178   9.993
   13        0.442   0.370   9.182   9.994
   14        0.442   0.370   9.182   9.994
   15        0.439   0.367   9.184   9.989
   16        0.444   0.372   9.178   9.993
   17        0.439   0.367   9.184   9.989
   18        0.439   0.367   9.184   9.989
   19        0.440   0.371   9.181   9.992
   20        0.457   0.395   9.169  10.022
   21        0.457   0.395   9.169  10.022
   22        0.434   0.367   9.187   9.988
   23        0.457   0.395   9.169  10.022
   24        0.434   0.367   9.187   9.988
   25        0.440   0.371   9.181   9.992
   26        0.440   0.371   9.181   9.992
   27        0.434   0.367   9.187   9.988
   28        0.455   0.287   9.194   9.936
   29        0.440   0.301   9.192   9.933
   30        0.440   0.301   9.192   9.933
   31        0.440   0.301   9.192   9.933
   32        0.440   0.301   9.192   9.933
   33        0.440   0.301   9.192   9.933
   34        0.440   0.301   9.192   9.933
   35        0.447   0.291   9.190   9.928
   36        0.749   0.722   7.008   8.478
   37        1.605   3.224   0.000   4.829
tot         17.900  15.619 328.469 361.987

  FORCE on cell =-STRESS in cart. coord.  units (eV):
  Direction    XX          YY          ZZ          XY          YZ          ZX
  Alpha Z   907.27874   907.27874   907.27874
  Ewald  173474.63803173474.63759************     0.00040     0.00012     0.00018
  Hartree186560.10345186560.10342************     0.00004     0.00006     0.00007
  E(xc)   -2318.06596 -2318.06550 -2321.97270    -0.00040    -0.00004    -0.00006
  Local  ************************373332.22533     0.01871    -0.00059    -0.00099
  n-local  -792.12741  -775.90689  -794.72013     8.77387     0.03179     0.30957
  augment  3352.98974  3353.01002  3366.95696    -0.01757     0.00024     0.00041
  Kinetic  3378.68902  3382.68085  3387.57820     3.09451     1.79324    -1.11549
  Fock        0.00000     0.00000     0.00000     0.00000     0.00000     0.00000
  Total      -2.39528    -2.39528     2.95471     0.00000    -0.00000    -0.00000
  in kB      -3.51443    -3.51443     4.33525     0.00000    -0.00000    -0.00000

 VOLUME and BASIS-vectors are now :
  energy-cutoff  :      500.00
  volume of cell :     1091.97
      direct lattice vectors                 reciprocal lattice vectors
     7.696786404  0.000000000  0.000000000     0.129924354 -0.075011849  0.000000000
     3.848392758  6.665612809  0.000000000     0.000000000  0.150023716  0.000000000
     0.000000000  0.000000000 21.284399033     0.000000000  0.000000000  0.046982769

  length of vectors
     7.696786404  7.696786404 21.284399033     0.150023716  0.150023716  0.046982769

 FORCES acting on ions
    electron-ion (+dipol)            ewald-force                    non-local-force                 convergence-correction
   -.416E-04 0.152E-06 0.350E+04   0.580E-04 -.438E-05 -.349E+04   -.352E-17 -.311E-17 -.290E+01   -.335E-03 -.161E-03 -.546E+00
   -.185E+00 0.177E+00 0.350E+04   -.144E-01 -.117E+00 -.349E+04   0.700E-01 0.802E-01 -.184E+01   0.129E+00 -.115E+00 -.452E+00
   0.185E+00 0.177E+00 0.350E+04   0.143E-01 -.117E+00 -.349E+04   -.700E-01 0.802E-01 -.184E+01   -.128E+00 -.113E+00 -.451E+00
   0.609E-01 -.249E+00 0.350E+04   -.109E+00 0.461E-01 -.349E+04   0.104E+00 0.205E-01 -.184E+01   -.351E-01 0.169E+00 -.452E+00
   -.654E-04 -.557E-05 0.350E+04   0.116E-03 -.101E-04 -.349E+04   0.189E-18 -.323E-18 -.174E+01   0.122E-01 0.749E-02 -.473E+00
   -.608E-01 -.249E+00 0.350E+04   0.109E+00 0.460E-01 -.349E+04   -.104E+00 0.205E-01 -.184E+01   0.334E-01 0.171E+00 -.451E+00
   0.246E+00 0.717E-01 0.350E+04   -.943E-01 0.710E-01 -.349E+04   0.345E-01 -.101E+00 -.184E+01   -.162E+00 -.549E-01 -.451E+00
   -.246E+00 0.717E-01 0.350E+04   0.940E-01 0.710E-01 -.349E+04   -.345E-01 -.101E+00 -.184E+01   0.165E+00 -.564E-01 -.451E+00
   -.144E-03 -.329E-04 0.350E+04   0.263E-03 0.206E-04 -.349E+04   -.155E-17 -.122E-17 -.237E+01   -.133E-01 -.685E-02 -.431E+00
   0.358E+01 0.207E+01 0.120E+04   -.305E+01 -.176E+01 -.120E+04   -.556E+00 -.321E+00 -.124E+01   0.182E-01 0.105E-01 0.181E+00
   -.912E-04 0.654E+00 0.119E+04   0.191E-03 -.670E+00 -.119E+04   -.110E-07 0.166E+00 -.349E+00   0.118E-01 -.183E+00 0.140E+00
   -.358E+01 0.207E+01 0.120E+04   0.305E+01 -.176E+01 -.120E+04   0.556E+00 -.321E+00 -.124E+01   -.202E-01 0.126E-01 0.182E+00
   0.566E+00 -.327E+00 0.119E+04   -.580E+00 0.335E+00 -.119E+04   0.143E+00 -.828E-01 -.349E+00   -.152E+00 0.102E+00 0.140E+00
   -.566E+00 -.327E+00 0.119E+04   0.580E+00 0.335E+00 -.119E+04   -.143E+00 -.828E-01 -.349E+00   0.176E+00 0.101E+00 0.140E+00
   -.143E-03 -.161E+00 0.120E+04   0.299E-03 -.131E+00 -.120E+04   -.912E-08 0.137E+00 -.855E+00   -.407E-02 0.134E+00 0.767E-01
   -.917E-04 -.414E+01 0.120E+04   0.186E-03 0.352E+01 -.120E+04   -.428E-07 0.642E+00 -.124E+01   -.147E-03 -.250E-01 0.182E+00
   -.139E+00 0.803E-01 0.120E+04   -.114E+00 0.658E-01 -.120E+04   0.119E+00 -.684E-01 -.855E+00   0.115E+00 -.705E-01 0.766E-01
   0.139E+00 0.803E-01 0.120E+04   0.113E+00 0.658E-01 -.120E+04   -.119E+00 -.684E-01 -.855E+00   -.114E+00 -.674E-01 0.772E-01
   -.541E-04 0.984E+00 -.113E+04   0.680E-04 -.116E+01 0.113E+04   -.599E-08 0.900E-01 0.803E+00   -.253E-02 0.454E-01 0.673E+00
   -.190E+02 -.110E+02 -.112E+04   0.202E+02 0.117E+02 0.112E+04   -.117E+01 -.674E+00 -.491E+00   0.420E-01 0.241E-01 0.867E+00
   0.190E+02 -.110E+02 -.112E+04   -.202E+02 0.117E+02 0.112E+04   0.117E+01 -.674E+00 -.491E+00   -.179E-01 0.256E-01 0.866E+00
   -.135E+02 0.781E+01 -.113E+04   0.130E+02 -.748E+01 0.113E+04   0.636E+00 -.367E+00 0.114E+01   -.382E-01 0.209E-01 0.762E+00
   -.843E-04 0.220E+02 -.112E+04   0.145E-03 -.233E+02 0.112E+04   -.898E-07 0.135E+01 -.491E+00   0.120E-01 -.295E-01 0.866E+00
   0.135E+02 0.781E+01 -.113E+04   -.130E+02 -.748E+01 0.113E+04   -.636E+00 -.367E+00 0.114E+01   0.355E-01 0.196E-01 0.762E+00
   -.852E+00 -.492E+00 -.113E+04   0.100E+01 0.580E+00 0.113E+04   -.779E-01 -.450E-01 0.803E+00   -.378E-01 -.218E-01 0.673E+00
   0.852E+00 -.492E+00 -.113E+04   -.100E+01 0.580E+00 0.113E+04   0.779E-01 -.450E-01 0.803E+00   0.384E-01 -.247E-01 0.673E+00
   -.119E-03 -.156E+02 -.113E+04   0.244E-03 0.150E+02 0.113E+04   -.489E-07 0.735E+00 0.114E+01   -.991E-03 -.436E-01 0.762E+00
   -.418E-04 0.137E-04 -.342E+04   0.367E-04 -.337E-04 0.341E+04   -.460E-17 -.461E-17 0.190E+01   -.310E-03 -.128E-03 0.736E+00
   -.287E+01 0.826E-01 -.341E+04   0.202E+01 -.204E+01 0.341E+04   0.581E+00 0.150E+01 0.246E+01   0.916E-01 0.109E+00 0.743E+00
   0.287E+01 0.827E-01 -.341E+04   -.202E+01 -.204E+01 0.341E+04   -.581E+00 0.150E+01 0.246E+01   -.906E-01 0.111E+00 0.743E+00
   -.136E+01 -.253E+01 -.341E+04   -.751E+00 0.277E+01 0.341E+04   0.159E+01 -.246E+00 0.246E+01   0.140E+00 0.250E-01 0.743E+00
   0.136E+01 -.253E+01 -.341E+04   0.751E+00 0.277E+01 0.341E+04   -.159E+01 -.246E+00 0.246E+01   -.142E+00 0.260E-01 0.742E+00
   0.151E+01 0.245E+01 -.341E+04   -.277E+01 -.735E+00 0.341E+04   0.101E+01 -.125E+01 0.246E+01   0.510E-01 -.134E+00 0.743E+00
   -.151E+01 0.245E+01 -.341E+04   0.277E+01 -.735E+00 0.341E+04   -.101E+01 -.125E+01 0.246E+01   -.476E-01 -.136E+00 0.742E+00
   -.162E-03 -.323E-04 -.342E+04   0.256E-03 0.434E-05 0.342E+04   -.847E-18 0.697E-18 0.222E+01   -.133E-01 -.686E-02 0.637E+00
   -.497E-04 -.324E-04 -.256E+04   0.113E-03 0.218E-04 0.256E+04   0.160E-17 0.601E-18 0.158E+01   0.247E-02 0.147E-02 0.793E+00
   0.171E-03 -.858E-04 -.220E+04   0.169E-04 0.783E-05 0.223E+04   0.115E-17 0.999E-18 -.298E+02   0.320E-02 0.194E-02 0.606E-01
   -.112E-03 -.111E-03 0.198E+02   0.197E-13 0.393E-12 0.000E+00   -.886E-15 0.446E-15 -.304E+02   0.575E-01 0.302E-01 0.106E+02

 POSITION                                       TOTAL-FORCE (eV/Angst)
      0.00000      0.00000      5.37156        -0.000000     -0.000000     -0.001656
      2.56560      0.00000      5.37156         0.000033      0.026155      0.059392
      5.13119      0.00000      5.37156        -0.000033      0.026155      0.059392
      1.28280      2.22187      5.37156         0.022667     -0.013049      0.059392
      3.84839      2.22187      5.37156        -0.000000     -0.000000      0.043299
      6.41399      2.22187      5.37156        -0.022667     -0.013049      0.059392
      2.56560      4.44374      5.37156         0.022634     -0.013106      0.059392
      5.13119      4.44374      5.37156        -0.022634     -0.013106      0.059392
      7.69679      4.44374      5.37156        -0.000000     -0.000000      0.019652
      1.28280      0.74062      7.46636        -0.000635     -0.000366     -0.050735
      3.84839      0.74062      7.46636         0.000000     -0.039733     -0.060007
      6.41399      0.74062      7.46636         0.000635     -0.000366     -0.050735
      2.56560      2.96249      7.46636        -0.034410      0.019867     -0.060007
      5.13119      2.96249      7.46636         0.034410      0.019867     -0.060007
      7.69679      2.96249      7.46636         0.000000     -0.021549     -0.010232
      3.84839      5.18437      7.46636        -0.000000      0.000733     -0.050735
      6.41399      5.18437      7.46636        -0.018662      0.010774     -0.010232
      8.97958      5.18437      7.46636         0.018662      0.010774     -0.010232
      7.69679      1.48769      9.56171         0.000000     -0.041268     -0.042201
      2.55203      1.47342      9.53141         0.034850      0.020121     -0.177572
      5.14476      1.47342      9.53141        -0.034850      0.020121     -0.177572
      8.97489      3.70583      9.56026         0.037898     -0.021880     -0.032675
      3.84839      3.71878      9.53141         0.000000     -0.040241     -0.177572
      6.41868      3.70583      9.56026        -0.037898     -0.021880     -0.032675
     10.25680      5.92177      9.56171         0.035739      0.020634     -0.042201
      5.13677      5.92177      9.56171        -0.035739      0.020634     -0.042201
      7.69679      5.91957      9.56026        -0.000000      0.043761     -0.032675
      0.00000      0.00000     11.63002        -0.000000     -0.000000      0.018122
      6.40663      6.66047     11.66109        -0.175061     -0.344219     -0.167706
      8.98694      6.66047     11.66109         0.175061     -0.344219     -0.167706
      8.97145      2.21807     11.66109        -0.385633      0.020502     -0.167706
      6.42212      2.21807     11.66109         0.385633      0.020502     -0.167706
     10.26160      4.45269     11.66109        -0.210572      0.323717     -0.167706
      5.13197      4.45269     11.66109         0.210572      0.323717     -0.167706
      7.69679      4.44374     11.62915        -0.000000     -0.000000      0.053728
      3.84839      2.22187     11.60012        -0.000000     -0.000000      1.650257
      3.84839      2.22187     13.41122        -0.000000     -0.000000     -0.013257
    total drift:                                0.057372      0.030099      0.049175

  FREE ENERGIE OF THE ION-ELECTRON SYSTEM (eV)
  free  energy   TOTEN  =      -136.28393914 eV

  energy  without entropy=     -136.28393914  energy(sigma->0) =     -136.28393914

 stress matrix after NEB project (eV)
     -2.39528      0.00000     -0.00000
      0.00000     -2.39528     -0.00000
     -0.00000     -0.00000      2.95471
  FORCES: max atom, RMS     0.013257    0.002179
  FORCE total and by dimension    0.013257    0.013257
  Stress total and by dimension    4.494997    2.954706
|           W    W    AA    RRRRR   N    N  II  N    N   GGGG   !!!           |
|           W    W   A  A   R    R  NN   N  II  NN   N  G    G  !!!           |
|           W    W  A    A  R    R  N N  N  II  N N  N  G       !!!           |
|           W WW W  AAAAAA  RRRRR   N  N N  II  N  N N  G  GGG   !            |
|           WW  WW  A    A  R   R   N   NN  II  N   NN  G    G                |
|           W    W  A    A  R    R  N    N  II  N    N   GGGG   !!!           |
|     Tetrahedron method does not include variations of the Fermi             |
|     occupations, so forces and stress will be inaccurate. We suggest        |
|     using a different smearing scheme ISMEAR = 1 or 2 for metals in         |
|     relaxations.                                                            |

 total charge

# of ion       s       p       d       tot
    1        0.449   0.283   9.190   9.923
    2        0.450   0.284   9.187   9.921
    3        0.450   0.284   9.187   9.921
    4        0.450   0.284   9.187   9.921
    5        0.449   0.286   9.184   9.919
    6        0.450   0.284   9.187   9.921
    7        0.450   0.284   9.187   9.921
    8        0.450   0.284   9.187   9.921
    9        0.446   0.284   9.186   9.915
   10        0.444   0.372   9.178   9.993
   11        0.442   0.370   9.182   9.994
   12        0.444   0.372   9.178   9.993
   13        0.442   0.370   9.182   9.994
   14        0.442   0.370   9.182   9.994
   15        0.439   0.367   9.184   9.989
   16        0.444   0.372   9.178   9.993
   17        0.439   0.367   9.184   9.989
   18        0.439   0.367   9.184   9.989
   19        0.440   0.371   9.181   9.992
   20        0.457   0.395   9.169  10.022
   21        0.457   0.395   9.169  10.022
   22        0.434   0.367   9.187   9.988
   23        0.457   0.395   9.169  10.022
   24        0.434   0.367   9.187   9.988
   25        0.440   0.371   9.181   9.992
   26        0.440   0.371   9.181   9.992
   27        0.434   0.367   9.187   9.988
   28        0.455   0.287   9.194   9.936
   29        0.440   0.301   9.192   9.933
   30        0.440   0.301   9.192   9.933
   31        0.440   0.301   9.192   9.933
   32        0.440   0.301   9.192   9.933
   33        0.440   0.301   9.192   9.933
   34        0.440   0.301   9.192   9.933
   35        0.447   0.291   9.190   9.928
   36        0.749   0.722   7.008   8.478
   37        1.605   3.224   0.000   4.829
tot         17.900  15.619 328.469 361.987

 BZINTS: Fermi energy:    0.022912;  400.000000 electrons
         Band energy:-0.116118E+04;  BLOECHL correction:   -0.042134