 vasp.6.2.0 18Jan21 (build Jun 12 2021 23:27:24) complex

 executed on             LinuxIFC date 2022.05.28  02:47:07

 INCAR:
   ISMEAR = -5
   SIGMA = 0.1
   ISPIN = 1
   EDIFF = 1.d-5
   EDIFFG = -0.01
   NSW = 0
   NELM = 150
   ENCUT = 500
   ISIF = 2
   IBRION = 2
   LREAL = Auto
   ALGO = Fast
   ICHARG = 11
   LORBIT = 10
   LCHARG = .F.
   LWAVE = .F.

 POTCAR:    PAW_PBE Cu 22Jun2005
 POTCAR:    PAW_PBE W 08Apr2002
 POTCAR:    PAW_PBE H 15Jun2001
 POTCAR:    PAW_PBE O 08Apr2002
|           W    W    AA    RRRRR   N    N  II  N    N   GGGG   !!!           |
|           W    W   A  A   R    R  NN   N  II  NN   N  G    G  !!!           |
|           W    W  A    A  R    R  N N  N  II  N N  N  G       !!!           |
|           W WW W  AAAAAA  RRRRR   N  N N  II  N  N N  G  GGG   !            |
|           WW  WW  A    A  R   R   N   NN  II  N   NN  G    G                |
|           W    W  A    A  R    R  N    N  II  N    N   GGGG   !!!           |
|     For optimal performance we recommend to set                             |
|       NCORE = 2 up to number-of-cores-per-socket                            |
|     This setting can greatly improve the performance of VASP for DFT.       |
|     The default, NCORE=1 might be grossly inefficient on modern             |
|     multi-core architectures or massively parallel machines. Do your        |
|     Unfortunately you need to use the default for GW and RPA                |
|     calculations (for HF NCORE is supported but not extensively tested      |
|     yet).                                                                   |

 POTCAR:    PAW_PBE Cu 22Jun2005
   VRHFIN =Cu: d10 p1

   TITEL  = PAW_PBE Cu 22Jun2005
   POMASS =   63.546; ZVAL   =   11.000    mass and valenz
   ENMAX  =  295.446; ENMIN  =  221.585 eV

 POTCAR:    PAW_PBE W 08Apr2002
   VRHFIN =W : 6s5d

   TITEL  = PAW_PBE W 08Apr2002
   POMASS =  183.850; ZVAL   =    6.000    mass and valenz
   ENMAX  =  223.057; ENMIN  =  167.293 eV

 POTCAR:    PAW_PBE H 15Jun2001
   VRHFIN =H: ultrasoft test

   TITEL  = PAW_PBE H 15Jun2001
   POMASS =    1.000; ZVAL   =    1.000    mass and valenz
   ENMAX  =  250.000; ENMIN  =  200.000 eV

 POTCAR:    PAW_PBE O 08Apr2002
   VRHFIN =O: s2p4

   TITEL  = PAW_PBE O 08Apr2002
   POMASS =   16.000; ZVAL   =    6.000    mass and valenz
   ENMAX  =  400.000; ENMIN  =  300.000 eV

 Optimization of the real space projectors (new method)

 maximal supplied QI-value         = 16.25
 optimisation between [QCUT,QGAM] = [ 11.38, 22.75] = [ 36.24,144.96] Ry
 Optimized for a Real-space Cutoff    1.52 Angstroem

   l    n(q)    QCUT    max X(q) W(low)/X(q) W(high)/X(q)  e(spline)
   2      9    11.376     4.610    0.21E-03    0.10E-03    0.26E-06
   2      9    11.376     8.522    0.33E-03    0.16E-03    0.37E-06
   0     10    11.376    51.609    0.62E-04    0.20E-04    0.13E-06
   0     10    11.376    27.747    0.54E-04    0.20E-04    0.13E-06
   1     10    11.376    20.408    0.13E-04    0.99E-04    0.19E-06
   1     10    11.376    13.425    0.12E-04    0.87E-04    0.17E-06
 Optimization of the real space projectors (new method)

[...]

   l    n(q)    QCUT    max X(q) W(low)/X(q) W(high)/X(q)  e(spline)
   0      8    11.287    19.460    0.40E-03    0.73E-03    0.16E-06
   0      8    11.287    12.209    0.38E-03    0.70E-03    0.15E-06
   1      7    11.287     4.655    0.22E-03    0.25E-04    0.22E-06
 Optimization of the real space projectors (new method)

 maximal supplied QI-value         = 24.76
 optimisation between [QCUT,QGAM] = [ 11.39, 22.77] = [ 36.31,145.25] Ry
 Optimized for a Real-space Cutoff    1.00 Angstroem

   l    n(q)    QCUT    max X(q) W(low)/X(q) W(high)/X(q)  e(spline)
   0      7    11.387    20.381    0.39E-03    0.13E-02    0.15E-06
   0      7    11.387    15.268    0.42E-03    0.14E-02    0.17E-06
   1      6    11.387     5.964    0.41E-03    0.11E-02    0.17E-06
   1      6    11.387     5.382    0.39E-03    0.87E-03    0.15E-06
  PAW_PBE Cu 22Jun2005                  :
  PAW_PBE W 08Apr2002                   :
  PAW_PBE H 15Jun2001                   :
  PAW_PBE O 08Apr2002                   :

 POSCAR: Cu-W-H2O
  positions in direct lattice
  velocities in cartesian coordinates
 exchange correlation table for  LEXCH =        8
   RHO(1)=    0.500       N(1)  =     2000
   RHO(2)=  100.500       N(2)  =     4000

 VTST: version 3.2, (02/03/18)

 CHAIN: initializing optimizer

 OPT: Using VASP Conjugate-Gradient optimizer
 CHAIN: Read ICHAIN            0

 POSCAR: Cu-W-H2O
  positions in direct lattice
  velocities in cartesian coordinates

 ion  position               nearest neighbor table
   1  0.000  0.000  0.221-   7 2.57   3 2.57   4 2.57   2 2.57   6 2.57   8 2.57  12 2.57  10 2.57
                            16 2.57
   2  0.333  0.000  0.221-   8 2.57   9 2.57   5 2.57   1 2.57   3 2.57  11 2.57   4 2.57  10 2.57
                            17 2.57
   3  0.667  0.000  0.221-   1 2.57   7 2.57   6 2.57   9 2.57   2 2.57  12 2.57   5 2.57  18 2.57
                            11 2.57
   4  0.000  0.333  0.221-   5 2.57   6 2.57   1 2.57   7 2.57   2 2.57  13 2.57   9 2.57  10 2.57
                            15 2.57
   5  0.333  0.333  0.221-   4 2.57   2 2.57   7 2.57  13 2.57   8 2.57   6 2.57   3 2.57  11 2.57
                            14 2.57
   6  0.667  0.333  0.221-   4 2.57   9 2.57  15 2.57   3 2.57   1 2.57   8 2.57  14 2.57   5 2.57
                            12 2.57
   7  0.000  0.667  0.221-   1 2.57   3 2.57  16 2.57  18 2.57   4 2.57   5 2.57   8 2.57   9 2.57
                            13 2.57
   8  0.333  0.667  0.221-   9 2.57   2 2.57  17 2.57   6 2.57   1 2.57   7 2.57   5 2.57  14 2.57
                            16 2.57
   9  0.667  0.667  0.221-   8 2.57   6 2.57   2 2.57  17 2.57   3 2.57   7 2.57   4 2.57  15 2.57
                            18 2.57
  10  0.111  0.111  0.308-  20 2.54  11 2.57  12 2.57  13 2.57   1 2.57   2 2.57   4 2.57  15 2.57
                            16 2.57  17 2.57  26 2.57  19 2.57
  11  0.444  0.111  0.308-  20 2.55  21 2.55  10 2.57  13 2.57   2 2.57  17 2.57  14 2.57  12 2.57
                             5 2.57   3 2.57  18 2.57  27 2.58
  12  0.778  0.111  0.308-  21 2.54  15 2.57  10 2.57  14 2.57  18 2.57   3 2.57   1 2.57  16 2.57
                            11 2.57   6 2.57  19 2.57  25 2.57
  13  0.111  0.444  0.308-  23 2.55  20 2.55  16 2.57  18 2.57  10 2.57  11 2.57  14 2.57   5 2.57
                             4 2.57   7 2.57  15 2.57  22 2.58
  14  0.444  0.444  0.308-  21 2.55  23 2.55  15 2.57  17 2.57  12 2.57  16 2.57  13 2.57  11 2.57
                             6 2.57   8 2.57   5 2.57  24 2.58
  15  0.778  0.444  0.308-  19 2.57  14 2.57  17 2.57  12 2.57   6 2.57  18 2.57  10 2.57   9 2.57
                            13 2.57   4 2.57  24 2.57  22 2.57
  16  0.111  0.778  0.308-  23 2.54  18 2.57  13 2.57   7 2.57  14 2.57  17 2.57  12 2.57  10 2.57
                             8 2.57   1 2.57  25 2.57  26 2.57
  17  0.444  0.778  0.308-  26 2.57  14 2.57  15 2.57   8 2.57   9 2.57  11 2.57  16 2.57  18 2.57
                            10 2.57   2 2.57  27 2.57  24 2.57
  18  0.778  0.778  0.308-  25 2.57  16 2.57  13 2.57   7 2.57  15 2.57  12 2.57  17 2.57   9 2.57
                             3 2.57  11 2.57  22 2.57  27 2.57
  19  0.889  0.223  0.394-  21 2.55  20 2.55  22 2.56  24 2.56  15 2.57  12 2.57  10 2.57  25 2.57
                            26 2.57  28 2.57  32 2.60  31 2.60
  20  0.221  0.221  0.393-  10 2.54  36 2.54  11 2.55  13 2.55  26 2.55  19 2.55  27 2.57  22 2.57
                            23 2.59  21 2.59  29 2.62  31 2.62
  21  0.558  0.221  0.393-  12 2.54  36 2.54  14 2.55  11 2.55  19 2.55  25 2.55  24 2.57  27 2.57
                            20 2.59  23 2.59  32 2.62  30 2.62
  22  0.888  0.556  0.394-  24 2.56  27 2.56  19 2.56  25 2.56  35 2.56  23 2.57  20 2.57  18 2.57
                            15 2.57  13 2.58  31 2.59  33 2.59
  23  0.221  0.558  0.393-  16 2.54  36 2.54  13 2.55  14 2.55  25 2.55  26 2.55  22 2.57  24 2.57
                            20 2.59  21 2.59  33 2.62  34 2.62
  24  0.556  0.556  0.394-  22 2.56  27 2.56  19 2.56  26 2.56  35 2.56  21 2.57  23 2.57  15 2.57
                            17 2.57  14 2.58  32 2.59  34 2.59
  25  0.889  0.889  0.394-  21 2.55  23 2.55  22 2.56  27 2.56  18 2.57  16 2.57  12 2.57  19 2.57
                            26 2.57  28 2.57  33 2.60  30 2.60
  26  0.223  0.889  0.394-  20 2.55  23 2.55  27 2.56  24 2.56  17 2.57  10 2.57  16 2.57  25 2.57
                            19 2.57  28 2.57  29 2.60  34 2.60
  27  0.556  0.888  0.394-  24 2.56  22 2.56  26 2.56  25 2.56  35 2.56  20 2.57  21 2.57  17 2.57
                            18 2.57  11 2.58  29 2.59  30 2.59
  28  0.000  0.000  0.480-  33 2.56  30 2.56  31 2.56  29 2.56  32 2.56  34 2.56  25 2.57  19 2.57
                            26 2.57
  29  0.333  1.000  0.482-  34 2.56  28 2.56  35 2.57  31 2.57  36 2.57  30 2.57  27 2.59  26 2.60
                            20 2.62
  30  0.667  1.000  0.482-  33 2.56  28 2.56  35 2.57  32 2.57  36 2.57  29 2.57  27 2.59  25 2.60
                            21 2.62
  31  1.000  0.333  0.482-  32 2.56  28 2.56  35 2.57  29 2.57  36 2.57  33 2.57  22 2.59  19 2.60
                            20 2.62
  32  0.667  0.333  0.482-  31 2.56  28 2.56  35 2.57  30 2.57  36 2.57  34 2.57  24 2.59  19 2.60
                            21 2.62
  33  1.000  0.667  0.482-  30 2.56  28 2.56  35 2.57  34 2.57  36 2.57  31 2.57  22 2.59  25 2.60
                            23 2.62
  34  0.333  0.667  0.482-  29 2.56  28 2.56  35 2.57  33 2.57  36 2.57  32 2.57  24 2.59  26 2.60
                            23 2.62
  35  0.667  0.667  0.481-  24 2.56  27 2.56  22 2.56  34 2.57  32 2.57  29 2.57  30 2.57  33 2.57
                            31 2.57
  36  0.333  0.333  0.478-  39 2.31  23 2.54  20 2.54  21 2.54  31 2.57  29 2.57  33 2.57  34 2.57
                            32 2.57  30 2.57
  37  0.271  0.251  0.582-  39 0.98
  38  0.475  0.251  0.582-  39 0.98
  39  0.333  0.333  0.573-  37 0.98  38 0.98  36 2.31

  LATTYP: Found a hexagonal cell.
 ALAT       =     7.6967864036
 C/A-ratio  =     3.1535378041

  Lattice vectors:

 A1 = (  -3.8483927580,  -6.6656128093,   0.0000000000)
 A2 = (   7.6967864037,   0.0000000000,   0.0000000000)
 A3 = (   0.0000000000,   0.0000000000,  24.2721068937)

Analysis of symmetry for initial positions (statically):
 Subroutine PRICEL returns:
 Original cell was already a primitive cell.

 Routine SETGRP: Setting up the symmetry group for a
 hexagonal supercell.

 Subroutine GETGRP returns: Found  1 space group operations
 (whereof  1 operations were pure point group operations)
 out of a pool of 24 trial point group operations.

The static configuration has the point symmetry C_1 .

Analysis of symmetry for dynamics (positions and initial velocities):
 Subroutine PRICEL returns:
 Original cell was already a primitive cell.

[...]

The dynamic configuration has the point symmetry C_1 .

Analysis of constrained symmetry for selective dynamics:
 Subroutine PRICEL returns:
 Original cell was already a primitive cell.

[...]
     41      -3.9321      2.00000
     42      -3.9201      2.00000
     43      -3.8645      2.00000
     44      -3.8454      2.00000
     45      -3.8367      2.00000
     46      -3.8228      2.00000
     47      -3.8071      2.00000
     48      -3.7966      2.00000
     49      -3.7901      2.00000
     50      -3.6313      2.00000
     51      -3.6094      2.00000
     52      -3.5991      2.00000
     53      -3.5803      2.00000
     54      -3.5400      2.00000
     55      -3.5279      2.00000
     56      -3.5119      2.00000
     57      -3.5025      2.00000
     58      -3.4987      2.00000
     59      -3.4890      2.00000
     60      -3.4679      2.00000
[...]
    238       5.7588      0.00000
    239       5.8058      0.00000
    240       5.8200      0.00000
    241       5.9213      0.00000
    242       6.0351      0.00000
    243       6.1022      0.00000
    244       6.1523      0.00000
    245       6.2152      0.00000
    246       6.3775      0.00000
    247       6.6855      0.00000
    248       6.7607      0.00000
    249       7.0444      0.00000
    250       7.1694      0.00000
    251       7.3661      0.00000
    252       7.4740      0.00000

 soft charge-density along one line, spin component           1
         0         1         2         3         4         5         6         7         8         9
 total charge-density along one line

------------------------ aborting loop because EDIFF is reached ----------------------------------------

 total charge

# of ion       s       p       d       tot
    1        0.450   0.283   9.189   9.922
    2        0.447   0.286   9.185   9.918
    3        0.447   0.286   9.185   9.918
    4        0.447   0.286   9.185   9.919
    5        0.449   0.285   9.181   9.915
    6        0.447   0.286   9.185   9.918
    7        0.447   0.286   9.186   9.918
    8        0.447   0.286   9.186   9.918
    9        0.448   0.284   9.188   9.920
   10        0.445   0.372   9.174   9.991
   11        0.443   0.365   9.184   9.993
   12        0.445   0.372   9.174   9.991
   13        0.442   0.366   9.184   9.992
   14        0.442   0.366   9.184   9.992
   15        0.438   0.368   9.177   9.983
   16        0.445   0.372   9.174   9.991
   17        0.438   0.369   9.177   9.983
   18        0.438   0.369   9.177   9.983
   19        0.441   0.366   9.180   9.987
   20        0.473   0.411   9.147  10.031
   21        0.473   0.411   9.147  10.031
   22        0.428   0.369   9.182   9.979
   23        0.473   0.410   9.148  10.031
   24        0.428   0.369   9.182   9.979
   25        0.440   0.366   9.180   9.986
   26        0.440   0.366   9.181   9.987
   27        0.428   0.369   9.182   9.980
   28        0.445   0.294   9.175   9.914
   29        0.476   0.324   9.158   9.958
   30        0.476   0.324   9.158   9.958
   31        0.476   0.323   9.158   9.957
   32        0.476   0.323   9.158   9.957
   33        0.475   0.317   9.161   9.953
   34        0.475   0.317   9.160   9.952
   35        0.438   0.297   9.179   9.914
   36        0.659   0.507   4.004   5.170
   37        0.602   0.118   0.000   0.720
   38        0.602   0.118   0.000   0.720
   39        1.567   3.611   0.000   5.178
tot         19.196  16.196 325.117 360.509

  FORCE on cell =-STRESS in cart. coord.  units (eV):
  Direction    XX          YY          ZZ          XY          YZ          ZX
  Alpha Z   793.49937   793.49937   793.49937
  Ewald  229275.95714229209.90913************     0.15999   -12.92015     1.23231
  Hartree242021.85075242010.10127************    -0.00138     5.28643     0.85311
  E(xc)   -2308.61619 -2308.80012 -2312.82022     0.00083    -0.04297     0.00098
  Local  ************************484258.01219    -0.07476     0.39358    -1.95086
  n-local  -793.41025  -793.95007  -806.43301    -0.00241    -0.04801    -0.00507
  augment  3318.61100  3319.74748  3344.61281    -0.02250     0.41343    -0.00709
  Kinetic  3337.31781  3355.41089  3392.63843    -0.05538     6.81661    -0.11245
  Fock        0.00000     0.00000     0.00000     0.00000     0.00000     0.00000
  Total      -7.53164    -7.61224    -0.46824     0.00438    -0.10109     0.01093
  in kB      -9.69043    -9.79413    -0.60245     0.00563    -0.13006     0.01406

 VOLUME and BASIS-vectors are now :
  energy-cutoff  :      500.00
  volume of cell :     1245.25
      direct lattice vectors                 reciprocal lattice vectors
     7.696786404  0.000000000  0.000000000     0.129924354 -0.075011849  0.000000000
     3.848392758  6.665612809  0.000000000     0.000000000  0.150023716  0.000000000
     0.000000000  0.000000000 24.272106894     0.000000000  0.000000000  0.041199555

  length of vectors
     7.696786404  7.696786404 24.272106894     0.150023716  0.150023716  0.041199555

 FORCES acting on ions
    electron-ion (+dipol)            ewald-force                    non-local-force                 convergence-correction
   0.526E-02 0.620E-02 0.376E+04   -.617E-03 -.899E-02 -.375E+04   -.534E-04 0.712E-02 -.262E+01   -.447E-02 -.263E-02 -.622E-01
   -.838E+00 -.432E+00 0.375E+04   0.454E+00 0.116E+00 -.375E+04   0.202E+00 0.253E+00 -.177E+01   0.181E+00 0.708E-01 -.112E+00
   0.833E+00 -.444E+00 0.375E+04   -.454E+00 0.117E+00 -.375E+04   -.202E+00 0.251E+00 -.177E+01   -.176E+00 0.843E-01 -.106E+00
   -.797E+00 -.491E+00 0.375E+04   0.335E+00 0.345E+00 -.375E+04   0.314E+00 0.222E-01 -.178E+01   0.154E+00 0.117E+00 -.109E+00
   -.166E-01 -.737E-01 0.375E+04   0.133E-02 0.148E-01 -.375E+04   -.102E-01 0.169E-01 -.123E+01   0.259E-01 0.361E-01 -.833E-02
   0.809E+00 -.493E+00 0.375E+04   -.336E+00 0.345E+00 -.375E+04   -.312E+00 0.210E-01 -.179E+01   -.167E+00 0.120E+00 -.102E+00
   -.415E-01 0.955E+00 0.375E+04   -.118E+00 -.461E+00 -.375E+04   0.158E+00 -.293E+00 -.184E+01   0.525E-02 -.200E+00 -.126E+00
   0.320E-01 0.965E+00 0.375E+04   0.118E+00 -.462E+00 -.375E+04   -.160E+00 -.292E+00 -.184E+01   0.646E-02 -.210E+00 -.125E+00
   0.143E-01 0.206E-01 0.375E+04   -.263E-03 -.563E-02 -.375E+04   0.995E-02 -.164E-02 -.226E+01   -.244E-01 -.150E-01 -.136E+00
   -.212E+00 -.122E+00 0.127E+04   0.770E+00 0.449E+00 -.127E+04   -.585E+00 -.345E+00 -.113E+01   0.318E-02 0.541E-02 -.299E+00
   -.266E-01 -.198E+01 0.126E+04   0.736E-02 0.163E+01 -.126E+04   -.873E-02 0.212E+00 0.394E-01   0.286E-01 0.874E-01 -.329E+00
   0.234E+00 -.133E+00 0.127E+04   -.777E+00 0.455E+00 -.127E+04   0.586E+00 -.346E+00 -.113E+01   -.187E-01 0.128E-01 -.293E+00
   -.174E+01 0.905E+00 0.126E+04   0.141E+01 -.720E+00 -.126E+04   0.209E+00 -.125E+00 0.359E-01   0.789E-01 -.321E-01 -.350E+00
   0.171E+01 0.916E+00 0.126E+04   -.140E+01 -.724E+00 -.126E+04   -.226E+00 -.124E+00 0.350E-01   -.357E-01 -.419E-01 -.354E+00
   0.217E-01 -.195E+01 0.126E+04   -.756E-02 0.160E+01 -.126E+04   0.277E-02 0.191E+00 -.962E+00   -.167E-01 0.133E+00 -.326E+00
   0.362E-03 0.333E+00 0.127E+04   0.114E-02 -.990E+00 -.127E+04   0.702E-03 0.686E+00 -.111E+01   -.238E-02 -.670E-03 -.309E+00
   -.157E+01 0.103E+01 0.126E+04   0.131E+01 -.852E+00 -.126E+04   0.134E+00 -.815E-01 -.964E+00   0.103E+00 -.797E-01 -.327E+00
   0.157E+01 0.100E+01 0.126E+04   -.131E+01 -.844E+00 -.126E+04   -.136E+00 -.842E-01 -.965E+00   -.999E-01 -.609E-01 -.316E+00
   0.773E-01 -.591E+01 -.123E+04   -.570E-01 0.595E+01 0.123E+04   0.889E-02 0.755E-02 0.853E+00   -.294E-01 -.620E-01 0.851E-01
   -.459E+02 -.270E+02 -.126E+04   0.474E+02 0.279E+02 0.126E+04   -.143E+01 -.801E+00 -.137E+01   -.252E-01 -.180E-01 -.388E-01
   0.459E+02 -.271E+02 -.126E+04   -.473E+02 0.279E+02 0.126E+04   0.143E+01 -.801E+00 -.137E+01   0.423E-01 -.241E-01 -.440E-01
   -.265E+02 0.150E+02 -.124E+04   0.258E+02 -.147E+02 0.124E+04   0.695E+00 -.406E+00 0.628E+00   0.134E-01 0.150E-01 -.103E+00
   -.478E-01 0.528E+02 -.126E+04   0.461E-01 -.545E+02 0.126E+04   -.166E-02 0.172E+01 -.126E+01   0.339E-02 0.352E-01 -.769E-01
   0.266E+02 0.151E+02 -.124E+04   -.259E+02 -.147E+02 0.124E+04   -.694E+00 -.404E+00 0.626E+00   -.173E-01 -.270E-02 -.104E+00
   0.473E+01 0.343E+01 -.123E+04   -.473E+01 -.342E+01 0.123E+04   0.178E-01 -.296E-01 0.990E+00   0.175E-02 0.306E-01 0.802E-01
   -.469E+01 0.350E+01 -.123E+04   0.472E+01 -.348E+01 0.123E+04   -.993E-03 -.287E-01 0.988E+00   -.429E-01 0.188E-01 0.831E-01
   -.345E-01 -.299E+02 -.124E+04   0.161E-01 0.291E+02 0.124E+04   -.928E-02 0.828E+00 0.588E+00   0.279E-01 0.197E-01 -.972E-01
   0.162E+00 0.223E+01 -.364E+04   -.159E+00 -.233E+01 0.364E+04   0.131E-02 0.878E-01 0.162E+01   -.481E-02 0.160E-01 0.150E+00
   -.260E+02 -.456E+02 -.364E+04   0.267E+02 0.464E+02 0.363E+04   -.771E+00 -.926E+00 0.824E-01   -.500E-01 -.161E-01 0.220E+00
   0.258E+02 -.461E+02 -.364E+04   -.266E+02 0.469E+02 0.364E+04   0.772E+00 -.928E+00 0.813E-01   0.558E-01 -.106E-01 0.210E+00
   -.553E+02 -.259E+01 -.364E+04   0.566E+02 0.287E+01 0.364E+04   -.132E+01 -.240E+00 0.580E-01   -.603E-01 -.404E-01 0.210E+00
   0.560E+02 -.253E+01 -.364E+04   -.573E+02 0.282E+01 0.364E+04   0.132E+01 -.239E+00 0.540E-01   0.546E-01 -.400E-01 0.202E+00
   -.311E+02 0.503E+02 -.364E+04   0.314E+02 -.514E+02 0.364E+04   -.365E+00 0.111E+01 0.562E+00   -.647E-02 0.709E-01 0.215E+00
   0.310E+02 0.508E+02 -.364E+04   -.313E+02 -.518E+02 0.364E+04   0.365E+00 0.111E+01 0.552E+00   0.130E-01 0.635E-01 0.216E+00
   0.125E+00 0.136E+01 -.366E+04   -.115E+00 -.134E+01 0.365E+04   0.879E-02 -.169E-02 0.235E+01   -.194E-01 -.182E-01 0.304E+00
   -.399E+00 -.413E+01 -.187E+04   0.398E+00 0.410E+01 0.186E+04   -.565E-02 0.209E-01 0.282E+01   0.328E-02 -.146E-01 0.789E-01
   0.674E+02 0.430E+02 -.382E+03   -.742E+02 -.474E+02 0.384E+03   0.679E+01 0.438E+01 -.179E+01   -.503E-02 -.404E-02 0.770E-02
   -.674E+02 0.429E+02 -.382E+03   0.742E+02 -.472E+02 0.384E+03   -.678E+01 0.437E+01 -.186E+01   0.504E-02 -.408E-02 0.773E-02
   -.347E+00 -.557E+02 -.220E+04   0.329E+00 0.985E+02 0.219E+04   0.234E-01 -.428E+02 0.711E+01   -.154E-02 -.100E-01 0.606E-01
   -.385E-01 0.340E+02 0.129E+02   -.142E-12 -.711E-13 -.100E-10   0.272E-01 -.340E+02 -.107E+02   -.177E-03 0.280E-01 -.212E+01

 POSITION                                       TOTAL-FORCE (eV/Angst)
      0.00000      0.00000      5.37156         0.000423      0.001642     -0.064101
      2.56560      0.00000      5.37156        -0.000978      0.008001      0.050775
      5.13119      0.00000      5.37156         0.001503      0.007911      0.050603
      1.28280      2.22187      5.37156         0.006023     -0.007582      0.052252
      3.84839      2.22187      5.37156         0.000725     -0.005995      0.045875
      6.41399      2.22187      5.37156        -0.005362     -0.007518      0.052207
      2.56560      4.44374      5.37156         0.003593      0.000900      0.057325
      5.13119      4.44374      5.37156        -0.003033      0.000925      0.057404
      7.69679      4.44374      5.37156        -0.000155     -0.001719      0.013868
      1.28280      0.74062      7.46636        -0.023390     -0.012132     -0.080598
      3.84839      0.74062      7.46636         0.000883     -0.054335     -0.071434
      6.41399      0.74062      7.46636         0.024096     -0.012342     -0.080974
      2.56560      2.96249      7.46636        -0.039247      0.027279     -0.069303
      5.13119      2.96249      7.46636         0.040817      0.027083     -0.069265
      7.69679      2.96249      7.46636         0.000483     -0.026311      0.002030
      3.84839      5.18437      7.46636         0.000127      0.028887     -0.082635
      6.41399      5.18437      7.46636        -0.022792      0.012258      0.010012
      8.97958      5.18437      7.46636         0.023655      0.012011      0.010049
      7.69679      1.48345      9.56239         0.000091     -0.016867     -0.001436
      2.55319      1.47409      9.53589        -0.014635     -0.003163     -0.073509
      5.14360      1.47409      9.53589         0.016256     -0.003349     -0.072713
      8.97438      3.70612      9.57309         0.023124     -0.018851     -0.008480
      3.84839      3.71744      9.53589         0.000367      0.043579     -0.062784
      6.41919      3.70612      9.57309        -0.023073     -0.018964     -0.008446
     10.26047      5.92389      9.56239         0.017627      0.011165      0.002536
      5.13310      5.92389      9.56239        -0.017831      0.011422      0.002442
      7.69679      5.91898      9.57309         0.000527      0.035173     -0.016836
      0.00000      0.00000     11.66245         0.000415      0.006396      0.015225
      6.40959      6.66262     11.69844        -0.051872     -0.095981     -0.101990
      8.98399      6.66262     11.69844         0.051882     -0.093371     -0.100321
      8.97479      2.21956     11.69844        -0.093873      0.006399     -0.086654
      6.41878      2.21956     11.69844         0.090188      0.006103     -0.083284
     10.26199      4.44905     11.69844        -0.082330      0.082672     -0.108307
      5.13158      4.44905     11.69844         0.082498      0.080799     -0.107403
      7.69679      4.44374     11.67118        -0.000184      0.001582      0.030098
      3.84839      2.22187     11.59207        -0.003093     -0.024215      0.915356
      3.05408      1.67403     14.11966        -0.001983     -0.003943     -0.002058
      4.62435      1.67595     14.12800        -0.005911      0.001288     -0.004305
      3.83965      2.21650     13.89976         0.004440     -0.006835     -0.011223
    total drift:                               -0.011558      0.002243      0.066058

  FREE ENERGIE OF THE ION-ELECTRON SYSTEM (eV)
  free  energy   TOTEN  =      -147.37098538 eV

  energy  without entropy=     -147.37098538  energy(sigma->0) =     -147.37098538

 stress matrix after NEB project (eV)
     -7.53164      0.00438      0.01093
      0.00438     -7.61224     -0.10109
      0.01093     -0.10109     -0.46824
  FORCES: max atom, RMS     0.013871    0.002637
  FORCE total and by dimension    0.016469    0.011223
  Stress total and by dimension   10.719689    7.612238
|           W    W    AA    RRRRR   N    N  II  N    N   GGGG   !!!           |
|           W    W   A  A   R    R  NN   N  II  NN   N  G    G  !!!           |
|           W    W  A    A  R    R  N N  N  II  N N  N  G       !!!           |
|           W WW W  AAAAAA  RRRRR   N  N N  II  N  N N  G  GGG   !            |
|           WW  WW  A    A  R   R   N   NN  II  N   NN  G    G                |
|           W    W  A    A  R    R  N    N  II  N    N   GGGG   !!!           |
|     Tetrahedron method does not include variations of the Fermi             |
|     occupations, so forces and stress will be inaccurate. We suggest        |
|     using a different smearing scheme ISMEAR = 1 or 2 for metals in         |
|     relaxations.                                                            |

 total charge

# of ion       s       p       d       tot
    1        0.450   0.283   9.189   9.922
    2        0.447   0.286   9.185   9.918
    3        0.447   0.286   9.185   9.918
    4        0.447   0.286   9.185   9.919
    5        0.449   0.285   9.181   9.915
    6        0.447   0.286   9.185   9.918
    7        0.447   0.286   9.186   9.918
    8        0.447   0.286   9.186   9.918
    9        0.448   0.284   9.188   9.920
   10        0.445   0.372   9.174   9.991
   11        0.443   0.365   9.184   9.993
   12        0.445   0.372   9.174   9.991
   13        0.442   0.366   9.184   9.992
   14        0.442   0.366   9.184   9.992
   15        0.438   0.368   9.177   9.983
   16        0.445   0.372   9.174   9.991
   17        0.438   0.369   9.177   9.983
   18        0.438   0.369   9.177   9.983
   19        0.441   0.366   9.180   9.987
   20        0.473   0.411   9.147  10.031
   21        0.473   0.411   9.147  10.031
   22        0.428   0.369   9.182   9.979
   23        0.473   0.410   9.148  10.031
   24        0.428   0.369   9.182   9.979
   25        0.440   0.366   9.180   9.986
   26        0.440   0.366   9.181   9.987
   27        0.428   0.369   9.182   9.980
   28        0.445   0.294   9.175   9.914
   29        0.476   0.324   9.158   9.958
   30        0.476   0.324   9.158   9.958
   31        0.476   0.323   9.158   9.957
   32        0.476   0.323   9.158   9.957
   33        0.475   0.317   9.161   9.953
   34        0.475   0.317   9.160   9.952
   35        0.438   0.297   9.179   9.914
   36        0.659   0.507   4.004   5.170
   37        0.602   0.118   0.000   0.720
   38        0.602   0.118   0.000   0.720
   39        1.567   3.611   0.000   5.178
tot         19.196  16.196 325.117 360.509

 BZINTS: Fermi energy:   -0.110783;  399.000000 electrons
         Band energy:-0.125205E+04;  BLOECHL correction:   -0.022870