 vasp.6.2.0 18Jan21 (build Jun 12 2021 23:27:24) complex

 executed on             LinuxIFC date 2022.05.28  01:18:55

 INCAR:
   ISMEAR = -5
   SIGMA = 0.1
   ISPIN = 1
   EDIFF = 1.d-5
   EDIFFG = -0.01
   NSW = 0
   NELM = 150
   ENCUT = 500
   ISIF = 2
   IBRION = 2
   LREAL = Auto
   ALGO = Fast
   ICHARG = 11
   LORBIT = 10
   LCHARG = .F.
   LWAVE = .F.

 POTCAR:    PAW_PBE Au 04Oct2007
 POTCAR:    PAW_PBE Ir 06Sep2000
 POTCAR:    PAW_PBE O 08Apr2002
 POTCAR:    PAW_PBE H 15Jun2001
|           W    W    AA    RRRRR   N    N  II  N    N   GGGG   !!!           |
|           W    W   A  A   R    R  NN   N  II  NN   N  G    G  !!!           |
|           W    W  A    A  R    R  N N  N  II  N N  N  G       !!!           |
|           W WW W  AAAAAA  RRRRR   N  N N  II  N  N N  G  GGG   !            |
|           WW  WW  A    A  R   R   N   NN  II  N   NN  G    G                |
|           W    W  A    A  R    R  N    N  II  N    N   GGGG   !!!           |
|     For optimal performance we recommend to set                             |
|       NCORE = 2 up to number-of-cores-per-socket                            |
|     This setting can greatly improve the performance of VASP for DFT.       |
|     The default, NCORE=1 might be grossly inefficient on modern             |
|     multi-core architectures or massively parallel machines. Do your        |
|     Unfortunately you need to use the default for GW and RPA                |
|     calculations (for HF NCORE is supported but not extensively tested      |
|     yet).                                                                   |

 POTCAR:    PAW_PBE Au 04Oct2007
   VRHFIN =Au: s1d10

   TITEL  = PAW_PBE Au 04Oct2007
   POMASS =  196.966; ZVAL   =   11.000    mass and valenz
   ENMAX  =  229.943; ENMIN  =  172.457 eV

 POTCAR:    PAW_PBE Ir 06Sep2000
   VRHFIN =Ir: s1d8

   TITEL  = PAW_PBE Ir 06Sep2000
   POMASS =  192.220; ZVAL   =    9.000    mass and valenz
   ENMAX  =  210.864; ENMIN  =  158.148 eV

 POTCAR:    PAW_PBE O 08Apr2002
   VRHFIN =O: s2p4

   TITEL  = PAW_PBE O 08Apr2002
   POMASS =   16.000; ZVAL   =    6.000    mass and valenz
   ENMAX  =  400.000; ENMIN  =  300.000 eV

 POTCAR:    PAW_PBE H 15Jun2001
   VRHFIN =H: ultrasoft test

   TITEL  = PAW_PBE H 15Jun2001
   POMASS =    1.000; ZVAL   =    1.000    mass and valenz
   ENMAX  =  250.000; ENMIN  =  200.000 eV

 Optimization of the real space projectors (new method)

 maximal supplied QI-value         = 15.12
 optimisation between [QCUT,QGAM] = [ 11.34, 22.83] = [ 36.00,145.93] Ry
 Optimized for a Real-space Cutoff    1.39 Angstroem

   l    n(q)    QCUT    max X(q) W(low)/X(q) W(high)/X(q)  e(spline)
   2      9    11.338    60.898    0.39E-03    0.42E-03    0.21E-06
   2      9    11.338    58.894    0.40E-03    0.42E-03    0.22E-06
   0      9    11.338   109.617    0.13E-03    0.20E-04    0.13E-06
   0      9    11.338    75.026    0.13E-03    0.20E-04    0.13E-06
   1      9    11.338    16.344    0.33E-04    0.24E-03    0.18E-06
   1      9    11.338    10.160    0.26E-04    0.19E-03    0.15E-06
 Optimization of the real space projectors (new method)

[...]

   l    n(q)    QCUT    max X(q) W(low)/X(q) W(high)/X(q)  e(spline)
   0      7    11.387    20.381    0.39E-03    0.13E-02    0.15E-06
   0      7    11.387    15.268    0.42E-03    0.14E-02    0.17E-06
   1      6    11.387     5.964    0.41E-03    0.11E-02    0.17E-06
   1      6    11.387     5.382    0.39E-03    0.87E-03    0.15E-06
 Optimization of the real space projectors (new method)

 maximal supplied QI-value         = 34.20
 optimisation between [QCUT,QGAM] = [ 11.29, 22.57] = [ 35.68,142.71] Ry
 Optimized for a Real-space Cutoff    1.16 Angstroem

   l    n(q)    QCUT    max X(q) W(low)/X(q) W(high)/X(q)  e(spline)
   0      8    11.287    19.460    0.40E-03    0.73E-03    0.16E-06
   0      8    11.287    12.209    0.38E-03    0.70E-03    0.15E-06
   1      7    11.287     4.655    0.22E-03    0.25E-04    0.22E-06
  PAW_PBE Au 04Oct2007                  :
  PAW_PBE Ir 06Sep2000                  :
  PAW_PBE O 08Apr2002                   :
  PAW_PBE H 15Jun2001                   :

 POSCAR: Au-Ir-OOH
  positions in direct lattice
  velocities in cartesian coordinates
 exchange correlation table for  LEXCH =        8
   RHO(1)=    0.500       N(1)  =     2000
   RHO(2)=  100.500       N(2)  =     4000

 VTST: version 3.2, (02/03/18)

 CHAIN: initializing optimizer

 OPT: Using VASP Conjugate-Gradient optimizer
 CHAIN: Read ICHAIN            0

 POSCAR: Au-Ir-OOH
  positions in direct lattice
  velocities in cartesian coordinates

 ion  position               nearest neighbor table
   1  0.000  0.000  0.204-  16 2.94  12 2.94   6 2.94   8 2.94   7 2.94   3 2.94  10 2.94   4 2.94
                             2 2.94
   2  0.333  0.000  0.204-   9 2.94  11 2.94  17 2.94  10 2.94   8 2.94   4 2.94   5 2.94   1 2.94
                             3 2.94
   3  0.667  0.000  0.204-   7 2.94  18 2.94  12 2.94   1 2.94  11 2.94   5 2.94   6 2.94   9 2.94
                             2 2.94
   4  0.000  0.333  0.204-  10 2.94   6 2.94   5 2.94  13 2.94   2 2.94  15 2.94   9 2.94   1 2.94
                             7 2.94
   5  0.333  0.333  0.204-  13 2.94   7 2.94  11 2.94   4 2.94   2 2.94  14 2.94   3 2.94   8 2.94
                             6 2.94
   6  0.667  0.333  0.204-  15 2.94  14 2.94   1 2.94  12 2.94   4 2.94   9 2.94   8 2.94   3 2.94
                             5 2.94
   7  0.000  0.667  0.204-  18 2.94   3 2.94  16 2.94   5 2.94   1 2.94  13 2.94   8 2.94   4 2.94
                             9 2.94
   8  0.333  0.667  0.204-   9 2.94  17 2.94   1 2.94   2 2.94  14 2.94  16 2.94   6 2.94   7 2.94
                             5 2.94
   9  0.667  0.667  0.204-   2 2.94   8 2.94  17 2.94   6 2.94  15 2.94   4 2.94   3 2.94  18 2.94
                             7 2.94
  10  0.111  0.111  0.296-  20 2.90  11 2.94  17 2.94   2 2.94   4 2.94   1 2.94  12 2.94  16 2.94
                            13 2.94  15 2.94  26 2.94  19 2.94
  11  0.444  0.111  0.296-  20 2.91  21 2.91  27 2.93  13 2.94   2 2.94  10 2.94  17 2.94   5 2.94
                             3 2.94  18 2.94  14 2.94  12 2.94
  12  0.778  0.111  0.296-  21 2.90  16 2.94  18 2.94   1 2.94  14 2.94  15 2.94   3 2.94   6 2.94
                            10 2.94  11 2.94  25 2.94  19 2.94
  13  0.111  0.444  0.296-  23 2.91  20 2.91  22 2.93   5 2.94  18 2.94  11 2.94   7 2.94   4 2.94
                            16 2.94  10 2.94  14 2.94  15 2.94
  14  0.444  0.444  0.296-  21 2.91  23 2.91  24 2.93  15 2.94   6 2.94  12 2.94   8 2.94  17 2.94
                             5 2.94  16 2.94  13 2.94  11 2.94
  15  0.778  0.444  0.296-  24 2.92  22 2.92  14 2.94   6 2.94  17 2.94  12 2.94   9 2.94   4 2.94
                            10 2.94  13 2.94  18 2.94  19 2.94
  16  0.111  0.778  0.296-  23 2.90  18 2.94  12 2.94   7 2.94   1 2.94   8 2.94  13 2.94  10 2.94
                            14 2.94  17 2.94  25 2.94  26 2.94
  17  0.444  0.778  0.296-  27 2.92  24 2.92   9 2.94  15 2.94   2 2.94  10 2.94  11 2.94   8 2.94
                            14 2.94  16 2.94  18 2.94  26 2.94
  18  0.778  0.778  0.296-  22 2.92  27 2.92  16 2.94   7 2.94  13 2.94  12 2.94   3 2.94  11 2.94
                             9 2.94  15 2.94  17 2.94  25 2.94
  19  0.889  0.223  0.389-  21 2.93  20 2.93  24 2.93  22 2.93  15 2.94  10 2.94  12 2.94  26 2.95
                            25 2.95  28 2.95  32 2.96  31 2.96
  20  0.222  0.222  0.387-  36 2.78  10 2.90  11 2.91  13 2.91  26 2.93  19 2.93  29 2.95  31 2.95
                            27 2.95  22 2.95  23 2.95  21 2.95
  21  0.557  0.222  0.387-  36 2.78  12 2.90  14 2.91  11 2.91  25 2.93  19 2.93  30 2.95  32 2.95
                            24 2.95  27 2.95  20 2.95  23 2.95
  22  0.887  0.557  0.388-  24 2.91  27 2.91  18 2.92  15 2.92  13 2.93  25 2.93  19 2.93  23 2.95
                            20 2.95  35 2.95  33 2.96  31 2.96
  23  0.222  0.557  0.387-  36 2.78  16 2.90  13 2.91  14 2.91  25 2.93  26 2.93  33 2.95  34 2.95
                            22 2.95  24 2.95  20 2.95  21 2.95
  24  0.557  0.557  0.388-  27 2.91  22 2.91  15 2.92  17 2.92  14 2.93  26 2.93  19 2.93  21 2.95
                            23 2.95  35 2.95  32 2.96  34 2.96
  25  0.889  0.889  0.389-  23 2.93  21 2.93  22 2.93  27 2.93  18 2.94  16 2.94  12 2.94  19 2.95
                            26 2.95  28 2.95  33 2.96  30 2.96
  26  0.223  0.889  0.389-  20 2.93  23 2.93  27 2.93  24 2.93  17 2.94  10 2.94  16 2.94  19 2.95
                            25 2.95  28 2.95  29 2.96  34 2.96
  27  0.557  0.887  0.388-  24 2.91  22 2.91  17 2.92  18 2.92  11 2.93  26 2.93  25 2.93  20 2.95
                            21 2.95  35 2.95  29 2.96  30 2.96
  28  0.000  0.000  0.482-  25 2.95  19 2.95  26 2.95  34 2.96  32 2.96  33 2.96  30 2.96  31 2.96
                            29 2.96
  29  0.333  0.005  0.482-  31 2.89  30 2.89  36 2.90  20 2.95  28 2.96  35 2.96  27 2.96  26 2.96
                            34 3.03
  30  0.661  0.005  0.482-  32 2.89  29 2.89  36 2.90  21 2.95  28 2.96  35 2.96  27 2.96  25 2.96
                            33 3.03
  31  0.005  0.333  0.482-  29 2.89  33 2.89  36 2.90  20 2.95  28 2.96  35 2.96  22 2.96  19 2.96
                            32 3.03
  32  0.661  0.333  0.482-  30 2.89  34 2.89  36 2.90  21 2.95  28 2.96  35 2.96  24 2.96  19 2.96
                            31 3.03
  33  0.005  0.661  0.482-  34 2.89  31 2.89  36 2.90  23 2.95  28 2.96  35 2.96  22 2.96  25 2.96
                            30 3.03
  34  0.333  0.661  0.482-  33 2.89  32 2.89  36 2.90  23 2.95  28 2.96  35 2.96  24 2.96  26 2.96
                            29 3.03
  35  0.667  0.667  0.482-  24 2.95  27 2.95  22 2.95  29 2.96  34 2.96  32 2.96  31 2.96  30 2.96
                            33 2.96
  36  0.333  0.333  0.472-  37 1.96  20 2.78  23 2.78  21 2.78  33 2.90  31 2.90  29 2.90  30 2.90
                            34 2.90  32 2.90
  37  0.322  0.340  0.548-  38 1.47  36 1.96
  38  0.479  0.207  0.575-  39 0.99  37 1.47
  39  0.548  0.268  0.577-  38 0.99

  LATTYP: Found a hexagonal cell.
 ALAT       =     8.8135128021
 C/A-ratio  =     2.9412617888

  Lattice vectors:

 A1 = (  -4.4067569092,  -7.6327256898,   0.0000000000)
 A2 = (   8.8135128021,   0.0000000000,   0.0000000000)
 A3 = (   0.0000000000,   0.0000000000,  25.9228484302)

Analysis of symmetry for initial positions (statically):
 Subroutine PRICEL returns:
 Original cell was already a primitive cell.

 Routine SETGRP: Setting up the symmetry group for a
 hexagonal supercell.

 Subroutine GETGRP returns: Found  1 space group operations
 (whereof  1 operations were pure point group operations)
 out of a pool of 24 trial point group operations.

The static configuration has the point symmetry C_1 .

Analysis of symmetry for dynamics (positions and initial velocities):
 Subroutine PRICEL returns:
 Original cell was already a primitive cell.

[...]

The dynamic configuration has the point symmetry C_1 .

Analysis of constrained symmetry for selective dynamics:
 Subroutine PRICEL returns:
[...]
     41      -5.4133      2.00000
     42      -5.3321      2.00000
     43      -5.3279      2.00000
     44      -5.2673      2.00000
     45      -5.2007      2.00000
     46      -5.1660      2.00000
     47      -5.1346      2.00000
     48      -5.1037      2.00000
     49      -5.0903      2.00000
     50      -5.0796      2.00000
     51      -4.9806      2.00000
     52      -4.9518      2.00000
     53      -4.9258      2.00000
     54      -4.9140      2.00000
     55      -4.9054      2.00000
     56      -4.9016      2.00000
     57      -4.8871      2.00000
     58      -4.8458      2.00000
     59      -4.8078      2.00000
     60      -4.7797      2.00000
[...]
    238       5.2467      0.00000
    239       5.3592      0.00000
    240       5.5121      0.00000
    241       5.6372      0.00000
    242       5.6525      0.00000
    243       5.7112      0.00000
    244       5.7380      0.00000
    245       5.8162      0.00000
    246       5.9839      0.00000
    247       5.9916      0.00000
    248       6.0435      0.00000
    249       6.1287      0.00000
    250       6.3460      0.00000
    251       6.4299      0.00000
    252       6.4486      0.00000

 soft charge-density along one line, spin component           1
         0         1         2         3         4         5         6         7         8         9
 total charge-density along one line

------------------------ aborting loop because EDIFF is reached ----------------------------------------

 total charge

# of ion       s       p       d       tot
    1        0.545   0.239   8.767   9.551
    2        0.544   0.240   8.764   9.549
    3        0.543   0.240   8.764   9.548
    4        0.544   0.241   8.764   9.548
    5        0.543   0.241   8.761   9.545
    6        0.544   0.241   8.764   9.548
    7        0.544   0.241   8.763   9.548
    8        0.543   0.241   8.762   9.547
    9        0.541   0.240   8.767   9.548
   10        0.525   0.309   8.767   9.601
   11        0.519   0.309   8.778   9.605
   12        0.520   0.309   8.769   9.599
   13        0.519   0.309   8.778   9.606
   14        0.519   0.309   8.777   9.605
   15        0.516   0.308   8.776   9.600
   16        0.523   0.309   8.768   9.600
   17        0.515   0.308   8.776   9.600
   18        0.516   0.308   8.777   9.601
   19        0.517   0.302   8.776   9.595
   20        0.545   0.333   8.746   9.624
   21        0.539   0.333   8.753   9.624
   22        0.510   0.307   8.778   9.595
   23        0.544   0.331   8.751   9.626
   24        0.511   0.306   8.779   9.597
   25        0.516   0.304   8.774   9.594
   26        0.517   0.302   8.775   9.594
   27        0.508   0.308   8.777   9.593
   28        0.539   0.229   8.769   9.538
   29        0.543   0.239   8.763   9.544
   30        0.536   0.244   8.759   9.538
   31        0.542   0.240   8.760   9.543
   32        0.555   0.246   8.757   9.558
   33        0.547   0.240   8.758   9.545
   34        0.543   0.241   8.760   9.544
   35        0.532   0.230   8.769   9.531
   36        0.575   0.472   6.959   8.006
   37        1.602   3.244   0.000   4.846
   38        1.595   3.373   0.000   4.968
   39        0.611   0.111   0.000   0.722
tot         22.990  16.878 313.806 353.674

  FORCE on cell =-STRESS in cart. coord.  units (eV):
  Direction    XX          YY          ZZ          XY          YZ          ZX
  Alpha Z   905.93186   905.93186   905.93186
  Ewald  176209.65757176195.64897************  -102.64588   -92.13148    85.24511
  Hartree184664.46658184675.25898************   -68.24322   -47.82932    40.94316
  E(xc)   -1830.86466 -1831.03335 -1837.40453    -0.02808    -0.18021     0.15895
  Local  ************************373065.68219   164.66001   127.42664  -113.64540
  n-local  -118.19145  -116.48048   -90.24659    -4.27737    -2.29378     1.69084
  augment  2419.71056  2419.81119  2432.60634     1.24167     1.49210    -1.26699
  Kinetic  5729.40676  5736.46379  5784.50663     9.15319    13.42577   -13.23360
  Fock        0.00000     0.00000     0.00000     0.00000     0.00000     0.00000
  Total     -21.25232   -21.19076     2.13376    -0.13968    -0.09029    -0.10794
  in kB     -19.52565   -19.46910     1.96040    -0.12833    -0.08295    -0.09917

 VOLUME and BASIS-vectors are now :
  energy-cutoff  :      500.00
  volume of cell :     1743.86
      direct lattice vectors                 reciprocal lattice vectors
     8.813512802  0.000000000  0.000000000     0.113462137 -0.065507406  0.000000000
     4.406756909  7.632725690  0.000000000     0.000000000  0.131014796  0.000000000
     0.000000000  0.000000000 25.922848430     0.000000000  0.000000000  0.038576008

  length of vectors
     8.813512802  8.813512802 25.922848430     0.131014796  0.131014796  0.038576008

 FORCES acting on ions
    electron-ion (+dipol)            ewald-force                    non-local-force                 convergence-correction
   -.615E-01 0.543E-01 0.280E+04   0.504E-01 -.315E-01 -.280E+04   0.613E-02 -.370E-03 -.846E+00   0.964E-02 -.227E-01 -.328E+00
   0.556E+00 0.319E+00 0.280E+04   -.627E+00 -.412E+00 -.280E+04   0.147E-01 0.644E-01 -.304E+00   0.478E-01 0.312E-01 -.383E+00
   -.489E+00 0.361E+00 0.280E+04   0.577E+00 -.449E+00 -.280E+04   -.270E-01 0.554E-01 -.376E+00   -.551E-01 0.488E-01 -.380E+00
   0.494E+00 0.248E+00 0.280E+04   -.617E+00 -.269E+00 -.280E+04   0.555E-01 -.156E-01 -.267E+00   0.740E-01 0.371E-01 -.402E+00
   0.765E-01 -.885E-01 0.280E+04   -.576E-01 0.653E-01 -.280E+04   -.321E-01 0.753E-02 -.298E+00   0.773E-02 0.202E-01 -.327E+00
   -.529E+00 0.164E+00 0.280E+04   0.675E+00 -.244E+00 -.280E+04   -.690E-01 0.295E-01 -.308E+00   -.835E-01 0.404E-01 -.376E+00
   -.296E-01 -.542E+00 0.280E+04   -.480E-01 0.656E+00 -.280E+04   0.552E-01 -.487E-01 -.287E+00   0.358E-01 -.757E-01 -.395E+00
   -.103E-02 -.557E+00 0.280E+04   0.410E-01 0.718E+00 -.280E+04   -.290E-01 -.823E-01 -.264E+00   -.238E-01 -.765E-01 -.394E+00
   0.275E-02 0.418E-01 0.280E+04   0.700E-02 -.331E-01 -.280E+04   -.194E-02 -.111E-01 -.518E+00   -.860E-02 -.161E-02 -.337E+00
   0.645E+01 0.374E+01 0.995E+03   -.604E+01 -.346E+01 -.994E+03   -.388E+00 -.239E+00 -.702E+00   -.192E-02 -.265E-01 -.257E+00
   0.431E+00 0.447E+01 0.100E+04   -.440E+00 -.459E+01 -.100E+04   -.317E-01 0.102E+00 -.357E+00   0.318E-01 -.258E-01 -.278E+00
   -.676E+01 0.375E+01 0.996E+03   0.648E+01 -.359E+01 -.995E+03   0.303E+00 -.179E+00 -.722E+00   -.405E-01 0.212E-01 -.260E+00
   0.406E+01 -.249E+01 0.100E+04   -.420E+01 0.253E+01 -.100E+04   0.106E+00 -.588E-01 -.280E+00   -.619E-02 0.341E-01 -.304E+00
   -.382E+01 -.282E+01 0.100E+04   0.388E+01 0.285E+01 -.100E+04   -.524E-01 -.276E-01 -.251E+00   0.389E-01 0.218E-01 -.282E+00
   -.337E+00 0.280E+01 0.996E+03   0.320E+00 -.293E+01 -.996E+03   0.315E-01 0.175E-01 -.416E+00   -.805E-02 0.716E-01 -.234E+00
   -.111E+00 -.713E+01 0.995E+03   0.101E+00 0.678E+01 -.994E+03   -.196E-01 0.372E+00 -.665E+00   0.156E-01 -.321E-01 -.265E+00
   0.276E+01 -.138E+01 0.996E+03   -.289E+01 0.142E+01 -.996E+03   0.491E-01 0.189E-01 -.447E+00   0.452E-01 -.337E-01 -.225E+00
   -.266E+01 -.946E+00 0.997E+03   0.279E+01 0.987E+00 -.996E+03   -.220E-01 0.135E-02 -.493E+00   -.595E-01 -.233E-01 -.235E+00
   -.314E+01 0.426E+01 -.849E+03   0.314E+01 -.446E+01 0.848E+03   -.691E-02 0.271E-01 0.538E+00   -.380E-02 0.132E+00 0.239E+00
   0.195E+02 0.788E+01 -.796E+03   -.185E+02 -.734E+01 0.796E+03   -.926E+00 -.525E+00 -.651E+00   0.600E-01 0.158E-01 0.383E+00
   -.162E+02 0.757E+01 -.789E+03   0.155E+02 -.704E+01 0.789E+03   0.667E+00 -.499E+00 -.555E+00   -.476E-01 0.206E-01 0.340E+00
   0.131E+01 -.397E+00 -.836E+03   -.166E+01 0.548E+00 0.835E+03   0.387E+00 -.198E+00 0.639E+00   -.251E-01 0.220E-01 0.273E+00
   0.142E+01 -.209E+02 -.798E+03   -.135E+01 0.199E+02 0.798E+03   -.504E-01 0.101E+01 -.556E+00   0.419E-02 -.354E-01 0.367E+00
   -.267E+01 -.308E+01 -.834E+03   0.305E+01 0.328E+01 0.833E+03   -.431E+00 -.240E+00 0.615E+00   0.113E-01 0.301E-01 0.242E+00
   -.662E+01 0.106E+01 -.848E+03   0.686E+01 -.915E+00 0.848E+03   -.936E-01 -.995E-02 0.565E+00   -.126E+00 -.839E-01 0.241E+00
   0.486E+01 -.167E+01 -.851E+03   -.507E+01 0.178E+01 0.851E+03   0.482E-01 -.167E-01 0.555E+00   0.124E+00 -.829E-01 0.240E+00
   0.174E+01 0.560E+01 -.831E+03   -.176E+01 -.599E+01 0.830E+03   0.367E-01 0.452E+00 0.667E+00   -.143E-01 -.277E-01 0.258E+00
   -.132E+02 0.776E+01 -.267E+04   0.132E+02 -.777E+01 0.267E+04   -.579E-02 0.734E-02 0.404E+00   0.389E-01 -.297E-03 0.499E+00
   0.550E+02 0.644E+02 -.263E+04   -.549E+02 -.643E+02 0.263E+04   -.281E+00 -.277E+00 0.503E+00   0.490E-01 0.255E-01 0.445E+00
   -.434E+02 0.924E+02 -.259E+04   0.434E+02 -.925E+02 0.259E+04   0.208E+00 -.870E-01 0.110E+01   -.945E-01 0.592E-01 0.430E+00
   0.643E+02 -.492E+01 -.265E+04   -.642E+02 0.508E+01 0.265E+04   -.451E+00 -.132E+00 0.504E+00   0.600E-01 0.190E-01 0.446E+00
   -.914E+02 -.197E+02 -.261E+04   0.913E+02 0.199E+02 0.261E+04   0.494E+00 -.107E+00 -.141E+00   -.738E-01 0.539E-01 0.460E+00
   0.299E+02 -.498E+02 -.265E+04   -.298E+02 0.495E+02 0.265E+04   -.183E+00 0.554E+00 0.421E+00   0.208E-01 -.919E-01 0.415E+00
   -.280E+02 -.651E+02 -.264E+04   0.280E+02 0.650E+02 0.264E+04   0.111E+00 0.378E+00 0.342E+00   0.117E-01 -.627E-01 0.452E+00
   -.121E+01 0.791E+01 -.268E+04   0.123E+01 -.789E+01 0.267E+04   -.692E-02 -.283E-01 0.549E+00   -.326E-01 -.228E-02 0.400E+00
   0.173E+02 -.215E+02 -.185E+04   -.172E+02 0.214E+02 0.185E+04   -.115E+00 0.545E-02 -.108E+00   -.242E-02 -.270E-02 0.307E+00
   0.125E+03 -.142E+03 -.170E+04   -.147E+03 0.167E+03 0.171E+04   0.219E+02 -.244E+02 -.101E+02   0.420E-01 -.319E-01 -.409E-01
   -.604E+02 0.152E+03 -.178E+04   0.413E+02 -.190E+03 0.179E+04   0.191E+02 0.378E+02 -.136E+02   0.334E-01 -.280E-01 -.254E-01
   -.873E+02 -.314E+02 -.293E+03   0.944E+02 0.350E+02 0.293E+03   -.712E+01 -.364E+01 -.497E+00   0.359E-03 -.263E-02 -.177E-02
   -.333E+02 -.993E+01 0.259E+02   -.711E-13 0.924E-13 0.216E-11   0.333E+02 0.100E+02 -.266E+02   0.540E-01 -.656E-01 0.706E+00

 POSITION                                       TOTAL-FORCE (eV/Angst)
      0.00000      0.00000      5.28038         0.004094     -0.000336     -0.096584
      2.93784      0.00000      5.28038        -0.008644      0.003099     -0.052430
      5.87568      0.00000      5.28038         0.004567      0.015471     -0.046307
      1.46892      2.54424      5.28038         0.005185      0.000334     -0.043117
      4.40676      2.54424      5.28038        -0.005950      0.004627     -0.095559
      7.34459      2.54424      5.28038        -0.007211     -0.010445     -0.039133
      2.93784      5.08848      5.28038         0.012860     -0.010201     -0.045030
      5.87568      5.08848      5.28038        -0.013397      0.002425     -0.033527
      8.81351      5.08848      5.28038        -0.001337     -0.004041     -0.069556
      1.46892      0.84808      7.67911         0.022171      0.014586      0.139658
      4.40676      0.84808      7.67911        -0.009388     -0.046477      0.039120
      7.34459      0.84808      7.67911        -0.020501      0.004821      0.125351
      2.93784      3.39232      7.67911        -0.043238      0.019950      0.062958
      5.87568      3.39232      7.67911         0.048142      0.028453      0.048501
      8.81351      3.39232      7.67911         0.005144     -0.042190      0.088899
      4.40676      5.93656      7.67911        -0.014091     -0.015762      0.136265
      7.34459      5.93656      7.67911        -0.032745      0.023471      0.091906
     10.28243      5.93656      7.67911         0.042297      0.019109      0.077847
      8.81351      1.70038     10.08128        -0.008354     -0.041284     -0.040336
      2.93047      1.69191     10.03818         0.078734      0.035299     -0.030628
      5.88304      1.69191     10.03818        -0.038288      0.050417     -0.143429
     10.26792      4.24878     10.06124         0.018987     -0.025643     -0.001412
      4.40676      4.24891     10.03818         0.030602     -0.059642     -0.110414
      7.35911      4.24878     10.06124        -0.031144     -0.013002     -0.017361
     11.74770      6.78254     10.08128         0.019075      0.046455     -0.008426
      5.87933      6.78254     10.08128        -0.032750      0.011115     -0.033970
      8.81351      6.76789     10.06124         0.004139      0.033527      0.026958
      0.00000      0.00000     12.49619         0.020717     -0.000434     -0.089879
      2.96082      0.04010     12.48308        -0.117190     -0.237853     -0.155673
      5.85269      0.04010     12.48308         0.065858     -0.181168     -0.081784
      1.51514      2.54410     12.48308        -0.231419      0.051263     -0.117681
      7.29838      2.54410     12.48308         0.273325      0.050784     -0.147435
      2.96107      5.04853     12.48308        -0.114538      0.134988     -0.108363
      5.85244      5.04853     12.48308         0.141698      0.209324     -0.106358
      8.81351      5.08848     12.49171        -0.013343     -0.009380     -0.048697
      4.40676      2.54424     12.23647        -0.049431     -0.069582      0.909644
      4.33530      2.59779     14.19651         0.015728      0.002427      0.024200
      5.13986      1.58355     14.90153        -0.005533      0.005314     -0.015674
      6.01235      2.04242     14.95170        -0.014832      0.000181      0.007457
    total drift:                                0.021225     -0.001303      0.027982

  FREE ENERGIE OF THE ION-ELECTRON SYSTEM (eV)
  free  energy   TOTEN  =      -128.65069776 eV

  energy  without entropy=     -128.65069776  energy(sigma->0) =     -128.65069776

 stress matrix after NEB project (eV)
    -21.25232     -0.13968     -0.10794
     -0.13968    -21.19076     -0.09029
     -0.10794     -0.09029      2.13376
  FORCES: max atom, RMS     0.028964    0.006032
  FORCE total and by dimension    0.037671    0.024200
  Stress total and by dimension   30.088884   21.252316
|           W    W    AA    RRRRR   N    N  II  N    N   GGGG   !!!           |
|           W    W   A  A   R    R  NN   N  II  NN   N  G    G  !!!           |
|           W    W  A    A  R    R  N N  N  II  N N  N  G       !!!           |
|           W WW W  AAAAAA  RRRRR   N  N N  II  N  N N  G  GGG   !            |
|           WW  WW  A    A  R   R   N   NN  II  N   NN  G    G                |
|           W    W  A    A  R    R  N    N  II  N    N   GGGG   !!!           |
|     Tetrahedron method does not include variations of the Fermi             |
|     occupations, so forces and stress will be inaccurate. We suggest        |
|     using a different smearing scheme ISMEAR = 1 or 2 for metals in         |
|     relaxations.                                                            |

 total charge

# of ion       s       p       d       tot
    1        0.545   0.239   8.767   9.551
    2        0.544   0.240   8.764   9.549
    3        0.543   0.240   8.764   9.548
    4        0.544   0.241   8.764   9.548
    5        0.543   0.241   8.761   9.545
    6        0.544   0.241   8.764   9.548
    7        0.544   0.241   8.763   9.548
    8        0.543   0.241   8.762   9.547
    9        0.541   0.240   8.767   9.548
   10        0.525   0.309   8.767   9.601
   11        0.519   0.309   8.778   9.605
   12        0.520   0.309   8.769   9.599
   13        0.519   0.309   8.778   9.606
   14        0.519   0.309   8.777   9.605
   15        0.516   0.308   8.776   9.600
   16        0.523   0.309   8.768   9.600
   17        0.515   0.308   8.776   9.600
   18        0.516   0.308   8.777   9.601
   19        0.517   0.302   8.776   9.595
   20        0.545   0.333   8.746   9.624
   21        0.539   0.333   8.753   9.624
   22        0.510   0.307   8.778   9.595
   23        0.544   0.331   8.751   9.626
   24        0.511   0.306   8.779   9.597
   25        0.516   0.304   8.774   9.594
   26        0.517   0.302   8.775   9.594
   27        0.508   0.308   8.777   9.593
   28        0.539   0.229   8.769   9.538
   29        0.543   0.239   8.763   9.544
   30        0.536   0.244   8.759   9.538
   31        0.542   0.240   8.760   9.543
   32        0.555   0.246   8.757   9.558
   33        0.547   0.240   8.758   9.545
   34        0.543   0.241   8.760   9.544
   35        0.532   0.230   8.769   9.531
   36        0.575   0.472   6.959   8.006
   37        1.602   3.244   0.000   4.846
   38        1.595   3.373   0.000   4.968
   39        0.611   0.111   0.000   0.722
tot         22.990  16.878 313.806 353.674

 BZINTS: Fermi energy:   -0.126341;  407.000000 electrons
         Band energy:-0.162462E+04;  BLOECHL correction:   -0.086699