 vasp.6.2.0 18Jan21 (build Jun 12 2021 23:27:24) complex

 executed on             LinuxIFC date 2022.05.27  05:42:37

 INCAR:
   ISMEAR = -5
   SIGMA = 0.1
   ISPIN = 1
   EDIFF = 1.d-5
   EDIFFG = -0.01
   NSW = 0
   NELM = 150
   ENCUT = 500
   ISIF = 2
   IBRION = 2
   LREAL = Auto
   ALGO = Fast
   ICHARG = 11
   LORBIT = 10
   LCHARG = .F.
   LWAVE = .F.

 POTCAR:    PAW_PBE Ag 02Apr2005
 POTCAR:    PAW_PBE Ru 04Feb2005
 POTCAR:    PAW_PBE O 08Apr2002
 POTCAR:    PAW_PBE H 15Jun2001
|           W    W    AA    RRRRR   N    N  II  N    N   GGGG   !!!           |
|           W    W   A  A   R    R  NN   N  II  NN   N  G    G  !!!           |
|           W    W  A    A  R    R  N N  N  II  N N  N  G       !!!           |
|           W WW W  AAAAAA  RRRRR   N  N N  II  N  N N  G  GGG   !            |
|           WW  WW  A    A  R   R   N   NN  II  N   NN  G    G                |
|           W    W  A    A  R    R  N    N  II  N    N   GGGG   !!!           |
|     For optimal performance we recommend to set                             |
|       NCORE = 2 up to number-of-cores-per-socket                            |
|     This setting can greatly improve the performance of VASP for DFT.       |
|     The default, NCORE=1 might be grossly inefficient on modern             |
|     multi-core architectures or massively parallel machines. Do your        |
|     Unfortunately you need to use the default for GW and RPA                |
|     calculations (for HF NCORE is supported but not extensively tested      |
|     yet).                                                                   |

 POTCAR:    PAW_PBE Ag 02Apr2005
   VRHFIN =Ag : s1 d10

   TITEL  = PAW_PBE Ag 02Apr2005
   POMASS =  107.868; ZVAL   =   11.000    mass and valenz
   ENMAX  =  249.844; ENMIN  =  187.383 eV

 POTCAR:    PAW_PBE Ru 04Feb2005
   VRHFIN =Ru: s1 d7

   TITEL  = PAW_PBE Ru 04Feb2005
   POMASS =  101.070; ZVAL   =    8.000    mass and valenz
   ENMAX  =  213.271; ENMIN  =  159.953 eV

 POTCAR:    PAW_PBE O 08Apr2002
   VRHFIN =O: s2p4

   TITEL  = PAW_PBE O 08Apr2002
   POMASS =   16.000; ZVAL   =    6.000    mass and valenz
   ENMAX  =  400.000; ENMIN  =  300.000 eV

 POTCAR:    PAW_PBE H 15Jun2001
   VRHFIN =H: ultrasoft test

   TITEL  = PAW_PBE H 15Jun2001
   POMASS =    1.000; ZVAL   =    1.000    mass and valenz
   ENMAX  =  250.000; ENMIN  =  200.000 eV

 Optimization of the real space projectors (new method)

 maximal supplied QI-value         = 15.12
 optimisation between [QCUT,QGAM] = [ 11.34, 22.83] = [ 36.00,145.93] Ry
 Optimized for a Real-space Cutoff    1.43 Angstroem

   l    n(q)    QCUT    max X(q) W(low)/X(q) W(high)/X(q)  e(spline)
   2      9    11.338    53.897    0.16E-03    0.20E-03    0.28E-06
   2      9    11.338    52.416    0.16E-03    0.20E-03    0.29E-06
   0     10    11.338   122.045    0.31E-04    0.76E-04    0.15E-06
   0     10    11.338    73.629    0.30E-04    0.72E-04    0.15E-06
   1      9    11.338    15.255    0.20E-03    0.19E-04    0.17E-06
   1      9    11.338     9.562    0.16E-03    0.15E-04    0.14E-06
 Optimization of the real space projectors (new method)

[...]

   l    n(q)    QCUT    max X(q) W(low)/X(q) W(high)/X(q)  e(spline)
   0      7    11.387    20.381    0.39E-03    0.13E-02    0.15E-06
   0      7    11.387    15.268    0.42E-03    0.14E-02    0.17E-06
   1      6    11.387     5.964    0.41E-03    0.11E-02    0.17E-06
   1      6    11.387     5.382    0.39E-03    0.87E-03    0.15E-06
 Optimization of the real space projectors (new method)

 maximal supplied QI-value         = 34.20
 optimisation between [QCUT,QGAM] = [ 11.29, 22.57] = [ 35.68,142.71] Ry
 Optimized for a Real-space Cutoff    1.16 Angstroem

   l    n(q)    QCUT    max X(q) W(low)/X(q) W(high)/X(q)  e(spline)
   0      8    11.287    19.460    0.40E-03    0.73E-03    0.16E-06
   0      8    11.287    12.209    0.38E-03    0.70E-03    0.15E-06
   1      7    11.287     4.655    0.22E-03    0.25E-04    0.22E-06
  PAW_PBE Ag 02Apr2005                  :
  PAW_PBE Ru 04Feb2005                  :
  PAW_PBE O 08Apr2002                   :
  PAW_PBE H 15Jun2001                   :

 POSCAR: Ag-Ru-OH
  positions in direct lattice
  velocities in cartesian coordinates
 exchange correlation table for  LEXCH =        8
   RHO(1)=    0.500       N(1)  =     2000
   RHO(2)=  100.500       N(2)  =     4000

 VTST: version 3.2, (02/03/18)

 CHAIN: initializing optimizer

 OPT: Using VASP Conjugate-Gradient optimizer
 CHAIN: Read ICHAIN            0

 POSCAR: Ag-Ru-OH
  positions in direct lattice
  velocities in cartesian coordinates

 ion  position               nearest neighbor table
   1  0.000  0.000  0.238-   2 2.93   8 2.93   7 2.93   6 2.93   4 2.93  12 2.93  16 2.93  10 2.93
                             3 2.93
   2  0.333  0.000  0.238-   1 2.93   8 2.93   9 2.93   3 2.93   4 2.93   5 2.93  10 2.93  17 2.93
                            11 2.93
   3  0.667  0.000  0.238-   9 2.93   2 2.93   5 2.93  11 2.93   7 2.93  18 2.93   1 2.93   6 2.93
                            12 2.93
   4  0.000  0.333  0.238-   5 2.93   6 2.93   2 2.93   1 2.93   7 2.93  13 2.93  15 2.93   9 2.93
                            10 2.93
   5  0.333  0.333  0.238-   4 2.93   3 2.93   7 2.93   2 2.93   8 2.93  14 2.93  13 2.93  11 2.93
                             6 2.93
   6  0.667  0.333  0.238-   4 2.93   9 2.93   1 2.93  15 2.93   8 2.93  12 2.93   3 2.93   5 2.93
                            14 2.93
   7  0.000  0.667  0.238-   8 2.93   1 2.93   5 2.93   3 2.93   4 2.93  16 2.93  18 2.93  13 2.93
                             9 2.93
   8  0.333  0.667  0.238-   7 2.93   1 2.93   2 2.93   9 2.93   5 2.93  16 2.93   6 2.93  17 2.93
                            14 2.93
   9  0.667  0.667  0.238-   3 2.93   2 2.93   8 2.93   6 2.93  17 2.93   4 2.93  15 2.93   7 2.93
                            18 2.93
  10  0.111  0.111  0.346-  20 2.90  19 2.93  26 2.93  12 2.93  16 2.93  15 2.93  17 2.93  13 2.93
                            11 2.93   2 2.93   1 2.93   4 2.93
  11  0.444  0.111  0.346-  21 2.90  20 2.90  27 2.92  14 2.93  17 2.93  18 2.93   3 2.93  12 2.93
                            13 2.93  10 2.93   5 2.93   2 2.93
  12  0.778  0.111  0.346-  21 2.90  25 2.93  19 2.93  10 2.93  16 2.93  18 2.93  15 2.93  11 2.93
                             1 2.93  14 2.93   6 2.93   3 2.93
  13  0.111  0.444  0.346-  20 2.90  23 2.90  22 2.92  15 2.93  14 2.93  18 2.93  10 2.93  11 2.93
                            16 2.93   4 2.93   5 2.93   7 2.93
  14  0.444  0.444  0.346-  23 2.90  21 2.90  24 2.92  13 2.93  11 2.93  16 2.93   5 2.93  12 2.93
                            17 2.93   8 2.93  15 2.93   6 2.93
  15  0.778  0.444  0.346-  24 2.92  22 2.92  19 2.93  13 2.93  10 2.93  12 2.93  17 2.93  18 2.93
                             4 2.93   6 2.93   9 2.93  14 2.93
  16  0.111  0.778  0.346-  23 2.90  26 2.93  25 2.93  18 2.93  12 2.93  10 2.93  14 2.93  17 2.93
                            13 2.93   7 2.93   8 2.93   1 2.93
  17  0.444  0.778  0.346-  27 2.92  24 2.92  26 2.93  11 2.93  10 2.93   9 2.93  18 2.93  15 2.93
                            16 2.93   2 2.93  14 2.93   8 2.93
  18  0.778  0.778  0.346-  22 2.92  27 2.92  25 2.93  16 2.93  12 2.93  13 2.93  11 2.93  17 2.93
                            15 2.93   7 2.93   3 2.93   9 2.93
  19  0.889  0.223  0.454-  28 2.91  15 2.93  10 2.93  12 2.93  24 2.93  22 2.93  26 2.93  25 2.93
                            20 2.94  21 2.94  32 2.94  31 2.94
  20  0.223  0.223  0.452-  36 2.77  13 2.90  11 2.90  10 2.90  21 2.92  23 2.92  31 2.92  29 2.92
                            27 2.93  22 2.93  19 2.94  26 2.94
  21  0.555  0.223  0.452-  36 2.77  11 2.90  14 2.90  12 2.90  20 2.92  23 2.92  30 2.92  32 2.92
                            27 2.93  24 2.93  25 2.94  19 2.94
  22  0.888  0.556  0.453-  35 2.91  18 2.92  15 2.92  13 2.92  33 2.92  31 2.92  24 2.92  27 2.92
                            25 2.93  19 2.93  23 2.93  20 2.93
  23  0.223  0.555  0.452-  36 2.77  14 2.90  13 2.90  16 2.90  21 2.92  20 2.92  34 2.92  33 2.92
                            22 2.93  24 2.93  26 2.94  25 2.94
  24  0.556  0.556  0.453-  35 2.91  15 2.92  17 2.92  14 2.92  32 2.92  34 2.92  27 2.92  22 2.92
                            19 2.93  26 2.93  23 2.93  21 2.93
  25  0.889  0.889  0.454-  28 2.91  18 2.93  16 2.93  12 2.93  22 2.93  27 2.93  26 2.93  19 2.93
                            23 2.94  21 2.94  33 2.94  30 2.94
  26  0.223  0.889  0.454-  28 2.91  17 2.93  16 2.93  10 2.93  27 2.93  24 2.93  25 2.93  19 2.93
                            23 2.94  20 2.94  34 2.94  29 2.94
  27  0.556  0.888  0.453-  35 2.91  17 2.92  18 2.92  11 2.92  29 2.92  30 2.92  24 2.92  22 2.92
                            26 2.93  25 2.93  20 2.93  21 2.93
  28  0.000  0.000  0.560-  26 2.91  25 2.91  19 2.91  29 2.95  34 2.95  33 2.95  32 2.95  31 2.95
                            30 2.95
  29  0.333  0.006  0.561-  31 2.88  30 2.88  36 2.89  20 2.92  27 2.92  26 2.94  28 2.95  35 2.96
                            34 3.03
  30  0.661  0.006  0.561-  32 2.88  29 2.88  36 2.89  21 2.92  27 2.92  25 2.94  28 2.95  35 2.96
                            33 3.03
  31  0.006  0.333  0.561-  29 2.88  33 2.88  36 2.89  20 2.92  22 2.92  19 2.94  28 2.95  35 2.96
                            32 3.03
  32  0.661  0.333  0.561-  30 2.88  34 2.88  36 2.89  21 2.92  24 2.92  19 2.94  28 2.95  35 2.96
                            31 3.03
  33  0.006  0.661  0.561-  34 2.88  31 2.88  36 2.89  23 2.92  22 2.92  25 2.94  28 2.95  35 2.96
                            30 3.03
  34  0.333  0.661  0.561-  33 2.88  32 2.88  36 2.89  23 2.92  24 2.92  26 2.94  28 2.95  35 2.96
                            29 3.03
  35  0.667  0.667  0.560-  24 2.91  27 2.91  22 2.91  30 2.96  32 2.96  29 2.96  34 2.96  31 2.96
                            33 2.96
  36  0.333  0.333  0.551-  37 1.91  21 2.77  20 2.77  23 2.77  31 2.89  30 2.89  33 2.89  29 2.89
                            34 2.89  32 2.89
  37  0.333  0.333  0.637-  38 0.97  36 1.91
  38  0.333  0.333  0.681-  37 0.97

  LATTYP: Found a hexagonal cell.
 ALAT       =     8.7913665772
 C/A-ratio  =     2.5227160501

  Lattice vectors:

 A1 = (  -4.3956832886,  -7.6135467898,   0.0000000000)
 A2 = (   8.7913665771,   0.0000000000,   0.0000000000)
 A3 = (   0.0000000000,   0.0000000000,  22.1781215668)

Analysis of symmetry for initial positions (statically):
 Subroutine PRICEL returns:
 Original cell was already a primitive cell.

 Routine SETGRP: Setting up the symmetry group for a
 hexagonal supercell.

 Subroutine GETGRP returns: Found  6 space group operations
 (whereof  6 operations were pure point group operations)
 out of a pool of 24 trial point group operations.

The static configuration has the point symmetry C_3v.

Analysis of symmetry for dynamics (positions and initial velocities):
 Subroutine PRICEL returns:
 Original cell was already a primitive cell.

[...]

The dynamic configuration has the point symmetry C_3v.

Analysis of constrained symmetry for selective dynamics:
 Subroutine PRICEL returns:
 Original cell was already a primitive cell.

[...]
     33      -4.3142      2.00000
     34      -4.2844      2.00000
     35      -4.2375      2.00000
     36      -4.2205      2.00000
     37      -4.1917      2.00000
     38      -4.1849      2.00000
     39      -4.1614      2.00000
     40      -4.1348      2.00000
     41      -4.1249      2.00000
     42      -4.1134      2.00000
     43      -4.0894      2.00000
     44      -4.0863      2.00000
     45      -4.0005      2.00000
     46      -3.9774      2.00000
     47      -3.9683      2.00000
     48      -3.9554      2.00000
     49      -3.9503      2.00000
     50      -3.9444      2.00000
     51      -3.9376      2.00000
     52      -3.9272      2.00000
     53      -3.9136      2.00000
     54      -3.9069      2.00000
     55      -3.8394      2.00000
     56      -3.8312      2.00000
     57      -3.8249      2.00000
     58      -3.8166      2.00000
     59      -3.8069      2.00000
     60      -3.7911      2.00000
[...]
    238       6.4264      0.00000
    239       6.5170      0.00000
    240       6.5348      0.00000
    241       6.8320      0.00000
    242       7.2228      0.00000
    243       7.3475      0.00000
    244       7.3699      0.00000
    245       7.3825      0.00000
    246       7.4291      0.00000
    247       7.4810      0.00000
    248       7.5402      0.00000
    249       7.6069      0.00000
    250       7.6989      0.00000
    251       7.7346      0.00000
    252       7.8594      0.00000

 soft charge-density along one line, spin component           1
         0         1         2         3         4         5         6         7         8         9
 total charge-density along one line

------------------------ aborting loop because EDIFF is reached ----------------------------------------

 total charge

# of ion       s       p       d       tot
    1        0.418   0.201   9.178   9.797
    2        0.418   0.203   9.177   9.798
    3        0.418   0.203   9.177   9.798
    4        0.418   0.203   9.177   9.798
    5        0.416   0.204   9.175   9.796
    6        0.418   0.203   9.177   9.798
    7        0.418   0.203   9.177   9.798
    8        0.418   0.203   9.177   9.798
    9        0.412   0.202   9.178   9.793
   10        0.409   0.269   9.163   9.840
   11        0.408   0.269   9.168   9.844
   12        0.409   0.269   9.163   9.840
   13        0.408   0.269   9.168   9.844
   14        0.408   0.269   9.168   9.844
   15        0.402   0.268   9.167   9.836
   16        0.409   0.269   9.163   9.840
   17        0.402   0.268   9.167   9.836
   18        0.402   0.268   9.167   9.836
   19        0.402   0.265   9.167   9.835
   20        0.429   0.297   9.145   9.872
   21        0.429   0.297   9.145   9.872
   22        0.395   0.271   9.169   9.834
   23        0.429   0.297   9.145   9.872
   24        0.395   0.271   9.169   9.834
   25        0.402   0.265   9.167   9.835
   26        0.402   0.265   9.167   9.835
   27        0.395   0.271   9.169   9.834
   28        0.417   0.198   9.179   9.793
   29        0.409   0.209   9.178   9.796
   30        0.409   0.209   9.178   9.796
   31        0.409   0.209   9.178   9.796
   32        0.409   0.209   9.178   9.796
   33        0.409   0.209   9.178   9.796
   34        0.409   0.209   9.178   9.796
   35        0.407   0.201   9.179   9.787
   36        0.477   0.513   6.558   7.549
   37        1.546   3.521   0.000   5.068
   38        0.607   0.127   0.000   0.734
tot         16.996  12.556 327.512 357.065

  FORCE on cell =-STRESS in cart. coord.  units (eV):
  Direction    XX          YY          ZZ          XY          YZ          ZX
  Alpha Z   751.60919   751.60919   751.60919
  Ewald  120439.98510120439.98514************     0.00003    -0.00000     0.00004
  Hartree130822.65674130822.65675************     0.00001    -0.00000     0.00002
  E(xc)   -2100.10159 -2100.10163 -2104.19531     0.00003     0.00000     0.00000
  Local  ************************262469.14083     0.00052    -0.00006    -0.00017
  n-local  -352.27706  -331.45102  -343.09448    11.89141    -0.09033     0.39888
  augment  3275.02377  3275.02395  3278.48855    -0.00016     0.00002     0.00003
  Kinetic  5009.48347  5016.86316  5000.64166     5.77039     0.94807    -0.08994
  Fock        0.00000     0.00000     0.00000     0.00000     0.00000     0.00000
  Total      -7.70601    -7.70601    -0.22037    -0.00000    -0.00000    -0.00000
  in kB      -8.31710    -8.31710    -0.23785    -0.00000    -0.00000    -0.00000

 VOLUME and BASIS-vectors are now :
  energy-cutoff  :      500.00
  volume of cell :     1484.46
      direct lattice vectors                 reciprocal lattice vectors
     8.791366577  0.000000000  0.000000000     0.113747958 -0.065672414  0.000000000
     4.395683289  7.613546790  0.000000000     0.000000000  0.131344829  0.000000000
     0.000000000  0.000000000 22.178121567     0.000000000  0.000000000  0.045089481

  length of vectors
     8.791366577  8.791366577 22.178121567     0.131344829  0.131344829  0.045089481

 FORCES acting on ions
    electron-ion (+dipol)            ewald-force                    non-local-force                 convergence-correction
   0.459E-04 -.283E-04 0.251E+04   -.954E-04 0.593E-04 -.251E+04   0.340E-17 -.208E-17 -.231E+01   -.106E-03 -.168E-03 -.367E-01
   0.311E+00 0.483E+00 0.251E+04   -.403E+00 -.503E+00 -.251E+04   0.514E-01 0.997E-01 -.152E+01   0.414E-01 -.665E-01 0.878E-02
   -.311E+00 0.483E+00 0.251E+04   0.403E+00 -.503E+00 -.251E+04   -.514E-01 0.997E-01 -.152E+01   -.419E-01 -.645E-01 0.948E-02
   0.574E+00 0.278E-01 0.251E+04   -.637E+00 -.973E-01 -.251E+04   0.112E+00 -.537E-02 -.152E+01   -.367E-01 0.693E-01 0.879E-02
   -.568E-05 -.187E-04 0.251E+04   0.981E-04 -.198E-05 -.251E+04   -.347E-18 -.769E-18 -.142E+01   0.624E-02 0.381E-02 -.509E-01
   -.574E+00 0.279E-01 0.251E+04   0.637E+00 -.973E-01 -.251E+04   -.112E+00 -.537E-02 -.152E+01   0.353E-01 0.702E-01 0.963E-02
   0.263E+00 -.511E+00 0.251E+04   -.235E+00 0.601E+00 -.251E+04   0.607E-01 -.943E-01 -.152E+01   -.764E-01 -.352E-02 0.949E-02
   -.263E+00 -.511E+00 0.251E+04   0.234E+00 0.601E+00 -.251E+04   -.607E-01 -.943E-01 -.152E+01   0.781E-01 -.452E-02 0.965E-02
   0.362E-04 -.130E-04 0.251E+04   0.792E-04 -.643E-04 -.251E+04   0.113E-19 -.673E-18 -.195E+01   -.666E-02 -.344E-02 0.618E-01
   0.487E+01 0.281E+01 0.860E+03   -.427E+01 -.247E+01 -.859E+03   -.518E+00 -.299E+00 -.894E+00   -.513E-01 -.296E-01 0.196E-02
   -.290E-04 0.530E+01 0.866E+03   0.412E-04 -.525E+01 -.865E+03   0.765E-12 0.117E+00 -.301E+00   0.629E-02 -.197E+00 -.669E-01
   -.487E+01 0.281E+01 0.860E+03   0.427E+01 -.247E+01 -.859E+03   0.518E+00 -.299E+00 -.894E+00   0.497E-01 -.285E-01 0.181E-02
   0.459E+01 -.265E+01 0.866E+03   -.455E+01 0.263E+01 -.865E+03   0.101E+00 -.583E-01 -.301E+00   -.168E+00 0.104E+00 -.670E-01
   -.459E+01 -.265E+01 0.866E+03   0.455E+01 0.263E+01 -.865E+03   -.101E+00 -.583E-01 -.301E+00   0.178E+00 0.103E+00 -.677E-01
   0.161E-04 0.437E+00 0.860E+03   -.108E-03 -.679E+00 -.859E+03   0.598E-12 0.911E-01 -.735E+00   -.165E-02 0.125E+00 -.177E-01
   -.799E-05 -.562E+01 0.860E+03   0.206E-04 0.493E+01 -.859E+03   0.393E-11 0.598E+00 -.894E+00   0.121E-03 0.573E-01 0.183E-02
   0.379E+00 -.219E+00 0.860E+03   -.588E+00 0.339E+00 -.859E+03   0.789E-01 -.456E-01 -.735E+00   0.108E+00 -.641E-01 -.177E-01
   -.379E+00 -.219E+00 0.860E+03   0.588E+00 0.339E+00 -.859E+03   -.789E-01 -.456E-01 -.735E+00   -.108E+00 -.622E-01 -.170E-01
   0.401E-04 0.444E+00 -.822E+03   -.128E-03 -.660E+00 0.821E+03   0.108E-11 0.165E+00 0.688E+00   -.407E-03 0.423E-01 0.670E-01
   0.124E+02 0.715E+01 -.792E+03   -.106E+02 -.610E+01 0.793E+03   -.150E+01 -.864E+00 -.140E+01   -.306E+00 -.176E+00 -.212E+00
   -.124E+02 0.715E+01 -.792E+03   0.106E+02 -.610E+01 0.793E+03   0.150E+01 -.864E+00 -.140E+01   0.306E+00 -.176E+00 -.213E+00
   0.396E+01 -.229E+01 -.813E+03   -.412E+01 0.238E+01 0.813E+03   0.343E+00 -.198E+00 0.610E+00   -.149E+00 0.865E-01 0.223E-01
   -.563E-04 -.143E+02 -.792E+03   0.430E-04 0.122E+02 0.793E+03   0.113E-10 0.173E+01 -.140E+01   0.650E-03 0.353E+00 -.213E+00
   -.396E+01 -.229E+01 -.813E+03   0.412E+01 0.238E+01 0.813E+03   -.343E+00 -.198E+00 0.610E+00   0.149E+00 0.863E-01 0.224E-01
   -.384E+00 -.222E+00 -.822E+03   0.571E+00 0.330E+00 0.821E+03   -.143E+00 -.825E-01 0.688E+00   -.361E-01 -.210E-01 0.667E-01
   0.384E+00 -.222E+00 -.822E+03   -.571E+00 0.330E+00 0.821E+03   0.143E+00 -.825E-01 0.688E+00   0.361E-01 -.216E-01 0.671E-01
   0.206E-04 0.457E+01 -.813E+03   0.110E-03 -.476E+01 0.813E+03   0.260E-11 0.396E+00 0.610E+00   -.395E-03 -.173E+00 0.224E-01
   0.542E-04 -.371E-04 -.247E+04   -.116E-03 0.782E-04 0.247E+04   0.554E-17 0.126E-16 0.170E+01   0.531E-04 -.106E-03 -.590E-01
   0.220E+02 0.384E+02 -.245E+04   -.216E+02 -.381E+02 0.245E+04   -.321E+00 -.189E+00 0.206E+01   -.167E+00 -.287E+00 -.996E-01
   -.220E+02 0.384E+02 -.245E+04   0.216E+02 -.381E+02 0.245E+04   0.321E+00 -.189E+00 0.206E+01   0.166E+00 -.286E+00 -.996E-01
   0.442E+02 -.979E-01 -.245E+04   -.438E+02 0.300E+00 0.245E+04   -.324E+00 -.184E+00 0.206E+01   -.332E+00 -.541E-03 -.996E-01
   -.442E+02 -.979E-01 -.245E+04   0.438E+02 0.300E+00 0.245E+04   0.324E+00 -.184E+00 0.206E+01   0.331E+00 0.327E-03 -.995E-01
   0.222E+02 -.383E+02 -.245E+04   -.222E+02 0.378E+02 0.245E+04   -.314E-02 0.373E+00 0.206E+01   -.164E+00 0.287E+00 -.996E-01
   -.222E+02 -.383E+02 -.245E+04   0.222E+02 0.378E+02 0.245E+04   0.314E-02 0.373E+00 0.206E+01   0.165E+00 0.286E+00 -.995E-01
   0.221E-04 -.117E-04 -.247E+04   0.106E-03 -.662E-04 0.247E+04   -.182E-17 -.286E-17 0.194E+01   -.657E-02 -.336E-02 -.542E-01
   -.310E-05 -.977E-05 -.156E+04   0.767E-04 0.950E-05 0.156E+04   0.988E-18 0.326E-18 -.745E-01   0.211E-02 0.129E-02 0.515E-03
   0.195E-03 -.949E-04 -.156E+04   0.248E-04 0.304E-06 0.153E+04   0.218E-17 0.238E-17 0.211E+02   0.367E-02 0.225E-02 0.384E+00
   0.795E-05 -.131E-04 -.312E+03   0.175E-05 0.472E-08 0.320E+03   0.110E-18 0.275E-19 -.839E+01   0.203E-03 0.124E-03 0.458E-01
   0.595E-03 -.785E-03 -.682E+01   -.238E-14 0.385E-14 -.153E-11   -.686E-15 0.554E-16 0.775E+01   0.122E-01 0.104E-01 -.869E+00

 POSITION                                       TOTAL-FORCE (eV/Angst)
      0.00000      0.00000      5.28219         0.000000     -0.000000     -0.007271
      2.93046      0.00000      5.28219         0.001489      0.013872      0.033083
      5.86091      0.00000      5.28219        -0.001489      0.013872      0.033083
      1.46523      2.53785      5.28219         0.012758     -0.005647      0.033083
      4.39568      2.53785      5.28219        -0.000000     -0.000000      0.015334
      7.32614      2.53785      5.28219        -0.012758     -0.005647      0.033083
      2.93046      5.07570      5.28219         0.011269     -0.008225      0.033083
      5.86091      5.07570      5.28219        -0.011269     -0.008225      0.033083
      8.79137      5.07570      5.28219        -0.000000     -0.000000     -0.000076
      1.46523      0.84595      7.67490         0.029546      0.017058      0.006523
      4.39568      0.84595      7.67490        -0.000000     -0.037259     -0.066281
      7.32614      0.84595      7.67490        -0.029546      0.017058      0.006523
      2.93046      3.38380      7.67490        -0.032267      0.018630     -0.066281
      5.86091      3.38380      7.67490         0.032267      0.018630     -0.066281
      8.79137      3.38380      7.67490        -0.000000     -0.025413      0.015643
      4.39568      5.92165      7.67490        -0.000000     -0.034117      0.006523
      7.32614      5.92165      7.67490        -0.022008      0.012706      0.015643
     10.25659      5.92165      7.67490         0.022008      0.012706      0.015643
      8.79137      1.69450     10.06282        -0.000000     -0.008708     -0.019301
      2.93652      1.69540     10.03056         0.024078      0.013901     -0.072908
      5.85484      1.69540     10.03056        -0.024078      0.013901     -0.072908
     10.25378      4.23137     10.05553         0.030503     -0.017611     -0.029690
      4.39568      4.22274     10.03056        -0.000000     -0.027803     -0.072908
      7.32895      4.23137     10.05553        -0.030503     -0.017611     -0.029690
     11.71957      6.76630     10.06282         0.007541      0.004354     -0.019301
      5.86316      6.76630     10.06282        -0.007541      0.004354     -0.019301
      8.79137      6.76435     10.05553         0.000000      0.035221     -0.029690
      0.00000      0.00000     12.42400         0.000000     -0.000000      0.037344
      2.95387      0.04433     12.43748        -0.100142     -0.210089     -0.111305
      5.83749      0.04433     12.43748         0.100142     -0.210089     -0.111305
      1.51533      2.53597     12.43748        -0.232013      0.018319     -0.111305
      7.27604      2.53597     12.43748         0.232013      0.018319     -0.111305
      2.95713      5.03325     12.43748        -0.131871      0.191769     -0.111305
      5.83423      5.03325     12.43748         0.131871      0.191769     -0.111305
      8.79137      5.07570     12.42069        -0.000000     -0.000000      0.060598
      4.39568      2.53785     12.23056        -0.000000     -0.000000      0.834850
      4.39568      2.53785     14.13635         0.000000     -0.000000      0.060157
      4.39568      2.53785     15.10232         0.000000     -0.000000     -0.033559
    total drift:                                0.012772      0.009599      0.057439

  FREE ENERGIE OF THE ION-ELECTRON SYSTEM (eV)
  free  energy   TOTEN  =      -106.13363787 eV

  energy  without entropy=     -106.13363787  energy(sigma->0) =     -106.13363787

 stress matrix after NEB project (eV)
     -7.70601     -0.00000     -0.00000
     -0.00000     -7.70601      0.00000
     -0.00000     -0.00000     -0.22037
  FORCES: max atom, RMS     0.060157    0.011175
  FORCE total and by dimension    0.068885    0.060157
  Stress total and by dimension   10.900176    7.706013
|           W    W    AA    RRRRR   N    N  II  N    N   GGGG   !!!           |
|           W    W   A  A   R    R  NN   N  II  NN   N  G    G  !!!           |
|           W    W  A    A  R    R  N N  N  II  N N  N  G       !!!           |
|           W WW W  AAAAAA  RRRRR   N  N N  II  N  N N  G  GGG   !            |
|           WW  WW  A    A  R   R   N   NN  II  N   NN  G    G                |
|           W    W  A    A  R    R  N    N  II  N    N   GGGG   !!!           |
|     Tetrahedron method does not include variations of the Fermi             |
|     occupations, so forces and stress will be inaccurate. We suggest        |
|     using a different smearing scheme ISMEAR = 1 or 2 for metals in         |
|     relaxations.                                                            |

 total charge

# of ion       s       p       d       tot
    1        0.418   0.201   9.178   9.797
    2        0.418   0.203   9.177   9.798
    3        0.418   0.203   9.177   9.798
    4        0.418   0.203   9.177   9.798
    5        0.416   0.204   9.175   9.796
    6        0.418   0.203   9.177   9.798
    7        0.418   0.203   9.177   9.798
    8        0.418   0.203   9.177   9.798
    9        0.412   0.202   9.178   9.793
   10        0.409   0.269   9.163   9.840
   11        0.408   0.269   9.168   9.844
   12        0.409   0.269   9.163   9.840
   13        0.408   0.269   9.168   9.844
   14        0.408   0.269   9.168   9.844
   15        0.402   0.268   9.167   9.836
   16        0.409   0.269   9.163   9.840
   17        0.402   0.268   9.167   9.836
   18        0.402   0.268   9.167   9.836
   19        0.402   0.265   9.167   9.835
   20        0.429   0.297   9.145   9.872
   21        0.429   0.297   9.145   9.872
   22        0.395   0.271   9.169   9.834
   23        0.429   0.297   9.145   9.872
   24        0.395   0.271   9.169   9.834
   25        0.402   0.265   9.167   9.835
   26        0.402   0.265   9.167   9.835
   27        0.395   0.271   9.169   9.834
   28        0.417   0.198   9.179   9.793
   29        0.409   0.209   9.178   9.796
   30        0.409   0.209   9.178   9.796
   31        0.409   0.209   9.178   9.796
   32        0.409   0.209   9.178   9.796
   33        0.409   0.209   9.178   9.796
   34        0.409   0.209   9.178   9.796
   35        0.407   0.201   9.179   9.787
   36        0.477   0.513   6.558   7.549
   37        1.546   3.521   0.000   5.068
   38        0.607   0.127   0.000   0.734
tot         16.996  12.556 327.512 357.065

 BZINTS: Fermi energy:    1.019896;  400.000000 electrons
         Band energy:-0.124281E+04;  BLOECHL correction:   -0.037477