 vasp.6.2.0 18Jan21 (build Jun 12 2021 23:27:24) complex

 executed on             LinuxIFC date 2022.05.26  19:38:10

 INCAR:
   ISMEAR = -5
   SIGMA = 0.1
   ISPIN = 1
   EDIFF = 1.d-5
   EDIFFG = -0.01
   NSW = 0
   NELM = 150
   ENCUT = 500
   ISIF = 2
   IBRION = 2
   LREAL = Auto
   ALGO = Fast
   ICHARG = 11
   LORBIT = 10
   LCHARG = .F.
   LWAVE = .F.

 POTCAR:    PAW_PBE Ag 02Apr2005
 POTCAR:    PAW_PBE V 08Apr2002
 POTCAR:    PAW_PBE N 08Apr2002
|           W    W    AA    RRRRR   N    N  II  N    N   GGGG   !!!           |
|           W    W   A  A   R    R  NN   N  II  NN   N  G    G  !!!           |
|           W    W  A    A  R    R  N N  N  II  N N  N  G       !!!           |
|           W WW W  AAAAAA  RRRRR   N  N N  II  N  N N  G  GGG   !            |
|           WW  WW  A    A  R   R   N   NN  II  N   NN  G    G                |
|           W    W  A    A  R    R  N    N  II  N    N   GGGG   !!!           |
|     For optimal performance we recommend to set                             |
|       NCORE = 2 up to number-of-cores-per-socket                            |
|     This setting can greatly improve the performance of VASP for DFT.       |
|     The default, NCORE=1 might be grossly inefficient on modern             |
|     multi-core architectures or massively parallel machines. Do your        |
|     Unfortunately you need to use the default for GW and RPA                |
|     calculations (for HF NCORE is supported but not extensively tested      |
|     yet).                                                                   |

 POTCAR:    PAW_PBE Ag 02Apr2005
   VRHFIN =Ag : s1 d10

   TITEL  = PAW_PBE Ag 02Apr2005
   POMASS =  107.868; ZVAL   =   11.000    mass and valenz
   ENMAX  =  249.844; ENMIN  =  187.383 eV

 POTCAR:    PAW_PBE V 08Apr2002
   VRHFIN =V: p6 d4 s1

[...]

 POTCAR:    PAW_PBE N 08Apr2002
   VRHFIN =N: s2p3

   TITEL  = PAW_PBE N 08Apr2002
   POMASS =   14.001; ZVAL   =    5.000    mass and valenz
   ENMAX  =  400.000; ENMIN  =  300.000 eV

 Optimization of the real space projectors (new method)

 maximal supplied QI-value         = 15.12
 optimisation between [QCUT,QGAM] = [ 11.34, 22.83] = [ 36.00,145.93] Ry
 Optimized for a Real-space Cutoff    1.43 Angstroem

   l    n(q)    QCUT    max X(q) W(low)/X(q) W(high)/X(q)  e(spline)
   2      9    11.338    53.897    0.16E-03    0.20E-03    0.28E-06
   2      9    11.338    52.416    0.16E-03    0.20E-03    0.29E-06
   0     10    11.338   122.045    0.31E-04    0.76E-04    0.15E-06
   0     10    11.338    73.629    0.30E-04    0.72E-04    0.15E-06
   1      9    11.338    15.255    0.20E-03    0.19E-04    0.17E-06
   1      9    11.338     9.562    0.16E-03    0.15E-04    0.14E-06
 Optimization of the real space projectors (new method)

[...]

   l    n(q)    QCUT    max X(q) W(low)/X(q) W(high)/X(q)  e(spline)
   2     10    11.327    96.114    0.36E-03    0.35E-03    0.42E-06
   2     10    11.327    88.986    0.37E-03    0.35E-03    0.42E-06
   0     11    11.327    20.919    0.40E-04    0.56E-04    0.79E-06
   0     11    11.327     9.593    0.30E-04    0.41E-04    0.60E-06
   1     10    11.327    11.615    0.15E-03    0.10E-03    0.19E-06
   1     10    11.327     7.031    0.11E-03    0.73E-04    0.14E-06
 Optimization of the real space projectors (new method)

 maximal supplied QI-value         = 25.13
 optimisation between [QCUT,QGAM] = [ 11.31, 22.87] = [ 35.82,146.48] Ry
 Optimized for a Real-space Cutoff    1.27 Angstroem

   l    n(q)    QCUT    max X(q) W(low)/X(q) W(high)/X(q)  e(spline)
   0      9    11.310    79.467    0.75E-04    0.16E-03    0.36E-06
   0      9    11.310    66.151    0.74E-04    0.16E-03    0.36E-06
   1      8    11.310    17.416    0.35E-03    0.12E-03    0.95E-06
   1      8    11.310    12.382    0.37E-03    0.13E-03    0.98E-06
  PAW_PBE Ag 02Apr2005                  :
  PAW_PBE V 08Apr2002                   :
  PAW_PBE N 08Apr2002                   :

 POSCAR: Ag-V-N
  positions in direct lattice
  velocities in cartesian coordinates
 exchange correlation table for  LEXCH =        8
   RHO(1)=    0.500       N(1)  =     2000
   RHO(2)=  100.500       N(2)  =     4000

 VTST: version 3.2, (02/03/18)

 CHAIN: initializing optimizer

 OPT: Using VASP Conjugate-Gradient optimizer
 CHAIN: Read ICHAIN            0

 POSCAR: Ag-V-N
  positions in direct lattice
  velocities in cartesian coordinates

 ion  position               nearest neighbor table
   1  0.000  0.000  0.238-   2 2.93   8 2.93   7 2.93   6 2.93   4 2.93  12 2.93  16 2.93  10 2.93
                             3 2.93
   2  0.333  0.000  0.238-   1 2.93   8 2.93   9 2.93   3 2.93   4 2.93   5 2.93  10 2.93  17 2.93
                            11 2.93
   3  0.667  0.000  0.238-   9 2.93   2 2.93   5 2.93  11 2.93   7 2.93  18 2.93   1 2.93   6 2.93
                            12 2.93
   4  0.000  0.333  0.238-   5 2.93   6 2.93   2 2.93   1 2.93   7 2.93  13 2.93  15 2.93   9 2.93
                            10 2.93
   5  0.333  0.333  0.238-   4 2.93   3 2.93   7 2.93   2 2.93   8 2.93  14 2.93  13 2.93  11 2.93
                             6 2.93
   6  0.667  0.333  0.238-   4 2.93   9 2.93   1 2.93  15 2.93   8 2.93  12 2.93   3 2.93   5 2.93
                            14 2.93
   7  0.000  0.667  0.238-   8 2.93   1 2.93   5 2.93   3 2.93   4 2.93  16 2.93  18 2.93  13 2.93
                             9 2.93
   8  0.333  0.667  0.238-   7 2.93   1 2.93   2 2.93   9 2.93   5 2.93  16 2.93   6 2.93  17 2.93
                            14 2.93
   9  0.667  0.667  0.238-   3 2.93   2 2.93   8 2.93   6 2.93  17 2.93   4 2.93  15 2.93   7 2.93
                            18 2.93
  10  0.111  0.111  0.346-  20 2.91  19 2.92  26 2.92  12 2.93  16 2.93  15 2.93  17 2.93  13 2.93
                            11 2.93   2 2.93   1 2.93   4 2.93
  11  0.444  0.111  0.346-  21 2.90  20 2.90  27 2.92  14 2.93  17 2.93  18 2.93   3 2.93  12 2.93
                            13 2.93  10 2.93   5 2.93   2 2.93
  12  0.778  0.111  0.346-  21 2.91  25 2.92  19 2.92  10 2.93  16 2.93  18 2.93  15 2.93  11 2.93
                             1 2.93  14 2.93   6 2.93   3 2.93
  13  0.111  0.444  0.346-  20 2.90  23 2.90  22 2.92  15 2.93  14 2.93  18 2.93  10 2.93  11 2.93
                            16 2.93   4 2.93   5 2.93   7 2.93
  14  0.444  0.444  0.346-  23 2.90  21 2.90  24 2.92  13 2.93  11 2.93  16 2.93   5 2.93  12 2.93
                            17 2.93   8 2.93  15 2.93   6 2.93
  15  0.778  0.444  0.346-  24 2.92  22 2.92  19 2.92  13 2.93  10 2.93  12 2.93  17 2.93  18 2.93
                             4 2.93   6 2.93   9 2.93  14 2.93
  16  0.111  0.778  0.346-  23 2.91  26 2.92  25 2.92  18 2.93  12 2.93  10 2.93  14 2.93  17 2.93
                            13 2.93   7 2.93   8 2.93   1 2.93
  17  0.444  0.778  0.346-  27 2.92  24 2.92  26 2.92  11 2.93  10 2.93   9 2.93  18 2.93  15 2.93
                            16 2.93   2 2.93  14 2.93   8 2.93
  18  0.778  0.778  0.346-  22 2.92  27 2.92  25 2.92  16 2.93  12 2.93  13 2.93  11 2.93  17 2.93
                            15 2.93   7 2.93   3 2.93   9 2.93
  19  0.889  0.222  0.453-  28 2.91  15 2.92  10 2.92  12 2.92  24 2.93  22 2.93  26 2.93  25 2.93
                            20 2.94  21 2.94  32 2.96  31 2.96
  20  0.223  0.223  0.453-  36 2.75  13 2.90  11 2.90  10 2.91  21 2.92  23 2.92  31 2.92  29 2.92
                            27 2.93  22 2.93  19 2.94  26 2.94
  21  0.555  0.223  0.453-  36 2.75  11 2.90  14 2.90  12 2.91  20 2.92  23 2.92  30 2.92  32 2.92
                            27 2.93  24 2.93  25 2.94  19 2.94
  22  0.889  0.556  0.453-  18 2.92  15 2.92  35 2.92  13 2.92  24 2.93  27 2.93  25 2.93  19 2.93
                            23 2.93  20 2.93  33 2.94  31 2.94
  23  0.223  0.555  0.453-  36 2.75  14 2.90  13 2.90  16 2.91  21 2.92  20 2.92  34 2.92  33 2.92
                            22 2.93  24 2.93  26 2.94  25 2.94
  24  0.556  0.556  0.453-  15 2.92  17 2.92  35 2.92  14 2.92  27 2.93  22 2.93  19 2.93  26 2.93
                            23 2.93  21 2.93  32 2.94  34 2.94
  25  0.889  0.889  0.453-  28 2.91  18 2.92  16 2.92  12 2.92  22 2.93  27 2.93  26 2.93  19 2.93
                            23 2.94  21 2.94  33 2.96  30 2.96
  26  0.222  0.889  0.453-  28 2.91  17 2.92  16 2.92  10 2.92  27 2.93  24 2.93  25 2.93  19 2.93
                            23 2.94  20 2.94  34 2.96  29 2.96
  27  0.556  0.889  0.453-  17 2.92  18 2.92  35 2.92  11 2.92  24 2.93  22 2.93  26 2.93  25 2.93
                            20 2.93  21 2.93  29 2.94  30 2.94
  28  0.000  0.000  0.560-  26 2.91  25 2.91  19 2.91  29 2.96  34 2.96  33 2.96  32 2.96  31 2.96
                            30 2.96
  29  0.334  0.006  0.562-  30 2.87  31 2.88  36 2.89  20 2.92  27 2.94  35 2.96  28 2.96  26 2.96
                            34 3.04
  30  0.660  0.006  0.562-  29 2.87  32 2.88  36 2.89  21 2.92  27 2.94  35 2.96  28 2.96  25 2.96
                            33 3.04
  31  0.006  0.334  0.562-  33 2.87  29 2.88  36 2.89  20 2.92  22 2.94  35 2.96  28 2.96  19 2.96
                            32 3.04
  32  0.660  0.334  0.562-  34 2.87  30 2.88  36 2.89  21 2.92  24 2.94  35 2.96  28 2.96  19 2.96
                            31 3.04
  33  0.006  0.660  0.562-  31 2.87  34 2.88  36 2.89  23 2.92  22 2.94  35 2.96  28 2.96  25 2.96
                            30 3.04
  34  0.334  0.660  0.562-  32 2.87  33 2.88  36 2.89  23 2.92  24 2.94  35 2.96  28 2.96  26 2.96
                            29 3.04
  35  0.667  0.667  0.561-  24 2.92  27 2.92  22 2.92  30 2.96  32 2.96  29 2.96  34 2.96  31 2.96
                            33 2.96
  36  0.333  0.333  0.551-  37 1.62  21 2.75  20 2.75  23 2.75  31 2.89  33 2.89  30 2.89  29 2.89
                            34 2.89  32 2.89
  37  0.333  0.333  0.624-  36 1.62

  LATTYP: Found a hexagonal cell.
 ALAT       =     8.7913665772
 C/A-ratio  =     2.5227160501

  Lattice vectors:

 A1 = (  -4.3956832886,  -7.6135467898,   0.0000000000)
 A2 = (   8.7913665771,   0.0000000000,   0.0000000000)
 A3 = (   0.0000000000,   0.0000000000,  22.1781215668)

Analysis of symmetry for initial positions (statically):
 Subroutine PRICEL returns:
 Original cell was already a primitive cell.

 Routine SETGRP: Setting up the symmetry group for a
 hexagonal supercell.

 Subroutine GETGRP returns: Found  6 space group operations
 (whereof  6 operations were pure point group operations)
 out of a pool of 24 trial point group operations.

The static configuration has the point symmetry C_3v.

Analysis of symmetry for dynamics (positions and initial velocities):
 Subroutine PRICEL returns:
 Original cell was already a primitive cell.

[...]

The dynamic configuration has the point symmetry C_3v.

Analysis of constrained symmetry for selective dynamics:
 Subroutine PRICEL returns:
 Original cell was already a primitive cell.

 Routine SETGRP: Setting up the symmetry group for a
 hexagonal supercell.

 Subroutine GETGRP returns: Found  6 space group operations
 (whereof  6 operations were pure point group operations)
 out of a pool of 24 trial point group operations.

[...]
     24      -4.7347      2.00000
     25      -4.7162      2.00000
     26      -4.6995      2.00000
     27      -4.6799      2.00000
     28      -4.6643      2.00000
     29      -4.6618      2.00000
     30      -4.6366      2.00000
     31      -4.6322      2.00000
     32      -4.6237      2.00000
     33      -4.5930      2.00000
     34      -4.5569      2.00000
     35      -4.5321      2.00000
     36      -4.5022      2.00000
     37      -4.4979      2.00000
     38      -4.4685      2.00000
     39      -4.4384      2.00000
     40      -4.4330      2.00000
     41      -4.4197      2.00000
     42      -4.4166      2.00000
     43      -4.3996      2.00000
     44      -4.3179      2.00000
     45      -4.2886      2.00000
     46      -4.2772      2.00000
     47      -4.2701      2.00000
     48      -4.2640      2.00000
     49      -4.2606      2.00000
     50      -4.2478      2.00000
     51      -4.2390      2.00000
     52      -4.2359      2.00000
     53      -4.2211      2.00000
     54      -4.1624      2.00000
     55      -4.1525      2.00000
     56      -4.1441      2.00000
     57      -4.1308      2.00000
     58      -4.1183      2.00000
     59      -4.1013      2.00000
     60      -4.0730      2.00000
[...]
    238       6.2657      0.00000
    239       6.3051      0.00000
    240       6.4625      0.00000
    241       7.0959      0.00000
    242       7.1395      0.00000
    243       7.2191      0.00000
    244       7.3109      0.00000
    245       7.3204      0.00000
    246       7.3505      0.00000
    247       7.4136      0.00000
    248       7.4914      0.00000
    249       7.5536      0.00000
    250       7.6185      0.00000
    251       7.6217      0.00000
    252       7.7696      0.00000

 soft charge-density along one line, spin component           1
         0         1         2         3         4         5         6         7         8         9
 total charge-density along one line

------------------------ aborting loop because EDIFF is reached ----------------------------------------

 total charge

# of ion       s       p       d       tot
    1        0.416   0.204   9.177   9.797
    2        0.417   0.204   9.176   9.797
    3        0.417   0.204   9.176   9.797
    4        0.417   0.204   9.176   9.797
    5        0.415   0.203   9.177   9.796
    6        0.417   0.204   9.176   9.797
    7        0.417   0.204   9.176   9.797
    8        0.417   0.204   9.176   9.797
    9        0.413   0.203   9.177   9.793
   10        0.405   0.270   9.164   9.839
   11        0.406   0.270   9.165   9.841
   12        0.405   0.270   9.164   9.839
   13        0.406   0.270   9.165   9.841
   14        0.406   0.270   9.165   9.841
   15        0.402   0.271   9.164   9.837
   16        0.405   0.270   9.164   9.839
   17        0.402   0.271   9.164   9.837
   18        0.402   0.271   9.164   9.837
   19        0.402   0.264   9.168   9.834
   20        0.426   0.294   9.146   9.867
   21        0.426   0.294   9.146   9.867
   22        0.396   0.277   9.163   9.836
   23        0.426   0.294   9.146   9.867
   24        0.396   0.277   9.163   9.836
   25        0.402   0.264   9.168   9.834
   26        0.402   0.264   9.168   9.834
   27        0.396   0.277   9.163   9.836
   28        0.413   0.198   9.176   9.787
   29        0.422   0.206   9.171   9.799
   30        0.422   0.206   9.171   9.799
   31        0.422   0.206   9.171   9.799
   32        0.422   0.206   9.171   9.799
   33        0.422   0.206   9.171   9.799
   34        0.422   0.206   9.171   9.799
   35        0.415   0.200   9.174   9.789
   36        0.531   0.662   3.878   5.071
   37        1.342   2.211   0.000   3.553
tot         16.296  11.275 324.752 352.323

  FORCE on cell =-STRESS in cart. coord.  units (eV):
  Direction    XX          YY          ZZ          XY          YZ          ZX
  Alpha Z   742.37255   742.37255   742.37255
  Ewald  119374.40129119374.40124************     0.00001    -0.00001     0.00002
  Hartree129476.54327129476.54325************     0.00000    -0.00000     0.00001
  E(xc)   -2071.17744 -2071.17743 -2079.43045    -0.00001     0.00000     0.00000
  Local  ************************260069.35907     0.00041    -0.00004    -0.00013
  n-local  -336.07442  -319.79051  -331.53802     9.42689    -0.47474     0.50914
  augment  3239.11453  3239.11469  3251.80867    -0.00014    -0.00001     0.00002
  Kinetic  4893.48932  4895.83853  4920.04286     3.48855     0.86283    -0.28437
  Fock        0.00000     0.00000     0.00000     0.00000     0.00000     0.00000
  Total      -7.93594    -7.93594    -0.39642    -0.00000     0.00000     0.00000
  in kB      -8.56526    -8.56526    -0.42786    -0.00000     0.00000     0.00000

 VOLUME and BASIS-vectors are now :
  energy-cutoff  :      500.00
  volume of cell :     1484.46
      direct lattice vectors                 reciprocal lattice vectors
     8.791366577  0.000000000  0.000000000     0.113747958 -0.065672414  0.000000000
     4.395683289  7.613546790  0.000000000     0.000000000  0.131344829  0.000000000
     0.000000000  0.000000000 22.178121567     0.000000000  0.000000000  0.045089481

  length of vectors
     8.791366577  8.791366577 22.178121567     0.131344829  0.131344829  0.045089481

 FORCES acting on ions
    electron-ion (+dipol)            ewald-force                    non-local-force                 convergence-correction
   0.461E-04 -.281E-04 0.249E+04   -.953E-04 0.593E-04 -.249E+04   0.311E-18 -.569E-17 -.183E+01   -.141E-03 -.188E-03 0.158E-01
   -.808E-01 0.235E+00 0.249E+04   -.524E-01 -.372E-01 -.249E+04   0.284E-01 -.145E-01 -.162E+01   0.985E-01 -.175E+00 0.116E+00
   0.809E-01 0.235E+00 0.249E+04   0.525E-01 -.372E-01 -.249E+04   -.284E-01 -.145E-01 -.162E+01   -.990E-01 -.173E+00 0.116E+00
   0.163E+00 -.187E+00 0.249E+04   -.585E-01 -.267E-01 -.249E+04   0.162E-02 0.318E-01 -.162E+01   -.102E+00 0.173E+00 0.116E+00
   -.625E-05 -.189E-04 0.249E+04   0.981E-04 -.200E-05 -.249E+04   0.337E-17 -.165E-17 -.162E+01   0.622E-02 0.380E-02 0.321E+00
   -.163E+00 -.187E+00 0.249E+04   0.583E-01 -.268E-01 -.249E+04   -.162E-02 0.318E-01 -.162E+01   0.101E+00 0.174E+00 0.117E+00
   0.244E+00 -.475E-01 0.249E+04   -.613E-02 0.640E-01 -.249E+04   -.268E-01 -.173E-01 -.162E+01   -.199E+00 0.140E-02 0.117E+00
   -.244E+00 -.474E-01 0.249E+04   0.606E-02 0.639E-01 -.249E+04   0.268E-01 -.173E-01 -.162E+01   0.201E+00 0.404E-03 0.117E+00
   0.364E-04 -.130E-04 0.249E+04   0.792E-04 -.642E-04 -.249E+04   0.695E-18 0.151E-18 -.179E+01   -.661E-02 -.340E-02 -.294E-01
   0.694E+00 0.401E+00 0.824E+03   -.625E+00 -.361E+00 -.824E+03   -.171E+00 -.985E-01 -.558E+00   0.935E-01 0.540E-01 0.217E+00
   -.288E-04 0.385E+00 0.824E+03   0.409E-04 -.708E+00 -.824E+03   0.896E-12 0.136E+00 -.637E+00   0.654E-02 0.148E+00 0.968E-01
   -.694E+00 0.401E+00 0.824E+03   0.625E+00 -.361E+00 -.824E+03   0.171E+00 -.985E-01 -.558E+00   -.951E-01 0.547E-01 0.217E+00
   0.333E+00 -.192E+00 0.824E+03   -.613E+00 0.354E+00 -.824E+03   0.118E+00 -.682E-01 -.637E+00   0.131E+00 -.681E-01 0.968E-01
   -.333E+00 -.192E+00 0.824E+03   0.613E+00 0.354E+00 -.824E+03   -.118E+00 -.682E-01 -.637E+00   -.121E+00 -.693E-01 0.953E-01
   0.154E-04 0.541E+00 0.825E+03   -.108E-03 -.597E+00 -.824E+03   0.293E-12 0.445E-01 -.605E+00   -.147E-02 0.439E-02 0.613E-01
   -.814E-05 -.802E+00 0.824E+03   0.207E-04 0.722E+00 -.824E+03   0.129E-11 0.197E+00 -.558E+00   -.196E-03 -.110E+00 0.217E+00
   0.469E+00 -.271E+00 0.825E+03   -.517E+00 0.299E+00 -.824E+03   0.386E-01 -.223E-01 -.605E+00   0.303E-02 -.348E-02 0.613E-01
   -.469E+00 -.271E+00 0.825E+03   0.517E+00 0.299E+00 -.824E+03   -.386E-01 -.223E-01 -.605E+00   -.258E-02 -.152E-02 0.628E-01
   0.392E-04 -.336E+01 -.860E+03   -.126E-03 0.326E+01 0.859E+03   0.886E-12 0.135E+00 0.950E+00   -.501E-02 -.460E-01 0.832E-01
   -.148E+02 -.856E+01 -.868E+03   0.152E+02 0.877E+01 0.868E+03   -.554E+00 -.320E+00 -.210E+00   -.129E-01 -.744E-02 -.119E-01
   0.148E+02 -.856E+01 -.868E+03   -.152E+02 0.877E+01 0.868E+03   0.554E+00 -.320E+00 -.210E+00   0.358E-02 -.870E-02 -.125E-01
   -.692E+01 0.399E+01 -.856E+03   0.651E+01 -.376E+01 0.855E+03   0.308E+00 -.178E+00 0.641E+00   0.119E+00 -.666E-01 -.991E-02
   -.529E-04 0.171E+02 -.868E+03   0.384E-04 -.175E+02 0.868E+03   0.420E-11 0.640E+00 -.210E+00   -.541E-02 0.810E-02 -.125E-01
   0.692E+01 0.399E+01 -.856E+03   -.652E+01 -.376E+01 0.855E+03   -.308E+00 -.178E+00 0.641E+00   -.117E+00 -.676E-01 -.982E-02
   0.291E+01 0.168E+01 -.860E+03   -.282E+01 -.163E+01 0.859E+03   -.117E+00 -.674E-01 0.950E+00   0.321E-01 0.184E-01 0.828E-01
   -.291E+01 0.168E+01 -.860E+03   0.282E+01 -.163E+01 0.859E+03   0.117E+00 -.674E-01 0.950E+00   -.427E-01 0.186E-01 0.832E-01
   0.202E-04 -.799E+01 -.856E+03   0.110E-03 0.752E+01 0.855E+03   0.233E-11 0.355E+00 0.641E+00   0.111E-02 0.136E+00 -.985E-02
   0.537E-04 -.364E-04 -.248E+04   -.114E-03 0.771E-04 0.247E+04   -.368E-18 0.541E-19 0.178E+01   -.505E-04 -.164E-03 0.286E-02
   0.208E+01 -.152E+01 -.247E+04   -.144E+01 0.223E+01 0.247E+04   -.553E+00 -.793E+00 0.237E+01   -.144E+00 -.354E-01 -.560E-01
   -.208E+01 -.152E+01 -.247E+04   0.144E+01 0.223E+01 0.247E+04   0.553E+00 -.793E+00 0.237E+01   0.144E+00 -.345E-01 -.566E-01
   -.276E+00 0.256E+01 -.247E+04   0.121E+01 -.237E+01 0.247E+04   -.964E+00 -.825E-01 0.237E+01   -.102E+00 -.107E+00 -.560E-01
   0.276E+00 0.256E+01 -.247E+04   -.121E+01 -.237E+01 0.247E+04   0.964E+00 -.825E-01 0.237E+01   0.102E+00 -.106E+00 -.557E-01
   -.235E+01 -.104E+01 -.247E+04   0.266E+01 0.134E+00 0.247E+04   -.410E+00 0.876E+00 0.237E+01   0.424E-01 0.142E+00 -.566E-01
   0.235E+01 -.104E+01 -.247E+04   -.266E+01 0.134E+00 0.247E+04   0.410E+00 0.876E+00 0.237E+01   -.414E-01 0.142E+00 -.557E-01
   0.246E-04 -.130E-04 -.248E+04   0.105E-03 -.654E-04 0.248E+04   -.202E-17 0.872E-17 0.184E+01   -.616E-02 -.313E-02 0.129E+00
   -.150E-04 -.396E-05 -.966E+03   0.479E-04 0.613E-05 0.966E+03   -.237E-17 -.603E-18 0.306E+00   0.895E-03 0.546E-03 -.306E-01
   0.102E-03 -.564E-04 -.133E+04   0.264E-04 0.434E-06 0.135E+04   -.964E-19 -.423E-18 -.160E+02   0.156E-02 0.954E-03 -.131E-01
   0.450E-03 -.743E-03 0.120E+02   -.332E-14 -.170E-12 -.205E-11   -.227E-15 -.103E-15 -.141E+02   -.175E-01 -.688E-02 0.206E+01

 POSITION                                       TOTAL-FORCE (eV/Angst)
      0.00000      0.00000      5.28219        -0.000000      0.000000      0.012486
      2.93046      0.00000      5.28219        -0.005697      0.009029      0.027889
      5.86091      0.00000      5.28219         0.005697      0.009029      0.027889
      1.46523      2.53785      5.28219         0.004971     -0.009448      0.027889
      4.39568      2.53785      5.28219        -0.000000      0.000000     -0.016861
      7.32614      2.53785      5.28219        -0.004971     -0.009448      0.027889
      2.93046      5.07570      5.28219         0.010668      0.000419      0.027889
      5.86091      5.07570      5.28219        -0.010668      0.000419      0.027889
      8.79137      5.07570      5.28219        -0.000000      0.000000      0.032416
      1.46523      0.84595      7.67490        -0.007013     -0.004049     -0.028109
      4.39568      0.84595      7.67490        -0.000000     -0.042204     -0.051123
      7.32614      0.84595      7.67490         0.007013     -0.004049     -0.028109
      2.93046      3.38380      7.67490        -0.036549      0.021102     -0.051123
      5.86091      3.38380      7.67490         0.036549      0.021102     -0.051123
      8.79137      3.38380      7.67490        -0.000000     -0.007669      0.024995
      4.39568      5.92165      7.67490         0.000000      0.008098     -0.028109
      7.32614      5.92165      7.67490        -0.006641      0.003834      0.024995
     10.25659      5.92165      7.67490         0.006641      0.003834      0.024995
      8.79137      1.69254     10.05636        -0.000000     -0.008943      0.029519
      2.93602      1.69511     10.03837        -0.204273     -0.117937     -0.133333
      5.85534      1.69511     10.03837         0.204273     -0.117937     -0.133333
     10.25423      4.23112     10.05516         0.022235     -0.012837      0.027488
      4.39568      4.22332     10.03837         0.000000      0.235874     -0.133333
      7.32851      4.23112     10.05516        -0.022235     -0.012837      0.027488
     11.72126      6.76728     10.05636         0.007745      0.004471      0.029519
      5.86147      6.76728     10.05636        -0.007745      0.004471      0.029519
      8.79137      6.76486     10.05516         0.000000      0.025674      0.027488
      0.00000      0.00000     12.42937        -0.000000      0.000000     -0.021431
      2.95945      0.04653     12.45339        -0.066055     -0.112183     -0.072145
      5.83191      0.04653     12.45339         0.066055     -0.112183     -0.072145
      1.52003      2.53970     12.45339        -0.130181     -0.001114     -0.072145
      7.27134      2.53970     12.45339         0.130181     -0.001114     -0.072145
      2.95626      5.02732     12.45339        -0.064126      0.113297     -0.072145
      5.83511      5.02732     12.45339         0.064126      0.113297     -0.072145
      8.79137      5.07570     12.43676        -0.000000      0.000000     -0.024677
      4.39568      2.53785     12.21669        -0.000000      0.000000      0.700022
      4.39568      2.53785     13.83888        -0.000000      0.000000     -0.024731
    total drift:                               -0.017091     -0.007620      0.008622

  FREE ENERGIE OF THE ION-ELECTRON SYSTEM (eV)
  free  energy   TOTEN  =      -104.36265521 eV

  energy  without entropy=     -104.36265521  energy(sigma->0) =     -104.36265521

 stress matrix after NEB project (eV)
     -7.93594     -0.00000      0.00000
     -0.00000     -7.93594     -0.00000
     -0.00000      0.00000     -0.39642
  FORCES: max atom, RMS     0.024731    0.004066
  FORCE total and by dimension    0.024731    0.024731
  Stress total and by dimension   11.230112    7.935939
|           W    W    AA    RRRRR   N    N  II  N    N   GGGG   !!!           |
|           W    W   A  A   R    R  NN   N  II  NN   N  G    G  !!!           |
|           W    W  A    A  R    R  N N  N  II  N N  N  G       !!!           |
|           W WW W  AAAAAA  RRRRR   N  N N  II  N  N N  G  GGG   !            |
|           WW  WW  A    A  R   R   N   NN  II  N   NN  G    G                |
|           W    W  A    A  R    R  N    N  II  N    N   GGGG   !!!           |
|     Tetrahedron method does not include variations of the Fermi             |
|     occupations, so forces and stress will be inaccurate. We suggest        |
|     using a different smearing scheme ISMEAR = 1 or 2 for metals in         |
|     relaxations.                                                            |

 total charge

# of ion       s       p       d       tot
    1        0.416   0.204   9.177   9.797
    2        0.417   0.204   9.176   9.797
    3        0.417   0.204   9.176   9.797
    4        0.417   0.204   9.176   9.797
    5        0.415   0.203   9.177   9.796
    6        0.417   0.204   9.176   9.797
    7        0.417   0.204   9.176   9.797
    8        0.417   0.204   9.176   9.797
    9        0.413   0.203   9.177   9.793
   10        0.405   0.270   9.164   9.839
   11        0.406   0.270   9.165   9.841
   12        0.405   0.270   9.164   9.839
   13        0.406   0.270   9.165   9.841
   14        0.406   0.270   9.165   9.841
   15        0.402   0.271   9.164   9.837
   16        0.405   0.270   9.164   9.839
   17        0.402   0.271   9.164   9.837
   18        0.402   0.271   9.164   9.837
   19        0.402   0.264   9.168   9.834
   20        0.426   0.294   9.146   9.867
   21        0.426   0.294   9.146   9.867
   22        0.396   0.277   9.163   9.836
   23        0.426   0.294   9.146   9.867
   24        0.396   0.277   9.163   9.836
   25        0.402   0.264   9.168   9.834
   26        0.402   0.264   9.168   9.834
   27        0.396   0.277   9.163   9.836
   28        0.413   0.198   9.176   9.787
   29        0.422   0.206   9.171   9.799
   30        0.422   0.206   9.171   9.799
   31        0.422   0.206   9.171   9.799
   32        0.422   0.206   9.171   9.799
   33        0.422   0.206   9.171   9.799
   34        0.422   0.206   9.171   9.799
   35        0.415   0.200   9.174   9.789
   36        0.531   0.662   3.878   5.071
   37        1.342   2.211   0.000   3.553
tot         16.296  11.275 324.752 352.323

 BZINTS: Fermi energy:    0.745987;  395.000000 electrons
         Band energy:-0.133548E+04;  BLOECHL correction:   -0.040507