 vasp.6.2.0 18Jan21 (build Jun 12 2021 23:27:24) complex

 executed on             LinuxIFC date 2022.05.27  05:24:30

 INCAR:
   ISMEAR = -5
   SIGMA = 0.1
   ISPIN = 1
   EDIFF = 1.d-5
   EDIFFG = -0.01
   NSW = 0
   NELM = 150
   ENCUT = 500
   ISIF = 2
   IBRION = 2
   LREAL = Auto
   ALGO = Fast
   ICHARG = 11
   LORBIT = 10
   LCHARG = .F.
   LWAVE = .F.

 POTCAR:    PAW_PBE Au 04Oct2007
 POTCAR:    PAW_PBE Pt 04Feb2005
 POTCAR:    PAW_PBE O 08Apr2002
 POTCAR:    PAW_PBE H 15Jun2001
|           W    W    AA    RRRRR   N    N  II  N    N   GGGG   !!!           |
|           W    W   A  A   R    R  NN   N  II  NN   N  G    G  !!!           |
|           W    W  A    A  R    R  N N  N  II  N N  N  G       !!!           |
|           W WW W  AAAAAA  RRRRR   N  N N  II  N  N N  G  GGG   !            |
|           WW  WW  A    A  R   R   N   NN  II  N   NN  G    G                |
|           W    W  A    A  R    R  N    N  II  N    N   GGGG   !!!           |
|     For optimal performance we recommend to set                             |
|       NCORE = 2 up to number-of-cores-per-socket                            |
|     This setting can greatly improve the performance of VASP for DFT.       |
|     The default, NCORE=1 might be grossly inefficient on modern             |
|     multi-core architectures or massively parallel machines. Do your        |
|     Unfortunately you need to use the default for GW and RPA                |
|     calculations (for HF NCORE is supported but not extensively tested      |
|     yet).                                                                   |

 POTCAR:    PAW_PBE Au 04Oct2007
   VRHFIN =Au: s1d10

   TITEL  = PAW_PBE Au 04Oct2007
   POMASS =  196.966; ZVAL   =   11.000    mass and valenz
   ENMAX  =  229.943; ENMIN  =  172.457 eV

 POTCAR:    PAW_PBE Pt 04Feb2005
   VRHFIN =Pt: s1d9

   TITEL  = PAW_PBE Pt 04Feb2005
   POMASS =  195.080; ZVAL   =   10.000    mass and valenz
   ENMAX  =  230.283; ENMIN  =  172.712 eV

 POTCAR:    PAW_PBE O 08Apr2002
   VRHFIN =O: s2p4

   TITEL  = PAW_PBE O 08Apr2002
   POMASS =   16.000; ZVAL   =    6.000    mass and valenz
   ENMAX  =  400.000; ENMIN  =  300.000 eV

 POTCAR:    PAW_PBE H 15Jun2001
   VRHFIN =H: ultrasoft test

   TITEL  = PAW_PBE H 15Jun2001
   POMASS =    1.000; ZVAL   =    1.000    mass and valenz
   ENMAX  =  250.000; ENMIN  =  200.000 eV

 Optimization of the real space projectors (new method)

 maximal supplied QI-value         = 15.12
 optimisation between [QCUT,QGAM] = [ 11.34, 22.83] = [ 36.00,145.93] Ry
 Optimized for a Real-space Cutoff    1.39 Angstroem

   l    n(q)    QCUT    max X(q) W(low)/X(q) W(high)/X(q)  e(spline)
   2      9    11.338    60.898    0.39E-03    0.42E-03    0.21E-06
   2      9    11.338    58.894    0.40E-03    0.42E-03    0.22E-06
   0      9    11.338   109.617    0.13E-03    0.20E-04    0.13E-06
   0      9    11.338    75.026    0.13E-03    0.20E-04    0.13E-06
   1      9    11.338    16.344    0.33E-04    0.24E-03    0.18E-06
   1      9    11.338    10.160    0.26E-04    0.19E-03    0.15E-06
 Optimization of the real space projectors (new method)

[...]

   l    n(q)    QCUT    max X(q) W(low)/X(q) W(high)/X(q)  e(spline)
   0      7    11.387    20.381    0.39E-03    0.13E-02    0.15E-06
   0      7    11.387    15.268    0.42E-03    0.14E-02    0.17E-06
   1      6    11.387     5.964    0.41E-03    0.11E-02    0.17E-06
   1      6    11.387     5.382    0.39E-03    0.87E-03    0.15E-06
 Optimization of the real space projectors (new method)

 maximal supplied QI-value         = 34.20
 optimisation between [QCUT,QGAM] = [ 11.29, 22.57] = [ 35.68,142.71] Ry
 Optimized for a Real-space Cutoff    1.16 Angstroem

   l    n(q)    QCUT    max X(q) W(low)/X(q) W(high)/X(q)  e(spline)
   0      8    11.287    19.460    0.40E-03    0.73E-03    0.16E-06
   0      8    11.287    12.209    0.38E-03    0.70E-03    0.15E-06
   1      7    11.287     4.655    0.22E-03    0.25E-04    0.22E-06
  PAW_PBE Au 04Oct2007                  :
  PAW_PBE Pt 04Feb2005                  :
  PAW_PBE O 08Apr2002                   :
  PAW_PBE H 15Jun2001                   :

 POSCAR: Au-Pt-OH
  positions in direct lattice
  velocities in cartesian coordinates
 exchange correlation table for  LEXCH =        8
   RHO(1)=    0.500       N(1)  =     2000
   RHO(2)=  100.500       N(2)  =     4000

 VTST: version 3.2, (02/03/18)

 CHAIN: initializing optimizer

 OPT: Using VASP Conjugate-Gradient optimizer
 CHAIN: Read ICHAIN            0

 POSCAR: Au-Pt-OH
  positions in direct lattice
  velocities in cartesian coordinates

 ion  position               nearest neighbor table
   1  0.000  0.000  0.238-  16 2.94  12 2.94   6 2.94   8 2.94   7 2.94   3 2.94  10 2.94   4 2.94
                             2 2.94
   2  0.333  0.000  0.238-   9 2.94  11 2.94  17 2.94  10 2.94   8 2.94   4 2.94   5 2.94   1 2.94
                             3 2.94
   3  0.667  0.000  0.238-   7 2.94  18 2.94  12 2.94   1 2.94  11 2.94   5 2.94   6 2.94   9 2.94
                             2 2.94
   4  0.000  0.333  0.238-  10 2.94   6 2.94   5 2.94  13 2.94   2 2.94  15 2.94   9 2.94   1 2.94
                             7 2.94
   5  0.333  0.333  0.238-  13 2.94   7 2.94  11 2.94   4 2.94   2 2.94  14 2.94   3 2.94   8 2.94
                             6 2.94
   6  0.667  0.333  0.238-  15 2.94  14 2.94   1 2.94  12 2.94   4 2.94   9 2.94   8 2.94   3 2.94
                             5 2.94
   7  0.000  0.667  0.238-  18 2.94   3 2.94  16 2.94   5 2.94   1 2.94  13 2.94   8 2.94   4 2.94
                             9 2.94
   8  0.333  0.667  0.238-   9 2.94  17 2.94   1 2.94   2 2.94  14 2.94  16 2.94   6 2.94   7 2.94
                             5 2.94
   9  0.667  0.667  0.238-   2 2.94   8 2.94  17 2.94   6 2.94  15 2.94   4 2.94   3 2.94  18 2.94
                             7 2.94
  10  0.111  0.111  0.346-  20 2.91  26 2.93  19 2.93  11 2.94  17 2.94   2 2.94   4 2.94   1 2.94
                            12 2.94  16 2.94  13 2.94  15 2.94
  11  0.444  0.111  0.346-  20 2.92  21 2.92  27 2.93  13 2.94   2 2.94  10 2.94  17 2.94   5 2.94
                             3 2.94  18 2.94  14 2.94  12 2.94
  12  0.778  0.111  0.346-  21 2.91  25 2.93  19 2.93  16 2.94  18 2.94   1 2.94  14 2.94  15 2.94
                             3 2.94   6 2.94  10 2.94  11 2.94
  13  0.111  0.444  0.346-  23 2.92  20 2.92  22 2.93   5 2.94  18 2.94  11 2.94   7 2.94   4 2.94
                            16 2.94  10 2.94  14 2.94  15 2.94
  14  0.444  0.444  0.346-  21 2.92  23 2.92  24 2.93  15 2.94   6 2.94  12 2.94   8 2.94  17 2.94
                             5 2.94  16 2.94  13 2.94  11 2.94
  15  0.778  0.444  0.346-  24 2.93  22 2.93  19 2.93  14 2.94   6 2.94  17 2.94  12 2.94   9 2.94
                             4 2.94  10 2.94  13 2.94  18 2.94
  16  0.111  0.778  0.346-  23 2.91  25 2.93  26 2.93  18 2.94  12 2.94   7 2.94   1 2.94   8 2.94
                            13 2.94  10 2.94  14 2.94  17 2.94
  17  0.444  0.778  0.346-  27 2.93  24 2.93  26 2.93   9 2.94  15 2.94   2 2.94  10 2.94  11 2.94
                             8 2.94  14 2.94  16 2.94  18 2.94
  18  0.778  0.778  0.346-  22 2.93  27 2.93  25 2.93  16 2.94   7 2.94  13 2.94  12 2.94   3 2.94
                            11 2.94   9 2.94  15 2.94  17 2.94
  19  0.889  0.222  0.454-  21 2.93  20 2.93  15 2.93  10 2.93  12 2.93  24 2.94  22 2.94  26 2.94
                            25 2.94  28 2.96  32 2.96  31 2.96
  20  0.221  0.221  0.453-  36 2.82  10 2.91  11 2.92  13 2.92  26 2.93  19 2.93  27 2.94  22 2.94
                            23 2.96  21 2.96  29 2.96  31 2.96
  21  0.557  0.221  0.453-  36 2.82  12 2.91  14 2.92  11 2.92  25 2.93  19 2.93  24 2.94  27 2.94
                            20 2.96  23 2.96  30 2.96  32 2.96
  22  0.888  0.556  0.454-  18 2.93  15 2.93  24 2.93  27 2.93  13 2.93  25 2.94  19 2.94  23 2.94
                            20 2.94  35 2.96  33 2.96  31 2.96
  23  0.221  0.557  0.453-  36 2.82  16 2.91  13 2.92  14 2.92  25 2.93  26 2.93  22 2.94  24 2.94
                            20 2.96  21 2.96  33 2.96  34 2.96
  24  0.556  0.556  0.454-  15 2.93  17 2.93  27 2.93  22 2.93  14 2.93  26 2.94  19 2.94  21 2.94
                            23 2.94  35 2.96  32 2.96  34 2.96
  25  0.889  0.889  0.454-  23 2.93  21 2.93  18 2.93  16 2.93  12 2.93  22 2.94  27 2.94  19 2.94
                            26 2.94  28 2.96  33 2.96  30 2.96
  26  0.222  0.889  0.454-  20 2.93  23 2.93  17 2.93  10 2.93  16 2.93  27 2.94  24 2.94  19 2.94
                            25 2.94  28 2.96  29 2.96  34 2.96
  27  0.556  0.888  0.454-  17 2.93  18 2.93  24 2.93  22 2.93  11 2.93  26 2.94  25 2.94  20 2.94
                            21 2.94  35 2.96  29 2.96  30 2.96
  28  0.000  0.000  0.563-  34 2.95  32 2.95  33 2.95  30 2.95  31 2.95  29 2.95  25 2.96  19 2.96
                            26 2.96
  29  0.333  0.002  0.563-  30 2.92  31 2.92  36 2.93  35 2.95  28 2.95  27 2.96  20 2.96  26 2.96
                            34 2.98
  30  0.664  0.002  0.563-  29 2.92  32 2.92  36 2.93  35 2.95  28 2.95  27 2.96  21 2.96  25 2.96
                            33 2.98
  31  0.002  0.333  0.563-  33 2.92  29 2.92  36 2.93  35 2.95  28 2.95  22 2.96  20 2.96  19 2.96
                            32 2.98
  32  0.664  0.333  0.563-  34 2.92  30 2.92  36 2.93  35 2.95  28 2.95  24 2.96  21 2.96  19 2.96
                            31 2.98
  33  0.002  0.664  0.563-  31 2.92  34 2.92  36 2.93  35 2.95  28 2.95  22 2.96  23 2.96  25 2.96
                            30 2.98
  34  0.333  0.664  0.563-  32 2.92  33 2.92  36 2.93  35 2.95  28 2.95  24 2.96  23 2.96  26 2.96
                            29 2.98
  35  0.667  0.667  0.563-  29 2.95  34 2.95  32 2.95  31 2.95  30 2.95  33 2.95  24 2.96  27 2.96
                            22 2.96
  36  0.333  0.333  0.554-  37 2.00  20 2.82  23 2.82  21 2.82  33 2.93  31 2.93  29 2.93  30 2.93
                            34 2.93  32 2.93
  37  0.333  0.333  0.644-  38 0.96  36 2.00
  38  0.333  0.333  0.688-  37 0.96

  LATTYP: Found a hexagonal cell.
 ALAT       =     8.8135128021
 C/A-ratio  =     2.5184286595

  Lattice vectors:

 A1 = (  -4.4067569092,  -7.6327256898,   0.0000000000)
 A2 = (   8.8135128021,   0.0000000000,   0.0000000000)
 A3 = (   0.0000000000,   0.0000000000,  22.1962032318)

Analysis of symmetry for initial positions (statically):
 Subroutine PRICEL returns:
 Original cell was already a primitive cell.

 Routine SETGRP: Setting up the symmetry group for a
 hexagonal supercell.

 Subroutine GETGRP returns: Found  6 space group operations
 (whereof  6 operations were pure point group operations)
 out of a pool of 24 trial point group operations.

The static configuration has the point symmetry C_3v.

Analysis of symmetry for dynamics (positions and initial velocities):
 Subroutine PRICEL returns:
 Original cell was already a primitive cell.

[...]

The dynamic configuration has the point symmetry C_3v.

Analysis of constrained symmetry for selective dynamics:
 Subroutine PRICEL returns:
 Original cell was already a primitive cell.

[...]
     33      -4.6423      2.00000
     34      -4.6162      2.00000
     35      -4.6110      2.00000
     36      -4.5978      2.00000
     37      -4.5064      2.00000
     38      -4.4904      2.00000
     39      -4.4022      2.00000
     40      -4.3970      2.00000
     41      -4.3373      2.00000
     42      -4.2662      2.00000
     43      -4.2494      2.00000
     44      -4.2035      2.00000
     45      -4.1922      2.00000
     46      -4.1561      2.00000
     47      -4.1470      2.00000
     48      -4.0569      2.00000
     49      -4.0090      2.00000
     50      -3.9881      2.00000
     51      -3.9828      2.00000
     52      -3.9786      2.00000
     53      -3.9716      2.00000
     54      -3.9561      2.00000
     55      -3.9149      2.00000
     56      -3.8775      2.00000
     57      -3.8471      2.00000
     58      -3.8131      2.00000
     59      -3.8060      2.00000
     60      -3.8004      2.00000
[...]
    238       6.4799      0.00000
    239       6.5693      0.00000
    240       6.6284      0.00000
    241       6.6454      0.00000
    242       6.7229      0.00000
    243       6.8941      0.00000
    244       6.9536      0.00000
    245       6.9993      0.00000
    246       7.1446      0.00000
    247       7.2991      0.00000
    248       7.3133      0.00000
    249       7.3959      0.00000
    250       7.6121      0.00000
    251       7.7563      0.00000
    252       7.7737      0.00000

 soft charge-density along one line, spin component           1
         0         1         2         3         4         5         6         7         8         9
 total charge-density along one line

------------------------ aborting loop because EDIFF is reached ----------------------------------------

 total charge

# of ion       s       p       d       tot
    1        0.542   0.240   8.769   9.551
    2        0.546   0.240   8.765   9.551
    3        0.546   0.240   8.765   9.551
    4        0.546   0.240   8.765   9.551
    5        0.541   0.243   8.762   9.545
    6        0.546   0.240   8.765   9.551
    7        0.546   0.240   8.765   9.551
    8        0.546   0.240   8.765   9.551
    9        0.539   0.240   8.768   9.547
   10        0.520   0.311   8.770   9.601
   11        0.521   0.306   8.779   9.607
   12        0.520   0.311   8.770   9.601
   13        0.521   0.306   8.779   9.607
   14        0.521   0.306   8.779   9.607
   15        0.515   0.308   8.779   9.602
   16        0.520   0.311   8.770   9.601
   17        0.515   0.308   8.779   9.602
   18        0.515   0.308   8.779   9.602
   19        0.516   0.304   8.774   9.594
   20        0.527   0.323   8.759   9.609
   21        0.527   0.323   8.759   9.609
   22        0.512   0.304   8.776   9.592
   23        0.527   0.323   8.759   9.609
   24        0.512   0.304   8.776   9.592
   25        0.516   0.304   8.774   9.594
   26        0.516   0.304   8.774   9.594
   27        0.512   0.304   8.776   9.592
   28        0.543   0.231   8.769   9.543
   29        0.532   0.232   8.772   9.536
   30        0.532   0.232   8.772   9.536
   31        0.532   0.232   8.772   9.536
   32        0.532   0.232   8.772   9.536
   33        0.532   0.232   8.772   9.536
   34        0.532   0.232   8.772   9.536
   35        0.539   0.233   8.766   9.539
   36        0.557   0.471   7.978   9.005
   37        1.534   3.526   0.000   5.060
   38        0.602   0.128   0.000   0.730
tot         21.202  13.714 314.944 349.859

  FORCE on cell =-STRESS in cart. coord.  units (eV):
  Direction    XX          YY          ZZ          XY          YZ          ZX
  Alpha Z  1030.28414  1030.28414  1030.28414
  Ewald  119277.87246119277.87289************    -0.00033    -0.00008    -0.00012
  Hartree128210.61183128210.61184************     0.00001    -0.00002    -0.00003
  E(xc)   -1805.45720 -1805.45724 -1811.19270     0.00004    -0.00000    -0.00000
  Local  ************************259900.46691     0.00213     0.00000    -0.00003
  n-local  -109.99655   -55.62882   -63.67089    24.03644    -1.18750     1.23530
  augment  2428.90475  2428.90632  2439.74984    -0.00136     0.00005     0.00008
  Kinetic  5637.49325  5653.50007  5659.08110     6.95487     0.08753     0.42923
  Fock        0.00000     0.00000     0.00000     0.00000     0.00000     0.00000
  Total     -20.00806   -20.00806     1.67356    -0.00000     0.00000     0.00000
  in kB     -21.46882   -21.46882     1.79575    -0.00000     0.00000     0.00000

 VOLUME and BASIS-vectors are now :
  energy-cutoff  :      500.00
  volume of cell :     1493.16
      direct lattice vectors                 reciprocal lattice vectors
     8.813512802  0.000000000  0.000000000     0.113462137 -0.065507406  0.000000000
     4.406756909  7.632725690  0.000000000     0.000000000  0.131014796  0.000000000
     0.000000000  0.000000000 22.196203232     0.000000000  0.000000000  0.045052750

  length of vectors
     8.813512802  8.813512802 22.196203232     0.131014796  0.131014796  0.045052750

 FORCES acting on ions
    electron-ion (+dipol)            ewald-force                    non-local-force                 convergence-correction
   -.195E-04 -.161E-04 0.250E+04   0.519E-04 0.433E-04 -.250E+04   -.111E-17 0.124E-17 -.111E+01   -.202E-03 -.130E-03 -.801E+00
   0.185E+00 0.285E+00 0.250E+04   -.235E+00 -.359E+00 -.250E+04   0.132E-01 0.402E-01 -.316E+00   0.361E-01 0.476E-01 -.741E+00
   -.185E+00 0.285E+00 0.250E+04   0.235E+00 -.359E+00 -.250E+04   -.132E-01 0.402E-01 -.316E+00   -.358E-01 0.496E-01 -.741E+00
   0.339E+00 0.173E-01 0.250E+04   -.428E+00 -.239E-01 -.250E+04   0.414E-01 -.867E-02 -.316E+00   0.593E-01 0.741E-02 -.741E+00
   0.883E-05 -.230E-04 0.250E+04   0.952E-04 0.171E-05 -.250E+04   -.965E-18 -.665E-18 -.268E+00   0.430E-02 0.262E-02 -.653E+00
   -.339E+00 0.174E-01 0.250E+04   0.428E+00 -.239E-01 -.250E+04   -.414E-01 -.867E-02 -.316E+00   -.609E-01 0.838E-02 -.740E+00
   0.154E+00 -.302E+00 0.250E+04   -.193E+00 0.383E+00 -.250E+04   0.282E-01 -.315E-01 -.316E+00   0.251E-01 -.558E-01 -.741E+00
   -.154E+00 -.302E+00 0.250E+04   0.193E+00 0.383E+00 -.250E+04   -.282E-01 -.315E-01 -.316E+00   -.232E-01 -.569E-01 -.740E+00
   0.190E-04 -.417E-04 0.250E+04   0.166E-03 -.201E-04 -.250E+04   -.847E-18 0.177E-17 -.601E+00   -.464E-02 -.240E-02 -.773E+00
   0.382E+01 0.221E+01 0.866E+03   -.349E+01 -.201E+01 -.865E+03   -.293E+00 -.169E+00 -.701E+00   0.181E-01 0.104E-01 0.344E-01
   0.139E-04 0.327E+01 0.868E+03   0.149E-03 -.324E+01 -.868E+03   -.199E-08 -.299E-01 -.344E+00   0.381E-02 -.344E-01 0.800E-01
   -.382E+01 0.221E+01 0.866E+03   0.349E+01 -.201E+01 -.865E+03   0.293E+00 -.169E+00 -.701E+00   -.195E-01 0.119E-01 0.341E-01
   0.284E+01 -.164E+01 0.868E+03   -.281E+01 0.162E+01 -.868E+03   -.259E-01 0.150E-01 -.344E+00   -.276E-01 0.208E-01 0.800E-01
   -.284E+01 -.164E+01 0.868E+03   0.281E+01 0.162E+01 -.868E+03   0.259E-01 0.150E-01 -.344E+00   0.355E-01 0.203E-01 0.799E-01
   0.308E-04 0.374E+00 0.864E+03   0.236E-03 -.400E+00 -.864E+03   -.621E-09 -.933E-02 -.427E+00   -.240E-02 0.311E-01 -.138E-01
   -.216E-04 -.442E+01 0.866E+03   0.163E-03 0.403E+01 -.865E+03   0.225E-07 0.338E+00 -.701E+00   0.299E-03 -.228E-01 0.340E-01
   0.324E+00 -.187E+00 0.864E+03   -.347E+00 0.200E+00 -.864E+03   -.808E-02 0.466E-02 -.427E+00   0.260E-01 -.172E-01 -.138E-01
   -.324E+00 -.187E+00 0.864E+03   0.346E+00 0.200E+00 -.864E+03   0.808E-02 0.466E-02 -.427E+00   -.260E-01 -.153E-01 -.141E-01
   -.409E-04 0.163E+01 -.801E+03   0.528E-04 -.179E+01 0.799E+03   0.471E-08 0.707E-01 0.647E+00   -.358E-03 0.721E-01 0.801E+00
   0.124E+02 0.716E+01 -.766E+03   -.121E+02 -.697E+01 0.765E+03   -.438E+00 -.253E+00 -.419E+00   0.252E+00 0.145E+00 0.120E+01
   -.124E+02 0.716E+01 -.766E+03   0.121E+02 -.697E+01 0.765E+03   0.438E+00 -.253E+00 -.419E+00   -.251E+00 0.148E+00 0.120E+01
   0.466E+01 -.269E+01 -.794E+03   -.502E+01 0.290E+01 0.792E+03   0.244E+00 -.141E+00 0.658E+00   0.130E+00 -.796E-01 0.890E+00
   -.148E-04 -.143E+02 -.766E+03   0.145E-03 0.139E+02 0.765E+03   0.336E-07 0.505E+00 -.419E+00   0.195E-02 -.291E+00 0.120E+01
   -.466E+01 -.269E+01 -.794E+03   0.502E+01 0.290E+01 0.792E+03   -.244E+00 -.141E+00 0.658E+00   -.138E+00 -.793E-01 0.890E+00
   -.141E+01 -.813E+00 -.801E+03   0.155E+01 0.894E+00 0.799E+03   -.613E-01 -.354E-01 0.647E+00   -.608E-01 -.352E-01 0.801E+00
   0.141E+01 -.813E+00 -.801E+03   -.155E+01 0.894E+00 0.799E+03   0.613E-01 -.354E-01 0.647E+00   0.626E-01 -.363E-01 0.801E+00
   0.700E-05 0.538E+01 -.794E+03   0.200E-03 -.580E+01 0.792E+03   0.188E-07 0.282E+00 0.658E+00   -.421E-02 0.153E+00 0.890E+00
   -.116E-04 -.127E-04 -.244E+04   0.278E-04 0.343E-04 0.244E+04   0.181E-17 0.602E-18 0.311E+00   0.128E-02 0.720E-03 0.704E+00
   0.228E+02 0.381E+02 -.242E+04   -.232E+02 -.389E+02 0.242E+04   0.456E-01 0.244E+00 0.783E+00   0.220E+00 0.326E+00 0.612E+00
   -.228E+02 0.381E+02 -.242E+04   0.232E+02 -.389E+02 0.242E+04   -.456E-01 0.244E+00 0.783E+00   -.226E+00 0.328E+00 0.612E+00
   0.444E+02 0.673E+00 -.242E+04   -.453E+02 -.597E+00 0.242E+04   0.234E+00 -.824E-01 0.783E+00   0.392E+00 0.273E-01 0.612E+00
   -.444E+02 0.673E+00 -.242E+04   0.453E+02 -.597E+00 0.242E+04   -.234E+00 -.824E-01 0.783E+00   -.400E+00 0.284E-01 0.612E+00
   0.216E+02 -.388E+02 -.242E+04   -.221E+02 0.395E+02 0.242E+04   0.188E+00 -.161E+00 0.783E+00   0.171E+00 -.360E+00 0.612E+00
   -.216E+02 -.388E+02 -.242E+04   0.221E+02 0.395E+02 0.242E+04   -.188E+00 -.161E+00 0.783E+00   -.176E+00 -.361E+00 0.612E+00
   0.282E-04 -.278E-04 -.244E+04   0.147E-03 -.495E-04 0.244E+04   -.140E-17 -.109E-18 0.435E+00   -.359E-02 -.178E-02 0.700E+00
   0.276E-04 -.160E-04 -.195E+04   0.101E-03 0.891E-05 0.195E+04   -.678E-18 0.574E-17 0.200E+01   0.451E-02 0.271E-02 0.427E+00
   0.198E-03 -.971E-04 -.154E+04   0.175E-04 0.117E-05 0.152E+04   -.473E-17 0.159E-17 0.196E+02   0.400E-02 0.244E-02 -.566E+00
   0.772E-05 -.135E-04 -.308E+03   0.960E-06 0.869E-07 0.316E+03   0.458E-19 -.784E-19 -.829E+01   0.221E-03 0.134E-03 -.161E-01
   -.468E-03 -.851E-03 -.196E+02   0.350E-14 0.145E-12 0.114E-12   -.623E-16 0.201E-15 0.131E+02   -.105E-01 -.530E-02 0.724E+01

 POSITION                                       TOTAL-FORCE (eV/Angst)
      0.00000      0.00000      5.28038        -0.000000      0.000000     -0.009942
      2.93784      0.00000      5.28038        -0.000538      0.014740     -0.062743
      5.87568      0.00000      5.28038         0.000538      0.014740     -0.062743
      1.46892      2.54424      5.28038         0.012497     -0.007836     -0.062743
      4.40676      2.54424      5.28038        -0.000000      0.000000     -0.080473
      7.34459      2.54424      5.28038        -0.012497     -0.007836     -0.062743
      2.93784      5.08848      5.28038         0.013034     -0.006904     -0.062743
      5.87568      5.08848      5.28038        -0.013034     -0.006904     -0.062743
      8.81351      5.08848      5.28038        -0.000000      0.000000     -0.061171
      1.46892      0.84808      7.67911         0.062397      0.036025      0.128094
      4.40676      0.84808      7.67911        -0.000000     -0.033466      0.035033
      7.34459      0.84808      7.67911        -0.062397      0.036025      0.128094
      2.93784      3.39232      7.67911        -0.028983      0.016733      0.035033
      5.87568      3.39232      7.67911         0.028983      0.016733      0.035033
      8.81351      3.39232      7.67911        -0.000000     -0.004967      0.103721
      4.40676      5.93656      7.67911        -0.000000     -0.072050      0.128094
      7.34459      5.93656      7.67911        -0.004302      0.002484      0.103721
     10.28243      5.93656      7.67911         0.004302      0.002484      0.103721
      8.81351      1.69709     10.07334        -0.000000     -0.019133     -0.016921
      2.92757      1.69024     10.04824         0.129824      0.074954     -0.003750
      5.88594      1.69024     10.04824        -0.129824      0.074954     -0.003750
     10.27700      4.24354     10.06671         0.018739     -0.010819      0.000700
      4.40676      4.25225     10.04824        -0.000000     -0.149908     -0.003750
      7.35003      4.24354     10.06671        -0.018739     -0.010819      0.000700
     11.75055      6.78418     10.07334         0.016569      0.009566     -0.016921
      5.87648      6.78418     10.07334        -0.016569      0.009566     -0.016921
      8.81351      6.77837     10.06671         0.000000      0.021637      0.000700
      0.00000      0.00000     12.49905        -0.000000      0.000000     -0.037303
      2.94801      0.01573     12.49317        -0.102953     -0.222542     -0.082394
      5.86551      0.01573     12.49317         0.102953     -0.222542     -0.082394
      1.48763      2.54518     12.49317        -0.244204      0.022111     -0.082394
      7.32589      2.54518     12.49317         0.244204      0.022111     -0.082394
      2.94638      5.07181     12.49317        -0.141251      0.200431     -0.082394
      5.86714      5.07181     12.49317         0.141251      0.200431     -0.082394
      8.81351      5.08848     12.49660        -0.000000      0.000000      0.003961
      4.40676      2.54424     12.29817        -0.000000      0.000000      0.391061
      4.40676      2.54424     14.30265        -0.000000      0.000000     -0.051256
      4.40676      2.54424     15.26742        -0.000000      0.000000     -0.024682
    total drift:                               -0.010938     -0.006148      0.785902

  FREE ENERGIE OF THE ION-ELECTRON SYSTEM (eV)
  free  energy   TOTEN  =      -121.51400736 eV

  energy  without entropy=     -121.51400736  energy(sigma->0) =     -121.51400736

 stress matrix after NEB project (eV)
    -20.00806     -0.00000      0.00000
     -0.00000    -20.00806      0.00000
     -0.00000      0.00000      1.67356
  FORCES: max atom, RMS     0.051256    0.009229
  FORCE total and by dimension    0.056889    0.051256
  Stress total and by dimension   28.345122   20.008064
|           W    W    AA    RRRRR   N    N  II  N    N   GGGG   !!!           |
|           W    W   A  A   R    R  NN   N  II  NN   N  G    G  !!!           |
|           W    W  A    A  R    R  N N  N  II  N N  N  G       !!!           |
|           W WW W  AAAAAA  RRRRR   N  N N  II  N  N N  G  GGG   !            |
|           WW  WW  A    A  R   R   N   NN  II  N   NN  G    G                |
|           W    W  A    A  R    R  N    N  II  N    N   GGGG   !!!           |
|     Tetrahedron method does not include variations of the Fermi             |
|     occupations, so forces and stress will be inaccurate. We suggest        |
|     using a different smearing scheme ISMEAR = 1 or 2 for metals in         |
|     relaxations.                                                            |

 total charge

# of ion       s       p       d       tot
    1        0.542   0.240   8.769   9.551
    2        0.546   0.240   8.765   9.551
    3        0.546   0.240   8.765   9.551
    4        0.546   0.240   8.765   9.551
    5        0.541   0.243   8.762   9.545
    6        0.546   0.240   8.765   9.551
    7        0.546   0.240   8.765   9.551
    8        0.546   0.240   8.765   9.551
    9        0.539   0.240   8.768   9.547
   10        0.520   0.311   8.770   9.601
   11        0.521   0.306   8.779   9.607
   12        0.520   0.311   8.770   9.601
   13        0.521   0.306   8.779   9.607
   14        0.521   0.306   8.779   9.607
   15        0.515   0.308   8.779   9.602
   16        0.520   0.311   8.770   9.601
   17        0.515   0.308   8.779   9.602
   18        0.515   0.308   8.779   9.602
   19        0.516   0.304   8.774   9.594
   20        0.527   0.323   8.759   9.609
   21        0.527   0.323   8.759   9.609
   22        0.512   0.304   8.776   9.592
   23        0.527   0.323   8.759   9.609
   24        0.512   0.304   8.776   9.592
   25        0.516   0.304   8.774   9.594
   26        0.516   0.304   8.774   9.594
   27        0.512   0.304   8.776   9.592
   28        0.543   0.231   8.769   9.543
   29        0.532   0.232   8.772   9.536
   30        0.532   0.232   8.772   9.536
   31        0.532   0.232   8.772   9.536
   32        0.532   0.232   8.772   9.536
   33        0.532   0.232   8.772   9.536
   34        0.532   0.232   8.772   9.536
   35        0.539   0.233   8.766   9.539
   36        0.557   0.471   7.978   9.005
   37        1.534   3.526   0.000   5.060
   38        0.602   0.128   0.000   0.730
tot         21.202  13.714 314.944 349.859

 BZINTS: Fermi energy:    0.796896;  402.000000 electrons
         Band energy:-0.118521E+04;  BLOECHL correction:   -0.069377