 vasp.6.2.0 18Jan21 (build Jun 12 2021 23:27:24) complex

 executed on             LinuxIFC date 2022.05.30  16:16:47

 INCAR:
   ISMEAR = -5
   SIGMA = 0.1
   ISPIN = 1
   EDIFF = 1.d-5
   EDIFFG = -0.01
   NSW = 0
   NELM = 150
   ENCUT = 500
   ISIF = 2
   IBRION = 2
   LREAL = Auto
   ALGO = Fast
   ICHARG = 11
   LORBIT = 10
   LCHARG = .F.
   LWAVE = .F.

 POTCAR:    PAW_PBE Au 04Oct2007
 POTCAR:    PAW_PBE Ru 04Feb2005
 POTCAR:    PAW_PBE C 08Apr2002
|           W    W    AA    RRRRR   N    N  II  N    N   GGGG   !!!           |
|           W    W   A  A   R    R  NN   N  II  NN   N  G    G  !!!           |
|           W    W  A    A  R    R  N N  N  II  N N  N  G       !!!           |
|           W WW W  AAAAAA  RRRRR   N  N N  II  N  N N  G  GGG   !            |
|           WW  WW  A    A  R   R   N   NN  II  N   NN  G    G                |
|           W    W  A    A  R    R  N    N  II  N    N   GGGG   !!!           |
|     For optimal performance we recommend to set                             |
|       NCORE = 2 up to number-of-cores-per-socket                            |
|     This setting can greatly improve the performance of VASP for DFT.       |
|     The default, NCORE=1 might be grossly inefficient on modern             |
|     multi-core architectures or massively parallel machines. Do your        |
|     Unfortunately you need to use the default for GW and RPA                |
|     calculations (for HF NCORE is supported but not extensively tested      |
|     yet).                                                                   |

 POTCAR:    PAW_PBE Au 04Oct2007
   VRHFIN =Au: s1d10

   TITEL  = PAW_PBE Au 04Oct2007
   POMASS =  196.966; ZVAL   =   11.000    mass and valenz
   ENMAX  =  229.943; ENMIN  =  172.457 eV

 POTCAR:    PAW_PBE Ru 04Feb2005
   VRHFIN =Ru: s1 d7

   TITEL  = PAW_PBE Ru 04Feb2005
   POMASS =  101.070; ZVAL   =    8.000    mass and valenz
   ENMAX  =  213.271; ENMIN  =  159.953 eV

 POTCAR:    PAW_PBE C 08Apr2002
   VRHFIN =C: s2p2

   TITEL  = PAW_PBE C 08Apr2002
   POMASS =   12.011; ZVAL   =    4.000    mass and valenz
   ENMAX  =  400.000; ENMIN  =  300.000 eV

 Optimization of the real space projectors (new method)

 maximal supplied QI-value         = 15.12
 optimisation between [QCUT,QGAM] = [ 11.34, 22.83] = [ 36.00,145.93] Ry
 Optimized for a Real-space Cutoff    1.39 Angstroem

   l    n(q)    QCUT    max X(q) W(low)/X(q) W(high)/X(q)  e(spline)
   2      9    11.338    60.898    0.39E-03    0.42E-03    0.21E-06
   2      9    11.338    58.894    0.40E-03    0.42E-03    0.22E-06
   0      9    11.338   109.617    0.13E-03    0.20E-04    0.13E-06
   0      9    11.338    75.026    0.13E-03    0.20E-04    0.13E-06
   1      9    11.338    16.344    0.33E-04    0.24E-03    0.18E-06
   1      9    11.338    10.160    0.26E-04    0.19E-03    0.15E-06
 Optimization of the real space projectors (new method)

[...]

   l    n(q)    QCUT    max X(q) W(low)/X(q) W(high)/X(q)  e(spline)
   2      9    11.327    61.733    0.26E-03    0.14E-03    0.16E-06
   2      9    11.327    59.886    0.26E-03    0.14E-03    0.17E-06
   0     10    11.327    23.358    0.19E-03    0.14E-04    0.46E-06
   0     10    11.327    11.320    0.15E-03    0.11E-04    0.37E-06
   1     10    11.327    14.765    0.49E-04    0.26E-03    0.24E-06
   1     10    11.327     8.283    0.37E-04    0.20E-03    0.18E-06
 Optimization of the real space projectors (new method)

 maximal supplied QI-value         = 25.13
 optimisation between [QCUT,QGAM] = [ 11.31, 22.87] = [ 35.82,146.48] Ry
 Optimized for a Real-space Cutoff    1.00 Angstroem

   l    n(q)    QCUT    max X(q) W(low)/X(q) W(high)/X(q)  e(spline)
   0      7    11.310   115.676    0.43E-03    0.13E-02    0.19E-06
   0      7    11.310    87.132    0.43E-03    0.13E-02    0.18E-06
   1      6    11.310     4.429    0.42E-03    0.74E-03    0.11E-06
   1      6    11.310     2.733    0.34E-03    0.55E-03    0.92E-07
  PAW_PBE Au 04Oct2007                  :
  PAW_PBE Ru 04Feb2005                  :
  PAW_PBE C 08Apr2002                   :

 POSCAR: Au-Ru-C
  positions in direct lattice
  velocities in cartesian coordinates
 exchange correlation table for  LEXCH =        8
   RHO(1)=    0.500       N(1)  =     2000
   RHO(2)=  100.500       N(2)  =     4000

 VTST: version 3.2, (02/03/18)

 CHAIN: initializing optimizer

 OPT: Using VASP Conjugate-Gradient optimizer
 CHAIN: Read ICHAIN            0

 POSCAR: Au-Ru-C
  positions in direct lattice
  velocities in cartesian coordinates

 ion  position               nearest neighbor table
   1  0.000  0.000  0.217-  16 2.94  12 2.94   6 2.94   8 2.94   7 2.94   3 2.94  10 2.94   4 2.94
                             2 2.94
   2  0.333  0.000  0.217-   9 2.94  11 2.94  17 2.94  10 2.94   8 2.94   4 2.94   5 2.94   1 2.94
                             3 2.94
   3  0.667  0.000  0.217-   7 2.94  18 2.94  12 2.94   1 2.94  11 2.94   5 2.94   6 2.94   9 2.94
                             2 2.94
   4  0.000  0.333  0.217-  10 2.94   6 2.94   5 2.94  13 2.94   2 2.94  15 2.94   9 2.94   1 2.94
                             7 2.94
   5  0.333  0.333  0.217-  13 2.94   7 2.94  11 2.94   4 2.94   2 2.94  14 2.94   3 2.94   8 2.94
                             6 2.94
   6  0.667  0.333  0.217-  15 2.94  14 2.94   1 2.94  12 2.94   4 2.94   9 2.94   8 2.94   3 2.94
                             5 2.94
   7  0.000  0.667  0.217-  18 2.94   3 2.94  16 2.94   5 2.94   1 2.94  13 2.94   8 2.94   4 2.94
                             9 2.94
   8  0.333  0.667  0.217-   9 2.94  17 2.94   1 2.94   2 2.94  14 2.94  16 2.94   6 2.94   7 2.94
                             5 2.94
   9  0.667  0.667  0.217-   2 2.94   8 2.94  17 2.94   6 2.94  15 2.94   4 2.94   3 2.94  18 2.94
                             7 2.94
  10  0.111  0.111  0.316-  20 2.91  26 2.94  19 2.94  11 2.94  17 2.94   2 2.94   4 2.94   1 2.94
                            12 2.94  16 2.94  13 2.94  15 2.94
  11  0.444  0.111  0.316-  20 2.91  21 2.91  27 2.94  13 2.94   2 2.94  10 2.94  17 2.94   5 2.94
                             3 2.94  18 2.94  14 2.94  12 2.94
  12  0.778  0.111  0.316-  21 2.91  25 2.94  19 2.94  16 2.94  18 2.94   1 2.94  14 2.94  15 2.94
                             3 2.94   6 2.94  10 2.94  11 2.94
  13  0.111  0.444  0.316-  23 2.91  20 2.91  22 2.94   5 2.94  18 2.94  11 2.94   7 2.94   4 2.94
                            16 2.94  10 2.94  14 2.94  15 2.94
  14  0.444  0.444  0.316-  21 2.91  23 2.91  24 2.94  15 2.94   6 2.94  12 2.94   8 2.94  17 2.94
                             5 2.94  16 2.94  13 2.94  11 2.94
  15  0.778  0.444  0.316-  24 2.92  22 2.92  19 2.94  14 2.94   6 2.94  17 2.94  12 2.94   9 2.94
                             4 2.94  10 2.94  13 2.94  18 2.94
  16  0.111  0.778  0.316-  23 2.91  25 2.94  26 2.94  18 2.94  12 2.94   7 2.94   1 2.94   8 2.94
                            13 2.94  10 2.94  14 2.94  17 2.94
  17  0.444  0.778  0.316-  27 2.92  24 2.92  26 2.94   9 2.94  15 2.94   2 2.94  10 2.94  11 2.94
                             8 2.94  14 2.94  16 2.94  18 2.94
  18  0.778  0.778  0.316-  22 2.92  27 2.92  25 2.94  16 2.94   7 2.94  13 2.94  12 2.94   3 2.94
                            11 2.94   9 2.94  15 2.94  17 2.94
  19  0.889  0.222  0.414-  15 2.94  10 2.94  12 2.94  24 2.94  22 2.94  26 2.94  25 2.94  21 2.94
                            20 2.94  28 2.95  32 2.97  31 2.97
  20  0.223  0.223  0.413-  36 2.78  11 2.91  13 2.91  10 2.91  23 2.93  21 2.93  29 2.94  31 2.94
                            26 2.94  19 2.94  27 2.95  22 2.95
  21  0.555  0.223  0.413-  36 2.78  14 2.91  11 2.91  12 2.91  20 2.93  23 2.93  30 2.94  32 2.94
                            25 2.94  19 2.94  27 2.95  24 2.95
  22  0.887  0.557  0.414-  24 2.91  27 2.91  18 2.92  15 2.92  13 2.94  25 2.94  19 2.94  23 2.95
                            20 2.95  35 2.96  33 2.96  31 2.96
  23  0.223  0.555  0.413-  36 2.78  13 2.91  14 2.91  16 2.91  20 2.93  21 2.93  33 2.94  34 2.94
                            25 2.94  26 2.94  22 2.95  24 2.95
  24  0.557  0.557  0.414-  27 2.91  22 2.91  15 2.92  17 2.92  14 2.94  26 2.94  19 2.94  21 2.95
                            23 2.95  35 2.96  32 2.96  34 2.96
  25  0.889  0.889  0.414-  18 2.94  16 2.94  12 2.94  22 2.94  27 2.94  19 2.94  26 2.94  23 2.94
                            21 2.94  28 2.95  33 2.97  30 2.97
  26  0.222  0.889  0.414-  17 2.94  10 2.94  16 2.94  27 2.94  24 2.94  19 2.94  25 2.94  20 2.94
                            23 2.94  28 2.95  29 2.97  34 2.97
  27  0.557  0.887  0.414-  24 2.91  22 2.91  17 2.92  18 2.92  11 2.94  26 2.94  25 2.94  20 2.95
                            21 2.95  35 2.96  29 2.96  30 2.96
  28  0.000  0.000  0.514-  25 2.95  19 2.95  26 2.95  34 2.97  32 2.97  33 2.97  30 2.97  31 2.97
                            29 2.97
  29  0.333  0.007  0.513-  31 2.88  30 2.88  36 2.89  20 2.94  27 2.96  28 2.97  35 2.97  26 2.97
                            34 3.05
  30  0.660  0.007  0.513-  32 2.88  29 2.88  36 2.89  21 2.94  27 2.96  28 2.97  35 2.97  25 2.97
                            33 3.05
  31  0.007  0.333  0.513-  29 2.88  33 2.88  36 2.89  20 2.94  22 2.96  28 2.97  35 2.97  19 2.97
                            32 3.05
  32  0.660  0.333  0.513-  30 2.88  34 2.88  36 2.89  21 2.94  24 2.96  28 2.97  35 2.97  19 2.97
                            31 3.05
  33  0.007  0.660  0.513-  34 2.88  31 2.88  36 2.89  23 2.94  22 2.96  28 2.97  35 2.97  25 2.97
                            30 3.05
  34  0.333  0.660  0.513-  33 2.88  32 2.88  36 2.89  23 2.94  24 2.96  28 2.97  35 2.97  26 2.97
                            29 3.05
  35  0.667  0.667  0.514-  24 2.96  27 2.96  22 2.96  29 2.97  34 2.97  32 2.97  31 2.97  30 2.97
                            33 2.97
  36  0.333  0.333  0.504-  37 1.69  20 2.78  23 2.78  21 2.78  33 2.89  31 2.89  29 2.89  30 2.89
                            34 2.89  32 2.89
  37  0.333  0.333  0.573-  36 1.69

  LATTYP: Found a hexagonal cell.
 ALAT       =     8.8135128021
 C/A-ratio  =     2.7586513333

  Lattice vectors:

 A1 = (  -4.4067569092,  -7.6327256898,   0.0000000000)
 A2 = (   8.8135128021,   0.0000000000,   0.0000000000)
 A3 = (   0.0000000000,   0.0000000000,  24.3134088421)

Analysis of symmetry for initial positions (statically):
 Subroutine PRICEL returns:
 Original cell was already a primitive cell.

 Routine SETGRP: Setting up the symmetry group for a
 hexagonal supercell.

 Subroutine GETGRP returns: Found  6 space group operations
 (whereof  6 operations were pure point group operations)
 out of a pool of 24 trial point group operations.

The static configuration has the point symmetry C_3v.

Analysis of symmetry for dynamics (positions and initial velocities):
 Subroutine PRICEL returns:
 Original cell was already a primitive cell.

[...]

The dynamic configuration has the point symmetry C_3v.

Analysis of constrained symmetry for selective dynamics:
 Subroutine PRICEL returns:
 Original cell was already a primitive cell.

 Routine SETGRP: Setting up the symmetry group for a
 hexagonal supercell.

 Subroutine GETGRP returns: Found  6 space group operations
[...]
     24      -5.5772      2.00000
     25      -5.5503      2.00000
     26      -5.5206      2.00000
     27      -5.4944      2.00000
     28      -5.4161      2.00000
     29      -5.3706      2.00000
     30      -5.2744      2.00000
     31      -5.2666      2.00000
     32      -5.2453      2.00000
     33      -5.2351      2.00000
     34      -5.2307      2.00000
     35      -5.2057      2.00000
     36      -5.0988      2.00000
     37      -5.0855      2.00000
     38      -5.0293      2.00000
     39      -5.0200      2.00000
     40      -4.9664      2.00000
     41      -4.9022      2.00000
     42      -4.8856      2.00000
     43      -4.8439      2.00000
     44      -4.8228      2.00000
     45      -4.7873      2.00000
     46      -4.7713      2.00000
     47      -4.6724      2.00000
     48      -4.6525      2.00000
     49      -4.6226      2.00000
     50      -4.6069      2.00000
     51      -4.6006      2.00000
     52      -4.5976      2.00000
     53      -4.5856      2.00000
     54      -4.5483      2.00000
     55      -4.5176      2.00000
     56      -4.4669      2.00000
     57      -4.4531      2.00000
     58      -4.4464      2.00000
     59      -4.4377      2.00000
     60      -4.4291      2.00000
[...]
    238       5.9943      0.00000
    239       6.0483      0.00000
    240       6.0834      0.00000
    241       6.2494      0.00000
    242       6.3034      0.00000
    243       6.3624      0.00000
    244       6.3892      0.00000
    245       6.4309      0.00000
    246       6.7293      0.00000
    247       6.7751      0.00000
    248       6.8433      0.00000
    249       6.9001      0.00000
    250       6.9194      0.00000
    251       6.9514      0.00000
    252       7.0433      0.00000

 soft charge-density along one line, spin component           1
         0         1         2         3         4         5         6         7         8         9
 total charge-density along one line

------------------------ aborting loop because EDIFF is reached ----------------------------------------

 total charge

# of ion       s       p       d       tot
    1        0.545   0.240   8.765   9.551
    2        0.544   0.241   8.764   9.549
    3        0.544   0.241   8.764   9.549
    4        0.544   0.241   8.764   9.549
    5        0.543   0.240   8.764   9.548
    6        0.544   0.241   8.764   9.549
    7        0.544   0.241   8.764   9.549
    8        0.544   0.241   8.764   9.549
    9        0.543   0.240   8.766   9.550
   10        0.519   0.308   8.771   9.597
   11        0.520   0.309   8.777   9.606
   12        0.519   0.308   8.771   9.597
   13        0.520   0.309   8.777   9.606
   14        0.520   0.309   8.777   9.606
   15        0.516   0.309   8.773   9.598
   16        0.519   0.308   8.771   9.597
   17        0.516   0.309   8.773   9.598
   18        0.516   0.309   8.773   9.598
   19        0.518   0.298   8.778   9.594
   20        0.543   0.328   8.760   9.631
   21        0.543   0.328   8.760   9.631
   22        0.511   0.311   8.773   9.595
   23        0.543   0.328   8.760   9.631
   24        0.511   0.311   8.773   9.595
   25        0.518   0.298   8.778   9.594
   26        0.518   0.298   8.778   9.594
   27        0.511   0.311   8.773   9.595
   28        0.545   0.226   8.764   9.535
   29        0.544   0.242   8.765   9.551
   30        0.544   0.242   8.765   9.551
   31        0.544   0.242   8.765   9.551
   32        0.544   0.242   8.765   9.551
   33        0.544   0.242   8.765   9.551
   34        0.544   0.242   8.765   9.551
   35        0.541   0.226   8.770   9.536
   36        0.555   0.652   6.967   8.173
   37        1.027   1.213   0.000   2.240
tot         20.208  11.522 313.869 345.598

  FORCE on cell =-STRESS in cart. coord.  units (eV):
  Direction    XX          YY          ZZ          XY          YZ          ZX
  Alpha Z   918.48860   918.48860   918.48860
  Ewald  150772.43179150772.43221************    -0.00033    -0.00009    -0.00014
  Hartree159119.16003159119.16003************     0.00000    -0.00002    -0.00004
  E(xc)   -1779.53768 -1779.53767 -1787.04925    -0.00001    -0.00000    -0.00000
  Local  ************************322524.96402     0.00181     0.00004     0.00004
  n-local   -71.84489   -19.91025   -13.17018    25.14208    -1.48200     1.65311
  augment  2415.14197  2415.14352  2421.96246    -0.00134     0.00001     0.00006
  Kinetic  5496.71068  5508.77491  5534.75537     6.18515    -0.10405     0.52439
  Fock        0.00000     0.00000     0.00000     0.00000     0.00000     0.00000
  Total     -18.15096   -18.15096     3.15607    -0.00000    -0.00000     0.00000
  in kB     -17.78016   -17.78016     3.09160    -0.00000    -0.00000     0.00000

 VOLUME and BASIS-vectors are now :
  energy-cutoff  :      500.00
  volume of cell :     1635.59
      direct lattice vectors                 reciprocal lattice vectors
     8.813512802  0.000000000  0.000000000     0.113462137 -0.065507406  0.000000000
     4.406756909  7.632725690  0.000000000     0.000000000  0.131014796  0.000000000
     0.000000000  0.000000000 24.313408842     0.000000000  0.000000000  0.041129568

  length of vectors
     8.813512802  8.813512802 24.313408842     0.131014796  0.131014796  0.041129568

 FORCES acting on ions
    electron-ion (+dipol)            ewald-force                    non-local-force                 convergence-correction
   -.198E-04 -.163E-04 0.265E+04   0.519E-04 0.433E-04 -.265E+04   0.646E-17 -.270E-19 -.511E+00   -.182E-03 -.119E-03 -.121E+00
   0.479E+00 0.266E+00 0.265E+04   -.459E+00 -.312E+00 -.265E+04   -.133E-01 0.756E-02 -.345E+00   -.668E-02 0.344E-01 -.195E+00
   -.479E+00 0.266E+00 0.265E+04   0.459E+00 -.312E+00 -.265E+04   0.133E-01 0.756E-02 -.345E+00   0.695E-02 0.363E-01 -.194E+00
   0.470E+00 0.282E+00 0.265E+04   -.500E+00 -.241E+00 -.265E+04   -.979E-04 -.153E-01 -.345E+00   0.265E-01 -.230E-01 -.195E+00
   0.761E-05 -.238E-04 0.265E+04   0.951E-04 0.173E-05 -.265E+04   0.325E-17 0.188E-17 -.364E+00   0.424E-02 0.258E-02 -.174E+00
   -.470E+00 0.282E+00 0.265E+04   0.499E+00 -.241E+00 -.265E+04   0.979E-04 -.153E-01 -.345E+00   -.280E-01 -.221E-01 -.194E+00
   -.934E-02 -.548E+00 0.265E+04   -.409E-01 0.553E+00 -.265E+04   0.132E-01 0.773E-02 -.345E+00   0.350E-01 -.122E-01 -.194E+00
   0.931E-02 -.548E+00 0.265E+04   0.408E-01 0.553E+00 -.265E+04   -.132E-01 0.773E-02 -.345E+00   -.331E-01 -.132E-01 -.194E+00
   0.196E-04 -.415E-04 0.265E+04   0.166E-03 -.201E-04 -.265E+04   -.441E-17 -.110E-17 -.428E+00   -.461E-02 -.238E-02 -.224E+00
   0.433E+01 0.250E+01 0.890E+03   -.417E+01 -.241E+01 -.889E+03   -.147E+00 -.847E-01 -.504E+00   -.341E-01 -.198E-01 -.586E-01
   0.147E-04 0.442E+01 0.896E+03   0.148E-03 -.444E+01 -.895E+03   0.530E-10 0.796E-03 -.579E+00   0.364E-02 -.217E-01 -.165E+00
   -.433E+01 0.250E+01 0.890E+03   0.417E+01 -.241E+01 -.889E+03   0.147E+00 -.847E-01 -.504E+00   0.330E-01 -.187E-01 -.596E-01
   0.383E+01 -.221E+01 0.896E+03   -.384E+01 0.222E+01 -.895E+03   0.690E-03 -.398E-03 -.579E+00   -.167E-01 0.143E-01 -.165E+00
   -.383E+01 -.221E+01 0.896E+03   0.384E+01 0.222E+01 -.895E+03   -.690E-03 -.398E-03 -.579E+00   0.241E-01 0.138E-01 -.166E+00
   0.315E-04 0.283E+01 0.892E+03   0.236E-03 -.284E+01 -.891E+03   0.636E-09 0.956E-02 -.433E+00   -.208E-02 -.434E-01 -.113E+00
   -.213E-04 -.500E+01 0.890E+03   0.163E-03 0.482E+01 -.889E+03   0.113E-07 0.169E+00 -.504E+00   0.382E-04 0.379E-01 -.596E-01
   0.245E+01 -.142E+01 0.892E+03   -.246E+01 0.142E+01 -.891E+03   0.828E-02 -.478E-02 -.433E+00   -.384E-01 0.203E-01 -.113E+00
   -.245E+01 -.142E+01 0.892E+03   0.246E+01 0.142E+01 -.891E+03   -.828E-02 -.478E-02 -.433E+00   0.384E-01 0.219E-01 -.113E+00
   -.410E-04 0.217E+01 -.901E+03   0.538E-04 -.209E+01 0.900E+03   -.641E-09 -.964E-02 0.678E+00   0.344E-02 -.964E-01 -.229E-02
   0.105E+02 0.606E+01 -.868E+03   -.992E+01 -.573E+01 0.868E+03   -.735E+00 -.424E+00 -.559E+00   -.510E-01 -.296E-01 0.105E+00
   -.105E+02 0.606E+01 -.868E+03   0.992E+01 -.573E+01 0.868E+03   0.735E+00 -.424E+00 -.559E+00   0.503E-01 -.284E-01 0.105E+00
   -.212E+01 0.122E+01 -.890E+03   0.171E+01 -.985E+00 0.889E+03   0.386E+00 -.223E+00 0.711E+00   0.534E-01 -.322E-01 -.907E-02
   -.112E-04 -.121E+02 -.868E+03   0.142E-03 0.115E+02 0.868E+03   0.565E-07 0.848E+00 -.559E+00   0.258E-03 0.578E-01 0.105E+00
   0.212E+01 0.122E+01 -.890E+03   -.171E+01 -.985E+00 0.889E+03   -.386E+00 -.223E+00 0.711E+00   -.538E-01 -.310E-01 -.908E-02
   -.188E+01 -.109E+01 -.901E+03   0.181E+01 0.105E+01 0.900E+03   0.834E-02 0.482E-02 0.678E+00   0.886E-01 0.511E-01 -.265E-02
   0.188E+01 -.109E+01 -.901E+03   -.181E+01 0.105E+01 0.900E+03   -.834E-02 0.482E-02 0.678E+00   -.815E-01 0.512E-01 -.228E-02
   0.927E-05 -.245E+01 -.890E+03   0.199E-03 0.197E+01 0.889E+03   0.297E-07 0.446E+00 0.711E+00   -.175E-02 0.623E-01 -.905E-02
   -.110E-04 -.120E-04 -.264E+04   0.281E-04 0.329E-04 0.264E+04   -.498E-17 -.756E-18 0.510E+00   0.249E-03 0.126E-03 0.200E+00
   0.161E+02 0.270E+02 -.262E+04   -.158E+02 -.268E+02 0.262E+04   -.453E+00 -.654E+00 0.738E+00   -.638E-02 0.108E+00 0.217E+00
   -.161E+02 0.270E+02 -.262E+04   0.158E+02 -.268E+02 0.262E+04   0.453E+00 -.654E+00 0.738E+00   0.615E-02 0.110E+00 0.218E+00
   0.314E+02 0.423E+00 -.262E+04   -.310E+02 -.273E+00 0.262E+04   -.793E+00 -.653E-01 0.738E+00   0.906E-01 -.597E-01 0.217E+00
   -.314E+02 0.423E+00 -.262E+04   0.310E+02 -.273E+00 0.262E+04   0.793E+00 -.653E-01 0.738E+00   -.915E-01 -.585E-01 0.217E+00
   0.153E+02 -.274E+02 -.262E+04   -.153E+02 0.270E+02 0.262E+04   -.340E+00 0.719E+00 0.738E+00   0.982E-01 -.496E-01 0.218E+00
   -.153E+02 -.274E+02 -.262E+04   0.153E+02 0.270E+02 0.262E+04   0.340E+00 0.719E+00 0.738E+00   -.964E-01 -.500E-01 0.217E+00
   0.317E-04 -.300E-04 -.264E+04   0.145E-03 -.481E-04 0.264E+04   0.543E-17 -.188E-17 0.601E+00   -.459E-02 -.236E-02 0.307E+00
   -.744E-05 -.111E-04 -.169E+04   0.824E-04 0.740E-05 0.170E+04   0.273E-17 0.278E-18 -.677E+01   0.187E-02 0.114E-02 0.126E+00
   0.458E-04 -.295E-04 -.120E+04   0.165E-04 0.105E-05 0.121E+04   -.105E-19 0.247E-18 -.108E+02   0.730E-03 0.445E-03 -.166E+00
   -.713E-03 -.797E-03 0.184E+02   -.720E-14 0.229E-12 0.796E-11   -.325E-15 -.223E-15 -.175E+02   0.149E-01 0.923E-02 -.644E+00

 POSITION                                       TOTAL-FORCE (eV/Angst)
      0.00000      0.00000      5.28038         0.000000     -0.000000     -0.060851
      2.93784      0.00000      5.28038         0.001124     -0.003077     -0.037654
      5.87568      0.00000      5.28038        -0.001124     -0.003077     -0.037654
      1.46892      2.54424      5.28038        -0.002103      0.002512     -0.037654
      4.40676      2.54424      5.28038         0.000000     -0.000000     -0.070758
      7.34459      2.54424      5.28038         0.002103      0.002512     -0.037654
      2.93784      5.08848      5.28038        -0.003227      0.000565     -0.037654
      5.87568      5.08848      5.28038         0.003227      0.000565     -0.037654
      8.81351      5.08848      5.28038         0.000000     -0.000000     -0.041172
      1.46892      0.84808      7.67911        -0.021336     -0.012319      0.053226
      4.40676      0.84808      7.67911        -0.000000     -0.038679     -0.004952
      7.34459      0.84808      7.67911         0.021336     -0.012319      0.053226
      2.93784      3.39232      7.67911        -0.033497      0.019340     -0.004952
      5.87568      3.39232      7.67911         0.033497      0.019340     -0.004952
      8.81351      3.39232      7.67911        -0.000000     -0.036002      0.070371
      4.40676      5.93656      7.67911         0.000000      0.024637      0.053226
      7.34459      5.93656      7.67911        -0.031178      0.018001      0.070371
     10.28243      5.93656      7.67911         0.031178      0.018001      0.070371
      8.81351      1.69681     10.07567        -0.000000     -0.030792      0.002768
      2.94232      1.69875     10.04120        -0.199667     -0.115278     -0.221836
      5.87120      1.69875     10.04120         0.199667     -0.115278     -0.221836
     10.26751      4.24902     10.06295         0.027220     -0.015716      0.034603
      4.40676      4.23523     10.04120         0.000000      0.230556     -0.221836
      7.35952      4.24902     10.06295        -0.027220     -0.015716      0.034603
     11.75079      6.78432     10.07567         0.026666      0.015396      0.002768
      5.87624      6.78432     10.07567        -0.026666      0.015396      0.002768
      8.81351      6.76742     10.06295         0.000000      0.031431      0.034603
      0.00000      0.00000     12.49459         0.000000     -0.000000     -0.051589
      2.96623      0.05046     12.47837        -0.161868     -0.331015     -0.121702
      5.84728      0.05046     12.47837         0.161868     -0.331015     -0.121702
      1.52682      2.54360     12.47837        -0.367601      0.025325     -0.121702
      7.28669      2.54360     12.47837         0.367601      0.025325     -0.121702
      2.96734      5.03866     12.47837        -0.205733      0.305689     -0.121702
      5.84617      5.03866     12.47837         0.205733      0.305689     -0.121702
      8.81351      5.08848     12.49555         0.000000     -0.000000     -0.016578
      4.40676      2.54424     12.24198         0.000000     -0.000000      1.374454
      4.40676      2.54424     13.93184         0.000000     -0.000000      0.020086
    total drift:                                0.014223      0.008437      0.301972

  FREE ENERGIE OF THE ION-ELECTRON SYSTEM (eV)
  free  energy   TOTEN  =      -121.44397549 eV

  energy  without entropy=     -121.44397549  energy(sigma->0) =     -121.44397549

 stress matrix after NEB project (eV)
    -18.15096     -0.00000      0.00000
     -0.00000    -18.15096      0.00000
     -0.00000     -0.00000      3.15607
  FORCES: max atom, RMS     0.020086    0.003302
  FORCE total and by dimension    0.020086    0.020086
  Stress total and by dimension   25.862632   18.150964
|           W    W    AA    RRRRR   N    N  II  N    N   GGGG   !!!           |
|           W    W   A  A   R    R  NN   N  II  NN   N  G    G  !!!           |
|           W    W  A    A  R    R  N N  N  II  N N  N  G       !!!           |
|           W WW W  AAAAAA  RRRRR   N  N N  II  N  N N  G  GGG   !            |
|           WW  WW  A    A  R   R   N   NN  II  N   NN  G    G                |
|           W    W  A    A  R    R  N    N  II  N    N   GGGG   !!!           |
|     Tetrahedron method does not include variations of the Fermi             |
|     occupations, so forces and stress will be inaccurate. We suggest        |
|     using a different smearing scheme ISMEAR = 1 or 2 for metals in         |
|     relaxations.                                                            |

 total charge

# of ion       s       p       d       tot
    1        0.545   0.240   8.765   9.551
    2        0.544   0.241   8.764   9.549
    3        0.544   0.241   8.764   9.549
    4        0.544   0.241   8.764   9.549
    5        0.543   0.240   8.764   9.548
    6        0.544   0.241   8.764   9.549
    7        0.544   0.241   8.764   9.549
    8        0.544   0.241   8.764   9.549
    9        0.543   0.240   8.766   9.550
   10        0.519   0.308   8.771   9.597
   11        0.520   0.309   8.777   9.606
   12        0.519   0.308   8.771   9.597
   13        0.520   0.309   8.777   9.606
   14        0.520   0.309   8.777   9.606
   15        0.516   0.309   8.773   9.598
   16        0.519   0.308   8.771   9.597
   17        0.516   0.309   8.773   9.598
   18        0.516   0.309   8.773   9.598
   19        0.518   0.298   8.778   9.594
   20        0.543   0.328   8.760   9.631
   21        0.543   0.328   8.760   9.631
   22        0.511   0.311   8.773   9.595
   23        0.543   0.328   8.760   9.631
   24        0.511   0.311   8.773   9.595
   25        0.518   0.298   8.778   9.594
   26        0.518   0.298   8.778   9.594
   27        0.511   0.311   8.773   9.595
   28        0.545   0.226   8.764   9.535
   29        0.544   0.242   8.765   9.551
   30        0.544   0.242   8.765   9.551
   31        0.544   0.242   8.765   9.551
   32        0.544   0.242   8.765   9.551
   33        0.544   0.242   8.765   9.551
   34        0.544   0.242   8.765   9.551
   35        0.541   0.226   8.770   9.536
   36        0.555   0.652   6.967   8.173
   37        1.027   1.213   0.000   2.240
tot         20.208  11.522 313.869 345.598

 BZINTS: Fermi energy:    0.180411;  397.000000 electrons
         Band energy:-0.140059E+04;  BLOECHL correction:   -0.094352