 vasp.6.2.0 18Jan21 (build Jun 12 2021 23:27:24) complex

 executed on             LinuxIFC date 2022.05.30  16:41:39

 INCAR:
   ISMEAR = -5
   SIGMA = 0.1
   ISPIN = 1
   EDIFF = 1.d-5
   EDIFFG = -0.01
   NSW = 0
   NELM = 150
   ENCUT = 500
   ISIF = 2
   IBRION = 2
   LREAL = Auto
   ALGO = Fast
   ICHARG = 11
   LORBIT = 10
   LCHARG = .F.
   LWAVE = .F.

 POTCAR:    PAW_PBE Au 04Oct2007
 POTCAR:    PAW_PBE Ir 06Sep2000
 POTCAR:    PAW_PBE C 08Apr2002
|           W    W    AA    RRRRR   N    N  II  N    N   GGGG   !!!           |
|           W    W   A  A   R    R  NN   N  II  NN   N  G    G  !!!           |
|           W    W  A    A  R    R  N N  N  II  N N  N  G       !!!           |
|           W WW W  AAAAAA  RRRRR   N  N N  II  N  N N  G  GGG   !            |
|           WW  WW  A    A  R   R   N   NN  II  N   NN  G    G                |
|           W    W  A    A  R    R  N    N  II  N    N   GGGG   !!!           |
|     For optimal performance we recommend to set                             |
|       NCORE = 2 up to number-of-cores-per-socket                            |
|     This setting can greatly improve the performance of VASP for DFT.       |
|     The default, NCORE=1 might be grossly inefficient on modern             |
|     multi-core architectures or massively parallel machines. Do your        |
|     Unfortunately you need to use the default for GW and RPA                |
|     calculations (for HF NCORE is supported but not extensively tested      |
|     yet).                                                                   |

 POTCAR:    PAW_PBE Au 04Oct2007
   VRHFIN =Au: s1d10

   TITEL  = PAW_PBE Au 04Oct2007
   POMASS =  196.966; ZVAL   =   11.000    mass and valenz
   ENMAX  =  229.943; ENMIN  =  172.457 eV

 POTCAR:    PAW_PBE Ir 06Sep2000
   VRHFIN =Ir: s1d8

   TITEL  = PAW_PBE Ir 06Sep2000
   POMASS =  192.220; ZVAL   =    9.000    mass and valenz
   ENMAX  =  210.864; ENMIN  =  158.148 eV

 POTCAR:    PAW_PBE C 08Apr2002
   VRHFIN =C: s2p2

   TITEL  = PAW_PBE C 08Apr2002
   POMASS =   12.011; ZVAL   =    4.000    mass and valenz
   ENMAX  =  400.000; ENMIN  =  300.000 eV

 Optimization of the real space projectors (new method)

 maximal supplied QI-value         = 15.12
 optimisation between [QCUT,QGAM] = [ 11.34, 22.83] = [ 36.00,145.93] Ry
 Optimized for a Real-space Cutoff    1.39 Angstroem

   l    n(q)    QCUT    max X(q) W(low)/X(q) W(high)/X(q)  e(spline)
   2      9    11.338    60.898    0.39E-03    0.42E-03    0.21E-06
   2      9    11.338    58.894    0.40E-03    0.42E-03    0.22E-06
   0      9    11.338   109.617    0.13E-03    0.20E-04    0.13E-06
   0      9    11.338    75.026    0.13E-03    0.20E-04    0.13E-06
   1      9    11.338    16.344    0.33E-04    0.24E-03    0.18E-06
   1      9    11.338    10.160    0.26E-04    0.19E-03    0.15E-06
 Optimization of the real space projectors (new method)

[...]

   l    n(q)    QCUT    max X(q) W(low)/X(q) W(high)/X(q)  e(spline)
   2      9    11.346   134.116    0.47E-03    0.13E-03    0.92E-06
   2      9    11.346   130.192    0.47E-03    0.13E-03    0.92E-06
   0     10    11.346    60.310    0.74E-04    0.13E-03    0.69E-06
   0     10    11.346    39.218    0.68E-04    0.12E-03    0.65E-06
   1     10    11.346    18.439    0.15E-03    0.34E-04    0.20E-06
   1     10    11.346    12.760    0.12E-03    0.31E-04    0.16E-06
 Optimization of the real space projectors (new method)

 maximal supplied QI-value         = 25.13
 optimisation between [QCUT,QGAM] = [ 11.31, 22.87] = [ 35.82,146.48] Ry
 Optimized for a Real-space Cutoff    1.00 Angstroem

   l    n(q)    QCUT    max X(q) W(low)/X(q) W(high)/X(q)  e(spline)
   0      7    11.310   115.676    0.43E-03    0.13E-02    0.19E-06
   0      7    11.310    87.132    0.43E-03    0.13E-02    0.18E-06
   1      6    11.310     4.429    0.42E-03    0.74E-03    0.11E-06
   1      6    11.310     2.733    0.34E-03    0.55E-03    0.92E-07
  PAW_PBE Au 04Oct2007                  :
  PAW_PBE Ir 06Sep2000                  :
  PAW_PBE C 08Apr2002                   :

 POSCAR: Au-Ir-C
  positions in direct lattice
  velocities in cartesian coordinates
 exchange correlation table for  LEXCH =        8
   RHO(1)=    0.500       N(1)  =     2000
   RHO(2)=  100.500       N(2)  =     4000

 VTST: version 3.2, (02/03/18)

 CHAIN: initializing optimizer

 OPT: Using VASP Conjugate-Gradient optimizer
 CHAIN: Read ICHAIN            0

 POSCAR: Au-Ir-C
  positions in direct lattice
  velocities in cartesian coordinates

 ion  position               nearest neighbor table
   1  0.000  0.000  0.217-  16 2.94  12 2.94   6 2.94   8 2.94   7 2.94   3 2.94  10 2.94   4 2.94
                             2 2.94
   2  0.333  0.000  0.217-   9 2.94  11 2.94  17 2.94  10 2.94   8 2.94   4 2.94   5 2.94   1 2.94
                             3 2.94
   3  0.667  0.000  0.217-   7 2.94  18 2.94  12 2.94   1 2.94  11 2.94   5 2.94   6 2.94   9 2.94
                             2 2.94
   4  0.000  0.333  0.217-  10 2.94   6 2.94   5 2.94  13 2.94   2 2.94  15 2.94   9 2.94   1 2.94
                             7 2.94
   5  0.333  0.333  0.217-  13 2.94   7 2.94  11 2.94   4 2.94   2 2.94  14 2.94   3 2.94   8 2.94
                             6 2.94
   6  0.667  0.333  0.217-  15 2.94  14 2.94   1 2.94  12 2.94   4 2.94   9 2.94   8 2.94   3 2.94
                             5 2.94
   7  0.000  0.667  0.217-  18 2.94   3 2.94  16 2.94   5 2.94   1 2.94  13 2.94   8 2.94   4 2.94
                             9 2.94
   8  0.333  0.667  0.217-   9 2.94  17 2.94   1 2.94   2 2.94  14 2.94  16 2.94   6 2.94   7 2.94
                             5 2.94
   9  0.667  0.667  0.217-   2 2.94   8 2.94  17 2.94   6 2.94  15 2.94   4 2.94   3 2.94  18 2.94
                             7 2.94
  10  0.111  0.111  0.316-  20 2.90  11 2.94  17 2.94   2 2.94   4 2.94   1 2.94  12 2.94  16 2.94
                            13 2.94  15 2.94  26 2.94  19 2.94
  11  0.444  0.111  0.316-  20 2.91  21 2.91  27 2.93  13 2.94   2 2.94  10 2.94  17 2.94   5 2.94
                             3 2.94  18 2.94  14 2.94  12 2.94
  12  0.778  0.111  0.316-  21 2.90  16 2.94  18 2.94   1 2.94  14 2.94  15 2.94   3 2.94   6 2.94
                            10 2.94  11 2.94  25 2.94  19 2.94
  13  0.111  0.444  0.316-  23 2.91  20 2.91  22 2.93   5 2.94  18 2.94  11 2.94   7 2.94   4 2.94
                            16 2.94  10 2.94  14 2.94  15 2.94
  14  0.444  0.444  0.316-  21 2.91  23 2.91  24 2.93  15 2.94   6 2.94  12 2.94   8 2.94  17 2.94
                             5 2.94  16 2.94  13 2.94  11 2.94
  15  0.778  0.444  0.316-  24 2.92  22 2.92  14 2.94   6 2.94  17 2.94  12 2.94   9 2.94   4 2.94
                            10 2.94  13 2.94  18 2.94  19 2.94
  16  0.111  0.778  0.316-  23 2.90  18 2.94  12 2.94   7 2.94   1 2.94   8 2.94  13 2.94  10 2.94
                            14 2.94  17 2.94  25 2.94  26 2.94
  17  0.444  0.778  0.316-  27 2.92  24 2.92   9 2.94  15 2.94   2 2.94  10 2.94  11 2.94   8 2.94
                            14 2.94  16 2.94  18 2.94  26 2.94
  18  0.778  0.778  0.316-  22 2.92  27 2.92  16 2.94   7 2.94  13 2.94  12 2.94   3 2.94  11 2.94
                             9 2.94  15 2.94  17 2.94  25 2.94
  19  0.889  0.223  0.415-  21 2.93  20 2.93  24 2.93  22 2.93  15 2.94  10 2.94  12 2.94  26 2.95
                            25 2.95  28 2.95  32 2.96  31 2.96
  20  0.222  0.222  0.413-  36 2.78  10 2.90  11 2.91  13 2.91  26 2.93  19 2.93  29 2.95  31 2.95
                            27 2.95  22 2.95  23 2.95  21 2.95
  21  0.557  0.222  0.413-  36 2.78  12 2.90  14 2.91  11 2.91  25 2.93  19 2.93  30 2.95  32 2.95
                            24 2.95  27 2.95  20 2.95  23 2.95
  22  0.887  0.557  0.414-  24 2.91  27 2.91  18 2.92  15 2.92  13 2.93  25 2.93  19 2.93  23 2.95
                            20 2.95  35 2.95  33 2.96  31 2.96
  23  0.222  0.557  0.413-  36 2.78  16 2.90  13 2.91  14 2.91  25 2.93  26 2.93  33 2.95  34 2.95
                            22 2.95  24 2.95  20 2.95  21 2.95
  24  0.557  0.557  0.414-  27 2.91  22 2.91  15 2.92  17 2.92  14 2.93  26 2.93  19 2.93  21 2.95
                            23 2.95  35 2.95  32 2.96  34 2.96
  25  0.889  0.889  0.415-  23 2.93  21 2.93  22 2.93  27 2.93  18 2.94  16 2.94  12 2.94  19 2.95
                            26 2.95  28 2.95  33 2.96  30 2.96
  26  0.223  0.889  0.415-  20 2.93  23 2.93  27 2.93  24 2.93  17 2.94  10 2.94  16 2.94  19 2.95
                            25 2.95  28 2.95  29 2.96  34 2.96
  27  0.557  0.887  0.414-  24 2.91  22 2.91  17 2.92  18 2.92  11 2.93  26 2.93  25 2.93  20 2.95
                            21 2.95  35 2.95  29 2.96  30 2.96
  28  0.000  0.000  0.514-  25 2.95  19 2.95  26 2.95  34 2.96  32 2.96  33 2.96  30 2.96  31 2.96
                            29 2.96
  29  0.333  0.005  0.513-  31 2.89  30 2.89  36 2.90  20 2.95  28 2.96  35 2.96  27 2.96  26 2.96
                            34 3.03
  30  0.661  0.005  0.513-  32 2.89  29 2.89  36 2.90  21 2.95  28 2.96  35 2.96  27 2.96  25 2.96
                            33 3.03
  31  0.005  0.333  0.513-  29 2.89  33 2.89  36 2.90  20 2.95  28 2.96  35 2.96  22 2.96  19 2.96
                            32 3.03
  32  0.661  0.333  0.513-  30 2.89  34 2.89  36 2.90  21 2.95  28 2.96  35 2.96  24 2.96  19 2.96
                            31 3.03
  33  0.005  0.661  0.513-  34 2.89  31 2.89  36 2.90  23 2.95  28 2.96  35 2.96  22 2.96  25 2.96
                            30 3.03
  34  0.333  0.661  0.513-  33 2.89  32 2.89  36 2.90  23 2.95  28 2.96  35 2.96  24 2.96  26 2.96
                            29 3.03
  35  0.667  0.667  0.514-  24 2.95  27 2.95  22 2.95  29 2.96  34 2.96  32 2.96  31 2.96  30 2.96
                            33 2.96
  36  0.333  0.333  0.503-  37 1.74  20 2.78  23 2.78  21 2.78  33 2.90  31 2.90  29 2.90  30 2.90
                            34 2.90  32 2.90
  37  0.333  0.333  0.575-  36 1.74

  LATTYP: Found a hexagonal cell.
 ALAT       =     8.8135128021
 C/A-ratio  =     2.7586513333

  Lattice vectors:

 A1 = (  -4.4067569092,  -7.6327256898,   0.0000000000)
 A2 = (   8.8135128021,   0.0000000000,   0.0000000000)
 A3 = (   0.0000000000,   0.0000000000,  24.3134088421)

Analysis of symmetry for initial positions (statically):
 Subroutine PRICEL returns:
 Original cell was already a primitive cell.

 Routine SETGRP: Setting up the symmetry group for a
 hexagonal supercell.

 Subroutine GETGRP returns: Found  6 space group operations
 (whereof  6 operations were pure point group operations)
 out of a pool of 24 trial point group operations.

The static configuration has the point symmetry C_3v.

Analysis of symmetry for dynamics (positions and initial velocities):
 Subroutine PRICEL returns:
 Original cell was already a primitive cell.

[...]

The dynamic configuration has the point symmetry C_3v.

Analysis of constrained symmetry for selective dynamics:
 Subroutine PRICEL returns:
 Original cell was already a primitive cell.

 Routine SETGRP: Setting up the symmetry group for a
 hexagonal supercell.

 Subroutine GETGRP returns: Found  6 space group operations
[...]
     24      -5.5906      2.00000
     25      -5.5630      2.00000
     26      -5.5555      2.00000
     27      -5.4978      2.00000
     28      -5.4194      2.00000
     29      -5.4121      2.00000
     30      -5.3142      2.00000
     31      -5.2973      2.00000
     32      -5.2778      2.00000
     33      -5.2534      2.00000
     34      -5.2466      2.00000
     35      -5.2310      2.00000
     36      -5.1530      2.00000
     37      -5.1458      2.00000
     38      -5.0628      2.00000
     39      -5.0251      2.00000
     40      -4.9905      2.00000
     41      -4.9664      2.00000
     42      -4.9222      2.00000
     43      -4.8930      2.00000
     44      -4.8593      2.00000
     45      -4.7949      2.00000
     46      -4.7764      2.00000
     47      -4.6849      2.00000
     48      -4.6749      2.00000
     49      -4.6404      2.00000
     50      -4.6250      2.00000
     51      -4.6203      2.00000
     52      -4.6130      2.00000
     53      -4.5938      2.00000
     54      -4.5640      2.00000
     55      -4.5444      2.00000
     56      -4.4831      2.00000
     57      -4.4719      2.00000
     58      -4.4598      2.00000
     59      -4.4487      2.00000
     60      -4.4420      2.00000
[...]
    238       6.0257      0.00000
    239       6.0414      0.00000
    240       6.0832      0.00000
    241       6.2553      0.00000
    242       6.2946      0.00000
    243       6.3453      0.00000
    244       6.3779      0.00000
    245       6.4239      0.00000
    246       6.7015      0.00000
    247       6.7392      0.00000
    248       6.8422      0.00000
    249       6.8633      0.00000
    250       6.9403      0.00000
    251       6.9962      0.00000
    252       7.1016      0.00000

 soft charge-density along one line, spin component           1
         0         1         2         3         4         5         6         7         8         9
 total charge-density along one line

------------------------ aborting loop because EDIFF is reached ----------------------------------------

 total charge

# of ion       s       p       d       tot
    1        0.544   0.240   8.765   9.549
    2        0.543   0.241   8.764   9.548
    3        0.543   0.241   8.764   9.548
    4        0.543   0.241   8.764   9.548
    5        0.545   0.239   8.765   9.549
    6        0.543   0.241   8.764   9.548
    7        0.543   0.241   8.764   9.548
    8        0.543   0.241   8.764   9.548
    9        0.542   0.241   8.765   9.548
   10        0.521   0.308   8.772   9.601
   11        0.517   0.311   8.776   9.604
   12        0.521   0.308   8.772   9.601
   13        0.517   0.311   8.776   9.604
   14        0.517   0.311   8.776   9.604
   15        0.516   0.310   8.773   9.598
   16        0.521   0.308   8.772   9.601
   17        0.516   0.310   8.773   9.598
   18        0.516   0.310   8.773   9.598
   19        0.518   0.301   8.777   9.596
   20        0.541   0.331   8.757   9.629
   21        0.541   0.331   8.757   9.629
   22        0.511   0.310   8.774   9.595
   23        0.541   0.331   8.757   9.629
   24        0.511   0.310   8.774   9.595
   25        0.518   0.301   8.777   9.596
   26        0.518   0.301   8.777   9.596
   27        0.511   0.310   8.774   9.595
   28        0.542   0.227   8.769   9.539
   29        0.536   0.245   8.768   9.549
   30        0.536   0.245   8.768   9.549
   31        0.536   0.245   8.768   9.549
   32        0.536   0.245   8.768   9.549
   33        0.536   0.245   8.768   9.549
   34        0.536   0.245   8.768   9.549
   35        0.540   0.227   8.773   9.540
   36        0.680   0.612   7.212   8.504
   37        1.028   1.190   0.000   2.219
tot         20.266  11.502 314.132 345.900

  FORCE on cell =-STRESS in cart. coord.  units (eV):
  Direction    XX          YY          ZZ          XY          YZ          ZX
  Alpha Z   937.67514   937.67514   937.67514
  Ewald  151293.65461151293.65503************    -0.00033    -0.00009    -0.00014
  Hartree159675.37199159675.37200************     0.00000    -0.00002    -0.00004
  E(xc)   -1782.93443 -1782.93441 -1789.86381    -0.00001    -0.00000    -0.00000
  Local  ************************323688.39186     0.00178     0.00004     0.00004
  n-local   -87.47536   -38.15622   -38.32107    24.24025    -1.43556     1.63904
  augment  2408.97137  2408.97289  2415.29620    -0.00132     0.00001     0.00006
  Kinetic  5521.52142  5530.92647  5553.74284     5.28361     0.19478     0.38733
  Fock        0.00000     0.00000     0.00000     0.00000     0.00000     0.00000
  Total     -17.90576   -17.90575     1.88330    -0.00000     0.00000     0.00000
  in kB     -17.53996   -17.53996     1.84482    -0.00000     0.00000     0.00000

 VOLUME and BASIS-vectors are now :
  energy-cutoff  :      500.00
  volume of cell :     1635.59
      direct lattice vectors                 reciprocal lattice vectors
     8.813512802  0.000000000  0.000000000     0.113462137 -0.065507406  0.000000000
     4.406756909  7.632725690  0.000000000     0.000000000  0.131014796  0.000000000
     0.000000000  0.000000000 24.313408842     0.000000000  0.000000000  0.041129568

  length of vectors
     8.813512802  8.813512802 24.313408842     0.131014796  0.131014796  0.041129568

 FORCES acting on ions
    electron-ion (+dipol)            ewald-force                    non-local-force                 convergence-correction
   -.198E-04 -.163E-04 0.266E+04   0.519E-04 0.434E-04 -.266E+04   -.143E-16 0.704E-18 -.539E+00   -.296E-03 -.184E-03 -.328E+00
   0.449E+00 0.309E+00 0.266E+04   -.517E+00 -.312E+00 -.266E+04   0.746E-02 0.158E-01 -.356E+00   0.634E-01 -.100E-01 -.354E+00
   -.449E+00 0.309E+00 0.266E+04   0.517E+00 -.312E+00 -.266E+04   -.746E-02 0.158E-01 -.356E+00   -.630E-01 -.807E-02 -.353E+00
   0.492E+00 0.234E+00 0.266E+04   -.529E+00 -.292E+00 -.266E+04   0.174E-01 -.142E-02 -.356E+00   0.231E-01 0.598E-01 -.354E+00
   0.753E-05 -.239E-04 0.266E+04   0.952E-04 0.174E-05 -.266E+04   -.839E-17 0.429E-17 -.412E+00   0.432E-02 0.263E-02 -.304E+00
   -.492E+00 0.234E+00 0.266E+04   0.528E+00 -.292E+00 -.266E+04   -.174E-01 -.142E-02 -.356E+00   -.247E-01 0.607E-01 -.353E+00
   0.430E-01 -.543E+00 0.266E+04   -.116E-01 0.604E+00 -.266E+04   0.993E-02 -.143E-01 -.356E+00   -.384E-01 -.506E-01 -.353E+00
   -.431E-01 -.543E+00 0.266E+04   0.115E-01 0.604E+00 -.266E+04   -.993E-02 -.143E-01 -.356E+00   0.403E-01 -.517E-01 -.353E+00
   0.196E-04 -.415E-04 0.266E+04   0.166E-03 -.201E-04 -.266E+04   0.233E-17 0.228E-18 -.409E+00   -.456E-02 -.236E-02 -.321E+00
   0.562E+01 0.324E+01 0.899E+03   -.547E+01 -.316E+01 -.898E+03   -.196E+00 -.113E+00 -.538E+00   0.233E-01 0.133E-01 -.302E+00
   0.140E-04 0.372E+01 0.904E+03   0.149E-03 -.383E+01 -.904E+03   0.445E-08 0.668E-01 -.472E+00   0.436E-02 -.435E-02 -.336E+00
   -.562E+01 0.324E+01 0.899E+03   0.547E+01 -.316E+01 -.898E+03   0.196E+00 -.113E+00 -.538E+00   -.251E-01 0.146E-01 -.301E+00
   0.322E+01 -.186E+01 0.904E+03   -.332E+01 0.192E+01 -.904E+03   0.579E-01 -.334E-01 -.472E+00   -.130E-02 0.622E-02 -.336E+00
   -.322E+01 -.186E+01 0.904E+03   0.332E+01 0.192E+01 -.904E+03   -.579E-01 -.334E-01 -.472E+00   0.900E-02 0.506E-02 -.337E+00
   0.312E-04 0.310E+01 0.901E+03   0.236E-03 -.320E+01 -.900E+03   -.120E-08 -.180E-01 -.414E+00   -.250E-02 0.795E-01 -.294E+00
   -.215E-04 -.649E+01 0.899E+03   0.163E-03 0.632E+01 -.898E+03   0.151E-07 0.227E+00 -.538E+00   -.175E-03 -.290E-01 -.301E+00
   0.268E+01 -.155E+01 0.901E+03   -.277E+01 0.160E+01 -.900E+03   -.156E-01 0.900E-02 -.414E+00   0.678E-01 -.415E-01 -.294E+00
   -.268E+01 -.155E+01 0.901E+03   0.277E+01 0.160E+01 -.900E+03   0.156E-01 0.900E-02 -.414E+00   -.672E-01 -.391E-01 -.293E+00
   -.414E-04 0.412E+01 -.894E+03   0.533E-04 -.413E+01 0.893E+03   -.273E-08 -.410E-01 0.561E+00   -.465E-02 0.322E-01 0.357E-01
   0.112E+02 0.648E+01 -.851E+03   -.107E+02 -.617E+01 0.851E+03   -.603E+00 -.348E+00 -.280E+00   -.270E-01 -.157E-01 0.157E-01
   -.112E+02 0.648E+01 -.851E+03   0.107E+02 -.617E+01 0.851E+03   0.603E+00 -.348E+00 -.280E+00   0.292E-01 -.160E-01 0.154E-01
   -.129E+01 0.747E+00 -.880E+03   0.102E+01 -.588E+00 0.879E+03   0.348E+00 -.201E+00 0.715E+00   -.489E-01 0.301E-01 -.505E-02
   -.134E-04 -.130E+02 -.851E+03   0.143E-03 0.123E+02 0.851E+03   0.464E-07 0.697E+00 -.280E+00   0.461E-03 0.333E-01 0.155E-01
   0.129E+01 0.747E+00 -.880E+03   -.102E+01 -.588E+00 0.879E+03   -.348E+00 -.201E+00 0.715E+00   0.489E-01 0.283E-01 -.503E-02
   -.357E+01 -.206E+01 -.894E+03   0.358E+01 0.207E+01 0.893E+03   0.355E-01 0.205E-01 0.561E+00   -.322E-01 -.187E-01 0.353E-01
   0.357E+01 -.206E+01 -.894E+03   -.358E+01 0.207E+01 0.893E+03   -.355E-01 0.205E-01 0.561E+00   0.259E-01 -.201E-01 0.357E-01
   0.853E-05 -.149E+01 -.880E+03   0.200E-03 0.117E+01 0.879E+03   0.267E-07 0.402E+00 0.715E+00   0.106E-02 -.574E-01 -.503E-02
   -.110E-04 -.119E-04 -.264E+04   0.279E-04 0.331E-04 0.264E+04   -.309E-18 0.262E-18 0.501E+00   -.374E-03 -.234E-03 0.227E+00
   0.172E+02 0.302E+02 -.262E+04   -.172E+02 -.302E+02 0.262E+04   -.192E+00 -.263E+00 0.581E+00   -.153E-02 -.800E-01 0.195E+00
   -.172E+02 0.302E+02 -.262E+04   0.172E+02 -.302E+02 0.262E+04   0.192E+00 -.263E+00 0.581E+00   0.222E-02 -.785E-01 0.194E+00
   0.347E+02 -.163E+00 -.262E+04   -.348E+02 0.183E+00 0.262E+04   -.324E+00 -.346E-01 0.581E+00   -.700E-01 0.386E-01 0.195E+00
   -.347E+02 -.163E+00 -.262E+04   0.348E+02 0.183E+00 0.262E+04   0.324E+00 -.346E-01 0.581E+00   0.688E-01 0.390E-01 0.194E+00
   0.175E+02 -.300E+02 -.262E+04   -.175E+02 0.300E+02 0.262E+04   -.132E+00 0.298E+00 0.581E+00   -.668E-01 0.412E-01 0.194E+00
   -.175E+02 -.300E+02 -.262E+04   0.175E+02 0.300E+02 0.262E+04   0.132E+00 0.298E+00 0.581E+00   0.682E-01 0.401E-01 0.194E+00
   0.302E-04 -.295E-04 -.264E+04   0.146E-03 -.485E-04 0.264E+04   0.773E-17 0.291E-17 0.529E+00   -.428E-02 -.218E-02 0.204E+00
   -.907E-05 -.165E-04 -.191E+04   0.926E-04 0.834E-05 0.191E+04   -.455E-17 0.547E-18 0.617E+00   0.244E-02 0.148E-02 0.788E-01
   0.459E-04 -.305E-04 -.120E+04   0.160E-04 0.102E-05 0.122E+04   0.238E-18 0.552E-19 -.135E+02   0.797E-03 0.484E-03 0.144E-01
   -.710E-03 -.798E-03 0.173E+02   0.115E-12 0.127E-12 0.296E-11   -.243E-16 0.170E-15 -.131E+02   0.448E-03 0.870E-03 -.404E+01

 POSITION                                       TOTAL-FORCE (eV/Angst)
      0.00000      0.00000      5.28038        -0.000000      0.000000     -0.045469
      2.93784      0.00000      5.28038         0.002904      0.003718     -0.009810
      5.87568      0.00000      5.28038        -0.002904      0.003718     -0.009810
      1.46892      2.54424      5.28038         0.004672      0.000656     -0.009810
      4.40676      2.54424      5.28038         0.000000      0.000000     -0.055782
      7.34459      2.54424      5.28038        -0.004672      0.000656     -0.009810
      2.93784      5.08848      5.28038         0.001768     -0.004374     -0.009810
      5.87568      5.08848      5.28038        -0.001768     -0.004374     -0.009810
      8.81351      5.08848      5.28038        -0.000000      0.000000     -0.012249
      1.46892      0.84808      7.67911        -0.025824     -0.014909      0.066178
      4.40676      0.84808      7.67911        -0.000000     -0.049000      0.005894
      7.34459      0.84808      7.67911         0.025824     -0.014909      0.066178
      2.93784      3.39232      7.67911        -0.042435      0.024500      0.005894
      5.87568      3.39232      7.67911         0.042435      0.024500      0.005894
      8.81351      3.39232      7.67911        -0.000000     -0.045197      0.052176
      4.40676      5.93656      7.67911         0.000000      0.029819      0.066178
      7.34459      5.93656      7.67911        -0.039142      0.022599      0.052176
     10.28243      5.93656      7.67911         0.039142      0.022599      0.052176
      8.81351      1.70038     10.08128        -0.000000     -0.023963     -0.025929
      2.93047      1.69191     10.03818        -0.086787     -0.050107     -0.201836
      5.88304      1.69191     10.03818         0.086787     -0.050107     -0.201836
     10.26792      4.24878     10.06124         0.022206     -0.012821      0.027759
      4.40676      4.24891     10.03818         0.000000      0.100213     -0.201836
      7.35911      4.24878     10.06124        -0.022206     -0.012821      0.027759
     11.74770      6.78254     10.08128         0.020752      0.011981     -0.025929
      5.87933      6.78254     10.08128        -0.020752      0.011981     -0.025929
      8.81351      6.76789     10.06124         0.000000      0.025642      0.027759
      0.00000      0.00000     12.49619        -0.000000      0.000000     -0.057223
      2.96082      0.04010     12.48308        -0.179323     -0.357052     -0.140991
      5.85269      0.04010     12.48308         0.179323     -0.357052     -0.140991
      1.51514      2.54410     12.48308        -0.398878      0.023228     -0.140991
      7.29838      2.54410     12.48308         0.398878      0.023228     -0.140991
      2.96107      5.04853     12.48308        -0.219555      0.333825     -0.140991
      5.85244      5.04853     12.48308         0.219555      0.333825     -0.140991
      8.81351      5.08848     12.49171         0.000000      0.000000     -0.049718
      4.40676      2.54424     12.23647         0.000000      0.000000      1.386833
      4.40676      2.54424     13.97195         0.000000      0.000000     -0.034313
    total drift:                               -0.000262      0.000073      0.131875

  FREE ENERGIE OF THE ION-ELECTRON SYSTEM (eV)
  free  energy   TOTEN  =      -121.10011790 eV

  energy  without entropy=     -121.10011790  energy(sigma->0) =     -121.10011790

 stress matrix after NEB project (eV)
    -17.90576     -0.00000      0.00000
     -0.00000    -17.90575      0.00000
      0.00000      0.00000      1.88330
  FORCES: max atom, RMS     0.034313    0.005641
  FORCE total and by dimension    0.034313    0.034313
  Stress total and by dimension   25.392497   17.905755
|           W    W    AA    RRRRR   N    N  II  N    N   GGGG   !!!           |
|           W    W   A  A   R    R  NN   N  II  NN   N  G    G  !!!           |
|           W    W  A    A  R    R  N N  N  II  N N  N  G       !!!           |
|           W WW W  AAAAAA  RRRRR   N  N N  II  N  N N  G  GGG   !            |
|           WW  WW  A    A  R   R   N   NN  II  N   NN  G    G                |
|           W    W  A    A  R    R  N    N  II  N    N   GGGG   !!!           |
|     Tetrahedron method does not include variations of the Fermi             |
|     occupations, so forces and stress will be inaccurate. We suggest        |
|     using a different smearing scheme ISMEAR = 1 or 2 for metals in         |
|     relaxations.                                                            |

 total charge

# of ion       s       p       d       tot
    1        0.544   0.240   8.765   9.549
    2        0.543   0.241   8.764   9.548
    3        0.543   0.241   8.764   9.548
    4        0.543   0.241   8.764   9.548
    5        0.545   0.239   8.765   9.549
    6        0.543   0.241   8.764   9.548
    7        0.543   0.241   8.764   9.548
    8        0.543   0.241   8.764   9.548
    9        0.542   0.241   8.765   9.548
   10        0.521   0.308   8.772   9.601
   11        0.517   0.311   8.776   9.604
   12        0.521   0.308   8.772   9.601
   13        0.517   0.311   8.776   9.604
   14        0.517   0.311   8.776   9.604
   15        0.516   0.310   8.773   9.598
   16        0.521   0.308   8.772   9.601
   17        0.516   0.310   8.773   9.598
   18        0.516   0.310   8.773   9.598
   19        0.518   0.301   8.777   9.596
   20        0.541   0.331   8.757   9.629
   21        0.541   0.331   8.757   9.629
   22        0.511   0.310   8.774   9.595
   23        0.541   0.331   8.757   9.629
   24        0.511   0.310   8.774   9.595
   25        0.518   0.301   8.777   9.596
   26        0.518   0.301   8.777   9.596
   27        0.511   0.310   8.774   9.595
   28        0.542   0.227   8.769   9.539
   29        0.536   0.245   8.768   9.549
   30        0.536   0.245   8.768   9.549
   31        0.536   0.245   8.768   9.549
   32        0.536   0.245   8.768   9.549
   33        0.536   0.245   8.768   9.549
   34        0.536   0.245   8.768   9.549
   35        0.540   0.227   8.773   9.540
   36        0.680   0.612   7.212   8.504
   37        1.028   1.190   0.000   2.219
tot         20.266  11.502 314.132 345.900

 BZINTS: Fermi energy:    0.186497;  398.000000 electrons
         Band energy:-0.141181E+04;  BLOECHL correction:   -0.109540