 vasp.6.2.0 18Jan21 (build Jun 12 2021 23:27:24) complex

 executed on             LinuxIFC date 2022.05.30  16:33:25

 INCAR:
   ISMEAR = -5
   SIGMA = 0.1
   ISPIN = 1
   EDIFF = 1.d-5
   EDIFFG = -0.01
   NSW = 0
   NELM = 150
   ENCUT = 500
   ISIF = 2
   IBRION = 2
   LREAL = Auto
   ALGO = Fast
   ICHARG = 11
   LORBIT = 10
   LCHARG = .F.
   LWAVE = .F.

 POTCAR:    PAW_PBE Au 04Oct2007
 POTCAR:    PAW_PBE W 08Apr2002
 POTCAR:    PAW_PBE O 08Apr2002
|           W    W    AA    RRRRR   N    N  II  N    N   GGGG   !!!           |
|           W    W   A  A   R    R  NN   N  II  NN   N  G    G  !!!           |
|           W    W  A    A  R    R  N N  N  II  N N  N  G       !!!           |
|           W WW W  AAAAAA  RRRRR   N  N N  II  N  N N  G  GGG   !            |
|           WW  WW  A    A  R   R   N   NN  II  N   NN  G    G                |
|           W    W  A    A  R    R  N    N  II  N    N   GGGG   !!!           |
|     For optimal performance we recommend to set                             |
|       NCORE = 2 up to number-of-cores-per-socket                            |
|     This setting can greatly improve the performance of VASP for DFT.       |
|     The default, NCORE=1 might be grossly inefficient on modern             |
|     multi-core architectures or massively parallel machines. Do your        |
|     Unfortunately you need to use the default for GW and RPA                |
|     calculations (for HF NCORE is supported but not extensively tested      |
|     yet).                                                                   |

 POTCAR:    PAW_PBE Au 04Oct2007
   VRHFIN =Au: s1d10

   TITEL  = PAW_PBE Au 04Oct2007
   POMASS =  196.966; ZVAL   =   11.000    mass and valenz
   ENMAX  =  229.943; ENMIN  =  172.457 eV

 POTCAR:    PAW_PBE W 08Apr2002
   VRHFIN =W : 6s5d

   TITEL  = PAW_PBE W 08Apr2002
   POMASS =  183.850; ZVAL   =    6.000    mass and valenz
   ENMAX  =  223.057; ENMIN  =  167.293 eV

 POTCAR:    PAW_PBE O 08Apr2002
   VRHFIN =O: s2p4

   TITEL  = PAW_PBE O 08Apr2002
   POMASS =   16.000; ZVAL   =    6.000    mass and valenz
   ENMAX  =  400.000; ENMIN  =  300.000 eV

 Optimization of the real space projectors (new method)

 maximal supplied QI-value         = 15.12
 optimisation between [QCUT,QGAM] = [ 11.34, 22.83] = [ 36.00,145.93] Ry
 Optimized for a Real-space Cutoff    1.39 Angstroem

   l    n(q)    QCUT    max X(q) W(low)/X(q) W(high)/X(q)  e(spline)
   2      9    11.338    60.898    0.39E-03    0.42E-03    0.21E-06
   2      9    11.338    58.894    0.40E-03    0.42E-03    0.22E-06
   0      9    11.338   109.617    0.13E-03    0.20E-04    0.13E-06
   0      9    11.338    75.026    0.13E-03    0.20E-04    0.13E-06
   1      9    11.338    16.344    0.33E-04    0.24E-03    0.18E-06
   1      9    11.338    10.160    0.26E-04    0.19E-03    0.15E-06
 Optimization of the real space projectors (new method)

[...]

   l    n(q)    QCUT    max X(q) W(low)/X(q) W(high)/X(q)  e(spline)
   2     10    11.429   130.855    0.22E-03    0.64E-03    0.11E-05
   2     10    11.429   114.007    0.22E-03    0.64E-03    0.11E-05
   0     11    11.429    84.709    0.39E-04    0.67E-04    0.23E-06
   0     11    11.429    49.163    0.35E-04    0.62E-04    0.21E-06
   1     10    11.429    15.765    0.84E-04    0.15E-03    0.24E-06
   1     10    11.429    10.638    0.58E-04    0.12E-03    0.19E-06
 Optimization of the real space projectors (new method)

 maximal supplied QI-value         = 24.76
 optimisation between [QCUT,QGAM] = [ 11.39, 22.77] = [ 36.31,145.25] Ry
 Optimized for a Real-space Cutoff    1.00 Angstroem

   l    n(q)    QCUT    max X(q) W(low)/X(q) W(high)/X(q)  e(spline)
   0      7    11.387    20.381    0.39E-03    0.13E-02    0.15E-06
   0      7    11.387    15.268    0.42E-03    0.14E-02    0.17E-06
   1      6    11.387     5.964    0.41E-03    0.11E-02    0.17E-06
   1      6    11.387     5.382    0.39E-03    0.87E-03    0.15E-06
  PAW_PBE Au 04Oct2007                  :
  PAW_PBE W 08Apr2002                   :
  PAW_PBE O 08Apr2002                   :

 POSCAR: Au-W-O2
  positions in direct lattice
  velocities in cartesian coordinates
 exchange correlation table for  LEXCH =        8
   RHO(1)=    0.500       N(1)  =     2000
   RHO(2)=  100.500       N(2)  =     4000

 VTST: version 3.2, (02/03/18)

 CHAIN: initializing optimizer

 OPT: Using VASP Conjugate-Gradient optimizer
 CHAIN: Read ICHAIN            0

 POSCAR: Au-W-O2
  positions in direct lattice
  velocities in cartesian coordinates

 ion  position               nearest neighbor table
   1  0.000  0.000  0.217-  16 2.94  12 2.94   6 2.94   8 2.94   7 2.94   3 2.94  10 2.94   4 2.94
                             2 2.94
   2  0.333  0.000  0.217-   9 2.94  11 2.94  17 2.94  10 2.94   8 2.94   4 2.94   5 2.94   1 2.94
                             3 2.94
   3  0.667  0.000  0.217-   7 2.94  18 2.94  12 2.94   1 2.94  11 2.94   5 2.94   6 2.94   9 2.94
                             2 2.94
   4  0.000  0.333  0.217-  10 2.94   6 2.94   5 2.94  13 2.94   2 2.94  15 2.94   9 2.94   1 2.94
                             7 2.94
   5  0.333  0.333  0.217-  13 2.94   7 2.94  11 2.94   4 2.94   2 2.94  14 2.94   3 2.94   8 2.94
                             6 2.94
   6  0.667  0.333  0.217-  15 2.94  14 2.94   1 2.94  12 2.94   4 2.94   9 2.94   8 2.94   3 2.94
                             5 2.94
   7  0.000  0.667  0.217-  18 2.94   3 2.94  16 2.94   5 2.94   1 2.94  13 2.94   8 2.94   4 2.94
                             9 2.94
   8  0.333  0.667  0.217-   9 2.94  17 2.94   1 2.94   2 2.94  14 2.94  16 2.94   6 2.94   7 2.94
                             5 2.94
   9  0.667  0.667  0.217-   2 2.94   8 2.94  17 2.94   6 2.94  15 2.94   4 2.94   3 2.94  18 2.94
                             7 2.94
  10  0.111  0.111  0.316-  20 2.90  11 2.94  17 2.94   2 2.94   4 2.94   1 2.94  12 2.94  16 2.94
                            13 2.94  15 2.94  26 2.96  19 2.96
  11  0.444  0.111  0.316-  20 2.91  21 2.91  13 2.94   2 2.94  10 2.94  17 2.94   5 2.94   3 2.94
                            18 2.94  14 2.94  12 2.94  27 2.94
  12  0.778  0.111  0.316-  21 2.90  16 2.94  18 2.94   1 2.94  14 2.94  15 2.94   3 2.94   6 2.94
                            10 2.94  11 2.94  25 2.96  19 2.96
  13  0.111  0.444  0.316-  23 2.91  20 2.91   5 2.94  18 2.94  11 2.94   7 2.94   4 2.94  16 2.94
                            10 2.94  14 2.94  15 2.94  22 2.94
  14  0.444  0.444  0.316-  21 2.91  23 2.91  15 2.94   6 2.94  12 2.94   8 2.94  17 2.94   5 2.94
                            16 2.94  13 2.94  11 2.94  24 2.94
  15  0.778  0.444  0.316-  24 2.92  22 2.92  14 2.94   6 2.94  17 2.94  12 2.94   9 2.94   4 2.94
                            10 2.94  13 2.94  18 2.94  19 2.95
  16  0.111  0.778  0.316-  23 2.90  18 2.94  12 2.94   7 2.94   1 2.94   8 2.94  13 2.94  10 2.94
                            14 2.94  17 2.94  25 2.96  26 2.96
  17  0.444  0.778  0.316-  27 2.92  24 2.92   9 2.94  15 2.94   2 2.94  10 2.94  11 2.94   8 2.94
                            14 2.94  16 2.94  18 2.94  26 2.95
  18  0.778  0.778  0.316-  22 2.92  27 2.92  16 2.94   7 2.94  13 2.94  12 2.94   3 2.94  11 2.94
                             9 2.94  15 2.94  17 2.94  25 2.95
  19  0.888  0.224  0.415-  24 2.93  22 2.93  21 2.93  20 2.93  28 2.94  15 2.95  26 2.96  25 2.96
                            10 2.96  12 2.96  32 3.04  31 3.04
  20  0.222  0.222  0.413-  36 2.74  10 2.90  11 2.91  13 2.91  26 2.93  19 2.93  23 2.95  21 2.95
                            27 2.96  22 2.96  29 2.98  31 2.98
  21  0.557  0.222  0.413-  36 2.74  12 2.90  14 2.91  11 2.91  25 2.93  19 2.93  20 2.95  23 2.95
                            27 2.96  24 2.96  30 2.98  32 2.98
  22  0.886  0.557  0.414-  24 2.90  27 2.90  18 2.92  15 2.92  25 2.93  19 2.93  13 2.94  35 2.95
                            23 2.96  20 2.96  33 3.02  31 3.02
  23  0.222  0.557  0.413-  36 2.74  16 2.90  13 2.91  14 2.91  25 2.93  26 2.93  20 2.95  21 2.95
                            22 2.96  24 2.96  33 2.98  34 2.98
  24  0.557  0.557  0.414-  27 2.90  22 2.90  15 2.92  17 2.92  26 2.93  19 2.93  14 2.94  35 2.95
                            21 2.96  23 2.96  32 3.02  34 3.02
  25  0.888  0.888  0.415-  22 2.93  27 2.93  23 2.93  21 2.93  28 2.94  18 2.95  19 2.96  26 2.96
                            16 2.96  12 2.96  33 3.04  30 3.04
  26  0.224  0.888  0.415-  27 2.93  24 2.93  20 2.93  23 2.93  28 2.94  17 2.95  19 2.96  25 2.96
                            10 2.96  16 2.96  29 3.04  34 3.04
  27  0.557  0.886  0.414-  24 2.90  22 2.90  17 2.92  18 2.92  26 2.93  25 2.93  11 2.94  35 2.95
                            20 2.96  21 2.96  29 3.02  30 3.02
  28  0.000  0.000  0.514-  25 2.94  19 2.94  26 2.94  34 3.00  32 3.00  33 3.00  30 3.00  31 3.00
                            29 3.00
  29  0.334  0.013  0.516-  30 2.82  31 2.82  36 2.84  20 2.98  35 3.00  28 3.00  27 3.02  26 3.04
                            34 3.17
  30  0.653  0.013  0.516-  29 2.82  32 2.82  36 2.84  21 2.98  35 3.00  28 3.00  27 3.02  25 3.04
                            33 3.17
  31  0.013  0.334  0.516-  37 2.59  33 2.82  29 2.82  36 2.84  20 2.98  35 3.00  28 3.00  22 3.02
                            19 3.04  32 3.17
  32  0.653  0.334  0.516-  38 2.59  34 2.82  30 2.82  36 2.84  21 2.98  35 3.00  28 3.00  24 3.02
                            19 3.04  31 3.17
  33  0.013  0.653  0.516-  31 2.82  34 2.82  36 2.84  23 2.98  35 3.00  28 3.00  22 3.02  25 3.04
                            30 3.17
  34  0.334  0.653  0.516-  32 2.82  33 2.82  36 2.84  23 2.98  35 3.00  28 3.00  24 3.02  26 3.04
                            29 3.17
  35  0.667  0.667  0.514-  24 2.95  27 2.95  22 2.95  29 3.00  34 3.00  32 3.00  31 3.00  30 3.00
                            33 3.00
  36  0.333  0.333  0.501-  38 2.02  37 2.02  20 2.74  23 2.74  21 2.74  33 2.84  31 2.84  29 2.84
                            30 2.84  34 2.84  32 2.84
  37  0.251  0.333  0.579-  38 1.45  36 2.02  31 2.59
  38  0.415  0.333  0.579-  37 1.45  36 2.02  32 2.59

  LATTYP: Found a hexagonal cell.
 ALAT       =     8.8135128021
 C/A-ratio  =     2.7586513333

  Lattice vectors:

 A1 = (  -4.4067569092,  -7.6327256898,   0.0000000000)
 A2 = (   8.8135128021,   0.0000000000,   0.0000000000)
 A3 = (   0.0000000000,   0.0000000000,  24.3134088421)

Analysis of symmetry for initial positions (statically):
 Subroutine PRICEL returns:
 Original cell was already a primitive cell.

 Routine SETGRP: Setting up the symmetry group for a
 hexagonal supercell.

 Subroutine GETGRP returns: Found  2 space group operations
 (whereof  2 operations were pure point group operations)
 out of a pool of 24 trial point group operations.

The static configuration has the point symmetry C_1h.

Analysis of symmetry for dynamics (positions and initial velocities):
 Subroutine PRICEL returns:
 Original cell was already a primitive cell.

[...]

The dynamic configuration has the point symmetry C_1h.

Analysis of constrained symmetry for selective dynamics:
 Subroutine PRICEL returns:
 Original cell was already a primitive cell.

 Routine SETGRP: Setting up the symmetry group for a
[...]
     33      -5.4095      2.00000
     34      -5.3897      2.00000
     35      -5.3412      2.00000
     36      -5.2782      2.00000
     37      -5.2363      2.00000
     38      -5.2250      2.00000
     39      -5.2064      2.00000
     40      -5.1968      2.00000
     41      -5.1632      2.00000
     42      -5.0371      2.00000
     43      -5.0065      2.00000
     44      -4.9513      2.00000
     45      -4.9058      2.00000
     46      -4.8822      2.00000
     47      -4.8632      2.00000
     48      -4.8141      2.00000
     49      -4.8092      2.00000
     50      -4.7603      2.00000
     51      -4.7009      2.00000
     52      -4.6666      2.00000
     53      -4.6586      2.00000
     54      -4.6430      2.00000
     55      -4.6220      2.00000
     56      -4.5968      2.00000
     57      -4.5721      2.00000
     58      -4.5671      2.00000
     59      -4.5372      2.00000
     60      -4.5042      2.00000
[...]
    238       5.5934      0.00000
    239       5.7103      0.00000
    240       5.9108      0.00000
    241       5.9957      0.00000
    242       6.0613      0.00000
    243       6.0740      0.00000
    244       6.1256      0.00000
    245       6.2550      0.00000
    246       6.2760      0.00000
    247       6.3781      0.00000
    248       6.4156      0.00000
    249       6.5073      0.00000
    250       6.7424      0.00000
    251       6.8112      0.00000
    252       6.9054      0.00000

 soft charge-density along one line, spin component           1
         0         1         2         3         4         5         6         7         8         9
 total charge-density along one line

------------------------ aborting loop because EDIFF is reached ----------------------------------------

 total charge

# of ion       s       p       d       tot
    1        0.549   0.237   8.765   9.552
    2        0.541   0.242   8.765   9.548
    3        0.541   0.242   8.765   9.548
    4        0.543   0.241   8.764   9.549
    5        0.543   0.241   8.762   9.547
    6        0.543   0.241   8.764   9.549
    7        0.542   0.241   8.765   9.548
    8        0.542   0.241   8.765   9.548
    9        0.542   0.240   8.766   9.548
   10        0.524   0.306   8.770   9.599
   11        0.517   0.309   8.780   9.607
   12        0.524   0.306   8.770   9.599
   13        0.518   0.310   8.778   9.606
   14        0.518   0.310   8.778   9.606
   15        0.513   0.308   8.773   9.595
   16        0.526   0.307   8.765   9.598
   17        0.514   0.308   8.774   9.597
   18        0.514   0.308   8.774   9.597
   19        0.515   0.293   8.776   9.583
   20        0.569   0.349   8.727   9.645
   21        0.569   0.349   8.727   9.645
   22        0.508   0.308   8.774   9.589
   23        0.578   0.353   8.715   9.647
   24        0.508   0.308   8.774   9.589
   25        0.516   0.294   8.773   9.584
   26        0.516   0.294   8.773   9.584
   27        0.508   0.306   8.779   9.593
   28        0.544   0.223   8.757   9.524
   29        0.569   0.249   8.749   9.567
   30        0.569   0.249   8.749   9.567
   31        0.565   0.249   8.756   9.570
   32        0.565   0.249   8.756   9.570
   33        0.569   0.249   8.750   9.567
   34        0.569   0.249   8.750   9.567
   35        0.536   0.225   8.760   9.520
   36        0.595   0.620   3.917   5.132
   37        1.618   3.247   0.000   4.865
   38        1.618   3.247   0.000   4.865
tot         22.658  16.849 310.606 350.113

  FORCE on cell =-STRESS in cart. coord.  units (eV):
  Direction    XX          YY          ZZ          XY          YZ          ZX
  Alpha Z   954.52120   954.52120   954.52120
  Ewald  149687.77998149319.86758************    -0.00030     0.20814    -0.00011
  Hartree158079.97184157904.04368************     0.00002     0.42950    -0.00003
  E(xc)   -1812.79124 -1813.20787 -1820.74794     0.00001     0.10243     0.00000
  Local  ************************319712.89021     0.00258    -0.31397    -0.00001
  n-local  -100.76572  -104.80832   -75.63039     4.69017     0.87066     0.11567
  augment  2378.52694  2382.62205  2399.50748    -0.00130    -0.07135     0.00007
  Kinetic  5658.73493  5701.42529  5732.11894     1.25938    -0.96179    -0.08053
  Fock        0.00000     0.00000     0.00000     0.00000     0.00000     0.00000
  Total     -16.56419   -18.76967     0.53770    -0.00000     0.26362     0.00000
  in kB     -16.22581   -18.38623     0.52671    -0.00000     0.25823     0.00000

 VOLUME and BASIS-vectors are now :
  energy-cutoff  :      500.00
  volume of cell :     1635.59
      direct lattice vectors                 reciprocal lattice vectors
     8.813512802  0.000000000  0.000000000     0.113462137 -0.065507406  0.000000000
     4.406756909  7.632725690  0.000000000     0.000000000  0.131014796  0.000000000
     0.000000000  0.000000000 24.313408842     0.000000000  0.000000000  0.041129568

  length of vectors
     8.813512802  8.813512802 24.313408842     0.131014796  0.131014796  0.041129568

 FORCES acting on ions
    electron-ion (+dipol)            ewald-force                    non-local-force                 convergence-correction
   -.199E-04 -.547E-01 0.266E+04   0.520E-04 -.291E-01 -.266E+04   0.462E-08 0.694E-01 -.729E+00   -.201E-03 0.500E-03 -.101E+00
   0.884E+00 0.295E+00 0.266E+04   -.846E+00 -.358E+00 -.266E+04   0.161E-02 0.774E-01 -.276E+00   -.417E-01 -.168E-01 -.159E+00
   -.884E+00 0.295E+00 0.266E+04   0.846E+00 -.358E+00 -.266E+04   -.161E-02 0.774E-01 -.276E+00   0.420E-01 -.148E-01 -.158E+00
   0.662E+00 0.591E+00 0.266E+04   -.708E+00 -.569E+00 -.266E+04   0.607E-01 -.551E-01 -.285E+00   -.153E-01 0.301E-01 -.120E+00
   0.794E-05 -.110E+00 0.267E+04   0.951E-04 0.387E-03 -.267E+04   0.232E-08 0.348E-01 -.185E+00   0.430E-02 0.737E-01 -.120E+00
   -.662E+00 0.591E+00 0.266E+04   0.708E+00 -.569E+00 -.266E+04   -.607E-01 -.551E-01 -.285E+00   0.137E-01 0.310E-01 -.119E+00
   -.232E+00 -.833E+00 0.266E+04   0.139E+00 0.926E+00 -.266E+04   0.728E-01 -.589E-01 -.261E+00   0.241E-01 -.247E-01 -.152E+00
   0.232E+00 -.833E+00 0.266E+04   -.139E+00 0.926E+00 -.266E+04   -.728E-01 -.589E-01 -.261E+00   -.222E-01 -.258E-01 -.151E+00
   0.197E-04 0.465E-01 0.266E+04   0.166E-03 0.287E-01 -.266E+04   -.149E-08 -.224E-01 -.444E+00   -.464E-02 -.554E-01 -.120E+00
   0.858E+01 0.510E+01 0.918E+03   -.812E+01 -.492E+01 -.917E+03   -.422E+00 -.205E+00 -.555E+00   -.838E-01 0.113E-01 -.750E-02
   0.177E-04 0.449E+01 0.927E+03   0.148E-03 -.462E+01 -.927E+03   0.193E-08 0.290E-01 -.212E+00   0.379E-02 0.135E-01 0.436E-01
   -.858E+01 0.510E+01 0.918E+03   0.812E+01 -.492E+01 -.917E+03   0.422E+00 -.205E+00 -.555E+00   0.825E-01 0.128E-01 -.786E-02
   0.365E+01 -.233E+01 0.927E+03   -.378E+01 0.235E+01 -.927E+03   0.735E-01 -.305E-01 -.260E+00   -.221E-01 0.428E-01 0.404E-02
   -.365E+01 -.233E+01 0.927E+03   0.378E+01 0.235E+01 -.927E+03   -.735E-01 -.305E-01 -.260E+00   0.299E-01 0.424E-01 0.393E-02
   0.311E-04 0.529E+01 0.923E+03   0.236E-03 -.537E+01 -.923E+03   -.144E-08 -.217E-01 -.457E+00   -.239E-02 0.224E-01 -.206E-01
   -.218E-04 -.994E+01 0.918E+03   0.163E-03 0.943E+01 -.917E+03   0.358E-07 0.537E+00 -.673E+00   0.296E-03 -.424E-02 -.409E-01
   0.472E+01 -.270E+01 0.923E+03   -.477E+01 0.284E+01 -.922E+03   -.516E-03 -.422E-01 -.403E+00   0.464E-03 -.673E-01 -.110E-01
   -.472E+01 -.270E+01 0.923E+03   0.477E+01 0.284E+01 -.922E+03   0.516E-03 -.422E-01 -.403E+00   -.507E-03 -.654E-01 -.113E-01
   -.439E-04 0.531E+01 -.862E+03   0.543E-04 -.550E+01 0.861E+03   -.258E-08 -.387E-01 0.768E+00   -.225E-03 0.103E+00 0.191E+00
   0.986E+01 0.692E+01 -.801E+03   -.883E+01 -.663E+01 0.801E+03   -.117E+01 -.417E+00 -.105E+01   0.151E+00 0.656E-01 0.431E+00
   -.986E+01 0.692E+01 -.801E+03   0.883E+01 -.663E+01 0.801E+03   0.117E+01 -.417E+00 -.105E+01   -.150E+00 0.676E-01 0.431E+00
   -.288E+01 0.260E+00 -.836E+03   0.252E+01 0.101E+00 0.835E+03   0.461E+00 -.329E+00 0.788E+00   -.310E-01 -.438E-01 0.223E+00
   -.517E-05 -.138E+02 -.802E+03   0.140E-03 0.123E+02 0.803E+03   0.109E-06 0.163E+01 -.132E+01   0.177E-02 -.169E+00 0.388E+00
   0.288E+01 0.260E+00 -.836E+03   -.252E+01 0.101E+00 0.835E+03   -.461E+00 -.329E+00 0.788E+00   0.241E-01 -.434E-01 0.222E+00
   -.385E+01 -.158E+01 -.864E+03   0.399E+01 0.164E+01 0.863E+03   -.234E-01 0.188E-01 0.611E+00   -.713E-01 -.181E-01 0.191E+00
   0.385E+01 -.158E+01 -.864E+03   -.399E+01 0.164E+01 0.863E+03   0.234E-01 0.188E-01 0.611E+00   0.732E-01 -.191E-01 0.192E+00
   0.133E-04 -.360E+01 -.838E+03   0.196E-03 0.286E+01 0.837E+03   0.511E-07 0.767E+00 0.861E+00   -.429E-02 0.406E-01 0.276E+00
   -.167E-04 0.581E+01 -.255E+04   0.317E-04 -.578E+01 0.255E+04   -.326E-08 -.490E-01 0.396E+00   0.136E-02 0.510E-02 0.283E+00
   0.490E+02 0.994E+02 -.253E+04   -.481E+02 -.991E+02 0.253E+04   -.122E+01 -.115E+01 0.330E+00   0.165E+00 0.233E+00 0.181E+00
   -.490E+02 0.994E+02 -.253E+04   0.481E+02 -.991E+02 0.253E+04   0.122E+01 -.115E+01 0.330E+00   -.171E+00 0.235E+00 0.182E+00
   0.126E+03 0.181E+01 -.251E+04   -.126E+03 -.163E+01 0.251E+04   -.140E+01 -.192E+00 0.802E+00   0.239E+00 0.257E-01 0.194E+00
   -.126E+03 0.181E+01 -.251E+04   0.126E+03 -.163E+01 0.251E+04   0.140E+01 -.192E+00 0.802E+00   -.246E+00 0.268E-01 0.193E+00
   0.454E+02 -.101E+03 -.253E+04   -.450E+02 0.101E+03 0.253E+04   -.837E+00 0.132E+01 0.350E+00   0.109E+00 -.257E+00 0.229E+00
   -.454E+02 -.101E+03 -.253E+04   0.450E+02 0.101E+03 0.253E+04   0.837E+00 0.132E+01 0.350E+00   -.113E+00 -.257E+00 0.228E+00
   0.352E-04 -.580E+01 -.256E+04   0.138E-03 0.571E+01 0.256E+04   0.714E-08 0.107E+00 0.623E+00   -.352E-02 -.154E-01 0.226E+00
   -.128E-04 -.142E+00 -.110E+04   0.638E-04 0.150E+00 0.110E+04   0.118E-07 0.176E+00 0.157E+01   0.114E-02 -.244E-01 0.186E+00
   0.181E+03 0.262E+00 -.169E+04   -.214E+03 -.501E-03 0.171E+04   0.322E+02 -.262E+00 -.195E+02   0.196E+00 0.533E-02 -.201E+00
   -.181E+03 0.262E+00 -.169E+04   0.214E+03 -.502E-03 0.171E+04   -.322E+02 -.262E+00 -.195E+02   -.195E+00 0.545E-02 -.202E+00
   -.480E-03 -.542E+00 0.365E+02   0.284E-13 0.292E-12 0.909E-11   0.383E-07 0.575E+00 -.392E+02   -.163E-01 -.281E-01 0.280E+01

 POSITION                                       TOTAL-FORCE (eV/Angst)
      0.00000      0.00000      5.28038        -0.000000     -0.014004     -0.127778
      2.93784      0.00000      5.28038        -0.002667     -0.000717     -0.015468
      5.87568      0.00000      5.28038         0.002667     -0.000717     -0.015468
      1.46892      2.54424      5.28038         0.000245     -0.002143     -0.029036
      4.40676      2.54424      5.28038        -0.000000     -0.001386     -0.045753
      7.34459      2.54424      5.28038        -0.000245     -0.002143     -0.029036
      2.93784      5.08848      5.28038         0.003333      0.009203     -0.022109
      5.87568      5.08848      5.28038        -0.003333      0.009203     -0.022109
      8.81351      5.08848      5.28038        -0.000000     -0.002751     -0.052988
      1.46892      0.84808      7.67911        -0.036013     -0.013409      0.080902
      4.40676      0.84808      7.67911        -0.000000     -0.092046     -0.057654
      7.34459      0.84808      7.67911         0.036013     -0.013409      0.080902
      2.93784      3.39232      7.67911        -0.084164      0.040077     -0.042273
      5.87568      3.39232      7.67911         0.084164      0.040077     -0.042273
      8.81351      3.39232      7.67911        -0.000000     -0.074521      0.097857
      4.40676      5.93656      7.67911         0.000000      0.030743      0.119941
      7.34459      5.93656      7.67911        -0.052085      0.031374      0.082640
     10.28243      5.93656      7.67911         0.052085      0.031374      0.082640
      8.81351      1.70807     10.10081        -0.000000     -0.120087     -0.066550
      2.93151      1.69251     10.04012         0.002270     -0.057558     -0.135226
      5.88200      1.69251     10.04012        -0.002270     -0.057558     -0.135226
     10.26425      4.25090     10.06644         0.069835     -0.012412      0.075325
      4.40676      4.24770     10.04012        -0.000000     -0.015783     -0.006310
      7.36277      4.25090     10.06644        -0.069835     -0.012412      0.075325
     11.74104      6.77869     10.10081         0.045113      0.063658     -0.027596
      5.88599      6.77869     10.10081        -0.045113      0.063658     -0.027596
      8.81351      6.76365     10.06644         0.000000      0.066867      0.061441
      0.00000      0.00000     12.49922        -0.000000     -0.012404     -0.034269
      2.99894      0.10048     12.55446        -0.234538     -0.562441     -0.363351
      5.81457      0.10048     12.55446         0.234538     -0.562441     -0.363351
      1.58649      2.54692     12.55446        -1.130816      0.015466     -0.725329
      7.22703      2.54692     12.55446         1.130816      0.015466     -0.725329
      2.99430      4.98533     12.55446        -0.266806      0.517660     -0.356748
      5.81921      4.98533     12.55446         0.266806      0.517660     -0.356748
      8.81351      5.08848     12.49869         0.000000      0.007233      0.072428
      4.40676      2.54424     12.18560         0.000000      0.159914      2.991613
      3.68343      2.54299     14.06640         0.004094      0.005353      0.002281
      5.13009      2.54299     14.06640        -0.004094      0.005353      0.002281
    total drift:                               -0.016771      0.004711      0.112794

  FREE ENERGIE OF THE ION-ELECTRON SYSTEM (eV)
  free  energy   TOTEN  =      -128.46181534 eV

  energy  without entropy=     -128.46181534  energy(sigma->0) =     -128.46181534

 stress matrix after NEB project (eV)
    -16.56419     -0.00000      0.00000
     -0.00000    -18.76967      0.26362
      0.00000      0.26362      0.53770
  FORCES: max atom, RMS     0.007114    0.001632
  FORCE total and by dimension    0.010061    0.005353
  Stress total and by dimension   25.041988   18.769673
|           W    W    AA    RRRRR   N    N  II  N    N   GGGG   !!!           |
|           W    W   A  A   R    R  NN   N  II  NN   N  G    G  !!!           |
|           W    W  A    A  R    R  N N  N  II  N N  N  G       !!!           |
|           W WW W  AAAAAA  RRRRR   N  N N  II  N  N N  G  GGG   !            |
|           WW  WW  A    A  R   R   N   NN  II  N   NN  G    G                |
|           W    W  A    A  R    R  N    N  II  N    N   GGGG   !!!           |
|     Tetrahedron method does not include variations of the Fermi             |
|     occupations, so forces and stress will be inaccurate. We suggest        |
|     using a different smearing scheme ISMEAR = 1 or 2 for metals in         |
|     relaxations.                                                            |

 total charge

# of ion       s       p       d       tot
    1        0.549   0.237   8.765   9.552
    2        0.541   0.242   8.765   9.548
    3        0.541   0.242   8.765   9.548
    4        0.543   0.241   8.764   9.549
    5        0.543   0.241   8.762   9.547
    6        0.543   0.241   8.764   9.549
    7        0.542   0.241   8.765   9.548
    8        0.542   0.241   8.765   9.548
    9        0.542   0.240   8.766   9.548
   10        0.524   0.306   8.770   9.599
   11        0.517   0.309   8.780   9.607
   12        0.524   0.306   8.770   9.599
   13        0.518   0.310   8.778   9.606
   14        0.518   0.310   8.778   9.606
   15        0.513   0.308   8.773   9.595
   16        0.526   0.307   8.765   9.598
   17        0.514   0.308   8.774   9.597
   18        0.514   0.308   8.774   9.597
   19        0.515   0.293   8.776   9.583
   20        0.569   0.349   8.727   9.645
   21        0.569   0.349   8.727   9.645
   22        0.508   0.308   8.774   9.589
   23        0.578   0.353   8.715   9.647
   24        0.508   0.308   8.774   9.589
   25        0.516   0.294   8.773   9.584
   26        0.516   0.294   8.773   9.584
   27        0.508   0.306   8.779   9.593
   28        0.544   0.223   8.757   9.524
   29        0.569   0.249   8.749   9.567
   30        0.569   0.249   8.749   9.567
   31        0.565   0.249   8.756   9.570
   32        0.565   0.249   8.756   9.570
   33        0.569   0.249   8.750   9.567
   34        0.569   0.249   8.750   9.567
   35        0.536   0.225   8.760   9.520
   36        0.595   0.620   3.917   5.132
   37        1.618   3.247   0.000   4.865
   38        1.618   3.247   0.000   4.865
tot         22.658  16.849 310.606 350.113

 BZINTS: Fermi energy:    0.207713;  403.000000 electrons
         Band energy:-0.150496E+04;  BLOECHL correction:   -0.035518