 vasp.6.2.0 18Jan21 (build Jun 12 2021 23:27:24) complex

 executed on             LinuxIFC date 2022.05.26  19:21:48

 INCAR:
   ISMEAR = -5
   SIGMA = 0.1
   ISPIN = 1
   EDIFF = 1.d-5
   EDIFFG = -0.01
   NSW = 0
   NELM = 150
   ENCUT = 500
   ISIF = 2
   IBRION = 2
   LREAL = Auto
   ALGO = Fast
   ICHARG = 11
   LORBIT = 10
   LCHARG = .F.
   LWAVE = .F.

 POTCAR:    PAW_PBE Au 04Oct2007
 POTCAR:    PAW_PBE Ni 02Aug2007
 POTCAR:    PAW_PBE H 15Jun2001
|           W    W    AA    RRRRR   N    N  II  N    N   GGGG   !!!           |
|           W    W   A  A   R    R  NN   N  II  NN   N  G    G  !!!           |
|           W    W  A    A  R    R  N N  N  II  N N  N  G       !!!           |
|           W WW W  AAAAAA  RRRRR   N  N N  II  N  N N  G  GGG   !            |
|           WW  WW  A    A  R   R   N   NN  II  N   NN  G    G                |
|           W    W  A    A  R    R  N    N  II  N    N   GGGG   !!!           |
|     For optimal performance we recommend to set                             |
|       NCORE = 2 up to number-of-cores-per-socket                            |
|     This setting can greatly improve the performance of VASP for DFT.       |
|     The default, NCORE=1 might be grossly inefficient on modern             |
|     multi-core architectures or massively parallel machines. Do your        |
|     Unfortunately you need to use the default for GW and RPA                |
|     calculations (for HF NCORE is supported but not extensively tested      |
|     yet).                                                                   |

 POTCAR:    PAW_PBE Au 04Oct2007
   VRHFIN =Au: s1d10

   TITEL  = PAW_PBE Au 04Oct2007
   POMASS =  196.966; ZVAL   =   11.000    mass and valenz
   ENMAX  =  229.943; ENMIN  =  172.457 eV

 POTCAR:    PAW_PBE Ni 02Aug2007
   VRHFIN =Ni:

   TITEL  = PAW_PBE Ni 02Aug2007
   POMASS =   58.690; ZVAL   =   10.000    mass and valenz
   ENMAX  =  269.532; ENMIN  =  202.149 eV

 POTCAR:    PAW_PBE H 15Jun2001
   VRHFIN =H: ultrasoft test

   TITEL  = PAW_PBE H 15Jun2001
   POMASS =    1.000; ZVAL   =    1.000    mass and valenz
   ENMAX  =  250.000; ENMIN  =  200.000 eV

 Optimization of the real space projectors (new method)

 maximal supplied QI-value         = 15.12
 optimisation between [QCUT,QGAM] = [ 11.34, 22.83] = [ 36.00,145.93] Ry
 Optimized for a Real-space Cutoff    1.39 Angstroem

   l    n(q)    QCUT    max X(q) W(low)/X(q) W(high)/X(q)  e(spline)
   2      9    11.338    60.898    0.39E-03    0.42E-03    0.21E-06
   2      9    11.338    58.894    0.40E-03    0.42E-03    0.22E-06
   0      9    11.338   109.617    0.13E-03    0.20E-04    0.13E-06
   0      9    11.338    75.026    0.13E-03    0.20E-04    0.13E-06
   1      9    11.338    16.344    0.33E-04    0.24E-03    0.18E-06
   1      9    11.338    10.160    0.26E-04    0.19E-03    0.15E-06
 Optimization of the real space projectors (new method)

[...]

   l    n(q)    QCUT    max X(q) W(low)/X(q) W(high)/X(q)  e(spline)
   2      8    11.376    60.317    0.19E-03    0.33E-04    0.13E-06
   2      8    11.376    55.921    0.20E-03    0.34E-04    0.14E-06
   0      9    11.376    51.690    0.82E-04    0.12E-03    0.20E-06
   0      9    11.376    30.015    0.74E-04    0.11E-03    0.18E-06
   1      9    11.376    18.849    0.39E-03    0.12E-03    0.13E-06
   1      9    11.376    14.624    0.33E-03    0.10E-03    0.11E-06
 Optimization of the real space projectors (new method)

 maximal supplied QI-value         = 34.20
 optimisation between [QCUT,QGAM] = [ 11.29, 22.57] = [ 35.68,142.71] Ry
 Optimized for a Real-space Cutoff    1.16 Angstroem

   l    n(q)    QCUT    max X(q) W(low)/X(q) W(high)/X(q)  e(spline)
   0      8    11.287    19.460    0.40E-03    0.73E-03    0.16E-06
   0      8    11.287    12.209    0.38E-03    0.70E-03    0.15E-06
   1      7    11.287     4.655    0.22E-03    0.25E-04    0.22E-06
  PAW_PBE Au 04Oct2007                  :
  PAW_PBE Ni 02Aug2007                  :
  PAW_PBE H 15Jun2001                   :

 POSCAR: Au-Ni-H
  positions in direct lattice
  velocities in cartesian coordinates
 exchange correlation table for  LEXCH =        8
   RHO(1)=    0.500       N(1)  =     2000
   RHO(2)=  100.500       N(2)  =     4000

 VTST: version 3.2, (02/03/18)

 CHAIN: initializing optimizer

 OPT: Using VASP Conjugate-Gradient optimizer
 CHAIN: Read ICHAIN            0

 POSCAR: Au-Ni-H
  positions in direct lattice
  velocities in cartesian coordinates

 ion  position               nearest neighbor table
   1  0.000  0.000  0.238-  16 2.94  12 2.94   6 2.94   8 2.94   7 2.94   3 2.94  10 2.94   4 2.94
                             2 2.94
   2  0.333  0.000  0.238-   9 2.94  11 2.94  17 2.94  10 2.94   8 2.94   4 2.94   5 2.94   1 2.94
                             3 2.94
   3  0.667  0.000  0.238-   7 2.94  18 2.94  12 2.94   1 2.94  11 2.94   5 2.94   6 2.94   9 2.94
                             2 2.94
   4  0.000  0.333  0.238-  10 2.94   6 2.94   5 2.94  13 2.94   2 2.94  15 2.94   9 2.94   1 2.94
                             7 2.94
   5  0.333  0.333  0.238-  13 2.94   7 2.94  11 2.94   4 2.94   2 2.94  14 2.94   3 2.94   8 2.94
                             6 2.94
   6  0.667  0.333  0.238-  15 2.94  14 2.94   1 2.94  12 2.94   4 2.94   9 2.94   8 2.94   3 2.94
                             5 2.94
   7  0.000  0.667  0.238-  18 2.94   3 2.94  16 2.94   5 2.94   1 2.94  13 2.94   8 2.94   4 2.94
                             9 2.94
   8  0.333  0.667  0.238-   9 2.94  17 2.94   1 2.94   2 2.94  14 2.94  16 2.94   6 2.94   7 2.94
                             5 2.94
   9  0.667  0.667  0.238-   2 2.94   8 2.94  17 2.94   6 2.94  15 2.94   4 2.94   3 2.94  18 2.94
                             7 2.94
  10  0.111  0.111  0.346-  20 2.93  26 2.93  19 2.93  11 2.94  17 2.94   2 2.94   4 2.94   1 2.94
                            12 2.94  16 2.94  13 2.94  15 2.94
  11  0.444  0.111  0.346-  20 2.92  21 2.92  27 2.93  13 2.94   2 2.94  10 2.94  17 2.94   5 2.94
                             3 2.94  18 2.94  14 2.94  12 2.94
  12  0.778  0.111  0.346-  21 2.93  25 2.93  19 2.93  16 2.94  18 2.94   1 2.94  14 2.94  15 2.94
                             3 2.94   6 2.94  10 2.94  11 2.94
  13  0.111  0.444  0.346-  23 2.92  20 2.92  22 2.93   5 2.94  18 2.94  11 2.94   7 2.94   4 2.94
                            16 2.94  10 2.94  14 2.94  15 2.94
  14  0.444  0.444  0.346-  21 2.92  23 2.92  24 2.93  15 2.94   6 2.94  12 2.94   8 2.94  17 2.94
                             5 2.94  16 2.94  13 2.94  11 2.94
  15  0.778  0.444  0.346-  24 2.92  22 2.92  19 2.93  14 2.94   6 2.94  17 2.94  12 2.94   9 2.94
                             4 2.94  10 2.94  13 2.94  18 2.94
  16  0.111  0.778  0.346-  23 2.93  25 2.93  26 2.93  18 2.94  12 2.94   7 2.94   1 2.94   8 2.94
                            13 2.94  10 2.94  14 2.94  17 2.94
  17  0.444  0.778  0.346-  27 2.92  24 2.92  26 2.93   9 2.94  15 2.94   2 2.94  10 2.94  11 2.94
                             8 2.94  14 2.94  16 2.94  18 2.94
  18  0.778  0.778  0.346-  22 2.92  27 2.92  25 2.93  16 2.94   7 2.94  13 2.94  12 2.94   3 2.94
                            11 2.94   9 2.94  15 2.94  17 2.94
  19  0.889  0.222  0.454-  10 2.93  12 2.93  15 2.93  26 2.93  25 2.93  24 2.94  22 2.94  21 2.95
                            20 2.95  28 2.95  32 2.96  31 2.96
  20  0.223  0.223  0.453-  36 2.70  29 2.91  31 2.91  11 2.92  13 2.92  23 2.92  21 2.92  10 2.93
                            27 2.95  22 2.95  26 2.95  19 2.95
  21  0.554  0.223  0.453-  36 2.70  30 2.91  32 2.91  14 2.92  11 2.92  20 2.92  23 2.92  12 2.93
                            27 2.95  24 2.95  25 2.95  19 2.95
  22  0.888  0.556  0.453-  18 2.92  15 2.92  24 2.92  27 2.92  13 2.93  25 2.94  19 2.94  33 2.94
                            31 2.94  23 2.95  20 2.95  35 2.96
  23  0.223  0.554  0.453-  36 2.70  33 2.91  34 2.91  13 2.92  14 2.92  20 2.92  21 2.92  16 2.93
                            22 2.95  24 2.95  25 2.95  26 2.95
  24  0.556  0.556  0.453-  15 2.92  17 2.92  27 2.92  22 2.92  14 2.93  26 2.94  19 2.94  32 2.94
                            34 2.94  21 2.95  23 2.95  35 2.96
  25  0.889  0.889  0.454-  16 2.93  12 2.93  18 2.93  19 2.93  26 2.93  22 2.94  27 2.94  23 2.95
                            21 2.95  28 2.95  33 2.96  30 2.96
  26  0.222  0.889  0.454-  10 2.93  16 2.93  17 2.93  19 2.93  25 2.93  27 2.94  24 2.94  20 2.95
                            23 2.95  28 2.95  29 2.96  34 2.96
  27  0.556  0.888  0.453-  17 2.92  18 2.92  24 2.92  22 2.92  11 2.93  26 2.94  25 2.94  29 2.94
                            30 2.94  20 2.95  21 2.95  35 2.96
  28  0.000  0.000  0.563-  25 2.95  19 2.95  26 2.95  34 2.97  32 2.97  33 2.97  30 2.97  31 2.97
                            29 2.97
  29  0.334  0.007  0.561-  30 2.87  31 2.88  36 2.89  20 2.91  27 2.94  26 2.96  35 2.97  28 2.97
                            34 3.06
  30  0.660  0.007  0.561-  29 2.87  32 2.88  36 2.89  21 2.91  27 2.94  25 2.96  35 2.97  28 2.97
                            33 3.06
  31  0.007  0.334  0.561-  33 2.87  29 2.88  36 2.89  20 2.91  22 2.94  19 2.96  35 2.97  28 2.97
                            32 3.06
  32  0.660  0.334  0.561-  34 2.87  30 2.88  36 2.89  21 2.91  24 2.94  19 2.96  35 2.97  28 2.97
                            31 3.06
  33  0.007  0.660  0.561-  31 2.87  34 2.88  36 2.89  23 2.91  22 2.94  25 2.96  35 2.97  28 2.97
                            30 3.06
  34  0.334  0.660  0.561-  32 2.87  33 2.88  36 2.89  23 2.91  24 2.94  26 2.96  35 2.97  28 2.97
                            29 3.06
  35  0.667  0.667  0.563-  24 2.96  27 2.96  22 2.96  29 2.97  34 2.97  32 2.97  31 2.97  30 2.97
                            33 2.97
  36  0.333  0.333  0.548-  37 1.47  20 2.70  23 2.70  21 2.70  33 2.89  31 2.89  29 2.89  30 2.89
                            34 2.89  32 2.89
  37  0.333  0.333  0.614-  36 1.47

  LATTYP: Found a hexagonal cell.
 ALAT       =     8.8135128021
 C/A-ratio  =     2.5184286595

  Lattice vectors:

 A1 = (  -4.4067569092,  -7.6327256898,   0.0000000000)
 A2 = (   8.8135128021,   0.0000000000,   0.0000000000)
 A3 = (   0.0000000000,   0.0000000000,  22.1962032318)

Analysis of symmetry for initial positions (statically):
 Subroutine PRICEL returns:
 Original cell was already a primitive cell.

 Routine SETGRP: Setting up the symmetry group for a
 hexagonal supercell.

 Subroutine GETGRP returns: Found  6 space group operations
 (whereof  6 operations were pure point group operations)
 out of a pool of 24 trial point group operations.

The static configuration has the point symmetry C_3v.

Analysis of symmetry for dynamics (positions and initial velocities):
 Subroutine PRICEL returns:
 Original cell was already a primitive cell.

[...]

The dynamic configuration has the point symmetry C_3v.

Analysis of constrained symmetry for selective dynamics:
 Subroutine PRICEL returns:
 Original cell was already a primitive cell.

 Routine SETGRP: Setting up the symmetry group for a
 hexagonal supercell.

 Subroutine GETGRP returns: Found  6 space group operations
 (whereof  6 operations were pure point group operations)
[...]
     24      -5.0628      2.00000
     25      -5.0622      2.00000
     26      -5.0104      2.00000
     27      -4.9289      2.00000
     28      -4.8695      2.00000
     29      -4.7837      2.00000
     30      -4.7750      2.00000
     31      -4.7614      2.00000
     32      -4.7581      2.00000
     33      -4.7514      2.00000
     34      -4.7042      2.00000
     35      -4.5869      2.00000
     36      -4.5562      2.00000
     37      -4.5531      2.00000
     38      -4.5394      2.00000
     39      -4.4992      2.00000
     40      -4.4064      2.00000
     41      -4.3741      2.00000
     42      -4.3129      2.00000
     43      -4.2967      2.00000
     44      -4.2921      2.00000
     45      -4.2833      2.00000
     46      -4.1931      2.00000
     47      -4.1724      2.00000
     48      -4.1384      2.00000
     49      -4.1200      2.00000
     50      -4.1136      2.00000
     51      -4.1011      2.00000
     52      -4.0821      2.00000
     53      -4.0492      2.00000
     54      -4.0274      2.00000
     55      -4.0104      2.00000
     56      -3.9632      2.00000
     57      -3.9501      2.00000
     58      -3.9423      2.00000
     59      -3.9292      2.00000
     60      -3.9165      2.00000
[...]
    238       6.5718      0.00000
    239       6.7024      0.00000
    240       6.7683      0.00000
    241       6.7997      0.00000
    242       6.8318      0.00000
    243       7.1032      0.00000
    244       7.1196      0.00000
    245       7.2416      0.00000
    246       7.5274      0.00000
    247       7.5770      0.00000
    248       7.6245      0.00000
    249       7.6888      0.00000
    250       7.7897      0.00000
    251       7.9268      0.00000
    252       7.9777      0.00000

 soft charge-density along one line, spin component           1
         0         1         2         3         4         5         6         7         8         9
 total charge-density along one line

------------------------ aborting loop because EDIFF is reached ----------------------------------------

 total charge

# of ion       s       p       d       tot
    1        0.545   0.238   8.771   9.554
    2        0.544   0.240   8.766   9.551
    3        0.544   0.240   8.766   9.551
    4        0.544   0.240   8.766   9.551
    5        0.545   0.241   8.761   9.547
    6        0.544   0.240   8.766   9.551
    7        0.544   0.240   8.766   9.551
    8        0.544   0.240   8.766   9.551
    9        0.543   0.239   8.770   9.551
   10        0.519   0.307   8.771   9.598
   11        0.522   0.307   8.779   9.607
   12        0.519   0.307   8.771   9.598
   13        0.522   0.307   8.779   9.607
   14        0.522   0.307   8.779   9.607
   15        0.516   0.309   8.775   9.600
   16        0.519   0.307   8.771   9.598
   17        0.516   0.309   8.775   9.600
   18        0.516   0.309   8.775   9.600
   19        0.516   0.303   8.775   9.593
   20        0.541   0.321   8.760   9.623
   21        0.541   0.321   8.760   9.623
   22        0.512   0.309   8.773   9.595
   23        0.541   0.321   8.760   9.623
   24        0.512   0.309   8.773   9.595
   25        0.516   0.303   8.775   9.593
   26        0.516   0.303   8.775   9.593
   27        0.512   0.309   8.773   9.595
   28        0.540   0.224   8.770   9.534
   29        0.542   0.232   8.767   9.541
   30        0.542   0.232   8.767   9.541
   31        0.542   0.232   8.767   9.541
   32        0.542   0.232   8.767   9.541
   33        0.542   0.232   8.767   9.541
   34        0.542   0.232   8.767   9.541
   35        0.538   0.224   8.771   9.533
   36        0.415   0.368   8.356   9.138
   37        0.498   0.017   0.000   0.514
tot         19.522   9.952 315.290 344.764

  FORCE on cell =-STRESS in cart. coord.  units (eV):
  Direction    XX          YY          ZZ          XY          YZ          ZX
  Alpha Z   997.07998   997.07998   997.07998
  Ewald  120801.08309120801.08352************    -0.00032    -0.00009    -0.00015
  Hartree129572.99668129572.99669************     0.00000    -0.00002    -0.00004
  E(xc)   -1785.60415 -1785.60412 -1792.30247    -0.00002    -0.00000    -0.00000
  Local  ************************262903.92479     0.00195     0.00004     0.00007
  n-local   -96.58715   -46.37049   -46.57073    23.52078    -1.38219     1.61859
  augment  2546.44566  2546.44739  2552.57646    -0.00149     0.00000     0.00005
  Kinetic  5430.69055  5442.02815  5478.55062     5.52635     0.01226     0.46829
  Fock        0.00000     0.00000     0.00000     0.00000     0.00000     0.00000
  Total     -21.03485   -21.03485     1.48048    -0.00000     0.00000     0.00000
  in kB     -22.57057   -22.57057     1.58857    -0.00000     0.00000     0.00000

 VOLUME and BASIS-vectors are now :
  energy-cutoff  :      500.00
  volume of cell :     1493.16
      direct lattice vectors                 reciprocal lattice vectors
     8.813512802  0.000000000  0.000000000     0.113462137 -0.065507406  0.000000000
     4.406756909  7.632725690  0.000000000     0.000000000  0.131014796  0.000000000
     0.000000000  0.000000000 22.196203232     0.000000000  0.000000000  0.045052750

  length of vectors
     8.813512802  8.813512802 22.196203232     0.131014796  0.131014796  0.045052750

 FORCES acting on ions
    electron-ion (+dipol)            ewald-force                    non-local-force                 convergence-correction
   -.198E-04 -.164E-04 0.249E+04   0.519E-04 0.434E-04 -.249E+04   -.275E-17 0.880E-18 -.841E+00   -.260E-03 -.164E-03 -.268E+00
   0.405E+00 0.358E+00 0.249E+04   -.504E+00 -.434E+00 -.249E+04   0.494E-01 0.695E-01 -.356E+00   0.499E-01 0.206E-01 -.299E+00
   -.405E+00 0.358E+00 0.249E+04   0.503E+00 -.434E+00 -.249E+04   -.494E-01 0.695E-01 -.356E+00   -.496E-01 0.226E-01 -.299E+00
   0.512E+00 0.172E+00 0.249E+04   -.627E+00 -.219E+00 -.249E+04   0.849E-01 0.805E-02 -.356E+00   0.428E-01 0.329E-01 -.299E+00
   0.736E-05 -.240E-04 0.249E+04   0.951E-04 0.172E-05 -.249E+04   0.126E-17 0.301E-18 -.158E+00   0.434E-02 0.264E-02 -.325E+00
   -.512E+00 0.172E+00 0.249E+04   0.627E+00 -.219E+00 -.249E+04   -.849E-01 0.805E-02 -.356E+00   -.444E-01 0.338E-01 -.298E+00
   0.107E+00 -.530E+00 0.249E+04   -.124E+00 0.653E+00 -.249E+04   0.355E-01 -.775E-01 -.356E+00   -.516E-02 -.542E-01 -.299E+00
   -.107E+00 -.530E+00 0.249E+04   0.124E+00 0.653E+00 -.249E+04   -.355E-01 -.775E-01 -.356E+00   0.704E-02 -.554E-01 -.298E+00
   0.197E-04 -.415E-04 0.249E+04   0.166E-03 -.201E-04 -.249E+04   0.568E-18 0.254E-18 -.591E+00   -.462E-02 -.239E-02 -.304E+00
   0.396E+01 0.229E+01 0.834E+03   -.376E+01 -.217E+01 -.834E+03   -.215E+00 -.124E+00 -.603E+00   0.167E-01 0.951E-02 -.135E-02
   0.151E-04 0.544E+01 0.842E+03   0.147E-03 -.539E+01 -.842E+03   0.327E-08 0.491E-01 -.261E+00   0.417E-02 -.112E+00 -.416E-01
   -.396E+01 0.229E+01 0.834E+03   0.376E+01 -.217E+01 -.834E+03   0.215E+00 -.124E+00 -.603E+00   -.183E-01 0.111E-01 -.791E-03
   0.471E+01 -.272E+01 0.842E+03   -.467E+01 0.269E+01 -.842E+03   0.425E-01 -.246E-01 -.261E+00   -.946E-01 0.599E-01 -.416E-01
   -.471E+01 -.272E+01 0.842E+03   0.467E+01 0.269E+01 -.842E+03   -.425E-01 -.246E-01 -.261E+00   0.103E+00 0.591E-01 -.415E-01
   0.309E-04 0.191E+01 0.836E+03   0.236E-03 -.196E+01 -.835E+03   0.239E-09 0.358E-02 -.537E+00   -.261E-02 0.299E-01 0.213E-01
   -.216E-04 -.458E+01 0.834E+03   0.163E-03 0.434E+01 -.834E+03   0.165E-07 0.248E+00 -.603E+00   0.189E-03 -.214E-01 -.797E-03
   0.165E+01 -.953E+00 0.836E+03   -.170E+01 0.980E+00 -.835E+03   0.310E-02 -.179E-02 -.537E+00   0.248E-01 -.168E-01 0.214E-01
   -.165E+01 -.953E+00 0.836E+03   0.170E+01 0.980E+00 -.835E+03   -.310E-02 -.179E-02 -.537E+00   -.246E-01 -.144E-01 0.218E-01
   -.388E-04 0.197E+01 -.854E+03   0.534E-04 -.209E+01 0.853E+03   0.519E-08 0.779E-01 0.690E+00   -.458E-02 0.701E-01 0.292E+00
   0.349E+02 0.201E+02 -.808E+03   -.340E+02 -.196E+02 0.808E+03   -.863E+00 -.498E+00 -.766E+00   0.410E-01 0.235E-01 0.487E+00
   -.349E+02 0.201E+02 -.808E+03   0.340E+02 -.196E+02 0.808E+03   0.863E+00 -.498E+00 -.766E+00   -.385E-01 0.247E-01 0.487E+00
   0.103E+02 -.595E+01 -.842E+03   -.104E+02 0.603E+01 0.841E+03   0.188E+00 -.109E+00 0.499E+00   -.127E-01 0.453E-02 0.315E+00
   -.137E-04 -.403E+02 -.808E+03   0.144E-03 0.393E+02 0.808E+03   0.664E-07 0.997E+00 -.766E+00   0.190E-02 -.457E-01 0.487E+00
   -.103E+02 -.595E+01 -.842E+03   0.104E+02 0.603E+01 0.841E+03   -.188E+00 -.109E+00 0.499E+00   0.589E-02 0.345E-02 0.315E+00
   -.171E+01 -.985E+00 -.854E+03   0.181E+01 0.105E+01 0.853E+03   -.675E-01 -.390E-01 0.690E+00   -.636E-01 -.368E-01 0.292E+00
   0.171E+01 -.984E+00 -.854E+03   -.181E+01 0.105E+01 0.853E+03   0.675E-01 -.390E-01 0.690E+00   0.587E-01 -.390E-01 0.292E+00
   0.933E-05 0.119E+02 -.842E+03   0.198E-03 -.121E+02 0.841E+03   0.145E-07 0.217E+00 0.499E+00   -.297E-02 -.133E-01 0.315E+00
   -.986E-05 -.127E-04 -.250E+04   0.281E-04 0.329E-04 0.250E+04   -.331E-17 0.584E-18 0.619E+00   -.171E-03 -.116E-03 0.354E+00
   0.198E+02 0.316E+02 -.250E+04   -.197E+02 -.313E+02 0.250E+04   -.270E+00 -.405E+00 0.722E+00   0.862E-01 0.588E-01 0.302E+00
   -.198E+02 0.316E+02 -.250E+04   0.197E+02 -.313E+02 0.250E+04   0.270E+00 -.405E+00 0.722E+00   -.856E-01 0.607E-01 0.302E+00
   0.373E+02 0.136E+01 -.250E+04   -.370E+02 -.136E+01 0.250E+04   -.486E+00 -.315E-01 0.722E+00   0.940E-01 0.452E-01 0.302E+00
   -.373E+02 0.136E+01 -.250E+04   0.370E+02 -.136E+01 0.250E+04   0.486E+00 -.315E-01 0.722E+00   -.955E-01 0.459E-01 0.301E+00
   0.175E+02 -.330E+02 -.250E+04   -.173E+02 0.327E+02 0.250E+04   -.216E+00 0.437E+00 0.722E+00   0.980E-02 -.104E+00 0.302E+00
   -.175E+02 -.330E+02 -.250E+04   0.173E+02 0.327E+02 0.250E+04   0.216E+00 0.437E+00 0.722E+00   -.796E-02 -.106E+00 0.301E+00
   0.332E-04 -.303E-04 -.250E+04   0.145E-03 -.482E-04 0.250E+04   -.422E-17 0.204E-17 0.562E+00   -.458E-02 -.235E-02 0.291E+00
   -.306E-04 -.470E-06 -.211E+04   0.105E-03 0.985E-05 0.212E+04   -.162E-17 -.653E-18 -.405E+01   0.100E-01 0.613E-02 0.101E+00
   0.491E-05 -.383E-05 -.308E+03   0.531E-05 0.338E-06 0.310E+03   -.376E-19 -.404E-19 -.234E+01   0.177E-03 0.107E-03 -.445E-01
   -.766E-03 -.774E-03 0.510E+01   0.121E-12 -.104E-12 0.659E-11   -.588E-17 -.542E-16 -.754E+01   -.424E-04 0.833E-03 0.304E+01

 POSITION                                       TOTAL-FORCE (eV/Angst)
      0.00000      0.00000      5.28038         0.000000      0.000000     -0.106933
      2.93784      0.00000      5.28038         0.001162      0.015264     -0.040740
      5.87568      0.00000      5.28038        -0.001162      0.015264     -0.040740
      1.46892      2.54424      5.28038         0.013800     -0.006625     -0.040740
      4.40676      2.54424      5.28038         0.000000      0.000000     -0.050126
      7.34459      2.54424      5.28038        -0.013800     -0.006625     -0.040740
      2.93784      5.08848      5.28038         0.012638     -0.008639     -0.040740
      5.87568      5.08848      5.28038        -0.012638     -0.008639     -0.040740
      8.81351      5.08848      5.28038         0.000000      0.000000     -0.057645
      1.46892      0.84808      7.67911         0.005117      0.002954      0.093233
      4.40676      0.84808      7.67911        -0.000000     -0.012817      0.052350
      7.34459      0.84808      7.67911        -0.005117      0.002954      0.093233
      2.93784      3.39232      7.67911        -0.011100      0.006408      0.052350
      5.87568      3.39232      7.67911         0.011100      0.006408      0.052350
      8.81351      3.39232      7.67911        -0.000000     -0.021687      0.073615
      4.40676      5.93656      7.67911        -0.000000     -0.005909      0.093233
      7.34459      5.93656      7.67911        -0.018782      0.010844      0.073615
     10.28243      5.93656      7.67911         0.018782      0.010844      0.073615
      8.81351      1.69394     10.07055         0.000000      0.026081      0.032654
      2.94670      1.70128     10.05847         0.021483      0.012403     -0.119984
      5.86681      1.70128     10.05847        -0.021483      0.012403     -0.119984
     10.27376      4.24541     10.05945         0.035388     -0.020431      0.003526
      4.40676      4.23017     10.05847        -0.000000     -0.024806     -0.119984
      7.35327      4.24541     10.05945        -0.035388     -0.020431      0.003526
     11.75328      6.78576     10.07055        -0.022586     -0.013040      0.032654
      5.87375      6.78576     10.07055         0.022586     -0.013040      0.032654
      8.81351      6.77463     10.05945         0.000000      0.040862      0.003526
      0.00000      0.00000     12.48855         0.000000      0.000000     -0.036710
      2.97006      0.05170     12.45862        -0.011353     -0.037804     -0.027610
      5.84345      0.05170     12.45862         0.011353     -0.037804     -0.027610
      1.52981      2.54630     12.45862        -0.038416      0.009069     -0.027610
      7.28371      2.54630     12.45862         0.038416      0.009069     -0.027610
      2.96650      5.03473     12.45862        -0.027062      0.028734     -0.027610
      5.84701      5.03473     12.45862         0.027062      0.028734     -0.027610
      8.81351      5.08848     12.49203         0.000000      0.000000     -0.030811
      4.40676      2.54424     12.16149         0.000000     -0.000000      0.317654
      4.40676      2.54424     13.63233         0.000000      0.000000     -0.031511
    total drift:                               -0.000808      0.000059      0.602260

  FREE ENERGIE OF THE ION-ELECTRON SYSTEM (eV)
  free  energy   TOTEN  =      -114.72431912 eV

  energy  without entropy=     -114.72431912  energy(sigma->0) =     -114.72431912

 stress matrix after NEB project (eV)
    -21.03485     -0.00000      0.00000
     -0.00000    -21.03485      0.00000
      0.00000      0.00000      1.48048
  FORCES: max atom, RMS     0.031511    0.005180
  FORCE total and by dimension    0.031511    0.031511
  Stress total and by dimension   29.784582   21.034847
|           W    W    AA    RRRRR   N    N  II  N    N   GGGG   !!!           |
|           W    W   A  A   R    R  NN   N  II  NN   N  G    G  !!!           |
|           W    W  A    A  R    R  N N  N  II  N N  N  G       !!!           |
|           W WW W  AAAAAA  RRRRR   N  N N  II  N  N N  G  GGG   !            |
|           WW  WW  A    A  R   R   N   NN  II  N   NN  G    G                |
|           W    W  A    A  R    R  N    N  II  N    N   GGGG   !!!           |
|     Tetrahedron method does not include variations of the Fermi             |
|     occupations, so forces and stress will be inaccurate. We suggest        |
|     using a different smearing scheme ISMEAR = 1 or 2 for metals in         |
|     relaxations.                                                            |

 total charge

# of ion       s       p       d       tot
    1        0.545   0.238   8.771   9.554
    2        0.544   0.240   8.766   9.551
    3        0.544   0.240   8.766   9.551
    4        0.544   0.240   8.766   9.551
    5        0.545   0.241   8.761   9.547
    6        0.544   0.240   8.766   9.551
    7        0.544   0.240   8.766   9.551
    8        0.544   0.240   8.766   9.551
    9        0.543   0.239   8.770   9.551
   10        0.519   0.307   8.771   9.598
   11        0.522   0.307   8.779   9.607
   12        0.519   0.307   8.771   9.598
   13        0.522   0.307   8.779   9.607
   14        0.522   0.307   8.779   9.607
   15        0.516   0.309   8.775   9.600
   16        0.519   0.307   8.771   9.598
   17        0.516   0.309   8.775   9.600
   18        0.516   0.309   8.775   9.600
   19        0.516   0.303   8.775   9.593
   20        0.541   0.321   8.760   9.623
   21        0.541   0.321   8.760   9.623
   22        0.512   0.309   8.773   9.595
   23        0.541   0.321   8.760   9.623
   24        0.512   0.309   8.773   9.595
   25        0.516   0.303   8.775   9.593
   26        0.516   0.303   8.775   9.593
   27        0.512   0.309   8.773   9.595
   28        0.540   0.224   8.770   9.534
   29        0.542   0.232   8.767   9.541
   30        0.542   0.232   8.767   9.541
   31        0.542   0.232   8.767   9.541
   32        0.542   0.232   8.767   9.541
   33        0.542   0.232   8.767   9.541
   34        0.542   0.232   8.767   9.541
   35        0.538   0.224   8.771   9.533
   36        0.415   0.368   8.356   9.138
   37        0.498   0.017   0.000   0.514
tot         19.522   9.952 315.290 344.764

 BZINTS: Fermi energy:    0.638533;  396.000000 electrons
         Band energy:-0.118315E+04;  BLOECHL correction:   -0.100903