 vasp.6.2.0 18Jan21 (build Jun 12 2021 23:27:24) complex

 executed on             LinuxIFC date 2022.05.26  19:37:35

 INCAR:
   ISMEAR = -5
   SIGMA = 0.1
   ISPIN = 1
   EDIFF = 1.d-5
   EDIFFG = -0.01
   NSW = 0
   NELM = 150
   ENCUT = 500
   ISIF = 2
   IBRION = 2
   LREAL = Auto
   ALGO = Fast
   ICHARG = 11
   LORBIT = 10
   LCHARG = .F.
   LWAVE = .F.

 POTCAR:    PAW_PBE Ag 02Apr2005
 POTCAR:    PAW_PBE Ti 08Apr2002
 POTCAR:    PAW_PBE O 08Apr2002
|           W    W    AA    RRRRR   N    N  II  N    N   GGGG   !!!           |
|           W    W   A  A   R    R  NN   N  II  NN   N  G    G  !!!           |
|           W    W  A    A  R    R  N N  N  II  N N  N  G       !!!           |
|           W WW W  AAAAAA  RRRRR   N  N N  II  N  N N  G  GGG   !            |
|           WW  WW  A    A  R   R   N   NN  II  N   NN  G    G                |
|           W    W  A    A  R    R  N    N  II  N    N   GGGG   !!!           |
|     For optimal performance we recommend to set                             |
|       NCORE = 2 up to number-of-cores-per-socket                            |
|     This setting can greatly improve the performance of VASP for DFT.       |
|     The default, NCORE=1 might be grossly inefficient on modern             |
|     multi-core architectures or massively parallel machines. Do your        |
|     Unfortunately you need to use the default for GW and RPA                |
|     calculations (for HF NCORE is supported but not extensively tested      |
|     yet).                                                                   |

 POTCAR:    PAW_PBE Ag 02Apr2005
   VRHFIN =Ag : s1 d10

   TITEL  = PAW_PBE Ag 02Apr2005
   POMASS =  107.868; ZVAL   =   11.000    mass and valenz
   ENMAX  =  249.844; ENMIN  =  187.383 eV

 POTCAR:    PAW_PBE Ti 08Apr2002
   VRHFIN =Ti: d3 s1

[...]

 POTCAR:    PAW_PBE O 08Apr2002
   VRHFIN =O: s2p4

   TITEL  = PAW_PBE O 08Apr2002
   POMASS =   16.000; ZVAL   =    6.000    mass and valenz
   ENMAX  =  400.000; ENMIN  =  300.000 eV

 Optimization of the real space projectors (new method)

 maximal supplied QI-value         = 15.12
 optimisation between [QCUT,QGAM] = [ 11.34, 22.83] = [ 36.00,145.93] Ry
 Optimized for a Real-space Cutoff    1.43 Angstroem

   l    n(q)    QCUT    max X(q) W(low)/X(q) W(high)/X(q)  e(spline)
   2      9    11.338    53.897    0.16E-03    0.20E-03    0.28E-06
   2      9    11.338    52.416    0.16E-03    0.20E-03    0.29E-06
   0     10    11.338   122.045    0.31E-04    0.76E-04    0.15E-06
   0     10    11.338    73.629    0.30E-04    0.72E-04    0.15E-06
   1      9    11.338    15.255    0.20E-03    0.19E-04    0.17E-06
   1      9    11.338     9.562    0.16E-03    0.15E-04    0.14E-06
 Optimization of the real space projectors (new method)

[...]

   l    n(q)    QCUT    max X(q) W(low)/X(q) W(high)/X(q)  e(spline)
   2     10    11.404    49.363    0.27E-03    0.67E-03    0.76E-06
   2     10    11.404    47.669    0.26E-03    0.65E-03    0.73E-06
   0     11    11.404    26.374    0.17E-03    0.20E-03    0.34E-06
   0     11    11.404    11.549    0.14E-03    0.16E-03    0.29E-06
   1     10    11.404     9.492    0.33E-04    0.56E-04    0.16E-06
 Optimization of the real space projectors (new method)

 maximal supplied QI-value         = 24.76
 optimisation between [QCUT,QGAM] = [ 11.39, 22.77] = [ 36.31,145.25] Ry
 Optimized for a Real-space Cutoff    1.00 Angstroem

   l    n(q)    QCUT    max X(q) W(low)/X(q) W(high)/X(q)  e(spline)
   0      7    11.387    20.381    0.39E-03    0.13E-02    0.15E-06
   0      7    11.387    15.268    0.42E-03    0.14E-02    0.17E-06
   1      6    11.387     5.964    0.41E-03    0.11E-02    0.17E-06
   1      6    11.387     5.382    0.39E-03    0.87E-03    0.15E-06
  PAW_PBE Ag 02Apr2005                  :
  PAW_PBE Ti 08Apr2002                  :
  PAW_PBE O 08Apr2002                   :

 POSCAR: Ag-Ti-O
  positions in direct lattice
  velocities in cartesian coordinates
 exchange correlation table for  LEXCH =        8
   RHO(1)=    0.500       N(1)  =     2000
   RHO(2)=  100.500       N(2)  =     4000

 VTST: version 3.2, (02/03/18)

 CHAIN: initializing optimizer

 OPT: Using VASP Conjugate-Gradient optimizer
 CHAIN: Read ICHAIN            0

 POSCAR: Ag-Ti-O
  positions in direct lattice
  velocities in cartesian coordinates

 ion  position               nearest neighbor table
   1  0.000  0.000  0.238-   2 2.93   8 2.93   7 2.93   6 2.93   4 2.93  12 2.93  16 2.93  10 2.93
                             3 2.93
   2  0.333  0.000  0.238-   1 2.93   8 2.93   9 2.93   3 2.93   4 2.93   5 2.93  10 2.93  17 2.93
                            11 2.93
   3  0.667  0.000  0.238-   9 2.93   2 2.93   5 2.93  11 2.93   7 2.93  18 2.93   1 2.93   6 2.93
                            12 2.93
   4  0.000  0.333  0.238-   5 2.93   6 2.93   2 2.93   1 2.93   7 2.93  13 2.93  15 2.93   9 2.93
                            10 2.93
   5  0.333  0.333  0.238-   4 2.93   3 2.93   7 2.93   2 2.93   8 2.93  14 2.93  13 2.93  11 2.93
                             6 2.93
   6  0.667  0.333  0.238-   4 2.93   9 2.93   1 2.93  15 2.93   8 2.93  12 2.93   3 2.93   5 2.93
                            14 2.93
   7  0.000  0.667  0.238-   8 2.93   1 2.93   5 2.93   3 2.93   4 2.93  16 2.93  18 2.93  13 2.93
                             9 2.93
   8  0.333  0.667  0.238-   7 2.93   1 2.93   2 2.93   9 2.93   5 2.93  16 2.93   6 2.93  17 2.93
                            14 2.93
   9  0.667  0.667  0.238-   3 2.93   2 2.93   8 2.93   6 2.93  17 2.93   4 2.93  15 2.93   7 2.93
                            18 2.93
  10  0.111  0.111  0.346-  20 2.91  19 2.92  26 2.92  12 2.93  16 2.93  15 2.93  17 2.93  13 2.93
                            11 2.93   2 2.93   1 2.93   4 2.93
  11  0.444  0.111  0.346-  21 2.91  20 2.91  27 2.92  14 2.93  17 2.93  18 2.93   3 2.93  12 2.93
                            13 2.93  10 2.93   5 2.93   2 2.93
  12  0.778  0.111  0.346-  21 2.91  25 2.92  19 2.92  10 2.93  16 2.93  18 2.93  15 2.93  11 2.93
                             1 2.93  14 2.93   6 2.93   3 2.93
  13  0.111  0.444  0.346-  20 2.91  23 2.91  22 2.92  15 2.93  14 2.93  18 2.93  10 2.93  11 2.93
                            16 2.93   4 2.93   5 2.93   7 2.93
  14  0.444  0.444  0.346-  23 2.91  21 2.91  24 2.92  13 2.93  11 2.93  16 2.93   5 2.93  12 2.93
                            17 2.93   8 2.93  15 2.93   6 2.93
  15  0.778  0.444  0.346-  19 2.92  24 2.92  22 2.92  13 2.93  10 2.93  12 2.93  17 2.93  18 2.93
                             4 2.93   6 2.93   9 2.93  14 2.93
  16  0.111  0.778  0.346-  23 2.91  26 2.92  25 2.92  18 2.93  12 2.93  10 2.93  14 2.93  17 2.93
                            13 2.93   7 2.93   8 2.93   1 2.93
  17  0.444  0.778  0.346-  26 2.92  27 2.92  24 2.92  11 2.93  10 2.93   9 2.93  18 2.93  15 2.93
                            16 2.93   2 2.93  14 2.93   8 2.93
  18  0.778  0.778  0.346-  25 2.92  22 2.92  27 2.92  16 2.93  12 2.93  13 2.93  11 2.93  17 2.93
                            15 2.93   7 2.93   3 2.93   9 2.93
  19  0.889  0.222  0.453-  10 2.92  12 2.92  15 2.92  28 2.92  26 2.93  25 2.93  24 2.93  22 2.93
                            20 2.94  21 2.94  32 2.96  31 2.96
  20  0.223  0.223  0.453-  36 2.82  13 2.91  11 2.91  10 2.91  21 2.92  23 2.92  27 2.93  22 2.93
                            19 2.94  26 2.94  31 2.94  29 2.94
  21  0.555  0.223  0.453-  36 2.82  11 2.91  14 2.91  12 2.91  20 2.92  23 2.92  27 2.93  24 2.93
                            25 2.94  19 2.94  30 2.94  32 2.94
  22  0.889  0.556  0.453-  18 2.92  15 2.92  13 2.92  24 2.93  27 2.93  25 2.93  19 2.93  35 2.93
                            23 2.93  20 2.93  33 2.94  31 2.94
  23  0.223  0.555  0.453-  36 2.82  14 2.91  13 2.91  16 2.91  21 2.92  20 2.92  22 2.93  24 2.93
                            26 2.94  25 2.94  34 2.94  33 2.94
  24  0.556  0.556  0.453-  15 2.92  17 2.92  14 2.92  27 2.93  22 2.93  19 2.93  26 2.93  35 2.93
                            23 2.93  21 2.93  32 2.94  34 2.94
  25  0.889  0.889  0.453-  16 2.92  12 2.92  18 2.92  28 2.92  26 2.93  19 2.93  22 2.93  27 2.93
                            23 2.94  21 2.94  33 2.96  30 2.96
  26  0.222  0.889  0.453-  16 2.92  10 2.92  17 2.92  28 2.92  25 2.93  19 2.93  27 2.93  24 2.93
                            23 2.94  20 2.94  34 2.96  29 2.96
  27  0.556  0.889  0.453-  17 2.92  18 2.92  11 2.92  24 2.93  22 2.93  26 2.93  25 2.93  35 2.93
                            20 2.93  21 2.93  29 2.94  30 2.94
  28  0.000  0.000  0.561-  26 2.92  25 2.92  19 2.92  29 2.95  34 2.95  33 2.95  32 2.95  31 2.95
                            30 2.95
  29  0.334  0.004  0.562-  30 2.89  31 2.90  36 2.90  20 2.94  27 2.94  35 2.95  28 2.95  26 2.96
                            34 3.00
  30  0.662  0.004  0.562-  29 2.89  32 2.90  36 2.90  21 2.94  27 2.94  35 2.95  28 2.95  25 2.96
                            33 3.00
  31  0.004  0.334  0.562-  33 2.89  29 2.90  36 2.90  20 2.94  22 2.94  35 2.95  28 2.95  19 2.96
                            32 3.00
  32  0.662  0.334  0.562-  34 2.89  30 2.90  36 2.90  21 2.94  24 2.94  35 2.95  28 2.95  19 2.96
                            31 3.00
  33  0.004  0.662  0.562-  31 2.89  34 2.90  36 2.90  23 2.94  22 2.94  35 2.95  28 2.95  25 2.96
                            30 3.00
  34  0.334  0.662  0.562-  32 2.89  33 2.90  36 2.90  23 2.94  24 2.94  35 2.95  28 2.95  26 2.96
                            29 3.00
  35  0.667  0.667  0.562-  24 2.93  27 2.93  22 2.93  30 2.95  32 2.95  29 2.95  34 2.95  31 2.95
                            33 2.95
  36  0.333  0.333  0.555-  37 1.70  21 2.82  20 2.82  23 2.82  31 2.90  33 2.90  30 2.90  29 2.90
                            34 2.90  32 2.90
  37  0.333  0.333  0.631-  36 1.70

  LATTYP: Found a hexagonal cell.
 ALAT       =     8.7913665772
 C/A-ratio  =     2.5227160501

  Lattice vectors:

 A1 = (  -4.3956832886,  -7.6135467898,   0.0000000000)
 A2 = (   8.7913665771,   0.0000000000,   0.0000000000)
 A3 = (   0.0000000000,   0.0000000000,  22.1781215668)

Analysis of symmetry for initial positions (statically):
 Subroutine PRICEL returns:
 Original cell was already a primitive cell.

 Routine SETGRP: Setting up the symmetry group for a
 hexagonal supercell.

 Subroutine GETGRP returns: Found  6 space group operations
 (whereof  6 operations were pure point group operations)
 out of a pool of 24 trial point group operations.

The static configuration has the point symmetry C_3v.

Analysis of symmetry for dynamics (positions and initial velocities):
 Subroutine PRICEL returns:
 Original cell was already a primitive cell.

[...]

The dynamic configuration has the point symmetry C_3v.

Analysis of constrained symmetry for selective dynamics:
 Subroutine PRICEL returns:
 Original cell was already a primitive cell.

 Routine SETGRP: Setting up the symmetry group for a
 hexagonal supercell.

 Subroutine GETGRP returns: Found  6 space group operations
 (whereof  6 operations were pure point group operations)
 out of a pool of 24 trial point group operations.

The constrained configuration has the point symmetry C_3v.

[...]
     24      -4.7814      2.00000
     25      -4.7571      2.00000
     26      -4.7404      2.00000
     27      -4.7231      2.00000
     28      -4.7044      2.00000
     29      -4.7026      2.00000
     30      -4.6856      2.00000
     31      -4.6763      2.00000
     32      -4.6632      2.00000
     33      -4.6359      2.00000
     34      -4.6091      2.00000
     35      -4.5825      2.00000
     36      -4.5573      2.00000
     37      -4.5463      2.00000
     38      -4.5117      2.00000
     39      -4.4810      2.00000
     40      -4.4749      2.00000
     41      -4.4661      2.00000
     42      -4.4602      2.00000
     43      -4.4420      2.00000
     44      -4.3571      2.00000
     45      -4.3328      2.00000
     46      -4.3178      2.00000
     47      -4.3119      2.00000
     48      -4.3045      2.00000
     49      -4.2965      2.00000
     50      -4.2961      2.00000
     51      -4.2839      2.00000
     52      -4.2781      2.00000
     53      -4.2636      2.00000
     54      -4.2064      2.00000
     55      -4.1953      2.00000
     56      -4.1886      2.00000
     57      -4.1730      2.00000
     58      -4.1637      2.00000
     59      -4.1449      2.00000
     60      -4.1208      2.00000
[...]
    238       6.2361      0.00000
    239       6.2614      0.00000
    240       6.4177      0.00000
    241       7.0337      0.00000
    242       7.1047      0.00000
    243       7.1684      0.00000
    244       7.2891      0.00000
    245       7.3129      0.00000
    246       7.3283      0.00000
    247       7.3815      0.00000
    248       7.4365      0.00000
    249       7.4979      0.00000
    250       7.5932      0.00000
    251       7.6027      0.00000
    252       7.7252      0.00000

 soft charge-density along one line, spin component           1
         0         1         2         3         4         5         6         7         8         9
 total charge-density along one line

------------------------ aborting loop because EDIFF is reached ----------------------------------------

 total charge

# of ion       s       p       d       tot
    1        0.418   0.203   9.177   9.798
    2        0.416   0.204   9.176   9.795
    3        0.416   0.204   9.176   9.795
    4        0.416   0.204   9.176   9.795
    5        0.416   0.203   9.176   9.795
    6        0.416   0.204   9.176   9.795
    7        0.416   0.204   9.176   9.795
    8        0.416   0.204   9.176   9.795
    9        0.414   0.203   9.177   9.794
   10        0.406   0.270   9.163   9.840
   11        0.405   0.270   9.166   9.841
   12        0.406   0.270   9.163   9.840
   13        0.405   0.270   9.166   9.841
   14        0.405   0.270   9.166   9.841
   15        0.402   0.271   9.163   9.836
   16        0.406   0.270   9.163   9.840
   17        0.402   0.271   9.163   9.836
   18        0.402   0.271   9.163   9.836
   19        0.404   0.266   9.168   9.837
   20        0.428   0.292   9.145   9.865
   21        0.428   0.292   9.145   9.865
   22        0.397   0.276   9.163   9.836
   23        0.428   0.292   9.145   9.865
   24        0.397   0.276   9.163   9.836
   25        0.404   0.266   9.168   9.837
   26        0.404   0.266   9.168   9.837
   27        0.397   0.276   9.163   9.836
   28        0.414   0.202   9.174   9.790
   29        0.432   0.207   9.167   9.805
   30        0.432   0.207   9.167   9.805
   31        0.432   0.207   9.167   9.805
   32        0.432   0.207   9.167   9.805
   33        0.432   0.207   9.167   9.805
   34        0.432   0.207   9.167   9.805
   35        0.415   0.203   9.173   9.791
   36        0.531   0.697   2.686   3.915
   37        1.606   3.280   0.000   4.886
tot         16.621  12.384 323.522 352.527

  FORCE on cell =-STRESS in cart. coord.  units (eV):
  Direction    XX          YY          ZZ          XY          YZ          ZX
  Alpha Z   749.74915   749.74915   749.74915
  Ewald  118494.79246118494.79238************    -0.00000    -0.00001     0.00003
  Hartree128622.36143128622.36139************    -0.00000    -0.00000     0.00001
  E(xc)   -2073.55506 -2073.55508 -2081.44957     0.00001    -0.00000    -0.00000
  Local  ************************258218.37504     0.00049    -0.00004    -0.00014
  n-local  -347.49991  -331.52933  -345.93693     9.49144    -0.43391     0.43501
  augment  3230.10983  3230.11002  3243.42448    -0.00016    -0.00001    -0.00002
  Kinetic  4918.59845  4919.77088  4945.35746     2.93752     1.06960    -0.53554
  Fock        0.00000     0.00000     0.00000     0.00000     0.00000     0.00000
  Total      -7.25615    -7.25615    -0.85027    -0.00000     0.00000    -0.00000
  in kB      -7.83157    -7.83157    -0.91769    -0.00000     0.00000    -0.00000

 VOLUME and BASIS-vectors are now :
  energy-cutoff  :      500.00
  volume of cell :     1484.46
      direct lattice vectors                 reciprocal lattice vectors
     8.791366577  0.000000000  0.000000000     0.113747958 -0.065672414  0.000000000
     4.395683289  7.613546790  0.000000000     0.000000000  0.131344829  0.000000000
     0.000000000  0.000000000 22.178121567     0.000000000  0.000000000  0.045089481

  length of vectors
     8.791366577  8.791366577 22.178121567     0.131344829  0.131344829  0.045089481

 FORCES acting on ions
    electron-ion (+dipol)            ewald-force                    non-local-force                 convergence-correction
   0.461E-04 -.281E-04 0.249E+04   -.953E-04 0.593E-04 -.249E+04   0.488E-17 0.195E-17 -.174E+01   -.835E-04 -.155E-03 0.180E+00
   -.403E+00 -.189E+00 0.249E+04   0.199E+00 0.173E+00 -.248E+04   0.422E-01 0.535E-01 -.161E+01   0.151E+00 -.361E-01 0.155E+00
   0.403E+00 -.189E+00 0.249E+04   -.199E+00 0.173E+00 -.248E+04   -.422E-01 0.535E-01 -.161E+01   -.152E+00 -.342E-01 0.156E+00
   -.366E+00 -.254E+00 0.249E+04   0.249E+00 0.859E-01 -.248E+04   0.675E-01 0.976E-02 -.161E+01   0.445E-01 0.149E+00 0.155E+00
   -.579E-05 -.187E-04 0.249E+04   0.981E-04 -.200E-05 -.248E+04   0.106E-17 0.912E-18 -.158E+01   0.618E-02 0.378E-02 0.135E+00
   0.366E+00 -.254E+00 0.249E+04   -.250E+00 0.858E-01 -.248E+04   -.675E-01 0.976E-02 -.161E+01   -.458E-01 0.150E+00 0.156E+00
   0.375E-01 0.444E+00 0.249E+04   0.503E-01 -.259E+00 -.248E+04   0.253E-01 -.633E-01 -.161E+01   -.105E+00 -.114E+00 0.156E+00
   -.375E-01 0.444E+00 0.249E+04   -.504E-01 -.259E+00 -.248E+04   -.253E-01 -.633E-01 -.161E+01   0.107E+00 -.115E+00 0.156E+00
   0.363E-04 -.131E-04 0.249E+04   0.791E-04 -.642E-04 -.249E+04   0.304E-17 0.465E-18 -.175E+01   -.663E-02 -.341E-02 0.141E+00
   -.155E+01 -.896E+00 0.821E+03   0.161E+01 0.930E+00 -.821E+03   -.189E+00 -.109E+00 -.568E+00   0.118E+00 0.683E-01 -.938E-01
   -.284E-04 -.158E+01 0.817E+03   0.407E-04 0.140E+01 -.817E+03   0.927E-12 0.141E+00 -.485E+00   0.612E-02 0.536E-02 -.141E+00
   0.155E+01 -.896E+00 0.821E+03   -.161E+01 0.930E+00 -.821E+03   0.189E+00 -.109E+00 -.568E+00   -.120E+00 0.689E-01 -.946E-01
   -.137E+01 0.790E+00 0.817E+03   0.122E+01 -.702E+00 -.817E+03   0.122E+00 -.705E-01 -.485E+00   0.759E-02 0.264E-02 -.141E+00
   0.137E+01 0.790E+00 0.817E+03   -.122E+01 -.702E+00 -.817E+03   -.122E+00 -.705E-01 -.485E+00   0.261E-02 0.175E-02 -.142E+00
   0.152E-04 -.198E+00 0.821E+03   -.107E-03 0.717E-01 -.820E+03   0.307E-12 0.467E-01 -.625E+00   -.132E-02 0.755E-01 -.197E+00
   -.805E-05 0.179E+01 0.821E+03   0.207E-04 -.186E+01 -.821E+03   0.143E-11 0.218E+00 -.568E+00   -.141E-03 -.138E+00 -.946E-01
   -.172E+00 0.990E-01 0.821E+03   0.620E-01 -.359E-01 -.820E+03   0.404E-01 -.233E-01 -.625E+00   0.647E-01 -.389E-01 -.197E+00
   0.172E+00 0.990E-01 0.821E+03   -.621E-01 -.358E-01 -.820E+03   -.404E-01 -.233E-01 -.625E+00   -.647E-01 -.374E-01 -.196E+00
   0.384E-04 -.537E+01 -.854E+03   -.125E-03 0.520E+01 0.853E+03   0.939E-12 0.143E+00 0.955E+00   0.564E-02 0.154E-01 -.127E+00
   -.293E+02 -.169E+02 -.885E+03   0.297E+02 0.172E+02 0.885E+03   -.651E+00 -.376E+00 -.992E-01   0.856E-01 0.494E-01 -.718E-01
   0.293E+02 -.169E+02 -.885E+03   -.297E+02 0.172E+02 0.885E+03   0.651E+00 -.376E+00 -.992E-01   -.873E-01 0.489E-01 -.725E-01
   -.125E+02 0.719E+01 -.857E+03   0.122E+02 -.705E+01 0.856E+03   0.219E+00 -.127E+00 0.598E+00   0.599E-01 -.289E-01 -.206E+00
   -.512E-04 0.339E+02 -.885E+03   0.361E-04 -.343E+02 0.885E+03   0.494E-11 0.751E+00 -.992E-01   -.975E-03 -.994E-01 -.725E-01
   0.125E+02 0.719E+01 -.857E+03   -.122E+02 -.705E+01 0.856E+03   -.219E+00 -.127E+00 0.598E+00   -.492E-01 -.283E-01 -.206E+00
   0.465E+01 0.269E+01 -.854E+03   -.451E+01 -.260E+01 0.853E+03   -.124E+00 -.715E-01 0.955E+00   -.656E-02 -.394E-02 -.127E+00
   -.465E+01 0.269E+01 -.854E+03   0.451E+01 -.260E+01 0.853E+03   0.124E+00 -.715E-01 0.955E+00   0.158E-01 -.294E-02 -.127E+00
   0.196E-04 -.144E+02 -.857E+03   0.110E-03 0.141E+02 0.856E+03   0.166E-11 0.253E+00 0.598E+00   0.424E-02 0.664E-01 -.206E+00
   0.539E-04 -.364E-04 -.246E+04   -.115E-03 0.771E-04 0.246E+04   0.148E-17 0.188E-17 0.163E+01   0.215E-03 -.107E-04 -.149E+00
   -.846E+01 -.209E+02 -.245E+04   0.879E+01 0.213E+02 0.245E+04   -.508E+00 -.690E+00 0.218E+01   0.887E-01 0.192E+00 -.106E+00
   0.846E+01 -.209E+02 -.245E+04   -.879E+01 0.213E+02 0.245E+04   0.508E+00 -.690E+00 0.218E+01   -.896E-01 0.193E+00 -.106E+00
   -.223E+02 0.313E+01 -.245E+04   0.228E+02 -.302E+01 0.245E+04   -.852E+00 -.946E-01 0.218E+01   0.210E+00 -.188E-01 -.106E+00
   0.223E+02 0.313E+01 -.245E+04   -.228E+02 -.302E+01 0.245E+04   0.852E+00 -.946E-01 0.218E+01   -.211E+00 -.179E-01 -.105E+00
   -.139E+02 0.178E+02 -.245E+04   0.140E+02 -.182E+02 0.245E+04   -.344E+00 0.785E+00 0.218E+01   0.122E+00 -.173E+00 -.106E+00
   0.139E+02 0.178E+02 -.245E+04   -.140E+02 -.182E+02 0.245E+04   0.344E+00 0.785E+00 0.218E+01   -.121E+00 -.173E+00 -.105E+00
   0.252E-04 -.128E-04 -.247E+04   0.104E-03 -.655E-04 0.247E+04   0.125E-16 -.101E-17 0.171E+01   -.637E-02 -.325E-02 -.194E-02
   -.172E-05 0.512E-05 -.769E+03   0.380E-04 0.429E-05 0.769E+03   -.287E-18 -.801E-18 0.107E+01   0.368E-03 0.227E-03 -.234E-01
   0.178E-03 -.957E-04 -.154E+04   0.280E-04 0.405E-06 0.156E+04   0.224E-18 0.190E-18 -.239E+02   0.328E-02 0.201E-02 -.325E+00
   0.546E-03 -.767E-03 0.242E+02   0.242E-13 0.122E-13 0.455E-11   -.431E-16 0.109E-15 -.218E+02   0.375E-01 0.249E-01 -.226E+01

 POSITION                                       TOTAL-FORCE (eV/Angst)
      0.00000      0.00000      5.28219         0.000000     -0.000000     -0.015696
      2.93046      0.00000      5.28219        -0.010127      0.002118      0.023850
      5.86091      0.00000      5.28219         0.010127      0.002118      0.023850
      1.46523      2.53785      5.28219        -0.003229     -0.009830      0.023850
      4.39568      2.53785      5.28219         0.000000     -0.000000      0.005895
      7.32614      2.53785      5.28219         0.003229     -0.009830      0.023850
      2.93046      5.07570      5.28219         0.006898      0.007711      0.023850
      5.86091      5.07570      5.28219        -0.006898      0.007711      0.023850
      8.79137      5.07570      5.28219         0.000000     -0.000000      0.011322
      1.46523      0.84595      7.67490        -0.010935     -0.006313     -0.043093
      4.39568      0.84595      7.67490        -0.000000     -0.032424     -0.048651
      7.32614      0.84595      7.67490         0.010935     -0.006313     -0.043093
      2.93046      3.38380      7.67490        -0.028080      0.016212     -0.048651
      5.86091      3.38380      7.67490         0.028080      0.016212     -0.048651
      8.79137      3.38380      7.67490        -0.000000     -0.004454      0.023340
      4.39568      5.92165      7.67490         0.000000      0.012627     -0.043093
      7.32614      5.92165      7.67490        -0.003857      0.002227      0.023340
     10.25659      5.92165      7.67490         0.003857      0.002227      0.023340
      8.79137      1.69074     10.05145        -0.000000     -0.012823      0.027010
      2.93556      1.69484     10.04095        -0.171797     -0.099187     -0.116632
      5.85581      1.69484     10.04095         0.171797     -0.099187     -0.116632
     10.25435      4.23104     10.05745         0.023011     -0.013285      0.029797
      4.39568      4.22386     10.04095         0.000000      0.198375     -0.116632
      7.32838      4.23104     10.05745        -0.023011     -0.013285      0.029797
     11.72283      6.76818     10.05145         0.011105      0.006411      0.027010
      5.85990      6.76818     10.05145        -0.011105      0.006411      0.027010
      8.79137      6.76501     10.05745         0.000000      0.026570      0.029797
      0.00000      0.00000     12.43413         0.000000     -0.000000     -0.018165
      2.95009      0.02948     12.45917        -0.093350     -0.156697     -0.111514
      5.84128      0.02948     12.45917         0.093350     -0.156697     -0.111514
      1.50057      2.54011     12.45917        -0.182378     -0.002495     -0.111514
      7.29079      2.54011     12.45917         0.182378     -0.002495     -0.111514
      2.94617      5.04396     12.45917        -0.089029      0.159192     -0.111514
      5.84520      5.04396     12.45917         0.089029      0.159192     -0.111514
      8.79137      5.07570     12.45428         0.000000     -0.000000     -0.027519
      4.39568      2.53785     12.30230         0.000000     -0.000000      0.949423
      4.39568      2.53785     13.99926         0.000000     -0.000000      0.005410
    total drift:                                0.038001      0.024160      0.143874

  FREE ENERGIE OF THE ION-ELECTRON SYSTEM (eV)
  free  energy   TOTEN  =      -104.09024625 eV

  energy  without entropy=     -104.09024625  energy(sigma->0) =     -104.09024625

 stress matrix after NEB project (eV)
     -7.25615     -0.00000     -0.00000
     -0.00000     -7.25615      0.00000
     -0.00000      0.00000     -0.85027
  FORCES: max atom, RMS     0.005410    0.000889
  FORCE total and by dimension    0.005410    0.005410
  Stress total and by dimension   10.296910    7.256149
|           W    W    AA    RRRRR   N    N  II  N    N   GGGG   !!!           |
|           W    W   A  A   R    R  NN   N  II  NN   N  G    G  !!!           |
|           W    W  A    A  R    R  N N  N  II  N N  N  G       !!!           |
|           W WW W  AAAAAA  RRRRR   N  N N  II  N  N N  G  GGG   !            |
|           WW  WW  A    A  R   R   N   NN  II  N   NN  G    G                |
|           W    W  A    A  R    R  N    N  II  N    N   GGGG   !!!           |
|     Tetrahedron method does not include variations of the Fermi             |
|     occupations, so forces and stress will be inaccurate. We suggest        |
|     using a different smearing scheme ISMEAR = 1 or 2 for metals in         |
|     relaxations.                                                            |

 total charge

# of ion       s       p       d       tot
    1        0.418   0.203   9.177   9.798
    2        0.416   0.204   9.176   9.795
    3        0.416   0.204   9.176   9.795
    4        0.416   0.204   9.176   9.795
    5        0.416   0.203   9.176   9.795
    6        0.416   0.204   9.176   9.795
    7        0.416   0.204   9.176   9.795
    8        0.416   0.204   9.176   9.795
    9        0.414   0.203   9.177   9.794
   10        0.406   0.270   9.163   9.840
   11        0.405   0.270   9.166   9.841
   12        0.406   0.270   9.163   9.840
   13        0.405   0.270   9.166   9.841
   14        0.405   0.270   9.166   9.841
   15        0.402   0.271   9.163   9.836
   16        0.406   0.270   9.163   9.840
   17        0.402   0.271   9.163   9.836
   18        0.402   0.271   9.163   9.836
   19        0.404   0.266   9.168   9.837
   20        0.428   0.292   9.145   9.865
   21        0.428   0.292   9.145   9.865
   22        0.397   0.276   9.163   9.836
   23        0.428   0.292   9.145   9.865
   24        0.397   0.276   9.163   9.836
   25        0.404   0.266   9.168   9.837
   26        0.404   0.266   9.168   9.837
   27        0.397   0.276   9.163   9.836
   28        0.414   0.202   9.174   9.790
   29        0.432   0.207   9.167   9.805
   30        0.432   0.207   9.167   9.805
   31        0.432   0.207   9.167   9.805
   32        0.432   0.207   9.167   9.805
   33        0.432   0.207   9.167   9.805
   34        0.432   0.207   9.167   9.805
   35        0.415   0.203   9.173   9.791
   36        0.531   0.697   2.686   3.915
   37        1.606   3.280   0.000   4.886
tot         16.621  12.384 323.522 352.527

 BZINTS: Fermi energy:    0.726057;  395.000000 electrons
         Band energy:-0.136770E+04;  BLOECHL correction:   -0.057918