 vasp.6.2.0 18Jan21 (build Jun 12 2021 23:27:24) complex

 executed on             LinuxIFC date 2022.05.28  01:10:58

 INCAR:
   ISMEAR = -5
   SIGMA = 0.1
   ISPIN = 1
   EDIFF = 1.d-5
   EDIFFG = -0.01
   NSW = 0
   NELM = 150
   ENCUT = 500
   ISIF = 2
   IBRION = 2
   LREAL = Auto
   ALGO = Fast
   ICHARG = 11
   LORBIT = 10
   LCHARG = .F.
   LWAVE = .F.

 POTCAR:    PAW_PBE Au 04Oct2007
 POTCAR:    PAW_PBE Re 17Jan2003
 POTCAR:    PAW_PBE C 08Apr2002
 POTCAR:    PAW_PBE O 08Apr2002
|           W    W    AA    RRRRR   N    N  II  N    N   GGGG   !!!           |
|           W    W   A  A   R    R  NN   N  II  NN   N  G    G  !!!           |
|           W    W  A    A  R    R  N N  N  II  N N  N  G       !!!           |
|           W WW W  AAAAAA  RRRRR   N  N N  II  N  N N  G  GGG   !            |
|           WW  WW  A    A  R   R   N   NN  II  N   NN  G    G                |
|           W    W  A    A  R    R  N    N  II  N    N   GGGG   !!!           |
|     For optimal performance we recommend to set                             |
|       NCORE = 2 up to number-of-cores-per-socket                            |
|     This setting can greatly improve the performance of VASP for DFT.       |
|     The default, NCORE=1 might be grossly inefficient on modern             |
|     multi-core architectures or massively parallel machines. Do your        |
|     Unfortunately you need to use the default for GW and RPA                |
|     calculations (for HF NCORE is supported but not extensively tested      |
|     yet).                                                                   |

 POTCAR:    PAW_PBE Au 04Oct2007
   VRHFIN =Au: s1d10

   TITEL  = PAW_PBE Au 04Oct2007
   POMASS =  196.966; ZVAL   =   11.000    mass and valenz
   ENMAX  =  229.943; ENMIN  =  172.457 eV

 POTCAR:    PAW_PBE Re 17Jan2003
   VRHFIN =Re: 5p6s5d

   TITEL  = PAW_PBE Re 17Jan2003
   POMASS =  186.207; ZVAL   =    7.000    mass and valenz
   ENMAX  =  226.216; ENMIN  =  169.662 eV

 POTCAR:    PAW_PBE C 08Apr2002
   VRHFIN =C: s2p2

   TITEL  = PAW_PBE C 08Apr2002
   POMASS =   12.011; ZVAL   =    4.000    mass and valenz
   ENMAX  =  400.000; ENMIN  =  300.000 eV

 POTCAR:    PAW_PBE O 08Apr2002
   VRHFIN =O: s2p4

   TITEL  = PAW_PBE O 08Apr2002
   POMASS =   16.000; ZVAL   =    6.000    mass and valenz
   ENMAX  =  400.000; ENMIN  =  300.000 eV

 Optimization of the real space projectors (new method)

 maximal supplied QI-value         = 15.12
 optimisation between [QCUT,QGAM] = [ 11.34, 22.83] = [ 36.00,145.93] Ry
 Optimized for a Real-space Cutoff    1.39 Angstroem

   l    n(q)    QCUT    max X(q) W(low)/X(q) W(high)/X(q)  e(spline)
   2      9    11.338    60.898    0.39E-03    0.42E-03    0.21E-06
   2      9    11.338    58.894    0.40E-03    0.42E-03    0.22E-06
   0      9    11.338   109.617    0.13E-03    0.20E-04    0.13E-06
   0      9    11.338    75.026    0.13E-03    0.20E-04    0.13E-06
   1      9    11.338    16.344    0.33E-04    0.24E-03    0.18E-06
   1      9    11.338    10.160    0.26E-04    0.19E-03    0.15E-06
 Optimization of the real space projectors (new method)

[...]

   l    n(q)    QCUT    max X(q) W(low)/X(q) W(high)/X(q)  e(spline)
   0      7    11.310   115.676    0.43E-03    0.13E-02    0.19E-06
   0      7    11.310    87.132    0.43E-03    0.13E-02    0.18E-06
   1      6    11.310     4.429    0.42E-03    0.74E-03    0.11E-06
   1      6    11.310     2.733    0.34E-03    0.55E-03    0.92E-07
 Optimization of the real space projectors (new method)

 maximal supplied QI-value         = 24.76
 optimisation between [QCUT,QGAM] = [ 11.39, 22.77] = [ 36.31,145.25] Ry
 Optimized for a Real-space Cutoff    1.00 Angstroem

   l    n(q)    QCUT    max X(q) W(low)/X(q) W(high)/X(q)  e(spline)
   0      7    11.387    20.381    0.39E-03    0.13E-02    0.15E-06
   0      7    11.387    15.268    0.42E-03    0.14E-02    0.17E-06
   1      6    11.387     5.964    0.41E-03    0.11E-02    0.17E-06
   1      6    11.387     5.382    0.39E-03    0.87E-03    0.15E-06
  PAW_PBE Au 04Oct2007                  :
  PAW_PBE Re 17Jan2003                  :
  PAW_PBE C 08Apr2002                   :
  PAW_PBE O 08Apr2002                   :

 POSCAR: Au-Re-CO2
  positions in direct lattice
  velocities in cartesian coordinates
 exchange correlation table for  LEXCH =        8
   RHO(1)=    0.500       N(1)  =     2000
   RHO(2)=  100.500       N(2)  =     4000

 VTST: version 3.2, (02/03/18)

 CHAIN: initializing optimizer

 OPT: Using VASP Conjugate-Gradient optimizer
 CHAIN: Read ICHAIN            0

 POSCAR: Au-Re-CO2
  positions in direct lattice
  velocities in cartesian coordinates

 ion  position               nearest neighbor table
   1  0.000  0.000  0.217-  16 2.94  12 2.94   6 2.94   8 2.94   7 2.94   3 2.94  10 2.94   4 2.94
                             2 2.94
   2  0.333  0.000  0.217-   9 2.94  11 2.94  17 2.94  10 2.94   8 2.94   4 2.94   5 2.94   1 2.94
                             3 2.94
   3  0.667  0.000  0.217-   7 2.94  18 2.94  12 2.94   1 2.94  11 2.94   5 2.94   6 2.94   9 2.94
                             2 2.94
   4  0.000  0.333  0.217-  10 2.94   6 2.94   5 2.94  13 2.94   2 2.94  15 2.94   9 2.94   1 2.94
                             7 2.94
   5  0.333  0.333  0.217-  13 2.94   7 2.94  11 2.94   4 2.94   2 2.94  14 2.94   3 2.94   8 2.94
                             6 2.94
   6  0.667  0.333  0.217-  15 2.94  14 2.94   1 2.94  12 2.94   4 2.94   9 2.94   8 2.94   3 2.94
                             5 2.94
   7  0.000  0.667  0.217-  18 2.94   3 2.94  16 2.94   5 2.94   1 2.94  13 2.94   8 2.94   4 2.94
                             9 2.94
   8  0.333  0.667  0.217-   9 2.94  17 2.94   1 2.94   2 2.94  14 2.94  16 2.94   6 2.94   7 2.94
                             5 2.94
   9  0.667  0.667  0.217-   2 2.94   8 2.94  17 2.94   6 2.94  15 2.94   4 2.94   3 2.94  18 2.94
                             7 2.94
  10  0.111  0.111  0.315-  20 2.90  11 2.94  17 2.94   2 2.94   4 2.94   1 2.94  12 2.94  16 2.94
                            13 2.94  15 2.94  26 2.96  19 2.96
  11  0.444  0.111  0.315-  20 2.91  21 2.91  13 2.94   2 2.94  10 2.94  17 2.94   5 2.94   3 2.94
                            18 2.94  14 2.94  12 2.94  27 2.94
  12  0.778  0.111  0.315-  21 2.90  16 2.94  18 2.94   1 2.94  14 2.94  15 2.94   3 2.94   6 2.94
                            10 2.94  11 2.94  25 2.96  19 2.96
  13  0.111  0.444  0.315-  23 2.91  20 2.91   5 2.94  18 2.94  11 2.94   7 2.94   4 2.94  16 2.94
                            10 2.94  14 2.94  15 2.94  22 2.94
  14  0.444  0.444  0.315-  21 2.91  23 2.91  15 2.94   6 2.94  12 2.94   8 2.94  17 2.94   5 2.94
                            16 2.94  13 2.94  11 2.94  24 2.94
  15  0.778  0.444  0.315-  24 2.92  22 2.92  14 2.94   6 2.94  17 2.94  12 2.94   9 2.94   4 2.94
                            10 2.94  13 2.94  18 2.94  19 2.95
  16  0.111  0.778  0.315-  23 2.90  18 2.94  12 2.94   7 2.94   1 2.94   8 2.94  13 2.94  10 2.94
                            14 2.94  17 2.94  25 2.96  26 2.96
  17  0.444  0.778  0.315-  27 2.92  24 2.92   9 2.94  15 2.94   2 2.94  10 2.94  11 2.94   8 2.94
                            14 2.94  16 2.94  18 2.94  26 2.95
  18  0.778  0.778  0.315-  22 2.92  27 2.92  16 2.94   7 2.94  13 2.94  12 2.94   3 2.94  11 2.94
                             9 2.94  15 2.94  17 2.94  25 2.95
  19  0.888  0.224  0.414-  24 2.93  22 2.93  21 2.93  20 2.93  28 2.94  15 2.95  26 2.96  25 2.96
                            10 2.96  12 2.96  32 3.02  31 3.02
  20  0.222  0.222  0.412-  36 2.75  10 2.90  11 2.91  13 2.91  26 2.93  19 2.93  23 2.95  21 2.95
                            27 2.96  22 2.96  29 2.97  31 2.97
  21  0.556  0.222  0.412-  36 2.75  12 2.90  14 2.91  11 2.91  25 2.93  19 2.93  20 2.95  23 2.95
                            27 2.96  24 2.96  30 2.97  32 2.97
  22  0.886  0.557  0.413-  24 2.90  27 2.90  18 2.92  15 2.92  25 2.93  19 2.93  13 2.94  35 2.95
                            23 2.96  20 2.96  33 3.00  31 3.00
  23  0.222  0.556  0.412-  36 2.75  16 2.90  13 2.91  14 2.91  25 2.93  26 2.93  20 2.95  21 2.95
                            22 2.96  24 2.96  33 2.97  34 2.97
  24  0.557  0.557  0.413-  27 2.90  22 2.90  15 2.92  17 2.92  26 2.93  19 2.93  14 2.94  35 2.95
                            21 2.96  23 2.96  32 3.00  34 3.00
  25  0.888  0.888  0.414-  22 2.93  27 2.93  23 2.93  21 2.93  28 2.94  18 2.95  19 2.96  26 2.96
                            16 2.96  12 2.96  33 3.02  30 3.02
  26  0.224  0.888  0.414-  27 2.93  24 2.93  20 2.93  23 2.93  28 2.94  17 2.95  19 2.96  25 2.96
                            10 2.96  16 2.96  29 3.02  34 3.02
  27  0.557  0.886  0.413-  24 2.90  22 2.90  17 2.92  18 2.92  26 2.93  25 2.93  11 2.94  35 2.95
                            20 2.96  21 2.96  29 3.00  30 3.00
  28  0.000  0.000  0.513-  25 2.94  19 2.94  26 2.94  34 2.99  32 2.99  33 2.99  30 2.99  31 2.99
                            29 2.99
  29  0.333  0.011  0.514-  30 2.84  31 2.84  36 2.86  20 2.97  35 2.99  28 2.99  27 3.00  26 3.02
                            34 3.14
  30  0.655  0.011  0.514-  29 2.84  32 2.84  36 2.86  21 2.97  35 2.99  28 2.99  27 3.00  25 3.02
                            33 3.14
  31  0.011  0.333  0.514-  33 2.84  29 2.84  36 2.86  20 2.97  35 2.99  28 2.99  22 3.00  19 3.02
                            32 3.14
  32  0.655  0.333  0.514-  34 2.84  30 2.84  36 2.86  21 2.97  35 2.99  28 2.99  24 3.00  19 3.02
                            31 3.14
  33  0.011  0.655  0.514-  31 2.84  34 2.84  36 2.86  23 2.97  35 2.99  28 2.99  22 3.00  25 3.02
                            30 3.14
  34  0.333  0.655  0.514-  32 2.84  33 2.84  36 2.86  23 2.97  35 2.99  28 2.99  24 3.00  26 3.02
                            29 3.14
  35  0.667  0.667  0.513-  24 2.95  27 2.95  22 2.95  29 2.99  34 2.99  32 2.99  31 2.99  30 2.99
                            33 2.99
  36  0.333  0.333  0.501-  20 2.75  23 2.75  21 2.75  33 2.86  31 2.86  29 2.86  30 2.86  34 2.86
                            32 2.86
  37  0.419  0.327  0.655-  38 1.18  39 1.18
  38  0.314  0.327  0.625-  37 1.18
  39  0.519  0.333  0.686-  37 1.18

  LATTYP: Found a hexagonal cell.
 ALAT       =     8.8135128021
 C/A-ratio  =     2.7649717827

  Lattice vectors:

 A1 = (  -4.4067569092,  -7.6327256898,   0.0000000000)
 A2 = (   8.8135128021,   0.0000000000,   0.0000000000)
 A3 = (   0.0000000000,   0.0000000000,  24.3691142040)

Analysis of symmetry for initial positions (statically):
 Subroutine PRICEL returns:
 Original cell was already a primitive cell.

 Routine SETGRP: Setting up the symmetry group for a
 hexagonal supercell.

 Subroutine GETGRP returns: Found  1 space group operations
 (whereof  1 operations were pure point group operations)
 out of a pool of 24 trial point group operations.

The static configuration has the point symmetry C_1 .

Analysis of symmetry for dynamics (positions and initial velocities):
 Subroutine PRICEL returns:
 Original cell was already a primitive cell.

[...]

The dynamic configuration has the point symmetry C_1 .

Analysis of constrained symmetry for selective dynamics:
 Subroutine PRICEL returns:
[...]
     41      -5.0063      2.00000
     42      -4.9934      2.00000
     43      -4.8776      2.00000
     44      -4.8405      2.00000
     45      -4.7925      2.00000
     46      -4.7300      2.00000
     47      -4.7075      2.00000
     48      -4.6739      2.00000
     49      -4.6546      2.00000
     50      -4.6242      2.00000
     51      -4.6091      2.00000
     52      -4.5143      2.00000
     53      -4.4966      2.00000
     54      -4.4642      2.00000
     55      -4.4457      2.00000
     56      -4.4347      2.00000
     57      -4.4292      2.00000
     58      -4.4132      2.00000
     59      -4.3860      2.00000
     60      -4.3412      2.00000
[...]
    238       5.1199      0.00000
    239       5.2930      0.00000
    240       5.3233      0.00000
    241       5.5296      0.00000
    242       5.7759      0.00000
    243       5.8753      0.00000
    244       5.9027      0.00000
    245       6.0841      0.00000
    246       6.1497      0.00000
    247       6.1793      0.00000
    248       6.2141      0.00000
    249       6.4314      0.00000
    250       6.4862      0.00000
    251       6.6266      0.00000
    252       6.6925      0.00000

 soft charge-density along one line, spin component           1
         0         1         2         3         4         5         6         7         8         9
 total charge-density along one line

------------------------ aborting loop because EDIFF is reached ----------------------------------------

 total charge

# of ion       s       p       d       tot
    1        0.546   0.238   8.763   9.548
    2        0.545   0.240   8.764   9.549
    3        0.545   0.240   8.764   9.549
    4        0.545   0.240   8.764   9.549
    5        0.542   0.241   8.761   9.543
    6        0.545   0.240   8.764   9.549
    7        0.545   0.240   8.764   9.549
    8        0.545   0.240   8.764   9.549
    9        0.542   0.238   8.768   9.549
   10        0.527   0.307   8.763   9.597
   11        0.522   0.306   8.782   9.610
   12        0.527   0.307   8.763   9.597
   13        0.522   0.306   8.782   9.610
   14        0.522   0.306   8.782   9.610
   15        0.516   0.307   8.775   9.597
   16        0.527   0.307   8.763   9.597
   17        0.516   0.307   8.775   9.597
   18        0.516   0.307   8.775   9.598
   19        0.515   0.295   8.774   9.584
   20        0.558   0.345   8.733   9.635
   21        0.558   0.345   8.732   9.635
   22        0.506   0.305   8.780   9.590
   23        0.558   0.345   8.732   9.635
   24        0.506   0.305   8.780   9.591
   25        0.515   0.295   8.774   9.584
   26        0.515   0.295   8.774   9.584
   27        0.506   0.305   8.780   9.590
   28        0.537   0.227   8.757   9.521
   29        0.571   0.253   8.732   9.556
   30        0.572   0.254   8.731   9.557
   31        0.570   0.252   8.732   9.555
   32        0.572   0.255   8.730   9.557
   33        0.571   0.253   8.732   9.555
   34        0.571   0.254   8.731   9.557
   35        0.532   0.227   8.759   9.518
   36        0.486   0.319   4.615   5.420
   37        0.928   1.785   0.000   2.713
   38        1.605   3.530   0.000   5.135
   39        1.607   3.514   0.000   5.122
tot         23.450  18.878 311.213 353.540

  FORCE on cell =-STRESS in cart. coord.  units (eV):
  Direction    XX          YY          ZZ          XY          YZ          ZX
  Alpha Z   972.69943   972.69943   972.69943
  Ewald  144470.34159143999.51622************    11.29753    11.01868   364.66110
  Hartree153063.31769152843.84339************     5.33751     6.00441   161.67972
  E(xc)   -1832.08123 -1833.34159 -1840.25836     0.02678     0.02736     1.00660
  Local  ************************308786.05607   -15.65862   -16.20442  -491.76844
  n-local  -125.56188  -122.08097   -98.00395    -0.07508    -0.04268    -2.77000
  augment  2383.73029  2385.36504  2405.36755    -0.03311    -0.03194    -1.25824
  Kinetic  5738.54781  5778.28778  5819.41005    -0.92235    -0.76386   -31.87430
  Fock        0.00000     0.00000     0.00000     0.00000     0.00000     0.00000
  Total     -25.65293   -25.04460     1.07963    -0.02734     0.00755    -0.32357
  in kB     -25.07143   -24.47689     1.05516    -0.02672     0.00738    -0.31623

 VOLUME and BASIS-vectors are now :
  energy-cutoff  :      500.00
  volume of cell :     1639.34
      direct lattice vectors                 reciprocal lattice vectors
     8.813512802  0.000000000  0.000000000     0.113462137 -0.065507406  0.000000000
     4.406756909  7.632725690  0.000000000     0.000000000  0.131014796  0.000000000
     0.000000000  0.000000000 24.369114204     0.000000000  0.000000000  0.041035550

  length of vectors
     8.813512802  8.813512802 24.369114204     0.131014796  0.131014796  0.041035550

 FORCES acting on ions
    electron-ion (+dipol)            ewald-force                    non-local-force                 convergence-correction
   -.223E-01 0.107E-01 0.265E+04   0.174E-01 -.144E-01 -.265E+04   -.150E-03 0.101E-02 -.980E+00   0.435E-02 0.249E-02 -.588E-01
   0.689E+00 0.163E+00 0.266E+04   -.783E+00 -.277E+00 -.266E+04   0.579E-01 0.766E-01 -.232E+00   0.275E-01 0.411E-01 -.149E+00
   -.665E+00 0.189E+00 0.266E+04   0.765E+00 -.307E+00 -.266E+04   -.591E-01 0.731E-01 -.221E+00   -.320E-01 0.511E-01 -.149E+00
   0.472E+00 0.509E+00 0.266E+04   -.610E+00 -.527E+00 -.266E+04   0.925E-01 0.108E-01 -.232E+00   0.458E-01 -.175E-02 -.147E+00
   0.186E-01 -.898E-02 0.266E+04   -.344E-01 0.399E-02 -.266E+04   0.653E-03 0.583E-04 -.160E+00   0.161E-01 0.531E-02 -.204E+00
   -.494E+00 0.478E+00 0.266E+04   0.645E+00 -.527E+00 -.266E+04   -.932E-01 0.159E-01 -.220E+00   -.586E-01 0.224E-01 -.149E+00
   -.192E+00 -.667E+00 0.266E+04   0.138E+00 0.804E+00 -.266E+04   0.341E-01 -.856E-01 -.229E+00   0.296E-01 -.470E-01 -.150E+00
   0.189E+00 -.678E+00 0.266E+04   -.155E+00 0.834E+00 -.266E+04   -.339E-01 -.896E-01 -.227E+00   -.879E-02 -.613E-01 -.151E+00
   0.339E-02 0.158E-02 0.266E+04   0.173E-01 0.105E-01 -.266E+04   0.356E-02 -.622E-03 -.547E+00   -.250E-01 -.114E-01 -.150E+00
   0.786E+01 0.460E+01 0.922E+03   -.725E+01 -.424E+01 -.921E+03   -.449E+00 -.259E+00 -.875E+00   -.117E+00 -.709E-01 -.217E+00
   0.151E+00 0.402E+01 0.930E+03   -.148E+00 -.410E+01 -.929E+03   -.156E-02 0.499E-01 -.264E+00   -.396E-03 -.489E-01 -.242E+00
   -.801E+01 0.472E+01 0.923E+03   0.740E+01 -.437E+01 -.922E+03   0.446E+00 -.260E+00 -.875E+00   0.119E+00 -.590E-01 -.227E+00
   0.349E+01 -.201E+01 0.930E+03   -.357E+01 0.205E+01 -.929E+03   0.473E-01 -.279E-01 -.270E+00   -.370E-01 0.220E-01 -.245E+00
   -.335E+01 -.209E+01 0.930E+03   0.339E+01 0.212E+01 -.929E+03   -.380E-01 -.211E-01 -.262E+00   0.653E-01 0.364E-01 -.255E+00
   -.172E+00 0.518E+01 0.927E+03   0.182E+00 -.531E+01 -.926E+03   0.565E-02 0.282E-01 -.535E+00   -.150E-01 0.406E-01 -.132E+00
   0.258E-01 -.917E+01 0.923E+03   -.327E-01 0.846E+01 -.921E+03   -.255E-02 0.517E+00 -.879E+00   0.952E-02 0.136E+00 -.231E+00
   0.454E+01 -.272E+01 0.927E+03   -.465E+01 0.279E+01 -.926E+03   0.231E-01 -.998E-02 -.541E+00   0.297E-01 -.281E-01 -.137E+00
   -.456E+01 -.253E+01 0.927E+03   0.468E+01 0.260E+01 -.926E+03   -.258E-01 -.175E-01 -.531E+00   -.406E-01 -.198E-01 -.130E+00
   -.137E+01 0.388E+01 -.840E+03   0.133E+01 -.397E+01 0.840E+03   0.203E-01 -.448E-01 0.409E+00   0.121E-01 0.987E-01 0.211E+00
   0.548E+01 0.281E+01 -.797E+03   -.455E+01 -.227E+01 0.798E+03   -.864E+00 -.495E+00 -.108E+01   -.684E-01 -.446E-01 0.311E+00
   -.422E+01 0.330E+01 -.794E+03   0.329E+01 -.275E+01 0.795E+03   0.878E+00 -.507E+00 -.111E+01   0.544E-01 -.423E-01 0.311E+00
   -.851E+01 0.446E+01 -.821E+03   0.813E+01 -.423E+01 0.820E+03   0.490E+00 -.288E+00 0.645E+00   -.106E+00 0.512E-01 0.252E+00
   0.103E+01 -.622E+01 -.797E+03   -.102E+01 0.514E+01 0.797E+03   -.464E-02 0.101E+01 -.110E+01   -.603E-02 0.654E-01 0.311E+00
   0.746E+01 0.355E+01 -.819E+03   -.706E+01 -.331E+01 0.818E+03   -.505E+00 -.289E+00 0.612E+00   0.104E+00 0.550E-01 0.242E+00
   -.329E+01 -.747E+00 -.841E+03   0.336E+01 0.793E+00 0.840E+03   0.401E-01 0.125E-01 0.406E+00   -.773E-01 -.398E-01 0.219E+00
   0.303E+01 -.214E+01 -.842E+03   -.312E+01 0.216E+01 0.841E+03   -.351E-01 0.331E-01 0.420E+00   0.927E-01 -.341E-01 0.213E+00
   0.243E+00 -.888E+01 -.820E+03   -.230E+00 0.841E+01 0.819E+03   -.773E-02 0.574E+00 0.631E+00   -.537E-02 -.110E+00 0.248E+00
   -.461E+01 0.391E+01 -.250E+04   0.462E+01 -.391E+01 0.250E+04   -.812E-02 0.189E-02 0.474E+00   0.143E-02 -.851E-03 0.331E+00
   0.243E+02 0.367E+02 -.250E+04   -.234E+02 -.352E+02 0.250E+04   -.106E+01 -.158E+01 -.131E+00   0.684E-01 0.407E-01 0.286E+00
   -.188E+02 0.455E+02 -.249E+04   0.178E+02 -.440E+02 0.249E+04   0.107E+01 -.159E+01 -.262E+00   -.762E-01 0.425E-01 0.290E+00
   0.386E+02 -.332E+00 -.250E+04   -.368E+02 0.419E+00 0.250E+04   -.191E+01 -.128E+00 -.944E-01   0.690E-01 0.414E-01 0.294E+00
   -.486E+02 -.386E+00 -.247E+04   0.468E+02 0.466E+00 0.247E+04   0.192E+01 -.130E+00 -.303E+00   -.867E-01 0.454E-01 0.299E+00
   0.223E+02 -.358E+02 -.250E+04   -.215E+02 0.342E+02 0.250E+04   -.836E+00 0.172E+01 -.148E+00   0.117E-02 -.896E-01 0.301E+00
   -.169E+02 -.447E+02 -.249E+04   0.161E+02 0.431E+02 0.249E+04   0.841E+00 0.171E+01 -.250E+00   -.100E-01 -.988E-01 0.303E+00
   -.452E+01 -.296E+01 -.251E+04   0.454E+01 0.298E+01 0.250E+04   -.109E-01 -.558E-02 0.632E+00   -.612E-02 -.886E-02 0.225E+00
   0.504E+01 -.107E+01 -.145E+04   -.498E+01 0.108E+01 0.144E+04   -.892E-01 -.195E-01 0.270E+01   0.378E-02 0.279E-02 0.304E+00
   -.114E+01 0.878E+01 -.866E+03   0.191E+01 -.878E+01 0.866E+03   -.270E+00 0.325E+00 0.175E+00   -.810E-02 0.564E-03 -.183E-01
   0.204E+03 0.993E+00 -.130E+04   -.254E+03 -.947E+00 0.126E+04   0.501E+02 -.179E+00 0.371E+02   0.536E-02 0.104E-02 -.551E-01
   -.201E+03 -.811E+01 -.130E+04   0.249E+03 0.105E+02 0.134E+04   -.489E+02 -.257E+01 -.408E+02   -.116E-01 -.307E-02 -.178E-01
   -.819E+00 0.247E+01 0.741E+01   -.284E-13 0.114E-12 0.637E-11   0.890E+00 -.244E+01 -.913E+01   -.364E-01 -.181E-01 0.174E+01

 POSITION                                       TOTAL-FORCE (eV/Angst)
      0.00000      0.00000      5.28038        -0.001590     -0.000484     -0.131089
      2.93784      0.00000      5.28038        -0.008970      0.003659     -0.084378
      5.87568      0.00000      5.28038         0.007945      0.006278     -0.084601
      1.46892      2.54424      5.28038        -0.000864     -0.009623     -0.084345
      4.40676      2.54424      5.28038         0.000105      0.000110     -0.122429
      7.34459      2.54424      5.28038        -0.001841     -0.010955     -0.084459
      2.93784      5.08848      5.28038         0.008639      0.004170     -0.084355
      5.87568      5.08848      5.28038        -0.009361      0.004707     -0.084711
      8.81351      5.08848      5.28038        -0.001701     -0.000182     -0.093674
      1.46892      0.84808      7.67911         0.043161      0.025442      0.142327
      4.40676      0.84808      7.67911        -0.000205     -0.080002     -0.045028
      7.34459      0.84808      7.67911        -0.047559      0.026779      0.144130
      2.93784      3.39232      7.67911        -0.069264      0.039859     -0.044448
      5.87568      3.39232      7.67911         0.068167      0.039469     -0.045866
      8.81351      3.39232      7.67911        -0.000050     -0.065065      0.071025
      4.40676      5.93656      7.67911        -0.000819     -0.053257      0.143079
      7.34459      5.93656      7.67911        -0.056796      0.032488      0.071198
     10.28243      5.93656      7.67911         0.054582      0.031457      0.071866
      8.81351      1.70659     10.09931        -0.000048     -0.040035      0.021311
      2.93410      1.69400     10.03753        -0.001739     -0.001604     -0.015014
      5.87941      1.69400     10.03753        -0.007017      0.005496      0.004234
     10.26439      4.25082     10.06692        -0.000663     -0.000560      0.024621
      4.40676      4.24472     10.03753         0.001483     -0.002692     -0.000381
      7.36264      4.25082     10.06692        -0.000310      0.000121      0.018136
     11.74232      6.77943     10.09931         0.034210      0.019263      0.018248
      5.88471      6.77943     10.09931        -0.034845      0.020277      0.021379
      8.81351      6.76381     10.06692        -0.001529     -0.000150      0.021765
      0.00000      0.00000     12.49835         0.000876     -0.000271     -0.025342
      2.98825      0.08685     12.53577        -0.014931     -0.024736      0.003349
      5.82526      0.08685     12.53577         0.011540     -0.013761      0.018475
      1.56934      2.54447     12.53577        -0.030520      0.000073     -0.004365
      7.24417      2.54447     12.53577         0.010696     -0.005046      0.029008
      2.98785      5.00140     12.53577        -0.009996      0.018484      0.008924
      5.82567      5.00140     12.53577         0.004174      0.015112      0.020482
      8.81351      5.08848     12.49628         0.000741      0.000212      0.001819
      4.40676      2.54424     12.20474        -0.025270     -0.007550      0.266469
      5.13695      2.49827     15.95849         0.490607      0.321732      0.541677
      4.21117      2.49823     15.22656         0.105074     -0.132855     -0.079924
      6.04356      2.54166     16.71529        -0.516114     -0.166359     -0.549112
    total drift:                                0.034550      0.010378      0.010805

  FREE ENERGIE OF THE ION-ELECTRON SYSTEM (eV)
  free  energy   TOTEN  =      -138.86199774 eV

  energy  without entropy=     -138.86199774  energy(sigma->0) =     -138.86199774

 stress matrix after NEB project (eV)
    -25.65293     -0.02734     -0.32357
     -0.02734    -25.04460      0.00755
     -0.32357      0.00755      1.07963
  FORCES: max atom, RMS     0.798511    0.180332
  FORCE total and by dimension    1.126176    0.549112
  Stress total and by dimension   35.870337   25.652926
|           W    W    AA    RRRRR   N    N  II  N    N   GGGG   !!!           |
|           W    W   A  A   R    R  NN   N  II  NN   N  G    G  !!!           |
|           W    W  A    A  R    R  N N  N  II  N N  N  G       !!!           |
|           W WW W  AAAAAA  RRRRR   N  N N  II  N  N N  G  GGG   !            |
|           WW  WW  A    A  R   R   N   NN  II  N   NN  G    G                |
|           W    W  A    A  R    R  N    N  II  N    N   GGGG   !!!           |
|     Tetrahedron method does not include variations of the Fermi             |
|     occupations, so forces and stress will be inaccurate. We suggest        |
|     using a different smearing scheme ISMEAR = 1 or 2 for metals in         |
|     relaxations.                                                            |

 total charge

# of ion       s       p       d       tot
    1        0.546   0.238   8.763   9.548
    2        0.545   0.240   8.764   9.549
    3        0.545   0.240   8.764   9.549
    4        0.545   0.240   8.764   9.549
    5        0.542   0.241   8.761   9.543
    6        0.545   0.240   8.764   9.549
    7        0.545   0.240   8.764   9.549
    8        0.545   0.240   8.764   9.549
    9        0.542   0.238   8.768   9.549
   10        0.527   0.307   8.763   9.597
   11        0.522   0.306   8.782   9.610
   12        0.527   0.307   8.763   9.597
   13        0.522   0.306   8.782   9.610
   14        0.522   0.306   8.782   9.610
   15        0.516   0.307   8.775   9.597
   16        0.527   0.307   8.763   9.597
   17        0.516   0.307   8.775   9.597
   18        0.516   0.307   8.775   9.598
   19        0.515   0.295   8.774   9.584
   20        0.558   0.345   8.733   9.635
   21        0.558   0.345   8.732   9.635
   22        0.506   0.305   8.780   9.590
   23        0.558   0.345   8.732   9.635
   24        0.506   0.305   8.780   9.591
   25        0.515   0.295   8.774   9.584
   26        0.515   0.295   8.774   9.584
   27        0.506   0.305   8.780   9.590
   28        0.537   0.227   8.757   9.521
   29        0.571   0.253   8.732   9.556
   30        0.572   0.254   8.731   9.557
   31        0.570   0.252   8.732   9.555
   32        0.572   0.255   8.730   9.557
   33        0.571   0.253   8.732   9.555
   34        0.571   0.254   8.731   9.557
   35        0.532   0.227   8.759   9.518
   36        0.486   0.319   4.615   5.420
   37        0.928   1.785   0.000   2.713
   38        1.605   3.530   0.000   5.135
   39        1.607   3.514   0.000   5.122
tot         23.450  18.878 311.213 353.540

 BZINTS: Fermi energy:    0.349462;  408.000000 electrons
         Band energy:-0.148526E+04;  BLOECHL correction:   -0.049052