 vasp.6.2.0 18Jan21 (build Jun 12 2021 23:27:24) complex

 executed on             LinuxIFC date 2022.05.30  17:59:36

 INCAR:
   ISMEAR = -5
   SIGMA = 0.1
   ISPIN = 1
   EDIFF = 1.d-5
   EDIFFG = -0.01
   NSW = 0
   NELM = 150
   ENCUT = 500
   ISIF = 2
   IBRION = 2
   LREAL = Auto
   ALGO = Fast
   ICHARG = 11
   LORBIT = 10
   LCHARG = .F.
   LWAVE = .F.

 POTCAR:    PAW_PBE Cu 22Jun2005
 POTCAR:    PAW_PBE Mn 06Sep2000
 POTCAR:    PAW_PBE C 08Apr2002
|           W    W    AA    RRRRR   N    N  II  N    N   GGGG   !!!           |
|           W    W   A  A   R    R  NN   N  II  NN   N  G    G  !!!           |
|           W    W  A    A  R    R  N N  N  II  N N  N  G       !!!           |
|           W WW W  AAAAAA  RRRRR   N  N N  II  N  N N  G  GGG   !            |
|           WW  WW  A    A  R   R   N   NN  II  N   NN  G    G                |
|           W    W  A    A  R    R  N    N  II  N    N   GGGG   !!!           |
|     For optimal performance we recommend to set                             |
|       NCORE = 2 up to number-of-cores-per-socket                            |
|     This setting can greatly improve the performance of VASP for DFT.       |
|     The default, NCORE=1 might be grossly inefficient on modern             |
|     multi-core architectures or massively parallel machines. Do your        |
|     Unfortunately you need to use the default for GW and RPA                |
|     calculations (for HF NCORE is supported but not extensively tested      |
|     yet).                                                                   |

 POTCAR:    PAW_PBE Cu 22Jun2005
   VRHFIN =Cu: d10 p1

   TITEL  = PAW_PBE Cu 22Jun2005
   POMASS =   63.546; ZVAL   =   11.000    mass and valenz
   ENMAX  =  295.446; ENMIN  =  221.585 eV

 POTCAR:    PAW_PBE Mn 06Sep2000
   VRHFIN =Mn: d6 s1

   TITEL  = PAW_PBE Mn 06Sep2000
   POMASS =   54.938; ZVAL   =    7.000    mass and valenz
   ENMAX  =  269.864; ENMIN  =  202.398 eV

 POTCAR:    PAW_PBE C 08Apr2002
   VRHFIN =C: s2p2

   TITEL  = PAW_PBE C 08Apr2002
   POMASS =   12.011; ZVAL   =    4.000    mass and valenz
   ENMAX  =  400.000; ENMIN  =  300.000 eV

 Optimization of the real space projectors (new method)

 maximal supplied QI-value         = 16.25
 optimisation between [QCUT,QGAM] = [ 11.38, 22.75] = [ 36.24,144.96] Ry
 Optimized for a Real-space Cutoff    1.52 Angstroem

   l    n(q)    QCUT    max X(q) W(low)/X(q) W(high)/X(q)  e(spline)
   2      9    11.376     4.610    0.21E-03    0.10E-03    0.26E-06
   2      9    11.376     8.522    0.33E-03    0.16E-03    0.37E-06
   0     10    11.376    51.609    0.62E-04    0.20E-04    0.13E-06
   0     10    11.376    27.747    0.54E-04    0.20E-04    0.13E-06
   1     10    11.376    20.408    0.13E-04    0.99E-04    0.19E-06
   1     10    11.376    13.425    0.12E-04    0.87E-04    0.17E-06
 Optimization of the real space projectors (new method)

[...]

   l    n(q)    QCUT    max X(q) W(low)/X(q) W(high)/X(q)  e(spline)
   2      8    11.376   110.144    0.49E-03    0.27E-04    0.26E-06
   2      8    11.376   103.200    0.49E-03    0.28E-04    0.27E-06
   0      9    11.376    68.437    0.57E-04    0.92E-04    0.15E-06
   0      9    11.376    33.971    0.51E-04    0.83E-04    0.14E-06
   1      9    11.376    17.065    0.34E-03    0.68E-04    0.14E-06
   1      9    11.376    12.540    0.27E-03    0.59E-04    0.11E-06
 Optimization of the real space projectors (new method)

 maximal supplied QI-value         = 25.13
 optimisation between [QCUT,QGAM] = [ 11.31, 22.87] = [ 35.82,146.48] Ry
 Optimized for a Real-space Cutoff    1.00 Angstroem

   l    n(q)    QCUT    max X(q) W(low)/X(q) W(high)/X(q)  e(spline)
   0      7    11.310   115.676    0.43E-03    0.13E-02    0.19E-06
   0      7    11.310    87.132    0.43E-03    0.13E-02    0.18E-06
   1      6    11.310     4.429    0.42E-03    0.74E-03    0.11E-06
   1      6    11.310     2.733    0.34E-03    0.55E-03    0.92E-07
  PAW_PBE Cu 22Jun2005                  :
  PAW_PBE Mn 06Sep2000                  :
  PAW_PBE C 08Apr2002                   :

 POSCAR: Cu-Mn-C
  positions in direct lattice
  velocities in cartesian coordinates
 exchange correlation table for  LEXCH =        8
   RHO(1)=    0.500       N(1)  =     2000
   RHO(2)=  100.500       N(2)  =     4000

 VTST: version 3.2, (02/03/18)

 CHAIN: initializing optimizer

 OPT: Using VASP Conjugate-Gradient optimizer
 CHAIN: Read ICHAIN            0

 POSCAR: Cu-Mn-C
  positions in direct lattice
  velocities in cartesian coordinates

 ion  position               nearest neighbor table
   1  0.000  0.000  0.226-   7 2.57   3 2.57   4 2.57   2 2.57   6 2.57   8 2.57  12 2.57  10 2.57
                            16 2.57
   2  0.333  0.000  0.226-   8 2.57   9 2.57   5 2.57   1 2.57   3 2.57  11 2.57   4 2.57  10 2.57
                            17 2.57
   3  0.667  0.000  0.226-   1 2.57   7 2.57   6 2.57   9 2.57   2 2.57  12 2.57   5 2.57  18 2.57
                            11 2.57
   4  0.000  0.333  0.226-   5 2.57   6 2.57   1 2.57   7 2.57   2 2.57  13 2.57   9 2.57  10 2.57
                            15 2.57
   5  0.333  0.333  0.226-   4 2.57   2 2.57   7 2.57  13 2.57   8 2.57   6 2.57   3 2.57  11 2.57
                            14 2.57
   6  0.667  0.333  0.226-   4 2.57   9 2.57  15 2.57   3 2.57   1 2.57   8 2.57  14 2.57   5 2.57
                            12 2.57
   7  0.000  0.667  0.226-   1 2.57   3 2.57  16 2.57  18 2.57   4 2.57   5 2.57   8 2.57   9 2.57
                            13 2.57
   8  0.333  0.667  0.226-   9 2.57   2 2.57  17 2.57   6 2.57   1 2.57   7 2.57   5 2.57  14 2.57
                            16 2.57
   9  0.667  0.667  0.226-   8 2.57   6 2.57   2 2.57  17 2.57   3 2.57   7 2.57   4 2.57  15 2.57
                            18 2.57
  10  0.111  0.111  0.314-  20 2.55  26 2.56  19 2.56  11 2.57  12 2.57  13 2.57   1 2.57   2 2.57
                             4 2.57  15 2.57  16 2.57  17 2.57
  11  0.444  0.111  0.314-  20 2.55  21 2.55  27 2.56  10 2.57  13 2.57   2 2.57  17 2.57  14 2.57
                            12 2.57   5 2.57   3 2.57  18 2.57
  12  0.778  0.111  0.314-  21 2.55  19 2.56  25 2.56  15 2.57  10 2.57  14 2.57  18 2.57   3 2.57
                             1 2.57  16 2.57  11 2.57   6 2.57
  13  0.111  0.444  0.314-  23 2.55  20 2.55  22 2.56  16 2.57  18 2.57  10 2.57  11 2.57  14 2.57
                             5 2.57   4 2.57   7 2.57  15 2.57
  14  0.444  0.444  0.314-  21 2.55  23 2.55  24 2.56  15 2.57  17 2.57  12 2.57  16 2.57  13 2.57
                            11 2.57   6 2.57   8 2.57   5 2.57
  15  0.778  0.444  0.314-  19 2.56  24 2.56  22 2.56  14 2.57  17 2.57  12 2.57   6 2.57  18 2.57
                            10 2.57   9 2.57  13 2.57   4 2.57
  16  0.111  0.778  0.314-  23 2.55  25 2.56  26 2.56  18 2.57  13 2.57   7 2.57  14 2.57  17 2.57
                            12 2.57  10 2.57   8 2.57   1 2.57
  17  0.444  0.778  0.314-  26 2.56  27 2.56  24 2.56  14 2.57  15 2.57   8 2.57   9 2.57  11 2.57
                            16 2.57  18 2.57  10 2.57   2 2.57
  18  0.778  0.778  0.314-  25 2.56  22 2.56  27 2.56  16 2.57  13 2.57   7 2.57  15 2.57  12 2.57
                            17 2.57   9 2.57   3 2.57  11 2.57
  19  0.889  0.222  0.402-  28 2.55  15 2.56  12 2.56  10 2.56  22 2.56  24 2.56  21 2.57  20 2.57
                            25 2.57  26 2.57  32 2.57  31 2.57
  20  0.222  0.222  0.401-  36 2.48  11 2.55  13 2.55  10 2.55  29 2.56  31 2.56  23 2.56  21 2.56
                            26 2.57  19 2.57  27 2.57  22 2.57
  21  0.555  0.222  0.401-  36 2.48  14 2.55  11 2.55  12 2.55  32 2.56  30 2.56  20 2.56  23 2.56
                            19 2.57  25 2.57  24 2.57  27 2.57
  22  0.888  0.556  0.402-  35 2.55  24 2.56  27 2.56  31 2.56  33 2.56  18 2.56  15 2.56  13 2.56
                            19 2.56  25 2.56  23 2.57  20 2.57
  23  0.222  0.555  0.401-  36 2.48  13 2.55  14 2.55  16 2.55  33 2.56  34 2.56  20 2.56  21 2.56
                            25 2.57  26 2.57  22 2.57  24 2.57
  24  0.556  0.556  0.402-  35 2.55  22 2.56  27 2.56  32 2.56  34 2.56  15 2.56  17 2.56  14 2.56
                            19 2.56  26 2.56  21 2.57  23 2.57
  25  0.889  0.889  0.402-  28 2.55  18 2.56  16 2.56  12 2.56  22 2.56  27 2.56  21 2.57  23 2.57
                            19 2.57  26 2.57  33 2.57  30 2.57
  26  0.222  0.889  0.402-  28 2.55  17 2.56  10 2.56  16 2.56  27 2.56  24 2.56  20 2.57  23 2.57
                            25 2.57  19 2.57  29 2.57  34 2.57
  27  0.556  0.888  0.402-  35 2.55  24 2.56  22 2.56  29 2.56  30 2.56  17 2.56  18 2.56  11 2.56
                            26 2.56  25 2.56  20 2.57  21 2.57
  28  0.000  0.000  0.489-  25 2.55  19 2.55  26 2.55  33 2.58  30 2.58  31 2.58  29 2.58  32 2.58
                            34 2.58
  29  0.333  0.003  0.489-  31 2.54  36 2.55  30 2.55  20 2.56  27 2.56  26 2.57  28 2.58  35 2.58
                            34 2.61
  30  0.664  0.003  0.489-  32 2.54  36 2.55  29 2.55  21 2.56  27 2.56  25 2.57  28 2.58  35 2.58
                            33 2.61
  31  0.003  0.333  0.489-  29 2.54  36 2.55  33 2.55  20 2.56  22 2.56  19 2.57  28 2.58  35 2.58
                            32 2.61
  32  0.664  0.333  0.489-  30 2.54  36 2.55  34 2.55  21 2.56  24 2.56  19 2.57  28 2.58  35 2.58
                            31 2.61
  33  0.003  0.664  0.489-  34 2.54  36 2.55  31 2.55  23 2.56  22 2.56  25 2.57  28 2.58  35 2.58
                            30 2.61
  34  0.333  0.664  0.489-  33 2.54  36 2.55  32 2.55  23 2.56  24 2.56  26 2.57  28 2.58  35 2.58
                            29 2.61
  35  0.667  0.667  0.489-  24 2.55  27 2.55  22 2.55  34 2.58  32 2.58  29 2.58  30 2.58  33 2.58
                            31 2.58
  36  0.333  0.333  0.485-  37 1.61  23 2.48  20 2.48  21 2.48  31 2.55  29 2.55  33 2.55  34 2.55
                            32 2.55  30 2.55
  37  0.333  0.333  0.552-  36 1.61

  LATTYP: Found a hexagonal cell.
 ALAT       =     7.6967864036
 C/A-ratio  =     3.0908716217

  Lattice vectors:

 A1 = (  -3.8483927580,  -6.6656128093,   0.0000000000)
 A2 = (   7.6967864037,   0.0000000000,   0.0000000000)
 A3 = (   0.0000000000,   0.0000000000,  23.7897786731)

Analysis of symmetry for initial positions (statically):
 Subroutine PRICEL returns:
 Original cell was already a primitive cell.

 Routine SETGRP: Setting up the symmetry group for a
 hexagonal supercell.

 Subroutine GETGRP returns: Found  6 space group operations
 (whereof  6 operations were pure point group operations)
 out of a pool of 24 trial point group operations.

The static configuration has the point symmetry C_3v.

Analysis of symmetry for dynamics (positions and initial velocities):
 Subroutine PRICEL returns:
 Original cell was already a primitive cell.

[...]

The dynamic configuration has the point symmetry C_3v.

Analysis of constrained symmetry for selective dynamics:
 Subroutine PRICEL returns:
 Original cell was already a primitive cell.

 Routine SETGRP: Setting up the symmetry group for a
 hexagonal supercell.

 Subroutine GETGRP returns: Found  6 space group operations
[...]
     24      -4.8670      2.00000
     25      -4.7182      2.00000
     26      -4.6942      2.00000
     27      -4.6397      2.00000
     28      -4.6326      2.00000
     29      -4.6302      2.00000
     30      -4.6181      2.00000
     31      -4.6076      2.00000
     32      -4.5938      2.00000
     33      -4.5377      2.00000
     34      -4.5293      2.00000
     35      -4.5101      2.00000
     36      -4.4206      2.00000
     37      -4.4077      2.00000
     38      -4.3137      2.00000
     39      -4.3095      2.00000
     40      -4.2314      2.00000
     41      -4.2285      2.00000
     42      -4.2196      2.00000
     43      -4.1927      2.00000
     44      -4.1821      2.00000
     45      -4.1681      2.00000
     46      -4.1602      2.00000
     47      -3.9819      2.00000
     48      -3.9618      2.00000
     49      -3.9550      2.00000
     50      -3.9471      2.00000
     51      -3.8985      2.00000
     52      -3.8958      2.00000
     53      -3.8851      2.00000
     54      -3.8725      2.00000
     55      -3.8548      2.00000
     56      -3.8525      2.00000
     57      -3.8300      2.00000
     58      -3.8193      2.00000
     59      -3.8062      2.00000
     60      -3.8023      2.00000
[...]
    238       5.6906      0.00000
    239       5.7777      0.00000
    240       5.8958      0.00000
    241       5.9637      0.00000
    242       6.0393      0.00000
    243       6.2396      0.00000
    244       6.2703      0.00000
    245       6.4584      0.00000
    246       6.6410      0.00000
    247       6.7348      0.00000
    248       6.7428      0.00000
    249       6.9736      0.00000
    250       7.2002      0.00000
    251       7.3210      0.00000
    252       7.4816      0.00000

 soft charge-density along one line, spin component           1
         0         1         2         3         4         5         6         7         8         9
 total charge-density along one line

------------------------ aborting loop because EDIFF is reached ----------------------------------------

 total charge

# of ion       s       p       d       tot
    1        0.448   0.285   9.187   9.920
    2        0.449   0.285   9.186   9.920
    3        0.449   0.285   9.186   9.920
    4        0.449   0.285   9.186   9.920
    5        0.448   0.285   9.186   9.920
    6        0.449   0.285   9.186   9.920
    7        0.449   0.285   9.186   9.920
    8        0.449   0.285   9.186   9.920
    9        0.446   0.285   9.186   9.917
   10        0.440   0.371   9.178   9.990
   11        0.442   0.371   9.181   9.993
   12        0.440   0.371   9.178   9.990
   13        0.442   0.371   9.181   9.993
   14        0.442   0.371   9.181   9.993
   15        0.438   0.371   9.178   9.987
   16        0.440   0.371   9.178   9.990
   17        0.438   0.371   9.178   9.987
   18        0.438   0.371   9.178   9.987
   19        0.441   0.366   9.183   9.990
   20        0.455   0.392   9.170  10.017
   21        0.455   0.392   9.170  10.017
   22        0.434   0.376   9.178   9.988
   23        0.455   0.392   9.170  10.017
   24        0.434   0.376   9.178   9.988
   25        0.441   0.366   9.183   9.990
   26        0.441   0.366   9.183   9.990
   27        0.434   0.376   9.178   9.988
   28        0.451   0.282   9.187   9.920
   29        0.448   0.296   9.181   9.925
   30        0.448   0.296   9.181   9.925
   31        0.448   0.296   9.181   9.925
   32        0.448   0.296   9.181   9.925
   33        0.448   0.296   9.181   9.925
   34        0.448   0.296   9.181   9.925
   35        0.447   0.285   9.187   9.919
   36        0.417   0.439   5.379   6.234
   37        1.009   1.226   0.000   2.235
tot         16.993  13.318 326.719 357.030

  FORCE on cell =-STRESS in cart. coord.  units (eV):
  Direction    XX          YY          ZZ          XY          YZ          ZX
  Alpha Z   787.24516   787.24516   787.24516
  Ewald  223102.53672223102.53631************     0.00039     0.00012     0.00017
  Hartree235761.64695235761.64693************     0.00004     0.00005     0.00007
  E(xc)   -2293.09110 -2293.09061 -2298.45078    -0.00042    -0.00004    -0.00007
  Local  ************************472232.63358     0.01841    -0.00057    -0.00093
  n-local  -785.50191  -773.18451  -794.82995     6.65773    -0.00076     0.16180
  augment  3336.86514  3336.88527  3353.03789    -0.01744     0.00032     0.00051
  Kinetic  3255.64887  3258.12571  3273.92372     2.74069     1.65770    -1.27690
  Fock        0.00000     0.00000     0.00000     0.00000     0.00000     0.00000
  Total      -7.11787    -7.11787    -0.10442     0.00000     0.00000    -0.00000
  in kB      -9.34374    -9.34374    -0.13708     0.00000     0.00000    -0.00000

 VOLUME and BASIS-vectors are now :
  energy-cutoff  :      500.00
  volume of cell :     1220.51
      direct lattice vectors                 reciprocal lattice vectors
     7.696786404  0.000000000  0.000000000     0.129924354 -0.075011849  0.000000000
     3.848392758  6.665612809  0.000000000     0.000000000  0.150023716  0.000000000
     0.000000000  0.000000000 23.789778673     0.000000000  0.000000000  0.042034859

  length of vectors
     7.696786404  7.696786404 23.789778673     0.150023716  0.150023716  0.042034859

 FORCES acting on ions
    electron-ion (+dipol)            ewald-force                    non-local-force                 convergence-correction
   -.422E-04 -.217E-06 0.372E+04   0.580E-04 -.438E-05 -.371E+04   -.105E-16 -.107E-17 -.222E+01   -.251E-03 -.112E-03 -.338E+00
   -.490E-01 0.142E+00 0.372E+04   0.526E-01 0.138E-01 -.371E+04   -.184E-01 -.196E-01 -.197E+01   0.133E-01 -.132E+00 -.290E+00
   0.490E-01 0.142E+00 0.372E+04   -.527E-01 0.137E-01 -.371E+04   0.184E-01 -.196E-01 -.197E+01   -.126E-01 -.130E+00 -.289E+00
   0.985E-01 -.113E+00 0.372E+04   0.382E-01 0.387E-01 -.371E+04   -.261E-01 -.612E-02 -.197E+01   -.108E+00 0.776E-01 -.290E+00
   -.641E-04 -.476E-05 0.372E+04   0.116E-03 -.101E-04 -.371E+04   0.987E-18 -.138E-17 -.207E+01   0.120E-01 0.735E-02 -.369E+00
   -.984E-01 -.113E+00 0.372E+04   -.383E-01 0.386E-01 -.371E+04   0.261E-01 -.612E-02 -.197E+01   0.106E+00 0.788E-01 -.289E+00
   0.147E+00 -.285E-01 0.372E+04   -.145E-01 -.525E-01 -.371E+04   -.777E-02 0.257E-01 -.197E+01   -.119E+00 0.539E-01 -.289E+00
   -.147E+00 -.286E-01 0.372E+04   0.142E-01 -.524E-01 -.371E+04   0.777E-02 0.257E-01 -.197E+01   0.122E+00 0.526E-01 -.289E+00
   -.144E-03 -.333E-04 0.372E+04   0.263E-03 0.206E-04 -.371E+04   -.157E-17 -.433E-18 -.221E+01   -.131E-01 -.677E-02 -.328E+00
   0.263E+00 0.152E+00 0.124E+04   -.117E+00 -.675E-01 -.124E+04   -.191E+00 -.110E+00 -.726E+00   0.330E-01 0.190E-01 0.483E-01
   -.880E-04 0.456E+00 0.124E+04   0.189E-03 -.338E+00 -.124E+04   -.431E-08 0.648E-01 -.888E+00   0.113E-01 -.192E+00 0.127E-01
   -.263E+00 0.152E+00 0.124E+04   0.117E+00 -.676E-01 -.124E+04   0.191E+00 -.110E+00 -.726E+00   -.340E-01 0.195E-01 0.463E-01
   0.395E+00 -.228E+00 0.124E+04   -.292E+00 0.169E+00 -.124E+04   0.561E-01 -.324E-01 -.888E+00   -.160E+00 0.107E+00 0.127E-01
   -.395E+00 -.228E+00 0.124E+04   0.292E+00 0.169E+00 -.124E+04   -.561E-01 -.324E-01 -.888E+00   0.183E+00 0.105E+00 0.939E-02
   -.140E-03 -.803E-01 0.124E+04   0.299E-03 -.949E-01 -.124E+04   -.476E-08 0.714E-01 -.736E+00   -.272E-02 0.101E+00 -.636E-02
   -.889E-04 -.304E+00 0.124E+04   0.186E-03 0.135E+00 -.124E+04   -.147E-07 0.220E+00 -.726E+00   -.104E-02 -.404E-01 0.463E-01
   -.696E-01 0.400E-01 0.124E+04   -.822E-01 0.477E-01 -.124E+04   0.619E-01 -.357E-01 -.736E+00   0.871E-01 -.530E-01 -.648E-02
   0.697E-01 0.401E-01 0.124E+04   0.820E-01 0.477E-01 -.124E+04   -.619E-01 -.357E-01 -.736E+00   -.859E-01 -.513E-01 -.523E-02
   -.601E-04 -.178E+01 -.125E+04   0.692E-04 0.175E+01 0.125E+04   -.268E-09 0.402E-02 0.103E+01   0.129E-01 0.246E-01 0.179E+00
   -.174E+02 -.100E+02 -.126E+04   0.176E+02 0.101E+02 0.126E+04   -.398E+00 -.230E+00 -.109E+00   -.672E-02 -.401E-02 0.263E+00
   0.174E+02 -.100E+02 -.126E+04   -.176E+02 0.101E+02 0.126E+04   0.398E+00 -.230E+00 -.109E+00   -.161E-01 -.586E-02 0.262E+00
   -.996E+01 0.575E+01 -.125E+04   0.962E+01 -.555E+01 0.125E+04   0.431E+00 -.249E+00 0.977E+00   -.251E-01 0.252E-01 0.622E-01
   -.784E-04 0.201E+02 -.126E+04   0.145E-03 -.203E+02 0.126E+04   -.306E-07 0.460E+00 -.109E+00   -.143E-01 -.122E-01 0.262E+00
   0.996E+01 0.575E+01 -.125E+04   -.962E+01 -.555E+01 0.125E+04   -.431E+00 -.249E+00 0.977E+00   0.486E-01 0.272E-01 0.629E-01
   0.154E+01 0.891E+00 -.125E+04   -.152E+01 -.876E+00 0.125E+04   -.349E-02 -.201E-02 0.103E+01   -.646E-02 -.371E-02 0.180E+00
   -.154E+01 0.891E+00 -.125E+04   0.152E+01 -.876E+00 0.125E+04   0.349E-02 -.201E-02 0.103E+01   0.281E-01 -.946E-03 0.179E+00
   -.123E-03 -.115E+02 -.125E+04   0.241E-03 0.111E+02 0.125E+04   -.332E-07 0.498E+00 0.977E+00   0.925E-02 -.344E-01 0.623E-01
   -.347E-04 0.167E-04 -.369E+04   0.369E-04 -.338E-04 0.369E+04   -.757E-17 0.353E-17 0.224E+01   -.126E-02 -.675E-03 0.156E+00
   -.541E+01 -.937E+01 -.368E+04   0.565E+01 0.957E+01 0.368E+04   -.314E+00 -.363E+00 0.306E+01   0.433E-01 0.110E+00 0.228E+00
   0.541E+01 -.937E+01 -.368E+04   -.565E+01 0.957E+01 0.368E+04   0.314E+00 -.363E+00 0.306E+01   -.216E-01 0.111E+00 0.228E+00
   -.108E+02 0.138E-02 -.368E+04   0.111E+02 0.110E+00 0.368E+04   -.471E+00 -.907E-01 0.306E+01   0.117E+00 -.178E-01 0.228E+00
   0.108E+02 0.170E-02 -.368E+04   -.111E+02 0.110E+00 0.368E+04   0.471E+00 -.907E-01 0.306E+01   -.952E-01 -.165E-01 0.230E+00
   -.541E+01 0.937E+01 -.368E+04   0.546E+01 -.968E+01 0.368E+04   -.157E+00 0.454E+00 0.306E+01   0.856E-01 -.745E-01 0.228E+00
   0.541E+01 0.937E+01 -.368E+04   -.546E+01 -.968E+01 0.368E+04   0.157E+00 0.454E+00 0.306E+01   -.612E-01 -.742E-01 0.230E+00
   -.129E-03 -.180E-04 -.370E+04   0.253E-03 0.570E-05 0.369E+04   -.104E-16 -.425E-18 0.258E+01   -.141E-01 -.733E-02 0.327E+00
   -.514E-04 -.195E-04 -.217E+04   0.914E-04 0.167E-04 0.217E+04   -.103E-17 0.797E-18 0.381E+01   0.113E-02 0.725E-03 0.172E+00
   0.560E-04 -.180E-04 -.163E+04   0.152E-04 0.656E-05 0.164E+04   0.279E-18 -.227E-18 -.728E+01   0.362E-03 0.223E-03 -.771E-01
   -.168E-03 -.622E-05 -.885E+00   -.512E-13 -.125E-13 0.909E-12   0.166E-16 0.111E-15 0.600E-01   0.117E+00 0.643E-01 0.847E+00

 POSITION                                       TOTAL-FORCE (eV/Angst)
      0.00000      0.00000      5.37156        -0.000000      0.000000      0.043194
      2.56560      0.00000      5.37156        -0.001019      0.004973      0.054355
      5.13119      0.00000      5.37156         0.001019      0.004973      0.054355
      1.28280      2.22187      5.37156         0.003797     -0.003369      0.054355
      3.84839      2.22187      5.37156         0.000000      0.000000      0.032620
      6.41399      2.22187      5.37156        -0.003797     -0.003369      0.054355
      2.56560      4.44374      5.37156         0.004816     -0.001604      0.054355
      5.13119      4.44374      5.37156        -0.004816     -0.001604      0.054355
      7.69679      4.44374      5.37156         0.000000      0.000000      0.046186
      1.28280      0.74062      7.46636        -0.010154     -0.005863     -0.052994
      3.84839      0.74062      7.46636         0.000000     -0.015761     -0.085645
      6.41399      0.74062      7.46636         0.010154     -0.005863     -0.052994
      2.56560      2.96249      7.46636        -0.013649      0.007880     -0.085645
      5.13119      2.96249      7.46636         0.013649      0.007880     -0.085645
      7.69679      2.96249      7.46636         0.000000     -0.002729     -0.006441
      3.84839      5.18437      7.46636        -0.000000      0.011725     -0.052994
      6.41399      5.18437      7.46636        -0.002363      0.001365     -0.006441
      8.97958      5.18437      7.46636         0.002363      0.001365     -0.006441
      7.69679      1.48275      9.55327         0.000000     -0.007245      0.060082
      2.56715      1.48214      9.54261        -0.194215     -0.112130     -0.203813
      5.12964      1.48214      9.54261         0.194215     -0.112130     -0.203813
      8.97640      3.70496      9.55687         0.057499     -0.033197      0.038546
      3.84839      3.70133      9.54261        -0.000000      0.224260     -0.203813
      6.41717      3.70496      9.55687        -0.057499     -0.033197      0.038546
     10.26108      5.92424      9.55327         0.006274      0.003622      0.060082
      5.13249      5.92424      9.55327        -0.006274      0.003622      0.060082
      7.69679      5.92131      9.55687        -0.000000      0.066394      0.038546
      0.00000      0.00000     11.63217        -0.000000      0.000000     -0.061110
      2.57513      0.01976     11.64308        -0.035648     -0.055690     -0.003784
      5.12165      0.01976     11.64308         0.035648     -0.055690     -0.003784
      1.30468      2.22025     11.64308        -0.066053     -0.003027     -0.003784
      6.39211      2.22025     11.64308         0.066053     -0.003027     -0.003784
      2.57794      4.42560     11.64308        -0.030405      0.058717     -0.003784
      5.11885      4.42560     11.64308         0.030405      0.058717     -0.003784
      7.69679      4.44374     11.63403        -0.000000      0.000000     -0.043910
      3.84839      2.22187     11.52902        -0.000000      0.000000      0.428914
      3.84839      2.22187     13.14288        -0.000000      0.000000      0.001476
    total drift:                                0.116479      0.064314      0.021501

  FREE ENERGIE OF THE ION-ELECTRON SYSTEM (eV)
  free  energy   TOTEN  =      -136.68515311 eV

  energy  without entropy=     -136.68515311  energy(sigma->0) =     -136.68515311

 stress matrix after NEB project (eV)
     -7.11787      0.00000     -0.00000
      0.00000     -7.11787      0.00000
     -0.00000      0.00000     -0.10442
  FORCES: max atom, RMS     0.001476    0.000243
  FORCE total and by dimension    0.001476    0.001476
  Stress total and by dimension   10.066734    7.117873
|           W    W    AA    RRRRR   N    N  II  N    N   GGGG   !!!           |
|           W    W   A  A   R    R  NN   N  II  NN   N  G    G  !!!           |
|           W    W  A    A  R    R  N N  N  II  N N  N  G       !!!           |
|           W WW W  AAAAAA  RRRRR   N  N N  II  N  N N  G  GGG   !            |
|           WW  WW  A    A  R   R   N   NN  II  N   NN  G    G                |
|           W    W  A    A  R    R  N    N  II  N    N   GGGG   !!!           |
|     Tetrahedron method does not include variations of the Fermi             |
|     occupations, so forces and stress will be inaccurate. We suggest        |
|     using a different smearing scheme ISMEAR = 1 or 2 for metals in         |
|     relaxations.                                                            |

 total charge

# of ion       s       p       d       tot
    1        0.448   0.285   9.187   9.920
    2        0.449   0.285   9.186   9.920
    3        0.449   0.285   9.186   9.920
    4        0.449   0.285   9.186   9.920
    5        0.448   0.285   9.186   9.920
    6        0.449   0.285   9.186   9.920
    7        0.449   0.285   9.186   9.920
    8        0.449   0.285   9.186   9.920
    9        0.446   0.285   9.186   9.917
   10        0.440   0.371   9.178   9.990
   11        0.442   0.371   9.181   9.993
   12        0.440   0.371   9.178   9.990
   13        0.442   0.371   9.181   9.993
   14        0.442   0.371   9.181   9.993
   15        0.438   0.371   9.178   9.987
   16        0.440   0.371   9.178   9.990
   17        0.438   0.371   9.178   9.987
   18        0.438   0.371   9.178   9.987
   19        0.441   0.366   9.183   9.990
   20        0.455   0.392   9.170  10.017
   21        0.455   0.392   9.170  10.017
   22        0.434   0.376   9.178   9.988
   23        0.455   0.392   9.170  10.017
   24        0.434   0.376   9.178   9.988
   25        0.441   0.366   9.183   9.990
   26        0.441   0.366   9.183   9.990
   27        0.434   0.376   9.178   9.988
   28        0.451   0.282   9.187   9.920
   29        0.448   0.296   9.181   9.925
   30        0.448   0.296   9.181   9.925
   31        0.448   0.296   9.181   9.925
   32        0.448   0.296   9.181   9.925
   33        0.448   0.296   9.181   9.925
   34        0.448   0.296   9.181   9.925
   35        0.447   0.285   9.187   9.919
   36        0.417   0.439   5.379   6.234
   37        1.009   1.226   0.000   2.235
tot         16.993  13.318 326.719 357.030

 BZINTS: Fermi energy:   -0.525792;  396.000000 electrons
         Band energy:-0.132570E+04;  BLOECHL correction:   -0.033674