 vasp.6.2.0 18Jan21 (build Jun 12 2021 23:27:24) complex

 executed on             LinuxIFC date 2022.05.26  20:08:36

 INCAR:
   ISMEAR = -5
   SIGMA = 0.1
   ISPIN = 1
   EDIFF = 1.d-5
   EDIFFG = -0.01
   NSW = 0
   NELM = 150
   ENCUT = 500
   ISIF = 2
   IBRION = 2
   LREAL = Auto
   ALGO = Fast
   ICHARG = 11
   LORBIT = 10
   LCHARG = .F.
   LWAVE = .F.

 POTCAR:    PAW_PBE Cu 22Jun2005
 POTCAR:    PAW_PBE Os 17Jan2003
 POTCAR:    PAW_PBE H 15Jun2001
|           W    W    AA    RRRRR   N    N  II  N    N   GGGG   !!!           |
|           W    W   A  A   R    R  NN   N  II  NN   N  G    G  !!!           |
|           W    W  A    A  R    R  N N  N  II  N N  N  G       !!!           |
|           W WW W  AAAAAA  RRRRR   N  N N  II  N  N N  G  GGG   !            |
|           WW  WW  A    A  R   R   N   NN  II  N   NN  G    G                |
|           W    W  A    A  R    R  N    N  II  N    N   GGGG   !!!           |
|     For optimal performance we recommend to set                             |
|       NCORE = 2 up to number-of-cores-per-socket                            |
|     This setting can greatly improve the performance of VASP for DFT.       |
|     The default, NCORE=1 might be grossly inefficient on modern             |
|     multi-core architectures or massively parallel machines. Do your        |
|     Unfortunately you need to use the default for GW and RPA                |
|     calculations (for HF NCORE is supported but not extensively tested      |
|     yet).                                                                   |

 POTCAR:    PAW_PBE Cu 22Jun2005
   VRHFIN =Cu: d10 p1

   TITEL  = PAW_PBE Cu 22Jun2005
   POMASS =   63.546; ZVAL   =   11.000    mass and valenz
   ENMAX  =  295.446; ENMIN  =  221.585 eV

 POTCAR:    PAW_PBE Os 17Jan2003
   VRHFIN =Os: 6s5d

   TITEL  = PAW_PBE Os 17Jan2003
   POMASS =  190.200; ZVAL   =    8.000    mass and valenz
   ENMAX  =  228.022; ENMIN  =  171.017 eV

 POTCAR:    PAW_PBE H 15Jun2001
   VRHFIN =H: ultrasoft test

   TITEL  = PAW_PBE H 15Jun2001
   POMASS =    1.000; ZVAL   =    1.000    mass and valenz
   ENMAX  =  250.000; ENMIN  =  200.000 eV

 Optimization of the real space projectors (new method)

 maximal supplied QI-value         = 16.25
 optimisation between [QCUT,QGAM] = [ 11.38, 22.75] = [ 36.24,144.96] Ry
 Optimized for a Real-space Cutoff    1.52 Angstroem

   l    n(q)    QCUT    max X(q) W(low)/X(q) W(high)/X(q)  e(spline)
   2      9    11.376     4.610    0.21E-03    0.10E-03    0.26E-06
   2      9    11.376     8.522    0.33E-03    0.16E-03    0.37E-06
   0     10    11.376    51.609    0.62E-04    0.20E-04    0.13E-06
   0     10    11.376    27.747    0.54E-04    0.20E-04    0.13E-06
   1     10    11.376    20.408    0.13E-04    0.99E-04    0.19E-06
   1     10    11.376    13.425    0.12E-04    0.87E-04    0.17E-06
 Optimization of the real space projectors (new method)

[...]

   l    n(q)    QCUT    max X(q) W(low)/X(q) W(high)/X(q)  e(spline)
   2     10    11.327   152.873    0.32E-03    0.72E-03    0.11E-05
   2     10    11.327   151.010    0.32E-03    0.72E-03    0.11E-05
   0     11    11.327    72.114    0.43E-04    0.61E-04    0.13E-06
   0     11    11.327    44.596    0.40E-04    0.57E-04    0.12E-06
   1     10    11.327    13.742    0.16E-03    0.10E-03    0.19E-06
   1     10    11.327     8.461    0.12E-03    0.78E-04    0.15E-06
 Optimization of the real space projectors (new method)

 maximal supplied QI-value         = 34.20
 optimisation between [QCUT,QGAM] = [ 11.29, 22.57] = [ 35.68,142.71] Ry
 Optimized for a Real-space Cutoff    1.16 Angstroem

   l    n(q)    QCUT    max X(q) W(low)/X(q) W(high)/X(q)  e(spline)
   0      8    11.287    19.460    0.40E-03    0.73E-03    0.16E-06
   0      8    11.287    12.209    0.38E-03    0.70E-03    0.15E-06
   1      7    11.287     4.655    0.22E-03    0.25E-04    0.22E-06
  PAW_PBE Cu 22Jun2005                  :
  PAW_PBE Os 17Jan2003                  :
  PAW_PBE H 15Jun2001                   :

 POSCAR: Cu-Os-H
  positions in direct lattice
  velocities in cartesian coordinates
 exchange correlation table for  LEXCH =        8
   RHO(1)=    0.500       N(1)  =     2000
   RHO(2)=  100.500       N(2)  =     4000

 VTST: version 3.2, (02/03/18)

 CHAIN: initializing optimizer

 OPT: Using VASP Conjugate-Gradient optimizer
 CHAIN: Read ICHAIN            0

 POSCAR: Cu-Os-H
  positions in direct lattice
  velocities in cartesian coordinates

 ion  position               nearest neighbor table
   1  0.000  0.000  0.252-   7 2.57   3 2.57   4 2.57   2 2.57   6 2.57   8 2.57  12 2.57  10 2.57
                            16 2.57
   2  0.333  0.000  0.252-   8 2.57   9 2.57   5 2.57   1 2.57   3 2.57  11 2.57   4 2.57  10 2.57
                            17 2.57
   3  0.667  0.000  0.252-   1 2.57   7 2.57   6 2.57   9 2.57   2 2.57  12 2.57   5 2.57  18 2.57
                            11 2.57
   4  0.000  0.333  0.252-   5 2.57   6 2.57   1 2.57   7 2.57   2 2.57  13 2.57   9 2.57  10 2.57
                            15 2.57
   5  0.333  0.333  0.252-   4 2.57   2 2.57   7 2.57  13 2.57   8 2.57   6 2.57   3 2.57  11 2.57
                            14 2.57
   6  0.667  0.333  0.252-   4 2.57   9 2.57  15 2.57   3 2.57   1 2.57   8 2.57  14 2.57   5 2.57
                            12 2.57
   7  0.000  0.667  0.252-   1 2.57   3 2.57  16 2.57  18 2.57   4 2.57   5 2.57   8 2.57   9 2.57
                            13 2.57
   8  0.333  0.667  0.252-   9 2.57   2 2.57  17 2.57   6 2.57   1 2.57   7 2.57   5 2.57  14 2.57
                            16 2.57
   9  0.667  0.667  0.252-   8 2.57   6 2.57   2 2.57  17 2.57   3 2.57   7 2.57   4 2.57  15 2.57
                            18 2.57
  10  0.111  0.111  0.351-  20 2.53  11 2.57  12 2.57  13 2.57   1 2.57   2 2.57   4 2.57  15 2.57
                            16 2.57  17 2.57  26 2.57  19 2.57
  11  0.444  0.111  0.351-  20 2.54  21 2.54  10 2.57  13 2.57   2 2.57  17 2.57  14 2.57  12 2.57
                             5 2.57   3 2.57  18 2.57  27 2.57
  12  0.778  0.111  0.351-  21 2.53  15 2.57  10 2.57  14 2.57  18 2.57   3 2.57   1 2.57  16 2.57
                            11 2.57   6 2.57  19 2.57  25 2.57
  13  0.111  0.444  0.351-  23 2.54  20 2.54  16 2.57  18 2.57  10 2.57  11 2.57  14 2.57   5 2.57
                             4 2.57   7 2.57  15 2.57  22 2.57
  14  0.444  0.444  0.351-  21 2.54  23 2.54  15 2.57  17 2.57  12 2.57  16 2.57  13 2.57  11 2.57
                             6 2.57   8 2.57   5 2.57  24 2.57
  15  0.778  0.444  0.351-  19 2.56  14 2.57  17 2.57  12 2.57   6 2.57  18 2.57  10 2.57   9 2.57
                            13 2.57   4 2.57  24 2.57  22 2.57
  16  0.111  0.778  0.351-  23 2.53  18 2.57  13 2.57   7 2.57  14 2.57  17 2.57  12 2.57  10 2.57
                             8 2.57   1 2.57  25 2.57  26 2.57
  17  0.444  0.778  0.351-  26 2.56  14 2.57  15 2.57   8 2.57   9 2.57  11 2.57  16 2.57  18 2.57
                            10 2.57   2 2.57  27 2.57  24 2.57
  18  0.778  0.778  0.351-  25 2.56  16 2.57  13 2.57   7 2.57  15 2.57  12 2.57  17 2.57   9 2.57
                             3 2.57  11 2.57  22 2.57  27 2.57
  19  0.888  0.223  0.449-  21 2.55  20 2.55  28 2.55  22 2.56  24 2.56  15 2.56  12 2.57  10 2.57
                            32 2.57  31 2.57  25 2.57  26 2.57
  20  0.221  0.221  0.448-  10 2.53  36 2.53  11 2.54  13 2.54  26 2.55  19 2.55  27 2.57  22 2.57
                            23 2.59  21 2.59  29 2.60  31 2.60
  21  0.558  0.221  0.448-  12 2.53  36 2.53  14 2.54  11 2.54  19 2.55  25 2.55  24 2.57  27 2.57
                            20 2.59  23 2.59  32 2.60  30 2.60
  22  0.888  0.556  0.449-  35 2.55  24 2.55  27 2.55  19 2.56  25 2.56  18 2.57  15 2.57  23 2.57
                            20 2.57  13 2.57  31 2.58  33 2.58
  23  0.221  0.558  0.448-  16 2.53  36 2.53  13 2.54  14 2.54  25 2.55  26 2.55  22 2.57  24 2.57
                            20 2.59  21 2.59  33 2.60  34 2.60
  24  0.556  0.556  0.449-  35 2.55  22 2.55  27 2.55  19 2.56  26 2.56  15 2.57  17 2.57  21 2.57
                            23 2.57  14 2.57  32 2.58  34 2.58
  25  0.888  0.888  0.449-  21 2.55  23 2.55  28 2.55  22 2.56  27 2.56  18 2.56  16 2.57  12 2.57
                            33 2.57  30 2.57  19 2.57  26 2.57
  26  0.223  0.888  0.449-  20 2.55  23 2.55  28 2.55  27 2.56  24 2.56  17 2.56  10 2.57  16 2.57
                            29 2.57  34 2.57  25 2.57  19 2.57
  27  0.556  0.888  0.449-  35 2.55  24 2.55  22 2.55  26 2.56  25 2.56  17 2.57  18 2.57  20 2.57
                            21 2.57  11 2.57  29 2.58  30 2.58
  28  0.000  0.000  0.547-  25 2.55  19 2.55  26 2.55  33 2.56  30 2.56  31 2.56  29 2.56  32 2.56
                            34 2.56
  29  0.333  0.000  0.548-  31 2.56  28 2.56  34 2.57  36 2.57  35 2.57  30 2.57  26 2.57  27 2.58
                            20 2.60
  30  0.667  0.000  0.548-  32 2.56  28 2.56  33 2.57  36 2.57  35 2.57  29 2.57  25 2.57  27 2.58
                            21 2.60
  31  0.000  0.333  0.548-  29 2.56  28 2.56  32 2.57  36 2.57  35 2.57  33 2.57  19 2.57  22 2.58
                            20 2.60
  32  0.667  0.333  0.548-  30 2.56  28 2.56  31 2.57  36 2.57  35 2.57  34 2.57  19 2.57  24 2.58
                            21 2.60
  33  0.000  0.667  0.548-  34 2.56  28 2.56  30 2.57  36 2.57  35 2.57  31 2.57  25 2.57  22 2.58
                            23 2.60
  34  0.333  0.667  0.548-  33 2.56  28 2.56  29 2.57  36 2.57  35 2.57  32 2.57  26 2.57  24 2.58
                            23 2.60
  35  0.667  0.667  0.547-  24 2.55  27 2.55  22 2.55  34 2.57  32 2.57  29 2.57  30 2.57  33 2.57
                            31 2.57
  36  0.333  0.333  0.544-  37 1.64  23 2.53  20 2.53  21 2.53  31 2.57  29 2.57  33 2.57  34 2.57
                            32 2.57  30 2.57
  37  0.333  0.333  0.621-  36 1.64

  LATTYP: Found a hexagonal cell.
 ALAT       =     7.6967864036
 C/A-ratio  =     2.7653617908

  Lattice vectors:

 A1 = (  -3.8483927580,  -6.6656128093,   0.0000000000)
 A2 = (   7.6967864037,   0.0000000000,   0.0000000000)
 A3 = (   0.0000000000,   0.0000000000,  21.2843990326)

Analysis of symmetry for initial positions (statically):
 Subroutine PRICEL returns:
 Original cell was already a primitive cell.

 Routine SETGRP: Setting up the symmetry group for a
 hexagonal supercell.

 Subroutine GETGRP returns: Found  6 space group operations
 (whereof  6 operations were pure point group operations)
 out of a pool of 24 trial point group operations.

The static configuration has the point symmetry C_3v.

Analysis of symmetry for dynamics (positions and initial velocities):
 Subroutine PRICEL returns:
 Original cell was already a primitive cell.

[...]

The dynamic configuration has the point symmetry C_3v.

Analysis of constrained symmetry for selective dynamics:
 Subroutine PRICEL returns:
 Original cell was already a primitive cell.

 Routine SETGRP: Setting up the symmetry group for a
 hexagonal supercell.

 Subroutine GETGRP returns: Found  6 space group operations
 (whereof  6 operations were pure point group operations)
[...]
     24      -4.2508      2.00000
     25      -4.2130      2.00000
     26      -4.1899      2.00000
     27      -4.1543      2.00000
     28      -4.1428      2.00000
     29      -4.1065      2.00000
     30      -4.0974      2.00000
     31      -4.0868      2.00000
     32      -4.0714      2.00000
     33      -4.0573      2.00000
     34      -4.0270      2.00000
     35      -3.9640      2.00000
     36      -3.9467      2.00000
     37      -3.8741      2.00000
     38      -3.7783      2.00000
     39      -3.7473      2.00000
     40      -3.7178      2.00000
     41      -3.7018      2.00000
     42      -3.6789      2.00000
     43      -3.6714      2.00000
     44      -3.6580      2.00000
     45      -3.6500      2.00000
     46      -3.5550      2.00000
     47      -3.4481      2.00000
     48      -3.4385      2.00000
     49      -3.4255      2.00000
     50      -3.3948      2.00000
     51      -3.3751      2.00000
     52      -3.3645      2.00000
     53      -3.3554      2.00000
     54      -3.3460      2.00000
     55      -3.3298      2.00000
     56      -3.3086      2.00000
     57      -3.3015      2.00000
     58      -3.2891      2.00000
     59      -3.2800      2.00000
     60      -3.2775      2.00000
[...]
    238       6.9083      0.00000
    239       6.9188      0.00000
    240       7.0325      0.00000
    241       7.0971      0.00000
    242       7.2363      0.00000
    243       7.3245      0.00000
    244       7.3301      0.00000
    245       7.4570      0.00000
    246       7.4609      0.00000
    247       7.6635      0.00000
    248       7.8034      0.00000
    249       7.9724      0.00000
    250       8.1256      0.00000
    251       8.2111      0.00000
    252       8.4747      0.00000

 soft charge-density along one line, spin component           1
         0         1         2         3         4         5         6         7         8         9
 total charge-density along one line

------------------------ aborting loop because EDIFF is reached ----------------------------------------

 total charge

# of ion       s       p       d       tot
    1        0.450   0.282   9.191   9.923
    2        0.448   0.285   9.187   9.920
    3        0.448   0.285   9.187   9.920
    4        0.448   0.285   9.187   9.920
    5        0.450   0.285   9.179   9.914
    6        0.448   0.285   9.187   9.920
    7        0.448   0.285   9.187   9.920
    8        0.448   0.285   9.187   9.920
    9        0.447   0.281   9.192   9.921
   10        0.443   0.373   9.174   9.990
   11        0.445   0.366   9.186   9.996
   12        0.443   0.373   9.174   9.990
   13        0.445   0.366   9.186   9.996
   14        0.445   0.366   9.186   9.996
   15        0.438   0.369   9.179   9.986
   16        0.443   0.373   9.174   9.990
   17        0.438   0.369   9.179   9.986
   18        0.438   0.369   9.179   9.986
   19        0.439   0.368   9.182   9.989
   20        0.463   0.395   9.169  10.027
   21        0.463   0.395   9.169  10.027
   22        0.429   0.370   9.184   9.984
   23        0.463   0.395   9.169  10.027
   24        0.429   0.370   9.184   9.984
   25        0.439   0.368   9.182   9.989
   26        0.439   0.368   9.182   9.989
   27        0.429   0.370   9.184   9.984
   28        0.447   0.288   9.188   9.922
   29        0.456   0.309   9.171   9.936
   30        0.456   0.309   9.171   9.936
   31        0.456   0.309   9.171   9.936
   32        0.456   0.309   9.171   9.936
   33        0.456   0.309   9.171   9.936
   34        0.456   0.309   9.171   9.936
   35        0.439   0.291   9.188   9.918
   36        0.668   0.531   6.086   7.284
   37        0.520   0.019   0.000   0.539
tot         16.823  12.261 327.385 356.469

  FORCE on cell =-STRESS in cart. coord.  units (eV):
  Direction    XX          YY          ZZ          XY          YZ          ZX
  Alpha Z   889.29966   889.29966   889.29966
  Ewald  172482.81021172482.80981************     0.00037     0.00011     0.00015
  Hartree185344.24115185344.24113************     0.00003     0.00005     0.00006
  E(xc)   -2286.13661 -2286.13611 -2291.19450    -0.00043    -0.00003    -0.00006
  Local  ************************371151.44739     0.01841    -0.00055    -0.00089
  n-local  -790.21817  -773.43173  -793.63627     8.65759    -0.09183     0.29011
  augment  3323.06069  3323.08090  3346.56895    -0.01750     0.00027     0.00050
  Kinetic  3247.81105  3256.43425  3282.36987     5.04132     1.48419    -0.97106
  Fock        0.00000     0.00000     0.00000     0.00000     0.00000     0.00000
  Total      -6.10594    -6.10594     2.23859     0.00000    -0.00000    -0.00000
  in kB      -8.95886    -8.95886     3.28454     0.00000    -0.00000    -0.00000

 VOLUME and BASIS-vectors are now :
  energy-cutoff  :      500.00
  volume of cell :     1091.97
      direct lattice vectors                 reciprocal lattice vectors
     7.696786404  0.000000000  0.000000000     0.129924354 -0.075011849  0.000000000
     3.848392758  6.665612809  0.000000000     0.000000000  0.150023716  0.000000000
     0.000000000  0.000000000 21.284399033     0.000000000  0.000000000  0.046982769

  length of vectors
     7.696786404  7.696786404 21.284399033     0.150023716  0.150023716  0.046982769

 FORCES acting on ions
    electron-ion (+dipol)            ewald-force                    non-local-force                 convergence-correction
   -.416E-04 0.161E-06 0.346E+04   0.580E-04 -.435E-05 -.346E+04   -.917E-17 0.530E-17 -.274E+01   -.344E-03 -.219E-03 -.254E+00
   -.320E+00 -.795E-01 0.346E+04   0.873E-01 -.532E-01 -.346E+04   0.116E+00 0.135E+00 -.177E+01   0.126E+00 0.199E-01 -.273E+00
   0.320E+00 -.795E-01 0.346E+04   -.874E-01 -.532E-01 -.346E+04   -.116E+00 0.135E+00 -.177E+01   -.125E+00 0.224E-01 -.272E+00
   -.229E+00 -.238E+00 0.346E+04   -.249E-02 0.102E+00 -.346E+04   0.175E+00 0.333E-01 -.177E+01   0.805E-01 0.994E-01 -.273E+00
   -.612E-04 -.321E-05 0.346E+04   0.116E-03 -.101E-04 -.346E+04   -.163E-17 0.335E-18 -.130E+01   0.122E-01 0.745E-02 -.121E+00
   0.229E+00 -.238E+00 0.346E+04   0.237E-02 0.102E+00 -.346E+04   -.175E+00 0.333E-01 -.177E+01   -.821E-01 0.101E+00 -.272E+00
   0.913E-01 0.317E+00 0.346E+04   -.898E-01 -.490E-01 -.346E+04   0.587E-01 -.168E+00 -.177E+01   -.433E-01 -.120E+00 -.272E+00
   -.912E-01 0.317E+00 0.346E+04   0.895E-01 -.490E-01 -.346E+04   -.587E-01 -.168E+00 -.177E+01   0.467E-01 -.121E+00 -.272E+00
   -.144E-03 -.329E-04 0.346E+04   0.263E-03 0.205E-04 -.346E+04   -.127E-17 0.220E-19 -.238E+01   -.132E-01 -.677E-02 -.356E+00
   0.268E+01 0.155E+01 0.114E+04   -.219E+01 -.127E+01 -.114E+04   -.537E+00 -.310E+00 -.121E+01   0.231E-01 0.131E-01 0.849E-01
   -.914E-04 -.167E+00 0.114E+04   0.190E-03 -.392E+00 -.114E+04   -.254E-07 0.382E+00 -.263E+00   0.121E-01 0.133E+00 0.689E-01
   -.268E+01 0.155E+01 0.114E+04   0.219E+01 -.127E+01 -.114E+04   0.537E+00 -.310E+00 -.121E+01   -.248E-01 0.144E-01 0.849E-01
   -.145E+00 0.838E-01 0.114E+04   -.340E+00 0.196E+00 -.114E+04   0.331E+00 -.191E+00 -.263E+00   0.122E+00 -.551E-01 0.683E-01
   0.145E+00 0.838E-01 0.114E+04   0.340E+00 0.196E+00 -.114E+04   -.331E+00 -.191E+00 -.263E+00   -.977E-01 -.564E-01 0.673E-01
   -.143E-03 -.246E+00 0.114E+04   0.298E-03 -.941E-01 -.114E+04   -.151E-07 0.227E+00 -.103E+01   -.358E-02 0.896E-01 0.608E-01
   -.920E-04 -.309E+01 0.114E+04   0.186E-03 0.253E+01 -.114E+04   -.413E-07 0.621E+00 -.121E+01   -.507E-03 -.302E-01 0.857E-01
   -.213E+00 0.123E+00 0.114E+04   -.814E-01 0.473E-01 -.114E+04   0.197E+00 -.114E+00 -.103E+01   0.762E-01 -.478E-01 0.610E-01
   0.213E+00 0.123E+00 0.114E+04   0.812E-01 0.472E-01 -.114E+04   -.197E+00 -.114E+00 -.103E+01   -.750E-01 -.449E-01 0.627E-01
   -.578E-04 -.165E+01 -.120E+04   0.702E-04 0.158E+01 0.120E+04   -.269E-09 0.405E-02 0.851E+00   -.110E-01 0.509E-01 0.495E+00
   -.299E+02 -.173E+02 -.121E+04   0.311E+02 0.179E+02 0.121E+04   -.134E+01 -.772E+00 -.104E+01   0.344E-01 0.188E-01 0.604E+00
   0.299E+02 -.173E+02 -.121E+04   -.311E+02 0.179E+02 0.121E+04   0.134E+01 -.772E+00 -.104E+01   -.532E-01 0.183E-01 0.604E+00
   -.218E+02 0.126E+02 -.120E+04   0.211E+02 -.122E+02 0.120E+04   0.736E+00 -.425E+00 0.674E+00   0.584E-01 -.323E-01 0.479E+00
   -.901E-04 0.345E+02 -.121E+04   0.146E-03 -.359E+02 0.121E+04   -.103E-06 0.154E+01 -.104E+01   0.717E-05 -.366E-01 0.603E+00
   0.218E+02 0.126E+02 -.120E+04   -.211E+02 -.122E+02 0.120E+04   -.736E+00 -.425E+00 0.674E+00   -.585E-01 -.336E-01 0.479E+00
   0.143E+01 0.827E+00 -.120E+04   -.137E+01 -.788E+00 0.120E+04   -.350E-02 -.202E-02 0.851E+00   -.596E-01 -.354E-01 0.495E+00
   -.143E+01 0.827E+00 -.120E+04   0.136E+01 -.788E+00 0.120E+04   0.350E-02 -.202E-02 0.851E+00   0.384E-01 -.362E-01 0.495E+00
   -.115E-03 -.252E+02 -.120E+04   0.241E-03 0.244E+02 0.120E+04   -.566E-07 0.850E+00 0.674E+00   0.933E-03 0.673E-01 0.479E+00
   -.483E-04 0.101E-04 -.346E+04   0.416E-04 -.322E-04 0.346E+04   0.114E-17 0.259E-17 0.234E+01   -.176E-03 -.416E-03 0.499E+00
   -.284E+02 -.438E+02 -.348E+04   0.289E+02 0.443E+02 0.347E+04   -.604E+00 -.685E+00 0.140E+01   0.140E+00 0.221E+00 0.490E+00
   0.284E+02 -.438E+02 -.348E+04   -.289E+02 0.443E+02 0.347E+04   0.604E+00 -.685E+00 0.140E+01   -.139E+00 0.223E+00 0.489E+00
   -.522E+02 -.270E+01 -.348E+04   0.528E+02 0.288E+01 0.347E+04   -.896E+00 -.180E+00 0.140E+01   0.261E+00 0.101E-01 0.490E+00
   0.522E+02 -.270E+01 -.348E+04   -.528E+02 0.288E+01 0.347E+04   0.896E+00 -.180E+00 0.140E+01   -.262E+00 0.110E-01 0.490E+00
   -.237E+02 0.465E+02 -.348E+04   0.239E+02 -.472E+02 0.347E+04   -.292E+00 0.866E+00 0.140E+01   0.124E+00 -.231E+00 0.489E+00
   0.237E+02 0.465E+02 -.348E+04   -.239E+02 -.472E+02 0.347E+04   0.292E+00 0.866E+00 0.140E+01   -.121E+00 -.232E+00 0.489E+00
   -.152E-03 -.305E-04 -.347E+04   0.250E-03 0.352E-05 0.346E+04   0.195E-17 0.118E-17 0.274E+01   -.127E-01 -.635E-02 0.564E+00
   -.476E-04 -.204E-04 -.244E+04   0.102E-03 0.192E-04 0.244E+04   0.331E-18 0.379E-18 -.295E+01   0.140E-02 0.638E-03 0.332E+00
   0.418E-05 -.538E-05 -.377E+03   0.366E-05 0.156E-05 0.380E+03   0.866E-19 0.110E-18 -.258E+01   0.901E-04 0.522E-04 -.449E-01
   -.206E-03 0.188E-04 0.784E+01   0.174E-12 0.472E-12 0.853E-11   0.237E-17 0.446E-15 -.152E+02   -.258E-01 -.637E-02 0.730E+01

 POSITION                                       TOTAL-FORCE (eV/Angst)
      0.00000      0.00000      5.37156        -0.000000     -0.000000     -0.042180
      2.56560      0.00000      5.37156         0.010077      0.023273      0.056623
      5.13119      0.00000      5.37156        -0.010077      0.023273      0.056623
      1.28280      2.22187      5.37156         0.025194     -0.002909      0.056623
      3.84839      2.22187      5.37156         0.000000      0.000000      0.002463
      6.41399      2.22187      5.37156        -0.025194     -0.002909      0.056623
      2.56560      4.44374      5.37156         0.015116     -0.020364      0.056623
      5.13119      4.44374      5.37156        -0.015116     -0.020364      0.056623
      7.69679      4.44374      5.37156         0.000000      0.000000      0.004497
      1.28280      0.74062      7.46636        -0.030459     -0.017585     -0.056613
      3.84839      0.74062      7.46636         0.000000     -0.051724     -0.046380
      6.41399      0.74062      7.46636         0.030459     -0.017585     -0.056613
      2.56560      2.96249      7.46636        -0.044794      0.025862     -0.046380
      5.13119      2.96249      7.46636         0.044794      0.025862     -0.046380
      7.69679      2.96249      7.46636         0.000000     -0.024222     -0.007240
      3.84839      5.18437      7.46636        -0.000000      0.035171     -0.056613
      6.41399      5.18437      7.46636        -0.020977      0.012111     -0.007240
      8.97958      5.18437      7.46636         0.020977      0.012111     -0.007240
      7.69679      1.48657      9.56400         0.000000     -0.016975      0.016585
      2.55408      1.47460      9.52990        -0.127230     -0.073456     -0.200952
      5.14271      1.47460      9.52990         0.127230     -0.073456     -0.200952
      8.97350      3.70663      9.56526         0.059545     -0.034378     -0.008354
      3.84839      3.71642      9.52990        -0.000000      0.146912     -0.200952
      6.42007      3.70663      9.56526        -0.059545     -0.034378     -0.008354
     10.25777      5.92233      9.56400         0.014700      0.008487      0.016585
      5.13580      5.92233      9.56400        -0.014700      0.008487      0.016585
      7.69679      5.91797      9.56526        -0.000000      0.068756     -0.008354
      0.00000      0.00000     11.64184        -0.000000     -0.000000     -0.000434
      2.56182      0.00242     11.67254         0.010081      0.001600      0.021974
      5.13496      0.00242     11.67254        -0.010081      0.001600      0.021974
      1.28301      2.21740     11.67254         0.006426      0.007930      0.021974
      6.41378      2.21740     11.67254        -0.006426      0.007930      0.021974
      2.56958      4.44580     11.67254        -0.003655     -0.009531      0.021974
      5.12721      4.44580     11.67254         0.003655     -0.009531      0.021974
      7.69679      4.44374     11.64035        -0.000000     -0.000000      0.007468
      3.84839      2.22187     11.57579        -0.000000     -0.000000      0.440296
      3.84839      2.22187     13.21398        -0.000000     -0.000000      0.025175
    total drift:                               -0.025976     -0.006356     -0.036437

  FREE ENERGIE OF THE ION-ELECTRON SYSTEM (eV)
  free  energy   TOTEN  =      -135.36632011 eV

  energy  without entropy=     -135.36632011  energy(sigma->0) =     -135.36632011

 stress matrix after NEB project (eV)
     -6.10594      0.00000     -0.00000
      0.00000     -6.10594     -0.00000
     -0.00000     -0.00000      2.23859
  FORCES: max atom, RMS     0.025175    0.004139
  FORCE total and by dimension    0.025175    0.025175
  Stress total and by dimension    8.920561    6.105945
|           W    W    AA    RRRRR   N    N  II  N    N   GGGG   !!!           |
|           W    W   A  A   R    R  NN   N  II  NN   N  G    G  !!!           |
|           W    W  A    A  R    R  N N  N  II  N N  N  G       !!!           |
|           W WW W  AAAAAA  RRRRR   N  N N  II  N  N N  G  GGG   !            |
|           WW  WW  A    A  R   R   N   NN  II  N   NN  G    G                |
|           W    W  A    A  R    R  N    N  II  N    N   GGGG   !!!           |
|     Tetrahedron method does not include variations of the Fermi             |
|     occupations, so forces and stress will be inaccurate. We suggest        |
|     using a different smearing scheme ISMEAR = 1 or 2 for metals in         |
|     relaxations.                                                            |

 total charge

# of ion       s       p       d       tot
    1        0.450   0.282   9.191   9.923
    2        0.448   0.285   9.187   9.920
    3        0.448   0.285   9.187   9.920
    4        0.448   0.285   9.187   9.920
    5        0.450   0.285   9.179   9.914
    6        0.448   0.285   9.187   9.920
    7        0.448   0.285   9.187   9.920
    8        0.448   0.285   9.187   9.920
    9        0.447   0.281   9.192   9.921
   10        0.443   0.373   9.174   9.990
   11        0.445   0.366   9.186   9.996
   12        0.443   0.373   9.174   9.990
   13        0.445   0.366   9.186   9.996
   14        0.445   0.366   9.186   9.996
   15        0.438   0.369   9.179   9.986
   16        0.443   0.373   9.174   9.990
   17        0.438   0.369   9.179   9.986
   18        0.438   0.369   9.179   9.986
   19        0.439   0.368   9.182   9.989
   20        0.463   0.395   9.169  10.027
   21        0.463   0.395   9.169  10.027
   22        0.429   0.370   9.184   9.984
   23        0.463   0.395   9.169  10.027
   24        0.429   0.370   9.184   9.984
   25        0.439   0.368   9.182   9.989
   26        0.439   0.368   9.182   9.989
   27        0.429   0.370   9.184   9.984
   28        0.447   0.288   9.188   9.922
   29        0.456   0.309   9.171   9.936
   30        0.456   0.309   9.171   9.936
   31        0.456   0.309   9.171   9.936
   32        0.456   0.309   9.171   9.936
   33        0.456   0.309   9.171   9.936
   34        0.456   0.309   9.171   9.936
   35        0.439   0.291   9.188   9.918
   36        0.668   0.531   6.086   7.284
   37        0.520   0.019   0.000   0.539
tot         16.823  12.261 327.385 356.469

 BZINTS: Fermi energy:   -0.014247;  394.000000 electrons
         Band energy:-0.110358E+04;  BLOECHL correction:   -0.045430