 vasp.6.2.0 18Jan21 (build Jun 12 2021 23:27:24) complex

 executed on             LinuxIFC date 2022.05.27  05:50:11

 INCAR:
   ISMEAR = -5
   SIGMA = 0.1
   ISPIN = 1
   EDIFF = 1.d-5
   EDIFFG = -0.01
   NSW = 0
   NELM = 150
   ENCUT = 500
   ISIF = 2
   IBRION = 2
   LREAL = Auto
   ALGO = Fast
   ICHARG = 11
   LORBIT = 10
   LCHARG = .F.
   LWAVE = .F.

 POTCAR:    PAW_PBE Ag 02Apr2005
 POTCAR:    PAW_PBE W 08Apr2002
 POTCAR:    PAW_PBE O 08Apr2002
 POTCAR:    PAW_PBE H 15Jun2001
|           W    W    AA    RRRRR   N    N  II  N    N   GGGG   !!!           |
|           W    W   A  A   R    R  NN   N  II  NN   N  G    G  !!!           |
|           W    W  A    A  R    R  N N  N  II  N N  N  G       !!!           |
|           W WW W  AAAAAA  RRRRR   N  N N  II  N  N N  G  GGG   !            |
|           WW  WW  A    A  R   R   N   NN  II  N   NN  G    G                |
|           W    W  A    A  R    R  N    N  II  N    N   GGGG   !!!           |
|     For optimal performance we recommend to set                             |
|       NCORE = 2 up to number-of-cores-per-socket                            |
|     This setting can greatly improve the performance of VASP for DFT.       |
|     The default, NCORE=1 might be grossly inefficient on modern             |
|     multi-core architectures or massively parallel machines. Do your        |
|     Unfortunately you need to use the default for GW and RPA                |
|     calculations (for HF NCORE is supported but not extensively tested      |
|     yet).                                                                   |

 POTCAR:    PAW_PBE Ag 02Apr2005
   VRHFIN =Ag : s1 d10

   TITEL  = PAW_PBE Ag 02Apr2005
   POMASS =  107.868; ZVAL   =   11.000    mass and valenz
   ENMAX  =  249.844; ENMIN  =  187.383 eV

 POTCAR:    PAW_PBE W 08Apr2002
   VRHFIN =W : 6s5d

[...]

 POTCAR:    PAW_PBE O 08Apr2002
   VRHFIN =O: s2p4

   TITEL  = PAW_PBE O 08Apr2002
   POMASS =   16.000; ZVAL   =    6.000    mass and valenz
   ENMAX  =  400.000; ENMIN  =  300.000 eV

 POTCAR:    PAW_PBE H 15Jun2001
   VRHFIN =H: ultrasoft test

   TITEL  = PAW_PBE H 15Jun2001
   POMASS =    1.000; ZVAL   =    1.000    mass and valenz
   ENMAX  =  250.000; ENMIN  =  200.000 eV

 Optimization of the real space projectors (new method)

 maximal supplied QI-value         = 15.12
 optimisation between [QCUT,QGAM] = [ 11.34, 22.83] = [ 36.00,145.93] Ry
 Optimized for a Real-space Cutoff    1.43 Angstroem

   l    n(q)    QCUT    max X(q) W(low)/X(q) W(high)/X(q)  e(spline)
   2      9    11.338    53.897    0.16E-03    0.20E-03    0.28E-06
   2      9    11.338    52.416    0.16E-03    0.20E-03    0.29E-06
   0     10    11.338   122.045    0.31E-04    0.76E-04    0.15E-06
   0     10    11.338    73.629    0.30E-04    0.72E-04    0.15E-06
   1      9    11.338    15.255    0.20E-03    0.19E-04    0.17E-06
   1      9    11.338     9.562    0.16E-03    0.15E-04    0.14E-06
 Optimization of the real space projectors (new method)

[...]

   l    n(q)    QCUT    max X(q) W(low)/X(q) W(high)/X(q)  e(spline)
   0      7    11.387    20.381    0.39E-03    0.13E-02    0.15E-06
   0      7    11.387    15.268    0.42E-03    0.14E-02    0.17E-06
   1      6    11.387     5.964    0.41E-03    0.11E-02    0.17E-06
   1      6    11.387     5.382    0.39E-03    0.87E-03    0.15E-06
 Optimization of the real space projectors (new method)

 maximal supplied QI-value         = 34.20
 optimisation between [QCUT,QGAM] = [ 11.29, 22.57] = [ 35.68,142.71] Ry
 Optimized for a Real-space Cutoff    1.16 Angstroem

   l    n(q)    QCUT    max X(q) W(low)/X(q) W(high)/X(q)  e(spline)
   0      8    11.287    19.460    0.40E-03    0.73E-03    0.16E-06
   0      8    11.287    12.209    0.38E-03    0.70E-03    0.15E-06
   1      7    11.287     4.655    0.22E-03    0.25E-04    0.22E-06
  PAW_PBE Ag 02Apr2005                  :
  PAW_PBE W 08Apr2002                   :
  PAW_PBE O 08Apr2002                   :
  PAW_PBE H 15Jun2001                   :

 POSCAR: Ag-W-OH
  positions in direct lattice
  velocities in cartesian coordinates
 exchange correlation table for  LEXCH =        8
   RHO(1)=    0.500       N(1)  =     2000
   RHO(2)=  100.500       N(2)  =     4000

 VTST: version 3.2, (02/03/18)

 CHAIN: initializing optimizer

 OPT: Using VASP Conjugate-Gradient optimizer
 CHAIN: Read ICHAIN            0

 POSCAR: Ag-W-OH
  positions in direct lattice
  velocities in cartesian coordinates

 ion  position               nearest neighbor table
   1  0.000  0.000  0.209-   2 2.93   8 2.93   7 2.93   6 2.93   4 2.93  12 2.93  16 2.93  10 2.93
                             3 2.93
   2  0.333  0.000  0.209-   1 2.93   8 2.93   9 2.93   3 2.93   4 2.93   5 2.93  10 2.93  17 2.93
                            11 2.93
   3  0.667  0.000  0.209-   9 2.93   2 2.93   5 2.93  11 2.93   7 2.93  18 2.93   1 2.93   6 2.93
                            12 2.93
   4  0.000  0.333  0.209-   5 2.93   6 2.93   2 2.93   1 2.93   7 2.93  13 2.93  15 2.93   9 2.93
                            10 2.93
   5  0.333  0.333  0.209-   4 2.93   3 2.93   7 2.93   2 2.93   8 2.93  14 2.93  13 2.93  11 2.93
                             6 2.93
   6  0.667  0.333  0.209-   4 2.93   9 2.93   1 2.93  15 2.93   8 2.93  12 2.93   3 2.93   5 2.93
                            14 2.93
   7  0.000  0.667  0.209-   8 2.93   1 2.93   5 2.93   3 2.93   4 2.93  16 2.93  18 2.93  13 2.93
                             9 2.93
   8  0.333  0.667  0.209-   7 2.93   1 2.93   2 2.93   9 2.93   5 2.93  16 2.93   6 2.93  17 2.93
                            14 2.93
   9  0.667  0.667  0.209-   3 2.93   2 2.93   8 2.93   6 2.93  17 2.93   4 2.93  15 2.93   7 2.93
                            18 2.93
  10  0.111  0.111  0.304-  20 2.89  12 2.93  16 2.93  15 2.93  17 2.93  13 2.93  11 2.93   2 2.93
                             1 2.93   4 2.93  19 2.93  26 2.93
  11  0.444  0.111  0.304-  21 2.90  20 2.90  14 2.93  17 2.93  18 2.93   3 2.93  12 2.93  13 2.93
                            10 2.93   5 2.93   2 2.93  27 2.93
  12  0.778  0.111  0.304-  21 2.89  10 2.93  16 2.93  18 2.93  15 2.93  11 2.93   1 2.93  14 2.93
                             6 2.93   3 2.93  25 2.93  19 2.93
  13  0.111  0.444  0.304-  20 2.90  23 2.90  15 2.93  14 2.93  18 2.93  10 2.93  11 2.93  16 2.93
                             4 2.93   5 2.93   7 2.93  22 2.93
  14  0.444  0.444  0.304-  23 2.90  21 2.90  13 2.93  11 2.93  16 2.93   5 2.93  12 2.93  17 2.93
                             8 2.93  15 2.93   6 2.93  24 2.93
  15  0.778  0.444  0.304-  24 2.93  22 2.93  13 2.93  10 2.93  12 2.93  17 2.93  18 2.93   4 2.93
                             6 2.93   9 2.93  14 2.93  19 2.93
  16  0.111  0.778  0.304-  23 2.89  18 2.93  12 2.93  10 2.93  14 2.93  17 2.93  13 2.93   7 2.93
                             8 2.93   1 2.93  26 2.93  25 2.93
  17  0.444  0.778  0.304-  27 2.93  24 2.93  11 2.93  10 2.93   9 2.93  18 2.93  15 2.93  16 2.93
                             2 2.93  14 2.93   8 2.93  26 2.93
  18  0.778  0.778  0.304-  22 2.93  27 2.93  16 2.93  12 2.93  13 2.93  11 2.93  17 2.93  15 2.93
                             7 2.93   3 2.93   9 2.93  25 2.93
  19  0.889  0.223  0.399-  28 2.92  20 2.93  21 2.93  24 2.93  22 2.93  15 2.93  10 2.93  12 2.93
                            26 2.94  25 2.94  32 2.98  31 2.98
  20  0.222  0.222  0.397-  36 2.76  10 2.89  13 2.90  11 2.90  19 2.93  26 2.93  27 2.94  22 2.94
                            21 2.94  23 2.94  31 2.96  29 2.96
  21  0.556  0.222  0.397-  36 2.76  12 2.89  11 2.90  14 2.90  25 2.93  19 2.93  27 2.94  24 2.94
                            20 2.94  23 2.94  30 2.96  32 2.96
  22  0.888  0.556  0.399-  35 2.92  24 2.92  27 2.92  18 2.93  15 2.93  25 2.93  19 2.93  13 2.93
                            23 2.94  20 2.94  33 2.96  31 2.96
  23  0.222  0.556  0.397-  36 2.76  16 2.89  14 2.90  13 2.90  26 2.93  25 2.93  22 2.94  24 2.94
                            21 2.94  20 2.94  34 2.96  33 2.96
  24  0.556  0.556  0.399-  35 2.92  27 2.92  22 2.92  15 2.93  17 2.93  19 2.93  26 2.93  14 2.93
                            23 2.94  21 2.94  32 2.96  34 2.96
  25  0.889  0.889  0.399-  28 2.92  23 2.93  21 2.93  22 2.93  27 2.93  18 2.93  16 2.93  12 2.93
                            26 2.94  19 2.94  33 2.98  30 2.98
  26  0.223  0.889  0.399-  28 2.92  23 2.93  20 2.93  27 2.93  24 2.93  17 2.93  16 2.93  10 2.93
                            25 2.94  19 2.94  34 2.98  29 2.98
  27  0.556  0.888  0.399-  35 2.92  24 2.92  22 2.92  17 2.93  18 2.93  26 2.93  25 2.93  11 2.93
                            20 2.94  21 2.94  29 2.96  30 2.96
  28  0.000  0.000  0.493-  26 2.92  25 2.92  19 2.92  29 2.96  34 2.96  33 2.96  32 2.96  31 2.96
                            30 2.96
  29  0.333  0.007  0.495-  31 2.86  30 2.87  36 2.88  20 2.96  27 2.96  28 2.96  35 2.96  26 2.98
                            34 3.06
  30  0.659  0.007  0.495-  32 2.86  29 2.87  36 2.88  21 2.96  27 2.96  28 2.96  35 2.96  25 2.98
                            33 3.06
  31  0.007  0.333  0.495-  29 2.86  33 2.87  36 2.88  20 2.96  22 2.96  28 2.96  35 2.96  19 2.98
                            32 3.06
  32  0.659  0.333  0.495-  30 2.86  34 2.87  36 2.88  21 2.96  24 2.96  28 2.96  35 2.96  19 2.98
                            31 3.06
  33  0.007  0.659  0.495-  34 2.86  31 2.87  36 2.88  23 2.96  22 2.96  28 2.96  35 2.96  25 2.98
                            30 3.06
  34  0.333  0.659  0.495-  33 2.86  32 2.87  36 2.88  23 2.96  24 2.96  28 2.96  35 2.96  26 2.98
                            29 3.06
  35  0.667  0.667  0.493-  24 2.92  27 2.92  22 2.92  30 2.96  32 2.96  29 2.96  34 2.96  31 2.96
                            33 2.96
  36  0.333  0.333  0.483-  37 1.85  21 2.76  20 2.76  23 2.76  31 2.88  30 2.88  33 2.88  29 2.88
                            34 2.88  32 2.88
  37  0.333  0.333  0.557-  38 0.97  36 1.85
  38  0.333  0.333  0.595-  37 0.97

  LATTYP: Found a hexagonal cell.
 ALAT       =     8.7913665772
 C/A-ratio  =     2.8719070141

  Lattice vectors:

 A1 = (  -4.3956832886,  -7.6135467898,   0.0000000000)
 A2 = (   8.7913665771,   0.0000000000,   0.0000000000)
 A3 = (   0.0000000000,   0.0000000000,  25.2479873362)

Analysis of symmetry for initial positions (statically):
 Subroutine PRICEL returns:
 Original cell was already a primitive cell.

 Routine SETGRP: Setting up the symmetry group for a
 hexagonal supercell.

 Subroutine GETGRP returns: Found  6 space group operations
 (whereof  6 operations were pure point group operations)
 out of a pool of 24 trial point group operations.

The static configuration has the point symmetry C_3v.

Analysis of symmetry for dynamics (positions and initial velocities):
 Subroutine PRICEL returns:
 Original cell was already a primitive cell.

[...]

The dynamic configuration has the point symmetry C_3v.

Analysis of constrained symmetry for selective dynamics:
 Subroutine PRICEL returns:
 Original cell was already a primitive cell.

 Routine SETGRP: Setting up the symmetry group for a
 hexagonal supercell.

 Subroutine GETGRP returns: Found  6 space group operations
[...]
     33      -4.9065      2.00000
     34      -4.8743      2.00000
     35      -4.8707      2.00000
     36      -4.8352      2.00000
     37      -4.8206      2.00000
     38      -4.7942      2.00000
     39      -4.7640      2.00000
     40      -4.7557      2.00000
     41      -4.7110      2.00000
     42      -4.6965      2.00000
     43      -4.6723      2.00000
     44      -4.6529      2.00000
     45      -4.6350      2.00000
     46      -4.5942      2.00000
     47      -4.5671      2.00000
     48      -4.5414      2.00000
     49      -4.5281      2.00000
     50      -4.5197      2.00000
     51      -4.5153      2.00000
     52      -4.5107      2.00000
     53      -4.5017      2.00000
     54      -4.4885      2.00000
     55      -4.4864      2.00000
     56      -4.4758      2.00000
     57      -4.4152      2.00000
     58      -4.4066      2.00000
     59      -4.4000      2.00000
     60      -4.3751      2.00000
[...]
    226       4.5742      0.00000
    227       4.7779      0.00000
    228       4.8418      0.00000
    229       5.0344      0.00000
    230       5.1215      0.00000
    231       5.1939      0.00000
    232       5.2209      0.00000
    233       5.2304      0.00000
    234       5.3463      0.00000
    235       5.4252      0.00000
    236       5.4978      0.00000
    237       5.7468      0.00000
    238       5.7957      0.00000
    239       5.8189      0.00000
    240       5.9206      0.00000

 soft charge-density along one line, spin component           1
         0         1         2         3         4         5         6         7         8         9
 total charge-density along one line

------------------------ aborting loop because EDIFF is reached ----------------------------------------

 total charge

# of ion       s       p       d       tot
    1        0.422   0.199   9.178   9.799
    2        0.417   0.204   9.177   9.797
    3        0.417   0.204   9.177   9.797
    4        0.417   0.204   9.177   9.797
    5        0.419   0.203   9.177   9.799
    6        0.417   0.204   9.177   9.797
    7        0.417   0.204   9.177   9.797
    8        0.417   0.204   9.177   9.797
    9        0.413   0.205   9.177   9.795
   10        0.411   0.267   9.163   9.841
   11        0.404   0.271   9.168   9.843
   12        0.411   0.267   9.163   9.841
   13        0.404   0.271   9.168   9.843
   14        0.404   0.271   9.168   9.843
   15        0.402   0.268   9.166   9.835
   16        0.411   0.267   9.163   9.841
   17        0.402   0.268   9.166   9.835
   18        0.402   0.268   9.166   9.835
   19        0.404   0.261   9.168   9.833
   20        0.448   0.314   9.124   9.886
   21        0.448   0.314   9.124   9.886
   22        0.390   0.273   9.166   9.829
   23        0.448   0.314   9.124   9.886
   24        0.390   0.273   9.166   9.829
   25        0.404   0.261   9.168   9.833
   26        0.404   0.261   9.168   9.833
   27        0.390   0.273   9.166   9.829
   28        0.415   0.199   9.173   9.787
   29        0.427   0.224   9.162   9.813
   30        0.427   0.224   9.162   9.813
   31        0.427   0.224   9.162   9.813
   32        0.427   0.224   9.162   9.813
   33        0.427   0.224   9.162   9.813
   34        0.427   0.224   9.162   9.813
   35        0.406   0.202   9.176   9.784
   36        0.624   0.544   3.939   5.107
   37        1.555   3.559   0.000   5.114
   38        0.600   0.125   0.000   0.725
tot         17.290  12.764 324.721 354.775

  FORCE on cell =-STRESS in cart. coord.  units (eV):
  Direction    XX          YY          ZZ          XY          YZ          ZX
  Alpha Z   672.02200   672.02200   672.02200
  Ewald  164778.69035164778.69035************     0.00002    -0.00001     0.00003
  Hartree174776.29520174776.29519************     0.00001    -0.00000     0.00001
  E(xc)   -2088.49161 -2088.49163 -2092.93112     0.00002     0.00000     0.00001
  Local  ************************350788.68517     0.00050    -0.00006    -0.00016
  n-local  -363.81549  -345.28477  -351.47543    11.12631    -0.40562     0.53164
  augment  3232.22663  3232.22680  3240.03608    -0.00012     0.00001     0.00002
  Kinetic  4994.86338  4998.15346  4973.77681     4.84926     0.73157    -0.40915
  Fock        0.00000     0.00000     0.00000     0.00000     0.00000     0.00000
  Total      -6.92607    -6.92607    -0.45337    -0.00000     0.00000    -0.00000
  in kB      -6.56640    -6.56640    -0.42983    -0.00000     0.00000    -0.00000

 VOLUME and BASIS-vectors are now :
  energy-cutoff  :      500.00
  volume of cell :     1689.94
      direct lattice vectors                 reciprocal lattice vectors
     8.791366577  0.000000000  0.000000000     0.113747958 -0.065672414  0.000000000
     4.395683289  7.613546790  0.000000000     0.000000000  0.131344829  0.000000000
     0.000000000  0.000000000 25.247987336     0.000000000  0.000000000  0.039607117

  length of vectors
     8.791366577  8.791366577 25.247987336     0.131344829  0.131344829  0.039607117

 FORCES acting on ions
    electron-ion (+dipol)            ewald-force                    non-local-force                 convergence-correction
   0.462E-04 -.281E-04 0.273E+04   -.953E-04 0.593E-04 -.273E+04   -.846E-17 -.122E-17 -.203E+01   -.203E-03 -.221E-03 -.153E-02
   0.289E+00 0.235E+00 0.273E+04   -.259E+00 -.390E+00 -.273E+04   0.176E-01 0.187E+00 -.160E+01   -.450E-01 -.294E-01 -.756E-01
   -.289E+00 0.235E+00 0.273E+04   0.259E+00 -.390E+00 -.273E+04   -.176E-01 0.187E+00 -.160E+01   0.445E-01 -.275E-01 -.747E-01
   0.348E+00 0.133E+00 0.273E+04   -.468E+00 -.293E-01 -.273E+04   0.171E+00 -.783E-01 -.160E+01   -.477E-01 -.240E-01 -.755E-01
   -.503E-05 -.184E-04 0.273E+04   0.980E-04 -.197E-05 -.273E+04   0.152E-17 0.123E-17 -.142E+01   0.626E-02 0.383E-02 -.995E-01
   -.348E+00 0.133E+00 0.273E+04   0.468E+00 -.294E-01 -.273E+04   -.171E+00 -.783E-01 -.160E+01   0.463E-01 -.232E-01 -.747E-01
   0.591E-01 -.368E+00 0.273E+04   -.209E+00 0.420E+00 -.273E+04   0.153E+00 -.109E+00 -.160E+01   -.113E-02 0.528E-01 -.746E-01
   -.591E-01 -.368E+00 0.273E+04   0.208E+00 0.420E+00 -.273E+04   -.153E+00 -.109E+00 -.160E+01   0.268E-02 0.518E-01 -.746E-01
   0.368E-04 -.126E-04 0.273E+04   0.792E-04 -.643E-04 -.273E+04   -.141E-17 -.153E-17 -.182E+01   -.658E-02 -.339E-02 -.484E-01
   0.484E+01 0.279E+01 0.919E+03   -.414E+01 -.239E+01 -.919E+03   -.587E+00 -.339E+00 -.751E+00   -.120E+00 -.691E-01 0.436E-01
   -.280E-04 0.374E+01 0.922E+03   0.404E-04 -.382E+01 -.922E+03   0.741E-12 0.113E+00 -.292E+00   0.688E-02 -.859E-01 0.824E-01
   -.484E+01 0.279E+01 0.919E+03   0.414E+01 -.239E+01 -.919E+03   0.587E+00 -.339E+00 -.751E+00   0.118E+00 -.682E-01 0.445E-01
   0.323E+01 -.187E+01 0.922E+03   -.331E+01 0.191E+01 -.922E+03   0.977E-01 -.564E-01 -.292E+00   -.711E-01 0.489E-01 0.825E-01
   -.323E+01 -.187E+01 0.922E+03   0.331E+01 0.191E+01 -.922E+03   -.977E-01 -.564E-01 -.292E+00   0.816E-01 0.473E-01 0.812E-01
   0.159E-04 0.600E+00 0.918E+03   -.108E-03 -.730E+00 -.918E+03   0.291E-12 0.442E-01 -.705E+00   -.173E-02 0.555E-01 0.987E-01
   -.751E-05 -.559E+01 0.919E+03   0.205E-04 0.478E+01 -.919E+03   0.445E-11 0.677E+00 -.751E+00   -.372E-03 0.136E+00 0.445E-01
   0.520E+00 -.300E+00 0.918E+03   -.632E+00 0.365E+00 -.918E+03   0.383E-01 -.221E-01 -.705E+00   0.472E-01 -.293E-01 0.987E-01
   -.520E+00 -.300E+00 0.918E+03   0.632E+00 0.365E+00 -.918E+03   -.383E-01 -.221E-01 -.705E+00   -.465E-01 -.269E-01 0.101E+00
   0.381E-04 -.211E+01 -.919E+03   -.127E-03 0.207E+01 0.918E+03   0.272E-12 0.415E-01 0.822E+00   -.652E-02 -.259E-01 -.143E-01
   -.612E+01 -.354E+01 -.895E+03   0.761E+01 0.439E+01 0.896E+03   -.152E+01 -.876E+00 -.138E+01   -.705E-04 0.272E-03 -.341E-01
   0.612E+01 -.354E+01 -.895E+03   -.761E+01 0.439E+01 0.896E+03   0.152E+01 -.876E+00 -.138E+01   0.148E-02 -.166E-02 -.340E-01
   -.489E+01 0.282E+01 -.910E+03   0.480E+01 -.277E+01 0.909E+03   0.311E+00 -.180E+00 0.628E+00   -.139E+00 0.897E-01 -.270E-01
   -.524E-04 0.707E+01 -.895E+03   0.400E-04 -.879E+01 0.896E+03   0.115E-10 0.175E+01 -.138E+01   -.627E-03 0.250E-02 -.340E-01
   0.489E+01 0.282E+01 -.910E+03   -.480E+01 -.277E+01 0.909E+03   -.311E+00 -.180E+00 0.628E+00   0.151E+00 0.869E-01 -.274E-01
   0.182E+01 0.105E+01 -.919E+03   -.180E+01 -.104E+01 0.918E+03   -.359E-01 -.207E-01 0.822E+00   0.134E-01 0.783E-02 -.147E-01
   -.182E+01 0.105E+01 -.919E+03   0.180E+01 -.104E+01 0.918E+03   0.359E-01 -.207E-01 0.822E+00   -.261E-01 0.730E-02 -.145E-01
   0.198E-04 -.565E+01 -.910E+03   0.109E-03 0.554E+01 0.909E+03   0.236E-11 0.359E+00 0.628E+00   0.733E-02 -.166E+00 -.276E-01
   0.534E-04 -.358E-04 -.268E+04   -.114E-03 0.770E-04 0.268E+04   -.300E-17 -.168E-17 0.147E+01   -.495E-03 0.338E-03 0.922E-01
   0.138E+02 0.225E+02 -.267E+04   -.131E+02 -.218E+02 0.267E+04   -.824E+00 -.961E+00 0.168E+01   -.512E-01 -.105E+00 0.137E+00
   -.138E+02 0.225E+02 -.267E+04   0.131E+02 -.218E+02 0.267E+04   0.824E+00 -.961E+00 0.168E+01   0.516E-01 -.104E+00 0.135E+00
   0.264E+02 0.691E+00 -.267E+04   -.254E+02 -.456E+00 0.267E+04   -.124E+01 -.233E+00 0.168E+01   -.116E+00 0.953E-02 0.137E+00
   -.264E+02 0.691E+00 -.267E+04   0.254E+02 -.456E+00 0.267E+04   0.124E+01 -.233E+00 0.168E+01   0.105E+00 0.883E-02 0.136E+00
   0.126E+02 -.232E+02 -.267E+04   -.123E+02 0.222E+02 0.267E+04   -.420E+00 0.119E+01 0.168E+01   -.698E-01 0.875E-01 0.135E+00
   -.126E+02 -.232E+02 -.267E+04   0.123E+02 0.222E+02 0.267E+04   0.420E+00 0.119E+01 0.168E+01   0.601E-01 0.859E-01 0.136E+00
   0.235E-04 -.122E-04 -.268E+04   0.105E-03 -.655E-04 0.268E+04   0.864E-18 -.435E-18 0.182E+01   -.481E-02 -.311E-02 0.995E-01
   -.115E-04 -.535E-05 -.126E+04   0.578E-04 0.738E-05 0.126E+04   0.411E-18 -.352E-18 0.147E+01   0.137E-02 0.118E-02 0.538E-01
   0.196E-03 -.941E-04 -.170E+04   0.276E-04 0.357E-06 0.168E+04   -.898E-19 0.281E-17 0.171E+02   0.394E-02 0.262E-02 0.125E+00
   0.802E-05 -.129E-04 -.347E+03   0.197E-05 0.634E-08 0.356E+03   -.224E-20 -.165E-18 -.853E+01   0.219E-03 0.149E-03 -.312E-02
   0.563E-03 -.786E-03 -.449E+01   0.105E-12 -.266E-13 -.216E-11   0.112E-15 -.220E-15 0.348E+01   -.731E-02 -.629E-02 0.103E+01

 POSITION                                       TOTAL-FORCE (eV/Angst)
      0.00000      0.00000      5.28219         0.000000      0.000000     -0.040323
      2.93046      0.00000      5.28219         0.002892      0.003367      0.043460
      5.86091      0.00000      5.28219        -0.002892      0.003367      0.043460
      1.46523      2.53785      5.28219         0.004362      0.000821      0.043460
      4.39568      2.53785      5.28219         0.000000      0.000000      0.031146
      7.32614      2.53785      5.28219        -0.004362      0.000821      0.043460
      2.93046      5.07570      5.28219         0.001470     -0.004188      0.043460
      5.86091      5.07570      5.28219        -0.001470     -0.004188      0.043460
      8.79137      5.07570      5.28219         0.000000      0.000000      0.018283
      1.46523      0.84595      7.67490        -0.002052     -0.001185     -0.010917
      4.39568      0.84595      7.67490        -0.000000     -0.063031     -0.078875
      7.32614      0.84595      7.67490         0.002052     -0.001185     -0.010917
      2.93046      3.38380      7.67490        -0.054586      0.031515     -0.078875
      5.86091      3.38380      7.67490         0.054586      0.031515     -0.078875
      8.79137      3.38380      7.67490        -0.000000     -0.030976      0.039844
      4.39568      5.92165      7.67490         0.000000      0.002369     -0.010917
      7.32614      5.92165      7.67490        -0.026826      0.015488      0.039844
     10.25659      5.92165      7.67490         0.026826      0.015488      0.039844
      8.79137      1.69504     10.07204        -0.000000     -0.014730     -0.001072
      2.92602      1.68934     10.02478        -0.030881     -0.017829     -0.082455
      5.86534      1.68934     10.02478         0.030881     -0.017829     -0.082455
     10.25093      4.23302     10.06482         0.068397     -0.039489      0.014326
      4.39568      4.23487     10.02478         0.000000      0.035659     -0.082455
      7.33181      4.23302     10.06482        -0.068397     -0.039489      0.014326
     11.71910      6.76603     10.07204         0.012756      0.007365     -0.001072
      5.86363      6.76603     10.07204        -0.012756      0.007365     -0.001072
      8.79137      6.76105     10.06482         0.000000      0.078978      0.014326
      0.00000      0.00000     12.45341         0.000000      0.000000      0.004523
      2.96185      0.05622     12.48740        -0.157839     -0.297383     -0.257078
      5.82952      0.05622     12.48740         0.157839     -0.297383     -0.257078
      1.52961      2.53693     12.48740        -0.336460      0.011999     -0.257078
      7.26176      2.53693     12.48740         0.336460      0.011999     -0.257078
      2.96344      5.02040     12.48740        -0.178622      0.285384     -0.257078
      5.82792      5.02040     12.48740         0.178622      0.285384     -0.257078
      8.79137      5.07570     12.44798         0.000000      0.000000      0.061229
      4.39568      2.53785     12.20252         0.000000      0.000000      1.603468
      4.39568      2.53785     14.05550         0.000000      0.000000     -0.043656
      4.39568      2.53785     15.02182         0.000000      0.000000      0.004486
    total drift:                               -0.006750     -0.007079      0.024225

  FREE ENERGIE OF THE ION-ELECTRON SYSTEM (eV)
  free  energy   TOTEN  =      -109.60579618 eV

  energy  without entropy=     -109.60579618  energy(sigma->0) =     -109.60579618

 stress matrix after NEB project (eV)
     -6.92607     -0.00000     -0.00000
     -0.00000     -6.92607      0.00000
     -0.00000      0.00000     -0.45337
  FORCES: max atom, RMS     0.043656    0.007119
  FORCE total and by dimension    0.043886    0.043656
  Stress total and by dimension    9.805428    6.926069
|           W    W    AA    RRRRR   N    N  II  N    N   GGGG   !!!           |
|           W    W   A  A   R    R  NN   N  II  NN   N  G    G  !!!           |
|           W    W  A    A  R    R  N N  N  II  N N  N  G       !!!           |
|           W WW W  AAAAAA  RRRRR   N  N N  II  N  N N  G  GGG   !            |
|           WW  WW  A    A  R   R   N   NN  II  N   NN  G    G                |
|           W    W  A    A  R    R  N    N  II  N    N   GGGG   !!!           |
|     Tetrahedron method does not include variations of the Fermi             |
|     occupations, so forces and stress will be inaccurate. We suggest        |
|     using a different smearing scheme ISMEAR = 1 or 2 for metals in         |
|     relaxations.                                                            |

 total charge

# of ion       s       p       d       tot
    1        0.422   0.199   9.178   9.799
    2        0.417   0.204   9.177   9.797
    3        0.417   0.204   9.177   9.797
    4        0.417   0.204   9.177   9.797
    5        0.419   0.203   9.177   9.799
    6        0.417   0.204   9.177   9.797
    7        0.417   0.204   9.177   9.797
    8        0.417   0.204   9.177   9.797
    9        0.413   0.205   9.177   9.795
   10        0.411   0.267   9.163   9.841
   11        0.404   0.271   9.168   9.843
   12        0.411   0.267   9.163   9.841
   13        0.404   0.271   9.168   9.843
   14        0.404   0.271   9.168   9.843
   15        0.402   0.268   9.166   9.835
   16        0.411   0.267   9.163   9.841
   17        0.402   0.268   9.166   9.835
   18        0.402   0.268   9.166   9.835
   19        0.404   0.261   9.168   9.833
   20        0.448   0.314   9.124   9.886
   21        0.448   0.314   9.124   9.886
   22        0.390   0.273   9.166   9.829
   23        0.448   0.314   9.124   9.886
   24        0.390   0.273   9.166   9.829
   25        0.404   0.261   9.168   9.833
   26        0.404   0.261   9.168   9.833
   27        0.390   0.273   9.166   9.829
   28        0.415   0.199   9.173   9.787
   29        0.427   0.224   9.162   9.813
   30        0.427   0.224   9.162   9.813
   31        0.427   0.224   9.162   9.813
   32        0.427   0.224   9.162   9.813
   33        0.427   0.224   9.162   9.813
   34        0.427   0.224   9.162   9.813
   35        0.406   0.202   9.176   9.784
   36        0.624   0.544   3.939   5.107
   37        1.555   3.559   0.000   5.114
   38        0.600   0.125   0.000   0.725
tot         17.290  12.764 324.721 354.775

 BZINTS: Fermi energy:    0.479423;  398.000000 electrons
         Band energy:-0.148632E+04;  BLOECHL correction:   -0.023016