 vasp.6.2.0 18Jan21 (build Jun 12 2021 23:27:24) complex

 executed on             LinuxIFC date 2022.05.27  06:22:16

 INCAR:
   ISMEAR = -5
   SIGMA = 0.1
   ISPIN = 1
   EDIFF = 1.d-5
   EDIFFG = -0.01
   NSW = 0
   NELM = 150
   ENCUT = 500
   ISIF = 2
   IBRION = 2
   LREAL = Auto
   ALGO = Fast
   ICHARG = 11
   LORBIT = 10
   LCHARG = .F.
   LWAVE = .F.

 POTCAR:    PAW_PBE Cu 22Jun2005
 POTCAR:    PAW_PBE Pt 04Feb2005
 POTCAR:    PAW_PBE O 08Apr2002
 POTCAR:    PAW_PBE H 15Jun2001
|           W    W    AA    RRRRR   N    N  II  N    N   GGGG   !!!           |
|           W    W   A  A   R    R  NN   N  II  NN   N  G    G  !!!           |
|           W    W  A    A  R    R  N N  N  II  N N  N  G       !!!           |
|           W WW W  AAAAAA  RRRRR   N  N N  II  N  N N  G  GGG   !            |
|           WW  WW  A    A  R   R   N   NN  II  N   NN  G    G                |
|           W    W  A    A  R    R  N    N  II  N    N   GGGG   !!!           |
|     For optimal performance we recommend to set                             |
|       NCORE = 2 up to number-of-cores-per-socket                            |
|     This setting can greatly improve the performance of VASP for DFT.       |
|     The default, NCORE=1 might be grossly inefficient on modern             |
|     multi-core architectures or massively parallel machines. Do your        |
|     Unfortunately you need to use the default for GW and RPA                |
|     calculations (for HF NCORE is supported but not extensively tested      |
|     yet).                                                                   |

 POTCAR:    PAW_PBE Cu 22Jun2005
   VRHFIN =Cu: d10 p1

   TITEL  = PAW_PBE Cu 22Jun2005
   POMASS =   63.546; ZVAL   =   11.000    mass and valenz
   ENMAX  =  295.446; ENMIN  =  221.585 eV

 POTCAR:    PAW_PBE Pt 04Feb2005
   VRHFIN =Pt: s1d9

   TITEL  = PAW_PBE Pt 04Feb2005
   POMASS =  195.080; ZVAL   =   10.000    mass and valenz
   ENMAX  =  230.283; ENMIN  =  172.712 eV

 POTCAR:    PAW_PBE O 08Apr2002
   VRHFIN =O: s2p4

   TITEL  = PAW_PBE O 08Apr2002
   POMASS =   16.000; ZVAL   =    6.000    mass and valenz
   ENMAX  =  400.000; ENMIN  =  300.000 eV

 POTCAR:    PAW_PBE H 15Jun2001
   VRHFIN =H: ultrasoft test

   TITEL  = PAW_PBE H 15Jun2001
   POMASS =    1.000; ZVAL   =    1.000    mass and valenz
   ENMAX  =  250.000; ENMIN  =  200.000 eV

 Optimization of the real space projectors (new method)

 maximal supplied QI-value         = 16.25
 optimisation between [QCUT,QGAM] = [ 11.38, 22.75] = [ 36.24,144.96] Ry
 Optimized for a Real-space Cutoff    1.52 Angstroem

   l    n(q)    QCUT    max X(q) W(low)/X(q) W(high)/X(q)  e(spline)
   2      9    11.376     4.610    0.21E-03    0.10E-03    0.26E-06
   2      9    11.376     8.522    0.33E-03    0.16E-03    0.37E-06
   0     10    11.376    51.609    0.62E-04    0.20E-04    0.13E-06
   0     10    11.376    27.747    0.54E-04    0.20E-04    0.13E-06
   1     10    11.376    20.408    0.13E-04    0.99E-04    0.19E-06
   1     10    11.376    13.425    0.12E-04    0.87E-04    0.17E-06
 Optimization of the real space projectors (new method)

[...]

   l    n(q)    QCUT    max X(q) W(low)/X(q) W(high)/X(q)  e(spline)
   0      7    11.387    20.381    0.39E-03    0.13E-02    0.15E-06
   0      7    11.387    15.268    0.42E-03    0.14E-02    0.17E-06
   1      6    11.387     5.964    0.41E-03    0.11E-02    0.17E-06
   1      6    11.387     5.382    0.39E-03    0.87E-03    0.15E-06
 Optimization of the real space projectors (new method)

 maximal supplied QI-value         = 34.20
 optimisation between [QCUT,QGAM] = [ 11.29, 22.57] = [ 35.68,142.71] Ry
 Optimized for a Real-space Cutoff    1.16 Angstroem

   l    n(q)    QCUT    max X(q) W(low)/X(q) W(high)/X(q)  e(spline)
   0      8    11.287    19.460    0.40E-03    0.73E-03    0.16E-06
   0      8    11.287    12.209    0.38E-03    0.70E-03    0.15E-06
   1      7    11.287     4.655    0.22E-03    0.25E-04    0.22E-06
  PAW_PBE Cu 22Jun2005                  :
  PAW_PBE Pt 04Feb2005                  :
  PAW_PBE O 08Apr2002                   :
  PAW_PBE H 15Jun2001                   :

 POSCAR: Cu-Pt-OH
  positions in direct lattice
  velocities in cartesian coordinates
 exchange correlation table for  LEXCH =        8
   RHO(1)=    0.500       N(1)  =     2000
   RHO(2)=  100.500       N(2)  =     4000

 VTST: version 3.2, (02/03/18)

 CHAIN: initializing optimizer

 OPT: Using VASP Conjugate-Gradient optimizer
 CHAIN: Read ICHAIN            0

 POSCAR: Cu-Pt-OH
  positions in direct lattice
  velocities in cartesian coordinates

 ion  position               nearest neighbor table
   1  0.000  0.000  0.252-   7 2.57   3 2.57   4 2.57   2 2.57   6 2.57   8 2.57  12 2.57  10 2.57
                            16 2.57
   2  0.333  0.000  0.252-   8 2.57   9 2.57   5 2.57   1 2.57   3 2.57  11 2.57   4 2.57  10 2.57
                            17 2.57
   3  0.667  0.000  0.252-   1 2.57   7 2.57   6 2.57   9 2.57   2 2.57  12 2.57   5 2.57  18 2.57
                            11 2.57
   4  0.000  0.333  0.252-   5 2.57   6 2.57   1 2.57   7 2.57   2 2.57  13 2.57   9 2.57  10 2.57
                            15 2.57
   5  0.333  0.333  0.252-   4 2.57   2 2.57   7 2.57  13 2.57   8 2.57   6 2.57   3 2.57  11 2.57
                            14 2.57
   6  0.667  0.333  0.252-   4 2.57   9 2.57  15 2.57   3 2.57   1 2.57   8 2.57  14 2.57   5 2.57
                            12 2.57
   7  0.000  0.667  0.252-   1 2.57   3 2.57  16 2.57  18 2.57   4 2.57   5 2.57   8 2.57   9 2.57
                            13 2.57
   8  0.333  0.667  0.252-   9 2.57   2 2.57  17 2.57   6 2.57   1 2.57   7 2.57   5 2.57  14 2.57
                            16 2.57
   9  0.667  0.667  0.252-   8 2.57   6 2.57   2 2.57  17 2.57   3 2.57   7 2.57   4 2.57  15 2.57
                            18 2.57
  10  0.111  0.111  0.351-  20 2.53  26 2.56  19 2.56  11 2.57  12 2.57  13 2.57   1 2.57   2 2.57
                             4 2.57  15 2.57  16 2.57  17 2.57
  11  0.444  0.111  0.351-  20 2.55  21 2.55  27 2.56  10 2.57  13 2.57   2 2.57  17 2.57  14 2.57
                            12 2.57   5 2.57   3 2.57  18 2.57
  12  0.778  0.111  0.351-  21 2.53  19 2.56  25 2.56  15 2.57  10 2.57  14 2.57  18 2.57   3 2.57
                             1 2.57  16 2.57  11 2.57   6 2.57
  13  0.111  0.444  0.351-  23 2.55  20 2.55  22 2.56  16 2.57  18 2.57  10 2.57  11 2.57  14 2.57
                             5 2.57   4 2.57   7 2.57  15 2.57
  14  0.444  0.444  0.351-  21 2.55  23 2.55  24 2.56  15 2.57  17 2.57  12 2.57  16 2.57  13 2.57
                            11 2.57   6 2.57   8 2.57   5 2.57
  15  0.778  0.444  0.351-  19 2.56  24 2.56  22 2.56  14 2.57  17 2.57  12 2.57   6 2.57  18 2.57
                            10 2.57   9 2.57  13 2.57   4 2.57
  16  0.111  0.778  0.351-  23 2.53  25 2.56  26 2.56  18 2.57  13 2.57   7 2.57  14 2.57  17 2.57
                            12 2.57  10 2.57   8 2.57   1 2.57
  17  0.444  0.778  0.351-  26 2.56  27 2.56  24 2.56  14 2.57  15 2.57   8 2.57   9 2.57  11 2.57
                            16 2.57  18 2.57  10 2.57   2 2.57
  18  0.778  0.778  0.351-  25 2.56  22 2.56  27 2.56  16 2.57  13 2.57   7 2.57  15 2.57  12 2.57
                            17 2.57   9 2.57   3 2.57  11 2.57
  19  0.888  0.223  0.449-  28 2.54  32 2.55  31 2.55  21 2.55  20 2.55  15 2.56  12 2.56  10 2.56
                            22 2.56  24 2.56  25 2.58  26 2.58
  20  0.221  0.221  0.448-  10 2.53  11 2.55  13 2.55  26 2.55  19 2.55  27 2.57  22 2.57  29 2.59
                            31 2.59  36 2.60  23 2.60  21 2.60
  21  0.558  0.221  0.448-  12 2.53  14 2.55  11 2.55  19 2.55  25 2.55  24 2.57  27 2.57  32 2.59
                            30 2.59  36 2.60  20 2.60  23 2.60
  22  0.889  0.556  0.449-  35 2.54  18 2.56  15 2.56  13 2.56  19 2.56  25 2.56  24 2.56  27 2.56
                            31 2.57  33 2.57  23 2.57  20 2.57
  23  0.221  0.558  0.448-  16 2.53  13 2.55  14 2.55  25 2.55  26 2.55  22 2.57  24 2.57  33 2.59
                            34 2.59  36 2.60  20 2.60  21 2.60
  24  0.556  0.556  0.449-  35 2.54  15 2.56  17 2.56  14 2.56  19 2.56  26 2.56  22 2.56  27 2.56
                            32 2.57  34 2.57  21 2.57  23 2.57
  25  0.888  0.888  0.449-  28 2.54  33 2.55  30 2.55  21 2.55  23 2.55  18 2.56  16 2.56  12 2.56
                            22 2.56  27 2.56  19 2.58  26 2.58
  26  0.223  0.888  0.449-  28 2.54  29 2.55  34 2.55  20 2.55  23 2.55  17 2.56  10 2.56  16 2.56
                            27 2.56  24 2.56  25 2.58  19 2.58
  27  0.556  0.889  0.449-  35 2.54  17 2.56  18 2.56  11 2.56  26 2.56  25 2.56  24 2.56  22 2.56
                            29 2.57  30 2.57  20 2.57  21 2.57
  28  0.000  0.000  0.546-  25 2.54  19 2.54  26 2.54  33 2.55  30 2.55  31 2.55  29 2.55  32 2.55
                            34 2.55
  29  0.333  0.997  0.547-  34 2.52  26 2.55  28 2.55  35 2.56  27 2.57  31 2.59  20 2.59  36 2.59
                            30 2.59
  30  0.670  0.997  0.547-  33 2.52  25 2.55  28 2.55  35 2.56  27 2.57  32 2.59  21 2.59  36 2.59
                            29 2.59
  31  0.997  0.333  0.547-  32 2.52  19 2.55  28 2.55  35 2.56  22 2.57  29 2.59  20 2.59  36 2.59
                            33 2.59
  32  0.670  0.333  0.547-  31 2.52  19 2.55  28 2.55  35 2.56  24 2.57  30 2.59  21 2.59  36 2.59
                            34 2.59
  33  0.997  0.670  0.547-  30 2.52  25 2.55  28 2.55  35 2.56  22 2.57  34 2.59  23 2.59  36 2.59
                            31 2.59
  34  0.333  0.670  0.547-  29 2.52  26 2.55  28 2.55  35 2.56  24 2.57  33 2.59  23 2.59  36 2.59
                            32 2.59
  35  0.667  0.667  0.546-  24 2.54  27 2.54  22 2.54  34 2.56  32 2.56  29 2.56  30 2.56  33 2.56
                            31 2.56
  36  0.333  0.333  0.547-  37 2.04  31 2.59  29 2.59  33 2.59  34 2.59  32 2.59  30 2.59  23 2.60
                            20 2.60  21 2.60
  37  0.333  0.333  0.643-  38 0.97  36 2.04
  38  0.333  0.333  0.689-  37 0.97

  LATTYP: Found a hexagonal cell.
 ALAT       =     7.6967864036
 C/A-ratio  =     2.7653617908

  Lattice vectors:

 A1 = (  -3.8483927580,  -6.6656128093,   0.0000000000)
 A2 = (   7.6967864037,   0.0000000000,   0.0000000000)
 A3 = (   0.0000000000,   0.0000000000,  21.2843990326)

Analysis of symmetry for initial positions (statically):
 Subroutine PRICEL returns:
 Original cell was already a primitive cell.

 Routine SETGRP: Setting up the symmetry group for a
 hexagonal supercell.

 Subroutine GETGRP returns: Found  6 space group operations
 (whereof  6 operations were pure point group operations)
 out of a pool of 24 trial point group operations.

The static configuration has the point symmetry C_3v.

Analysis of symmetry for dynamics (positions and initial velocities):
 Subroutine PRICEL returns:
 Original cell was already a primitive cell.

[...]

The dynamic configuration has the point symmetry C_3v.

Analysis of constrained symmetry for selective dynamics:
 Subroutine PRICEL returns:
 Original cell was already a primitive cell.

[...]
     33      -3.8717      2.00000
     34      -3.8666      2.00000
     35      -3.8548      2.00000
     36      -3.8289      2.00000
     37      -3.7924      2.00000
     38      -3.7275      2.00000
     39      -3.6142      2.00000
     40      -3.5784      2.00000
     41      -3.5583      2.00000
     42      -3.5500      2.00000
     43      -3.4890      2.00000
     44      -3.4668      2.00000
     45      -3.4491      2.00000
     46      -3.4431      2.00000
     47      -3.4425      2.00000
     48      -3.2912      2.00000
     49      -3.2816      2.00000
     50      -3.2710      2.00000
     51      -3.2351      2.00000
     52      -3.2190      2.00000
     53      -3.1986      2.00000
     54      -3.1608      2.00000
     55      -3.1510      2.00000
     56      -3.1318      2.00000
     57      -3.1246      2.00000
     58      -3.1236      2.00000
     59      -3.0984      2.00000
     60      -3.0812      2.00000
[...]
    238       6.3305      0.00000
    239       6.5851      0.00000
    240       6.6647      0.00000
    241       6.6949      0.00000
    242       6.9517      0.00000
    243       7.0454      0.00000
    244       7.0950      0.00000
    245       7.2606      0.00000
    246       7.3812      0.00000
    247       7.4303      0.00000
    248       7.4922      0.00000
    249       7.5799      0.00000
    250       7.8221      0.00000
    251       7.9099      0.00000
    252       8.1001      0.00000

 soft charge-density along one line, spin component           1
         0         1         2         3         4         5         6         7         8         9
 total charge-density along one line

------------------------ aborting loop because EDIFF is reached ----------------------------------------

 total charge

# of ion       s       p       d       tot
    1        0.445   0.286   9.187   9.918
    2        0.450   0.285   9.187   9.921
    3        0.450   0.285   9.187   9.921
    4        0.450   0.285   9.187   9.921
    5        0.444   0.288   9.186   9.919
    6        0.450   0.285   9.187   9.921
    7        0.450   0.285   9.187   9.921
    8        0.450   0.285   9.187   9.921
    9        0.445   0.286   9.188   9.918
   10        0.441   0.375   9.177   9.993
   11        0.444   0.369   9.183   9.996
   12        0.441   0.375   9.177   9.993
   13        0.444   0.369   9.183   9.996
   14        0.444   0.369   9.183   9.996
   15        0.438   0.371   9.182   9.991
   16        0.441   0.375   9.177   9.993
   17        0.438   0.371   9.182   9.991
   18        0.438   0.371   9.182   9.991
   19        0.443   0.376   9.179   9.998
   20        0.440   0.387   9.175  10.001
   21        0.440   0.387   9.175  10.001
   22        0.439   0.370   9.185   9.994
   23        0.440   0.387   9.175  10.001
   24        0.439   0.370   9.185   9.994
   25        0.443   0.376   9.179   9.998
   26        0.443   0.376   9.179   9.998
   27        0.439   0.370   9.185   9.994
   28        0.455   0.291   9.194   9.940
   29        0.442   0.294   9.196   9.932
   30        0.442   0.294   9.196   9.932
   31        0.442   0.294   9.196   9.932
   32        0.442   0.294   9.196   9.932
   33        0.442   0.294   9.196   9.932
   34        0.442   0.294   9.196   9.932
   35        0.450   0.295   9.191   9.935
   36        0.679   0.577   8.042   9.298
   37        1.537   3.517   0.000   5.054
   38        0.605   0.127   0.000   0.733
tot         18.344  15.883 329.525 363.751

  FORCE on cell =-STRESS in cart. coord.  units (eV):
  Direction    XX          YY          ZZ          XY          YZ          ZX
  Alpha Z   901.06623   901.06623   901.06623
  Ewald  173517.64465173517.64420************     0.00040     0.00012     0.00019
  Hartree186770.38049186770.38046************     0.00004     0.00006     0.00007
  E(xc)   -2325.26508 -2325.26469 -2328.71260    -0.00034    -0.00004    -0.00007
  Local  ************************373532.04440     0.01881    -0.00059    -0.00098
  n-local  -782.12228  -767.55929  -793.52980     8.24467    -0.08530     0.19485
  augment  3367.10218  3367.12229  3381.76441    -0.01741     0.00023     0.00039
  Kinetic  3423.89107  3428.36288  3418.86385     4.56967     1.76845    -1.19925
  Fock        0.00000     0.00000     0.00000     0.00000     0.00000     0.00000
  Total      -2.54013    -2.54014     2.10116     0.00000     0.00000    -0.00000
  in kB      -3.72697    -3.72698     3.08290     0.00000     0.00000    -0.00000

 VOLUME and BASIS-vectors are now :
  energy-cutoff  :      500.00
  volume of cell :     1091.97
      direct lattice vectors                 reciprocal lattice vectors
     7.696786404  0.000000000  0.000000000     0.129924354 -0.075011849  0.000000000
     3.848392758  6.665612809  0.000000000     0.000000000  0.150023716  0.000000000
     0.000000000  0.000000000 21.284399033     0.000000000  0.000000000  0.046982769

  length of vectors
     7.696786404  7.696786404 21.284399033     0.150023716  0.150023716  0.046982769

 FORCES acting on ions
    electron-ion (+dipol)            ewald-force                    non-local-force                 convergence-correction
   -.414E-04 0.272E-06 0.351E+04   0.579E-04 -.441E-05 -.350E+04   -.691E-17 -.168E-17 -.298E+01   -.327E-03 -.156E-03 -.104E+01
   0.899E-01 0.124E+00 0.351E+04   0.102E+00 0.434E-01 -.350E+04   -.533E-01 -.617E-01 -.194E+01   -.131E+00 -.922E-01 -.843E+00
   -.898E-01 0.124E+00 0.351E+04   -.102E+00 0.433E-01 -.350E+04   0.533E-01 -.617E-01 -.194E+01   0.132E+00 -.898E-01 -.842E+00
   0.152E+00 0.158E-01 0.351E+04   0.885E-01 0.668E-01 -.350E+04   -.801E-01 -.153E-01 -.194E+01   -.145E+00 -.674E-01 -.843E+00
   -.650E-04 -.521E-05 0.351E+04   0.116E-03 -.101E-04 -.350E+04   -.495E-17 0.262E-17 -.194E+01   0.121E-01 0.738E-02 -.653E+00
   -.152E+00 0.159E-01 0.351E+04   -.886E-01 0.666E-01 -.350E+04   0.801E-01 -.153E-01 -.194E+01   0.144E+00 -.663E-01 -.842E+00
   0.625E-01 -.140E+00 0.351E+04   -.136E-01 -.110E+00 -.350E+04   -.268E-01 0.770E-01 -.194E+01   -.118E-01 0.159E+00 -.841E+00
   -.624E-01 -.140E+00 0.351E+04   0.133E-01 -.110E+00 -.350E+04   0.268E-01 0.770E-01 -.194E+01   0.152E-01 0.158E+00 -.842E+00
   -.144E-03 -.329E-04 0.351E+04   0.263E-03 0.206E-04 -.350E+04   0.240E-17 0.351E-17 -.248E+01   -.131E-01 -.675E-02 -.854E+00
   0.223E+01 0.129E+01 0.122E+04   -.178E+01 -.103E+01 -.121E+04   -.365E+00 -.211E+00 -.103E+01   -.492E-01 -.284E-01 -.458E-01
   -.916E-04 -.139E+01 0.121E+04   0.191E-03 0.138E+01 -.121E+04   0.450E-08 -.675E-01 -.761E+00   0.118E-01 0.384E-01 0.157E+00
   -.223E+01 0.129E+01 0.122E+04   0.178E+01 -.103E+01 -.121E+04   0.365E+00 -.211E+00 -.103E+01   0.477E-01 -.278E-01 -.467E-01
   -.120E+01 0.693E+00 0.121E+04   0.119E+01 -.689E+00 -.121E+04   -.585E-01 0.338E-01 -.761E+00   0.397E-01 -.817E-02 0.157E+00
   0.120E+01 0.693E+00 0.121E+04   -.119E+01 -.689E+00 -.121E+04   0.585E-01 0.338E-01 -.761E+00   -.165E-01 -.990E-02 0.154E+00
   -.142E-03 -.281E+00 0.121E+04   0.298E-03 0.120E+00 -.121E+04   -.464E-08 0.697E-01 -.696E+00   -.298E-02 0.708E-01 -.155E+00
   -.920E-04 -.257E+01 0.122E+04   0.186E-03 0.206E+01 -.121E+04   -.281E-07 0.422E+00 -.103E+01   -.117E-02 0.541E-01 -.467E-01
   -.243E+00 0.140E+00 0.121E+04   0.104E+00 -.596E-01 -.121E+04   0.604E-01 -.349E-01 -.696E+00   0.605E-01 -.380E-01 -.155E+00
   0.243E+00 0.140E+00 0.121E+04   -.104E+00 -.596E-01 -.121E+04   -.604E-01 -.349E-01 -.696E+00   -.589E-01 -.357E-01 -.153E+00
   -.518E-04 0.107E+01 -.110E+04   0.680E-04 -.993E+00 0.110E+04   -.325E-08 0.488E-01 0.781E+00   0.106E-02 -.131E+00 0.762E+00
   -.232E+02 -.134E+02 -.111E+04   0.235E+02 0.135E+02 0.110E+04   -.401E+00 -.232E+00 -.322E+00   0.244E+00 0.141E+00 0.965E+00
   0.232E+02 -.134E+02 -.111E+04   -.235E+02 0.135E+02 0.110E+04   0.401E+00 -.232E+00 -.322E+00   -.265E+00 0.138E+00 0.964E+00
   -.127E+02 0.733E+01 -.111E+04   0.121E+02 -.698E+01 0.111E+04   0.458E+00 -.264E+00 0.106E+01   0.167E+00 -.832E-01 0.738E+00
   -.790E-04 0.267E+02 -.111E+04   0.147E-03 -.271E+02 0.110E+04   -.308E-07 0.463E+00 -.322E+00   -.139E-01 -.300E+00 0.964E+00
   0.127E+02 0.733E+01 -.111E+04   -.121E+02 -.698E+01 0.111E+04   -.458E+00 -.264E+00 0.106E+01   -.143E+00 -.836E-01 0.738E+00
   -.929E+00 -.536E+00 -.110E+04   0.860E+00 0.496E+00 0.110E+04   -.423E-01 -.244E-01 0.781E+00   0.112E+00 0.648E-01 0.762E+00
   0.929E+00 -.536E+00 -.110E+04   -.860E+00 0.496E+00 0.110E+04   0.423E-01 -.244E-01 0.781E+00   -.113E+00 0.669E-01 0.762E+00
   -.126E-03 -.147E+02 -.111E+04   0.246E-03 0.140E+02 0.111E+04   -.352E-07 0.529E+00 0.106E+01   0.113E-01 0.186E+00 0.738E+00
   -.342E-04 0.184E-04 -.341E+04   0.375E-04 -.337E-04 0.340E+04   -.175E-16 0.575E-17 0.199E+01   -.162E-03 -.418E-04 0.666E+00
   -.359E+01 -.361E+01 -.340E+04   0.290E+01 0.188E+01 0.339E+04   0.517E+00 0.130E+01 0.274E+01   0.858E-01 0.255E+00 0.601E+00
   0.359E+01 -.361E+01 -.340E+04   -.290E+01 0.188E+01 0.339E+04   -.517E+00 0.130E+01 0.274E+01   -.853E-01 0.256E+00 0.600E+00
   -.492E+01 -.130E+01 -.340E+04   0.307E+01 0.157E+01 0.339E+04   0.138E+01 -.200E+00 0.274E+01   0.264E+00 -.531E-01 0.601E+00
   0.492E+01 -.130E+01 -.340E+04   -.307E+01 0.157E+01 0.339E+04   -.138E+01 -.200E+00 0.274E+01   -.264E+00 -.524E-01 0.602E+00
   -.133E+01 0.491E+01 -.340E+04   0.179E+00 -.345E+01 0.339E+04   0.864E+00 -.110E+01 0.274E+01   0.179E+00 -.202E+00 0.600E+00
   0.133E+01 0.491E+01 -.340E+04   -.179E+00 -.345E+01 0.339E+04   -.864E+00 -.110E+01 0.274E+01   -.177E+00 -.202E+00 0.602E+00
   -.165E-03 -.319E-04 -.341E+04   0.258E-03 0.346E-05 0.340E+04   0.141E-17 0.180E-17 0.217E+01   -.124E-01 -.634E-02 0.740E+00
   -.133E-04 -.268E-04 -.292E+04   0.123E-03 0.248E-04 0.291E+04   0.150E-17 -.145E-18 0.441E+01   0.235E-02 0.143E-02 0.326E+00
   0.188E-03 -.812E-04 -.207E+04   0.115E-04 0.599E-05 0.205E+04   -.566E-18 -.210E-17 0.211E+02   0.318E-02 0.194E-02 -.250E+00
   0.480E-05 -.133E-04 -.378E+03   0.442E-06 0.402E-06 0.386E+03   -.833E-19 0.119E-19 -.825E+01   0.174E-03 0.106E-03 -.159E-02
   -.373E-04 -.105E-03 -.206E+02   0.166E-12 0.240E-12 0.148E-10   -.442E-15 0.444E-15 0.159E+02   0.285E-01 0.135E-01 0.474E+01

 POSITION                                       TOTAL-FORCE (eV/Angst)
      0.00000      0.00000      5.37156        -0.000000      0.000000      0.100787
      2.56560      0.00000      5.37156         0.007996      0.014462      0.079596
      5.13119      0.00000      5.37156        -0.007996      0.014462      0.079596
      1.28280      2.22187      5.37156         0.016523     -0.000306      0.079596
      3.84839      2.22187      5.37156         0.000000      0.000000      0.060797
      6.41399      2.22187      5.37156        -0.016523     -0.000306      0.079596
      2.56560      4.44374      5.37156         0.008526     -0.014156      0.079596
      5.13119      4.44374      5.37156        -0.008526     -0.014156      0.079596
      7.69679      4.44374      5.37156         0.000000      0.000000      0.057369
      1.28280      0.74062      7.46636         0.036084      0.020833     -0.063583
      3.84839      0.74062      7.46636         0.000000     -0.044883     -0.151713
      6.41399      0.74062      7.46636        -0.036084      0.020833     -0.063583
      2.56560      2.96249      7.46636        -0.038870      0.022442     -0.151713
      5.13119      2.96249      7.46636         0.038870      0.022442     -0.151713
      7.69679      2.96249      7.46636         0.000000     -0.021260     -0.043341
      3.84839      5.18437      7.46636         0.000000     -0.041666     -0.063583
      6.41399      5.18437      7.46636        -0.018411      0.010630     -0.043341
      8.97958      5.18437      7.46636         0.018411      0.010630     -0.043341
      7.69679      1.48680      9.55287         0.000000     -0.002499     -0.017805
      2.54973      1.47208      9.52995         0.146679      0.084685      0.010406
      5.14706      1.47208      9.52995        -0.146679      0.084685      0.010406
      8.97744      3.70436      9.55084         0.011145     -0.006435     -0.006540
      3.84839      3.72144      9.52995         0.000000     -0.169370      0.010406
      6.41613      3.70436      9.55084        -0.011145     -0.006435     -0.006540
     10.25757      5.92221      9.55287         0.002164      0.001249     -0.017805
      5.13600      5.92221      9.55287        -0.002164      0.001249     -0.017805
      7.69679      5.92251      9.55084        -0.000000      0.012870     -0.006540
      0.00000      0.00000     11.61595        -0.000000      0.000000     -0.012693
      6.40108      6.64688     11.64473        -0.087178     -0.176456     -0.059336
      8.99249      6.64688     11.64473         0.087178     -0.176456     -0.059336
      8.95691      2.22006     11.64473        -0.196404      0.012730     -0.059336
      6.43666      2.22006     11.64473         0.196404      0.012730     -0.059336
     10.25261      4.46428     11.64473        -0.109226      0.163726     -0.059336
      5.14096      4.46428     11.64473         0.109226      0.163726     -0.059336
      7.69679      4.44374     11.61500         0.000000      0.000000      0.011907
      3.84839      2.22187     11.65010         0.000000      0.000000      0.546209
      3.84839      2.22187     13.68977         0.000000      0.000000     -0.060253
      3.84839      2.22187     14.65556        -0.000000      0.000000     -0.007955
    total drift:                                0.028472      0.013406      0.033190

  FREE ENERGIE OF THE ION-ELECTRON SYSTEM (eV)
  free  energy   TOTEN  =      -138.11145413 eV

  energy  without entropy=     -138.11145413  energy(sigma->0) =     -138.11145413

 stress matrix after NEB project (eV)
     -2.54013      0.00000     -0.00000
      0.00000     -2.54014     -0.00000
     -0.00000      0.00000      2.10116
  FORCES: max atom, RMS     0.060253    0.009859
  FORCE total and by dimension    0.060776    0.060253
  Stress total and by dimension    4.161666    2.540135
|           W    W    AA    RRRRR   N    N  II  N    N   GGGG   !!!           |
|           W    W   A  A   R    R  NN   N  II  NN   N  G    G  !!!           |
|           W    W  A    A  R    R  N N  N  II  N N  N  G       !!!           |
|           W WW W  AAAAAA  RRRRR   N  N N  II  N  N N  G  GGG   !            |
|           WW  WW  A    A  R   R   N   NN  II  N   NN  G    G                |
|           W    W  A    A  R    R  N    N  II  N    N   GGGG   !!!           |
|     Tetrahedron method does not include variations of the Fermi             |
|     occupations, so forces and stress will be inaccurate. We suggest        |
|     using a different smearing scheme ISMEAR = 1 or 2 for metals in         |
|     relaxations.                                                            |

 total charge

# of ion       s       p       d       tot
    1        0.445   0.286   9.187   9.918
    2        0.450   0.285   9.187   9.921
    3        0.450   0.285   9.187   9.921
    4        0.450   0.285   9.187   9.921
    5        0.444   0.288   9.186   9.919
    6        0.450   0.285   9.187   9.921
    7        0.450   0.285   9.187   9.921
    8        0.450   0.285   9.187   9.921
    9        0.445   0.286   9.188   9.918
   10        0.441   0.375   9.177   9.993
   11        0.444   0.369   9.183   9.996
   12        0.441   0.375   9.177   9.993
   13        0.444   0.369   9.183   9.996
   14        0.444   0.369   9.183   9.996
   15        0.438   0.371   9.182   9.991
   16        0.441   0.375   9.177   9.993
   17        0.438   0.371   9.182   9.991
   18        0.438   0.371   9.182   9.991
   19        0.443   0.376   9.179   9.998
   20        0.440   0.387   9.175  10.001
   21        0.440   0.387   9.175  10.001
   22        0.439   0.370   9.185   9.994
   23        0.440   0.387   9.175  10.001
   24        0.439   0.370   9.185   9.994
   25        0.443   0.376   9.179   9.998
   26        0.443   0.376   9.179   9.998
   27        0.439   0.370   9.185   9.994
   28        0.455   0.291   9.194   9.940
   29        0.442   0.294   9.196   9.932
   30        0.442   0.294   9.196   9.932
   31        0.442   0.294   9.196   9.932
   32        0.442   0.294   9.196   9.932
   33        0.442   0.294   9.196   9.932
   34        0.442   0.294   9.196   9.932
   35        0.450   0.295   9.191   9.935
   36        0.679   0.577   8.042   9.298
   37        1.537   3.517   0.000   5.054
   38        0.605   0.127   0.000   0.733
tot         18.344  15.883 329.525 363.751

 BZINTS: Fermi energy:    0.217756;  402.000000 electrons
         Band energy:-0.107642E+04;  BLOECHL correction:   -0.055313