 vasp.6.2.0 18Jan21 (build Jun 12 2021 23:27:24) complex

 executed on             LinuxIFC date 2022.05.30  16:58:20

 INCAR:
   ISMEAR = -5
   SIGMA = 0.1
   ISPIN = 1
   EDIFF = 1.d-5
   EDIFFG = -0.01
   NSW = 0
   NELM = 150
   ENCUT = 500
   ISIF = 2
   IBRION = 2
   LREAL = Auto
   ALGO = Fast
   ICHARG = 11
   LORBIT = 10
   LCHARG = .F.
   LWAVE = .F.

 POTCAR:    PAW_PBE Ag 02Apr2005
 POTCAR:    PAW_PBE Mn 06Sep2000
 POTCAR:    PAW_PBE O 08Apr2002
|           W    W    AA    RRRRR   N    N  II  N    N   GGGG   !!!           |
|           W    W   A  A   R    R  NN   N  II  NN   N  G    G  !!!           |
|           W    W  A    A  R    R  N N  N  II  N N  N  G       !!!           |
|           W WW W  AAAAAA  RRRRR   N  N N  II  N  N N  G  GGG   !            |
|           WW  WW  A    A  R   R   N   NN  II  N   NN  G    G                |
|           W    W  A    A  R    R  N    N  II  N    N   GGGG   !!!           |
|     For optimal performance we recommend to set                             |
|       NCORE = 2 up to number-of-cores-per-socket                            |
|     This setting can greatly improve the performance of VASP for DFT.       |
|     The default, NCORE=1 might be grossly inefficient on modern             |
|     multi-core architectures or massively parallel machines. Do your        |
|     Unfortunately you need to use the default for GW and RPA                |
|     calculations (for HF NCORE is supported but not extensively tested      |
|     yet).                                                                   |

 POTCAR:    PAW_PBE Ag 02Apr2005
   VRHFIN =Ag : s1 d10

   TITEL  = PAW_PBE Ag 02Apr2005
   POMASS =  107.868; ZVAL   =   11.000    mass and valenz
   ENMAX  =  249.844; ENMIN  =  187.383 eV

 POTCAR:    PAW_PBE Mn 06Sep2000
   VRHFIN =Mn: d6 s1

   TITEL  = PAW_PBE Mn 06Sep2000
   POMASS =   54.938; ZVAL   =    7.000    mass and valenz
   ENMAX  =  269.864; ENMIN  =  202.398 eV

 POTCAR:    PAW_PBE O 08Apr2002
   VRHFIN =O: s2p4

   TITEL  = PAW_PBE O 08Apr2002
   POMASS =   16.000; ZVAL   =    6.000    mass and valenz
   ENMAX  =  400.000; ENMIN  =  300.000 eV

 Optimization of the real space projectors (new method)

 maximal supplied QI-value         = 15.12
 optimisation between [QCUT,QGAM] = [ 11.34, 22.83] = [ 36.00,145.93] Ry
 Optimized for a Real-space Cutoff    1.43 Angstroem

   l    n(q)    QCUT    max X(q) W(low)/X(q) W(high)/X(q)  e(spline)
   2      9    11.338    53.897    0.16E-03    0.20E-03    0.28E-06
   2      9    11.338    52.416    0.16E-03    0.20E-03    0.29E-06
   0     10    11.338   122.045    0.31E-04    0.76E-04    0.15E-06
   0     10    11.338    73.629    0.30E-04    0.72E-04    0.15E-06
   1      9    11.338    15.255    0.20E-03    0.19E-04    0.17E-06
   1      9    11.338     9.562    0.16E-03    0.15E-04    0.14E-06
 Optimization of the real space projectors (new method)

[...]

   l    n(q)    QCUT    max X(q) W(low)/X(q) W(high)/X(q)  e(spline)
   2      8    11.376   110.144    0.49E-03    0.27E-04    0.26E-06
   2      8    11.376   103.200    0.49E-03    0.28E-04    0.27E-06
   0      9    11.376    68.437    0.57E-04    0.92E-04    0.15E-06
   0      9    11.376    33.971    0.51E-04    0.83E-04    0.14E-06
   1      9    11.376    17.065    0.34E-03    0.68E-04    0.14E-06
   1      9    11.376    12.540    0.27E-03    0.59E-04    0.11E-06
 Optimization of the real space projectors (new method)

 maximal supplied QI-value         = 24.76
 optimisation between [QCUT,QGAM] = [ 11.39, 22.77] = [ 36.31,145.25] Ry
 Optimized for a Real-space Cutoff    1.00 Angstroem

   l    n(q)    QCUT    max X(q) W(low)/X(q) W(high)/X(q)  e(spline)
   0      7    11.387    20.381    0.39E-03    0.13E-02    0.15E-06
   0      7    11.387    15.268    0.42E-03    0.14E-02    0.17E-06
   1      6    11.387     5.964    0.41E-03    0.11E-02    0.17E-06
   1      6    11.387     5.382    0.39E-03    0.87E-03    0.15E-06
  PAW_PBE Ag 02Apr2005                  :
  PAW_PBE Mn 06Sep2000                  :
  PAW_PBE O 08Apr2002                   :

 POSCAR: Ag-Mn-O2
  positions in direct lattice
  velocities in cartesian coordinates
 exchange correlation table for  LEXCH =        8
   RHO(1)=    0.500       N(1)  =     2000
   RHO(2)=  100.500       N(2)  =     4000

 VTST: version 3.2, (02/03/18)

 CHAIN: initializing optimizer

 OPT: Using VASP Conjugate-Gradient optimizer
 CHAIN: Read ICHAIN            0

 POSCAR: Ag-Mn-O2
  positions in direct lattice
  velocities in cartesian coordinates

 ion  position               nearest neighbor table
   1  0.000  0.000  0.217-   2 2.93   8 2.93   7 2.93   6 2.93   4 2.93  12 2.93  16 2.93  10 2.93
                             3 2.93
   2  0.333  0.000  0.217-   1 2.93   8 2.93   9 2.93   3 2.93   4 2.93   5 2.93  10 2.93  17 2.93
                            11 2.93
   3  0.667  0.000  0.217-   9 2.93   2 2.93   5 2.93  11 2.93   7 2.93  18 2.93   1 2.93   6 2.93
                            12 2.93
   4  0.000  0.333  0.217-   5 2.93   6 2.93   2 2.93   1 2.93   7 2.93  13 2.93  15 2.93   9 2.93
                            10 2.93
   5  0.333  0.333  0.217-   4 2.93   3 2.93   7 2.93   2 2.93   8 2.93  14 2.93  13 2.93  11 2.93
                             6 2.93
   6  0.667  0.333  0.217-   4 2.93   9 2.93   1 2.93  15 2.93   8 2.93  12 2.93   3 2.93   5 2.93
                            14 2.93
   7  0.000  0.667  0.217-   8 2.93   1 2.93   5 2.93   3 2.93   4 2.93  16 2.93  18 2.93  13 2.93
                             9 2.93
   8  0.333  0.667  0.217-   7 2.93   1 2.93   2 2.93   9 2.93   5 2.93  16 2.93   6 2.93  17 2.93
                            14 2.93
   9  0.667  0.667  0.217-   3 2.93   2 2.93   8 2.93   6 2.93  17 2.93   4 2.93  15 2.93   7 2.93
                            18 2.93
  10  0.111  0.111  0.315-  20 2.92  19 2.93  26 2.93  12 2.93  16 2.93  15 2.93  17 2.93  13 2.93
                            11 2.93   2 2.93   1 2.93   4 2.93
  11  0.444  0.111  0.315-  21 2.90  20 2.90  27 2.92  14 2.93  17 2.93  18 2.93   3 2.93  12 2.93
                            13 2.93  10 2.93   5 2.93   2 2.93
  12  0.778  0.111  0.315-  21 2.92  25 2.93  19 2.93  10 2.93  16 2.93  18 2.93  15 2.93  11 2.93
                             1 2.93  14 2.93   6 2.93   3 2.93
  13  0.111  0.444  0.315-  20 2.90  23 2.90  22 2.92  15 2.93  14 2.93  18 2.93  10 2.93  11 2.93
                            16 2.93   4 2.93   5 2.93   7 2.93
  14  0.444  0.444  0.315-  23 2.90  21 2.90  24 2.92  13 2.93  11 2.93  16 2.93   5 2.93  12 2.93
                            17 2.93   8 2.93  15 2.93   6 2.93
  15  0.778  0.444  0.315-  24 2.92  22 2.92  19 2.92  13 2.93  10 2.93  12 2.93  17 2.93  18 2.93
                             4 2.93   6 2.93   9 2.93  14 2.93
  16  0.111  0.778  0.315-  23 2.92  26 2.93  25 2.93  18 2.93  12 2.93  10 2.93  14 2.93  17 2.93
                            13 2.93   7 2.93   8 2.93   1 2.93
  17  0.444  0.778  0.315-  27 2.92  24 2.92  26 2.92  11 2.93  10 2.93   9 2.93  18 2.93  15 2.93
                            16 2.93   2 2.93  14 2.93   8 2.93
  18  0.778  0.778  0.315-  22 2.92  27 2.92  25 2.92  16 2.93  12 2.93  13 2.93  11 2.93  17 2.93
                            15 2.93   7 2.93   3 2.93   9 2.93
  19  0.889  0.223  0.413-  28 2.91  15 2.92  10 2.93  12 2.93  24 2.93  22 2.93  26 2.94  25 2.94
                            20 2.94  21 2.94  32 2.95  31 2.95
  20  0.223  0.223  0.412-  36 2.71  31 2.90  29 2.90  13 2.90  11 2.90  21 2.91  23 2.91  10 2.92
                            27 2.93  22 2.93  19 2.94  26 2.94
  21  0.554  0.223  0.412-  36 2.71  30 2.90  32 2.90  11 2.90  14 2.90  20 2.91  23 2.91  12 2.92
                            27 2.93  24 2.93  25 2.94  19 2.94
  22  0.888  0.556  0.413-  35 2.91  18 2.92  15 2.92  13 2.92  24 2.93  27 2.93  33 2.93  31 2.93
                            25 2.93  19 2.93  23 2.93  20 2.93
  23  0.223  0.554  0.412-  36 2.71  34 2.90  33 2.90  14 2.90  13 2.90  21 2.91  20 2.91  16 2.92
                            22 2.93  24 2.93  26 2.94  25 2.94
  24  0.556  0.556  0.413-  35 2.91  15 2.92  17 2.92  14 2.92  27 2.93  22 2.93  32 2.93  34 2.93
                            19 2.93  26 2.93  23 2.93  21 2.93
  25  0.889  0.889  0.413-  28 2.91  18 2.92  16 2.93  12 2.93  22 2.93  27 2.93  26 2.94  19 2.94
                            23 2.94  21 2.94  33 2.95  30 2.95
  26  0.223  0.889  0.413-  28 2.91  17 2.92  16 2.93  10 2.93  27 2.93  24 2.93  25 2.94  19 2.94
                            23 2.94  20 2.94  34 2.95  29 2.95
  27  0.556  0.888  0.413-  35 2.91  17 2.92  18 2.92  11 2.92  24 2.93  22 2.93  29 2.93  30 2.93
                            26 2.93  25 2.93  20 2.93  21 2.93
  28  0.000  0.000  0.510-  26 2.91  25 2.91  19 2.91  29 2.97  34 2.97  33 2.97  32 2.97  31 2.97
                            30 2.97
  29  0.333  0.008  0.511-  31 2.86  30 2.86  36 2.87  20 2.90  27 2.93  26 2.95  28 2.97  35 2.97
                            34 3.07
  30  0.659  0.008  0.511-  32 2.86  29 2.86  36 2.87  21 2.90  27 2.93  25 2.95  28 2.97  35 2.97
                            33 3.07
  31  0.008  0.333  0.511-  37 2.58  29 2.86  33 2.86  36 2.87  20 2.90  22 2.93  19 2.95  28 2.97
                            35 2.97  32 3.07
  32  0.659  0.333  0.511-  38 2.58  30 2.86  34 2.86  36 2.87  21 2.90  24 2.93  19 2.95  28 2.97
                            35 2.97  31 3.07
  33  0.008  0.659  0.511-  34 2.86  31 2.86  36 2.87  23 2.90  22 2.93  25 2.95  28 2.97  35 2.97
                            30 3.07
  34  0.333  0.659  0.511-  33 2.86  32 2.86  36 2.87  23 2.90  24 2.93  26 2.95  28 2.97  35 2.97
                            29 3.07
  35  0.667  0.667  0.510-  24 2.91  27 2.91  22 2.91  32 2.97  30 2.97  29 2.97  34 2.97  31 2.97
                            33 2.97
  36  0.333  0.333  0.500-  38 1.86  37 1.86  21 2.71  20 2.71  23 2.71  31 2.87  30 2.87  33 2.87
                            29 2.87  34 2.87  32 2.87
  37  0.252  0.333  0.570-  38 1.44  36 1.86  31 2.58
  38  0.416  0.333  0.570-  37 1.44  36 1.86  32 2.58

  LATTYP: Found a hexagonal cell.
 ALAT       =     8.7913665772
 C/A-ratio  =     2.7711238095

  Lattice vectors:

 A1 = (  -4.3956832886,  -7.6135467898,   0.0000000000)
 A2 = (   8.7913665771,   0.0000000000,   0.0000000000)
 A3 = (   0.0000000000,   0.0000000000,  24.3619652401)

Analysis of symmetry for initial positions (statically):
 Subroutine PRICEL returns:
 Original cell was already a primitive cell.

 Routine SETGRP: Setting up the symmetry group for a
 hexagonal supercell.

 Subroutine GETGRP returns: Found  2 space group operations
 (whereof  2 operations were pure point group operations)
 out of a pool of 24 trial point group operations.

The static configuration has the point symmetry C_1h.

Analysis of symmetry for dynamics (positions and initial velocities):
 Subroutine PRICEL returns:
 Original cell was already a primitive cell.

[...]

The dynamic configuration has the point symmetry C_1h.

Analysis of constrained symmetry for selective dynamics:
 Subroutine PRICEL returns:
 Original cell was already a primitive cell.

 Routine SETGRP: Setting up the symmetry group for a
[...]
     33      -5.0617      2.00000
     34      -5.0403      2.00000
     35      -5.0328      2.00000
     36      -5.0253      2.00000
     37      -4.9797      2.00000
     38      -4.9353      2.00000
     39      -4.9064      2.00000
     40      -4.8915      2.00000
     41      -4.8737      2.00000
     42      -4.8503      2.00000
     43      -4.8331      2.00000
     44      -4.8264      2.00000
     45      -4.8126      2.00000
     46      -4.8062      2.00000
     47      -4.7766      2.00000
     48      -4.7155      2.00000
     49      -4.6882      2.00000
     50      -4.6769      2.00000
     51      -4.6729      2.00000
     52      -4.6682      2.00000
     53      -4.6660      2.00000
     54      -4.6501      2.00000
     55      -4.6444      2.00000
     56      -4.6328      2.00000
     57      -4.6192      2.00000
     58      -4.5576      2.00000
     59      -4.5490      2.00000
     60      -4.5363      2.00000
[...]
    238       5.4203      0.00000
    239       5.5108      0.00000
    240       5.7122      0.00000
    241       5.7672      0.00000
    242       5.8102      0.00000
    243       5.8875      0.00000
    244       6.0963      0.00000
    245       6.3943      0.00000
    246       6.4377      0.00000
    247       6.4947      0.00000
    248       6.5761      0.00000
    249       6.6681      0.00000
    250       6.7242      0.00000
    251       6.7861      0.00000
    252       6.8602      0.00000

 soft charge-density along one line, spin component           1
         0         1         2         3         4         5         6         7         8         9
 total charge-density along one line

------------------------ aborting loop because EDIFF is reached ----------------------------------------

 total charge

# of ion       s       p       d       tot
    1        0.418   0.202   9.177   9.797
    2        0.416   0.204   9.177   9.797
    3        0.416   0.204   9.177   9.797
    4        0.417   0.203   9.177   9.797
    5        0.417   0.204   9.175   9.796
    6        0.417   0.203   9.177   9.797
    7        0.417   0.204   9.176   9.797
    8        0.417   0.204   9.176   9.797
    9        0.414   0.203   9.179   9.795
   10        0.407   0.268   9.163   9.838
   11        0.407   0.268   9.168   9.843
   12        0.407   0.268   9.163   9.838
   13        0.407   0.268   9.167   9.843
   14        0.407   0.268   9.167   9.843
   15        0.402   0.270   9.164   9.836
   16        0.406   0.270   9.163   9.839
   17        0.401   0.270   9.166   9.837
   18        0.401   0.270   9.166   9.837
   19        0.400   0.264   9.169   9.834
   20        0.429   0.295   9.146   9.870
   21        0.429   0.295   9.146   9.870
   22        0.396   0.275   9.165   9.836
   23        0.426   0.304   9.141   9.871
   24        0.396   0.275   9.165   9.836
   25        0.401   0.267   9.166   9.833
   26        0.401   0.267   9.166   9.833
   27        0.397   0.272   9.168   9.837
   28        0.417   0.194   9.179   9.790
   29        0.407   0.203   9.183   9.793
   30        0.407   0.203   9.183   9.793
   31        0.403   0.207   9.186   9.796
   32        0.403   0.207   9.186   9.796
   33        0.405   0.203   9.185   9.793
   34        0.405   0.203   9.185   9.793
   35        0.412   0.196   9.179   9.787
   36        0.308   0.338   5.155   5.801
   37        1.609   3.244   0.000   4.853
   38        1.609   3.244   0.000   4.853
tot         17.856  15.204 326.131 359.191

  FORCE on cell =-STRESS in cart. coord.  units (eV):
  Direction    XX          YY          ZZ          XY          YZ          ZX
  Alpha Z   701.54095   701.54095   701.54095
  Ewald  154915.14625154513.38389************     0.00006     0.64494     0.00009
  Hartree164949.35189164744.99136************     0.00003     0.50886     0.00003
  E(xc)   -2120.09399 -2121.04256 -2126.25088    -0.00010    -0.05597     0.00001
  Local  ************************330693.60155     0.00100    -1.36374    -0.00022
  n-local  -385.43785  -391.93706  -394.69682     2.63390     0.01249     0.07095
  augment  3258.48253  3263.60509  3270.46977     0.00018     0.14126     0.00010
  Kinetic  5071.84776  5117.37602  5122.71040     0.89890     0.30503     0.03471
  Fock        0.00000     0.00000     0.00000     0.00000     0.00000     0.00000
  Total      -4.49203    -5.94229    -0.29141    -0.00000     0.19287     0.00000
  in kB      -4.41365    -5.83860    -0.28633    -0.00000     0.18950     0.00000

 VOLUME and BASIS-vectors are now :
  energy-cutoff  :      500.00
  volume of cell :     1630.63
      direct lattice vectors                 reciprocal lattice vectors
     8.791366577  0.000000000  0.000000000     0.113747958 -0.065672414  0.000000000
     4.395683289  7.613546790  0.000000000     0.000000000  0.131344829  0.000000000
     0.000000000  0.000000000 24.361965240     0.000000000  0.000000000  0.041047592

  length of vectors
     8.791366577  8.791366577 24.361965240     0.131344829  0.131344829  0.041047592

 FORCES acting on ions
    electron-ion (+dipol)            ewald-force                    non-local-force                 convergence-correction
   0.460E-04 -.949E-01 0.271E+04   -.954E-04 -.339E-01 -.270E+04   0.256E-12 0.390E-01 -.215E+01   -.104E-03 0.811E-01 -.427E-01
   0.626E+00 0.496E+00 0.271E+04   -.503E+00 -.572E+00 -.270E+04   -.778E-02 0.823E-01 -.160E+01   -.107E+00 0.384E-02 -.166E-01
   -.626E+00 0.496E+00 0.271E+04   0.503E+00 -.572E+00 -.270E+04   0.778E-02 0.823E-01 -.160E+01   0.106E+00 0.576E-02 -.159E-01
   0.577E+00 0.130E+00 0.271E+04   -.718E+00 -.166E+00 -.270E+04   0.118E+00 -.582E-02 -.161E+01   0.246E-01 0.369E-01 -.293E-01
   -.782E-05 -.357E-01 0.271E+04   0.981E-04 0.152E-02 -.271E+04   0.973E-13 0.148E-01 -.150E+01   0.624E-02 0.205E-01 0.126E-01
   -.577E+00 0.130E+00 0.271E+04   0.718E+00 -.166E+00 -.270E+04   -.118E+00 -.582E-02 -.161E+01   -.260E-01 0.378E-01 -.285E-01
   0.412E+00 -.594E+00 0.271E+04   -.214E+00 0.738E+00 -.270E+04   -.302E-01 -.989E-01 -.161E+01   -.145E+00 -.468E-01 -.543E-01
   -.412E+00 -.594E+00 0.271E+04   0.213E+00 0.738E+00 -.270E+04   0.302E-01 -.989E-01 -.161E+01   0.146E+00 -.478E-01 -.541E-01
   0.363E-04 0.404E-01 0.271E+04   0.792E-04 0.324E-01 -.270E+04   0.502E-13 0.764E-02 -.194E+01   -.666E-02 -.784E-01 -.514E-01
   0.484E+01 0.296E+01 0.949E+03   -.447E+01 -.284E+01 -.949E+03   -.375E+00 -.193E+00 -.684E+00   0.138E-01 0.789E-01 0.142E+00
   -.266E-04 0.593E+01 0.958E+03   0.416E-04 -.613E+01 -.957E+03   0.999E-12 0.152E+00 -.336E+00   0.628E-02 0.577E-02 0.128E+00
   -.484E+01 0.296E+01 0.949E+03   0.447E+01 -.284E+01 -.949E+03   0.375E+00 -.193E+00 -.684E+00   -.154E-01 0.800E-01 0.141E+00
   0.501E+01 -.301E+01 0.958E+03   -.506E+01 0.312E+01 -.958E+03   0.149E+00 -.615E-01 -.365E+00   -.123E+00 -.261E-01 0.733E-01
   -.501E+01 -.301E+01 0.958E+03   0.506E+01 0.312E+01 -.958E+03   -.149E+00 -.615E-01 -.365E+00   0.134E+00 -.269E-01 0.725E-01
   0.161E-04 0.741E+00 0.950E+03   -.109E-03 -.759E+00 -.950E+03   -.293E-14 -.446E-03 -.767E+00   -.163E-02 -.132E-02 0.112E+00
   -.844E-05 -.574E+01 0.949E+03   0.208E-04 0.522E+01 -.948E+03   0.314E-11 0.478E+00 -.853E+00   0.123E-03 0.238E-01 0.279E-02
   0.732E+00 -.426E+00 0.950E+03   -.808E+00 0.556E+00 -.949E+03   0.302E-01 -.672E-01 -.618E+00   0.366E-01 -.536E-01 0.115E+00
   -.732E+00 -.426E+00 0.950E+03   0.808E+00 0.556E+00 -.949E+03   -.302E-01 -.672E-01 -.618E+00   -.367E-01 -.517E-01 0.116E+00
   0.408E-04 0.277E+01 -.838E+03   -.129E-03 -.304E+01 0.837E+03   0.110E-11 0.168E+00 0.828E+00   -.128E-03 0.981E-01 0.315E+00
   0.227E+02 0.148E+02 -.793E+03   -.211E+02 -.140E+02 0.794E+03   -.118E+01 -.641E+00 -.106E+01   -.455E+00 -.179E+00 0.757E-01
   -.227E+02 0.148E+02 -.793E+03   0.211E+02 -.140E+02 0.794E+03   0.118E+01 -.641E+00 -.106E+01   0.455E+00 -.179E+00 0.756E-01
   0.115E+02 -.822E+01 -.825E+03   -.115E+02 0.840E+01 0.825E+03   0.129E+00 -.168E+00 0.561E+00   -.137E+00 -.355E-01 0.316E+00
   -.537E-04 -.287E+02 -.796E+03   0.443E-04 0.269E+02 0.797E+03   0.979E-11 0.149E+01 -.102E+01   0.761E-03 0.361E+00 0.624E-01
   -.115E+02 -.822E+01 -.825E+03   0.115E+02 0.840E+01 0.825E+03   -.129E+00 -.168E+00 0.561E+00   0.137E+00 -.358E-01 0.315E+00
   -.162E+01 -.230E+00 -.841E+03   0.181E+01 0.243E+00 0.840E+03   -.102E+00 -.579E-01 0.783E+00   -.987E-01 0.502E-01 0.386E+00
   0.162E+01 -.230E+00 -.841E+03   -.181E+01 0.243E+00 0.840E+03   0.102E+00 -.579E-01 0.783E+00   0.986E-01 0.499E-01 0.387E+00
   0.206E-04 0.130E+02 -.828E+03   0.109E-03 -.133E+02 0.827E+03   0.274E-11 0.417E+00 0.686E+00   -.247E-03 -.556E-01 0.308E+00
   0.544E-04 0.596E+01 -.261E+04   -.116E-03 -.613E+01 0.261E+04   0.642E-12 0.978E-01 0.178E+01   0.132E-02 0.653E-01 0.323E+00
   0.432E+02 0.919E+02 -.258E+04   -.428E+02 -.922E+02 0.258E+04   -.318E+00 0.899E-01 0.260E+01   -.228E+00 -.129E+00 0.311E+00
   -.432E+02 0.919E+02 -.258E+04   0.428E+02 -.922E+02 0.258E+04   0.318E+00 0.899E-01 0.260E+01   0.218E+00 -.128E+00 0.311E+00
   0.117E+03 0.520E+00 -.256E+04   -.118E+03 -.313E+00 0.256E+04   0.136E+00 -.133E+00 0.289E+01   0.425E-01 -.713E-01 0.259E+00
   -.117E+03 0.520E+00 -.256E+04   0.118E+03 -.313E+00 0.256E+04   -.136E+00 -.133E+00 0.289E+01   -.534E-01 -.704E-01 0.258E+00
   0.417E+02 -.920E+02 -.258E+04   -.414E+02 0.922E+02 0.258E+04   -.148E+00 -.160E-01 0.260E+01   -.268E+00 0.167E+00 0.248E+00
   -.417E+02 -.920E+02 -.258E+04   0.414E+02 0.922E+02 0.258E+04   0.148E+00 -.160E-01 0.260E+01   0.259E+00 0.167E+00 0.248E+00
   0.194E-04 -.594E+01 -.262E+04   0.107E-03 0.591E+01 0.261E+04   0.552E-13 0.841E-02 0.188E+01   -.530E-02 0.251E-01 0.231E+00
   -.272E-04 -.881E+00 -.131E+04   0.674E-04 0.774E+00 0.131E+04   0.125E-11 0.190E+00 0.132E+01   0.342E-02 -.281E-01 0.501E+00
   0.200E+03 -.121E+00 -.176E+04   -.232E+03 0.157E+00 0.178E+04   0.320E+02 0.379E-01 -.175E+02   -.453E+00 -.734E-01 0.860E+00
   -.200E+03 -.121E+00 -.176E+04   0.232E+03 0.157E+00 0.178E+04   -.320E+02 0.379E-01 -.175E+02   0.454E+00 -.734E-01 0.859E+00
   0.642E-03 -.568E+00 0.258E+02   0.568E-13 -.301E-12 -.227E-12   0.395E-11 0.601E+00 -.333E+02   -.172E-01 -.335E-01 0.727E+01

 POSITION                                       TOTAL-FORCE (eV/Angst)
      0.00000      0.00000      5.28219        -0.000000     -0.008633     -0.013184
      2.93046      0.00000      5.28219         0.008383      0.011301      0.035631
      5.86091      0.00000      5.28219        -0.008383      0.011301      0.035631
      1.46523      2.53785      5.28219         0.002278     -0.004538      0.032679
      4.39568      2.53785      5.28219         0.000000      0.001116      0.010052
      7.32614      2.53785      5.28219        -0.002278     -0.004538      0.032679
      2.93046      5.07570      5.28219         0.022432     -0.002996      0.030173
      5.86091      5.07570      5.28219        -0.022432     -0.002996      0.030173
      8.79137      5.07570      5.28219         0.000000      0.002136      0.008735
      1.46523      0.84595      7.67490         0.009138      0.006015     -0.003344
      4.39568      0.84595      7.67490        -0.000000     -0.046928     -0.077876
      7.32614      0.84595      7.67490        -0.009138      0.006015     -0.003344
      2.93046      3.38380      7.67490        -0.031611      0.020919     -0.060635
      5.86091      3.38380      7.67490         0.031611      0.020919     -0.060635
      8.79137      3.38380      7.67490        -0.000000     -0.019576      0.005568
      4.39568      5.92165      7.67490        -0.000000     -0.017727      0.015825
      7.32614      5.92165      7.67490        -0.008912      0.010526      0.015849
     10.25659      5.92165      7.67490         0.008912      0.010526      0.015849
      8.79137      1.69455     10.06139        -0.000000     -0.006895      0.051708
      2.94158      1.69832     10.04035        -0.034733     -0.025168     -0.085276
      5.84978      1.69832     10.04035         0.034733     -0.025168     -0.085276
     10.25392      4.23129     10.05365         0.047207     -0.023361      0.023298
      4.39568      4.21690     10.04035        -0.000000     -0.002115     -0.027120
      7.32881      4.23129     10.05365        -0.047207     -0.023361      0.023298
     11.71953      6.76627     10.06139        -0.012374      0.004753      0.041501
      5.86321      6.76627     10.06139         0.012374      0.004753      0.041501
      8.79137      6.76451     10.05365         0.000000      0.044485      0.021206
      0.00000      0.00000     12.42536        -0.000000     -0.013608      0.021331
      2.96459      0.05999     12.43855        -0.144374     -0.294712     -0.172839
      5.82677      0.05999     12.43855         0.144374     -0.294712     -0.172839
      1.53425      2.53742     12.43855        -0.600131      0.003624     -0.346965
      7.25712      2.53742     12.43855         0.600131      0.003624     -0.346965
      2.96534      5.01614     12.43855        -0.144396      0.298392     -0.160077
      5.82603      5.01614     12.43855         0.144396      0.298392     -0.160077
      8.79137      5.07570     12.42471         0.000000      0.002999      0.030164
      4.39568      2.53785     12.16969         0.000000      0.055900      1.303821
      3.67439      2.53355     13.88094         0.187978     -0.000332     -0.025110
      5.11698      2.53355     13.88094        -0.187978     -0.000332     -0.025110
    total drift:                               -0.016529     -0.000504     -0.168937

  FREE ENERGIE OF THE ION-ELECTRON SYSTEM (eV)
  free  energy   TOTEN  =      -106.93277866 eV

  energy  without entropy=     -106.93277866  energy(sigma->0) =     -106.93277866

 stress matrix after NEB project (eV)
     -4.49203     -0.00000      0.00000
     -0.00000     -5.94229      0.19287
      0.00000      0.19287     -0.29141
  FORCES: max atom, RMS     0.189648    0.043508
  FORCE total and by dimension    0.268203    0.187978
  Stress total and by dimension    7.459791    5.942290
|           W    W    AA    RRRRR   N    N  II  N    N   GGGG   !!!           |
|           W    W   A  A   R    R  NN   N  II  NN   N  G    G  !!!           |
|           W    W  A    A  R    R  N N  N  II  N N  N  G       !!!           |
|           W WW W  AAAAAA  RRRRR   N  N N  II  N  N N  G  GGG   !            |
|           WW  WW  A    A  R   R   N   NN  II  N   NN  G    G                |
|           W    W  A    A  R    R  N    N  II  N    N   GGGG   !!!           |
|     Tetrahedron method does not include variations of the Fermi             |
|     occupations, so forces and stress will be inaccurate. We suggest        |
|     using a different smearing scheme ISMEAR = 1 or 2 for metals in         |
|     relaxations.                                                            |

 total charge

# of ion       s       p       d       tot
    1        0.418   0.202   9.177   9.797
    2        0.416   0.204   9.177   9.797
    3        0.416   0.204   9.177   9.797
    4        0.417   0.203   9.177   9.797
    5        0.417   0.204   9.175   9.796
    6        0.417   0.203   9.177   9.797
    7        0.417   0.204   9.176   9.797
    8        0.417   0.204   9.176   9.797
    9        0.414   0.203   9.179   9.795
   10        0.407   0.268   9.163   9.838
   11        0.407   0.268   9.168   9.843
   12        0.407   0.268   9.163   9.838
   13        0.407   0.268   9.167   9.843
   14        0.407   0.268   9.167   9.843
   15        0.402   0.270   9.164   9.836
   16        0.406   0.270   9.163   9.839
   17        0.401   0.270   9.166   9.837
   18        0.401   0.270   9.166   9.837
   19        0.400   0.264   9.169   9.834
   20        0.429   0.295   9.146   9.870
   21        0.429   0.295   9.146   9.870
   22        0.396   0.275   9.165   9.836
   23        0.426   0.304   9.141   9.871
   24        0.396   0.275   9.165   9.836
   25        0.401   0.267   9.166   9.833
   26        0.401   0.267   9.166   9.833
   27        0.397   0.272   9.168   9.837
   28        0.417   0.194   9.179   9.790
   29        0.407   0.203   9.183   9.793
   30        0.407   0.203   9.183   9.793
   31        0.403   0.207   9.186   9.796
   32        0.403   0.207   9.186   9.796
   33        0.405   0.203   9.185   9.793
   34        0.405   0.203   9.185   9.793
   35        0.412   0.196   9.179   9.787
   36        0.308   0.338   5.155   5.801
   37        1.609   3.244   0.000   4.853
   38        1.609   3.244   0.000   4.853
tot         17.856  15.204 326.131 359.191

 BZINTS: Fermi energy:    0.316063;  404.000000 electrons
         Band energy:-0.158078E+04;  BLOECHL correction:   -0.031105