 vasp.6.2.0 18Jan21 (build Jun 12 2021 23:27:24) complex

 executed on             LinuxIFC date 2022.05.27  05:28:11

 INCAR:
   ISMEAR = -5
   SIGMA = 0.1
   ISPIN = 1
   EDIFF = 1.d-5
   EDIFFG = -0.01
   NSW = 0
   NELM = 150
   ENCUT = 500
   ISIF = 2
   IBRION = 2
   LREAL = Auto
   ALGO = Fast
   ICHARG = 11
   LORBIT = 10
   LCHARG = .F.
   LWAVE = .F.

 POTCAR:    PAW_PBE Ag 02Apr2005
 POTCAR:    PAW_PBE Cr 06Sep2000
 POTCAR:    PAW_PBE O 08Apr2002
 POTCAR:    PAW_PBE H 15Jun2001
|           W    W    AA    RRRRR   N    N  II  N    N   GGGG   !!!           |
|           W    W   A  A   R    R  NN   N  II  NN   N  G    G  !!!           |
|           W    W  A    A  R    R  N N  N  II  N N  N  G       !!!           |
|           W WW W  AAAAAA  RRRRR   N  N N  II  N  N N  G  GGG   !            |
|           WW  WW  A    A  R   R   N   NN  II  N   NN  G    G                |
|           W    W  A    A  R    R  N    N  II  N    N   GGGG   !!!           |
|     For optimal performance we recommend to set                             |
|       NCORE = 2 up to number-of-cores-per-socket                            |
|     This setting can greatly improve the performance of VASP for DFT.       |
|     The default, NCORE=1 might be grossly inefficient on modern             |
|     multi-core architectures or massively parallel machines. Do your        |
|     Unfortunately you need to use the default for GW and RPA                |
|     calculations (for HF NCORE is supported but not extensively tested      |
|     yet).                                                                   |

 POTCAR:    PAW_PBE Ag 02Apr2005
   VRHFIN =Ag : s1 d10

   TITEL  = PAW_PBE Ag 02Apr2005
   POMASS =  107.868; ZVAL   =   11.000    mass and valenz
   ENMAX  =  249.844; ENMIN  =  187.383 eV

 POTCAR:    PAW_PBE Cr 06Sep2000
   VRHFIN =Cr : d5 s1

   TITEL  = PAW_PBE Cr 06Sep2000
   POMASS =   51.996; ZVAL   =    6.000    mass and valenz
   ENMAX  =  227.080; ENMIN  =  170.310 eV

 POTCAR:    PAW_PBE O 08Apr2002
   VRHFIN =O: s2p4

   TITEL  = PAW_PBE O 08Apr2002
   POMASS =   16.000; ZVAL   =    6.000    mass and valenz
   ENMAX  =  400.000; ENMIN  =  300.000 eV

 POTCAR:    PAW_PBE H 15Jun2001
   VRHFIN =H: ultrasoft test

   TITEL  = PAW_PBE H 15Jun2001
   POMASS =    1.000; ZVAL   =    1.000    mass and valenz
   ENMAX  =  250.000; ENMIN  =  200.000 eV

 Optimization of the real space projectors (new method)

 maximal supplied QI-value         = 15.12
 optimisation between [QCUT,QGAM] = [ 11.34, 22.83] = [ 36.00,145.93] Ry
 Optimized for a Real-space Cutoff    1.43 Angstroem

   l    n(q)    QCUT    max X(q) W(low)/X(q) W(high)/X(q)  e(spline)
   2      9    11.338    53.897    0.16E-03    0.20E-03    0.28E-06
   2      9    11.338    52.416    0.16E-03    0.20E-03    0.29E-06
   0     10    11.338   122.045    0.31E-04    0.76E-04    0.15E-06
   0     10    11.338    73.629    0.30E-04    0.72E-04    0.15E-06
   1      9    11.338    15.255    0.20E-03    0.19E-04    0.17E-06
   1      9    11.338     9.562    0.16E-03    0.15E-04    0.14E-06
 Optimization of the real space projectors (new method)

[...]

   l    n(q)    QCUT    max X(q) W(low)/X(q) W(high)/X(q)  e(spline)
   0      7    11.387    20.381    0.39E-03    0.13E-02    0.15E-06
   0      7    11.387    15.268    0.42E-03    0.14E-02    0.17E-06
   1      6    11.387     5.964    0.41E-03    0.11E-02    0.17E-06
   1      6    11.387     5.382    0.39E-03    0.87E-03    0.15E-06
 Optimization of the real space projectors (new method)

 maximal supplied QI-value         = 34.20
 optimisation between [QCUT,QGAM] = [ 11.29, 22.57] = [ 35.68,142.71] Ry
 Optimized for a Real-space Cutoff    1.16 Angstroem

   l    n(q)    QCUT    max X(q) W(low)/X(q) W(high)/X(q)  e(spline)
   0      8    11.287    19.460    0.40E-03    0.73E-03    0.16E-06
   0      8    11.287    12.209    0.38E-03    0.70E-03    0.15E-06
   1      7    11.287     4.655    0.22E-03    0.25E-04    0.22E-06
  PAW_PBE Ag 02Apr2005                  :
  PAW_PBE Cr 06Sep2000                  :
  PAW_PBE O 08Apr2002                   :
  PAW_PBE H 15Jun2001                   :

 POSCAR: Ag-Cr-OH
  positions in direct lattice
  velocities in cartesian coordinates
 exchange correlation table for  LEXCH =        8
   RHO(1)=    0.500       N(1)  =     2000
   RHO(2)=  100.500       N(2)  =     4000

 VTST: version 3.2, (02/03/18)

 CHAIN: initializing optimizer

 OPT: Using VASP Conjugate-Gradient optimizer
 CHAIN: Read ICHAIN            0

 POSCAR: Ag-Cr-OH
  positions in direct lattice
  velocities in cartesian coordinates

 ion  position               nearest neighbor table
   1  0.000  0.000  0.238-   2 2.93   8 2.93   7 2.93   6 2.93   4 2.93  12 2.93  16 2.93  10 2.93
                             3 2.93
   2  0.333  0.000  0.238-   1 2.93   8 2.93   9 2.93   3 2.93   4 2.93   5 2.93  10 2.93  17 2.93
                            11 2.93
   3  0.667  0.000  0.238-   9 2.93   2 2.93   5 2.93  11 2.93   7 2.93  18 2.93   1 2.93   6 2.93
                            12 2.93
   4  0.000  0.333  0.238-   5 2.93   6 2.93   2 2.93   1 2.93   7 2.93  13 2.93  15 2.93   9 2.93
                            10 2.93
   5  0.333  0.333  0.238-   4 2.93   3 2.93   7 2.93   2 2.93   8 2.93  14 2.93  13 2.93  11 2.93
                             6 2.93
   6  0.667  0.333  0.238-   4 2.93   9 2.93   1 2.93  15 2.93   8 2.93  12 2.93   3 2.93   5 2.93
                            14 2.93
   7  0.000  0.667  0.238-   8 2.93   1 2.93   5 2.93   3 2.93   4 2.93  16 2.93  18 2.93  13 2.93
                             9 2.93
   8  0.333  0.667  0.238-   7 2.93   1 2.93   2 2.93   9 2.93   5 2.93  16 2.93   6 2.93  17 2.93
                            14 2.93
   9  0.667  0.667  0.238-   3 2.93   2 2.93   8 2.93   6 2.93  17 2.93   4 2.93  15 2.93   7 2.93
                            18 2.93
  10  0.111  0.111  0.346-  20 2.91  19 2.92  26 2.92  12 2.93  16 2.93  15 2.93  17 2.93  13 2.93
                            11 2.93   2 2.93   1 2.93   4 2.93
  11  0.444  0.111  0.346-  21 2.90  20 2.90  27 2.92  14 2.93  17 2.93  18 2.93   3 2.93  12 2.93
                            13 2.93  10 2.93   5 2.93   2 2.93
  12  0.778  0.111  0.346-  21 2.91  25 2.92  19 2.92  10 2.93  16 2.93  18 2.93  15 2.93  11 2.93
                             1 2.93  14 2.93   6 2.93   3 2.93
  13  0.111  0.444  0.346-  20 2.90  23 2.90  22 2.92  15 2.93  14 2.93  18 2.93  10 2.93  11 2.93
                            16 2.93   4 2.93   5 2.93   7 2.93
  14  0.444  0.444  0.346-  23 2.90  21 2.90  24 2.92  13 2.93  11 2.93  16 2.93   5 2.93  12 2.93
                            17 2.93   8 2.93  15 2.93   6 2.93
  15  0.778  0.444  0.346-  24 2.92  22 2.92  19 2.92  13 2.93  10 2.93  12 2.93  17 2.93  18 2.93
                             4 2.93   6 2.93   9 2.93  14 2.93
  16  0.111  0.778  0.346-  23 2.91  26 2.92  25 2.92  18 2.93  12 2.93  10 2.93  14 2.93  17 2.93
                            13 2.93   7 2.93   8 2.93   1 2.93
  17  0.444  0.778  0.346-  27 2.92  24 2.92  26 2.92  11 2.93  10 2.93   9 2.93  18 2.93  15 2.93
                            16 2.93   2 2.93  14 2.93   8 2.93
  18  0.778  0.778  0.346-  22 2.92  27 2.92  25 2.92  16 2.93  12 2.93  13 2.93  11 2.93  17 2.93
                            15 2.93   7 2.93   3 2.93   9 2.93
  19  0.889  0.222  0.454-  28 2.91  15 2.92  10 2.92  12 2.92  24 2.93  22 2.93  26 2.93  25 2.93
                            20 2.94  21 2.94  32 2.96  31 2.96
  20  0.223  0.223  0.453-  36 2.73  13 2.90  11 2.90  21 2.91  23 2.91  10 2.91  31 2.91  29 2.91
                            27 2.93  22 2.93  19 2.94  26 2.94
  21  0.554  0.223  0.453-  36 2.73  11 2.90  14 2.90  20 2.91  23 2.91  12 2.91  30 2.91  32 2.91
                            27 2.93  24 2.93  25 2.94  19 2.94
  22  0.888  0.556  0.453-  35 2.91  18 2.92  15 2.92  13 2.92  24 2.92  27 2.92  25 2.93  19 2.93
                            33 2.93  31 2.93  23 2.93  20 2.93
  23  0.223  0.554  0.453-  36 2.73  14 2.90  13 2.90  21 2.91  20 2.91  16 2.91  34 2.91  33 2.91
                            22 2.93  24 2.93  26 2.94  25 2.94
  24  0.556  0.556  0.453-  35 2.91  15 2.92  17 2.92  14 2.92  27 2.92  22 2.92  19 2.93  26 2.93
                            32 2.93  34 2.93  23 2.93  21 2.93
  25  0.889  0.889  0.454-  28 2.91  18 2.92  16 2.92  12 2.92  22 2.93  27 2.93  26 2.93  19 2.93
                            23 2.94  21 2.94  33 2.96  30 2.96
  26  0.222  0.889  0.454-  28 2.91  17 2.92  16 2.92  10 2.92  27 2.93  24 2.93  25 2.93  19 2.93
                            23 2.94  20 2.94  34 2.96  29 2.96
  27  0.556  0.888  0.453-  35 2.91  17 2.92  18 2.92  11 2.92  24 2.92  22 2.92  26 2.93  25 2.93
                            29 2.93  30 2.93  20 2.93  21 2.93
  28  0.000  0.000  0.560-  26 2.91  25 2.91  19 2.91  29 2.96  34 2.96  33 2.96  32 2.96  31 2.96
                            30 2.96
  29  0.333  0.007  0.561-  30 2.87  31 2.87  36 2.88  20 2.91  27 2.93  26 2.96  35 2.96  28 2.96
                            34 3.06
  30  0.659  0.007  0.561-  29 2.87  32 2.87  36 2.88  21 2.91  27 2.93  25 2.96  35 2.96  28 2.96
                            33 3.06
  31  0.007  0.333  0.561-  33 2.87  29 2.87  36 2.88  20 2.91  22 2.93  19 2.96  35 2.96  28 2.96
                            32 3.06
  32  0.659  0.333  0.561-  34 2.87  30 2.87  36 2.88  21 2.91  24 2.93  19 2.96  35 2.96  28 2.96
                            31 3.06
  33  0.007  0.659  0.561-  31 2.87  34 2.87  36 2.88  23 2.91  22 2.93  25 2.96  35 2.96  28 2.96
                            30 3.06
  34  0.333  0.659  0.561-  32 2.87  33 2.87  36 2.88  23 2.91  24 2.93  26 2.96  35 2.96  28 2.96
                            29 3.06
  35  0.667  0.667  0.560-  24 2.91  27 2.91  22 2.91  30 2.96  32 2.96  29 2.96  34 2.96  31 2.96
                            33 2.96
  36  0.333  0.333  0.550-  37 1.74  21 2.73  20 2.73  23 2.73  31 2.88  33 2.88  30 2.88  29 2.88
                            34 2.88  32 2.88
  37  0.333  0.333  0.628-  38 0.97  36 1.74
  38  0.333  0.333  0.672-  37 0.97

  LATTYP: Found a hexagonal cell.
 ALAT       =     8.7913665772
 C/A-ratio  =     2.5227160501

  Lattice vectors:

 A1 = (  -4.3956832886,  -7.6135467898,   0.0000000000)
 A2 = (   8.7913665771,   0.0000000000,   0.0000000000)
 A3 = (   0.0000000000,   0.0000000000,  22.1781215668)

Analysis of symmetry for initial positions (statically):
 Subroutine PRICEL returns:
 Original cell was already a primitive cell.

 Routine SETGRP: Setting up the symmetry group for a
 hexagonal supercell.

 Subroutine GETGRP returns: Found  6 space group operations
 (whereof  6 operations were pure point group operations)
 out of a pool of 24 trial point group operations.

The static configuration has the point symmetry C_3v.

Analysis of symmetry for dynamics (positions and initial velocities):
 Subroutine PRICEL returns:
 Original cell was already a primitive cell.

[...]

The dynamic configuration has the point symmetry C_3v.

Analysis of constrained symmetry for selective dynamics:
 Subroutine PRICEL returns:
 Original cell was already a primitive cell.

[...]
     33      -4.2985      2.00000
     34      -4.2959      2.00000
     35      -4.2439      2.00000
     36      -4.2034      2.00000
     37      -4.1966      2.00000
     38      -4.1883      2.00000
     39      -4.1498      2.00000
     40      -4.1310      2.00000
     41      -4.0996      2.00000
     42      -4.0991      2.00000
     43      -4.0788      2.00000
     44      -4.0695      2.00000
     45      -4.0038      2.00000
     46      -3.9826      2.00000
     47      -3.9559      2.00000
     48      -3.9494      2.00000
     49      -3.9409      2.00000
     50      -3.9358      2.00000
     51      -3.9274      2.00000
     52      -3.9190      2.00000
     53      -3.8999      2.00000
     54      -3.8959      2.00000
     55      -3.8778      2.00000
     56      -3.8702      2.00000
     57      -3.8200      2.00000
     58      -3.8164      2.00000
     59      -3.8024      2.00000
     60      -3.7959      2.00000
[...]
    238       6.3957      0.00000
    239       6.4700      0.00000
    240       6.4825      0.00000
    241       6.6827      0.00000
    242       7.1661      0.00000
    243       7.2714      0.00000
    244       7.3149      0.00000
    245       7.3251      0.00000
    246       7.4148      0.00000
    247       7.4280      0.00000
    248       7.4982      0.00000
    249       7.5125      0.00000
    250       7.6059      0.00000
    251       7.6762      0.00000
    252       7.8334      0.00000

 soft charge-density along one line, spin component           1
         0         1         2         3         4         5         6         7         8         9
 total charge-density along one line

------------------------ aborting loop because EDIFF is reached ----------------------------------------

 total charge

# of ion       s       p       d       tot
    1        0.419   0.200   9.178   9.797
    2        0.417   0.204   9.177   9.797
    3        0.417   0.204   9.177   9.797
    4        0.417   0.204   9.177   9.797
    5        0.418   0.203   9.176   9.798
    6        0.417   0.204   9.177   9.797
    7        0.417   0.204   9.177   9.797
    8        0.417   0.204   9.177   9.797
    9        0.413   0.205   9.178   9.795
   10        0.408   0.268   9.164   9.840
   11        0.406   0.270   9.167   9.843
   12        0.408   0.268   9.164   9.840
   13        0.406   0.270   9.167   9.843
   14        0.406   0.270   9.167   9.843
   15        0.402   0.269   9.165   9.837
   16        0.408   0.268   9.164   9.840
   17        0.402   0.269   9.165   9.837
   18        0.402   0.269   9.165   9.837
   19        0.404   0.264   9.168   9.836
   20        0.433   0.300   9.139   9.871
   21        0.433   0.300   9.139   9.871
   22        0.394   0.275   9.165   9.834
   23        0.433   0.300   9.139   9.871
   24        0.394   0.275   9.165   9.834
   25        0.404   0.264   9.168   9.836
   26        0.404   0.264   9.168   9.836
   27        0.394   0.275   9.165   9.834
   28        0.416   0.198   9.176   9.790
   29        0.417   0.210   9.175   9.802
   30        0.417   0.210   9.175   9.802
   31        0.417   0.210   9.175   9.802
   32        0.417   0.210   9.175   9.802
   33        0.417   0.210   9.175   9.802
   34        0.417   0.210   9.175   9.802
   35        0.409   0.201   9.177   9.787
   36        0.424   0.515   4.310   5.249
   37        1.560   3.525   0.000   5.085
   38        0.606   0.124   0.000   0.730
tot         17.014  12.592 325.208 354.814

  FORCE on cell =-STRESS in cart. coord.  units (eV):
  Direction    XX          YY          ZZ          XY          YZ          ZX
  Alpha Z   750.94282   750.94282   750.94282
  Ewald  119745.06837119745.06837************     0.00003    -0.00001     0.00004
  Hartree130107.60869130107.60869************     0.00001    -0.00000     0.00002
  E(xc)   -2088.07540 -2088.07540 -2092.40567     0.00000     0.00000     0.00000
  Local  ************************261009.73893     0.00051    -0.00006    -0.00017
  n-local  -363.11526  -345.74249  -355.74023    10.35766    -0.34191     0.46662
  augment  3256.83445  3256.83461  3259.80528    -0.00014     0.00001     0.00002
  Kinetic  4965.57223  4968.67820  4952.82251     4.53538     0.79547    -0.42056
  Fock        0.00000     0.00000     0.00000     0.00000     0.00000     0.00000
  Total      -7.87028    -7.87028    -0.80805    -0.00000     0.00000     0.00000
  in kB      -8.49440    -8.49440    -0.87212    -0.00000     0.00000     0.00000

 VOLUME and BASIS-vectors are now :
  energy-cutoff  :      500.00
  volume of cell :     1484.46
      direct lattice vectors                 reciprocal lattice vectors
     8.791366577  0.000000000  0.000000000     0.113747958 -0.065672414  0.000000000
     4.395683289  7.613546790  0.000000000     0.000000000  0.131344829  0.000000000
     0.000000000  0.000000000 22.178121567     0.000000000  0.000000000  0.045089481

  length of vectors
     8.791366577  8.791366577 22.178121567     0.131344829  0.131344829  0.045089481

 FORCES acting on ions
    electron-ion (+dipol)            ewald-force                    non-local-force                 convergence-correction
   0.461E-04 -.282E-04 0.250E+04   -.954E-04 0.593E-04 -.250E+04   -.118E-17 0.333E-17 -.208E+01   -.120E-03 -.176E-03 -.996E-01
   0.285E+00 0.126E+00 0.250E+04   -.257E+00 -.243E+00 -.250E+04   0.260E-01 0.145E+00 -.158E+01   -.528E-01 -.211E-01 -.159E+00
   -.285E+00 0.126E+00 0.250E+04   0.257E+00 -.243E+00 -.250E+04   -.260E-01 0.145E+00 -.158E+01   0.522E-01 -.193E-01 -.159E+00
   0.252E+00 0.184E+00 0.250E+04   -.339E+00 -.101E+00 -.250E+04   0.138E+00 -.498E-01 -.158E+01   -.445E-01 -.350E-01 -.159E+00
   -.564E-05 -.187E-04 0.250E+04   0.981E-04 -.200E-05 -.250E+04   -.254E-18 -.124E-18 -.145E+01   0.616E-02 0.377E-02 -.186E+00
   -.252E+00 0.184E+00 0.250E+04   0.339E+00 -.101E+00 -.250E+04   -.138E+00 -.498E-01 -.158E+01   0.432E-01 -.341E-01 -.159E+00
   -.332E-01 -.310E+00 0.250E+04   -.822E-01 0.344E+00 -.250E+04   0.112E+00 -.949E-01 -.158E+01   0.985E-02 0.554E-01 -.159E+00
   0.332E-01 -.310E+00 0.250E+04   0.822E-01 0.344E+00 -.250E+04   -.112E+00 -.949E-01 -.158E+01   -.831E-02 0.545E-01 -.159E+00
   0.363E-04 -.130E-04 0.250E+04   0.792E-04 -.643E-04 -.250E+04   0.150E-17 0.128E-17 -.186E+01   -.657E-02 -.338E-02 -.126E+00
   0.284E+01 0.164E+01 0.844E+03   -.225E+01 -.130E+01 -.843E+03   -.483E+00 -.279E+00 -.740E+00   -.824E-01 -.476E-01 -.112E+00
   -.291E-04 0.283E+01 0.847E+03   0.412E-04 -.290E+01 -.847E+03   0.848E-12 0.129E+00 -.372E+00   0.638E-02 -.917E-01 -.374E-01
   -.284E+01 0.164E+01 0.844E+03   0.225E+01 -.130E+01 -.843E+03   0.483E+00 -.279E+00 -.740E+00   0.810E-01 -.472E-01 -.112E+00
   0.245E+01 -.141E+01 0.847E+03   -.251E+01 0.145E+01 -.847E+03   0.112E+00 -.645E-01 -.372E+00   -.764E-01 0.514E-01 -.374E-01
   -.245E+01 -.141E+01 0.847E+03   0.251E+01 0.145E+01 -.847E+03   -.112E+00 -.645E-01 -.372E+00   0.864E-01 0.501E-01 -.398E-01
   0.156E-04 0.748E+00 0.845E+03   -.108E-03 -.868E+00 -.844E+03   0.291E-12 0.443E-01 -.726E+00   -.117E-02 0.541E-01 -.455E-01
   -.818E-05 -.328E+01 0.844E+03   0.207E-04 0.260E+01 -.843E+03   0.366E-11 0.558E+00 -.740E+00   -.454E-03 0.937E-01 -.112E+00
   0.647E+00 -.374E+00 0.845E+03   -.752E+00 0.434E+00 -.844E+03   0.384E-01 -.222E-01 -.726E+00   0.462E-01 -.281E-01 -.455E-01
   -.647E+00 -.374E+00 0.845E+03   0.752E+00 0.434E+00 -.844E+03   -.384E-01 -.222E-01 -.726E+00   -.457E-01 -.264E-01 -.438E-01
   0.397E-04 -.122E+01 -.837E+03   -.127E-03 0.106E+01 0.837E+03   0.687E-12 0.105E+00 0.788E+00   0.942E-03 0.506E-01 0.726E-01
   0.168E+01 0.970E+00 -.825E+03   -.546E+00 -.315E+00 0.826E+03   -.126E+01 -.725E+00 -.109E+01   0.962E-01 0.556E-01 0.128E+00
   -.168E+01 0.970E+00 -.825E+03   0.546E+00 -.315E+00 0.826E+03   0.126E+01 -.725E+00 -.109E+01   -.107E+00 0.536E-01 0.127E+00
   0.179E+00 -.104E+00 -.830E+03   -.197E+00 0.114E+00 0.829E+03   0.201E+00 -.116E+00 0.562E+00   -.124E+00 0.788E-01 0.196E-01
   -.555E-04 -.194E+01 -.825E+03   0.409E-04 0.630E+00 0.826E+03   0.952E-11 0.145E+01 -.109E+01   -.688E-02 -.119E+00 0.127E+00
   -.179E+00 -.104E+00 -.830E+03   0.197E+00 0.113E+00 0.829E+03   -.201E+00 -.116E+00 0.562E+00   0.136E+00 0.786E-01 0.197E-01
   0.106E+01 0.612E+00 -.837E+03   -.919E+00 -.530E+00 0.837E+03   -.906E-01 -.523E-01 0.788E+00   -.453E-01 -.263E-01 0.722E-01
   -.106E+01 0.612E+00 -.837E+03   0.919E+00 -.531E+00 0.837E+03   0.906E-01 -.523E-01 0.788E+00   0.440E-01 -.246E-01 0.726E-01
   0.206E-04 0.207E+00 -.830E+03   0.110E-03 -.227E+00 0.829E+03   0.153E-11 0.233E+00 0.562E+00   0.576E-02 -.146E+00 0.197E-01
   0.541E-04 -.366E-04 -.247E+04   -.115E-03 0.775E-04 0.247E+04   0.193E-17 -.310E-18 0.158E+01   0.379E-04 -.114E-03 0.249E+00
   0.174E+02 0.273E+02 -.245E+04   -.171E+02 -.271E+02 0.245E+04   -.437E+00 -.403E+00 0.212E+01   -.219E-01 -.321E-01 0.277E+00
   -.174E+02 0.273E+02 -.245E+04   0.171E+02 -.271E+02 0.245E+04   0.437E+00 -.403E+00 0.212E+01   0.212E-01 -.314E-01 0.277E+00
   0.323E+02 0.141E+01 -.245E+04   -.320E+02 -.123E+01 0.245E+04   -.568E+00 -.177E+00 0.212E+01   -.386E-01 -.276E-02 0.277E+00
   -.323E+02 0.141E+01 -.245E+04   0.320E+02 -.123E+01 0.245E+04   0.568E+00 -.177E+00 0.212E+01   0.384E-01 -.216E-02 0.279E+00
   0.149E+02 -.287E+02 -.245E+04   -.149E+02 0.283E+02 0.245E+04   -.130E+00 0.580E+00 0.212E+01   -.161E-01 0.346E-01 0.277E+00
   -.149E+02 -.287E+02 -.245E+04   0.149E+02 0.283E+02 0.245E+04   0.130E+00 0.580E+00 0.212E+01   0.170E-01 0.344E-01 0.279E+00
   0.231E-04 -.125E-04 -.247E+04   0.106E-03 -.658E-04 0.247E+04   -.278E-17 0.138E-17 0.181E+01   -.604E-02 -.306E-02 0.209E+00
   -.187E-04 -.568E-05 -.114E+04   0.576E-04 0.774E-05 0.114E+04   -.107E-17 -.487E-17 0.712E-01   0.141E-02 0.868E-03 0.880E-01
   0.194E-03 -.923E-04 -.155E+04   0.296E-04 0.445E-06 0.153E+04   -.154E-18 0.313E-17 0.206E+02   0.356E-02 0.218E-02 0.338E-01
   0.803E-05 -.127E-04 -.316E+03   0.213E-05 0.924E-08 0.324E+03   0.373E-18 0.209E-18 -.846E+01   0.193E-03 0.118E-03 -.240E-01
   0.562E-03 -.789E-03 -.953E+01   -.119E-12 -.452E-13 -.216E-11   -.115E-15 -.152E-18 0.862E+01   0.119E-01 0.102E-01 0.930E+00

 POSITION                                       TOTAL-FORCE (eV/Angst)
      0.00000      0.00000      5.28219        -0.000000     -0.000000     -0.020632
      2.93046      0.00000      5.28219         0.002061      0.007669      0.041690
      5.86091      0.00000      5.28219        -0.002061      0.007669      0.041690
      1.46523      2.53785      5.28219         0.007672     -0.002049      0.041690
      4.39568      2.53785      5.28219        -0.000000     -0.000000      0.027719
      7.32614      2.53785      5.28219        -0.007672     -0.002049      0.041690
      2.93046      5.07570      5.28219         0.005611     -0.005620      0.041690
      5.86091      5.07570      5.28219        -0.005611     -0.005620      0.041690
      8.79137      5.07570      5.28219        -0.000000     -0.000000      0.015844
      1.46523      0.84595      7.67490         0.023528      0.013584     -0.002663
      4.39568      0.84595      7.67490        -0.000000     -0.040020     -0.064951
      7.32614      0.84595      7.67490        -0.023528      0.013584     -0.002663
      2.93046      3.38380      7.67490        -0.034658      0.020010     -0.064951
      5.86091      3.38380      7.67490         0.034658      0.020010     -0.064951
      8.79137      3.38380      7.67490        -0.000000     -0.022644      0.012233
      4.39568      5.92165      7.67490        -0.000000     -0.027168     -0.002663
      7.32614      5.92165      7.67490        -0.019610      0.011322      0.012233
     10.25659      5.92165      7.67490         0.019610      0.011322      0.012233
      8.79137      1.69374     10.05841        -0.000000     -0.008119      0.015089
      2.93927      1.69699     10.03909        -0.019227     -0.011101     -0.045164
      5.85210      1.69699     10.03909         0.019227     -0.011101     -0.045164
     10.25385      4.23133     10.05420         0.054397     -0.031406      0.012157
      4.39568      4.21957     10.03909         0.000000      0.022201     -0.045164
      7.32888      4.23133     10.05420        -0.054397     -0.031406      0.012157
     11.72023      6.76668     10.05841         0.007031      0.004060      0.015089
      5.86251      6.76668     10.05841        -0.007031      0.004060      0.015089
      8.79137      6.76443     10.05420         0.000000      0.062812      0.012157
      0.00000      0.00000     12.42643        -0.000000     -0.000000      0.006453
      2.96234      0.05459     12.44639        -0.124481     -0.221080     -0.190593
      5.82903      0.05459     12.44639         0.124481     -0.221080     -0.190593
      1.52844      2.53816     12.44639        -0.253701      0.002737     -0.190593
      7.26292      2.53816     12.44639         0.253701      0.002737     -0.190593
      2.96179      5.02079     12.44639        -0.129221      0.218343     -0.190593
      5.82958      5.02079     12.44639         0.129221      0.218343     -0.190593
      8.79137      5.07570     12.42906        -0.000000     -0.000000      0.033894
      4.39568      2.53785     12.18689        -0.000000     -0.000000      1.115469
      4.39568      2.53785     13.92988        -0.000000     -0.000000     -0.076657
      4.39568      2.53785     14.89772        -0.000000     -0.000000      0.011236
    total drift:                                0.012511      0.009459      0.017550

  FREE ENERGIE OF THE ION-ELECTRON SYSTEM (eV)
  free  energy   TOTEN  =      -106.74568212 eV

  energy  without entropy=     -106.74568212  energy(sigma->0) =     -106.74568212

 stress matrix after NEB project (eV)
     -7.87028     -0.00000      0.00000
     -0.00000     -7.87028     -0.00000
      0.00000      0.00000     -0.80805
  FORCES: max atom, RMS     0.076657    0.012568
  FORCE total and by dimension    0.077476    0.076657
  Stress total and by dimension   11.159549    7.870279
|           W    W    AA    RRRRR   N    N  II  N    N   GGGG   !!!           |
|           W    W   A  A   R    R  NN   N  II  NN   N  G    G  !!!           |
|           W    W  A    A  R    R  N N  N  II  N N  N  G       !!!           |
|           W WW W  AAAAAA  RRRRR   N  N N  II  N  N N  G  GGG   !            |
|           WW  WW  A    A  R   R   N   NN  II  N   NN  G    G                |
|           W    W  A    A  R    R  N    N  II  N    N   GGGG   !!!           |
|     Tetrahedron method does not include variations of the Fermi             |
|     occupations, so forces and stress will be inaccurate. We suggest        |
|     using a different smearing scheme ISMEAR = 1 or 2 for metals in         |
|     relaxations.                                                            |

 total charge

# of ion       s       p       d       tot
    1        0.419   0.200   9.178   9.797
    2        0.417   0.204   9.177   9.797
    3        0.417   0.204   9.177   9.797
    4        0.417   0.204   9.177   9.797
    5        0.418   0.203   9.176   9.798
    6        0.417   0.204   9.177   9.797
    7        0.417   0.204   9.177   9.797
    8        0.417   0.204   9.177   9.797
    9        0.413   0.205   9.178   9.795
   10        0.408   0.268   9.164   9.840
   11        0.406   0.270   9.167   9.843
   12        0.408   0.268   9.164   9.840
   13        0.406   0.270   9.167   9.843
   14        0.406   0.270   9.167   9.843
   15        0.402   0.269   9.165   9.837
   16        0.408   0.268   9.164   9.840
   17        0.402   0.269   9.165   9.837
   18        0.402   0.269   9.165   9.837
   19        0.404   0.264   9.168   9.836
   20        0.433   0.300   9.139   9.871
   21        0.433   0.300   9.139   9.871
   22        0.394   0.275   9.165   9.834
   23        0.433   0.300   9.139   9.871
   24        0.394   0.275   9.165   9.834
   25        0.404   0.264   9.168   9.836
   26        0.404   0.264   9.168   9.836
   27        0.394   0.275   9.165   9.834
   28        0.416   0.198   9.176   9.790
   29        0.417   0.210   9.175   9.802
   30        0.417   0.210   9.175   9.802
   31        0.417   0.210   9.175   9.802
   32        0.417   0.210   9.175   9.802
   33        0.417   0.210   9.175   9.802
   34        0.417   0.210   9.175   9.802
   35        0.409   0.201   9.177   9.787
   36        0.424   0.515   4.310   5.249
   37        1.560   3.525   0.000   5.085
   38        0.606   0.124   0.000   0.730
tot         17.014  12.592 325.208 354.814

 BZINTS: Fermi energy:    1.051522;  398.000000 electrons
         Band energy:-0.124394E+04;  BLOECHL correction:   -0.018947