 vasp.6.2.0 18Jan21 (build Jun 12 2021 23:27:24) complex

 executed on             LinuxIFC date 2022.05.26  19:43:37

 INCAR:
   ISMEAR = -5
   SIGMA = 0.1
   ISPIN = 1
   EDIFF = 1.d-5
   EDIFFG = -0.01
   NSW = 0
   NELM = 150
   ENCUT = 500
   ISIF = 2
   IBRION = 2
   LREAL = Auto
   ALGO = Fast
   ICHARG = 11
   LORBIT = 10
   LCHARG = .F.
   LWAVE = .F.

 POTCAR:    PAW_PBE Ag 02Apr2005
 POTCAR:    PAW_PBE Ni 02Aug2007
 POTCAR:    PAW_PBE O 08Apr2002
|           W    W    AA    RRRRR   N    N  II  N    N   GGGG   !!!           |
|           W    W   A  A   R    R  NN   N  II  NN   N  G    G  !!!           |
|           W    W  A    A  R    R  N N  N  II  N N  N  G       !!!           |
|           W WW W  AAAAAA  RRRRR   N  N N  II  N  N N  G  GGG   !            |
|           WW  WW  A    A  R   R   N   NN  II  N   NN  G    G                |
|           W    W  A    A  R    R  N    N  II  N    N   GGGG   !!!           |
|     For optimal performance we recommend to set                             |
|       NCORE = 2 up to number-of-cores-per-socket                            |
|     This setting can greatly improve the performance of VASP for DFT.       |
|     The default, NCORE=1 might be grossly inefficient on modern             |
|     multi-core architectures or massively parallel machines. Do your        |
|     Unfortunately you need to use the default for GW and RPA                |
|     calculations (for HF NCORE is supported but not extensively tested      |
|     yet).                                                                   |

 POTCAR:    PAW_PBE Ag 02Apr2005
   VRHFIN =Ag : s1 d10

   TITEL  = PAW_PBE Ag 02Apr2005
   POMASS =  107.868; ZVAL   =   11.000    mass and valenz
   ENMAX  =  249.844; ENMIN  =  187.383 eV

 POTCAR:    PAW_PBE Ni 02Aug2007
   VRHFIN =Ni:

   TITEL  = PAW_PBE Ni 02Aug2007
   POMASS =   58.690; ZVAL   =   10.000    mass and valenz
   ENMAX  =  269.532; ENMIN  =  202.149 eV

 POTCAR:    PAW_PBE O 08Apr2002
   VRHFIN =O: s2p4

   TITEL  = PAW_PBE O 08Apr2002
   POMASS =   16.000; ZVAL   =    6.000    mass and valenz
   ENMAX  =  400.000; ENMIN  =  300.000 eV

 Optimization of the real space projectors (new method)

 maximal supplied QI-value         = 15.12
 optimisation between [QCUT,QGAM] = [ 11.34, 22.83] = [ 36.00,145.93] Ry
 Optimized for a Real-space Cutoff    1.43 Angstroem

   l    n(q)    QCUT    max X(q) W(low)/X(q) W(high)/X(q)  e(spline)
   2      9    11.338    53.897    0.16E-03    0.20E-03    0.28E-06
   2      9    11.338    52.416    0.16E-03    0.20E-03    0.29E-06
   0     10    11.338   122.045    0.31E-04    0.76E-04    0.15E-06
   0     10    11.338    73.629    0.30E-04    0.72E-04    0.15E-06
   1      9    11.338    15.255    0.20E-03    0.19E-04    0.17E-06
   1      9    11.338     9.562    0.16E-03    0.15E-04    0.14E-06
 Optimization of the real space projectors (new method)

[...]

   l    n(q)    QCUT    max X(q) W(low)/X(q) W(high)/X(q)  e(spline)
   2      8    11.376    60.317    0.19E-03    0.33E-04    0.13E-06
   2      8    11.376    55.921    0.20E-03    0.34E-04    0.14E-06
   0      9    11.376    51.690    0.82E-04    0.12E-03    0.20E-06
   0      9    11.376    30.015    0.74E-04    0.11E-03    0.18E-06
   1      9    11.376    18.849    0.39E-03    0.12E-03    0.13E-06
   1      9    11.376    14.624    0.33E-03    0.10E-03    0.11E-06
 Optimization of the real space projectors (new method)

 maximal supplied QI-value         = 24.76
 optimisation between [QCUT,QGAM] = [ 11.39, 22.77] = [ 36.31,145.25] Ry
 Optimized for a Real-space Cutoff    1.00 Angstroem

   l    n(q)    QCUT    max X(q) W(low)/X(q) W(high)/X(q)  e(spline)
   0      7    11.387    20.381    0.39E-03    0.13E-02    0.15E-06
   0      7    11.387    15.268    0.42E-03    0.14E-02    0.17E-06
   1      6    11.387     5.964    0.41E-03    0.11E-02    0.17E-06
   1      6    11.387     5.382    0.39E-03    0.87E-03    0.15E-06
  PAW_PBE Ag 02Apr2005                  :
  PAW_PBE Ni 02Aug2007                  :
  PAW_PBE O 08Apr2002                   :

 POSCAR: Ag-Ni-O
  positions in direct lattice
  velocities in cartesian coordinates
 exchange correlation table for  LEXCH =        8
   RHO(1)=    0.500       N(1)  =     2000
   RHO(2)=  100.500       N(2)  =     4000

 VTST: version 3.2, (02/03/18)

 CHAIN: initializing optimizer

 OPT: Using VASP Conjugate-Gradient optimizer
 CHAIN: Read ICHAIN            0

 POSCAR: Ag-Ni-O
  positions in direct lattice
  velocities in cartesian coordinates

 ion  position               nearest neighbor table
   1  0.000  0.000  0.238-   2 2.93   8 2.93   7 2.93   6 2.93   4 2.93  12 2.93  16 2.93  10 2.93
                             3 2.93
   2  0.333  0.000  0.238-   1 2.93   8 2.93   9 2.93   3 2.93   4 2.93   5 2.93  10 2.93  17 2.93
                            11 2.93
   3  0.667  0.000  0.238-   9 2.93   2 2.93   5 2.93  11 2.93   7 2.93  18 2.93   1 2.93   6 2.93
                            12 2.93
   4  0.000  0.333  0.238-   5 2.93   6 2.93   2 2.93   1 2.93   7 2.93  13 2.93  15 2.93   9 2.93
                            10 2.93
   5  0.333  0.333  0.238-   4 2.93   3 2.93   7 2.93   2 2.93   8 2.93  14 2.93  13 2.93  11 2.93
                             6 2.93
   6  0.667  0.333  0.238-   4 2.93   9 2.93   1 2.93  15 2.93   8 2.93  12 2.93   3 2.93   5 2.93
                            14 2.93
   7  0.000  0.667  0.238-   8 2.93   1 2.93   5 2.93   3 2.93   4 2.93  16 2.93  18 2.93  13 2.93
                             9 2.93
   8  0.333  0.667  0.238-   7 2.93   1 2.93   2 2.93   9 2.93   5 2.93  16 2.93   6 2.93  17 2.93
                            14 2.93
   9  0.667  0.667  0.238-   3 2.93   2 2.93   8 2.93   6 2.93  17 2.93   4 2.93  15 2.93   7 2.93
                            18 2.93
  10  0.111  0.111  0.346-  20 2.91  19 2.92  26 2.92  12 2.93  16 2.93  15 2.93  17 2.93  13 2.93
                            11 2.93   2 2.93   1 2.93   4 2.93
  11  0.444  0.111  0.346-  21 2.91  20 2.91  27 2.91  14 2.93  17 2.93  18 2.93   3 2.93  12 2.93
                            13 2.93  10 2.93   5 2.93   2 2.93
  12  0.778  0.111  0.346-  21 2.91  25 2.92  19 2.92  10 2.93  16 2.93  18 2.93  15 2.93  11 2.93
                             1 2.93  14 2.93   6 2.93   3 2.93
  13  0.111  0.444  0.346-  20 2.91  23 2.91  22 2.91  15 2.93  14 2.93  18 2.93  10 2.93  11 2.93
                            16 2.93   4 2.93   5 2.93   7 2.93
  14  0.444  0.444  0.346-  23 2.91  21 2.91  24 2.91  13 2.93  11 2.93  16 2.93   5 2.93  12 2.93
                            17 2.93   8 2.93  15 2.93   6 2.93
  15  0.778  0.444  0.346-  24 2.91  22 2.91  19 2.92  13 2.93  10 2.93  12 2.93  17 2.93  18 2.93
                             4 2.93   6 2.93   9 2.93  14 2.93
  16  0.111  0.778  0.346-  23 2.91  26 2.92  25 2.92  18 2.93  12 2.93  10 2.93  14 2.93  17 2.93
                            13 2.93   7 2.93   8 2.93   1 2.93
  17  0.444  0.778  0.346-  27 2.91  24 2.91  26 2.92  11 2.93  10 2.93   9 2.93  18 2.93  15 2.93
                            16 2.93   2 2.93  14 2.93   8 2.93
  18  0.778  0.778  0.346-  22 2.91  27 2.91  25 2.92  16 2.93  12 2.93  13 2.93  11 2.93  17 2.93
                            15 2.93   7 2.93   3 2.93   9 2.93
  19  0.889  0.223  0.454-  28 2.91  15 2.92  10 2.92  12 2.92  24 2.93  22 2.93  32 2.94  31 2.94
                            26 2.94  25 2.94  20 2.94  21 2.94
  20  0.223  0.223  0.453-  36 2.69  31 2.89  29 2.89  13 2.91  11 2.91  10 2.91  21 2.92  23 2.92
                            27 2.93  22 2.93  19 2.94  26 2.94
  21  0.554  0.223  0.453-  36 2.69  30 2.89  32 2.89  11 2.91  14 2.91  12 2.91  20 2.92  23 2.92
                            27 2.93  24 2.93  25 2.94  19 2.94
  22  0.889  0.556  0.453-  18 2.91  15 2.91  35 2.91  13 2.91  33 2.91  31 2.91  24 2.93  27 2.93
                            25 2.93  19 2.93  23 2.93  20 2.93
  23  0.223  0.554  0.453-  36 2.69  34 2.89  33 2.89  14 2.91  13 2.91  16 2.91  21 2.92  20 2.92
                            22 2.93  24 2.93  26 2.94  25 2.94
  24  0.556  0.556  0.453-  15 2.91  17 2.91  35 2.91  14 2.91  32 2.91  34 2.91  27 2.93  22 2.93
                            19 2.93  26 2.93  23 2.93  21 2.93
  25  0.889  0.889  0.454-  28 2.91  18 2.92  16 2.92  12 2.92  22 2.93  27 2.93  33 2.94  30 2.94
                            26 2.94  19 2.94  23 2.94  21 2.94
  26  0.223  0.889  0.454-  28 2.91  17 2.92  16 2.92  10 2.92  27 2.93  24 2.93  34 2.94  29 2.94
                            25 2.94  19 2.94  23 2.94  20 2.94
  27  0.556  0.889  0.453-  17 2.91  18 2.91  35 2.91  11 2.91  29 2.91  30 2.91  24 2.93  22 2.93
                            26 2.93  25 2.93  20 2.93  21 2.93
  28  0.000  0.000  0.560-  26 2.91  25 2.91  19 2.91  29 2.96  34 2.96  33 2.96  32 2.96  31 2.96
                            30 2.96
  29  0.333  0.007  0.560-  30 2.87  31 2.87  36 2.88  20 2.89  27 2.91  26 2.94  35 2.96  28 2.96
                            34 3.06
  30  0.659  0.007  0.560-  29 2.87  32 2.87  36 2.88  21 2.89  27 2.91  25 2.94  35 2.96  28 2.96
                            33 3.06
  31  0.007  0.333  0.560-  33 2.87  29 2.87  36 2.88  20 2.89  22 2.91  19 2.94  35 2.96  28 2.96
                            32 3.06
  32  0.659  0.333  0.560-  34 2.87  30 2.87  36 2.88  21 2.89  24 2.91  19 2.94  35 2.96  28 2.96
                            31 3.06
  33  0.007  0.659  0.560-  31 2.87  34 2.87  36 2.88  23 2.89  22 2.91  25 2.94  35 2.96  28 2.96
                            30 3.06
  34  0.333  0.659  0.560-  32 2.87  33 2.87  36 2.88  23 2.89  24 2.91  26 2.94  35 2.96  28 2.96
                            29 3.06
  35  0.667  0.667  0.560-  24 2.91  27 2.91  22 2.91  30 2.96  32 2.96  29 2.96  34 2.96  31 2.96
                            33 2.96
  36  0.333  0.333  0.547-  37 1.67  21 2.69  20 2.69  23 2.69  31 2.88  33 2.88  30 2.88  29 2.88
                            34 2.88  32 2.88
  37  0.333  0.333  0.623-  36 1.67

  LATTYP: Found a hexagonal cell.
 ALAT       =     8.7913665772
 C/A-ratio  =     2.5227160501

  Lattice vectors:

 A1 = (  -4.3956832886,  -7.6135467898,   0.0000000000)
 A2 = (   8.7913665771,   0.0000000000,   0.0000000000)
 A3 = (   0.0000000000,   0.0000000000,  22.1781215668)

Analysis of symmetry for initial positions (statically):
 Subroutine PRICEL returns:
 Original cell was already a primitive cell.

 Routine SETGRP: Setting up the symmetry group for a
 hexagonal supercell.

 Subroutine GETGRP returns: Found  6 space group operations
 (whereof  6 operations were pure point group operations)
 out of a pool of 24 trial point group operations.

The static configuration has the point symmetry C_3v.

Analysis of symmetry for dynamics (positions and initial velocities):
 Subroutine PRICEL returns:
 Original cell was already a primitive cell.

[...]

The dynamic configuration has the point symmetry C_3v.

Analysis of constrained symmetry for selective dynamics:
 Subroutine PRICEL returns:
 Original cell was already a primitive cell.

 Routine SETGRP: Setting up the symmetry group for a
 hexagonal supercell.

 Subroutine GETGRP returns: Found  6 space group operations
[...]
     24      -4.7326      2.00000
     25      -4.7251      2.00000
     26      -4.6954      2.00000
     27      -4.6675      2.00000
     28      -4.6610      2.00000
     29      -4.6518      2.00000
     30      -4.6399      2.00000
     31      -4.6232      2.00000
     32      -4.6217      2.00000
     33      -4.5936      2.00000
     34      -4.5496      2.00000
     35      -4.5187      2.00000
     36      -4.4928      2.00000
     37      -4.4757      2.00000
     38      -4.4606      2.00000
     39      -4.4241      2.00000
     40      -4.4195      2.00000
     41      -4.4112      2.00000
     42      -4.3932      2.00000
     43      -4.3832      2.00000
     44      -4.3194      2.00000
     45      -4.2854      2.00000
     46      -4.2731      2.00000
     47      -4.2687      2.00000
     48      -4.2578      2.00000
     49      -4.2550      2.00000
     50      -4.2380      2.00000
     51      -4.2334      2.00000
     52      -4.2138      2.00000
     53      -4.2129      2.00000
     54      -4.1478      2.00000
     55      -4.1355      2.00000
     56      -4.1243      2.00000
     57      -4.1208      2.00000
     58      -4.1049      2.00000
     59      -4.0915      2.00000
     60      -4.0556      2.00000
[...]
    238       6.2468      0.00000
    239       6.2882      0.00000
    240       6.3762      0.00000
    241       6.9240      0.00000
    242       7.1161      0.00000
    243       7.1640      0.00000
    244       7.2859      0.00000
    245       7.3196      0.00000
    246       7.3586      0.00000
    247       7.3816      0.00000
    248       7.4619      0.00000
    249       7.5636      0.00000
    250       7.6147      0.00000
    251       7.6303      0.00000
    252       7.6909      0.00000

 soft charge-density along one line, spin component           1
         0         1         2         3         4         5         6         7         8         9
 total charge-density along one line

------------------------ aborting loop because EDIFF is reached ----------------------------------------

 total charge

# of ion       s       p       d       tot
    1        0.417   0.202   9.178   9.797
    2        0.417   0.203   9.177   9.797
    3        0.417   0.203   9.177   9.797
    4        0.417   0.203   9.177   9.797
    5        0.415   0.205   9.175   9.794
    6        0.417   0.203   9.177   9.797
    7        0.417   0.203   9.177   9.797
    8        0.417   0.203   9.177   9.797
    9        0.415   0.202   9.179   9.796
   10        0.404   0.270   9.164   9.838
   11        0.406   0.269   9.167   9.842
   12        0.404   0.270   9.164   9.838
   13        0.406   0.269   9.167   9.842
   14        0.406   0.269   9.167   9.842
   15        0.403   0.270   9.165   9.838
   16        0.404   0.270   9.164   9.838
   17        0.403   0.270   9.165   9.838
   18        0.403   0.270   9.165   9.838
   19        0.401   0.271   9.162   9.834
   20        0.421   0.288   9.154   9.863
   21        0.421   0.288   9.154   9.863
   22        0.404   0.270   9.168   9.842
   23        0.421   0.288   9.154   9.863
   24        0.404   0.270   9.168   9.842
   25        0.401   0.271   9.162   9.834
   26        0.401   0.271   9.162   9.834
   27        0.404   0.270   9.168   9.842
   28        0.415   0.193   9.182   9.790
   29        0.392   0.199   9.190   9.781
   30        0.392   0.199   9.190   9.781
   31        0.392   0.199   9.190   9.781
   32        0.392   0.199   9.190   9.781
   33        0.392   0.199   9.190   9.781
   34        0.392   0.199   9.190   9.781
   35        0.412   0.196   9.179   9.787
   36        0.482   0.491   8.356   9.329
   37        1.601   3.236   0.000   4.837
tot         16.330  12.049 329.393 357.772

  FORCE on cell =-STRESS in cart. coord.  units (eV):
  Direction    XX          YY          ZZ          XY          YZ          ZX
  Alpha Z   751.11400   751.11400   751.11400
  Ewald  122680.37635122680.37647************     0.00005     0.00001     0.00004
  Hartree133124.01309133124.01314************     0.00002    -0.00000     0.00003
  E(xc)   -2113.76262 -2113.76263 -2118.51420     0.00000     0.00000     0.00000
  Local  ************************266949.55223     0.00065    -0.00006    -0.00018
  n-local  -362.63917  -345.45737  -356.86629    10.02084    -0.36601     0.37069
  augment  3406.84172  3406.84209  3402.96196    -0.00034     0.00001     0.00003
  Kinetic  4976.15119  4979.22557  4989.37600     4.34830     1.21201    -0.40006
  Fock        0.00000     0.00000     0.00000     0.00000     0.00000     0.00000
  Total      -7.78746    -7.78746     0.39859    -0.00000     0.00000    -0.00000
  in kB      -8.40501    -8.40501     0.43020    -0.00000     0.00000    -0.00000

 VOLUME and BASIS-vectors are now :
  energy-cutoff  :      500.00
  volume of cell :     1484.46
      direct lattice vectors                 reciprocal lattice vectors
     8.791366577  0.000000000  0.000000000     0.113747958 -0.065672414  0.000000000
     4.395683289  7.613546790  0.000000000     0.000000000  0.131344829  0.000000000
     0.000000000  0.000000000 22.178121567     0.000000000  0.000000000  0.045089481

  length of vectors
     8.791366577  8.791366577 22.178121567     0.131344829  0.131344829  0.045089481

 FORCES acting on ions
    electron-ion (+dipol)            ewald-force                    non-local-force                 convergence-correction
   0.459E-04 -.283E-04 0.253E+04   -.954E-04 0.593E-04 -.252E+04   0.508E-17 0.955E-18 -.210E+01   -.132E-03 -.177E-03 -.154E+00
   0.553E+00 0.594E+00 0.253E+04   -.651E+00 -.673E+00 -.253E+04   0.392E-01 0.613E-01 -.166E+01   0.605E-01 0.272E-01 -.184E+00
   -.553E+00 0.594E+00 0.253E+04   0.651E+00 -.673E+00 -.253E+04   -.392E-01 0.613E-01 -.166E+01   -.610E-01 0.292E-01 -.184E+00
   0.791E+00 0.182E+00 0.253E+04   -.908E+00 -.227E+00 -.253E+04   0.727E-01 0.332E-02 -.166E+01   0.540E-01 0.390E-01 -.184E+00
   -.545E-05 -.185E-04 0.253E+04   0.981E-04 -.200E-05 -.253E+04   -.113E-17 -.233E-17 -.149E+01   0.631E-02 0.384E-02 -.165E+00
   -.791E+00 0.182E+00 0.253E+04   0.908E+00 -.228E+00 -.253E+04   -.727E-01 0.332E-02 -.166E+01   -.555E-01 0.399E-01 -.183E+00
   0.238E+00 -.776E+00 0.253E+04   -.257E+00 0.900E+00 -.253E+04   0.334E-01 -.646E-01 -.166E+01   -.480E-02 -.669E-01 -.184E+00
   -.238E+00 -.776E+00 0.253E+04   0.257E+00 0.900E+00 -.253E+04   -.334E-01 -.646E-01 -.166E+01   0.648E-02 -.679E-01 -.183E+00
   0.362E-04 -.131E-04 0.253E+04   0.792E-04 -.643E-04 -.253E+04   -.549E-18 0.479E-17 -.199E+01   -.671E-02 -.345E-02 -.209E+00
   0.587E+01 0.339E+01 0.876E+03   -.567E+01 -.328E+01 -.875E+03   -.222E+00 -.128E+00 -.725E+00   0.243E-01 0.140E-01 -.168E+00
   -.295E-04 0.701E+01 0.887E+03   0.420E-04 -.707E+01 -.887E+03   0.423E-12 0.644E-01 -.290E+00   0.643E-02 -.209E-01 -.185E+00
   -.587E+01 0.339E+01 0.876E+03   0.567E+01 -.328E+01 -.875E+03   0.222E+00 -.128E+00 -.725E+00   -.262E-01 0.155E-01 -.168E+00
   0.607E+01 -.350E+01 0.887E+03   -.613E+01 0.354E+01 -.887E+03   0.557E-01 -.322E-01 -.290E+00   -.150E-01 0.160E-01 -.185E+00
   -.607E+01 -.350E+01 0.887E+03   0.613E+01 0.354E+01 -.887E+03   -.557E-01 -.322E-01 -.290E+00   0.261E-01 0.152E-01 -.184E+00
   0.166E-04 0.970E+00 0.877E+03   -.109E-03 -.110E+01 -.876E+03   0.458E-12 0.697E-01 -.709E+00   -.206E-02 0.402E-01 -.174E+00
   -.786E-05 -.678E+01 0.876E+03   0.208E-04 0.655E+01 -.875E+03   0.168E-11 0.256E+00 -.725E+00   0.334E-03 -.304E-01 -.168E+00
   0.840E+00 -.485E+00 0.877E+03   -.957E+00 0.552E+00 -.876E+03   0.603E-01 -.348E-01 -.709E+00   0.338E-01 -.219E-01 -.174E+00
   -.840E+00 -.485E+00 0.877E+03   0.956E+00 0.552E+00 -.876E+03   -.603E-01 -.348E-01 -.709E+00   -.340E-01 -.196E-01 -.173E+00
   0.428E-04 0.447E+01 -.815E+03   -.131E-03 -.455E+01 0.815E+03   0.706E-12 0.108E+00 0.668E+00   -.213E-02 -.567E-02 -.572E-01
   0.437E+02 0.252E+02 -.752E+03   -.427E+02 -.246E+02 0.752E+03   -.890E+00 -.514E+00 -.560E+00   -.548E-01 -.320E-01 -.175E+00
   -.437E+02 0.252E+02 -.752E+03   0.427E+02 -.246E+02 0.752E+03   0.890E+00 -.514E+00 -.560E+00   0.659E-01 -.308E-01 -.175E+00
   0.186E+02 -.108E+02 -.800E+03   -.186E+02 0.107E+02 0.799E+03   0.109E-01 -.632E-02 0.565E+00   -.466E-01 0.271E-01 -.131E+00
   -.630E-04 -.504E+02 -.752E+03   0.487E-04 0.493E+02 0.752E+03   0.675E-11 0.103E+01 -.560E+00   0.686E-02 0.727E-01 -.175E+00
   -.186E+02 -.108E+02 -.800E+03   0.186E+02 0.107E+02 0.799E+03   -.109E-01 -.632E-02 0.565E+00   0.448E-01 0.261E-01 -.130E+00
   -.387E+01 -.224E+01 -.815E+03   0.394E+01 0.227E+01 0.815E+03   -.932E-01 -.538E-01 0.668E+00   0.570E-02 0.361E-02 -.576E-01
   0.387E+01 -.224E+01 -.815E+03   -.394E+01 0.227E+01 0.815E+03   0.932E-01 -.538E-01 0.668E+00   -.590E-02 0.976E-03 -.576E-01
   0.212E-04 0.215E+02 -.800E+03   0.109E-03 -.214E+02 0.799E+03   0.830E-13 0.126E-01 0.565E+00   -.588E-03 -.534E-01 -.130E+00
   0.552E-04 -.376E-04 -.250E+04   -.116E-03 0.783E-04 0.249E+04   0.600E-18 -.312E-18 0.198E+01   -.134E-02 0.487E-03 0.113E+00
   0.450E+02 0.772E+02 -.248E+04   -.451E+02 -.776E+02 0.248E+04   0.192E+00 0.486E+00 0.257E+01   -.203E+00 -.218E+00 -.131E+00
   -.450E+02 0.772E+02 -.248E+04   0.451E+02 -.776E+02 0.248E+04   -.192E+00 0.486E+00 0.257E+01   0.213E+00 -.215E+00 -.132E+00
   0.894E+02 0.352E+00 -.248E+04   -.898E+02 -.198E+00 0.248E+04   0.517E+00 -.772E-01 0.257E+01   -.296E+00 -.765E-01 -.131E+00
   -.894E+02 0.352E+00 -.248E+04   0.898E+02 -.198E+00 0.248E+04   -.517E+00 -.772E-01 0.257E+01   0.293E+00 -.757E-01 -.132E+00
   0.444E+02 -.776E+02 -.248E+04   -.447E+02 0.778E+02 0.248E+04   0.325E+00 -.409E+00 0.257E+01   -.802E-01 0.294E+00 -.132E+00
   -.444E+02 -.776E+02 -.248E+04   0.447E+02 0.778E+02 0.248E+04   -.325E+00 -.409E+00 0.257E+01   0.923E-01 0.292E+00 -.132E+00
   0.213E-04 -.120E-04 -.250E+04   0.107E-03 -.666E-04 0.249E+04   -.120E-17 -.114E-17 0.189E+01   -.799E-02 -.279E-02 -.221E-01
   -.490E-04 -.338E-04 -.189E+04   0.957E-04 0.140E-04 0.189E+04   -.388E-17 0.378E-17 -.360E+01   0.106E-01 0.494E-02 -.736E+00
   0.177E-03 -.963E-04 -.176E+04   0.318E-04 0.544E-06 0.178E+04   -.182E-17 -.482E-18 -.246E+02   0.396E-02 0.182E-02 0.107E+00
   0.536E-03 -.803E-03 0.333E+02   -.666E-15 -.111E-12 0.387E-11   0.326E-15 0.113E-15 -.277E+02   0.513E-01 0.224E-01 -.563E+01

 POSITION                                       TOTAL-FORCE (eV/Angst)
      0.00000      0.00000      5.28219         0.000000     -0.000000      0.018409
      2.93046      0.00000      5.28219         0.002137      0.010519      0.044366
      5.86091      0.00000      5.28219        -0.002137      0.010519      0.044366
      1.46523      2.53785      5.28219         0.010178     -0.003409      0.044366
      4.39568      2.53785      5.28219         0.000000     -0.000000      0.056628
      7.32614      2.53785      5.28219        -0.010178     -0.003409      0.044366
      2.93046      5.07570      5.28219         0.008041     -0.007110      0.044366
      5.86091      5.07570      5.28219        -0.008041     -0.007110      0.044366
      8.79137      5.07570      5.28219        -0.000000     -0.000000      0.029826
      1.46523      0.84595      7.67490         0.003085      0.001781      0.009661
      4.39568      0.84595      7.67490        -0.000000     -0.024342     -0.054866
      7.32614      0.84595      7.67490        -0.003085      0.001781      0.009661
      2.93046      3.38380      7.67490        -0.021080      0.012171     -0.054866
      5.86091      3.38380      7.67490         0.021080      0.012171     -0.054866
      8.79137      3.38380      7.67490        -0.000000     -0.024882     -0.032506
      4.39568      5.92165      7.67490        -0.000000     -0.003562      0.009661
      7.32614      5.92165      7.67490        -0.021548      0.012441     -0.032506
     10.25659      5.92165      7.67490         0.021548      0.012441     -0.032506
      8.79137      1.69533     10.05818         0.000000      0.025374      0.037397
      2.93805      1.69629     10.04232         0.025042      0.014458     -0.133535
      5.85331      1.69629     10.04232        -0.025042      0.014458     -0.133535
     10.25424      4.23111     10.04634         0.020336     -0.011741     -0.009946
      4.39568      4.22098     10.04232        -0.000000     -0.028916     -0.133535
      7.32849      4.23111     10.04634        -0.020336     -0.011741     -0.009946
     11.71886      6.76588     10.05818        -0.021975     -0.012687      0.037397
      5.86388      6.76588     10.05818         0.021975     -0.012687      0.037397
      8.79137      6.76488     10.04634         0.000000      0.023482     -0.009946
      0.00000      0.00000     12.42348         0.000000     -0.000000     -0.041139
      2.96241      0.05505     12.41819        -0.072188     -0.132217     -0.001658
      5.82895      0.05505     12.41819         0.072188     -0.132217     -0.001658
      1.52888      2.53800     12.41819        -0.150597      0.003592     -0.001658
      7.26249      2.53800     12.41819         0.150597      0.003592     -0.001658
      2.96215      5.02050     12.41819        -0.078409      0.128625     -0.001658
      5.82922      5.02050     12.41819         0.078409      0.128625     -0.001658
      8.79137      5.07570     12.42030         0.000000     -0.000000     -0.014814
      4.39568      2.53785     12.13895        -0.000000     -0.000000      0.220483
      4.39568      2.53785     13.80968        -0.000000     -0.000000      0.025738
    total drift:                                0.051843      0.021579     -0.002608

  FREE ENERGIE OF THE ION-ELECTRON SYSTEM (eV)
  free  energy   TOTEN  =       -99.28249027 eV

  energy  without entropy=      -99.28249027  energy(sigma->0) =      -99.28249027

 stress matrix after NEB project (eV)
     -7.78746     -0.00000     -0.00000
     -0.00000     -7.78746      0.00000
     -0.00000      0.00000      0.39859
  FORCES: max atom, RMS     0.025738    0.004231
  FORCE total and by dimension    0.025738    0.025738
  Stress total and by dimension   11.020339    7.787458
|           W    W    AA    RRRRR   N    N  II  N    N   GGGG   !!!           |
|           W    W   A  A   R    R  NN   N  II  NN   N  G    G  !!!           |
|           W    W  A    A  R    R  N N  N  II  N N  N  G       !!!           |
|           W WW W  AAAAAA  RRRRR   N  N N  II  N  N N  G  GGG   !            |
|           WW  WW  A    A  R   R   N   NN  II  N   NN  G    G                |
|           W    W  A    A  R    R  N    N  II  N    N   GGGG   !!!           |
|     Tetrahedron method does not include variations of the Fermi             |
|     occupations, so forces and stress will be inaccurate. We suggest        |
|     using a different smearing scheme ISMEAR = 1 or 2 for metals in         |
|     relaxations.                                                            |

 total charge

# of ion       s       p       d       tot
    1        0.417   0.202   9.178   9.797
    2        0.417   0.203   9.177   9.797
    3        0.417   0.203   9.177   9.797
    4        0.417   0.203   9.177   9.797
    5        0.415   0.205   9.175   9.794
    6        0.417   0.203   9.177   9.797
    7        0.417   0.203   9.177   9.797
    8        0.417   0.203   9.177   9.797
    9        0.415   0.202   9.179   9.796
   10        0.404   0.270   9.164   9.838
   11        0.406   0.269   9.167   9.842
   12        0.404   0.270   9.164   9.838
   13        0.406   0.269   9.167   9.842
   14        0.406   0.269   9.167   9.842
   15        0.403   0.270   9.165   9.838
   16        0.404   0.270   9.164   9.838
   17        0.403   0.270   9.165   9.838
   18        0.403   0.270   9.165   9.838
   19        0.401   0.271   9.162   9.834
   20        0.421   0.288   9.154   9.863
   21        0.421   0.288   9.154   9.863
   22        0.404   0.270   9.168   9.842
   23        0.421   0.288   9.154   9.863
   24        0.404   0.270   9.168   9.842
   25        0.401   0.271   9.162   9.834
   26        0.401   0.271   9.162   9.834
   27        0.404   0.270   9.168   9.842
   28        0.415   0.193   9.182   9.790
   29        0.392   0.199   9.190   9.781
   30        0.392   0.199   9.190   9.781
   31        0.392   0.199   9.190   9.781
   32        0.392   0.199   9.190   9.781
   33        0.392   0.199   9.190   9.781
   34        0.392   0.199   9.190   9.781
   35        0.412   0.196   9.179   9.787
   36        0.482   0.491   8.356   9.329
   37        1.601   3.236   0.000   4.837
tot         16.330  12.049 329.393 357.772

 BZINTS: Fermi energy:    0.726874;  401.000000 electrons
         Band energy:-0.134831E+04;  BLOECHL correction:   -0.029844