 vasp.6.2.0 18Jan21 (build Jun 12 2021 23:27:24) complex

 executed on             LinuxIFC date 2022.05.27  06:18:24

 INCAR:
   ISMEAR = -5
   SIGMA = 0.1
   ISPIN = 1
   EDIFF = 1.d-5
   EDIFFG = -0.01
   NSW = 0
   NELM = 150
   ENCUT = 500
   ISIF = 2
   IBRION = 2
   LREAL = Auto
   ALGO = Fast
   ICHARG = 11
   LORBIT = 10
   LCHARG = .F.
   LWAVE = .F.

 POTCAR:    PAW_PBE Cu 22Jun2005
 POTCAR:    PAW_PBE Re 17Jan2003
 POTCAR:    PAW_PBE H 15Jun2001
|           W    W    AA    RRRRR   N    N  II  N    N   GGGG   !!!           |
|           W    W   A  A   R    R  NN   N  II  NN   N  G    G  !!!           |
|           W    W  A    A  R    R  N N  N  II  N N  N  G       !!!           |
|           W WW W  AAAAAA  RRRRR   N  N N  II  N  N N  G  GGG   !            |
|           WW  WW  A    A  R   R   N   NN  II  N   NN  G    G                |
|           W    W  A    A  R    R  N    N  II  N    N   GGGG   !!!           |
|     For optimal performance we recommend to set                             |
|       NCORE = 2 up to number-of-cores-per-socket                            |
|     This setting can greatly improve the performance of VASP for DFT.       |
|     The default, NCORE=1 might be grossly inefficient on modern             |
|     multi-core architectures or massively parallel machines. Do your        |
|     Unfortunately you need to use the default for GW and RPA                |
|     calculations (for HF NCORE is supported but not extensively tested      |
|     yet).                                                                   |

 POTCAR:    PAW_PBE Cu 22Jun2005
   VRHFIN =Cu: d10 p1

   TITEL  = PAW_PBE Cu 22Jun2005
   POMASS =   63.546; ZVAL   =   11.000    mass and valenz
   ENMAX  =  295.446; ENMIN  =  221.585 eV

 POTCAR:    PAW_PBE Re 17Jan2003
   VRHFIN =Re: 5p6s5d

   TITEL  = PAW_PBE Re 17Jan2003
   POMASS =  186.207; ZVAL   =    7.000    mass and valenz
   ENMAX  =  226.216; ENMIN  =  169.662 eV

 POTCAR:    PAW_PBE H 15Jun2001
   VRHFIN =H: ultrasoft test

   TITEL  = PAW_PBE H 15Jun2001
   POMASS =    1.000; ZVAL   =    1.000    mass and valenz
   ENMAX  =  250.000; ENMIN  =  200.000 eV

 Optimization of the real space projectors (new method)

 maximal supplied QI-value         = 16.25
 optimisation between [QCUT,QGAM] = [ 11.38, 22.75] = [ 36.24,144.96] Ry
 Optimized for a Real-space Cutoff    1.52 Angstroem

   l    n(q)    QCUT    max X(q) W(low)/X(q) W(high)/X(q)  e(spline)
   2      9    11.376     4.610    0.21E-03    0.10E-03    0.26E-06
   2      9    11.376     8.522    0.33E-03    0.16E-03    0.37E-06
   0     10    11.376    51.609    0.62E-04    0.20E-04    0.13E-06
   0     10    11.376    27.747    0.54E-04    0.20E-04    0.13E-06
   1     10    11.376    20.408    0.13E-04    0.99E-04    0.19E-06
   1     10    11.376    13.425    0.12E-04    0.87E-04    0.17E-06
 Optimization of the real space projectors (new method)

[...]

   l    n(q)    QCUT    max X(q) W(low)/X(q) W(high)/X(q)  e(spline)
   2     10    11.327   884.633    0.22E-03    0.51E-03    0.88E-06
   2     10    11.327   796.723    0.22E-03    0.51E-03    0.88E-06
   0     11    11.327    65.348    0.44E-04    0.11E-03    0.75E-06
   0     11    11.327    39.642    0.40E-04    0.10E-03    0.69E-06
   1     10    11.327    13.988    0.15E-03    0.10E-03    0.19E-06
   1     10    11.327     8.682    0.11E-03    0.76E-04    0.14E-06
 Optimization of the real space projectors (new method)

 maximal supplied QI-value         = 34.20
 optimisation between [QCUT,QGAM] = [ 11.29, 22.57] = [ 35.68,142.71] Ry
 Optimized for a Real-space Cutoff    1.16 Angstroem

   l    n(q)    QCUT    max X(q) W(low)/X(q) W(high)/X(q)  e(spline)
   0      8    11.287    19.460    0.40E-03    0.73E-03    0.16E-06
   0      8    11.287    12.209    0.38E-03    0.70E-03    0.15E-06
   1      7    11.287     4.655    0.22E-03    0.25E-04    0.22E-06
  PAW_PBE Cu 22Jun2005                  :
  PAW_PBE Re 17Jan2003                  :
  PAW_PBE H 15Jun2001                   :

 POSCAR: Cu-Re-H2
  positions in direct lattice
  velocities in cartesian coordinates
 exchange correlation table for  LEXCH =        8
   RHO(1)=    0.500       N(1)  =     2000
   RHO(2)=  100.500       N(2)  =     4000

 VTST: version 3.2, (02/03/18)

 CHAIN: initializing optimizer

 OPT: Using VASP Conjugate-Gradient optimizer
 CHAIN: Read ICHAIN            0

 POSCAR: Cu-Re-H2
  positions in direct lattice
  velocities in cartesian coordinates

 ion  position               nearest neighbor table
   1  0.000  0.000  0.252-   7 2.57   3 2.57   4 2.57   2 2.57   6 2.57   8 2.57  12 2.57  10 2.57
                            16 2.57
   2  0.333  0.000  0.252-   8 2.57   9 2.57   5 2.57   1 2.57   3 2.57  11 2.57   4 2.57  10 2.57
                            17 2.57
   3  0.667  0.000  0.252-   1 2.57   7 2.57   6 2.57   9 2.57   2 2.57  12 2.57   5 2.57  18 2.57
                            11 2.57
   4  0.000  0.333  0.252-   5 2.57   6 2.57   1 2.57   7 2.57   2 2.57  13 2.57   9 2.57  10 2.57
                            15 2.57
   5  0.333  0.333  0.252-   4 2.57   2 2.57   7 2.57  13 2.57   8 2.57   6 2.57   3 2.57  11 2.57
                            14 2.57
   6  0.667  0.333  0.252-   4 2.57   9 2.57  15 2.57   3 2.57   1 2.57   8 2.57  14 2.57   5 2.57
                            12 2.57
   7  0.000  0.667  0.252-   1 2.57   3 2.57  16 2.57  18 2.57   4 2.57   5 2.57   8 2.57   9 2.57
                            13 2.57
   8  0.333  0.667  0.252-   9 2.57   2 2.57  17 2.57   6 2.57   1 2.57   7 2.57   5 2.57  14 2.57
                            16 2.57
   9  0.667  0.667  0.252-   8 2.57   6 2.57   2 2.57  17 2.57   3 2.57   7 2.57   4 2.57  15 2.57
                            18 2.57
  10  0.111  0.111  0.351-  20 2.53  11 2.57  12 2.57  13 2.57   1 2.57   2 2.57   4 2.57  15 2.57
                            16 2.57  17 2.57  26 2.57  19 2.57
  11  0.444  0.111  0.351-  20 2.55  21 2.55  10 2.57  13 2.57   2 2.57  17 2.57  14 2.57  12 2.57
                             5 2.57   3 2.57  18 2.57  27 2.58
  12  0.778  0.111  0.351-  21 2.53  15 2.57  10 2.57  14 2.57  18 2.57   3 2.57   1 2.57  16 2.57
                            11 2.57   6 2.57  19 2.57  25 2.57
  13  0.111  0.444  0.351-  23 2.55  20 2.55  16 2.57  18 2.57  10 2.57  11 2.57  14 2.57   5 2.57
                             4 2.57   7 2.57  15 2.57  22 2.58
  14  0.444  0.444  0.351-  21 2.55  23 2.55  15 2.57  17 2.57  12 2.57  16 2.57  13 2.57  11 2.57
                             6 2.57   8 2.57   5 2.57  24 2.58
  15  0.778  0.444  0.351-  19 2.57  14 2.57  17 2.57  12 2.57   6 2.57  18 2.57  10 2.57   9 2.57
                            13 2.57   4 2.57  24 2.57  22 2.57
  16  0.111  0.778  0.351-  23 2.53  18 2.57  13 2.57   7 2.57  14 2.57  17 2.57  12 2.57  10 2.57
                             8 2.57   1 2.57  25 2.57  26 2.57
  17  0.444  0.778  0.351-  26 2.57  14 2.57  15 2.57   8 2.57   9 2.57  11 2.57  16 2.57  18 2.57
                            10 2.57   2 2.57  27 2.57  24 2.57
  18  0.778  0.778  0.351-  25 2.57  16 2.57  13 2.57   7 2.57  15 2.57  12 2.57  17 2.57   9 2.57
                             3 2.57  11 2.57  22 2.57  27 2.57
  19  0.889  0.223  0.449-  21 2.55  20 2.55  22 2.56  24 2.56  28 2.56  15 2.57  12 2.57  10 2.57
                            25 2.57  26 2.57  32 2.59  31 2.59
  20  0.221  0.221  0.448-  36 2.53  10 2.53  11 2.55  13 2.55  26 2.55  19 2.55  27 2.57  22 2.57
                            23 2.59  21 2.59  29 2.61  31 2.61
  21  0.558  0.221  0.448-  36 2.53  12 2.53  14 2.55  11 2.55  19 2.55  25 2.55  24 2.57  27 2.57
                            20 2.59  23 2.59  32 2.61  30 2.61
  22  0.888  0.556  0.450-  24 2.55  27 2.55  35 2.55  19 2.56  25 2.56  18 2.57  15 2.57  23 2.57
                            20 2.57  13 2.58  31 2.59  33 2.59
  23  0.221  0.558  0.448-  36 2.53  16 2.53  13 2.55  14 2.55  25 2.55  26 2.55  22 2.57  24 2.57
                            20 2.59  21 2.59  33 2.61  34 2.61
  24  0.556  0.556  0.450-  22 2.55  27 2.55  35 2.55  19 2.56  26 2.56  15 2.57  17 2.57  21 2.57
                            23 2.57  14 2.58  32 2.59  34 2.59
  25  0.889  0.889  0.449-  21 2.55  23 2.55  22 2.56  27 2.56  28 2.56  18 2.57  16 2.57  12 2.57
                            19 2.57  26 2.57  33 2.59  30 2.59
  26  0.223  0.889  0.449-  20 2.55  23 2.55  27 2.56  24 2.56  28 2.56  17 2.57  10 2.57  16 2.57
                            25 2.57  19 2.57  29 2.59  34 2.59
  27  0.556  0.888  0.450-  24 2.55  22 2.55  35 2.55  26 2.56  25 2.56  17 2.57  18 2.57  20 2.57
                            21 2.57  11 2.58  29 2.59  30 2.59
  28  0.000  0.000  0.548-  33 2.56  30 2.56  31 2.56  29 2.56  32 2.56  34 2.56  25 2.56  19 2.56
                            26 2.56
  29  0.333  0.000  0.549-  31 2.56  28 2.56  36 2.57  34 2.57  35 2.57  30 2.57  26 2.59  27 2.59
                            20 2.61
  30  0.667  0.000  0.549-  32 2.56  28 2.56  36 2.57  33 2.57  35 2.57  29 2.57  25 2.59  27 2.59
                            21 2.61
  31  0.000  0.333  0.549-  29 2.56  28 2.56  36 2.57  32 2.57  35 2.57  33 2.57  19 2.59  22 2.59
                            20 2.61
  32  0.667  0.333  0.549-  30 2.56  28 2.56  36 2.57  31 2.57  35 2.57  34 2.57  19 2.59  24 2.59
                            21 2.61
  33  0.000  0.667  0.549-  34 2.56  28 2.56  36 2.57  30 2.57  35 2.57  31 2.57  25 2.59  22 2.59
                            23 2.61
  34  0.333  0.667  0.549-  33 2.56  28 2.56  36 2.57  29 2.57  35 2.57  32 2.57  26 2.59  24 2.59
                            23 2.61
  35  0.667  0.667  0.548-  24 2.55  27 2.55  22 2.55  34 2.57  32 2.57  29 2.57  30 2.57  33 2.57
                            31 2.57
  36  0.333  0.333  0.544-  37 1.77  38 1.77  23 2.53  20 2.53  21 2.53  31 2.57  29 2.57  33 2.57
                            34 2.57  32 2.57  30 2.57
  37  0.236  0.234  0.600-  36 1.77
  38  0.530  0.234  0.600-  36 1.77

  LATTYP: Found a hexagonal cell.
 ALAT       =     7.6967864036
 C/A-ratio  =     2.7653617908

  Lattice vectors:

 A1 = (  -3.8483927580,  -6.6656128093,   0.0000000000)
 A2 = (   7.6967864037,   0.0000000000,   0.0000000000)
 A3 = (   0.0000000000,   0.0000000000,  21.2843990326)

Analysis of symmetry for initial positions (statically):
 Subroutine PRICEL returns:
 Original cell was already a primitive cell.

 Routine SETGRP: Setting up the symmetry group for a
 hexagonal supercell.

 Subroutine GETGRP returns: Found  2 space group operations
 (whereof  2 operations were pure point group operations)
 out of a pool of 24 trial point group operations.

The static configuration has the point symmetry C_1h.

Analysis of symmetry for dynamics (positions and initial velocities):
 Subroutine PRICEL returns:
 Original cell was already a primitive cell.

[...]

The dynamic configuration has the point symmetry C_1h.

Analysis of constrained symmetry for selective dynamics:
 Subroutine PRICEL returns:
 Original cell was already a primitive cell.

 Routine SETGRP: Setting up the symmetry group for a
 hexagonal supercell.

 Subroutine GETGRP returns: Found  2 space group operations
[...]
     33      -3.9799      2.00000
     34      -3.9572      2.00000
     35      -3.8909      2.00000
     36      -3.8870      2.00000
     37      -3.8719      2.00000
     38      -3.7631      2.00000
     39      -3.6907      2.00000
     40      -3.6850      2.00000
     41      -3.6196      2.00000
     42      -3.6104      2.00000
     43      -3.5998      2.00000
     44      -3.5853      2.00000
     45      -3.5736      2.00000
     46      -3.5452      2.00000
     47      -3.5375      2.00000
     48      -3.3968      2.00000
     49      -3.3640      2.00000
     50      -3.3499      2.00000
     51      -3.3414      2.00000
     52      -3.2925      2.00000
     53      -3.2853      2.00000
     54      -3.2713      2.00000
     55      -3.2686      2.00000
     56      -3.2465      2.00000
     57      -3.2389      2.00000
     58      -3.2113      2.00000
     59      -3.2037      2.00000
     60      -3.2009      2.00000
[...]
    238       6.8482      0.00000
    239       6.8926      0.00000
    240       6.9987      0.00000
    241       7.0536      0.00000
    242       7.1559      0.00000
    243       7.3066      0.00000
    244       7.3395      0.00000
    245       7.3915      0.00000
    246       7.4532      0.00000
    247       7.5553      0.00000
    248       7.7227      0.00000
    249       7.9346      0.00000
    250       8.1503      0.00000
    251       8.2562      0.00000
    252       8.4844      0.00000

 soft charge-density along one line, spin component           1
         0         1         2         3         4         5         6         7         8         9
 total charge-density along one line

------------------------ aborting loop because EDIFF is reached ----------------------------------------

 total charge

# of ion       s       p       d       tot
    1        0.449   0.283   9.191   9.923
    2        0.450   0.283   9.187   9.920
    3        0.450   0.283   9.187   9.920
    4        0.450   0.285   9.186   9.921
    5        0.446   0.288   9.180   9.915
    6        0.450   0.285   9.186   9.921
    7        0.449   0.286   9.185   9.920
    8        0.449   0.286   9.185   9.920
    9        0.446   0.283   9.190   9.919
   10        0.443   0.373   9.174   9.990
   11        0.444   0.365   9.186   9.995
   12        0.443   0.373   9.174   9.990
   13        0.445   0.365   9.185   9.994
   14        0.445   0.365   9.185   9.994
   15        0.439   0.367   9.178   9.984
   16        0.443   0.372   9.175   9.990
   17        0.437   0.369   9.180   9.985
   18        0.437   0.369   9.180   9.985
   19        0.435   0.372   9.178   9.985
   20        0.464   0.407   9.159  10.030
   21        0.464   0.407   9.159  10.030
   22        0.429   0.372   9.181   9.981
   23        0.467   0.404   9.162  10.033
   24        0.429   0.372   9.181   9.981
   25        0.439   0.366   9.182   9.987
   26        0.439   0.366   9.182   9.987
   27        0.427   0.373   9.180   9.980
   28        0.454   0.282   9.194   9.930
   29        0.447   0.339   9.180   9.966
   30        0.447   0.339   9.180   9.966
   31        0.447   0.348   9.169   9.964
   32        0.447   0.348   9.169   9.964
   33        0.465   0.319   9.162   9.946
   34        0.465   0.319   9.162   9.946
   35        0.441   0.290   9.189   9.919
   36        0.590   0.529   4.903   6.023
   37        0.518   0.020   0.000   0.538
   38        0.518   0.020   0.000   0.538
tot         17.244  12.471 326.164 355.880

  FORCE on cell =-STRESS in cart. coord.  units (eV):
  Direction    XX          YY          ZZ          XY          YZ          ZX
  Alpha Z   890.16547   890.16547   890.16547
  Ewald  171882.61974171887.84778************     0.00035    12.05668     0.00014
  Hartree184730.75886184738.90743************     0.00003    14.26014     0.00005
  E(xc)   -2284.91324 -2284.90475 -2289.73102    -0.00033     0.17216    -0.00003
  Local  ************************369859.17181     0.01955   -27.01164    -0.00065
  n-local  -776.06920  -777.91828  -792.70776     1.85951     0.07560     0.18602
  augment  3317.19862  3316.83391  3338.14651    -0.01832    -0.63901     0.00034
  Kinetic  3240.73642  3243.16307  3273.49776     1.23519     0.90765    -0.32180
  Fock        0.00000     0.00000     0.00000     0.00000     0.00000     0.00000
  Total      -4.03743    -3.96588     1.54803     0.00000    -0.17842     0.00000
  in kB      -5.92386    -5.81888     2.27133     0.00000    -0.26179     0.00000

 VOLUME and BASIS-vectors are now :
  energy-cutoff  :      500.00
  volume of cell :     1091.97
      direct lattice vectors                 reciprocal lattice vectors
     7.696786404  0.000000000  0.000000000     0.129924354 -0.075011849  0.000000000
     3.848392758  6.665612809  0.000000000     0.000000000  0.150023716  0.000000000
     0.000000000  0.000000000 21.284399033     0.000000000  0.000000000  0.046982769

  length of vectors
     7.696786404  7.696786404 21.284399033     0.150023716  0.150023716  0.046982769

 FORCES acting on ions
    electron-ion (+dipol)            ewald-force                    non-local-force                 convergence-correction
   -.408E-04 0.259E-01 0.346E+04   0.581E-04 -.429E-01 -.346E+04   -.346E-08 0.519E-01 -.299E+01   -.400E-03 -.276E-01 -.353E+00
   -.541E+00 -.812E-01 0.346E+04   0.245E+00 -.935E-02 -.346E+04   0.129E+00 0.106E+00 -.193E+01   0.160E+00 -.336E-02 -.383E+00
   0.541E+00 -.812E-01 0.346E+04   -.245E+00 -.940E-02 -.346E+04   -.129E+00 0.106E+00 -.193E+01   -.159E+00 -.922E-03 -.382E+00
   -.225E+00 -.368E+00 0.346E+04   0.151E+00 0.251E+00 -.346E+04   0.521E-01 0.360E-01 -.185E+01   0.465E-01 0.827E-01 -.312E+00
   -.612E-04 0.124E+00 0.346E+04   0.116E-03 0.568E-01 -.346E+04   0.599E-08 -.899E-01 -.143E+01   0.121E-01 -.579E-01 -.299E+00
   0.225E+00 -.368E+00 0.346E+04   -.151E+00 0.251E+00 -.346E+04   -.521E-01 0.360E-01 -.185E+01   -.481E-01 0.838E-01 -.311E+00
   0.908E-01 0.357E+00 0.346E+04   -.925E-01 -.242E+00 -.346E+04   0.600E-01 -.859E-01 -.160E+01   -.332E-01 -.554E-01 -.301E+00
   -.907E-01 0.357E+00 0.346E+04   0.922E-01 -.242E+00 -.346E+04   -.600E-01 -.859E-01 -.160E+01   0.366E-01 -.569E-01 -.301E+00
   -.143E-03 -.126E-01 0.346E+04   0.263E-03 -.128E-01 -.346E+04   0.411E-09 -.617E-02 -.243E+01   -.131E-01 0.294E-01 -.317E+00
   0.131E+01 0.785E+00 0.114E+04   -.927E+00 -.581E+00 -.114E+04   -.526E+00 -.275E+00 -.138E+01   0.126E+00 0.591E-01 -.540E-01
   -.918E-04 -.100E+01 0.113E+04   0.190E-03 0.441E+00 -.113E+04   -.251E-07 0.376E+00 -.402E+00   0.123E-01 0.979E-01 -.794E-01
   -.131E+01 0.785E+00 0.114E+04   0.927E+00 -.581E+00 -.114E+04   0.526E+00 -.275E+00 -.138E+01   -.128E+00 0.598E-01 -.537E-01
   -.499E+00 0.224E+00 0.113E+04   0.448E+00 0.145E+00 -.113E+04   0.216E-01 -.255E+00 -.269E+00   -.715E-02 -.665E-01 -.333E-01
   0.499E+00 0.224E+00 0.113E+04   -.448E+00 0.145E+00 -.113E+04   -.216E-01 -.255E+00 -.269E+00   0.305E-01 -.687E-01 -.361E-01
   -.142E-03 -.108E+01 0.114E+04   0.298E-03 0.840E+00 -.114E+04   -.809E-08 0.122E+00 -.101E+01   -.323E-02 0.111E+00 -.772E-01
   -.924E-04 -.140E+01 0.114E+04   0.186E-03 0.714E+00 -.114E+04   -.498E-07 0.748E+00 -.978E+00   -.131E-02 -.662E-01 -.110E-01
   -.584E+00 0.727E+00 0.114E+04   0.404E+00 -.561E+00 -.114E+04   0.118E+00 -.896E-01 -.998E+00   0.728E-01 -.585E-01 -.114E+00
   0.584E+00 0.727E+00 0.114E+04   -.405E+00 -.561E+00 -.114E+04   -.118E+00 -.896E-01 -.998E+00   -.708E-01 -.557E-01 -.111E+00
   -.631E-04 -.431E+01 -.119E+04   0.709E-04 0.432E+01 0.119E+04   0.526E-08 -.790E-01 0.690E+00   -.109E-01 0.659E-01 0.909E-01
   -.382E+02 -.233E+02 -.121E+04   0.388E+02 0.240E+02 0.121E+04   -.910E+00 -.780E+00 -.127E+01   0.251E+00 0.529E-01 0.412E+00
   0.382E+02 -.233E+02 -.121E+04   -.388E+02 0.240E+02 0.121E+04   0.910E+00 -.780E+00 -.127E+01   -.270E+00 0.494E-01 0.412E+00
   -.249E+02 0.131E+02 -.120E+04   0.246E+02 -.128E+02 0.120E+04   0.333E+00 -.290E+00 0.743E+00   0.131E+00 -.376E-02 0.141E+00
   -.944E-04 0.431E+02 -.122E+04   0.147E-03 -.437E+02 0.122E+04   -.659E-07 0.990E+00 -.144E+01   -.139E-01 -.213E+00 0.444E+00
   0.249E+02 0.131E+02 -.120E+04   -.246E+02 -.128E+02 0.120E+04   -.333E+00 -.290E+00 0.743E+00   -.107E+00 -.608E-02 0.141E+00
   0.240E+01 0.427E+01 -.119E+04   -.243E+01 -.424E+01 0.119E+04   0.946E-01 0.725E-01 0.859E+00   -.121E+00 -.778E-01 0.272E+00
   -.240E+01 0.427E+01 -.119E+04   0.243E+01 -.424E+01 0.119E+04   -.946E-01 0.725E-01 0.859E+00   0.980E-01 -.766E-01 0.273E+00
   -.109E-03 -.265E+02 -.120E+04   0.240E-03 0.254E+02 0.120E+04   -.658E-07 0.989E+00 0.906E+00   0.132E-01 0.168E+00 0.235E+00
   -.491E-04 0.755E+01 -.345E+04   0.408E-04 -.765E+01 0.344E+04   -.524E-08 0.788E-01 0.229E+01   -.461E-03 -.114E+00 0.426E+00
   -.295E+02 -.312E+02 -.345E+04   0.301E+02 0.299E+02 0.344E+04   -.960E+00 0.899E+00 0.259E+01   0.174E+00 0.176E+00 0.276E+00
   0.295E+02 -.312E+02 -.345E+04   -.301E+02 0.299E+02 0.344E+04   0.960E+00 0.899E+00 0.259E+01   -.172E+00 0.176E+00 0.274E+00
   -.501E+02 -.158E+02 -.345E+04   0.491E+02 0.172E+02 0.345E+04   0.369E+00 -.141E+01 0.231E+01   0.396E+00 0.468E-01 0.350E+00
   0.501E+02 -.158E+02 -.345E+04   -.491E+02 0.172E+02 0.345E+04   -.369E+00 -.141E+01 0.231E+01   -.396E+00 0.471E-01 0.350E+00
   -.358E+02 0.592E+02 -.347E+04   0.361E+02 -.601E+02 0.347E+04   -.543E+00 0.128E+01 0.104E+01   0.213E+00 -.291E+00 0.412E+00
   0.358E+02 0.592E+02 -.347E+04   -.361E+02 -.601E+02 0.347E+04   0.543E+00 0.128E+01 0.104E+01   -.210E+00 -.291E+00 0.414E+00
   -.148E-03 0.143E+01 -.345E+04   0.248E-03 -.160E+01 0.345E+04   -.213E-08 0.320E-01 0.252E+01   -.121E-01 0.111E+00 0.439E+00
   -.472E-04 -.230E+02 -.212E+04   0.896E-04 0.226E+02 0.212E+04   -.447E-07 0.671E+00 -.519E-02   0.549E-03 0.639E-01 0.246E+00
   -.915E+01 -.692E+01 -.385E+03   0.842E+01 0.648E+01 0.386E+03   0.680E+00 0.399E+00 -.170E+01   0.392E-01 0.277E-01 -.402E-02
   0.915E+01 -.692E+01 -.385E+03   -.842E+01 0.648E+01 0.386E+03   -.680E+00 0.399E+00 -.170E+01   -.392E-01 0.277E-01 -.409E-02
   -.218E-03 -.305E+01 0.908E+01   0.211E-12 0.123E-12 -.227E-11   -.206E-06 0.310E+01 -.112E+02   -.597E-02 -.545E-01 0.207E+01

 POSITION                                       TOTAL-FORCE (eV/Angst)
      0.00000      0.00000      5.37156        -0.000000      0.007500     -0.015099
      2.56560      0.00000      5.37156        -0.008486      0.012956      0.064053
      5.13119      0.00000      5.37156         0.008486      0.012956      0.064053
      1.28280      2.22187      5.37156         0.026101      0.002157      0.055809
      3.84839      2.22187      5.37156        -0.000000      0.032970      0.049443
      6.41399      2.22187      5.37156        -0.026101      0.002157      0.055809
      2.56560      4.44374      5.37156         0.023506     -0.027074      0.058991
      5.13119      4.44374      5.37156        -0.023506     -0.027074      0.058991
      7.69679      4.44374      5.37156         0.000000     -0.002118      0.014685
      1.28280      0.74062      7.46636        -0.017982     -0.011758     -0.081412
      3.84839      0.74062      7.46636         0.000000     -0.085298     -0.117729
      6.41399      0.74062      7.46636         0.017982     -0.011758     -0.081412
      2.56560      2.96249      7.46636        -0.048340      0.045943     -0.083868
      5.13119      2.96249      7.46636         0.048340      0.045943     -0.083868
      7.69679      2.96249      7.46636         0.000000     -0.010339      0.002813
      3.84839      5.18437      7.46636         0.000000     -0.002028     -0.048522
      6.41399      5.18437      7.46636         0.009740      0.019635      0.043653
      8.97958      5.18437      7.46636        -0.009740      0.019635      0.043653
      7.69679      1.48486      9.56345         0.000000     -0.006035      0.139308
      2.55359      1.47432      9.53212        -0.048113     -0.070028     -0.171316
      5.14319      1.47432      9.53212         0.048113     -0.070028     -0.171316
      8.97343      3.70667      9.56919         0.082505     -0.051053      0.042895
      3.84839      3.71698      9.53212        -0.000000      0.164182     -0.268387
      6.42014      3.70667      9.56919        -0.082505     -0.051053      0.042895
     10.25925      5.92318      9.56345        -0.045628      0.024272      0.061013
      5.13432      5.92318      9.56345         0.045628      0.024272      0.061013
      7.69679      5.91789      9.56919        -0.000000      0.054830      0.038526
      0.00000      0.00000     11.65394         0.000000     -0.134738     -0.091625
      2.56263      0.00314     11.68588        -0.152766     -0.280803      0.007356
      5.13415      0.00314     11.68588         0.152766     -0.280803      0.007356
      1.28404      2.21774     11.68588        -0.182586      0.089397     -0.017631
      6.41275      2.21774     11.68588         0.182586      0.089397     -0.017631
      2.56979      4.44474     11.68588        -0.000705      0.115354     -0.153143
      5.12699      4.44474     11.68588         0.000705      0.115354     -0.153143
      7.69679      4.44374     11.65455         0.000000     -0.026195     -0.006693
      3.84839      2.22187     11.57229        -0.000000      0.285984      0.624758
      2.71959      1.56125     12.76112        -0.000924     -0.008356      0.012860
      4.97719      1.56125     12.76112         0.000924     -0.008356      0.012860
    total drift:                               -0.006190     -0.003727     -0.031777

  FREE ENERGIE OF THE ION-ELECTRON SYSTEM (eV)
  free  energy   TOTEN  =      -140.18928150 eV

  energy  without entropy=     -140.18928150  energy(sigma->0) =     -140.18928150

 stress matrix after NEB project (eV)
     -4.03743      0.00000      0.00000
      0.00000     -3.96588     -0.17842
      0.00000     -0.17842      1.54803
  FORCES: max atom, RMS     0.015364    0.003525
  FORCE total and by dimension    0.021728    0.012860
  Stress total and by dimension    5.872747    4.037430
|           W    W    AA    RRRRR   N    N  II  N    N   GGGG   !!!           |
|           W    W   A  A   R    R  NN   N  II  NN   N  G    G  !!!           |
|           W    W  A    A  R    R  N N  N  II  N N  N  G       !!!           |
|           W WW W  AAAAAA  RRRRR   N  N N  II  N  N N  G  GGG   !            |
|           WW  WW  A    A  R   R   N   NN  II  N   NN  G    G                |
|           W    W  A    A  R    R  N    N  II  N    N   GGGG   !!!           |
|     Tetrahedron method does not include variations of the Fermi             |
|     occupations, so forces and stress will be inaccurate. We suggest        |
|     using a different smearing scheme ISMEAR = 1 or 2 for metals in         |
|     relaxations.                                                            |

 total charge

# of ion       s       p       d       tot
    1        0.449   0.283   9.191   9.923
    2        0.450   0.283   9.187   9.920
    3        0.450   0.283   9.187   9.920
    4        0.450   0.285   9.186   9.921
    5        0.446   0.288   9.180   9.915
    6        0.450   0.285   9.186   9.921
    7        0.449   0.286   9.185   9.920
    8        0.449   0.286   9.185   9.920
    9        0.446   0.283   9.190   9.919
   10        0.443   0.373   9.174   9.990
   11        0.444   0.365   9.186   9.995
   12        0.443   0.373   9.174   9.990
   13        0.445   0.365   9.185   9.994
   14        0.445   0.365   9.185   9.994
   15        0.439   0.367   9.178   9.984
   16        0.443   0.372   9.175   9.990
   17        0.437   0.369   9.180   9.985
   18        0.437   0.369   9.180   9.985
   19        0.435   0.372   9.178   9.985
   20        0.464   0.407   9.159  10.030
   21        0.464   0.407   9.159  10.030
   22        0.429   0.372   9.181   9.981
   23        0.467   0.404   9.162  10.033
   24        0.429   0.372   9.181   9.981
   25        0.439   0.366   9.182   9.987
   26        0.439   0.366   9.182   9.987
   27        0.427   0.373   9.180   9.980
   28        0.454   0.282   9.194   9.930
   29        0.447   0.339   9.180   9.966
   30        0.447   0.339   9.180   9.966
   31        0.447   0.348   9.169   9.964
   32        0.447   0.348   9.169   9.964
   33        0.465   0.319   9.162   9.946
   34        0.465   0.319   9.162   9.946
   35        0.441   0.290   9.189   9.919
   36        0.590   0.529   4.903   6.023
   37        0.518   0.020   0.000   0.538
   38        0.518   0.020   0.000   0.538
tot         17.244  12.471 326.164 355.880

 BZINTS: Fermi energy:    0.087395;  394.000000 electrons
         Band energy:-0.108215E+04;  BLOECHL correction:   -0.031008