 vasp.6.2.0 18Jan21 (build Jun 12 2021 23:27:24) complex

 executed on             LinuxIFC date 2022.05.28  02:25:56

 INCAR:
   ISMEAR = -5
   SIGMA = 0.1
   ISPIN = 1
   EDIFF = 1.d-5
   EDIFFG = -0.01
   NSW = 0
   NELM = 150
   ENCUT = 500
   ISIF = 2
   IBRION = 2
   LREAL = Auto
   ALGO = Fast
   ICHARG = 11
   LORBIT = 10
   LCHARG = .F.
   LWAVE = .F.

 POTCAR:    PAW_PBE Cu 22Jun2005
 POTCAR:    PAW_PBE Ni 02Aug2007
 POTCAR:    PAW_PBE H 15Jun2001
 POTCAR:    PAW_PBE O 08Apr2002
|           W    W    AA    RRRRR   N    N  II  N    N   GGGG   !!!           |
|           W    W   A  A   R    R  NN   N  II  NN   N  G    G  !!!           |
|           W    W  A    A  R    R  N N  N  II  N N  N  G       !!!           |
|           W WW W  AAAAAA  RRRRR   N  N N  II  N  N N  G  GGG   !            |
|           WW  WW  A    A  R   R   N   NN  II  N   NN  G    G                |
|           W    W  A    A  R    R  N    N  II  N    N   GGGG   !!!           |
|     For optimal performance we recommend to set                             |
|       NCORE = 2 up to number-of-cores-per-socket                            |
|     This setting can greatly improve the performance of VASP for DFT.       |
|     The default, NCORE=1 might be grossly inefficient on modern             |
|     multi-core architectures or massively parallel machines. Do your        |
|     Unfortunately you need to use the default for GW and RPA                |
|     calculations (for HF NCORE is supported but not extensively tested      |
|     yet).                                                                   |

 POTCAR:    PAW_PBE Cu 22Jun2005
   VRHFIN =Cu: d10 p1

   TITEL  = PAW_PBE Cu 22Jun2005
   POMASS =   63.546; ZVAL   =   11.000    mass and valenz
   ENMAX  =  295.446; ENMIN  =  221.585 eV

 POTCAR:    PAW_PBE Ni 02Aug2007
   VRHFIN =Ni:

   TITEL  = PAW_PBE Ni 02Aug2007
   POMASS =   58.690; ZVAL   =   10.000    mass and valenz
   ENMAX  =  269.532; ENMIN  =  202.149 eV

 POTCAR:    PAW_PBE H 15Jun2001
   VRHFIN =H: ultrasoft test

   TITEL  = PAW_PBE H 15Jun2001
   POMASS =    1.000; ZVAL   =    1.000    mass and valenz
   ENMAX  =  250.000; ENMIN  =  200.000 eV

 POTCAR:    PAW_PBE O 08Apr2002
   VRHFIN =O: s2p4

   TITEL  = PAW_PBE O 08Apr2002
   POMASS =   16.000; ZVAL   =    6.000    mass and valenz
   ENMAX  =  400.000; ENMIN  =  300.000 eV

 Optimization of the real space projectors (new method)

 maximal supplied QI-value         = 16.25
 optimisation between [QCUT,QGAM] = [ 11.38, 22.75] = [ 36.24,144.96] Ry
 Optimized for a Real-space Cutoff    1.52 Angstroem

   l    n(q)    QCUT    max X(q) W(low)/X(q) W(high)/X(q)  e(spline)
   2      9    11.376     4.610    0.21E-03    0.10E-03    0.26E-06
   2      9    11.376     8.522    0.33E-03    0.16E-03    0.37E-06
   0     10    11.376    51.609    0.62E-04    0.20E-04    0.13E-06
   0     10    11.376    27.747    0.54E-04    0.20E-04    0.13E-06
   1     10    11.376    20.408    0.13E-04    0.99E-04    0.19E-06
   1     10    11.376    13.425    0.12E-04    0.87E-04    0.17E-06
 Optimization of the real space projectors (new method)

[...]

   l    n(q)    QCUT    max X(q) W(low)/X(q) W(high)/X(q)  e(spline)
   0      8    11.287    19.460    0.40E-03    0.73E-03    0.16E-06
   0      8    11.287    12.209    0.38E-03    0.70E-03    0.15E-06
   1      7    11.287     4.655    0.22E-03    0.25E-04    0.22E-06
 Optimization of the real space projectors (new method)

 maximal supplied QI-value         = 24.76
 optimisation between [QCUT,QGAM] = [ 11.39, 22.77] = [ 36.31,145.25] Ry
 Optimized for a Real-space Cutoff    1.00 Angstroem

   l    n(q)    QCUT    max X(q) W(low)/X(q) W(high)/X(q)  e(spline)
   0      7    11.387    20.381    0.39E-03    0.13E-02    0.15E-06
   0      7    11.387    15.268    0.42E-03    0.14E-02    0.17E-06
   1      6    11.387     5.964    0.41E-03    0.11E-02    0.17E-06
   1      6    11.387     5.382    0.39E-03    0.87E-03    0.15E-06
  PAW_PBE Cu 22Jun2005                  :
  PAW_PBE Ni 02Aug2007                  :
  PAW_PBE H 15Jun2001                   :
  PAW_PBE O 08Apr2002                   :

 POSCAR: Cu-Ni-H2O
  positions in direct lattice
  velocities in cartesian coordinates
 exchange correlation table for  LEXCH =        8
   RHO(1)=    0.500       N(1)  =     2000
   RHO(2)=  100.500       N(2)  =     4000

 VTST: version 3.2, (02/03/18)

 CHAIN: initializing optimizer

 OPT: Using VASP Conjugate-Gradient optimizer
 CHAIN: Read ICHAIN            0

 POSCAR: Cu-Ni-H2O
  positions in direct lattice
  velocities in cartesian coordinates

 ion  position               nearest neighbor table
   1  0.000  0.000  0.221-   7 2.57   3 2.57   4 2.57   2 2.57   6 2.57   8 2.57  12 2.57  10 2.57
                            16 2.57
   2  0.333  0.000  0.221-   8 2.57   9 2.57   5 2.57   1 2.57   3 2.57  11 2.57   4 2.57  10 2.57
                            17 2.57
   3  0.667  0.000  0.221-   1 2.57   7 2.57   6 2.57   9 2.57   2 2.57  12 2.57   5 2.57  18 2.57
                            11 2.57
   4  0.000  0.333  0.221-   5 2.57   6 2.57   1 2.57   7 2.57   2 2.57  13 2.57   9 2.57  10 2.57
                            15 2.57
   5  0.333  0.333  0.221-   4 2.57   2 2.57   7 2.57  13 2.57   8 2.57   6 2.57   3 2.57  11 2.57
                            14 2.57
   6  0.667  0.333  0.221-   4 2.57   9 2.57  15 2.57   3 2.57   1 2.57   8 2.57  14 2.57   5 2.57
                            12 2.57
   7  0.000  0.667  0.221-   1 2.57   3 2.57  16 2.57  18 2.57   4 2.57   5 2.57   8 2.57   9 2.57
                            13 2.57
   8  0.333  0.667  0.221-   9 2.57   2 2.57  17 2.57   6 2.57   1 2.57   7 2.57   5 2.57  14 2.57
                            16 2.57
   9  0.667  0.667  0.221-   8 2.57   6 2.57   2 2.57  17 2.57   3 2.57   7 2.57   4 2.57  15 2.57
                            18 2.57
  10  0.111  0.111  0.308-  20 2.55  26 2.56  19 2.56  11 2.57  12 2.57  13 2.57   1 2.57   2 2.57
                             4 2.57  15 2.57  16 2.57  17 2.57
  11  0.444  0.111  0.308-  20 2.55  21 2.55  27 2.56  10 2.57  13 2.57   2 2.57  17 2.57  14 2.57
                            12 2.57   5 2.57   3 2.57  18 2.57
  12  0.778  0.111  0.308-  21 2.55  19 2.56  25 2.56  15 2.57  10 2.57  14 2.57  18 2.57   3 2.57
                             1 2.57  16 2.57  11 2.57   6 2.57
  13  0.111  0.444  0.308-  23 2.55  20 2.55  22 2.56  16 2.57  18 2.57  10 2.57  11 2.57  14 2.57
                             5 2.57   4 2.57   7 2.57  15 2.57
  14  0.444  0.444  0.308-  21 2.55  23 2.55  24 2.56  15 2.57  17 2.57  12 2.57  16 2.57  13 2.57
                            11 2.57   6 2.57   8 2.57   5 2.57
  15  0.778  0.444  0.308-  24 2.55  22 2.55  19 2.56  14 2.57  17 2.57  12 2.57   6 2.57  18 2.57
                            10 2.57   9 2.57  13 2.57   4 2.57
  16  0.111  0.778  0.308-  23 2.55  25 2.56  26 2.56  18 2.57  13 2.57   7 2.57  14 2.57  17 2.57
                            12 2.57  10 2.57   8 2.57   1 2.57
  17  0.444  0.778  0.308-  27 2.55  24 2.55  26 2.56  14 2.57  15 2.57   8 2.57   9 2.57  11 2.57
                            16 2.57  18 2.57  10 2.57   2 2.57
  18  0.778  0.778  0.308-  22 2.55  27 2.55  25 2.56  16 2.57  13 2.57   7 2.57  15 2.57  12 2.57
                            17 2.57   9 2.57   3 2.57  11 2.57
  19  0.889  0.223  0.393-  28 2.54  32 2.55  31 2.55  15 2.56  12 2.56  10 2.56  22 2.56  24 2.56
                            21 2.57  20 2.57  25 2.57  26 2.57
  20  0.222  0.222  0.393-  36 2.48  29 2.54  31 2.54  10 2.55  11 2.55  13 2.55  26 2.57  19 2.57
                            27 2.57  22 2.57  23 2.57  21 2.57
  21  0.556  0.222  0.393-  36 2.48  32 2.54  30 2.54  12 2.55  14 2.55  11 2.55  19 2.57  25 2.57
                            24 2.57  27 2.57  20 2.57  23 2.57
  22  0.889  0.556  0.393-  35 2.54  31 2.55  33 2.55  18 2.55  15 2.55  13 2.56  19 2.56  25 2.56
                            24 2.57  27 2.57  23 2.57  20 2.57
  23  0.222  0.556  0.393-  36 2.48  33 2.54  34 2.54  16 2.55  13 2.55  14 2.55  25 2.57  26 2.57
                            22 2.57  24 2.57  20 2.57  21 2.57
  24  0.556  0.556  0.393-  35 2.54  32 2.55  34 2.55  15 2.55  17 2.55  14 2.56  19 2.56  26 2.56
                            22 2.57  27 2.57  21 2.57  23 2.57
  25  0.889  0.889  0.393-  28 2.54  33 2.55  30 2.55  18 2.56  16 2.56  12 2.56  22 2.56  27 2.56
                            21 2.57  23 2.57  19 2.57  26 2.57
  26  0.223  0.889  0.393-  28 2.54  29 2.55  34 2.55  17 2.56  10 2.56  16 2.56  27 2.56  24 2.56
                            20 2.57  23 2.57  25 2.57  19 2.57
  27  0.556  0.889  0.393-  35 2.54  29 2.55  30 2.55  17 2.55  18 2.55  11 2.56  26 2.56  25 2.56
                            24 2.57  22 2.57  20 2.57  21 2.57
  28  0.000  0.000  0.479-  25 2.54  19 2.54  26 2.54  33 2.57  30 2.57  31 2.57  29 2.57  32 2.57
                            34 2.57
  29  0.333  0.002  0.479-  20 2.54  27 2.55  31 2.55  36 2.55  30 2.55  26 2.55  28 2.57  35 2.57
                            34 2.60
  30  0.665  0.002  0.479-  21 2.54  27 2.55  32 2.55  36 2.55  29 2.55  25 2.55  28 2.57  35 2.57
                            33 2.60
  31  0.002  0.333  0.479-  20 2.54  22 2.55  29 2.55  36 2.55  33 2.55  19 2.55  28 2.57  35 2.57
                            32 2.60
  32  0.665  0.333  0.479-  21 2.54  24 2.55  30 2.55  36 2.55  34 2.55  19 2.55  28 2.57  35 2.57
                            31 2.60
  33  0.002  0.665  0.479-  23 2.54  22 2.55  34 2.55  36 2.55  31 2.55  25 2.55  28 2.57  35 2.57
                            30 2.60
  34  0.333  0.665  0.479-  23 2.54  24 2.55  33 2.55  36 2.55  32 2.55  26 2.55  28 2.57  35 2.57
                            29 2.60
  35  0.667  0.667  0.478-  24 2.54  27 2.54  22 2.54  34 2.57  32 2.57  29 2.57  30 2.57  33 2.57
                            31 2.57
  36  0.333  0.333  0.475-  39 2.26  23 2.48  20 2.48  21 2.48  31 2.55  29 2.55  33 2.55  34 2.55
                            32 2.55  30 2.55
  37  0.230  0.334  0.592-  39 0.97
  38  0.436  0.334  0.592-  39 0.97
  39  0.333  0.333  0.568-  37 0.97  38 0.97  36 2.26

  LATTYP: Found a hexagonal cell.
 ALAT       =     7.6967864036
 C/A-ratio  =     3.1535378041

  Lattice vectors:

 A1 = (  -3.8483927580,  -6.6656128093,   0.0000000000)
 A2 = (   7.6967864037,   0.0000000000,   0.0000000000)
 A3 = (   0.0000000000,   0.0000000000,  24.2721068937)

Analysis of symmetry for initial positions (statically):
 Subroutine PRICEL returns:
 Original cell was already a primitive cell.

 Routine SETGRP: Setting up the symmetry group for a
 hexagonal supercell.

 Subroutine GETGRP returns: Found  1 space group operations
 (whereof  1 operations were pure point group operations)
 out of a pool of 24 trial point group operations.

The static configuration has the point symmetry C_1 .

Analysis of symmetry for dynamics (positions and initial velocities):
 Subroutine PRICEL returns:
 Original cell was already a primitive cell.

[...]

The dynamic configuration has the point symmetry C_1 .

Analysis of constrained symmetry for selective dynamics:
 Subroutine PRICEL returns:
 Original cell was already a primitive cell.

[...]
     41      -3.7922      2.00000
     42      -3.7885      2.00000
     43      -3.7071      2.00000
     44      -3.7029      2.00000
     45      -3.6821      2.00000
     46      -3.6626      2.00000
     47      -3.6575      2.00000
     48      -3.6328      2.00000
     49      -3.6208      2.00000
     50      -3.4561      2.00000
     51      -3.4369      2.00000
     52      -3.4302      2.00000
     53      -3.4252      2.00000
     54      -3.3728      2.00000
     55      -3.3692      2.00000
     56      -3.3568      2.00000
     57      -3.3288      2.00000
     58      -3.3224      2.00000
     59      -3.2949      2.00000
     60      -3.2910      2.00000
[...]
    238       5.6425      0.00000
    239       5.7909      0.00000
    240       5.8569      0.00000
    241       5.8751      0.00000
    242       6.0005      0.00000
    243       6.0288      0.00000
    244       6.1625      0.00000
    245       6.2605      0.00000
    246       6.3088      0.00000
    247       6.4620      0.00000
    248       6.5975      0.00000
    249       7.0933      0.00000
    250       7.1384      0.00000
    251       7.3738      0.00000
    252       7.4612      0.00000

 soft charge-density along one line, spin component           1
         0         1         2         3         4         5         6         7         8         9
 total charge-density along one line

------------------------ aborting loop because EDIFF is reached ----------------------------------------

 total charge

# of ion       s       p       d       tot
    1        0.446   0.287   9.188   9.920
    2        0.450   0.284   9.188   9.922
    3        0.450   0.284   9.188   9.922
    4        0.450   0.285   9.188   9.923
    5        0.445   0.287   9.186   9.919
    6        0.450   0.285   9.188   9.922
    7        0.450   0.285   9.188   9.922
    8        0.449   0.284   9.188   9.922
    9        0.447   0.284   9.188   9.919
   10        0.441   0.373   9.177   9.992
   11        0.443   0.369   9.182   9.994
   12        0.441   0.373   9.177   9.992
   13        0.443   0.369   9.182   9.994
   14        0.443   0.369   9.182   9.994
   15        0.439   0.371   9.181   9.991
   16        0.441   0.373   9.177   9.991
   17        0.439   0.371   9.180   9.991
   18        0.439   0.371   9.180   9.991
   19        0.444   0.372   9.184   9.999
   20        0.446   0.385   9.174  10.005
   21        0.446   0.385   9.174  10.005
   22        0.440   0.376   9.180   9.996
   23        0.445   0.385   9.175  10.006
   24        0.440   0.376   9.180   9.996
   25        0.442   0.372   9.183   9.998
   26        0.442   0.372   9.183   9.998
   27        0.440   0.376   9.180   9.996
   28        0.449   0.287   9.189   9.926
   29        0.451   0.289   9.191   9.930
   30        0.451   0.289   9.191   9.930
   31        0.453   0.292   9.189   9.935
   32        0.453   0.292   9.189   9.935
   33        0.451   0.289   9.191   9.931
   34        0.451   0.289   9.191   9.931
   35        0.447   0.289   9.189   9.925
   36        0.429   0.349   8.364   9.142
   37        0.614   0.120   0.000   0.734
   38        0.614   0.120   0.000   0.734
   39        1.561   3.618   0.000   5.179
tot         18.815  15.829 329.810 364.454

  FORCE on cell =-STRESS in cart. coord.  units (eV):
  Direction    XX          YY          ZZ          XY          YZ          ZX
  Alpha Z   778.64720   778.64720   778.64720
  Ewald  235641.95159235516.08792************    -0.24080     0.40856     0.26004
  Hartree248770.61595248746.77163************    -0.04972     0.07156     0.06475
  E(xc)   -2337.89450 -2338.43300 -2342.24754    -0.00115     0.00191     0.00131
  Local  ************************497523.98180     0.24642    -0.35850    -0.25902
  n-local  -794.57565  -795.22932  -811.12871     0.00064    -0.00143     0.00060
  augment  3491.24250  3493.88251  3505.87484    -0.01545    -0.00859    -0.00497
  Kinetic  3342.28264  3377.34702  3377.51636     0.06789    -0.10666    -0.06794
  Fock        0.00000     0.00000     0.00000     0.00000     0.00000     0.00000
  Total      -1.90361    -2.18765     5.50736     0.00782     0.00685    -0.00522
  in kB      -2.44924    -2.81469     7.08594     0.01006     0.00881    -0.00672

 VOLUME and BASIS-vectors are now :
  energy-cutoff  :      500.00
  volume of cell :     1245.25
      direct lattice vectors                 reciprocal lattice vectors
     7.696786404  0.000000000  0.000000000     0.129924354 -0.075011849  0.000000000
     3.848392758  6.665612809  0.000000000     0.000000000  0.150023716  0.000000000
     0.000000000  0.000000000 24.272106894     0.000000000  0.000000000  0.041199555

  length of vectors
     7.696786404  7.696786404 24.272106894     0.150023716  0.150023716  0.041199555

 FORCES acting on ions
    electron-ion (+dipol)            ewald-force                    non-local-force                 convergence-correction
   0.244E-02 0.188E-01 0.381E+04   0.227E-04 -.278E-02 -.380E+04   0.137E-03 0.106E-01 -.259E+01   -.256E-02 -.240E-01 -.122E+01
   0.173E+00 0.485E+00 0.381E+04   -.220E+00 -.259E+00 -.380E+04   0.104E-02 -.779E-01 -.198E+01   0.427E-01 -.137E+00 -.952E+00
   -.176E+00 0.472E+00 0.381E+04   0.220E+00 -.259E+00 -.380E+04   -.160E-02 -.790E-01 -.198E+01   -.396E-01 -.124E+00 -.948E+00
   0.509E+00 -.574E-01 0.381E+04   -.332E+00 -.626E-01 -.380E+04   -.865E-01 0.312E-01 -.193E+01   -.835E-01 0.835E-01 -.956E+00
   -.166E-01 0.305E-02 0.381E+04   0.209E-03 -.908E-04 -.380E+04   -.870E-02 -.119E-01 -.213E+01   0.254E-01 0.111E-01 -.803E+00
   -.498E+00 -.626E-01 0.381E+04   0.332E+00 -.627E-01 -.380E+04   0.870E-01 0.308E-01 -.193E+01   0.718E-01 0.891E-01 -.950E+00
   0.281E+00 -.424E+00 0.381E+04   -.112E+00 0.322E+00 -.380E+04   -.631E-01 0.482E-01 -.198E+01   -.982E-01 0.488E-01 -.955E+00
   -.293E+00 -.416E+00 0.381E+04   0.112E+00 0.322E+00 -.380E+04   0.612E-01 0.488E-01 -.198E+01   0.111E+00 0.401E-01 -.953E+00
   0.159E-01 -.260E-01 0.381E+04   0.207E-03 0.288E-02 -.380E+04   0.955E-02 0.252E-02 -.227E+01   -.259E-01 0.176E-01 -.983E+00
   0.258E+01 0.153E+01 0.133E+04   -.245E+01 -.144E+01 -.132E+04   -.184E+00 -.107E+00 -.795E+00   0.802E-01 0.296E-01 -.348E+00
   -.147E-01 0.241E+01 0.133E+04   0.644E-03 -.248E+01 -.133E+04   -.838E-02 -.938E-02 -.722E+00   0.228E-01 0.511E-01 -.194E+00
   -.257E+01 0.152E+01 0.133E+04   0.244E+01 -.143E+01 -.132E+04   0.184E+00 -.108E+00 -.796E+00   -.896E-01 0.393E-01 -.350E+00
   0.204E+01 -.121E+01 0.133E+04   -.213E+01 0.124E+01 -.133E+04   -.624E-02 -.104E-01 -.732E+00   0.770E-01 -.161E-01 -.204E+00
   -.206E+01 -.120E+01 0.133E+04   0.213E+01 0.124E+01 -.133E+04   -.116E-01 -.987E-02 -.732E+00   -.345E-01 -.203E-01 -.208E+00
   0.136E-01 0.108E-01 0.133E+04   -.349E-03 -.157E+00 -.132E+04   0.231E-02 0.450E-01 -.590E+00   -.155E-01 0.930E-01 -.431E+00
   -.273E-02 -.299E+01 0.133E+04   0.388E-03 0.283E+01 -.132E+04   0.287E-03 0.215E+00 -.812E+00   0.204E-02 -.921E-01 -.348E+00
   0.292E-01 -.304E-01 0.133E+04   -.148E+00 0.942E-01 -.132E+04   0.316E-01 -.176E-01 -.656E+00   0.788E-01 -.407E-01 -.431E+00
   -.264E-01 -.434E-01 0.133E+04   0.148E+00 0.947E-01 -.132E+04   -.326E-01 -.192E-01 -.656E+00   -.801E-01 -.267E-01 -.428E+00
   0.153E-01 0.198E+01 -.119E+04   -.396E-02 -.205E+01 0.118E+04   0.743E-02 -.456E-02 0.581E+00   -.194E-01 0.580E-01 0.551E+00
   0.100E+02 0.594E+01 -.116E+04   -.987E+01 -.583E+01 0.116E+04   -.447E+00 -.268E+00 -.493E+00   0.331E+00 0.177E+00 0.702E+00
   -.100E+02 0.593E+01 -.116E+04   0.988E+01 -.582E+01 0.116E+04   0.462E+00 -.269E+00 -.493E+00   -.349E+00 0.181E+00 0.700E+00
   0.517E+01 -.317E+01 -.118E+04   -.563E+01 0.341E+01 0.118E+04   0.323E+00 -.140E+00 0.670E+00   0.147E+00 -.102E+00 0.531E+00
   -.567E-02 -.117E+02 -.116E+04   0.432E-02 0.116E+02 0.116E+04   0.788E-02 0.533E+00 -.514E+00   -.711E-02 -.400E+00 0.691E+00
   -.515E+01 -.317E+01 -.118E+04   0.563E+01 0.341E+01 0.118E+04   -.306E+00 -.139E+00 0.671E+00   -.180E+00 -.105E+00 0.531E+00
   -.159E+01 -.873E+00 -.119E+04   0.169E+01 0.921E+00 0.118E+04   -.840E-02 -.118E-01 0.670E+00   -.731E-01 -.317E-01 0.534E+00
   0.160E+01 -.860E+00 -.119E+04   -.169E+01 0.916E+00 0.118E+04   0.234E-01 -.119E-01 0.670E+00   0.494E-01 -.396E-01 0.536E+00
   0.572E-02 0.601E+01 -.118E+04   0.498E-03 -.654E+01 0.118E+04   0.844E-02 0.341E+00 0.666E+00   -.152E-01 0.191E+00 0.518E+00
   0.719E-02 0.774E+00 -.369E+04   -.734E-02 -.805E+00 0.369E+04   0.272E-03 0.276E-01 0.198E+01   -.143E-03 0.125E-01 0.126E+01
   0.208E+02 0.385E+02 -.367E+04   -.208E+02 -.386E+02 0.367E+04   -.169E+00 -.211E+00 0.243E+01   0.906E-01 0.194E+00 0.989E+00
   -.208E+02 0.385E+02 -.367E+04   0.208E+02 -.386E+02 0.367E+04   0.169E+00 -.212E+00 0.244E+01   -.891E-01 0.205E+00 0.988E+00
   0.439E+02 -.453E+00 -.367E+04   -.438E+02 0.587E+00 0.367E+04   -.498E+00 -.947E-01 0.201E+01   0.200E+00 -.302E-01 0.102E+01
   -.439E+02 -.465E+00 -.367E+04   0.437E+02 0.593E+00 0.367E+04   0.495E+00 -.949E-01 0.201E+01   -.208E+00 -.248E-01 0.102E+01
   0.216E+02 -.381E+02 -.367E+04   -.218E+02 0.380E+02 0.367E+04   -.128E-01 0.312E+00 0.244E+01   0.126E+00 -.171E+00 0.992E+00
   -.217E+02 -.380E+02 -.367E+04   0.218E+02 0.380E+02 0.367E+04   0.991E-02 0.310E+00 0.244E+01   -.114E+00 -.176E+00 0.990E+00
   0.275E-01 -.803E+00 -.369E+04   -.133E-01 0.824E+00 0.369E+04   0.973E-02 -.237E-01 0.212E+01   -.242E-01 -.835E-02 0.117E+01
   -.534E-01 0.373E-01 -.316E+04   0.417E-01 -.333E-01 0.315E+04   -.385E-02 -.210E-02 0.336E+01   0.171E-01 -.384E-02 0.797E+00
   0.716E+02 -.458E+00 -.407E+03   -.785E+02 0.505E+00 0.412E+03   0.696E+01 -.439E-01 -.462E+01   0.116E-01 -.463E-03 -.353E-02
   -.712E+02 -.185E+00 -.408E+03   0.781E+02 0.205E+00 0.412E+03   -.692E+01 -.175E-01 -.467E+01   -.113E-01 -.364E-03 -.390E-02
   -.265E+00 0.376E+00 -.228E+04   0.433E+00 -.708E+00 0.224E+04   -.169E+00 0.328E+00 0.410E+02   0.310E-02 -.420E-03 -.100E+00
   0.154E+00 -.237E+00 -.328E+02   -.854E-13 0.108E-12 0.546E-11   -.846E-01 0.288E+00 0.301E+02   -.723E-01 -.528E-01 0.274E+01

 POSITION                                       TOTAL-FORCE (eV/Angst)
      0.00000      0.00000      5.37156         0.000123      0.002656      0.106532
      2.56560      0.00000      5.37156        -0.003006      0.010572      0.082593
      5.13119      0.00000      5.37156         0.003152      0.010415      0.082557
      1.28280      2.22187      5.37156         0.006846     -0.005236      0.084174
      3.84839      2.22187      5.37156         0.000407      0.002196      0.065951
      6.41399      2.22187      5.37156        -0.006528     -0.005327      0.084208
      2.56560      4.44374      5.37156         0.008385     -0.005252      0.083348
      5.13119      4.44374      5.37156        -0.008324     -0.005147      0.083414
      7.69679      4.44374      5.37156        -0.000236     -0.003000      0.073587
      1.28280      0.74062      7.46636         0.034893      0.017930     -0.074018
      3.84839      0.74062      7.46636         0.000518     -0.025417     -0.130341
      6.41399      0.74062      7.46636        -0.034615      0.017887     -0.074169
      2.56560      2.96249      7.46636        -0.020421      0.011416     -0.131264
      5.13119      2.96249      7.46636         0.021676      0.011502     -0.131281
      7.69679      2.96249      7.46636         0.000129     -0.007911     -0.046578
      3.84839      5.18437      7.46636         0.000072     -0.037660     -0.076069
      6.41399      5.18437      7.46636        -0.008441      0.005617     -0.051437
      8.97958      5.18437      7.46636         0.008680      0.005524     -0.051460
      7.69679      1.48353      9.55071        -0.000519     -0.012078     -0.028799
      2.56540      1.48114      9.54275         0.022513      0.016792     -0.013656
      5.13138      1.48114      9.54275        -0.023201      0.016693     -0.013883
      8.97935      3.70325      9.54809         0.002610     -0.002735      0.001263
      3.84839      3.70334      9.54275        -0.000499     -0.028038     -0.015066
      6.41422      3.70325      9.54809        -0.003563     -0.002846      0.001503
     10.26040      5.92385      9.55071         0.012595      0.004482     -0.011638
      5.13317      5.92385      9.55071        -0.013520      0.004449     -0.011595
      7.69679      5.92472      9.54809        -0.000435      0.001697      0.008975
      0.00000      0.00000     11.61525         0.000062      0.008849      0.022933
      2.57297      0.01446     11.62005        -0.068806     -0.107480     -0.070541
      5.12381      0.01446     11.62005         0.069053     -0.107907     -0.070696
      1.29901      2.22103     11.62005        -0.144515      0.008402     -0.095019
      6.39777      2.22103     11.62005         0.144834      0.008249     -0.095197
      2.57443      4.43012     11.62005        -0.084727      0.101347     -0.071765
      5.12235      4.43012     11.62005         0.084591      0.101362     -0.071940
      7.69679      4.44374     11.61370        -0.000186     -0.010689      0.026954
      3.84839      2.22187     11.53520         0.001660     -0.001966      0.555525
      3.05569      2.22720     14.36305         0.005762      0.002775     -0.003619
      4.63667      2.22417     14.36939        -0.008913      0.002230     -0.008831
      3.84838      2.22186     13.79842         0.001896     -0.004352     -0.014654
    total drift:                               -0.003319     -0.002157      0.058680

  FREE ENERGIE OF THE ION-ELECTRON SYSTEM (eV)
  free  energy   TOTEN  =      -141.75495994 eV

  energy  without entropy=     -141.75495994  energy(sigma->0) =     -141.75495994

 stress matrix after NEB project (eV)
     -1.90361      0.00782     -0.00522
      0.00782     -2.18765      0.00685
     -0.00522      0.00685      5.50736
  FORCES: max atom, RMS     0.015403    0.003411
  FORCE total and by dimension    0.021299    0.014654
  Stress total and by dimension    6.224214    5.507362
|           W    W    AA    RRRRR   N    N  II  N    N   GGGG   !!!           |
|           W    W   A  A   R    R  NN   N  II  NN   N  G    G  !!!           |
|           W    W  A    A  R    R  N N  N  II  N N  N  G       !!!           |
|           W WW W  AAAAAA  RRRRR   N  N N  II  N  N N  G  GGG   !            |
|           WW  WW  A    A  R   R   N   NN  II  N   NN  G    G                |
|           W    W  A    A  R    R  N    N  II  N    N   GGGG   !!!           |
|     Tetrahedron method does not include variations of the Fermi             |
|     occupations, so forces and stress will be inaccurate. We suggest        |
|     using a different smearing scheme ISMEAR = 1 or 2 for metals in         |
|     relaxations.                                                            |

 total charge

# of ion       s       p       d       tot
    1        0.446   0.287   9.188   9.920
    2        0.450   0.284   9.188   9.922
    3        0.450   0.284   9.188   9.922
    4        0.450   0.285   9.188   9.923
    5        0.445   0.287   9.186   9.919
    6        0.450   0.285   9.188   9.922
    7        0.450   0.285   9.188   9.922
    8        0.449   0.284   9.188   9.922
    9        0.447   0.284   9.188   9.919
   10        0.441   0.373   9.177   9.992
   11        0.443   0.369   9.182   9.994
   12        0.441   0.373   9.177   9.992
   13        0.443   0.369   9.182   9.994
   14        0.443   0.369   9.182   9.994
   15        0.439   0.371   9.181   9.991
   16        0.441   0.373   9.177   9.991
   17        0.439   0.371   9.180   9.991
   18        0.439   0.371   9.180   9.991
   19        0.444   0.372   9.184   9.999
   20        0.446   0.385   9.174  10.005
   21        0.446   0.385   9.174  10.005
   22        0.440   0.376   9.180   9.996
   23        0.445   0.385   9.175  10.006
   24        0.440   0.376   9.180   9.996
   25        0.442   0.372   9.183   9.998
   26        0.442   0.372   9.183   9.998
   27        0.440   0.376   9.180   9.996
   28        0.449   0.287   9.189   9.926
   29        0.451   0.289   9.191   9.930
   30        0.451   0.289   9.191   9.930
   31        0.453   0.292   9.189   9.935
   32        0.453   0.292   9.189   9.935
   33        0.451   0.289   9.191   9.931
   34        0.451   0.289   9.191   9.931
   35        0.447   0.289   9.189   9.925
   36        0.429   0.349   8.364   9.142
   37        0.614   0.120   0.000   0.734
   38        0.614   0.120   0.000   0.734
   39        1.561   3.618   0.000   5.179
tot         18.815  15.829 329.810 364.454

 BZINTS: Fermi energy:   -0.052696;  403.000000 electrons
         Band energy:-0.118453E+04;  BLOECHL correction:   -0.058045