 vasp.6.2.0 18Jan21 (build Jun 12 2021 23:27:24) complex

 executed on             LinuxIFC date 2022.05.27  05:46:04

 INCAR:
   ISMEAR = -5
   SIGMA = 0.1
   ISPIN = 1
   EDIFF = 1.d-5
   EDIFFG = -0.01
   NSW = 0
   NELM = 150
   ENCUT = 500
   ISIF = 2
   IBRION = 2
   LREAL = Auto
   ALGO = Fast
   ICHARG = 11
   LORBIT = 10
   LCHARG = .F.
   LWAVE = .F.

 POTCAR:    PAW_PBE Ag 02Apr2005
 POTCAR:    PAW_PBE Pd 04Jan2005
 POTCAR:    PAW_PBE H 15Jun2001
|           W    W    AA    RRRRR   N    N  II  N    N   GGGG   !!!           |
|           W    W   A  A   R    R  NN   N  II  NN   N  G    G  !!!           |
|           W    W  A    A  R    R  N N  N  II  N N  N  G       !!!           |
|           W WW W  AAAAAA  RRRRR   N  N N  II  N  N N  G  GGG   !            |
|           WW  WW  A    A  R   R   N   NN  II  N   NN  G    G                |
|           W    W  A    A  R    R  N    N  II  N    N   GGGG   !!!           |
|     For optimal performance we recommend to set                             |
|       NCORE = 2 up to number-of-cores-per-socket                            |
|     This setting can greatly improve the performance of VASP for DFT.       |
|     The default, NCORE=1 might be grossly inefficient on modern             |
|     multi-core architectures or massively parallel machines. Do your        |
|     Unfortunately you need to use the default for GW and RPA                |
|     calculations (for HF NCORE is supported but not extensively tested      |
|     yet).                                                                   |

 POTCAR:    PAW_PBE Ag 02Apr2005
   VRHFIN =Ag : s1 d10

   TITEL  = PAW_PBE Ag 02Apr2005
   POMASS =  107.868; ZVAL   =   11.000    mass and valenz
   ENMAX  =  249.844; ENMIN  =  187.383 eV

 POTCAR:    PAW_PBE Pd 04Jan2005
   VRHFIN =Pd : s1 d9

   TITEL  = PAW_PBE Pd 04Jan2005
   POMASS =  106.420; ZVAL   =   10.000    mass and valenz
   ENMAX  =  250.925; ENMIN  =  188.194 eV

 POTCAR:    PAW_PBE H 15Jun2001
   VRHFIN =H: ultrasoft test

   TITEL  = PAW_PBE H 15Jun2001
   POMASS =    1.000; ZVAL   =    1.000    mass and valenz
   ENMAX  =  250.000; ENMIN  =  200.000 eV

 Optimization of the real space projectors (new method)

 maximal supplied QI-value         = 15.12
 optimisation between [QCUT,QGAM] = [ 11.34, 22.83] = [ 36.00,145.93] Ry
 Optimized for a Real-space Cutoff    1.43 Angstroem

   l    n(q)    QCUT    max X(q) W(low)/X(q) W(high)/X(q)  e(spline)
   2      9    11.338    53.897    0.16E-03    0.20E-03    0.28E-06
   2      9    11.338    52.416    0.16E-03    0.20E-03    0.29E-06
   0     10    11.338   122.045    0.31E-04    0.76E-04    0.15E-06
   0     10    11.338    73.629    0.30E-04    0.72E-04    0.15E-06
   1      9    11.338    15.255    0.20E-03    0.19E-04    0.17E-06
   1      9    11.338     9.562    0.16E-03    0.15E-04    0.14E-06
 Optimization of the real space projectors (new method)

[...]

   l    n(q)    QCUT    max X(q) W(low)/X(q) W(high)/X(q)  e(spline)
   2      9    11.346    59.108    0.74E-04    0.81E-04    0.26E-06
   2      9    11.346    58.101    0.74E-04    0.83E-04    0.27E-06
   0     10    11.346   102.235    0.26E-04    0.31E-04    0.16E-06
   0     10    11.346    58.388    0.23E-04    0.29E-04    0.15E-06
   1     10    11.346    22.191    0.23E-03    0.26E-03    0.14E-06
   1     10    11.346    15.590    0.19E-03    0.22E-03    0.12E-06
 Optimization of the real space projectors (new method)

 maximal supplied QI-value         = 34.20
 optimisation between [QCUT,QGAM] = [ 11.29, 22.57] = [ 35.68,142.71] Ry
 Optimized for a Real-space Cutoff    1.16 Angstroem

   l    n(q)    QCUT    max X(q) W(low)/X(q) W(high)/X(q)  e(spline)
   0      8    11.287    19.460    0.40E-03    0.73E-03    0.16E-06
   0      8    11.287    12.209    0.38E-03    0.70E-03    0.15E-06
   1      7    11.287     4.655    0.22E-03    0.25E-04    0.22E-06
  PAW_PBE Ag 02Apr2005                  :
  PAW_PBE Pd 04Jan2005                  :
  PAW_PBE H 15Jun2001                   :

 POSCAR: Ag-Pd-H2
  positions in direct lattice
  velocities in cartesian coordinates
 exchange correlation table for  LEXCH =        8
   RHO(1)=    0.500       N(1)  =     2000
   RHO(2)=  100.500       N(2)  =     4000

 VTST: version 3.2, (02/03/18)

 CHAIN: initializing optimizer

 OPT: Using VASP Conjugate-Gradient optimizer
 CHAIN: Read ICHAIN            0

 POSCAR: Ag-Pd-H2
  positions in direct lattice
  velocities in cartesian coordinates

 ion  position               nearest neighbor table
   1  0.000  0.000  0.238-   2 2.93   8 2.93   7 2.93   6 2.93   4 2.93  12 2.93  16 2.93  10 2.93
                             3 2.93
   2  0.333  0.000  0.238-   1 2.93   8 2.93   9 2.93   3 2.93   4 2.93   5 2.93  10 2.93  17 2.93
                            11 2.93
   3  0.667  0.000  0.238-   9 2.93   2 2.93   5 2.93  11 2.93   7 2.93  18 2.93   1 2.93   6 2.93
                            12 2.93
   4  0.000  0.333  0.238-   5 2.93   6 2.93   2 2.93   1 2.93   7 2.93  13 2.93  15 2.93   9 2.93
                            10 2.93
   5  0.333  0.333  0.238-   4 2.93   3 2.93   7 2.93   2 2.93   8 2.93  14 2.93  13 2.93  11 2.93
                             6 2.93
   6  0.667  0.333  0.238-   4 2.93   9 2.93   1 2.93  15 2.93   8 2.93  12 2.93   3 2.93   5 2.93
                            14 2.93
   7  0.000  0.667  0.238-   8 2.93   1 2.93   5 2.93   3 2.93   4 2.93  16 2.93  18 2.93  13 2.93
                             9 2.93
   8  0.333  0.667  0.238-   7 2.93   1 2.93   2 2.93   9 2.93   5 2.93  16 2.93   6 2.93  17 2.93
                            14 2.93
   9  0.667  0.667  0.238-   3 2.93   2 2.93   8 2.93   6 2.93  17 2.93   4 2.93  15 2.93   7 2.93
                            18 2.93
  10  0.111  0.111  0.346-  20 2.91  19 2.92  26 2.92  12 2.93  16 2.93  15 2.93  17 2.93  13 2.93
                            11 2.93   2 2.93   1 2.93   4 2.93
  11  0.444  0.111  0.346-  21 2.91  20 2.91  27 2.91  14 2.93  17 2.93  18 2.93   3 2.93  12 2.93
                            13 2.93  10 2.93   5 2.93   2 2.93
  12  0.778  0.111  0.346-  21 2.91  25 2.92  19 2.92  10 2.93  16 2.93  18 2.93  15 2.93  11 2.93
                             1 2.93  14 2.93   6 2.93   3 2.93
  13  0.111  0.444  0.346-  20 2.91  23 2.91  22 2.91  15 2.93  14 2.93  18 2.93  10 2.93  11 2.93
                            16 2.93   4 2.93   5 2.93   7 2.93
  14  0.444  0.444  0.346-  23 2.91  21 2.91  24 2.91  13 2.93  11 2.93  16 2.93   5 2.93  12 2.93
                            17 2.93   8 2.93  15 2.93   6 2.93
  15  0.778  0.444  0.346-  24 2.91  22 2.91  19 2.92  13 2.93  10 2.93  12 2.93  17 2.93  18 2.93
                             4 2.93   6 2.93   9 2.93  14 2.93
  16  0.111  0.778  0.346-  23 2.91  26 2.92  25 2.92  18 2.93  12 2.93  10 2.93  14 2.93  17 2.93
                            13 2.93   7 2.93   8 2.93   1 2.93
  17  0.444  0.778  0.346-  27 2.91  24 2.91  26 2.92  11 2.93  10 2.93   9 2.93  18 2.93  15 2.93
                            16 2.93   2 2.93  14 2.93   8 2.93
  18  0.778  0.778  0.346-  22 2.91  27 2.91  25 2.92  16 2.93  12 2.93  13 2.93  11 2.93  17 2.93
                            15 2.93   7 2.93   3 2.93   9 2.93
  19  0.889  0.223  0.453-  28 2.91  15 2.92  10 2.92  12 2.92  32 2.92  31 2.92  20 2.93  21 2.93
                            24 2.93  22 2.93  26 2.93  25 2.93
  20  0.222  0.222  0.453-  36 2.81  10 2.91  13 2.91  11 2.91  31 2.91  29 2.91  19 2.93  26 2.93
                            27 2.93  22 2.93  21 2.94  23 2.94
  21  0.556  0.222  0.453-  36 2.81  12 2.91  11 2.91  14 2.91  30 2.91  32 2.91  25 2.93  19 2.93
                            27 2.93  24 2.93  20 2.94  23 2.94
  22  0.889  0.556  0.453-  35 2.91  18 2.91  15 2.91  13 2.91  33 2.92  31 2.92  25 2.93  19 2.93
                            24 2.93  27 2.93  23 2.93  20 2.93
  23  0.222  0.556  0.453-  36 2.81  16 2.91  14 2.91  13 2.91  34 2.91  33 2.91  26 2.93  25 2.93
                            22 2.93  24 2.93  21 2.94  20 2.94
  24  0.556  0.556  0.453-  35 2.91  15 2.91  17 2.91  14 2.91  32 2.92  34 2.92  19 2.93  26 2.93
                            27 2.93  22 2.93  23 2.93  21 2.93
  25  0.889  0.889  0.453-  28 2.91  18 2.92  16 2.92  12 2.92  33 2.92  30 2.92  23 2.93  21 2.93
                            22 2.93  27 2.93  26 2.93  19 2.93
  26  0.223  0.889  0.453-  28 2.91  17 2.92  16 2.92  10 2.92  34 2.92  29 2.92  23 2.93  20 2.93
                            27 2.93  24 2.93  25 2.93  19 2.93
  27  0.556  0.889  0.453-  35 2.91  17 2.91  18 2.91  11 2.91  29 2.92  30 2.92  26 2.93  25 2.93
                            24 2.93  22 2.93  20 2.93  21 2.93
  28  0.000  0.000  0.560-  26 2.91  25 2.91  19 2.91  29 2.94  34 2.94  33 2.94  32 2.94  31 2.94
                            30 2.94
  29  0.333  0.003  0.560-  30 2.91  31 2.91  36 2.91  20 2.91  27 2.92  26 2.92  35 2.94  28 2.94
                            34 2.98
  30  0.664  0.003  0.560-  29 2.91  32 2.91  36 2.91  21 2.91  27 2.92  25 2.92  35 2.94  28 2.94
                            33 2.98
  31  0.003  0.333  0.560-  33 2.91  29 2.91  36 2.91  20 2.91  22 2.92  19 2.92  35 2.94  28 2.94
                            32 2.98
  32  0.664  0.333  0.560-  34 2.91  30 2.91  36 2.91  21 2.91  24 2.92  19 2.92  35 2.94  28 2.94
                            31 2.98
  33  0.003  0.664  0.560-  31 2.91  34 2.91  36 2.91  23 2.91  22 2.92  25 2.92  35 2.94  28 2.94
                            30 2.98
  34  0.333  0.664  0.560-  32 2.91  33 2.91  36 2.91  23 2.91  24 2.92  26 2.92  35 2.94  28 2.94
                            29 2.98
  35  0.667  0.667  0.560-  24 2.91  27 2.91  22 2.91  30 2.94  29 2.94  32 2.94  34 2.94  31 2.94
                            33 2.94
  36  0.333  0.333  0.554-  38 1.82  37 1.82  21 2.81  20 2.81  23 2.81  31 2.91  33 2.91  30 2.91
                            29 2.91  34 2.91  32 2.91
  37  0.286  0.333  0.634-  38 0.83  36 1.82
  38  0.381  0.333  0.634-  37 0.83  36 1.82

  LATTYP: Found a hexagonal cell.
 ALAT       =     8.7913665772
 C/A-ratio  =     2.5227160501

  Lattice vectors:

 A1 = (  -4.3956832886,  -7.6135467898,   0.0000000000)
 A2 = (   8.7913665771,   0.0000000000,   0.0000000000)
 A3 = (   0.0000000000,   0.0000000000,  22.1781215668)

Analysis of symmetry for initial positions (statically):
 Subroutine PRICEL returns:
 Original cell was already a primitive cell.

 Routine SETGRP: Setting up the symmetry group for a
 hexagonal supercell.

 Subroutine GETGRP returns: Found  2 space group operations
 (whereof  2 operations were pure point group operations)
 out of a pool of 24 trial point group operations.

The static configuration has the point symmetry C_1h.

Analysis of symmetry for dynamics (positions and initial velocities):
 Subroutine PRICEL returns:
 Original cell was already a primitive cell.

[...]

The dynamic configuration has the point symmetry C_1h.

Analysis of constrained symmetry for selective dynamics:
 Subroutine PRICEL returns:
 Original cell was already a primitive cell.

 Routine SETGRP: Setting up the symmetry group for a
 hexagonal supercell.

 Subroutine GETGRP returns: Found  2 space group operations
[...]
     33      -4.3576      2.00000
     34      -4.3107      2.00000
     35      -4.2874      2.00000
     36      -4.2608      2.00000
     37      -4.2509      2.00000
     38      -4.2301      2.00000
     39      -4.1971      2.00000
     40      -4.1871      2.00000
     41      -4.1836      2.00000
     42      -4.1658      2.00000
     43      -4.1513      2.00000
     44      -4.0695      2.00000
     45      -4.0390      2.00000
     46      -4.0337      2.00000
     47      -4.0261      2.00000
     48      -4.0191      2.00000
     49      -4.0140      2.00000
     50      -4.0070      2.00000
     51      -3.9933      2.00000
     52      -3.9782      2.00000
     53      -3.9676      2.00000
     54      -3.9019      2.00000
     55      -3.8961      2.00000
     56      -3.8874      2.00000
     57      -3.8815      2.00000
     58      -3.8690      2.00000
     59      -3.8589      2.00000
     60      -3.8191      2.00000
[...]
    238       6.9405      0.00000
    239       7.1397      0.00000
    240       7.1978      0.00000
    241       7.2146      0.00000
    242       7.3451      0.00000
    243       7.3546      0.00000
    244       7.3723      0.00000
    245       7.4213      0.00000
    246       7.4783      0.00000
    247       7.5426      0.00000
    248       7.6675      0.00000
    249       7.6890      0.00000
    250       7.9213      0.00000
    251       8.0162      0.00000
    252       8.0940      0.00000

 soft charge-density along one line, spin component           1
         0         1         2         3         4         5         6         7         8         9
 total charge-density along one line

------------------------ aborting loop because EDIFF is reached ----------------------------------------

 total charge

# of ion       s       p       d       tot
    1        0.413   0.205   9.177   9.795
    2        0.419   0.202   9.177   9.798
    3        0.419   0.202   9.177   9.798
    4        0.419   0.203   9.177   9.799
    5        0.415   0.204   9.178   9.796
    6        0.419   0.203   9.177   9.799
    7        0.419   0.203   9.177   9.799
    8        0.419   0.203   9.177   9.799
    9        0.415   0.204   9.177   9.796
   10        0.406   0.270   9.164   9.840
   11        0.409   0.267   9.166   9.842
   12        0.406   0.270   9.164   9.840
   13        0.409   0.267   9.166   9.843
   14        0.409   0.267   9.166   9.843
   15        0.401   0.271   9.165   9.838
   16        0.406   0.270   9.164   9.840
   17        0.401   0.271   9.165   9.838
   18        0.401   0.271   9.165   9.838
   19        0.407   0.267   9.168   9.843
   20        0.410   0.283   9.158   9.851
   21        0.410   0.283   9.158   9.851
   22        0.402   0.273   9.165   9.840
   23        0.409   0.283   9.159   9.852
   24        0.402   0.273   9.165   9.840
   25        0.406   0.268   9.169   9.842
   26        0.406   0.268   9.169   9.842
   27        0.402   0.273   9.165   9.840
   28        0.418   0.201   9.178   9.798
   29        0.415   0.203   9.183   9.801
   30        0.415   0.203   9.183   9.801
   31        0.414   0.205   9.181   9.801
   32        0.414   0.205   9.181   9.801
   33        0.415   0.203   9.183   9.801
   34        0.415   0.203   9.183   9.801
   35        0.417   0.202   9.179   9.799
   36        0.415   0.407   8.585   9.406
   37        0.552   0.031   0.000   0.583
   38        0.552   0.031   0.000   0.583
tot         15.901   8.818 329.596 354.316

  FORCE on cell =-STRESS in cart. coord.  units (eV):
  Direction    XX          YY          ZZ          XY          YZ          ZX
  Alpha Z   742.52218   742.52218   742.52218
  Ewald  121854.20455121831.84561************     0.00001    -0.08651     0.00001
  Hartree132118.09121132114.08827************     0.00000    -0.04380     0.00000
  E(xc)   -2088.05397 -2088.39260 -2093.23236    -0.00003    -0.00221    -0.00000
  Local  ************************265497.95047     0.00036     0.10924    -0.00006
  n-local  -330.66631  -330.32818  -335.84394     2.46284    -0.00388     0.10119
  augment  3294.78795  3295.72064  3301.45250    -0.00018     0.00545    -0.00001
  Kinetic  4920.59823  4927.64929  4943.33133     1.16009     0.03495     0.03199
  Fock        0.00000     0.00000     0.00000     0.00000     0.00000     0.00000
  Total      -6.79501    -6.75963    -0.08587    -0.00000     0.01323     0.00000
  in kB      -7.33386    -7.29567    -0.09268    -0.00000     0.01428     0.00000

 VOLUME and BASIS-vectors are now :
  energy-cutoff  :      500.00
  volume of cell :     1484.46
      direct lattice vectors                 reciprocal lattice vectors
     8.791366577  0.000000000  0.000000000     0.113747958 -0.065672414  0.000000000
     4.395683289  7.613546790  0.000000000     0.000000000  0.131344829  0.000000000
     0.000000000  0.000000000 22.178121567     0.000000000  0.000000000  0.045089481

  length of vectors
     8.791366577  8.791366577 22.178121567     0.131344829  0.131344829  0.045089481

 FORCES acting on ions
    electron-ion (+dipol)            ewald-force                    non-local-force                 convergence-correction
   0.459E-04 0.820E-03 0.251E+04   -.954E-04 -.169E-02 -.251E+04   0.101E-13 0.154E-02 -.217E+01   -.843E-04 0.244E-03 0.250E-01
   0.132E+00 0.242E+00 0.251E+04   -.190E+00 -.206E+00 -.251E+04   -.233E-02 -.721E-01 -.162E+01   0.596E-01 0.441E-01 0.152E-01
   -.132E+00 0.242E+00 0.251E+04   0.190E+00 -.206E+00 -.251E+04   0.233E-02 -.721E-01 -.162E+01   -.602E-01 0.460E-01 0.158E-01
   0.297E+00 0.232E-01 0.251E+04   -.272E+00 -.618E-01 -.251E+04   -.681E-01 0.303E-01 -.162E+01   0.511E-01 0.398E-02 0.109E-01
   -.783E-05 0.297E-01 0.251E+04   0.981E-04 0.195E-03 -.251E+04   -.727E-13 -.111E-01 -.166E+01   0.618E-02 -.171E-01 0.788E-02
   -.297E+00 0.232E-01 0.251E+04   0.272E+00 -.619E-01 -.251E+04   0.681E-01 0.303E-01 -.162E+01   -.524E-01 0.489E-02 0.116E-01
   0.128E+00 -.272E+00 0.251E+04   -.823E-01 0.268E+00 -.251E+04   -.580E-01 0.439E-01 -.161E+01   0.217E-01 -.459E-01 0.173E-01
   -.128E+00 -.272E+00 0.251E+04   0.822E-01 0.268E+00 -.251E+04   0.580E-01 0.439E-01 -.161E+01   -.201E-01 -.469E-01 0.174E-01
   0.362E-04 -.122E-01 0.251E+04   0.792E-04 0.149E-02 -.251E+04   -.211E-14 -.322E-03 -.188E+01   -.663E-02 0.102E-01 0.593E-01
   0.241E+01 0.142E+01 0.849E+03   -.218E+01 -.127E+01 -.849E+03   -.241E+00 -.144E+00 -.701E+00   0.325E-01 0.103E-01 0.414E-01
   -.289E-04 0.179E+01 0.852E+03   0.413E-04 -.187E+01 -.852E+03   0.999E-13 0.152E-01 -.659E+00   0.619E-02 0.370E-01 0.397E-01
   -.241E+01 0.142E+01 0.849E+03   0.218E+01 -.127E+01 -.849E+03   0.241E+00 -.144E+00 -.701E+00   -.338E-01 0.109E-01 0.406E-01
   0.151E+01 -.871E+00 0.852E+03   -.161E+01 0.938E+00 -.852E+03   0.230E-01 -.175E-01 -.663E+00   0.541E-01 -.340E-01 0.406E-01
   -.151E+01 -.871E+00 0.852E+03   0.161E+01 0.938E+00 -.852E+03   -.230E-01 -.175E-01 -.663E+00   -.438E-01 -.350E-01 0.390E-01
   0.159E-04 0.331E+00 0.849E+03   -.108E-03 -.319E+00 -.849E+03   -.126E-12 -.192E-01 -.523E+00   -.128E-02 0.328E-02 0.241E-01
   -.816E-05 -.281E+01 0.849E+03   0.206E-04 0.252E+01 -.849E+03   0.181E-11 0.276E+00 -.699E+00   -.896E-04 -.209E-01 0.341E-01
   0.269E+00 -.204E+00 0.849E+03   -.284E+00 0.167E+00 -.849E+03   -.157E-01 0.194E-01 -.536E+00   0.252E-01 0.172E-01 0.129E-01
   -.269E+00 -.204E+00 0.849E+03   0.284E+00 0.167E+00 -.849E+03   0.157E-01 0.194E-01 -.536E+00   -.250E-01 0.188E-01 0.137E-01
   0.420E-04 0.136E+01 -.840E+03   -.129E-03 -.143E+01 0.839E+03   0.257E-12 0.392E-01 0.638E+00   0.102E-02 0.151E-01 -.623E-01
   0.847E+01 0.499E+01 -.821E+03   -.793E+01 -.466E+01 0.821E+03   -.578E+00 -.341E+00 -.680E+00   0.595E-01 0.203E-01 -.143E-01
   -.847E+01 0.499E+01 -.821E+03   0.793E+01 -.466E+01 0.821E+03   0.578E+00 -.341E+00 -.680E+00   -.704E-01 0.199E-01 -.146E-01
   0.341E+01 -.205E+01 -.834E+03   -.367E+01 0.221E+01 0.834E+03   0.250E+00 -.135E+00 0.655E+00   0.259E-01 -.258E-01 -.378E-01
   -.566E-04 -.988E+01 -.821E+03   0.435E-04 0.928E+01 0.821E+03   0.432E-11 0.658E+00 -.665E+00   -.541E-02 -.849E-01 -.662E-02
   -.341E+01 -.205E+01 -.834E+03   0.367E+01 0.220E+01 0.834E+03   -.250E+00 -.135E+00 0.655E+00   -.244E-01 -.252E-01 -.377E-01
   -.113E+01 -.630E+00 -.840E+03   0.120E+01 0.649E+00 0.839E+03   -.327E-01 -.204E-01 0.673E+00   -.198E-01 0.871E-02 -.666E-01
   0.113E+01 -.630E+00 -.840E+03   -.120E+01 0.649E+00 0.839E+03   0.327E-01 -.204E-01 0.673E+00   0.199E-01 0.964E-02 -.662E-01
   0.196E-04 0.394E+01 -.834E+03   0.110E-03 -.425E+01 0.834E+03   0.177E-11 0.269E+00 0.636E+00   -.297E-03 0.561E-01 -.539E-01
   0.546E-04 0.313E+00 -.251E+04   -.117E-03 -.325E+00 0.250E+04   -.570E-13 -.869E-02 0.168E+01   0.250E-03 0.169E-01 0.715E-01
   0.874E+01 0.147E+02 -.251E+04   -.867E+01 -.147E+02 0.250E+04   -.167E+00 -.182E+00 0.209E+01   0.273E-01 0.648E-01 0.308E-01
   -.874E+01 0.147E+02 -.251E+04   0.867E+01 -.147E+02 0.250E+04   0.167E+00 -.182E+00 0.209E+01   -.282E-01 0.660E-01 0.309E-01
   0.179E+02 0.644E+00 -.250E+04   -.178E+02 -.566E+00 0.250E+04   -.310E+00 -.470E-01 0.203E+01   0.468E-01 -.242E-01 0.377E-01
   -.179E+02 0.644E+00 -.250E+04   0.178E+02 -.566E+00 0.250E+04   0.310E+00 -.470E-01 0.203E+01   -.472E-01 -.233E-01 0.384E-01
   0.755E+01 -.153E+02 -.251E+04   -.758E+01 0.153E+02 0.250E+04   -.876E-01 0.231E+00 0.208E+01   0.468E-01 -.453E-01 0.280E-01
   -.755E+01 -.153E+02 -.251E+04   0.758E+01 0.153E+02 0.250E+04   0.876E-01 0.231E+00 0.208E+01   -.454E-01 -.456E-01 0.287E-01
   0.235E-04 -.308E+00 -.250E+04   0.106E-03 0.296E+00 0.250E+04   0.118E-12 0.179E-01 0.174E+01   -.634E-02 -.469E-02 0.224E-01
   -.452E-05 -.164E+00 -.216E+04   0.943E-04 0.168E+00 0.216E+04   0.192E-13 0.293E-02 0.142E+01   0.397E-02 -.505E-02 -.699E-02
   0.200E+02 0.241E-01 -.283E+03   -.238E+02 -.251E-01 0.284E+03   0.375E+01 0.157E-02 -.799E+00   0.387E-02 -.831E-03 -.425E-02
   -.200E+02 0.241E-01 -.283E+03   0.238E+02 -.251E-01 0.284E+03   -.375E+01 0.157E-02 -.799E+00   -.374E-02 -.825E-03 -.432E-02
   0.352E-03 0.288E-01 0.316E+01   -.142E-13 -.193E-13 0.921E-11   -.179E-12 -.273E-01 -.352E+01   -.271E-02 -.140E-02 0.380E+00

 POSITION                                       TOTAL-FORCE (eV/Angst)
      0.00000      0.00000      5.28219         0.000000      0.000914      0.068979
      2.93046      0.00000      5.28219         0.000132      0.009231      0.030795
      5.86091      0.00000      5.28219        -0.000132      0.009231      0.030795
      1.46523      2.53785      5.28219         0.008595     -0.003954      0.032509
      4.39568      2.53785      5.28219         0.000000      0.001738      0.004580
      7.32614      2.53785      5.28219        -0.008595     -0.003954      0.032509
      2.93046      5.07570      5.28219         0.008347     -0.006511      0.031715
      5.86091      5.07570      5.28219        -0.008347     -0.006511      0.031715
      8.79137      5.07570      5.28219        -0.000000     -0.000776      0.046036
      1.46523      0.84595      7.67490         0.029269      0.017188     -0.021033
      4.39568      0.84595      7.67490        -0.000000     -0.028673     -0.085854
      7.32614      0.84595      7.67490        -0.029269      0.017188     -0.021033
      2.93046      3.38380      7.67490        -0.026975      0.015203     -0.086544
      5.86091      3.38380      7.67490         0.026975      0.015203     -0.086544
      8.79137      3.38380      7.67490        -0.000000     -0.003663     -0.003064
      4.39568      5.92165      7.67490        -0.000000     -0.034992     -0.020259
      7.32614      5.92165      7.67490        -0.005216      0.000369     -0.002857
     10.25659      5.92165      7.67490         0.005216      0.000369     -0.002857
      8.79137      1.69432     10.05238        -0.000000     -0.016506     -0.011310
      2.92802      1.69049     10.04000         0.023715      0.014686     -0.060846
      5.86334      1.69049     10.04000        -0.023715      0.014686     -0.060846
     10.25637      4.22988     10.04709         0.015552     -0.010329      0.008961
      4.39568      4.23256     10.04000        -0.000000     -0.027165     -0.064772
      7.32637      4.22988     10.04709        -0.015552     -0.010329      0.008961
     11.71973      6.76639     10.05238         0.016961      0.007686     -0.011526
      5.86300      6.76639     10.05238        -0.016961      0.007686     -0.011526
      8.79137      6.76733     10.04709         0.000000      0.019460      0.011396
      0.00000      0.00000     12.42253        -0.000000     -0.004143      0.007715
      2.94245      0.01904     12.42445        -0.068265     -0.119443     -0.050663
      5.84892      0.01904     12.42445         0.068265     -0.119443     -0.050663
      1.48772      2.53872     12.42445        -0.120731      0.007396     -0.039161
      7.30365      2.53872     12.42445         0.120731      0.007396     -0.039161
      2.94095      5.05579     12.42445        -0.078693      0.113856     -0.048798
      5.85042      5.05579     12.42445         0.078693      0.113856     -0.048798
      8.79137      5.07570     12.41807         0.000000      0.001667      0.015629
      4.39568      2.53785     12.28633         0.000000      0.001978      0.482985
      3.97901      2.53417     14.05840        -0.012786     -0.000298     -0.008583
      4.81236      2.53417     14.05840         0.012786     -0.000298     -0.008583
    total drift:                               -0.002359      0.000157      0.017016

  FREE ENERGIE OF THE ION-ELECTRON SYSTEM (eV)
  free  energy   TOTEN  =      -101.17753369 eV

  energy  without entropy=     -101.17753369  energy(sigma->0) =     -101.17753369

 stress matrix after NEB project (eV)
     -6.79501     -0.00000      0.00000
     -0.00000     -6.75963      0.01323
      0.00000      0.01323     -0.08587
  FORCES: max atom, RMS     0.015402    0.003534
  FORCE total and by dimension    0.021782    0.012786
  Stress total and by dimension    9.585015    6.795015
|           W    W    AA    RRRRR   N    N  II  N    N   GGGG   !!!           |
|           W    W   A  A   R    R  NN   N  II  NN   N  G    G  !!!           |
|           W    W  A    A  R    R  N N  N  II  N N  N  G       !!!           |
|           W WW W  AAAAAA  RRRRR   N  N N  II  N  N N  G  GGG   !            |
|           WW  WW  A    A  R   R   N   NN  II  N   NN  G    G                |
|           W    W  A    A  R    R  N    N  II  N    N   GGGG   !!!           |
|     Tetrahedron method does not include variations of the Fermi             |
|     occupations, so forces and stress will be inaccurate. We suggest        |
|     using a different smearing scheme ISMEAR = 1 or 2 for metals in         |
|     relaxations.                                                            |

 total charge

# of ion       s       p       d       tot
    1        0.413   0.205   9.177   9.795
    2        0.419   0.202   9.177   9.798
    3        0.419   0.202   9.177   9.798
    4        0.419   0.203   9.177   9.799
    5        0.415   0.204   9.178   9.796
    6        0.419   0.203   9.177   9.799
    7        0.419   0.203   9.177   9.799
    8        0.419   0.203   9.177   9.799
    9        0.415   0.204   9.177   9.796
   10        0.406   0.270   9.164   9.840
   11        0.409   0.267   9.166   9.842
   12        0.406   0.270   9.164   9.840
   13        0.409   0.267   9.166   9.843
   14        0.409   0.267   9.166   9.843
   15        0.401   0.271   9.165   9.838
   16        0.406   0.270   9.164   9.840
   17        0.401   0.271   9.165   9.838
   18        0.401   0.271   9.165   9.838
   19        0.407   0.267   9.168   9.843
   20        0.410   0.283   9.158   9.851
   21        0.410   0.283   9.158   9.851
   22        0.402   0.273   9.165   9.840
   23        0.409   0.283   9.159   9.852
   24        0.402   0.273   9.165   9.840
   25        0.406   0.268   9.169   9.842
   26        0.406   0.268   9.169   9.842
   27        0.402   0.273   9.165   9.840
   28        0.418   0.201   9.178   9.798
   29        0.415   0.203   9.183   9.801
   30        0.415   0.203   9.183   9.801
   31        0.414   0.205   9.181   9.801
   32        0.414   0.205   9.181   9.801
   33        0.415   0.203   9.183   9.801
   34        0.415   0.203   9.183   9.801
   35        0.417   0.202   9.179   9.799
   36        0.415   0.407   8.585   9.406
   37        0.552   0.031   0.000   0.583
   38        0.552   0.031   0.000   0.583
tot         15.901   8.818 329.596 354.316

 BZINTS: Fermi energy:    0.957302;  397.000000 electrons
         Band energy:-0.123219E+04;  BLOECHL correction:   -0.061161