 vasp.6.2.0 18Jan21 (build Jun 12 2021 23:27:24) complex

 executed on             LinuxIFC date 2022.05.27  05:17:33

 INCAR:
   ISMEAR = -5
   SIGMA = 0.1
   ISPIN = 1
   EDIFF = 1.d-5
   EDIFFG = -0.01
   NSW = 0
   NELM = 150
   ENCUT = 500
   ISIF = 2
   IBRION = 2
   LREAL = Auto
   ALGO = Fast
   ICHARG = 11
   LORBIT = 10
   LCHARG = .F.
   LWAVE = .F.

 POTCAR:    PAW_PBE Au 04Oct2007
 POTCAR:    PAW_PBE Hf 20Jan2003
 POTCAR:    PAW_PBE N 08Apr2002
|           W    W    AA    RRRRR   N    N  II  N    N   GGGG   !!!           |
|           W    W   A  A   R    R  NN   N  II  NN   N  G    G  !!!           |
|           W    W  A    A  R    R  N N  N  II  N N  N  G       !!!           |
|           W WW W  AAAAAA  RRRRR   N  N N  II  N  N N  G  GGG   !            |
|           WW  WW  A    A  R   R   N   NN  II  N   NN  G    G                |
|           W    W  A    A  R    R  N    N  II  N    N   GGGG   !!!           |
|     For optimal performance we recommend to set                             |
|       NCORE = 2 up to number-of-cores-per-socket                            |
|     This setting can greatly improve the performance of VASP for DFT.       |
|     The default, NCORE=1 might be grossly inefficient on modern             |
|     multi-core architectures or massively parallel machines. Do your        |
|     Unfortunately you need to use the default for GW and RPA                |
|     calculations (for HF NCORE is supported but not extensively tested      |
|     yet).                                                                   |

 POTCAR:    PAW_PBE Au 04Oct2007
   VRHFIN =Au: s1d10

   TITEL  = PAW_PBE Au 04Oct2007
   POMASS =  196.966; ZVAL   =   11.000    mass and valenz
   ENMAX  =  229.943; ENMIN  =  172.457 eV

 POTCAR:    PAW_PBE Hf 20Jan2003
   VRHFIN =Hf: 6s5d

   TITEL  = PAW_PBE Hf 20Jan2003
   POMASS =  178.490; ZVAL   =    4.000    mass and valenz
   ENMAX  =  220.334; ENMIN  =  165.250 eV

 POTCAR:    PAW_PBE N 08Apr2002
   VRHFIN =N: s2p3

   TITEL  = PAW_PBE N 08Apr2002
   POMASS =   14.001; ZVAL   =    5.000    mass and valenz
   ENMAX  =  400.000; ENMIN  =  300.000 eV

 Optimization of the real space projectors (new method)

 maximal supplied QI-value         = 15.12
 optimisation between [QCUT,QGAM] = [ 11.34, 22.83] = [ 36.00,145.93] Ry
 Optimized for a Real-space Cutoff    1.39 Angstroem

   l    n(q)    QCUT    max X(q) W(low)/X(q) W(high)/X(q)  e(spline)
   2      9    11.338    60.898    0.39E-03    0.42E-03    0.21E-06
   2      9    11.338    58.894    0.40E-03    0.42E-03    0.22E-06
   0      9    11.338   109.617    0.13E-03    0.20E-04    0.13E-06
   0      9    11.338    75.026    0.13E-03    0.20E-04    0.13E-06
   1      9    11.338    16.344    0.33E-04    0.24E-03    0.18E-06
   1      9    11.338    10.160    0.26E-04    0.19E-03    0.15E-06
 Optimization of the real space projectors (new method)

[...]

   l    n(q)    QCUT    max X(q) W(low)/X(q) W(high)/X(q)  e(spline)
   2     10    11.350    48.111    0.20E-03    0.11E-03    0.41E-06
   2     10    11.350    40.545    0.19E-03    0.10E-03    0.39E-06
   0     11    11.350   121.658    0.22E-04    0.19E-04    0.24E-06
   0     11    11.350    71.177    0.17E-04    0.17E-04    0.23E-06
   1     11    11.350    14.183    0.25E-03    0.43E-03    0.12E-05
   1     11    11.350     8.257    0.17E-03    0.29E-03    0.81E-06
 Optimization of the real space projectors (new method)

 maximal supplied QI-value         = 25.13
 optimisation between [QCUT,QGAM] = [ 11.31, 22.87] = [ 35.82,146.48] Ry
 Optimized for a Real-space Cutoff    1.27 Angstroem

   l    n(q)    QCUT    max X(q) W(low)/X(q) W(high)/X(q)  e(spline)
   0      9    11.310    79.467    0.75E-04    0.16E-03    0.36E-06
   0      9    11.310    66.151    0.74E-04    0.16E-03    0.36E-06
   1      8    11.310    17.416    0.35E-03    0.12E-03    0.95E-06
   1      8    11.310    12.382    0.37E-03    0.13E-03    0.98E-06
  PAW_PBE Au 04Oct2007                  :
  PAW_PBE Hf 20Jan2003                  :
  PAW_PBE N 08Apr2002                   :

 POSCAR: Au-Hf-N2
  positions in direct lattice
  velocities in cartesian coordinates
 exchange correlation table for  LEXCH =        8
   RHO(1)=    0.500       N(1)  =     2000
   RHO(2)=  100.500       N(2)  =     4000

 VTST: version 3.2, (02/03/18)

 CHAIN: initializing optimizer

 OPT: Using VASP Conjugate-Gradient optimizer
 CHAIN: Read ICHAIN            0

 POSCAR: Au-Hf-N2
  positions in direct lattice
  velocities in cartesian coordinates

 ion  position               nearest neighbor table
   1  0.000  0.000  0.207-  16 2.94  12 2.94   6 2.94   8 2.94   7 2.94   3 2.94  10 2.94   4 2.94
                             2 2.94
   2  0.333  0.000  0.207-   9 2.94  11 2.94  17 2.94  10 2.94   8 2.94   4 2.94   5 2.94   1 2.94
                             3 2.94
   3  0.667  0.000  0.207-   7 2.94  18 2.94  12 2.94   1 2.94  11 2.94   5 2.94   6 2.94   9 2.94
                             2 2.94
   4  0.000  0.333  0.207-  10 2.94   6 2.94   5 2.94  13 2.94   2 2.94  15 2.94   9 2.94   1 2.94
                             7 2.94
   5  0.333  0.333  0.207-  13 2.94   7 2.94  11 2.94   4 2.94   2 2.94  14 2.94   3 2.94   8 2.94
                             6 2.94
   6  0.667  0.333  0.207-  15 2.94  14 2.94   1 2.94  12 2.94   4 2.94   9 2.94   8 2.94   3 2.94
                             5 2.94
   7  0.000  0.667  0.207-  18 2.94   3 2.94  16 2.94   5 2.94   1 2.94  13 2.94   8 2.94   4 2.94
                             9 2.94
   8  0.333  0.667  0.207-   9 2.94  17 2.94   1 2.94   2 2.94  14 2.94  16 2.94   6 2.94   7 2.94
                             5 2.94
   9  0.667  0.667  0.207-   2 2.94   8 2.94  17 2.94   6 2.94  15 2.94   4 2.94   3 2.94  18 2.94
                             7 2.94
  10  0.111  0.111  0.301-  20 2.93  26 2.94  19 2.94  11 2.94  17 2.94   2 2.94   4 2.94   1 2.94
                            12 2.94  16 2.94  13 2.94  15 2.94
  11  0.444  0.111  0.301-  20 2.92  21 2.92  13 2.94   2 2.94  10 2.94  17 2.94   5 2.94   3 2.94
                            18 2.94  14 2.94  12 2.94  27 2.94
  12  0.778  0.111  0.301-  21 2.93  25 2.94  19 2.94  16 2.94  18 2.94   1 2.94  14 2.94  15 2.94
                             3 2.94   6 2.94  10 2.94  11 2.94
  13  0.111  0.444  0.301-  23 2.92  20 2.92   5 2.94  18 2.94  11 2.94   7 2.94   4 2.94  16 2.94
                            10 2.94  14 2.94  15 2.94  22 2.94
  14  0.444  0.444  0.301-  21 2.92  23 2.92  15 2.94   6 2.94  12 2.94   8 2.94  17 2.94   5 2.94
                            16 2.94  13 2.94  11 2.94  24 2.94
  15  0.778  0.444  0.301-  24 2.93  22 2.93  19 2.94  14 2.94   6 2.94  17 2.94  12 2.94   9 2.94
                             4 2.94  10 2.94  13 2.94  18 2.94
  16  0.111  0.778  0.301-  23 2.93  25 2.94  26 2.94  18 2.94  12 2.94   7 2.94   1 2.94   8 2.94
                            13 2.94  10 2.94  14 2.94  17 2.94
  17  0.444  0.778  0.301-  27 2.93  24 2.93  26 2.94   9 2.94  15 2.94   2 2.94  10 2.94  11 2.94
                             8 2.94  14 2.94  16 2.94  18 2.94
  18  0.778  0.778  0.301-  22 2.93  27 2.93  25 2.94  16 2.94   7 2.94  13 2.94  12 2.94   3 2.94
                            11 2.94   9 2.94  15 2.94  17 2.94
  19  0.889  0.222  0.395-  15 2.94  10 2.94  12 2.94  24 2.94  22 2.94  26 2.94  25 2.94  21 2.94
                            20 2.94  28 2.96  32 3.04  31 3.04
  20  0.223  0.223  0.395-  36 2.81  11 2.92  13 2.92  23 2.93  21 2.93  10 2.93  26 2.94  19 2.94
                            27 2.95  22 2.95  29 2.99  31 2.99
  21  0.555  0.223  0.395-  36 2.81  14 2.92  11 2.92  20 2.93  23 2.93  12 2.93  25 2.94  19 2.94
                            27 2.95  24 2.95  30 2.99  32 2.99
  22  0.887  0.556  0.395-  24 2.92  27 2.92  18 2.93  15 2.93  25 2.94  19 2.94  13 2.94  23 2.95
                            20 2.95  35 2.96  33 3.01  31 3.01
  23  0.223  0.555  0.395-  36 2.81  13 2.92  14 2.92  20 2.93  21 2.93  16 2.93  25 2.94  26 2.94
                            22 2.95  24 2.95  33 2.99  34 2.99
  24  0.556  0.556  0.395-  27 2.92  22 2.92  15 2.93  17 2.93  26 2.94  19 2.94  14 2.94  21 2.95
                            23 2.95  35 2.96  32 3.01  34 3.01
  25  0.889  0.889  0.395-  18 2.94  16 2.94  12 2.94  22 2.94  27 2.94  19 2.94  26 2.94  23 2.94
                            21 2.94  28 2.96  33 3.04  30 3.04
  26  0.222  0.889  0.395-  17 2.94  10 2.94  16 2.94  27 2.94  24 2.94  19 2.94  25 2.94  20 2.94
                            23 2.94  28 2.96  29 3.04  34 3.04
  27  0.556  0.887  0.395-  24 2.92  22 2.92  17 2.93  18 2.93  26 2.94  25 2.94  11 2.94  20 2.95
                            21 2.95  35 2.96  29 3.01  30 3.01
  28  0.000  0.000  0.490-  25 2.96  19 2.96  26 2.96  34 2.98  32 2.98  33 2.98  30 2.98  31 2.98
                            29 2.98
  29  0.334  0.008  0.493-  30 2.86  31 2.87  36 2.88  35 2.97  28 2.98  20 2.99  27 3.01  26 3.04
                            34 3.08
  30  0.658  0.008  0.493-  29 2.86  32 2.87  36 2.88  35 2.97  28 2.98  21 2.99  27 3.01  25 3.04
                            33 3.08
  31  0.008  0.334  0.493-  33 2.86  29 2.87  36 2.88  35 2.97  28 2.98  20 2.99  22 3.01  19 3.04
                            32 3.08
  32  0.658  0.334  0.493-  34 2.86  30 2.87  36 2.88  35 2.97  28 2.98  21 2.99  24 3.01  19 3.04
                            31 3.08
  33  0.008  0.658  0.493-  31 2.86  34 2.87  36 2.88  35 2.97  28 2.98  23 2.99  22 3.01  25 3.04
                            30 3.08
  34  0.334  0.658  0.493-  32 2.86  33 2.87  36 2.88  35 2.97  28 2.98  23 2.99  24 3.01  26 3.04
                            29 3.08
  35  0.667  0.667  0.491-  24 2.96  27 2.96  22 2.96  29 2.97  34 2.97  32 2.97  31 2.97  30 2.97
                            33 2.97
  36  0.333  0.333  0.483-  20 2.81  23 2.81  21 2.81  33 2.88  31 2.88  29 2.88  30 2.88  34 2.88
                            32 2.88
  37  0.269  0.336  0.672-  38 1.11
  38  0.395  0.336  0.672-  37 1.11

  LATTYP: Found a hexagonal cell.
 ALAT       =     8.8135128021
 C/A-ratio  =     2.8913986695

  Lattice vectors:

 A1 = (  -4.4067569092,  -7.6327256898,   0.0000000000)
 A2 = (   8.8135128021,   0.0000000000,   0.0000000000)
 A3 = (   0.0000000000,   0.0000000000,  25.4833791893)

Analysis of symmetry for initial positions (statically):
 Subroutine PRICEL returns:
 Original cell was already a primitive cell.

 Routine SETGRP: Setting up the symmetry group for a
 hexagonal supercell.

 Subroutine GETGRP returns: Found  2 space group operations
 (whereof  2 operations were pure point group operations)
 out of a pool of 24 trial point group operations.

The static configuration has the point symmetry C_1h.

Analysis of symmetry for dynamics (positions and initial velocities):
 Subroutine PRICEL returns:
 Original cell was already a primitive cell.

[...]

The dynamic configuration has the point symmetry C_1h.

Analysis of constrained symmetry for selective dynamics:
 Subroutine PRICEL returns:
 Original cell was already a primitive cell.

 Routine SETGRP: Setting up the symmetry group for a
 hexagonal supercell.

[...]
     33      -5.4770      2.00000
     34      -5.4354      2.00000
     35      -5.4235      2.00000
     36      -5.3572      2.00000
     37      -5.3376      2.00000
     38      -5.3163      2.00000
     39      -5.3141      2.00000
     40      -5.3082      2.00000
     41      -5.1644      2.00000
     42      -5.1173      2.00000
     43      -5.0572      2.00000
     44      -5.0439      2.00000
     45      -5.0194      2.00000
     46      -4.9938      2.00000
     47      -4.9660      2.00000
     48      -4.9412      2.00000
     49      -4.9183      2.00000
     50      -4.8846      2.00000
     51      -4.8166      2.00000
     52      -4.7959      2.00000
     53      -4.7499      2.00000
     54      -4.7285      2.00000
     55      -4.7236      2.00000
     56      -4.7171      2.00000
     57      -4.6976      2.00000
     58      -4.6740      2.00000
     59      -4.6348      2.00000
     60      -4.6020      2.00000
[...]
    226       3.4072      0.00000
    227       3.6618      0.00000
    228       3.8046      0.00000
    229       3.8800      0.00000
    230       4.2767      0.00000
    231       4.3727      0.00000
    232       4.4883      0.00000
    233       4.7741      0.00000
    234       4.8650      0.00000
    235       4.9099      0.00000
    236       5.0376      0.00000
    237       5.1888      0.00000
    238       5.4085      0.00000
    239       5.6052      0.00000
    240       5.6492      0.00000

 soft charge-density along one line, spin component           1
         0         1         2         3         4         5         6         7         8         9
 total charge-density along one line

------------------------ aborting loop because EDIFF is reached ----------------------------------------

 total charge

# of ion       s       p       d       tot
    1        0.551   0.237   8.766   9.555
    2        0.541   0.241   8.765   9.548
    3        0.541   0.241   8.765   9.548
    4        0.541   0.241   8.765   9.548
    5        0.544   0.242   8.761   9.547
    6        0.541   0.241   8.765   9.548
    7        0.541   0.241   8.765   9.548
    8        0.541   0.241   8.765   9.548
    9        0.546   0.239   8.766   9.551
   10        0.523   0.308   8.769   9.601
   11        0.519   0.307   8.779   9.604
   12        0.523   0.308   8.769   9.601
   13        0.519   0.307   8.779   9.604
   14        0.519   0.307   8.779   9.604
   15        0.517   0.308   8.773   9.598
   16        0.523   0.308   8.769   9.601
   17        0.517   0.308   8.773   9.598
   18        0.517   0.308   8.773   9.598
   19        0.521   0.299   8.767   9.587
   20        0.571   0.339   8.727   9.636
   21        0.571   0.339   8.727   9.636
   22        0.511   0.305   8.775   9.591
   23        0.571   0.339   8.727   9.636
   24        0.511   0.305   8.775   9.591
   25        0.521   0.299   8.767   9.587
   26        0.521   0.299   8.767   9.587
   27        0.511   0.305   8.775   9.591
   28        0.540   0.233   8.752   9.526
   29        0.600   0.252   8.722   9.575
   30        0.600   0.252   8.722   9.575
   31        0.600   0.252   8.722   9.574
   32        0.600   0.252   8.722   9.574
   33        0.600   0.252   8.722   9.575
   34        0.600   0.252   8.722   9.575
   35        0.538   0.235   8.754   9.527
   36        0.558   0.473   1.746   2.776
   37        1.373   2.468   0.000   3.841
   38        1.373   2.468   0.000   3.841
tot         22.358  15.158 308.236 345.752

  FORCE on cell =-STRESS in cart. coord.  units (eV):
  Direction    XX          YY          ZZ          XY          YZ          ZX
  Alpha Z   891.84703   891.84703   891.84703
  Ewald  158131.44699157811.13133************    -0.00034    -0.46776    -0.00018
  Hartree166294.52548166181.24753************     0.00000    -0.46655    -0.00005
  E(xc)   -1784.47822 -1785.71776 -1792.46612    -0.00002    -0.00003    -0.00000
  Local  ************************336065.30409     0.00245     0.93568     0.00009
  n-local   -64.81679   -52.25801   -25.04193     4.80064     0.00174     0.03763
  augment  2363.92570  2363.62030  2383.54267    -0.00144    -0.00020     0.00001
  Kinetic  5548.26491  5566.33070  5628.78348     0.96943    -0.00207    -0.09389
  Fock        0.00000     0.00000     0.00000     0.00000     0.00000     0.00000
  Total     -23.25353   -23.23862     1.74906    -0.00000     0.00080     0.00000
  in kB     -21.73271   -21.71877     1.63467    -0.00000     0.00075     0.00000

 VOLUME and BASIS-vectors are now :
  energy-cutoff  :      500.00
  volume of cell :     1714.30
      direct lattice vectors                 reciprocal lattice vectors
     8.813512802  0.000000000  0.000000000     0.113462137 -0.065507406  0.000000000
     4.406756909  7.632725690  0.000000000     0.000000000  0.131014796  0.000000000
     0.000000000  0.000000000 25.483379189     0.000000000  0.000000000  0.039241264

  length of vectors
     8.813512802  8.813512802 25.483379189     0.131014796  0.131014796  0.039241264

 FORCES acting on ions
    electron-ion (+dipol)            ewald-force                    non-local-force                 convergence-correction
   -.199E-04 0.316E-02 0.269E+04   0.518E-04 -.116E-02 -.269E+04   -.858E-11 -.129E-03 -.475E+00   -.281E-03 -.201E-02 -.148E+00
   -.770E-01 -.468E+00 0.269E+04   0.466E-01 0.395E+00 -.269E+04   -.353E-02 0.567E-01 -.410E+00   0.328E-01 0.684E-02 -.124E+00
   0.769E-01 -.468E+00 0.269E+04   -.466E-01 0.395E+00 -.269E+04   0.353E-02 0.567E-01 -.410E+00   -.325E-01 0.888E-02 -.123E+00
   -.446E+00 0.163E+00 0.269E+04   0.366E+00 -.158E+00 -.269E+04   0.473E-01 -.317E-01 -.411E+00   0.239E-01 0.299E-01 -.122E+00
   0.730E-05 -.948E-02 0.269E+04   0.951E-04 -.464E-03 -.269E+04   -.175E-11 -.263E-04 -.552E-01   0.439E-02 0.101E-01 -.103E+00
   0.446E+00 0.163E+00 0.269E+04   -.366E+00 -.158E+00 -.269E+04   -.473E-01 -.317E-01 -.411E+00   -.255E-01 0.309E-01 -.121E+00
   -.370E+00 0.305E+00 0.269E+04   0.320E+00 -.237E+00 -.269E+04   0.511E-01 -.251E-01 -.410E+00   -.673E-02 -.378E-01 -.120E+00
   0.370E+00 0.305E+00 0.269E+04   -.320E+00 -.237E+00 -.269E+04   -.511E-01 -.251E-01 -.410E+00   0.864E-02 -.390E-01 -.120E+00
   0.197E-04 0.557E-02 0.269E+04   0.166E-03 0.165E-02 -.269E+04   0.177E-10 0.265E-03 -.300E+00   -.466E-02 -.754E-02 -.838E-01
   -.123E+01 -.701E+00 0.882E+03   0.132E+01 0.755E+00 -.882E+03   -.199E+00 -.115E+00 -.564E+00   0.718E-01 0.435E-01 0.808E-02
   0.134E-04 -.269E+01 0.878E+03   0.149E-03 0.265E+01 -.878E+03   -.319E-08 -.479E-01 -.168E+00   0.426E-02 0.270E-01 0.205E-01
   0.123E+01 -.701E+00 0.882E+03   -.132E+01 0.755E+00 -.882E+03   0.199E+00 -.115E+00 -.564E+00   -.738E-01 0.455E-01 0.932E-02
   -.233E+01 0.133E+01 0.878E+03   0.230E+01 -.132E+01 -.878E+03   -.416E-01 0.244E-01 -.169E+00   0.226E-01 0.162E-03 0.226E-01
   0.233E+01 0.133E+01 0.878E+03   -.230E+01 -.132E+01 -.878E+03   0.416E-01 0.244E-01 -.169E+00   -.143E-01 -.515E-03 0.235E-01
   0.322E-04 0.256E+01 0.885E+03   0.235E-03 -.267E+01 -.885E+03   0.974E-09 0.146E-01 -.455E+00   -.297E-02 0.587E-01 -.146E-01
   -.206E-04 0.142E+01 0.882E+03   0.161E-03 -.152E+01 -.882E+03   0.153E-07 0.229E+00 -.563E+00   0.385E-03 -.947E-01 0.113E-01
   0.222E+01 -.128E+01 0.885E+03   -.232E+01 0.134E+01 -.885E+03   0.130E-01 -.784E-02 -.454E+00   0.436E-01 -.372E-01 -.150E-01
   -.222E+01 -.128E+01 0.885E+03   0.232E+01 0.134E+01 -.885E+03   -.130E-01 -.784E-02 -.454E+00   -.436E-01 -.346E-01 -.148E-01
   -.424E-04 -.637E+01 -.929E+03   0.564E-04 0.643E+01 0.928E+03   -.463E-08 -.695E-01 0.474E+00   -.607E-02 0.258E-01 0.193E+00
   -.290E+02 -.167E+02 -.959E+03   0.299E+02 0.172E+02 0.959E+03   -.987E+00 -.569E+00 -.104E+01   0.125E+00 0.824E-01 0.253E+00
   0.290E+02 -.167E+02 -.959E+03   -.299E+02 0.172E+02 0.959E+03   0.987E+00 -.569E+00 -.104E+01   -.116E+00 0.839E-01 0.252E+00
   -.211E+02 0.121E+02 -.926E+03   0.208E+02 -.120E+02 0.925E+03   0.249E+00 -.145E+00 0.548E+00   0.522E-01 -.349E-01 0.174E+00
   -.839E-05 0.334E+02 -.959E+03   0.137E-03 -.344E+02 0.959E+03   0.758E-07 0.114E+01 -.104E+01   0.561E-02 -.135E+00 0.250E+00
   0.211E+02 0.121E+02 -.926E+03   -.208E+02 -.120E+02 0.925E+03   -.249E+00 -.145E+00 0.548E+00   -.603E-01 -.364E-01 0.175E+00
   0.556E+01 0.323E+01 -.929E+03   -.562E+01 -.325E+01 0.929E+03   0.610E-01 0.357E-01 0.472E+00   -.173E-01 -.203E-01 0.192E+00
   -.556E+01 0.323E+01 -.929E+03   0.562E+01 -.325E+01 0.929E+03   -.610E-01 0.357E-01 0.472E+00   0.123E-01 -.241E-01 0.192E+00
   0.706E-05 -.244E+02 -.926E+03   0.200E-03 0.240E+02 0.925E+03   0.191E-07 0.287E+00 0.547E+00   -.322E-02 0.520E-01 0.175E+00
   -.887E-05 0.355E+00 -.261E+04   0.263E-04 -.351E+00 0.261E+04   0.952E-11 0.143E-03 0.419E+00   -.142E-02 -.324E-02 0.171E+00
   -.190E+02 -.400E+02 -.262E+04   0.202E+02 0.420E+02 0.262E+04   -.131E+01 -.198E+01 -.645E+00   0.629E-01 0.794E-01 0.114E+00
   0.190E+02 -.400E+02 -.262E+04   -.202E+02 0.420E+02 0.262E+04   0.131E+01 -.198E+01 -.645E+00   -.560E-01 0.810E-01 0.114E+00
   -.443E+02 0.398E+01 -.262E+04   0.466E+02 -.387E+01 0.262E+04   -.237E+01 -.147E+00 -.628E+00   0.986E-01 0.228E-01 0.111E+00
   0.443E+02 0.398E+01 -.262E+04   -.466E+02 -.387E+01 0.262E+04   0.237E+01 -.147E+00 -.628E+00   -.931E-01 0.235E-01 0.109E+00
   -.256E+02 0.360E+02 -.262E+04   0.267E+02 -.381E+02 0.262E+04   -.106E+01 0.212E+01 -.645E+00   0.401E-01 -.900E-01 0.109E+00
   0.256E+02 0.360E+02 -.262E+04   -.267E+02 -.381E+02 0.262E+04   0.106E+01 0.212E+01 -.645E+00   -.320E-01 -.908E-01 0.108E+00
   0.309E-04 -.467E+00 -.261E+04   0.146E-03 0.478E+00 0.261E+04   0.913E-11 0.137E-03 0.632E+00   -.587E-02 -.111E-01 0.169E+00
   -.214E-04 0.503E-01 -.917E+03   0.408E-04 -.512E-01 0.914E+03   0.802E-11 0.120E-03 0.285E+01   0.139E-03 0.122E-02 0.253E-01
   0.240E+03 0.525E-01 -.909E+03   -.285E+03 -.522E-01 0.909E+03   0.456E+02 0.699E-03 -.972E-01   0.107E-02 0.437E-03 -.201E-01
   -.240E+03 0.525E-01 -.909E+03   0.285E+03 -.522E-01 0.909E+03   -.456E+02 0.699E-03 -.972E-01   -.110E-02 0.444E-03 -.201E-01
   -.721E-03 -.148E-01 0.517E+01   -.171E-12 -.179E-12 -.568E-12   0.246E-09 0.369E-02 -.704E+01   0.143E-01 0.150E-01 0.183E+01

 POSITION                                       TOTAL-FORCE (eV/Angst)
      0.00000      0.00000      5.28038        -0.000000     -0.000236     -0.152169
      2.93784      0.00000      5.28038        -0.001202     -0.008832     -0.075082
      5.87568      0.00000      5.28038         0.001202     -0.008832     -0.075082
      1.46892      2.54424      5.28038        -0.008012      0.003291     -0.075119
      4.40676      2.54424      5.28038         0.000000      0.000060     -0.049989
      7.34459      2.54424      5.28038         0.008012      0.003291     -0.075119
      2.93784      5.08848      5.28038        -0.007005      0.005244     -0.075094
      5.87568      5.08848      5.28038         0.007005      0.005244     -0.075094
      8.81351      5.08848      5.28038        -0.000000     -0.000167     -0.092343
      1.46892      0.84808      7.67911        -0.027772     -0.016093      0.059919
      4.40676      0.84808      7.67911        -0.000000     -0.062121      0.003869
      7.34459      0.84808      7.67911         0.027772     -0.016093      0.059919
      2.93784      3.39232      7.67911        -0.053964      0.031118      0.003845
      5.87568      3.39232      7.67911         0.053964      0.031118      0.003845
      8.81351      3.39232      7.67911        -0.000000     -0.040188      0.131999
      4.40676      5.93656      7.67911         0.000000      0.032014      0.059989
      7.34459      5.93656      7.67911        -0.034687      0.019873      0.131985
     10.28243      5.93656      7.67911         0.034687      0.019873      0.131985
      8.81351      1.69636     10.07469         0.000000      0.010713     -0.022781
      2.94338      1.69936     10.06127        -0.012473     -0.007254     -0.010160
      5.87013      1.69936     10.06127         0.012473     -0.007254     -0.010160
     10.27220      4.24631     10.06987         0.001045     -0.000709     -0.032228
      4.40676      4.23400     10.06127         0.000000      0.014460     -0.010524
      7.35483      4.24631     10.06987        -0.001045     -0.000709     -0.032228
     11.75117      6.78454     10.07469        -0.009462     -0.005776     -0.023209
      5.87585      6.78454     10.07469         0.009462     -0.005776     -0.023209
      8.81351      6.77283     10.06987         0.000000      0.000810     -0.032860
      0.00000      0.00000     12.49672        -0.000000     -0.000170      0.016653
      2.97727      0.06002     12.55884         0.001504      0.038076      0.042139
      5.83624      0.06002     12.55884        -0.001504      0.038076      0.042139
      1.54061      2.54838     12.55884         0.034036     -0.017594      0.042022
      7.27290      2.54838     12.55884        -0.034036     -0.017594      0.042022
      2.97010      5.02433     12.55884         0.032267     -0.020408      0.042148
      5.84341      5.02433     12.55884        -0.032267     -0.020408      0.042148
      8.81351      5.08848     12.50791        -0.000000     -0.000192      0.113338
      4.40676      2.54424     12.31155         0.000000      0.000336     -0.028452
      3.84986      2.56241     17.11364         0.003082      0.001406      0.000467
      4.96365      2.56241     17.11364        -0.003082      0.001406      0.000467
    total drift:                                0.013567      0.003935     -0.038355

  FREE ENERGIE OF THE ION-ELECTRON SYSTEM (eV)
  free  energy   TOTEN  =      -134.53241103 eV

  energy  without entropy=     -134.53241103  energy(sigma->0) =     -134.53241103

 stress matrix after NEB project (eV)
    -23.25353     -0.00000      0.00000
     -0.00000    -23.23862      0.00080
      0.00000      0.00080      1.74906
  FORCES: max atom, RMS     0.003420    0.000785
  FORCE total and by dimension    0.004836    0.003082
  Stress total and by dimension   32.921416   23.253532
|           W    W    AA    RRRRR   N    N  II  N    N   GGGG   !!!           |
|           W    W   A  A   R    R  NN   N  II  NN   N  G    G  !!!           |
|           W    W  A    A  R    R  N N  N  II  N N  N  G       !!!           |
|           W WW W  AAAAAA  RRRRR   N  N N  II  N  N N  G  GGG   !            |
|           WW  WW  A    A  R   R   N   NN  II  N   NN  G    G                |
|           W    W  A    A  R    R  N    N  II  N    N   GGGG   !!!           |
|     Tetrahedron method does not include variations of the Fermi             |
|     occupations, so forces and stress will be inaccurate. We suggest        |
|     using a different smearing scheme ISMEAR = 1 or 2 for metals in         |
|     relaxations.                                                            |

 total charge

# of ion       s       p       d       tot
    1        0.551   0.237   8.766   9.555
    2        0.541   0.241   8.765   9.548
    3        0.541   0.241   8.765   9.548
    4        0.541   0.241   8.765   9.548
    5        0.544   0.242   8.761   9.547
    6        0.541   0.241   8.765   9.548
    7        0.541   0.241   8.765   9.548
    8        0.541   0.241   8.765   9.548
    9        0.546   0.239   8.766   9.551
   10        0.523   0.308   8.769   9.601
   11        0.519   0.307   8.779   9.604
   12        0.523   0.308   8.769   9.601
   13        0.519   0.307   8.779   9.604
   14        0.519   0.307   8.779   9.604
   15        0.517   0.308   8.773   9.598
   16        0.523   0.308   8.769   9.601
   17        0.517   0.308   8.773   9.598
   18        0.517   0.308   8.773   9.598
   19        0.521   0.299   8.767   9.587
   20        0.571   0.339   8.727   9.636
   21        0.571   0.339   8.727   9.636
   22        0.511   0.305   8.775   9.591
   23        0.571   0.339   8.727   9.636
   24        0.511   0.305   8.775   9.591
   25        0.521   0.299   8.767   9.587
   26        0.521   0.299   8.767   9.587
   27        0.511   0.305   8.775   9.591
   28        0.540   0.233   8.752   9.526
   29        0.600   0.252   8.722   9.575
   30        0.600   0.252   8.722   9.575
   31        0.600   0.252   8.722   9.574
   32        0.600   0.252   8.722   9.574
   33        0.600   0.252   8.722   9.575
   34        0.600   0.252   8.722   9.575
   35        0.538   0.235   8.754   9.527
   36        0.558   0.473   1.746   2.776
   37        1.373   2.468   0.000   3.841
   38        1.373   2.468   0.000   3.841
tot         22.358  15.158 308.236 345.752

 BZINTS: Fermi energy:    0.131904;  399.000000 electrons
         Band energy:-0.152539E+04;  BLOECHL correction:   -0.030854