 vasp.6.2.0 18Jan21 (build Jun 12 2021 23:27:24) complex

 executed on             LinuxIFC date 2022.05.26  19:57:25

 INCAR:
   ISMEAR = -5
   SIGMA = 0.1
   ISPIN = 1
   EDIFF = 1.d-5
   EDIFFG = -0.01
   NSW = 0
   NELM = 150
   ENCUT = 500
   ISIF = 2
   IBRION = 2
   LREAL = Auto
   ALGO = Fast
   ICHARG = 11
   LORBIT = 10
   LCHARG = .F.
   LWAVE = .F.

 POTCAR:    PAW_PBE Cu 22Jun2005
 POTCAR:    PAW_PBE V 08Apr2002
 POTCAR:    PAW_PBE O 08Apr2002
|           W    W    AA    RRRRR   N    N  II  N    N   GGGG   !!!           |
|           W    W   A  A   R    R  NN   N  II  NN   N  G    G  !!!           |
|           W    W  A    A  R    R  N N  N  II  N N  N  G       !!!           |
|           W WW W  AAAAAA  RRRRR   N  N N  II  N  N N  G  GGG   !            |
|           WW  WW  A    A  R   R   N   NN  II  N   NN  G    G                |
|           W    W  A    A  R    R  N    N  II  N    N   GGGG   !!!           |
|     For optimal performance we recommend to set                             |
|       NCORE = 2 up to number-of-cores-per-socket                            |
|     This setting can greatly improve the performance of VASP for DFT.       |
|     The default, NCORE=1 might be grossly inefficient on modern             |
|     multi-core architectures or massively parallel machines. Do your        |
|     Unfortunately you need to use the default for GW and RPA                |
|     calculations (for HF NCORE is supported but not extensively tested      |
|     yet).                                                                   |

 POTCAR:    PAW_PBE Cu 22Jun2005
   VRHFIN =Cu: d10 p1

   TITEL  = PAW_PBE Cu 22Jun2005
   POMASS =   63.546; ZVAL   =   11.000    mass and valenz
   ENMAX  =  295.446; ENMIN  =  221.585 eV

 POTCAR:    PAW_PBE V 08Apr2002
   VRHFIN =V: p6 d4 s1

   TITEL  = PAW_PBE V 08Apr2002
   POMASS =   50.941; ZVAL   =    5.000    mass and valenz
   ENMAX  =  192.543; ENMIN  =  144.408 eV

 POTCAR:    PAW_PBE O 08Apr2002
   VRHFIN =O: s2p4

   TITEL  = PAW_PBE O 08Apr2002
   POMASS =   16.000; ZVAL   =    6.000    mass and valenz
   ENMAX  =  400.000; ENMIN  =  300.000 eV

 Optimization of the real space projectors (new method)

 maximal supplied QI-value         = 16.25
 optimisation between [QCUT,QGAM] = [ 11.38, 22.75] = [ 36.24,144.96] Ry
 Optimized for a Real-space Cutoff    1.52 Angstroem

   l    n(q)    QCUT    max X(q) W(low)/X(q) W(high)/X(q)  e(spline)
   2      9    11.376     4.610    0.21E-03    0.10E-03    0.26E-06
   2      9    11.376     8.522    0.33E-03    0.16E-03    0.37E-06
   0     10    11.376    51.609    0.62E-04    0.20E-04    0.13E-06
   0     10    11.376    27.747    0.54E-04    0.20E-04    0.13E-06
   1     10    11.376    20.408    0.13E-04    0.99E-04    0.19E-06
   1     10    11.376    13.425    0.12E-04    0.87E-04    0.17E-06
 Optimization of the real space projectors (new method)

[...]

   l    n(q)    QCUT    max X(q) W(low)/X(q) W(high)/X(q)  e(spline)
   2     10    11.327    96.114    0.36E-03    0.35E-03    0.42E-06
   2     10    11.327    88.986    0.37E-03    0.35E-03    0.42E-06
   0     11    11.327    20.919    0.40E-04    0.56E-04    0.79E-06
   0     11    11.327     9.593    0.30E-04    0.41E-04    0.60E-06
   1     10    11.327    11.615    0.15E-03    0.10E-03    0.19E-06
   1     10    11.327     7.031    0.11E-03    0.73E-04    0.14E-06
 Optimization of the real space projectors (new method)

 maximal supplied QI-value         = 24.76
 optimisation between [QCUT,QGAM] = [ 11.39, 22.77] = [ 36.31,145.25] Ry
 Optimized for a Real-space Cutoff    1.00 Angstroem

   l    n(q)    QCUT    max X(q) W(low)/X(q) W(high)/X(q)  e(spline)
   0      7    11.387    20.381    0.39E-03    0.13E-02    0.15E-06
   0      7    11.387    15.268    0.42E-03    0.14E-02    0.17E-06
   1      6    11.387     5.964    0.41E-03    0.11E-02    0.17E-06
   1      6    11.387     5.382    0.39E-03    0.87E-03    0.15E-06
  PAW_PBE Cu 22Jun2005                  :
  PAW_PBE V 08Apr2002                   :
  PAW_PBE O 08Apr2002                   :

 POSCAR: Cu-V-O
  positions in direct lattice
  velocities in cartesian coordinates
 exchange correlation table for  LEXCH =        8
   RHO(1)=    0.500       N(1)  =     2000
   RHO(2)=  100.500       N(2)  =     4000

 VTST: version 3.2, (02/03/18)

 CHAIN: initializing optimizer

 OPT: Using VASP Conjugate-Gradient optimizer
 CHAIN: Read ICHAIN            0

 POSCAR: Cu-V-O
  positions in direct lattice
  velocities in cartesian coordinates

 ion  position               nearest neighbor table
   1  0.000  0.000  0.252-   7 2.57   3 2.57   4 2.57   2 2.57   6 2.57   8 2.57  12 2.57  10 2.57
                            16 2.57
   2  0.333  0.000  0.252-   8 2.57   9 2.57   5 2.57   1 2.57   3 2.57  11 2.57   4 2.57  10 2.57
                            17 2.57
   3  0.667  0.000  0.252-   1 2.57   7 2.57   6 2.57   9 2.57   2 2.57  12 2.57   5 2.57  18 2.57
                            11 2.57
   4  0.000  0.333  0.252-   5 2.57   6 2.57   1 2.57   7 2.57   2 2.57  13 2.57   9 2.57  10 2.57
                            15 2.57
   5  0.333  0.333  0.252-   4 2.57   2 2.57   7 2.57  13 2.57   8 2.57   6 2.57   3 2.57  11 2.57
                            14 2.57
   6  0.667  0.333  0.252-   4 2.57   9 2.57  15 2.57   3 2.57   1 2.57   8 2.57  14 2.57   5 2.57
                            12 2.57
   7  0.000  0.667  0.252-   1 2.57   3 2.57  16 2.57  18 2.57   4 2.57   5 2.57   8 2.57   9 2.57
                            13 2.57
   8  0.333  0.667  0.252-   9 2.57   2 2.57  17 2.57   6 2.57   1 2.57   7 2.57   5 2.57  14 2.57
                            16 2.57
   9  0.667  0.667  0.252-   8 2.57   6 2.57   2 2.57  17 2.57   3 2.57   7 2.57   4 2.57  15 2.57
                            18 2.57
  10  0.111  0.111  0.351-  26 2.56  19 2.56  20 2.56  11 2.57  12 2.57  13 2.57   1 2.57   2 2.57
                             4 2.57  15 2.57  16 2.57  17 2.57
  11  0.444  0.111  0.351-  20 2.56  21 2.56  10 2.57  13 2.57   2 2.57  17 2.57  14 2.57  12 2.57
                             5 2.57   3 2.57  18 2.57  27 2.57
  12  0.778  0.111  0.351-  19 2.56  25 2.56  21 2.56  15 2.57  10 2.57  14 2.57  18 2.57   3 2.57
                             1 2.57  16 2.57  11 2.57   6 2.57
  13  0.111  0.444  0.351-  23 2.56  20 2.56  16 2.57  18 2.57  10 2.57  11 2.57  14 2.57   5 2.57
                             4 2.57   7 2.57  15 2.57  22 2.57
  14  0.444  0.444  0.351-  21 2.56  23 2.56  15 2.57  17 2.57  12 2.57  16 2.57  13 2.57  11 2.57
                             6 2.57   8 2.57   5 2.57  24 2.57
  15  0.778  0.444  0.351-  19 2.56  24 2.57  22 2.57  14 2.57  17 2.57  12 2.57   6 2.57  18 2.57
                            10 2.57   9 2.57  13 2.57   4 2.57
  16  0.111  0.778  0.351-  25 2.56  26 2.56  23 2.56  18 2.57  13 2.57   7 2.57  14 2.57  17 2.57
                            12 2.57  10 2.57   8 2.57   1 2.57
  17  0.444  0.778  0.351-  26 2.56  27 2.57  24 2.57  14 2.57  15 2.57   8 2.57   9 2.57  11 2.57
                            16 2.57  18 2.57  10 2.57   2 2.57
  18  0.778  0.778  0.351-  25 2.56  22 2.57  27 2.57  16 2.57  13 2.57   7 2.57  15 2.57  12 2.57
                            17 2.57   9 2.57   3 2.57  11 2.57
  19  0.889  0.222  0.449-  12 2.56  10 2.56  15 2.56  28 2.56  25 2.56  26 2.56  21 2.57  20 2.57
                            22 2.57  24 2.57  32 2.58  31 2.58
  20  0.222  0.222  0.449-  36 2.54  11 2.56  13 2.56  10 2.56  23 2.56  21 2.56  26 2.57  19 2.57
                            27 2.57  22 2.57  29 2.57  31 2.57
  21  0.555  0.222  0.449-  36 2.54  14 2.56  11 2.56  12 2.56  20 2.56  23 2.56  19 2.57  25 2.57
                            24 2.57  27 2.57  32 2.57  30 2.57
  22  0.888  0.556  0.449-  24 2.56  27 2.56  35 2.56  18 2.57  15 2.57  19 2.57  25 2.57  31 2.57
                            33 2.57  13 2.57  23 2.57  20 2.57
  23  0.222  0.555  0.449-  36 2.54  13 2.56  14 2.56  16 2.56  20 2.56  21 2.56  25 2.57  26 2.57
                            22 2.57  24 2.57  33 2.57  34 2.57
  24  0.556  0.556  0.449-  22 2.56  27 2.56  35 2.56  15 2.57  17 2.57  19 2.57  26 2.57  32 2.57
                            34 2.57  14 2.57  21 2.57  23 2.57
  25  0.889  0.889  0.449-  12 2.56  16 2.56  18 2.56  28 2.56  19 2.56  26 2.56  21 2.57  23 2.57
                            22 2.57  27 2.57  33 2.58  30 2.58
  26  0.222  0.889  0.449-  10 2.56  16 2.56  17 2.56  28 2.56  25 2.56  19 2.56  20 2.57  23 2.57
                            27 2.57  24 2.57  29 2.58  34 2.58
  27  0.556  0.888  0.449-  24 2.56  22 2.56  35 2.56  17 2.57  18 2.57  26 2.57  25 2.57  29 2.57
                            30 2.57  11 2.57  20 2.57  21 2.57
  28  0.000  0.000  0.547-  25 2.56  19 2.56  26 2.56  33 2.57  30 2.57  31 2.57  29 2.57  32 2.57
                            34 2.57
  29  0.333  0.000  0.548-  30 2.56  36 2.56  31 2.56  27 2.57  35 2.57  28 2.57  20 2.57  34 2.57
                            26 2.58
  30  0.666  0.000  0.548-  29 2.56  36 2.56  32 2.56  27 2.57  35 2.57  28 2.57  21 2.57  33 2.57
                            25 2.58
  31  0.000  0.333  0.548-  33 2.56  36 2.56  29 2.56  22 2.57  35 2.57  28 2.57  20 2.57  32 2.57
                            19 2.58
  32  0.666  0.333  0.548-  34 2.56  36 2.56  30 2.56  24 2.57  35 2.57  28 2.57  21 2.57  31 2.57
                            19 2.58
  33  0.000  0.666  0.548-  31 2.56  36 2.56  34 2.56  22 2.57  35 2.57  28 2.57  23 2.57  30 2.57
                            25 2.58
  34  0.333  0.666  0.548-  32 2.56  36 2.56  33 2.56  24 2.57  35 2.57  28 2.57  23 2.57  29 2.57
                            26 2.58
  35  0.667  0.667  0.548-  24 2.56  27 2.56  22 2.56  34 2.57  32 2.57  29 2.57  30 2.57  33 2.57
                            31 2.57
  36  0.333  0.333  0.546-  37 1.64  23 2.54  20 2.54  21 2.54  31 2.56  29 2.56  33 2.56  32 2.56
                            34 2.56  30 2.56
  37  0.333  0.333  0.623-  36 1.64

  LATTYP: Found a hexagonal cell.
 ALAT       =     7.6967864036
 C/A-ratio  =     2.7653617908

  Lattice vectors:

 A1 = (  -3.8483927580,  -6.6656128093,   0.0000000000)
 A2 = (   7.6967864037,   0.0000000000,   0.0000000000)
 A3 = (   0.0000000000,   0.0000000000,  21.2843990326)

Analysis of symmetry for initial positions (statically):
 Subroutine PRICEL returns:
 Original cell was already a primitive cell.

 Routine SETGRP: Setting up the symmetry group for a
 hexagonal supercell.

 Subroutine GETGRP returns: Found  6 space group operations
 (whereof  6 operations were pure point group operations)
 out of a pool of 24 trial point group operations.

The static configuration has the point symmetry C_3v.

Analysis of symmetry for dynamics (positions and initial velocities):
 Subroutine PRICEL returns:
 Original cell was already a primitive cell.

[...]

The dynamic configuration has the point symmetry C_3v.

Analysis of constrained symmetry for selective dynamics:
 Subroutine PRICEL returns:
 Original cell was already a primitive cell.

 Routine SETGRP: Setting up the symmetry group for a
 hexagonal supercell.

 Subroutine GETGRP returns: Found  6 space group operations
[...]
     24      -4.3788      2.00000
     25      -4.2773      2.00000
     26      -4.2236      2.00000
     27      -4.2000      2.00000
     28      -4.1522      2.00000
     29      -4.1404      2.00000
     30      -4.1337      2.00000
     31      -4.1152      2.00000
     32      -4.1136      2.00000
     33      -4.0975      2.00000
     34      -4.0895      2.00000
     35      -4.0538      2.00000
     36      -4.0172      2.00000
     37      -3.9914      2.00000
     38      -3.9390      2.00000
     39      -3.9047      2.00000
     40      -3.8991      2.00000
     41      -3.8025      2.00000
     42      -3.7679      2.00000
     43      -3.7186      2.00000
     44      -3.7063      2.00000
     45      -3.6822      2.00000
     46      -3.6703      2.00000
     47      -3.6431      2.00000
     48      -3.6245      2.00000
     49      -3.6091      2.00000
     50      -3.4699      2.00000
     51      -3.4631      2.00000
     52      -3.4467      2.00000
     53      -3.4401      2.00000
     54      -3.4041      2.00000
     55      -3.3960      2.00000
     56      -3.3702      2.00000
     57      -3.3589      2.00000
     58      -3.3464      2.00000
     59      -3.3348      2.00000
     60      -3.3183      2.00000
[...]
    238       6.2268      0.00000
    239       6.3163      0.00000
    240       6.3914      0.00000
    241       6.9719      0.00000
    242       6.9856      0.00000
    243       7.0806      0.00000
    244       7.1266      0.00000
    245       7.2111      0.00000
    246       7.2640      0.00000
    247       7.3654      0.00000
    248       7.4565      0.00000
    249       7.5079      0.00000
    250       7.7140      0.00000
    251       7.7532      0.00000
    252       7.8976      0.00000

 soft charge-density along one line, spin component           1
         0         1         2         3         4         5         6         7         8         9
 total charge-density along one line

------------------------ aborting loop because EDIFF is reached ----------------------------------------

 total charge

# of ion       s       p       d       tot
    1        0.451   0.283   9.188   9.922
    2        0.449   0.285   9.186   9.920
    3        0.449   0.285   9.186   9.920
    4        0.449   0.285   9.186   9.920
    5        0.448   0.286   9.184   9.917
    6        0.449   0.285   9.186   9.920
    7        0.449   0.285   9.186   9.920
    8        0.449   0.285   9.186   9.920
    9        0.448   0.284   9.188   9.920
   10        0.442   0.370   9.177   9.989
   11        0.441   0.368   9.182   9.990
   12        0.442   0.370   9.177   9.989
   13        0.441   0.368   9.182   9.990
   14        0.441   0.368   9.182   9.990
   15        0.438   0.369   9.177   9.985
   16        0.442   0.370   9.177   9.989
   17        0.438   0.369   9.177   9.985
   18        0.438   0.369   9.177   9.985
   19        0.442   0.366   9.183   9.990
   20        0.461   0.390   9.165  10.016
   21        0.461   0.390   9.165  10.016
   22        0.434   0.374   9.178   9.986
   23        0.461   0.390   9.165  10.016
   24        0.434   0.374   9.178   9.986
   25        0.442   0.366   9.183   9.990
   26        0.442   0.366   9.183   9.990
   27        0.434   0.374   9.178   9.986
   28        0.450   0.287   9.184   9.921
   29        0.462   0.298   9.177   9.937
   30        0.462   0.298   9.177   9.937
   31        0.462   0.298   9.177   9.937
   32        0.462   0.298   9.177   9.937
   33        0.462   0.298   9.177   9.937
   34        0.462   0.298   9.177   9.937
   35        0.449   0.292   9.179   9.920
   36        0.619   0.839   3.790   5.247
   37        1.609   3.279   0.000   4.887
tot         17.907  15.759 325.077 358.743

  FORCE on cell =-STRESS in cart. coord.  units (eV):
  Direction    XX          YY          ZZ          XY          YZ          ZX
  Alpha Z   874.74333   874.74333   874.74333
  Ewald  170987.21178170987.21141************     0.00038     0.00013     0.00018
  Hartree183939.97542183939.97543************     0.00003     0.00007     0.00007
  E(xc)   -2298.35016 -2298.34969 -2303.89751    -0.00041    -0.00003    -0.00006
  Local  ************************367938.88105     0.01873    -0.00062    -0.00098
  n-local  -783.40665  -770.16649  -786.59612     6.77779    -0.15263     0.27970
  augment  3332.86931  3332.88967  3351.31045    -0.01763     0.00024     0.00037
  Kinetic  3295.43257  3297.06541  3312.97136     1.95931     1.91875    -1.28786
  Fock        0.00000     0.00000     0.00000     0.00000     0.00000     0.00000
  Total      -6.23455    -6.23455    -1.49866     0.00000     0.00000    -0.00000
  in kB      -9.14756    -9.14756    -2.19889     0.00000     0.00000    -0.00000

 VOLUME and BASIS-vectors are now :
  energy-cutoff  :      500.00
  volume of cell :     1091.97
      direct lattice vectors                 reciprocal lattice vectors
     7.696786404  0.000000000  0.000000000     0.129924354 -0.075011849  0.000000000
     3.848392758  6.665612809  0.000000000     0.000000000  0.150023716  0.000000000
     0.000000000  0.000000000 21.284399033     0.000000000  0.000000000  0.046982769

  length of vectors
     7.696786404  7.696786404 21.284399033     0.150023716  0.150023716  0.046982769

 FORCES acting on ions
    electron-ion (+dipol)            ewald-force                    non-local-force                 convergence-correction
   -.416E-04 0.136E-06 0.347E+04   0.580E-04 -.431E-05 -.346E+04   -.220E-17 -.582E-17 -.221E+01   -.279E-03 -.128E-03 0.145E+00
   -.540E+00 -.415E+00 0.346E+04   0.544E+00 0.473E+00 -.346E+04   -.680E-02 0.385E-01 -.193E+01   0.325E-02 -.862E-01 0.139E+00
   0.540E+00 -.415E+00 0.346E+04   -.544E+00 0.473E+00 -.346E+04   0.680E-02 0.385E-01 -.193E+01   -.248E-02 -.837E-01 0.140E+00
   -.629E+00 -.260E+00 0.346E+04   0.681E+00 0.235E+00 -.346E+04   0.299E-01 -.251E-01 -.193E+01   -.729E-01 0.458E-01 0.139E+00
   -.658E-04 -.568E-05 0.346E+04   0.116E-03 -.101E-04 -.346E+04   -.171E-17 0.492E-18 -.193E+01   0.121E-01 0.740E-02 0.115E+00
   0.629E+00 -.260E+00 0.346E+04   -.681E+00 0.235E+00 -.346E+04   -.299E-01 -.251E-01 -.193E+01   0.714E-01 0.471E-01 0.140E+00
   -.898E-01 0.675E+00 0.346E+04   0.137E+00 -.708E+00 -.346E+04   0.367E-01 -.134E-01 -.193E+01   -.737E-01 0.396E-01 0.140E+00
   0.899E-01 0.675E+00 0.346E+04   -.137E+00 -.708E+00 -.346E+04   -.367E-01 -.134E-01 -.193E+01   0.771E-01 0.383E-01 0.140E+00
   -.144E-03 -.330E-04 0.346E+04   0.263E-03 0.205E-04 -.346E+04   0.982E-19 -.229E-19 -.208E+01   -.132E-01 -.680E-02 0.139E+00
   -.424E+01 -.245E+01 0.115E+04   0.450E+01 0.260E+01 -.115E+04   -.288E+00 -.166E+00 -.777E+00   0.128E-01 0.736E-02 -.820E-01
   -.906E-04 -.455E+01 0.114E+04   0.189E-03 0.432E+01 -.114E+04   -.155E-07 0.232E+00 -.544E+00   0.115E-01 -.301E-01 -.978E-01
   0.424E+01 -.245E+01 0.115E+04   -.450E+01 0.260E+01 -.115E+04   0.288E+00 -.166E+00 -.777E+00   -.140E-01 0.834E-02 -.831E-01
   -.394E+01 0.228E+01 0.114E+04   0.374E+01 -.216E+01 -.114E+04   0.201E+00 -.116E+00 -.544E+00   -.199E-01 0.258E-01 -.978E-01
   0.394E+01 0.228E+01 0.114E+04   -.374E+01 -.216E+01 -.114E+04   -.201E+00 -.116E+00 -.544E+00   0.434E-01 0.247E-01 -.100E+00
   -.141E-03 -.117E+01 0.115E+04   0.297E-03 0.105E+01 -.115E+04   -.521E-08 0.782E-01 -.793E+00   -.312E-02 0.486E-01 -.612E-01
   -.919E-04 0.489E+01 0.115E+04   0.186E-03 -.520E+01 -.115E+04   -.221E-07 0.332E+00 -.777E+00   -.702E-03 -.175E-01 -.832E-01
   -.101E+01 0.583E+00 0.115E+04   0.905E+00 -.522E+00 -.115E+04   0.677E-01 -.391E-01 -.793E+00   0.413E-01 -.270E-01 -.613E-01
   0.101E+01 0.583E+00 0.115E+04   -.906E+00 -.523E+00 -.115E+04   -.677E-01 -.391E-01 -.793E+00   -.401E-01 -.248E-01 -.603E-01
   -.654E-04 -.621E+01 -.116E+04   0.713E-04 0.604E+01 0.116E+04   -.384E-08 0.577E-01 0.114E+01   0.100E-02 0.815E-01 -.339E+00
   -.452E+02 -.261E+02 -.122E+04   0.457E+02 0.264E+02 0.122E+04   -.667E+00 -.385E+00 0.104E+00   0.276E-02 0.147E-02 -.224E+00
   0.452E+02 -.261E+02 -.122E+04   -.457E+02 0.264E+02 0.122E+04   0.667E+00 -.385E+00 0.104E+00   -.234E-01 0.524E-03 -.225E+00
   -.205E+02 0.119E+02 -.117E+04   0.203E+02 -.117E+02 0.117E+04   0.340E+00 -.196E+00 0.952E+00   -.459E-01 0.254E-01 -.415E+00
   -.803E-04 0.522E+02 -.122E+04   0.150E-03 -.527E+02 0.122E+04   -.513E-07 0.770E+00 0.104E+00   -.124E-01 -.218E-01 -.225E+00
   0.205E+02 0.119E+02 -.117E+04   -.203E+02 -.117E+02 0.117E+04   -.340E+00 -.196E+00 0.952E+00   0.474E-01 0.265E-01 -.415E+00
   0.537E+01 0.310E+01 -.116E+04   -.523E+01 -.302E+01 0.116E+04   -.499E-01 -.288E-01 0.114E+01   -.702E-01 -.405E-01 -.339E+00
   -.537E+01 0.310E+01 -.116E+04   0.523E+01 -.302E+01 0.116E+04   0.499E-01 -.288E-01 0.114E+01   0.714E-01 -.397E-01 -.339E+00
   -.125E-03 -.237E+02 -.117E+04   0.240E-03 0.234E+02 0.117E+04   -.262E-07 0.393E+00 0.952E+00   -.979E-03 -.525E-01 -.415E+00
   -.369E-04 0.163E-04 -.342E+04   0.401E-04 -.328E-04 0.342E+04   -.532E-17 -.728E-18 0.186E+01   -.139E-02 -.753E-03 -.112E+00
   -.213E+02 -.431E+02 -.340E+04   0.214E+02 0.428E+02 0.340E+04   -.254E+00 -.885E-01 0.271E+01   0.444E-01 0.147E+00 -.209E+00
   0.213E+02 -.431E+02 -.340E+04   -.214E+02 0.428E+02 0.340E+04   0.254E+00 -.885E-01 0.271E+01   -.223E-01 0.148E+00 -.208E+00
   -.479E+02 0.312E+01 -.340E+04   0.478E+02 -.290E+01 0.340E+04   -.204E+00 -.176E+00 0.271E+01   0.150E+00 -.351E-01 -.209E+00
   0.479E+02 0.312E+01 -.340E+04   -.478E+02 -.290E+01 0.340E+04   0.204E+00 -.176E+00 0.271E+01   -.128E+00 -.340E-01 -.208E+00
   -.267E+02 0.400E+02 -.340E+04   0.264E+02 -.399E+02 0.340E+04   0.504E-01 0.264E+00 0.271E+01   0.117E+00 -.935E-01 -.208E+00
   0.267E+02 0.400E+02 -.340E+04   -.264E+02 -.399E+02 0.340E+04   -.504E-01 0.264E+00 0.271E+01   -.926E-01 -.937E-01 -.207E+00
   -.127E-03 -.158E-04 -.343E+04   0.252E-03 0.328E-05 0.343E+04   0.833E-17 0.301E-17 0.207E+01   -.143E-01 -.744E-02 -.106E+00
   -.469E-04 -.173E-04 -.140E+04   0.627E-04 0.126E-04 0.140E+04   -.109E-16 0.110E-17 -.243E+00   0.148E-03 0.103E-03 -.758E-01
   0.169E-03 -.835E-04 -.215E+04   0.200E-04 0.892E-05 0.217E+04   -.352E-18 -.729E-18 -.265E+02   0.264E-02 0.162E-02 -.235E+00
   -.153E-03 -.118E-03 0.284E+02   0.128E-12 0.515E-12 0.182E-11   0.248E-16 0.338E-17 -.241E+02   0.580E-01 0.305E-01 -.420E+01

 POSITION                                       TOTAL-FORCE (eV/Angst)
      0.00000      0.00000      5.37156        -0.000000     -0.000000     -0.001653
      2.56560      0.00000      5.37156         0.001400      0.010739      0.051651
      5.13119      0.00000      5.37156        -0.001400      0.010739      0.051651
      1.28280      2.22187      5.37156         0.010000     -0.004157      0.051651
      3.84839      2.22187      5.37156        -0.000000     -0.000000      0.046722
      6.41399      2.22187      5.37156        -0.010000     -0.004157      0.051651
      2.56560      4.44374      5.37156         0.008600     -0.006582      0.051651
      5.13119      4.44374      5.37156        -0.008600     -0.006582      0.051651
      7.69679      4.44374      5.37156        -0.000000     -0.000000      0.020664
      1.28280      0.74062      7.46636        -0.007957     -0.004594     -0.080892
      3.84839      0.74062      7.46636         0.000000     -0.041698     -0.046326
      6.41399      0.74062      7.46636         0.007957     -0.004594     -0.080892
      2.56560      2.96249      7.46636        -0.036111      0.020849     -0.046326
      5.13119      2.96249      7.46636         0.036111      0.020849     -0.046326
      7.69679      2.96249      7.46636        -0.000000      0.005365      0.010352
      3.84839      5.18437      7.46636        -0.000000      0.009188     -0.080892
      6.41399      5.18437      7.46636         0.004646     -0.002683      0.010352
      8.97958      5.18437      7.46636        -0.004646     -0.002683      0.010352
      7.69679      1.48017      9.54910         0.000000     -0.022300      0.039346
      2.56637      1.48170      9.55121        -0.192909     -0.111376     -0.226144
      5.13041      1.48170      9.55121         0.192909     -0.111376     -0.226144
      8.97729      3.70444      9.56154         0.056450     -0.032591      0.026398
      3.84839      3.70222      9.55121        -0.000000      0.222752     -0.226144
      6.41628      3.70444      9.56154        -0.056450     -0.032591      0.026398
     10.26332      5.92553      9.54910         0.019312      0.011150      0.039346
      5.13026      5.92553      9.54910        -0.019312      0.011150      0.039346
      7.69679      5.92234      9.56154        -0.000000      0.065182      0.026398
      0.00000      0.00000     11.64072        -0.000000     -0.000000     -0.053425
      2.56831      0.00307     11.65724        -0.106421     -0.190204     -0.168369
      5.12847      0.00307     11.65724         0.106421     -0.190204     -0.168369
      1.28681      2.22269     11.65724        -0.217932      0.002939     -0.168369
      6.40997      2.22269     11.65724         0.217932      0.002939     -0.168369
      2.56689      4.43985     11.65724        -0.111511      0.187265     -0.168369
      5.12989      4.43985     11.65724         0.111511      0.187265     -0.168369
      7.69679      4.44374     11.65596        -0.000000     -0.000000     -0.035201
      3.84839      2.22187     11.62023        -0.000000     -0.000000      1.550841
      3.84839      2.22187     13.26080        -0.000000     -0.000000      0.004157
    total drift:                                0.057885      0.030396      0.064520

  FREE ENERGIE OF THE ION-ELECTRON SYSTEM (eV)
  free  energy   TOTEN  =      -137.97633064 eV

  energy  without entropy=     -137.97633064  energy(sigma->0) =     -137.97633064

 stress matrix after NEB project (eV)
     -6.23455      0.00000     -0.00000
      0.00000     -6.23455      0.00000
      0.00000      0.00000     -1.49866
  FORCES: max atom, RMS     0.004157    0.000683
  FORCE total and by dimension    0.004157    0.004157
  Stress total and by dimension    8.943451    6.234554
|           W    W    AA    RRRRR   N    N  II  N    N   GGGG   !!!           |
|           W    W   A  A   R    R  NN   N  II  NN   N  G    G  !!!           |
|           W    W  A    A  R    R  N N  N  II  N N  N  G       !!!           |
|           W WW W  AAAAAA  RRRRR   N  N N  II  N  N N  G  GGG   !            |
|           WW  WW  A    A  R   R   N   NN  II  N   NN  G    G                |
|           W    W  A    A  R    R  N    N  II  N    N   GGGG   !!!           |
|     Tetrahedron method does not include variations of the Fermi             |
|     occupations, so forces and stress will be inaccurate. We suggest        |
|     using a different smearing scheme ISMEAR = 1 or 2 for metals in         |
|     relaxations.                                                            |

 total charge

# of ion       s       p       d       tot
    1        0.451   0.283   9.188   9.922
    2        0.449   0.285   9.186   9.920
    3        0.449   0.285   9.186   9.920
    4        0.449   0.285   9.186   9.920
    5        0.448   0.286   9.184   9.917
    6        0.449   0.285   9.186   9.920
    7        0.449   0.285   9.186   9.920
    8        0.449   0.285   9.186   9.920
    9        0.448   0.284   9.188   9.920
   10        0.442   0.370   9.177   9.989
   11        0.441   0.368   9.182   9.990
   12        0.442   0.370   9.177   9.989
   13        0.441   0.368   9.182   9.990
   14        0.441   0.368   9.182   9.990
   15        0.438   0.369   9.177   9.985
   16        0.442   0.370   9.177   9.989
   17        0.438   0.369   9.177   9.985
   18        0.438   0.369   9.177   9.985
   19        0.442   0.366   9.183   9.990
   20        0.461   0.390   9.165  10.016
   21        0.461   0.390   9.165  10.016
   22        0.434   0.374   9.178   9.986
   23        0.461   0.390   9.165  10.016
   24        0.434   0.374   9.178   9.986
   25        0.442   0.366   9.183   9.990
   26        0.442   0.366   9.183   9.990
   27        0.434   0.374   9.178   9.986
   28        0.450   0.287   9.184   9.921
   29        0.462   0.298   9.177   9.937
   30        0.462   0.298   9.177   9.937
   31        0.462   0.298   9.177   9.937
   32        0.462   0.298   9.177   9.937
   33        0.462   0.298   9.177   9.937
   34        0.462   0.298   9.177   9.937
   35        0.449   0.292   9.179   9.920
   36        0.619   0.839   3.790   5.247
   37        1.609   3.279   0.000   4.887
tot         17.907  15.759 325.077 358.743

 BZINTS: Fermi energy:    0.018743;  396.000000 electrons
         Band energy:-0.115876E+04;  BLOECHL correction:   -0.035102