 vasp.6.2.0 18Jan21 (build Jun 12 2021 23:27:24) complex

 executed on             LinuxIFC date 2022.05.27  05:25:29

 INCAR:
   ISMEAR = -5
   SIGMA = 0.1
   ISPIN = 1
   EDIFF = 1.d-5
   EDIFFG = -0.01
   NSW = 0
   NELM = 150
   ENCUT = 500
   ISIF = 2
   IBRION = 2
   LREAL = Auto
   ALGO = Fast
   ICHARG = 11
   LORBIT = 10
   LCHARG = .F.
   LWAVE = .F.

 POTCAR:    PAW_PBE Ag 02Apr2005
 POTCAR:    PAW_PBE Ti 08Apr2002
 POTCAR:    PAW_PBE C 08Apr2002
 POTCAR:    PAW_PBE O 08Apr2002
|           W    W    AA    RRRRR   N    N  II  N    N   GGGG   !!!           |
|           W    W   A  A   R    R  NN   N  II  NN   N  G    G  !!!           |
|           W    W  A    A  R    R  N N  N  II  N N  N  G       !!!           |
|           W WW W  AAAAAA  RRRRR   N  N N  II  N  N N  G  GGG   !            |
|           WW  WW  A    A  R   R   N   NN  II  N   NN  G    G                |
|           W    W  A    A  R    R  N    N  II  N    N   GGGG   !!!           |
|     For optimal performance we recommend to set                             |
|       NCORE = 2 up to number-of-cores-per-socket                            |
|     This setting can greatly improve the performance of VASP for DFT.       |
|     The default, NCORE=1 might be grossly inefficient on modern             |
|     multi-core architectures or massively parallel machines. Do your        |
|     Unfortunately you need to use the default for GW and RPA                |
|     calculations (for HF NCORE is supported but not extensively tested      |
|     yet).                                                                   |

 POTCAR:    PAW_PBE Ag 02Apr2005
   VRHFIN =Ag : s1 d10

   TITEL  = PAW_PBE Ag 02Apr2005
   POMASS =  107.868; ZVAL   =   11.000    mass and valenz
   ENMAX  =  249.844; ENMIN  =  187.383 eV

 POTCAR:    PAW_PBE Ti 08Apr2002
   VRHFIN =Ti: d3 s1

[...]

 POTCAR:    PAW_PBE C 08Apr2002
   VRHFIN =C: s2p2

[...]

 POTCAR:    PAW_PBE O 08Apr2002
   VRHFIN =O: s2p4

   TITEL  = PAW_PBE O 08Apr2002
   POMASS =   16.000; ZVAL   =    6.000    mass and valenz
   ENMAX  =  400.000; ENMIN  =  300.000 eV

 Optimization of the real space projectors (new method)

 maximal supplied QI-value         = 15.12
 optimisation between [QCUT,QGAM] = [ 11.34, 22.83] = [ 36.00,145.93] Ry
 Optimized for a Real-space Cutoff    1.43 Angstroem

   l    n(q)    QCUT    max X(q) W(low)/X(q) W(high)/X(q)  e(spline)
   2      9    11.338    53.897    0.16E-03    0.20E-03    0.28E-06
   2      9    11.338    52.416    0.16E-03    0.20E-03    0.29E-06
   0     10    11.338   122.045    0.31E-04    0.76E-04    0.15E-06
   0     10    11.338    73.629    0.30E-04    0.72E-04    0.15E-06
   1      9    11.338    15.255    0.20E-03    0.19E-04    0.17E-06
   1      9    11.338     9.562    0.16E-03    0.15E-04    0.14E-06
 Optimization of the real space projectors (new method)

[...]

   l    n(q)    QCUT    max X(q) W(low)/X(q) W(high)/X(q)  e(spline)
   0      7    11.310   115.676    0.43E-03    0.13E-02    0.19E-06
   0      7    11.310    87.132    0.43E-03    0.13E-02    0.18E-06
   1      6    11.310     4.429    0.42E-03    0.74E-03    0.11E-06
   1      6    11.310     2.733    0.34E-03    0.55E-03    0.92E-07
 Optimization of the real space projectors (new method)

 maximal supplied QI-value         = 24.76
 optimisation between [QCUT,QGAM] = [ 11.39, 22.77] = [ 36.31,145.25] Ry
 Optimized for a Real-space Cutoff    1.00 Angstroem

   l    n(q)    QCUT    max X(q) W(low)/X(q) W(high)/X(q)  e(spline)
   0      7    11.387    20.381    0.39E-03    0.13E-02    0.15E-06
   0      7    11.387    15.268    0.42E-03    0.14E-02    0.17E-06
   1      6    11.387     5.964    0.41E-03    0.11E-02    0.17E-06
   1      6    11.387     5.382    0.39E-03    0.87E-03    0.15E-06
  PAW_PBE Ag 02Apr2005                  :
  PAW_PBE Ti 08Apr2002                  :
  PAW_PBE C 08Apr2002                   :
  PAW_PBE O 08Apr2002                   :

 POSCAR: Ag-Ti-CO
  positions in direct lattice
  velocities in cartesian coordinates
 exchange correlation table for  LEXCH =        8
   RHO(1)=    0.500       N(1)  =     2000
   RHO(2)=  100.500       N(2)  =     4000

 VTST: version 3.2, (02/03/18)

 CHAIN: initializing optimizer

 OPT: Using VASP Conjugate-Gradient optimizer
 CHAIN: Read ICHAIN            0

 POSCAR: Ag-Ti-CO
  positions in direct lattice
  velocities in cartesian coordinates

 ion  position               nearest neighbor table
   1  0.000  0.000  0.210-   2 2.93   8 2.93   7 2.93   6 2.93   4 2.93  12 2.93  16 2.93  10 2.93
                             3 2.93
   2  0.333  0.000  0.210-   1 2.93   8 2.93   9 2.93   3 2.93   4 2.93   5 2.93  10 2.93  17 2.93
                            11 2.93
   3  0.667  0.000  0.210-   9 2.93   2 2.93   5 2.93  11 2.93   7 2.93  18 2.93   1 2.93   6 2.93
                            12 2.93
   4  0.000  0.333  0.210-   5 2.93   6 2.93   2 2.93   1 2.93   7 2.93  13 2.93  15 2.93   9 2.93
                            10 2.93
   5  0.333  0.333  0.210-   4 2.93   3 2.93   7 2.93   2 2.93   8 2.93  14 2.93  13 2.93  11 2.93
                             6 2.93
   6  0.667  0.333  0.210-   4 2.93   9 2.93   1 2.93  15 2.93   8 2.93  12 2.93   3 2.93   5 2.93
                            14 2.93
   7  0.000  0.667  0.210-   8 2.93   1 2.93   5 2.93   3 2.93   4 2.93  16 2.93  18 2.93  13 2.93
                             9 2.93
   8  0.333  0.667  0.210-   7 2.93   1 2.93   2 2.93   9 2.93   5 2.93  16 2.93   6 2.93  17 2.93
                            14 2.93
   9  0.667  0.667  0.210-   3 2.93   2 2.93   8 2.93   6 2.93  17 2.93   4 2.93  15 2.93   7 2.93
                            18 2.93
  10  0.111  0.111  0.305-  20 2.91  19 2.92  26 2.92  12 2.93  16 2.93  15 2.93  17 2.93  13 2.93
                            11 2.93   2 2.93   1 2.93   4 2.93
  11  0.444  0.111  0.305-  21 2.91  20 2.91  27 2.92  14 2.93  17 2.93  18 2.93   3 2.93  12 2.93
                            13 2.93  10 2.93   5 2.93   2 2.93
  12  0.778  0.111  0.305-  21 2.91  25 2.92  19 2.92  10 2.93  16 2.93  18 2.93  15 2.93  11 2.93
                             1 2.93  14 2.93   6 2.93   3 2.93
  13  0.111  0.444  0.305-  20 2.91  23 2.91  22 2.92  15 2.93  14 2.93  18 2.93  10 2.93  11 2.93
                            16 2.93   4 2.93   5 2.93   7 2.93
  14  0.444  0.444  0.305-  23 2.91  21 2.91  24 2.92  13 2.93  11 2.93  16 2.93   5 2.93  12 2.93
                            17 2.93   8 2.93  15 2.93   6 2.93
  15  0.778  0.444  0.305-  19 2.92  24 2.92  22 2.92  13 2.93  10 2.93  12 2.93  17 2.93  18 2.93
                             4 2.93   6 2.93   9 2.93  14 2.93
  16  0.111  0.778  0.305-  23 2.91  26 2.92  25 2.92  18 2.93  12 2.93  10 2.93  14 2.93  17 2.93
                            13 2.93   7 2.93   8 2.93   1 2.93
  17  0.444  0.778  0.305-  26 2.92  27 2.92  24 2.92  11 2.93  10 2.93   9 2.93  18 2.93  15 2.93
                            16 2.93   2 2.93  14 2.93   8 2.93
  18  0.778  0.778  0.305-  25 2.92  22 2.92  27 2.92  16 2.93  12 2.93  13 2.93  11 2.93  17 2.93
                            15 2.93   7 2.93   3 2.93   9 2.93
  19  0.889  0.222  0.399-  10 2.92  12 2.92  15 2.92  28 2.92  26 2.93  25 2.93  24 2.93  22 2.93
                            20 2.94  21 2.94  32 2.96  31 2.96
  20  0.223  0.223  0.399-  36 2.82  13 2.91  11 2.91  10 2.91  21 2.92  23 2.92  27 2.93  22 2.93
                            19 2.94  26 2.94  31 2.94  29 2.94
  21  0.555  0.223  0.399-  36 2.82  11 2.91  14 2.91  12 2.91  20 2.92  23 2.92  27 2.93  24 2.93
                            25 2.94  19 2.94  30 2.94  32 2.94
  22  0.889  0.556  0.399-  18 2.92  15 2.92  13 2.92  24 2.93  27 2.93  25 2.93  19 2.93  35 2.93
                            23 2.93  20 2.93  33 2.94  31 2.94
  23  0.223  0.555  0.399-  36 2.82  14 2.91  13 2.91  16 2.91  21 2.92  20 2.92  22 2.93  24 2.93
                            26 2.94  25 2.94  34 2.94  33 2.94
  24  0.556  0.556  0.399-  15 2.92  17 2.92  14 2.92  27 2.93  22 2.93  19 2.93  26 2.93  35 2.93
                            23 2.93  21 2.93  32 2.94  34 2.94
  25  0.889  0.889  0.399-  16 2.92  12 2.92  18 2.92  28 2.92  26 2.93  19 2.93  22 2.93  27 2.93
                            23 2.94  21 2.94  33 2.96  30 2.96
  26  0.222  0.889  0.399-  16 2.92  10 2.92  17 2.92  28 2.92  25 2.93  19 2.93  27 2.93  24 2.93
                            23 2.94  20 2.94  34 2.96  29 2.96
  27  0.556  0.889  0.399-  17 2.92  18 2.92  11 2.92  24 2.93  22 2.93  26 2.93  25 2.93  35 2.93
                            20 2.93  21 2.93  29 2.94  30 2.94
  28  0.000  0.000  0.494-  26 2.92  25 2.92  19 2.92  29 2.95  34 2.95  33 2.95  32 2.95  31 2.95
                            30 2.95
  29  0.334  0.004  0.495-  30 2.89  31 2.90  36 2.90  20 2.94  27 2.94  35 2.95  28 2.95  26 2.96
                            34 3.00
  30  0.662  0.004  0.495-  29 2.89  32 2.90  36 2.90  21 2.94  27 2.94  35 2.95  28 2.95  25 2.96
                            33 3.00
  31  0.004  0.334  0.495-  33 2.89  29 2.90  36 2.90  20 2.94  22 2.94  35 2.95  28 2.95  19 2.96
                            32 3.00
  32  0.662  0.334  0.495-  34 2.89  30 2.90  36 2.90  21 2.94  24 2.94  35 2.95  28 2.95  19 2.96
                            31 3.00
  33  0.004  0.662  0.495-  31 2.89  34 2.90  36 2.90  23 2.94  22 2.94  35 2.95  28 2.95  25 2.96
                            30 3.00
  34  0.334  0.662  0.495-  32 2.89  33 2.90  36 2.90  23 2.94  24 2.94  35 2.95  28 2.95  26 2.96
                            29 3.00
  35  0.667  0.667  0.494-  24 2.93  27 2.93  22 2.93  30 2.95  32 2.95  29 2.95  34 2.95  31 2.95
                            33 2.95
  36  0.333  0.333  0.488-  37 2.05  21 2.82  20 2.82  23 2.82  31 2.90  33 2.90  30 2.90  29 2.90
                            34 2.90  32 2.90
  37  0.333  0.333  0.570-  38 1.17  36 2.05
  38  0.333  0.333  0.616-  37 1.17

  LATTYP: Found a hexagonal cell.
 ALAT       =     8.7913665772
 C/A-ratio  =     2.8658843145

  Lattice vectors:

 A1 = (  -4.3956832886,  -7.6135467898,   0.0000000000)
 A2 = (   8.7913665771,   0.0000000000,   0.0000000000)
 A3 = (   0.0000000000,   0.0000000000,  25.1950395768)

Analysis of symmetry for initial positions (statically):
 Subroutine PRICEL returns:
 Original cell was already a primitive cell.

 Routine SETGRP: Setting up the symmetry group for a
 hexagonal supercell.

 Subroutine GETGRP returns: Found  6 space group operations
 (whereof  6 operations were pure point group operations)
 out of a pool of 24 trial point group operations.

The static configuration has the point symmetry C_3v.

Analysis of symmetry for dynamics (positions and initial velocities):
 Subroutine PRICEL returns:
 Original cell was already a primitive cell.

[...]

The dynamic configuration has the point symmetry C_3v.

Analysis of constrained symmetry for selective dynamics:
 Subroutine PRICEL returns:
 Original cell was already a primitive cell.

 Routine SETGRP: Setting up the symmetry group for a
 hexagonal supercell.

 Subroutine GETGRP returns: Found  6 space group operations
 (whereof  6 operations were pure point group operations)
[...]
     33      -5.2876      2.00000
     34      -5.2656      2.00000
     35      -5.2519      2.00000
     36      -5.2354      2.00000
     37      -5.2197      2.00000
     38      -5.1679      2.00000
     39      -5.1448      2.00000
     40      -5.1357      2.00000
     41      -5.0972      2.00000
     42      -5.0900      2.00000
     43      -5.0578      2.00000
     44      -5.0529      2.00000
     45      -5.0479      2.00000
     46      -5.0409      2.00000
     47      -5.0289      2.00000
     48      -4.9320      2.00000
     49      -4.9105      2.00000
     50      -4.8982      2.00000
     51      -4.8917      2.00000
     52      -4.8861      2.00000
     53      -4.8844      2.00000
     54      -4.8750      2.00000
     55      -4.8675      2.00000
     56      -4.8609      2.00000
     57      -4.8468      2.00000
     58      -4.7854      2.00000
     59      -4.7770      2.00000
     60      -4.7697      2.00000
[...]
    226       3.9615      0.00000
    227       4.1056      0.00000
    228       4.1954      0.00000
    229       4.2456      0.00000
    230       4.7567      0.00000
    231       4.8900      0.00000
    232       4.9285      0.00000
    233       4.9386      0.00000
    234       5.0789      0.00000
    235       5.1606      0.00000
    236       5.2108      0.00000
    237       5.3342      0.00000
    238       5.3631      0.00000
    239       5.4643      0.00000
    240       5.5213      0.00000

 soft charge-density along one line, spin component           1
         0         1         2         3         4         5         6         7         8         9
 total charge-density along one line

------------------------ aborting loop because EDIFF is reached ----------------------------------------

 total charge

# of ion       s       p       d       tot
    1        0.421   0.200   9.178   9.799
    2        0.413   0.204   9.177   9.794
    3        0.413   0.204   9.177   9.794
    4        0.413   0.204   9.177   9.794
    5        0.422   0.202   9.174   9.799
    6        0.413   0.204   9.177   9.794
    7        0.413   0.204   9.177   9.794
    8        0.413   0.204   9.177   9.794
    9        0.417   0.201   9.178   9.796
   10        0.410   0.270   9.161   9.841
   11        0.407   0.267   9.168   9.842
   12        0.410   0.270   9.161   9.841
   13        0.407   0.267   9.168   9.842
   14        0.407   0.267   9.168   9.842
   15        0.403   0.270   9.164   9.837
   16        0.410   0.270   9.161   9.841
   17        0.403   0.270   9.164   9.837
   18        0.403   0.270   9.164   9.837
   19        0.403   0.267   9.165   9.835
   20        0.436   0.291   9.137   9.864
   21        0.436   0.291   9.137   9.864
   22        0.397   0.273   9.165   9.835
   23        0.436   0.291   9.137   9.864
   24        0.397   0.273   9.165   9.835
   25        0.403   0.267   9.165   9.835
   26        0.403   0.267   9.165   9.835
   27        0.397   0.273   9.165   9.835
   28        0.408   0.201   9.176   9.786
   29        0.439   0.211   9.157   9.807
   30        0.439   0.211   9.157   9.807
   31        0.439   0.211   9.157   9.807
   32        0.439   0.211   9.157   9.807
   33        0.439   0.211   9.157   9.807
   34        0.439   0.211   9.157   9.807
   35        0.408   0.201   9.178   9.786
   36        0.440   0.550   2.354   3.345
   37        0.977   1.523   0.000   2.501
   38        1.615   3.529   0.000   5.144
tot         17.591  14.010 323.122 354.723

  FORCE on cell =-STRESS in cart. coord.  units (eV):
  Direction    XX          YY          ZZ          XY          YZ          ZX
  Alpha Z   671.51452   671.51452   671.51452
  Ewald  161069.93289161069.93280************     0.00000    -0.00001     0.00003
  Hartree170980.76890170980.76887************     0.00000    -0.00000     0.00001
  E(xc)   -2088.01738 -2088.01744 -2093.82319     0.00005     0.00000     0.00000
  Local  ************************342813.30239     0.00058    -0.00005    -0.00016
  n-local  -346.31332  -328.85125  -348.74985    10.00832    -0.44440     0.49497
  augment  3230.16287  3230.16311  3243.66098    -0.00021     0.00001     0.00001
  Kinetic  4981.15565  4981.03222  4992.86016     1.44417     0.72319    -0.31566
  Fock        0.00000     0.00000     0.00000     0.00000     0.00000     0.00000
  Total      -9.00815    -9.00815    -0.17665    -0.00000    -0.00000    -0.00000
  in kB      -8.55831    -8.55831    -0.16783    -0.00000    -0.00000    -0.00000

 VOLUME and BASIS-vectors are now :
  energy-cutoff  :      500.00
  volume of cell :     1686.39
      direct lattice vectors                 reciprocal lattice vectors
     8.791366577  0.000000000  0.000000000     0.113747958 -0.065672414  0.000000000
     4.395683289  7.613546790  0.000000000     0.000000000  0.131344829  0.000000000
     0.000000000  0.000000000 25.195039577     0.000000000  0.000000000  0.039690352

  length of vectors
     8.791366577  8.791366577 25.195039577     0.131344829  0.131344829  0.039690352

 FORCES acting on ions
    electron-ion (+dipol)            ewald-force                    non-local-force                 convergence-correction
   0.456E-04 -.284E-04 0.272E+04   -.953E-04 0.593E-04 -.272E+04   -.753E-17 0.211E-18 -.181E+01   -.835E-04 -.155E-03 -.789E-02
   -.228E+00 -.195E+00 0.272E+04   0.222E+00 0.212E+00 -.272E+04   0.424E-01 0.127E+00 -.165E+01   -.316E-01 -.142E+00 0.116E+00
   0.228E+00 -.195E+00 0.272E+04   -.222E+00 0.212E+00 -.272E+04   -.424E-01 0.127E+00 -.165E+01   0.310E-01 -.140E+00 0.117E+00
   -.283E+00 -.997E-01 0.272E+04   0.295E+00 0.859E-01 -.272E+04   0.132E+00 -.269E-01 -.165E+01   -.139E+00 0.438E-01 0.116E+00
   -.500E-05 -.184E-04 0.272E+04   0.981E-04 -.200E-05 -.272E+04   0.500E-18 0.845E-18 -.111E+01   0.618E-02 0.378E-02 0.382E+00
   0.283E+00 -.996E-01 0.272E+04   -.295E+00 0.858E-01 -.272E+04   -.132E+00 -.269E-01 -.165E+01   0.137E+00 0.447E-01 0.117E+00
   -.553E-01 0.295E+00 0.272E+04   0.730E-01 -.298E+00 -.272E+04   0.891E-01 -.100E+00 -.165E+01   -.105E+00 0.975E-01 0.117E+00
   0.554E-01 0.295E+00 0.272E+04   -.730E-01 -.298E+00 -.272E+04   -.891E-01 -.100E+00 -.165E+01   0.107E+00 0.965E-01 0.117E+00
   0.371E-04 -.128E-04 0.272E+04   0.791E-04 -.642E-04 -.272E+04   0.185E-17 0.168E-17 -.168E+01   -.663E-02 -.341E-02 0.110E+00
   -.170E+01 -.981E+00 0.915E+03   0.184E+01 0.106E+01 -.914E+03   -.221E+00 -.128E+00 -.670E+00   0.544E-01 0.314E-01 0.286E-01
   -.279E-04 -.181E+01 0.910E+03   0.406E-04 0.177E+01 -.910E+03   0.569E-12 0.866E-01 -.258E+00   0.612E-02 -.737E-01 0.263E-01
   0.170E+01 -.981E+00 0.915E+03   -.184E+01 0.106E+01 -.914E+03   0.221E+00 -.128E+00 -.670E+00   -.557E-01 0.321E-01 0.277E-01
   -.157E+01 0.904E+00 0.910E+03   0.153E+01 -.884E+00 -.910E+03   0.750E-01 -.433E-01 -.258E+00   -.609E-01 0.422E-01 0.262E-01
   0.157E+01 0.904E+00 0.910E+03   -.153E+01 -.884E+00 -.910E+03   -.750E-01 -.433E-01 -.258E+00   0.711E-01 0.413E-01 0.246E-01
   0.155E-04 -.153E+00 0.915E+03   -.107E-03 0.189E-01 -.914E+03   0.273E-12 0.415E-01 -.710E+00   -.132E-02 0.775E-01 -.120E-01
   -.761E-05 0.196E+01 0.915E+03   0.207E-04 -.213E+01 -.914E+03   0.168E-11 0.255E+00 -.670E+00   -.142E-03 -.644E-01 0.277E-01
   -.133E+00 0.766E-01 0.915E+03   0.164E-01 -.954E-02 -.914E+03   0.360E-01 -.208E-01 -.710E+00   0.664E-01 -.399E-01 -.120E-01
   0.133E+00 0.766E-01 0.915E+03   -.164E-01 -.945E-02 -.914E+03   -.360E-01 -.208E-01 -.710E+00   -.664E-01 -.384E-01 -.112E-01
   0.376E-04 -.543E+01 -.898E+03   -.125E-03 0.542E+01 0.898E+03   0.199E-12 0.303E-01 0.783E+00   0.564E-02 -.461E-02 -.222E+00
   -.313E+02 -.181E+02 -.932E+03   0.324E+02 0.187E+02 0.933E+03   -.104E+01 -.601E+00 -.727E+00   -.100E+00 -.579E-01 -.290E+00
   0.313E+02 -.181E+02 -.932E+03   -.324E+02 0.187E+02 0.933E+03   0.104E+01 -.601E+00 -.727E+00   0.986E-01 -.585E-01 -.291E+00
   -.136E+02 0.787E+01 -.902E+03   0.135E+02 -.780E+01 0.902E+03   0.141E+00 -.814E-01 0.378E+00   -.143E-01 0.139E-01 -.334E+00
   -.510E-04 0.361E+02 -.932E+03   0.356E-04 -.374E+02 0.933E+03   0.790E-11 0.120E+01 -.727E+00   -.982E-03 0.115E+00 -.291E+00
   0.136E+02 0.787E+01 -.902E+03   -.135E+02 -.780E+01 0.902E+03   -.141E+00 -.814E-01 0.378E+00   0.251E-01 0.146E-01 -.334E+00
   0.470E+01 0.271E+01 -.898E+03   -.469E+01 -.271E+01 0.898E+03   -.262E-01 -.151E-01 0.783E+00   0.108E-01 0.606E-02 -.222E+00
   -.470E+01 0.271E+01 -.898E+03   0.469E+01 -.271E+01 0.898E+03   0.262E-01 -.151E-01 0.783E+00   -.148E-02 0.707E-02 -.222E+00
   0.179E-04 -.157E+02 -.902E+03   0.110E-03 0.156E+02 0.902E+03   0.107E-11 0.163E+00 0.378E+00   0.424E-02 -.194E-01 -.334E+00
   0.531E-04 -.367E-04 -.265E+04   -.115E-03 0.771E-04 0.264E+04   0.237E-17 0.933E-18 0.191E+01   0.213E-03 -.123E-04 -.391E+00
   -.107E+02 -.248E+02 -.263E+04   0.116E+02 0.261E+02 0.263E+04   -.809E+00 -.124E+01 0.124E+01   -.317E-01 -.656E-01 -.470E+00
   0.107E+02 -.248E+02 -.263E+04   -.116E+02 0.261E+02 0.263E+04   0.809E+00 -.124E+01 0.124E+01   0.308E-01 -.647E-01 -.470E+00
   -.268E+02 0.310E+01 -.263E+04   0.283E+02 -.302E+01 0.263E+04   -.148E+01 -.795E-01 0.124E+01   -.725E-01 0.550E-02 -.470E+00
   0.268E+02 0.310E+01 -.263E+04   -.283E+02 -.302E+01 0.263E+04   0.148E+01 -.795E-01 0.124E+01   0.724E-01 0.643E-02 -.469E+00
   -.161E+02 0.217E+02 -.263E+04   0.168E+02 -.230E+02 0.263E+04   -.671E+00 0.132E+01 0.124E+01   -.402E-01 0.596E-01 -.470E+00
   0.161E+02 0.217E+02 -.263E+04   -.168E+02 -.230E+02 0.263E+04   0.671E+00 0.132E+01 0.124E+01   0.414E-01 0.596E-01 -.469E+00
   0.252E-04 -.124E-04 -.265E+04   0.104E-03 -.656E-04 0.265E+04   0.569E-18 -.117E-17 0.200E+01   -.637E-02 -.325E-02 -.382E+00
   -.897E-05 0.550E-05 -.872E+03   0.380E-04 0.429E-05 0.873E+03   0.560E-18 -.336E-18 -.146E+01   0.289E-03 0.180E-03 -.219E+00
   0.256E-05 -.781E-04 -.877E+03   0.140E-04 0.141E-06 0.858E+03   -.215E-18 -.350E-18 0.194E+02   0.102E-02 0.623E-03 -.461E-01
   0.236E-03 -.936E-04 -.164E+04   0.725E-05 0.641E-08 0.170E+04   -.204E-19 0.910E-19 -.584E+02   0.364E-02 0.223E-02 0.142E+00
   0.588E-03 -.850E-03 0.522E+02   0.121E-12 0.178E-13 0.114E-11   -.776E-15 0.220E-15 -.473E+02   0.389E-01 0.258E-01 -.495E+01

 POSITION                                       TOTAL-FORCE (eV/Angst)
      0.00000      0.00000      5.28219        -0.000000     -0.000000     -0.014520
      2.93046      0.00000      5.28219         0.005437      0.003293      0.025646
      5.86091      0.00000      5.28219        -0.005437      0.003293      0.025646
      1.46523      2.53785      5.28219         0.005570      0.003062      0.025646
      4.39568      2.53785      5.28219         0.000000      0.000000     -0.007988
      7.32614      2.53785      5.28219        -0.005570      0.003062      0.025646
      2.93046      5.07570      5.28219         0.000133     -0.006355      0.025646
      5.86091      5.07570      5.28219        -0.000133     -0.006355      0.025646
      8.79137      5.07570      5.28219        -0.000000      0.000000      0.009241
      1.46523      0.84595      7.67490        -0.025451     -0.014694     -0.056714
      4.39568      0.84595      7.67490        -0.000000     -0.031104     -0.059118
      7.32614      0.84595      7.67490         0.025451     -0.014694     -0.056714
      2.93046      3.38380      7.67490        -0.026937      0.015552     -0.059118
      5.86091      3.38380      7.67490         0.026937      0.015552     -0.059118
      8.79137      3.38380      7.67490        -0.000000     -0.015558     -0.003109
      4.39568      5.92165      7.67490         0.000000      0.029389     -0.056714
      7.32614      5.92165      7.67490        -0.013473      0.007779     -0.003109
     10.25659      5.92165      7.67490         0.013473      0.007779     -0.003109
      8.79137      1.69074     10.05145         0.000000      0.013799      0.049336
      2.93556      1.69484     10.04095        -0.038250     -0.022083     -0.049645
      5.85581      1.69484     10.04095         0.038250     -0.022083     -0.049645
     10.25435      4.23104     10.05745         0.005808     -0.003353      0.034244
      4.39568      4.22386     10.04095         0.000000      0.044167     -0.049645
      7.32838      4.23104     10.05745        -0.005808     -0.003353      0.034244
     11.72283      6.76818     10.05145        -0.011951     -0.006900      0.049336
      5.85990      6.76818     10.05145         0.011951     -0.006900      0.049336
      8.79137      6.76501     10.05745         0.000000      0.006707      0.034244
      0.00000      0.00000     12.43413        -0.000000     -0.000000      0.021995
      2.95009      0.02948     12.45917        -0.006353     -0.009473      0.030916
      5.84128      0.02948     12.45917         0.006353     -0.009473      0.030916
      1.50057      2.54011     12.45917        -0.011381     -0.000766      0.030916
      7.29079      2.54011     12.45917         0.011381     -0.000766      0.030916
      2.94617      5.04396     12.45917        -0.005027      0.010239      0.030916
      5.84520      5.04396     12.45917         0.005027      0.010239      0.030916
      8.79137      5.07570     12.45428         0.000000      0.000000     -0.001362
      4.39568      2.53785     12.30230        -0.000000      0.000000     -0.037423
      4.39568      2.53785     14.35599        -0.000000      0.000000     -0.089338
      4.39568      2.53785     15.52221         0.000000      0.000000      0.035040
    total drift:                                0.039459      0.024946     -0.048693

  FREE ENERGIE OF THE ION-ELECTRON SYSTEM (eV)
  free  energy   TOTEN  =      -111.68851668 eV

  energy  without entropy=     -111.68851668  energy(sigma->0) =     -111.68851668

 stress matrix after NEB project (eV)
     -9.00815     -0.00000     -0.00000
     -0.00000     -9.00815      0.00000
      0.00000     -0.00000     -0.17665
  FORCES: max atom, RMS     0.089338    0.015567
  FORCE total and by dimension    0.095964    0.089338
  Stress total and by dimension   12.740675    9.008152
|           W    W    AA    RRRRR   N    N  II  N    N   GGGG   !!!           |
|           W    W   A  A   R    R  NN   N  II  NN   N  G    G  !!!           |
|           W    W  A    A  R    R  N N  N  II  N N  N  G       !!!           |
|           W WW W  AAAAAA  RRRRR   N  N N  II  N  N N  G  GGG   !            |
|           WW  WW  A    A  R   R   N   NN  II  N   NN  G    G                |
|           W    W  A    A  R    R  N    N  II  N    N   GGGG   !!!           |
|     Tetrahedron method does not include variations of the Fermi             |
|     occupations, so forces and stress will be inaccurate. We suggest        |
|     using a different smearing scheme ISMEAR = 1 or 2 for metals in         |
|     relaxations.                                                            |

 total charge

# of ion       s       p       d       tot
    1        0.421   0.200   9.178   9.799
    2        0.413   0.204   9.177   9.794
    3        0.413   0.204   9.177   9.794
    4        0.413   0.204   9.177   9.794
    5        0.422   0.202   9.174   9.799
    6        0.413   0.204   9.177   9.794
    7        0.413   0.204   9.177   9.794
    8        0.413   0.204   9.177   9.794
    9        0.417   0.201   9.178   9.796
   10        0.410   0.270   9.161   9.841
   11        0.407   0.267   9.168   9.842
   12        0.410   0.270   9.161   9.841
   13        0.407   0.267   9.168   9.842
   14        0.407   0.267   9.168   9.842
   15        0.403   0.270   9.164   9.837
   16        0.410   0.270   9.161   9.841
   17        0.403   0.270   9.164   9.837
   18        0.403   0.270   9.164   9.837
   19        0.403   0.267   9.165   9.835
   20        0.436   0.291   9.137   9.864
   21        0.436   0.291   9.137   9.864
   22        0.397   0.273   9.165   9.835
   23        0.436   0.291   9.137   9.864
   24        0.397   0.273   9.165   9.835
   25        0.403   0.267   9.165   9.835
   26        0.403   0.267   9.165   9.835
   27        0.397   0.273   9.165   9.835
   28        0.408   0.201   9.176   9.786
   29        0.439   0.211   9.157   9.807
   30        0.439   0.211   9.157   9.807
   31        0.439   0.211   9.157   9.807
   32        0.439   0.211   9.157   9.807
   33        0.439   0.211   9.157   9.807
   34        0.439   0.211   9.157   9.807
   35        0.408   0.201   9.178   9.786
   36        0.440   0.550   2.354   3.345
   37        0.977   1.523   0.000   2.501
   38        1.615   3.529   0.000   5.144
tot         17.591  14.010 323.122 354.723

 BZINTS: Fermi energy:    0.118808;  399.000000 electrons
         Band energy:-0.164664E+04;  BLOECHL correction:   -0.022389