 vasp.6.2.0 18Jan21 (build Jun 12 2021 23:27:24) complex

 executed on             LinuxIFC date 2022.05.27  05:43:54

 INCAR:
   ISMEAR = -5
   SIGMA = 0.1
   ISPIN = 1
   EDIFF = 1.d-5
   EDIFFG = -0.01
   NSW = 0
   NELM = 150
   ENCUT = 500
   ISIF = 2
   IBRION = 2
   LREAL = Auto
   ALGO = Fast
   ICHARG = 11
   LORBIT = 10
   LCHARG = .F.
   LWAVE = .F.

 POTCAR:    PAW_PBE Ag 02Apr2005
 POTCAR:    PAW_PBE Rh 04Feb2005
 POTCAR:    PAW_PBE O 08Apr2002
 POTCAR:    PAW_PBE H 15Jun2001
|           W    W    AA    RRRRR   N    N  II  N    N   GGGG   !!!           |
|           W    W   A  A   R    R  NN   N  II  NN   N  G    G  !!!           |
|           W    W  A    A  R    R  N N  N  II  N N  N  G       !!!           |
|           W WW W  AAAAAA  RRRRR   N  N N  II  N  N N  G  GGG   !            |
|           WW  WW  A    A  R   R   N   NN  II  N   NN  G    G                |
|           W    W  A    A  R    R  N    N  II  N    N   GGGG   !!!           |
|     For optimal performance we recommend to set                             |
|       NCORE = 2 up to number-of-cores-per-socket                            |
|     This setting can greatly improve the performance of VASP for DFT.       |
|     The default, NCORE=1 might be grossly inefficient on modern             |
|     multi-core architectures or massively parallel machines. Do your        |
|     Unfortunately you need to use the default for GW and RPA                |
|     calculations (for HF NCORE is supported but not extensively tested      |
|     yet).                                                                   |

 POTCAR:    PAW_PBE Ag 02Apr2005
   VRHFIN =Ag : s1 d10

   TITEL  = PAW_PBE Ag 02Apr2005
   POMASS =  107.868; ZVAL   =   11.000    mass and valenz
   ENMAX  =  249.844; ENMIN  =  187.383 eV

 POTCAR:    PAW_PBE Rh 04Feb2005
   VRHFIN =Rh: s1 d8

   TITEL  = PAW_PBE Rh 04Feb2005
   POMASS =  102.906; ZVAL   =    9.000    mass and valenz
   ENMAX  =  228.996; ENMIN  =  171.747 eV

 POTCAR:    PAW_PBE O 08Apr2002
   VRHFIN =O: s2p4

   TITEL  = PAW_PBE O 08Apr2002
   POMASS =   16.000; ZVAL   =    6.000    mass and valenz
   ENMAX  =  400.000; ENMIN  =  300.000 eV

 POTCAR:    PAW_PBE H 15Jun2001
   VRHFIN =H: ultrasoft test

   TITEL  = PAW_PBE H 15Jun2001
   POMASS =    1.000; ZVAL   =    1.000    mass and valenz
   ENMAX  =  250.000; ENMIN  =  200.000 eV

 Optimization of the real space projectors (new method)

 maximal supplied QI-value         = 15.12
 optimisation between [QCUT,QGAM] = [ 11.34, 22.83] = [ 36.00,145.93] Ry
 Optimized for a Real-space Cutoff    1.43 Angstroem

   l    n(q)    QCUT    max X(q) W(low)/X(q) W(high)/X(q)  e(spline)
   2      9    11.338    53.897    0.16E-03    0.20E-03    0.28E-06
   2      9    11.338    52.416    0.16E-03    0.20E-03    0.29E-06
   0     10    11.338   122.045    0.31E-04    0.76E-04    0.15E-06
   0     10    11.338    73.629    0.30E-04    0.72E-04    0.15E-06
   1      9    11.338    15.255    0.20E-03    0.19E-04    0.17E-06
   1      9    11.338     9.562    0.16E-03    0.15E-04    0.14E-06
 Optimization of the real space projectors (new method)

[...]

   l    n(q)    QCUT    max X(q) W(low)/X(q) W(high)/X(q)  e(spline)
   0      7    11.387    20.381    0.39E-03    0.13E-02    0.15E-06
   0      7    11.387    15.268    0.42E-03    0.14E-02    0.17E-06
   1      6    11.387     5.964    0.41E-03    0.11E-02    0.17E-06
   1      6    11.387     5.382    0.39E-03    0.87E-03    0.15E-06
 Optimization of the real space projectors (new method)

 maximal supplied QI-value         = 34.20
 optimisation between [QCUT,QGAM] = [ 11.29, 22.57] = [ 35.68,142.71] Ry
 Optimized for a Real-space Cutoff    1.16 Angstroem

   l    n(q)    QCUT    max X(q) W(low)/X(q) W(high)/X(q)  e(spline)
   0      8    11.287    19.460    0.40E-03    0.73E-03    0.16E-06
   0      8    11.287    12.209    0.38E-03    0.70E-03    0.15E-06
   1      7    11.287     4.655    0.22E-03    0.25E-04    0.22E-06
  PAW_PBE Ag 02Apr2005                  :
  PAW_PBE Rh 04Feb2005                  :
  PAW_PBE O 08Apr2002                   :
  PAW_PBE H 15Jun2001                   :

 POSCAR: Ag-Rh-OH
  positions in direct lattice
  velocities in cartesian coordinates
 exchange correlation table for  LEXCH =        8
   RHO(1)=    0.500       N(1)  =     2000
   RHO(2)=  100.500       N(2)  =     4000

 VTST: version 3.2, (02/03/18)

 CHAIN: initializing optimizer

 OPT: Using VASP Conjugate-Gradient optimizer
 CHAIN: Read ICHAIN            0

 POSCAR: Ag-Rh-OH
  positions in direct lattice
  velocities in cartesian coordinates

 ion  position               nearest neighbor table
   1  0.000  0.000  0.209-   2 2.93   8 2.93   7 2.93   6 2.93   4 2.93  12 2.93  16 2.93  10 2.93
                             3 2.93
   2  0.333  0.000  0.209-   1 2.93   8 2.93   9 2.93   3 2.93   4 2.93   5 2.93  10 2.93  17 2.93
                            11 2.93
   3  0.667  0.000  0.209-   9 2.93   2 2.93   5 2.93  11 2.93   7 2.93  18 2.93   1 2.93   6 2.93
                            12 2.93
   4  0.000  0.333  0.209-   5 2.93   6 2.93   2 2.93   1 2.93   7 2.93  13 2.93  15 2.93   9 2.93
                            10 2.93
   5  0.333  0.333  0.209-   4 2.93   3 2.93   7 2.93   2 2.93   8 2.93  14 2.93  13 2.93  11 2.93
                             6 2.93
   6  0.667  0.333  0.209-   4 2.93   9 2.93   1 2.93  15 2.93   8 2.93  12 2.93   3 2.93   5 2.93
                            14 2.93
   7  0.000  0.667  0.209-   8 2.93   1 2.93   5 2.93   3 2.93   4 2.93  16 2.93  18 2.93  13 2.93
                             9 2.93
   8  0.333  0.667  0.209-   7 2.93   1 2.93   2 2.93   9 2.93   5 2.93  16 2.93   6 2.93  17 2.93
                            14 2.93
   9  0.667  0.667  0.209-   3 2.93   2 2.93   8 2.93   6 2.93  17 2.93   4 2.93  15 2.93   7 2.93
                            18 2.93
  10  0.111  0.111  0.304-  20 2.90  19 2.93  26 2.93  12 2.93  16 2.93  15 2.93  17 2.93  13 2.93
                            11 2.93   2 2.93   1 2.93   4 2.93
  11  0.444  0.111  0.304-  21 2.90  20 2.90  27 2.92  14 2.93  17 2.93  18 2.93   3 2.93  12 2.93
                            13 2.93  10 2.93   5 2.93   2 2.93
  12  0.778  0.111  0.304-  21 2.90  25 2.93  19 2.93  10 2.93  16 2.93  18 2.93  15 2.93  11 2.93
                             1 2.93  14 2.93   6 2.93   3 2.93
  13  0.111  0.444  0.304-  20 2.90  23 2.90  22 2.92  15 2.93  14 2.93  18 2.93  10 2.93  11 2.93
                            16 2.93   4 2.93   5 2.93   7 2.93
  14  0.444  0.444  0.304-  23 2.90  21 2.90  24 2.92  13 2.93  11 2.93  16 2.93   5 2.93  12 2.93
                            17 2.93   8 2.93  15 2.93   6 2.93
  15  0.778  0.444  0.304-  24 2.92  22 2.92  19 2.92  13 2.93  10 2.93  12 2.93  17 2.93  18 2.93
                             4 2.93   6 2.93   9 2.93  14 2.93
  16  0.111  0.778  0.304-  23 2.90  26 2.93  25 2.93  18 2.93  12 2.93  10 2.93  14 2.93  17 2.93
                            13 2.93   7 2.93   8 2.93   1 2.93
  17  0.444  0.778  0.304-  27 2.92  24 2.92  26 2.92  11 2.93  10 2.93   9 2.93  18 2.93  15 2.93
                            16 2.93   2 2.93  14 2.93   8 2.93
  18  0.778  0.778  0.304-  22 2.92  27 2.92  25 2.92  16 2.93  12 2.93  13 2.93  11 2.93  17 2.93
                            15 2.93   7 2.93   3 2.93   9 2.93
  19  0.889  0.223  0.398-  28 2.91  15 2.92  10 2.93  12 2.93  24 2.93  22 2.93  32 2.93  31 2.93
                            20 2.93  21 2.93  26 2.94  25 2.94
  20  0.222  0.222  0.397-  36 2.78  13 2.90  11 2.90  10 2.90  31 2.91  29 2.91  21 2.92  23 2.92
                            27 2.93  22 2.93  19 2.93  26 2.93
  21  0.555  0.222  0.397-  36 2.78  11 2.90  14 2.90  12 2.90  30 2.91  32 2.91  20 2.92  23 2.92
                            27 2.93  24 2.93  25 2.93  19 2.93
  22  0.889  0.556  0.398-  35 2.90  18 2.92  15 2.92  13 2.92  33 2.92  31 2.92  25 2.93  19 2.93
                            24 2.93  27 2.93  23 2.93  20 2.93
  23  0.222  0.555  0.397-  36 2.78  14 2.90  13 2.90  16 2.90  34 2.91  33 2.91  21 2.92  20 2.92
                            22 2.93  24 2.93  26 2.93  25 2.93
  24  0.556  0.556  0.398-  35 2.90  15 2.92  17 2.92  14 2.92  32 2.92  34 2.92  19 2.93  26 2.93
                            27 2.93  22 2.93  23 2.93  21 2.93
  25  0.889  0.889  0.398-  28 2.91  18 2.92  16 2.93  12 2.93  22 2.93  27 2.93  33 2.93  30 2.93
                            23 2.93  21 2.93  26 2.94  19 2.94
  26  0.223  0.889  0.398-  28 2.91  17 2.92  16 2.93  10 2.93  27 2.93  24 2.93  34 2.93  29 2.93
                            23 2.93  20 2.93  25 2.94  19 2.94
  27  0.556  0.889  0.398-  35 2.90  17 2.92  18 2.92  11 2.92  29 2.92  30 2.92  26 2.93  25 2.93
                            24 2.93  22 2.93  20 2.93  21 2.93
  28  0.000  0.000  0.492-  26 2.91  25 2.91  19 2.91  29 2.95  34 2.95  33 2.95  32 2.95  31 2.95
                            30 2.95
  29  0.333  0.005  0.492-  31 2.88  30 2.89  36 2.89  20 2.91  27 2.92  26 2.93  28 2.95  35 2.95
                            34 3.02
  30  0.662  0.005  0.492-  32 2.88  29 2.89  36 2.89  21 2.91  27 2.92  25 2.93  28 2.95  35 2.95
                            33 3.02
  31  0.005  0.333  0.492-  29 2.88  33 2.89  36 2.89  20 2.91  22 2.92  19 2.93  28 2.95  35 2.95
                            32 3.02
  32  0.662  0.333  0.492-  30 2.88  34 2.89  36 2.89  21 2.91  24 2.92  19 2.93  28 2.95  35 2.95
                            31 3.02
  33  0.005  0.662  0.492-  34 2.88  31 2.89  36 2.89  23 2.91  22 2.92  25 2.93  28 2.95  35 2.95
                            30 3.02
  34  0.333  0.662  0.492-  33 2.88  32 2.89  36 2.89  23 2.91  24 2.92  26 2.93  28 2.95  35 2.95
                            29 3.02
  35  0.667  0.667  0.492-  24 2.90  27 2.90  22 2.90  30 2.95  32 2.95  29 2.95  34 2.95  31 2.95
                            33 2.95
  36  0.333  0.333  0.485-  37 1.97  21 2.78  20 2.78  23 2.78  31 2.89  30 2.89  33 2.89  29 2.89
                            34 2.89  32 2.89
  37  0.333  0.333  0.563-  38 0.97  36 1.97
  38  0.333  0.333  0.601-  37 0.97

  LATTYP: Found a hexagonal cell.
 ALAT       =     8.7913665772
 C/A-ratio  =     2.8719070141

  Lattice vectors:

 A1 = (  -4.3956832886,  -7.6135467898,   0.0000000000)
 A2 = (   8.7913665771,   0.0000000000,   0.0000000000)
 A3 = (   0.0000000000,   0.0000000000,  25.2479873362)

Analysis of symmetry for initial positions (statically):
 Subroutine PRICEL returns:
 Original cell was already a primitive cell.

 Routine SETGRP: Setting up the symmetry group for a
 hexagonal supercell.

 Subroutine GETGRP returns: Found  6 space group operations
 (whereof  6 operations were pure point group operations)
 out of a pool of 24 trial point group operations.

The static configuration has the point symmetry C_3v.

Analysis of symmetry for dynamics (positions and initial velocities):
 Subroutine PRICEL returns:
 Original cell was already a primitive cell.

[...]

The dynamic configuration has the point symmetry C_3v.

Analysis of constrained symmetry for selective dynamics:
 Subroutine PRICEL returns:
 Original cell was already a primitive cell.

[...]
     33      -5.0200      2.00000
     34      -4.9935      2.00000
     35      -4.9339      2.00000
     36      -4.9283      2.00000
     37      -4.8940      2.00000
     38      -4.8834      2.00000
     39      -4.8663      2.00000
     40      -4.8359      2.00000
     41      -4.8265      2.00000
     42      -4.8199      2.00000
     43      -4.7950      2.00000
     44      -4.7856      2.00000
     45      -4.7104      2.00000
     46      -4.6833      2.00000
     47      -4.6776      2.00000
     48      -4.6641      2.00000
     49      -4.6564      2.00000
     50      -4.6510      2.00000
     51      -4.6430      2.00000
     52      -4.6334      2.00000
     53      -4.6157      2.00000
     54      -4.6030      2.00000
     55      -4.5422      2.00000
     56      -4.5351      2.00000
     57      -4.5268      2.00000
     58      -4.5200      2.00000
     59      -4.5104      2.00000
     60      -4.4945      2.00000
[...]
    238       5.7399      0.00000
    239       5.8317      0.00000
    240       5.8531      0.00000
    241       5.9501      0.00000
    242       6.0948      0.00000
    243       6.3068      0.00000
    244       6.3394      0.00000
    245       6.4093      0.00000
    246       6.5713      0.00000
    247       6.6605      0.00000
    248       6.7223      0.00000
    249       6.7983      0.00000
    250       6.9386      0.00000
    251       6.9778      0.00000
    252       7.1474      0.00000

 soft charge-density along one line, spin component           1
         0         1         2         3         4         5         6         7         8         9
 total charge-density along one line

------------------------ aborting loop because EDIFF is reached ----------------------------------------

 total charge

# of ion       s       p       d       tot
    1        0.416   0.203   9.178   9.796
    2        0.419   0.203   9.177   9.799
    3        0.419   0.203   9.177   9.799
    4        0.419   0.203   9.177   9.799
    5        0.416   0.205   9.176   9.797
    6        0.419   0.203   9.177   9.799
    7        0.419   0.203   9.177   9.799
    8        0.419   0.203   9.177   9.799
    9        0.413   0.203   9.180   9.796
   10        0.406   0.269   9.164   9.840
   11        0.410   0.267   9.168   9.845
   12        0.406   0.269   9.164   9.840
   13        0.410   0.267   9.168   9.845
   14        0.410   0.267   9.168   9.845
   15        0.401   0.270   9.166   9.837
   16        0.406   0.269   9.164   9.840
   17        0.401   0.270   9.166   9.837
   18        0.401   0.270   9.166   9.837
   19        0.403   0.268   9.165   9.836
   20        0.421   0.290   9.152   9.863
   21        0.421   0.290   9.152   9.863
   22        0.398   0.271   9.168   9.838
   23        0.421   0.290   9.152   9.863
   24        0.398   0.271   9.168   9.838
   25        0.403   0.268   9.165   9.836
   26        0.403   0.268   9.165   9.836
   27        0.398   0.271   9.168   9.838
   28        0.418   0.197   9.180   9.795
   29        0.403   0.204   9.184   9.791
   30        0.403   0.204   9.184   9.791
   31        0.403   0.204   9.184   9.791
   32        0.403   0.204   9.184   9.791
   33        0.403   0.204   9.184   9.791
   34        0.403   0.204   9.184   9.791
   35        0.410   0.201   9.179   9.790
   36        0.387   0.383   7.414   8.184
   37        1.542   3.509   0.000   5.052
   38        0.610   0.127   0.000   0.737
tot         16.861  12.377 328.423 357.662

  FORCE on cell =-STRESS in cart. coord.  units (eV):
  Direction    XX          YY          ZZ          XY          YZ          ZX
  Alpha Z   662.88679   662.88679   662.88679
  Ewald  167715.56353167715.56359************     0.00004     0.00000     0.00004
  Hartree177781.60699177781.60701************     0.00002    -0.00000     0.00002
  E(xc)   -2105.44749 -2105.44753 -2109.52544     0.00003    -0.00000    -0.00000
  Local  ************************356818.28477     0.00051    -0.00007    -0.00018
  n-local  -359.70033  -340.40336  -353.57166    10.86199    -0.24224     0.41238
  augment  3287.84627  3287.84651  3291.64389    -0.00021     0.00000    -0.00002
  Kinetic  5028.03019  5035.74891  5020.49769     6.07674     1.03360    -0.29690
  Fock        0.00000     0.00000     0.00000     0.00000     0.00000     0.00000
  Total      -7.64264    -7.64264    -0.71976    -0.00000    -0.00000     0.00000
  in kB      -7.24575    -7.24575    -0.68239    -0.00000    -0.00000     0.00000

 VOLUME and BASIS-vectors are now :
  energy-cutoff  :      500.00
  volume of cell :     1689.94
      direct lattice vectors                 reciprocal lattice vectors
     8.791366577  0.000000000  0.000000000     0.113747958 -0.065672414  0.000000000
     4.395683289  7.613546790  0.000000000     0.000000000  0.131344829  0.000000000
     0.000000000  0.000000000 25.247987336     0.000000000  0.000000000  0.039607117

  length of vectors
     8.791366577  8.791366577 25.247987336     0.131344829  0.131344829  0.039607117

 FORCES acting on ions
    electron-ion (+dipol)            ewald-force                    non-local-force                 convergence-correction
   0.462E-04 -.281E-04 0.276E+04   -.954E-04 0.593E-04 -.275E+04   -.312E-17 0.178E-17 -.242E+01   -.171E-03 -.165E-03 -.240E-03
   0.400E+00 0.420E+00 0.276E+04   -.425E+00 -.504E+00 -.276E+04   0.284E-01 0.656E-01 -.158E+01   0.403E-02 0.324E-01 0.739E-02
   -.400E+00 0.420E+00 0.276E+04   0.425E+00 -.503E+00 -.276E+04   -.284E-01 0.656E-01 -.158E+01   -.451E-02 0.343E-01 0.822E-02
   0.564E+00 0.136E+00 0.276E+04   -.649E+00 -.116E+00 -.276E+04   0.710E-01 -.826E-02 -.158E+01   0.302E-01 -.125E-01 0.745E-02
   -.491E-05 -.183E-04 0.276E+04   0.981E-04 -.199E-05 -.276E+04   0.361E-17 -.932E-18 -.146E+01   0.625E-02 0.382E-02 -.416E-02
   -.564E+00 0.136E+00 0.276E+04   0.649E+00 -.116E+00 -.276E+04   -.710E-01 -.826E-02 -.158E+01   -.316E-01 -.116E-01 0.832E-02
   0.164E+00 -.556E+00 0.276E+04   -.224E+00 0.620E+00 -.276E+04   0.427E-01 -.574E-01 -.158E+01   0.278E-01 -.205E-01 0.822E-02
   -.164E+00 -.556E+00 0.276E+04   0.224E+00 0.620E+00 -.276E+04   -.427E-01 -.574E-01 -.158E+01   -.262E-01 -.216E-01 0.827E-02
   0.367E-04 -.127E-04 0.276E+04   0.792E-04 -.643E-04 -.275E+04   0.120E-17 -.106E-17 -.208E+01   -.661E-02 -.343E-02 0.281E-01
   0.501E+01 0.289E+01 0.950E+03   -.457E+01 -.264E+01 -.950E+03   -.428E+00 -.247E+00 -.843E+00   0.112E-01 0.670E-02 0.332E+00
   -.286E-04 0.497E+01 0.957E+03   0.414E-04 -.501E+01 -.957E+03   0.539E-12 0.821E-01 -.329E+00   0.661E-02 -.757E-01 0.359E+00
   -.501E+01 0.289E+01 0.950E+03   0.457E+01 -.264E+01 -.950E+03   0.428E+00 -.247E+00 -.843E+00   -.131E-01 0.769E-02 0.332E+00
   0.431E+01 -.249E+01 0.957E+03   -.434E+01 0.250E+01 -.957E+03   0.711E-01 -.411E-01 -.329E+00   -.624E-01 0.436E-01 0.359E+00
   -.431E+01 -.249E+01 0.957E+03   0.434E+01 0.250E+01 -.957E+03   -.711E-01 -.411E-01 -.329E+00   0.732E-01 0.422E-01 0.358E+00
   0.161E-04 0.415E+00 0.950E+03   -.108E-03 -.546E+00 -.950E+03   0.383E-12 0.583E-01 -.725E+00   -.171E-02 0.513E-01 0.322E+00
   -.762E-05 -.579E+01 0.950E+03   0.206E-04 0.528E+01 -.950E+03   0.324E-11 0.494E+00 -.843E+00   -.238E-03 -.150E-01 0.332E+00
   0.359E+00 -.207E+00 0.950E+03   -.473E+00 0.273E+00 -.950E+03   0.505E-01 -.292E-01 -.725E+00   0.437E-01 -.272E-01 0.322E+00
   -.359E+00 -.207E+00 0.950E+03   0.473E+00 0.273E+00 -.950E+03   -.505E-01 -.292E-01 -.725E+00   -.432E-01 -.250E-01 0.323E+00
   0.408E-04 0.242E+01 -.887E+03   -.129E-03 -.262E+01 0.886E+03   0.912E-12 0.139E+00 0.693E+00   -.658E-02 0.511E-01 0.323E+00
   0.168E+02 0.972E+01 -.849E+03   -.155E+02 -.897E+01 0.850E+03   -.125E+01 -.719E+00 -.122E+01   -.954E-02 -.472E-02 0.303E+00
   -.168E+02 0.972E+01 -.849E+03   0.155E+02 -.897E+01 0.850E+03   0.125E+01 -.719E+00 -.122E+01   0.111E-01 -.612E-02 0.303E+00
   0.725E+01 -.418E+01 -.877E+03   -.746E+01 0.431E+01 0.876E+03   0.251E+00 -.145E+00 0.611E+00   -.157E-01 0.108E-01 0.282E+00
   -.572E-04 -.194E+02 -.849E+03   0.442E-04 0.179E+02 0.850E+03   0.944E-11 0.144E+01 -.122E+01   -.543E-02 0.361E-02 0.303E+00
   -.725E+01 -.418E+01 -.877E+03   0.746E+01 0.431E+01 0.876E+03   -.251E+00 -.145E+00 0.611E+00   0.172E-01 0.926E-02 0.282E+00
   -.209E+01 -.121E+01 -.887E+03   0.227E+01 0.131E+01 0.886E+03   -.120E+00 -.694E-01 0.693E+00   -.519E-01 -.294E-01 0.323E+00
   0.209E+01 -.121E+01 -.887E+03   -.227E+01 0.131E+01 0.886E+03   0.120E+00 -.694E-01 0.693E+00   0.411E-01 -.303E-01 0.323E+00
   0.197E-04 0.837E+01 -.877E+03   0.110E-03 -.861E+01 0.876E+03   0.191E-11 0.290E+00 0.611E+00   0.994E-03 -.196E-01 0.282E+00
   0.541E-04 -.376E-04 -.270E+04   -.117E-03 0.784E-04 0.270E+04   0.508E-17 0.200E-17 0.182E+01   -.151E-02 -.724E-03 0.105E+00
   0.258E+02 0.450E+02 -.269E+04   -.257E+02 -.452E+02 0.268E+04   -.166E+00 0.503E-01 0.225E+01   -.328E-01 0.236E-01 0.279E-01
   -.258E+02 0.450E+02 -.269E+04   0.257E+02 -.452E+02 0.268E+04   0.166E+00 0.503E-01 0.225E+01   0.430E-01 0.249E-01 0.271E-01
   0.519E+02 -.139E+00 -.269E+04   -.520E+02 0.368E+00 0.268E+04   -.394E-01 -.169E+00 0.225E+01   0.416E-02 -.400E-01 0.277E-01
   -.519E+02 -.139E+00 -.269E+04   0.520E+02 0.368E+00 0.268E+04   0.394E-01 -.169E+00 0.225E+01   0.528E-02 -.397E-01 0.273E-01
   0.261E+02 -.449E+02 -.269E+04   -.263E+02 0.449E+02 0.268E+04   0.126E+00 0.118E+00 0.225E+01   0.433E-01 0.251E-01 0.271E-01
   -.261E+02 -.449E+02 -.269E+04   0.263E+02 0.449E+02 0.268E+04   -.126E+00 0.118E+00 0.225E+01   -.318E-01 0.243E-01 0.280E-01
   0.218E-04 -.112E-04 -.270E+04   0.107E-03 -.666E-04 0.270E+04   -.147E-17 -.190E-17 0.194E+01   -.745E-02 -.401E-02 0.654E-01
   0.135E-04 -.754E-05 -.196E+04   0.860E-04 0.106E-04 0.196E+04   0.325E-17 -.129E-17 0.224E+00   0.218E-02 0.159E-02 -.450E-01
   0.196E-03 -.950E-04 -.175E+04   0.233E-04 0.265E-06 0.173E+04   0.375E-17 0.339E-17 0.226E+02   0.345E-02 0.213E-02 -.729E-01
   0.797E-05 -.132E-04 -.348E+03   0.163E-05 0.331E-08 0.356E+03   0.101E-19 -.124E-18 -.832E+01   0.193E-03 0.118E-03 0.873E-02
   0.627E-03 -.777E-03 -.169E+02   0.236E-13 0.236E-12 -.591E-11   0.200E-15 0.140E-16 0.110E+02   0.224E-01 0.112E-01 0.606E+01

 POSITION                                       TOTAL-FORCE (eV/Angst)
      0.00000      0.00000      5.28219        -0.000000     -0.000000      0.032674
      2.93046      0.00000      5.28219         0.007568      0.015624      0.042218
      5.86091      0.00000      5.28219        -0.007568      0.015624      0.042218
      1.46523      2.53785      5.28219         0.017315     -0.001258      0.042218
      4.39568      2.53785      5.28219        -0.000000     -0.000000      0.028702
      7.32614      2.53785      5.28219        -0.017315     -0.001258      0.042218
      2.93046      5.07570      5.28219         0.009747     -0.014366      0.042218
      5.86091      5.07570      5.28219        -0.009747     -0.014366      0.042218
      8.79137      5.07570      5.28219        -0.000000      0.000000      0.022190
      1.46523      0.84595      7.67490         0.025548      0.014750      0.004110
      4.39568      0.84595      7.67490        -0.000000     -0.034257     -0.080599
      7.32614      0.84595      7.67490        -0.025548      0.014750      0.004110
      2.93046      3.38380      7.67490        -0.029668      0.017129     -0.080599
      5.86091      3.38380      7.67490         0.029668      0.017129     -0.080599
      8.79137      3.38380      7.67490        -0.000000     -0.022265     -0.003633
      4.39568      5.92165      7.67490        -0.000000     -0.029500      0.004110
      7.32614      5.92165      7.67490        -0.019282      0.011132     -0.003633
     10.25659      5.92165      7.67490         0.019282      0.011132     -0.003633
      8.79137      1.69615     10.06050        -0.000000     -0.010482     -0.005166
      2.93321      1.69349     10.03240         0.044312      0.025583     -0.085304
      5.85816      1.69349     10.03240        -0.044312      0.025583     -0.085304
     10.25564      4.23030     10.05204         0.022031     -0.012720     -0.020874
      4.39568      4.22657     10.03240        -0.000000     -0.051167     -0.085304
      7.32709      4.23030     10.05204        -0.022031     -0.012720     -0.020874
     11.71814      6.76547     10.06050         0.009078      0.005241     -0.005166
      5.86459      6.76547     10.06050        -0.009078      0.005241     -0.005166
      8.79137      6.76650     10.05204         0.000000      0.025439     -0.020874
      0.00000      0.00000     12.42190        -0.000000     -0.000000     -0.003964
      2.95118      0.03878     12.42853        -0.075131     -0.164098     -0.060410
      5.84018      0.03878     12.42853         0.075131     -0.164098     -0.060410
      1.50917      2.53641     12.42853        -0.179679      0.016983     -0.060410
      7.28219      2.53641     12.42853         0.179679      0.016983     -0.060410
      2.95367      5.03836     12.42853        -0.104547      0.147115     -0.060410
      5.83769      5.03836     12.42853         0.104547      0.147115     -0.060410
      8.79137      5.07570     12.41313        -0.000000      0.000000      0.023128
      4.39568      2.53785     12.23685        -0.000000      0.000000      0.612900
      4.39568      2.53785     14.20372        -0.000000      0.000000      0.006123
      4.39568      2.53785     15.16941        -0.000000     -0.000000     -0.038203
    total drift:                                0.023016      0.010395      0.128737

  FREE ENERGIE OF THE ION-ELECTRON SYSTEM (eV)
  free  energy   TOTEN  =      -105.06133655 eV

  energy  without entropy=     -105.06133655  energy(sigma->0) =     -105.06133655

 stress matrix after NEB project (eV)
     -7.64264     -0.00000      0.00000
     -0.00000     -7.64264      0.00000
     -0.00000     -0.00000     -0.71976
  FORCES: max atom, RMS     0.038203    0.006276
  FORCE total and by dimension    0.038690    0.038203
  Stress total and by dimension   10.832259    7.642636
|           W    W    AA    RRRRR   N    N  II  N    N   GGGG   !!!           |
|           W    W   A  A   R    R  NN   N  II  NN   N  G    G  !!!           |
|           W    W  A    A  R    R  N N  N  II  N N  N  G       !!!           |
|           W WW W  AAAAAA  RRRRR   N  N N  II  N  N N  G  GGG   !            |
|           WW  WW  A    A  R   R   N   NN  II  N   NN  G    G                |
|           W    W  A    A  R    R  N    N  II  N    N   GGGG   !!!           |
|     Tetrahedron method does not include variations of the Fermi             |
|     occupations, so forces and stress will be inaccurate. We suggest        |
|     using a different smearing scheme ISMEAR = 1 or 2 for metals in         |
|     relaxations.                                                            |

 total charge

# of ion       s       p       d       tot
    1        0.416   0.203   9.178   9.796
    2        0.419   0.203   9.177   9.799
    3        0.419   0.203   9.177   9.799
    4        0.419   0.203   9.177   9.799
    5        0.416   0.205   9.176   9.797
    6        0.419   0.203   9.177   9.799
    7        0.419   0.203   9.177   9.799
    8        0.419   0.203   9.177   9.799
    9        0.413   0.203   9.180   9.796
   10        0.406   0.269   9.164   9.840
   11        0.410   0.267   9.168   9.845
   12        0.406   0.269   9.164   9.840
   13        0.410   0.267   9.168   9.845
   14        0.410   0.267   9.168   9.845
   15        0.401   0.270   9.166   9.837
   16        0.406   0.269   9.164   9.840
   17        0.401   0.270   9.166   9.837
   18        0.401   0.270   9.166   9.837
   19        0.403   0.268   9.165   9.836
   20        0.421   0.290   9.152   9.863
   21        0.421   0.290   9.152   9.863
   22        0.398   0.271   9.168   9.838
   23        0.421   0.290   9.152   9.863
   24        0.398   0.271   9.168   9.838
   25        0.403   0.268   9.165   9.836
   26        0.403   0.268   9.165   9.836
   27        0.398   0.271   9.168   9.838
   28        0.418   0.197   9.180   9.795
   29        0.403   0.204   9.184   9.791
   30        0.403   0.204   9.184   9.791
   31        0.403   0.204   9.184   9.791
   32        0.403   0.204   9.184   9.791
   33        0.403   0.204   9.184   9.791
   34        0.403   0.204   9.184   9.791
   35        0.410   0.201   9.179   9.790
   36        0.387   0.383   7.414   8.184
   37        1.542   3.509   0.000   5.052
   38        0.610   0.127   0.000   0.737
tot         16.861  12.377 328.423 357.662

 BZINTS: Fermi energy:    0.304644;  401.000000 electrons
         Band energy:-0.151985E+04;  BLOECHL correction:   -0.035856