 vasp.6.2.0 18Jan21 (build Jun 12 2021 23:27:24) complex

 executed on             LinuxIFC date 2022.05.27  05:05:56

 INCAR:
   ISMEAR = -5
   SIGMA = 0.1
   ISPIN = 1
   EDIFF = 1.d-5
   EDIFFG = -0.01
   NSW = 0
   NELM = 150
   ENCUT = 500
   ISIF = 2
   IBRION = 2
   LREAL = Auto
   ALGO = Fast
   ICHARG = 11
   LORBIT = 10
   LCHARG = .F.
   LWAVE = .F.

 POTCAR:    PAW_PBE Au 04Oct2007
 POTCAR:    PAW_PBE Ni 02Aug2007
 POTCAR:    PAW_PBE O 08Apr2002
 POTCAR:    PAW_PBE H 15Jun2001
|           W    W    AA    RRRRR   N    N  II  N    N   GGGG   !!!           |
|           W    W   A  A   R    R  NN   N  II  NN   N  G    G  !!!           |
|           W    W  A    A  R    R  N N  N  II  N N  N  G       !!!           |
|           W WW W  AAAAAA  RRRRR   N  N N  II  N  N N  G  GGG   !            |
|           WW  WW  A    A  R   R   N   NN  II  N   NN  G    G                |
|           W    W  A    A  R    R  N    N  II  N    N   GGGG   !!!           |
|     For optimal performance we recommend to set                             |
|       NCORE = 2 up to number-of-cores-per-socket                            |
|     This setting can greatly improve the performance of VASP for DFT.       |
|     The default, NCORE=1 might be grossly inefficient on modern             |
|     multi-core architectures or massively parallel machines. Do your        |
|     Unfortunately you need to use the default for GW and RPA                |
|     calculations (for HF NCORE is supported but not extensively tested      |
|     yet).                                                                   |

 POTCAR:    PAW_PBE Au 04Oct2007
   VRHFIN =Au: s1d10

   TITEL  = PAW_PBE Au 04Oct2007
   POMASS =  196.966; ZVAL   =   11.000    mass and valenz
   ENMAX  =  229.943; ENMIN  =  172.457 eV

 POTCAR:    PAW_PBE Ni 02Aug2007
   VRHFIN =Ni:

   TITEL  = PAW_PBE Ni 02Aug2007
   POMASS =   58.690; ZVAL   =   10.000    mass and valenz
   ENMAX  =  269.532; ENMIN  =  202.149 eV

 POTCAR:    PAW_PBE O 08Apr2002
   VRHFIN =O: s2p4

   TITEL  = PAW_PBE O 08Apr2002
   POMASS =   16.000; ZVAL   =    6.000    mass and valenz
   ENMAX  =  400.000; ENMIN  =  300.000 eV

 POTCAR:    PAW_PBE H 15Jun2001
   VRHFIN =H: ultrasoft test

   TITEL  = PAW_PBE H 15Jun2001
   POMASS =    1.000; ZVAL   =    1.000    mass and valenz
   ENMAX  =  250.000; ENMIN  =  200.000 eV

 Optimization of the real space projectors (new method)

 maximal supplied QI-value         = 15.12
 optimisation between [QCUT,QGAM] = [ 11.34, 22.83] = [ 36.00,145.93] Ry
 Optimized for a Real-space Cutoff    1.39 Angstroem

   l    n(q)    QCUT    max X(q) W(low)/X(q) W(high)/X(q)  e(spline)
   2      9    11.338    60.898    0.39E-03    0.42E-03    0.21E-06
   2      9    11.338    58.894    0.40E-03    0.42E-03    0.22E-06
   0      9    11.338   109.617    0.13E-03    0.20E-04    0.13E-06
   0      9    11.338    75.026    0.13E-03    0.20E-04    0.13E-06
   1      9    11.338    16.344    0.33E-04    0.24E-03    0.18E-06
   1      9    11.338    10.160    0.26E-04    0.19E-03    0.15E-06
 Optimization of the real space projectors (new method)

[...]

   l    n(q)    QCUT    max X(q) W(low)/X(q) W(high)/X(q)  e(spline)
   0      7    11.387    20.381    0.39E-03    0.13E-02    0.15E-06
   0      7    11.387    15.268    0.42E-03    0.14E-02    0.17E-06
   1      6    11.387     5.964    0.41E-03    0.11E-02    0.17E-06
   1      6    11.387     5.382    0.39E-03    0.87E-03    0.15E-06
 Optimization of the real space projectors (new method)

 maximal supplied QI-value         = 34.20
 optimisation between [QCUT,QGAM] = [ 11.29, 22.57] = [ 35.68,142.71] Ry
 Optimized for a Real-space Cutoff    1.16 Angstroem

   l    n(q)    QCUT    max X(q) W(low)/X(q) W(high)/X(q)  e(spline)
   0      8    11.287    19.460    0.40E-03    0.73E-03    0.16E-06
   0      8    11.287    12.209    0.38E-03    0.70E-03    0.15E-06
   1      7    11.287     4.655    0.22E-03    0.25E-04    0.22E-06
  PAW_PBE Au 04Oct2007                  :
  PAW_PBE Ni 02Aug2007                  :
  PAW_PBE O 08Apr2002                   :
  PAW_PBE H 15Jun2001                   :

 POSCAR: Au-Ni-OH
  positions in direct lattice
  velocities in cartesian coordinates
 exchange correlation table for  LEXCH =        8
   RHO(1)=    0.500       N(1)  =     2000
   RHO(2)=  100.500       N(2)  =     4000

 VTST: version 3.2, (02/03/18)

 CHAIN: initializing optimizer

 OPT: Using VASP Conjugate-Gradient optimizer
 CHAIN: Read ICHAIN            0

 POSCAR: Au-Ni-OH
  positions in direct lattice
  velocities in cartesian coordinates

 ion  position               nearest neighbor table
   1  0.000  0.000  0.238-  16 2.94  12 2.94   6 2.94   8 2.94   7 2.94   3 2.94  10 2.94   4 2.94
                             2 2.94
   2  0.333  0.000  0.238-   9 2.94  11 2.94  17 2.94  10 2.94   8 2.94   4 2.94   5 2.94   1 2.94
                             3 2.94
   3  0.667  0.000  0.238-   7 2.94  18 2.94  12 2.94   1 2.94  11 2.94   5 2.94   6 2.94   9 2.94
                             2 2.94
   4  0.000  0.333  0.238-  10 2.94   6 2.94   5 2.94  13 2.94   2 2.94  15 2.94   9 2.94   1 2.94
                             7 2.94
   5  0.333  0.333  0.238-  13 2.94   7 2.94  11 2.94   4 2.94   2 2.94  14 2.94   3 2.94   8 2.94
                             6 2.94
   6  0.667  0.333  0.238-  15 2.94  14 2.94   1 2.94  12 2.94   4 2.94   9 2.94   8 2.94   3 2.94
                             5 2.94
   7  0.000  0.667  0.238-  18 2.94   3 2.94  16 2.94   5 2.94   1 2.94  13 2.94   8 2.94   4 2.94
                             9 2.94
   8  0.333  0.667  0.238-   9 2.94  17 2.94   1 2.94   2 2.94  14 2.94  16 2.94   6 2.94   7 2.94
                             5 2.94
   9  0.667  0.667  0.238-   2 2.94   8 2.94  17 2.94   6 2.94  15 2.94   4 2.94   3 2.94  18 2.94
                             7 2.94
  10  0.111  0.111  0.346-  20 2.93  26 2.93  19 2.93  11 2.94  17 2.94   2 2.94   4 2.94   1 2.94
                            12 2.94  16 2.94  13 2.94  15 2.94
  11  0.444  0.111  0.346-  20 2.92  21 2.92  27 2.93  13 2.94   2 2.94  10 2.94  17 2.94   5 2.94
                             3 2.94  18 2.94  14 2.94  12 2.94
  12  0.778  0.111  0.346-  21 2.93  25 2.93  19 2.93  16 2.94  18 2.94   1 2.94  14 2.94  15 2.94
                             3 2.94   6 2.94  10 2.94  11 2.94
  13  0.111  0.444  0.346-  23 2.92  20 2.92  22 2.93   5 2.94  18 2.94  11 2.94   7 2.94   4 2.94
                            16 2.94  10 2.94  14 2.94  15 2.94
  14  0.444  0.444  0.346-  21 2.92  23 2.92  24 2.93  15 2.94   6 2.94  12 2.94   8 2.94  17 2.94
                             5 2.94  16 2.94  13 2.94  11 2.94
  15  0.778  0.444  0.346-  24 2.92  22 2.92  19 2.93  14 2.94   6 2.94  17 2.94  12 2.94   9 2.94
                             4 2.94  10 2.94  13 2.94  18 2.94
  16  0.111  0.778  0.346-  23 2.93  25 2.93  26 2.93  18 2.94  12 2.94   7 2.94   1 2.94   8 2.94
                            13 2.94  10 2.94  14 2.94  17 2.94
  17  0.444  0.778  0.346-  27 2.92  24 2.92  26 2.93   9 2.94  15 2.94   2 2.94  10 2.94  11 2.94
                             8 2.94  14 2.94  16 2.94  18 2.94
  18  0.778  0.778  0.346-  22 2.92  27 2.92  25 2.93  16 2.94   7 2.94  13 2.94  12 2.94   3 2.94
                            11 2.94   9 2.94  15 2.94  17 2.94
  19  0.889  0.222  0.454-  10 2.93  12 2.93  15 2.93  26 2.93  25 2.93  24 2.94  22 2.94  21 2.95
                            20 2.95  28 2.95  32 2.96  31 2.96
  20  0.223  0.223  0.453-  36 2.70  29 2.91  31 2.91  11 2.92  13 2.92  23 2.92  21 2.92  10 2.93
                            27 2.95  22 2.95  26 2.95  19 2.95
  21  0.554  0.223  0.453-  36 2.70  30 2.91  32 2.91  14 2.92  11 2.92  20 2.92  23 2.92  12 2.93
                            27 2.95  24 2.95  25 2.95  19 2.95
  22  0.888  0.556  0.453-  18 2.92  15 2.92  24 2.92  27 2.92  13 2.93  25 2.94  19 2.94  33 2.94
                            31 2.94  23 2.95  20 2.95  35 2.96
  23  0.223  0.554  0.453-  36 2.70  33 2.91  34 2.91  13 2.92  14 2.92  20 2.92  21 2.92  16 2.93
                            22 2.95  24 2.95  25 2.95  26 2.95
  24  0.556  0.556  0.453-  15 2.92  17 2.92  27 2.92  22 2.92  14 2.93  26 2.94  19 2.94  32 2.94
                            34 2.94  21 2.95  23 2.95  35 2.96
  25  0.889  0.889  0.454-  16 2.93  12 2.93  18 2.93  19 2.93  26 2.93  22 2.94  27 2.94  23 2.95
                            21 2.95  28 2.95  33 2.96  30 2.96
  26  0.222  0.889  0.454-  10 2.93  16 2.93  17 2.93  19 2.93  25 2.93  27 2.94  24 2.94  20 2.95
                            23 2.95  28 2.95  29 2.96  34 2.96
  27  0.556  0.888  0.453-  17 2.92  18 2.92  24 2.92  22 2.92  11 2.93  26 2.94  25 2.94  29 2.94
                            30 2.94  20 2.95  21 2.95  35 2.96
  28  0.000  0.000  0.563-  25 2.95  19 2.95  26 2.95  34 2.97  32 2.97  33 2.97  30 2.97  31 2.97
                            29 2.97
  29  0.334  0.007  0.561-  30 2.87  31 2.88  36 2.89  20 2.91  27 2.94  26 2.96  35 2.97  28 2.97
                            34 3.06
  30  0.660  0.007  0.561-  29 2.87  32 2.88  36 2.89  21 2.91  27 2.94  25 2.96  35 2.97  28 2.97
                            33 3.06
  31  0.007  0.334  0.561-  33 2.87  29 2.88  36 2.89  20 2.91  22 2.94  19 2.96  35 2.97  28 2.97
                            32 3.06
  32  0.660  0.334  0.561-  34 2.87  30 2.88  36 2.89  21 2.91  24 2.94  19 2.96  35 2.97  28 2.97
                            31 3.06
  33  0.007  0.660  0.561-  31 2.87  34 2.88  36 2.89  23 2.91  22 2.94  25 2.96  35 2.97  28 2.97
                            30 3.06
  34  0.334  0.660  0.561-  32 2.87  33 2.88  36 2.89  23 2.91  24 2.94  26 2.96  35 2.97  28 2.97
                            29 3.06
  35  0.667  0.667  0.563-  24 2.96  27 2.96  22 2.96  29 2.97  34 2.97  32 2.97  31 2.97  30 2.97
                            33 2.97
  36  0.333  0.333  0.548-  37 1.81  20 2.70  23 2.70  21 2.70  33 2.89  31 2.89  29 2.89  30 2.89
                            34 2.89  32 2.89
  37  0.333  0.333  0.629-  38 0.97  36 1.81
  38  0.333  0.333  0.673-  37 0.97

  LATTYP: Found a hexagonal cell.
 ALAT       =     8.8135128021
 C/A-ratio  =     2.5184286595

  Lattice vectors:

 A1 = (  -4.4067569092,  -7.6327256898,   0.0000000000)
 A2 = (   8.8135128021,   0.0000000000,   0.0000000000)
 A3 = (   0.0000000000,   0.0000000000,  22.1962032318)

Analysis of symmetry for initial positions (statically):
 Subroutine PRICEL returns:
 Original cell was already a primitive cell.

 Routine SETGRP: Setting up the symmetry group for a
 hexagonal supercell.

 Subroutine GETGRP returns: Found  6 space group operations
 (whereof  6 operations were pure point group operations)
 out of a pool of 24 trial point group operations.

The static configuration has the point symmetry C_3v.

Analysis of symmetry for dynamics (positions and initial velocities):
 Subroutine PRICEL returns:
 Original cell was already a primitive cell.

[...]

The dynamic configuration has the point symmetry C_3v.

Analysis of constrained symmetry for selective dynamics:
 Subroutine PRICEL returns:
 Original cell was already a primitive cell.

[...]
     33      -4.6361      2.00000
     34      -4.6296      2.00000
     35      -4.6094      2.00000
     36      -4.5084      2.00000
     37      -4.4335      2.00000
     38      -4.4318      2.00000
     39      -4.4231      2.00000
     40      -4.4098      2.00000
     41      -4.3621      2.00000
     42      -4.2824      2.00000
     43      -4.2508      2.00000
     44      -4.1932      2.00000
     45      -4.1712      2.00000
     46      -4.1662      2.00000
     47      -4.1600      2.00000
     48      -4.0536      2.00000
     49      -4.0410      2.00000
     50      -4.0050      2.00000
     51      -3.9950      2.00000
     52      -3.9857      2.00000
     53      -3.9790      2.00000
     54      -3.9577      2.00000
     55      -3.9262      2.00000
     56      -3.8888      2.00000
     57      -3.8620      2.00000
     58      -3.8391      2.00000
     59      -3.8268      2.00000
     60      -3.8157      2.00000
[...]
    238       6.4595      0.00000
    239       6.5537      0.00000
    240       6.5708      0.00000
    241       6.6246      0.00000
    242       6.6644      0.00000
    243       6.8994      0.00000
    244       6.9434      0.00000
    245       6.9652      0.00000
    246       7.1046      0.00000
    247       7.2729      0.00000
    248       7.2893      0.00000
    249       7.3673      0.00000
    250       7.5775      0.00000
    251       7.6680      0.00000
    252       7.6829      0.00000

 soft charge-density along one line, spin component           1
         0         1         2         3         4         5         6         7         8         9
 total charge-density along one line

------------------------ aborting loop because EDIFF is reached ----------------------------------------

 total charge

# of ion       s       p       d       tot
    1        0.543   0.239   8.771   9.553
    2        0.545   0.240   8.766   9.551
    3        0.545   0.240   8.766   9.551
    4        0.545   0.240   8.766   9.551
    5        0.542   0.241   8.765   9.548
    6        0.545   0.240   8.766   9.551
    7        0.545   0.240   8.766   9.551
    8        0.545   0.240   8.766   9.551
    9        0.542   0.241   8.765   9.548
   10        0.520   0.308   8.772   9.600
   11        0.520   0.308   8.775   9.603
   12        0.520   0.308   8.772   9.600
   13        0.520   0.308   8.775   9.603
   14        0.520   0.308   8.775   9.603
   15        0.516   0.308   8.778   9.602
   16        0.520   0.308   8.772   9.600
   17        0.516   0.308   8.778   9.602
   18        0.516   0.308   8.778   9.602
   19        0.513   0.304   8.773   9.590
   20        0.535   0.325   8.759   9.619
   21        0.535   0.325   8.759   9.619
   22        0.515   0.308   8.776   9.599
   23        0.535   0.325   8.759   9.619
   24        0.515   0.308   8.776   9.599
   25        0.513   0.304   8.773   9.590
   26        0.513   0.304   8.773   9.590
   27        0.515   0.308   8.776   9.599
   28        0.543   0.225   8.768   9.536
   29        0.535   0.228   8.778   9.540
   30        0.535   0.228   8.778   9.540
   31        0.535   0.228   8.778   9.540
   32        0.535   0.228   8.778   9.540
   33        0.535   0.228   8.778   9.540
   34        0.535   0.228   8.778   9.540
   35        0.541   0.227   8.764   9.532
   36        0.364   0.392   8.318   9.075
   37        1.547   3.519   0.000   5.066
   38        0.608   0.127   0.000   0.736
tot         21.071  13.598 315.313 349.981

  FORCE on cell =-STRESS in cart. coord.  units (eV):
  Direction    XX          YY          ZZ          XY          YZ          ZX
  Alpha Z  1018.42230  1018.42230  1018.42230
  Ewald  120718.99612120718.99658************    -0.00031    -0.00008    -0.00011
  Hartree129752.77752129752.77754************     0.00001    -0.00003    -0.00002
  E(xc)   -1816.09815 -1816.09816 -1821.72472     0.00001    -0.00000    -0.00000
  Local  ************************262681.76644     0.00227     0.00001    -0.00004
  n-local  -121.37462   -72.06740   -76.90118    22.04149    -1.22987     1.24873
  augment  2554.82201  2554.82375  2558.69677    -0.00150     0.00003     0.00006
  Kinetic  5571.43482  5584.68897  5590.66669     5.74650     0.17062     0.40755
  Fock        0.00000     0.00000     0.00000     0.00000     0.00000     0.00000
  Total     -20.14608   -20.14607     1.87690    -0.00000     0.00000     0.00000
  in kB     -21.61691   -21.61691     2.01393    -0.00000     0.00000     0.00000

 VOLUME and BASIS-vectors are now :
  energy-cutoff  :      500.00
  volume of cell :     1493.16
      direct lattice vectors                 reciprocal lattice vectors
     8.813512802  0.000000000  0.000000000     0.113462137 -0.065507406  0.000000000
     4.406756909  7.632725690  0.000000000     0.000000000  0.131014796  0.000000000
     0.000000000  0.000000000 22.196203232     0.000000000  0.000000000  0.045052750

  length of vectors
     8.813512802  8.813512802 22.196203232     0.131014796  0.131014796  0.045052750

 FORCES acting on ions
    electron-ion (+dipol)            ewald-force                    non-local-force                 convergence-correction
   -.195E-04 -.162E-04 0.251E+04   0.519E-04 0.434E-04 -.251E+04   0.301E-17 -.487E-18 -.903E+00   -.261E-03 -.164E-03 -.677E+00
   0.505E+00 0.526E+00 0.251E+04   -.595E+00 -.592E+00 -.251E+04   0.266E-01 0.505E-01 -.347E+00   0.611E-01 0.240E-01 -.639E+00
   -.505E+00 0.526E+00 0.251E+04   0.595E+00 -.592E+00 -.251E+04   -.266E-01 0.505E-01 -.347E+00   -.608E-01 0.260E-01 -.638E+00
   0.708E+00 0.174E+00 0.251E+04   -.810E+00 -.219E+00 -.251E+04   0.571E-01 -.222E-02 -.347E+00   0.514E-01 0.409E-01 -.639E+00
   0.968E-05 -.226E-04 0.251E+04   0.951E-04 0.172E-05 -.251E+04   -.158E-17 0.177E-18 -.267E+00   0.434E-02 0.264E-02 -.535E+00
   -.708E+00 0.174E+00 0.251E+04   0.810E+00 -.219E+00 -.251E+04   -.571E-01 -.222E-02 -.347E+00   -.530E-01 0.418E-01 -.638E+00
   0.203E+00 -.700E+00 0.251E+04   -.215E+00 0.811E+00 -.251E+04   0.305E-01 -.483E-01 -.347E+00   -.782E-02 -.656E-01 -.638E+00
   -.203E+00 -.700E+00 0.251E+04   0.215E+00 0.811E+00 -.251E+04   -.305E-01 -.483E-01 -.347E+00   0.970E-02 -.668E-01 -.638E+00
   0.193E-04 -.416E-04 0.251E+04   0.166E-03 -.201E-04 -.251E+04   0.114E-17 0.119E-17 -.547E+00   -.462E-02 -.239E-02 -.676E+00
   0.497E+01 0.287E+01 0.871E+03   -.472E+01 -.273E+01 -.870E+03   -.233E+00 -.134E+00 -.602E+00   0.221E-01 0.126E-01 -.628E-01
   0.151E-04 0.677E+01 0.881E+03   0.147E-03 -.681E+01 -.880E+03   -.212E-09 -.318E-02 -.339E+00   0.417E-02 0.284E-01 -.691E-01
   -.497E+01 0.287E+01 0.871E+03   0.472E+01 -.273E+01 -.870E+03   0.233E+00 -.134E+00 -.602E+00   -.238E-01 0.142E-01 -.622E-01
   0.586E+01 -.338E+01 0.881E+03   -.590E+01 0.341E+01 -.880E+03   -.275E-02 0.159E-02 -.339E+00   0.269E-01 -.103E-01 -.691E-01
   -.586E+01 -.338E+01 0.881E+03   0.590E+01 0.341E+01 -.880E+03   0.275E-02 0.159E-02 -.339E+00   -.189E-01 -.111E-01 -.689E-01
   0.307E-04 0.176E+01 0.872E+03   0.237E-03 -.172E+01 -.871E+03   -.874E-09 -.131E-01 -.494E+00   -.262E-02 -.380E-01 -.154E+00
   -.219E-04 -.574E+01 0.871E+03   0.163E-03 0.545E+01 -.870E+03   0.179E-07 0.269E+00 -.602E+00   0.190E-03 -.277E-01 -.622E-01
   0.153E+01 -.882E+00 0.872E+03   -.149E+01 0.861E+00 -.871E+03   -.114E-01 0.656E-02 -.494E+00   -.339E-01 0.171E-01 -.154E+00
   -.153E+01 -.882E+00 0.872E+03   0.149E+01 0.861E+00 -.871E+03   0.114E-01 0.656E-02 -.494E+00   0.342E-01 0.195E-01 -.154E+00
   -.390E-04 0.339E+01 -.805E+03   0.526E-04 -.348E+01 0.804E+03   0.976E-08 0.147E+00 0.696E+00   -.460E-02 -.430E-01 0.351E+00
   0.440E+02 0.254E+02 -.742E+03   -.435E+02 -.251E+02 0.742E+03   -.718E+00 -.415E+00 -.713E+00   0.181E+00 0.104E+00 0.582E+00
   -.440E+02 0.254E+02 -.742E+03   0.435E+02 -.251E+02 0.742E+03   0.718E+00 -.415E+00 -.713E+00   -.179E+00 0.106E+00 0.582E+00
   0.164E+02 -.947E+01 -.790E+03   -.167E+02 0.962E+01 0.789E+03   0.213E+00 -.123E+00 0.552E+00   0.901E-01 -.548E-01 0.401E+00
   -.142E-04 -.508E+02 -.742E+03   0.145E-03 0.502E+02 0.742E+03   0.552E-07 0.829E+00 -.713E+00   0.193E-02 -.207E+00 0.582E+00
   -.164E+02 -.947E+01 -.790E+03   0.167E+02 0.962E+01 0.789E+03   -.213E+00 -.123E+00 0.552E+00   -.969E-01 -.559E-01 0.401E+00
   -.294E+01 -.169E+01 -.805E+03   0.302E+01 0.174E+01 0.804E+03   -.127E+00 -.733E-01 0.696E+00   0.344E-01 0.198E-01 0.351E+00
   0.294E+01 -.169E+01 -.805E+03   -.302E+01 0.174E+01 0.804E+03   0.127E+00 -.733E-01 0.696E+00   -.393E-01 0.176E-01 0.351E+00
   0.111E-04 0.189E+02 -.790E+03   0.196E-03 -.192E+02 0.789E+03   0.164E-07 0.246E+00 0.552E+00   -.297E-02 0.105E+00 0.401E+00
   -.127E-04 -.146E-04 -.247E+04   0.301E-04 0.357E-04 0.247E+04   0.594E-17 0.271E-17 0.422E+00   -.220E-03 -.146E-03 0.499E+00
   0.452E+02 0.755E+02 -.244E+04   -.453E+02 -.758E+02 0.244E+04   -.112E+00 -.647E-01 0.103E+01   0.496E-01 0.100E+00 0.422E+00
   -.452E+02 0.755E+02 -.244E+04   0.453E+02 -.758E+02 0.244E+04   0.112E+00 -.647E-01 0.103E+01   -.490E-01 0.102E+00 0.422E+00
   0.880E+02 0.142E+01 -.244E+04   -.883E+02 -.132E+01 0.244E+04   -.112E+00 -.648E-01 0.103E+01   0.112E+00 -.728E-02 0.422E+00
   -.880E+02 0.142E+01 -.244E+04   0.883E+02 -.132E+01 0.244E+04   0.112E+00 -.648E-01 0.103E+01   -.113E+00 -.656E-02 0.421E+00
   0.428E+02 -.769E+02 -.244E+04   -.430E+02 0.771E+02 0.244E+04   0.446E-04 0.130E+00 0.103E+01   0.643E-01 -.936E-01 0.422E+00
   -.428E+02 -.769E+02 -.244E+04   0.430E+02 0.771E+02 0.244E+04   -.446E-04 0.130E+00 0.103E+01   -.624E-01 -.950E-01 0.421E+00
   0.339E-04 -.267E-04 -.247E+04   0.143E-03 -.511E-04 0.247E+04   0.840E-17 -.472E-17 0.372E+00   -.463E-02 -.238E-02 0.513E+00
   -.467E-04 -.205E-04 -.189E+04   0.105E-03 0.985E-05 0.189E+04   -.978E-18 -.188E-17 -.168E+01   0.105E-01 0.639E-02 -.791E-01
   0.195E-03 -.940E-04 -.164E+04   0.234E-04 0.155E-05 0.162E+04   -.106E-17 -.737E-18 0.223E+02   0.395E-02 0.241E-02 -.491E+00
   0.757E-05 -.133E-04 -.322E+03   0.131E-05 0.116E-06 0.331E+03   -.427E-19 -.103E-18 -.837E+01   0.218E-03 0.133E-03 0.512E-01
   -.535E-03 -.868E-03 -.126E+02   0.123E-12 -.706E-13 0.762E-11   0.598E-16 0.481E-16 0.127E+02   0.401E-02 0.331E-02 0.451E+00

 POSITION                                       TOTAL-FORCE (eV/Angst)
      0.00000      0.00000      5.28038         0.000000     -0.000000     -0.058118
      2.93784      0.00000      5.28038        -0.002012      0.009365     -0.052326
      5.87568      0.00000      5.28038         0.002012      0.009365     -0.052326
      1.46892      2.54424      5.28038         0.007104     -0.006425     -0.052326
      4.40676      2.54424      5.28038         0.000000     -0.000000     -0.065438
      7.34459      2.54424      5.28038        -0.007104     -0.006425     -0.052326
      2.93784      5.08848      5.28038         0.009116     -0.002940     -0.052326
      5.87568      5.08848      5.28038        -0.009116     -0.002940     -0.052326
      8.81351      5.08848      5.28038         0.000000     -0.000000     -0.066686
      1.46892      0.84808      7.67911         0.035894      0.020724      0.119157
      4.40676      0.84808      7.67911        -0.000000     -0.021664      0.046270
      7.34459      0.84808      7.67911        -0.035894      0.020724      0.119157
      2.93784      3.39232      7.67911        -0.018761      0.010832      0.046270
      5.87568      3.39232      7.67911         0.018761      0.010832      0.046270
      8.81351      3.39232      7.67911        -0.000000     -0.009623      0.089340
      4.40676      5.93656      7.67911        -0.000000     -0.041447      0.119157
      7.34459      5.93656      7.67911        -0.008334      0.004811      0.089340
     10.28243      5.93656      7.67911         0.008334      0.004811      0.089340
      8.81351      1.69394     10.07055         0.000000      0.010466      0.021129
      2.94670      1.70128     10.05847         0.023237      0.013416     -0.049749
      5.86681      1.70128     10.05847        -0.023237      0.013416     -0.049749
     10.27376      4.24541     10.05945         0.048999     -0.028289      0.001878
      4.40676      4.23017     10.05847        -0.000000     -0.026832     -0.049749
      7.35327      4.24541     10.05945        -0.048999     -0.028289      0.001878
     11.75328      6.78576     10.07055        -0.009064     -0.005233      0.021129
      5.87375      6.78576     10.07055         0.009064     -0.005233      0.021129
      8.81351      6.77463     10.05945         0.000000      0.056579      0.001878
      0.00000      0.00000     12.48855         0.000000     -0.000000     -0.015468
      2.97006      0.05170     12.45862        -0.122039     -0.249535     -0.109897
      5.84345      0.05170     12.45862         0.122039     -0.249535     -0.109897
      1.52981      2.54630     12.45862        -0.277123      0.019079     -0.109897
      7.28371      2.54630     12.45862         0.277123      0.019079     -0.109897
      2.96650      5.03473     12.45862        -0.155084      0.230456     -0.109897
      5.84701      5.03473     12.45862         0.155084      0.230456     -0.109897
      8.81351      5.08848     12.49203         0.000000     -0.000000      0.007001
      4.40676      2.54424     12.16149         0.000000     -0.000000      0.521068
      4.40676      2.54424     13.97009         0.000000     -0.000000      0.035425
      4.40676      2.54424     14.93558         0.000000     -0.000000     -0.068525
    total drift:                                0.003475      0.002443      0.614236

  FREE ENERGIE OF THE ION-ELECTRON SYSTEM (eV)
  free  energy   TOTEN  =      -121.13395416 eV

  energy  without entropy=     -121.13395416  energy(sigma->0) =     -121.13395416

 stress matrix after NEB project (eV)
    -20.14608     -0.00000      0.00000
     -0.00000    -20.14607      0.00000
     -0.00000      0.00000      1.87690
  FORCES: max atom, RMS     0.068525    0.012514
  FORCE total and by dimension    0.077140    0.068525
  Stress total and by dimension   28.552608   20.146076
|           W    W    AA    RRRRR   N    N  II  N    N   GGGG   !!!           |
|           W    W   A  A   R    R  NN   N  II  NN   N  G    G  !!!           |
|           W    W  A    A  R    R  N N  N  II  N N  N  G       !!!           |
|           W WW W  AAAAAA  RRRRR   N  N N  II  N  N N  G  GGG   !            |
|           WW  WW  A    A  R   R   N   NN  II  N   NN  G    G                |
|           W    W  A    A  R    R  N    N  II  N    N   GGGG   !!!           |
|     Tetrahedron method does not include variations of the Fermi             |
|     occupations, so forces and stress will be inaccurate. We suggest        |
|     using a different smearing scheme ISMEAR = 1 or 2 for metals in         |
|     relaxations.                                                            |

 total charge

# of ion       s       p       d       tot
    1        0.543   0.239   8.771   9.553
    2        0.545   0.240   8.766   9.551
    3        0.545   0.240   8.766   9.551
    4        0.545   0.240   8.766   9.551
    5        0.542   0.241   8.765   9.548
    6        0.545   0.240   8.766   9.551
    7        0.545   0.240   8.766   9.551
    8        0.545   0.240   8.766   9.551
    9        0.542   0.241   8.765   9.548
   10        0.520   0.308   8.772   9.600
   11        0.520   0.308   8.775   9.603
   12        0.520   0.308   8.772   9.600
   13        0.520   0.308   8.775   9.603
   14        0.520   0.308   8.775   9.603
   15        0.516   0.308   8.778   9.602
   16        0.520   0.308   8.772   9.600
   17        0.516   0.308   8.778   9.602
   18        0.516   0.308   8.778   9.602
   19        0.513   0.304   8.773   9.590
   20        0.535   0.325   8.759   9.619
   21        0.535   0.325   8.759   9.619
   22        0.515   0.308   8.776   9.599
   23        0.535   0.325   8.759   9.619
   24        0.515   0.308   8.776   9.599
   25        0.513   0.304   8.773   9.590
   26        0.513   0.304   8.773   9.590
   27        0.515   0.308   8.776   9.599
   28        0.543   0.225   8.768   9.536
   29        0.535   0.228   8.778   9.540
   30        0.535   0.228   8.778   9.540
   31        0.535   0.228   8.778   9.540
   32        0.535   0.228   8.778   9.540
   33        0.535   0.228   8.778   9.540
   34        0.535   0.228   8.778   9.540
   35        0.541   0.227   8.764   9.532
   36        0.364   0.392   8.318   9.075
   37        1.547   3.519   0.000   5.066
   38        0.608   0.127   0.000   0.736
tot         21.071  13.598 315.313 349.981

 BZINTS: Fermi energy:    0.773407;  402.000000 electrons
         Band energy:-0.118254E+04;  BLOECHL correction:   -0.048554