 vasp.6.2.0 18Jan21 (build Jun 12 2021 23:27:24) complex

 executed on             LinuxIFC date 2022.05.30  18:15:40

 INCAR:
   ISMEAR = -5
   SIGMA = 0.1
   ISPIN = 1
   EDIFF = 1.d-5
   EDIFFG = -0.01
   NSW = 0
   NELM = 150
   ENCUT = 500
   ISIF = 2
   IBRION = 2
   LREAL = Auto
   ALGO = Fast
   ICHARG = 11
   LORBIT = 10
   LCHARG = .F.
   LWAVE = .F.

 POTCAR:    PAW_PBE Cu 22Jun2005
 POTCAR:    PAW_PBE Nb_sv 25May2007
 POTCAR:    PAW_PBE C 08Apr2002
 POTCAR:    PAW_PBE O 08Apr2002
 POTCAR:    PAW_PBE H 15Jun2001
|           W    W    AA    RRRRR   N    N  II  N    N   GGGG   !!!           |
|           W    W   A  A   R    R  NN   N  II  NN   N  G    G  !!!           |
|           W    W  A    A  R    R  N N  N  II  N N  N  G       !!!           |
|           W WW W  AAAAAA  RRRRR   N  N N  II  N  N N  G  GGG   !            |
|           WW  WW  A    A  R   R   N   NN  II  N   NN  G    G                |
|           W    W  A    A  R    R  N    N  II  N    N   GGGG   !!!           |
|     For optimal performance we recommend to set                             |
|       NCORE = 2 up to number-of-cores-per-socket                            |
|     This setting can greatly improve the performance of VASP for DFT.       |
|     The default, NCORE=1 might be grossly inefficient on modern             |
|     multi-core architectures or massively parallel machines. Do your        |
|     Unfortunately you need to use the default for GW and RPA                |
|     calculations (for HF NCORE is supported but not extensively tested      |
|     yet).                                                                   |

 POTCAR:    PAW_PBE Cu 22Jun2005
   VRHFIN =Cu: d10 p1

   TITEL  = PAW_PBE Cu 22Jun2005
   POMASS =   63.546; ZVAL   =   11.000    mass and valenz
   ENMAX  =  295.446; ENMIN  =  221.585 eV

 POTCAR:    PAW_PBE Nb_sv 25May2007
   VRHFIN =Nb: 4p5s4d

   TITEL  = PAW_PBE Nb_sv 25May2007
   POMASS =   92.910; ZVAL   =   13.000    mass and valenz
   ENMAX  =  293.235; ENMIN  =  219.927 eV

 POTCAR:    PAW_PBE C 08Apr2002
   VRHFIN =C: s2p2

   TITEL  = PAW_PBE C 08Apr2002
   POMASS =   12.011; ZVAL   =    4.000    mass and valenz
   ENMAX  =  400.000; ENMIN  =  300.000 eV

 POTCAR:    PAW_PBE O 08Apr2002
   VRHFIN =O: s2p4

   TITEL  = PAW_PBE O 08Apr2002
   POMASS =   16.000; ZVAL   =    6.000    mass and valenz
   ENMAX  =  400.000; ENMIN  =  300.000 eV

 POTCAR:    PAW_PBE H 15Jun2001
   VRHFIN =H: ultrasoft test

   TITEL  = PAW_PBE H 15Jun2001
   POMASS =    1.000; ZVAL   =    1.000    mass and valenz
   ENMAX  =  250.000; ENMIN  =  200.000 eV

 Optimization of the real space projectors (new method)

 maximal supplied QI-value         = 16.25
 optimisation between [QCUT,QGAM] = [ 11.38, 22.75] = [ 36.24,144.96] Ry
 Optimized for a Real-space Cutoff    1.52 Angstroem

   l    n(q)    QCUT    max X(q) W(low)/X(q) W(high)/X(q)  e(spline)
   2      9    11.376     4.610    0.21E-03    0.10E-03    0.26E-06
   2      9    11.376     8.522    0.33E-03    0.16E-03    0.37E-06
   0     10    11.376    51.609    0.62E-04    0.20E-04    0.13E-06
   0     10    11.376    27.747    0.54E-04    0.20E-04    0.13E-06
   1     10    11.376    20.408    0.13E-04    0.99E-04    0.19E-06
   1     10    11.376    13.425    0.12E-04    0.87E-04    0.17E-06
 Optimization of the real space projectors (new method)

[...]

   l    n(q)    QCUT    max X(q) W(low)/X(q) W(high)/X(q)  e(spline)
   0      7    11.387    20.381    0.39E-03    0.13E-02    0.15E-06
   0      7    11.387    15.268    0.42E-03    0.14E-02    0.17E-06
   1      6    11.387     5.964    0.41E-03    0.11E-02    0.17E-06
   1      6    11.387     5.382    0.39E-03    0.87E-03    0.15E-06
 Optimization of the real space projectors (new method)

 maximal supplied QI-value         = 34.20
 optimisation between [QCUT,QGAM] = [ 11.29, 22.57] = [ 35.68,142.71] Ry
 Optimized for a Real-space Cutoff    1.16 Angstroem

   l    n(q)    QCUT    max X(q) W(low)/X(q) W(high)/X(q)  e(spline)
   0      8    11.287    19.460    0.40E-03    0.73E-03    0.16E-06
   0      8    11.287    12.209    0.38E-03    0.70E-03    0.15E-06
   1      7    11.287     4.655    0.22E-03    0.25E-04    0.22E-06
  PAW_PBE Cu 22Jun2005                  :
  PAW_PBE Nb_sv 25May2007               :
  PAW_PBE C 08Apr2002                   :
  PAW_PBE O 08Apr2002                   :
  PAW_PBE H 15Jun2001                   :

 POSCAR: Cu-Nb-COH
  positions in direct lattice
  velocities in cartesian coordinates
 exchange correlation table for  LEXCH =        8
   RHO(1)=    0.500       N(1)  =     2000
   RHO(2)=  100.500       N(2)  =     4000

 VTST: version 3.2, (02/03/18)

 CHAIN: initializing optimizer

 OPT: Using VASP Conjugate-Gradient optimizer
 CHAIN: Read ICHAIN            0

 POSCAR: Cu-Nb-COH
  positions in direct lattice
  velocities in cartesian coordinates

 ion  position               nearest neighbor table
   1  0.000  0.000  0.206-   7 2.57   3 2.57   4 2.57   2 2.57   6 2.57   8 2.57  12 2.57  10 2.57
                            16 2.57
   2  0.333  0.000  0.206-   8 2.57   9 2.57   5 2.57   1 2.57   3 2.57  11 2.57   4 2.57  10 2.57
                            17 2.57
   3  0.667  0.000  0.206-   1 2.57   7 2.57   6 2.57   9 2.57   2 2.57  12 2.57   5 2.57  18 2.57
                            11 2.57
   4  0.000  0.333  0.206-   5 2.57   6 2.57   1 2.57   7 2.57   2 2.57  13 2.57   9 2.57  10 2.57
                            15 2.57
   5  0.333  0.333  0.206-   4 2.57   2 2.57   7 2.57  13 2.57   8 2.57   6 2.57   3 2.57  11 2.57
                            14 2.57
   6  0.667  0.333  0.206-   4 2.57   9 2.57  15 2.57   3 2.57   1 2.57   8 2.57  14 2.57   5 2.57
                            12 2.57
   7  0.000  0.667  0.206-   1 2.57   3 2.57  16 2.57  18 2.57   4 2.57   5 2.57   8 2.57   9 2.57
                            13 2.57
   8  0.333  0.667  0.206-   9 2.57   2 2.57  17 2.57   6 2.57   1 2.57   7 2.57   5 2.57  14 2.57
                            16 2.57
   9  0.667  0.667  0.206-   8 2.57   6 2.57   2 2.57  17 2.57   3 2.57   7 2.57   4 2.57  15 2.57
                            18 2.57
  10  0.111  0.111  0.286-  26 2.55  19 2.55  11 2.57  12 2.57  13 2.57   1 2.57   2 2.57   4 2.57
                            15 2.57  16 2.57  17 2.57  20 2.57
  11  0.444  0.111  0.286-  20 2.57  21 2.57  10 2.57  13 2.57   2 2.57  17 2.57  14 2.57  12 2.57
                             5 2.57   3 2.57  18 2.57  27 2.57
  12  0.778  0.111  0.286-  19 2.55  25 2.55  15 2.57  10 2.57  14 2.57  18 2.57   3 2.57   1 2.57
                            16 2.57  11 2.57   6 2.57  21 2.57
  13  0.111  0.444  0.286-  23 2.57  20 2.57  16 2.57  18 2.57  10 2.57  11 2.57  14 2.57   5 2.57
                             4 2.57   7 2.57  15 2.57  22 2.57
  14  0.444  0.444  0.286-  21 2.57  23 2.57  15 2.57  17 2.57  12 2.57  16 2.57  13 2.57  11 2.57
                             6 2.57   8 2.57   5 2.57  24 2.57
  15  0.778  0.444  0.286-  19 2.55  14 2.57  17 2.57  12 2.57   6 2.57  18 2.57  10 2.57   9 2.57
                            13 2.57   4 2.57  24 2.57  22 2.57
  16  0.111  0.778  0.286-  25 2.55  26 2.55  18 2.57  13 2.57   7 2.57  14 2.57  17 2.57  12 2.57
                            10 2.57   8 2.57   1 2.57  23 2.57
  17  0.444  0.778  0.286-  26 2.55  14 2.57  15 2.57   8 2.57   9 2.57  11 2.57  16 2.57  18 2.57
                            10 2.57   2 2.57  27 2.57  24 2.57
  18  0.778  0.778  0.286-  25 2.55  16 2.57  13 2.57   7 2.57  15 2.57  12 2.57  17 2.57   9 2.57
                             3 2.57  11 2.57  22 2.57  27 2.57
  19  0.889  0.222  0.365-  12 2.55  10 2.55  15 2.55  25 2.56  26 2.56  21 2.57  20 2.57  22 2.57
                            24 2.57  28 2.57  32 2.58  31 2.58
  20  0.222  0.222  0.366-  23 2.56  21 2.56  11 2.57  13 2.57  10 2.57  26 2.57  19 2.57  27 2.57
                            22 2.57  29 2.59  31 2.59  36 2.66
  21  0.555  0.222  0.366-  20 2.56  23 2.56  14 2.57  11 2.57  12 2.57  19 2.57  25 2.57  24 2.57
                            27 2.57  32 2.59  30 2.59  36 2.66
  22  0.889  0.556  0.366-  24 2.56  27 2.56  18 2.57  15 2.57  23 2.57  20 2.57  19 2.57  25 2.57
                            13 2.57  35 2.57  31 2.57  33 2.57
  23  0.222  0.555  0.366-  20 2.56  21 2.56  13 2.57  14 2.57  16 2.57  25 2.57  26 2.57  22 2.57
                            24 2.57  33 2.59  34 2.59  36 2.66
  24  0.556  0.556  0.366-  22 2.56  27 2.56  15 2.57  17 2.57  21 2.57  23 2.57  19 2.57  26 2.57
                            14 2.57  35 2.57  32 2.57  34 2.57
  25  0.889  0.889  0.365-  12 2.55  16 2.55  18 2.55  19 2.56  26 2.56  21 2.57  23 2.57  22 2.57
                            27 2.57  28 2.57  33 2.58  30 2.58
  26  0.222  0.889  0.365-  10 2.55  16 2.55  17 2.55  25 2.56  19 2.56  20 2.57  23 2.57  27 2.57
                            24 2.57  28 2.57  29 2.58  34 2.58
  27  0.556  0.889  0.366-  24 2.56  22 2.56  17 2.57  18 2.57  20 2.57  21 2.57  26 2.57  25 2.57
                            11 2.57  35 2.57  29 2.57  30 2.57
  28  0.000  0.000  0.446-  33 2.55  30 2.55  31 2.55  29 2.55  32 2.55  34 2.55  25 2.57  19 2.57
                            26 2.57
  29  0.334  0.996  0.446-  34 2.51  35 2.55  28 2.55  27 2.57  26 2.58  20 2.59  30 2.59  36 2.60
                            31 2.60
  30  0.670  0.996  0.446-  33 2.51  35 2.55  28 2.55  27 2.57  25 2.58  21 2.59  29 2.59  36 2.60
                            32 2.60
  31  0.996  0.334  0.446-  32 2.51  35 2.55  28 2.55  22 2.57  19 2.58  20 2.59  33 2.59  36 2.60
                            29 2.60
  32  0.670  0.334  0.446-  31 2.51  35 2.55  28 2.55  24 2.57  19 2.58  21 2.59  34 2.59  36 2.60
                            30 2.60
  33  0.996  0.670  0.446-  30 2.51  35 2.55  28 2.55  22 2.57  25 2.58  23 2.59  31 2.59  36 2.60
                            34 2.60
  34  0.334  0.670  0.446-  29 2.51  35 2.55  28 2.55  24 2.57  26 2.58  23 2.59  32 2.59  36 2.60
                            33 2.60
  35  0.667  0.667  0.446-  34 2.55  32 2.55  29 2.55  30 2.55  33 2.55  31 2.55  24 2.57  27 2.57
                            22 2.57
  36  0.333  0.333  0.451-  37 1.92  31 2.60  29 2.60  33 2.60  32 2.60  34 2.60  30 2.60  23 2.66
                            20 2.66  21 2.66
  37  0.333  0.333  0.524-  38 1.27  36 1.92
  38  0.333  0.333  0.573-  39 0.96  37 1.27
  39  0.333  0.333  0.609-  38 0.96

  LATTYP: Found a hexagonal cell.
 ALAT       =     7.6967864036
 C/A-ratio  =     3.3950614187

  Lattice vectors:

 A1 = (  -3.8483927580,  -6.6656128093,   0.0000000000)
 A2 = (   7.6967864037,   0.0000000000,   0.0000000000)
 A3 = (   0.0000000000,   0.0000000000,  26.1310625667)

Analysis of symmetry for initial positions (statically):
 Subroutine PRICEL returns:
 Original cell was already a primitive cell.

 Routine SETGRP: Setting up the symmetry group for a
 hexagonal supercell.

 Subroutine GETGRP returns: Found  6 space group operations
 (whereof  6 operations were pure point group operations)
 out of a pool of 24 trial point group operations.

The static configuration has the point symmetry C_3v.

[...]
     41      -4.2099      2.00000
     42      -4.1754      2.00000
     43      -4.1086      2.00000
     44      -4.0880      2.00000
     45      -4.0450      2.00000
     46      -3.9142      2.00000
     47      -3.8992      2.00000
     48      -3.8556      2.00000
     49      -3.8391      2.00000
     50      -3.8185      2.00000
     51      -3.8064      2.00000
     52      -3.7988      2.00000
     53      -3.7932      2.00000
     54      -3.7766      2.00000
     55      -3.6269      2.00000
     56      -3.5973      2.00000
     57      -3.5853      2.00000
     58      -3.5696      2.00000
     59      -3.5207      2.00000
     60      -3.5126      2.00000
[...]
    238       4.7965      0.00000
    239       5.1487      0.00000
    240       5.1910      0.00000
    241       5.2858      0.00000
    242       5.2935      0.00000
    243       5.5141      0.00000
    244       5.5744      0.00000
    245       5.6093      0.00000
    246       5.6482      0.00000
    247       5.7286      0.00000
    248       5.7790      0.00000
    249       5.9313      0.00000
    250       5.9778      0.00000
    251       5.9874      0.00000
    252       6.1640      0.00000

 soft charge-density along one line, spin component           1
         0         1         2         3         4         5         6         7         8         9
 total charge-density along one line

------------------------ aborting loop because EDIFF is reached ----------------------------------------

 total charge

# of ion       s       p       d       tot
    1        0.449   0.283   9.190   9.922
    2        0.448   0.286   9.186   9.920
    3        0.448   0.286   9.186   9.920
    4        0.448   0.286   9.186   9.920
    5        0.450   0.286   9.181   9.917
    6        0.448   0.286   9.186   9.920
    7        0.448   0.286   9.186   9.920
    8        0.448   0.286   9.186   9.920
    9        0.448   0.283   9.191   9.922
   10        0.442   0.372   9.176   9.990
   11        0.445   0.364   9.182   9.991
   12        0.442   0.372   9.176   9.990
   13        0.445   0.364   9.182   9.991
   14        0.445   0.364   9.182   9.991
   15        0.438   0.372   9.176   9.986
   16        0.442   0.372   9.176   9.990
   17        0.438   0.372   9.176   9.986
   18        0.438   0.372   9.176   9.986
   19        0.443   0.370   9.180   9.992
   20        0.460   0.386   9.166  10.013
   21        0.460   0.386   9.166  10.013
   22        0.430   0.374   9.180   9.983
   23        0.460   0.386   9.166  10.013
   24        0.430   0.374   9.180   9.983
   25        0.443   0.370   9.180   9.992
   26        0.443   0.370   9.180   9.992
   27        0.430   0.374   9.180   9.983
   28        0.446   0.295   9.185   9.926
   29        0.476   0.311   9.169   9.956
   30        0.476   0.311   9.169   9.956
   31        0.476   0.311   9.169   9.956
   32        0.476   0.311   9.169   9.956
   33        0.476   0.311   9.169   9.956
   34        0.476   0.311   9.169   9.956
   35        0.446   0.298   9.185   9.928
   36        2.215   6.032   2.544  10.791
   37        0.936   1.420   0.000   2.356
   38        1.522   3.758   0.000   5.280
   39        0.569   0.138   0.000   0.707
tot         20.999  23.081 323.788 367.868

  FORCE on cell =-STRESS in cart. coord.  units (eV):
  Direction    XX          YY          ZZ          XY          YZ          ZX
  Alpha Z   758.96571   758.96571   758.96571
  Ewald  273983.53761273983.53710************     0.00043     0.00012     0.00021
  Hartree287163.17638287163.17632************     0.00005     0.00007     0.00007
  E(xc)   -2354.03047 -2354.03003 -2356.57313    -0.00039    -0.00003    -0.00005
  Local  ************************574277.58578     0.01882    -0.00061    -0.00102
  n-local  -796.06769  -784.44980  -801.28832     6.59264    -0.14368     0.27801
  augment  3332.24981  3332.26992  3355.31095    -0.01742     0.00030     0.00059
  Kinetic  3591.89829  3596.30639  3572.44459     3.22920     1.75663    -1.19571
  Fock        0.00000     0.00000     0.00000     0.00000     0.00000     0.00000
  Total      -3.92840    -3.92840     0.96479     0.00000    -0.00000    -0.00000
  in kB      -4.69482    -4.69482     1.15302     0.00000    -0.00000    -0.00000

 VOLUME and BASIS-vectors are now :
  energy-cutoff  :      500.00
  volume of cell :     1340.62
      direct lattice vectors                 reciprocal lattice vectors
     7.696786404  0.000000000  0.000000000     0.129924354 -0.075011849  0.000000000
     3.848392758  6.665612809  0.000000000     0.000000000  0.150023716  0.000000000
     0.000000000  0.000000000 26.131062567     0.000000000  0.000000000  0.038268631

  length of vectors
     7.696786404  7.696786404 26.131062567     0.150023716  0.150023716  0.038268631

 FORCES acting on ions
    electron-ion (+dipol)            ewald-force                    non-local-force                 convergence-correction
   -.434E-04 -.926E-06 0.398E+04   0.578E-04 -.435E-05 -.398E+04   0.165E-18 -.485E-17 -.256E+01   -.336E-03 -.161E-03 0.468E-01
   -.587E+00 -.133E+00 0.398E+04   0.410E+00 -.316E-01 -.398E+04   0.112E+00 0.141E+00 -.178E+01   0.767E-01 0.417E-01 0.892E-01
   0.587E+00 -.133E+00 0.398E+04   -.410E+00 -.317E-01 -.398E+04   -.112E+00 0.141E+00 -.178E+01   -.758E-01 0.443E-01 0.901E-01
   -.409E+00 -.442E+00 0.398E+04   0.178E+00 0.371E+00 -.398E+04   0.179E+00 0.268E-01 -.178E+01   0.745E-01 0.455E-01 0.892E-01
   -.695E-04 -.809E-05 0.398E+04   0.116E-03 -.101E-04 -.398E+04   -.279E-17 -.648E-17 -.133E+01   0.122E-01 0.749E-02 0.156E+00
   0.409E+00 -.442E+00 0.398E+04   -.178E+00 0.371E+00 -.398E+04   -.179E+00 0.268E-01 -.178E+01   -.762E-01 0.467E-01 0.906E-01
   0.178E+00 0.575E+00 0.398E+04   -.233E+00 -.339E+00 -.398E+04   0.661E-01 -.168E+00 -.178E+01   0.495E-03 -.879E-01 0.903E-01
   -.178E+00 0.575E+00 0.398E+04   0.232E+00 -.339E+00 -.398E+04   -.661E-01 -.168E+00 -.178E+01   0.304E-02 -.894E-01 0.906E-01
   -.145E-03 -.336E-04 0.398E+04   0.263E-03 0.205E-04 -.398E+04   -.949E-18 -.926E-18 -.235E+01   -.133E-01 -.685E-02 0.107E+00
   -.287E+01 -.166E+01 0.143E+04   0.320E+01 0.185E+01 -.143E+04   -.393E+00 -.227E+00 -.104E+01   0.681E-01 0.393E-01 0.806E-01
   -.898E-04 0.375E+00 0.142E+04   0.190E-03 -.672E+00 -.142E+04   -.201E-07 0.302E+00 -.308E+00   0.118E-01 -.704E-02 0.119E+00
   0.287E+01 -.166E+01 0.143E+04   -.320E+01 0.185E+01 -.143E+04   0.393E+00 -.227E+00 -.104E+01   -.701E-01 0.414E-01 0.814E-01
   0.324E+00 -.187E+00 0.142E+04   -.582E+00 0.336E+00 -.142E+04   0.261E+00 -.151E+00 -.308E+00   0.274E-03 0.146E-01 0.119E+00
   -.324E+00 -.187E+00 0.142E+04   0.581E+00 0.336E+00 -.142E+04   -.261E+00 -.151E+00 -.308E+00   0.242E-01 0.136E-01 0.119E+00
   -.141E-03 -.335E+01 0.143E+04   0.298E-03 0.320E+01 -.142E+04   -.925E-08 0.139E+00 -.104E+01   -.407E-02 0.115E-01 0.591E-01
   -.901E-04 0.331E+01 0.143E+04   0.185E-03 -.370E+01 -.143E+04   -.302E-07 0.453E+00 -.104E+01   -.151E-03 -.826E-01 0.813E-01
   -.290E+01 0.168E+01 0.143E+04   0.277E+01 -.160E+01 -.142E+04   0.120E+00 -.694E-01 -.104E+01   0.861E-02 -.928E-02 0.590E-01
   0.290E+01 0.168E+01 0.143E+04   -.277E+01 -.160E+01 -.142E+04   -.120E+00 -.694E-01 -.104E+01   -.787E-02 -.624E-02 0.596E-01
   -.671E-04 -.211E+01 -.114E+04   0.638E-04 0.204E+01 0.114E+04   -.154E-08 0.232E-01 0.116E+01   -.236E-02 0.669E-01 -.167E+00
   0.826E+01 0.477E+01 -.114E+04   -.743E+01 -.429E+01 0.114E+04   -.112E+01 -.646E+00 -.511E+00   0.739E-01 0.426E-01 -.284E-01
   -.826E+01 0.477E+01 -.114E+04   0.743E+01 -.429E+01 0.114E+04   0.112E+01 -.646E+00 -.511E+00   -.499E-01 0.444E-01 -.281E-01
   0.166E+01 -.961E+00 -.116E+04   -.220E+01 0.127E+01 0.115E+04   0.458E+00 -.264E+00 0.750E+00   0.110E+00 -.643E-01 -.189E+00
   -.620E-04 -.954E+01 -.114E+04   0.141E-03 0.858E+01 0.114E+04   -.860E-07 0.129E+01 -.511E+00   0.123E-01 -.667E-01 -.282E-01
   -.166E+01 -.961E+00 -.116E+04   0.220E+01 0.127E+01 0.115E+04   -.458E+00 -.264E+00 0.750E+00   -.113E+00 -.661E-01 -.190E+00
   0.183E+01 0.106E+01 -.114E+04   -.176E+01 -.102E+01 0.114E+04   -.201E-01 -.116E-01 0.116E+01   -.566E-01 -.327E-01 -.168E+00
   -.183E+01 0.106E+01 -.114E+04   0.176E+01 -.102E+01 0.114E+04   0.201E-01 -.116E-01 0.116E+01   0.571E-01 -.353E-01 -.167E+00
   -.134E-03 0.192E+01 -.116E+04   0.244E-03 -.255E+01 0.115E+04   -.352E-07 0.529E+00 0.750E+00   -.706E-03 0.127E+00 -.189E+00
   -.282E-04 0.225E-04 -.374E+04   0.326E-04 -.344E-04 0.374E+04   -.632E-18 -.263E-17 0.200E+01   0.121E-02 0.745E-03 0.701E-01
   0.283E+02 0.402E+02 -.373E+04   -.279E+02 -.399E+02 0.372E+04   -.451E+00 -.507E+00 0.140E+01   0.744E-01 0.160E+00 -.611E-01
   -.283E+02 0.402E+02 -.373E+04   0.279E+02 -.399E+02 0.372E+04   0.451E+00 -.507E+00 0.140E+01   -.951E-01 0.163E+00 -.612E-01
   0.490E+02 0.436E+01 -.373E+04   -.486E+02 -.422E+01 0.372E+04   -.665E+00 -.137E+00 0.140E+01   0.176E+00 -.155E-01 -.611E-01
   -.490E+02 0.436E+01 -.373E+04   0.486E+02 -.422E+01 0.372E+04   0.665E+00 -.137E+00 0.140E+01   -.199E+00 -.146E-01 -.621E-01
   0.207E+02 -.446E+02 -.373E+04   -.206E+02 0.442E+02 0.372E+04   -.214E+00 0.644E+00 0.140E+01   0.932E-01 -.164E+00 -.612E-01
   -.207E+02 -.446E+02 -.373E+04   0.206E+02 0.442E+02 0.372E+04   0.214E+00 0.644E+00 0.140E+01   -.112E+00 -.165E+00 -.620E-01
   -.150E-03 -.179E-04 -.376E+04   0.263E-03 0.250E-05 0.376E+04   0.215E-17 0.568E-17 0.237E+01   -.118E-01 -.598E-02 -.260E-01
   0.155E-03 -.173E-03 -.428E+04   0.151E-03 0.344E-04 0.428E+04   0.366E-17 0.390E-18 -.312E+01   0.863E-02 0.517E-02 -.706E-01
   0.425E-05 -.742E-04 -.154E+04   0.777E-05 0.406E-05 0.151E+04   -.402E-18 -.188E-18 0.213E+02   0.126E-02 0.760E-03 -.538E-01
   0.231E-03 -.719E-04 -.227E+04   0.163E-05 0.182E-05 0.227E+04   0.939E-18 0.174E-18 -.312E+01   0.341E-02 0.209E-02 -.274E-01
   0.312E-05 -.144E-04 -.406E+03   0.497E-07 0.121E-06 0.415E+03   0.169E-19 0.245E-19 -.872E+01   0.179E-03 0.109E-03 -.382E-03
   0.134E-03 -.317E-03 0.695E+00   0.420E-13 0.213E-12 -.180E-10   -.769E-16 0.228E-15 -.796E+00   0.302E-02 -.106E-02 -.567E-02

 POSITION                                       TOTAL-FORCE (eV/Angst)
      0.00000      0.00000      5.37156        -0.000000     -0.000000     -0.025488
      2.56560      0.00000      5.37156         0.012702      0.019538      0.056903
      5.13119      0.00000      5.37156        -0.012702      0.019538      0.056903
      1.28280      2.22187      5.37156         0.023271      0.001231      0.056903
      3.84839      2.22187      5.37156        -0.000000     -0.000000      0.040186
      6.41399      2.22187      5.37156        -0.023271      0.001231      0.056903
      2.56560      4.44374      5.37156         0.010570     -0.020769      0.056903
      5.13119      4.44374      5.37156        -0.010570     -0.020769      0.056903
      7.69679      4.44374      5.37156        -0.000000     -0.000000      0.013695
      1.28280      0.74062      7.46636         0.007941      0.004585     -0.093586
      3.84839      0.74062      7.46636         0.000000     -0.008997     -0.023495
      6.41399      0.74062      7.46636        -0.007941      0.004585     -0.093586
      2.56560      2.96249      7.46636        -0.007792      0.004498     -0.023495
      5.13119      2.96249      7.46636         0.007792      0.004498     -0.023495
      7.69679      2.96249      7.46636        -0.000000      0.003131     -0.018639
      3.84839      5.18437      7.46636         0.000000     -0.009169     -0.093586
      6.41399      5.18437      7.46636         0.002712     -0.001566     -0.018639
      8.97958      5.18437      7.46636        -0.002712     -0.001566     -0.018639
      7.69679      1.47855      9.54201        -0.000000      0.012368      0.077435
      2.56706      1.48209      9.56134        -0.224285     -0.129491     -0.295193
      5.12972      1.48209      9.56134         0.224285     -0.129491     -0.295193
      8.97774      3.70418      9.56312         0.028972     -0.016727      0.031153
      3.84839      3.70142      9.56134        -0.000000      0.258982     -0.295193
      6.41583      3.70418      9.56312        -0.028972     -0.016727      0.031153
     10.26471      5.92634      9.54201        -0.010711     -0.006184      0.077435
      5.12886      5.92634      9.54201         0.010711     -0.006184      0.077435
      7.69679      5.92286      9.56312        -0.000000      0.033454      0.031153
      0.00000      0.00000     11.64396        -0.000000     -0.000000     -0.082637
      6.40056      6.63873     11.66709        -0.042657     -0.068402      0.062559
      8.99302      6.63873     11.66709         0.042657     -0.068402      0.062559
      8.94959      2.22368     11.66709        -0.080566     -0.002741      0.062559
      6.44399      2.22368     11.66709         0.080566     -0.002741      0.062559
     10.24582      4.46882     11.66709        -0.037909      0.071143      0.062559
      5.14776      4.46882     11.66709         0.037909      0.071143      0.062559
      7.69679      4.44374     11.66626        -0.000000     -0.000000     -0.101397
      3.84839      2.22187     11.77465        -0.000000     -0.000000      0.415696
      3.84839      2.22187     13.69364        -0.000000     -0.000000     -0.007207
      3.84839      2.22187     14.96439        -0.000000     -0.000000     -0.006272
      3.84839      2.22187     15.92009        -0.000000     -0.000000      0.003621
    total drift:                                0.003156     -0.001372     -0.106001

  FREE ENERGIE OF THE ION-ELECTRON SYSTEM (eV)
  free  energy   TOTEN  =      -148.95679067 eV

  energy  without entropy=     -148.95679067  energy(sigma->0) =     -148.95679067

 stress matrix after NEB project (eV)
     -3.92840      0.00000     -0.00000
      0.00000     -3.92840      0.00000
      0.00000     -0.00000      0.96479
  FORCES: max atom, RMS     0.007207    0.001636
  FORCE total and by dimension    0.010217    0.007207
  Stress total and by dimension    5.638743    3.928397
|           W    W    AA    RRRRR   N    N  II  N    N   GGGG   !!!           |
|           W    W   A  A   R    R  NN   N  II  NN   N  G    G  !!!           |
|           W    W  A    A  R    R  N N  N  II  N N  N  G       !!!           |
|           W WW W  AAAAAA  RRRRR   N  N N  II  N  N N  G  GGG   !            |
|           WW  WW  A    A  R   R   N   NN  II  N   NN  G    G                |
|           W    W  A    A  R    R  N    N  II  N    N   GGGG   !!!           |
|     Tetrahedron method does not include variations of the Fermi             |
|     occupations, so forces and stress will be inaccurate. We suggest        |
|     using a different smearing scheme ISMEAR = 1 or 2 for metals in         |
|     relaxations.                                                            |

 total charge

# of ion       s       p       d       tot
    1        0.449   0.283   9.190   9.922
    2        0.448   0.286   9.186   9.920
    3        0.448   0.286   9.186   9.920
    4        0.448   0.286   9.186   9.920
    5        0.450   0.286   9.181   9.917
    6        0.448   0.286   9.186   9.920
    7        0.448   0.286   9.186   9.920
    8        0.448   0.286   9.186   9.920
    9        0.448   0.283   9.191   9.922
   10        0.442   0.372   9.176   9.990
   11        0.445   0.364   9.182   9.991
   12        0.442   0.372   9.176   9.990
   13        0.445   0.364   9.182   9.991
   14        0.445   0.364   9.182   9.991
   15        0.438   0.372   9.176   9.986
   16        0.442   0.372   9.176   9.990
   17        0.438   0.372   9.176   9.986
   18        0.438   0.372   9.176   9.986
   19        0.443   0.370   9.180   9.992
   20        0.460   0.386   9.166  10.013
   21        0.460   0.386   9.166  10.013
   22        0.430   0.374   9.180   9.983
   23        0.460   0.386   9.166  10.013
   24        0.430   0.374   9.180   9.983
   25        0.443   0.370   9.180   9.992
   26        0.443   0.370   9.180   9.992
   27        0.430   0.374   9.180   9.983
   28        0.446   0.295   9.185   9.926
   29        0.476   0.311   9.169   9.956
   30        0.476   0.311   9.169   9.956
   31        0.476   0.311   9.169   9.956
   32        0.476   0.311   9.169   9.956
   33        0.476   0.311   9.169   9.956
   34        0.476   0.311   9.169   9.956
   35        0.446   0.298   9.185   9.928
   36        2.215   6.032   2.544  10.791
   37        0.936   1.420   0.000   2.356
   38        1.522   3.758   0.000   5.280
   39        0.569   0.138   0.000   0.707
tot         20.999  23.081 323.788 367.868

 BZINTS: Fermi energy:   -0.108169;  409.000000 electrons
         Band energy:-0.156422E+04;  BLOECHL correction:   -0.050438