 vasp.6.2.0 18Jan21 (build Jun 12 2021 23:27:24) complex

 executed on             LinuxIFC date 2022.05.26  19:18:48

 INCAR:
   ISMEAR = -5
   SIGMA = 0.1
   ISPIN = 1
   EDIFF = 1.d-5
   EDIFFG = -0.01
   NSW = 0
   NELM = 150
   ENCUT = 500
   ISIF = 2
   IBRION = 2
   LREAL = Auto
   ALGO = Fast
   ICHARG = 11
   LORBIT = 10
   LCHARG = .F.
   LWAVE = .F.

 POTCAR:    PAW_PBE Au 04Oct2007
 POTCAR:    PAW_PBE Cr 06Sep2000
 POTCAR:    PAW_PBE N 08Apr2002
|           W    W    AA    RRRRR   N    N  II  N    N   GGGG   !!!           |
|           W    W   A  A   R    R  NN   N  II  NN   N  G    G  !!!           |
|           W    W  A    A  R    R  N N  N  II  N N  N  G       !!!           |
|           W WW W  AAAAAA  RRRRR   N  N N  II  N  N N  G  GGG   !            |
|           WW  WW  A    A  R   R   N   NN  II  N   NN  G    G                |
|           W    W  A    A  R    R  N    N  II  N    N   GGGG   !!!           |
|     For optimal performance we recommend to set                             |
|       NCORE = 2 up to number-of-cores-per-socket                            |
|     This setting can greatly improve the performance of VASP for DFT.       |
|     The default, NCORE=1 might be grossly inefficient on modern             |
|     multi-core architectures or massively parallel machines. Do your        |
|     Unfortunately you need to use the default for GW and RPA                |
|     calculations (for HF NCORE is supported but not extensively tested      |
|     yet).                                                                   |

 POTCAR:    PAW_PBE Au 04Oct2007
   VRHFIN =Au: s1d10

   TITEL  = PAW_PBE Au 04Oct2007
   POMASS =  196.966; ZVAL   =   11.000    mass and valenz
   ENMAX  =  229.943; ENMIN  =  172.457 eV

 POTCAR:    PAW_PBE Cr 06Sep2000
   VRHFIN =Cr : d5 s1

   TITEL  = PAW_PBE Cr 06Sep2000
   POMASS =   51.996; ZVAL   =    6.000    mass and valenz
   ENMAX  =  227.080; ENMIN  =  170.310 eV

 POTCAR:    PAW_PBE N 08Apr2002
   VRHFIN =N: s2p3

   TITEL  = PAW_PBE N 08Apr2002
   POMASS =   14.001; ZVAL   =    5.000    mass and valenz
   ENMAX  =  400.000; ENMIN  =  300.000 eV

 Optimization of the real space projectors (new method)

 maximal supplied QI-value         = 15.12
 optimisation between [QCUT,QGAM] = [ 11.34, 22.83] = [ 36.00,145.93] Ry
 Optimized for a Real-space Cutoff    1.39 Angstroem

   l    n(q)    QCUT    max X(q) W(low)/X(q) W(high)/X(q)  e(spline)
   2      9    11.338    60.898    0.39E-03    0.42E-03    0.21E-06
   2      9    11.338    58.894    0.40E-03    0.42E-03    0.22E-06
   0      9    11.338   109.617    0.13E-03    0.20E-04    0.13E-06
   0      9    11.338    75.026    0.13E-03    0.20E-04    0.13E-06
   1      9    11.338    16.344    0.33E-04    0.24E-03    0.18E-06
   1      9    11.338    10.160    0.26E-04    0.19E-03    0.15E-06
 Optimization of the real space projectors (new method)

[...]

   l    n(q)    QCUT    max X(q) W(low)/X(q) W(high)/X(q)  e(spline)
   2      9    11.338    94.395    0.18E-03    0.10E-02    0.64E-06
   2      9    11.338    88.078    0.18E-03    0.10E-02    0.65E-06
   0     10    11.338    50.173    0.13E-03    0.16E-03    0.96E-07
   0     10    11.338    24.906    0.12E-03    0.14E-03    0.88E-07
   1      9    11.338    12.133    0.13E-03    0.15E-03    0.24E-06
   1      9    11.338     7.290    0.10E-03    0.10E-03    0.18E-06
 Optimization of the real space projectors (new method)

 maximal supplied QI-value         = 25.13
 optimisation between [QCUT,QGAM] = [ 11.31, 22.87] = [ 35.82,146.48] Ry
 Optimized for a Real-space Cutoff    1.27 Angstroem

   l    n(q)    QCUT    max X(q) W(low)/X(q) W(high)/X(q)  e(spline)
   0      9    11.310    79.467    0.75E-04    0.16E-03    0.36E-06
   0      9    11.310    66.151    0.74E-04    0.16E-03    0.36E-06
   1      8    11.310    17.416    0.35E-03    0.12E-03    0.95E-06
   1      8    11.310    12.382    0.37E-03    0.13E-03    0.98E-06
  PAW_PBE Au 04Oct2007                  :
  PAW_PBE Cr 06Sep2000                  :
  PAW_PBE N 08Apr2002                   :

 POSCAR: Au-Cr-N
  positions in direct lattice
  velocities in cartesian coordinates
 exchange correlation table for  LEXCH =        8
   RHO(1)=    0.500       N(1)  =     2000
   RHO(2)=  100.500       N(2)  =     4000

 VTST: version 3.2, (02/03/18)

 CHAIN: initializing optimizer

 OPT: Using VASP Conjugate-Gradient optimizer
 CHAIN: Read ICHAIN            0

 POSCAR: Au-Cr-N
  positions in direct lattice
  velocities in cartesian coordinates

 ion  position               nearest neighbor table
   1  0.000  0.000  0.238-  16 2.94  12 2.94   6 2.94   8 2.94   7 2.94   3 2.94  10 2.94   4 2.94
                             2 2.94
   2  0.333  0.000  0.238-   9 2.94  11 2.94  17 2.94  10 2.94   8 2.94   4 2.94   5 2.94   1 2.94
                             3 2.94
   3  0.667  0.000  0.238-   7 2.94  18 2.94  12 2.94   1 2.94  11 2.94   5 2.94   6 2.94   9 2.94
                             2 2.94
   4  0.000  0.333  0.238-  10 2.94   6 2.94   5 2.94  13 2.94   2 2.94  15 2.94   9 2.94   1 2.94
                             7 2.94
   5  0.333  0.333  0.238-  13 2.94   7 2.94  11 2.94   4 2.94   2 2.94  14 2.94   3 2.94   8 2.94
                             6 2.94
   6  0.667  0.333  0.238-  15 2.94  14 2.94   1 2.94  12 2.94   4 2.94   9 2.94   8 2.94   3 2.94
                             5 2.94
   7  0.000  0.667  0.238-  18 2.94   3 2.94  16 2.94   5 2.94   1 2.94  13 2.94   8 2.94   4 2.94
                             9 2.94
   8  0.333  0.667  0.238-   9 2.94  17 2.94   1 2.94   2 2.94  14 2.94  16 2.94   6 2.94   7 2.94
                             5 2.94
   9  0.667  0.667  0.238-   2 2.94   8 2.94  17 2.94   6 2.94  15 2.94   4 2.94   3 2.94  18 2.94
                             7 2.94
  10  0.111  0.111  0.346-  20 2.92  26 2.94  19 2.94  11 2.94  17 2.94   2 2.94   4 2.94   1 2.94
                            12 2.94  16 2.94  13 2.94  15 2.94
  11  0.444  0.111  0.346-  20 2.91  21 2.91  27 2.93  13 2.94   2 2.94  10 2.94  17 2.94   5 2.94
                             3 2.94  18 2.94  14 2.94  12 2.94
  12  0.778  0.111  0.346-  21 2.92  25 2.94  19 2.94  16 2.94  18 2.94   1 2.94  14 2.94  15 2.94
                             3 2.94   6 2.94  10 2.94  11 2.94
  13  0.111  0.444  0.346-  23 2.91  20 2.91  22 2.93   5 2.94  18 2.94  11 2.94   7 2.94   4 2.94
                            16 2.94  10 2.94  14 2.94  15 2.94
  14  0.444  0.444  0.346-  21 2.91  23 2.91  24 2.93  15 2.94   6 2.94  12 2.94   8 2.94  17 2.94
                             5 2.94  16 2.94  13 2.94  11 2.94
  15  0.778  0.444  0.346-  24 2.92  22 2.92  19 2.94  14 2.94   6 2.94  17 2.94  12 2.94   9 2.94
                             4 2.94  10 2.94  13 2.94  18 2.94
  16  0.111  0.778  0.346-  23 2.92  25 2.94  26 2.94  18 2.94  12 2.94   7 2.94   1 2.94   8 2.94
                            13 2.94  10 2.94  14 2.94  17 2.94
  17  0.444  0.778  0.346-  27 2.92  24 2.92  26 2.94   9 2.94  15 2.94   2 2.94  10 2.94  11 2.94
                             8 2.94  14 2.94  16 2.94  18 2.94
  18  0.778  0.778  0.346-  22 2.92  27 2.92  25 2.94  16 2.94   7 2.94  13 2.94  12 2.94   3 2.94
                            11 2.94   9 2.94  15 2.94  17 2.94
  19  0.889  0.222  0.454-  10 2.94  12 2.94  15 2.94  26 2.94  25 2.94  24 2.94  22 2.94  28 2.95
                            21 2.95  20 2.95  32 3.00  31 3.00
  20  0.223  0.223  0.453-  36 2.71  11 2.91  13 2.91  23 2.91  21 2.91  29 2.92  31 2.92  10 2.92
                            26 2.95  19 2.95  27 2.96  22 2.96
  21  0.553  0.223  0.453-  36 2.71  14 2.91  11 2.91  20 2.91  23 2.91  30 2.92  32 2.92  12 2.92
                            25 2.95  19 2.95  27 2.96  24 2.96
  22  0.886  0.557  0.453-  24 2.90  27 2.90  18 2.92  15 2.92  13 2.93  25 2.94  19 2.94  23 2.96
                            20 2.96  35 2.96  33 2.96  31 2.96
  23  0.223  0.553  0.453-  36 2.71  13 2.91  14 2.91  20 2.91  21 2.91  33 2.92  34 2.92  16 2.92
                            25 2.95  26 2.95  22 2.96  24 2.96
  24  0.557  0.557  0.453-  27 2.90  22 2.90  15 2.92  17 2.92  14 2.93  26 2.94  19 2.94  21 2.96
                            23 2.96  35 2.96  32 2.96  34 2.96
  25  0.889  0.889  0.454-  16 2.94  12 2.94  18 2.94  19 2.94  26 2.94  22 2.94  27 2.94  28 2.95
                            23 2.95  21 2.95  33 3.00  30 3.00
  26  0.222  0.889  0.454-  10 2.94  16 2.94  17 2.94  19 2.94  25 2.94  27 2.94  24 2.94  28 2.95
                            20 2.95  23 2.95  29 3.00  34 3.00
  27  0.557  0.886  0.453-  24 2.90  22 2.90  17 2.92  18 2.92  11 2.93  26 2.94  25 2.94  20 2.96
                            21 2.96  35 2.96  29 2.96  30 2.96
  28  0.000  0.000  0.563-  25 2.95  19 2.95  26 2.95  34 2.99  32 2.99  33 2.99  30 2.99  31 2.99
                            29 2.99
  29  0.334  0.011  0.562-  30 2.84  31 2.84  36 2.86  20 2.92  27 2.96  35 2.99  28 2.99  26 3.00
                            34 3.13
  30  0.655  0.011  0.562-  29 2.84  32 2.84  36 2.86  21 2.92  27 2.96  35 2.99  28 2.99  25 3.00
                            33 3.13
  31  0.011  0.334  0.562-  33 2.84  29 2.84  36 2.86  20 2.92  22 2.96  35 2.99  28 2.99  19 3.00
                            32 3.13
  32  0.655  0.334  0.562-  34 2.84  30 2.84  36 2.86  21 2.92  24 2.96  35 2.99  28 2.99  19 3.00
                            31 3.13
  33  0.011  0.655  0.562-  31 2.84  34 2.84  36 2.86  23 2.92  22 2.96  35 2.99  28 2.99  25 3.00
                            30 3.13
  34  0.334  0.655  0.562-  32 2.84  33 2.84  36 2.86  23 2.92  24 2.96  35 2.99  28 2.99  26 3.00
                            29 3.13
  35  0.667  0.667  0.563-  24 2.96  27 2.96  22 2.96  29 2.99  34 2.99  32 2.99  31 2.99  30 2.99
                            33 2.99
  36  0.333  0.333  0.549-  37 1.59  20 2.71  23 2.71  21 2.71  33 2.86  31 2.86  29 2.86  30 2.86
                            34 2.86  32 2.86
  37  0.333  0.333  0.620-  36 1.59

  LATTYP: Found a hexagonal cell.
 ALAT       =     8.8135128021
 C/A-ratio  =     2.5184286595

  Lattice vectors:

 A1 = (  -4.4067569092,  -7.6327256898,   0.0000000000)
 A2 = (   8.8135128021,   0.0000000000,   0.0000000000)
 A3 = (   0.0000000000,   0.0000000000,  22.1962032318)

Analysis of symmetry for initial positions (statically):
 Subroutine PRICEL returns:
 Original cell was already a primitive cell.

 Routine SETGRP: Setting up the symmetry group for a
 hexagonal supercell.

 Subroutine GETGRP returns: Found  6 space group operations
 (whereof  6 operations were pure point group operations)
 out of a pool of 24 trial point group operations.

The static configuration has the point symmetry C_3v.

Analysis of symmetry for dynamics (positions and initial velocities):
 Subroutine PRICEL returns:
 Original cell was already a primitive cell.

[...]

The dynamic configuration has the point symmetry C_3v.

Analysis of constrained symmetry for selective dynamics:
 Subroutine PRICEL returns:
 Original cell was already a primitive cell.

 Routine SETGRP: Setting up the symmetry group for a
 hexagonal supercell.

 Subroutine GETGRP returns: Found  6 space group operations
[...]
     24      -5.1324      2.00000
     25      -5.0934      2.00000
     26      -5.0798      2.00000
     27      -5.0381      2.00000
     28      -4.9615      2.00000
     29      -4.9375      2.00000
     30      -4.8264      2.00000
     31      -4.8199      2.00000
     32      -4.7980      2.00000
     33      -4.7841      2.00000
     34      -4.7744      2.00000
     35      -4.7357      2.00000
     36      -4.6443      2.00000
     37      -4.6270      2.00000
     38      -4.6002      2.00000
     39      -4.5756      2.00000
     40      -4.5185      2.00000
     41      -4.4541      2.00000
     42      -4.4226      2.00000
     43      -4.3865      2.00000
     44      -4.3555      2.00000
     45      -4.3491      2.00000
     46      -4.3152      2.00000
     47      -4.2289      2.00000
     48      -4.2103      2.00000
     49      -4.1849      2.00000
     50      -4.1549      2.00000
     51      -4.1492      2.00000
     52      -4.1446      2.00000
     53      -4.1201      2.00000
     54      -4.1030      2.00000
     55      -4.0624      2.00000
     56      -4.0333      2.00000
     57      -4.0164      2.00000
     58      -4.0031      2.00000
     59      -3.9852      2.00000
     60      -3.9809      2.00000
[...]
    238       6.4720      0.00000
    239       6.4841      0.00000
    240       6.5075      0.00000
    241       6.6303      0.00000
    242       6.7485      0.00000
    243       6.7978      0.00000
    244       6.8101      0.00000
    245       6.8619      0.00000
    246       7.1541      0.00000
    247       7.1912      0.00000
    248       7.3093      0.00000
    249       7.5390      0.00000
    250       7.6271      0.00000
    251       7.7567      0.00000
    252       7.8014      0.00000

 soft charge-density along one line, spin component           1
         0         1         2         3         4         5         6         7         8         9
 total charge-density along one line

------------------------ aborting loop because EDIFF is reached ----------------------------------------

 total charge

# of ion       s       p       d       tot
    1        0.547   0.240   8.765   9.552
    2        0.544   0.242   8.765   9.551
    3        0.544   0.242   8.765   9.551
    4        0.544   0.242   8.765   9.551
    5        0.542   0.241   8.765   9.547
    6        0.544   0.242   8.765   9.551
    7        0.544   0.242   8.765   9.551
    8        0.544   0.242   8.765   9.551
    9        0.543   0.241   8.767   9.551
   10        0.520   0.309   8.772   9.601
   11        0.519   0.311   8.776   9.606
   12        0.520   0.309   8.772   9.601
   13        0.519   0.311   8.776   9.606
   14        0.519   0.311   8.776   9.606
   15        0.516   0.311   8.773   9.600
   16        0.520   0.309   8.772   9.601
   17        0.516   0.311   8.773   9.600
   18        0.516   0.311   8.773   9.600
   19        0.517   0.298   8.777   9.592
   20        0.548   0.334   8.749   9.632
   21        0.548   0.334   8.749   9.632
   22        0.512   0.312   8.774   9.598
   23        0.548   0.334   8.749   9.632
   24        0.512   0.312   8.774   9.598
   25        0.517   0.298   8.777   9.592
   26        0.517   0.298   8.777   9.592
   27        0.512   0.312   8.774   9.598
   28        0.543   0.222   8.761   9.526
   29        0.554   0.239   8.759   9.552
   30        0.554   0.239   8.759   9.552
   31        0.554   0.239   8.759   9.552
   32        0.554   0.239   8.759   9.552
   33        0.554   0.239   8.759   9.552
   34        0.554   0.239   8.759   9.552
   35        0.540   0.224   8.761   9.525
   36        0.480   0.645   4.632   5.757
   37        1.357   2.185   0.000   3.542
tot         20.535  12.506 311.462 344.502

  FORCE on cell =-STRESS in cart. coord.  units (eV):
  Direction    XX          YY          ZZ          XY          YZ          ZX
  Alpha Z  1006.89198  1006.89198  1006.89198
  Ewald  118814.82251118814.82292************    -0.00032    -0.00009    -0.00013
  Hartree127442.38005127442.38006************     0.00001    -0.00002    -0.00003
  E(xc)   -1774.23312 -1774.23310 -1782.58926    -0.00002     0.00000     0.00000
  Local  ************************258673.90328     0.00191     0.00003     0.00001
  n-local   -92.70093   -47.77285   -47.66034    22.95031    -1.54081     1.54690
  augment  2394.24957  2394.25108  2408.57148    -0.00130     0.00001     0.00006
  Kinetic  5487.68850  5495.66719  5535.72601     5.38955     0.22621     0.36264
  Fock        0.00000     0.00000     0.00000     0.00000     0.00000     0.00000
  Total     -20.67347   -20.67347     1.56690    -0.00000     0.00000     0.00000
  in kB     -22.18281   -22.18281     1.68130    -0.00000     0.00000     0.00000

 VOLUME and BASIS-vectors are now :
  energy-cutoff  :      500.00
  volume of cell :     1493.16
      direct lattice vectors                 reciprocal lattice vectors
     8.813512802  0.000000000  0.000000000     0.113462137 -0.065507406  0.000000000
     4.406756909  7.632725690  0.000000000     0.000000000  0.131014796  0.000000000
     0.000000000  0.000000000 22.196203232     0.000000000  0.000000000  0.045052750

  length of vectors
     8.813512802  8.813512802 22.196203232     0.131014796  0.131014796  0.045052750

 FORCES acting on ions
    electron-ion (+dipol)            ewald-force                    non-local-force                 convergence-correction
   -.195E-04 -.161E-04 0.248E+04   0.519E-04 0.433E-04 -.248E+04   -.131E-17 -.412E-17 -.533E+00   -.216E-03 -.138E-03 -.184E+00
   0.538E+00 0.868E-01 0.248E+04   -.555E+00 -.179E+00 -.248E+04   -.253E-01 0.112E-01 -.338E+00   0.442E-01 0.752E-01 -.165E+00
   -.538E+00 0.868E-01 0.248E+04   0.555E+00 -.179E+00 -.248E+04   0.253E-01 0.112E-01 -.338E+00   -.439E-01 0.771E-01 -.165E+00
   0.344E+00 0.422E+00 0.248E+04   -.432E+00 -.392E+00 -.248E+04   -.293E-02 -.276E-01 -.338E+00   0.873E-01 0.593E-03 -.165E+00
   0.892E-05 -.230E-04 0.248E+04   0.951E-04 0.174E-05 -.248E+04   0.450E-18 0.179E-18 -.413E+00   0.422E-02 0.257E-02 -.160E+00
   -.344E+00 0.422E+00 0.248E+04   0.432E+00 -.392E+00 -.248E+04   0.293E-02 -.276E-01 -.338E+00   -.887E-01 0.150E-02 -.164E+00
   -.194E+00 -.509E+00 0.248E+04   0.123E+00 0.570E+00 -.248E+04   0.224E-01 0.163E-01 -.338E+00   0.449E-01 -.765E-01 -.165E+00
   0.194E+00 -.509E+00 0.248E+04   -.123E+00 0.570E+00 -.248E+04   -.224E-01 0.163E-01 -.338E+00   -.431E-01 -.776E-01 -.165E+00
   0.196E-04 -.417E-04 0.248E+04   0.166E-03 -.201E-04 -.248E+04   -.428E-17 -.454E-18 -.421E+00   -.455E-02 -.235E-02 -.143E+00
   0.360E+01 0.208E+01 0.823E+03   -.361E+01 -.208E+01 -.822E+03   -.171E+00 -.986E-01 -.466E+00   0.160E+00 0.924E-01 0.523E+00
   0.145E-04 0.357E+01 0.829E+03   0.147E-03 -.384E+01 -.829E+03   0.257E-08 0.386E-01 -.472E+00   0.388E-02 0.188E+00 0.631E+00
   -.360E+01 0.208E+01 0.823E+03   0.361E+01 -.208E+01 -.822E+03   0.171E+00 -.986E-01 -.466E+00   -.161E+00 0.931E-01 0.522E+00
   0.309E+01 -.178E+01 0.829E+03   -.333E+01 0.192E+01 -.829E+03   0.334E-01 -.193E-01 -.472E+00   0.165E+00 -.903E-01 0.631E+00
   -.309E+01 -.178E+01 0.829E+03   0.333E+01 0.192E+01 -.829E+03   -.334E-01 -.193E-01 -.472E+00   -.158E+00 -.912E-01 0.629E+00
   0.313E-04 0.417E+01 0.827E+03   0.236E-03 -.426E+01 -.827E+03   0.152E-08 0.228E-01 -.410E+00   -.192E-02 0.260E-01 0.498E+00
   -.213E-04 -.416E+01 0.823E+03   0.162E-03 0.417E+01 -.822E+03   0.131E-07 0.197E+00 -.466E+00   -.278E-03 -.186E+00 0.522E+00
   0.361E+01 -.208E+01 0.827E+03   -.369E+01 0.213E+01 -.827E+03   0.198E-01 -.114E-01 -.410E+00   0.218E-01 -.142E-01 0.498E+00
   -.361E+01 -.208E+01 0.827E+03   0.369E+01 0.213E+01 -.827E+03   -.198E-01 -.114E-01 -.410E+00   -.214E-01 -.126E-01 0.499E+00
   -.414E-04 0.602E+00 -.861E+03   0.549E-04 -.799E+00 0.859E+03   0.461E-08 0.692E-01 0.729E+00   0.817E-03 0.977E-01 0.923E+00
   0.999E+01 0.577E+01 -.832E+03   -.999E+01 -.577E+01 0.831E+03   -.898E+00 -.518E+00 -.582E+00   0.701E+00 0.404E+00 0.164E+01
   -.999E+01 0.577E+01 -.832E+03   0.999E+01 -.577E+01 0.831E+03   0.898E+00 -.518E+00 -.582E+00   -.706E+00 0.404E+00 0.164E+01
   -.300E+01 0.173E+01 -.845E+03   0.223E+01 -.129E+01 0.844E+03   0.423E+00 -.244E+00 0.692E+00   0.387E+00 -.223E+00 0.937E+00
   -.866E-05 -.115E+02 -.832E+03   0.140E-03 0.115E+02 0.831E+03   0.690E-07 0.104E+01 -.582E+00   -.373E-02 -.814E+00 0.164E+01
   0.300E+01 0.173E+01 -.845E+03   -.223E+01 -.129E+01 0.844E+03   -.423E+00 -.244E+00 0.692E+00   -.385E+00 -.222E+00 0.937E+00
   -.522E+00 -.301E+00 -.861E+03   0.692E+00 0.400E+00 0.859E+03   -.600E-01 -.346E-01 0.729E+00   -.847E-01 -.490E-01 0.923E+00
   0.522E+00 -.301E+00 -.861E+03   -.692E+00 0.400E+00 0.859E+03   0.600E-01 -.346E-01 0.729E+00   0.853E-01 -.481E-01 0.923E+00
   0.115E-04 -.347E+01 -.845E+03   0.197E-03 0.258E+01 0.844E+03   0.325E-07 0.489E+00 0.692E+00   -.270E-03 0.446E+00 0.937E+00
   -.123E-04 -.126E-04 -.247E+04   0.294E-04 0.332E-04 0.247E+04   -.268E-18 -.117E-17 0.549E+00   0.113E-03 0.483E-04 0.518E+00
   0.244E+02 0.374E+02 -.245E+04   -.243E+02 -.376E+02 0.245E+04   -.686E+00 -.976E+00 0.747E+00   0.487E+00 0.871E+00 0.379E+00
   -.244E+02 0.374E+02 -.245E+04   0.243E+02 -.376E+02 0.245E+04   0.686E+00 -.976E+00 0.747E+00   -.487E+00 0.872E+00 0.379E+00
   0.446E+02 0.237E+01 -.245E+04   -.447E+02 -.224E+01 0.245E+04   -.119E+01 -.106E+00 0.747E+00   0.997E+00 -.139E-01 0.379E+00
   -.446E+02 0.237E+01 -.245E+04   0.447E+02 -.224E+01 0.245E+04   0.119E+01 -.106E+00 0.747E+00   -.998E+00 -.131E-01 0.380E+00
   0.203E+02 -.398E+02 -.245E+04   -.204E+02 0.398E+02 0.245E+04   -.502E+00 0.108E+01 0.747E+00   0.512E+00 -.857E+00 0.379E+00
   -.203E+02 -.398E+02 -.245E+04   0.204E+02 0.398E+02 0.245E+04   0.502E+00 0.108E+01 0.747E+00   -.510E+00 -.858E+00 0.380E+00
   0.351E-04 -.298E-04 -.247E+04   0.141E-03 -.486E-04 0.247E+04   0.486E-17 0.600E-17 0.549E+00   -.423E-02 -.215E-02 0.577E+00
   -.170E-04 -.545E-05 -.113E+04   0.635E-04 0.589E-05 0.113E+04   -.538E-17 -.476E-17 0.260E+01   0.150E-02 0.919E-03 0.252E+00
   0.103E-03 -.576E-04 -.137E+04   0.242E-04 0.155E-05 0.139E+04   -.926E-18 -.409E-18 -.188E+02   0.160E-02 0.981E-03 -.132E+01
   -.679E-03 -.829E-03 -.407E+00   -.292E-13 0.200E-12 0.523E-11   0.110E-15 -.443E-15 -.156E+02   0.945E-03 0.119E-02 0.163E+02

 POSITION                                       TOTAL-FORCE (eV/Angst)
      0.00000      0.00000      5.28038         0.000000     -0.000000     -0.099671
      2.93784      0.00000      5.28038         0.001785     -0.004397     -0.053344
      5.87568      0.00000      5.28038        -0.001785     -0.004397     -0.053344
      1.46892      2.54424      5.28038        -0.002915      0.003745     -0.053344
      4.40676      2.54424      5.28038         0.000000      0.000000     -0.089665
      7.34459      2.54424      5.28038         0.002915      0.003745     -0.053344
      2.93784      5.08848      5.28038        -0.004701      0.000653     -0.053344
      5.87568      5.08848      5.28038         0.004701      0.000653     -0.053344
      8.81351      5.08848      5.28038         0.000000     -0.000000     -0.065424
      1.46892      0.84808      7.67911        -0.015265     -0.008813      0.103376
      4.40676      0.84808      7.67911        -0.000000     -0.051257      0.038266
      7.34459      0.84808      7.67911         0.015265     -0.008813      0.103376
      2.93784      3.39232      7.67911        -0.044390      0.025628      0.038266
      5.87568      3.39232      7.67911         0.044390      0.025628      0.038266
      8.81351      3.39232      7.67911        -0.000000     -0.048504      0.110432
      4.40676      5.93656      7.67911         0.000000      0.017627      0.103376
      7.34459      5.93656      7.67911        -0.042006      0.024252      0.110432
     10.28243      5.93656      7.67911         0.042006      0.024252      0.110432
      8.81351      1.69581     10.07501        -0.000000     -0.029642     -0.008648
      2.95207      1.70438     10.04871        -0.188913     -0.109069     -0.143379
      5.86144      1.70438     10.04871         0.188913     -0.109069     -0.143379
     10.26527      4.25031     10.05786         0.038586     -0.022278      0.017777
      4.40676      4.22397     10.04871         0.000000      0.218138     -0.143379
      7.36176      4.25031     10.05786        -0.038586     -0.022278      0.017777
     11.75166      6.78482     10.07501         0.025671      0.014821     -0.008648
      5.87537      6.78482     10.07501        -0.025671      0.014821     -0.008648
      8.81351      6.76483     10.05786         0.000000      0.044555      0.017777
      0.00000      0.00000     12.48798         0.000000     -0.000000     -0.027470
      2.98892      0.08359     12.48152        -0.148341     -0.268034     -0.201211
      5.82460      0.08359     12.48152         0.148341     -0.268034     -0.201211
      1.56685      2.54668     12.48152        -0.306295      0.005550     -0.201211
      7.24666      2.54668     12.48152         0.306295      0.005550     -0.201211
      2.98469      5.00245     12.48152        -0.157954      0.262484     -0.201211
      5.82882      5.00245     12.48152         0.157954      0.262484     -0.201211
      8.81351      5.08848     12.49580         0.000000      0.000000      0.019207
      4.40676      2.54424     12.17616         0.000000      0.000000      1.376138
      4.40676      2.54424     13.76416         0.000000     -0.000000      0.060746
    total drift:                                0.000266      0.000357      0.308358

  FREE ENERGIE OF THE ION-ELECTRON SYSTEM (eV)
  free  energy   TOTEN  =      -122.36167062 eV

  energy  without entropy=     -122.36167062  energy(sigma->0) =     -122.36167062

 stress matrix after NEB project (eV)
    -20.67347     -0.00000      0.00000
     -0.00000    -20.67347      0.00000
     -0.00000      0.00000      1.56690
  FORCES: max atom, RMS     0.060746    0.009987
  FORCE total and by dimension    0.060746    0.060746
  Stress total and by dimension   29.278662   20.673473
|           W    W    AA    RRRRR   N    N  II  N    N   GGGG   !!!           |
|           W    W   A  A   R    R  NN   N  II  NN   N  G    G  !!!           |
|           W    W  A    A  R    R  N N  N  II  N N  N  G       !!!           |
|           W WW W  AAAAAA  RRRRR   N  N N  II  N  N N  G  GGG   !            |
|           WW  WW  A    A  R   R   N   NN  II  N   NN  G    G                |
|           W    W  A    A  R    R  N    N  II  N    N   GGGG   !!!           |
|     Tetrahedron method does not include variations of the Fermi             |
|     occupations, so forces and stress will be inaccurate. We suggest        |
|     using a different smearing scheme ISMEAR = 1 or 2 for metals in         |
|     relaxations.                                                            |

 total charge

# of ion       s       p       d       tot
    1        0.547   0.240   8.765   9.552
    2        0.544   0.242   8.765   9.551
    3        0.544   0.242   8.765   9.551
    4        0.544   0.242   8.765   9.551
    5        0.542   0.241   8.765   9.547
    6        0.544   0.242   8.765   9.551
    7        0.544   0.242   8.765   9.551
    8        0.544   0.242   8.765   9.551
    9        0.543   0.241   8.767   9.551
   10        0.520   0.309   8.772   9.601
   11        0.519   0.311   8.776   9.606
   12        0.520   0.309   8.772   9.601
   13        0.519   0.311   8.776   9.606
   14        0.519   0.311   8.776   9.606
   15        0.516   0.311   8.773   9.600
   16        0.520   0.309   8.772   9.601
   17        0.516   0.311   8.773   9.600
   18        0.516   0.311   8.773   9.600
   19        0.517   0.298   8.777   9.592
   20        0.548   0.334   8.749   9.632
   21        0.548   0.334   8.749   9.632
   22        0.512   0.312   8.774   9.598
   23        0.548   0.334   8.749   9.632
   24        0.512   0.312   8.774   9.598
   25        0.517   0.298   8.777   9.592
   26        0.517   0.298   8.777   9.592
   27        0.512   0.312   8.774   9.598
   28        0.543   0.222   8.761   9.526
   29        0.554   0.239   8.759   9.552
   30        0.554   0.239   8.759   9.552
   31        0.554   0.239   8.759   9.552
   32        0.554   0.239   8.759   9.552
   33        0.554   0.239   8.759   9.552
   34        0.554   0.239   8.759   9.552
   35        0.540   0.224   8.761   9.525
   36        0.480   0.645   4.632   5.757
   37        1.357   2.185   0.000   3.542
tot         20.535  12.506 311.462 344.502

 BZINTS: Fermi energy:    0.657464;  396.000000 electrons
         Band energy:-0.123117E+04;  BLOECHL correction:   -0.044467