 vasp.6.2.0 18Jan21 (build Jun 12 2021 23:27:24) complex

 executed on             LinuxIFC date 2022.05.30  18:35:18

 INCAR:
   ISMEAR = -5
   SIGMA = 0.1
   ISPIN = 1
   EDIFF = 1.d-5
   EDIFFG = -0.01
   NSW = 0
   NELM = 150
   ENCUT = 500
   ISIF = 2
   IBRION = 2
   LREAL = Auto
   ALGO = Fast
   ICHARG = 11
   LORBIT = 10
   LCHARG = .F.
   LWAVE = .F.

 POTCAR:    PAW_PBE Cu 22Jun2005
 POTCAR:    PAW_PBE Ta 17Jan2003
 POTCAR:    PAW_PBE O 08Apr2002
|           W    W    AA    RRRRR   N    N  II  N    N   GGGG   !!!           |
|           W    W   A  A   R    R  NN   N  II  NN   N  G    G  !!!           |
|           W    W  A    A  R    R  N N  N  II  N N  N  G       !!!           |
|           W WW W  AAAAAA  RRRRR   N  N N  II  N  N N  G  GGG   !            |
|           WW  WW  A    A  R   R   N   NN  II  N   NN  G    G                |
|           W    W  A    A  R    R  N    N  II  N    N   GGGG   !!!           |
|     For optimal performance we recommend to set                             |
|       NCORE = 2 up to number-of-cores-per-socket                            |
|     This setting can greatly improve the performance of VASP for DFT.       |
|     The default, NCORE=1 might be grossly inefficient on modern             |
|     multi-core architectures or massively parallel machines. Do your        |
|     Unfortunately you need to use the default for GW and RPA                |
|     calculations (for HF NCORE is supported but not extensively tested      |
|     yet).                                                                   |

 POTCAR:    PAW_PBE Cu 22Jun2005
   VRHFIN =Cu: d10 p1

   TITEL  = PAW_PBE Cu 22Jun2005
   POMASS =   63.546; ZVAL   =   11.000    mass and valenz
   ENMAX  =  295.446; ENMIN  =  221.585 eV

 POTCAR:    PAW_PBE Ta 17Jan2003
   VRHFIN =Ta:  6s5d

   TITEL  = PAW_PBE Ta 17Jan2003
   POMASS =  180.948; ZVAL   =    5.000    mass and valenz
   ENMAX  =  223.667; ENMIN  =  167.750 eV

 POTCAR:    PAW_PBE O 08Apr2002
   VRHFIN =O: s2p4

   TITEL  = PAW_PBE O 08Apr2002
   POMASS =   16.000; ZVAL   =    6.000    mass and valenz
   ENMAX  =  400.000; ENMIN  =  300.000 eV

 Optimization of the real space projectors (new method)

 maximal supplied QI-value         = 16.25
 optimisation between [QCUT,QGAM] = [ 11.38, 22.75] = [ 36.24,144.96] Ry
 Optimized for a Real-space Cutoff    1.52 Angstroem

   l    n(q)    QCUT    max X(q) W(low)/X(q) W(high)/X(q)  e(spline)
   2      9    11.376     4.610    0.21E-03    0.10E-03    0.26E-06
   2      9    11.376     8.522    0.33E-03    0.16E-03    0.37E-06
   0     10    11.376    51.609    0.62E-04    0.20E-04    0.13E-06
   0     10    11.376    27.747    0.54E-04    0.20E-04    0.13E-06
   1     10    11.376    20.408    0.13E-04    0.99E-04    0.19E-06
   1     10    11.376    13.425    0.12E-04    0.87E-04    0.17E-06
 Optimization of the real space projectors (new method)

[...]

   l    n(q)    QCUT    max X(q) W(low)/X(q) W(high)/X(q)  e(spline)
   2     10    11.437    62.315    0.14E-03    0.26E-03    0.80E-06
   2     10    11.437    52.185    0.14E-03    0.26E-03    0.80E-06
   0     11    11.437   103.837    0.25E-04    0.17E-04    0.84E-07
   0     11    11.437    59.728    0.20E-04    0.15E-04    0.73E-07
   1     11    11.437    13.958    0.47E-03    0.12E-03    0.89E-06
   1     11    11.437     8.441    0.33E-03    0.88E-04    0.61E-06
 Optimization of the real space projectors (new method)

 maximal supplied QI-value         = 24.76
 optimisation between [QCUT,QGAM] = [ 11.39, 22.77] = [ 36.31,145.25] Ry
 Optimized for a Real-space Cutoff    1.00 Angstroem

   l    n(q)    QCUT    max X(q) W(low)/X(q) W(high)/X(q)  e(spline)
   0      7    11.387    20.381    0.39E-03    0.13E-02    0.15E-06
   0      7    11.387    15.268    0.42E-03    0.14E-02    0.17E-06
   1      6    11.387     5.964    0.41E-03    0.11E-02    0.17E-06
   1      6    11.387     5.382    0.39E-03    0.87E-03    0.15E-06
  PAW_PBE Cu 22Jun2005                  :
  PAW_PBE Ta 17Jan2003                  :
  PAW_PBE O 08Apr2002                   :

 POSCAR: Cu-Ta-O2
  positions in direct lattice
  velocities in cartesian coordinates
 exchange correlation table for  LEXCH =        8
   RHO(1)=    0.500       N(1)  =     2000
   RHO(2)=  100.500       N(2)  =     4000

 VTST: version 3.2, (02/03/18)

 CHAIN: initializing optimizer

 OPT: Using VASP Conjugate-Gradient optimizer
 CHAIN: Read ICHAIN            0

 POSCAR: Cu-Ta-O2
  positions in direct lattice
  velocities in cartesian coordinates

 ion  position               nearest neighbor table
   1  0.000  0.000  0.226-   7 2.57   3 2.57   4 2.57   2 2.57   6 2.57   8 2.57  12 2.57  10 2.57
                            16 2.57
   2  0.333  0.000  0.226-   8 2.57   9 2.57   5 2.57   1 2.57   3 2.57  11 2.57   4 2.57  10 2.57
                            17 2.57
   3  0.667  0.000  0.226-   1 2.57   7 2.57   6 2.57   9 2.57   2 2.57  12 2.57   5 2.57  18 2.57
                            11 2.57
   4  0.000  0.333  0.226-   5 2.57   6 2.57   1 2.57   7 2.57   2 2.57  13 2.57   9 2.57  10 2.57
                            15 2.57
   5  0.333  0.333  0.226-   4 2.57   2 2.57   7 2.57  13 2.57   8 2.57   6 2.57   3 2.57  11 2.57
                            14 2.57
   6  0.667  0.333  0.226-   4 2.57   9 2.57  15 2.57   3 2.57   1 2.57   8 2.57  14 2.57   5 2.57
                            12 2.57
   7  0.000  0.667  0.226-   1 2.57   3 2.57  16 2.57  18 2.57   4 2.57   5 2.57   8 2.57   9 2.57
                            13 2.57
   8  0.333  0.667  0.226-   9 2.57   2 2.57  17 2.57   6 2.57   1 2.57   7 2.57   5 2.57  14 2.57
                            16 2.57
   9  0.667  0.667  0.226-   8 2.57   6 2.57   2 2.57  17 2.57   3 2.57   7 2.57   4 2.57  15 2.57
                            18 2.57
  10  0.111  0.111  0.314-  20 2.55  26 2.56  19 2.56  11 2.57  12 2.57  13 2.57   1 2.57   2 2.57
                             4 2.57  15 2.57  16 2.57  17 2.57
  11  0.444  0.111  0.314-  20 2.56  21 2.56  10 2.57  13 2.57   2 2.57  17 2.57  14 2.57  12 2.57
                             5 2.57   3 2.57  18 2.57  27 2.57
  12  0.778  0.111  0.314-  21 2.55  19 2.56  25 2.56  15 2.57  10 2.57  14 2.57  18 2.57   3 2.57
                             1 2.57  16 2.57  11 2.57   6 2.57
  13  0.111  0.444  0.314-  23 2.56  20 2.56  16 2.57  18 2.57  10 2.57  11 2.57  14 2.57   5 2.57
                             4 2.57   7 2.57  15 2.57  22 2.57
  14  0.444  0.444  0.314-  21 2.56  23 2.56  15 2.57  17 2.57  12 2.57  16 2.57  13 2.57  11 2.57
                             6 2.57   8 2.57   5 2.57  24 2.57
  15  0.778  0.444  0.314-  19 2.56  14 2.57  17 2.57  12 2.57   6 2.57  18 2.57  10 2.57   9 2.57
                            13 2.57   4 2.57  24 2.57  22 2.57
  16  0.111  0.778  0.314-  23 2.55  25 2.56  26 2.56  18 2.57  13 2.57   7 2.57  14 2.57  17 2.57
                            12 2.57  10 2.57   8 2.57   1 2.57
  17  0.444  0.778  0.314-  26 2.56  14 2.57  15 2.57   8 2.57   9 2.57  11 2.57  16 2.57  18 2.57
                            10 2.57   2 2.57  27 2.57  24 2.57
  18  0.778  0.778  0.314-  25 2.56  16 2.57  13 2.57   7 2.57  15 2.57  12 2.57  17 2.57   9 2.57
                             3 2.57  11 2.57  22 2.57  27 2.57
  19  0.889  0.222  0.402-  12 2.56  10 2.56  15 2.56  21 2.56  20 2.56  25 2.56  26 2.56  22 2.57
                            24 2.57  28 2.57  32 2.59  31 2.59
  20  0.222  0.222  0.401-  10 2.55  11 2.56  13 2.56  26 2.56  19 2.56  27 2.57  22 2.57  23 2.58
                            21 2.58  36 2.61  29 2.61  31 2.61
  21  0.557  0.222  0.401-  12 2.55  14 2.56  11 2.56  19 2.56  25 2.56  24 2.57  27 2.57  20 2.58
                            23 2.58  36 2.61  32 2.61  30 2.61
  22  0.888  0.556  0.402-  24 2.56  27 2.56  19 2.57  25 2.57  23 2.57  20 2.57  18 2.57  15 2.57
                            35 2.57  13 2.57  31 2.59  33 2.59
  23  0.222  0.557  0.401-  16 2.55  13 2.56  14 2.56  25 2.56  26 2.56  22 2.57  24 2.57  20 2.58
                            21 2.58  36 2.61  33 2.61  34 2.61
  24  0.556  0.556  0.402-  22 2.56  27 2.56  19 2.57  26 2.57  21 2.57  23 2.57  15 2.57  17 2.57
                            35 2.57  14 2.57  32 2.59  34 2.59
  25  0.889  0.889  0.402-  12 2.56  16 2.56  18 2.56  21 2.56  23 2.56  19 2.56  26 2.56  22 2.57
                            27 2.57  28 2.57  33 2.59  30 2.59
  26  0.222  0.889  0.402-  10 2.56  16 2.56  17 2.56  20 2.56  23 2.56  25 2.56  19 2.56  27 2.57
                            24 2.57  28 2.57  29 2.59  34 2.59
  27  0.556  0.888  0.402-  24 2.56  22 2.56  26 2.57  25 2.57  20 2.57  21 2.57  17 2.57  18 2.57
                            35 2.57  11 2.57  29 2.59  30 2.59
  28  0.000  0.000  0.490-  33 2.55  30 2.55  31 2.55  29 2.55  32 2.55  34 2.55  25 2.57  19 2.57
                            26 2.57
  29  0.333  0.997  0.491-  34 2.52  35 2.55  28 2.55  31 2.59  27 2.59  36 2.59  30 2.59  26 2.59
                            20 2.61
  30  0.670  0.997  0.491-  33 2.52  35 2.55  28 2.55  32 2.59  27 2.59  36 2.59  29 2.59  25 2.59
                            21 2.61
  31  0.997  0.333  0.491-  37 1.89  32 2.52  35 2.55  28 2.55  29 2.59  22 2.59  36 2.59  33 2.59
                            19 2.59  20 2.61
  32  0.670  0.333  0.491-  38 1.89  31 2.52  35 2.55  28 2.55  30 2.59  24 2.59  36 2.59  34 2.59
                            19 2.59  21 2.61
  33  0.997  0.670  0.491-  37 2.03  30 2.52  35 2.55  28 2.55  34 2.59  22 2.59  36 2.59  31 2.59
                            25 2.59  23 2.61
  34  0.333  0.670  0.491-  38 2.03  29 2.52  35 2.55  28 2.55  33 2.59  24 2.59  36 2.59  32 2.59
                            26 2.59  23 2.61
  35  0.667  0.667  0.491-  34 2.55  32 2.55  29 2.55  30 2.55  33 2.55  31 2.55  24 2.57  27 2.57
                            22 2.57
  36  0.333  0.333  0.492-  38 1.91  37 1.91  31 2.59  29 2.59  33 2.59  34 2.59  32 2.59  30 2.59
                            23 2.61  20 2.61  21 2.61
  37  0.116  0.428  0.543-  31 1.89  36 1.91  33 2.03
  38  0.456  0.428  0.543-  32 1.89  36 1.91  34 2.03

  LATTYP: Found a hexagonal cell.
 ALAT       =     7.6967864036
 C/A-ratio  =     3.0908716217

  Lattice vectors:

 A1 = (  -3.8483927580,  -6.6656128093,   0.0000000000)
 A2 = (   7.6967864037,   0.0000000000,   0.0000000000)
 A3 = (   0.0000000000,   0.0000000000,  23.7897786731)

Analysis of symmetry for initial positions (statically):
 Subroutine PRICEL returns:
 Original cell was already a primitive cell.

 Routine SETGRP: Setting up the symmetry group for a
 hexagonal supercell.

 Subroutine GETGRP returns: Found  2 space group operations
 (whereof  2 operations were pure point group operations)
 out of a pool of 24 trial point group operations.

The static configuration has the point symmetry C_1h.

Analysis of symmetry for dynamics (positions and initial velocities):
 Subroutine PRICEL returns:
 Original cell was already a primitive cell.

[...]

The dynamic configuration has the point symmetry C_1h.

Analysis of constrained symmetry for selective dynamics:
 Subroutine PRICEL returns:
 Original cell was already a primitive cell.

[...]
     33      -4.6614      2.00000
     34      -4.6146      2.00000
     35      -4.6054      2.00000
     36      -4.6021      2.00000
     37      -4.5818      2.00000
     38      -4.5376      2.00000
     39      -4.5248      2.00000
     40      -4.5080      2.00000
     41      -4.4720      2.00000
     42      -4.4189      2.00000
     43      -4.3350      2.00000
     44      -4.2985      2.00000
     45      -4.2804      2.00000
     46      -4.2449      2.00000
     47      -4.2143      2.00000
     48      -4.1937      2.00000
     49      -4.1786      2.00000
     50      -4.1717      2.00000
     51      -4.1380      2.00000
     52      -4.1111      2.00000
     53      -4.0301      2.00000
     54      -4.0104      2.00000
     55      -3.9821      2.00000
     56      -3.9570      2.00000
     57      -3.9470      2.00000
     58      -3.9129      2.00000
     59      -3.8885      2.00000
     60      -3.8754      2.00000
[...]
    238       5.5635      0.00000
    239       5.7177      0.00000
    240       5.8285      0.00000
    241       5.8976      0.00000
    242       6.1068      0.00000
    243       6.1529      0.00000
    244       6.2426      0.00000
    245       6.3637      0.00000
    246       6.4235      0.00000
    247       6.4711      0.00000
    248       6.6011      0.00000
    249       6.7566      0.00000
    250       6.7654      0.00000
    251       7.0108      0.00000
    252       7.2135      0.00000

 soft charge-density along one line, spin component           1
         0         1         2         3         4         5         6         7         8         9
 total charge-density along one line

------------------------ aborting loop because EDIFF is reached ----------------------------------------

 total charge

# of ion       s       p       d       tot
    1        0.450   0.282   9.191   9.923
    2        0.447   0.287   9.184   9.918
    3        0.447   0.287   9.184   9.918
    4        0.448   0.285   9.187   9.920
    5        0.449   0.285   9.186   9.920
    6        0.448   0.285   9.187   9.920
    7        0.448   0.284   9.189   9.921
    8        0.448   0.284   9.189   9.921
    9        0.447   0.285   9.187   9.919
   10        0.444   0.370   9.179   9.993
   11        0.441   0.367   9.181   9.989
   12        0.444   0.370   9.179   9.993
   13        0.439   0.368   9.180   9.987
   14        0.439   0.368   9.180   9.987
   15        0.441   0.366   9.180   9.987
   16        0.442   0.371   9.177   9.991
   17        0.440   0.367   9.180   9.987
   18        0.440   0.367   9.180   9.987
   19        0.436   0.384   9.163   9.983
   20        0.472   0.397   9.161  10.031
   21        0.472   0.397   9.161  10.031
   22        0.434   0.370   9.179   9.983
   23        0.460   0.415   9.149  10.025
   24        0.434   0.370   9.179   9.983
   25        0.439   0.372   9.175   9.986
   26        0.439   0.372   9.175   9.986
   27        0.432   0.365   9.184   9.982
   28        0.448   0.289   9.191   9.929
   29        0.477   0.316   9.175   9.967
   30        0.477   0.316   9.175   9.967
   31        0.452   0.408   9.174  10.034
   32        0.452   0.408   9.174  10.034
   33        0.434   0.360   9.188   9.982
   34        0.434   0.360   9.188   9.982
   35        0.453   0.274   9.206   9.933
   36        0.768   0.974   3.586   5.329
   37        1.588   3.379   0.000   4.967
   38        1.588   3.379   0.000   4.967
tot         19.592  19.783 324.887 364.262

  FORCE on cell =-STRESS in cart. coord.  units (eV):
  Direction    XX          YY          ZZ          XY          YZ          ZX
  Alpha Z   818.21932   818.21932   818.21932
  Ewald  223521.77518223433.17593************     0.00045   -88.45286     0.00015
  Hartree236205.81252236176.34747************     0.00005   -99.94531     0.00004
  E(xc)   -2330.76534 -2330.28698 -2334.79665    -0.00033    -0.56152    -0.00003
  Local  ************************472723.29751     0.02016   189.62054    -0.00067
  n-local  -793.25392  -796.03954  -811.18727     1.51849     2.31611     0.05063
  augment  3323.88164  3323.81008  3342.46046    -0.01847    -0.04777     0.00032
  Kinetic  3444.75862  3449.26658  3473.40678     0.67592    -2.46372    -0.31366
  Fock        0.00000     0.00000     0.00000     0.00000     0.00000     0.00000
  Total       5.26877     2.13271    -0.44102    -0.00000     0.46546    -0.00000
  in kB       6.91640     2.79964    -0.57894    -0.00000     0.61102    -0.00000

 VOLUME and BASIS-vectors are now :
  energy-cutoff  :      500.00
  volume of cell :     1220.51
      direct lattice vectors                 reciprocal lattice vectors
     7.696786404  0.000000000  0.000000000     0.129924354 -0.075011849  0.000000000
     3.848392758  6.665612809  0.000000000     0.000000000  0.150023716  0.000000000
     0.000000000  0.000000000 23.789778673     0.000000000  0.000000000  0.042034859

  length of vectors
     7.696786404  7.696786404 23.789778673     0.150023716  0.150023716  0.042034859

 FORCES acting on ions
    electron-ion (+dipol)            ewald-force                    non-local-force                 convergence-correction
   -.412E-04 0.130E+00 0.375E+04   0.581E-04 0.116E-01 -.374E+04   0.595E-08 -.894E-01 -.248E+01   -.363E-03 -.334E-01 -.257E+00
   -.966E+00 -.756E+00 0.375E+04   0.826E+00 0.501E+00 -.374E+04   0.204E-01 0.211E+00 -.185E+01   0.132E+00 0.413E-01 -.270E+00
   0.966E+00 -.756E+00 0.375E+04   -.826E+00 0.501E+00 -.374E+04   -.204E-01 0.211E+00 -.185E+01   -.131E+00 0.437E-01 -.269E+00
   -.123E+01 -.232E+00 0.375E+04   0.833E+00 0.207E+00 -.374E+04   0.344E+00 -.465E-01 -.200E+01   0.517E-01 0.454E-01 -.197E+00
   -.617E-04 0.326E+00 0.374E+04   0.116E-03 -.266E+00 -.374E+04   0.283E-08 -.425E-01 -.159E+01   0.121E-01 -.281E-01 -.246E+00
   0.123E+01 -.232E+00 0.375E+04   -.833E+00 0.207E+00 -.374E+04   -.344E+00 -.465E-01 -.200E+01   -.532E-01 0.465E-01 -.196E+00
   -.824E-01 0.847E+00 0.375E+04   0.110E-01 -.706E+00 -.374E+04   0.434E-01 -.747E-01 -.205E+01   0.208E-01 -.553E-01 -.175E+00
   0.825E-01 0.847E+00 0.375E+04   -.112E-01 -.706E+00 -.374E+04   -.434E-01 -.747E-01 -.205E+01   -.174E-01 -.567E-01 -.175E+00
   -.143E-03 -.146E+00 0.375E+04   0.263E-03 0.250E+00 -.374E+04   0.578E-08 -.868E-01 -.209E+01   -.131E-01 0.458E-03 -.164E+00
   -.536E+01 -.182E+01 0.130E+04   0.554E+01 0.190E+01 -.129E+04   -.286E+00 -.132E+00 -.829E+00   0.531E-01 0.346E-01 0.154E+00
   -.905E-04 -.368E+01 0.128E+04   0.190E-03 0.373E+01 -.128E+04   0.530E-08 -.796E-01 0.553E-02   0.120E-01 -.256E-01 0.101E+00
   0.536E+01 -.182E+01 0.130E+04   -.554E+01 0.190E+01 -.129E+04   0.286E+00 -.132E+00 -.829E+00   -.549E-01 0.349E-01 0.153E+00
   -.448E+01 0.342E+01 0.128E+04   0.437E+01 -.332E+01 -.128E+04   0.510E-01 -.122E+00 -.259E+00   0.454E-01 0.474E-01 0.130E+00
   0.448E+01 0.342E+01 0.128E+04   -.437E+01 -.332E+01 -.128E+04   -.510E-01 -.122E+00 -.259E+00   -.223E-01 0.455E-01 0.127E+00
   -.138E-03 -.207E+01 0.130E+04   0.296E-03 0.195E+01 -.129E+04   -.478E-08 0.719E-01 -.108E+01   -.291E-02 0.541E-01 0.185E+00
   -.897E-04 0.391E+01 0.130E+04   0.186E-03 -.429E+01 -.130E+04   -.363E-07 0.545E+00 -.115E+01   -.126E-02 -.112E+00 0.214E+00
   -.241E+01 -.689E+00 0.129E+04   0.240E+01 0.734E+00 -.129E+04   -.275E-01 -.289E-01 -.780E+00   0.325E-01 -.304E-01 0.127E+00
   0.241E+01 -.689E+00 0.129E+04   -.240E+01 0.734E+00 -.129E+04   0.275E-01 -.289E-01 -.780E+00   -.306E-01 -.278E-01 0.130E+00
   -.654E-04 0.243E+01 -.115E+04   0.702E-04 -.213E+01 0.115E+04   0.112E-07 -.168E+00 0.463E+00   0.925E-03 0.256E-01 0.287E+00
   -.588E+02 -.168E+02 -.122E+04   0.589E+02 0.169E+02 0.122E+04   -.177E+00 -.270E+00 -.302E+00   -.729E-01 0.296E-01 0.104E+00
   0.588E+02 -.168E+02 -.122E+04   -.589E+02 0.169E+02 0.122E+04   0.177E+00 -.270E+00 -.302E+00   0.522E-01 0.256E-01 0.103E+00
   -.214E+02 0.867E+01 -.116E+04   0.216E+02 -.848E+01 0.116E+04   -.116E+00 -.195E+00 0.611E+00   -.368E-01 -.177E-01 0.116E+00
   -.902E-04 0.585E+02 -.120E+04   0.152E-03 -.599E+02 0.120E+04   -.912E-07 0.137E+01 -.661E+00   -.144E-01 0.115E+00 0.605E-01
   0.214E+02 0.867E+01 -.116E+04   -.216E+02 -.848E+01 0.116E+04   0.116E+00 -.195E+00 0.611E+00   0.610E-01 -.186E-01 0.116E+00
   0.915E+01 -.397E+01 -.116E+04   -.929E+01 0.365E+01 0.115E+04   -.467E-01 0.289E+00 0.870E+00   0.925E-01 -.394E-01 0.249E+00
   -.915E+01 -.397E+01 -.116E+04   0.929E+01 0.365E+01 0.115E+04   0.467E-01 0.289E+00 0.870E+00   -.116E+00 -.375E-01 0.249E+00
   -.123E-03 -.382E+02 -.119E+04   0.240E-03 0.384E+02 0.118E+04   0.302E-08 -.453E-01 0.133E+01   0.127E-01 -.534E-01 0.107E+00
   -.383E-04 0.323E+00 -.359E+04   0.420E-04 -.603E+00 0.359E+04   -.165E-07 0.248E+00 0.191E+01   -.169E-02 -.883E-02 0.499E+00
   -.566E+02 -.636E+02 -.360E+04   0.575E+02 0.627E+02 0.360E+04   -.645E+00 0.482E+00 0.150E+01   -.212E+00 -.969E-01 0.321E+00
   0.566E+02 -.636E+02 -.360E+04   -.575E+02 0.627E+02 0.360E+04   0.645E+00 0.482E+00 0.150E+01   0.235E+00 -.966E-01 0.319E+00
   0.256E+02 0.900E+02 -.347E+04   -.288E+02 -.916E+02 0.347E+04   0.202E+01 0.113E+01 0.146E+01   -.188E+00 -.522E-01 0.299E+00
   -.256E+02 0.900E+02 -.347E+04   0.288E+02 -.916E+02 0.347E+04   -.202E+01 0.113E+01 0.146E+01   0.211E+00 -.516E-01 0.300E+00
   -.310E+02 -.697E+02 -.350E+04   0.309E+02 0.739E+02 0.349E+04   -.279E+00 -.353E+01 0.316E+01   0.787E-01 0.157E+00 0.321E+00
   0.310E+02 -.697E+02 -.350E+04   -.309E+02 0.739E+02 0.349E+04   0.279E+00 -.353E+01 0.316E+01   -.547E-01 0.157E+00 0.324E+00
   -.159E-03 -.518E+02 -.359E+04   0.260E-03 0.527E+02 0.359E+04   0.342E-07 -.514E+00 0.348E+01   -.136E-01 -.736E-01 0.312E+00
   -.447E-04 0.737E+02 -.151E+04   0.579E-04 -.725E+02 0.151E+04   0.598E-07 -.898E+00 -.118E+00   -.459E-03 0.328E-01 0.108E+00
   -.432E+02 0.394E+02 -.242E+04   0.389E+02 -.351E+02 0.245E+04   0.438E+01 -.439E+01 -.282E+02   -.576E-01 0.288E-01 0.736E-01
   0.432E+02 0.394E+02 -.242E+04   -.389E+02 -.351E+02 0.245E+04   -.438E+01 -.439E+01 -.282E+02   0.575E-01 0.295E-01 0.745E-01
   0.618E-04 0.130E+02 0.555E+02   0.355E-13 -.355E-12 0.123E-10   0.868E-06 -.130E+02 -.593E+02   0.653E-01 0.793E-01 0.372E+01

 POSITION                                       TOTAL-FORCE (eV/Angst)
      0.00000      0.00000      5.37156        -0.000000      0.018716     -0.014513
      2.56560      0.00000      5.37156         0.011674     -0.002207      0.076298
      5.13119      0.00000      5.37156        -0.011674     -0.002207      0.076298
      1.28280      2.22187      5.37156        -0.003151     -0.026174      0.053660
      3.84839      2.22187      5.37156         0.000000     -0.010917      0.092729
      6.41399      2.22187      5.37156         0.003151     -0.026174      0.053660
      2.56560      4.44374      5.37156        -0.008850      0.009788      0.058354
      5.13119      4.44374      5.37156         0.008850      0.009788      0.058354
      7.69679      4.44374      5.37156        -0.000000      0.017342      0.041144
      1.28280      0.74062      7.46636        -0.056860     -0.017643     -0.078873
      3.84839      0.74062      7.46636         0.000000     -0.056728     -0.047583
      6.41399      0.74062      7.46636         0.056860     -0.017643     -0.078873
      2.56560      2.96249      7.46636        -0.025627      0.022380     -0.078499
      5.13119      2.96249      7.46636         0.025627      0.022380     -0.078499
      7.69679      2.96249      7.46636        -0.000000      0.007977     -0.070567
      3.84839      5.18437      7.46636        -0.000000      0.046852     -0.098294
      6.41399      5.18437      7.46636        -0.006950     -0.013921     -0.014887
      8.97958      5.18437      7.46636         0.006950     -0.013921     -0.014887
      7.69679      1.48082      9.55187        -0.000000      0.152926      0.391373
      2.55960      1.47778      9.55047        -0.199003     -0.133689     -0.482679
      5.13719      1.47778      9.55047         0.199003     -0.133689     -0.482679
      8.97653      3.70488      9.56926         0.027695     -0.026584      0.005834
      3.84839      3.71005      9.55047        -0.000000      0.087672     -0.101162
      6.41705      3.70488      9.56926        -0.027695     -0.026584      0.005834
     10.26275      5.92520      9.55187        -0.084669     -0.070775      0.213922
      5.13082      5.92520      9.55187         0.084669     -0.070775      0.213922
      7.69679      5.92146      9.56926        -0.000000      0.051184      0.071113
      0.00000      0.00000     11.65662         0.000000     -0.041950     -0.270937
      6.40243      6.64574     11.69071        -0.042671     -0.552047     -0.333467
      8.99114      6.64574     11.69071         0.042671     -0.552047     -0.333467
      8.95659      2.22180     11.69071        -1.443029     -0.546944     -0.504183
      6.43698      2.22180     11.69071         1.443029     -0.546944     -0.504183
     10.25095      4.46369     11.69071        -0.330045      0.902602     -0.125678
      5.14262      4.46369     11.69071         0.330045      0.902602     -0.125678
      7.69679      4.44374     11.67656        -0.000000      0.315536     -0.288082
      3.84839      2.22187     11.69355        -0.000000      0.340558      2.768118
      2.53872      2.85537     12.92818        -0.006079     -0.009370     -0.026471
      5.15806      2.85537     12.92818         0.006079     -0.009370     -0.026471
    total drift:                                0.065374      0.018104     -0.049062

  FREE ENERGIE OF THE ION-ELECTRON SYSTEM (eV)
  free  energy   TOTEN  =      -148.70595283 eV

  energy  without entropy=     -148.70595283  energy(sigma->0) =     -148.70595283

 stress matrix after NEB project (eV)
      5.26877     -0.00000     -0.00000
     -0.00000      2.13271      0.46546
     -0.00000      0.46546     -0.44102
  FORCES: max atom, RMS     0.028731    0.006591
  FORCE total and by dimension    0.040631    0.026471
  Stress total and by dimension    5.739007    5.268772
|           W    W    AA    RRRRR   N    N  II  N    N   GGGG   !!!           |
|           W    W   A  A   R    R  NN   N  II  NN   N  G    G  !!!           |
|           W    W  A    A  R    R  N N  N  II  N N  N  G       !!!           |
|           W WW W  AAAAAA  RRRRR   N  N N  II  N  N N  G  GGG   !            |
|           WW  WW  A    A  R   R   N   NN  II  N   NN  G    G                |
|           W    W  A    A  R    R  N    N  II  N    N   GGGG   !!!           |
|     Tetrahedron method does not include variations of the Fermi             |
|     occupations, so forces and stress will be inaccurate. We suggest        |
|     using a different smearing scheme ISMEAR = 1 or 2 for metals in         |
|     relaxations.                                                            |

 total charge

# of ion       s       p       d       tot
    1        0.450   0.282   9.191   9.923
    2        0.447   0.287   9.184   9.918
    3        0.447   0.287   9.184   9.918
    4        0.448   0.285   9.187   9.920
    5        0.449   0.285   9.186   9.920
    6        0.448   0.285   9.187   9.920
    7        0.448   0.284   9.189   9.921
    8        0.448   0.284   9.189   9.921
    9        0.447   0.285   9.187   9.919
   10        0.444   0.370   9.179   9.993
   11        0.441   0.367   9.181   9.989
   12        0.444   0.370   9.179   9.993
   13        0.439   0.368   9.180   9.987
   14        0.439   0.368   9.180   9.987
   15        0.441   0.366   9.180   9.987
   16        0.442   0.371   9.177   9.991
   17        0.440   0.367   9.180   9.987
   18        0.440   0.367   9.180   9.987
   19        0.436   0.384   9.163   9.983
   20        0.472   0.397   9.161  10.031
   21        0.472   0.397   9.161  10.031
   22        0.434   0.370   9.179   9.983
   23        0.460   0.415   9.149  10.025
   24        0.434   0.370   9.179   9.983
   25        0.439   0.372   9.175   9.986
   26        0.439   0.372   9.175   9.986
   27        0.432   0.365   9.184   9.982
   28        0.448   0.289   9.191   9.929
   29        0.477   0.316   9.175   9.967
   30        0.477   0.316   9.175   9.967
   31        0.452   0.408   9.174  10.034
   32        0.452   0.408   9.174  10.034
   33        0.434   0.360   9.188   9.982
   34        0.434   0.360   9.188   9.982
   35        0.453   0.274   9.206   9.933
   36        0.768   0.974   3.586   5.329
   37        1.588   3.379   0.000   4.967
   38        1.588   3.379   0.000   4.967
tot         19.592  19.783 324.887 364.262

 BZINTS: Fermi energy:   -0.463010;  402.000000 electrons
         Band energy:-0.142842E+04;  BLOECHL correction:   -0.032344