 vasp.6.2.0 18Jan21 (build Jun 12 2021 23:27:24) complex

 executed on             LinuxIFC date 2022.05.27  05:18:11

 INCAR:
   ISMEAR = -5
   SIGMA = 0.1
   ISPIN = 1
   EDIFF = 1.d-5
   EDIFFG = -0.01
   NSW = 0
   NELM = 150
   ENCUT = 500
   ISIF = 2
   IBRION = 2
   LREAL = Auto
   ALGO = Fast
   ICHARG = 11
   LORBIT = 10
   LCHARG = .F.
   LWAVE = .F.

 POTCAR:    PAW_PBE Au 04Oct2007
 POTCAR:    PAW_PBE Ta 17Jan2003
 POTCAR:    PAW_PBE N 08Apr2002
|           W    W    AA    RRRRR   N    N  II  N    N   GGGG   !!!           |
|           W    W   A  A   R    R  NN   N  II  NN   N  G    G  !!!           |
|           W    W  A    A  R    R  N N  N  II  N N  N  G       !!!           |
|           W WW W  AAAAAA  RRRRR   N  N N  II  N  N N  G  GGG   !            |
|           WW  WW  A    A  R   R   N   NN  II  N   NN  G    G                |
|           W    W  A    A  R    R  N    N  II  N    N   GGGG   !!!           |
|     For optimal performance we recommend to set                             |
|       NCORE = 2 up to number-of-cores-per-socket                            |
|     This setting can greatly improve the performance of VASP for DFT.       |
|     The default, NCORE=1 might be grossly inefficient on modern             |
|     multi-core architectures or massively parallel machines. Do your        |
|     Unfortunately you need to use the default for GW and RPA                |
|     calculations (for HF NCORE is supported but not extensively tested      |
|     yet).                                                                   |

 POTCAR:    PAW_PBE Au 04Oct2007
   VRHFIN =Au: s1d10

   TITEL  = PAW_PBE Au 04Oct2007
   POMASS =  196.966; ZVAL   =   11.000    mass and valenz
   ENMAX  =  229.943; ENMIN  =  172.457 eV

 POTCAR:    PAW_PBE Ta 17Jan2003
   VRHFIN =Ta:  6s5d

   TITEL  = PAW_PBE Ta 17Jan2003
   POMASS =  180.948; ZVAL   =    5.000    mass and valenz
   ENMAX  =  223.667; ENMIN  =  167.750 eV

 POTCAR:    PAW_PBE N 08Apr2002
   VRHFIN =N: s2p3

   TITEL  = PAW_PBE N 08Apr2002
   POMASS =   14.001; ZVAL   =    5.000    mass and valenz
   ENMAX  =  400.000; ENMIN  =  300.000 eV

 Optimization of the real space projectors (new method)

 maximal supplied QI-value         = 15.12
 optimisation between [QCUT,QGAM] = [ 11.34, 22.83] = [ 36.00,145.93] Ry
 Optimized for a Real-space Cutoff    1.39 Angstroem

   l    n(q)    QCUT    max X(q) W(low)/X(q) W(high)/X(q)  e(spline)
   2      9    11.338    60.898    0.39E-03    0.42E-03    0.21E-06
   2      9    11.338    58.894    0.40E-03    0.42E-03    0.22E-06
   0      9    11.338   109.617    0.13E-03    0.20E-04    0.13E-06
   0      9    11.338    75.026    0.13E-03    0.20E-04    0.13E-06
   1      9    11.338    16.344    0.33E-04    0.24E-03    0.18E-06
   1      9    11.338    10.160    0.26E-04    0.19E-03    0.15E-06
 Optimization of the real space projectors (new method)

[...]

   l    n(q)    QCUT    max X(q) W(low)/X(q) W(high)/X(q)  e(spline)
   2     10    11.437    62.315    0.14E-03    0.26E-03    0.80E-06
   2     10    11.437    52.185    0.14E-03    0.26E-03    0.80E-06
   0     11    11.437   103.837    0.25E-04    0.17E-04    0.84E-07
   0     11    11.437    59.728    0.20E-04    0.15E-04    0.73E-07
   1     11    11.437    13.958    0.47E-03    0.12E-03    0.89E-06
   1     11    11.437     8.441    0.33E-03    0.88E-04    0.61E-06
 Optimization of the real space projectors (new method)

 maximal supplied QI-value         = 25.13
 optimisation between [QCUT,QGAM] = [ 11.31, 22.87] = [ 35.82,146.48] Ry
 Optimized for a Real-space Cutoff    1.27 Angstroem

   l    n(q)    QCUT    max X(q) W(low)/X(q) W(high)/X(q)  e(spline)
   0      9    11.310    79.467    0.75E-04    0.16E-03    0.36E-06
   0      9    11.310    66.151    0.74E-04    0.16E-03    0.36E-06
   1      8    11.310    17.416    0.35E-03    0.12E-03    0.95E-06
   1      8    11.310    12.382    0.37E-03    0.13E-03    0.98E-06
  PAW_PBE Au 04Oct2007                  :
  PAW_PBE Ta 17Jan2003                  :
  PAW_PBE N 08Apr2002                   :

 POSCAR: Au-Ta-N2
  positions in direct lattice
  velocities in cartesian coordinates
 exchange correlation table for  LEXCH =        8
   RHO(1)=    0.500       N(1)  =     2000
   RHO(2)=  100.500       N(2)  =     4000

 VTST: version 3.2, (02/03/18)

 CHAIN: initializing optimizer

 OPT: Using VASP Conjugate-Gradient optimizer
 CHAIN: Read ICHAIN            0

 POSCAR: Au-Ta-N2
  positions in direct lattice
  velocities in cartesian coordinates

 ion  position               nearest neighbor table
   1  0.000  0.000  0.238-  16 2.94  12 2.94   6 2.94   8 2.94   7 2.94   3 2.94  10 2.94   4 2.94
                             2 2.94
   2  0.333  0.000  0.238-   9 2.94  11 2.94  17 2.94  10 2.94   8 2.94   4 2.94   5 2.94   1 2.94
                             3 2.94
   3  0.667  0.000  0.238-   7 2.94  18 2.94  12 2.94   1 2.94  11 2.94   5 2.94   6 2.94   9 2.94
                             2 2.94
   4  0.000  0.333  0.238-  10 2.94   6 2.94   5 2.94  13 2.94   2 2.94  15 2.94   9 2.94   1 2.94
                             7 2.94
   5  0.333  0.333  0.238-  13 2.94   7 2.94  11 2.94   4 2.94   2 2.94  14 2.94   3 2.94   8 2.94
                             6 2.94
   6  0.667  0.333  0.238-  15 2.94  14 2.94   1 2.94  12 2.94   4 2.94   9 2.94   8 2.94   3 2.94
                             5 2.94
   7  0.000  0.667  0.238-  18 2.94   3 2.94  16 2.94   5 2.94   1 2.94  13 2.94   8 2.94   4 2.94
                             9 2.94
   8  0.333  0.667  0.238-   9 2.94  17 2.94   1 2.94   2 2.94  14 2.94  16 2.94   6 2.94   7 2.94
                             5 2.94
   9  0.667  0.667  0.238-   2 2.94   8 2.94  17 2.94   6 2.94  15 2.94   4 2.94   3 2.94  18 2.94
                             7 2.94
  10  0.111  0.111  0.346-  20 2.91  11 2.94  17 2.94   2 2.94   4 2.94   1 2.94  12 2.94  16 2.94
                            13 2.94  15 2.94  26 2.96  19 2.96
  11  0.444  0.111  0.346-  20 2.91  21 2.91  13 2.94   2 2.94  10 2.94  17 2.94   5 2.94   3 2.94
                            18 2.94  14 2.94  12 2.94  27 2.94
  12  0.778  0.111  0.346-  21 2.91  16 2.94  18 2.94   1 2.94  14 2.94  15 2.94   3 2.94   6 2.94
                            10 2.94  11 2.94  25 2.96  19 2.96
  13  0.111  0.444  0.346-  23 2.91  20 2.91   5 2.94  18 2.94  11 2.94   7 2.94   4 2.94  16 2.94
                            10 2.94  14 2.94  15 2.94  22 2.94
  14  0.444  0.444  0.346-  21 2.91  23 2.91  15 2.94   6 2.94  12 2.94   8 2.94  17 2.94   5 2.94
                            16 2.94  13 2.94  11 2.94  24 2.94
  15  0.778  0.444  0.346-  24 2.92  22 2.92  14 2.94   6 2.94  17 2.94  12 2.94   9 2.94   4 2.94
                            10 2.94  13 2.94  18 2.94  19 2.95
  16  0.111  0.778  0.346-  23 2.91  18 2.94  12 2.94   7 2.94   1 2.94   8 2.94  13 2.94  10 2.94
                            14 2.94  17 2.94  25 2.96  26 2.96
  17  0.444  0.778  0.346-  27 2.92  24 2.92   9 2.94  15 2.94   2 2.94  10 2.94  11 2.94   8 2.94
                            14 2.94  16 2.94  18 2.94  26 2.95
  18  0.778  0.778  0.346-  22 2.92  27 2.92  16 2.94   7 2.94  13 2.94  12 2.94   3 2.94  11 2.94
                             9 2.94  15 2.94  17 2.94  25 2.95
  19  0.888  0.223  0.455-  24 2.93  22 2.93  21 2.93  20 2.93  28 2.95  15 2.95  26 2.95  25 2.95
                            10 2.96  12 2.96  32 3.06  31 3.06
  20  0.222  0.222  0.453-  36 2.74  10 2.91  11 2.91  13 2.91  26 2.93  19 2.93  23 2.95  21 2.95
                            27 2.95  22 2.95  29 2.99  31 2.99
  21  0.556  0.222  0.453-  36 2.74  12 2.91  14 2.91  11 2.91  25 2.93  19 2.93  20 2.95  23 2.95
                            27 2.95  24 2.95  30 2.99  32 2.99
  22  0.886  0.557  0.454-  24 2.91  27 2.91  18 2.92  15 2.92  25 2.93  19 2.93  13 2.94  23 2.95
                            20 2.95  35 2.96  33 3.03  31 3.03
  23  0.222  0.556  0.453-  36 2.74  16 2.91  13 2.91  14 2.91  25 2.93  26 2.93  20 2.95  21 2.95
                            22 2.95  24 2.95  33 2.99  34 2.99
  24  0.557  0.557  0.454-  27 2.91  22 2.91  15 2.92  17 2.92  26 2.93  19 2.93  14 2.94  21 2.95
                            23 2.95  35 2.96  32 3.03  34 3.03
  25  0.888  0.888  0.455-  22 2.93  27 2.93  23 2.93  21 2.93  28 2.95  18 2.95  19 2.95  26 2.95
                            16 2.96  12 2.96  33 3.06  30 3.06
  26  0.223  0.888  0.455-  27 2.93  24 2.93  20 2.93  23 2.93  28 2.95  17 2.95  19 2.95  25 2.95
                            10 2.96  16 2.96  29 3.06  34 3.06
  27  0.557  0.886  0.454-  24 2.91  22 2.91  17 2.92  18 2.92  26 2.93  25 2.93  11 2.94  20 2.95
                            21 2.95  35 2.96  29 3.03  30 3.03
  28  0.000  0.000  0.563-  25 2.95  19 2.95  26 2.95  34 3.00  32 3.00  33 3.00  30 3.00  31 3.00
                            29 3.00
  29  0.334  0.012  0.567-  30 2.82  31 2.84  36 2.85  35 2.99  20 2.99  28 3.00  27 3.03  26 3.06
                            34 3.16
  30  0.654  0.012  0.567-  29 2.82  32 2.84  36 2.85  35 2.99  21 2.99  28 3.00  27 3.03  25 3.06
                            33 3.16
  31  0.012  0.334  0.567-  33 2.82  29 2.84  36 2.85  35 2.99  20 2.99  28 3.00  22 3.03  19 3.06
                            32 3.16
  32  0.654  0.334  0.567-  34 2.82  30 2.84  36 2.85  35 2.99  21 2.99  28 3.00  24 3.03  19 3.06
                            31 3.16
  33  0.012  0.654  0.567-  31 2.82  34 2.84  36 2.85  35 2.99  23 2.99  28 3.00  22 3.03  25 3.06
                            30 3.16
  34  0.334  0.654  0.567-  32 2.82  33 2.84  36 2.85  35 2.99  23 2.99  28 3.00  24 3.03  26 3.06
                            29 3.16
  35  0.667  0.667  0.563-  24 2.96  27 2.96  22 2.96  29 2.99  34 2.99  32 2.99  31 2.99  30 2.99
                            33 2.99
  36  0.333  0.333  0.550-  20 2.74  23 2.74  21 2.74  33 2.85  31 2.85  29 2.85  30 2.85  34 2.85
                            32 2.85
  37  0.269  0.335  0.743-  38 1.11
  38  0.396  0.335  0.743-  37 1.11

  LATTYP: Found a hexagonal cell.
 ALAT       =     8.8135128021
 C/A-ratio  =     2.5184286595

  Lattice vectors:

 A1 = (  -4.4067569092,  -7.6327256898,   0.0000000000)
 A2 = (   8.8135128021,   0.0000000000,   0.0000000000)
 A3 = (   0.0000000000,   0.0000000000,  22.1962032318)

Analysis of symmetry for initial positions (statically):
 Subroutine PRICEL returns:
 Original cell was already a primitive cell.

 Routine SETGRP: Setting up the symmetry group for a
 hexagonal supercell.

 Subroutine GETGRP returns: Found  2 space group operations
 (whereof  2 operations were pure point group operations)
 out of a pool of 24 trial point group operations.

The static configuration has the point symmetry C_1h.

Analysis of symmetry for dynamics (positions and initial velocities):
 Subroutine PRICEL returns:
 Original cell was already a primitive cell.

[...]

The dynamic configuration has the point symmetry C_1h.

Analysis of constrained symmetry for selective dynamics:
 Subroutine PRICEL returns:
 Original cell was already a primitive cell.

 Routine SETGRP: Setting up the symmetry group for a
 hexagonal supercell.

[...]
     33      -4.7427      2.00000
     34      -4.7224      2.00000
     35      -4.7002      2.00000
     36      -4.6071      2.00000
     37      -4.5860      2.00000
     38      -4.5706      2.00000
     39      -4.5665      2.00000
     40      -4.5613      2.00000
     41      -4.4302      2.00000
     42      -4.3656      2.00000
     43      -4.3154      2.00000
     44      -4.2825      2.00000
     45      -4.2504      2.00000
     46      -4.2403      2.00000
     47      -4.2251      2.00000
     48      -4.1995      2.00000
     49      -4.1761      2.00000
     50      -4.1480      2.00000
     51      -4.0760      2.00000
     52      -4.0565      2.00000
     53      -4.0131      2.00000
     54      -3.9972      2.00000
     55      -3.9877      2.00000
     56      -3.9730      2.00000
     57      -3.9516      2.00000
     58      -3.9363      2.00000
     59      -3.9077      2.00000
     60      -3.8730      2.00000
[...]
    238       6.1711      0.00000
    239       6.3125      0.00000
    240       6.4292      0.00000
    241       6.4353      0.00000
    242       6.5332      0.00000
    243       6.6178      0.00000
    244       6.6867      0.00000
    245       6.7271      0.00000
    246       6.8761      0.00000
    247       6.9423      0.00000
    248       7.0102      0.00000
    249       7.2071      0.00000
    250       7.3169      0.00000
    251       7.3898      0.00000
    252       7.4177      0.00000

 soft charge-density along one line, spin component           1
         0         1         2         3         4         5         6         7         8         9
 total charge-density along one line

------------------------ aborting loop because EDIFF is reached ----------------------------------------

 total charge

# of ion       s       p       d       tot
    1        0.549   0.236   8.767   9.553
    2        0.540   0.241   8.766   9.547
    3        0.540   0.241   8.766   9.547
    4        0.540   0.241   8.766   9.547
    5        0.547   0.241   8.761   9.549
    6        0.540   0.241   8.766   9.547
    7        0.541   0.241   8.766   9.547
    8        0.541   0.241   8.766   9.547
    9        0.544   0.239   8.766   9.550
   10        0.528   0.306   8.766   9.600
   11        0.520   0.307   8.780   9.607
   12        0.528   0.306   8.766   9.600
   13        0.520   0.307   8.780   9.607
   14        0.520   0.307   8.780   9.607
   15        0.516   0.307   8.774   9.597
   16        0.528   0.306   8.766   9.600
   17        0.516   0.307   8.774   9.597
   18        0.516   0.307   8.774   9.597
   19        0.517   0.296   8.768   9.581
   20        0.582   0.348   8.714   9.644
   21        0.582   0.348   8.714   9.644
   22        0.508   0.304   8.779   9.591
   23        0.582   0.348   8.714   9.644
   24        0.508   0.304   8.779   9.591
   25        0.517   0.296   8.768   9.581
   26        0.517   0.296   8.768   9.581
   27        0.508   0.304   8.779   9.591
   28        0.538   0.226   8.753   9.517
   29        0.595   0.253   8.721   9.569
   30        0.595   0.253   8.721   9.569
   31        0.595   0.253   8.721   9.569
   32        0.595   0.253   8.721   9.569
   33        0.595   0.254   8.721   9.569
   34        0.595   0.254   8.721   9.569
   35        0.537   0.227   8.756   9.520
   36        0.645   0.550   2.864   4.060
   37        1.373   2.468   0.000   3.841
   38        1.373   2.468   0.000   3.841
tot         22.435  15.228 309.329 346.993

  FORCE on cell =-STRESS in cart. coord.  units (eV):
  Direction    XX          YY          ZZ          XY          YZ          ZX
  Alpha Z  1034.09426  1034.09426  1034.09426
  Ewald  111489.94438111170.63473************    -0.00032    -0.47307    -0.00017
  Hartree120099.76159119987.47735************     0.00000    -0.45176    -0.00005
  E(xc)   -1789.66285 -1790.90259 -1798.45389    -0.00001     0.00015     0.00000
  Local  ************************243204.61525     0.00239     0.92779     0.00009
  n-local   -75.28295   -62.73499   -33.52099     4.80405     0.00349     0.14783
  augment  2365.22560  2364.92153  2386.30402    -0.00134    -0.00044     0.00005
  Kinetic  5566.64222  5584.70122  5653.03160     0.99531    -0.00553    -0.00771
  Fock        0.00000     0.00000     0.00000     0.00000     0.00000     0.00000
  Total     -24.19954   -24.19377     2.36782    -0.00000     0.00063     0.00000
  in kB     -25.96632   -25.96012     2.54069    -0.00000     0.00068     0.00000

 VOLUME and BASIS-vectors are now :
  energy-cutoff  :      500.00
  volume of cell :     1493.16
      direct lattice vectors                 reciprocal lattice vectors
     8.813512802  0.000000000  0.000000000     0.113462137 -0.065507406  0.000000000
     4.406756909  7.632725690  0.000000000     0.000000000  0.131014796  0.000000000
     0.000000000  0.000000000 22.196203232     0.000000000  0.000000000  0.045052750

  length of vectors
     8.813512802  8.813512802 22.196203232     0.131014796  0.131014796  0.045052750

 FORCES acting on ions
    electron-ion (+dipol)            ewald-force                    non-local-force                 convergence-correction
   -.199E-04 0.734E-02 0.244E+04   0.519E-04 -.377E-02 -.244E+04   -.383E-10 -.575E-03 -.702E+00   -.188E-03 -.299E-02 -.225E+00
   0.500E+00 -.235E+00 0.244E+04   -.504E+00 0.646E-01 -.244E+04   0.292E-01 0.143E+00 -.346E+00   -.230E-01 0.134E-01 -.219E+00
   -.501E+00 -.235E+00 0.244E+04   0.504E+00 0.646E-01 -.244E+04   -.292E-01 0.143E+00 -.346E+00   0.232E-01 0.152E-01 -.219E+00
   0.383E-01 0.548E+00 0.244E+04   -.193E+00 -.471E+00 -.244E+04   0.139E+00 -.462E-01 -.348E+00   0.399E-02 -.217E-01 -.220E+00
   0.733E-05 -.654E-02 0.244E+04   0.951E-04 -.984E-03 -.244E+04   -.111E-10 -.166E-03 0.198E+00   0.419E-02 0.796E-02 -.123E+00
   -.384E-01 0.548E+00 0.244E+04   0.193E+00 -.471E+00 -.244E+04   -.139E+00 -.462E-01 -.348E+00   -.544E-02 -.207E-01 -.219E+00
   -.457E+00 -.314E+00 0.244E+04   0.311E+00 0.407E+00 -.244E+04   0.109E+00 -.965E-01 -.346E+00   0.249E-01 0.834E-02 -.217E+00
   0.457E+00 -.314E+00 0.244E+04   -.311E+00 0.407E+00 -.244E+04   -.109E+00 -.965E-01 -.346E+00   -.231E-01 0.732E-02 -.217E+00
   0.198E-04 0.851E-03 0.244E+04   0.166E-03 0.478E-02 -.244E+04   0.366E-10 0.550E-03 -.373E+00   -.454E-02 -.617E-02 -.133E+00
   0.461E+01 0.268E+01 0.803E+03   -.423E+01 -.246E+01 -.802E+03   -.393E+00 -.226E+00 -.620E+00   -.220E-01 -.135E-01 -.767E-01
   0.136E-04 0.156E+00 0.805E+03   0.148E-03 -.166E+00 -.805E+03   -.284E-08 -.426E-01 -.575E-01   0.373E-02 -.107E-01 -.571E-01
   -.461E+01 0.268E+01 0.803E+03   0.423E+01 -.246E+01 -.802E+03   0.393E+00 -.226E+00 -.620E+00   0.209E-01 -.130E-01 -.783E-01
   0.123E+00 -.857E-01 0.805E+03   -.129E+00 0.825E-01 -.805E+03   -.370E-01 0.215E-01 -.585E-01   -.857E-02 0.136E-01 -.597E-01
   -.123E+00 -.857E-01 0.805E+03   0.128E+00 0.826E-01 -.805E+03   0.370E-01 0.215E-01 -.585E-01   0.155E-01 0.129E-01 -.616E-01
   0.321E-04 0.525E+01 0.808E+03   0.235E-03 -.539E+01 -.807E+03   0.184E-09 0.277E-02 -.522E+00   -.166E-02 0.569E-01 -.847E-01
   -.211E-04 -.533E+01 0.803E+03   0.162E-03 0.489E+01 -.802E+03   0.302E-07 0.453E+00 -.619E+00   -.240E-03 0.224E-01 -.799E-01
   0.455E+01 -.263E+01 0.808E+03   -.468E+01 0.271E+01 -.807E+03   0.267E-02 -.193E-02 -.518E+00   0.452E-01 -.312E-01 -.849E-01
   -.455E+01 -.263E+01 0.808E+03   0.468E+01 0.271E+01 -.807E+03   -.267E-02 -.193E-02 -.518E+00   -.448E-01 -.298E-01 -.842E-01
   -.435E-04 -.192E+01 -.856E+03   0.561E-04 0.204E+01 0.856E+03   -.407E-08 -.611E-01 0.491E+00   0.511E-02 -.521E-01 0.191E+00
   -.151E+02 -.859E+01 -.844E+03   0.161E+02 0.919E+01 0.846E+03   -.102E+01 -.588E+00 -.141E+01   -.141E-01 -.978E-02 0.115E+00
   0.151E+02 -.859E+01 -.844E+03   -.161E+02 0.919E+01 0.846E+03   0.102E+01 -.588E+00 -.141E+01   0.669E-02 -.100E-01 0.114E+00
   -.176E+02 0.101E+02 -.839E+03   0.172E+02 -.984E+01 0.838E+03   0.401E+00 -.233E+00 0.573E+00   -.174E-01 0.767E-02 0.905E-01
   -.102E-04 0.173E+02 -.844E+03   0.137E-03 -.185E+02 0.846E+03   0.785E-07 0.118E+01 -.141E+01   -.381E-02 0.940E-02 0.113E+00
   0.176E+02 0.101E+02 -.839E+03   -.172E+02 -.984E+01 0.838E+03   -.401E+00 -.233E+00 0.573E+00   0.188E-01 0.881E-02 0.899E-01
   0.173E+01 0.102E+01 -.856E+03   -.185E+01 -.109E+01 0.856E+03   0.546E-01 0.323E-01 0.485E+00   0.539E-01 0.315E-01 0.187E+00
   -.173E+01 0.102E+01 -.856E+03   0.185E+01 -.109E+01 0.856E+03   -.546E-01 0.323E-01 0.485E+00   -.533E-01 0.335E-01 0.188E+00
   0.105E-04 -.203E+02 -.839E+03   0.198E-03 0.199E+02 0.838E+03   0.308E-07 0.462E+00 0.570E+00   -.283E-03 -.175E-01 0.916E-01
   -.112E-04 0.595E+00 -.236E+04   0.283E-04 -.597E+00 0.236E+04   -.222E-10 -.333E-03 0.514E+00   0.157E-02 0.199E-02 0.103E+00
   0.227E+01 -.522E+01 -.238E+04   -.785E+00 0.739E+01 0.238E+04   -.143E+01 -.216E+01 -.590E+00   -.474E-01 0.357E-02 0.987E-01
   -.227E+01 -.522E+01 -.238E+04   0.785E+00 0.739E+01 0.238E+04   0.143E+01 -.216E+01 -.590E+00   0.409E-01 0.438E-02 0.990E-01
   -.361E+01 0.525E+01 -.238E+04   0.622E+01 -.505E+01 0.238E+04   -.258E+01 -.160E+00 -.558E+00   -.200E-01 -.446E-01 0.970E-01
   0.361E+01 0.525E+01 -.238E+04   -.622E+01 -.505E+01 0.238E+04   0.258E+01 -.160E+00 -.558E+00   0.137E-01 -.435E-01 0.982E-01
   -.652E+01 -.496E-01 -.238E+04   0.765E+01 -.231E+01 0.238E+04   -.115E+01 0.232E+01 -.590E+00   0.241E-01 0.307E-01 0.996E-01
   0.652E+01 -.496E-01 -.238E+04   -.765E+01 -.231E+01 0.238E+04   0.115E+01 0.232E+01 -.590E+00   -.289E-01 0.308E-01 0.100E+00
   0.342E-04 -.734E+00 -.237E+04   0.141E-03 0.735E+00 0.237E+04   0.659E-10 0.991E-03 0.639E+00   -.296E-02 -.218E-02 0.989E-01
   -.234E-04 0.731E-01 -.101E+04   0.527E-04 -.727E-01 0.101E+04   0.726E-11 0.109E-03 0.257E+01   0.437E-03 0.999E-04 0.513E-01
   0.239E+03 0.647E-01 -.808E+03   -.285E+03 -.626E-01 0.808E+03   0.456E+02 0.241E-03 -.127E+00   0.104E-02 -.152E-02 0.751E-03
   -.239E+03 0.647E-01 -.808E+03   0.285E+03 -.626E-01 0.808E+03   -.456E+02 0.241E-03 -.127E+00   -.107E-02 -.151E-02 0.723E-03
   -.712E-03 0.937E-02 0.826E+01   -.568E-13 0.225E-12 0.102E-11   0.298E-09 0.447E-02 -.762E+01   -.149E-01 -.122E-01 -.433E+00

 POSITION                                       TOTAL-FORCE (eV/Angst)
      0.00000      0.00000      5.28038        -0.000000     -0.000041     -0.154481
      2.93784      0.00000      5.28038         0.002949     -0.013258     -0.054626
      5.87568      0.00000      5.28038        -0.002949     -0.013258     -0.054626
      1.46892      2.54424      5.28038        -0.010074      0.008912     -0.054850
      4.40676      2.54424      5.28038         0.000000      0.000228     -0.067821
      7.34459      2.54424      5.28038         0.010074      0.008912     -0.054850
      2.93784      5.08848      5.28038        -0.012546      0.004082     -0.054908
      5.87568      5.08848      5.28038         0.012546      0.004082     -0.054908
      8.81351      5.08848      5.28038        -0.000000     -0.000036     -0.075508
      1.46892      0.84808      7.67911        -0.031117     -0.017769      0.121310
      4.40676      0.84808      7.67911        -0.000000     -0.062711     -0.023016
      7.34459      0.84808      7.67911         0.031117     -0.017769      0.121310
      2.93784      3.39232      7.67911        -0.054519      0.031527     -0.023061
      5.87568      3.39232      7.67911         0.054519      0.031527     -0.023061
      8.81351      3.39232      7.67911        -0.000000     -0.083819      0.115166
      4.40676      5.93656      7.67911         0.000000      0.035662      0.121329
      7.34459      5.93656      7.67911        -0.072607      0.041711      0.115145
     10.28243      5.93656      7.67911         0.072607      0.041711      0.115145
      8.81351      1.70341     10.09804         0.000000      0.013608     -0.006025
      2.93277      1.69323     10.04724        -0.002462     -0.001813     -0.011889
      5.88075      1.69323     10.04724         0.002462     -0.001813     -0.011889
     10.26617      4.24979     10.06844         0.006764     -0.003809     -0.000751
      4.40676      4.24626     10.04724         0.000000      0.002538     -0.012553
      7.36086      4.24979     10.06844        -0.006764     -0.003809     -0.000751
     11.74508      6.78102     10.09804        -0.011523     -0.006678     -0.006651
      5.88195      6.78102     10.09804         0.011523     -0.006678     -0.006651
      8.81351      6.76586     10.06844         0.000000      0.007794     -0.001704
      0.00000      0.00000     12.50054        -0.000000     -0.000238     -0.006198
      2.99863      0.09131     12.57640         0.005970      0.006753      0.007495
      5.81488      0.09131     12.57640        -0.005970      0.006753      0.007495
      1.57839      2.55123     12.57640         0.009498      0.001586      0.008228
      7.23512      2.55123     12.57640        -0.009498      0.001586      0.008228
      2.98652      4.99018     12.57640         0.003198     -0.008775      0.007602
      5.82700      4.99018     12.57640        -0.003198     -0.008775      0.007602
      8.81351      5.08848     12.50707        -0.000000     -0.000014      0.016412
      4.40676      2.54424     12.20058         0.000000      0.000482     -0.013831
      3.84980      2.55701     16.48267        -0.006212      0.000804      0.001070
      4.96371      2.55701     16.48267         0.006212      0.000804      0.001070
    total drift:                               -0.015568      0.001671      0.205035

  FREE ENERGIE OF THE ION-ELECTRON SYSTEM (eV)
  free  energy   TOTEN  =      -134.32412314 eV

  energy  without entropy=     -134.32412314  energy(sigma->0) =     -134.32412314

 stress matrix after NEB project (eV)
    -24.19954     -0.00000      0.00000
     -0.00000    -24.19377      0.00063
      0.00000      0.00063      2.36782
  FORCES: max atom, RMS     0.006354    0.001458
  FORCE total and by dimension    0.008986    0.006212
  Stress total and by dimension   34.301062   24.199541
|           W    W    AA    RRRRR   N    N  II  N    N   GGGG   !!!           |
|           W    W   A  A   R    R  NN   N  II  NN   N  G    G  !!!           |
|           W    W  A    A  R    R  N N  N  II  N N  N  G       !!!           |
|           W WW W  AAAAAA  RRRRR   N  N N  II  N  N N  G  GGG   !            |
|           WW  WW  A    A  R   R   N   NN  II  N   NN  G    G                |
|           W    W  A    A  R    R  N    N  II  N    N   GGGG   !!!           |
|     Tetrahedron method does not include variations of the Fermi             |
|     occupations, so forces and stress will be inaccurate. We suggest        |
|     using a different smearing scheme ISMEAR = 1 or 2 for metals in         |
|     relaxations.                                                            |

 total charge

# of ion       s       p       d       tot
    1        0.549   0.236   8.767   9.553
    2        0.540   0.241   8.766   9.547
    3        0.540   0.241   8.766   9.547
    4        0.540   0.241   8.766   9.547
    5        0.547   0.241   8.761   9.549
    6        0.540   0.241   8.766   9.547
    7        0.541   0.241   8.766   9.547
    8        0.541   0.241   8.766   9.547
    9        0.544   0.239   8.766   9.550
   10        0.528   0.306   8.766   9.600
   11        0.520   0.307   8.780   9.607
   12        0.528   0.306   8.766   9.600
   13        0.520   0.307   8.780   9.607
   14        0.520   0.307   8.780   9.607
   15        0.516   0.307   8.774   9.597
   16        0.528   0.306   8.766   9.600
   17        0.516   0.307   8.774   9.597
   18        0.516   0.307   8.774   9.597
   19        0.517   0.296   8.768   9.581
   20        0.582   0.348   8.714   9.644
   21        0.582   0.348   8.714   9.644
   22        0.508   0.304   8.779   9.591
   23        0.582   0.348   8.714   9.644
   24        0.508   0.304   8.779   9.591
   25        0.517   0.296   8.768   9.581
   26        0.517   0.296   8.768   9.581
   27        0.508   0.304   8.779   9.591
   28        0.538   0.226   8.753   9.517
   29        0.595   0.253   8.721   9.569
   30        0.595   0.253   8.721   9.569
   31        0.595   0.253   8.721   9.569
   32        0.595   0.253   8.721   9.569
   33        0.595   0.254   8.721   9.569
   34        0.595   0.254   8.721   9.569
   35        0.537   0.227   8.756   9.520
   36        0.645   0.550   2.864   4.060
   37        1.373   2.468   0.000   3.841
   38        1.373   2.468   0.000   3.841
tot         22.435  15.228 309.329 346.993

 BZINTS: Fermi energy:    0.856989;  400.000000 electrons
         Band energy:-0.122911E+04;  BLOECHL correction:   -0.032307