 vasp.6.2.0 18Jan21 (build Jun 12 2021 23:27:24) complex

 executed on             LinuxIFC date 2022.05.28  02:25:57

 INCAR:
   ISMEAR = -5
   SIGMA = 0.1
   ISPIN = 1
   EDIFF = 1.d-5
   EDIFFG = -0.01
   NSW = 0
   NELM = 150
   ENCUT = 500
   ISIF = 2
   IBRION = 2
   LREAL = Auto
   ALGO = Fast
   ICHARG = 11
   LORBIT = 10
   LCHARG = .F.
   LWAVE = .F.

 POTCAR:    PAW_PBE Cu 22Jun2005
 POTCAR:    PAW_PBE Ni 02Aug2007
 POTCAR:    PAW_PBE O 08Apr2002
 POTCAR:    PAW_PBE H 15Jun2001
|           W    W    AA    RRRRR   N    N  II  N    N   GGGG   !!!           |
|           W    W   A  A   R    R  NN   N  II  NN   N  G    G  !!!           |
|           W    W  A    A  R    R  N N  N  II  N N  N  G       !!!           |
|           W WW W  AAAAAA  RRRRR   N  N N  II  N  N N  G  GGG   !            |
|           WW  WW  A    A  R   R   N   NN  II  N   NN  G    G                |
|           W    W  A    A  R    R  N    N  II  N    N   GGGG   !!!           |
|     For optimal performance we recommend to set                             |
|       NCORE = 2 up to number-of-cores-per-socket                            |
|     This setting can greatly improve the performance of VASP for DFT.       |
|     The default, NCORE=1 might be grossly inefficient on modern             |
|     multi-core architectures or massively parallel machines. Do your        |
|     Unfortunately you need to use the default for GW and RPA                |
|     calculations (for HF NCORE is supported but not extensively tested      |
|     yet).                                                                   |

 POTCAR:    PAW_PBE Cu 22Jun2005
   VRHFIN =Cu: d10 p1

   TITEL  = PAW_PBE Cu 22Jun2005
   POMASS =   63.546; ZVAL   =   11.000    mass and valenz
   ENMAX  =  295.446; ENMIN  =  221.585 eV

 POTCAR:    PAW_PBE Ni 02Aug2007
   VRHFIN =Ni:

   TITEL  = PAW_PBE Ni 02Aug2007
   POMASS =   58.690; ZVAL   =   10.000    mass and valenz
   ENMAX  =  269.532; ENMIN  =  202.149 eV

 POTCAR:    PAW_PBE O 08Apr2002
   VRHFIN =O: s2p4

   TITEL  = PAW_PBE O 08Apr2002
   POMASS =   16.000; ZVAL   =    6.000    mass and valenz
   ENMAX  =  400.000; ENMIN  =  300.000 eV

 POTCAR:    PAW_PBE H 15Jun2001
   VRHFIN =H: ultrasoft test

   TITEL  = PAW_PBE H 15Jun2001
   POMASS =    1.000; ZVAL   =    1.000    mass and valenz
   ENMAX  =  250.000; ENMIN  =  200.000 eV

 Optimization of the real space projectors (new method)

 maximal supplied QI-value         = 16.25
 optimisation between [QCUT,QGAM] = [ 11.38, 22.75] = [ 36.24,144.96] Ry
 Optimized for a Real-space Cutoff    1.52 Angstroem

   l    n(q)    QCUT    max X(q) W(low)/X(q) W(high)/X(q)  e(spline)
   2      9    11.376     4.610    0.21E-03    0.10E-03    0.26E-06
   2      9    11.376     8.522    0.33E-03    0.16E-03    0.37E-06
   0     10    11.376    51.609    0.62E-04    0.20E-04    0.13E-06
   0     10    11.376    27.747    0.54E-04    0.20E-04    0.13E-06
   1     10    11.376    20.408    0.13E-04    0.99E-04    0.19E-06
   1     10    11.376    13.425    0.12E-04    0.87E-04    0.17E-06
 Optimization of the real space projectors (new method)

[...]

   l    n(q)    QCUT    max X(q) W(low)/X(q) W(high)/X(q)  e(spline)
   0      7    11.387    20.381    0.39E-03    0.13E-02    0.15E-06
   0      7    11.387    15.268    0.42E-03    0.14E-02    0.17E-06
   1      6    11.387     5.964    0.41E-03    0.11E-02    0.17E-06
   1      6    11.387     5.382    0.39E-03    0.87E-03    0.15E-06
 Optimization of the real space projectors (new method)

 maximal supplied QI-value         = 34.20
 optimisation between [QCUT,QGAM] = [ 11.29, 22.57] = [ 35.68,142.71] Ry
 Optimized for a Real-space Cutoff    1.16 Angstroem

   l    n(q)    QCUT    max X(q) W(low)/X(q) W(high)/X(q)  e(spline)
   0      8    11.287    19.460    0.40E-03    0.73E-03    0.16E-06
   0      8    11.287    12.209    0.38E-03    0.70E-03    0.15E-06
   1      7    11.287     4.655    0.22E-03    0.25E-04    0.22E-06
  PAW_PBE Cu 22Jun2005                  :
  PAW_PBE Ni 02Aug2007                  :
  PAW_PBE O 08Apr2002                   :
  PAW_PBE H 15Jun2001                   :

 POSCAR: Cu-Ni-OOH
  positions in direct lattice
  velocities in cartesian coordinates
 exchange correlation table for  LEXCH =        8
   RHO(1)=    0.500       N(1)  =     2000
   RHO(2)=  100.500       N(2)  =     4000

 VTST: version 3.2, (02/03/18)

 CHAIN: initializing optimizer

 OPT: Using VASP Conjugate-Gradient optimizer
 CHAIN: Read ICHAIN            0

 POSCAR: Cu-Ni-OOH
  positions in direct lattice
  velocities in cartesian coordinates

 ion  position               nearest neighbor table
   1  0.000  0.000  0.212-   7 2.57   3 2.57   4 2.57   2 2.57   6 2.57   8 2.57  12 2.57  10 2.57
                            16 2.57
   2  0.333  0.000  0.212-   8 2.57   9 2.57   5 2.57   1 2.57   3 2.57  11 2.57   4 2.57  10 2.57
                            17 2.57
   3  0.667  0.000  0.212-   1 2.57   7 2.57   6 2.57   9 2.57   2 2.57  12 2.57   5 2.57  18 2.57
                            11 2.57
   4  0.000  0.333  0.212-   5 2.57   6 2.57   1 2.57   7 2.57   2 2.57  13 2.57   9 2.57  10 2.57
                            15 2.57
   5  0.333  0.333  0.212-   4 2.57   2 2.57   7 2.57  13 2.57   8 2.57   6 2.57   3 2.57  11 2.57
                            14 2.57
   6  0.667  0.333  0.212-   4 2.57   9 2.57  15 2.57   3 2.57   1 2.57   8 2.57  14 2.57   5 2.57
                            12 2.57
   7  0.000  0.667  0.212-   1 2.57   3 2.57  16 2.57  18 2.57   4 2.57   5 2.57   8 2.57   9 2.57
                            13 2.57
   8  0.333  0.667  0.212-   9 2.57   2 2.57  17 2.57   6 2.57   1 2.57   7 2.57   5 2.57  14 2.57
                            16 2.57
   9  0.667  0.667  0.212-   8 2.57   6 2.57   2 2.57  17 2.57   3 2.57   7 2.57   4 2.57  15 2.57
                            18 2.57
  10  0.111  0.111  0.294-  20 2.55  26 2.56  19 2.56  11 2.57  12 2.57  13 2.57   1 2.57   2 2.57
                             4 2.57  15 2.57  16 2.57  17 2.57
  11  0.444  0.111  0.294-  20 2.55  21 2.55  27 2.56  10 2.57  13 2.57   2 2.57  17 2.57  14 2.57
                            12 2.57   5 2.57   3 2.57  18 2.57
  12  0.778  0.111  0.294-  21 2.55  19 2.56  25 2.56  15 2.57  10 2.57  14 2.57  18 2.57   3 2.57
                             1 2.57  16 2.57  11 2.57   6 2.57
  13  0.111  0.444  0.294-  23 2.55  20 2.55  22 2.56  16 2.57  18 2.57  10 2.57  11 2.57  14 2.57
                             5 2.57   4 2.57   7 2.57  15 2.57
  14  0.444  0.444  0.294-  21 2.55  23 2.55  24 2.56  15 2.57  17 2.57  12 2.57  16 2.57  13 2.57
                            11 2.57   6 2.57   8 2.57   5 2.57
  15  0.778  0.444  0.294-  24 2.55  22 2.55  19 2.56  14 2.57  17 2.57  12 2.57   6 2.57  18 2.57
                            10 2.57   9 2.57  13 2.57   4 2.57
  16  0.111  0.778  0.294-  23 2.55  25 2.56  26 2.56  18 2.57  13 2.57   7 2.57  14 2.57  17 2.57
                            12 2.57  10 2.57   8 2.57   1 2.57
  17  0.444  0.778  0.294-  27 2.55  24 2.55  26 2.56  14 2.57  15 2.57   8 2.57   9 2.57  11 2.57
                            16 2.57  18 2.57  10 2.57   2 2.57
  18  0.778  0.778  0.294-  22 2.55  27 2.55  25 2.56  16 2.57  13 2.57   7 2.57  15 2.57  12 2.57
                            17 2.57   9 2.57   3 2.57  11 2.57
  19  0.889  0.223  0.376-  28 2.54  32 2.55  31 2.55  15 2.56  12 2.56  10 2.56  22 2.56  24 2.56
                            21 2.57  20 2.57  25 2.57  26 2.57
  20  0.222  0.222  0.376-  36 2.48  29 2.54  31 2.54  10 2.55  11 2.55  13 2.55  26 2.57  19 2.57
                            27 2.57  22 2.57  23 2.57  21 2.57
  21  0.556  0.222  0.376-  36 2.48  32 2.54  30 2.54  12 2.55  14 2.55  11 2.55  19 2.57  25 2.57
                            24 2.57  27 2.57  20 2.57  23 2.57
  22  0.889  0.556  0.376-  35 2.54  31 2.55  33 2.55  18 2.55  15 2.55  13 2.56  19 2.56  25 2.56
                            24 2.57  27 2.57  23 2.57  20 2.57
  23  0.222  0.556  0.376-  36 2.48  33 2.54  34 2.54  16 2.55  13 2.55  14 2.55  25 2.57  26 2.57
                            22 2.57  24 2.57  20 2.57  21 2.57
  24  0.556  0.556  0.376-  35 2.54  32 2.55  34 2.55  15 2.55  17 2.55  14 2.56  19 2.56  26 2.56
                            22 2.57  27 2.57  21 2.57  23 2.57
  25  0.889  0.889  0.376-  28 2.54  33 2.55  30 2.55  18 2.56  16 2.56  12 2.56  22 2.56  27 2.56
                            21 2.57  23 2.57  19 2.57  26 2.57
  26  0.223  0.889  0.376-  28 2.54  29 2.55  34 2.55  17 2.56  10 2.56  16 2.56  27 2.56  24 2.56
                            20 2.57  23 2.57  25 2.57  19 2.57
  27  0.556  0.889  0.376-  35 2.54  29 2.55  30 2.55  17 2.55  18 2.55  11 2.56  26 2.56  25 2.56
                            24 2.57  22 2.57  20 2.57  21 2.57
  28  0.000  0.000  0.458-  25 2.54  19 2.54  26 2.54  33 2.57  30 2.57  31 2.57  29 2.57  32 2.57
                            34 2.57
  29  0.333  0.002  0.458-  20 2.54  27 2.55  31 2.55  36 2.55  30 2.55  26 2.55  28 2.57  35 2.57
                            34 2.60
  30  0.665  0.002  0.458-  21 2.54  27 2.55  32 2.55  36 2.55  29 2.55  25 2.55  28 2.57  35 2.57
                            33 2.60
  31  0.002  0.333  0.458-  20 2.54  22 2.55  29 2.55  36 2.55  33 2.55  19 2.55  28 2.57  35 2.57
                            32 2.60
  32  0.665  0.333  0.458-  37 2.05  21 2.54  24 2.55  30 2.55  36 2.55  34 2.55  19 2.55  28 2.57
                            35 2.57  31 2.60
  33  0.002  0.665  0.458-  23 2.54  22 2.55  34 2.55  36 2.55  31 2.55  25 2.55  28 2.57  35 2.57
                            30 2.60
  34  0.333  0.665  0.458-  37 2.02  23 2.54  24 2.55  33 2.55  36 2.55  32 2.55  26 2.55  28 2.57
                            35 2.57  29 2.60
  35  0.667  0.667  0.458-  24 2.54  27 2.54  22 2.54  34 2.57  32 2.57  29 2.57  30 2.57  33 2.57
                            31 2.57
  36  0.333  0.333  0.455-  37 1.88  23 2.48  20 2.48  21 2.48  31 2.55  29 2.55  33 2.55  34 2.55
                            32 2.55  30 2.55
  37  0.427  0.432  0.509-  38 1.63  36 1.88  34 2.02  32 2.05
  38  0.361  0.430  0.570-  39 0.98  37 1.63
  39  0.496  0.372  0.585-  38 0.98

  LATTYP: Found a hexagonal cell.
 ALAT       =     7.6967864036
 C/A-ratio  =     3.2973366172

  Lattice vectors:

 A1 = (  -3.8483927580,  -6.6656128093,   0.0000000000)
 A2 = (   7.6967864037,   0.0000000000,   0.0000000000)
 A3 = (   0.0000000000,   0.0000000000,  25.3788956434)

Analysis of symmetry for initial positions (statically):
 Subroutine PRICEL returns:
 Original cell was already a primitive cell.

 Routine SETGRP: Setting up the symmetry group for a
 hexagonal supercell.

 Subroutine GETGRP returns: Found  1 space group operations
 (whereof  1 operations were pure point group operations)
 out of a pool of 24 trial point group operations.

The static configuration has the point symmetry C_1 .

Analysis of symmetry for dynamics (positions and initial velocities):
 Subroutine PRICEL returns:
 Original cell was already a primitive cell.

[...]

The dynamic configuration has the point symmetry C_1 .

Analysis of constrained symmetry for selective dynamics:
 Subroutine PRICEL returns:
[...]
     41      -4.4887      2.00000
     42      -4.4411      2.00000
     43      -4.4177      2.00000
     44      -4.4084      2.00000
     45      -4.3360      2.00000
     46      -4.3260      2.00000
     47      -4.3102      2.00000
     48      -4.2878      2.00000
     49      -4.2825      2.00000
     50      -4.2680      2.00000
     51      -4.2341      2.00000
     52      -4.0898      2.00000
     53      -4.0753      2.00000
     54      -4.0622      2.00000
     55      -4.0595      2.00000
     56      -4.0060      2.00000
     57      -3.9986      2.00000
     58      -3.9900      2.00000
     59      -3.9682      2.00000
     60      -3.9532      2.00000
[...]
    238       5.0575      0.00000
    239       5.1569      0.00000
    240       5.2445      0.00000
    241       5.4142      0.00000
    242       5.4775      0.00000
    243       5.5584      0.00000
    244       5.5881      0.00000
    245       5.8025      0.00000
    246       5.8088      0.00000
    247       5.9266      0.00000
    248       5.9750      0.00000
    249       6.0666      0.00000
    250       6.2146      0.00000
    251       6.3879      0.00000
    252       6.6470      0.00000

 soft charge-density along one line, spin component           1
         0         1         2         3         4         5         6         7         8         9
 total charge-density along one line

------------------------ aborting loop because EDIFF is reached ----------------------------------------

 total charge

# of ion       s       p       d       tot
    1        0.447   0.284   9.190   9.921
    2        0.451   0.285   9.186   9.921
    3        0.448   0.284   9.188   9.920
    4        0.450   0.285   9.185   9.920
    5        0.447   0.286   9.186   9.919
    6        0.447   0.285   9.188   9.920
    7        0.449   0.284   9.188   9.920
    8        0.447   0.285   9.188   9.920
    9        0.446   0.285   9.188   9.919
   10        0.442   0.373   9.175   9.990
   11        0.442   0.369   9.181   9.992
   12        0.440   0.371   9.180   9.992
   13        0.443   0.369   9.182   9.993
   14        0.442   0.370   9.181   9.994
   15        0.440   0.371   9.180   9.992
   16        0.441   0.371   9.180   9.992
   17        0.440   0.371   9.180   9.991
   18        0.440   0.370   9.180   9.991
   19        0.440   0.376   9.180   9.996
   20        0.454   0.386   9.167  10.007
   21        0.447   0.384   9.179  10.010
   22        0.440   0.373   9.183   9.996
   23        0.448   0.383   9.180  10.010
   24        0.440   0.380   9.178   9.998
   25        0.440   0.373   9.180   9.993
   26        0.440   0.378   9.178   9.996
   27        0.440   0.373   9.184   9.996
   28        0.451   0.282   9.198   9.931
   29        0.450   0.289   9.191   9.929
   30        0.443   0.284   9.200   9.927
   31        0.450   0.289   9.190   9.929
   32        0.429   0.330   9.189   9.948
   33        0.442   0.282   9.202   9.926
   34        0.427   0.341   9.182   9.950
   35        0.443   0.283   9.199   9.926
   36        0.459   0.438   8.365   9.262
   37        1.593   3.254   0.000   4.847
   38        1.600   3.334   0.000   4.933
   39        0.624   0.115   0.000   0.738
tot         19.804  18.823 329.829 368.456

  FORCE on cell =-STRESS in cart. coord.  units (eV):
  Direction    XX          YY          ZZ          XY          YZ          ZX
  Alpha Z   760.42291   760.42291   760.42291
  Ewald  260868.08150260792.59634************   -24.49890   -29.45273   -59.70324
  Hartree273870.37317273848.20434************    -7.46951   -16.18077   -59.13031
  E(xc)   -2364.48833 -2364.76964 -2368.46380    -0.10256    -0.05500     0.02456
  Local  ************************547547.74066    25.15523    42.82598   121.11050
  n-local  -814.75052  -816.27310  -823.73762     0.18883    -0.26590    -2.34286
  augment  3497.66684  3499.90665  3507.39944    -0.32000    -0.90453    -1.44728
  Kinetic  3479.14099  3497.45262  3479.21303     6.94775     4.30104     1.69032
  Fock        0.00000     0.00000     0.00000     0.00000     0.00000     0.00000
  Total      -3.62853    -4.12884     1.62540    -0.09915     0.26809     0.20169
  in kB      -4.46497    -5.08062     2.00009    -0.12201     0.32989     0.24818

 VOLUME and BASIS-vectors are now :
  energy-cutoff  :      500.00
  volume of cell :     1302.03
      direct lattice vectors                 reciprocal lattice vectors
     7.696786404  0.000000000  0.000000000     0.129924354 -0.075011849  0.000000000
     3.848392758  6.665612809  0.000000000     0.000000000  0.150023716  0.000000000
     0.000000000  0.000000000 25.378895643     0.000000000  0.000000000  0.039402818

  length of vectors
     7.696786404  7.696786404 25.378895643     0.150023716  0.150023716  0.039402818

 FORCES acting on ions
    electron-ion (+dipol)            ewald-force                    non-local-force                 convergence-correction
   0.264E+00 0.112E+00 0.393E+04   0.643E-01 0.543E-01 -.393E+04   -.124E+00 -.776E-01 -.257E+01   -.168E+00 -.690E-01 -.783E+00
   -.944E-01 0.119E+00 0.393E+04   -.232E+00 -.165E+00 -.393E+04   0.137E+00 0.617E-01 -.176E+01   0.175E+00 -.595E-03 -.633E+00
   -.214E+00 0.509E+00 0.393E+04   0.168E+00 -.458E+00 -.393E+04   0.198E-01 0.204E-01 -.201E+01   0.864E-02 -.675E-01 -.781E+00
   0.618E-01 -.145E+00 0.393E+04   -.274E+00 -.129E+00 -.393E+04   0.144E+00 0.703E-01 -.187E+01   0.773E-01 0.178E+00 -.677E+00
   0.492E+00 0.283E+00 0.393E+04   -.290E+00 -.187E+00 -.393E+04   -.224E+00 -.134E+00 -.193E+01   0.255E-01 0.400E-01 -.709E+00
   -.565E+00 0.298E+00 0.393E+04   0.564E+00 -.222E+00 -.393E+04   0.722E-01 -.104E+00 -.220E+01   -.824E-01 0.302E-01 -.809E+00
   0.372E+00 -.417E+00 0.393E+04   -.328E+00 0.386E+00 -.393E+04   0.344E-01 0.982E-02 -.196E+01   -.802E-01 0.634E-02 -.807E+00
   -.267E-01 -.615E+00 0.393E+04   0.107E+00 0.592E+00 -.393E+04   -.506E-01 0.130E+00 -.220E+01   -.336E-01 -.115E+00 -.797E+00
   -.327E+00 -.975E-01 0.393E+04   0.221E+00 0.130E+00 -.393E+04   0.200E-01 -.146E-01 -.227E+01   0.900E-01 -.168E-01 -.744E+00
   0.223E+01 0.112E+01 0.141E+04   -.199E+01 -.112E+01 -.141E+04   -.324E+00 -.102E+00 -.104E+01   0.861E-01 0.947E-01 -.364E+00
   0.125E+01 0.380E+01 0.141E+04   -.117E+01 -.387E+01 -.141E+04   -.399E-02 -.357E-01 -.393E+00   -.575E-01 0.638E-01 -.278E+00
   -.341E+01 0.296E+01 0.141E+04   0.317E+01 -.295E+01 -.141E+04   0.249E+00 -.703E-01 -.728E+00   -.319E-01 0.444E-01 -.376E+00
   0.390E+01 -.585E+00 0.141E+04   -.397E+01 0.787E+00 -.141E+04   0.193E-01 -.468E-01 -.401E+00   0.357E-01 -.124E+00 -.292E+00
   -.163E+01 -.803E+00 0.142E+04   0.181E+01 0.895E+00 -.142E+04   -.122E+00 -.440E-01 -.903E+00   -.474E-01 -.447E-01 -.333E+00
   -.225E+01 0.189E+00 0.141E+04   0.215E+01 -.271E+00 -.141E+04   0.747E-01 0.408E-01 -.797E+00   0.272E-01 0.592E-01 -.431E+00
   0.897E+00 -.456E+01 0.141E+04   -.100E+01 0.435E+01 -.141E+04   0.659E-01 0.234E+00 -.686E+00   0.110E-01 -.380E-01 -.350E+00
   -.106E+01 -.205E+01 0.141E+04   0.969E+00 0.204E+01 -.141E+04   0.447E-01 0.208E-01 -.777E+00   0.584E-01 -.584E-02 -.403E+00
   0.105E+00 -.451E-01 0.141E+04   0.338E-01 0.129E+00 -.141E+04   -.654E-01 -.372E-01 -.708E+00   -.489E-01 -.393E-01 -.471E+00
   -.110E+02 0.667E+01 -.115E+04   0.109E+02 -.669E+01 0.115E+04   0.675E-01 0.530E-01 0.616E+00   -.237E-01 0.546E-02 0.167E+00
   0.178E+02 0.108E+02 -.113E+04   -.173E+02 -.105E+02 0.113E+04   -.841E+00 -.494E+00 -.115E+01   0.336E+00 0.196E+00 0.477E+00
   -.670E+01 0.230E+02 -.111E+04   0.657E+01 -.228E+02 0.111E+04   0.482E+00 -.301E+00 -.320E+00   -.346E+00 0.115E+00 0.577E+00
   0.388E+01 -.337E+01 -.115E+04   -.417E+01 0.343E+01 0.115E+04   0.175E+00 -.588E-01 0.859E+00   0.135E+00 -.389E-01 0.137E+00
   0.163E+02 -.164E+02 -.111E+04   -.161E+02 0.163E+02 0.111E+04   -.573E-01 0.495E+00 -.319E+00   -.842E-01 -.384E+00 0.567E+00
   -.201E+02 -.109E+02 -.112E+04   0.202E+02 0.110E+02 0.112E+04   -.297E-01 -.532E-01 0.394E+00   -.908E-01 -.660E-01 0.195E+00
   0.156E+01 -.114E+00 -.115E+04   -.143E+01 0.203E+00 0.115E+04   -.385E-01 -.573E-01 0.959E+00   -.658E-01 -.299E-01 0.227E+00
   -.149E+00 -.139E+02 -.115E+04   0.771E-01 0.137E+02 0.115E+04   0.807E-01 0.131E+00 0.464E+00   -.857E-02 -.129E-01 0.149E+00
   -.138E+01 0.421E+01 -.115E+04   0.136E+01 -.455E+01 0.115E+04   -.307E-01 0.216E+00 0.870E+00   0.285E-01 0.165E+00 0.127E+00
   -.953E+01 -.962E+01 -.373E+04   0.949E+01 0.952E+01 0.373E+04   0.170E+00 0.150E+00 0.234E+01   -.993E-01 -.178E-01 0.623E+00
   0.138E+02 0.861E+01 -.373E+04   -.138E+02 -.871E+01 0.373E+04   -.283E+00 -.292E+00 0.227E+01   0.215E+00 0.357E+00 0.432E+00
   -.418E+01 0.722E+02 -.372E+04   0.406E+01 -.739E+02 0.371E+04   0.238E+00 0.965E+00 0.309E+01   -.105E+00 0.362E+00 0.524E+00
   0.183E+02 0.104E+02 -.373E+04   -.183E+02 -.103E+02 0.373E+04   -.458E+00 -.107E+00 0.226E+01   0.382E+00 0.160E-01 0.456E+00
   -.168E+03 0.736E+02 -.360E+04   0.172E+03 -.750E+02 0.359E+04   -.253E+01 0.109E+01 0.390E+01   -.534E+00 0.102E-01 0.674E+00
   0.669E+02 -.443E+02 -.371E+04   -.685E+02 0.451E+02 0.370E+04   0.113E+01 -.392E+00 0.330E+01   0.223E+00 -.286E+00 0.508E+00
   -.284E+02 -.186E+03 -.358E+04   0.293E+02 0.190E+03 0.358E+04   -.558E+00 -.249E+01 0.333E+01   -.243E+00 -.504E+00 0.661E+00
   -.437E+02 -.256E+02 -.372E+04   0.442E+02 0.259E+02 0.372E+04   -.358E+00 -.222E+00 0.289E+01   0.116E-01 -.691E-02 0.706E+00
   0.147E+03 0.936E+02 -.313E+04   -.149E+03 -.948E+02 0.313E+04   0.133E+01 0.964E+00 0.538E+00   0.109E+00 0.552E-01 0.360E+00
   -.402E+02 0.230E+01 -.243E+04   0.483E+02 -.377E+00 0.243E+04   -.773E+01 -.166E+01 0.447E-01   -.423E+00 -.274E+00 0.231E-01
   0.952E+02 -.159E+02 -.237E+04   -.134E+03 0.315E+02 0.237E+04   0.387E+02 -.155E+02 -.202E+01   0.292E-01 -.581E-01 -.188E+00
   -.693E+02 0.358E+02 -.404E+03   0.761E+02 -.390E+02 0.407E+03   -.672E+01 0.321E+01 -.335E+01   -.223E-01 0.926E-02 -.187E-01
   -.222E+02 0.148E+02 0.672E+01   -.995E-13 0.142E-12 -.261E-11   0.227E+02 -.145E+02 -.422E+01   -.532E+00 -.393E+00 -.266E+01

 POSITION                                       TOTAL-FORCE (eV/Angst)
      0.00000      0.00000      5.37156         0.037378      0.020665      0.073249
      2.56560      0.00000      5.37156        -0.013985      0.016866      0.081800
      5.13119      0.00000      5.37156        -0.017155      0.005360      0.092751
      1.28280      2.22187      5.37156         0.009996     -0.024689      0.082902
      3.84839      2.22187      5.37156         0.003582      0.002552      0.081382
      6.41399      2.22187      5.37156        -0.010823      0.003205      0.098882
      2.56560      4.44374      5.37156        -0.001098     -0.014152      0.097925
      5.13119      4.44374      5.37156        -0.003656     -0.007026      0.092947
      7.69679      4.44374      5.37156         0.004801      0.002623      0.060693
      1.28280      0.74062      7.46636         0.000111     -0.000937     -0.050882
      3.84839      0.74062      7.46636         0.016455     -0.036498     -0.100844
      6.41399      0.74062      7.46636        -0.024538     -0.015232     -0.081062
      2.56560      2.96249      7.46636        -0.014683      0.032496     -0.104377
      5.13119      2.96249      7.46636         0.015324      0.004636     -0.164614
      7.69679      2.96249      7.46636         0.002951      0.019392     -0.087829
      3.84839      5.18437      7.46636        -0.029411     -0.009336     -0.085571
      6.41399      5.18437      7.46636         0.009991      0.004409     -0.089403
      8.97958      5.18437      7.46636         0.024848      0.008813     -0.051319
      7.69679      1.48353      9.55071        -0.060958      0.045012      0.068582
      2.56540      1.48114      9.54275         0.035159      0.022707     -0.005546
      5.13138      1.48114      9.54275         0.006587      0.028314     -0.110101
      8.97935      3.70325      9.54809         0.024582     -0.034128      0.004741
      3.84839      3.70334      9.54275         0.016746     -0.011406     -0.120567
      6.41422      3.70325      9.54809        -0.046379     -0.027765     -0.014482
     10.26040      5.92385      9.55071         0.022634      0.002217      0.038042
      5.13317      5.92385      9.55071         0.001255     -0.085153      0.092823
      7.69679      5.92472      9.54809        -0.023411      0.037143      0.000823
      0.00000      0.00000     11.61525         0.027628      0.027899     -0.034616
      2.57297      0.01446     11.62005        -0.049539     -0.033630     -0.049900
      5.12381      0.01446     11.62005         0.017652     -0.285820     -0.109483
      1.29901      2.22103     11.62005        -0.074553     -0.025614     -0.047096
      6.39777      2.22103     11.62005         0.525404     -0.257568      0.086037
      2.57443      4.43012     11.62005        -0.265121      0.170037     -0.097136
      5.12235      4.43012     11.62005         0.042370      0.538830      0.133410
      7.69679      4.44374     11.61370         0.159265      0.093593     -0.058643
      3.84839      2.22187     11.53520        -0.337102     -0.199743      0.364820
      4.94902      2.88070     12.90962        -0.025016     -0.012590     -0.046119
      4.43656      2.86725     14.45500        -0.027377      0.003111     -0.048004
      5.24740      2.48158     14.84759         0.020085     -0.008595      0.005785
    total drift:                               -0.025870     -0.052462     -0.155154

  FREE ENERGIE OF THE ION-ELECTRON SYSTEM (eV)
  free  energy   TOTEN  =      -142.29503105 eV

  energy  without entropy=     -142.29503105  energy(sigma->0) =     -142.29503105

 stress matrix after NEB project (eV)
     -3.62853     -0.09915      0.20169
     -0.09915     -4.12884      0.26809
      0.20169      0.26809      1.62540
  FORCES: max atom, RMS     0.055350    0.012896
  FORCE total and by dimension    0.080533    0.048004
  Stress total and by dimension    5.753278    4.128840
|           W    W    AA    RRRRR   N    N  II  N    N   GGGG   !!!           |
|           W    W   A  A   R    R  NN   N  II  NN   N  G    G  !!!           |
|           W    W  A    A  R    R  N N  N  II  N N  N  G       !!!           |
|           W WW W  AAAAAA  RRRRR   N  N N  II  N  N N  G  GGG   !            |
|           WW  WW  A    A  R   R   N   NN  II  N   NN  G    G                |
|           W    W  A    A  R    R  N    N  II  N    N   GGGG   !!!           |
|     Tetrahedron method does not include variations of the Fermi             |
|     occupations, so forces and stress will be inaccurate. We suggest        |
|     using a different smearing scheme ISMEAR = 1 or 2 for metals in         |
|     relaxations.                                                            |

 total charge

# of ion       s       p       d       tot
    1        0.447   0.284   9.190   9.921
    2        0.451   0.285   9.186   9.921
    3        0.448   0.284   9.188   9.920
    4        0.450   0.285   9.185   9.920
    5        0.447   0.286   9.186   9.919
    6        0.447   0.285   9.188   9.920
    7        0.449   0.284   9.188   9.920
    8        0.447   0.285   9.188   9.920
    9        0.446   0.285   9.188   9.919
   10        0.442   0.373   9.175   9.990
   11        0.442   0.369   9.181   9.992
   12        0.440   0.371   9.180   9.992
   13        0.443   0.369   9.182   9.993
   14        0.442   0.370   9.181   9.994
   15        0.440   0.371   9.180   9.992
   16        0.441   0.371   9.180   9.992
   17        0.440   0.371   9.180   9.991
   18        0.440   0.370   9.180   9.991
   19        0.440   0.376   9.180   9.996
   20        0.454   0.386   9.167  10.007
   21        0.447   0.384   9.179  10.010
   22        0.440   0.373   9.183   9.996
   23        0.448   0.383   9.180  10.010
   24        0.440   0.380   9.178   9.998
   25        0.440   0.373   9.180   9.993
   26        0.440   0.378   9.178   9.996
   27        0.440   0.373   9.184   9.996
   28        0.451   0.282   9.198   9.931
   29        0.450   0.289   9.191   9.929
   30        0.443   0.284   9.200   9.927
   31        0.450   0.289   9.190   9.929
   32        0.429   0.330   9.189   9.948
   33        0.442   0.282   9.202   9.926
   34        0.427   0.341   9.182   9.950
   35        0.443   0.283   9.199   9.926
   36        0.459   0.438   8.365   9.262
   37        1.593   3.254   0.000   4.847
   38        1.600   3.334   0.000   4.933
   39        0.624   0.115   0.000   0.738
tot         19.804  18.823 329.829 368.456

 BZINTS: Fermi energy:   -0.665272;  408.000000 electrons
         Band energy:-0.147955E+04;  BLOECHL correction:   -0.043837