 vasp.6.2.0 18Jan21 (build Jun 12 2021 23:27:24) complex

 executed on             LinuxIFC date 2022.05.26  20:27:00

 INCAR:
   ISMEAR = -5
   SIGMA = 0.1
   ISPIN = 1
   EDIFF = 1.d-5
   EDIFFG = -0.01
   NSW = 0
   NELM = 150
   ENCUT = 500
   ISIF = 2
   IBRION = 2
   LREAL = Auto
   ALGO = Fast
   ICHARG = 11
   LORBIT = 10
   LCHARG = .F.
   LWAVE = .F.

 POTCAR:    PAW_PBE Cu 22Jun2005
 POTCAR:    PAW_PBE Ru 04Feb2005
|           W    W    AA    RRRRR   N    N  II  N    N   GGGG   !!!           |
|           W    W   A  A   R    R  NN   N  II  NN   N  G    G  !!!           |
|           W    W  A    A  R    R  N N  N  II  N N  N  G       !!!           |
|           W WW W  AAAAAA  RRRRR   N  N N  II  N  N N  G  GGG   !            |
|           WW  WW  A    A  R   R   N   NN  II  N   NN  G    G                |
|           W    W  A    A  R    R  N    N  II  N    N   GGGG   !!!           |
|     For optimal performance we recommend to set                             |
|       NCORE = 2 up to number-of-cores-per-socket                            |
|     This setting can greatly improve the performance of VASP for DFT.       |
|     The default, NCORE=1 might be grossly inefficient on modern             |
|     multi-core architectures or massively parallel machines. Do your        |
|     Unfortunately you need to use the default for GW and RPA                |
|     calculations (for HF NCORE is supported but not extensively tested      |
|     yet).                                                                   |

 POTCAR:    PAW_PBE Cu 22Jun2005
   VRHFIN =Cu: d10 p1

   TITEL  = PAW_PBE Cu 22Jun2005
   POMASS =   63.546; ZVAL   =   11.000    mass and valenz
   ENMAX  =  295.446; ENMIN  =  221.585 eV

 POTCAR:    PAW_PBE Ru 04Feb2005
   VRHFIN =Ru: s1 d7

   TITEL  = PAW_PBE Ru 04Feb2005
   POMASS =  101.070; ZVAL   =    8.000    mass and valenz
   ENMAX  =  213.271; ENMIN  =  159.953 eV

 Optimization of the real space projectors (new method)

 maximal supplied QI-value         = 16.25
 optimisation between [QCUT,QGAM] = [ 11.38, 22.75] = [ 36.24,144.96] Ry
 Optimized for a Real-space Cutoff    1.52 Angstroem

   l    n(q)    QCUT    max X(q) W(low)/X(q) W(high)/X(q)  e(spline)
   2      9    11.376     4.610    0.21E-03    0.10E-03    0.26E-06
   2      9    11.376     8.522    0.33E-03    0.16E-03    0.37E-06
   0     10    11.376    51.609    0.62E-04    0.20E-04    0.13E-06
   0     10    11.376    27.747    0.54E-04    0.20E-04    0.13E-06
   1     10    11.376    20.408    0.13E-04    0.99E-04    0.19E-06
   1     10    11.376    13.425    0.12E-04    0.87E-04    0.17E-06
 Optimization of the real space projectors (new method)

 maximal supplied QI-value         = 13.98
 optimisation between [QCUT,QGAM] = [ 11.33, 22.79] = [ 35.93,145.49] Ry
 Optimized for a Real-space Cutoff    1.52 Angstroem

   l    n(q)    QCUT    max X(q) W(low)/X(q) W(high)/X(q)  e(spline)
   2      9    11.327    61.733    0.26E-03    0.14E-03    0.16E-06
   2      9    11.327    59.886    0.26E-03    0.14E-03    0.17E-06
   0     10    11.327    23.358    0.19E-03    0.14E-04    0.46E-06
   0     10    11.327    11.320    0.15E-03    0.11E-04    0.37E-06
   1     10    11.327    14.765    0.49E-04    0.26E-03    0.24E-06
   1     10    11.327     8.283    0.37E-04    0.20E-03    0.18E-06
  PAW_PBE Cu 22Jun2005                  :
  PAW_PBE Ru 04Feb2005                  :

 POSCAR: Cu-Ru
  positions in direct lattice
  velocities in cartesian coordinates
 exchange correlation table for  LEXCH =        8
   RHO(1)=    0.500       N(1)  =     2000
   RHO(2)=  100.500       N(2)  =     4000

 VTST: version 3.2, (02/03/18)

 CHAIN: initializing optimizer

 OPT: Using VASP Conjugate-Gradient optimizer
 CHAIN: Read ICHAIN            0

 POSCAR: Cu-Ru
  positions in direct lattice
  velocities in cartesian coordinates

 ion  position               nearest neighbor table
   1  0.000  0.000  0.252-   7 2.57   3 2.57   4 2.57   2 2.57   6 2.57   8 2.57  12 2.57  10 2.57
                            16 2.57
   2  0.333  0.000  0.252-   8 2.57   9 2.57   5 2.57   1 2.57   3 2.57  11 2.57   4 2.57  10 2.57
                            17 2.57
   3  0.667  0.000  0.252-   1 2.57   7 2.57   6 2.57   9 2.57   2 2.57  12 2.57   5 2.57  18 2.57
                            11 2.57
   4  0.000  0.333  0.252-   5 2.57   6 2.57   1 2.57   7 2.57   2 2.57  13 2.57   9 2.57  10 2.57
                            15 2.57
   5  0.333  0.333  0.252-   4 2.57   2 2.57   7 2.57  13 2.57   8 2.57   6 2.57   3 2.57  11 2.57
                            14 2.57
   6  0.667  0.333  0.252-   4 2.57   9 2.57  15 2.57   3 2.57   1 2.57   8 2.57  14 2.57   5 2.57
                            12 2.57
   7  0.000  0.667  0.252-   1 2.57   3 2.57  16 2.57  18 2.57   4 2.57   5 2.57   8 2.57   9 2.57
                            13 2.57
   8  0.333  0.667  0.252-   9 2.57   2 2.57  17 2.57   6 2.57   1 2.57   7 2.57   5 2.57  14 2.57
                            16 2.57
   9  0.667  0.667  0.252-   8 2.57   6 2.57   2 2.57  17 2.57   3 2.57   7 2.57   4 2.57  15 2.57
                            18 2.57
  10  0.111  0.111  0.351-  20 2.55  26 2.56  19 2.56  11 2.57  12 2.57  13 2.57   1 2.57   2 2.57
                             4 2.57  15 2.57  16 2.57  17 2.57
  11  0.444  0.111  0.351-  20 2.55  21 2.55  10 2.57  13 2.57   2 2.57  17 2.57  14 2.57  12 2.57
                             5 2.57   3 2.57  18 2.57  27 2.57
  12  0.778  0.111  0.351-  21 2.55  19 2.56  25 2.56  15 2.57  10 2.57  14 2.57  18 2.57   3 2.57
                             1 2.57  16 2.57  11 2.57   6 2.57
  13  0.111  0.444  0.351-  23 2.55  20 2.55  16 2.57  18 2.57  10 2.57  11 2.57  14 2.57   5 2.57
                             4 2.57   7 2.57  15 2.57  22 2.57
  14  0.444  0.444  0.351-  21 2.55  23 2.55  15 2.57  17 2.57  12 2.57  16 2.57  13 2.57  11 2.57
                             6 2.57   8 2.57   5 2.57  24 2.57
  15  0.778  0.444  0.351-  19 2.56  14 2.57  17 2.57  12 2.57   6 2.57  18 2.57  10 2.57   9 2.57
                            13 2.57   4 2.57  24 2.57  22 2.57
  16  0.111  0.778  0.351-  23 2.55  25 2.56  26 2.56  18 2.57  13 2.57   7 2.57  14 2.57  17 2.57
                            12 2.57  10 2.57   8 2.57   1 2.57
  17  0.444  0.778  0.351-  26 2.56  14 2.57  15 2.57   8 2.57   9 2.57  11 2.57  16 2.57  18 2.57
                            10 2.57   2 2.57  27 2.57  24 2.57
  18  0.778  0.778  0.351-  25 2.56  16 2.57  13 2.57   7 2.57  15 2.57  12 2.57  17 2.57   9 2.57
                             3 2.57  11 2.57  22 2.57  27 2.57
  19  0.889  0.223  0.449-  28 2.55  15 2.56  21 2.56  20 2.56  12 2.56  10 2.56  22 2.56  24 2.56
                            32 2.56  31 2.56  25 2.57  26 2.57
  20  0.222  0.222  0.448-  10 2.55  11 2.55  13 2.55  36 2.55  26 2.56  19 2.56  27 2.57  22 2.57
                            23 2.57  21 2.57  29 2.58  31 2.58
  21  0.556  0.222  0.448-  12 2.55  14 2.55  11 2.55  36 2.55  19 2.56  25 2.56  24 2.57  27 2.57
                            20 2.57  23 2.57  32 2.58  30 2.58
  22  0.888  0.556  0.449-  35 2.55  24 2.56  27 2.56  19 2.56  25 2.56  18 2.57  15 2.57  31 2.57
                            33 2.57  23 2.57  20 2.57  13 2.57
  23  0.222  0.556  0.448-  16 2.55  13 2.55  14 2.55  36 2.55  25 2.56  26 2.56  22 2.57  24 2.57
                            20 2.57  21 2.57  33 2.58  34 2.58
  24  0.556  0.556  0.449-  35 2.55  22 2.56  27 2.56  19 2.56  26 2.56  15 2.57  17 2.57  32 2.57
                            34 2.57  21 2.57  23 2.57  14 2.57
  25  0.889  0.889  0.449-  28 2.55  18 2.56  21 2.56  23 2.56  16 2.56  12 2.56  22 2.56  27 2.56
                            33 2.56  30 2.56  19 2.57  26 2.57
  26  0.223  0.889  0.449-  28 2.55  17 2.56  20 2.56  23 2.56  10 2.56  16 2.56  27 2.56  24 2.56
                            29 2.56  34 2.56  25 2.57  19 2.57
  27  0.556  0.888  0.449-  35 2.55  24 2.56  22 2.56  26 2.56  25 2.56  17 2.57  18 2.57  29 2.57
                            30 2.57  20 2.57  21 2.57  11 2.57
  28  0.000  0.000  0.546-  25 2.55  19 2.55  26 2.55  33 2.56  30 2.56  31 2.56  29 2.56  32 2.56
                            34 2.56
  29  0.333  0.999  0.548-  34 2.55  28 2.56  26 2.56  35 2.56  27 2.57  31 2.57  36 2.57  30 2.58
                            20 2.58
  30  0.668  0.999  0.548-  33 2.55  28 2.56  25 2.56  35 2.56  27 2.57  32 2.57  36 2.57  29 2.58
                            21 2.58
  31  0.999  0.333  0.548-  32 2.55  28 2.56  19 2.56  35 2.56  22 2.57  29 2.57  36 2.57  33 2.58
                            20 2.58
  32  0.668  0.333  0.548-  31 2.55  28 2.56  19 2.56  35 2.56  24 2.57  30 2.57  36 2.57  34 2.58
                            21 2.58
  33  0.999  0.668  0.548-  30 2.55  28 2.56  25 2.56  35 2.56  22 2.57  34 2.57  36 2.57  31 2.58
                            23 2.58
  34  0.333  0.668  0.548-  29 2.55  28 2.56  26 2.56  35 2.56  24 2.57  33 2.57  36 2.57  32 2.58
                            23 2.58
  35  0.667  0.667  0.547-  24 2.55  27 2.55  22 2.55  34 2.56  32 2.56  29 2.56  30 2.56  33 2.56
                            31 2.56
  36  0.333  0.333  0.546-  23 2.55  20 2.55  21 2.55  31 2.57  29 2.57  33 2.57  34 2.57  32 2.57
                            30 2.57

  LATTYP: Found a hexagonal cell.
 ALAT       =     7.6967864036
 C/A-ratio  =     2.7653617908

  Lattice vectors:

 A1 = (  -3.8483927580,  -6.6656128093,   0.0000000000)
 A2 = (   7.6967864037,   0.0000000000,   0.0000000000)
 A3 = (   0.0000000000,   0.0000000000,  21.2843990326)

Analysis of symmetry for initial positions (statically):
 Subroutine PRICEL returns:
 Original cell was already a primitive cell.

 Routine SETGRP: Setting up the symmetry group for a
 hexagonal supercell.

 Subroutine GETGRP returns: Found  6 space group operations
 (whereof  6 operations were pure point group operations)
 out of a pool of 24 trial point group operations.

The static configuration has the point symmetry C_3v.

Analysis of symmetry for dynamics (positions and initial velocities):
 Subroutine PRICEL returns:
 Original cell was already a primitive cell.

[...]

The dynamic configuration has the point symmetry C_3v.

Analysis of constrained symmetry for selective dynamics:
 Subroutine PRICEL returns:
 Original cell was already a primitive cell.

 Routine SETGRP: Setting up the symmetry group for a
 hexagonal supercell.

 Subroutine GETGRP returns: Found  6 space group operations
 (whereof  6 operations were pure point group operations)
 out of a pool of 24 trial point group operations.

The constrained configuration has the point symmetry C_3v.

 Subroutine INISYM returns: Found  6 space group operations
 (whereof  6 operations are pure point group operations),
 and found     1 'primitive' translations

                                     Primitive cell

  volume of cell :    1091.9705

  direct lattice vectors                    reciprocal lattice vectors
     7.696786404  0.000000000  0.000000000     0.129924354 -0.075011849  0.000000000
     3.848392758  6.665612809  0.000000000     0.000000000  0.150023716  0.000000000
[...]
     15      -4.4322      2.00000
     16      -4.4305      2.00000
     17      -4.4119      2.00000
     18      -4.3491      2.00000
     19      -4.3387      2.00000
     20      -4.2789      2.00000
     21      -4.2722      2.00000
     22      -4.2459      2.00000
     23      -4.2190      2.00000
     24      -4.0558      2.00000
     25      -4.0333      2.00000
     26      -4.0107      2.00000
     27      -3.9788      2.00000
     28      -3.9729      2.00000
     29      -3.9664      2.00000
     30      -3.9568      2.00000
     31      -3.9378      2.00000
     32      -3.9237      2.00000
     33      -3.9182      2.00000
     34      -3.8582      2.00000
     35      -3.8175      2.00000
     36      -3.7478      2.00000
     37      -3.6462      2.00000
     38      -3.6434      2.00000
     39      -3.5795      2.00000
     40      -3.5682      2.00000
     41      -3.5566      2.00000
     42      -3.5309      2.00000
     43      -3.5255      2.00000
     44      -3.5198      2.00000
     45      -3.5173      2.00000
     46      -3.3208      2.00000
     47      -3.3102      2.00000
     48      -3.3012      2.00000
     49      -3.2964      2.00000
     50      -3.2356      2.00000
     51      -3.2282      2.00000
     52      -3.2267      2.00000
     53      -3.2175      2.00000
     54      -3.2086      2.00000
     55      -3.1899      2.00000
     56      -3.1569      2.00000
     57      -3.1533      2.00000
     58      -3.1481      2.00000
     59      -3.1461      2.00000
     60      -3.1409      2.00000
[...]
    238       6.9104      0.00000
    239       6.9721      0.00000
    240       7.0627      0.00000
    241       7.1377      0.00000
    242       7.3514      0.00000
    243       7.3661      0.00000
    244       7.4470      0.00000
    245       7.5019      0.00000
    246       7.6994      0.00000
    247       7.7704      0.00000
    248       7.9642      0.00000
    249       8.0897      0.00000
    250       8.2454      0.00000
    251       8.3649      0.00000
    252       8.5059      0.00000

 soft charge-density along one line, spin component           1
         0         1         2         3         4         5         6         7         8         9
 total charge-density along one line

------------------------ aborting loop because EDIFF is reached ----------------------------------------

 total charge

# of ion       s       p       d       tot
    1        0.447   0.285   9.188   9.920
    2        0.449   0.285   9.187   9.920
    3        0.449   0.285   9.187   9.920
    4        0.449   0.285   9.187   9.920
    5        0.444   0.289   9.182   9.915
    6        0.449   0.285   9.187   9.920
    7        0.449   0.285   9.187   9.920
    8        0.449   0.285   9.187   9.920
    9        0.448   0.282   9.190   9.920
   10        0.442   0.373   9.173   9.989
   11        0.443   0.365   9.185   9.993
   12        0.442   0.373   9.173   9.989
   13        0.443   0.365   9.185   9.993
   14        0.443   0.365   9.185   9.993
   15        0.439   0.368   9.180   9.987
   16        0.442   0.373   9.173   9.989
   17        0.439   0.368   9.180   9.987
   18        0.439   0.368   9.180   9.987
   19        0.441   0.370   9.182   9.993
   20        0.452   0.390   9.167  10.009
   21        0.452   0.390   9.167  10.009
   22        0.433   0.371   9.183   9.987
   23        0.452   0.390   9.167  10.009
   24        0.433   0.371   9.183   9.987
   25        0.441   0.370   9.182   9.993
   26        0.441   0.370   9.182   9.993
   27        0.433   0.371   9.183   9.987
   28        0.448   0.290   9.190   9.927
   29        0.459   0.304   9.174   9.936
   30        0.459   0.304   9.174   9.936
   31        0.459   0.304   9.174   9.936
   32        0.459   0.304   9.174   9.936
   33        0.459   0.304   9.174   9.936
   34        0.459   0.304   9.174   9.936
   35        0.440   0.293   9.190   9.923
   36        0.541   0.424   6.678   7.642
tot         16.166  12.105 327.991 356.262

  FORCE on cell =-STRESS in cart. coord.  units (eV):
  Direction    XX          YY          ZZ          XY          YZ          ZX
  Alpha Z   858.11102   858.11102   858.11102
  Ewald  172730.03732172730.03693************     0.00037     0.00011     0.00015
  Hartree185628.72472185628.72471************     0.00003     0.00005     0.00006
  E(xc)   -2284.13921 -2284.13872 -2288.91701    -0.00043    -0.00003    -0.00006
  Local  ************************371672.43422     0.01851    -0.00054    -0.00088
  n-local  -755.42349  -739.27585  -765.15020     8.29026    -0.00626     0.12556
  augment  3352.78567  3352.80609  3374.63999    -0.01768     0.00023     0.00036
  Kinetic  3216.24317  3225.22183  3252.21972     5.51277     1.35832    -0.87287
  Fock        0.00000     0.00000     0.00000     0.00000     0.00000     0.00000
  Total      -6.34600    -6.34600     0.79793     0.00000    -0.00000     0.00000
  in kB      -9.31107    -9.31107     1.17076     0.00000    -0.00000     0.00000

 VOLUME and BASIS-vectors are now :
  energy-cutoff  :      500.00
  volume of cell :     1091.97
      direct lattice vectors                 reciprocal lattice vectors
     7.696786404  0.000000000  0.000000000     0.129924354 -0.075011849  0.000000000
     3.848392758  6.665612809  0.000000000     0.000000000  0.150023716  0.000000000
     0.000000000  0.000000000 21.284399033     0.000000000  0.000000000  0.046982769

  length of vectors
     7.696786404  7.696786404 21.284399033     0.150023716  0.150023716  0.046982769

 FORCES acting on ions
    electron-ion (+dipol)            ewald-force                    non-local-force                 convergence-correction
   -.416E-04 0.134E-06 0.346E+04   0.580E-04 -.434E-05 -.346E+04   0.560E-17 0.221E-17 -.281E+01   -.354E-03 -.172E-03 -.316E+00
   -.311E+00 -.568E-01 0.346E+04   0.280E+00 0.148E+00 -.346E+04   0.104E-01 -.729E-01 -.181E+01   0.253E-01 -.538E-02 -.283E+00
   0.311E+00 -.568E-01 0.346E+04   -.280E+00 0.148E+00 -.346E+04   -.104E-01 -.729E-01 -.181E+01   -.244E-01 -.289E-02 -.282E+00
   -.205E+00 -.241E+00 0.346E+04   0.269E+00 0.168E+00 -.346E+04   -.579E-01 0.455E-01 -.181E+01   0.806E-02 0.245E-01 -.283E+00
   -.619E-04 -.343E-05 0.346E+04   0.116E-03 -.101E-04 -.346E+04   -.174E-17 -.158E-17 -.182E+01   0.121E-01 0.742E-02 -.197E+00
   0.205E+00 -.241E+00 0.346E+04   -.269E+00 0.168E+00 -.346E+04   0.579E-01 0.455E-01 -.181E+01   -.964E-02 0.257E-01 -.282E+00
   0.106E+00 0.297E+00 0.346E+04   -.116E-01 -.317E+00 -.346E+04   -.683E-01 0.274E-01 -.181E+01   -.147E-01 -.198E-01 -.282E+00
   -.106E+00 0.297E+00 0.346E+04   0.113E-01 -.317E+00 -.346E+04   0.683E-01 0.274E-01 -.181E+01   0.181E-01 -.212E-01 -.282E+00
   -.144E-03 -.330E-04 0.346E+04   0.263E-03 0.205E-04 -.346E+04   -.658E-18 -.212E-17 -.229E+01   -.131E-01 -.678E-02 -.296E+00
   -.498E+00 -.287E+00 0.114E+04   0.878E+00 0.507E+00 -.113E+04   -.401E+00 -.232E+00 -.120E+01   0.551E-01 0.318E-01 -.804E-01
   -.909E-04 -.160E+01 0.113E+04   0.190E-03 0.131E+01 -.113E+04   -.100E-07 0.150E+00 -.447E+00   0.119E-01 0.911E-01 0.169E-02
   0.498E+00 -.287E+00 0.114E+04   -.878E+00 0.507E+00 -.113E+04   0.401E+00 -.232E+00 -.120E+01   -.569E-01 0.329E-01 -.804E-01
   -.139E+01 0.800E+00 0.113E+04   0.114E+01 -.656E+00 -.113E+04   0.130E+00 -.751E-01 -.447E+00   0.853E-01 -.344E-01 0.172E-02
   0.139E+01 0.800E+00 0.113E+04   -.114E+01 -.656E+00 -.113E+04   -.130E+00 -.751E-01 -.447E+00   -.617E-01 -.360E-01 -.215E-03
   -.142E-03 -.965E+00 0.113E+04   0.298E-03 0.722E+00 -.113E+04   -.119E-07 0.179E+00 -.834E+00   -.345E-02 0.543E-01 -.101E+00
   -.922E-04 0.575E+00 0.114E+04   0.186E-03 -.101E+01 -.113E+04   -.309E-07 0.463E+00 -.120E+01   -.901E-03 -.670E-01 -.804E-01
   -.836E+00 0.482E+00 0.113E+04   0.625E+00 -.361E+00 -.113E+04   0.155E+00 -.896E-01 -.834E+00   0.460E-01 -.301E-01 -.101E+00
   0.836E+00 0.482E+00 0.113E+04   -.625E+00 -.361E+00 -.113E+04   -.155E+00 -.896E-01 -.834E+00   -.445E-01 -.274E-01 -.991E-01
   -.616E-04 -.293E+01 -.120E+04   0.703E-04 0.291E+01 0.120E+04   0.318E-08 -.478E-01 0.629E+00   -.964E-03 0.666E-01 0.120E+00
   -.318E+02 -.183E+02 -.123E+04   0.325E+02 0.188E+02 0.123E+04   -.916E+00 -.529E+00 -.919E+00   0.185E+00 0.107E+00 0.271E+00
   0.318E+02 -.183E+02 -.123E+04   -.325E+02 0.188E+02 0.123E+04   0.916E+00 -.529E+00 -.919E+00   -.184E+00 0.105E+00 0.270E+00
   -.208E+02 0.120E+02 -.121E+04   0.200E+02 -.115E+02 0.121E+04   0.599E+00 -.346E+00 0.697E+00   0.183E+00 -.928E-01 0.168E+00
   -.840E-04 0.367E+02 -.123E+04   0.148E-03 -.375E+02 0.123E+04   -.705E-07 0.106E+01 -.919E+00   -.214E-02 -.213E+00 0.270E+00
   0.208E+02 0.120E+02 -.121E+04   -.200E+02 -.115E+02 0.121E+04   -.599E+00 -.346E+00 0.697E+00   -.161E+00 -.938E-01 0.168E+00
   0.254E+01 0.146E+01 -.120E+04   -.252E+01 -.146E+01 0.120E+04   0.414E-01 0.239E-01 0.629E+00   -.585E-01 -.338E-01 0.120E+00
   -.254E+01 0.146E+01 -.120E+04   0.252E+01 -.146E+01 0.120E+04   -.414E-01 0.239E-01 0.629E+00   0.576E-01 -.339E-01 0.120E+00
   -.121E-03 -.240E+02 -.121E+04   0.242E-03 0.231E+02 0.121E+04   -.460E-07 0.691E+00 0.697E+00   0.110E-01 0.205E+00 0.168E+00
   -.410E-04 0.141E-04 -.347E+04   0.436E-04 -.322E-04 0.347E+04   0.582E-17 -.244E-17 0.219E+01   -.186E-02 -.102E-02 0.326E+00
   -.342E+02 -.569E+02 -.349E+04   0.346E+02 0.572E+02 0.349E+04   -.581E+00 -.602E+00 0.144E+01   0.167E+00 0.249E+00 0.322E+00
   0.342E+02 -.569E+02 -.349E+04   -.346E+02 0.572E+02 0.349E+04   0.581E+00 -.602E+00 0.144E+01   -.144E+00 0.251E+00 0.321E+00
   -.663E+02 -.116E+01 -.349E+04   0.669E+02 0.134E+01 0.349E+04   -.812E+00 -.203E+00 0.144E+01   0.299E+00 0.197E-01 0.322E+00
   0.663E+02 -.116E+01 -.349E+04   -.669E+02 0.134E+01 0.349E+04   0.812E+00 -.203E+00 0.144E+01   -.278E+00 0.203E-01 0.322E+00
   -.322E+02 0.580E+02 -.349E+04   0.323E+02 -.586E+02 0.349E+04   -.231E+00 0.804E+00 0.144E+01   0.145E+00 -.250E+00 0.321E+00
   0.322E+02 0.580E+02 -.349E+04   -.323E+02 -.586E+02 0.349E+04   0.231E+00 0.804E+00 0.144E+01   -.121E+00 -.251E+00 0.322E+00
   -.145E-03 -.269E-04 -.348E+04   0.250E-03 0.268E-05 0.348E+04   0.108E-17 -.234E-19 0.263E+01   -.141E-01 -.734E-02 0.385E+00
   -.625E-04 -.218E-04 -.252E+04   0.100E-03 0.198E-04 0.251E+04   0.729E-17 -.142E-17 0.458E+01   0.406E-03 0.267E-03 0.192E+00
   -.238E-03 0.556E-05 0.449E+01   0.144E-12 0.495E-12 0.728E-11   0.147E-15 -.335E-15 -.595E+01   0.115E+00 0.634E-01 0.146E+01

 POSITION                                       TOTAL-FORCE (eV/Angst)
      0.00000      0.00000      5.37156        -0.000000      0.000000      0.044934
      2.56560      0.00000      5.37156         0.005411      0.014434      0.060255
      5.13119      0.00000      5.37156        -0.005411      0.014434      0.060255
      1.28280      2.22187      5.37156         0.015205     -0.002531      0.060255
      3.84839      2.22187      5.37156         0.000000      0.000000      0.028770
      6.41399      2.22187      5.37156        -0.015205     -0.002531      0.060255
      2.56560      4.44374      5.37156         0.009795     -0.011903      0.060255
      5.13119      4.44374      5.37156        -0.009795     -0.011903      0.060255
      7.69679      4.44374      5.37156         0.000000     -0.000000      0.025725
      1.28280      0.74062      7.46636         0.035502      0.020497     -0.054977
      3.84839      0.74062      7.46636         0.000000     -0.053143     -0.095026
      6.41399      0.74062      7.46636        -0.035502      0.020497     -0.054977
      2.56560      2.96249      7.46636        -0.046023      0.026571     -0.095026
      5.13119      2.96249      7.46636         0.046023      0.026571     -0.095026
      7.69679      2.96249      7.46636         0.000000     -0.010216      0.001230
      3.84839      5.18437      7.46636         0.000000     -0.040994     -0.054977
      6.41399      5.18437      7.46636        -0.008848      0.005108      0.001230
      8.97958      5.18437      7.46636         0.008848      0.005108      0.001230
      7.69679      1.48414      9.55535        -0.000000      0.003619     -0.013277
      2.56128      1.47875      9.53998        -0.003253     -0.001878     -0.002589
      5.13551      1.47875      9.53998         0.003253     -0.001878     -0.002589
      8.97644      3.70493      9.56275         0.007072     -0.004083     -0.010648
      3.84839      3.70811      9.53998        -0.000000      0.003756     -0.002589
      6.41713      3.70493      9.56275        -0.007072     -0.004083     -0.010648
     10.25987      5.92354      9.55535        -0.003134     -0.001810     -0.013277
      5.13370      5.92354      9.55535         0.003134     -0.001810     -0.013277
      7.69679      5.92136      9.56275        -0.000000      0.008166     -0.010648
      0.00000      0.00000     11.63109        -0.000000      0.000000      0.023015
      6.40750      6.66078     11.65531        -0.007159      0.002859      0.011141
      8.98608      6.66078     11.65531         0.007159      0.002859      0.011141
      8.97216      2.21866     11.65531        -0.001103     -0.007629      0.011141
      6.42142      2.21866     11.65531         0.001103     -0.007629      0.011141
     10.26144      4.45178     11.65531         0.006056      0.004770      0.011141
      5.13213      4.45178     11.65531        -0.006056      0.004770      0.011141
      7.69679      4.44374     11.63516         0.000000      0.000000      0.012639
      3.84839      2.22187     11.61289        -0.000000      0.000000     -0.037598
    total drift:                                0.114906      0.063410      0.011170

  FREE ENERGIE OF THE ION-ELECTRON SYSTEM (eV)
  free  energy   TOTEN  =      -130.03626707 eV

  energy  without entropy=     -130.03626707  energy(sigma->0) =     -130.03626707

 stress matrix after NEB project (eV)
     -6.34600      0.00000      0.00000
      0.00000     -6.34600     -0.00000
     -0.00000     -0.00000      0.79793
  FORCES: max atom, RMS     0.037598    0.011024
  FORCE total and by dimension    0.066145    0.037598
  Stress total and by dimension    9.009999    6.345999
|           W    W    AA    RRRRR   N    N  II  N    N   GGGG   !!!           |
|           W    W   A  A   R    R  NN   N  II  NN   N  G    G  !!!           |
|           W    W  A    A  R    R  N N  N  II  N N  N  G       !!!           |
|           W WW W  AAAAAA  RRRRR   N  N N  II  N  N N  G  GGG   !            |
|           WW  WW  A    A  R   R   N   NN  II  N   NN  G    G                |
|           W    W  A    A  R    R  N    N  II  N    N   GGGG   !!!           |
|     Tetrahedron method does not include variations of the Fermi             |
|     occupations, so forces and stress will be inaccurate. We suggest        |
|     using a different smearing scheme ISMEAR = 1 or 2 for metals in         |
|     relaxations.                                                            |

 total charge

# of ion       s       p       d       tot
    1        0.447   0.285   9.188   9.920
    2        0.449   0.285   9.187   9.920
    3        0.449   0.285   9.187   9.920
    4        0.449   0.285   9.187   9.920
    5        0.444   0.289   9.182   9.915
    6        0.449   0.285   9.187   9.920
    7        0.449   0.285   9.187   9.920
    8        0.449   0.285   9.187   9.920
    9        0.448   0.282   9.190   9.920
   10        0.442   0.373   9.173   9.989
   11        0.443   0.365   9.185   9.993
   12        0.442   0.373   9.173   9.989
   13        0.443   0.365   9.185   9.993
   14        0.443   0.365   9.185   9.993
   15        0.439   0.368   9.180   9.987
   16        0.442   0.373   9.173   9.989
   17        0.439   0.368   9.180   9.987
   18        0.439   0.368   9.180   9.987
   19        0.441   0.370   9.182   9.993
   20        0.452   0.390   9.167  10.009
   21        0.452   0.390   9.167  10.009
   22        0.433   0.371   9.183   9.987
   23        0.452   0.390   9.167  10.009
   24        0.433   0.371   9.183   9.987
   25        0.441   0.370   9.182   9.993
   26        0.441   0.370   9.182   9.993
   27        0.433   0.371   9.183   9.987
   28        0.448   0.290   9.190   9.927
   29        0.459   0.304   9.174   9.936
   30        0.459   0.304   9.174   9.936
   31        0.459   0.304   9.174   9.936
   32        0.459   0.304   9.174   9.936
   33        0.459   0.304   9.174   9.936
   34        0.459   0.304   9.174   9.936
   35        0.440   0.293   9.190   9.923
   36        0.541   0.424   6.678   7.642
tot         16.166  12.105 327.991 356.262

 BZINTS: Fermi energy:    0.121297;  393.000000 electrons
         Band energy:-0.104361E+04;  BLOECHL correction:   -0.055431