 vasp.6.2.0 18Jan21 (build Jun 12 2021 23:27:24) complex

 executed on             LinuxIFC date 2022.05.30  18:25:47

 INCAR:
   ISMEAR = -5
   SIGMA = 0.1
   ISPIN = 1
   EDIFF = 1.d-5
   EDIFFG = -0.01
   NSW = 0
   NELM = 150
   ENCUT = 500
   ISIF = 2
   IBRION = 2
   LREAL = Auto
   ALGO = Fast
   ICHARG = 11
   LORBIT = 10
   LCHARG = .F.
   LWAVE = .F.

 POTCAR:    PAW_PBE Cu 22Jun2005
 POTCAR:    PAW_PBE Rh 04Feb2005
 POTCAR:    PAW_PBE C 08Apr2002
|           W    W    AA    RRRRR   N    N  II  N    N   GGGG   !!!           |
|           W    W   A  A   R    R  NN   N  II  NN   N  G    G  !!!           |
|           W    W  A    A  R    R  N N  N  II  N N  N  G       !!!           |
|           W WW W  AAAAAA  RRRRR   N  N N  II  N  N N  G  GGG   !            |
|           WW  WW  A    A  R   R   N   NN  II  N   NN  G    G                |
|           W    W  A    A  R    R  N    N  II  N    N   GGGG   !!!           |
|     For optimal performance we recommend to set                             |
|       NCORE = 2 up to number-of-cores-per-socket                            |
|     This setting can greatly improve the performance of VASP for DFT.       |
|     The default, NCORE=1 might be grossly inefficient on modern             |
|     multi-core architectures or massively parallel machines. Do your        |
|     Unfortunately you need to use the default for GW and RPA                |
|     calculations (for HF NCORE is supported but not extensively tested      |
|     yet).                                                                   |

 POTCAR:    PAW_PBE Cu 22Jun2005
   VRHFIN =Cu: d10 p1

   TITEL  = PAW_PBE Cu 22Jun2005
   POMASS =   63.546; ZVAL   =   11.000    mass and valenz
   ENMAX  =  295.446; ENMIN  =  221.585 eV

 POTCAR:    PAW_PBE Rh 04Feb2005
   VRHFIN =Rh: s1 d8

   TITEL  = PAW_PBE Rh 04Feb2005
   POMASS =  102.906; ZVAL   =    9.000    mass and valenz
   ENMAX  =  228.996; ENMIN  =  171.747 eV

 POTCAR:    PAW_PBE C 08Apr2002
   VRHFIN =C: s2p2

   TITEL  = PAW_PBE C 08Apr2002
   POMASS =   12.011; ZVAL   =    4.000    mass and valenz
   ENMAX  =  400.000; ENMIN  =  300.000 eV

 Optimization of the real space projectors (new method)

 maximal supplied QI-value         = 16.25
 optimisation between [QCUT,QGAM] = [ 11.38, 22.75] = [ 36.24,144.96] Ry
 Optimized for a Real-space Cutoff    1.52 Angstroem

   l    n(q)    QCUT    max X(q) W(low)/X(q) W(high)/X(q)  e(spline)
   2      9    11.376     4.610    0.21E-03    0.10E-03    0.26E-06
   2      9    11.376     8.522    0.33E-03    0.16E-03    0.37E-06
   0     10    11.376    51.609    0.62E-04    0.20E-04    0.13E-06
   0     10    11.376    27.747    0.54E-04    0.20E-04    0.13E-06
   1     10    11.376    20.408    0.13E-04    0.99E-04    0.19E-06
   1     10    11.376    13.425    0.12E-04    0.87E-04    0.17E-06
 Optimization of the real space projectors (new method)

[...]

   l    n(q)    QCUT    max X(q) W(low)/X(q) W(high)/X(q)  e(spline)
   2      9    11.327    59.645    0.31E-03    0.12E-04    0.28E-06
   2      9    11.327    58.460    0.31E-03    0.12E-04    0.29E-06
   0     10    11.327    97.683    0.32E-04    0.83E-04    0.31E-06
   0     10    11.327    53.223    0.30E-04    0.78E-04    0.29E-06
   1     10    11.327    13.596    0.49E-03    0.95E-03    0.55E-06
   1     10    11.327     7.885    0.36E-03    0.71E-03    0.41E-06
 Optimization of the real space projectors (new method)

 maximal supplied QI-value         = 25.13
 optimisation between [QCUT,QGAM] = [ 11.31, 22.87] = [ 35.82,146.48] Ry
 Optimized for a Real-space Cutoff    1.00 Angstroem

   l    n(q)    QCUT    max X(q) W(low)/X(q) W(high)/X(q)  e(spline)
   0      7    11.310   115.676    0.43E-03    0.13E-02    0.19E-06
   0      7    11.310    87.132    0.43E-03    0.13E-02    0.18E-06
   1      6    11.310     4.429    0.42E-03    0.74E-03    0.11E-06
   1      6    11.310     2.733    0.34E-03    0.55E-03    0.92E-07
  PAW_PBE Cu 22Jun2005                  :
  PAW_PBE Rh 04Feb2005                  :
  PAW_PBE C 08Apr2002                   :

 POSCAR: Cu-Rh-C
  positions in direct lattice
  velocities in cartesian coordinates
 exchange correlation table for  LEXCH =        8
   RHO(1)=    0.500       N(1)  =     2000
   RHO(2)=  100.500       N(2)  =     4000

 VTST: version 3.2, (02/03/18)

 CHAIN: initializing optimizer

 OPT: Using VASP Conjugate-Gradient optimizer
 CHAIN: Read ICHAIN            0

 POSCAR: Cu-Rh-C
  positions in direct lattice
  velocities in cartesian coordinates

 ion  position               nearest neighbor table
   1  0.000  0.000  0.226-   7 2.57   3 2.57   4 2.57   2 2.57   6 2.57   8 2.57  12 2.57  10 2.57
                            16 2.57
   2  0.333  0.000  0.226-   8 2.57   9 2.57   5 2.57   1 2.57   3 2.57  11 2.57   4 2.57  10 2.57
                            17 2.57
   3  0.667  0.000  0.226-   1 2.57   7 2.57   6 2.57   9 2.57   2 2.57  12 2.57   5 2.57  18 2.57
                            11 2.57
   4  0.000  0.333  0.226-   5 2.57   6 2.57   1 2.57   7 2.57   2 2.57  13 2.57   9 2.57  10 2.57
                            15 2.57
   5  0.333  0.333  0.226-   4 2.57   2 2.57   7 2.57  13 2.57   8 2.57   6 2.57   3 2.57  11 2.57
                            14 2.57
   6  0.667  0.333  0.226-   4 2.57   9 2.57  15 2.57   3 2.57   1 2.57   8 2.57  14 2.57   5 2.57
                            12 2.57
   7  0.000  0.667  0.226-   1 2.57   3 2.57  16 2.57  18 2.57   4 2.57   5 2.57   8 2.57   9 2.57
                            13 2.57
   8  0.333  0.667  0.226-   9 2.57   2 2.57  17 2.57   6 2.57   1 2.57   7 2.57   5 2.57  14 2.57
                            16 2.57
   9  0.667  0.667  0.226-   8 2.57   6 2.57   2 2.57  17 2.57   3 2.57   7 2.57   4 2.57  15 2.57
                            18 2.57
  10  0.111  0.111  0.314-  20 2.55  26 2.56  19 2.56  11 2.57  12 2.57  13 2.57   1 2.57   2 2.57
                             4 2.57  15 2.57  16 2.57  17 2.57
  11  0.444  0.111  0.314-  20 2.55  21 2.55  27 2.56  10 2.57  13 2.57   2 2.57  17 2.57  14 2.57
                            12 2.57   5 2.57   3 2.57  18 2.57
  12  0.778  0.111  0.314-  21 2.55  19 2.56  25 2.56  15 2.57  10 2.57  14 2.57  18 2.57   3 2.57
                             1 2.57  16 2.57  11 2.57   6 2.57
  13  0.111  0.444  0.314-  23 2.55  20 2.55  22 2.56  16 2.57  18 2.57  10 2.57  11 2.57  14 2.57
                             5 2.57   4 2.57   7 2.57  15 2.57
  14  0.444  0.444  0.314-  21 2.55  23 2.55  24 2.56  15 2.57  17 2.57  12 2.57  16 2.57  13 2.57
                            11 2.57   6 2.57   8 2.57   5 2.57
  15  0.778  0.444  0.314-  19 2.56  24 2.56  22 2.56  14 2.57  17 2.57  12 2.57   6 2.57  18 2.57
                            10 2.57   9 2.57  13 2.57   4 2.57
  16  0.111  0.778  0.314-  23 2.55  25 2.56  26 2.56  18 2.57  13 2.57   7 2.57  14 2.57  17 2.57
                            12 2.57  10 2.57   8 2.57   1 2.57
  17  0.444  0.778  0.314-  26 2.56  27 2.56  24 2.56  14 2.57  15 2.57   8 2.57   9 2.57  11 2.57
                            16 2.57  18 2.57  10 2.57   2 2.57
  18  0.778  0.778  0.314-  25 2.56  22 2.56  27 2.56  16 2.57  13 2.57   7 2.57  15 2.57  12 2.57
                            17 2.57   9 2.57   3 2.57  11 2.57
  19  0.889  0.223  0.401-  28 2.55  32 2.55  31 2.55  15 2.56  12 2.56  10 2.56  21 2.56  20 2.56
                            22 2.56  24 2.56  25 2.57  26 2.57
  20  0.222  0.222  0.401-  10 2.55  11 2.55  13 2.55  26 2.56  19 2.56  27 2.57  22 2.57  36 2.57
                            29 2.58  31 2.58  23 2.58  21 2.58
  21  0.557  0.222  0.401-  12 2.55  14 2.55  11 2.55  19 2.56  25 2.56  24 2.57  27 2.57  36 2.57
                            32 2.58  30 2.58  20 2.58  23 2.58
  22  0.889  0.556  0.402-  35 2.54  31 2.56  33 2.56  18 2.56  15 2.56  19 2.56  25 2.56  13 2.56
                            24 2.56  27 2.56  23 2.57  20 2.57
  23  0.222  0.557  0.401-  16 2.55  13 2.55  14 2.55  25 2.56  26 2.56  22 2.57  24 2.57  36 2.57
                            33 2.58  34 2.58  20 2.58  21 2.58
  24  0.556  0.556  0.402-  35 2.54  32 2.56  34 2.56  15 2.56  17 2.56  19 2.56  26 2.56  14 2.56
                            22 2.56  27 2.56  21 2.57  23 2.57
  25  0.889  0.889  0.401-  28 2.55  33 2.55  30 2.55  18 2.56  16 2.56  12 2.56  21 2.56  23 2.56
                            22 2.56  27 2.56  19 2.57  26 2.57
  26  0.223  0.889  0.401-  28 2.55  29 2.55  34 2.55  17 2.56  10 2.56  16 2.56  20 2.56  23 2.56
                            27 2.56  24 2.56  25 2.57  19 2.57
  27  0.556  0.889  0.402-  35 2.54  29 2.56  30 2.56  17 2.56  18 2.56  26 2.56  25 2.56  11 2.56
                            24 2.56  22 2.56  20 2.57  21 2.57
  28  0.000  0.000  0.488-  25 2.55  19 2.55  26 2.55  33 2.56  30 2.56  31 2.56  29 2.56  32 2.56
                            34 2.56
  29  0.333  0.998  0.489-  34 2.54  26 2.55  28 2.56  27 2.56  35 2.56  31 2.58  20 2.58  36 2.58
                            30 2.59
  30  0.669  0.998  0.489-  33 2.54  25 2.55  28 2.56  27 2.56  35 2.56  32 2.58  21 2.58  36 2.58
                            29 2.59
  31  0.998  0.333  0.489-  32 2.54  19 2.55  28 2.56  22 2.56  35 2.56  29 2.58  20 2.58  36 2.58
                            33 2.59
  32  0.669  0.333  0.489-  31 2.54  19 2.55  28 2.56  24 2.56  35 2.56  30 2.58  21 2.58  36 2.58
                            34 2.59
  33  0.998  0.669  0.489-  30 2.54  25 2.55  28 2.56  22 2.56  35 2.56  34 2.58  23 2.58  36 2.58
                            31 2.59
  34  0.333  0.669  0.489-  29 2.54  26 2.55  28 2.56  24 2.56  35 2.56  33 2.58  23 2.58  36 2.58
                            32 2.59
  35  0.667  0.667  0.489-  24 2.54  27 2.54  22 2.54  34 2.56  32 2.56  29 2.56  30 2.56  33 2.56
                            31 2.56
  36  0.333  0.333  0.489-  37 1.70  23 2.57  20 2.57  21 2.57  31 2.58  29 2.58  33 2.58  34 2.58
                            32 2.58  30 2.58
  37  0.333  0.333  0.561-  36 1.70

  LATTYP: Found a hexagonal cell.
 ALAT       =     7.6967864036
 C/A-ratio  =     3.0908716217

  Lattice vectors:

 A1 = (  -3.8483927580,  -6.6656128093,   0.0000000000)
 A2 = (   7.6967864037,   0.0000000000,   0.0000000000)
 A3 = (   0.0000000000,   0.0000000000,  23.7897786731)

Analysis of symmetry for initial positions (statically):
 Subroutine PRICEL returns:
 Original cell was already a primitive cell.

 Routine SETGRP: Setting up the symmetry group for a
 hexagonal supercell.

 Subroutine GETGRP returns: Found  6 space group operations
 (whereof  6 operations were pure point group operations)
 out of a pool of 24 trial point group operations.

The static configuration has the point symmetry C_3v.

Analysis of symmetry for dynamics (positions and initial velocities):
 Subroutine PRICEL returns:
 Original cell was already a primitive cell.

[...]

The dynamic configuration has the point symmetry C_3v.

Analysis of constrained symmetry for selective dynamics:
 Subroutine PRICEL returns:
 Original cell was already a primitive cell.

 Routine SETGRP: Setting up the symmetry group for a
 hexagonal supercell.

 Subroutine GETGRP returns: Found  6 space group operations
[...]
     24      -4.7618      2.00000
     25      -4.6689      2.00000
     26      -4.6607      2.00000
     27      -4.6473      2.00000
     28      -4.5775      2.00000
     29      -4.5731      2.00000
     30      -4.5374      2.00000
     31      -4.4889      2.00000
     32      -4.4749      2.00000
     33      -4.4709      2.00000
     34      -4.4557      2.00000
     35      -4.4401      2.00000
     36      -4.3798      2.00000
     37      -4.3162      2.00000
     38      -4.2765      2.00000
     39      -4.2500      2.00000
     40      -4.2120      2.00000
     41      -4.1555      2.00000
     42      -4.1236      2.00000
     43      -4.0824      2.00000
     44      -4.0615      2.00000
     45      -4.0410      2.00000
     46      -4.0372      2.00000
     47      -3.9576      2.00000
     48      -3.9389      2.00000
     49      -3.9278      2.00000
     50      -3.8416      2.00000
     51      -3.8149      2.00000
     52      -3.7899      2.00000
     53      -3.7791      2.00000
     54      -3.7504      2.00000
     55      -3.7362      2.00000
     56      -3.7192      2.00000
     57      -3.7094      2.00000
     58      -3.6997      2.00000
     59      -3.6866      2.00000
     60      -3.6618      2.00000
[...]
    238       5.7713      0.00000
    239       5.9311      0.00000
    240       6.0254      0.00000
    241       6.0631      0.00000
    242       6.1378      0.00000
    243       6.3415      0.00000
    244       6.3607      0.00000
    245       6.5584      0.00000
    246       6.7416      0.00000
    247       6.8637      0.00000
    248       6.9177      0.00000
    249       7.0915      0.00000
    250       7.2996      0.00000
    251       7.3878      0.00000
    252       7.6061      0.00000

 soft charge-density along one line, spin component           1
         0         1         2         3         4         5         6         7         8         9
 total charge-density along one line

------------------------ aborting loop because EDIFF is reached ----------------------------------------

 total charge

# of ion       s       p       d       tot
    1        0.449   0.284   9.189   9.922
    2        0.449   0.285   9.187   9.921
    3        0.449   0.285   9.187   9.921
    4        0.449   0.285   9.187   9.921
    5        0.450   0.284   9.188   9.922
    6        0.449   0.285   9.187   9.921
    7        0.449   0.285   9.187   9.921
    8        0.449   0.285   9.187   9.921
    9        0.447   0.286   9.186   9.918
   10        0.442   0.371   9.181   9.993
   11        0.440   0.372   9.180   9.991
   12        0.442   0.371   9.181   9.993
   13        0.440   0.372   9.180   9.991
   14        0.440   0.372   9.180   9.991
   15        0.440   0.369   9.181   9.990
   16        0.442   0.371   9.181   9.993
   17        0.440   0.369   9.181   9.990
   18        0.440   0.369   9.181   9.990
   19        0.444   0.371   9.182   9.997
   20        0.452   0.383   9.178  10.013
   21        0.452   0.383   9.178  10.013
   22        0.436   0.374   9.181   9.990
   23        0.452   0.383   9.178  10.013
   24        0.436   0.374   9.181   9.990
   25        0.444   0.371   9.182   9.997
   26        0.444   0.371   9.182   9.997
   27        0.436   0.374   9.181   9.990
   28        0.457   0.288   9.193   9.938
   29        0.445   0.300   9.192   9.937
   30        0.445   0.300   9.192   9.937
   31        0.445   0.300   9.192   9.937
   32        0.445   0.300   9.192   9.937
   33        0.445   0.300   9.192   9.937
   34        0.445   0.300   9.192   9.937
   35        0.453   0.288   9.194   9.936
   36        0.608   0.697   7.632   8.936
   37        1.027   1.169   0.000   2.196
tot         17.211  13.523 329.104 359.838

  FORCE on cell =-STRESS in cart. coord.  units (eV):
  Direction    XX          YY          ZZ          XY          YZ          ZX
  Alpha Z   785.59876   785.59876   785.59876
  Ewald  224456.78590224456.78548************     0.00039     0.00011     0.00018
  Hartree237209.68716237209.68713************     0.00004     0.00005     0.00007
  E(xc)   -2304.20083 -2304.20034 -2308.69239    -0.00043    -0.00004    -0.00006
  Local  ************************475154.84342     0.01859    -0.00055    -0.00092
  n-local  -752.34097  -737.39910  -751.87657     7.97358    -0.04688     0.25759
  augment  3368.94622  3368.96662  3375.71415    -0.01767     0.00032     0.00061
  Kinetic  3301.86491  3304.59494  3305.78238     2.96952     1.97132    -1.42405
  Fock        0.00000     0.00000     0.00000     0.00000     0.00000     0.00000
  Total      -0.14543    -0.14543     3.29027     0.00000     0.00000     0.00000
  in kB      -0.19090    -0.19090     4.31919     0.00000     0.00000     0.00000

 VOLUME and BASIS-vectors are now :
  energy-cutoff  :      500.00
  volume of cell :     1220.51
      direct lattice vectors                 reciprocal lattice vectors
     7.696786404  0.000000000  0.000000000     0.129924354 -0.075011849  0.000000000
     3.848392758  6.665612809  0.000000000     0.000000000  0.150023716  0.000000000
     0.000000000  0.000000000 23.789778673     0.000000000  0.000000000  0.042034859

  length of vectors
     7.696786404  7.696786404 23.789778673     0.150023716  0.150023716  0.042034859

 FORCES acting on ions
    electron-ion (+dipol)            ewald-force                    non-local-force                 convergence-correction
   -.423E-04 -.261E-06 0.373E+04   0.579E-04 -.437E-05 -.373E+04   0.186E-17 -.478E-17 -.218E+01   -.410E-03 -.204E-03 -.555E+00
   -.258E+00 -.101E+00 0.373E+04   0.218E+00 0.748E-01 -.373E+04   0.419E-02 0.141E-01 -.203E+01   0.368E-01 0.173E-01 -.563E+00
   0.258E+00 -.101E+00 0.373E+04   -.218E+00 0.747E-01 -.373E+04   -.419E-02 0.141E-01 -.203E+01   -.359E-01 0.200E-01 -.562E+00
   -.216E+00 -.173E+00 0.373E+04   0.174E+00 0.152E+00 -.373E+04   0.143E-01 -.345E-02 -.203E+01   0.335E-01 0.231E-01 -.563E+00
   -.635E-04 -.442E-05 0.373E+04   0.116E-03 -.101E-04 -.373E+04   0.122E-17 0.193E-17 -.215E+01   0.123E-01 0.751E-02 -.468E+00
   0.216E+00 -.173E+00 0.373E+04   -.174E+00 0.152E+00 -.373E+04   -.143E-01 -.345E-02 -.203E+01   -.352E-01 0.243E-01 -.562E+00
   0.416E-01 0.274E+00 0.373E+04   -.445E-01 -.226E+00 -.373E+04   0.102E-01 -.107E-01 -.203E+01   -.622E-03 -.411E-01 -.562E+00
   -.415E-01 0.274E+00 0.373E+04   0.443E-01 -.226E+00 -.373E+04   -.102E-01 -.107E-01 -.203E+01   0.413E-02 -.427E-01 -.562E+00
   -.145E-03 -.333E-04 0.373E+04   0.263E-03 0.205E-04 -.373E+04   0.458E-17 0.352E-17 -.212E+01   -.132E-01 -.684E-02 -.577E+00
   -.241E+00 -.139E+00 0.126E+04   0.371E+00 0.214E+00 -.126E+04   -.168E+00 -.970E-01 -.799E+00   0.222E-01 0.128E-01 0.148E+00
   -.889E-04 -.118E+01 0.126E+04   0.190E-03 0.984E+00 -.126E+04   -.889E-08 0.133E+00 -.716E+00   0.123E-01 0.512E-01 0.140E+00
   0.241E+00 -.139E+00 0.126E+04   -.371E+00 0.214E+00 -.126E+04   0.168E+00 -.970E-01 -.799E+00   -.246E-01 0.150E-01 0.150E+00
   -.103E+01 0.592E+00 0.126E+04   0.852E+00 -.492E+00 -.126E+04   0.116E+00 -.667E-01 -.716E+00   0.510E-01 -.142E-01 0.140E+00
   0.103E+01 0.592E+00 0.126E+04   -.853E+00 -.492E+00 -.126E+04   -.116E+00 -.667E-01 -.716E+00   -.263E-01 -.156E-01 0.140E+00
   -.140E-03 -.117E+01 0.126E+04   0.298E-03 0.107E+01 -.126E+04   -.194E-08 0.292E-01 -.665E+00   -.434E-02 0.694E-01 0.111E+00
   -.890E-04 0.278E+00 0.126E+04   0.186E-03 -.428E+00 -.126E+04   -.129E-07 0.194E+00 -.799E+00   -.286E-03 -.300E-01 0.150E+00
   -.102E+01 0.586E+00 0.126E+04   0.923E+00 -.533E+00 -.126E+04   0.252E-01 -.146E-01 -.665E+00   0.586E-01 -.385E-01 0.111E+00
   0.102E+01 0.586E+00 0.126E+04   -.924E+00 -.533E+00 -.126E+04   -.252E-01 -.146E-01 -.665E+00   -.575E-01 -.349E-01 0.113E+00
   -.581E-04 -.742E+00 -.122E+04   0.683E-04 0.795E+00 0.122E+04   0.489E-08 -.735E-01 0.656E+00   -.146E-01 -.568E-02 0.607E+00
   -.215E+02 -.124E+02 -.124E+04   0.217E+02 0.125E+02 0.123E+04   -.394E+00 -.227E+00 0.528E+00   0.827E-01 0.476E-01 0.669E+00
   0.215E+02 -.124E+02 -.124E+04   -.217E+02 0.125E+02 0.123E+04   0.394E+00 -.227E+00 0.528E+00   -.567E-01 0.481E-01 0.669E+00
   -.119E+02 0.688E+01 -.123E+04   0.115E+02 -.664E+01 0.123E+04   0.407E+00 -.235E+00 0.102E+01   0.261E-01 -.140E-01 0.576E+00
   -.797E-04 0.248E+02 -.124E+04   0.147E-03 -.250E+02 0.123E+04   -.303E-07 0.455E+00 0.528E+00   0.121E-01 -.743E-01 0.669E+00
   0.119E+02 0.688E+01 -.123E+04   -.115E+02 -.664E+01 0.123E+04   -.407E+00 -.235E+00 0.102E+01   -.285E-01 -.174E-01 0.576E+00
   0.642E+00 0.371E+00 -.122E+04   -.689E+00 -.398E+00 0.122E+04   0.636E-01 0.367E-01 0.656E+00   -.992E-02 -.571E-02 0.607E+00
   -.642E+00 0.371E+00 -.122E+04   0.689E+00 -.398E+00 0.122E+04   -.636E-01 0.367E-01 0.656E+00   -.118E-01 -.957E-02 0.607E+00
   -.125E-03 -.138E+02 -.123E+04   0.244E-03 0.133E+02 0.123E+04   -.313E-07 0.470E+00 0.102E+01   0.858E-03 0.296E-01 0.576E+00
   -.345E-04 0.180E-04 -.368E+04   0.392E-04 -.335E-04 0.367E+04   0.244E-16 -.456E-17 0.219E+01   -.700E-03 -.352E-03 0.702E+00
   -.112E+02 -.163E+02 -.368E+04   0.108E+02 0.153E+02 0.367E+04   0.215E+00 0.522E+00 0.265E+01   0.777E-01 0.166E+00 0.624E+00
   0.112E+02 -.163E+02 -.368E+04   -.108E+02 0.153E+02 0.367E+04   -.215E+00 0.522E+00 0.265E+01   -.761E-01 0.168E+00 0.623E+00
   -.197E+02 -.158E+01 -.368E+04   0.187E+02 0.168E+01 0.367E+04   0.560E+00 -.749E-01 0.265E+01   0.182E+00 -.156E-01 0.624E+00
   0.197E+02 -.158E+01 -.368E+04   -.187E+02 0.168E+01 0.367E+04   -.560E+00 -.749E-01 0.265E+01   -.184E+00 -.151E-01 0.622E+00
   -.847E+01 0.178E+02 -.368E+04   0.788E+01 -.170E+02 0.367E+04   0.345E+00 -.447E+00 0.265E+01   0.107E+00 -.150E+00 0.623E+00
   0.847E+01 0.178E+02 -.368E+04   -.788E+01 -.170E+02 0.367E+04   -.345E+00 -.447E+00 0.265E+01   -.104E+00 -.152E+00 0.622E+00
   -.153E-03 -.278E-04 -.368E+04   0.255E-03 0.338E-05 0.368E+04   0.372E-18 0.187E-17 0.248E+01   -.131E-01 -.673E-02 0.623E+00
   -.404E-04 -.276E-04 -.285E+04   0.111E-03 0.224E-04 0.285E+04   0.636E-17 0.350E-17 -.347E+01   0.332E-02 0.199E-02 0.528E+00
   0.533E-04 -.218E-04 -.164E+04   0.121E-04 0.548E-05 0.165E+04   0.381E-18 -.385E-18 -.118E+02   0.758E-03 0.453E-03 -.272E-01
   -.141E-03 -.329E-05 0.595E+01   0.994E-13 -.138E-12 0.136E-11   0.285E-15 0.499E-17 -.133E+02   0.258E-01 0.119E-01 0.735E+01

 POSITION                                       TOTAL-FORCE (eV/Angst)
      0.00000      0.00000      5.37156         0.000000      0.000000      0.034809
      2.56560      0.00000      5.37156         0.001713      0.006366      0.072214
      5.13119      0.00000      5.37156        -0.001713      0.006366      0.072214
      1.28280      2.22187      5.37156         0.006369     -0.001700      0.072214
      3.84839      2.22187      5.37156        -0.000000      0.000000      0.044765
      6.41399      2.22187      5.37156        -0.006369     -0.001700      0.072214
      2.56560      4.44374      5.37156         0.004657     -0.004666      0.072214
      5.13119      4.44374      5.37156        -0.004657     -0.004666      0.072214
      7.69679      4.44374      5.37156         0.000000      0.000000      0.075283
      1.28280      0.74062      7.46636        -0.013644     -0.007877     -0.061373
      3.84839      0.74062      7.46636         0.000000     -0.022504     -0.061014
      6.41399      0.74062      7.46636         0.013644     -0.007877     -0.061373
      2.56560      2.96249      7.46636        -0.019489      0.011252     -0.061014
      5.13119      2.96249      7.46636         0.019489      0.011252     -0.061014
      7.69679      2.96249      7.46636         0.000000     -0.008423     -0.036581
      3.84839      5.18437      7.46636        -0.000000      0.015754     -0.061373
      6.41399      5.18437      7.46636        -0.007294      0.004211     -0.036581
      8.97958      5.18437      7.46636         0.007294      0.004211     -0.036581
      7.69679      1.48472      9.55134         0.000000     -0.019536     -0.000251
      2.55991      1.47796      9.54139        -0.151367     -0.087392     -0.275891
      5.13688      1.47796      9.54139         0.151367     -0.087392     -0.275891
      8.97851      3.70374      9.55759         0.022799     -0.013163      0.006729
      3.84839      3.70969      9.54139        -0.000000      0.174784     -0.275891
      6.41506      3.70374      9.55759        -0.022799     -0.013163      0.006729
     10.25938      5.92325      9.55134         0.016918      0.009768     -0.000251
      5.13420      5.92325      9.55134        -0.016918      0.009768     -0.000251
      7.69679      5.92375      9.55759        -0.000000      0.026325      0.006729
      0.00000      0.00000     11.61948         0.000000      0.000000     -0.006189
      6.40389      6.65412     11.64269        -0.126650     -0.240812     -0.084880
      8.98968      6.65412     11.64269         0.126650     -0.240812     -0.084880
      8.96459      2.21887     11.64269        -0.271875      0.010724     -0.084880
      6.42899      2.21887     11.64269         0.271875      0.010724     -0.084880
     10.25748      4.45823     11.64269        -0.145224      0.230088     -0.084880
      5.13610      4.45823     11.64269         0.145224      0.230088     -0.084880
      7.69679      4.44374     11.62337         0.000000      0.000000     -0.004427
      3.84839      2.22187     11.63466         0.000000      0.000000      1.227284
      3.84839      2.22187     13.33872        -0.000000      0.000000     -0.010381
    total drift:                                0.025652      0.011852      0.015347

  FREE ENERGIE OF THE ION-ELECTRON SYSTEM (eV)
  free  energy   TOTEN  =      -135.79935897 eV

  energy  without entropy=     -135.79935897  energy(sigma->0) =     -135.79935897

 stress matrix after NEB project (eV)
     -0.14543      0.00000      0.00000
      0.00000     -0.14543     -0.00000
      0.00000      0.00000      3.29027
  FORCES: max atom, RMS     0.010381    0.001707
  FORCE total and by dimension    0.010381    0.010381
  Stress total and by dimension    3.296694    3.290273
|           W    W    AA    RRRRR   N    N  II  N    N   GGGG   !!!           |
|           W    W   A  A   R    R  NN   N  II  NN   N  G    G  !!!           |
|           W    W  A    A  R    R  N N  N  II  N N  N  G       !!!           |
|           W WW W  AAAAAA  RRRRR   N  N N  II  N  N N  G  GGG   !            |
|           WW  WW  A    A  R   R   N   NN  II  N   NN  G    G                |
|           W    W  A    A  R    R  N    N  II  N    N   GGGG   !!!           |
|     Tetrahedron method does not include variations of the Fermi             |
|     occupations, so forces and stress will be inaccurate. We suggest        |
|     using a different smearing scheme ISMEAR = 1 or 2 for metals in         |
|     relaxations.                                                            |

 total charge

# of ion       s       p       d       tot
    1        0.449   0.284   9.189   9.922
    2        0.449   0.285   9.187   9.921
    3        0.449   0.285   9.187   9.921
    4        0.449   0.285   9.187   9.921
    5        0.450   0.284   9.188   9.922
    6        0.449   0.285   9.187   9.921
    7        0.449   0.285   9.187   9.921
    8        0.449   0.285   9.187   9.921
    9        0.447   0.286   9.186   9.918
   10        0.442   0.371   9.181   9.993
   11        0.440   0.372   9.180   9.991
   12        0.442   0.371   9.181   9.993
   13        0.440   0.372   9.180   9.991
   14        0.440   0.372   9.180   9.991
   15        0.440   0.369   9.181   9.990
   16        0.442   0.371   9.181   9.993
   17        0.440   0.369   9.181   9.990
   18        0.440   0.369   9.181   9.990
   19        0.444   0.371   9.182   9.997
   20        0.452   0.383   9.178  10.013
   21        0.452   0.383   9.178  10.013
   22        0.436   0.374   9.181   9.990
   23        0.452   0.383   9.178  10.013
   24        0.436   0.374   9.181   9.990
   25        0.444   0.371   9.182   9.997
   26        0.444   0.371   9.182   9.997
   27        0.436   0.374   9.181   9.990
   28        0.457   0.288   9.193   9.938
   29        0.445   0.300   9.192   9.937
   30        0.445   0.300   9.192   9.937
   31        0.445   0.300   9.192   9.937
   32        0.445   0.300   9.192   9.937
   33        0.445   0.300   9.192   9.937
   34        0.445   0.300   9.192   9.937
   35        0.453   0.288   9.194   9.936
   36        0.608   0.697   7.632   8.936
   37        1.027   1.169   0.000   2.196
tot         17.211  13.523 329.104 359.838

 BZINTS: Fermi energy:   -0.395599;  398.000000 electrons
         Band energy:-0.128529E+04;  BLOECHL correction:   -0.099840