 vasp.6.2.0 18Jan21 (build Jun 12 2021 23:27:24) complex

 executed on             LinuxIFC date 2022.05.30  16:55:41

 INCAR:
   ISMEAR = -5
   SIGMA = 0.1
   ISPIN = 1
   EDIFF = 1.d-5
   EDIFFG = -0.01
   NSW = 0
   NELM = 150
   ENCUT = 500
   ISIF = 2
   IBRION = 2
   LREAL = Auto
   ALGO = Fast
   ICHARG = 11
   LORBIT = 10
   LCHARG = .F.
   LWAVE = .F.

 POTCAR:    PAW_PBE Ag 02Apr2005
 POTCAR:    PAW_PBE Mn 06Sep2000
 POTCAR:    PAW_PBE C 08Apr2002
 POTCAR:    PAW_PBE O 08Apr2002
 POTCAR:    PAW_PBE H 15Jun2001
|           W    W    AA    RRRRR   N    N  II  N    N   GGGG   !!!           |
|           W    W   A  A   R    R  NN   N  II  NN   N  G    G  !!!           |
|           W    W  A    A  R    R  N N  N  II  N N  N  G       !!!           |
|           W WW W  AAAAAA  RRRRR   N  N N  II  N  N N  G  GGG   !            |
|           WW  WW  A    A  R   R   N   NN  II  N   NN  G    G                |
|           W    W  A    A  R    R  N    N  II  N    N   GGGG   !!!           |
|     For optimal performance we recommend to set                             |
|       NCORE = 2 up to number-of-cores-per-socket                            |
|     This setting can greatly improve the performance of VASP for DFT.       |
|     The default, NCORE=1 might be grossly inefficient on modern             |
|     multi-core architectures or massively parallel machines. Do your        |
|     Unfortunately you need to use the default for GW and RPA                |
|     calculations (for HF NCORE is supported but not extensively tested      |
|     yet).                                                                   |

 POTCAR:    PAW_PBE Ag 02Apr2005
   VRHFIN =Ag : s1 d10

   TITEL  = PAW_PBE Ag 02Apr2005
   POMASS =  107.868; ZVAL   =   11.000    mass and valenz
   ENMAX  =  249.844; ENMIN  =  187.383 eV

 POTCAR:    PAW_PBE Mn 06Sep2000
   VRHFIN =Mn: d6 s1

   TITEL  = PAW_PBE Mn 06Sep2000
   POMASS =   54.938; ZVAL   =    7.000    mass and valenz
   ENMAX  =  269.864; ENMIN  =  202.398 eV

 POTCAR:    PAW_PBE C 08Apr2002
   VRHFIN =C: s2p2

[...]

 POTCAR:    PAW_PBE O 08Apr2002
   VRHFIN =O: s2p4

   TITEL  = PAW_PBE O 08Apr2002
   POMASS =   16.000; ZVAL   =    6.000    mass and valenz
   ENMAX  =  400.000; ENMIN  =  300.000 eV

 POTCAR:    PAW_PBE H 15Jun2001
   VRHFIN =H: ultrasoft test

   TITEL  = PAW_PBE H 15Jun2001
   POMASS =    1.000; ZVAL   =    1.000    mass and valenz
   ENMAX  =  250.000; ENMIN  =  200.000 eV

 Optimization of the real space projectors (new method)

 maximal supplied QI-value         = 15.12
 optimisation between [QCUT,QGAM] = [ 11.34, 22.83] = [ 36.00,145.93] Ry
 Optimized for a Real-space Cutoff    1.43 Angstroem

   l    n(q)    QCUT    max X(q) W(low)/X(q) W(high)/X(q)  e(spline)
   2      9    11.338    53.897    0.16E-03    0.20E-03    0.28E-06
   2      9    11.338    52.416    0.16E-03    0.20E-03    0.29E-06
   0     10    11.338   122.045    0.31E-04    0.76E-04    0.15E-06
   0     10    11.338    73.629    0.30E-04    0.72E-04    0.15E-06
   1      9    11.338    15.255    0.20E-03    0.19E-04    0.17E-06
   1      9    11.338     9.562    0.16E-03    0.15E-04    0.14E-06
 Optimization of the real space projectors (new method)

[...]

   l    n(q)    QCUT    max X(q) W(low)/X(q) W(high)/X(q)  e(spline)
   0      7    11.387    20.381    0.39E-03    0.13E-02    0.15E-06
   0      7    11.387    15.268    0.42E-03    0.14E-02    0.17E-06
   1      6    11.387     5.964    0.41E-03    0.11E-02    0.17E-06
   1      6    11.387     5.382    0.39E-03    0.87E-03    0.15E-06
 Optimization of the real space projectors (new method)

 maximal supplied QI-value         = 34.20
 optimisation between [QCUT,QGAM] = [ 11.29, 22.57] = [ 35.68,142.71] Ry
 Optimized for a Real-space Cutoff    1.16 Angstroem

   l    n(q)    QCUT    max X(q) W(low)/X(q) W(high)/X(q)  e(spline)
   0      8    11.287    19.460    0.40E-03    0.73E-03    0.16E-06
   0      8    11.287    12.209    0.38E-03    0.70E-03    0.15E-06
   1      7    11.287     4.655    0.22E-03    0.25E-04    0.22E-06
  PAW_PBE Ag 02Apr2005                  :
  PAW_PBE Mn 06Sep2000                  :
  PAW_PBE C 08Apr2002                   :
  PAW_PBE O 08Apr2002                   :
  PAW_PBE H 15Jun2001                   :

 POSCAR: Ag-Mn-COH
  positions in direct lattice
  velocities in cartesian coordinates
 exchange correlation table for  LEXCH =        8
   RHO(1)=    0.500       N(1)  =     2000
   RHO(2)=  100.500       N(2)  =     4000

 VTST: version 3.2, (02/03/18)

 CHAIN: initializing optimizer

 OPT: Using VASP Conjugate-Gradient optimizer
 CHAIN: Read ICHAIN            0

 POSCAR: Ag-Mn-COH
  positions in direct lattice
  velocities in cartesian coordinates

 ion  position               nearest neighbor table
   1  0.000  0.000  0.199-   2 2.93   8 2.93   7 2.93   6 2.93   4 2.93  12 2.93  16 2.93  10 2.93
                             3 2.93
   2  0.333  0.000  0.199-   1 2.93   8 2.93   9 2.93   3 2.93   4 2.93   5 2.93  10 2.93  17 2.93
                            11 2.93
   3  0.667  0.000  0.199-   9 2.93   2 2.93   5 2.93  11 2.93   7 2.93  18 2.93   1 2.93   6 2.93
                            12 2.93
   4  0.000  0.333  0.199-   5 2.93   6 2.93   2 2.93   1 2.93   7 2.93  13 2.93  15 2.93   9 2.93
                            10 2.93
   5  0.333  0.333  0.199-   4 2.93   3 2.93   7 2.93   2 2.93   8 2.93  14 2.93  13 2.93  11 2.93
                             6 2.93
   6  0.667  0.333  0.199-   4 2.93   9 2.93   1 2.93  15 2.93   8 2.93  12 2.93   3 2.93   5 2.93
                            14 2.93
   7  0.000  0.667  0.199-   8 2.93   1 2.93   5 2.93   3 2.93   4 2.93  16 2.93  18 2.93  13 2.93
                             9 2.93
   8  0.333  0.667  0.199-   7 2.93   1 2.93   2 2.93   9 2.93   5 2.93  16 2.93   6 2.93  17 2.93
                            14 2.93
   9  0.667  0.667  0.199-   3 2.93   2 2.93   8 2.93   6 2.93  17 2.93   4 2.93  15 2.93   7 2.93
                            18 2.93
  10  0.111  0.111  0.289-  20 2.92  19 2.93  26 2.93  12 2.93  16 2.93  15 2.93  17 2.93  13 2.93
                            11 2.93   2 2.93   1 2.93   4 2.93
  11  0.444  0.111  0.289-  21 2.90  20 2.90  27 2.92  14 2.93  17 2.93  18 2.93   3 2.93  12 2.93
                            13 2.93  10 2.93   5 2.93   2 2.93
  12  0.778  0.111  0.289-  21 2.92  25 2.93  19 2.93  10 2.93  16 2.93  18 2.93  15 2.93  11 2.93
                             1 2.93  14 2.93   6 2.93   3 2.93
  13  0.111  0.444  0.289-  20 2.90  23 2.90  22 2.92  15 2.93  14 2.93  18 2.93  10 2.93  11 2.93
                            16 2.93   4 2.93   5 2.93   7 2.93
  14  0.444  0.444  0.289-  23 2.90  21 2.90  24 2.92  13 2.93  11 2.93  16 2.93   5 2.93  12 2.93
                            17 2.93   8 2.93  15 2.93   6 2.93
  15  0.778  0.444  0.289-  24 2.92  22 2.92  19 2.92  13 2.93  10 2.93  12 2.93  17 2.93  18 2.93
                             4 2.93   6 2.93   9 2.93  14 2.93
  16  0.111  0.778  0.289-  23 2.92  26 2.93  25 2.93  18 2.93  12 2.93  10 2.93  14 2.93  17 2.93
                            13 2.93   7 2.93   8 2.93   1 2.93
  17  0.444  0.778  0.289-  27 2.92  24 2.92  26 2.92  11 2.93  10 2.93   9 2.93  18 2.93  15 2.93
                            16 2.93   2 2.93  14 2.93   8 2.93
  18  0.778  0.778  0.289-  22 2.92  27 2.92  25 2.92  16 2.93  12 2.93  13 2.93  11 2.93  17 2.93
                            15 2.93   7 2.93   3 2.93   9 2.93
  19  0.889  0.223  0.379-  28 2.91  15 2.92  10 2.93  12 2.93  24 2.93  22 2.93  26 2.94  25 2.94
                            20 2.94  21 2.94  32 2.95  31 2.95
  20  0.223  0.223  0.378-  36 2.71  31 2.90  29 2.90  13 2.90  11 2.90  21 2.91  23 2.91  10 2.92
                            27 2.93  22 2.93  19 2.94  26 2.94
  21  0.554  0.223  0.378-  36 2.71  30 2.90  32 2.90  11 2.90  14 2.90  20 2.91  23 2.91  12 2.92
                            27 2.93  24 2.93  25 2.94  19 2.94
  22  0.888  0.556  0.378-  35 2.91  18 2.92  15 2.92  13 2.92  24 2.93  27 2.93  33 2.93  31 2.93
                            25 2.93  19 2.93  23 2.93  20 2.93
  23  0.223  0.554  0.378-  36 2.71  34 2.90  33 2.90  14 2.90  13 2.90  21 2.91  20 2.91  16 2.92
                            22 2.93  24 2.93  26 2.94  25 2.94
  24  0.556  0.556  0.378-  35 2.91  15 2.92  17 2.92  14 2.92  27 2.93  22 2.93  32 2.93  34 2.93
                            19 2.93  26 2.93  23 2.93  21 2.93
  25  0.889  0.889  0.379-  28 2.91  18 2.92  16 2.93  12 2.93  22 2.93  27 2.93  26 2.94  19 2.94
                            23 2.94  21 2.94  33 2.95  30 2.95
  26  0.223  0.889  0.379-  28 2.91  17 2.92  16 2.93  10 2.93  27 2.93  24 2.93  25 2.94  19 2.94
                            23 2.94  20 2.94  34 2.95  29 2.95
  27  0.556  0.888  0.378-  35 2.91  17 2.92  18 2.92  11 2.92  24 2.93  22 2.93  29 2.93  30 2.93
                            26 2.93  25 2.93  20 2.93  21 2.93
  28  0.000  0.000  0.467-  26 2.91  25 2.91  19 2.91  29 2.97  34 2.97  33 2.97  32 2.97  31 2.97
                            30 2.97
  29  0.333  0.008  0.468-  31 2.86  30 2.86  36 2.87  20 2.90  27 2.93  26 2.95  28 2.97  35 2.97
                            34 3.07
  30  0.659  0.008  0.468-  32 2.86  29 2.86  36 2.87  21 2.90  27 2.93  25 2.95  28 2.97  35 2.97
                            33 3.07
  31  0.008  0.333  0.468-  29 2.86  33 2.86  36 2.87  20 2.90  22 2.93  19 2.95  28 2.97  35 2.97
                            32 3.07
  32  0.659  0.333  0.468-  30 2.86  34 2.86  36 2.87  21 2.90  24 2.93  19 2.95  28 2.97  35 2.97
                            31 3.07
  33  0.008  0.659  0.468-  34 2.86  31 2.86  36 2.87  23 2.90  22 2.93  25 2.95  28 2.97  35 2.97
                            30 3.07
  34  0.333  0.659  0.468-  33 2.86  32 2.86  36 2.87  23 2.90  24 2.93  26 2.95  28 2.97  35 2.97
                            29 3.07
  35  0.667  0.667  0.467-  24 2.91  27 2.91  22 2.91  32 2.97  30 2.97  29 2.97  34 2.97  31 2.97
                            33 2.97
  36  0.333  0.333  0.458-  37 1.67  21 2.71  20 2.71  23 2.71  31 2.87  30 2.87  33 2.87  29 2.87
                            34 2.87  32 2.87
  37  0.333  0.333  0.521-  38 1.27  36 1.67
  38  0.333  0.333  0.569-  39 0.96  37 1.27
  39  0.333  0.333  0.605-  38 0.96

  LATTYP: Found a hexagonal cell.
 ALAT       =     8.7913665772
 C/A-ratio  =     3.0233954145

  Lattice vectors:

 A1 = (  -4.3956832886,  -7.6135467898,   0.0000000000)
 A2 = (   8.7913665771,   0.0000000000,   0.0000000000)
 A3 = (   0.0000000000,   0.0000000000,  26.5797773968)

Analysis of symmetry for initial positions (statically):
 Subroutine PRICEL returns:
 Original cell was already a primitive cell.

 Routine SETGRP: Setting up the symmetry group for a
 hexagonal supercell.

 Subroutine GETGRP returns: Found  6 space group operations
 (whereof  6 operations were pure point group operations)
 out of a pool of 24 trial point group operations.

The static configuration has the point symmetry C_3v.

Analysis of symmetry for dynamics (positions and initial velocities):
 Subroutine PRICEL returns:
 Original cell was already a primitive cell.

[...]

[...]
     41      -4.7704      2.00000
     42      -4.7481      2.00000
     43      -4.7204      2.00000
     44      -4.7177      2.00000
     45      -4.6967      2.00000
     46      -4.6932      2.00000
     47      -4.6682      2.00000
     48      -4.6046      2.00000
     49      -4.5736      2.00000
     50      -4.5672      2.00000
     51      -4.5624      2.00000
     52      -4.5556      2.00000
     53      -4.5480      2.00000
     54      -4.5300      2.00000
     55      -4.5256      2.00000
     56      -4.5121      2.00000
     57      -4.5091      2.00000
     58      -4.4436      2.00000
     59      -4.4357      2.00000
     60      -4.4236      2.00000
[...]
    238       5.2383      0.00000
    239       5.3515      0.00000
    240       5.4150      0.00000
    241       5.5600      0.00000
    242       5.6837      0.00000
    243       5.7360      0.00000
    244       5.7486      0.00000
    245       5.8191      0.00000
    246       5.8311      0.00000
    247       5.8604      0.00000
    248       5.8861      0.00000
    249       6.1130      0.00000
    250       6.1436      0.00000
    251       6.6411      0.00000
    252       6.8001      0.00000

 soft charge-density along one line, spin component           1
         0         1         2         3         4         5         6         7         8         9
 total charge-density along one line

------------------------ aborting loop because EDIFF is reached ----------------------------------------

 total charge

# of ion       s       p       d       tot
    1        0.418   0.201   9.178   9.798
    2        0.418   0.203   9.177   9.798
    3        0.418   0.203   9.177   9.798
    4        0.418   0.203   9.177   9.798
    5        0.419   0.204   9.175   9.798
    6        0.418   0.203   9.177   9.798
    7        0.418   0.203   9.177   9.798
    8        0.418   0.203   9.177   9.798
    9        0.414   0.203   9.178   9.795
   10        0.406   0.268   9.164   9.839
   11        0.409   0.269   9.168   9.845
   12        0.406   0.268   9.164   9.839
   13        0.409   0.269   9.168   9.845
   14        0.409   0.269   9.168   9.845
   15        0.401   0.271   9.165   9.837
   16        0.406   0.268   9.164   9.839
   17        0.401   0.271   9.165   9.837
   18        0.401   0.271   9.165   9.837
   19        0.401   0.265   9.166   9.833
   20        0.431   0.294   9.146   9.871
   21        0.431   0.294   9.146   9.871
   22        0.396   0.277   9.164   9.836
   23        0.431   0.294   9.146   9.871
   24        0.396   0.277   9.164   9.836
   25        0.401   0.265   9.166   9.833
   26        0.401   0.265   9.166   9.833
   27        0.396   0.277   9.164   9.836
   28        0.418   0.194   9.178   9.790
   29        0.413   0.212   9.173   9.798
   30        0.413   0.212   9.173   9.798
   31        0.413   0.212   9.173   9.798
   32        0.413   0.212   9.173   9.798
   33        0.413   0.212   9.173   9.798
   34        0.413   0.212   9.173   9.798
   35        0.413   0.197   9.178   9.788
   36        0.340   0.371   5.263   5.974
   37        0.927   1.447   0.000   2.374
   38        1.523   3.761   0.000   5.283
   39        0.565   0.137   0.000   0.702
tot         17.758  14.139 326.164 358.061

  FORCE on cell =-STRESS in cart. coord.  units (eV):
  Direction    XX          YY          ZZ          XY          YZ          ZX
  Alpha Z   641.37071   641.37071   641.37071
  Ewald  186452.05707186452.05712************     0.00004    -0.00000     0.00005
  Hartree196622.14567196622.14570************     0.00002    -0.00000     0.00002
  E(xc)   -2109.45938 -2109.45956 -2113.82298     0.00015    -0.00001    -0.00002
  Local  ************************394016.17093     0.00062    -0.00007    -0.00020
  n-local  -380.82797  -364.49010  -376.58123     9.95868    -0.41367     0.54929
  augment  3257.64648  3257.64663  3261.58441    -0.00013    -0.00001     0.00003
  Kinetic  5054.02826  5058.48228  5014.63386     4.99103     0.87259    -0.38199
  Fock        0.00000     0.00000     0.00000     0.00000     0.00000     0.00000
  Total      -8.59505    -8.59505     0.43955    -0.00000    -0.00000    -0.00000
  in kB      -7.74042    -7.74042     0.39585    -0.00000    -0.00000    -0.00000

 VOLUME and BASIS-vectors are now :
  energy-cutoff  :      500.00
  volume of cell :     1779.08
      direct lattice vectors                 reciprocal lattice vectors
     8.791366577  0.000000000  0.000000000     0.113747958 -0.065672414  0.000000000
     4.395683289  7.613546790  0.000000000     0.000000000  0.131344829  0.000000000
     0.000000000  0.000000000 26.579777397     0.000000000  0.000000000  0.037622587

  length of vectors
     8.791366577  8.791366577 26.579777397     0.131344829  0.131344829  0.037622587

 FORCES acting on ions
    electron-ion (+dipol)            ewald-force                    non-local-force                 convergence-correction
   0.457E-04 -.284E-04 0.284E+04   -.954E-04 0.593E-04 -.284E+04   -.260E-17 0.441E-17 -.218E+01   -.105E-03 -.168E-03 -.434E+00
   0.385E+00 0.483E+00 0.284E+04   -.430E+00 -.411E+00 -.284E+04   0.505E-01 0.657E-01 -.159E+01   0.768E-03 -.116E+00 -.448E+00
   -.385E+00 0.483E+00 0.284E+04   0.430E+00 -.411E+00 -.284E+04   -.505E-01 0.657E-01 -.159E+01   -.132E-02 -.114E+00 -.448E+00
   0.611E+00 0.917E-01 0.284E+04   -.571E+00 -.167E+00 -.284E+04   0.821E-01 0.109E-01 -.159E+01   -.100E+00 0.590E-01 -.448E+00
   -.359E-05 -.175E-04 0.284E+04   0.981E-04 -.200E-05 -.284E+04   -.382E-17 0.174E-18 -.135E+01   0.624E-02 0.381E-02 -.434E+00
   -.611E+00 0.917E-01 0.284E+04   0.571E+00 -.167E+00 -.284E+04   -.821E-01 0.109E-01 -.159E+01   0.987E-01 0.599E-01 -.448E+00
   0.226E+00 -.575E+00 0.284E+04   -.141E+00 0.578E+00 -.284E+04   0.316E-01 -.766E-01 -.159E+01   -.992E-01 0.565E-01 -.448E+00
   -.226E+00 -.575E+00 0.284E+04   0.141E+00 0.577E+00 -.284E+04   -.316E-01 -.766E-01 -.159E+01   0.101E+00 0.555E-01 -.448E+00
   0.367E-04 -.127E-04 0.284E+04   0.792E-04 -.643E-04 -.284E+04   -.427E-17 0.125E-17 -.198E+01   -.666E-02 -.344E-02 -.468E+00
   0.415E+01 0.239E+01 0.985E+03   -.367E+01 -.212E+01 -.984E+03   -.372E+00 -.215E+00 -.771E+00   -.932E-01 -.538E-01 -.485E-01
   -.293E-04 0.460E+01 0.992E+03   0.415E-04 -.469E+01 -.991E+03   0.925E-12 0.141E+00 -.447E+00   0.629E-02 -.917E-01 -.110E+00
   -.415E+01 0.239E+01 0.985E+03   0.367E+01 -.212E+01 -.984E+03   0.372E+00 -.215E+00 -.771E+00   0.916E-01 -.527E-01 -.487E-01
   0.398E+01 -.230E+01 0.992E+03   -.406E+01 0.234E+01 -.991E+03   0.122E+00 -.704E-01 -.447E+00   -.764E-01 0.513E-01 -.110E+00
   -.398E+01 -.230E+01 0.992E+03   0.406E+01 0.234E+01 -.991E+03   -.122E+00 -.704E-01 -.447E+00   0.871E-01 0.505E-01 -.111E+00
   0.157E-04 0.103E+01 0.986E+03   -.108E-03 -.113E+01 -.985E+03   0.234E-12 0.357E-01 -.801E+00   -.163E-02 0.386E-01 -.786E-01
   -.760E-05 -.479E+01 0.985E+03   0.207E-04 0.424E+01 -.984E+03   0.282E-11 0.429E+00 -.771E+00   0.124E-03 0.106E+00 -.487E-01
   0.895E+00 -.517E+00 0.986E+03   -.976E+00 0.563E+00 -.985E+03   0.309E-01 -.178E-01 -.801E+00   0.326E-01 -.207E-01 -.786E-01
   -.895E+00 -.517E+00 0.986E+03   0.976E+00 0.563E+00 -.985E+03   -.309E-01 -.178E-01 -.801E+00   -.326E-01 -.188E-01 -.779E-01
   0.401E-04 0.912E+00 -.900E+03   -.128E-03 -.867E+00 0.899E+03   0.166E-12 0.253E-01 0.799E+00   -.167E-03 -.612E-01 0.285E+00
   0.150E+02 0.864E+01 -.869E+03   -.137E+02 -.791E+01 0.870E+03   -.113E+01 -.654E+00 -.102E+01   -.201E+00 -.116E+00 0.795E-01
   -.150E+02 0.864E+01 -.869E+03   0.137E+02 -.791E+01 0.870E+03   0.113E+01 -.654E+00 -.102E+01   0.201E+00 -.115E+00 0.795E-01
   0.610E+01 -.352E+01 -.888E+03   -.614E+01 0.354E+01 0.888E+03   0.200E+00 -.116E+00 0.510E+00   -.128E+00 0.744E-01 0.242E+00
   -.575E-04 -.173E+02 -.869E+03   0.431E-04 0.158E+02 0.870E+03   0.859E-11 0.131E+01 -.102E+01   0.799E-03 0.232E+00 0.796E-01
   -.610E+01 -.352E+01 -.888E+03   0.614E+01 0.354E+01 0.888E+03   -.200E+00 -.116E+00 0.510E+00   0.128E+00 0.740E-01 0.242E+00
   -.790E+00 -.456E+00 -.900E+03   0.751E+00 0.434E+00 0.899E+03   -.219E-01 -.127E-01 0.799E+00   0.533E-01 0.306E-01 0.284E+00
   0.790E+00 -.456E+00 -.900E+03   -.751E+00 0.434E+00 0.899E+03   0.219E-01 -.127E-01 0.799E+00   -.534E-01 0.303E-01 0.285E+00
   0.202E-04 0.704E+01 -.888E+03   0.109E-03 -.709E+01 0.888E+03   0.152E-11 0.231E+00 0.510E+00   -.238E-03 -.148E+00 0.242E+00
   0.538E-04 -.370E-04 -.275E+04   -.115E-03 0.780E-04 0.274E+04   -.443E-17 0.604E-17 0.189E+01   0.124E-02 0.582E-03 0.457E+00
   0.300E+02 0.506E+02 -.272E+04   -.291E+02 -.494E+02 0.272E+04   -.608E+00 -.880E+00 0.206E+01   -.240E+00 -.331E+00 0.433E+00
   -.300E+02 0.506E+02 -.272E+04   0.291E+02 -.494E+02 0.272E+04   0.608E+00 -.880E+00 0.206E+01   0.229E+00 -.329E+00 0.433E+00
   0.588E+02 0.681E+00 -.272E+04   -.573E+02 -.555E+00 0.272E+04   -.107E+01 -.869E-01 0.206E+01   -.406E+00 -.424E-01 0.433E+00
   -.588E+02 0.681E+00 -.272E+04   0.573E+02 -.555E+00 0.272E+04   0.107E+01 -.869E-01 0.206E+01   0.395E+00 -.415E-01 0.433E+00
   0.288E+02 -.512E+02 -.272E+04   -.282E+02 0.499E+02 0.272E+04   -.458E+00 0.967E+00 0.206E+01   -.170E+00 0.364E+00 0.433E+00
   -.288E+02 -.512E+02 -.272E+04   0.282E+02 0.499E+02 0.272E+04   0.458E+00 0.967E+00 0.206E+01   0.161E+00 0.363E+00 0.433E+00
   0.223E-04 -.118E-04 -.275E+04   0.106E-03 -.661E-04 0.275E+04   -.391E-18 -.199E-17 0.197E+01   -.538E-02 -.267E-02 0.463E+00
   -.313E-04 -.196E-04 -.149E+04   0.674E-04 0.931E-05 0.149E+04   0.561E-17 0.895E-18 -.515E+00   0.377E-02 0.227E-02 0.309E+00
   0.629E-06 -.724E-04 -.107E+04   0.210E-04 0.346E-06 0.105E+04   -.293E-18 -.285E-18 0.201E+02   0.142E-02 0.864E-03 0.288E+00
   0.239E-03 -.898E-04 -.177E+04   0.104E-04 0.251E-07 0.177E+04   -.151E-19 0.794E-19 -.388E+01   0.392E-02 0.240E-02 0.110E+00
   0.646E-05 -.143E-04 -.338E+03   0.703E-06 -.276E-08 0.347E+03   -.853E-20 0.173E-20 -.864E+01   0.207E-03 0.127E-03 0.725E-03
   0.593E-03 -.876E-03 -.425E+01   -.152E-12 0.156E-13 -.182E-11   0.490E-17 -.334E-15 0.301E+01   -.127E-01 -.389E-02 0.131E+01

 POSITION                                       TOTAL-FORCE (eV/Angst)
      0.00000      0.00000      5.28219         0.000000      0.000000     -0.001846
      2.93046      0.00000      5.28219         0.006989      0.022438      0.041701
      5.86091      0.00000      5.28219        -0.006989      0.022438      0.041701
      1.46523      2.53785      5.28219         0.022926     -0.005166      0.041701
      4.39568      2.53785      5.28219         0.000000      0.000000      0.019889
      7.32614      2.53785      5.28219        -0.022926     -0.005166      0.041701
      2.93046      5.07570      5.28219         0.015937     -0.017272      0.041701
      5.86091      5.07570      5.28219        -0.015937     -0.017272      0.041701
      8.79137      5.07570      5.28219         0.000000      0.000000      0.037120
      1.46523      0.84595      7.67490         0.010947      0.006321     -0.003692
      4.39568      0.84595      7.67490        -0.000000     -0.041702     -0.057329
      7.32614      0.84595      7.67490        -0.010947      0.006321     -0.003692
      2.93046      3.38380      7.67490        -0.036115      0.020851     -0.057329
      5.86091      3.38380      7.67490         0.036115      0.020851     -0.057329
      8.79137      3.38380      7.67490        -0.000000     -0.018701      0.010939
      4.39568      5.92165      7.67490        -0.000000     -0.012641     -0.003692
      7.32614      5.92165      7.67490        -0.016196      0.009351      0.010939
     10.25659      5.92165      7.67490         0.016196      0.009351      0.010939
      8.79137      1.69455     10.06139         0.000000      0.008954      0.029231
      2.94158      1.69832     10.04035        -0.071352     -0.041195     -0.150280
      5.84978      1.69832     10.04035         0.071352     -0.041195     -0.150280
     10.25392      4.23129     10.05365         0.032287     -0.018641      0.000763
      4.39568      4.21690     10.04035         0.000000      0.082390     -0.150280
      7.32881      4.23129     10.05365        -0.032287     -0.018641      0.000763
     11.71953      6.76627     10.06139        -0.007754     -0.004477      0.029231
      5.86321      6.76627     10.06139         0.007754     -0.004477      0.029231
      8.79137      6.76451     10.05365         0.000000      0.037281      0.000763
      0.00000      0.00000     12.42536         0.000000      0.000000     -0.016834
      2.96459      0.05999     12.43855        -0.014944     -0.024098     -0.057076
      5.82677      0.05999     12.43855         0.014944     -0.024098     -0.057076
      1.53425      2.53742     12.43855        -0.028342     -0.000893     -0.057076
      7.25712      2.53742     12.43855         0.028342     -0.000893     -0.057076
      2.96534      5.01614     12.43855        -0.013398      0.024991     -0.057076
      5.82603      5.01614     12.43855         0.013398      0.024991     -0.057076
      8.79137      5.07570     12.42471         0.000000      0.000000     -0.019868
      4.39568      2.53785     12.16969         0.000000      0.000000      0.580914
      4.39568      2.53785     13.83965         0.000000      0.000000      0.024791
      4.39568      2.53785     15.11062         0.000000      0.000000     -0.020535
      4.39568      2.53785     16.06800         0.000000      0.000000     -0.000278
    total drift:                               -0.012094     -0.004762      0.060986

  FREE ENERGIE OF THE ION-ELECTRON SYSTEM (eV)
  free  energy   TOTEN  =      -113.78912872 eV

  energy  without entropy=     -113.78912872  energy(sigma->0) =     -113.78912872

 stress matrix after NEB project (eV)
     -8.59505     -0.00000     -0.00000
     -0.00000     -8.59505      0.00000
     -0.00000     -0.00000      0.43955
  FORCES: max atom, RMS     0.024791    0.005155
  FORCE total and by dimension    0.032192    0.024791
  Stress total and by dimension   12.163185    8.595053
|           W    W    AA    RRRRR   N    N  II  N    N   GGGG   !!!           |
|           W    W   A  A   R    R  NN   N  II  NN   N  G    G  !!!           |
|           W    W  A    A  R    R  N N  N  II  N N  N  G       !!!           |
|           W WW W  AAAAAA  RRRRR   N  N N  II  N  N N  G  GGG   !            |
|           WW  WW  A    A  R   R   N   NN  II  N   NN  G    G                |
|           W    W  A    A  R    R  N    N  II  N    N   GGGG   !!!           |
|     Tetrahedron method does not include variations of the Fermi             |
|     occupations, so forces and stress will be inaccurate. We suggest        |
|     using a different smearing scheme ISMEAR = 1 or 2 for metals in         |
|     relaxations.                                                            |

 total charge

# of ion       s       p       d       tot
    1        0.418   0.201   9.178   9.798
    2        0.418   0.203   9.177   9.798
    3        0.418   0.203   9.177   9.798
    4        0.418   0.203   9.177   9.798
    5        0.419   0.204   9.175   9.798
    6        0.418   0.203   9.177   9.798
    7        0.418   0.203   9.177   9.798
    8        0.418   0.203   9.177   9.798
    9        0.414   0.203   9.178   9.795
   10        0.406   0.268   9.164   9.839
   11        0.409   0.269   9.168   9.845
   12        0.406   0.268   9.164   9.839
   13        0.409   0.269   9.168   9.845
   14        0.409   0.269   9.168   9.845
   15        0.401   0.271   9.165   9.837
   16        0.406   0.268   9.164   9.839
   17        0.401   0.271   9.165   9.837
   18        0.401   0.271   9.165   9.837
   19        0.401   0.265   9.166   9.833
   20        0.431   0.294   9.146   9.871
   21        0.431   0.294   9.146   9.871
   22        0.396   0.277   9.164   9.836
   23        0.431   0.294   9.146   9.871
   24        0.396   0.277   9.164   9.836
   25        0.401   0.265   9.166   9.833
   26        0.401   0.265   9.166   9.833
   27        0.396   0.277   9.164   9.836
   28        0.418   0.194   9.178   9.790
   29        0.413   0.212   9.173   9.798
   30        0.413   0.212   9.173   9.798
   31        0.413   0.212   9.173   9.798
   32        0.413   0.212   9.173   9.798
   33        0.413   0.212   9.173   9.798
   34        0.413   0.212   9.173   9.798
   35        0.413   0.197   9.178   9.788
   36        0.340   0.371   5.263   5.974
   37        0.927   1.447   0.000   2.374
   38        1.523   3.761   0.000   5.283
   39        0.565   0.137   0.000   0.702
tot         17.758  14.139 326.164 358.061

 BZINTS: Fermi energy:    0.427246;  403.000000 electrons
         Band energy:-0.153412E+04;  BLOECHL correction:   -0.020664