 vasp.6.2.0 18Jan21 (build Jun 12 2021 23:27:24) complex

 executed on             LinuxIFC date 2022.05.26  19:27:52

 INCAR:
   ISMEAR = -5
   SIGMA = 0.1
   ISPIN = 1
   EDIFF = 1.d-5
   EDIFFG = -0.01
   NSW = 0
   NELM = 150
   ENCUT = 500
   ISIF = 2
   IBRION = 2
   LREAL = Auto
   ALGO = Fast
   ICHARG = 11
   LORBIT = 10
   LCHARG = .F.
   LWAVE = .F.

 POTCAR:    PAW_PBE Au 04Oct2007
 POTCAR:    PAW_PBE Rh 04Feb2005
 POTCAR:    PAW_PBE H 15Jun2001
|           W    W    AA    RRRRR   N    N  II  N    N   GGGG   !!!           |
|           W    W   A  A   R    R  NN   N  II  NN   N  G    G  !!!           |
|           W    W  A    A  R    R  N N  N  II  N N  N  G       !!!           |
|           W WW W  AAAAAA  RRRRR   N  N N  II  N  N N  G  GGG   !            |
|           WW  WW  A    A  R   R   N   NN  II  N   NN  G    G                |
|           W    W  A    A  R    R  N    N  II  N    N   GGGG   !!!           |
|     For optimal performance we recommend to set                             |
|       NCORE = 2 up to number-of-cores-per-socket                            |
|     This setting can greatly improve the performance of VASP for DFT.       |
|     The default, NCORE=1 might be grossly inefficient on modern             |
|     multi-core architectures or massively parallel machines. Do your        |
|     Unfortunately you need to use the default for GW and RPA                |
|     calculations (for HF NCORE is supported but not extensively tested      |
|     yet).                                                                   |

 POTCAR:    PAW_PBE Au 04Oct2007
   VRHFIN =Au: s1d10

   TITEL  = PAW_PBE Au 04Oct2007
   POMASS =  196.966; ZVAL   =   11.000    mass and valenz
   ENMAX  =  229.943; ENMIN  =  172.457 eV

 POTCAR:    PAW_PBE Rh 04Feb2005
   VRHFIN =Rh: s1 d8

   TITEL  = PAW_PBE Rh 04Feb2005
   POMASS =  102.906; ZVAL   =    9.000    mass and valenz
   ENMAX  =  228.996; ENMIN  =  171.747 eV

 POTCAR:    PAW_PBE H 15Jun2001
   VRHFIN =H: ultrasoft test

   TITEL  = PAW_PBE H 15Jun2001
   POMASS =    1.000; ZVAL   =    1.000    mass and valenz
   ENMAX  =  250.000; ENMIN  =  200.000 eV

 Optimization of the real space projectors (new method)

 maximal supplied QI-value         = 15.12
 optimisation between [QCUT,QGAM] = [ 11.34, 22.83] = [ 36.00,145.93] Ry
 Optimized for a Real-space Cutoff    1.39 Angstroem

   l    n(q)    QCUT    max X(q) W(low)/X(q) W(high)/X(q)  e(spline)
   2      9    11.338    60.898    0.39E-03    0.42E-03    0.21E-06
   2      9    11.338    58.894    0.40E-03    0.42E-03    0.22E-06
   0      9    11.338   109.617    0.13E-03    0.20E-04    0.13E-06
   0      9    11.338    75.026    0.13E-03    0.20E-04    0.13E-06
   1      9    11.338    16.344    0.33E-04    0.24E-03    0.18E-06
   1      9    11.338    10.160    0.26E-04    0.19E-03    0.15E-06
 Optimization of the real space projectors (new method)

[...]

   l    n(q)    QCUT    max X(q) W(low)/X(q) W(high)/X(q)  e(spline)
   2      9    11.327    59.645    0.31E-03    0.12E-04    0.28E-06
   2      9    11.327    58.460    0.31E-03    0.12E-04    0.29E-06
   0     10    11.327    97.683    0.32E-04    0.83E-04    0.31E-06
   0     10    11.327    53.223    0.30E-04    0.78E-04    0.29E-06
   1     10    11.327    13.596    0.49E-03    0.95E-03    0.55E-06
   1     10    11.327     7.885    0.36E-03    0.71E-03    0.41E-06
 Optimization of the real space projectors (new method)

 maximal supplied QI-value         = 34.20
 optimisation between [QCUT,QGAM] = [ 11.29, 22.57] = [ 35.68,142.71] Ry
 Optimized for a Real-space Cutoff    1.16 Angstroem

   l    n(q)    QCUT    max X(q) W(low)/X(q) W(high)/X(q)  e(spline)
   0      8    11.287    19.460    0.40E-03    0.73E-03    0.16E-06
   0      8    11.287    12.209    0.38E-03    0.70E-03    0.15E-06
   1      7    11.287     4.655    0.22E-03    0.25E-04    0.22E-06
  PAW_PBE Au 04Oct2007                  :
  PAW_PBE Rh 04Feb2005                  :
  PAW_PBE H 15Jun2001                   :

 POSCAR: Au-Rh-H
  positions in direct lattice
  velocities in cartesian coordinates
 exchange correlation table for  LEXCH =        8
   RHO(1)=    0.500       N(1)  =     2000
   RHO(2)=  100.500       N(2)  =     4000

 VTST: version 3.2, (02/03/18)

 CHAIN: initializing optimizer

 OPT: Using VASP Conjugate-Gradient optimizer
 CHAIN: Read ICHAIN            0

 POSCAR: Au-Rh-H
  positions in direct lattice
  velocities in cartesian coordinates

 ion  position               nearest neighbor table
   1  0.000  0.000  0.238-  16 2.94  12 2.94   6 2.94   8 2.94   7 2.94   3 2.94  10 2.94   4 2.94
                             2 2.94
   2  0.333  0.000  0.238-   9 2.94  11 2.94  17 2.94  10 2.94   8 2.94   4 2.94   5 2.94   1 2.94
                             3 2.94
   3  0.667  0.000  0.238-   7 2.94  18 2.94  12 2.94   1 2.94  11 2.94   5 2.94   6 2.94   9 2.94
                             2 2.94
   4  0.000  0.333  0.238-  10 2.94   6 2.94   5 2.94  13 2.94   2 2.94  15 2.94   9 2.94   1 2.94
                             7 2.94
   5  0.333  0.333  0.238-  13 2.94   7 2.94  11 2.94   4 2.94   2 2.94  14 2.94   3 2.94   8 2.94
                             6 2.94
   6  0.667  0.333  0.238-  15 2.94  14 2.94   1 2.94  12 2.94   4 2.94   9 2.94   8 2.94   3 2.94
                             5 2.94
   7  0.000  0.667  0.238-  18 2.94   3 2.94  16 2.94   5 2.94   1 2.94  13 2.94   8 2.94   4 2.94
                             9 2.94
   8  0.333  0.667  0.238-   9 2.94  17 2.94   1 2.94   2 2.94  14 2.94  16 2.94   6 2.94   7 2.94
                             5 2.94
   9  0.667  0.667  0.238-   2 2.94   8 2.94  17 2.94   6 2.94  15 2.94   4 2.94   3 2.94  18 2.94
                             7 2.94
  10  0.111  0.111  0.346-  20 2.91  26 2.93  19 2.93  11 2.94  17 2.94   2 2.94   4 2.94   1 2.94
                            12 2.94  16 2.94  13 2.94  15 2.94
  11  0.444  0.111  0.346-  20 2.91  21 2.91  27 2.93  13 2.94   2 2.94  10 2.94  17 2.94   5 2.94
                             3 2.94  18 2.94  14 2.94  12 2.94
  12  0.778  0.111  0.346-  21 2.91  25 2.93  19 2.93  16 2.94  18 2.94   1 2.94  14 2.94  15 2.94
                             3 2.94   6 2.94  10 2.94  11 2.94
  13  0.111  0.444  0.346-  23 2.91  20 2.91  22 2.93   5 2.94  18 2.94  11 2.94   7 2.94   4 2.94
                            16 2.94  10 2.94  14 2.94  15 2.94
  14  0.444  0.444  0.346-  21 2.91  23 2.91  24 2.93  15 2.94   6 2.94  12 2.94   8 2.94  17 2.94
                             5 2.94  16 2.94  13 2.94  11 2.94
  15  0.778  0.444  0.346-  24 2.93  22 2.93  19 2.93  14 2.94   6 2.94  17 2.94  12 2.94   9 2.94
                             4 2.94  10 2.94  13 2.94  18 2.94
  16  0.111  0.778  0.346-  23 2.91  25 2.93  26 2.93  18 2.94  12 2.94   7 2.94   1 2.94   8 2.94
                            13 2.94  10 2.94  14 2.94  17 2.94
  17  0.444  0.778  0.346-  27 2.93  24 2.93  26 2.93   9 2.94  15 2.94   2 2.94  10 2.94  11 2.94
                             8 2.94  14 2.94  16 2.94  18 2.94
  18  0.778  0.778  0.346-  22 2.93  27 2.93  25 2.93  16 2.94   7 2.94  13 2.94  12 2.94   3 2.94
                            11 2.94   9 2.94  15 2.94  17 2.94
  19  0.889  0.222  0.454-  15 2.93  10 2.93  12 2.93  21 2.94  20 2.94  24 2.94  22 2.94  26 2.94
                            25 2.94  28 2.96  32 2.96  31 2.96
  20  0.222  0.222  0.453-  36 2.79  10 2.91  11 2.91  13 2.91  26 2.94  19 2.94  23 2.94  21 2.94
                            27 2.94  22 2.94  29 2.95  31 2.95
  21  0.556  0.222  0.453-  36 2.79  12 2.91  14 2.91  11 2.91  25 2.94  19 2.94  20 2.94  23 2.94
                            27 2.94  24 2.94  30 2.95  32 2.95
  22  0.888  0.556  0.454-  24 2.92  27 2.92  18 2.93  15 2.93  13 2.93  25 2.94  19 2.94  23 2.94
                            20 2.94  33 2.95  31 2.95  35 2.96
  23  0.222  0.556  0.453-  36 2.79  16 2.91  13 2.91  14 2.91  25 2.94  26 2.94  20 2.94  21 2.94
                            22 2.94  24 2.94  33 2.95  34 2.95
  24  0.556  0.556  0.454-  27 2.92  22 2.92  15 2.93  17 2.93  14 2.93  26 2.94  19 2.94  21 2.94
                            23 2.94  32 2.95  34 2.95  35 2.96
  25  0.889  0.889  0.454-  18 2.93  16 2.93  12 2.93  23 2.94  21 2.94  22 2.94  27 2.94  19 2.94
                            26 2.94  28 2.96  33 2.96  30 2.96
  26  0.222  0.889  0.454-  17 2.93  10 2.93  16 2.93  20 2.94  23 2.94  27 2.94  24 2.94  19 2.94
                            25 2.94  28 2.96  29 2.96  34 2.96
  27  0.556  0.888  0.454-  24 2.92  22 2.92  17 2.93  18 2.93  11 2.93  26 2.94  25 2.94  20 2.94
                            21 2.94  29 2.95  30 2.95  35 2.96
  28  0.000  0.000  0.563-  34 2.95  32 2.95  33 2.95  30 2.95  31 2.95  29 2.95  25 2.96  19 2.96
                            26 2.96
  29  0.333  0.004  0.562-  31 2.90  30 2.90  36 2.91  20 2.95  27 2.95  28 2.95  35 2.96  26 2.96
                            34 3.01
  30  0.663  0.004  0.562-  32 2.90  29 2.90  36 2.91  21 2.95  27 2.95  28 2.95  35 2.96  25 2.96
                            33 3.01
  31  0.004  0.333  0.562-  29 2.90  33 2.90  36 2.91  20 2.95  22 2.95  28 2.95  35 2.96  19 2.96
                            32 3.01
  32  0.663  0.333  0.562-  30 2.90  34 2.90  36 2.91  21 2.95  24 2.95  28 2.95  35 2.96  19 2.96
                            31 3.01
  33  0.004  0.663  0.562-  34 2.90  31 2.90  36 2.91  23 2.95  22 2.95  28 2.95  35 2.96  25 2.96
                            30 3.01
  34  0.333  0.663  0.562-  33 2.90  32 2.90  36 2.91  23 2.95  24 2.95  28 2.95  35 2.96  26 2.96
                            29 3.01
  35  0.667  0.667  0.563-  29 2.96  34 2.96  32 2.96  31 2.96  30 2.96  33 2.96  24 2.96  27 2.96
                            22 2.96
  36  0.333  0.333  0.552-  37 1.56  20 2.79  23 2.79  21 2.79  33 2.91  31 2.91  29 2.91  30 2.91
                            34 2.91  32 2.91
  37  0.333  0.333  0.623-  36 1.56

  LATTYP: Found a hexagonal cell.
 ALAT       =     8.8135128021
 C/A-ratio  =     2.5184286595

  Lattice vectors:

 A1 = (  -4.4067569092,  -7.6327256898,   0.0000000000)
 A2 = (   8.8135128021,   0.0000000000,   0.0000000000)
 A3 = (   0.0000000000,   0.0000000000,  22.1962032318)

Analysis of symmetry for initial positions (statically):
 Subroutine PRICEL returns:
 Original cell was already a primitive cell.

 Routine SETGRP: Setting up the symmetry group for a
 hexagonal supercell.

 Subroutine GETGRP returns: Found  6 space group operations
 (whereof  6 operations were pure point group operations)
 out of a pool of 24 trial point group operations.

The static configuration has the point symmetry C_3v.

Analysis of symmetry for dynamics (positions and initial velocities):
 Subroutine PRICEL returns:
 Original cell was already a primitive cell.

[...]

The dynamic configuration has the point symmetry C_3v.

Analysis of constrained symmetry for selective dynamics:
 Subroutine PRICEL returns:
 Original cell was already a primitive cell.

 Routine SETGRP: Setting up the symmetry group for a
 hexagonal supercell.

 Subroutine GETGRP returns: Found  6 space group operations
 (whereof  6 operations were pure point group operations)
[...]
     24      -5.0474      2.00000
     25      -5.0252      2.00000
     26      -5.0017      2.00000
     27      -4.9276      2.00000
     28      -4.8421      2.00000
     29      -4.7725      2.00000
     30      -4.7687      2.00000
     31      -4.7399      2.00000
     32      -4.7367      2.00000
     33      -4.7249      2.00000
     34      -4.6721      2.00000
     35      -4.5678      2.00000
     36      -4.5608      2.00000
     37      -4.5467      2.00000
     38      -4.5317      2.00000
     39      -4.4853      2.00000
     40      -4.3928      2.00000
     41      -4.3634      2.00000
     42      -4.3108      2.00000
     43      -4.2849      2.00000
     44      -4.2810      2.00000
     45      -4.2796      2.00000
     46      -4.1756      2.00000
     47      -4.1596      2.00000
     48      -4.1251      2.00000
     49      -4.1088      2.00000
     50      -4.1028      2.00000
     51      -4.0881      2.00000
     52      -4.0823      2.00000
     53      -4.0363      2.00000
     54      -4.0060      2.00000
     55      -3.9963      2.00000
     56      -3.9423      2.00000
     57      -3.9388      2.00000
     58      -3.9309      2.00000
     59      -3.9183      2.00000
     60      -3.9104      2.00000
[...]
    238       6.7215      0.00000
    239       6.7581      0.00000
    240       6.7908      0.00000
    241       6.8568      0.00000
    242       6.8789      0.00000
    243       7.1521      0.00000
    244       7.1972      0.00000
    245       7.3052      0.00000
    246       7.6147      0.00000
    247       7.6273      0.00000
    248       7.6896      0.00000
    249       7.7291      0.00000
    250       7.8807      0.00000
    251       7.9933      0.00000
    252       8.0376      0.00000

 soft charge-density along one line, spin component           1
         0         1         2         3         4         5         6         7         8         9
 total charge-density along one line

------------------------ aborting loop because EDIFF is reached ----------------------------------------

 total charge

# of ion       s       p       d       tot
    1        0.546   0.238   8.770   9.553
    2        0.544   0.240   8.765   9.550
    3        0.544   0.240   8.765   9.550
    4        0.544   0.240   8.765   9.550
    5        0.545   0.241   8.759   9.546
    6        0.544   0.240   8.765   9.550
    7        0.544   0.240   8.765   9.550
    8        0.544   0.240   8.765   9.550
    9        0.542   0.239   8.769   9.550
   10        0.520   0.309   8.770   9.599
   11        0.522   0.307   8.778   9.606
   12        0.520   0.309   8.770   9.599
   13        0.522   0.307   8.778   9.606
   14        0.522   0.307   8.778   9.606
   15        0.516   0.308   8.776   9.600
   16        0.520   0.309   8.770   9.599
   17        0.516   0.308   8.776   9.600
   18        0.516   0.308   8.776   9.600
   19        0.517   0.303   8.774   9.594
   20        0.542   0.318   8.760   9.620
   21        0.542   0.318   8.760   9.620
   22        0.509   0.308   8.775   9.592
   23        0.542   0.318   8.760   9.620
   24        0.509   0.308   8.775   9.592
   25        0.517   0.303   8.774   9.594
   26        0.517   0.303   8.774   9.594
   27        0.509   0.308   8.775   9.592
   28        0.541   0.229   8.768   9.538
   29        0.547   0.237   8.757   9.540
   30        0.547   0.237   8.757   9.540
   31        0.547   0.237   8.757   9.540
   32        0.547   0.237   8.757   9.540
   33        0.547   0.237   8.757   9.540
   34        0.547   0.237   8.757   9.540
   35        0.535   0.230   8.769   9.534
   36        0.407   0.396   7.464   8.268
   37        0.506   0.021   0.000   0.527
tot         19.545  10.014 314.331 343.890

  FORCE on cell =-STRESS in cart. coord.  units (eV):
  Direction    XX          YY          ZZ          XY          YZ          ZX
  Alpha Z   997.37327   997.37327   997.37327
  Ewald  119740.00186119740.00226************    -0.00034    -0.00009    -0.00016
  Hartree128375.97896128375.97896************    -0.00000    -0.00002    -0.00004
  E(xc)   -1773.21592 -1773.21589 -1780.41556    -0.00002    -0.00000    -0.00000
  Local  ************************260747.06389     0.00175     0.00004     0.00007
  n-local   -89.38155   -32.74284   -30.52262    26.06471    -1.54815     1.83375
  augment  2426.57465  2426.57618  2439.39616    -0.00133     0.00000     0.00004
  Kinetic  5461.25942  5477.26900  5515.97897     7.33317    -0.19848     0.58718
  Fock        0.00000     0.00000     0.00000     0.00000     0.00000     0.00000
  Total     -21.60621   -21.60621     3.52331    -0.00000     0.00000     0.00000
  in kB     -23.18365   -23.18365     3.78054    -0.00000     0.00000     0.00000

 VOLUME and BASIS-vectors are now :
  energy-cutoff  :      500.00
  volume of cell :     1493.16
      direct lattice vectors                 reciprocal lattice vectors
     8.813512802  0.000000000  0.000000000     0.113462137 -0.065507406  0.000000000
     4.406756909  7.632725690  0.000000000     0.000000000  0.131014796  0.000000000
     0.000000000  0.000000000 22.196203232     0.000000000  0.000000000  0.045052750

  length of vectors
     8.813512802  8.813512802 22.196203232     0.131014796  0.131014796  0.045052750

 FORCES acting on ions
    electron-ion (+dipol)            ewald-force                    non-local-force                 convergence-correction
   -.198E-04 -.163E-04 0.248E+04   0.519E-04 0.433E-04 -.248E+04   0.543E-17 0.294E-17 -.822E+00   -.203E-03 -.130E-03 -.389E+00
   0.175E+00 0.136E+00 0.248E+04   -.229E+00 -.289E+00 -.248E+04   0.383E-01 0.753E-01 -.318E+00   0.186E-01 0.888E-01 -.449E+00
   -.175E+00 0.136E+00 0.248E+04   0.229E+00 -.289E+00 -.248E+04   -.383E-01 0.753E-01 -.318E+00   -.184E-01 0.908E-01 -.448E+00
   0.206E+00 0.838E-01 0.248E+04   -.365E+00 -.539E-01 -.248E+04   0.844E-01 -.448E-02 -.318E+00   0.863E-01 -.283E-01 -.449E+00
   0.694E-05 -.242E-04 0.248E+04   0.951E-04 0.171E-05 -.248E+04   0.484E-17 0.127E-17 -.159E+00   0.430E-02 0.262E-02 -.450E+00
   -.206E+00 0.839E-01 0.248E+04   0.365E+00 -.540E-01 -.248E+04   -.844E-01 -.448E-02 -.318E+00   -.878E-01 -.273E-01 -.448E+00
   0.301E-01 -.220E+00 0.248E+04   -.136E+00 0.343E+00 -.248E+04   0.461E-01 -.709E-01 -.318E+00   0.695E-01 -.613E-01 -.448E+00
   -.302E-01 -.220E+00 0.248E+04   0.136E+00 0.343E+00 -.248E+04   -.461E-01 -.709E-01 -.318E+00   -.676E-01 -.624E-01 -.448E+00
   0.195E-04 -.415E-04 0.248E+04   0.166E-03 -.200E-04 -.248E+04   -.206E-17 0.191E-17 -.572E+00   -.464E-02 -.240E-02 -.459E+00
   0.302E+01 0.174E+01 0.825E+03   -.281E+01 -.162E+01 -.824E+03   -.246E+00 -.142E+00 -.649E+00   0.310E-01 0.178E-01 0.552E-01
   0.141E-04 0.316E+01 0.827E+03   0.149E-03 -.323E+01 -.827E+03   0.425E-08 0.639E-01 -.258E+00   0.380E-02 -.116E-01 0.317E-01
   -.302E+01 0.174E+01 0.825E+03   0.281E+01 -.162E+01 -.824E+03   0.246E+00 -.142E+00 -.649E+00   -.323E-01 0.193E-01 0.549E-01
   0.273E+01 -.158E+01 0.827E+03   -.280E+01 0.162E+01 -.827E+03   0.553E-01 -.320E-01 -.258E+00   -.787E-02 0.937E-02 0.317E-01
   -.273E+01 -.158E+01 0.827E+03   0.280E+01 0.162E+01 -.827E+03   -.553E-01 -.320E-01 -.258E+00   0.157E-01 0.892E-02 0.316E-01
   0.313E-04 0.804E+00 0.824E+03   0.236E-03 -.844E+00 -.824E+03   0.232E-08 0.349E-01 -.512E+00   -.240E-02 -.185E-01 0.285E-01
   -.213E-04 -.349E+01 0.825E+03   0.162E-03 0.324E+01 -.824E+03   0.189E-07 0.284E+00 -.649E+00   0.294E-03 -.377E-01 0.548E-01
   0.697E+00 -.402E+00 0.824E+03   -.731E+00 0.422E+00 -.824E+03   0.302E-01 -.175E-01 -.512E+00   -.170E-01 0.762E-02 0.285E-01
   -.697E+00 -.402E+00 0.824E+03   0.730E+00 0.422E+00 -.824E+03   -.302E-01 -.175E-01 -.512E+00   0.170E-01 0.954E-02 0.282E-01
   -.403E-04 0.564E+00 -.858E+03   0.539E-04 -.637E+00 0.857E+03   0.237E-08 0.356E-01 0.611E+00   -.512E-03 0.420E-01 0.505E+00
   0.690E+01 0.398E+01 -.837E+03   -.616E+01 -.356E+01 0.837E+03   -.861E+00 -.497E+00 -.662E+00   0.107E+00 0.618E-01 0.729E+00
   -.690E+01 0.398E+01 -.837E+03   0.616E+01 -.356E+01 0.837E+03   0.861E+00 -.497E+00 -.662E+00   -.106E+00 0.637E-01 0.729E+00
   -.278E+00 0.161E+00 -.853E+03   -.489E-01 0.282E-01 0.852E+03   0.253E+00 -.146E+00 0.538E+00   0.873E-01 -.548E-01 0.561E+00
   -.133E-04 -.796E+01 -.837E+03   0.143E-03 0.712E+01 0.837E+03   0.662E-07 0.994E+00 -.662E+00   0.175E-02 -.124E+00 0.729E+00
   0.278E+00 0.161E+00 -.853E+03   0.488E-01 0.281E-01 0.852E+03   -.253E+00 -.146E+00 0.538E+00   -.942E-01 -.543E-01 0.561E+00
   -.488E+00 -.282E+00 -.858E+03   0.552E+00 0.319E+00 0.857E+03   -.308E-01 -.178E-01 0.611E+00   -.345E-01 -.200E-01 0.505E+00
   0.488E+00 -.282E+00 -.858E+03   -.552E+00 0.319E+00 0.857E+03   0.308E-01 -.178E-01 0.611E+00   0.364E-01 -.214E-01 0.505E+00
   0.621E-05 -.321E+00 -.853E+03   0.201E-03 -.564E-01 0.852E+03   0.194E-07 0.292E+00 0.538E+00   -.438E-02 0.103E+00 0.561E+00
   -.869E-05 -.110E-04 -.249E+04   0.265E-04 0.316E-04 0.249E+04   -.728E-17 -.365E-17 0.632E+00   0.149E-03 0.688E-04 0.576E+00
   0.126E+01 0.169E+01 -.249E+04   -.101E+01 -.146E+01 0.248E+04   -.364E+00 -.477E+00 0.504E+00   0.125E+00 0.239E+00 0.532E+00
   -.126E+01 0.169E+01 -.249E+04   0.101E+01 -.146E+01 0.248E+04   0.364E+00 -.477E+00 0.504E+00   -.125E+00 0.241E+00 0.532E+00
   0.210E+01 0.242E+00 -.249E+04   -.177E+01 -.146E+00 0.248E+04   -.595E+00 -.769E-01 0.504E+00   0.270E+00 -.113E-01 0.532E+00
   -.210E+01 0.242E+00 -.249E+04   0.177E+01 -.146E+00 0.248E+04   0.595E+00 -.769E-01 0.504E+00   -.271E+00 -.102E-01 0.531E+00
   0.838E+00 -.194E+01 -.249E+04   -.760E+00 0.161E+01 0.248E+04   -.231E+00 0.554E+00 0.504E+00   0.147E+00 -.229E+00 0.532E+00
   -.838E+00 -.194E+01 -.249E+04   0.760E+00 0.161E+01 0.248E+04   0.231E+00 0.554E+00 0.504E+00   -.144E+00 -.230E+00 0.531E+00
   0.292E-04 -.316E-04 -.249E+04   0.148E-03 -.467E-04 0.249E+04   0.141E-18 -.604E-18 0.680E+00   -.473E-02 -.243E-02 0.500E+00
   -.193E-04 -.162E-04 -.192E+04   0.917E-04 0.821E-05 0.192E+04   -.438E-17 -.400E-18 -.473E+01   0.307E-02 0.187E-02 0.384E+00
   0.626E-05 -.398E-05 -.292E+03   0.458E-05 0.286E-06 0.294E+03   -.191E-18 -.545E-19 -.263E+01   0.128E-03 0.774E-04 -.448E-01
   -.778E-03 -.788E-03 0.368E+01   -.785E-13 0.249E-12 -.301E-11   0.162E-15 -.106E-17 -.929E+01   0.613E-03 0.975E-03 0.635E+01

 POSITION                                       TOTAL-FORCE (eV/Angst)
      0.00000      0.00000      5.28038        -0.000000      0.000000     -0.127690
      2.93784      0.00000      5.28038         0.003535      0.011900     -0.066764
      5.87568      0.00000      5.28038        -0.003535      0.011900     -0.066764
      1.46892      2.54424      5.28038         0.012074     -0.002889     -0.066764
      4.40676      2.54424      5.28038        -0.000000      0.000000     -0.100589
      7.34459      2.54424      5.28038        -0.012074     -0.002889     -0.066764
      2.93784      5.08848      5.28038         0.008539     -0.009012     -0.066764
      5.87568      5.08848      5.28038        -0.008539     -0.009012     -0.066764
      8.81351      5.08848      5.28038        -0.000000      0.000000     -0.088396
      1.46892      0.84808      7.67911        -0.001985     -0.001146      0.092247
      4.40676      0.84808      7.67911        -0.000000     -0.027056      0.071250
      7.34459      0.84808      7.67911         0.001985     -0.001146      0.092247
      2.93784      3.39232      7.67911        -0.023431      0.013528      0.071250
      5.87568      3.39232      7.67911         0.023431      0.013528      0.071250
      8.81351      3.39232      7.67911        -0.000000     -0.023098      0.104465
      4.40676      5.93656      7.67911         0.000000      0.002292      0.092247
      7.34459      5.93656      7.67911        -0.020004      0.011549      0.104465
     10.28243      5.93656      7.67911         0.020004      0.011549      0.104465
      8.81351      1.69621     10.07295         0.000000      0.003911      0.004412
      2.93663      1.69546     10.04742        -0.019982     -0.011536     -0.155941
      5.87688      1.69546     10.04742         0.019982     -0.011536     -0.155941
     10.27557      4.24437     10.06760         0.016553     -0.009557     -0.016018
      4.40676      4.24180     10.04742         0.000000      0.023073     -0.155941
      7.35146      4.24437     10.06760        -0.016553     -0.009557     -0.016018
     11.75131      6.78462     10.07295        -0.003387     -0.001956      0.004412
      5.87571      6.78462     10.07295         0.003387     -0.001956      0.004412
      8.81351      6.77672     10.06760         0.000000      0.019113     -0.016018
      0.00000      0.00000     12.49471        -0.000000      0.000000     -0.021527
      2.95476      0.03042     12.47845         0.006054     -0.005443      0.024271
      5.85875      0.03042     12.47845        -0.006054     -0.005443      0.024271
      1.50372      2.54369     12.47845        -0.001687      0.007964      0.024271
      7.30979      2.54369     12.47845         0.001687      0.007964      0.024271
      2.95572      5.05862     12.47845        -0.007740     -0.002521      0.024271
      5.85780      5.05862     12.47845         0.007740     -0.002521      0.024271
      8.81351      5.08848     12.49462        -0.000000      0.000000     -0.005080
      4.40676      2.54424     12.26123        -0.000000      0.000000      0.327357
      4.40676      2.54424     13.82145        -0.000000      0.000000     -0.030363
    total drift:                               -0.000165      0.000187      0.740379

  FREE ENERGIE OF THE ION-ELECTRON SYSTEM (eV)
  free  energy   TOTEN  =      -116.73222232 eV

  energy  without entropy=     -116.73222232  energy(sigma->0) =     -116.73222232

 stress matrix after NEB project (eV)
    -21.60621     -0.00000      0.00000
     -0.00000    -21.60621      0.00000
     -0.00000      0.00000      3.52331
  FORCES: max atom, RMS     0.030363    0.004992
  FORCE total and by dimension    0.030363    0.030363
  Stress total and by dimension   30.758254   21.606209
|           W    W    AA    RRRRR   N    N  II  N    N   GGGG   !!!           |
|           W    W   A  A   R    R  NN   N  II  NN   N  G    G  !!!           |
|           W    W  A    A  R    R  N N  N  II  N N  N  G       !!!           |
|           W WW W  AAAAAA  RRRRR   N  N N  II  N  N N  G  GGG   !            |
|           WW  WW  A    A  R   R   N   NN  II  N   NN  G    G                |
|           W    W  A    A  R    R  N    N  II  N    N   GGGG   !!!           |
|     Tetrahedron method does not include variations of the Fermi             |
|     occupations, so forces and stress will be inaccurate. We suggest        |
|     using a different smearing scheme ISMEAR = 1 or 2 for metals in         |
|     relaxations.                                                            |

 total charge

# of ion       s       p       d       tot
    1        0.546   0.238   8.770   9.553
    2        0.544   0.240   8.765   9.550
    3        0.544   0.240   8.765   9.550
    4        0.544   0.240   8.765   9.550
    5        0.545   0.241   8.759   9.546
    6        0.544   0.240   8.765   9.550
    7        0.544   0.240   8.765   9.550
    8        0.544   0.240   8.765   9.550
    9        0.542   0.239   8.769   9.550
   10        0.520   0.309   8.770   9.599
   11        0.522   0.307   8.778   9.606
   12        0.520   0.309   8.770   9.599
   13        0.522   0.307   8.778   9.606
   14        0.522   0.307   8.778   9.606
   15        0.516   0.308   8.776   9.600
   16        0.520   0.309   8.770   9.599
   17        0.516   0.308   8.776   9.600
   18        0.516   0.308   8.776   9.600
   19        0.517   0.303   8.774   9.594
   20        0.542   0.318   8.760   9.620
   21        0.542   0.318   8.760   9.620
   22        0.509   0.308   8.775   9.592
   23        0.542   0.318   8.760   9.620
   24        0.509   0.308   8.775   9.592
   25        0.517   0.303   8.774   9.594
   26        0.517   0.303   8.774   9.594
   27        0.509   0.308   8.775   9.592
   28        0.541   0.229   8.768   9.538
   29        0.547   0.237   8.757   9.540
   30        0.547   0.237   8.757   9.540
   31        0.547   0.237   8.757   9.540
   32        0.547   0.237   8.757   9.540
   33        0.547   0.237   8.757   9.540
   34        0.547   0.237   8.757   9.540
   35        0.535   0.230   8.769   9.534
   36        0.407   0.396   7.464   8.268
   37        0.506   0.021   0.000   0.527
tot         19.545  10.014 314.331 343.890

 BZINTS: Fermi energy:    0.664423;  395.000000 electrons
         Band energy:-0.117986E+04;  BLOECHL correction:   -0.101146