 vasp.6.2.0 18Jan21 (build Jun 12 2021 23:27:24) complex

 executed on             LinuxIFC date 2022.05.27  06:20:00

 INCAR:
   ISMEAR = -5
   SIGMA = 0.1
   ISPIN = 1
   EDIFF = 1.d-5
   EDIFFG = -0.01
   NSW = 0
   NELM = 150
   ENCUT = 500
   ISIF = 2
   IBRION = 2
   LREAL = Auto
   ALGO = Fast
   ICHARG = 11
   LORBIT = 10
   LCHARG = .F.
   LWAVE = .F.

 POTCAR:    PAW_PBE Cu 22Jun2005
 POTCAR:    PAW_PBE Os 17Jan2003
 POTCAR:    PAW_PBE H 15Jun2001
|           W    W    AA    RRRRR   N    N  II  N    N   GGGG   !!!           |
|           W    W   A  A   R    R  NN   N  II  NN   N  G    G  !!!           |
|           W    W  A    A  R    R  N N  N  II  N N  N  G       !!!           |
|           W WW W  AAAAAA  RRRRR   N  N N  II  N  N N  G  GGG   !            |
|           WW  WW  A    A  R   R   N   NN  II  N   NN  G    G                |
|           W    W  A    A  R    R  N    N  II  N    N   GGGG   !!!           |
|     For optimal performance we recommend to set                             |
|       NCORE = 2 up to number-of-cores-per-socket                            |
|     This setting can greatly improve the performance of VASP for DFT.       |
|     The default, NCORE=1 might be grossly inefficient on modern             |
|     multi-core architectures or massively parallel machines. Do your        |
|     Unfortunately you need to use the default for GW and RPA                |
|     calculations (for HF NCORE is supported but not extensively tested      |
|     yet).                                                                   |

 POTCAR:    PAW_PBE Cu 22Jun2005
   VRHFIN =Cu: d10 p1

   TITEL  = PAW_PBE Cu 22Jun2005
   POMASS =   63.546; ZVAL   =   11.000    mass and valenz
   ENMAX  =  295.446; ENMIN  =  221.585 eV

 POTCAR:    PAW_PBE Os 17Jan2003
   VRHFIN =Os: 6s5d

   TITEL  = PAW_PBE Os 17Jan2003
   POMASS =  190.200; ZVAL   =    8.000    mass and valenz
   ENMAX  =  228.022; ENMIN  =  171.017 eV

 POTCAR:    PAW_PBE H 15Jun2001
   VRHFIN =H: ultrasoft test

   TITEL  = PAW_PBE H 15Jun2001
   POMASS =    1.000; ZVAL   =    1.000    mass and valenz
   ENMAX  =  250.000; ENMIN  =  200.000 eV

 Optimization of the real space projectors (new method)

 maximal supplied QI-value         = 16.25
 optimisation between [QCUT,QGAM] = [ 11.38, 22.75] = [ 36.24,144.96] Ry
 Optimized for a Real-space Cutoff    1.52 Angstroem

   l    n(q)    QCUT    max X(q) W(low)/X(q) W(high)/X(q)  e(spline)
   2      9    11.376     4.610    0.21E-03    0.10E-03    0.26E-06
   2      9    11.376     8.522    0.33E-03    0.16E-03    0.37E-06
   0     10    11.376    51.609    0.62E-04    0.20E-04    0.13E-06
   0     10    11.376    27.747    0.54E-04    0.20E-04    0.13E-06
   1     10    11.376    20.408    0.13E-04    0.99E-04    0.19E-06
   1     10    11.376    13.425    0.12E-04    0.87E-04    0.17E-06
 Optimization of the real space projectors (new method)

[...]

   l    n(q)    QCUT    max X(q) W(low)/X(q) W(high)/X(q)  e(spline)
   2     10    11.327   152.873    0.32E-03    0.72E-03    0.11E-05
   2     10    11.327   151.010    0.32E-03    0.72E-03    0.11E-05
   0     11    11.327    72.114    0.43E-04    0.61E-04    0.13E-06
   0     11    11.327    44.596    0.40E-04    0.57E-04    0.12E-06
   1     10    11.327    13.742    0.16E-03    0.10E-03    0.19E-06
   1     10    11.327     8.461    0.12E-03    0.78E-04    0.15E-06
 Optimization of the real space projectors (new method)

 maximal supplied QI-value         = 34.20
 optimisation between [QCUT,QGAM] = [ 11.29, 22.57] = [ 35.68,142.71] Ry
 Optimized for a Real-space Cutoff    1.16 Angstroem

   l    n(q)    QCUT    max X(q) W(low)/X(q) W(high)/X(q)  e(spline)
   0      8    11.287    19.460    0.40E-03    0.73E-03    0.16E-06
   0      8    11.287    12.209    0.38E-03    0.70E-03    0.15E-06
   1      7    11.287     4.655    0.22E-03    0.25E-04    0.22E-06
  PAW_PBE Cu 22Jun2005                  :
  PAW_PBE Os 17Jan2003                  :
  PAW_PBE H 15Jun2001                   :

 POSCAR: Cu-Os-H2
  positions in direct lattice
  velocities in cartesian coordinates
 exchange correlation table for  LEXCH =        8
   RHO(1)=    0.500       N(1)  =     2000
   RHO(2)=  100.500       N(2)  =     4000

 VTST: version 3.2, (02/03/18)

 CHAIN: initializing optimizer

 OPT: Using VASP Conjugate-Gradient optimizer
 CHAIN: Read ICHAIN            0

 POSCAR: Cu-Os-H2
  positions in direct lattice
  velocities in cartesian coordinates

 ion  position               nearest neighbor table
   1  0.000  0.000  0.252-   7 2.57   3 2.57   4 2.57   2 2.57   6 2.57   8 2.57  12 2.57  10 2.57
                            16 2.57
   2  0.333  0.000  0.252-   8 2.57   9 2.57   5 2.57   1 2.57   3 2.57  11 2.57   4 2.57  10 2.57
                            17 2.57
   3  0.667  0.000  0.252-   1 2.57   7 2.57   6 2.57   9 2.57   2 2.57  12 2.57   5 2.57  18 2.57
                            11 2.57
   4  0.000  0.333  0.252-   5 2.57   6 2.57   1 2.57   7 2.57   2 2.57  13 2.57   9 2.57  10 2.57
                            15 2.57
   5  0.333  0.333  0.252-   4 2.57   2 2.57   7 2.57  13 2.57   8 2.57   6 2.57   3 2.57  11 2.57
                            14 2.57
   6  0.667  0.333  0.252-   4 2.57   9 2.57  15 2.57   3 2.57   1 2.57   8 2.57  14 2.57   5 2.57
                            12 2.57
   7  0.000  0.667  0.252-   1 2.57   3 2.57  16 2.57  18 2.57   4 2.57   5 2.57   8 2.57   9 2.57
                            13 2.57
   8  0.333  0.667  0.252-   9 2.57   2 2.57  17 2.57   6 2.57   1 2.57   7 2.57   5 2.57  14 2.57
                            16 2.57
   9  0.667  0.667  0.252-   8 2.57   6 2.57   2 2.57  17 2.57   3 2.57   7 2.57   4 2.57  15 2.57
                            18 2.57
  10  0.111  0.111  0.351-  20 2.53  11 2.57  12 2.57  13 2.57   1 2.57   2 2.57   4 2.57  15 2.57
                            16 2.57  17 2.57  26 2.57  19 2.57
  11  0.444  0.111  0.351-  20 2.54  21 2.54  10 2.57  13 2.57   2 2.57  17 2.57  14 2.57  12 2.57
                             5 2.57   3 2.57  18 2.57  27 2.57
  12  0.778  0.111  0.351-  21 2.53  15 2.57  10 2.57  14 2.57  18 2.57   3 2.57   1 2.57  16 2.57
                            11 2.57   6 2.57  19 2.57  25 2.57
  13  0.111  0.444  0.351-  23 2.54  20 2.54  16 2.57  18 2.57  10 2.57  11 2.57  14 2.57   5 2.57
                             4 2.57   7 2.57  15 2.57  22 2.57
  14  0.444  0.444  0.351-  21 2.54  23 2.54  15 2.57  17 2.57  12 2.57  16 2.57  13 2.57  11 2.57
                             6 2.57   8 2.57   5 2.57  24 2.57
  15  0.778  0.444  0.351-  19 2.56  14 2.57  17 2.57  12 2.57   6 2.57  18 2.57  10 2.57   9 2.57
                            13 2.57   4 2.57  24 2.57  22 2.57
  16  0.111  0.778  0.351-  23 2.53  18 2.57  13 2.57   7 2.57  14 2.57  17 2.57  12 2.57  10 2.57
                             8 2.57   1 2.57  25 2.57  26 2.57
  17  0.444  0.778  0.351-  26 2.56  14 2.57  15 2.57   8 2.57   9 2.57  11 2.57  16 2.57  18 2.57
                            10 2.57   2 2.57  27 2.57  24 2.57
  18  0.778  0.778  0.351-  25 2.56  16 2.57  13 2.57   7 2.57  15 2.57  12 2.57  17 2.57   9 2.57
                             3 2.57  11 2.57  22 2.57  27 2.57
  19  0.888  0.223  0.449-  21 2.55  20 2.55  28 2.55  22 2.56  24 2.56  15 2.56  12 2.57  10 2.57
                            32 2.57  31 2.57  25 2.57  26 2.57
  20  0.221  0.221  0.448-  10 2.53  36 2.53  11 2.54  13 2.54  26 2.55  19 2.55  27 2.57  22 2.57
                            23 2.59  21 2.59  29 2.60  31 2.60
  21  0.558  0.221  0.448-  12 2.53  36 2.53  14 2.54  11 2.54  19 2.55  25 2.55  24 2.57  27 2.57
                            20 2.59  23 2.59  32 2.60  30 2.60
  22  0.888  0.556  0.449-  35 2.55  24 2.55  27 2.55  19 2.56  25 2.56  18 2.57  15 2.57  23 2.57
                            20 2.57  13 2.57  31 2.58  33 2.58
  23  0.221  0.558  0.448-  16 2.53  36 2.53  13 2.54  14 2.54  25 2.55  26 2.55  22 2.57  24 2.57
                            20 2.59  21 2.59  33 2.60  34 2.60
  24  0.556  0.556  0.449-  35 2.55  22 2.55  27 2.55  19 2.56  26 2.56  15 2.57  17 2.57  21 2.57
                            23 2.57  14 2.57  32 2.58  34 2.58
  25  0.888  0.888  0.449-  21 2.55  23 2.55  28 2.55  22 2.56  27 2.56  18 2.56  16 2.57  12 2.57
                            33 2.57  30 2.57  19 2.57  26 2.57
  26  0.223  0.888  0.449-  20 2.55  23 2.55  28 2.55  27 2.56  24 2.56  17 2.56  10 2.57  16 2.57
                            29 2.57  34 2.57  25 2.57  19 2.57
  27  0.556  0.888  0.449-  35 2.55  24 2.55  22 2.55  26 2.56  25 2.56  17 2.57  18 2.57  20 2.57
                            21 2.57  11 2.57  29 2.58  30 2.58
  28  0.000  0.000  0.547-  25 2.55  19 2.55  26 2.55  33 2.56  30 2.56  31 2.56  29 2.56  32 2.56
                            34 2.56
  29  0.333  0.000  0.548-  31 2.56  28 2.56  34 2.57  36 2.57  35 2.57  30 2.57  26 2.57  27 2.58
                            20 2.60
  30  0.667  0.000  0.548-  32 2.56  28 2.56  33 2.57  36 2.57  35 2.57  29 2.57  25 2.57  27 2.58
                            21 2.60
  31  0.000  0.333  0.548-  29 2.56  28 2.56  32 2.57  36 2.57  35 2.57  33 2.57  19 2.57  22 2.58
                            20 2.60
  32  0.667  0.333  0.548-  30 2.56  28 2.56  31 2.57  36 2.57  35 2.57  34 2.57  19 2.57  24 2.58
                            21 2.60
  33  0.000  0.667  0.548-  34 2.56  28 2.56  30 2.57  36 2.57  35 2.57  31 2.57  25 2.57  22 2.58
                            23 2.60
  34  0.333  0.667  0.548-  33 2.56  28 2.56  29 2.57  36 2.57  35 2.57  32 2.57  26 2.57  24 2.58
                            23 2.60
  35  0.667  0.667  0.547-  24 2.55  27 2.55  22 2.55  34 2.57  32 2.57  29 2.57  30 2.57  33 2.57
                            31 2.57
  36  0.333  0.333  0.544-  37 1.70  38 1.70  23 2.53  20 2.53  21 2.53  31 2.57  29 2.57  33 2.57
                            34 2.57  32 2.57  30 2.57
  37  0.234  0.255  0.601-  36 1.70
  38  0.511  0.255  0.601-  36 1.70

  LATTYP: Found a hexagonal cell.
 ALAT       =     7.6967864036
 C/A-ratio  =     2.7653617908

  Lattice vectors:

 A1 = (  -3.8483927580,  -6.6656128093,   0.0000000000)
 A2 = (   7.6967864037,   0.0000000000,   0.0000000000)
 A3 = (   0.0000000000,   0.0000000000,  21.2843990326)

Analysis of symmetry for initial positions (statically):
 Subroutine PRICEL returns:
 Original cell was already a primitive cell.

 Routine SETGRP: Setting up the symmetry group for a
 hexagonal supercell.

 Subroutine GETGRP returns: Found  2 space group operations
 (whereof  2 operations were pure point group operations)
 out of a pool of 24 trial point group operations.

The static configuration has the point symmetry C_1h.

Analysis of symmetry for dynamics (positions and initial velocities):
 Subroutine PRICEL returns:
 Original cell was already a primitive cell.

[...]

The dynamic configuration has the point symmetry C_1h.

Analysis of constrained symmetry for selective dynamics:
 Subroutine PRICEL returns:
 Original cell was already a primitive cell.

 Routine SETGRP: Setting up the symmetry group for a
 hexagonal supercell.

 Subroutine GETGRP returns: Found  2 space group operations
[...]
     33      -3.9704      2.00000
     34      -3.9545      2.00000
     35      -3.8781      2.00000
     36      -3.8753      2.00000
     37      -3.8508      2.00000
     38      -3.7566      2.00000
     39      -3.6735      2.00000
     40      -3.6666      2.00000
     41      -3.6088      2.00000
     42      -3.5947      2.00000
     43      -3.5834      2.00000
     44      -3.5652      2.00000
     45      -3.5552      2.00000
     46      -3.5331      2.00000
     47      -3.5268      2.00000
     48      -3.3740      2.00000
     49      -3.3473      2.00000
     50      -3.3328      2.00000
     51      -3.3220      2.00000
     52      -3.2724      2.00000
     53      -3.2604      2.00000
     54      -3.2561      2.00000
     55      -3.2518      2.00000
     56      -3.2250      2.00000
     57      -3.2156      2.00000
     58      -3.1957      2.00000
     59      -3.1839      2.00000
     60      -3.1814      2.00000
[...]
    238       6.8602      0.00000
    239       6.9080      0.00000
    240       7.0065      0.00000
    241       7.0533      0.00000
    242       7.1250      0.00000
    243       7.3202      0.00000
    244       7.3334      0.00000
    245       7.4046      0.00000
    246       7.4544      0.00000
    247       7.5594      0.00000
    248       7.7313      0.00000
    249       7.9339      0.00000
    250       8.1729      0.00000
    251       8.2287      0.00000
    252       8.4785      0.00000

 soft charge-density along one line, spin component           1
         0         1         2         3         4         5         6         7         8         9
 total charge-density along one line

------------------------ aborting loop because EDIFF is reached ----------------------------------------

 total charge

# of ion       s       p       d       tot
    1        0.447   0.283   9.192   9.922
    2        0.450   0.283   9.188   9.921
    3        0.450   0.283   9.188   9.921
    4        0.449   0.285   9.186   9.920
    5        0.448   0.287   9.180   9.916
    6        0.449   0.285   9.186   9.920
    7        0.449   0.285   9.185   9.920
    8        0.449   0.285   9.185   9.920
    9        0.446   0.283   9.190   9.919
   10        0.441   0.374   9.174   9.989
   11        0.445   0.366   9.184   9.994
   12        0.441   0.374   9.174   9.989
   13        0.445   0.365   9.184   9.995
   14        0.445   0.365   9.184   9.995
   15        0.439   0.368   9.179   9.985
   16        0.442   0.372   9.175   9.990
   17        0.436   0.369   9.179   9.985
   18        0.436   0.369   9.179   9.985
   19        0.437   0.370   9.181   9.988
   20        0.458   0.397   9.170  10.025
   21        0.458   0.397   9.170  10.025
   22        0.429   0.374   9.180   9.984
   23        0.461   0.400   9.165  10.026
   24        0.429   0.374   9.180   9.984
   25        0.440   0.368   9.182   9.990
   26        0.440   0.368   9.182   9.990
   27        0.430   0.373   9.180   9.982
   28        0.452   0.285   9.196   9.932
   29        0.442   0.323   9.186   9.952
   30        0.442   0.323   9.186   9.952
   31        0.442   0.341   9.174   9.958
   32        0.442   0.341   9.174   9.958
   33        0.456   0.314   9.171   9.941
   34        0.456   0.314   9.171   9.941
   35        0.443   0.288   9.193   9.925
   36        0.647   0.615   6.155   7.416
   37        0.514   0.022   0.000   0.536
   38        0.514   0.022   0.000   0.536
tot         17.241  12.494 327.489 357.224

  FORCE on cell =-STRESS in cart. coord.  units (eV):
  Direction    XX          YY          ZZ          XY          YZ          ZX
  Alpha Z   892.43800   892.43800   892.43800
  Ewald  172936.56459172921.27567************     0.00036     2.40557     0.00015
  Hartree185815.09025185815.65821************     0.00003     8.69287     0.00006
  E(xc)   -2289.64466 -2289.79549 -2294.58175    -0.00033    -0.02053    -0.00004
  Local  ************************372113.53196     0.01957   -13.80010    -0.00066
  n-local  -782.10786  -783.76989  -797.64802     2.05407    -0.34704     0.19102
  augment  3324.49638  3324.78606  3343.92977    -0.01839     0.05188     0.00032
  Kinetic  3260.56264  3265.72496  3291.34470     1.29152     3.04881    -0.24169
  Fock        0.00000     0.00000     0.00000     0.00000     0.00000     0.00000
  Total      -4.34519    -4.35230     1.44073     0.00000     0.03146    -0.00000
  in kB      -6.37541    -6.38585     2.11389     0.00000     0.04616    -0.00000

 VOLUME and BASIS-vectors are now :
  energy-cutoff  :      500.00
  volume of cell :     1091.97
      direct lattice vectors                 reciprocal lattice vectors
     7.696786404  0.000000000  0.000000000     0.129924354 -0.075011849  0.000000000
     3.848392758  6.665612809  0.000000000     0.000000000  0.150023716  0.000000000
     0.000000000  0.000000000 21.284399033     0.000000000  0.000000000  0.046982769

  length of vectors
     7.696786404  7.696786404 21.284399033     0.150023716  0.150023716  0.046982769

 FORCES acting on ions
    electron-ion (+dipol)            ewald-force                    non-local-force                 convergence-correction
   -.409E-04 0.358E-01 0.347E+04   0.580E-04 -.381E-01 -.347E+04   -.407E-08 0.611E-01 -.308E+01   -.344E-03 -.503E-01 -.440E+00
   -.304E+00 0.986E-01 0.347E+04   0.575E-01 -.110E+00 -.347E+04   0.111E+00 0.731E-01 -.192E+01   0.138E+00 -.452E-01 -.360E+00
   0.304E+00 0.986E-01 0.347E+04   -.576E-01 -.110E+00 -.347E+04   -.111E+00 0.731E-01 -.192E+01   -.137E+00 -.427E-01 -.359E+00
   -.728E-01 -.267E+00 0.347E+04   -.337E-01 0.130E+00 -.347E+04   0.954E-01 0.411E-01 -.189E+01   0.378E-01 0.941E-01 -.325E+00
   -.612E-04 0.293E-01 0.347E+04   0.116E-03 0.454E-01 -.347E+04   0.144E-08 -.216E-01 -.133E+01   0.122E-01 -.399E-01 -.204E+00
   0.729E-01 -.266E+00 0.347E+04   0.336E-01 0.130E+00 -.347E+04   -.954E-01 0.411E-01 -.189E+01   -.394E-01 0.953E-01 -.324E+00
   0.844E-01 0.143E+00 0.347E+04   -.905E-01 -.205E-01 -.347E+04   0.520E-01 -.120E+00 -.175E+01   -.257E-01 -.267E-01 -.346E+00
   -.843E-01 0.143E+00 0.347E+04   0.902E-01 -.205E-01 -.347E+04   -.520E-01 -.120E+00 -.175E+01   0.291E-01 -.281E-01 -.345E+00
   -.143E-03 -.396E-01 0.347E+04   0.263E-03 -.629E-02 -.347E+04   -.608E-09 0.913E-02 -.246E+01   -.132E-01 0.360E-01 -.322E+00
   0.283E+01 0.170E+01 0.115E+04   -.245E+01 -.148E+01 -.115E+04   -.502E+00 -.249E+00 -.125E+01   0.108E+00 0.196E-01 -.914E-01
   -.914E-04 0.279E+00 0.115E+04   0.190E-03 -.672E+00 -.115E+04   -.164E-07 0.246E+00 -.502E+00   0.121E-01 0.766E-01 -.553E-01
   -.283E+01 0.170E+01 0.115E+04   0.245E+01 -.148E+01 -.115E+04   0.502E+00 -.249E+00 -.125E+01   -.110E+00 0.209E-01 -.914E-01
   0.379E+00 -.333E+00 0.115E+04   -.499E+00 0.633E+00 -.115E+04   0.143E-01 -.196E+00 -.384E+00   0.731E-01 -.683E-01 -.441E-01
   -.378E+00 -.333E+00 0.115E+04   0.499E+00 0.633E+00 -.115E+04   -.143E-01 -.196E+00 -.384E+00   -.493E-01 -.696E-01 -.452E-01
   -.143E-03 -.451E+00 0.115E+04   0.298E-03 0.137E+00 -.115E+04   -.106E-07 0.160E+00 -.105E+01   -.358E-02 0.150E+00 -.137E+00
   -.922E-04 -.311E+01 0.115E+04   0.186E-03 0.255E+01 -.115E+04   -.429E-07 0.645E+00 -.114E+01   -.507E-03 -.910E-01 -.657E-01
   -.696E-01 0.244E+00 0.115E+04   -.156E+00 -.159E+00 -.115E+04   0.104E+00 -.585E-01 -.990E+00   0.109E+00 -.119E-01 -.151E+00
   0.697E-01 0.244E+00 0.115E+04   0.156E+00 -.159E+00 -.115E+04   -.104E+00 -.585E-01 -.990E+00   -.107E+00 -.899E-02 -.149E+00
   -.625E-04 -.142E+01 -.118E+04   0.699E-04 0.144E+01 0.118E+04   0.544E-08 -.817E-01 0.689E+00   -.110E-01 0.445E-01 0.120E-01
   -.290E+02 -.174E+02 -.119E+04   0.294E+02 0.180E+02 0.119E+04   -.710E+00 -.797E+00 -.114E+01   0.247E+00 0.101E+00 0.154E+00
   0.290E+02 -.174E+02 -.119E+04   -.294E+02 0.180E+02 0.119E+04   0.710E+00 -.797E+00 -.114E+01   -.266E+00 0.101E+00 0.153E+00
   -.209E+02 0.108E+02 -.119E+04   0.205E+02 -.105E+02 0.119E+04   0.416E+00 -.317E+00 0.743E+00   0.912E-01 -.247E-01 0.459E-01
   -.934E-04 0.320E+02 -.119E+04   0.146E-03 -.328E+02 0.119E+04   -.772E-07 0.116E+01 -.138E+01   0.173E-05 -.165E+00 0.199E+00
   0.209E+02 0.108E+02 -.119E+04   -.205E+02 -.105E+02 0.119E+04   -.416E+00 -.317E+00 0.743E+00   -.914E-01 -.260E-01 0.460E-01
   0.231E+00 0.260E+01 -.118E+04   -.326E+00 -.252E+01 0.118E+04   0.111E+00 0.339E-01 0.768E+00   -.633E-01 -.923E-01 0.822E-01
   -.231E+00 0.260E+01 -.118E+04   0.326E+00 -.252E+01 0.118E+04   -.111E+00 0.339E-01 0.768E+00   0.420E-01 -.931E-01 0.827E-01
   -.111E-03 -.223E+02 -.119E+04   0.241E-03 0.213E+02 0.119E+04   -.624E-07 0.937E+00 0.824E+00   0.931E-03 0.141E+00 0.361E-01
   -.471E-04 0.666E+01 -.345E+04   0.399E-04 -.665E+01 0.345E+04   0.489E-08 -.734E-01 0.247E+01   -.165E-03 -.539E-01 0.394E+00
   -.220E+02 -.206E+02 -.346E+04   0.224E+02 0.193E+02 0.345E+04   -.653E+00 0.933E+00 0.267E+01   0.110E+00 0.153E+00 0.313E+00
   0.220E+02 -.206E+02 -.346E+04   -.224E+02 0.193E+02 0.345E+04   0.653E+00 0.933E+00 0.267E+01   -.109E+00 0.154E+00 0.312E+00
   -.325E+02 -.132E+02 -.346E+04   0.315E+02 0.142E+02 0.345E+04   0.551E+00 -.990E+00 0.239E+01   0.292E+00 -.284E-02 0.316E+00
   0.325E+02 -.132E+02 -.346E+04   -.315E+02 0.142E+02 0.345E+04   -.551E+00 -.990E+00 0.239E+01   -.293E+00 -.198E-02 0.316E+00
   -.257E+02 0.428E+02 -.347E+04   0.259E+02 -.432E+02 0.347E+04   -.437E+00 0.754E+00 0.139E+01   0.147E+00 -.186E+00 0.301E+00
   0.257E+02 0.428E+02 -.347E+04   -.259E+02 -.432E+02 0.347E+04   0.437E+00 0.754E+00 0.139E+01   -.144E+00 -.187E+00 0.301E+00
   -.152E-03 0.381E+00 -.346E+04   0.250E-03 -.536E+00 0.346E+04   -.659E-08 0.990E-01 0.266E+01   -.127E-01 0.515E-01 0.312E+00
   -.520E-04 -.232E+02 -.242E+04   0.102E-03 0.232E+02 0.242E+04   -.142E-07 0.214E+00 -.857E+00   0.134E-02 0.368E-01 0.136E+00
   -.381E+01 -.230E+01 -.388E+03   0.292E+01 0.182E+01 0.389E+03   0.861E+00 0.472E+00 -.186E+01   0.276E-01 0.155E-01 -.552E-02
   0.381E+01 -.230E+01 -.388E+03   -.292E+01 0.182E+01 0.389E+03   -.861E+00 0.472E+00 -.186E+01   -.275E-01 0.156E-01 -.562E-02
   -.214E-03 -.251E+01 0.119E+02   0.175E-12 0.458E-12 -.659E-11   -.167E-06 0.251E+01 -.116E+02   -.258E-01 -.917E-02 -.354E+00

 POSITION                                       TOTAL-FORCE (eV/Angst)
      0.00000      0.00000      5.37156        -0.000000      0.008557      0.009725
      2.56560      0.00000      5.37156         0.001833      0.017599      0.062846
      5.13119      0.00000      5.37156        -0.001833      0.017599      0.062846
      1.28280      2.22187      5.37156         0.027449     -0.000367      0.070707
      3.84839      2.22187      5.37156        -0.000000      0.013281      0.045724
      6.41399      2.22187      5.37156        -0.027449     -0.000367      0.070707
      2.56560      4.44374      5.37156         0.018536     -0.024146      0.063356
      5.13119      4.44374      5.37156        -0.018536     -0.024146      0.063356
      7.69679      4.44374      5.37156         0.000000     -0.000583      0.023688
      1.28280      0.74062      7.46636        -0.014732     -0.009138     -0.064229
      3.84839      0.74062      7.46636         0.000000     -0.071090     -0.112058
      6.41399      0.74062      7.46636         0.014732     -0.009138     -0.064229
      2.56560      2.96249      7.46636        -0.045446      0.035955     -0.085483
      5.13119      2.96249      7.46636         0.045446      0.035955     -0.085483
      7.69679      2.96249      7.46636         0.000000     -0.004034     -0.012413
      3.84839      5.18437      7.46636         0.000000     -0.001745     -0.053137
      6.41399      5.18437      7.46636        -0.013356      0.015761      0.015418
      8.97958      5.18437      7.46636         0.013356      0.015761      0.015418
      7.69679      1.48657      9.56400         0.000000     -0.021262      0.113509
      2.55408      1.47460      9.52990        -0.076818     -0.079987     -0.232461
      5.14271      1.47460      9.52990         0.076818     -0.079987     -0.232461
      8.97350      3.70663      9.56526         0.094772     -0.051338      0.030954
      3.84839      3.71642      9.52990        -0.000000      0.145541     -0.227210
      6.42007      3.70663      9.56526        -0.094772     -0.051338      0.030954
     10.25777      5.92233      9.56400        -0.037096      0.026913      0.042198
      5.13580      5.92233      9.56400         0.037096      0.026913      0.042198
      7.69679      5.91797      9.56526        -0.000000      0.036764      0.010982
      0.00000      0.00000     11.64184         0.000000     -0.117965     -0.060664
      2.56182      0.00242     11.67254        -0.124627     -0.259582     -0.021246
      5.13496      0.00242     11.67254         0.124627     -0.259582     -0.021246
      1.28301      2.21740     11.67254        -0.197321      0.088806     -0.015833
      6.41378      2.21740     11.67254         0.197321      0.088806     -0.015833
      2.56958      4.44580     11.67254        -0.022128      0.104331     -0.100308
      5.12721      4.44580     11.67254         0.022128      0.104331     -0.100308
      7.69679      4.44374     11.64035         0.000000     -0.004664     -0.003979
      3.84839      2.22187     11.57579        -0.000000      0.274902      0.690999
      2.78091      1.70014     12.78833        -0.005841      0.006343      0.021497
      4.91587      1.70014     12.78833         0.005841      0.006343      0.021497
    total drift:                               -0.026017     -0.003284     -0.025134

  FREE ENERGIE OF THE ION-ELECTRON SYSTEM (eV)
  free  energy   TOTEN  =      -139.61501626 eV

  energy  without entropy=     -139.61501626  energy(sigma->0) =     -139.61501626

 stress matrix after NEB project (eV)
     -4.34519      0.00000     -0.00000
      0.00000     -4.35230      0.03146
     -0.00000      0.03146      1.44073
  FORCES: max atom, RMS     0.023162    0.005314
  FORCE total and by dimension    0.032756    0.021497
  Stress total and by dimension    6.316717    4.352304
|           W    W    AA    RRRRR   N    N  II  N    N   GGGG   !!!           |
|           W    W   A  A   R    R  NN   N  II  NN   N  G    G  !!!           |
|           W    W  A    A  R    R  N N  N  II  N N  N  G       !!!           |
|           W WW W  AAAAAA  RRRRR   N  N N  II  N  N N  G  GGG   !            |
|           WW  WW  A    A  R   R   N   NN  II  N   NN  G    G                |
|           W    W  A    A  R    R  N    N  II  N    N   GGGG   !!!           |
|     Tetrahedron method does not include variations of the Fermi             |
|     occupations, so forces and stress will be inaccurate. We suggest        |
|     using a different smearing scheme ISMEAR = 1 or 2 for metals in         |
|     relaxations.                                                            |

 total charge

# of ion       s       p       d       tot
    1        0.447   0.283   9.192   9.922
    2        0.450   0.283   9.188   9.921
    3        0.450   0.283   9.188   9.921
    4        0.449   0.285   9.186   9.920
    5        0.448   0.287   9.180   9.916
    6        0.449   0.285   9.186   9.920
    7        0.449   0.285   9.185   9.920
    8        0.449   0.285   9.185   9.920
    9        0.446   0.283   9.190   9.919
   10        0.441   0.374   9.174   9.989
   11        0.445   0.366   9.184   9.994
   12        0.441   0.374   9.174   9.989
   13        0.445   0.365   9.184   9.995
   14        0.445   0.365   9.184   9.995
   15        0.439   0.368   9.179   9.985
   16        0.442   0.372   9.175   9.990
   17        0.436   0.369   9.179   9.985
   18        0.436   0.369   9.179   9.985
   19        0.437   0.370   9.181   9.988
   20        0.458   0.397   9.170  10.025
   21        0.458   0.397   9.170  10.025
   22        0.429   0.374   9.180   9.984
   23        0.461   0.400   9.165  10.026
   24        0.429   0.374   9.180   9.984
   25        0.440   0.368   9.182   9.990
   26        0.440   0.368   9.182   9.990
   27        0.430   0.373   9.180   9.982
   28        0.452   0.285   9.196   9.932
   29        0.442   0.323   9.186   9.952
   30        0.442   0.323   9.186   9.952
   31        0.442   0.341   9.174   9.958
   32        0.442   0.341   9.174   9.958
   33        0.456   0.314   9.171   9.941
   34        0.456   0.314   9.171   9.941
   35        0.443   0.288   9.193   9.925
   36        0.647   0.615   6.155   7.416
   37        0.514   0.022   0.000   0.536
   38        0.514   0.022   0.000   0.536
tot         17.241  12.494 327.489 357.224

 BZINTS: Fermi energy:    0.091010;  395.000000 electrons
         Band energy:-0.107568E+04;  BLOECHL correction:   -0.049685