 vasp.6.2.0 18Jan21 (build Jun 12 2021 23:27:24) complex

 executed on             LinuxIFC date 2022.05.26  19:56:19

 INCAR:
   ISMEAR = -5
   SIGMA = 0.1
   ISPIN = 1
   EDIFF = 1.d-5
   EDIFFG = -0.01
   NSW = 0
   NELM = 150
   ENCUT = 500
   ISIF = 2
   IBRION = 2
   LREAL = Auto
   ALGO = Fast
   ICHARG = 11
   LORBIT = 10
   LCHARG = .F.
   LWAVE = .F.

 POTCAR:    PAW_PBE Cu 22Jun2005
 POTCAR:    PAW_PBE Ti 08Apr2002
 POTCAR:    PAW_PBE O 08Apr2002
|           W    W    AA    RRRRR   N    N  II  N    N   GGGG   !!!           |
|           W    W   A  A   R    R  NN   N  II  NN   N  G    G  !!!           |
|           W    W  A    A  R    R  N N  N  II  N N  N  G       !!!           |
|           W WW W  AAAAAA  RRRRR   N  N N  II  N  N N  G  GGG   !            |
|           WW  WW  A    A  R   R   N   NN  II  N   NN  G    G                |
|           W    W  A    A  R    R  N    N  II  N    N   GGGG   !!!           |
|     For optimal performance we recommend to set                             |
|       NCORE = 2 up to number-of-cores-per-socket                            |
|     This setting can greatly improve the performance of VASP for DFT.       |
|     The default, NCORE=1 might be grossly inefficient on modern             |
|     multi-core architectures or massively parallel machines. Do your        |
|     Unfortunately you need to use the default for GW and RPA                |
|     calculations (for HF NCORE is supported but not extensively tested      |
|     yet).                                                                   |

 POTCAR:    PAW_PBE Cu 22Jun2005
   VRHFIN =Cu: d10 p1

   TITEL  = PAW_PBE Cu 22Jun2005
   POMASS =   63.546; ZVAL   =   11.000    mass and valenz
   ENMAX  =  295.446; ENMIN  =  221.585 eV

 POTCAR:    PAW_PBE Ti 08Apr2002
   VRHFIN =Ti: d3 s1

   TITEL  = PAW_PBE Ti 08Apr2002
   POMASS =   47.880; ZVAL   =    4.000    mass and valenz
   ENMAX  =  178.330; ENMIN  =  133.747 eV

 POTCAR:    PAW_PBE O 08Apr2002
   VRHFIN =O: s2p4

   TITEL  = PAW_PBE O 08Apr2002
   POMASS =   16.000; ZVAL   =    6.000    mass and valenz
   ENMAX  =  400.000; ENMIN  =  300.000 eV

 Optimization of the real space projectors (new method)

 maximal supplied QI-value         = 16.25
 optimisation between [QCUT,QGAM] = [ 11.38, 22.75] = [ 36.24,144.96] Ry
 Optimized for a Real-space Cutoff    1.52 Angstroem

   l    n(q)    QCUT    max X(q) W(low)/X(q) W(high)/X(q)  e(spline)
   2      9    11.376     4.610    0.21E-03    0.10E-03    0.26E-06
   2      9    11.376     8.522    0.33E-03    0.16E-03    0.37E-06
   0     10    11.376    51.609    0.62E-04    0.20E-04    0.13E-06
   0     10    11.376    27.747    0.54E-04    0.20E-04    0.13E-06
   1     10    11.376    20.408    0.13E-04    0.99E-04    0.19E-06
   1     10    11.376    13.425    0.12E-04    0.87E-04    0.17E-06
 Optimization of the real space projectors (new method)

[...]

   l    n(q)    QCUT    max X(q) W(low)/X(q) W(high)/X(q)  e(spline)
   2     10    11.404    49.363    0.27E-03    0.67E-03    0.76E-06
   2     10    11.404    47.669    0.26E-03    0.65E-03    0.73E-06
   0     11    11.404    26.374    0.17E-03    0.20E-03    0.34E-06
   0     11    11.404    11.549    0.14E-03    0.16E-03    0.29E-06
   1     10    11.404     9.492    0.33E-04    0.56E-04    0.16E-06
 Optimization of the real space projectors (new method)

 maximal supplied QI-value         = 24.76
 optimisation between [QCUT,QGAM] = [ 11.39, 22.77] = [ 36.31,145.25] Ry
 Optimized for a Real-space Cutoff    1.00 Angstroem

   l    n(q)    QCUT    max X(q) W(low)/X(q) W(high)/X(q)  e(spline)
   0      7    11.387    20.381    0.39E-03    0.13E-02    0.15E-06
   0      7    11.387    15.268    0.42E-03    0.14E-02    0.17E-06
   1      6    11.387     5.964    0.41E-03    0.11E-02    0.17E-06
   1      6    11.387     5.382    0.39E-03    0.87E-03    0.15E-06
  PAW_PBE Cu 22Jun2005                  :
  PAW_PBE Ti 08Apr2002                  :
  PAW_PBE O 08Apr2002                   :

 POSCAR: Cu-Ti-O
  positions in direct lattice
  velocities in cartesian coordinates
 exchange correlation table for  LEXCH =        8
   RHO(1)=    0.500       N(1)  =     2000
   RHO(2)=  100.500       N(2)  =     4000

 VTST: version 3.2, (02/03/18)

 CHAIN: initializing optimizer

 OPT: Using VASP Conjugate-Gradient optimizer
 CHAIN: Read ICHAIN            0

 POSCAR: Cu-Ti-O
  positions in direct lattice
  velocities in cartesian coordinates

 ion  position               nearest neighbor table
   1  0.000  0.000  0.252-   7 2.57   3 2.57   4 2.57   2 2.57   6 2.57   8 2.57  12 2.57  10 2.57
                            16 2.57
   2  0.333  0.000  0.252-   8 2.57   9 2.57   5 2.57   1 2.57   3 2.57  11 2.57   4 2.57  10 2.57
                            17 2.57
   3  0.667  0.000  0.252-   1 2.57   7 2.57   6 2.57   9 2.57   2 2.57  12 2.57   5 2.57  18 2.57
                            11 2.57
   4  0.000  0.333  0.252-   5 2.57   6 2.57   1 2.57   7 2.57   2 2.57  13 2.57   9 2.57  10 2.57
                            15 2.57
   5  0.333  0.333  0.252-   4 2.57   2 2.57   7 2.57  13 2.57   8 2.57   6 2.57   3 2.57  11 2.57
                            14 2.57
   6  0.667  0.333  0.252-   4 2.57   9 2.57  15 2.57   3 2.57   1 2.57   8 2.57  14 2.57   5 2.57
                            12 2.57
   7  0.000  0.667  0.252-   1 2.57   3 2.57  16 2.57  18 2.57   4 2.57   5 2.57   8 2.57   9 2.57
                            13 2.57
   8  0.333  0.667  0.252-   9 2.57   2 2.57  17 2.57   6 2.57   1 2.57   7 2.57   5 2.57  14 2.57
                            16 2.57
   9  0.667  0.667  0.252-   8 2.57   6 2.57   2 2.57  17 2.57   3 2.57   7 2.57   4 2.57  15 2.57
                            18 2.57
  10  0.111  0.111  0.351-  26 2.55  19 2.55  11 2.57  12 2.57  13 2.57   1 2.57   2 2.57   4 2.57
                            15 2.57  16 2.57  17 2.57  20 2.57
  11  0.444  0.111  0.351-  27 2.56  20 2.56  21 2.56  10 2.57  13 2.57   2 2.57  17 2.57  14 2.57
                            12 2.57   5 2.57   3 2.57  18 2.57
  12  0.778  0.111  0.351-  19 2.55  25 2.55  15 2.57  10 2.57  14 2.57  18 2.57   3 2.57   1 2.57
                            16 2.57  11 2.57   6 2.57  21 2.57
  13  0.111  0.444  0.351-  22 2.56  23 2.56  20 2.56  16 2.57  18 2.57  10 2.57  11 2.57  14 2.57
                             5 2.57   4 2.57   7 2.57  15 2.57
  14  0.444  0.444  0.351-  24 2.56  21 2.56  23 2.56  15 2.57  17 2.57  12 2.57  16 2.57  13 2.57
                            11 2.57   6 2.57   8 2.57   5 2.57
  15  0.778  0.444  0.351-  19 2.55  24 2.56  22 2.56  14 2.57  17 2.57  12 2.57   6 2.57  18 2.57
                            10 2.57   9 2.57  13 2.57   4 2.57
  16  0.111  0.778  0.351-  25 2.55  26 2.55  18 2.57  13 2.57   7 2.57  14 2.57  17 2.57  12 2.57
                            10 2.57   8 2.57   1 2.57  23 2.57
  17  0.444  0.778  0.351-  26 2.55  27 2.56  24 2.56  14 2.57  15 2.57   8 2.57   9 2.57  11 2.57
                            16 2.57  18 2.57  10 2.57   2 2.57
  18  0.778  0.778  0.351-  25 2.55  22 2.56  27 2.56  16 2.57  13 2.57   7 2.57  15 2.57  12 2.57
                            17 2.57   9 2.57   3 2.57  11 2.57
  19  0.889  0.222  0.448-  12 2.55  10 2.55  15 2.55  25 2.56  26 2.56  28 2.56  22 2.57  24 2.57
                            21 2.57  20 2.57  32 2.57  31 2.57
  20  0.223  0.223  0.449-  23 2.55  21 2.55  11 2.56  13 2.56  27 2.57  22 2.57  29 2.57  31 2.57
                            10 2.57  26 2.57  19 2.57  36 2.66
  21  0.555  0.223  0.449-  20 2.55  23 2.55  14 2.56  11 2.56  24 2.57  27 2.57  32 2.57  30 2.57
                            12 2.57  19 2.57  25 2.57  36 2.66
  22  0.889  0.556  0.449-  18 2.56  15 2.56  13 2.56  31 2.56  33 2.56  24 2.56  27 2.56  23 2.57
                            20 2.57  19 2.57  25 2.57  35 2.57
  23  0.223  0.555  0.449-  20 2.55  21 2.55  13 2.56  14 2.56  22 2.57  24 2.57  33 2.57  34 2.57
                            16 2.57  25 2.57  26 2.57  36 2.66
  24  0.556  0.556  0.449-  15 2.56  17 2.56  14 2.56  32 2.56  34 2.56  22 2.56  27 2.56  21 2.57
                            23 2.57  19 2.57  26 2.57  35 2.57
  25  0.889  0.889  0.448-  12 2.55  16 2.55  18 2.55  19 2.56  26 2.56  28 2.56  22 2.57  27 2.57
                            21 2.57  23 2.57  33 2.57  30 2.57
  26  0.222  0.889  0.448-  10 2.55  16 2.55  17 2.55  25 2.56  19 2.56  28 2.56  27 2.57  24 2.57
                            20 2.57  23 2.57  29 2.57  34 2.57
  27  0.556  0.889  0.449-  17 2.56  18 2.56  11 2.56  29 2.56  30 2.56  24 2.56  22 2.56  20 2.57
                            21 2.57  26 2.57  25 2.57  35 2.57
  28  0.000  0.000  0.547-  33 2.56  30 2.56  31 2.56  29 2.56  32 2.56  34 2.56  25 2.56  19 2.56
                            26 2.56
  29  0.334  0.998  0.547-  34 2.53  35 2.55  28 2.56  27 2.56  20 2.57  26 2.57  30 2.58  36 2.59
                            31 2.59
  30  0.669  0.998  0.547-  33 2.53  35 2.55  28 2.56  27 2.56  21 2.57  25 2.57  29 2.58  36 2.59
                            32 2.59
  31  0.998  0.334  0.547-  32 2.53  35 2.55  28 2.56  22 2.56  20 2.57  19 2.57  33 2.58  36 2.59
                            29 2.59
  32  0.669  0.334  0.547-  31 2.53  35 2.55  28 2.56  24 2.56  21 2.57  19 2.57  34 2.58  36 2.59
                            30 2.59
  33  0.998  0.669  0.547-  30 2.53  35 2.55  28 2.56  22 2.56  23 2.57  25 2.57  31 2.58  36 2.59
                            34 2.59
  34  0.334  0.669  0.547-  29 2.53  35 2.55  28 2.56  24 2.56  23 2.57  26 2.57  32 2.58  36 2.59
                            33 2.59
  35  0.667  0.667  0.548-  34 2.55  32 2.55  29 2.55  30 2.55  33 2.55  31 2.55  24 2.57  27 2.57
                            22 2.57
  36  0.333  0.333  0.553-  37 1.70  31 2.59  29 2.59  33 2.59  32 2.59  34 2.59  30 2.59  23 2.66
                            20 2.66  21 2.66
  37  0.333  0.333  0.633-  36 1.70

  LATTYP: Found a hexagonal cell.
 ALAT       =     7.6967864036
 C/A-ratio  =     2.7653617908

  Lattice vectors:

 A1 = (  -3.8483927580,  -6.6656128093,   0.0000000000)
 A2 = (   7.6967864037,   0.0000000000,   0.0000000000)
 A3 = (   0.0000000000,   0.0000000000,  21.2843990326)

Analysis of symmetry for initial positions (statically):
 Subroutine PRICEL returns:
 Original cell was already a primitive cell.

 Routine SETGRP: Setting up the symmetry group for a
 hexagonal supercell.

 Subroutine GETGRP returns: Found  6 space group operations
 (whereof  6 operations were pure point group operations)
 out of a pool of 24 trial point group operations.

The static configuration has the point symmetry C_3v.

Analysis of symmetry for dynamics (positions and initial velocities):
 Subroutine PRICEL returns:
 Original cell was already a primitive cell.

[...]

The dynamic configuration has the point symmetry C_3v.

Analysis of constrained symmetry for selective dynamics:
 Subroutine PRICEL returns:
 Original cell was already a primitive cell.

 Routine SETGRP: Setting up the symmetry group for a
 hexagonal supercell.

 Subroutine GETGRP returns: Found  6 space group operations
 (whereof  6 operations were pure point group operations)
[...]
     24      -4.5006      2.00000
     25      -4.3409      2.00000
     26      -4.3273      2.00000
     27      -4.2911      2.00000
     28      -4.2697      2.00000
     29      -4.2605      2.00000
     30      -4.2570      2.00000
     31      -4.2512      2.00000
     32      -4.2423      2.00000
     33      -4.2168      2.00000
     34      -4.1949      2.00000
     35      -4.1661      2.00000
     36      -4.0964      2.00000
     37      -4.0753      2.00000
     38      -3.9445      2.00000
     39      -3.9424      2.00000
     40      -3.8839      2.00000
     41      -3.8661      2.00000
     42      -3.8570      2.00000
     43      -3.8342      2.00000
     44      -3.8276      2.00000
     45      -3.8191      2.00000
     46      -3.8162      2.00000
     47      -3.6411      2.00000
     48      -3.6253      2.00000
     49      -3.6152      2.00000
     50      -3.5927      2.00000
     51      -3.5508      2.00000
     52      -3.5429      2.00000
     53      -3.5401      2.00000
     54      -3.5248      2.00000
     55      -3.5117      2.00000
     56      -3.5051      2.00000
     57      -3.4850      2.00000
     58      -3.4676      2.00000
     59      -3.4613      2.00000
     60      -3.4546      2.00000
[...]
    238       6.2660      0.00000
    239       6.3001      0.00000
    240       6.3257      0.00000
    241       6.9592      0.00000
    242       7.0032      0.00000
    243       7.0654      0.00000
    244       7.0832      0.00000
    245       7.1322      0.00000
    246       7.1980      0.00000
    247       7.2689      0.00000
    248       7.4311      0.00000
    249       7.4855      0.00000
    250       7.5996      0.00000
    251       7.6715      0.00000
    252       7.7875      0.00000

 soft charge-density along one line, spin component           1
         0         1         2         3         4         5         6         7         8         9
 total charge-density along one line

------------------------ aborting loop because EDIFF is reached ----------------------------------------

 total charge

# of ion       s       p       d       tot
    1        0.448   0.283   9.188   9.920
    2        0.448   0.285   9.187   9.920
    3        0.448   0.285   9.187   9.920
    4        0.448   0.285   9.187   9.920
    5        0.449   0.285   9.185   9.919
    6        0.448   0.285   9.187   9.920
    7        0.448   0.285   9.187   9.920
    8        0.448   0.285   9.187   9.920
    9        0.447   0.284   9.188   9.919
   10        0.442   0.370   9.179   9.991
   11        0.441   0.367   9.181   9.990
   12        0.442   0.370   9.179   9.991
   13        0.441   0.367   9.181   9.990
   14        0.441   0.367   9.181   9.990
   15        0.439   0.372   9.177   9.988
   16        0.442   0.370   9.179   9.991
   17        0.439   0.372   9.177   9.988
   18        0.439   0.372   9.177   9.988
   19        0.443   0.369   9.182   9.994
   20        0.454   0.381   9.171  10.006
   21        0.454   0.381   9.171  10.006
   22        0.435   0.374   9.178   9.988
   23        0.454   0.381   9.171  10.006
   24        0.435   0.374   9.178   9.988
   25        0.443   0.369   9.182   9.994
   26        0.443   0.369   9.182   9.994
   27        0.435   0.374   9.178   9.988
   28        0.448   0.291   9.183   9.923
   29        0.471   0.296   9.178   9.945
   30        0.471   0.296   9.178   9.945
   31        0.471   0.296   9.178   9.945
   32        0.471   0.296   9.178   9.945
   33        0.471   0.296   9.178   9.945
   34        0.471   0.296   9.178   9.945
   35        0.450   0.293   9.180   9.924
   36        0.604   0.820   2.836   4.260
   37        1.605   3.273   0.000   4.878
tot         17.933  15.712 324.153 357.798

  FORCE on cell =-STRESS in cart. coord.  units (eV):
  Direction    XX          YY          ZZ          XY          YZ          ZX
  Alpha Z   881.98001   881.98001   881.98001
  Ewald  169868.21717169868.21684************     0.00036     0.00014     0.00017
  Hartree182781.86859182781.86861************     0.00002     0.00007     0.00006
  E(xc)   -2291.79157 -2291.79111 -2298.18519    -0.00040    -0.00004    -0.00007
  Local  ************************365515.23025     0.01875    -0.00062    -0.00096
  n-local  -781.86522  -770.52089  -792.37068     6.49886    -0.11113     0.23846
  augment  3318.26817  3318.28844  3340.46700    -0.01756     0.00023     0.00043
  Kinetic  3284.71324  3284.72450  3307.52242     1.94531     2.02294    -1.38142
  Fock        0.00000     0.00000     0.00000     0.00000     0.00000     0.00000
  Total      -2.26607    -2.26607     1.03165     0.00000     0.00000    -0.00000
  in kB      -3.32486    -3.32486     1.51368     0.00000     0.00000    -0.00000

 VOLUME and BASIS-vectors are now :
  energy-cutoff  :      500.00
  volume of cell :     1091.97
      direct lattice vectors                 reciprocal lattice vectors
     7.696786404  0.000000000  0.000000000     0.129924354 -0.075011849  0.000000000
     3.848392758  6.665612809  0.000000000     0.000000000  0.150023716  0.000000000
     0.000000000  0.000000000 21.284399033     0.000000000  0.000000000  0.046982769

  length of vectors
     7.696786404  7.696786404 21.284399033     0.150023716  0.150023716  0.046982769

 FORCES acting on ions
    electron-ion (+dipol)            ewald-force                    non-local-force                 convergence-correction
   -.416E-04 0.164E-06 0.346E+04   0.581E-04 -.428E-05 -.345E+04   0.441E-17 -.210E-17 -.221E+01   -.261E-03 -.127E-03 -.354E+00
   -.926E+00 -.107E+01 0.345E+04   0.915E+00 0.104E+01 -.345E+04   0.264E-01 0.840E-01 -.195E+01   -.140E-01 -.483E-01 -.322E+00
   0.926E+00 -.107E+01 0.345E+04   -.916E+00 0.104E+01 -.345E+04   -.264E-01 0.840E-01 -.195E+01   0.147E-01 -.457E-01 -.321E+00
   -.139E+01 -.266E+00 0.345E+04   0.136E+01 0.271E+00 -.345E+04   0.860E-01 -.192E-01 -.195E+01   -.487E-01 0.120E-01 -.322E+00
   -.653E-04 -.545E-05 0.345E+04   0.116E-03 -.101E-04 -.345E+04   -.178E-17 0.913E-18 -.193E+01   0.122E-01 0.740E-02 -.315E+00
   0.139E+01 -.266E+00 0.345E+04   -.136E+01 0.271E+00 -.345E+04   -.860E-01 -.192E-01 -.195E+01   0.471E-01 0.133E-01 -.321E+00
   -.466E+00 0.134E+01 0.345E+04   0.445E+00 -.131E+01 -.345E+04   0.596E-01 -.649E-01 -.195E+01   -.322E-01 0.356E-01 -.321E+00
   0.466E+00 0.134E+01 0.345E+04   -.446E+00 -.131E+01 -.345E+04   -.596E-01 -.649E-01 -.195E+01   0.357E-01 0.342E-01 -.321E+00
   -.144E-03 -.328E-04 0.346E+04   0.263E-03 0.204E-04 -.345E+04   -.107E-17 0.138E-17 -.217E+01   -.133E-01 -.680E-02 -.396E+00
   -.926E+01 -.535E+01 0.114E+04   0.952E+01 0.550E+01 -.114E+04   -.175E+00 -.101E+00 -.739E+00   -.796E-01 -.461E-01 -.149E+00
   -.904E-04 -.965E+01 0.112E+04   0.189E-03 0.957E+01 -.112E+04   -.131E-07 0.197E+00 -.557E+00   0.116E-01 -.117E+00 -.168E+00
   0.926E+01 -.535E+01 0.114E+04   -.952E+01 0.550E+01 -.114E+04   0.175E+00 -.101E+00 -.739E+00   0.782E-01 -.447E-01 -.150E+00
   -.836E+01 0.483E+01 0.112E+04   0.829E+01 -.479E+01 -.112E+04   0.171E+00 -.985E-01 -.557E+00   -.954E-01 0.691E-01 -.169E+00
   0.836E+01 0.483E+01 0.112E+04   -.829E+01 -.479E+01 -.112E+04   -.171E+00 -.985E-01 -.557E+00   0.119E+00 0.686E-01 -.169E+00
   -.140E-03 -.958E+00 0.114E+04   0.296E-03 0.957E+00 -.114E+04   -.276E-08 0.415E-01 -.847E+00   -.351E-02 -.333E-01 -.169E+00
   -.924E-04 0.107E+02 0.114E+04   0.187E-03 -.110E+02 -.114E+04   -.135E-07 0.202E+00 -.739E+00   -.628E-04 0.890E-01 -.150E+00
   -.830E+00 0.479E+00 0.114E+04   0.828E+00 -.478E+00 -.114E+04   0.359E-01 -.207E-01 -.847E+00   -.300E-01 0.138E-01 -.169E+00
   0.830E+00 0.479E+00 0.114E+04   -.829E+00 -.478E+00 -.114E+04   -.359E-01 -.207E-01 -.847E+00   0.306E-01 0.164E-01 -.169E+00
   -.698E-04 -.906E+01 -.116E+04   0.730E-04 0.898E+01 0.116E+04   -.545E-08 0.818E-01 0.129E+01   0.921E-03 -.139E-01 -.129E+00
   -.648E+02 -.374E+02 -.127E+04   0.654E+02 0.378E+02 0.127E+04   -.596E+00 -.344E+00 0.392E+00   -.178E+00 -.104E+00 -.191E+00
   0.648E+02 -.374E+02 -.127E+04   -.654E+02 0.378E+02 0.127E+04   0.596E+00 -.344E+00 0.392E+00   0.157E+00 -.103E+00 -.192E+00
   -.291E+02 0.168E+02 -.118E+04   0.291E+02 -.168E+02 0.118E+04   0.223E+00 -.129E+00 0.866E+00   -.137E+00 0.771E-01 -.739E-02
   -.724E-04 0.749E+02 -.127E+04   0.155E-03 -.755E+02 0.127E+04   -.458E-07 0.688E+00 0.392E+00   0.118E-01 0.187E+00 -.192E+00
   0.291E+02 0.168E+02 -.118E+04   -.291E+02 -.168E+02 0.118E+04   -.223E+00 -.129E+00 0.866E+00   0.135E+00 0.778E-01 -.747E-02
   0.784E+01 0.453E+01 -.116E+04   -.778E+01 -.449E+01 0.116E+04   -.709E-01 -.409E-01 0.129E+01   0.122E-01 0.803E-02 -.130E+00
   -.784E+01 0.453E+01 -.116E+04   0.778E+01 -.449E+01 0.116E+04   0.709E-01 -.409E-01 0.129E+01   -.110E-01 0.726E-02 -.129E+00
   -.133E-03 -.337E+02 -.118E+04   0.239E-03 0.336E+02 0.118E+04   -.172E-07 0.258E+00 0.866E+00   -.109E-02 -.155E+00 -.724E-02
   -.294E-04 0.216E-04 -.342E+04   0.448E-04 -.319E-04 0.341E+04   0.550E-18 0.607E-18 0.193E+01   0.303E-03 0.166E-03 0.368E+00
   -.415E+02 -.822E+02 -.340E+04   0.417E+02 0.822E+02 0.339E+04   -.181E+00 -.106E+00 0.254E+01   -.832E-01 -.138E+00 0.225E+00
   0.415E+02 -.822E+02 -.340E+04   -.417E+02 0.822E+02 0.339E+04   0.181E+00 -.106E+00 0.254E+01   0.835E-01 -.137E+00 0.225E+00
   -.919E+02 0.513E+01 -.340E+04   0.921E+02 -.503E+01 0.339E+04   -.182E+00 -.104E+00 0.254E+01   -.161E+00 -.330E-02 0.225E+00
   0.919E+02 0.513E+01 -.340E+04   -.921E+02 -.503E+01 0.339E+04   0.182E+00 -.104E+00 0.254E+01   0.161E+00 -.169E-02 0.226E+00
   -.504E+02 0.771E+02 -.340E+04   0.504E+02 -.772E+02 0.339E+04   -.114E-02 0.209E+00 0.254E+01   -.766E-01 0.141E+00 0.226E+00
   0.504E+02 0.771E+02 -.340E+04   -.504E+02 -.772E+02 0.339E+04   0.114E-02 0.209E+00 0.254E+01   0.799E-01 0.140E+00 0.225E+00
   -.124E-03 -.133E-04 -.343E+04   0.250E-03 0.778E-06 0.343E+04   -.191E-17 0.102E-17 0.201E+01   -.131E-01 -.652E-02 0.353E+00
   -.274E-04 -.786E-05 -.116E+04   0.467E-04 0.108E-04 0.116E+04   -.985E-19 -.244E-17 0.105E+01   0.504E-03 0.190E-03 0.919E-01
   0.169E-03 -.836E-04 -.207E+04   0.150E-04 0.728E-05 0.209E+04   0.361E-18 -.296E-19 -.235E+02   0.293E-02 0.175E-02 0.135E+00
   -.128E-03 -.103E-03 0.233E+02   0.157E-12 0.849E-13 -.100E-10   0.115E-15 -.292E-16 -.201E+02   0.166E-01 -.471E-02 -.314E+01

 POSITION                                       TOTAL-FORCE (eV/Angst)
      0.00000      0.00000      5.37156        -0.000000      0.000000      0.018914
      2.56560      0.00000      5.37156         0.001857      0.006564      0.058828
      5.13119      0.00000      5.37156        -0.001857      0.006564      0.058828
      1.28280      2.22187      5.37156         0.006614     -0.001674      0.058828
      3.84839      2.22187      5.37156        -0.000000      0.000000      0.059859
      6.41399      2.22187      5.37156        -0.006614     -0.001674      0.058828
      2.56560      4.44374      5.37156         0.004756     -0.004891      0.058828
      5.13119      4.44374      5.37156        -0.004756     -0.004891      0.058828
      7.69679      4.44374      5.37156        -0.000000      0.000000      0.034680
      1.28280      0.74062      7.46636         0.009384      0.005418     -0.090759
      3.84839      0.74062      7.46636         0.000000     -0.009212     -0.034633
      6.41399      0.74062      7.46636        -0.009384      0.005418     -0.090759
      2.56560      2.96249      7.46636        -0.007978      0.004606     -0.034633
      5.13119      2.96249      7.46636         0.007978      0.004606     -0.034633
      7.69679      2.96249      7.46636        -0.000000      0.006520     -0.019773
      3.84839      5.18437      7.46636         0.000000     -0.010836     -0.090759
      6.41399      5.18437      7.46636         0.005647     -0.003260     -0.019773
      8.97958      5.18437      7.46636        -0.005647     -0.003260     -0.019773
      7.69679      1.47704      9.53921         0.000000     -0.006551      0.055731
      2.57092      1.48432      9.56248        -0.189792     -0.109577     -0.203828
      5.12587      1.48432      9.56248         0.189792     -0.109577     -0.203828
      8.97870      3.70363      9.55579         0.045046     -0.026007      0.046562
      3.84839      3.69697      9.56248        -0.000000      0.219153     -0.203828
      6.41487      3.70363      9.55579        -0.045046     -0.026007      0.046562
     10.26602      5.92709      9.53921         0.005674      0.003276      0.055731
      5.12755      5.92709      9.53921        -0.005674      0.003276      0.055731
      7.69679      5.92397      9.55579        -0.000000      0.052015      0.046562
      0.00000      0.00000     11.63511        -0.000000      0.000000     -0.062811
      6.40848      6.64966     11.64831        -0.115223     -0.191156     -0.108288
      8.98509      6.64966     11.64831         0.115223     -0.191156     -0.108288
      8.96302      2.22507     11.64831        -0.223157     -0.004208     -0.108288
      6.43055      2.22507     11.64831         0.223157     -0.004208     -0.108288
     10.25132      4.45649     11.64831        -0.107934      0.195364     -0.108288
      5.14225      4.45649     11.64831         0.107934      0.195364     -0.108288
      7.69679      4.44374     11.65790         0.000000      0.000000     -0.072882
      3.84839      2.22187     11.77538        -0.000000      0.000000      1.071346
      3.84839      2.22187     13.47920        -0.000000      0.000000     -0.012244
    total drift:                                0.016430     -0.004816      0.052996

  FREE ENERGIE OF THE ION-ELECTRON SYSTEM (eV)
  free  energy   TOTEN  =      -137.54051430 eV

  energy  without entropy=     -137.54051430  energy(sigma->0) =     -137.54051430

 stress matrix after NEB project (eV)
     -2.26607      0.00000     -0.00000
      0.00000     -2.26607     -0.00000
     -0.00000      0.00000      1.03165
  FORCES: max atom, RMS     0.012244    0.002013
  FORCE total and by dimension    0.012244    0.012244
  Stress total and by dimension    3.366671    2.266072
|           W    W    AA    RRRRR   N    N  II  N    N   GGGG   !!!           |
|           W    W   A  A   R    R  NN   N  II  NN   N  G    G  !!!           |
|           W    W  A    A  R    R  N N  N  II  N N  N  G       !!!           |
|           W WW W  AAAAAA  RRRRR   N  N N  II  N  N N  G  GGG   !            |
|           WW  WW  A    A  R   R   N   NN  II  N   NN  G    G                |
|           W    W  A    A  R    R  N    N  II  N    N   GGGG   !!!           |
|     Tetrahedron method does not include variations of the Fermi             |
|     occupations, so forces and stress will be inaccurate. We suggest        |
|     using a different smearing scheme ISMEAR = 1 or 2 for metals in         |
|     relaxations.                                                            |

 total charge

# of ion       s       p       d       tot
    1        0.448   0.283   9.188   9.920
    2        0.448   0.285   9.187   9.920
    3        0.448   0.285   9.187   9.920
    4        0.448   0.285   9.187   9.920
    5        0.449   0.285   9.185   9.919
    6        0.448   0.285   9.187   9.920
    7        0.448   0.285   9.187   9.920
    8        0.448   0.285   9.187   9.920
    9        0.447   0.284   9.188   9.919
   10        0.442   0.370   9.179   9.991
   11        0.441   0.367   9.181   9.990
   12        0.442   0.370   9.179   9.991
   13        0.441   0.367   9.181   9.990
   14        0.441   0.367   9.181   9.990
   15        0.439   0.372   9.177   9.988
   16        0.442   0.370   9.179   9.991
   17        0.439   0.372   9.177   9.988
   18        0.439   0.372   9.177   9.988
   19        0.443   0.369   9.182   9.994
   20        0.454   0.381   9.171  10.006
   21        0.454   0.381   9.171  10.006
   22        0.435   0.374   9.178   9.988
   23        0.454   0.381   9.171  10.006
   24        0.435   0.374   9.178   9.988
   25        0.443   0.369   9.182   9.994
   26        0.443   0.369   9.182   9.994
   27        0.435   0.374   9.178   9.988
   28        0.448   0.291   9.183   9.923
   29        0.471   0.296   9.178   9.945
   30        0.471   0.296   9.178   9.945
   31        0.471   0.296   9.178   9.945
   32        0.471   0.296   9.178   9.945
   33        0.471   0.296   9.178   9.945
   34        0.471   0.296   9.178   9.945
   35        0.450   0.293   9.180   9.924
   36        0.604   0.820   2.836   4.260
   37        1.605   3.273   0.000   4.878
tot         17.933  15.712 324.153 357.798

 BZINTS: Fermi energy:   -0.122023;  395.000000 electrons
         Band energy:-0.120754E+04;  BLOECHL correction:   -0.067460