 vasp.6.2.0 18Jan21 (build Jun 12 2021 23:27:24) complex

 executed on             LinuxIFC date 2022.05.26  19:58:36

 INCAR:
   ISMEAR = -5
   SIGMA = 0.1
   ISPIN = 1
   EDIFF = 1.d-5
   EDIFFG = -0.01
   NSW = 0
   NELM = 150
   ENCUT = 500
   ISIF = 2
   IBRION = 2
   LREAL = Auto
   ALGO = Fast
   ICHARG = 11
   LORBIT = 10
   LCHARG = .F.
   LWAVE = .F.

 POTCAR:    PAW_PBE Cu 22Jun2005
 POTCAR:    PAW_PBE Fe 06Sep2000
 POTCAR:    PAW_PBE H 15Jun2001
|           W    W    AA    RRRRR   N    N  II  N    N   GGGG   !!!           |
|           W    W   A  A   R    R  NN   N  II  NN   N  G    G  !!!           |
|           W    W  A    A  R    R  N N  N  II  N N  N  G       !!!           |
|           W WW W  AAAAAA  RRRRR   N  N N  II  N  N N  G  GGG   !            |
|           WW  WW  A    A  R   R   N   NN  II  N   NN  G    G                |
|           W    W  A    A  R    R  N    N  II  N    N   GGGG   !!!           |
|     For optimal performance we recommend to set                             |
|       NCORE = 2 up to number-of-cores-per-socket                            |
|     This setting can greatly improve the performance of VASP for DFT.       |
|     The default, NCORE=1 might be grossly inefficient on modern             |
|     multi-core architectures or massively parallel machines. Do your        |
|     Unfortunately you need to use the default for GW and RPA                |
|     calculations (for HF NCORE is supported but not extensively tested      |
|     yet).                                                                   |

 POTCAR:    PAW_PBE Cu 22Jun2005
   VRHFIN =Cu: d10 p1

   TITEL  = PAW_PBE Cu 22Jun2005
   POMASS =   63.546; ZVAL   =   11.000    mass and valenz
   ENMAX  =  295.446; ENMIN  =  221.585 eV

 POTCAR:    PAW_PBE Fe 06Sep2000
   VRHFIN =Fe:  d7 s1

   TITEL  = PAW_PBE Fe 06Sep2000
   POMASS =   55.847; ZVAL   =    8.000    mass and valenz
   ENMAX  =  267.882; ENMIN  =  200.911 eV

 POTCAR:    PAW_PBE H 15Jun2001
   VRHFIN =H: ultrasoft test

   TITEL  = PAW_PBE H 15Jun2001
   POMASS =    1.000; ZVAL   =    1.000    mass and valenz
   ENMAX  =  250.000; ENMIN  =  200.000 eV

 Optimization of the real space projectors (new method)

 maximal supplied QI-value         = 16.25
 optimisation between [QCUT,QGAM] = [ 11.38, 22.75] = [ 36.24,144.96] Ry
 Optimized for a Real-space Cutoff    1.52 Angstroem

   l    n(q)    QCUT    max X(q) W(low)/X(q) W(high)/X(q)  e(spline)
   2      9    11.376     4.610    0.21E-03    0.10E-03    0.26E-06
   2      9    11.376     8.522    0.33E-03    0.16E-03    0.37E-06
   0     10    11.376    51.609    0.62E-04    0.20E-04    0.13E-06
   0     10    11.376    27.747    0.54E-04    0.20E-04    0.13E-06
   1     10    11.376    20.408    0.13E-04    0.99E-04    0.19E-06
   1     10    11.376    13.425    0.12E-04    0.87E-04    0.17E-06
 Optimization of the real space projectors (new method)

[...]

   l    n(q)    QCUT    max X(q) W(low)/X(q) W(high)/X(q)  e(spline)
   2      8    11.376    80.901    0.45E-03    0.44E-04    0.21E-06
   2      8    11.376    75.754    0.45E-03    0.45E-04    0.22E-06
   0      9    11.376    58.752    0.65E-04    0.95E-04    0.17E-06
   0      9    11.376    30.679    0.59E-04    0.87E-04    0.16E-06
   1      9    11.376    17.977    0.38E-03    0.10E-03    0.14E-06
   1      9    11.376    13.559    0.31E-03    0.90E-04    0.12E-06
 Optimization of the real space projectors (new method)

 maximal supplied QI-value         = 34.20
 optimisation between [QCUT,QGAM] = [ 11.29, 22.57] = [ 35.68,142.71] Ry
 Optimized for a Real-space Cutoff    1.16 Angstroem

   l    n(q)    QCUT    max X(q) W(low)/X(q) W(high)/X(q)  e(spline)
   0      8    11.287    19.460    0.40E-03    0.73E-03    0.16E-06
   0      8    11.287    12.209    0.38E-03    0.70E-03    0.15E-06
   1      7    11.287     4.655    0.22E-03    0.25E-04    0.22E-06
  PAW_PBE Cu 22Jun2005                  :
  PAW_PBE Fe 06Sep2000                  :
  PAW_PBE H 15Jun2001                   :

 POSCAR: Cu-Fe-H
  positions in direct lattice
  velocities in cartesian coordinates
 exchange correlation table for  LEXCH =        8
   RHO(1)=    0.500       N(1)  =     2000
   RHO(2)=  100.500       N(2)  =     4000

 VTST: version 3.2, (02/03/18)

 CHAIN: initializing optimizer

 OPT: Using VASP Conjugate-Gradient optimizer
 CHAIN: Read ICHAIN            0

 POSCAR: Cu-Fe-H
  positions in direct lattice
  velocities in cartesian coordinates

 ion  position               nearest neighbor table
   1  0.000  0.000  0.252-   7 2.57   3 2.57   4 2.57   2 2.57   6 2.57   8 2.57  12 2.57  10 2.57
                            16 2.57
   2  0.333  0.000  0.252-   8 2.57   9 2.57   5 2.57   1 2.57   3 2.57  11 2.57   4 2.57  10 2.57
                            17 2.57
   3  0.667  0.000  0.252-   1 2.57   7 2.57   6 2.57   9 2.57   2 2.57  12 2.57   5 2.57  18 2.57
                            11 2.57
   4  0.000  0.333  0.252-   5 2.57   6 2.57   1 2.57   7 2.57   2 2.57  13 2.57   9 2.57  10 2.57
                            15 2.57
   5  0.333  0.333  0.252-   4 2.57   2 2.57   7 2.57  13 2.57   8 2.57   6 2.57   3 2.57  11 2.57
                            14 2.57
   6  0.667  0.333  0.252-   4 2.57   9 2.57  15 2.57   3 2.57   1 2.57   8 2.57  14 2.57   5 2.57
                            12 2.57
   7  0.000  0.667  0.252-   1 2.57   3 2.57  16 2.57  18 2.57   4 2.57   5 2.57   8 2.57   9 2.57
                            13 2.57
   8  0.333  0.667  0.252-   9 2.57   2 2.57  17 2.57   6 2.57   1 2.57   7 2.57   5 2.57  14 2.57
                            16 2.57
   9  0.667  0.667  0.252-   8 2.57   6 2.57   2 2.57  17 2.57   3 2.57   7 2.57   4 2.57  15 2.57
                            18 2.57
  10  0.111  0.111  0.351-  20 2.55  26 2.56  19 2.56  11 2.57  12 2.57  13 2.57   1 2.57   2 2.57
                             4 2.57  15 2.57  16 2.57  17 2.57
  11  0.444  0.111  0.351-  20 2.55  21 2.55  27 2.56  10 2.57  13 2.57   2 2.57  17 2.57  14 2.57
                            12 2.57   5 2.57   3 2.57  18 2.57
  12  0.778  0.111  0.351-  21 2.55  19 2.56  25 2.56  15 2.57  10 2.57  14 2.57  18 2.57   3 2.57
                             1 2.57  16 2.57  11 2.57   6 2.57
  13  0.111  0.444  0.351-  23 2.55  20 2.55  22 2.56  16 2.57  18 2.57  10 2.57  11 2.57  14 2.57
                             5 2.57   4 2.57   7 2.57  15 2.57
  14  0.444  0.444  0.351-  21 2.55  23 2.55  24 2.56  15 2.57  17 2.57  12 2.57  16 2.57  13 2.57
                            11 2.57   6 2.57   8 2.57   5 2.57
  15  0.778  0.444  0.351-  19 2.56  24 2.56  22 2.56  14 2.57  17 2.57  12 2.57   6 2.57  18 2.57
                            10 2.57   9 2.57  13 2.57   4 2.57
  16  0.111  0.778  0.351-  23 2.55  25 2.56  26 2.56  18 2.57  13 2.57   7 2.57  14 2.57  17 2.57
                            12 2.57  10 2.57   8 2.57   1 2.57
  17  0.444  0.778  0.351-  26 2.56  27 2.56  24 2.56  14 2.57  15 2.57   8 2.57   9 2.57  11 2.57
                            16 2.57  18 2.57  10 2.57   2 2.57
  18  0.778  0.778  0.351-  25 2.56  22 2.56  27 2.56  16 2.57  13 2.57   7 2.57  15 2.57  12 2.57
                            17 2.57   9 2.57   3 2.57  11 2.57
  19  0.889  0.223  0.449-  28 2.55  15 2.56  12 2.56  10 2.56  22 2.56  24 2.56  32 2.57  31 2.57
                            21 2.57  20 2.57  25 2.57  26 2.57
  20  0.222  0.222  0.448-  36 2.47  11 2.55  13 2.55  10 2.55  29 2.55  31 2.55  23 2.56  21 2.56
                            26 2.57  19 2.57  27 2.57  22 2.57
  21  0.555  0.222  0.448-  36 2.47  14 2.55  11 2.55  12 2.55  32 2.55  30 2.55  20 2.56  23 2.56
                            19 2.57  25 2.57  24 2.57  27 2.57
  22  0.888  0.556  0.449-  35 2.54  31 2.56  33 2.56  18 2.56  15 2.56  24 2.56  27 2.56  13 2.56
                            19 2.56  25 2.56  23 2.57  20 2.57
  23  0.222  0.555  0.448-  36 2.47  13 2.55  14 2.55  16 2.55  33 2.55  34 2.55  20 2.56  21 2.56
                            25 2.57  26 2.57  22 2.57  24 2.57
  24  0.556  0.556  0.449-  35 2.54  32 2.56  34 2.56  15 2.56  17 2.56  22 2.56  27 2.56  14 2.56
                            19 2.56  26 2.56  21 2.57  23 2.57
  25  0.889  0.889  0.449-  28 2.55  18 2.56  16 2.56  12 2.56  22 2.56  27 2.56  33 2.57  30 2.57
                            21 2.57  23 2.57  19 2.57  26 2.57
  26  0.223  0.889  0.449-  28 2.55  17 2.56  10 2.56  16 2.56  27 2.56  24 2.56  29 2.57  34 2.57
                            20 2.57  23 2.57  25 2.57  19 2.57
  27  0.556  0.888  0.449-  35 2.54  29 2.56  30 2.56  17 2.56  18 2.56  24 2.56  22 2.56  11 2.56
                            26 2.56  25 2.56  20 2.57  21 2.57
  28  0.000  0.000  0.546-  25 2.55  19 2.55  26 2.55  33 2.58  30 2.58  31 2.58  29 2.58  32 2.58
                            34 2.58
  29  0.333  0.003  0.547-  31 2.54  30 2.54  36 2.54  20 2.55  27 2.56  26 2.57  28 2.58  35 2.58
                            34 2.61
  30  0.664  0.003  0.547-  32 2.54  29 2.54  36 2.54  21 2.55  27 2.56  25 2.57  28 2.58  35 2.58
                            33 2.61
  31  0.003  0.333  0.547-  29 2.54  33 2.54  36 2.54  20 2.55  22 2.56  19 2.57  28 2.58  35 2.58
                            32 2.61
  32  0.664  0.333  0.547-  30 2.54  34 2.54  36 2.54  21 2.55  24 2.56  19 2.57  28 2.58  35 2.58
                            31 2.61
  33  0.003  0.664  0.547-  34 2.54  31 2.54  36 2.54  23 2.55  22 2.56  25 2.57  28 2.58  35 2.58
                            30 2.61
  34  0.333  0.664  0.547-  33 2.54  32 2.54  36 2.54  23 2.55  24 2.56  26 2.57  28 2.58  35 2.58
                            29 2.61
  35  0.667  0.667  0.546-  24 2.54  27 2.54  22 2.54  34 2.58  32 2.58  29 2.58  30 2.58  33 2.58
                            31 2.58
  36  0.333  0.333  0.541-  37 1.52  23 2.47  20 2.47  21 2.47  31 2.54  29 2.54  33 2.54  34 2.54
                            32 2.54  30 2.54
  37  0.333  0.333  0.613-  36 1.52

  LATTYP: Found a hexagonal cell.
 ALAT       =     7.6967864036
 C/A-ratio  =     2.7653617908

  Lattice vectors:

 A1 = (  -3.8483927580,  -6.6656128093,   0.0000000000)
 A2 = (   7.6967864037,   0.0000000000,   0.0000000000)
 A3 = (   0.0000000000,   0.0000000000,  21.2843990326)

Analysis of symmetry for initial positions (statically):
 Subroutine PRICEL returns:
 Original cell was already a primitive cell.

 Routine SETGRP: Setting up the symmetry group for a
 hexagonal supercell.

 Subroutine GETGRP returns: Found  6 space group operations
 (whereof  6 operations were pure point group operations)
 out of a pool of 24 trial point group operations.

The static configuration has the point symmetry C_3v.

Analysis of symmetry for dynamics (positions and initial velocities):
 Subroutine PRICEL returns:
 Original cell was already a primitive cell.

[...]

The dynamic configuration has the point symmetry C_3v.

Analysis of constrained symmetry for selective dynamics:
 Subroutine PRICEL returns:
 Original cell was already a primitive cell.

 Routine SETGRP: Setting up the symmetry group for a
 hexagonal supercell.

 Subroutine GETGRP returns: Found  6 space group operations
 (whereof  6 operations were pure point group operations)
[...]
     24      -4.2168      2.00000
     25      -4.2001      2.00000
     26      -4.1552      2.00000
     27      -4.1448      2.00000
     28      -4.1391      2.00000
     29      -4.1262      2.00000
     30      -4.1221      2.00000
     31      -4.1012      2.00000
     32      -4.0453      2.00000
     33      -4.0327      2.00000
     34      -4.0145      2.00000
     35      -3.9267      2.00000
     36      -3.9025      2.00000
     37      -3.8269      2.00000
     38      -3.8173      2.00000
     39      -3.7411      2.00000
     40      -3.7316      2.00000
     41      -3.7053      2.00000
     42      -3.6979      2.00000
     43      -3.6865      2.00000
     44      -3.6568      2.00000
     45      -3.6432      2.00000
     46      -3.5083      2.00000
     47      -3.4718      2.00000
     48      -3.4590      2.00000
     49      -3.4511      2.00000
     50      -3.4169      2.00000
     51      -3.3933      2.00000
     52      -3.3898      2.00000
     53      -3.3599      2.00000
     54      -3.3516      2.00000
     55      -3.3396      2.00000
     56      -3.3258      2.00000
     57      -3.3198      2.00000
     58      -3.3043      2.00000
     59      -3.2992      2.00000
     60      -3.2811      2.00000
[...]
    238       6.8166      0.00000
    239       6.8469      0.00000
    240       6.9966      0.00000
    241       7.0030      0.00000
    242       7.1495      0.00000
    243       7.2035      0.00000
    244       7.2504      0.00000
    245       7.3614      0.00000
    246       7.4276      0.00000
    247       7.5733      0.00000
    248       7.7144      0.00000
    249       7.8260      0.00000
    250       8.0244      0.00000
    251       8.1059      0.00000
    252       8.4026      0.00000

 soft charge-density along one line, spin component           1
         0         1         2         3         4         5         6         7         8         9
 total charge-density along one line

------------------------ aborting loop because EDIFF is reached ----------------------------------------

 total charge

# of ion       s       p       d       tot
    1        0.450   0.282   9.190   9.922
    2        0.448   0.285   9.186   9.919
    3        0.448   0.285   9.186   9.919
    4        0.448   0.285   9.186   9.919
    5        0.451   0.285   9.179   9.914
    6        0.448   0.285   9.186   9.919
    7        0.448   0.285   9.186   9.919
    8        0.448   0.285   9.186   9.919
    9        0.448   0.281   9.191   9.921
   10        0.442   0.372   9.174   9.988
   11        0.444   0.366   9.185   9.995
   12        0.442   0.372   9.174   9.988
   13        0.444   0.366   9.185   9.995
   14        0.444   0.366   9.185   9.995
   15        0.439   0.370   9.178   9.988
   16        0.442   0.372   9.174   9.988
   17        0.439   0.370   9.178   9.988
   18        0.439   0.370   9.178   9.988
   19        0.439   0.369   9.181   9.990
   20        0.461   0.388   9.169  10.018
   21        0.461   0.388   9.169  10.018
   22        0.434   0.375   9.181   9.990
   23        0.461   0.388   9.169  10.018
   24        0.434   0.375   9.181   9.990
   25        0.439   0.369   9.181   9.990
   26        0.439   0.369   9.181   9.990
   27        0.434   0.375   9.181   9.990
   28        0.446   0.283   9.189   9.918
   29        0.453   0.291   9.178   9.922
   30        0.453   0.291   9.178   9.922
   31        0.453   0.291   9.178   9.922
   32        0.453   0.291   9.178   9.922
   33        0.453   0.291   9.178   9.922
   34        0.453   0.291   9.178   9.922
   35        0.440   0.286   9.189   9.915
   36        0.463   0.442   6.352   7.258
   37        0.508   0.015   0.000   0.523
tot         16.587  12.056 327.681 356.324

  FORCE on cell =-STRESS in cart. coord.  units (eV):
  Direction    XX          YY          ZZ          XY          YZ          ZX
  Alpha Z   871.65157   871.65157   871.65157
  Ewald  173617.48577173617.48536************     0.00039     0.00010     0.00016
  Hartree186550.86412186550.86409************     0.00004     0.00005     0.00007
  E(xc)   -2288.13541 -2288.13494 -2292.98494    -0.00041    -0.00003    -0.00006
  Local  ************************373528.24204     0.01835    -0.00055    -0.00091
  n-local  -795.31355  -780.64847  -799.12911     7.68885    -0.03309     0.20474
  augment  3344.61437  3344.63422  3365.39890    -0.01718     0.00026     0.00052
  Kinetic  3205.68004  3212.28163  3237.02480     4.16734     1.49920    -0.97979
  Fock        0.00000     0.00000     0.00000     0.00000     0.00000     0.00000
  Total      -8.37120    -8.37120     1.15185     0.00000    -0.00000    -0.00000
  in kB     -12.28252   -12.28252     1.69003     0.00000    -0.00000    -0.00000

 VOLUME and BASIS-vectors are now :
  energy-cutoff  :      500.00
  volume of cell :     1091.97
      direct lattice vectors                 reciprocal lattice vectors
     7.696786404  0.000000000  0.000000000     0.129924354 -0.075011849  0.000000000
     3.848392758  6.665612809  0.000000000     0.000000000  0.150023716  0.000000000
     0.000000000  0.000000000 21.284399033     0.000000000  0.000000000  0.046982769

  length of vectors
     7.696786404  7.696786404 21.284399033     0.150023716  0.150023716  0.046982769

 FORCES acting on ions
    electron-ion (+dipol)            ewald-force                    non-local-force                 convergence-correction
   -.415E-04 0.193E-06 0.347E+04   0.579E-04 -.439E-05 -.347E+04   -.170E-17 0.383E-18 -.259E+01   -.325E-03 -.155E-03 -.195E+00
   -.119E+00 -.586E-01 0.347E+04   -.745E-01 -.441E-01 -.347E+04   0.106E+00 0.137E+00 -.186E+01   0.948E-01 -.171E-01 -.211E+00
   0.119E+00 -.586E-01 0.347E+04   0.744E-01 -.441E-01 -.347E+04   -.106E+00 0.137E+00 -.186E+01   -.940E-01 -.147E-01 -.210E+00
   -.110E+00 -.737E-01 0.347E+04   -.755E-01 -.424E-01 -.347E+04   0.172E+00 0.235E-01 -.186E+01   0.327E-01 0.906E-01 -.211E+00
   -.614E-04 -.333E-05 0.347E+04   0.116E-03 -.101E-04 -.347E+04   0.204E-17 -.544E-17 -.138E+01   0.121E-01 0.738E-02 -.613E-01
   0.110E+00 -.736E-01 0.347E+04   0.754E-01 -.426E-01 -.347E+04   -.172E+00 0.235E-01 -.186E+01   -.342E-01 0.917E-01 -.210E+00
   0.874E-02 0.132E+00 0.347E+04   -.103E-02 0.866E-01 -.347E+04   0.656E-01 -.161E+00 -.186E+01   -.597E-01 -.741E-01 -.210E+00
   -.863E-02 0.132E+00 0.347E+04   0.754E-03 0.866E-01 -.347E+04   -.656E-01 -.161E+00 -.186E+01   0.630E-01 -.755E-01 -.210E+00
   -.144E-03 -.329E-04 0.347E+04   0.263E-03 0.206E-04 -.347E+04   -.439E-17 0.162E-17 -.228E+01   -.131E-01 -.675E-02 -.276E+00
   0.146E+01 0.845E+00 0.115E+04   -.107E+01 -.618E+00 -.115E+04   -.400E+00 -.231E+00 -.105E+01   -.863E-02 -.499E-02 -.251E+00
   -.905E-04 0.502E+00 0.115E+04   0.189E-03 -.966E+00 -.115E+04   -.227E-07 0.340E+00 -.324E+00   0.118E-01 0.955E-01 -.274E+00
   -.146E+01 0.845E+00 0.115E+04   0.107E+01 -.618E+00 -.115E+04   0.400E+00 -.231E+00 -.105E+01   0.718E-02 -.441E-02 -.252E+00
   0.435E+00 -.251E+00 0.115E+04   -.836E+00 0.483E+00 -.115E+04   0.295E+00 -.170E+00 -.324E+00   0.891E-01 -.367E-01 -.274E+00
   -.435E+00 -.251E+00 0.115E+04   0.836E+00 0.483E+00 -.115E+04   -.295E+00 -.170E+00 -.324E+00   -.660E-01 -.385E-01 -.277E+00
   -.143E-03 0.256E+00 0.115E+04   0.299E-03 -.609E+00 -.115E+04   -.131E-07 0.196E+00 -.102E+01   -.297E-02 0.134E+00 -.218E+00
   -.917E-04 -.169E+01 0.115E+04   0.186E-03 0.124E+01 -.115E+04   -.308E-07 0.462E+00 -.105E+01   -.116E-02 0.721E-02 -.252E+00
   0.221E+00 -.128E+00 0.115E+04   -.527E+00 0.305E+00 -.115E+04   0.170E+00 -.982E-01 -.102E+01   0.115E+00 -.696E-01 -.218E+00
   -.221E+00 -.128E+00 0.115E+04   0.527E+00 0.305E+00 -.115E+04   -.170E+00 -.982E-01 -.102E+01   -.114E+00 -.673E-01 -.216E+00
   -.598E-04 -.732E+00 -.120E+04   0.691E-04 0.595E+00 0.120E+04   -.318E-08 0.477E-01 0.930E+00   0.134E-02 0.823E-01 -.587E-02
   -.920E+01 -.531E+01 -.120E+04   0.106E+02 0.611E+01 0.120E+04   -.129E+01 -.744E+00 -.981E+00   -.155E+00 -.899E-01 -.767E-01
   0.920E+01 -.531E+01 -.120E+04   -.106E+02 0.611E+01 0.120E+04   0.129E+01 -.744E+00 -.981E+00   0.134E+00 -.920E-01 -.767E-01
   -.824E+01 0.476E+01 -.120E+04   0.790E+01 -.456E+01 0.120E+04   0.419E+00 -.242E+00 0.543E+00   -.158E-01 0.225E-01 -.141E+00
   -.792E-04 0.106E+02 -.120E+04   0.144E-03 -.122E+02 0.120E+04   -.991E-07 0.149E+01 -.981E+00   -.137E-01 0.161E+00 -.768E-01
   0.824E+01 0.476E+01 -.120E+04   -.790E+01 -.456E+01 0.120E+04   -.419E+00 -.242E+00 0.543E+00   0.394E-01 0.219E-01 -.142E+00
   0.634E+00 0.366E+00 -.120E+04   -.516E+00 -.298E+00 0.120E+04   -.413E-01 -.239E-01 0.930E+00   -.732E-01 -.423E-01 -.685E-02
   -.634E+00 0.366E+00 -.120E+04   0.516E+00 -.298E+00 0.120E+04   0.413E-01 -.239E-01 0.930E+00   0.723E-01 -.398E-01 -.580E-02
   -.126E-03 -.952E+01 -.120E+04   0.241E-03 0.912E+01 0.120E+04   -.322E-07 0.484E+00 0.543E+00   0.115E-01 -.250E-01 -.141E+00
   -.361E-04 0.155E-04 -.348E+04   0.385E-04 -.336E-04 0.348E+04   0.555E-17 -.532E-17 0.244E+01   0.147E-02 0.902E-03 0.228E+00
   -.106E+02 -.177E+02 -.349E+04   0.111E+02 0.184E+02 0.349E+04   -.501E+00 -.602E+00 0.215E+01   0.212E-01 -.262E-01 0.147E+00
   0.106E+02 -.177E+02 -.349E+04   -.111E+02 0.184E+02 0.349E+04   0.501E+00 -.602E+00 0.215E+01   -.424E-01 -.252E-01 0.146E+00
   -.206E+02 -.338E+00 -.349E+04   0.215E+02 0.433E+00 0.349E+04   -.772E+00 -.133E+00 0.215E+01   -.120E-01 0.314E-01 0.147E+00
   0.206E+02 -.337E+00 -.349E+04   -.215E+02 0.433E+00 0.349E+04   0.772E+00 -.133E+00 0.215E+01   -.961E-02 0.321E-01 0.148E+00
   -.100E+02 0.180E+02 -.349E+04   0.104E+02 -.188E+02 0.349E+04   -.271E+00 0.735E+00 0.215E+01   -.431E-01 -.242E-01 0.146E+00
   0.100E+02 0.180E+02 -.349E+04   -.104E+02 -.188E+02 0.349E+04   0.271E+00 0.735E+00 0.215E+01   0.238E-01 -.244E-01 0.148E+00
   -.126E-03 -.179E-04 -.349E+04   0.252E-03 0.575E-05 0.349E+04   -.150E-17 -.279E-17 0.266E+01   -.108E-01 -.540E-02 0.347E+00
   -.550E-04 -.122E-04 -.244E+04   0.105E-03 0.189E-04 0.244E+04   -.255E-17 0.505E-18 -.376E+01   0.448E-02 0.271E-02 0.302E-01
   0.261E-05 -.542E-05 -.390E+03   0.428E-05 0.178E-05 0.392E+03   -.633E-19 -.587E-19 -.217E+01   0.152E-03 0.888E-04 0.188E-01
   -.207E-03 0.121E-04 0.142E+02   0.183E-12 0.206E-12 0.472E-11   0.440E-15 -.446E-15 -.110E+02   -.338E-01 -.225E-01 -.319E+01

 POSITION                                       TOTAL-FORCE (eV/Angst)
      0.00000      0.00000      5.37156         0.000000      0.000000     -0.027893
      2.56560      0.00000      5.37156         0.007983      0.018350      0.062104
      5.13119      0.00000      5.37156        -0.007983      0.018350      0.062104
      1.28280      2.22187      5.37156         0.019883     -0.002262      0.062104
      3.84839      2.22187      5.37156        -0.000000     -0.000000      0.018143
      6.41399      2.22187      5.37156        -0.019883     -0.002262      0.062104
      2.56560      4.44374      5.37156         0.011900     -0.016088      0.062104
      5.13119      4.44374      5.37156        -0.011900     -0.016088      0.062104
      7.69679      4.44374      5.37156         0.000000      0.000000      0.011548
      1.28280      0.74062      7.46636        -0.015130     -0.008735     -0.060089
      3.84839      0.74062      7.46636         0.000000     -0.034202     -0.054044
      6.41399      0.74062      7.46636         0.015130     -0.008735     -0.060089
      2.56560      2.96249      7.46636        -0.029620      0.017101     -0.054044
      5.13119      2.96249      7.46636         0.029620      0.017101     -0.054044
      7.69679      2.96249      7.46636         0.000000     -0.023257     -0.043737
      3.84839      5.18437      7.46636        -0.000000      0.017471     -0.060089
      6.41399      5.18437      7.46636        -0.020141      0.011629     -0.043737
      8.97958      5.18437      7.46636         0.020141      0.011629     -0.043737
      7.69679      1.48386      9.55425         0.000000     -0.005468      0.028791
      2.56752      1.48236      9.54187        -0.053030     -0.030617     -0.111744
      5.12927      1.48236      9.54187         0.053030     -0.030617     -0.111744
      8.97669      3.70479      9.55452         0.046333     -0.026750     -0.001238
      3.84839      3.70090      9.54187        -0.000000      0.061234     -0.111744
      6.41688      3.70479      9.55452        -0.046333     -0.026750     -0.001238
     10.26012      5.92368      9.55425         0.004735      0.002734      0.028791
      5.13345      5.92368      9.55425        -0.004735      0.002734      0.028791
      7.69679      5.92165      9.55452        -0.000000      0.053500     -0.001238
      0.00000      0.00000     11.62539         0.000000      0.000000      0.015889
      2.57645      0.02208     11.63568         0.022091      0.037172      0.053865
      5.12034      0.02208     11.63568        -0.022091      0.037172      0.053865
      1.30734      2.22023     11.63568         0.043238      0.000545      0.053865
      6.38944      2.22023     11.63568        -0.043238      0.000545      0.053865
      2.57929      4.42331     11.63568         0.021147     -0.037717      0.053865
      5.11749      4.42331     11.63568        -0.021147     -0.037717      0.053865
      7.69679      4.44374     11.62587         0.000000      0.000000      0.010197
      3.84839      2.22187     11.51524        -0.000000     -0.000000      0.015823
      3.84839      2.22187     13.03736         0.000000      0.000000     -0.013338
    total drift:                               -0.034048     -0.022520     -0.022663

  FREE ENERGIE OF THE ION-ELECTRON SYSTEM (eV)
  free  energy   TOTEN  =      -132.21848934 eV

  energy  without entropy=     -132.21848934  energy(sigma->0) =     -132.21848934

 stress matrix after NEB project (eV)
     -8.37120      0.00000     -0.00000
      0.00000     -8.37120     -0.00000
     -0.00000     -0.00000      1.15185
  FORCES: max atom, RMS     0.013338    0.002193
  FORCE total and by dimension    0.013338    0.013338
  Stress total and by dimension   11.894568    8.371201
|           W    W    AA    RRRRR   N    N  II  N    N   GGGG   !!!           |
|           W    W   A  A   R    R  NN   N  II  NN   N  G    G  !!!           |
|           W    W  A    A  R    R  N N  N  II  N N  N  G       !!!           |
|           W WW W  AAAAAA  RRRRR   N  N N  II  N  N N  G  GGG   !            |
|           WW  WW  A    A  R   R   N   NN  II  N   NN  G    G                |
|           W    W  A    A  R    R  N    N  II  N    N   GGGG   !!!           |
|     Tetrahedron method does not include variations of the Fermi             |
|     occupations, so forces and stress will be inaccurate. We suggest        |
|     using a different smearing scheme ISMEAR = 1 or 2 for metals in         |
|     relaxations.                                                            |

 total charge

# of ion       s       p       d       tot
    1        0.450   0.282   9.190   9.922
    2        0.448   0.285   9.186   9.919
    3        0.448   0.285   9.186   9.919
    4        0.448   0.285   9.186   9.919
    5        0.451   0.285   9.179   9.914
    6        0.448   0.285   9.186   9.919
    7        0.448   0.285   9.186   9.919
    8        0.448   0.285   9.186   9.919
    9        0.448   0.281   9.191   9.921
   10        0.442   0.372   9.174   9.988
   11        0.444   0.366   9.185   9.995
   12        0.442   0.372   9.174   9.988
   13        0.444   0.366   9.185   9.995
   14        0.444   0.366   9.185   9.995
   15        0.439   0.370   9.178   9.988
   16        0.442   0.372   9.174   9.988
   17        0.439   0.370   9.178   9.988
   18        0.439   0.370   9.178   9.988
   19        0.439   0.369   9.181   9.990
   20        0.461   0.388   9.169  10.018
   21        0.461   0.388   9.169  10.018
   22        0.434   0.375   9.181   9.990
   23        0.461   0.388   9.169  10.018
   24        0.434   0.375   9.181   9.990
   25        0.439   0.369   9.181   9.990
   26        0.439   0.369   9.181   9.990
   27        0.434   0.375   9.181   9.990
   28        0.446   0.283   9.189   9.918
   29        0.453   0.291   9.178   9.922
   30        0.453   0.291   9.178   9.922
   31        0.453   0.291   9.178   9.922
   32        0.453   0.291   9.178   9.922
   33        0.453   0.291   9.178   9.922
   34        0.453   0.291   9.178   9.922
   35        0.440   0.286   9.189   9.915
   36        0.463   0.442   6.352   7.258
   37        0.508   0.015   0.000   0.523
tot         16.587  12.056 327.681 356.324

 BZINTS: Fermi energy:   -0.049607;  394.000000 electrons
         Band energy:-0.110685E+04;  BLOECHL correction:   -0.037981