 vasp.6.2.0 18Jan21 (build Jun 12 2021 23:27:24) complex

 executed on             LinuxIFC date 2022.05.26  20:16:48

 INCAR:
   ISMEAR = -5
   SIGMA = 0.1
   ISPIN = 1
   EDIFF = 1.d-5
   EDIFFG = -0.01
   NSW = 0
   NELM = 150
   ENCUT = 500
   ISIF = 2
   IBRION = 2
   LREAL = Auto
   ALGO = Fast
   ICHARG = 11
   LORBIT = 10
   LCHARG = .F.
   LWAVE = .F.

 POTCAR:    PAW_PBE Au 04Oct2007
 POTCAR:    PAW_PBE Os 17Jan2003
|           W    W    AA    RRRRR   N    N  II  N    N   GGGG   !!!           |
|           W    W   A  A   R    R  NN   N  II  NN   N  G    G  !!!           |
|           W    W  A    A  R    R  N N  N  II  N N  N  G       !!!           |
|           W WW W  AAAAAA  RRRRR   N  N N  II  N  N N  G  GGG   !            |
|           WW  WW  A    A  R   R   N   NN  II  N   NN  G    G                |
|           W    W  A    A  R    R  N    N  II  N    N   GGGG   !!!           |
|     For optimal performance we recommend to set                             |
|       NCORE = 2 up to number-of-cores-per-socket                            |
|     This setting can greatly improve the performance of VASP for DFT.       |
|     The default, NCORE=1 might be grossly inefficient on modern             |
|     multi-core architectures or massively parallel machines. Do your        |
|     Unfortunately you need to use the default for GW and RPA                |
|     calculations (for HF NCORE is supported but not extensively tested      |
|     yet).                                                                   |

 POTCAR:    PAW_PBE Au 04Oct2007
   VRHFIN =Au: s1d10

   TITEL  = PAW_PBE Au 04Oct2007
   POMASS =  196.966; ZVAL   =   11.000    mass and valenz
   ENMAX  =  229.943; ENMIN  =  172.457 eV

 POTCAR:    PAW_PBE Os 17Jan2003
   VRHFIN =Os: 6s5d

   TITEL  = PAW_PBE Os 17Jan2003
   POMASS =  190.200; ZVAL   =    8.000    mass and valenz
   ENMAX  =  228.022; ENMIN  =  171.017 eV

 Optimization of the real space projectors (new method)

 maximal supplied QI-value         = 15.12
 optimisation between [QCUT,QGAM] = [ 11.34, 22.83] = [ 36.00,145.93] Ry
 Optimized for a Real-space Cutoff    1.39 Angstroem

   l    n(q)    QCUT    max X(q) W(low)/X(q) W(high)/X(q)  e(spline)
   2      9    11.338    60.898    0.39E-03    0.42E-03    0.21E-06
   2      9    11.338    58.894    0.40E-03    0.42E-03    0.22E-06
   0      9    11.338   109.617    0.13E-03    0.20E-04    0.13E-06
   0      9    11.338    75.026    0.13E-03    0.20E-04    0.13E-06
   1      9    11.338    16.344    0.33E-04    0.24E-03    0.18E-06
   1      9    11.338    10.160    0.26E-04    0.19E-03    0.15E-06
 Optimization of the real space projectors (new method)

 maximal supplied QI-value         = 13.98
 optimisation between [QCUT,QGAM] = [ 11.33, 22.79] = [ 35.93,145.49] Ry
 Optimized for a Real-space Cutoff    1.56 Angstroem

   l    n(q)    QCUT    max X(q) W(low)/X(q) W(high)/X(q)  e(spline)
   2     10    11.327   152.873    0.32E-03    0.72E-03    0.11E-05
   2     10    11.327   151.010    0.32E-03    0.72E-03    0.11E-05
   0     11    11.327    72.114    0.43E-04    0.61E-04    0.13E-06
   0     11    11.327    44.596    0.40E-04    0.57E-04    0.12E-06
   1     10    11.327    13.742    0.16E-03    0.10E-03    0.19E-06
   1     10    11.327     8.461    0.12E-03    0.78E-04    0.15E-06
  PAW_PBE Au 04Oct2007                  :
  PAW_PBE Os 17Jan2003                  :

 POSCAR: Au-Os
  positions in direct lattice
  velocities in cartesian coordinates
 exchange correlation table for  LEXCH =        8
   RHO(1)=    0.500       N(1)  =     2000
   RHO(2)=  100.500       N(2)  =     4000

 VTST: version 3.2, (02/03/18)

 CHAIN: initializing optimizer

 OPT: Using VASP Conjugate-Gradient optimizer
 CHAIN: Read ICHAIN            0

 POSCAR: Au-Os
  positions in direct lattice
  velocities in cartesian coordinates

 ion  position               nearest neighbor table
   1  0.000  0.000  0.238-  16 2.94  12 2.94   6 2.94   8 2.94   7 2.94   3 2.94  10 2.94   4 2.94
                             2 2.94
   2  0.333  0.000  0.238-   9 2.94  11 2.94  17 2.94  10 2.94   8 2.94   4 2.94   5 2.94   1 2.94
                             3 2.94
   3  0.667  0.000  0.238-   7 2.94  18 2.94  12 2.94   1 2.94  11 2.94   5 2.94   6 2.94   9 2.94
                             2 2.94
   4  0.000  0.333  0.238-  10 2.94   6 2.94   5 2.94  13 2.94   2 2.94  15 2.94   9 2.94   1 2.94
                             7 2.94
   5  0.333  0.333  0.238-  13 2.94   7 2.94  11 2.94   4 2.94   2 2.94  14 2.94   3 2.94   8 2.94
                             6 2.94
   6  0.667  0.333  0.238-  15 2.94  14 2.94   1 2.94  12 2.94   4 2.94   9 2.94   8 2.94   3 2.94
                             5 2.94
   7  0.000  0.667  0.238-  18 2.94   3 2.94  16 2.94   5 2.94   1 2.94  13 2.94   8 2.94   4 2.94
                             9 2.94
   8  0.333  0.667  0.238-   9 2.94  17 2.94   1 2.94   2 2.94  14 2.94  16 2.94   6 2.94   7 2.94
                             5 2.94
   9  0.667  0.667  0.238-   2 2.94   8 2.94  17 2.94   6 2.94  15 2.94   4 2.94   3 2.94  18 2.94
                             7 2.94
  10  0.111  0.111  0.346-  20 2.90  11 2.94  17 2.94   2 2.94   4 2.94   1 2.94  12 2.94  16 2.94
                            13 2.94  15 2.94  26 2.95  19 2.95
  11  0.444  0.111  0.346-  20 2.91  21 2.91  27 2.94  13 2.94   2 2.94  10 2.94  17 2.94   5 2.94
                             3 2.94  18 2.94  14 2.94  12 2.94
  12  0.778  0.111  0.346-  21 2.90  16 2.94  18 2.94   1 2.94  14 2.94  15 2.94   3 2.94   6 2.94
                            10 2.94  11 2.94  25 2.95  19 2.95
  13  0.111  0.444  0.346-  23 2.91  20 2.91  22 2.94   5 2.94  18 2.94  11 2.94   7 2.94   4 2.94
                            16 2.94  10 2.94  14 2.94  15 2.94
  14  0.444  0.444  0.346-  21 2.91  23 2.91  24 2.94  15 2.94   6 2.94  12 2.94   8 2.94  17 2.94
                             5 2.94  16 2.94  13 2.94  11 2.94
  15  0.778  0.444  0.346-  24 2.92  22 2.92  14 2.94   6 2.94  17 2.94  12 2.94   9 2.94   4 2.94
                            10 2.94  13 2.94  18 2.94  19 2.95
  16  0.111  0.778  0.346-  23 2.90  18 2.94  12 2.94   7 2.94   1 2.94   8 2.94  13 2.94  10 2.94
                            14 2.94  17 2.94  25 2.95  26 2.95
  17  0.444  0.778  0.346-  27 2.92  24 2.92   9 2.94  15 2.94   2 2.94  10 2.94  11 2.94   8 2.94
                            14 2.94  16 2.94  18 2.94  26 2.95
  18  0.778  0.778  0.346-  22 2.92  27 2.92  16 2.94   7 2.94  13 2.94  12 2.94   3 2.94  11 2.94
                             9 2.94  15 2.94  17 2.94  25 2.95
  19  0.888  0.223  0.455-  24 2.93  22 2.93  21 2.93  20 2.93  28 2.95  15 2.95  26 2.95  25 2.95
                            10 2.95  12 2.95  32 2.98  31 2.98
  20  0.222  0.222  0.452-  36 2.77  10 2.90  11 2.91  13 2.91  26 2.93  19 2.93  23 2.95  21 2.95
                            27 2.96  22 2.96  29 2.96  31 2.96
  21  0.556  0.222  0.452-  36 2.77  12 2.90  14 2.91  11 2.91  25 2.93  19 2.93  20 2.95  23 2.95
                            27 2.96  24 2.96  30 2.96  32 2.96
  22  0.886  0.557  0.453-  24 2.90  27 2.90  18 2.92  15 2.92  25 2.93  19 2.93  13 2.94  35 2.95
                            23 2.96  20 2.96  33 2.98  31 2.98
  23  0.222  0.556  0.452-  36 2.77  16 2.90  13 2.91  14 2.91  25 2.93  26 2.93  20 2.95  21 2.95
                            22 2.96  24 2.96  33 2.96  34 2.96
  24  0.557  0.557  0.453-  27 2.90  22 2.90  15 2.92  17 2.92  26 2.93  19 2.93  14 2.94  35 2.95
                            21 2.96  23 2.96  32 2.98  34 2.98
  25  0.888  0.888  0.455-  22 2.93  27 2.93  23 2.93  21 2.93  28 2.95  18 2.95  19 2.95  26 2.95
                            16 2.95  12 2.95  33 2.98  30 2.98
  26  0.223  0.888  0.455-  27 2.93  24 2.93  20 2.93  23 2.93  28 2.95  17 2.95  19 2.95  25 2.95
                            10 2.95  16 2.95  29 2.98  34 2.98
  27  0.557  0.886  0.453-  24 2.90  22 2.90  17 2.92  18 2.92  26 2.93  25 2.93  11 2.94  35 2.95
                            20 2.96  21 2.96  29 2.98  30 2.98
  28  0.000  0.000  0.563-  25 2.95  19 2.95  26 2.95  34 2.98  32 2.98  33 2.98  30 2.98  31 2.98
                            29 2.98
  29  0.333  0.009  0.563-  31 2.86  30 2.86  36 2.88  20 2.96  28 2.98  35 2.98  27 2.98  26 2.98
                            34 3.09
  30  0.658  0.009  0.563-  32 2.86  29 2.86  36 2.88  21 2.96  28 2.98  35 2.98  27 2.98  25 2.98
                            33 3.09
  31  0.009  0.333  0.563-  29 2.86  33 2.86  36 2.88  20 2.96  28 2.98  35 2.98  22 2.98  19 2.98
                            32 3.09
  32  0.658  0.333  0.563-  30 2.86  34 2.86  36 2.88  21 2.96  28 2.98  35 2.98  24 2.98  19 2.98
                            31 3.09
  33  0.009  0.658  0.563-  34 2.86  31 2.86  36 2.88  23 2.96  28 2.98  35 2.98  22 2.98  25 2.98
                            30 3.09
  34  0.333  0.658  0.563-  33 2.86  32 2.86  36 2.88  23 2.96  28 2.98  35 2.98  24 2.98  26 2.98
                            29 3.09
  35  0.667  0.667  0.563-  24 2.95  27 2.95  22 2.95  29 2.98  34 2.98  32 2.98  31 2.98  30 2.98
                            33 2.98
  36  0.333  0.333  0.550-  20 2.77  23 2.77  21 2.77  33 2.88  31 2.88  29 2.88  30 2.88  34 2.88
                            32 2.88

  LATTYP: Found a hexagonal cell.
 ALAT       =     8.8135128021
 C/A-ratio  =     2.5184286595

  Lattice vectors:

 A1 = (  -4.4067569092,  -7.6327256898,   0.0000000000)
 A2 = (   8.8135128021,   0.0000000000,   0.0000000000)
 A3 = (   0.0000000000,   0.0000000000,  22.1962032318)

Analysis of symmetry for initial positions (statically):
 Subroutine PRICEL returns:
 Original cell was already a primitive cell.

 Routine SETGRP: Setting up the symmetry group for a
 hexagonal supercell.

 Subroutine GETGRP returns: Found  6 space group operations
 (whereof  6 operations were pure point group operations)
 out of a pool of 24 trial point group operations.

The static configuration has the point symmetry C_3v.

Analysis of symmetry for dynamics (positions and initial velocities):
 Subroutine PRICEL returns:
 Original cell was already a primitive cell.

[...]

The dynamic configuration has the point symmetry C_3v.

Analysis of constrained symmetry for selective dynamics:
 Subroutine PRICEL returns:
 Original cell was already a primitive cell.

 Routine SETGRP: Setting up the symmetry group for a
 hexagonal supercell.

 Subroutine GETGRP returns: Found  6 space group operations
 (whereof  6 operations were pure point group operations)
 out of a pool of 24 trial point group operations.

The constrained configuration has the point symmetry C_3v.

 Subroutine INISYM returns: Found  6 space group operations
 (whereof  6 operations are pure point group operations),
 and found     1 'primitive' translations

                                     Primitive cell

  volume of cell :    1493.1636

  direct lattice vectors                    reciprocal lattice vectors
     8.813512802  0.000000000  0.000000000     0.113462137 -0.065507406  0.000000000
     4.406756909  7.632725690  0.000000000     0.000000000  0.131014796  0.000000000
[...]
     15      -5.2532      2.00000
     16      -5.2463      2.00000
     17      -5.2416      2.00000
     18      -5.2149      2.00000
     19      -5.1820      2.00000
     20      -5.1633      2.00000
     21      -5.1510      2.00000
     22      -5.1233      2.00000
     23      -5.0838      2.00000
     24      -5.0518      2.00000
     25      -5.0501      2.00000
     26      -5.0054      2.00000
     27      -4.9423      2.00000
     28      -4.8945      2.00000
     29      -4.8292      2.00000
     30      -4.7933      2.00000
     31      -4.7872      2.00000
     32      -4.7509      2.00000
     33      -4.7427      2.00000
     34      -4.7365      2.00000
     35      -4.6612      2.00000
     36      -4.6331      2.00000
     37      -4.5525      2.00000
     38      -4.5297      2.00000
     39      -4.4800      2.00000
     40      -4.4051      2.00000
     41      -4.3830      2.00000
     42      -4.3401      2.00000
     43      -4.3223      2.00000
     44      -4.2967      2.00000
     45      -4.2902      2.00000
     46      -4.1893      2.00000
     47      -4.1637      2.00000
     48      -4.1344      2.00000
     49      -4.1193      2.00000
     50      -4.1121      2.00000
     51      -4.1089      2.00000
     52      -4.0954      2.00000
     53      -4.0557      2.00000
     54      -4.0126      2.00000
     55      -3.9939      2.00000
     56      -3.9652      2.00000
     57      -3.9552      2.00000
     58      -3.9496      2.00000
     59      -3.9408      2.00000
     60      -3.9244      2.00000
[...]
    238       6.7535      0.00000
    239       6.7661      0.00000
    240       6.8378      0.00000
    241       6.8777      0.00000
    242       7.0201      0.00000
    243       7.1513      0.00000
    244       7.2011      0.00000
    245       7.2922      0.00000
    246       7.5799      0.00000
    247       7.6359      0.00000
    248       7.7503      0.00000
    249       7.7588      0.00000
    250       7.9100      0.00000
    251       8.0199      0.00000
    252       8.0651      0.00000

 soft charge-density along one line, spin component           1
         0         1         2         3         4         5         6         7         8         9
 total charge-density along one line

------------------------ aborting loop because EDIFF is reached ----------------------------------------

 total charge

# of ion       s       p       d       tot
    1        0.544   0.239   8.765   9.549
    2        0.545   0.241   8.765   9.550
    3        0.545   0.241   8.765   9.550
    4        0.545   0.241   8.765   9.550
    5        0.540   0.243   8.763   9.545
    6        0.545   0.241   8.765   9.550
    7        0.545   0.241   8.765   9.550
    8        0.545   0.241   8.765   9.550
    9        0.543   0.239   8.768   9.550
   10        0.525   0.309   8.764   9.597
   11        0.522   0.307   8.781   9.610
   12        0.525   0.309   8.764   9.597
   13        0.522   0.307   8.781   9.610
   14        0.522   0.307   8.781   9.610
   15        0.516   0.307   8.776   9.600
   16        0.525   0.309   8.764   9.597
   17        0.516   0.307   8.776   9.600
   18        0.516   0.307   8.776   9.600
   19        0.515   0.299   8.774   9.589
   20        0.545   0.338   8.743   9.626
   21        0.545   0.338   8.743   9.626
   22        0.507   0.306   8.780   9.594
   23        0.545   0.338   8.743   9.626
   24        0.507   0.306   8.780   9.594
   25        0.515   0.299   8.774   9.589
   26        0.515   0.299   8.774   9.589
   27        0.507   0.306   8.780   9.594
   28        0.536   0.228   8.764   9.528
   29        0.558   0.250   8.738   9.547
   30        0.558   0.250   8.738   9.547
   31        0.558   0.250   8.738   9.547
   32        0.558   0.250   8.738   9.547
   33        0.558   0.250   8.738   9.547
   34        0.558   0.250   8.738   9.547
   35        0.530   0.228   8.766   9.524
   36        0.511   0.316   5.883   6.711
tot         19.215  10.037 312.581 341.833

  FORCE on cell =-STRESS in cart. coord.  units (eV):
  Direction    XX          YY          ZZ          XY          YZ          ZX
  Alpha Z  1011.07405  1011.07405  1011.07405
  Ewald  118872.59807118872.59847************    -0.00033    -0.00009    -0.00017
  Hartree127422.05146127422.05146************    -0.00000    -0.00002    -0.00005
  E(xc)   -1763.12417 -1763.12415 -1770.90714    -0.00001    -0.00000    -0.00000
  Local  ************************258867.24962     0.00172     0.00005     0.00010
  n-local  -108.20145   -55.51618   -56.29234    24.96418    -1.12324     1.26582
  augment  2381.60526  2381.60677  2400.68362    -0.00131     0.00002     0.00004
  Kinetic  5447.74239  5467.46300  5521.39955     9.66799    -0.47239     1.16963
  Fock        0.00000     0.00000     0.00000     0.00000     0.00000     0.00000
  Total     -24.21260   -24.21260     2.46303    -0.00000     0.00000     0.00000
  in kB     -25.98032   -25.98032     2.64286    -0.00000     0.00000     0.00000

 VOLUME and BASIS-vectors are now :
  energy-cutoff  :      500.00
  volume of cell :     1493.16
      direct lattice vectors                 reciprocal lattice vectors
     8.813512802  0.000000000  0.000000000     0.113462137 -0.065507406  0.000000000
     4.406756909  7.632725690  0.000000000     0.000000000  0.131014796  0.000000000
     0.000000000  0.000000000 22.196203232     0.000000000  0.000000000  0.045052750

  length of vectors
     8.813512802  8.813512802 22.196203232     0.131014796  0.131014796  0.045052750

 FORCES acting on ions
    electron-ion (+dipol)            ewald-force                    non-local-force                 convergence-correction
   -.198E-04 -.163E-04 0.247E+04   0.519E-04 0.433E-04 -.247E+04   0.469E-18 0.366E-17 -.935E+00   -.202E-03 -.130E-03 -.207E+00
   0.637E+00 0.229E+00 0.247E+04   -.677E+00 -.220E+00 -.247E+04   0.309E-01 0.204E-01 -.254E+00   0.921E-02 -.211E-01 -.256E+00
   -.637E+00 0.229E+00 0.247E+04   0.677E+00 -.220E+00 -.247E+04   -.309E-01 0.204E-01 -.254E+00   -.893E-02 -.191E-01 -.256E+00
   0.517E+00 0.437E+00 0.247E+04   -.529E+00 -.476E+00 -.247E+04   0.331E-01 0.166E-01 -.254E+00   -.136E-01 0.185E-01 -.256E+00
   0.718E-05 -.241E-04 0.247E+04   0.951E-04 0.175E-05 -.247E+04   0.115E-17 -.109E-18 -.188E+00   0.430E-02 0.262E-02 -.241E+00
   -.517E+00 0.437E+00 0.247E+04   0.529E+00 -.476E+00 -.247E+04   -.331E-01 0.166E-01 -.254E+00   0.121E-01 0.194E-01 -.255E+00
   -.120E+00 -.666E+00 0.247E+04   0.148E+00 0.697E+00 -.247E+04   0.220E-02 -.369E-01 -.254E+00   -.210E-01 0.183E-02 -.256E+00
   0.120E+00 -.666E+00 0.247E+04   -.148E+00 0.697E+00 -.247E+04   -.220E-02 -.369E-01 -.254E+00   0.229E-01 0.739E-03 -.255E+00
   0.198E-04 -.415E-04 0.247E+04   0.166E-03 -.200E-04 -.247E+04   -.530E-17 -.990E-18 -.466E+00   -.464E-02 -.240E-02 -.252E+00
   0.695E+01 0.401E+01 0.805E+03   -.648E+01 -.374E+01 -.804E+03   -.361E+00 -.208E+00 -.777E+00   -.574E-01 -.333E-01 0.242E+00
   0.142E-04 0.333E+01 0.810E+03   0.148E-03 -.338E+01 -.810E+03   0.460E-09 0.691E-02 -.286E+00   0.380E-02 -.210E-01 0.322E+00
   -.695E+01 0.401E+01 0.805E+03   0.648E+01 -.374E+01 -.804E+03   0.361E+00 -.208E+00 -.777E+00   0.561E-01 -.318E-01 0.241E+00
   0.288E+01 -.166E+01 0.810E+03   -.292E+01 0.169E+01 -.810E+03   0.598E-02 -.345E-02 -.286E+00   -.160E-01 0.141E-01 0.322E+00
   -.288E+01 -.166E+01 0.810E+03   0.292E+01 0.169E+01 -.810E+03   -.598E-02 -.345E-02 -.286E+00   0.238E-01 0.136E-01 0.322E+00
   0.315E-04 0.503E+01 0.809E+03   0.236E-03 -.514E+01 -.808E+03   0.117E-08 0.176E-01 -.446E+00   -.240E-02 0.390E-01 0.273E+00
   -.214E-04 -.802E+01 0.805E+03   0.163E-03 0.749E+01 -.804E+03   0.277E-07 0.417E+00 -.777E+00   0.296E-03 0.644E-01 0.241E+00
   0.435E+01 -.251E+01 0.809E+03   -.445E+01 0.257E+01 -.808E+03   0.152E-01 -.879E-02 -.446E+00   0.328E-01 -.211E-01 0.273E+00
   -.435E+01 -.251E+01 0.809E+03   0.445E+01 0.257E+01 -.808E+03   -.152E-01 -.879E-02 -.446E+00   -.328E-01 -.192E-01 0.273E+00
   -.419E-04 0.311E+01 -.889E+03   0.545E-04 -.317E+01 0.888E+03   -.323E-08 -.485E-01 0.351E+00   -.499E-03 0.103E+00 0.725E+00
   0.219E+01 0.127E+01 -.855E+03   -.183E+01 -.106E+01 0.854E+03   -.615E+00 -.355E+00 -.779E+00   0.238E+00 0.137E+00 0.110E+01
   -.219E+01 0.127E+01 -.855E+03   0.183E+01 -.106E+01 0.854E+03   0.615E+00 -.355E+00 -.779E+00   -.237E+00 0.139E+00 0.110E+01
   -.897E+01 0.518E+01 -.872E+03   0.838E+01 -.484E+01 0.871E+03   0.461E+00 -.266E+00 0.610E+00   0.125E+00 -.769E-01 0.752E+00
   -.113E-04 -.253E+01 -.855E+03   0.141E-03 0.211E+01 0.854E+03   0.472E-07 0.710E+00 -.779E+00   0.172E-02 -.275E+00 0.110E+01
   0.897E+01 0.518E+01 -.872E+03   -.838E+01 -.484E+01 0.871E+03   -.461E+00 -.266E+00 0.610E+00   -.132E+00 -.764E-01 0.752E+00
   -.269E+01 -.156E+01 -.889E+03   0.275E+01 0.159E+01 0.888E+03   0.420E-01 0.242E-01 0.351E+00   -.877E-01 -.507E-01 0.724E+00
   0.269E+01 -.156E+01 -.889E+03   -.275E+01 0.159E+01 0.888E+03   -.420E-01 0.242E-01 0.351E+00   0.896E-01 -.521E-01 0.725E+00
   0.889E-05 -.104E+02 -.872E+03   0.200E-03 0.968E+01 0.871E+03   0.354E-07 0.532E+00 0.610E+00   -.440E-02 0.147E+00 0.752E+00
   -.994E-05 -.108E-04 -.249E+04   0.273E-04 0.309E-04 0.249E+04   0.711E-17 -.114E-17 0.547E+00   0.169E-03 0.814E-04 0.485E+00
   -.123E+00 0.426E+00 -.249E+04   0.682E+00 0.315E+00 0.249E+04   -.787E+00 -.111E+01 0.256E-01   0.233E+00 0.372E+00 0.423E+00
   0.123E+00 0.426E+00 -.249E+04   -.682E+00 0.314E+00 0.249E+04   0.787E+00 -.111E+01 0.256E-01   -.233E+00 0.374E+00 0.423E+00
   0.308E+00 -.319E+00 -.249E+04   0.613E+00 0.434E+00 0.249E+04   -.135E+01 -.127E+00 0.256E-01   0.439E+00 0.156E-01 0.423E+00
   -.308E+00 -.319E+00 -.249E+04   -.613E+00 0.434E+00 0.249E+04   0.135E+01 -.127E+00 0.256E-01   -.440E+00 0.168E-01 0.422E+00
   0.430E+00 -.107E+00 -.249E+04   -.688E-01 -.748E+00 0.249E+04   -.567E+00 0.124E+01 0.256E-01   0.208E+00 -.389E+00 0.423E+00
   -.430E+00 -.107E+00 -.249E+04   0.687E-01 -.748E+00 0.249E+04   0.567E+00 0.124E+01 0.256E-01   -.205E+00 -.389E+00 0.422E+00
   0.318E-04 -.322E-04 -.249E+04   0.145E-03 -.464E-04 0.249E+04   -.399E-17 -.119E-17 0.665E+00   -.471E-02 -.242E-02 0.430E+00
   -.201E-04 -.787E-05 -.173E+04   0.835E-04 0.756E-05 0.173E+04   -.950E-18 0.201E-17 0.209E+01   0.147E-02 0.891E-03 0.495E+00
   -.795E-03 -.775E-03 -.780E+01   -.935E-14 0.176E-12 0.105E-10   -.116E-15 0.445E-15 -.364E+01   -.873E-03 0.695E-04 0.120E+02

 POSITION                                       TOTAL-FORCE (eV/Angst)
      0.00000      0.00000      5.28038         0.000000      0.000000     -0.080178
      2.93784      0.00000      5.28038         0.000104      0.009299     -0.083135
      5.87568      0.00000      5.28038        -0.000104      0.009299     -0.083135
      1.46892      2.54424      5.28038         0.008105     -0.004560     -0.083135
      4.40676      2.54424      5.28038         0.000000      0.000000     -0.118480
      7.34459      2.54424      5.28038        -0.008105     -0.004560     -0.083135
      2.93784      5.08848      5.28038         0.008001     -0.004740     -0.083135
      5.87568      5.08848      5.28038        -0.008001     -0.004740     -0.083135
      8.81351      5.08848      5.28038        -0.000000      0.000000     -0.092659
      1.46892      0.84808      7.67911         0.047111      0.027200      0.176332
      4.40676      0.84808      7.67911        -0.000000     -0.064047      0.003564
      7.34459      0.84808      7.67911        -0.047111      0.027200      0.176332
      2.93784      3.39232      7.67911        -0.055466      0.032023      0.003564
      5.87568      3.39232      7.67911         0.055466      0.032023      0.003564
      8.81351      3.39232      7.67911        -0.000000     -0.054533      0.112135
      4.40676      5.93656      7.67911        -0.000000     -0.054399      0.176332
      7.34459      5.93656      7.67911        -0.047227      0.027267      0.112135
     10.28243      5.93656      7.67911         0.047227      0.027267      0.112135
      8.81351      1.70311     10.09495        -0.000000     -0.004608     -0.017504
      2.93286      1.69329     10.03570        -0.010076     -0.005818     -0.018171
      5.88065      1.69329     10.03570         0.010076     -0.005818     -0.018171
     10.26497      4.25049     10.06286         0.007996     -0.004616     -0.020765
      4.40676      4.24615     10.03570         0.000000      0.011635     -0.018171
      7.36206      4.25049     10.06286        -0.007996     -0.004616     -0.020765
     11.74534      6.78117     10.09495         0.003990      0.002304     -0.017504
      5.88169      6.78117     10.09495        -0.003990      0.002304     -0.017504
      8.81351      6.76448     10.06286         0.000000      0.009232     -0.020765
      0.00000      0.00000     12.49897         0.000000      0.000000     -0.008090
      2.97514      0.06495     12.50272         0.006035      0.003893      0.008202
      5.83837      0.06495     12.50272        -0.006035      0.003893      0.008202
      1.54382      2.54408     12.50272         0.006389      0.003281      0.008202
      7.26969      2.54408     12.50272        -0.006389      0.003281      0.008202
      2.97543      5.02370     12.50272         0.000353     -0.007173      0.008202
      5.83808      5.02370     12.50272        -0.000353     -0.007173      0.008202
      8.81351      5.08848     12.49601         0.000000      0.000000      0.007455
      4.40676      2.54424     12.21487         0.000000      0.000000      0.034777
    total drift:                               -0.001668     -0.000705      0.513090

  FREE ENERGIE OF THE ION-ELECTRON SYSTEM (eV)
  free  energy   TOTEN  =      -114.88843582 eV

  energy  without entropy=     -114.88843582  energy(sigma->0) =     -114.88843582

 stress matrix after NEB project (eV)
    -24.21260     -0.00000      0.00000
     -0.00000    -24.21260      0.00000
     -0.00000      0.00000      2.46303
  FORCES: max atom, RMS     0.034777    0.012880
  FORCE total and by dimension    0.077281    0.034777
  Stress total and by dimension   34.330252   24.212597
|           W    W    AA    RRRRR   N    N  II  N    N   GGGG   !!!           |
|           W    W   A  A   R    R  NN   N  II  NN   N  G    G  !!!           |
|           W    W  A    A  R    R  N N  N  II  N N  N  G       !!!           |
|           W WW W  AAAAAA  RRRRR   N  N N  II  N  N N  G  GGG   !            |
|           WW  WW  A    A  R   R   N   NN  II  N   NN  G    G                |
|           W    W  A    A  R    R  N    N  II  N    N   GGGG   !!!           |
|     Tetrahedron method does not include variations of the Fermi             |
|     occupations, so forces and stress will be inaccurate. We suggest        |
|     using a different smearing scheme ISMEAR = 1 or 2 for metals in         |
|     relaxations.                                                            |

 total charge

# of ion       s       p       d       tot
    1        0.544   0.239   8.765   9.549
    2        0.545   0.241   8.765   9.550
    3        0.545   0.241   8.765   9.550
    4        0.545   0.241   8.765   9.550
    5        0.540   0.243   8.763   9.545
    6        0.545   0.241   8.765   9.550
    7        0.545   0.241   8.765   9.550
    8        0.545   0.241   8.765   9.550
    9        0.543   0.239   8.768   9.550
   10        0.525   0.309   8.764   9.597
   11        0.522   0.307   8.781   9.610
   12        0.525   0.309   8.764   9.597
   13        0.522   0.307   8.781   9.610
   14        0.522   0.307   8.781   9.610
   15        0.516   0.307   8.776   9.600
   16        0.525   0.309   8.764   9.597
   17        0.516   0.307   8.776   9.600
   18        0.516   0.307   8.776   9.600
   19        0.515   0.299   8.774   9.589
   20        0.545   0.338   8.743   9.626
   21        0.545   0.338   8.743   9.626
   22        0.507   0.306   8.780   9.594
   23        0.545   0.338   8.743   9.626
   24        0.507   0.306   8.780   9.594
   25        0.515   0.299   8.774   9.589
   26        0.515   0.299   8.774   9.589
   27        0.507   0.306   8.780   9.594
   28        0.536   0.228   8.764   9.528
   29        0.558   0.250   8.738   9.547
   30        0.558   0.250   8.738   9.547
   31        0.558   0.250   8.738   9.547
   32        0.558   0.250   8.738   9.547
   33        0.558   0.250   8.738   9.547
   34        0.558   0.250   8.738   9.547
   35        0.530   0.228   8.766   9.524
   36        0.511   0.316   5.883   6.711
tot         19.215  10.037 312.581 341.833

 BZINTS: Fermi energy:    0.667711;  393.000000 electrons
         Band energy:-0.118342E+04;  BLOECHL correction:   -0.070487