 vasp.6.2.0 18Jan21 (build Jun 12 2021 23:27:24) complex

 executed on             LinuxIFC date 2022.05.26  20:24:31

 INCAR:
   ISMEAR = -5
   SIGMA = 0.1
   ISPIN = 1
   EDIFF = 1.d-5
   EDIFFG = -0.01
   NSW = 0
   NELM = 150
   ENCUT = 500
   ISIF = 2
   IBRION = 2
   LREAL = Auto
   ALGO = Fast
   ICHARG = 11
   LORBIT = 10
   LCHARG = .F.
   LWAVE = .F.

 POTCAR:    PAW_PBE Cu 22Jun2005
 POTCAR:    PAW_PBE Ti 08Apr2002
|           W    W    AA    RRRRR   N    N  II  N    N   GGGG   !!!           |
|           W    W   A  A   R    R  NN   N  II  NN   N  G    G  !!!           |
|           W    W  A    A  R    R  N N  N  II  N N  N  G       !!!           |
|           W WW W  AAAAAA  RRRRR   N  N N  II  N  N N  G  GGG   !            |
|           WW  WW  A    A  R   R   N   NN  II  N   NN  G    G                |
|           W    W  A    A  R    R  N    N  II  N    N   GGGG   !!!           |
|     For optimal performance we recommend to set                             |
|       NCORE = 2 up to number-of-cores-per-socket                            |
|     This setting can greatly improve the performance of VASP for DFT.       |
|     The default, NCORE=1 might be grossly inefficient on modern             |
|     multi-core architectures or massively parallel machines. Do your        |
|     Unfortunately you need to use the default for GW and RPA                |
|     calculations (for HF NCORE is supported but not extensively tested      |
|     yet).                                                                   |

 POTCAR:    PAW_PBE Cu 22Jun2005
   VRHFIN =Cu: d10 p1

   TITEL  = PAW_PBE Cu 22Jun2005
   POMASS =   63.546; ZVAL   =   11.000    mass and valenz
   ENMAX  =  295.446; ENMIN  =  221.585 eV

 POTCAR:    PAW_PBE Ti 08Apr2002
   VRHFIN =Ti: d3 s1

   TITEL  = PAW_PBE Ti 08Apr2002
   POMASS =   47.880; ZVAL   =    4.000    mass and valenz
   ENMAX  =  178.330; ENMIN  =  133.747 eV

 Optimization of the real space projectors (new method)

 maximal supplied QI-value         = 16.25
 optimisation between [QCUT,QGAM] = [ 11.38, 22.75] = [ 36.24,144.96] Ry
 Optimized for a Real-space Cutoff    1.52 Angstroem

   l    n(q)    QCUT    max X(q) W(low)/X(q) W(high)/X(q)  e(spline)
   2      9    11.376     4.610    0.21E-03    0.10E-03    0.26E-06
   2      9    11.376     8.522    0.33E-03    0.16E-03    0.37E-06
   0     10    11.376    51.609    0.62E-04    0.20E-04    0.13E-06
   0     10    11.376    27.747    0.54E-04    0.20E-04    0.13E-06
   1     10    11.376    20.408    0.13E-04    0.99E-04    0.19E-06
   1     10    11.376    13.425    0.12E-04    0.87E-04    0.17E-06
 Optimization of the real space projectors (new method)

 maximal supplied QI-value         = 13.42
 optimisation between [QCUT,QGAM] = [ 11.40, 22.81] = [ 36.42,145.68] Ry
 Optimized for a Real-space Cutoff    1.56 Angstroem

   l    n(q)    QCUT    max X(q) W(low)/X(q) W(high)/X(q)  e(spline)
   2     10    11.404    49.363    0.27E-03    0.67E-03    0.76E-06
   2     10    11.404    47.669    0.26E-03    0.65E-03    0.73E-06
   0     11    11.404    26.374    0.17E-03    0.20E-03    0.34E-06
   0     11    11.404    11.549    0.14E-03    0.16E-03    0.29E-06
   1     10    11.404     9.492    0.33E-04    0.56E-04    0.16E-06
  PAW_PBE Cu 22Jun2005                  :
  PAW_PBE Ti 08Apr2002                  :

 POSCAR: Cu-Ti
  positions in direct lattice
  velocities in cartesian coordinates
 exchange correlation table for  LEXCH =        8
   RHO(1)=    0.500       N(1)  =     2000
   RHO(2)=  100.500       N(2)  =     4000

 VTST: version 3.2, (02/03/18)

 CHAIN: initializing optimizer

 OPT: Using VASP Conjugate-Gradient optimizer
 CHAIN: Read ICHAIN            0

 POSCAR: Cu-Ti
  positions in direct lattice
  velocities in cartesian coordinates

 ion  position               nearest neighbor table
   1  0.000  0.000  0.252-   7 2.57   3 2.57   4 2.57   2 2.57   6 2.57   8 2.57  12 2.57  10 2.57
                            16 2.57
   2  0.333  0.000  0.252-   8 2.57   9 2.57   5 2.57   1 2.57   3 2.57  11 2.57   4 2.57  10 2.57
                            17 2.57
   3  0.667  0.000  0.252-   1 2.57   7 2.57   6 2.57   9 2.57   2 2.57  12 2.57   5 2.57  18 2.57
                            11 2.57
   4  0.000  0.333  0.252-   5 2.57   6 2.57   1 2.57   7 2.57   2 2.57  13 2.57   9 2.57  10 2.57
                            15 2.57
   5  0.333  0.333  0.252-   4 2.57   2 2.57   7 2.57  13 2.57   8 2.57   6 2.57   3 2.57  11 2.57
                            14 2.57
   6  0.667  0.333  0.252-   4 2.57   9 2.57  15 2.57   3 2.57   1 2.57   8 2.57  14 2.57   5 2.57
                            12 2.57
   7  0.000  0.667  0.252-   1 2.57   3 2.57  16 2.57  18 2.57   4 2.57   5 2.57   8 2.57   9 2.57
                            13 2.57
   8  0.333  0.667  0.252-   9 2.57   2 2.57  17 2.57   6 2.57   1 2.57   7 2.57   5 2.57  14 2.57
                            16 2.57
   9  0.667  0.667  0.252-   8 2.57   6 2.57   2 2.57  17 2.57   3 2.57   7 2.57   4 2.57  15 2.57
                            18 2.57
  10  0.111  0.111  0.351-  26 2.55  19 2.55  11 2.57  12 2.57  13 2.57   1 2.57   2 2.57   4 2.57
                            15 2.57  16 2.57  17 2.57  20 2.57
  11  0.444  0.111  0.351-  27 2.56  20 2.56  21 2.56  10 2.57  13 2.57   2 2.57  17 2.57  14 2.57
                            12 2.57   5 2.57   3 2.57  18 2.57
  12  0.778  0.111  0.351-  19 2.55  25 2.55  15 2.57  10 2.57  14 2.57  18 2.57   3 2.57   1 2.57
                            16 2.57  11 2.57   6 2.57  21 2.57
  13  0.111  0.444  0.351-  22 2.56  23 2.56  20 2.56  16 2.57  18 2.57  10 2.57  11 2.57  14 2.57
                             5 2.57   4 2.57   7 2.57  15 2.57
  14  0.444  0.444  0.351-  24 2.56  21 2.56  23 2.56  15 2.57  17 2.57  12 2.57  16 2.57  13 2.57
                            11 2.57   6 2.57   8 2.57   5 2.57
  15  0.778  0.444  0.351-  19 2.55  24 2.56  22 2.56  14 2.57  17 2.57  12 2.57   6 2.57  18 2.57
                            10 2.57   9 2.57  13 2.57   4 2.57
  16  0.111  0.778  0.351-  25 2.55  26 2.55  18 2.57  13 2.57   7 2.57  14 2.57  17 2.57  12 2.57
                            10 2.57   8 2.57   1 2.57  23 2.57
  17  0.444  0.778  0.351-  26 2.55  27 2.56  24 2.56  14 2.57  15 2.57   8 2.57   9 2.57  11 2.57
                            16 2.57  18 2.57  10 2.57   2 2.57
  18  0.778  0.778  0.351-  25 2.55  22 2.56  27 2.56  16 2.57  13 2.57   7 2.57  15 2.57  12 2.57
                            17 2.57   9 2.57   3 2.57  11 2.57
  19  0.889  0.222  0.448-  12 2.55  10 2.55  15 2.55  25 2.56  26 2.56  28 2.56  22 2.57  24 2.57
                            21 2.57  20 2.57  32 2.57  31 2.57
  20  0.223  0.223  0.449-  23 2.55  21 2.55  11 2.56  13 2.56  27 2.57  22 2.57  29 2.57  31 2.57
                            10 2.57  26 2.57  19 2.57  36 2.66
  21  0.555  0.223  0.449-  20 2.55  23 2.55  14 2.56  11 2.56  24 2.57  27 2.57  32 2.57  30 2.57
                            12 2.57  19 2.57  25 2.57  36 2.66
  22  0.889  0.556  0.449-  18 2.56  15 2.56  13 2.56  31 2.56  33 2.56  24 2.56  27 2.56  23 2.57
                            20 2.57  19 2.57  25 2.57  35 2.57
  23  0.223  0.555  0.449-  20 2.55  21 2.55  13 2.56  14 2.56  22 2.57  24 2.57  33 2.57  34 2.57
                            16 2.57  25 2.57  26 2.57  36 2.66
  24  0.556  0.556  0.449-  15 2.56  17 2.56  14 2.56  32 2.56  34 2.56  22 2.56  27 2.56  21 2.57
                            23 2.57  19 2.57  26 2.57  35 2.57
  25  0.889  0.889  0.448-  12 2.55  16 2.55  18 2.55  19 2.56  26 2.56  28 2.56  22 2.57  27 2.57
                            21 2.57  23 2.57  33 2.57  30 2.57
  26  0.222  0.889  0.448-  10 2.55  16 2.55  17 2.55  25 2.56  19 2.56  28 2.56  27 2.57  24 2.57
                            20 2.57  23 2.57  29 2.57  34 2.57
  27  0.556  0.889  0.449-  17 2.56  18 2.56  11 2.56  29 2.56  30 2.56  24 2.56  22 2.56  20 2.57
                            21 2.57  26 2.57  25 2.57  35 2.57
  28  0.000  0.000  0.547-  33 2.56  30 2.56  31 2.56  29 2.56  32 2.56  34 2.56  25 2.56  19 2.56
                            26 2.56
  29  0.334  0.998  0.547-  34 2.53  35 2.55  28 2.56  27 2.56  20 2.57  26 2.57  30 2.58  36 2.59
                            31 2.59
  30  0.669  0.998  0.547-  33 2.53  35 2.55  28 2.56  27 2.56  21 2.57  25 2.57  29 2.58  36 2.59
                            32 2.59
  31  0.998  0.334  0.547-  32 2.53  35 2.55  28 2.56  22 2.56  20 2.57  19 2.57  33 2.58  36 2.59
                            29 2.59
  32  0.669  0.334  0.547-  31 2.53  35 2.55  28 2.56  24 2.56  21 2.57  19 2.57  34 2.58  36 2.59
                            30 2.59
  33  0.998  0.669  0.547-  30 2.53  35 2.55  28 2.56  22 2.56  23 2.57  25 2.57  31 2.58  36 2.59
                            34 2.59
  34  0.334  0.669  0.547-  29 2.53  35 2.55  28 2.56  24 2.56  23 2.57  26 2.57  32 2.58  36 2.59
                            33 2.59
  35  0.667  0.667  0.548-  34 2.55  32 2.55  29 2.55  30 2.55  33 2.55  31 2.55  24 2.57  27 2.57
                            22 2.57
  36  0.333  0.333  0.553-  31 2.59  29 2.59  33 2.59  32 2.59  34 2.59  30 2.59  23 2.66  20 2.66
                            21 2.66

  LATTYP: Found a hexagonal cell.
 ALAT       =     7.6967864036
 C/A-ratio  =     2.7653617908

  Lattice vectors:

 A1 = (  -3.8483927580,  -6.6656128093,   0.0000000000)
 A2 = (   7.6967864037,   0.0000000000,   0.0000000000)
 A3 = (   0.0000000000,   0.0000000000,  21.2843990326)

Analysis of symmetry for initial positions (statically):
 Subroutine PRICEL returns:
 Original cell was already a primitive cell.

 Routine SETGRP: Setting up the symmetry group for a
 hexagonal supercell.

 Subroutine GETGRP returns: Found  6 space group operations
 (whereof  6 operations were pure point group operations)
 out of a pool of 24 trial point group operations.

The static configuration has the point symmetry C_3v.

Analysis of symmetry for dynamics (positions and initial velocities):
 Subroutine PRICEL returns:
 Original cell was already a primitive cell.

[...]

The dynamic configuration has the point symmetry C_3v.

Analysis of constrained symmetry for selective dynamics:
 Subroutine PRICEL returns:
 Original cell was already a primitive cell.

 Routine SETGRP: Setting up the symmetry group for a
 hexagonal supercell.

 Subroutine GETGRP returns: Found  6 space group operations
 (whereof  6 operations were pure point group operations)
 out of a pool of 24 trial point group operations.

The constrained configuration has the point symmetry C_3v.

 Subroutine INISYM returns: Found  6 space group operations
 (whereof  6 operations are pure point group operations),
 and found     1 'primitive' translations

                                     Primitive cell

  volume of cell :    1091.9705

  direct lattice vectors                    reciprocal lattice vectors
     7.696786404  0.000000000  0.000000000     0.129924354 -0.075011849  0.000000000
     3.848392758  6.665612809  0.000000000     0.000000000  0.150023716  0.000000000
     0.000000000  0.000000000 21.284399033     0.000000000  0.000000000  0.046982769

  length of vectors
[...]
     15      -4.4723      2.00000
     16      -4.4660      2.00000
     17      -4.4547      2.00000
     18      -4.3854      2.00000
     19      -4.3825      2.00000
     20      -4.3204      2.00000
     21      -4.3132      2.00000
     22      -4.3021      2.00000
     23      -4.2670      2.00000
     24      -4.0930      2.00000
     25      -4.0835      2.00000
     26      -4.0576      2.00000
     27      -4.0275      2.00000
     28      -4.0137      2.00000
     29      -4.0097      2.00000
     30      -4.0075      2.00000
     31      -3.9963      2.00000
     32      -3.9826      2.00000
     33      -3.9514      2.00000
     34      -3.9253      2.00000
     35      -3.8537      2.00000
     36      -3.8351      2.00000
     37      -3.6988      2.00000
     38      -3.6908      2.00000
     39      -3.6286      2.00000
     40      -3.6194      2.00000
     41      -3.6074      2.00000
     42      -3.5837      2.00000
     43      -3.5780      2.00000
     44      -3.5721      2.00000
     45      -3.5684      2.00000
     46      -3.4008      2.00000
     47      -3.3864      2.00000
     48      -3.3695      2.00000
     49      -3.3510      2.00000
     50      -3.3076      2.00000
     51      -3.2973      2.00000
     52      -3.2834      2.00000
     53      -3.2781      2.00000
     54      -3.2630      2.00000
     55      -3.2605      2.00000
     56      -3.2270      2.00000
     57      -3.2162      2.00000
     58      -3.2075      2.00000
     59      -3.1993      2.00000
     60      -3.1895      2.00000
[...]
    238       6.8102      0.00000
    239       6.8645      0.00000
    240       6.9765      0.00000
    241       6.9971      0.00000
    242       7.2470      0.00000
    243       7.3037      0.00000
    244       7.3587      0.00000
    245       7.3823      0.00000
    246       7.5518      0.00000
    247       7.6319      0.00000
    248       7.8580      0.00000
    249       7.9122      0.00000
    250       8.1592      0.00000
    251       8.2042      0.00000
    252       8.3820      0.00000

 soft charge-density along one line, spin component           1
         0         1         2         3         4         5         6         7         8         9
 total charge-density along one line

------------------------ aborting loop because EDIFF is reached ----------------------------------------

 total charge

# of ion       s       p       d       tot
    1        0.451   0.283   9.188   9.921
    2        0.447   0.286   9.186   9.919
    3        0.447   0.286   9.186   9.919
    4        0.447   0.286   9.186   9.919
    5        0.448   0.286   9.181   9.915
    6        0.447   0.286   9.186   9.919
    7        0.447   0.286   9.186   9.919
    8        0.447   0.286   9.186   9.919
    9        0.450   0.284   9.187   9.921
   10        0.443   0.372   9.176   9.990
   11        0.441   0.366   9.182   9.988
   12        0.443   0.372   9.176   9.990
   13        0.441   0.366   9.182   9.988
   14        0.441   0.366   9.182   9.988
   15        0.440   0.371   9.177   9.988
   16        0.443   0.372   9.176   9.990
   17        0.440   0.371   9.177   9.988
   18        0.440   0.371   9.177   9.988
   19        0.444   0.372   9.179   9.995
   20        0.458   0.386   9.158  10.002
   21        0.458   0.386   9.158  10.002
   22        0.435   0.375   9.179   9.988
   23        0.458   0.386   9.158  10.002
   24        0.435   0.375   9.179   9.988
   25        0.444   0.372   9.179   9.995
   26        0.444   0.372   9.179   9.995
   27        0.435   0.375   9.179   9.988
   28        0.445   0.294   9.180   9.919
   29        0.479   0.310   9.159   9.948
   30        0.479   0.310   9.159   9.948
   31        0.479   0.310   9.159   9.948
   32        0.479   0.310   9.159   9.948
   33        0.479   0.310   9.159   9.948
   34        0.479   0.310   9.159   9.948
   35        0.442   0.298   9.179   9.919
   36        0.503   0.510   2.312   3.324
tot         16.274  12.253 323.448 351.975

  FORCE on cell =-STRESS in cart. coord.  units (eV):
  Direction    XX          YY          ZZ          XY          YZ          ZX
  Alpha Z   860.33274   860.33274   860.33274
  Ewald  169945.90961169945.90931************     0.00034     0.00012     0.00014
  Hartree182745.95940182745.95943************     0.00001     0.00006     0.00005
  E(xc)   -2261.53969 -2261.53921 -2265.29036    -0.00042    -0.00003    -0.00006
  Local  ************************365508.16452     0.01853    -0.00057    -0.00087
  n-local  -761.08400  -747.30823  -767.41072     7.03951    -0.21181     0.22999
  augment  3313.75734  3313.77754  3335.03977    -0.01751     0.00025     0.00046
  Kinetic  3148.89606  3149.18015  3179.98006     1.28205     1.86622    -1.43342
  Fock        0.00000     0.00000     0.00000     0.00000     0.00000     0.00000
  Total      -9.19770    -9.19770    -2.47632     0.00000    -0.00000    -0.00000
  in kB     -13.49518   -13.49518    -3.63334     0.00000    -0.00000    -0.00000

 VOLUME and BASIS-vectors are now :
  energy-cutoff  :      500.00
  volume of cell :     1091.97
      direct lattice vectors                 reciprocal lattice vectors
     7.696786404  0.000000000  0.000000000     0.129924354 -0.075011849  0.000000000
     3.848392758  6.665612809  0.000000000     0.000000000  0.150023716  0.000000000
     0.000000000  0.000000000 21.284399033     0.000000000  0.000000000  0.046982769

  length of vectors
     7.696786404  7.696786404 21.284399033     0.150023716  0.150023716  0.046982769

 FORCES acting on ions
    electron-ion (+dipol)            ewald-force                    non-local-force                 convergence-correction
   -.415E-04 0.168E-06 0.343E+04   0.582E-04 -.426E-05 -.343E+04   -.168E-17 -.211E-17 -.217E+01   -.261E-03 -.127E-03 0.116E-01
   -.106E+01 -.128E+01 0.343E+04   0.100E+01 0.119E+01 -.342E+04   0.298E-01 0.657E-01 -.194E+01   0.373E-01 0.314E-01 0.915E-01
   0.106E+01 -.128E+01 0.343E+04   -.100E+01 0.119E+01 -.342E+04   -.298E-01 0.657E-01 -.194E+01   -.365E-01 0.340E-01 0.923E-01
   -.164E+01 -.277E+00 0.343E+04   0.153E+01 0.271E+00 -.342E+04   0.718E-01 -.704E-02 -.194E+01   0.460E-01 0.165E-01 0.915E-01
   -.621E-04 -.357E-05 0.342E+04   0.116E-03 -.101E-04 -.342E+04   0.516E-17 0.324E-17 -.175E+01   0.122E-01 0.740E-02 0.199E+00
   0.164E+01 -.277E+00 0.343E+04   -.153E+01 0.271E+00 -.342E+04   -.718E-01 -.704E-02 -.194E+01   -.476E-01 0.178E-01 0.927E-01
   -.580E+00 0.156E+01 0.343E+04   0.530E+00 -.146E+01 -.342E+04   0.420E-01 -.587E-01 -.194E+01   0.112E-01 -.486E-01 0.924E-01
   0.580E+00 0.156E+01 0.343E+04   -.530E+00 -.146E+01 -.342E+04   -.420E-01 -.587E-01 -.194E+01   -.770E-02 -.501E-01 0.927E-01
   -.143E-03 -.329E-04 0.343E+04   0.263E-03 0.204E-04 -.343E+04   -.394E-17 -.478E-18 -.192E+01   -.133E-01 -.680E-02 0.765E-01
   -.103E+02 -.595E+01 0.109E+04   0.104E+02 0.602E+01 -.109E+04   -.213E+00 -.123E+00 -.943E+00   0.104E+00 0.601E-01 -.160E+00
   -.906E-04 -.113E+02 0.107E+04   0.189E-03 0.109E+02 -.107E+04   -.167E-07 0.251E+00 -.348E+00   0.116E-01 0.128E+00 -.184E+00
   0.103E+02 -.595E+01 0.109E+04   -.104E+02 0.602E+01 -.109E+04   0.213E+00 -.123E+00 -.943E+00   -.106E+00 0.615E-01 -.161E+00
   -.980E+01 0.566E+01 0.107E+04   0.944E+01 -.545E+01 -.107E+04   0.217E+00 -.125E+00 -.348E+00   0.117E+00 -.534E-01 -.184E+00
   0.980E+01 0.566E+01 0.107E+04   -.944E+01 -.545E+01 -.107E+04   -.217E+00 -.125E+00 -.348E+00   -.933E-01 -.540E-01 -.185E+00
   -.139E-03 -.810E+00 0.109E+04   0.295E-03 0.729E+00 -.109E+04   -.478E-08 0.718E-01 -.899E+00   -.351E-02 0.131E-01 -.175E+00
   -.928E-04 0.119E+02 0.109E+04   0.187E-03 -.120E+02 -.109E+04   -.164E-07 0.247E+00 -.943E+00   -.635E-04 -.123E+00 -.161E+00
   -.702E+00 0.405E+00 0.109E+04   0.632E+00 -.364E+00 -.109E+04   0.622E-01 -.359E-01 -.899E+00   0.102E-01 -.947E-02 -.175E+00
   0.702E+00 0.405E+00 0.109E+04   -.632E+00 -.364E+00 -.109E+04   -.622E-01 -.359E-01 -.899E+00   -.960E-02 -.687E-02 -.175E+00
   -.709E-04 -.103E+02 -.123E+04   0.747E-04 0.104E+02 0.123E+04   0.473E-08 -.710E-01 0.871E+00   0.946E-03 -.279E-01 -.299E+00
   -.733E+02 -.423E+02 -.135E+04   0.742E+02 0.429E+02 0.135E+04   -.956E+00 -.552E+00 -.418E+00   0.290E-01 0.156E-01 -.305E+00
   0.733E+02 -.423E+02 -.135E+04   -.742E+02 0.429E+02 0.135E+04   0.956E+00 -.552E+00 -.418E+00   -.497E-01 0.169E-01 -.306E+00
   -.354E+02 0.205E+02 -.125E+04   0.352E+02 -.203E+02 0.125E+04   0.218E+00 -.126E+00 0.590E+00   0.330E-01 -.208E-01 -.217E+00
   -.745E-04 0.847E+02 -.135E+04   0.156E-03 -.857E+02 0.135E+04   -.735E-07 0.110E+01 -.418E+00   0.117E-01 -.522E-01 -.306E+00
   0.354E+02 0.205E+02 -.125E+04   -.352E+02 -.203E+02 0.125E+04   -.218E+00 -.126E+00 0.590E+00   -.349E-01 -.201E-01 -.218E+00
   0.888E+01 0.513E+01 -.123E+04   -.897E+01 -.518E+01 0.123E+04   0.615E-01 0.355E-01 0.871E+00   0.244E-01 0.150E-01 -.300E+00
   -.888E+01 0.513E+01 -.123E+04   0.897E+01 -.518E+01 0.123E+04   -.615E-01 0.355E-01 0.871E+00   -.232E-01 0.143E-01 -.299E+00
   -.133E-03 -.409E+02 -.125E+04   0.238E-03 0.406E+02 0.125E+04   -.168E-07 0.252E+00 0.590E+00   -.110E-02 0.404E-01 -.217E+00
   -.331E-04 0.196E-04 -.347E+04   0.505E-04 -.305E-04 0.347E+04   -.169E-17 0.113E-17 0.175E+01   0.357E-03 0.199E-03 -.769E-01
   -.661E+02 -.125E+03 -.348E+04   0.666E+02 0.126E+03 0.347E+04   -.613E+00 -.707E+00 0.653E+00   0.732E-01 0.307E-01 -.154E+00
   0.661E+02 -.125E+03 -.348E+04   -.666E+02 0.126E+03 0.347E+04   0.613E+00 -.707E+00 0.653E+00   -.729E-01 0.322E-01 -.153E+00
   -.141E+03 0.522E+01 -.348E+04   0.142E+03 -.510E+01 0.347E+04   -.918E+00 -.178E+00 0.653E+00   0.632E-01 0.477E-01 -.153E+00
   0.141E+03 0.522E+01 -.348E+04   -.142E+03 -.510E+01 0.347E+04   0.918E+00 -.178E+00 0.653E+00   -.631E-01 0.493E-01 -.153E+00
   -.751E+02 0.120E+03 -.348E+04   0.754E+02 -.120E+03 0.347E+04   -.305E+00 0.884E+00 0.653E+00   -.870E-02 -.788E-01 -.153E+00
   0.751E+02 0.120E+03 -.348E+04   -.754E+02 -.120E+03 0.347E+04   0.305E+00 0.884E+00 0.653E+00   0.119E-01 -.792E-01 -.153E+00
   -.117E-03 -.128E-04 -.349E+04   0.244E-03 -.490E-06 0.348E+04   0.575E-17 -.658E-17 0.213E+01   -.131E-01 -.649E-02 -.578E-01
   -.350E-04 -.360E-05 -.129E+04   0.467E-04 0.108E-04 0.129E+04   0.235E-17 -.674E-18 0.298E+01   0.347E-03 0.943E-04 -.366E-01
   -.244E-03 0.101E-04 0.144E+02   0.157E-12 0.494E-13 0.130E-10   0.175E-15 0.215E-15 -.102E+02   0.138E-01 -.635E-02 -.428E+01

 POSITION                                       TOTAL-FORCE (eV/Angst)
      0.00000      0.00000      5.37156         0.000000     -0.000000      0.005884
      2.56560      0.00000      5.37156         0.007081      0.005074      0.048587
      5.13119      0.00000      5.37156        -0.007081      0.005074      0.048587
      1.28280      2.22187      5.37156         0.007935      0.003596      0.048587
      3.84839      2.22187      5.37156         0.000000     -0.000000      0.054646
      6.41399      2.22187      5.37156        -0.007935      0.003596      0.048587
      2.56560      4.44374      5.37156         0.000853     -0.008669      0.048587
      5.13119      4.44374      5.37156        -0.000853     -0.008669      0.048587
      7.69679      4.44374      5.37156        -0.000000     -0.000000      0.024364
      1.28280      0.74062      7.46636         0.009716      0.005609     -0.099481
      3.84839      0.74062      7.46636         0.000000     -0.038403     -0.053120
      6.41399      0.74062      7.46636        -0.009716      0.005609     -0.099481
      2.56560      2.96249      7.46636        -0.033258      0.019202     -0.053120
      5.13119      2.96249      7.46636         0.033258      0.019202     -0.053120
      7.69679      2.96249      7.46636        -0.000000      0.003486     -0.027572
      3.84839      5.18437      7.46636         0.000000     -0.011219     -0.099481
      6.41399      5.18437      7.46636         0.003019     -0.001743     -0.027572
      8.97958      5.18437      7.46636        -0.003019     -0.001743     -0.027572
      7.69679      1.47704      9.53921        -0.000000      0.002590     -0.001234
      2.57092      1.48432      9.56248         0.011557      0.006673     -0.000790
      5.12587      1.48432      9.56248        -0.011557      0.006673     -0.000790
      8.97870      3.70363      9.55579         0.002210     -0.001276      0.007283
      3.84839      3.69697      9.56248         0.000000     -0.013345     -0.000790
      6.41487      3.70363      9.55579        -0.002210     -0.001276      0.007283
     10.26602      5.92709      9.53921        -0.002243     -0.001295     -0.001234
      5.12755      5.92709      9.53921         0.002243     -0.001295     -0.001234
      7.69679      5.92397      9.55579        -0.000000      0.002552      0.007283
      0.00000      0.00000     11.63511         0.000000     -0.000000      0.039769
      6.40848      6.64966     11.64831        -0.009689      0.000064      0.012570
      8.98509      6.64966     11.64831         0.009689      0.000064      0.012570
      8.96302      2.22507     11.64831        -0.004789     -0.008423      0.012570
      6.43055      2.22507     11.64831         0.004789     -0.008423      0.012570
     10.25132      4.45649     11.64831         0.004900      0.008359      0.012570
      5.14225      4.45649     11.64831        -0.004900      0.008359      0.012570
      7.69679      4.44374     11.65790        -0.000000     -0.000000      0.017490
      3.84839      2.22187     11.77538         0.000000     -0.000000      0.015641
    total drift:                                0.013569     -0.006342      0.009336

  FREE ENERGIE OF THE ION-ELECTRON SYSTEM (eV)
  free  energy   TOTEN  =      -129.51006117 eV

  energy  without entropy=     -129.51006117  energy(sigma->0) =     -129.51006117

 stress matrix after NEB project (eV)
     -9.19770      0.00000     -0.00000
      0.00000     -9.19770     -0.00000
     -0.00000     -0.00000     -2.47632
  FORCES: max atom, RMS     0.039769    0.011034
  FORCE total and by dimension    0.066204    0.039769
  Stress total and by dimension   13.241126    9.197698
|           W    W    AA    RRRRR   N    N  II  N    N   GGGG   !!!           |
|           W    W   A  A   R    R  NN   N  II  NN   N  G    G  !!!           |
|           W    W  A    A  R    R  N N  N  II  N N  N  G       !!!           |
|           W WW W  AAAAAA  RRRRR   N  N N  II  N  N N  G  GGG   !            |
|           WW  WW  A    A  R   R   N   NN  II  N   NN  G    G                |
|           W    W  A    A  R    R  N    N  II  N    N   GGGG   !!!           |
|     Tetrahedron method does not include variations of the Fermi             |
|     occupations, so forces and stress will be inaccurate. We suggest        |
|     using a different smearing scheme ISMEAR = 1 or 2 for metals in         |
|     relaxations.                                                            |

 total charge

# of ion       s       p       d       tot
    1        0.451   0.283   9.188   9.921
    2        0.447   0.286   9.186   9.919
    3        0.447   0.286   9.186   9.919
    4        0.447   0.286   9.186   9.919
    5        0.448   0.286   9.181   9.915
    6        0.447   0.286   9.186   9.919
    7        0.447   0.286   9.186   9.919
    8        0.447   0.286   9.186   9.919
    9        0.450   0.284   9.187   9.921
   10        0.443   0.372   9.176   9.990
   11        0.441   0.366   9.182   9.988
   12        0.443   0.372   9.176   9.990
   13        0.441   0.366   9.182   9.988
   14        0.441   0.366   9.182   9.988
   15        0.440   0.371   9.177   9.988
   16        0.443   0.372   9.176   9.990
   17        0.440   0.371   9.177   9.988
   18        0.440   0.371   9.177   9.988
   19        0.444   0.372   9.179   9.995
   20        0.458   0.386   9.158  10.002
   21        0.458   0.386   9.158  10.002
   22        0.435   0.375   9.179   9.988
   23        0.458   0.386   9.158  10.002
   24        0.435   0.375   9.179   9.988
   25        0.444   0.372   9.179   9.995
   26        0.444   0.372   9.179   9.995
   27        0.435   0.375   9.179   9.988
   28        0.445   0.294   9.180   9.919
   29        0.479   0.310   9.159   9.948
   30        0.479   0.310   9.159   9.948
   31        0.479   0.310   9.159   9.948
   32        0.479   0.310   9.159   9.948
   33        0.479   0.310   9.159   9.948
   34        0.479   0.310   9.159   9.948
   35        0.442   0.298   9.179   9.919
   36        0.503   0.510   2.312   3.324
tot         16.274  12.253 323.448 351.975

 BZINTS: Fermi energy:    0.153541;  389.000000 electrons
         Band energy:-0.106533E+04;  BLOECHL correction:   -0.030393