 vasp.6.2.0 18Jan21 (build Jun 12 2021 23:27:24) complex

 executed on             LinuxIFC date 2022.05.26  20:23:02

 INCAR:
   ISMEAR = -5
   SIGMA = 0.1
   ISPIN = 1
   EDIFF = 1.d-5
   EDIFFG = -0.01
   NSW = 0
   NELM = 150
   ENCUT = 500
   ISIF = 2
   IBRION = 2
   LREAL = Auto
   ALGO = Fast
   ICHARG = 11
   LORBIT = 10
   LCHARG = .F.
   LWAVE = .F.

 POTCAR:    PAW_PBE Ag 02Apr2005
 POTCAR:    PAW_PBE Re 17Jan2003
|           W    W    AA    RRRRR   N    N  II  N    N   GGGG   !!!           |
|           W    W   A  A   R    R  NN   N  II  NN   N  G    G  !!!           |
|           W    W  A    A  R    R  N N  N  II  N N  N  G       !!!           |
|           W WW W  AAAAAA  RRRRR   N  N N  II  N  N N  G  GGG   !            |
|           WW  WW  A    A  R   R   N   NN  II  N   NN  G    G                |
|           W    W  A    A  R    R  N    N  II  N    N   GGGG   !!!           |
|     For optimal performance we recommend to set                             |
|       NCORE = 2 up to number-of-cores-per-socket                            |
|     This setting can greatly improve the performance of VASP for DFT.       |
|     The default, NCORE=1 might be grossly inefficient on modern             |
|     multi-core architectures or massively parallel machines. Do your        |
|     Unfortunately you need to use the default for GW and RPA                |
|     calculations (for HF NCORE is supported but not extensively tested      |
|     yet).                                                                   |

 POTCAR:    PAW_PBE Ag 02Apr2005
   VRHFIN =Ag : s1 d10

   TITEL  = PAW_PBE Ag 02Apr2005
   POMASS =  107.868; ZVAL   =   11.000    mass and valenz
   ENMAX  =  249.844; ENMIN  =  187.383 eV

 POTCAR:    PAW_PBE Re 17Jan2003
   VRHFIN =Re: 5p6s5d

   TITEL  = PAW_PBE Re 17Jan2003
   POMASS =  186.207; ZVAL   =    7.000    mass and valenz
   ENMAX  =  226.216; ENMIN  =  169.662 eV

 Optimization of the real space projectors (new method)

 maximal supplied QI-value         = 15.12
 optimisation between [QCUT,QGAM] = [ 11.34, 22.83] = [ 36.00,145.93] Ry
 Optimized for a Real-space Cutoff    1.43 Angstroem

   l    n(q)    QCUT    max X(q) W(low)/X(q) W(high)/X(q)  e(spline)
   2      9    11.338    53.897    0.16E-03    0.20E-03    0.28E-06
   2      9    11.338    52.416    0.16E-03    0.20E-03    0.29E-06
   0     10    11.338   122.045    0.31E-04    0.76E-04    0.15E-06
   0     10    11.338    73.629    0.30E-04    0.72E-04    0.15E-06
   1      9    11.338    15.255    0.20E-03    0.19E-04    0.17E-06
   1      9    11.338     9.562    0.16E-03    0.15E-04    0.14E-06
 Optimization of the real space projectors (new method)

 maximal supplied QI-value         = 13.98
 optimisation between [QCUT,QGAM] = [ 11.33, 22.79] = [ 35.93,145.49] Ry
 Optimized for a Real-space Cutoff    1.56 Angstroem

   l    n(q)    QCUT    max X(q) W(low)/X(q) W(high)/X(q)  e(spline)
   2     10    11.327   884.633    0.22E-03    0.51E-03    0.88E-06
   2     10    11.327   796.723    0.22E-03    0.51E-03    0.88E-06
   0     11    11.327    65.348    0.44E-04    0.11E-03    0.75E-06
   0     11    11.327    39.642    0.40E-04    0.10E-03    0.69E-06
   1     10    11.327    13.988    0.15E-03    0.10E-03    0.19E-06
   1     10    11.327     8.682    0.11E-03    0.76E-04    0.14E-06
  PAW_PBE Ag 02Apr2005                  :
  PAW_PBE Re 17Jan2003                  :

 POSCAR: Ag-Re
  positions in direct lattice
  velocities in cartesian coordinates
 exchange correlation table for  LEXCH =        8
   RHO(1)=    0.500       N(1)  =     2000
   RHO(2)=  100.500       N(2)  =     4000

 VTST: version 3.2, (02/03/18)

 CHAIN: initializing optimizer

 OPT: Using VASP Conjugate-Gradient optimizer
 CHAIN: Read ICHAIN            0

 POSCAR: Ag-Re
  positions in direct lattice
  velocities in cartesian coordinates

 ion  position               nearest neighbor table
   1  0.000  0.000  0.238-   2 2.93   8 2.93   7 2.93   6 2.93   4 2.93  12 2.93  16 2.93  10 2.93
                             3 2.93
   2  0.333  0.000  0.238-   1 2.93   8 2.93   9 2.93   3 2.93   4 2.93   5 2.93  10 2.93  17 2.93
                            11 2.93
   3  0.667  0.000  0.238-   9 2.93   2 2.93   5 2.93  11 2.93   7 2.93  18 2.93   1 2.93   6 2.93
                            12 2.93
   4  0.000  0.333  0.238-   5 2.93   6 2.93   2 2.93   1 2.93   7 2.93  13 2.93  15 2.93   9 2.93
                            10 2.93
   5  0.333  0.333  0.238-   4 2.93   3 2.93   7 2.93   2 2.93   8 2.93  14 2.93  13 2.93  11 2.93
                             6 2.93
   6  0.667  0.333  0.238-   4 2.93   9 2.93   1 2.93  15 2.93   8 2.93  12 2.93   3 2.93   5 2.93
                            14 2.93
   7  0.000  0.667  0.238-   8 2.93   1 2.93   5 2.93   3 2.93   4 2.93  16 2.93  18 2.93  13 2.93
                             9 2.93
   8  0.333  0.667  0.238-   7 2.93   1 2.93   2 2.93   9 2.93   5 2.93  16 2.93   6 2.93  17 2.93
                            14 2.93
   9  0.667  0.667  0.238-   3 2.93   2 2.93   8 2.93   6 2.93  17 2.93   4 2.93  15 2.93   7 2.93
                            18 2.93
  10  0.111  0.111  0.346-  20 2.89  12 2.93  16 2.93  15 2.93  17 2.93  13 2.93  11 2.93   2 2.93
                             1 2.93   4 2.93  19 2.93  26 2.93
  11  0.444  0.111  0.346-  21 2.89  20 2.89  27 2.93  14 2.93  17 2.93  18 2.93   3 2.93  12 2.93
                            13 2.93  10 2.93   5 2.93   2 2.93
  12  0.778  0.111  0.346-  21 2.89  10 2.93  16 2.93  18 2.93  15 2.93  11 2.93   1 2.93  14 2.93
                             6 2.93   3 2.93  25 2.93  19 2.93
  13  0.111  0.444  0.346-  20 2.89  23 2.89  22 2.93  15 2.93  14 2.93  18 2.93  10 2.93  11 2.93
                            16 2.93   4 2.93   5 2.93   7 2.93
  14  0.444  0.444  0.346-  23 2.89  21 2.89  24 2.93  13 2.93  11 2.93  16 2.93   5 2.93  12 2.93
                            17 2.93   8 2.93  15 2.93   6 2.93
  15  0.778  0.444  0.346-  24 2.92  22 2.92  19 2.93  13 2.93  10 2.93  12 2.93  17 2.93  18 2.93
                             4 2.93   6 2.93   9 2.93  14 2.93
  16  0.111  0.778  0.346-  23 2.89  18 2.93  12 2.93  10 2.93  14 2.93  17 2.93  13 2.93   7 2.93
                             8 2.93   1 2.93  26 2.93  25 2.93
  17  0.444  0.778  0.346-  27 2.92  24 2.92  26 2.93  11 2.93  10 2.93   9 2.93  18 2.93  15 2.93
                            16 2.93   2 2.93  14 2.93   8 2.93
  18  0.778  0.778  0.346-  22 2.92  27 2.92  25 2.93  16 2.93  12 2.93  13 2.93  11 2.93  17 2.93
                            15 2.93   7 2.93   3 2.93   9 2.93
  19  0.889  0.223  0.454-  28 2.91  24 2.93  22 2.93  15 2.93  20 2.93  21 2.93  10 2.93  12 2.93
                            26 2.94  25 2.94  32 2.97  31 2.97
  20  0.222  0.222  0.452-  36 2.76  10 2.89  13 2.89  11 2.89  19 2.93  26 2.93  21 2.93  23 2.93
                            27 2.94  22 2.94  31 2.94  29 2.94
  21  0.556  0.222  0.452-  36 2.76  12 2.89  11 2.89  14 2.89  25 2.93  19 2.93  20 2.93  23 2.93
                            27 2.94  24 2.94  30 2.94  32 2.94
  22  0.888  0.556  0.453-  35 2.91  24 2.92  27 2.92  18 2.92  15 2.92  13 2.93  25 2.93  19 2.93
                            23 2.94  20 2.94  33 2.95  31 2.95
  23  0.222  0.556  0.452-  36 2.76  16 2.89  14 2.89  13 2.89  26 2.93  25 2.93  21 2.93  20 2.93
                            22 2.94  24 2.94  34 2.94  33 2.94
  24  0.556  0.556  0.453-  35 2.91  27 2.92  22 2.92  15 2.92  17 2.92  14 2.93  19 2.93  26 2.93
                            23 2.94  21 2.94  32 2.95  34 2.95
  25  0.889  0.889  0.454-  28 2.91  22 2.93  27 2.93  18 2.93  23 2.93  21 2.93  16 2.93  12 2.93
                            26 2.94  19 2.94  33 2.97  30 2.97
  26  0.223  0.889  0.454-  28 2.91  27 2.93  24 2.93  17 2.93  23 2.93  20 2.93  16 2.93  10 2.93
                            25 2.94  19 2.94  34 2.97  29 2.97
  27  0.556  0.888  0.453-  35 2.91  24 2.92  22 2.92  17 2.92  18 2.92  11 2.93  26 2.93  25 2.93
                            20 2.94  21 2.94  29 2.95  30 2.95
  28  0.000  0.000  0.560-  26 2.91  25 2.91  19 2.91  29 2.96  34 2.96  33 2.96  32 2.96  31 2.96
                            30 2.96
  29  0.333  0.008  0.562-  31 2.86  30 2.87  36 2.88  20 2.94  27 2.95  28 2.96  26 2.97  35 2.97
                            34 3.06
  30  0.659  0.008  0.562-  32 2.86  29 2.87  36 2.88  21 2.94  27 2.95  28 2.96  25 2.97  35 2.97
                            33 3.06
  31  0.008  0.333  0.562-  29 2.86  33 2.87  36 2.88  20 2.94  22 2.95  28 2.96  19 2.97  35 2.97
                            32 3.06
  32  0.659  0.333  0.562-  30 2.86  34 2.87  36 2.88  21 2.94  24 2.95  28 2.96  19 2.97  35 2.97
                            31 3.06
  33  0.008  0.659  0.562-  34 2.86  31 2.87  36 2.88  23 2.94  22 2.95  28 2.96  25 2.97  35 2.97
                            30 3.06
  34  0.333  0.659  0.562-  33 2.86  32 2.87  36 2.88  23 2.94  24 2.95  28 2.96  26 2.97  35 2.97
                            29 3.06
  35  0.667  0.667  0.560-  24 2.91  27 2.91  22 2.91  30 2.97  32 2.97  29 2.97  34 2.97  31 2.97
                            33 2.97
  36  0.333  0.333  0.550-  21 2.76  20 2.76  23 2.76  31 2.88  30 2.88  33 2.88  29 2.88  34 2.88
                            32 2.88

  LATTYP: Found a hexagonal cell.
 ALAT       =     8.7913665772
 C/A-ratio  =     2.5227160501

  Lattice vectors:

 A1 = (  -4.3956832886,  -7.6135467898,   0.0000000000)
 A2 = (   8.7913665771,   0.0000000000,   0.0000000000)
 A3 = (   0.0000000000,   0.0000000000,  22.1781215668)

Analysis of symmetry for initial positions (statically):
 Subroutine PRICEL returns:
 Original cell was already a primitive cell.

 Routine SETGRP: Setting up the symmetry group for a
 hexagonal supercell.

 Subroutine GETGRP returns: Found  6 space group operations
 (whereof  6 operations were pure point group operations)
 out of a pool of 24 trial point group operations.

The static configuration has the point symmetry C_3v.

Analysis of symmetry for dynamics (positions and initial velocities):
 Subroutine PRICEL returns:
 Original cell was already a primitive cell.

[...]

The dynamic configuration has the point symmetry C_3v.

Analysis of constrained symmetry for selective dynamics:
 Subroutine PRICEL returns:
 Original cell was already a primitive cell.

 Routine SETGRP: Setting up the symmetry group for a
 hexagonal supercell.

 Subroutine GETGRP returns: Found  6 space group operations
 (whereof  6 operations were pure point group operations)
 out of a pool of 24 trial point group operations.

The constrained configuration has the point symmetry C_3v.

 Subroutine INISYM returns: Found  6 space group operations
 (whereof  6 operations are pure point group operations),
 and found     1 'primitive' translations

                                     Primitive cell

  volume of cell :    1484.4589

  direct lattice vectors                    reciprocal lattice vectors
     8.791366577  0.000000000  0.000000000     0.113747958 -0.065672414  0.000000000
     4.395683289  7.613546790  0.000000000     0.000000000  0.131344829  0.000000000
[...]
     15      -4.8058      2.00000
     16      -4.7612      2.00000
     17      -4.7546      2.00000
     18      -4.7270      2.00000
     19      -4.7239      2.00000
     20      -4.7135      2.00000
     21      -4.7071      2.00000
     22      -4.6828      2.00000
     23      -4.6691      2.00000
     24      -4.6546      2.00000
     25      -4.6271      2.00000
     26      -4.6115      2.00000
     27      -4.5943      2.00000
     28      -4.5776      2.00000
     29      -4.5706      2.00000
     30      -4.5614      2.00000
     31      -4.5454      2.00000
     32      -4.5109      2.00000
     33      -4.5000      2.00000
     34      -4.4583      2.00000
     35      -4.4304      2.00000
     36      -4.4246      2.00000
     37      -4.3834      2.00000
     38      -4.3520      2.00000
     39      -4.3474      2.00000
     40      -4.3441      2.00000
     41      -4.3263      2.00000
     42      -4.3232      2.00000
     43      -4.2299      2.00000
     44      -4.2045      2.00000
     45      -4.1927      2.00000
     46      -4.1881      2.00000
     47      -4.1802      2.00000
     48      -4.1779      2.00000
     49      -4.1685      2.00000
     50      -4.1629      2.00000
     51      -4.1564      2.00000
     52      -4.1458      2.00000
     53      -4.0712      2.00000
     54      -4.0626      2.00000
     55      -4.0554      2.00000
     56      -4.0518      2.00000
     57      -4.0343      2.00000
     58      -4.0212      2.00000
     59      -3.9934      2.00000
     60      -3.9754      2.00000
[...]
    238       7.2137      0.00000
    239       7.2311      0.00000
    240       7.2328      0.00000
    241       7.2716      0.00000
    242       7.2944      0.00000
    243       7.3507      0.00000
    244       7.4020      0.00000
    245       7.5400      0.00000
    246       7.5576      0.00000
    247       7.6187      0.00000
    248       7.6650      0.00000
    249       7.7597      0.00000
    250       7.9486      0.00000
    251       8.0401      0.00000
    252       8.1573      0.00000

 soft charge-density along one line, spin component           1
         0         1         2         3         4         5         6         7         8         9
 total charge-density along one line

------------------------ aborting loop because EDIFF is reached ----------------------------------------

 total charge

# of ion       s       p       d       tot
    1        0.419   0.201   9.177   9.797
    2        0.416   0.203   9.178   9.797
    3        0.416   0.203   9.178   9.797
    4        0.416   0.203   9.178   9.797
    5        0.417   0.203   9.176   9.796
    6        0.416   0.203   9.178   9.797
    7        0.416   0.203   9.178   9.797
    8        0.416   0.203   9.178   9.797
    9        0.417   0.201   9.178   9.796
   10        0.409   0.270   9.160   9.840
   11        0.407   0.268   9.170   9.845
   12        0.409   0.270   9.160   9.840
   13        0.407   0.268   9.170   9.845
   14        0.407   0.268   9.170   9.845
   15        0.405   0.267   9.166   9.839
   16        0.409   0.270   9.160   9.840
   17        0.405   0.267   9.166   9.839
   18        0.405   0.267   9.166   9.839
   19        0.399   0.265   9.167   9.831
   20        0.430   0.311   9.136   9.878
   21        0.430   0.311   9.136   9.878
   22        0.394   0.271   9.170   9.835
   23        0.430   0.311   9.136   9.878
   24        0.394   0.271   9.170   9.835
   25        0.399   0.265   9.167   9.831
   26        0.399   0.265   9.167   9.831
   27        0.394   0.271   9.170   9.835
   28        0.410   0.197   9.178   9.785
   29        0.429   0.221   9.156   9.806
   30        0.429   0.221   9.156   9.806
   31        0.429   0.221   9.156   9.806
   32        0.429   0.221   9.156   9.806
   33        0.429   0.221   9.156   9.806
   34        0.429   0.221   9.156   9.806
   35        0.400   0.200   9.180   9.779
   36        0.522   0.248   4.696   5.466
tot         14.996   8.750 325.488 349.233

  FORCE on cell =-STRESS in cart. coord.  units (eV):
  Direction    XX          YY          ZZ          XY          YZ          ZX
  Alpha Z   750.39304   750.39304   750.39304
  Ewald  119885.97771119885.97764************    -0.00000    -0.00000    -0.00002
  Hartree129928.13836129928.13833************    -0.00000    -0.00000    -0.00001
  E(xc)   -2059.90752 -2059.90750 -2066.09522    -0.00002    -0.00000    -0.00000
  Local  ************************261154.31330     0.00021    -0.00003    -0.00003
  n-local  -351.22084  -331.84468  -346.50094    10.71623    -0.30016     0.23297
  augment  3227.72424  3227.72441  3240.56743    -0.00015    -0.00001    -0.00003
  Kinetic  4853.87108  4864.52087  4896.72876     6.97366     0.45053     0.44966
  Fock        0.00000     0.00000     0.00000     0.00000     0.00000     0.00000
  Total     -10.62004   -10.62004     0.41073    -0.00000    -0.00000     0.00000
  in kB     -11.46222   -11.46222     0.44330    -0.00000    -0.00000     0.00000

 VOLUME and BASIS-vectors are now :
  energy-cutoff  :      500.00
  volume of cell :     1484.46
      direct lattice vectors                 reciprocal lattice vectors
     8.791366577  0.000000000  0.000000000     0.113747958 -0.065672414  0.000000000
     4.395683289  7.613546790  0.000000000     0.000000000  0.131344829  0.000000000
     0.000000000  0.000000000 22.178121567     0.000000000  0.000000000  0.045089481

  length of vectors
     8.791366577  8.791366577 22.178121567     0.131344829  0.131344829  0.045089481

 FORCES acting on ions
    electron-ion (+dipol)            ewald-force                    non-local-force                 convergence-correction
   0.459E-04 -.282E-04 0.248E+04   -.954E-04 0.593E-04 -.248E+04   -.204E-17 0.210E-17 -.210E+01   -.270E-04 -.122E-03 0.327E-01
   0.155E+00 0.340E+00 0.248E+04   -.322E+00 -.305E+00 -.248E+04   0.104E+00 0.586E-01 -.151E+01   0.553E-01 -.861E-01 0.682E-01
   -.155E+00 0.340E+00 0.248E+04   0.322E+00 -.305E+00 -.248E+04   -.104E+00 0.586E-01 -.151E+01   -.560E-01 -.842E-01 0.688E-01
   0.373E+00 -.357E-01 0.248E+04   -.425E+00 -.126E+00 -.248E+04   0.103E+00 0.611E-01 -.151E+01   -.466E-01 0.912E-01 0.682E-01
   -.793E-05 -.201E-04 0.249E+04   0.980E-04 -.197E-05 -.248E+04   0.101E-17 0.995E-18 -.134E+01   0.615E-02 0.376E-02 0.910E-01
   -.373E+00 -.357E-01 0.248E+04   0.425E+00 -.126E+00 -.248E+04   -.103E+00 0.611E-01 -.151E+01   0.453E-01 0.921E-01 0.689E-01
   0.217E+00 -.305E+00 0.248E+04   -.103E+00 0.431E+00 -.248E+04   -.145E-02 -.120E+00 -.151E+01   -.100E+00 -.585E-02 0.688E-01
   -.217E+00 -.305E+00 0.248E+04   0.103E+00 0.431E+00 -.248E+04   0.145E-02 -.120E+00 -.151E+01   0.102E+00 -.675E-02 0.689E-01
   0.362E-04 -.132E-04 0.249E+04   0.792E-04 -.643E-04 -.248E+04   -.107E-17 0.599E-18 -.177E+01   -.665E-02 -.343E-02 -.111E-01
   0.461E+01 0.266E+01 0.808E+03   -.413E+01 -.238E+01 -.807E+03   -.450E+00 -.260E+00 -.953E+00   -.235E-01 -.135E-01 0.786E-01
   -.284E-04 0.325E+01 0.810E+03   0.406E-04 -.336E+01 -.810E+03   0.678E-12 0.103E+00 -.286E+00   0.582E-02 -.362E-01 0.607E-01
   -.461E+01 0.266E+01 0.808E+03   0.413E+01 -.238E+01 -.807E+03   0.450E+00 -.260E+00 -.953E+00   0.225E-01 -.130E-01 0.769E-01
   0.281E+01 -.162E+01 0.810E+03   -.291E+01 0.168E+01 -.810E+03   0.895E-01 -.517E-01 -.286E+00   -.285E-01 0.232E-01 0.607E-01
   -.281E+01 -.162E+01 0.810E+03   0.291E+01 0.168E+01 -.810E+03   -.895E-01 -.517E-01 -.286E+00   0.387E-01 0.226E-01 0.589E-01
   0.157E-04 0.134E+01 0.808E+03   -.108E-03 -.152E+01 -.807E+03   0.793E-12 0.121E+00 -.744E+00   -.107E-02 0.385E-01 0.299E-01
   -.812E-05 -.533E+01 0.808E+03   0.205E-04 0.476E+01 -.807E+03   0.341E-11 0.519E+00 -.953E+00   0.447E-05 0.259E-01 0.769E-01
   0.116E+01 -.669E+00 0.808E+03   -.132E+01 0.761E+00 -.807E+03   0.105E+00 -.604E-01 -.744E+00   0.328E-01 -.202E-01 0.299E-01
   -.116E+01 -.669E+00 0.808E+03   0.132E+01 0.761E+00 -.807E+03   -.105E+00 -.604E-01 -.744E+00   -.329E-01 -.190E-01 0.300E-01
   0.390E-04 -.164E+01 -.894E+03   -.126E-03 0.158E+01 0.893E+03   0.468E-12 0.713E-01 0.646E+00   0.690E-02 -.509E-03 0.213E+00
   -.640E+01 -.370E+01 -.881E+03   0.774E+01 0.447E+01 0.882E+03   -.130E+01 -.752E+00 -.132E+01   -.336E-01 -.194E-01 0.229E+00
   0.640E+01 -.370E+01 -.881E+03   -.774E+01 0.447E+01 0.882E+03   0.130E+01 -.752E+00 -.132E+01   0.213E-01 -.193E-01 0.228E+00
   -.861E+01 0.497E+01 -.886E+03   0.811E+01 -.468E+01 0.886E+03   0.416E+00 -.240E+00 0.408E+00   0.827E-01 -.492E-01 0.187E+00
   -.520E-04 0.740E+01 -.881E+03   0.397E-04 -.894E+01 0.882E+03   0.988E-11 0.150E+01 -.132E+01   -.571E-02 0.287E-01 0.228E+00
   0.861E+01 0.497E+01 -.886E+03   -.811E+01 -.468E+01 0.886E+03   -.416E+00 -.240E+00 0.408E+00   -.813E-01 -.468E-01 0.188E+00
   0.142E+01 0.821E+00 -.894E+03   -.137E+01 -.790E+00 0.893E+03   -.618E-01 -.357E-01 0.646E+00   0.835E-02 0.467E-02 0.213E+00
   -.142E+01 0.821E+00 -.894E+03   0.137E+01 -.790E+00 0.893E+03   0.618E-01 -.357E-01 0.646E+00   0.270E-02 0.611E-02 0.213E+00
   0.200E-04 -.994E+01 -.886E+03   0.110E-03 0.937E+01 0.886E+03   0.316E-11 0.480E+00 0.408E+00   -.189E-02 0.962E-01 0.188E+00
   0.533E-04 -.361E-04 -.250E+04   -.113E-03 0.767E-04 0.250E+04   -.619E-17 -.114E-16 0.184E+01   -.609E-03 -.485E-03 0.410E-01
   -.888E+01 -.143E+02 -.252E+04   0.989E+01 0.159E+02 0.252E+04   -.109E+01 -.166E+01 0.122E+01   0.796E-01 0.709E-01 0.103E+00
   0.888E+01 -.143E+02 -.252E+04   -.989E+01 0.159E+02 0.252E+04   0.109E+01 -.166E+01 0.122E+01   -.707E-01 0.719E-01 0.104E+00
   -.168E+02 -.533E+00 -.252E+04   0.187E+02 0.613E+00 0.252E+04   -.198E+01 -.115E+00 0.122E+01   0.101E+00 0.336E-01 0.103E+00
   0.168E+02 -.533E+00 -.252E+04   -.187E+02 0.613E+00 0.252E+04   0.198E+01 -.115E+00 0.122E+01   -.910E-01 0.350E-01 0.105E+00
   -.796E+01 0.148E+02 -.252E+04   0.882E+01 -.165E+02 0.252E+04   -.890E+00 0.177E+01 0.122E+01   0.273E-01 -.966E-01 0.104E+00
   0.796E+01 0.148E+02 -.252E+04   -.882E+01 -.165E+02 0.252E+04   0.890E+00 0.177E+01 0.122E+01   -.156E-01 -.962E-01 0.105E+00
   0.257E-04 -.139E-04 -.250E+04   0.104E-03 -.647E-04 0.250E+04   0.396E-18 0.208E-17 0.214E+01   -.767E-02 -.400E-02 0.225E+00
   -.247E-04 -.813E-05 -.154E+04   0.677E-04 0.862E-05 0.154E+04   -.158E-17 -.607E-17 0.255E+01   -.206E-03 -.958E-04 0.164E+00
   0.301E-03 -.706E-03 0.330E+01   0.702E-13 -.921E-13 -.387E-11   -.118E-17 0.218E-15 -.721E+01   0.352E-01 0.235E-01 0.397E+01

 POSITION                                       TOTAL-FORCE (eV/Angst)
      0.00000      0.00000      5.28219         0.000000     -0.000000     -0.030800
      2.93046      0.00000      5.28219        -0.006270      0.008845      0.016292
      5.86091      0.00000      5.28219         0.006270      0.008845      0.016292
      1.46523      2.53785      5.28219         0.004525     -0.009852      0.016292
      4.39568      2.53785      5.28219         0.000000      0.000000     -0.009092
      7.32614      2.53785      5.28219        -0.004525     -0.009852      0.016292
      2.93046      5.07570      5.28219         0.010794      0.001007      0.016292
      5.86091      5.07570      5.28219        -0.010794      0.001007      0.016292
      8.79137      5.07570      5.28219        -0.000000     -0.000000      0.001690
      1.46523      0.84595      7.67490         0.016739      0.009665     -0.000171
      4.39568      0.84595      7.67490        -0.000000     -0.052380     -0.086280
      7.32614      0.84595      7.67490        -0.016739      0.009665     -0.000171
      2.93046      3.38380      7.67490        -0.045362      0.026190     -0.086280
      5.86091      3.38380      7.67490         0.045362      0.026190     -0.086280
      8.79137      3.38380      7.67490        -0.000000     -0.024551      0.016402
      4.39568      5.92165      7.67490        -0.000000     -0.019329     -0.000171
      7.32614      5.92165      7.67490        -0.021262      0.012275      0.016402
     10.25659      5.92165      7.67490         0.021262      0.012275      0.016402
      8.79137      1.69725     10.06774         0.000000      0.004551     -0.000409
      2.92950      1.69135     10.02116         0.006285      0.003629      0.008924
      5.86187      1.69135     10.02116        -0.006285      0.003629      0.008924
     10.25061      4.23320     10.05696         0.001961     -0.001132     -0.006678
      4.39568      4.23086     10.02116        -0.000000     -0.007258      0.008924
      7.33212      4.23320     10.05696        -0.001961     -0.001132     -0.006678
     11.71719      6.76492     10.06774        -0.003941     -0.002275     -0.000409
      5.86555      6.76492     10.06774         0.003941     -0.002275     -0.000409
      8.79137      6.76069     10.05696         0.000000      0.002264     -0.006678
      0.00000      0.00000     12.43040         0.000000     -0.000000      0.041136
      2.96174      0.05879     12.46433        -0.006830     -0.003973      0.016527
      5.82963      0.05879     12.46433         0.006830     -0.003973      0.016527
      1.53179      2.53554     12.46433        -0.006856     -0.003928      0.016527
      7.25958      2.53554     12.46433         0.006856     -0.003928      0.016527
      2.96573      5.01921     12.46433        -0.000026      0.007901      0.016527
      5.82563      5.01921     12.46433         0.000026      0.007901      0.016527
      8.79137      5.07570     12.42552         0.000000     -0.000000      0.009435
      4.39568      2.53785     12.19879         0.000000     -0.000000     -0.004646
    total drift:                                0.035455      0.022785      0.056835

  FREE ENERGIE OF THE ION-ELECTRON SYSTEM (eV)
  free  energy   TOTEN  =       -97.10037472 eV

  energy  without entropy=      -97.10037472  energy(sigma->0) =      -97.10037472

 stress matrix after NEB project (eV)
    -10.62004     -0.00000      0.00000
     -0.00000    -10.62004      0.00000
     -0.00000     -0.00000      0.41073
  FORCES: max atom, RMS     0.041136    0.011087
  FORCE total and by dimension    0.066520    0.041136
  Stress total and by dimension   15.024625   10.620044
|           W    W    AA    RRRRR   N    N  II  N    N   GGGG   !!!           |
|           W    W   A  A   R    R  NN   N  II  NN   N  G    G  !!!           |
|           W    W  A    A  R    R  N N  N  II  N N  N  G       !!!           |
|           W WW W  AAAAAA  RRRRR   N  N N  II  N  N N  G  GGG   !            |
|           WW  WW  A    A  R   R   N   NN  II  N   NN  G    G                |
|           W    W  A    A  R    R  N    N  II  N    N   GGGG   !!!           |
|     Tetrahedron method does not include variations of the Fermi             |
|     occupations, so forces and stress will be inaccurate. We suggest        |
|     using a different smearing scheme ISMEAR = 1 or 2 for metals in         |
|     relaxations.                                                            |

 total charge

# of ion       s       p       d       tot
    1        0.419   0.201   9.177   9.797
    2        0.416   0.203   9.178   9.797
    3        0.416   0.203   9.178   9.797
    4        0.416   0.203   9.178   9.797
    5        0.417   0.203   9.176   9.796
    6        0.416   0.203   9.178   9.797
    7        0.416   0.203   9.178   9.797
    8        0.416   0.203   9.178   9.797
    9        0.417   0.201   9.178   9.796
   10        0.409   0.270   9.160   9.840
   11        0.407   0.268   9.170   9.845
   12        0.409   0.270   9.160   9.840
   13        0.407   0.268   9.170   9.845
   14        0.407   0.268   9.170   9.845
   15        0.405   0.267   9.166   9.839
   16        0.409   0.270   9.160   9.840
   17        0.405   0.267   9.166   9.839
   18        0.405   0.267   9.166   9.839
   19        0.399   0.265   9.167   9.831
   20        0.430   0.311   9.136   9.878
   21        0.430   0.311   9.136   9.878
   22        0.394   0.271   9.170   9.835
   23        0.430   0.311   9.136   9.878
   24        0.394   0.271   9.170   9.835
   25        0.399   0.265   9.167   9.831
   26        0.399   0.265   9.167   9.831
   27        0.394   0.271   9.170   9.835
   28        0.410   0.197   9.178   9.785
   29        0.429   0.221   9.156   9.806
   30        0.429   0.221   9.156   9.806
   31        0.429   0.221   9.156   9.806
   32        0.429   0.221   9.156   9.806
   33        0.429   0.221   9.156   9.806
   34        0.429   0.221   9.156   9.806
   35        0.400   0.200   9.180   9.779
   36        0.522   0.248   4.696   5.466
tot         14.996   8.750 325.488 349.233

 BZINTS: Fermi energy:    0.786567;  392.000000 electrons
         Band energy:-0.127317E+04;  BLOECHL correction:   -0.026070