 vasp.6.2.0 18Jan21 (build Jun 12 2021 23:27:24) complex

 executed on             LinuxIFC date 2022.05.27  05:20:52

 INCAR:
   ISMEAR = -5
   SIGMA = 0.1
   ISPIN = 1
   EDIFF = 1.d-5
   EDIFFG = -0.01
   NSW = 0
   NELM = 150
   ENCUT = 500
   ISIF = 2
   IBRION = 2
   LREAL = Auto
   ALGO = Fast
   ICHARG = 11
   LORBIT = 10
   LCHARG = .F.
   LWAVE = .F.

 POTCAR:    PAW_PBE Au 04Oct2007
 POTCAR:    PAW_PBE Re 17Jan2003
 POTCAR:    PAW_PBE H 15Jun2001
|           W    W    AA    RRRRR   N    N  II  N    N   GGGG   !!!           |
|           W    W   A  A   R    R  NN   N  II  NN   N  G    G  !!!           |
|           W    W  A    A  R    R  N N  N  II  N N  N  G       !!!           |
|           W WW W  AAAAAA  RRRRR   N  N N  II  N  N N  G  GGG   !            |
|           WW  WW  A    A  R   R   N   NN  II  N   NN  G    G                |
|           W    W  A    A  R    R  N    N  II  N    N   GGGG   !!!           |
|     For optimal performance we recommend to set                             |
|       NCORE = 2 up to number-of-cores-per-socket                            |
|     This setting can greatly improve the performance of VASP for DFT.       |
|     The default, NCORE=1 might be grossly inefficient on modern             |
|     multi-core architectures or massively parallel machines. Do your        |
|     Unfortunately you need to use the default for GW and RPA                |
|     calculations (for HF NCORE is supported but not extensively tested      |
|     yet).                                                                   |

 POTCAR:    PAW_PBE Au 04Oct2007
   VRHFIN =Au: s1d10

   TITEL  = PAW_PBE Au 04Oct2007
   POMASS =  196.966; ZVAL   =   11.000    mass and valenz
   ENMAX  =  229.943; ENMIN  =  172.457 eV

 POTCAR:    PAW_PBE Re 17Jan2003
   VRHFIN =Re: 5p6s5d

   TITEL  = PAW_PBE Re 17Jan2003
   POMASS =  186.207; ZVAL   =    7.000    mass and valenz
   ENMAX  =  226.216; ENMIN  =  169.662 eV

 POTCAR:    PAW_PBE H 15Jun2001
   VRHFIN =H: ultrasoft test

   TITEL  = PAW_PBE H 15Jun2001
   POMASS =    1.000; ZVAL   =    1.000    mass and valenz
   ENMAX  =  250.000; ENMIN  =  200.000 eV

 Optimization of the real space projectors (new method)

 maximal supplied QI-value         = 15.12
 optimisation between [QCUT,QGAM] = [ 11.34, 22.83] = [ 36.00,145.93] Ry
 Optimized for a Real-space Cutoff    1.39 Angstroem

   l    n(q)    QCUT    max X(q) W(low)/X(q) W(high)/X(q)  e(spline)
   2      9    11.338    60.898    0.39E-03    0.42E-03    0.21E-06
   2      9    11.338    58.894    0.40E-03    0.42E-03    0.22E-06
   0      9    11.338   109.617    0.13E-03    0.20E-04    0.13E-06
   0      9    11.338    75.026    0.13E-03    0.20E-04    0.13E-06
   1      9    11.338    16.344    0.33E-04    0.24E-03    0.18E-06
   1      9    11.338    10.160    0.26E-04    0.19E-03    0.15E-06
 Optimization of the real space projectors (new method)

[...]

   l    n(q)    QCUT    max X(q) W(low)/X(q) W(high)/X(q)  e(spline)
   2     10    11.327   884.633    0.22E-03    0.51E-03    0.88E-06
   2     10    11.327   796.723    0.22E-03    0.51E-03    0.88E-06
   0     11    11.327    65.348    0.44E-04    0.11E-03    0.75E-06
   0     11    11.327    39.642    0.40E-04    0.10E-03    0.69E-06
   1     10    11.327    13.988    0.15E-03    0.10E-03    0.19E-06
   1     10    11.327     8.682    0.11E-03    0.76E-04    0.14E-06
 Optimization of the real space projectors (new method)

 maximal supplied QI-value         = 34.20
 optimisation between [QCUT,QGAM] = [ 11.29, 22.57] = [ 35.68,142.71] Ry
 Optimized for a Real-space Cutoff    1.16 Angstroem

   l    n(q)    QCUT    max X(q) W(low)/X(q) W(high)/X(q)  e(spline)
   0      8    11.287    19.460    0.40E-03    0.73E-03    0.16E-06
   0      8    11.287    12.209    0.38E-03    0.70E-03    0.15E-06
   1      7    11.287     4.655    0.22E-03    0.25E-04    0.22E-06
  PAW_PBE Au 04Oct2007                  :
  PAW_PBE Re 17Jan2003                  :
  PAW_PBE H 15Jun2001                   :

 POSCAR: Au-Re-H2
  positions in direct lattice
  velocities in cartesian coordinates
 exchange correlation table for  LEXCH =        8
   RHO(1)=    0.500       N(1)  =     2000
   RHO(2)=  100.500       N(2)  =     4000

 VTST: version 3.2, (02/03/18)

 CHAIN: initializing optimizer

 OPT: Using VASP Conjugate-Gradient optimizer
 CHAIN: Read ICHAIN            0

 POSCAR: Au-Re-H2
  positions in direct lattice
  velocities in cartesian coordinates

 ion  position               nearest neighbor table
   1  0.000  0.000  0.238-  16 2.94  12 2.94   6 2.94   8 2.94   7 2.94   3 2.94  10 2.94   4 2.94
                             2 2.94
   2  0.333  0.000  0.238-   9 2.94  11 2.94  17 2.94  10 2.94   8 2.94   4 2.94   5 2.94   1 2.94
                             3 2.94
   3  0.667  0.000  0.238-   7 2.94  18 2.94  12 2.94   1 2.94  11 2.94   5 2.94   6 2.94   9 2.94
                             2 2.94
   4  0.000  0.333  0.238-  10 2.94   6 2.94   5 2.94  13 2.94   2 2.94  15 2.94   9 2.94   1 2.94
                             7 2.94
   5  0.333  0.333  0.238-  13 2.94   7 2.94  11 2.94   4 2.94   2 2.94  14 2.94   3 2.94   8 2.94
                             6 2.94
   6  0.667  0.333  0.238-  15 2.94  14 2.94   1 2.94  12 2.94   4 2.94   9 2.94   8 2.94   3 2.94
                             5 2.94
   7  0.000  0.667  0.238-  18 2.94   3 2.94  16 2.94   5 2.94   1 2.94  13 2.94   8 2.94   4 2.94
                             9 2.94
   8  0.333  0.667  0.238-   9 2.94  17 2.94   1 2.94   2 2.94  14 2.94  16 2.94   6 2.94   7 2.94
                             5 2.94
   9  0.667  0.667  0.238-   2 2.94   8 2.94  17 2.94   6 2.94  15 2.94   4 2.94   3 2.94  18 2.94
                             7 2.94
  10  0.111  0.111  0.346-  20 2.90  11 2.94  17 2.94   2 2.94   4 2.94   1 2.94  12 2.94  16 2.94
                            13 2.94  15 2.94  26 2.96  19 2.96
  11  0.444  0.111  0.346-  20 2.91  21 2.91  13 2.94   2 2.94  10 2.94  17 2.94   5 2.94   3 2.94
                            18 2.94  14 2.94  12 2.94  27 2.94
  12  0.778  0.111  0.346-  21 2.90  16 2.94  18 2.94   1 2.94  14 2.94  15 2.94   3 2.94   6 2.94
                            10 2.94  11 2.94  25 2.96  19 2.96
  13  0.111  0.444  0.346-  23 2.91  20 2.91   5 2.94  18 2.94  11 2.94   7 2.94   4 2.94  16 2.94
                            10 2.94  14 2.94  15 2.94  22 2.94
  14  0.444  0.444  0.346-  21 2.91  23 2.91  15 2.94   6 2.94  12 2.94   8 2.94  17 2.94   5 2.94
                            16 2.94  13 2.94  11 2.94  24 2.94
  15  0.778  0.444  0.346-  24 2.92  22 2.92  14 2.94   6 2.94  17 2.94  12 2.94   9 2.94   4 2.94
                            10 2.94  13 2.94  18 2.94  19 2.95
  16  0.111  0.778  0.346-  23 2.90  18 2.94  12 2.94   7 2.94   1 2.94   8 2.94  13 2.94  10 2.94
                            14 2.94  17 2.94  25 2.96  26 2.96
  17  0.444  0.778  0.346-  27 2.92  24 2.92   9 2.94  15 2.94   2 2.94  10 2.94  11 2.94   8 2.94
                            14 2.94  16 2.94  18 2.94  26 2.95
  18  0.778  0.778  0.346-  22 2.92  27 2.92  16 2.94   7 2.94  13 2.94  12 2.94   3 2.94  11 2.94
                             9 2.94  15 2.94  17 2.94  25 2.95
  19  0.888  0.224  0.455-  24 2.93  22 2.93  21 2.93  20 2.93  28 2.94  15 2.95  26 2.96  25 2.96
                            10 2.96  12 2.96  32 3.02  31 3.02
  20  0.222  0.222  0.452-  36 2.75  10 2.90  11 2.91  13 2.91  26 2.93  19 2.93  23 2.95  21 2.95
                            27 2.96  22 2.96  29 2.97  31 2.97
  21  0.556  0.222  0.452-  36 2.75  12 2.90  14 2.91  11 2.91  25 2.93  19 2.93  20 2.95  23 2.95
                            27 2.96  24 2.96  30 2.97  32 2.97
  22  0.886  0.557  0.454-  24 2.90  27 2.90  18 2.92  15 2.92  25 2.93  19 2.93  13 2.94  35 2.95
                            23 2.96  20 2.96  33 3.00  31 3.00
  23  0.222  0.556  0.452-  36 2.75  16 2.90  13 2.91  14 2.91  25 2.93  26 2.93  20 2.95  21 2.95
                            22 2.96  24 2.96  33 2.97  34 2.97
  24  0.557  0.557  0.454-  27 2.90  22 2.90  15 2.92  17 2.92  26 2.93  19 2.93  14 2.94  35 2.95
                            21 2.96  23 2.96  32 3.00  34 3.00
  25  0.888  0.888  0.455-  22 2.93  27 2.93  23 2.93  21 2.93  28 2.94  18 2.95  19 2.96  26 2.96
                            16 2.96  12 2.96  33 3.02  30 3.02
  26  0.224  0.888  0.455-  27 2.93  24 2.93  20 2.93  23 2.93  28 2.94  17 2.95  19 2.96  25 2.96
                            10 2.96  16 2.96  29 3.02  34 3.02
  27  0.557  0.886  0.454-  24 2.90  22 2.90  17 2.92  18 2.92  26 2.93  25 2.93  11 2.94  35 2.95
                            20 2.96  21 2.96  29 3.00  30 3.00
  28  0.000  0.000  0.563-  25 2.94  19 2.94  26 2.94  34 2.99  32 2.99  33 2.99  30 2.99  31 2.99
                            29 2.99
  29  0.333  0.011  0.565-  30 2.84  31 2.84  36 2.86  20 2.97  35 2.99  28 2.99  27 3.00  26 3.02
                            34 3.14
  30  0.655  0.011  0.565-  29 2.84  32 2.84  36 2.86  21 2.97  35 2.99  28 2.99  27 3.00  25 3.02
                            33 3.14
  31  0.011  0.333  0.565-  33 2.84  29 2.84  36 2.86  20 2.97  35 2.99  28 2.99  22 3.00  19 3.02
                            32 3.14
  32  0.655  0.333  0.565-  34 2.84  30 2.84  36 2.86  21 2.97  35 2.99  28 2.99  24 3.00  19 3.02
                            31 3.14
  33  0.011  0.655  0.565-  31 2.84  34 2.84  36 2.86  23 2.97  35 2.99  28 2.99  22 3.00  25 3.02
                            30 3.14
  34  0.333  0.655  0.565-  32 2.84  33 2.84  36 2.86  23 2.97  35 2.99  28 2.99  24 3.00  26 3.02
                            29 3.14
  35  0.667  0.667  0.563-  24 2.95  27 2.95  22 2.95  29 2.99  34 2.99  32 2.99  31 2.99  30 2.99
                            33 2.99
  36  0.333  0.333  0.550-  38 1.71  37 1.71  20 2.75  23 2.75  21 2.75  33 2.86  31 2.86  29 2.86
                            30 2.86  34 2.86  32 2.86
  37  0.278  0.326  0.623-  36 1.71
  38  0.396  0.326  0.623-  36 1.71

  LATTYP: Found a hexagonal cell.
 ALAT       =     8.8135128021
 C/A-ratio  =     2.5184286595

  Lattice vectors:

 A1 = (  -4.4067569092,  -7.6327256898,   0.0000000000)
 A2 = (   8.8135128021,   0.0000000000,   0.0000000000)
 A3 = (   0.0000000000,   0.0000000000,  22.1962032318)

Analysis of symmetry for initial positions (statically):
 Subroutine PRICEL returns:
 Original cell was already a primitive cell.

 Routine SETGRP: Setting up the symmetry group for a
 hexagonal supercell.

 Subroutine GETGRP returns: Found  2 space group operations
 (whereof  2 operations were pure point group operations)
 out of a pool of 24 trial point group operations.

The static configuration has the point symmetry C_1h.

Analysis of symmetry for dynamics (positions and initial velocities):
 Subroutine PRICEL returns:
 Original cell was already a primitive cell.

[...]

The dynamic configuration has the point symmetry C_1h.

Analysis of constrained symmetry for selective dynamics:
 Subroutine PRICEL returns:
 Original cell was already a primitive cell.

 Routine SETGRP: Setting up the symmetry group for a
 hexagonal supercell.

 Subroutine GETGRP returns: Found  2 space group operations
[...]
     33      -4.6699      2.00000
     34      -4.6647      2.00000
     35      -4.6486      2.00000
     36      -4.5882      2.00000
     37      -4.5851      2.00000
     38      -4.4616      2.00000
     39      -4.4432      2.00000
     40      -4.3891      2.00000
     41      -4.3326      2.00000
     42      -4.3102      2.00000
     43      -4.2810      2.00000
     44      -4.2613      2.00000
     45      -4.2246      2.00000
     46      -4.2092      2.00000
     47      -4.1137      2.00000
     48      -4.0861      2.00000
     49      -4.0648      2.00000
     50      -4.0465      2.00000
     51      -4.0331      2.00000
     52      -4.0241      2.00000
     53      -4.0143      2.00000
     54      -3.9935      2.00000
     55      -3.9472      2.00000
     56      -3.9139      2.00000
     57      -3.9078      2.00000
     58      -3.8799      2.00000
     59      -3.8793      2.00000
     60      -3.8552      2.00000
[...]
    238       6.6566      0.00000
    239       6.7160      0.00000
    240       6.8156      0.00000
    241       6.8960      0.00000
    242       6.9096      0.00000
    243       6.9849      0.00000
    244       7.2108      0.00000
    245       7.3012      0.00000
    246       7.4810      0.00000
    247       7.5403      0.00000
    248       7.5797      0.00000
    249       7.6760      0.00000
    250       7.6866      0.00000
    251       7.9382      0.00000
    252       7.9677      0.00000

 soft charge-density along one line, spin component           1
         0         1         2         3         4         5         6         7         8         9
 total charge-density along one line

------------------------ aborting loop because EDIFF is reached ----------------------------------------

 total charge

# of ion       s       p       d       tot
    1        0.546   0.238   8.768   9.551
    2        0.545   0.241   8.764   9.549
    3        0.545   0.241   8.764   9.549
    4        0.546   0.241   8.764   9.550
    5        0.545   0.242   8.759   9.545
    6        0.546   0.241   8.764   9.550
    7        0.545   0.241   8.764   9.551
    8        0.545   0.241   8.764   9.551
    9        0.542   0.239   8.770   9.551
   10        0.523   0.307   8.766   9.596
   11        0.525   0.305   8.782   9.613
   12        0.523   0.307   8.766   9.596
   13        0.525   0.307   8.781   9.612
   14        0.525   0.307   8.781   9.612
   15        0.514   0.308   8.776   9.598
   16        0.527   0.307   8.763   9.598
   17        0.514   0.308   8.776   9.598
   18        0.514   0.308   8.776   9.598
   19        0.515   0.295   8.772   9.582
   20        0.558   0.339   8.742   9.639
   21        0.558   0.339   8.742   9.639
   22        0.505   0.307   8.777   9.590
   23        0.565   0.342   8.736   9.642
   24        0.505   0.307   8.777   9.590
   25        0.517   0.294   8.773   9.584
   26        0.517   0.294   8.773   9.584
   27        0.505   0.306   8.779   9.590
   28        0.538   0.225   8.761   9.525
   29        0.564   0.252   8.743   9.558
   30        0.564   0.252   8.743   9.558
   31        0.558   0.256   8.740   9.554
   32        0.558   0.256   8.740   9.554
   33        0.566   0.252   8.740   9.557
   34        0.566   0.252   8.740   9.557
   35        0.534   0.226   8.761   9.521
   36        0.508   0.481   4.768   5.757
   37        0.513   0.030   0.000   0.543
   38        0.513   0.030   0.000   0.543
tot         20.320  10.263 311.453 342.036

  FORCE on cell =-STRESS in cart. coord.  units (eV):
  Direction    XX          YY          ZZ          XY          YZ          ZX
  Alpha Z  1014.92277  1014.92277  1014.92277
  Ewald  118057.58782118038.22516************    -0.00032    -0.52517    -0.00016
  Hartree126610.95653126607.14923************     0.00000     0.60578    -0.00004
  E(xc)   -1764.76248 -1764.92064 -1773.36281     0.00000     0.04096     0.00000
  Local  ************************257152.76169     0.00181    -0.41150     0.00012
  n-local   -77.71305   -77.11984   -49.78095     5.25665     0.57742     0.19361
  augment  2372.77018  2372.60137  2393.35069    -0.00129    -0.08886     0.00006
  Kinetic  5454.81880  5458.22040  5515.95022     2.00930     0.09313     0.19812
  Fock        0.00000     0.00000     0.00000     0.00000     0.00000     0.00000
  Total     -22.59438   -22.61966     3.26050    -0.00000     0.29175     0.00000
  in kB     -24.24396   -24.27109     3.49854    -0.00000     0.31306     0.00000

 VOLUME and BASIS-vectors are now :
  energy-cutoff  :      500.00
  volume of cell :     1493.16
      direct lattice vectors                 reciprocal lattice vectors
     8.813512802  0.000000000  0.000000000     0.113462137 -0.065507406  0.000000000
     4.406756909  7.632725690  0.000000000     0.000000000  0.131014796  0.000000000
     0.000000000  0.000000000 22.196203232     0.000000000  0.000000000  0.045052750

  length of vectors
     8.813512802  8.813512802 22.196203232     0.131014796  0.131014796  0.045052750

 FORCES acting on ions
    electron-ion (+dipol)            ewald-force                    non-local-force                 convergence-correction
   -.198E-04 -.340E-01 0.247E+04   0.520E-04 -.478E-02 -.247E+04   0.155E-08 0.232E-01 -.102E+01   -.160E-03 0.132E-01 -.146E+00
   0.645E+00 0.118E+00 0.247E+04   -.754E+00 -.249E+00 -.247E+04   0.778E-01 0.913E-01 -.221E+00   0.301E-01 0.533E-01 -.213E+00
   -.645E+00 0.118E+00 0.247E+04   0.754E+00 -.249E+00 -.247E+04   -.778E-01 0.913E-01 -.221E+00   -.299E-01 0.552E-01 -.213E+00
   0.469E+00 0.546E+00 0.247E+04   -.589E+00 -.528E+00 -.247E+04   0.895E-01 0.483E-02 -.241E+00   0.489E-01 -.268E-01 -.208E+00
   0.723E-05 0.973E-02 0.247E+04   0.951E-04 0.363E-02 -.247E+04   0.132E-08 0.199E-01 -.628E-01   0.418E-02 -.272E-01 -.243E+00
   -.469E+00 0.546E+00 0.247E+04   0.589E+00 -.528E+00 -.247E+04   -.895E-01 0.483E-02 -.241E+00   -.503E-01 -.258E-01 -.207E+00
   -.230E+00 -.663E+00 0.247E+04   0.166E+00 0.777E+00 -.247E+04   0.583E-01 -.974E-01 -.194E+00   0.140E-01 -.241E-01 -.224E+00
   0.230E+00 -.663E+00 0.247E+04   -.166E+00 0.777E+00 -.247E+04   -.583E-01 -.974E-01 -.194E+00   -.122E-01 -.251E-01 -.224E+00
   0.197E-04 0.598E-02 0.247E+04   0.166E-03 0.128E-02 -.247E+04   -.128E-08 -.192E-01 -.651E+00   -.457E-02 0.127E-01 -.222E+00
   0.760E+01 0.439E+01 0.805E+03   -.714E+01 -.414E+01 -.805E+03   -.422E+00 -.217E+00 -.749E+00   -.386E-01 -.334E-01 0.186E+00
   0.148E-04 0.367E+01 0.812E+03   0.148E-03 -.379E+01 -.812E+03   0.656E-08 0.986E-01 -.217E+00   0.354E-02 -.656E-01 0.170E+00
   -.760E+01 0.439E+01 0.805E+03   0.714E+01 -.414E+01 -.805E+03   0.422E+00 -.217E+00 -.749E+00   0.377E-01 -.327E-01 0.184E+00
   0.319E+01 -.178E+01 0.812E+03   -.326E+01 0.192E+01 -.812E+03   0.786E-01 -.781E-01 -.250E+00   -.592E-01 -.193E-01 0.164E+00
   -.319E+01 -.178E+01 0.812E+03   0.326E+01 0.192E+01 -.812E+03   -.786E-01 -.781E-01 -.250E+00   0.662E-01 -.199E-01 0.162E+00
   0.313E-04 0.532E+01 0.810E+03   0.236E-03 -.540E+01 -.810E+03   0.232E-08 0.348E-01 -.499E+00   -.170E-02 -.227E-01 0.248E+00
   -.213E-04 -.894E+01 0.805E+03   0.163E-03 0.822E+01 -.805E+03   0.376E-07 0.565E+00 -.788E+00   -.177E-03 0.131E+00 0.168E+00
   0.461E+01 -.268E+01 0.810E+03   -.471E+01 0.270E+01 -.810E+03   0.275E-01 -.335E-01 -.517E+00   0.863E-02 0.385E-01 0.227E+00
   -.461E+01 -.268E+01 0.810E+03   0.471E+01 0.270E+01 -.810E+03   -.275E-01 -.335E-01 -.517E+00   -.843E-02 0.397E-01 0.227E+00
   -.436E-04 0.317E+01 -.884E+03   0.549E-04 -.328E+01 0.883E+03   0.404E-09 0.606E-02 0.604E+00   0.511E-02 0.833E-01 0.583E+00
   0.349E+01 0.199E+01 -.845E+03   -.254E+01 -.149E+01 0.845E+03   -.111E+01 -.627E+00 -.117E+01   0.984E-01 0.297E-01 0.919E+00
   -.349E+01 0.199E+01 -.845E+03   0.254E+01 -.149E+01 0.845E+03   0.111E+01 -.627E+00 -.117E+01   -.106E+00 0.303E-01 0.919E+00
   -.949E+01 0.533E+01 -.865E+03   0.902E+01 -.501E+01 0.864E+03   0.527E+00 -.314E+00 0.667E+00   -.459E-02 -.292E-01 0.686E+00
   -.104E-04 -.441E+01 -.846E+03   0.139E-03 0.314E+01 0.846E+03   0.982E-07 0.147E+01 -.146E+01   -.371E-02 -.148E+00 0.937E+00
   0.949E+01 0.533E+01 -.865E+03   -.902E+01 -.501E+01 0.864E+03   -.527E+00 -.314E+00 0.667E+00   0.570E-02 -.274E-01 0.686E+00
   -.277E+01 -.143E+01 -.885E+03   0.287E+01 0.144E+01 0.884E+03   -.462E-02 0.816E-02 0.534E+00   -.839E-01 0.145E-02 0.581E+00
   0.277E+01 -.143E+01 -.885E+03   -.287E+01 0.144E+01 0.884E+03   0.462E-02 0.816E-02 0.534E+00   0.912E-01 0.341E-02 0.582E+00
   0.113E-04 -.109E+02 -.865E+03   0.198E-03 0.102E+02 0.864E+03   0.449E-07 0.675E+00 0.633E+00   -.154E-02 0.530E-01 0.673E+00
   -.118E-04 0.802E+00 -.246E+04   0.286E-04 -.784E+00 0.246E+04   -.480E-08 -.722E-01 0.595E+00   0.160E-02 0.334E-01 0.441E+00
   0.120E+02 0.214E+02 -.247E+04   -.111E+02 -.204E+02 0.247E+04   -.108E+01 -.145E+01 0.917E-01   0.179E+00 0.273E+00 0.322E+00
   -.120E+02 0.214E+02 -.247E+04   0.111E+02 -.204E+02 0.247E+04   0.108E+01 -.145E+01 0.917E-01   -.186E+00 0.274E+00 0.323E+00
   0.252E+02 -.160E+00 -.247E+04   -.242E+02 0.288E+00 0.247E+04   -.159E+01 -.131E+00 0.342E+00   0.317E+00 0.223E-01 0.323E+00
   -.252E+02 -.160E+00 -.247E+04   0.242E+02 0.288E+00 0.247E+04   0.159E+01 -.131E+00 0.342E+00   -.323E+00 0.236E-01 0.324E+00
   0.102E+02 -.204E+02 -.247E+04   -.949E+01 0.192E+02 0.247E+04   -.862E+00 0.158E+01 0.683E-02   0.113E+00 -.312E+00 0.358E+00
   -.102E+02 -.204E+02 -.247E+04   0.949E+01 0.192E+02 0.247E+04   0.862E+00 0.158E+01 0.683E-02   -.117E+00 -.312E+00 0.358E+00
   0.336E-04 -.333E+00 -.246E+04   0.142E-03 0.291E+00 0.246E+04   0.437E-08 0.656E-01 0.656E+00   -.321E-02 -.251E-01 0.327E+00
   -.190E-04 -.214E+01 -.143E+04   0.738E-04 0.218E+01 0.143E+04   0.101E-07 0.152E+00 -.279E+00   0.123E-02 -.114E-01 0.323E+00
   0.107E+02 -.107E+00 -.274E+03   -.127E+02 0.392E-01 0.276E+03   0.199E+01 0.639E-01 -.187E+01   0.842E-02 0.281E-02 -.648E-01
   -.107E+02 -.107E+00 -.274E+03   0.127E+02 0.392E-01 0.276E+03   -.199E+01 0.639E-01 -.187E+01   -.820E-02 0.282E-02 -.649E-01
   -.798E-03 -.632E+00 0.809E+00   -.142E-13 -.239E-12 0.157E-10   0.427E-07 0.641E+00 -.962E+01   -.934E-02 -.112E-01 0.937E+01

 POSITION                                       TOTAL-FORCE (eV/Angst)
      0.00000      0.00000      5.28038        -0.000000     -0.002410     -0.155394
      2.93784      0.00000      5.28038        -0.001118      0.014006     -0.083592
      5.87568      0.00000      5.28038         0.001118      0.014006     -0.083592
      1.46892      2.54424      5.28038         0.018960     -0.003130     -0.084757
      4.40676      2.54424      5.28038         0.000000      0.006099     -0.136940
      7.34459      2.54424      5.28038        -0.018960     -0.003130     -0.084757
      2.93784      5.08848      5.28038         0.006664     -0.008474     -0.087206
      5.87568      5.08848      5.28038        -0.006664     -0.008474     -0.087206
      8.81351      5.08848      5.28038         0.000000      0.000782     -0.099266
      1.46892      0.84808      7.67911        -0.002503      0.002778      0.166121
      4.40676      0.84808      7.67911        -0.000000     -0.085480      0.021419
      7.34459      0.84808      7.67911         0.002503      0.002778      0.166121
      2.93784      3.39232      7.67911        -0.057125      0.039870      0.040158
      5.87568      3.39232      7.67911         0.057125      0.039870      0.040158
      8.81351      3.39232      7.67911        -0.000000     -0.066261      0.116608
      4.40676      5.93656      7.67911        -0.000000     -0.018592      0.173082
      7.34459      5.93656      7.67911        -0.056226      0.033864      0.120213
     10.28243      5.93656      7.67911         0.056226      0.033864      0.120213
      8.81351      1.70659     10.09931        -0.000000     -0.026476      0.020546
      2.93410      1.69400     10.03753        -0.060460     -0.089471     -0.225550
      5.87941      1.69400     10.03753         0.060460     -0.089471     -0.225550
     10.26439      4.25082     10.06692         0.050142     -0.022030     -0.002972
      4.40676      4.24472     10.03753         0.000000      0.051123     -0.164080
      7.36264      4.25082     10.06692        -0.050142     -0.022030     -0.002972
     11.74232      6.77943     10.09931         0.007366      0.015041      0.009682
      5.88471      6.77943     10.09931        -0.007366      0.015041      0.009682
      8.81351      6.76381     10.06692         0.000000      0.045447     -0.005560
      0.00000      0.00000     12.49835        -0.000000     -0.020052     -0.064278
      2.98825      0.08685     12.53577        -0.048763     -0.169730     -0.078461
      5.82526      0.08685     12.53577         0.048763     -0.169730     -0.078461
      1.56934      2.54447     12.53577        -0.175278      0.020285     -0.061801
      7.24417      2.54447     12.53577         0.175278      0.020285     -0.061801
      2.98785      5.00140     12.53577        -0.051418      0.131524     -0.052318
      5.82567      5.00140     12.53577         0.051418      0.131524     -0.052318
      8.81351      5.08848     12.49628        -0.000000     -0.000687     -0.003691
      4.40676      2.54424     12.20474         0.000000      0.189127      0.947689
      3.88466      2.48759     13.83631         0.029275     -0.000842      0.015416
      4.92885      2.48759     13.83631        -0.029275     -0.000842      0.015416
    total drift:                               -0.010141     -0.001675      0.563332

  FREE ENERGIE OF THE ION-ELECTRON SYSTEM (eV)
  free  energy   TOTEN  =      -123.78353380 eV

  energy  without entropy=     -123.78353380  energy(sigma->0) =     -123.78353380

 stress matrix after NEB project (eV)
    -22.59438     -0.00000      0.00000
     -0.00000    -22.61966      0.29175
      0.00000      0.29175      3.26050
  FORCES: max atom, RMS     0.033096    0.007593
  FORCE total and by dimension    0.046805    0.029275
  Stress total and by dimension   32.139633   22.619657
|           W    W    AA    RRRRR   N    N  II  N    N   GGGG   !!!           |
|           W    W   A  A   R    R  NN   N  II  NN   N  G    G  !!!           |
|           W    W  A    A  R    R  N N  N  II  N N  N  G       !!!           |
|           W WW W  AAAAAA  RRRRR   N  N N  II  N  N N  G  GGG   !            |
|           WW  WW  A    A  R   R   N   NN  II  N   NN  G    G                |
|           W    W  A    A  R    R  N    N  II  N    N   GGGG   !!!           |
|     Tetrahedron method does not include variations of the Fermi             |
|     occupations, so forces and stress will be inaccurate. We suggest        |
|     using a different smearing scheme ISMEAR = 1 or 2 for metals in         |
|     relaxations.                                                            |

 total charge

# of ion       s       p       d       tot
    1        0.546   0.238   8.768   9.551
    2        0.545   0.241   8.764   9.549
    3        0.545   0.241   8.764   9.549
    4        0.546   0.241   8.764   9.550
    5        0.545   0.242   8.759   9.545
    6        0.546   0.241   8.764   9.550
    7        0.545   0.241   8.764   9.551
    8        0.545   0.241   8.764   9.551
    9        0.542   0.239   8.770   9.551
   10        0.523   0.307   8.766   9.596
   11        0.525   0.305   8.782   9.613
   12        0.523   0.307   8.766   9.596
   13        0.525   0.307   8.781   9.612
   14        0.525   0.307   8.781   9.612
   15        0.514   0.308   8.776   9.598
   16        0.527   0.307   8.763   9.598
   17        0.514   0.308   8.776   9.598
   18        0.514   0.308   8.776   9.598
   19        0.515   0.295   8.772   9.582
   20        0.558   0.339   8.742   9.639
   21        0.558   0.339   8.742   9.639
   22        0.505   0.307   8.777   9.590
   23        0.565   0.342   8.736   9.642
   24        0.505   0.307   8.777   9.590
   25        0.517   0.294   8.773   9.584
   26        0.517   0.294   8.773   9.584
   27        0.505   0.306   8.779   9.590
   28        0.538   0.225   8.761   9.525
   29        0.564   0.252   8.743   9.558
   30        0.564   0.252   8.743   9.558
   31        0.558   0.256   8.740   9.554
   32        0.558   0.256   8.740   9.554
   33        0.566   0.252   8.740   9.557
   34        0.566   0.252   8.740   9.557
   35        0.534   0.226   8.761   9.521
   36        0.508   0.481   4.768   5.757
   37        0.513   0.030   0.000   0.543
   38        0.513   0.030   0.000   0.543
tot         20.320  10.263 311.453 342.036

 BZINTS: Fermi energy:    0.757097;  394.000000 electrons
         Band energy:-0.117170E+04;  BLOECHL correction:   -0.053809