 vasp.6.2.0 18Jan21 (build Jun 12 2021 23:27:24) complex

 executed on             LinuxIFC date 2022.05.27  05:20:53

 INCAR:
   ISMEAR = -5
   SIGMA = 0.1
   ISPIN = 1
   EDIFF = 1.d-5
   EDIFFG = -0.01
   NSW = 0
   NELM = 150
   ENCUT = 500
   ISIF = 2
   IBRION = 2
   LREAL = Auto
   ALGO = Fast
   ICHARG = 11
   LORBIT = 10
   LCHARG = .F.
   LWAVE = .F.

 POTCAR:    PAW_PBE Au 04Oct2007
 POTCAR:    PAW_PBE Re 17Jan2003
 POTCAR:    PAW_PBE N 08Apr2002
|           W    W    AA    RRRRR   N    N  II  N    N   GGGG   !!!           |
|           W    W   A  A   R    R  NN   N  II  NN   N  G    G  !!!           |
|           W    W  A    A  R    R  N N  N  II  N N  N  G       !!!           |
|           W WW W  AAAAAA  RRRRR   N  N N  II  N  N N  G  GGG   !            |
|           WW  WW  A    A  R   R   N   NN  II  N   NN  G    G                |
|           W    W  A    A  R    R  N    N  II  N    N   GGGG   !!!           |
|     For optimal performance we recommend to set                             |
|       NCORE = 2 up to number-of-cores-per-socket                            |
|     This setting can greatly improve the performance of VASP for DFT.       |
|     The default, NCORE=1 might be grossly inefficient on modern             |
|     multi-core architectures or massively parallel machines. Do your        |
|     Unfortunately you need to use the default for GW and RPA                |
|     calculations (for HF NCORE is supported but not extensively tested      |
|     yet).                                                                   |

 POTCAR:    PAW_PBE Au 04Oct2007
   VRHFIN =Au: s1d10

   TITEL  = PAW_PBE Au 04Oct2007
   POMASS =  196.966; ZVAL   =   11.000    mass and valenz
   ENMAX  =  229.943; ENMIN  =  172.457 eV

 POTCAR:    PAW_PBE Re 17Jan2003
   VRHFIN =Re: 5p6s5d

   TITEL  = PAW_PBE Re 17Jan2003
   POMASS =  186.207; ZVAL   =    7.000    mass and valenz
   ENMAX  =  226.216; ENMIN  =  169.662 eV

 POTCAR:    PAW_PBE N 08Apr2002
   VRHFIN =N: s2p3

   TITEL  = PAW_PBE N 08Apr2002
   POMASS =   14.001; ZVAL   =    5.000    mass and valenz
   ENMAX  =  400.000; ENMIN  =  300.000 eV

 Optimization of the real space projectors (new method)

 maximal supplied QI-value         = 15.12
 optimisation between [QCUT,QGAM] = [ 11.34, 22.83] = [ 36.00,145.93] Ry
 Optimized for a Real-space Cutoff    1.39 Angstroem

   l    n(q)    QCUT    max X(q) W(low)/X(q) W(high)/X(q)  e(spline)
   2      9    11.338    60.898    0.39E-03    0.42E-03    0.21E-06
   2      9    11.338    58.894    0.40E-03    0.42E-03    0.22E-06
   0      9    11.338   109.617    0.13E-03    0.20E-04    0.13E-06
   0      9    11.338    75.026    0.13E-03    0.20E-04    0.13E-06
   1      9    11.338    16.344    0.33E-04    0.24E-03    0.18E-06
   1      9    11.338    10.160    0.26E-04    0.19E-03    0.15E-06
 Optimization of the real space projectors (new method)

[...]

   l    n(q)    QCUT    max X(q) W(low)/X(q) W(high)/X(q)  e(spline)
   2     10    11.327   884.633    0.22E-03    0.51E-03    0.88E-06
   2     10    11.327   796.723    0.22E-03    0.51E-03    0.88E-06
   0     11    11.327    65.348    0.44E-04    0.11E-03    0.75E-06
   0     11    11.327    39.642    0.40E-04    0.10E-03    0.69E-06
   1     10    11.327    13.988    0.15E-03    0.10E-03    0.19E-06
   1     10    11.327     8.682    0.11E-03    0.76E-04    0.14E-06
 Optimization of the real space projectors (new method)

 maximal supplied QI-value         = 25.13
 optimisation between [QCUT,QGAM] = [ 11.31, 22.87] = [ 35.82,146.48] Ry
 Optimized for a Real-space Cutoff    1.27 Angstroem

   l    n(q)    QCUT    max X(q) W(low)/X(q) W(high)/X(q)  e(spline)
   0      9    11.310    79.467    0.75E-04    0.16E-03    0.36E-06
   0      9    11.310    66.151    0.74E-04    0.16E-03    0.36E-06
   1      8    11.310    17.416    0.35E-03    0.12E-03    0.95E-06
   1      8    11.310    12.382    0.37E-03    0.13E-03    0.98E-06
  PAW_PBE Au 04Oct2007                  :
  PAW_PBE Re 17Jan2003                  :
  PAW_PBE N 08Apr2002                   :

 POSCAR: Au-Re-N2
  positions in direct lattice
  velocities in cartesian coordinates
 exchange correlation table for  LEXCH =        8
   RHO(1)=    0.500       N(1)  =     2000
   RHO(2)=  100.500       N(2)  =     4000

 VTST: version 3.2, (02/03/18)

 CHAIN: initializing optimizer

 OPT: Using VASP Conjugate-Gradient optimizer
 CHAIN: Read ICHAIN            0

 POSCAR: Au-Re-N2
  positions in direct lattice
  velocities in cartesian coordinates

 ion  position               nearest neighbor table
   1  0.000  0.000  0.238-  16 2.94  12 2.94   6 2.94   8 2.94   7 2.94   3 2.94  10 2.94   4 2.94
                             2 2.94
   2  0.333  0.000  0.238-   9 2.94  11 2.94  17 2.94  10 2.94   8 2.94   4 2.94   5 2.94   1 2.94
                             3 2.94
   3  0.667  0.000  0.238-   7 2.94  18 2.94  12 2.94   1 2.94  11 2.94   5 2.94   6 2.94   9 2.94
                             2 2.94
   4  0.000  0.333  0.238-  10 2.94   6 2.94   5 2.94  13 2.94   2 2.94  15 2.94   9 2.94   1 2.94
                             7 2.94
   5  0.333  0.333  0.238-  13 2.94   7 2.94  11 2.94   4 2.94   2 2.94  14 2.94   3 2.94   8 2.94
                             6 2.94
   6  0.667  0.333  0.238-  15 2.94  14 2.94   1 2.94  12 2.94   4 2.94   9 2.94   8 2.94   3 2.94
                             5 2.94
   7  0.000  0.667  0.238-  18 2.94   3 2.94  16 2.94   5 2.94   1 2.94  13 2.94   8 2.94   4 2.94
                             9 2.94
   8  0.333  0.667  0.238-   9 2.94  17 2.94   1 2.94   2 2.94  14 2.94  16 2.94   6 2.94   7 2.94
                             5 2.94
   9  0.667  0.667  0.238-   2 2.94   8 2.94  17 2.94   6 2.94  15 2.94   4 2.94   3 2.94  18 2.94
                             7 2.94
  10  0.111  0.111  0.346-  20 2.90  11 2.94  17 2.94   2 2.94   4 2.94   1 2.94  12 2.94  16 2.94
                            13 2.94  15 2.94  26 2.96  19 2.96
  11  0.444  0.111  0.346-  20 2.91  21 2.91  13 2.94   2 2.94  10 2.94  17 2.94   5 2.94   3 2.94
                            18 2.94  14 2.94  12 2.94  27 2.94
  12  0.778  0.111  0.346-  21 2.90  16 2.94  18 2.94   1 2.94  14 2.94  15 2.94   3 2.94   6 2.94
                            10 2.94  11 2.94  25 2.96  19 2.96
  13  0.111  0.444  0.346-  23 2.91  20 2.91   5 2.94  18 2.94  11 2.94   7 2.94   4 2.94  16 2.94
                            10 2.94  14 2.94  15 2.94  22 2.94
  14  0.444  0.444  0.346-  21 2.91  23 2.91  15 2.94   6 2.94  12 2.94   8 2.94  17 2.94   5 2.94
                            16 2.94  13 2.94  11 2.94  24 2.94
  15  0.778  0.444  0.346-  24 2.92  22 2.92  14 2.94   6 2.94  17 2.94  12 2.94   9 2.94   4 2.94
                            10 2.94  13 2.94  18 2.94  19 2.95
  16  0.111  0.778  0.346-  23 2.90  18 2.94  12 2.94   7 2.94   1 2.94   8 2.94  13 2.94  10 2.94
                            14 2.94  17 2.94  25 2.96  26 2.96
  17  0.444  0.778  0.346-  27 2.92  24 2.92   9 2.94  15 2.94   2 2.94  10 2.94  11 2.94   8 2.94
                            14 2.94  16 2.94  18 2.94  26 2.95
  18  0.778  0.778  0.346-  22 2.92  27 2.92  16 2.94   7 2.94  13 2.94  12 2.94   3 2.94  11 2.94
                             9 2.94  15 2.94  17 2.94  25 2.95
  19  0.888  0.224  0.455-  24 2.93  22 2.93  21 2.93  20 2.93  28 2.94  15 2.95  26 2.96  25 2.96
                            10 2.96  12 2.96  32 3.02  31 3.02
  20  0.222  0.222  0.452-  36 2.75  10 2.90  11 2.91  13 2.91  26 2.93  19 2.93  23 2.95  21 2.95
                            27 2.96  22 2.96  29 2.97  31 2.97
  21  0.556  0.222  0.452-  36 2.75  12 2.90  14 2.91  11 2.91  25 2.93  19 2.93  20 2.95  23 2.95
                            27 2.96  24 2.96  30 2.97  32 2.97
  22  0.886  0.557  0.454-  24 2.90  27 2.90  18 2.92  15 2.92  25 2.93  19 2.93  13 2.94  35 2.95
                            23 2.96  20 2.96  33 3.00  31 3.00
  23  0.222  0.556  0.452-  36 2.75  16 2.90  13 2.91  14 2.91  25 2.93  26 2.93  20 2.95  21 2.95
                            22 2.96  24 2.96  33 2.97  34 2.97
  24  0.557  0.557  0.454-  27 2.90  22 2.90  15 2.92  17 2.92  26 2.93  19 2.93  14 2.94  35 2.95
                            21 2.96  23 2.96  32 3.00  34 3.00
  25  0.888  0.888  0.455-  22 2.93  27 2.93  23 2.93  21 2.93  28 2.94  18 2.95  19 2.96  26 2.96
                            16 2.96  12 2.96  33 3.02  30 3.02
  26  0.224  0.888  0.455-  27 2.93  24 2.93  20 2.93  23 2.93  28 2.94  17 2.95  19 2.96  25 2.96
                            10 2.96  16 2.96  29 3.02  34 3.02
  27  0.557  0.886  0.454-  24 2.90  22 2.90  17 2.92  18 2.92  26 2.93  25 2.93  11 2.94  35 2.95
                            20 2.96  21 2.96  29 3.00  30 3.00
  28  0.000  0.000  0.563-  25 2.94  19 2.94  26 2.94  34 2.99  32 2.99  33 2.99  30 2.99  31 2.99
                            29 2.99
  29  0.333  0.011  0.565-  30 2.84  31 2.84  36 2.86  20 2.97  35 2.99  28 2.99  27 3.00  26 3.02
                            34 3.14
  30  0.655  0.011  0.565-  29 2.84  32 2.84  36 2.86  21 2.97  35 2.99  28 2.99  27 3.00  25 3.02
                            33 3.14
  31  0.011  0.333  0.565-  33 2.84  29 2.84  36 2.86  20 2.97  35 2.99  28 2.99  22 3.00  19 3.02
                            32 3.14
  32  0.655  0.333  0.565-  34 2.84  30 2.84  36 2.86  21 2.97  35 2.99  28 2.99  24 3.00  19 3.02
                            31 3.14
  33  0.011  0.655  0.565-  31 2.84  34 2.84  36 2.86  23 2.97  35 2.99  28 2.99  22 3.00  25 3.02
                            30 3.14
  34  0.333  0.655  0.565-  32 2.84  33 2.84  36 2.86  23 2.97  35 2.99  28 2.99  24 3.00  26 3.02
                            29 3.14
  35  0.667  0.667  0.563-  24 2.95  27 2.95  22 2.95  29 2.99  34 2.99  32 2.99  31 2.99  30 2.99
                            33 2.99
  36  0.333  0.333  0.550-  38 2.50  37 2.50  20 2.75  23 2.75  21 2.75  33 2.86  31 2.86  29 2.86
                            30 2.86  34 2.86  32 2.86
  37  0.269  0.332  0.660-  38 1.14  36 2.50
  38  0.398  0.332  0.660-  37 1.14  36 2.50

  LATTYP: Found a hexagonal cell.
 ALAT       =     8.8135128021
 C/A-ratio  =     2.5184286595

  Lattice vectors:

 A1 = (  -4.4067569092,  -7.6327256898,   0.0000000000)
 A2 = (   8.8135128021,   0.0000000000,   0.0000000000)
 A3 = (   0.0000000000,   0.0000000000,  22.1962032318)

Analysis of symmetry for initial positions (statically):
 Subroutine PRICEL returns:
 Original cell was already a primitive cell.

 Routine SETGRP: Setting up the symmetry group for a
 hexagonal supercell.

 Subroutine GETGRP returns: Found  2 space group operations
 (whereof  2 operations were pure point group operations)
 out of a pool of 24 trial point group operations.

The static configuration has the point symmetry C_1h.

Analysis of symmetry for dynamics (positions and initial velocities):
 Subroutine PRICEL returns:
 Original cell was already a primitive cell.

[...]

The dynamic configuration has the point symmetry C_1h.

Analysis of constrained symmetry for selective dynamics:
 Subroutine PRICEL returns:
 Original cell was already a primitive cell.

 Routine SETGRP: Setting up the symmetry group for a
 hexagonal supercell.

[...]
     33      -4.7367      2.00000
     34      -4.6697      2.00000
     35      -4.6584      2.00000
     36      -4.6183      2.00000
     37      -4.5914      2.00000
     38      -4.5744      2.00000
     39      -4.5362      2.00000
     40      -4.5143      2.00000
     41      -4.4961      2.00000
     42      -4.3983      2.00000
     43      -4.3661      2.00000
     44      -4.3169      2.00000
     45      -4.2537      2.00000
     46      -4.2280      2.00000
     47      -4.1892      2.00000
     48      -4.1716      2.00000
     49      -4.1488      2.00000
     50      -4.1332      2.00000
     51      -4.0340      2.00000
     52      -4.0088      2.00000
     53      -3.9870      2.00000
     54      -3.9693      2.00000
     55      -3.9568      2.00000
     56      -3.9504      2.00000
     57      -3.9363      2.00000
     58      -3.9097      2.00000
     59      -3.8659      2.00000
     60      -3.8373      2.00000
[...]
    238       6.2386      0.00000
    239       6.3906      0.00000
    240       6.4434      0.00000
    241       6.4455      0.00000
    242       6.5740      0.00000
    243       6.6797      0.00000
    244       6.7223      0.00000
    245       6.7742      0.00000
    246       6.8987      0.00000
    247       6.9798      0.00000
    248       7.0465      0.00000
    249       7.2866      0.00000
    250       7.3295      0.00000
    251       7.3934      0.00000
    252       7.5285      0.00000

 soft charge-density along one line, spin component           1
         0         1         2         3         4         5         6         7         8         9
 total charge-density along one line

------------------------ aborting loop because EDIFF is reached ----------------------------------------

 total charge

# of ion       s       p       d       tot
    1        0.546   0.238   8.765   9.550
    2        0.545   0.241   8.764   9.549
    3        0.545   0.241   8.764   9.549
    4        0.545   0.241   8.764   9.550
    5        0.543   0.241   8.760   9.544
    6        0.545   0.241   8.764   9.550
    7        0.545   0.241   8.764   9.550
    8        0.545   0.241   8.764   9.550
    9        0.541   0.239   8.770   9.550
   10        0.525   0.307   8.765   9.597
   11        0.524   0.306   8.783   9.612
   12        0.525   0.307   8.765   9.597
   13        0.523   0.307   8.782   9.612
   14        0.523   0.307   8.782   9.612
   15        0.514   0.308   8.776   9.598
   16        0.528   0.307   8.763   9.598
   17        0.514   0.308   8.777   9.598
   18        0.514   0.308   8.777   9.598
   19        0.514   0.295   8.774   9.583
   20        0.557   0.344   8.734   9.635
   21        0.557   0.344   8.734   9.635
   22        0.505   0.306   8.779   9.590
   23        0.561   0.344   8.732   9.638
   24        0.505   0.306   8.779   9.590
   25        0.517   0.294   8.775   9.586
   26        0.517   0.294   8.775   9.586
   27        0.506   0.305   8.780   9.590
   28        0.538   0.227   8.758   9.523
   29        0.570   0.251   8.740   9.562
   30        0.570   0.251   8.740   9.562
   31        0.564   0.250   8.743   9.556
   32        0.564   0.250   8.743   9.556
   33        0.571   0.251   8.739   9.561
   34        0.571   0.251   8.739   9.561
   35        0.532   0.227   8.760   9.519
   36        0.469   0.359   4.634   5.462
   37        1.364   2.446   0.000   3.809
   38        1.364   2.446   0.000   3.809
tot         22.006  14.968 311.305 348.280

  FORCE on cell =-STRESS in cart. coord.  units (eV):
  Direction    XX          YY          ZZ          XY          YZ          ZX
  Alpha Z  1045.82182  1045.82182  1045.82182
  Ewald  116936.25426116623.84606************    -0.00031     0.43877    -0.00013
  Hartree125600.45030125492.05648************     0.00001     0.50549    -0.00004
  E(xc)   -1800.21935 -1801.39782 -1808.54380     0.00011     0.02570    -0.00000
  Local  ************************254509.08430     0.00237    -0.94743     0.00004
  n-local  -101.15978   -88.72557   -65.06920     5.06653     0.33811     0.10046
  augment  2373.99637  2373.38422  2394.69786    -0.00132    -0.06818     0.00006
  Kinetic  5617.37295  5633.13373  5695.32523     2.09613    -0.17787     0.28184
  Fock        0.00000     0.00000     0.00000     0.00000     0.00000     0.00000
  Total     -22.46181   -22.83003     2.42772    -0.00000     0.11458     0.00000
  in kB     -24.10171   -24.49682     2.60496    -0.00000     0.12295     0.00000

 VOLUME and BASIS-vectors are now :
  energy-cutoff  :      500.00
  volume of cell :     1493.16
      direct lattice vectors                 reciprocal lattice vectors
     8.813512802  0.000000000  0.000000000     0.113462137 -0.065507406  0.000000000
     4.406756909  7.632725690  0.000000000     0.000000000  0.131014796  0.000000000
     0.000000000  0.000000000 22.196203232     0.000000000  0.000000000  0.045052750

  length of vectors
     8.813512802  8.813512802 22.196203232     0.131014796  0.131014796  0.045052750

 FORCES acting on ions
    electron-ion (+dipol)            ewald-force                    non-local-force                 convergence-correction
   -.200E-04 -.148E-01 0.248E+04   0.520E-04 -.105E-01 -.248E+04   0.650E-09 0.977E-02 -.104E+01   -.160E-03 0.113E-01 -.224E+00
   0.708E+00 0.218E+00 0.248E+04   -.814E+00 -.360E+00 -.248E+04   0.702E-01 0.813E-01 -.209E+00   0.288E-01 0.691E-01 -.327E+00
   -.708E+00 0.218E+00 0.248E+04   0.814E+00 -.360E+00 -.248E+04   -.702E-01 0.813E-01 -.209E+00   -.286E-01 0.710E-01 -.326E+00
   0.554E+00 0.546E+00 0.248E+04   -.710E+00 -.529E+00 -.248E+04   0.935E-01 0.243E-02 -.228E+00   0.715E-01 -.279E-01 -.316E+00
   0.750E-05 0.299E-03 0.249E+04   0.951E-04 0.122E-02 -.248E+04   0.117E-08 0.176E-01 -.141E+00   0.418E-02 -.165E-01 -.362E+00
   -.554E+00 0.546E+00 0.248E+04   0.710E+00 -.529E+00 -.248E+04   -.935E-01 0.243E-02 -.228E+00   -.729E-01 -.270E-01 -.316E+00
   -.176E+00 -.758E+00 0.248E+04   0.104E+00 0.889E+00 -.248E+04   0.508E-01 -.862E-01 -.185E+00   0.299E-01 -.419E-01 -.331E+00
   0.176E+00 -.758E+00 0.248E+04   -.104E+00 0.889E+00 -.248E+04   -.508E-01 -.862E-01 -.185E+00   -.280E-01 -.429E-01 -.331E+00
   0.197E-04 -.150E-01 0.248E+04   0.166E-03 0.929E-02 -.248E+04   -.347E-09 -.521E-02 -.611E+00   -.457E-02 0.111E-01 -.306E+00
   0.832E+01 0.487E+01 0.847E+03   -.775E+01 -.455E+01 -.846E+03   -.469E+00 -.255E+00 -.795E+00   -.712E-01 -.452E-01 0.138E+00
   0.143E-04 0.461E+01 0.855E+03   0.148E-03 -.473E+01 -.855E+03   0.576E-08 0.866E-01 -.208E+00   0.354E-02 -.568E-01 0.135E+00
   -.832E+01 0.487E+01 0.847E+03   0.775E+01 -.455E+01 -.846E+03   0.469E+00 -.255E+00 -.795E+00   0.704E-01 -.445E-01 0.137E+00
   0.393E+01 -.228E+01 0.855E+03   -.403E+01 0.238E+01 -.855E+03   0.841E-01 -.553E-01 -.239E+00   -.555E-01 -.666E-02 0.124E+00
   -.393E+01 -.228E+01 0.855E+03   0.403E+01 0.238E+01 -.855E+03   -.841E-01 -.553E-01 -.239E+00   0.625E-01 -.728E-02 0.122E+00
   0.311E-04 0.511E+01 0.852E+03   0.236E-03 -.522E+01 -.851E+03   0.220E-08 0.330E-01 -.486E+00   -.170E-02 0.421E-02 0.208E+00
   -.215E-04 -.975E+01 0.847E+03   0.163E-03 0.896E+01 -.846E+03   0.395E-07 0.593E+00 -.813E+00   -.177E-03 0.143E+00 0.111E+00
   0.446E+01 -.260E+01 0.851E+03   -.456E+01 0.265E+01 -.851E+03   0.287E-01 -.330E-01 -.461E+00   0.206E-01 0.134E-01 0.180E+00
   -.446E+01 -.260E+01 0.851E+03   0.456E+01 0.265E+01 -.851E+03   -.287E-01 -.330E-01 -.461E+00   -.204E-01 0.147E-01 0.180E+00
   -.436E-04 0.435E+01 -.821E+03   0.543E-04 -.455E+01 0.820E+03   0.310E-08 0.466E-01 0.600E+00   0.512E-02 0.119E+00 0.737E+00
   0.890E+01 0.549E+01 -.772E+03   -.795E+01 -.499E+01 0.772E+03   -.105E+01 -.566E+00 -.114E+01   0.123E+00 0.650E-01 0.112E+01
   -.890E+01 0.549E+01 -.772E+03   0.795E+01 -.499E+01 0.772E+03   0.105E+01 -.566E+00 -.114E+01   -.130E+00 0.656E-01 0.112E+01
   -.527E+01 0.260E+01 -.800E+03   0.478E+01 -.223E+01 0.799E+03   0.546E+00 -.349E+00 0.694E+00   -.136E-01 -.348E-01 0.844E+00
   -.108E-04 -.110E+02 -.772E+03   0.140E-03 0.982E+01 0.772E+03   0.863E-07 0.130E+01 -.130E+01   -.372E-02 -.186E+00 0.110E+01
   0.527E+01 0.260E+01 -.800E+03   -.478E+01 -.223E+01 0.799E+03   -.546E+00 -.349E+00 0.694E+00   0.148E-01 -.330E-01 0.844E+00
   -.358E+01 -.186E+01 -.822E+03   0.371E+01 0.188E+01 0.820E+03   0.576E-03 0.120E-01 0.475E+00   -.106E+00 -.125E-01 0.726E+00
   0.358E+01 -.186E+01 -.822E+03   -.371E+01 0.188E+01 0.820E+03   -.576E-03 0.120E-01 0.475E+00   0.113E+00 -.106E-01 0.726E+00
   0.125E-04 -.608E+01 -.801E+03   0.197E-03 0.540E+01 0.799E+03   0.446E-07 0.670E+00 0.655E+00   -.155E-02 0.401E-01 0.824E+00
   -.153E-04 0.235E+01 -.240E+04   0.306E-04 -.238E+01 0.240E+04   -.209E-08 -.314E-01 0.505E+00   0.162E-02 0.468E-01 0.560E+00
   0.321E+02 0.607E+02 -.238E+04   -.313E+02 -.596E+02 0.238E+04   -.111E+01 -.154E+01 -.671E-01   0.182E+00 0.293E+00 0.410E+00
   -.321E+02 0.607E+02 -.238E+04   0.313E+02 -.596E+02 0.238E+04   0.111E+01 -.154E+01 -.671E-01   -.189E+00 0.295E+00 0.410E+00
   0.709E+02 0.164E+00 -.237E+04   -.699E+02 -.481E-01 0.237E+04   -.161E+01 -.125E+00 0.476E+00   0.349E+00 0.245E-01 0.415E+00
   -.709E+02 0.164E+00 -.237E+04   0.699E+02 -.481E-01 0.237E+04   0.161E+01 -.125E+00 0.476E+00   -.355E+00 0.257E-01 0.416E+00
   0.311E+02 -.606E+02 -.238E+04   -.304E+02 0.595E+02 0.238E+04   -.873E+00 0.166E+01 -.867E-01   0.109E+00 -.335E+00 0.436E+00
   -.311E+02 -.606E+02 -.238E+04   0.304E+02 0.595E+02 0.238E+04   0.873E+00 0.166E+01 -.867E-01   -.114E+00 -.335E+00 0.437E+00
   0.338E-04 -.215E+01 -.240E+04   0.140E-03 0.215E+01 0.240E+04   0.266E-08 0.400E-01 0.639E+00   -.319E-02 -.370E-01 0.417E+00
   -.152E-04 -.391E+00 -.133E+04   0.737E-04 0.412E+00 0.133E+04   0.498E-08 0.748E-01 0.316E+01   0.114E-02 -.131E-01 0.396E+00
   0.221E+03 -.110E+00 -.122E+04   -.264E+03 0.129E+00 0.122E+04   0.435E+02 -.268E-01 -.567E+01   0.457E-01 0.101E-02 -.229E+00
   -.221E+03 -.110E+00 -.122E+04   0.264E+03 0.129E+00 0.122E+04   -.435E+02 -.268E-01 -.567E+01   -.454E-01 0.105E-02 -.229E+00
   -.659E-03 -.273E+00 0.449E+01   0.000E+00 -.209E-12 0.909E-12   0.180E-07 0.271E+00 -.139E+02   -.917E-02 0.101E-02 0.999E+01

 POSITION                                       TOTAL-FORCE (eV/Angst)
      0.00000      0.00000      5.28038        -0.000000     -0.004196     -0.145153
      2.93784      0.00000      5.28038        -0.007229      0.009346     -0.079192
      5.87568      0.00000      5.28038         0.007230      0.009346     -0.079192
      1.46892      2.54424      5.28038         0.009421     -0.007703     -0.085955
      4.40676      2.54424      5.28038         0.000000      0.002637     -0.134818
      7.34459      2.54424      5.28038        -0.009421     -0.007703     -0.085955
      2.93784      5.08848      5.28038         0.008058      0.001841     -0.085346
      5.87568      5.08848      5.28038        -0.008058      0.001841     -0.085346
      8.81351      5.08848      5.28038         0.000000      0.000204     -0.102193
      1.46892      0.84808      7.67911         0.031704      0.025616      0.187452
      4.40676      0.84808      7.67911        -0.000000     -0.090165      0.009856
      7.34459      0.84808      7.67911        -0.031704      0.025616      0.187452
      2.93784      3.39232      7.67911        -0.070659      0.044718      0.017465
      5.87568      3.39232      7.67911         0.070659      0.044718      0.017465
      8.81351      3.39232      7.67911        -0.000000     -0.070144      0.118680
      4.40676      5.93656      7.67911        -0.000000     -0.052865      0.193344
      7.34459      5.93656      7.67911        -0.058290      0.030843      0.124805
     10.28243      5.93656      7.67911         0.058290      0.030843      0.124805
      8.81351      1.70659     10.09931        -0.000000     -0.036434     -0.007511
      2.93410      1.69400     10.03753         0.031724     -0.007793     -0.089405
      5.87941      1.69400     10.03753        -0.031724     -0.007793     -0.089405
     10.26439      4.25082     10.06692         0.039029     -0.015017     -0.005038
      4.40676      4.24472     10.03753        -0.000000     -0.038085     -0.069411
      7.36264      4.25082     10.06692        -0.039029     -0.015017     -0.005038
     11.74232      6.77943     10.09931         0.021822      0.016067     -0.025662
      5.88471      6.77943     10.09931        -0.021822      0.016067     -0.025662
      8.81351      6.76381     10.06692         0.000000      0.037704     -0.015392
      0.00000      0.00000     12.49835        -0.000000     -0.012869     -0.038082
      2.98825      0.08685     12.53577        -0.082090     -0.198559     -0.132202
      5.82526      0.08685     12.53577         0.082090     -0.198559     -0.132202
      1.56934      2.54447     12.53577        -0.279953      0.015739     -0.208300
      7.24417      2.54447     12.53577         0.279953      0.015739     -0.208300
      2.98785      5.00140     12.53577        -0.096263      0.178789     -0.122800
      5.82567      5.00140     12.53577         0.096263      0.178789     -0.122800
      8.81351      5.08848     12.49628         0.000000      0.006996      0.014067
      4.40676      2.54424     12.20474         0.000000      0.082870      1.195465
      3.83756      2.53713     14.63899         0.010808     -0.006713     -0.005249
      4.97595      2.53713     14.63899        -0.010808     -0.006713     -0.005249
    total drift:                               -0.009833     -0.001088      0.548194

  FREE ENERGIE OF THE ION-ELECTRON SYSTEM (eV)
  free  energy   TOTEN  =      -132.41148717 eV

  energy  without entropy=     -132.41148717  energy(sigma->0) =     -132.41148717

 stress matrix after NEB project (eV)
    -22.46181     -0.00000      0.00000
     -0.00000    -22.83003      0.11458
      0.00000      0.11458      2.42772
  FORCES: max atom, RMS     0.013763    0.003157
  FORCE total and by dimension    0.019464    0.010808
  Stress total and by dimension   32.119512   22.830029
|           W    W    AA    RRRRR   N    N  II  N    N   GGGG   !!!           |
|           W    W   A  A   R    R  NN   N  II  NN   N  G    G  !!!           |
|           W    W  A    A  R    R  N N  N  II  N N  N  G       !!!           |
|           W WW W  AAAAAA  RRRRR   N  N N  II  N  N N  G  GGG   !            |
|           WW  WW  A    A  R   R   N   NN  II  N   NN  G    G                |
|           W    W  A    A  R    R  N    N  II  N    N   GGGG   !!!           |
|     Tetrahedron method does not include variations of the Fermi             |
|     occupations, so forces and stress will be inaccurate. We suggest        |
|     using a different smearing scheme ISMEAR = 1 or 2 for metals in         |
|     relaxations.                                                            |

 total charge

# of ion       s       p       d       tot
    1        0.546   0.238   8.765   9.550
    2        0.545   0.241   8.764   9.549
    3        0.545   0.241   8.764   9.549
    4        0.545   0.241   8.764   9.550
    5        0.543   0.241   8.760   9.544
    6        0.545   0.241   8.764   9.550
    7        0.545   0.241   8.764   9.550
    8        0.545   0.241   8.764   9.550
    9        0.541   0.239   8.770   9.550
   10        0.525   0.307   8.765   9.597
   11        0.524   0.306   8.783   9.612
   12        0.525   0.307   8.765   9.597
   13        0.523   0.307   8.782   9.612
   14        0.523   0.307   8.782   9.612
   15        0.514   0.308   8.776   9.598
   16        0.528   0.307   8.763   9.598
   17        0.514   0.308   8.777   9.598
   18        0.514   0.308   8.777   9.598
   19        0.514   0.295   8.774   9.583
   20        0.557   0.344   8.734   9.635
   21        0.557   0.344   8.734   9.635
   22        0.505   0.306   8.779   9.590
   23        0.561   0.344   8.732   9.638
   24        0.505   0.306   8.779   9.590
   25        0.517   0.294   8.775   9.586
   26        0.517   0.294   8.775   9.586
   27        0.506   0.305   8.780   9.590
   28        0.538   0.227   8.758   9.523
   29        0.570   0.251   8.740   9.562
   30        0.570   0.251   8.740   9.562
   31        0.564   0.250   8.743   9.556
   32        0.564   0.250   8.743   9.556
   33        0.571   0.251   8.739   9.561
   34        0.571   0.251   8.739   9.561
   35        0.532   0.227   8.760   9.519
   36        0.469   0.359   4.634   5.462
   37        1.364   2.446   0.000   3.809
   38        1.364   2.446   0.000   3.809
tot         22.006  14.968 311.305 348.280

 BZINTS: Fermi energy:    0.829838;  402.000000 electrons
         Band energy:-0.122247E+04;  BLOECHL correction:   -0.053338