 vasp.6.2.0 18Jan21 (build Jun 12 2021 23:27:24) complex

 executed on             LinuxIFC date 2022.05.28  01:34:52

 INCAR:
   ISMEAR = -5
   SIGMA = 0.1
   ISPIN = 1
   EDIFF = 1.d-5
   EDIFFG = -0.01
   NSW = 0
   NELM = 150
   ENCUT = 500
   ISIF = 2
   IBRION = 2
   LREAL = Auto
   ALGO = Fast
   ICHARG = 11
   LORBIT = 10
   LCHARG = .F.
   LWAVE = .F.

 POTCAR:    PAW_PBE Ag 02Apr2005
 POTCAR:    PAW_PBE Co 02Aug2007
 POTCAR:    PAW_PBE C 08Apr2002
 POTCAR:    PAW_PBE O 08Apr2002
|           W    W    AA    RRRRR   N    N  II  N    N   GGGG   !!!           |
|           W    W   A  A   R    R  NN   N  II  NN   N  G    G  !!!           |
|           W    W  A    A  R    R  N N  N  II  N N  N  G       !!!           |
|           W WW W  AAAAAA  RRRRR   N  N N  II  N  N N  G  GGG   !            |
|           WW  WW  A    A  R   R   N   NN  II  N   NN  G    G                |
|           W    W  A    A  R    R  N    N  II  N    N   GGGG   !!!           |
|     For optimal performance we recommend to set                             |
|       NCORE = 2 up to number-of-cores-per-socket                            |
|     This setting can greatly improve the performance of VASP for DFT.       |
|     The default, NCORE=1 might be grossly inefficient on modern             |
|     multi-core architectures or massively parallel machines. Do your        |
|     Unfortunately you need to use the default for GW and RPA                |
|     calculations (for HF NCORE is supported but not extensively tested      |
|     yet).                                                                   |

 POTCAR:    PAW_PBE Ag 02Apr2005
   VRHFIN =Ag : s1 d10

   TITEL  = PAW_PBE Ag 02Apr2005
   POMASS =  107.868; ZVAL   =   11.000    mass and valenz
   ENMAX  =  249.844; ENMIN  =  187.383 eV

 POTCAR:    PAW_PBE Co 02Aug2007
   VRHFIN =Co: d8 s1

   TITEL  = PAW_PBE Co 02Aug2007
   POMASS =   58.933; ZVAL   =    9.000    mass and valenz
   ENMAX  =  267.968; ENMIN  =  200.976 eV

 POTCAR:    PAW_PBE C 08Apr2002
   VRHFIN =C: s2p2

[...]

 POTCAR:    PAW_PBE O 08Apr2002
   VRHFIN =O: s2p4

   TITEL  = PAW_PBE O 08Apr2002
   POMASS =   16.000; ZVAL   =    6.000    mass and valenz
   ENMAX  =  400.000; ENMIN  =  300.000 eV

 Optimization of the real space projectors (new method)

 maximal supplied QI-value         = 15.12
 optimisation between [QCUT,QGAM] = [ 11.34, 22.83] = [ 36.00,145.93] Ry
 Optimized for a Real-space Cutoff    1.43 Angstroem

   l    n(q)    QCUT    max X(q) W(low)/X(q) W(high)/X(q)  e(spline)
   2      9    11.338    53.897    0.16E-03    0.20E-03    0.28E-06
   2      9    11.338    52.416    0.16E-03    0.20E-03    0.29E-06
   0     10    11.338   122.045    0.31E-04    0.76E-04    0.15E-06
   0     10    11.338    73.629    0.30E-04    0.72E-04    0.15E-06
   1      9    11.338    15.255    0.20E-03    0.19E-04    0.17E-06
   1      9    11.338     9.562    0.16E-03    0.15E-04    0.14E-06
 Optimization of the real space projectors (new method)

[...]

   l    n(q)    QCUT    max X(q) W(low)/X(q) W(high)/X(q)  e(spline)
   0      7    11.310   115.676    0.43E-03    0.13E-02    0.19E-06
   0      7    11.310    87.132    0.43E-03    0.13E-02    0.18E-06
   1      6    11.310     4.429    0.42E-03    0.74E-03    0.11E-06
   1      6    11.310     2.733    0.34E-03    0.55E-03    0.92E-07
 Optimization of the real space projectors (new method)

 maximal supplied QI-value         = 24.76
 optimisation between [QCUT,QGAM] = [ 11.39, 22.77] = [ 36.31,145.25] Ry
 Optimized for a Real-space Cutoff    1.00 Angstroem

   l    n(q)    QCUT    max X(q) W(low)/X(q) W(high)/X(q)  e(spline)
   0      7    11.387    20.381    0.39E-03    0.13E-02    0.15E-06
   0      7    11.387    15.268    0.42E-03    0.14E-02    0.17E-06
   1      6    11.387     5.964    0.41E-03    0.11E-02    0.17E-06
   1      6    11.387     5.382    0.39E-03    0.87E-03    0.15E-06
  PAW_PBE Ag 02Apr2005                  :
  PAW_PBE Co 02Aug2007                  :
  PAW_PBE C 08Apr2002                   :
  PAW_PBE O 08Apr2002                   :

 POSCAR: Ag-Co-CO2
  positions in direct lattice
  velocities in cartesian coordinates
 exchange correlation table for  LEXCH =        8
   RHO(1)=    0.500       N(1)  =     2000
   RHO(2)=  100.500       N(2)  =     4000

 VTST: version 3.2, (02/03/18)

 CHAIN: initializing optimizer

 OPT: Using VASP Conjugate-Gradient optimizer
 CHAIN: Read ICHAIN            0

 POSCAR: Ag-Co-CO2
  positions in direct lattice
  velocities in cartesian coordinates

 ion  position               nearest neighbor table
   1  0.000  0.000  0.217-   2 2.93   8 2.93   7 2.93   6 2.93   4 2.93  12 2.93  16 2.93  10 2.93
                             3 2.93
   2  0.333  0.000  0.217-   1 2.93   8 2.93   9 2.93   3 2.93   4 2.93   5 2.93  10 2.93  17 2.93
                            11 2.93
   3  0.667  0.000  0.217-   9 2.93   2 2.93   5 2.93  11 2.93   7 2.93  18 2.93   1 2.93   6 2.93
                            12 2.93
   4  0.000  0.333  0.217-   5 2.93   6 2.93   2 2.93   1 2.93   7 2.93  13 2.93  15 2.93   9 2.93
                            10 2.93
   5  0.333  0.333  0.217-   4 2.93   3 2.93   7 2.93   2 2.93   8 2.93  14 2.93  13 2.93  11 2.93
                             6 2.93
   6  0.667  0.333  0.217-   4 2.93   9 2.93   1 2.93  15 2.93   8 2.93  12 2.93   3 2.93   5 2.93
                            14 2.93
   7  0.000  0.667  0.217-   8 2.93   1 2.93   5 2.93   3 2.93   4 2.93  16 2.93  18 2.93  13 2.93
                             9 2.93
   8  0.333  0.667  0.217-   7 2.93   1 2.93   2 2.93   9 2.93   5 2.93  16 2.93   6 2.93  17 2.93
                            14 2.93
   9  0.667  0.667  0.217-   3 2.93   2 2.93   8 2.93   6 2.93  17 2.93   4 2.93  15 2.93   7 2.93
                            18 2.93
  10  0.111  0.111  0.315-  20 2.92  19 2.93  26 2.93  12 2.93  16 2.93  15 2.93  17 2.93  13 2.93
                            11 2.93   2 2.93   1 2.93   4 2.93
  11  0.444  0.111  0.315-  21 2.90  20 2.90  27 2.92  14 2.93  17 2.93  18 2.93   3 2.93  12 2.93
                            13 2.93  10 2.93   5 2.93   2 2.93
  12  0.778  0.111  0.315-  21 2.92  25 2.93  19 2.93  10 2.93  16 2.93  18 2.93  15 2.93  11 2.93
                             1 2.93  14 2.93   6 2.93   3 2.93
  13  0.111  0.444  0.315-  20 2.90  23 2.90  22 2.92  15 2.93  14 2.93  18 2.93  10 2.93  11 2.93
                            16 2.93   4 2.93   5 2.93   7 2.93
  14  0.444  0.444  0.315-  23 2.90  21 2.90  24 2.92  13 2.93  11 2.93  16 2.93   5 2.93  12 2.93
                            17 2.93   8 2.93  15 2.93   6 2.93
  15  0.778  0.444  0.315-  24 2.91  22 2.91  19 2.92  13 2.93  10 2.93  12 2.93  17 2.93  18 2.93
                             4 2.93   6 2.93   9 2.93  14 2.93
  16  0.111  0.778  0.315-  23 2.92  26 2.93  25 2.93  18 2.93  12 2.93  10 2.93  14 2.93  17 2.93
                            13 2.93   7 2.93   8 2.93   1 2.93
  17  0.444  0.778  0.315-  27 2.91  24 2.91  26 2.92  11 2.93  10 2.93   9 2.93  18 2.93  15 2.93
                            16 2.93   2 2.93  14 2.93   8 2.93
  18  0.778  0.778  0.315-  22 2.91  27 2.91  25 2.92  16 2.93  12 2.93  13 2.93  11 2.93  17 2.93
                            15 2.93   7 2.93   3 2.93   9 2.93
  19  0.889  0.222  0.413-  28 2.91  15 2.92  10 2.93  12 2.93  24 2.93  22 2.93  26 2.93  25 2.93
                            32 2.94  31 2.94  20 2.94  21 2.94
  20  0.223  0.223  0.412-  36 2.69  31 2.89  29 2.89  13 2.90  11 2.90  21 2.91  23 2.91  10 2.92
                            27 2.93  22 2.93  19 2.94  26 2.94
  21  0.554  0.223  0.412-  36 2.69  30 2.89  32 2.89  11 2.90  14 2.90  20 2.91  23 2.91  12 2.92
                            27 2.93  24 2.93  25 2.94  19 2.94
  22  0.888  0.556  0.413-  35 2.91  33 2.91  31 2.91  18 2.91  15 2.91  13 2.92  24 2.92  27 2.92
                            25 2.93  19 2.93  23 2.93  20 2.93
  23  0.223  0.554  0.412-  36 2.69  34 2.89  33 2.89  14 2.90  13 2.90  21 2.91  20 2.91  16 2.92
                            22 2.93  24 2.93  26 2.94  25 2.94
  24  0.556  0.556  0.413-  35 2.91  32 2.91  34 2.91  15 2.91  17 2.91  14 2.92  27 2.92  22 2.92
                            19 2.93  26 2.93  23 2.93  21 2.93
  25  0.889  0.889  0.413-  28 2.91  18 2.92  16 2.93  12 2.93  22 2.93  27 2.93  26 2.93  19 2.93
                            33 2.94  30 2.94  23 2.94  21 2.94
  26  0.222  0.889  0.413-  28 2.91  17 2.92  16 2.93  10 2.93  27 2.93  24 2.93  25 2.93  19 2.93
                            34 2.94  29 2.94  23 2.94  20 2.94
  27  0.556  0.888  0.413-  35 2.91  29 2.91  30 2.91  17 2.91  18 2.91  11 2.92  24 2.92  22 2.92
                            26 2.93  25 2.93  20 2.93  21 2.93
  28  0.000  0.000  0.510-  26 2.91  25 2.91  19 2.91  29 2.97  34 2.97  33 2.97  32 2.97  31 2.97
                            30 2.97
  29  0.333  0.008  0.510-  31 2.86  30 2.86  36 2.87  20 2.89  27 2.91  26 2.94  28 2.97  35 2.97
                            34 3.07
  30  0.659  0.008  0.510-  32 2.86  29 2.86  36 2.87  21 2.89  27 2.91  25 2.94  28 2.97  35 2.97
                            33 3.07
  31  0.008  0.333  0.510-  38 2.73  29 2.86  33 2.86  36 2.87  20 2.89  22 2.91  19 2.94  28 2.97
                            35 2.97  32 3.07
  32  0.659  0.333  0.510-  39 2.60  37 2.74  30 2.86  34 2.86  36 2.87  21 2.89  24 2.91  19 2.94
                            28 2.97  35 2.97  31 3.07
  33  0.008  0.659  0.510-  34 2.86  31 2.86  36 2.87  23 2.89  22 2.91  25 2.94  28 2.97  35 2.97
                            30 3.07
  34  0.333  0.659  0.510-  33 2.86  32 2.86  36 2.87  23 2.89  24 2.91  26 2.94  28 2.97  35 2.97
                            29 3.07
  35  0.667  0.667  0.510-  24 2.91  27 2.91  22 2.91  32 2.97  30 2.97  29 2.97  34 2.97  31 2.97
                            33 2.97
  36  0.333  0.333  0.498-  37 1.89  38 2.07  21 2.69  20 2.69  23 2.69  31 2.87  30 2.87  33 2.87
                            29 2.87  34 2.87  32 2.87
  37  0.399  0.332  0.572-  39 1.23  38 1.28  36 1.89  32 2.74
  38  0.256  0.330  0.578-  37 1.28  36 2.07  31 2.73
  39  0.511  0.333  0.603-  37 1.23  32 2.60

  LATTYP: Found a hexagonal cell.
 ALAT       =     8.7913665772
 C/A-ratio  =     2.7703738524

  Lattice vectors:

 A1 = (  -4.3956832886,  -7.6135467898,   0.0000000000)
 A2 = (   8.7913665771,   0.0000000000,   0.0000000000)
 A3 = (   0.0000000000,   0.0000000000,  24.3553720923)

Analysis of symmetry for initial positions (statically):
 Subroutine PRICEL returns:
 Original cell was already a primitive cell.

 Routine SETGRP: Setting up the symmetry group for a
 hexagonal supercell.

 Subroutine GETGRP returns: Found  1 space group operations
 (whereof  1 operations were pure point group operations)
 out of a pool of 24 trial point group operations.

The static configuration has the point symmetry C_1 .

Analysis of symmetry for dynamics (positions and initial velocities):
 Subroutine PRICEL returns:
 Original cell was already a primitive cell.

[...]

The dynamic configuration has the point symmetry C_1 .

Analysis of constrained symmetry for selective dynamics:
 Subroutine PRICEL returns:
[...]
     41      -4.8992      2.00000
     42      -4.8818      2.00000
     43      -4.8599      2.00000
     44      -4.8382      2.00000
     45      -4.8256      2.00000
     46      -4.8154      2.00000
     47      -4.8052      2.00000
     48      -4.7888      2.00000
     49      -4.7242      2.00000
     50      -4.6934      2.00000
     51      -4.6844      2.00000
     52      -4.6757      2.00000
     53      -4.6693      2.00000
     54      -4.6658      2.00000
     55      -4.6492      2.00000
     56      -4.6455      2.00000
     57      -4.6279      2.00000
     58      -4.6208      2.00000
     59      -4.5586      2.00000
     60      -4.5486      2.00000
[...]
    238       5.3817      0.00000
    239       5.4809      0.00000
    240       5.6160      0.00000
    241       5.6895      0.00000
    242       5.7477      0.00000
    243       5.8444      0.00000
    244       5.9229      0.00000
    245       5.9479      0.00000
    246       6.0414      0.00000
    247       6.5505      0.00000
    248       6.5575      0.00000
    249       6.6373      0.00000
    250       6.7101      0.00000
    251       6.7499      0.00000
    252       6.8982      0.00000

 soft charge-density along one line, spin component           1
         0         1         2         3         4         5         6         7         8         9
 total charge-density along one line

------------------------ aborting loop because EDIFF is reached ----------------------------------------

 total charge

# of ion       s       p       d       tot
    1        0.416   0.202   9.178   9.797
    2        0.416   0.203   9.177   9.797
    3        0.419   0.202   9.177   9.798
    4        0.417   0.203   9.177   9.798
    5        0.418   0.203   9.176   9.798
    6        0.417   0.203   9.178   9.798
    7        0.417   0.204   9.177   9.797
    8        0.418   0.203   9.177   9.798
    9        0.414   0.203   9.179   9.796
   10        0.407   0.268   9.164   9.839
   11        0.409   0.268   9.167   9.843
   12        0.406   0.269   9.163   9.838
   13        0.406   0.269   9.168   9.843
   14        0.409   0.267   9.167   9.844
   15        0.403   0.271   9.164   9.838
   16        0.405   0.269   9.165   9.838
   17        0.402   0.271   9.165   9.838
   18        0.401   0.271   9.165   9.837
   19        0.397   0.269   9.167   9.833
   20        0.426   0.286   9.156   9.869
   21        0.423   0.295   9.146   9.864
   22        0.399   0.277   9.164   9.840
   23        0.421   0.294   9.151   9.866
   24        0.397   0.276   9.166   9.839
   25        0.402   0.267   9.166   9.835
   26        0.401   0.266   9.168   9.835
   27        0.398   0.274   9.168   9.840
   28        0.416   0.192   9.183   9.790
   29        0.408   0.200   9.187   9.795
   30        0.412   0.203   9.185   9.799
   31        0.394   0.203   9.192   9.789
   32        0.378   0.220   9.186   9.784
   33        0.408   0.200   9.188   9.796
   34        0.411   0.203   9.185   9.799
   35        0.413   0.193   9.183   9.788
   36        0.379   0.365   7.416   8.161
   37        0.881   1.677   0.000   2.558
   38        1.593   3.469   0.000   5.063
   39        1.597   3.507   0.000   5.104
tot         18.755  17.386 328.441 364.582

  FORCE on cell =-STRESS in cart. coord.  units (eV):
  Direction    XX          YY          ZZ          XY          YZ          ZX
  Alpha Z   709.31894   709.31894   709.31894
  Ewald  155843.92632155167.70280************     6.50866     1.22801   122.44259
  Hartree165978.60945165630.17818************     3.31640     0.76808    56.63129
  E(xc)   -2149.41199 -2151.19003 -2155.13587     0.00561    -0.01046     0.16789
  Local  ************************331998.63756    -9.43476    -2.25220  -168.65106
  n-local  -383.98818  -378.84444  -387.95611     0.10435     0.03498     1.07487
  augment  3388.27837  3393.07094  3393.72033    -0.06737     0.27457     0.13858
  Kinetic  5146.23468  5187.37953  5194.35680    -0.24631     0.09086   -11.60579
  Fock        0.00000     0.00000     0.00000     0.00000     0.00000     0.00000
  Total      -7.99966    -7.79954    -1.66548     0.18658     0.13385     0.19838
  in kB      -7.86220    -7.66552    -1.63686     0.18337     0.13155     0.19497

 VOLUME and BASIS-vectors are now :
  energy-cutoff  :      500.00
  volume of cell :     1630.19
      direct lattice vectors                 reciprocal lattice vectors
     8.791366577  0.000000000  0.000000000     0.113747958 -0.065672414  0.000000000
     4.395683289  7.613546790  0.000000000     0.000000000  0.131344829  0.000000000
     0.000000000  0.000000000 24.355372092     0.000000000  0.000000000  0.041058703

  length of vectors
     8.791366577  8.791366577 24.355372092     0.131344829  0.131344829  0.041058703

 FORCES acting on ions
    electron-ion (+dipol)            ewald-force                    non-local-force                 convergence-correction
   -.112E+00 0.855E-01 0.273E+04   0.398E-01 -.597E-01 -.273E+04   0.301E-01 -.262E-01 -.225E+01   0.366E-01 0.290E-02 -.234E+00
   0.784E+00 0.755E+00 0.273E+04   -.733E+00 -.798E+00 -.273E+04   0.206E-02 0.530E-01 -.170E+01   -.403E-01 0.483E-02 -.228E+00
   -.673E+00 0.835E+00 0.273E+04   0.693E+00 -.869E+00 -.273E+04   -.293E-01 0.214E-01 -.164E+01   0.163E-02 0.255E-01 -.159E+00
   0.830E+00 0.242E+00 0.273E+04   -.987E+00 -.226E+00 -.273E+04   0.130E+00 -.424E-02 -.167E+01   0.388E-01 -.120E-01 -.261E+00
   0.914E-02 0.440E-01 0.273E+04   -.816E-01 0.496E-02 -.273E+04   0.260E-01 -.216E-01 -.146E+01   0.396E-01 -.275E-01 -.142E+00
   -.846E+00 0.177E+00 0.273E+04   0.107E+01 -.227E+00 -.273E+04   -.152E+00 0.272E-01 -.172E+01   -.762E-01 0.167E-01 -.208E+00
   0.391E+00 -.991E+00 0.273E+04   -.333E+00 0.102E+01 -.273E+04   0.384E-02 -.451E-01 -.169E+01   -.458E-01 -.325E-02 -.220E+00
   -.355E+00 -.105E+01 0.273E+04   0.292E+00 0.109E+01 -.273E+04   -.142E-01 -.539E-01 -.165E+01   0.621E-01 -.308E-02 -.213E+00
   -.299E-01 -.852E-01 0.273E+04   0.412E-01 0.548E-01 -.273E+04   0.505E-02 0.289E-01 -.199E+01   -.180E-01 0.151E-03 -.231E+00
   0.628E+01 0.405E+01 0.990E+03   -.604E+01 -.387E+01 -.989E+03   -.286E+00 -.165E+00 -.674E+00   0.432E-01 -.650E-02 0.720E-01
   0.452E+00 0.867E+01 0.100E+04   -.440E+00 -.878E+01 -.100E+04   -.397E-01 0.566E-01 -.465E+00   0.391E-01 0.281E-01 0.133E+00
   -.678E+01 0.446E+01 0.991E+03   0.648E+01 -.426E+01 -.990E+03   0.373E+00 -.226E+00 -.830E+00   -.810E-01 0.369E-01 0.125E+00
   0.730E+01 -.428E+01 0.100E+04   -.746E+01 0.439E+01 -.100E+04   0.693E-01 -.744E-01 -.367E+00   0.587E-01 -.207E-01 0.132E+00
   -.680E+01 -.447E+01 0.100E+04   0.691E+01 0.460E+01 -.100E+04   -.727E-01 -.376E-01 -.458E+00   -.136E-01 -.777E-01 0.180E+00
   -.486E+00 0.866E+00 0.991E+03   0.546E+00 -.926E+00 -.991E+03   -.388E-01 0.441E-01 -.857E+00   -.209E-01 0.727E-03 0.540E-01
   0.143E+00 -.769E+01 0.990E+03   -.104E+00 0.734E+01 -.989E+03   -.165E-01 0.358E+00 -.723E+00   -.995E-02 -.265E-01 0.956E-01
   0.940E+00 -.106E+01 0.991E+03   -.103E+01 0.104E+01 -.990E+03   0.342E-01 -.421E-02 -.705E+00   0.248E-01 0.337E-01 0.387E-01
   -.109E+01 -.559E+00 0.990E+03   0.113E+01 0.478E+00 -.990E+03   -.544E-02 0.448E-01 -.682E+00   -.185E-01 0.452E-01 0.436E-01
   -.386E+01 0.624E+01 -.788E+03   0.387E+01 -.629E+01 0.788E+03   0.777E-01 0.118E+00 0.720E+00   -.831E-01 -.308E-01 0.102E+00
   0.437E+02 0.259E+02 -.723E+03   -.432E+02 -.255E+02 0.723E+03   -.857E+00 -.635E+00 -.952E+00   0.295E+00 0.146E+00 0.352E+00
   -.402E+02 0.278E+02 -.714E+03   0.394E+02 -.273E+02 0.715E+03   0.110E+01 -.722E+00 -.125E+01   -.263E+00 0.149E+00 0.365E+00
   0.179E+02 -.129E+02 -.775E+03   -.179E+02 0.130E+02 0.774E+03   -.217E-01 -.748E-01 0.476E+00   0.108E+00 -.288E-01 0.145E+00
   0.305E+01 -.524E+02 -.722E+03   -.316E+01 0.516E+02 0.723E+03   0.930E-01 0.118E+01 -.892E+00   0.341E-01 -.316E+00 0.416E+00
   -.209E+02 -.157E+02 -.769E+03   0.211E+02 0.159E+02 0.768E+03   -.186E+00 -.135E+00 0.434E+00   -.104E+00 -.101E+00 0.124E+00
   -.433E+01 0.102E+01 -.793E+03   0.428E+01 -.104E+01 0.792E+03   0.203E-01 -.206E-01 0.749E+00   0.180E-01 0.284E-01 0.114E+00
   0.372E+01 -.269E+01 -.794E+03   -.363E+01 0.271E+01 0.793E+03   0.219E-02 -.563E-02 0.807E+00   -.668E-01 -.948E-02 0.113E+00
   0.576E+00 0.229E+02 -.776E+03   -.640E+00 -.232E+02 0.775E+03   0.104E-01 0.209E+00 0.605E+00   0.404E-01 0.145E+00 0.132E+00
   -.977E+01 0.138E+02 -.259E+04   0.986E+01 -.137E+02 0.258E+04   -.636E-01 -.114E+00 0.206E+01   -.389E-02 -.272E-01 0.230E+00
   0.602E+02 0.111E+03 -.255E+04   -.600E+02 -.111E+03 0.255E+04   -.342E+00 0.114E+00 0.276E+01   0.734E-01 0.178E+00 0.197E+00
   -.487E+02 0.135E+03 -.253E+04   0.483E+02 -.136E+03 0.253E+04   0.562E+00 -.240E+00 0.249E+01   -.788E-01 0.196E+00 0.105E+00
   0.125E+03 -.981E+00 -.253E+04   -.126E+03 0.111E+01 0.253E+04   0.680E+00 -.796E-01 0.327E+01   0.295E+00 -.188E-01 0.207E+00
   -.165E+03 -.525E+00 -.247E+04   0.166E+03 0.624E+00 0.246E+04   -.117E+00 -.513E-01 0.330E+01   -.233E+00 -.314E-01 0.554E-01
   0.588E+02 -.108E+03 -.255E+04   -.588E+02 0.109E+03 0.255E+04   -.258E+00 -.832E-02 0.271E+01   0.880E-01 -.147E+00 0.178E+00
   -.472E+02 -.134E+03 -.253E+04   0.469E+02 0.134E+03 0.253E+04   0.509E+00 0.323E+00 0.252E+01   -.114E+00 -.159E+00 0.113E+00
   -.999E+01 -.130E+02 -.259E+04   0.101E+02 0.129E+02 0.258E+04   -.432E-01 0.153E+00 0.208E+01   0.962E-03 0.157E-01 0.239E+00
   0.238E+02 -.277E+01 -.170E+04   -.221E+02 0.281E+01 0.170E+04   -.166E+01 0.428E-01 0.253E+01   -.184E-01 -.110E-01 -.318E+00
   -.281E+02 -.301E+00 -.105E+04   0.310E+02 0.362E+00 0.105E+04   -.270E+01 -.408E-01 0.574E+01   -.155E+00 -.818E-02 -.153E+00
   0.240E+03 0.235E+01 -.176E+04   -.287E+03 -.284E+01 0.177E+04   0.463E+02 0.487E+00 -.162E+02   -.454E-01 -.270E-02 -.287E+00
   -.200E+03 -.224E+01 -.178E+04   0.242E+03 0.268E+01 0.182E+04   -.413E+02 -.434E+00 -.333E+02   -.783E-02 -.347E-02 0.113E-01
   -.166E+01 -.423E-02 0.395E+02   0.284E-13 0.258E-12 0.250E-11   0.183E+01 0.389E-01 -.409E+02   -.201E+00 -.199E-01 0.142E+01

 POSITION                                       TOTAL-FORCE (eV/Angst)
      0.00000      0.00000      5.28219        -0.004389      0.002145      0.013676
      2.93046      0.00000      5.28219         0.013074      0.014071      0.045828
      5.86091      0.00000      5.28219        -0.006105      0.012318      0.028469
      1.46523      2.53785      5.28219         0.013392     -0.000725      0.037926
      4.39568      2.53785      5.28219        -0.005711     -0.000528      0.013547
      7.32614      2.53785      5.28219        -0.004285     -0.006508      0.027058
      2.93046      5.07570      5.28219         0.016485     -0.014640      0.040485
      5.86091      5.07570      5.28219        -0.013347     -0.009446      0.034055
      8.79137      5.07570      5.28219        -0.000608     -0.001712      0.026866
      1.46523      0.84595      7.67490        -0.005410      0.001841     -0.018951
      4.39568      0.84595      7.67490         0.011848     -0.032273     -0.091122
      7.32614      0.84595      7.67490        -0.008876      0.011029     -0.001671
      2.93046      3.38380      7.67490        -0.030071      0.020000     -0.072454
      5.86091      3.38380      7.67490         0.029974      0.017486     -0.098860
      8.79137      3.38380      7.67490         0.001801     -0.015625     -0.029611
      4.39568      5.92165      7.67490         0.013056     -0.020710      0.002553
      7.32614      5.92165      7.67490        -0.024966      0.001747     -0.004587
     10.25659      5.92165      7.67490         0.013857      0.008149     -0.000893
      8.79137      1.69398     10.06180         0.002006      0.029894      0.096408
      2.94231      1.69874     10.03918        -0.093953     -0.063519     -0.161171
      5.84906      1.69874     10.03918        -0.009202      0.015377     -0.021247
     10.25255      4.23208     10.04993         0.059364     -0.039227      0.020178
      4.39568      4.21606     10.03918         0.023425      0.004560     -0.079176
      7.33018      4.23208     10.04993        -0.037962     -0.033817      0.017411
     11.72002      6.76656     10.06180        -0.009638     -0.012060      0.020890
      5.86271      6.76656     10.06180         0.032716      0.004645      0.024307
      8.79137      6.76293     10.04993        -0.012170      0.041505     -0.003228
      0.00000      0.00000     12.42562         0.020720     -0.031925     -0.014192
      2.96563      0.06260     12.41952        -0.084403     -0.286640     -0.160489
      5.82574      0.06260     12.41952         0.053886     -0.243228     -0.143023
      1.53702      2.53701     12.41952        -0.372280      0.025305     -0.208578
      7.25434      2.53701     12.41952         0.387137      0.015846     -0.125460
      2.96708      5.01394     12.41952        -0.106008      0.261969     -0.151391
      5.82429      5.01394     12.41952         0.066135      0.229208     -0.129626
      8.79137      5.07570     12.42127         0.027316      0.025744     -0.017648
      4.39568      2.53785     12.13550         0.019838      0.064621      1.156703
      4.96812      2.52697     13.93679         0.079124      0.012048     -0.046208
      3.69974      2.51390     14.07989        -0.028501     -0.003754     -0.054850
      5.95298      2.53652     14.67488        -0.027267     -0.003174      0.028074
    total drift:                               -0.040880      0.014832     -0.024376

  FREE ENERGIE OF THE ION-ELECTRON SYSTEM (eV)
  free  energy   TOTEN  =      -117.10575488 eV

  energy  without entropy=     -117.10575488  energy(sigma->0) =     -117.10575488

 stress matrix after NEB project (eV)
     -7.99966      0.18658      0.19838
      0.18658     -7.79954      0.13385
      0.19838      0.13385     -1.66548
  FORCES: max atom, RMS     0.092417    0.018891
  FORCE total and by dimension    0.117973    0.079124
  Stress total and by dimension   11.304220    7.999659
|           W    W    AA    RRRRR   N    N  II  N    N   GGGG   !!!           |
|           W    W   A  A   R    R  NN   N  II  NN   N  G    G  !!!           |
|           W    W  A    A  R    R  N N  N  II  N N  N  G       !!!           |
|           W WW W  AAAAAA  RRRRR   N  N N  II  N  N N  G  GGG   !            |
|           WW  WW  A    A  R   R   N   NN  II  N   NN  G    G                |
|           W    W  A    A  R    R  N    N  II  N    N   GGGG   !!!           |
|     Tetrahedron method does not include variations of the Fermi             |
|     occupations, so forces and stress will be inaccurate. We suggest        |
|     using a different smearing scheme ISMEAR = 1 or 2 for metals in         |
|     relaxations.                                                            |

 total charge

# of ion       s       p       d       tot
    1        0.416   0.202   9.178   9.797
    2        0.416   0.203   9.177   9.797
    3        0.419   0.202   9.177   9.798
    4        0.417   0.203   9.177   9.798
    5        0.418   0.203   9.176   9.798
    6        0.417   0.203   9.178   9.798
    7        0.417   0.204   9.177   9.797
    8        0.418   0.203   9.177   9.798
    9        0.414   0.203   9.179   9.796
   10        0.407   0.268   9.164   9.839
   11        0.409   0.268   9.167   9.843
   12        0.406   0.269   9.163   9.838
   13        0.406   0.269   9.168   9.843
   14        0.409   0.267   9.167   9.844
   15        0.403   0.271   9.164   9.838
   16        0.405   0.269   9.165   9.838
   17        0.402   0.271   9.165   9.838
   18        0.401   0.271   9.165   9.837
   19        0.397   0.269   9.167   9.833
   20        0.426   0.286   9.156   9.869
   21        0.423   0.295   9.146   9.864
   22        0.399   0.277   9.164   9.840
   23        0.421   0.294   9.151   9.866
   24        0.397   0.276   9.166   9.839
   25        0.402   0.267   9.166   9.835
   26        0.401   0.266   9.168   9.835
   27        0.398   0.274   9.168   9.840
   28        0.416   0.192   9.183   9.790
   29        0.408   0.200   9.187   9.795
   30        0.412   0.203   9.185   9.799
   31        0.394   0.203   9.192   9.789
   32        0.378   0.220   9.186   9.784
   33        0.408   0.200   9.188   9.796
   34        0.411   0.203   9.185   9.799
   35        0.413   0.193   9.183   9.788
   36        0.379   0.365   7.416   8.161
   37        0.881   1.677   0.000   2.558
   38        1.593   3.469   0.000   5.063
   39        1.597   3.507   0.000   5.104
tot         18.755  17.386 328.441 364.582

 BZINTS: Fermi energy:    0.303227;  410.000000 electrons
         Band energy:-0.161787E+04;  BLOECHL correction:   -0.045410