 vasp.6.2.0 18Jan21 (build Jun 12 2021 23:27:24) complex

 executed on             LinuxIFC date 2022.05.26  20:04:58

 INCAR:
   ISMEAR = -5
   SIGMA = 0.1
   ISPIN = 1
   EDIFF = 1.d-5
   EDIFFG = -0.01
   NSW = 0
   NELM = 150
   ENCUT = 500
   ISIF = 2
   IBRION = 2
   LREAL = Auto
   ALGO = Fast
   ICHARG = 11
   LORBIT = 10
   LCHARG = .F.
   LWAVE = .F.

 POTCAR:    PAW_PBE Cu 22Jun2005
 POTCAR:    PAW_PBE Rh 04Feb2005
 POTCAR:    PAW_PBE O 08Apr2002
|           W    W    AA    RRRRR   N    N  II  N    N   GGGG   !!!           |
|           W    W   A  A   R    R  NN   N  II  NN   N  G    G  !!!           |
|           W    W  A    A  R    R  N N  N  II  N N  N  G       !!!           |
|           W WW W  AAAAAA  RRRRR   N  N N  II  N  N N  G  GGG   !            |
|           WW  WW  A    A  R   R   N   NN  II  N   NN  G    G                |
|           W    W  A    A  R    R  N    N  II  N    N   GGGG   !!!           |
|     For optimal performance we recommend to set                             |
|       NCORE = 2 up to number-of-cores-per-socket                            |
|     This setting can greatly improve the performance of VASP for DFT.       |
|     The default, NCORE=1 might be grossly inefficient on modern             |
|     multi-core architectures or massively parallel machines. Do your        |
|     Unfortunately you need to use the default for GW and RPA                |
|     calculations (for HF NCORE is supported but not extensively tested      |
|     yet).                                                                   |

 POTCAR:    PAW_PBE Cu 22Jun2005
   VRHFIN =Cu: d10 p1

   TITEL  = PAW_PBE Cu 22Jun2005
   POMASS =   63.546; ZVAL   =   11.000    mass and valenz
   ENMAX  =  295.446; ENMIN  =  221.585 eV

 POTCAR:    PAW_PBE Rh 04Feb2005
   VRHFIN =Rh: s1 d8

   TITEL  = PAW_PBE Rh 04Feb2005
   POMASS =  102.906; ZVAL   =    9.000    mass and valenz
   ENMAX  =  228.996; ENMIN  =  171.747 eV

 POTCAR:    PAW_PBE O 08Apr2002
   VRHFIN =O: s2p4

   TITEL  = PAW_PBE O 08Apr2002
   POMASS =   16.000; ZVAL   =    6.000    mass and valenz
   ENMAX  =  400.000; ENMIN  =  300.000 eV

 Optimization of the real space projectors (new method)

 maximal supplied QI-value         = 16.25
 optimisation between [QCUT,QGAM] = [ 11.38, 22.75] = [ 36.24,144.96] Ry
 Optimized for a Real-space Cutoff    1.52 Angstroem

   l    n(q)    QCUT    max X(q) W(low)/X(q) W(high)/X(q)  e(spline)
   2      9    11.376     4.610    0.21E-03    0.10E-03    0.26E-06
   2      9    11.376     8.522    0.33E-03    0.16E-03    0.37E-06
   0     10    11.376    51.609    0.62E-04    0.20E-04    0.13E-06
   0     10    11.376    27.747    0.54E-04    0.20E-04    0.13E-06
   1     10    11.376    20.408    0.13E-04    0.99E-04    0.19E-06
   1     10    11.376    13.425    0.12E-04    0.87E-04    0.17E-06
 Optimization of the real space projectors (new method)

[...]

   l    n(q)    QCUT    max X(q) W(low)/X(q) W(high)/X(q)  e(spline)
   2      9    11.327    59.645    0.31E-03    0.12E-04    0.28E-06
   2      9    11.327    58.460    0.31E-03    0.12E-04    0.29E-06
   0     10    11.327    97.683    0.32E-04    0.83E-04    0.31E-06
   0     10    11.327    53.223    0.30E-04    0.78E-04    0.29E-06
   1     10    11.327    13.596    0.49E-03    0.95E-03    0.55E-06
   1     10    11.327     7.885    0.36E-03    0.71E-03    0.41E-06
 Optimization of the real space projectors (new method)

 maximal supplied QI-value         = 24.76
 optimisation between [QCUT,QGAM] = [ 11.39, 22.77] = [ 36.31,145.25] Ry
 Optimized for a Real-space Cutoff    1.00 Angstroem

   l    n(q)    QCUT    max X(q) W(low)/X(q) W(high)/X(q)  e(spline)
   0      7    11.387    20.381    0.39E-03    0.13E-02    0.15E-06
   0      7    11.387    15.268    0.42E-03    0.14E-02    0.17E-06
   1      6    11.387     5.964    0.41E-03    0.11E-02    0.17E-06
   1      6    11.387     5.382    0.39E-03    0.87E-03    0.15E-06
  PAW_PBE Cu 22Jun2005                  :
  PAW_PBE Rh 04Feb2005                  :
  PAW_PBE O 08Apr2002                   :

 POSCAR: Cu-Rh-O
  positions in direct lattice
  velocities in cartesian coordinates
 exchange correlation table for  LEXCH =        8
   RHO(1)=    0.500       N(1)  =     2000
   RHO(2)=  100.500       N(2)  =     4000

 VTST: version 3.2, (02/03/18)

 CHAIN: initializing optimizer

 OPT: Using VASP Conjugate-Gradient optimizer
 CHAIN: Read ICHAIN            0

 POSCAR: Cu-Rh-O
  positions in direct lattice
  velocities in cartesian coordinates

 ion  position               nearest neighbor table
   1  0.000  0.000  0.252-   7 2.57   3 2.57   4 2.57   2 2.57   6 2.57   8 2.57  12 2.57  10 2.57
                            16 2.57
   2  0.333  0.000  0.252-   8 2.57   9 2.57   5 2.57   1 2.57   3 2.57  11 2.57   4 2.57  10 2.57
                            17 2.57
   3  0.667  0.000  0.252-   1 2.57   7 2.57   6 2.57   9 2.57   2 2.57  12 2.57   5 2.57  18 2.57
                            11 2.57
   4  0.000  0.333  0.252-   5 2.57   6 2.57   1 2.57   7 2.57   2 2.57  13 2.57   9 2.57  10 2.57
                            15 2.57
   5  0.333  0.333  0.252-   4 2.57   2 2.57   7 2.57  13 2.57   8 2.57   6 2.57   3 2.57  11 2.57
                            14 2.57
   6  0.667  0.333  0.252-   4 2.57   9 2.57  15 2.57   3 2.57   1 2.57   8 2.57  14 2.57   5 2.57
                            12 2.57
   7  0.000  0.667  0.252-   1 2.57   3 2.57  16 2.57  18 2.57   4 2.57   5 2.57   8 2.57   9 2.57
                            13 2.57
   8  0.333  0.667  0.252-   9 2.57   2 2.57  17 2.57   6 2.57   1 2.57   7 2.57   5 2.57  14 2.57
                            16 2.57
   9  0.667  0.667  0.252-   8 2.57   6 2.57   2 2.57  17 2.57   3 2.57   7 2.57   4 2.57  15 2.57
                            18 2.57
  10  0.111  0.111  0.351-  20 2.55  26 2.56  19 2.56  11 2.57  12 2.57  13 2.57   1 2.57   2 2.57
                             4 2.57  15 2.57  16 2.57  17 2.57
  11  0.444  0.111  0.351-  20 2.55  21 2.55  27 2.56  10 2.57  13 2.57   2 2.57  17 2.57  14 2.57
                            12 2.57   5 2.57   3 2.57  18 2.57
  12  0.778  0.111  0.351-  21 2.55  19 2.56  25 2.56  15 2.57  10 2.57  14 2.57  18 2.57   3 2.57
                             1 2.57  16 2.57  11 2.57   6 2.57
  13  0.111  0.444  0.351-  23 2.55  20 2.55  22 2.56  16 2.57  18 2.57  10 2.57  11 2.57  14 2.57
                             5 2.57   4 2.57   7 2.57  15 2.57
  14  0.444  0.444  0.351-  21 2.55  23 2.55  24 2.56  15 2.57  17 2.57  12 2.57  16 2.57  13 2.57
                            11 2.57   6 2.57   8 2.57   5 2.57
  15  0.778  0.444  0.351-  19 2.56  24 2.56  22 2.56  14 2.57  17 2.57  12 2.57   6 2.57  18 2.57
                            10 2.57   9 2.57  13 2.57   4 2.57
  16  0.111  0.778  0.351-  23 2.55  25 2.56  26 2.56  18 2.57  13 2.57   7 2.57  14 2.57  17 2.57
                            12 2.57  10 2.57   8 2.57   1 2.57
  17  0.444  0.778  0.351-  26 2.56  27 2.56  24 2.56  14 2.57  15 2.57   8 2.57   9 2.57  11 2.57
                            16 2.57  18 2.57  10 2.57   2 2.57
  18  0.778  0.778  0.351-  25 2.56  22 2.56  27 2.56  16 2.57  13 2.57   7 2.57  15 2.57  12 2.57
                            17 2.57   9 2.57   3 2.57  11 2.57
  19  0.889  0.223  0.449-  28 2.55  32 2.55  31 2.55  15 2.56  12 2.56  10 2.56  21 2.56  20 2.56
                            22 2.56  24 2.56  25 2.57  26 2.57
  20  0.222  0.222  0.448-  10 2.55  11 2.55  13 2.55  26 2.56  19 2.56  27 2.57  22 2.57  36 2.57
                            29 2.58  31 2.58  23 2.58  21 2.58
  21  0.557  0.222  0.448-  12 2.55  14 2.55  11 2.55  19 2.56  25 2.56  24 2.57  27 2.57  36 2.57
                            32 2.58  30 2.58  20 2.58  23 2.58
  22  0.889  0.556  0.449-  35 2.54  31 2.56  33 2.56  18 2.56  15 2.56  19 2.56  25 2.56  13 2.56
                            24 2.56  27 2.56  23 2.57  20 2.57
  23  0.222  0.557  0.448-  16 2.55  13 2.55  14 2.55  25 2.56  26 2.56  22 2.57  24 2.57  36 2.57
                            33 2.58  34 2.58  20 2.58  21 2.58
  24  0.556  0.556  0.449-  35 2.54  32 2.56  34 2.56  15 2.56  17 2.56  19 2.56  26 2.56  14 2.56
                            22 2.56  27 2.56  21 2.57  23 2.57
  25  0.889  0.889  0.449-  28 2.55  33 2.55  30 2.55  18 2.56  16 2.56  12 2.56  21 2.56  23 2.56
                            22 2.56  27 2.56  19 2.57  26 2.57
  26  0.223  0.889  0.449-  28 2.55  29 2.55  34 2.55  17 2.56  10 2.56  16 2.56  20 2.56  23 2.56
                            27 2.56  24 2.56  25 2.57  19 2.57
  27  0.556  0.889  0.449-  35 2.54  29 2.56  30 2.56  17 2.56  18 2.56  26 2.56  25 2.56  11 2.56
                            24 2.56  22 2.56  20 2.57  21 2.57
  28  0.000  0.000  0.546-  25 2.55  19 2.55  26 2.55  33 2.56  30 2.56  31 2.56  29 2.56  32 2.56
                            34 2.56
  29  0.333  0.998  0.547-  34 2.54  26 2.55  28 2.56  27 2.56  35 2.56  31 2.58  20 2.58  36 2.58
                            30 2.59
  30  0.669  0.998  0.547-  33 2.54  25 2.55  28 2.56  27 2.56  35 2.56  32 2.58  21 2.58  36 2.58
                            29 2.59
  31  0.998  0.333  0.547-  32 2.54  19 2.55  28 2.56  22 2.56  35 2.56  29 2.58  20 2.58  36 2.58
                            33 2.59
  32  0.669  0.333  0.547-  31 2.54  19 2.55  28 2.56  24 2.56  35 2.56  30 2.58  21 2.58  36 2.58
                            34 2.59
  33  0.998  0.669  0.547-  30 2.54  25 2.55  28 2.56  22 2.56  35 2.56  34 2.58  23 2.58  36 2.58
                            31 2.59
  34  0.333  0.669  0.547-  29 2.54  26 2.55  28 2.56  24 2.56  35 2.56  33 2.58  23 2.58  36 2.58
                            32 2.59
  35  0.667  0.667  0.546-  24 2.54  27 2.54  22 2.54  34 2.56  32 2.56  29 2.56  30 2.56  33 2.56
                            31 2.56
  36  0.333  0.333  0.547-  37 1.79  23 2.57  20 2.57  21 2.57  31 2.58  29 2.58  33 2.58  34 2.58
                            32 2.58  30 2.58
  37  0.333  0.333  0.631-  36 1.79

  LATTYP: Found a hexagonal cell.
 ALAT       =     7.6967864036
 C/A-ratio  =     2.7653617908

  Lattice vectors:

 A1 = (  -3.8483927580,  -6.6656128093,   0.0000000000)
 A2 = (   7.6967864037,   0.0000000000,   0.0000000000)
 A3 = (   0.0000000000,   0.0000000000,  21.2843990326)

Analysis of symmetry for initial positions (statically):
 Subroutine PRICEL returns:
 Original cell was already a primitive cell.

 Routine SETGRP: Setting up the symmetry group for a
 hexagonal supercell.

 Subroutine GETGRP returns: Found  6 space group operations
 (whereof  6 operations were pure point group operations)
 out of a pool of 24 trial point group operations.

The static configuration has the point symmetry C_3v.

Analysis of symmetry for dynamics (positions and initial velocities):
 Subroutine PRICEL returns:
 Original cell was already a primitive cell.

[...]

The dynamic configuration has the point symmetry C_3v.

Analysis of constrained symmetry for selective dynamics:
 Subroutine PRICEL returns:
 Original cell was already a primitive cell.

 Routine SETGRP: Setting up the symmetry group for a
 hexagonal supercell.

 Subroutine GETGRP returns: Found  6 space group operations
[...]
     24      -4.3869      2.00000
     25      -4.3120      2.00000
     26      -4.2636      2.00000
     27      -4.2460      2.00000
     28      -4.2314      2.00000
     29      -4.1687      2.00000
     30      -4.1619      2.00000
     31      -4.1331      2.00000
     32      -4.1101      2.00000
     33      -4.0984      2.00000
     34      -4.0921      2.00000
     35      -4.0730      2.00000
     36      -4.0393      2.00000
     37      -4.0095      2.00000
     38      -3.9462      2.00000
     39      -3.9099      2.00000
     40      -3.8805      2.00000
     41      -3.7804      2.00000
     42      -3.7686      2.00000
     43      -3.7064      2.00000
     44      -3.6886      2.00000
     45      -3.6687      2.00000
     46      -3.6636      2.00000
     47      -3.6309      2.00000
     48      -3.5864      2.00000
     49      -3.5788      2.00000
     50      -3.4606      2.00000
     51      -3.4434      2.00000
     52      -3.4268      2.00000
     53      -3.4137      2.00000
     54      -3.3755      2.00000
     55      -3.3612      2.00000
     56      -3.3484      2.00000
     57      -3.3443      2.00000
     58      -3.3280      2.00000
     59      -3.3229      2.00000
     60      -3.2895      2.00000
[...]
    238       6.3290      0.00000
    239       6.3721      0.00000
    240       6.4477      0.00000
    241       7.0580      0.00000
    242       7.0590      0.00000
    243       7.1609      0.00000
    244       7.1948      0.00000
    245       7.2416      0.00000
    246       7.2972      0.00000
    247       7.3907      0.00000
    248       7.5301      0.00000
    249       7.5883      0.00000
    250       7.7241      0.00000
    251       7.8100      0.00000
    252       7.9718      0.00000

 soft charge-density along one line, spin component           1
         0         1         2         3         4         5         6         7         8         9
 total charge-density along one line

------------------------ aborting loop because EDIFF is reached ----------------------------------------

 total charge

# of ion       s       p       d       tot
    1        0.449   0.282   9.191   9.922
    2        0.449   0.284   9.187   9.921
    3        0.449   0.284   9.187   9.921
    4        0.449   0.284   9.187   9.921
    5        0.449   0.287   9.184   9.920
    6        0.449   0.284   9.187   9.921
    7        0.449   0.284   9.187   9.921
    8        0.449   0.284   9.187   9.921
    9        0.446   0.284   9.185   9.915
   10        0.443   0.371   9.180   9.993
   11        0.441   0.370   9.181   9.992
   12        0.443   0.371   9.180   9.993
   13        0.441   0.370   9.181   9.992
   14        0.441   0.370   9.181   9.992
   15        0.440   0.367   9.184   9.991
   16        0.443   0.371   9.180   9.993
   17        0.440   0.367   9.184   9.991
   18        0.440   0.367   9.184   9.991
   19        0.441   0.373   9.180   9.994
   20        0.454   0.384   9.175  10.013
   21        0.454   0.384   9.175  10.013
   22        0.436   0.369   9.185   9.990
   23        0.454   0.384   9.175  10.013
   24        0.436   0.369   9.185   9.990
   25        0.441   0.373   9.180   9.994
   26        0.441   0.373   9.180   9.994
   27        0.436   0.369   9.185   9.990
   28        0.457   0.286   9.196   9.939
   29        0.441   0.294   9.194   9.929
   30        0.441   0.294   9.194   9.929
   31        0.441   0.294   9.194   9.929
   32        0.441   0.294   9.194   9.929
   33        0.441   0.294   9.194   9.929
   34        0.441   0.294   9.194   9.929
   35        0.449   0.290   9.192   9.931
   36        0.560   0.650   7.438   8.648
   37        1.604   3.205   0.000   4.809
tot         17.722  15.458 328.924 362.104

  FORCE on cell =-STRESS in cart. coord.  units (eV):
  Direction    XX          YY          ZZ          XY          YZ          ZX
  Alpha Z   883.44436   883.44436   883.44436
  Ewald  173801.80305173801.80262************     0.00040     0.00012     0.00019
  Hartree186900.45053186900.45050************     0.00004     0.00006     0.00008
  E(xc)   -2319.73204 -2319.73159 -2323.68144    -0.00039    -0.00004    -0.00006
  Local  ************************373971.77000     0.01879    -0.00059    -0.00099
  n-local  -781.27365  -765.63667  -779.39190     8.55102    -0.05441     0.34519
  augment  3373.61577  3373.63608  3384.89704    -0.01759     0.00024     0.00043
  Kinetic  3374.31438  3378.71174  3381.93673     3.31630     1.89579    -1.12771
  Fock        0.00000     0.00000     0.00000     0.00000     0.00000     0.00000
  Total      -2.05132    -2.05132     3.36879     0.00000    -0.00000    -0.00000
  in kB      -3.00976    -3.00976     4.94280     0.00000    -0.00000    -0.00000

 VOLUME and BASIS-vectors are now :
  energy-cutoff  :      500.00
  volume of cell :     1091.97
      direct lattice vectors                 reciprocal lattice vectors
     7.696786404  0.000000000  0.000000000     0.129924354 -0.075011849  0.000000000
     3.848392758  6.665612809  0.000000000     0.000000000  0.150023716  0.000000000
     0.000000000  0.000000000 21.284399033     0.000000000  0.000000000  0.046982769

  length of vectors
     7.696786404  7.696786404 21.284399033     0.150023716  0.150023716  0.046982769

 FORCES acting on ions
    electron-ion (+dipol)            ewald-force                    non-local-force                 convergence-correction
   -.416E-04 0.151E-06 0.350E+04   0.579E-04 -.438E-05 -.350E+04   0.888E-18 0.177E-18 -.276E+01   -.410E-03 -.204E-03 -.478E+00
   -.320E+00 0.810E-01 0.350E+04   0.193E+00 0.310E-01 -.350E+04   0.503E-01 0.604E-01 -.188E+01   0.791E-01 -.146E+00 -.378E+00
   0.320E+00 0.810E-01 0.350E+04   -.193E+00 0.309E-01 -.350E+04   -.503E-01 0.604E-01 -.188E+01   -.782E-01 -.144E+00 -.377E+00
   -.897E-01 -.317E+00 0.350E+04   0.123E+00 0.152E+00 -.350E+04   0.775E-01 0.134E-01 -.188E+01   -.870E-01 0.142E+00 -.378E+00
   -.655E-04 -.560E-05 0.350E+04   0.116E-03 -.101E-04 -.350E+04   0.165E-17 0.148E-17 -.173E+01   0.123E-01 0.751E-02 -.417E+00
   0.897E-01 -.317E+00 0.350E+04   -.123E+00 0.152E+00 -.350E+04   -.775E-01 0.134E-01 -.188E+01   0.852E-01 0.143E+00 -.377E+00
   0.230E+00 0.236E+00 0.350E+04   -.698E-01 -.183E+00 -.350E+04   0.271E-01 -.738E-01 -.188E+01   -.163E+00 0.403E-02 -.377E+00
   -.230E+00 0.236E+00 0.350E+04   0.695E-01 -.183E+00 -.350E+04   -.271E-01 -.738E-01 -.188E+01   0.167E+00 0.247E-02 -.377E+00
   -.144E-03 -.330E-04 0.350E+04   0.263E-03 0.205E-04 -.350E+04   0.370E-17 0.401E-18 -.233E+01   -.132E-01 -.684E-02 -.360E+00
   0.334E+00 0.193E+00 0.120E+04   0.102E+00 0.590E-01 -.120E+04   -.426E+00 -.246E+00 -.113E+01   -.245E-02 -.143E-02 0.118E+00
   -.909E-04 -.500E+00 0.120E+04   0.190E-03 0.592E+00 -.119E+04   -.865E-08 0.130E+00 -.383E+00   0.123E-01 -.240E+00 0.126E+00
   -.334E+00 0.193E+00 0.120E+04   -.102E+00 0.590E-01 -.120E+04   0.426E+00 -.246E+00 -.113E+01   0.260E-05 0.742E-03 0.120E+00
   -.433E+00 0.250E+00 0.120E+04   0.513E+00 -.296E+00 -.119E+04   0.112E+00 -.649E-01 -.383E+00   -.202E+00 0.132E+00 0.126E+00
   0.433E+00 0.250E+00 0.120E+04   -.513E+00 -.296E+00 -.119E+04   -.112E+00 -.649E-01 -.383E+00   0.226E+00 0.130E+00 0.126E+00
   -.142E-03 -.141E+01 0.120E+04   0.298E-03 0.113E+01 -.120E+04   -.841E-08 0.126E+00 -.862E+00   -.434E-02 0.142E+00 0.397E-01
   -.917E-04 -.386E+00 0.120E+04   0.186E-03 -.118E+00 -.120E+04   -.328E-07 0.492E+00 -.113E+01   -.286E-03 -.158E-02 0.120E+00
   -.122E+01 0.705E+00 0.120E+04   0.982E+00 -.567E+00 -.120E+04   0.109E+00 -.632E-01 -.862E+00   0.122E+00 -.748E-01 0.396E-01
   0.122E+01 0.705E+00 0.120E+04   -.982E+00 -.567E+00 -.120E+04   -.109E+00 -.632E-01 -.862E+00   -.120E+00 -.712E-01 0.411E-01
   -.588E-04 -.553E+00 -.112E+04   0.678E-04 0.381E+00 0.112E+04   -.700E-08 0.105E+00 0.767E+00   -.146E-01 0.454E-01 0.588E+00
   -.181E+02 -.105E+02 -.113E+04   0.192E+02 0.111E+02 0.113E+04   -.107E+01 -.621E+00 -.323E+00   0.464E-01 0.267E-01 0.733E+00
   0.181E+02 -.105E+02 -.113E+04   -.192E+02 0.111E+02 0.113E+04   0.107E+01 -.621E+00 -.323E+00   -.204E-01 0.272E-01 0.733E+00
   -.999E+01 0.577E+01 -.113E+04   0.968E+01 -.559E+01 0.112E+04   0.383E+00 -.221E+00 0.104E+01   -.459E-01 0.276E-01 0.596E+00
   -.784E-04 0.209E+02 -.113E+04   0.146E-03 -.221E+02 0.113E+04   -.826E-07 0.124E+01 -.323E+00   0.122E-01 -.324E-01 0.733E+00
   0.999E+01 0.577E+01 -.113E+04   -.968E+01 -.559E+01 0.112E+04   -.383E+00 -.221E+00 0.104E+01   0.435E-01 0.242E-01 0.596E+00
   0.479E+00 0.277E+00 -.112E+04   -.330E+00 -.191E+00 0.112E+04   -.910E-01 -.526E-01 0.767E+00   -.541E-01 -.312E-01 0.588E+00
   -.479E+00 0.277E+00 -.112E+04   0.330E+00 -.191E+00 0.112E+04   0.910E-01 -.526E-01 0.767E+00   0.323E-01 -.351E-01 0.588E+00
   -.127E-03 -.115E+02 -.113E+04   0.244E-03 0.112E+02 0.112E+04   -.294E-07 0.442E+00 0.104E+01   0.860E-03 -.536E-01 0.596E+00
   -.325E-04 0.190E-04 -.342E+04   0.374E-04 -.339E-04 0.342E+04   -.248E-17 0.268E-17 0.207E+01   -.717E-03 -.362E-03 0.579E+00
   -.392E+01 -.387E+01 -.341E+04   0.316E+01 0.215E+01 0.341E+04   0.538E+00 0.135E+01 0.270E+01   0.946E-01 0.122E+00 0.524E+00
   0.392E+01 -.387E+01 -.341E+04   -.316E+01 0.215E+01 0.341E+04   -.538E+00 0.135E+01 0.270E+01   -.930E-01 0.125E+00 0.523E+00
   -.531E+01 -.146E+01 -.341E+04   0.345E+01 0.166E+01 0.341E+04   0.144E+01 -.211E+00 0.270E+01   0.153E+00 0.207E-01 0.524E+00
   0.531E+01 -.146E+01 -.341E+04   -.345E+01 0.166E+01 0.341E+04   -.144E+01 -.211E+00 0.270E+01   -.155E+00 0.211E-01 0.523E+00
   -.139E+01 0.533E+01 -.341E+04   0.285E+00 -.381E+01 0.341E+04   0.904E+00 -.114E+01 0.270E+01   0.616E-01 -.143E+00 0.523E+00
   0.139E+01 0.533E+01 -.341E+04   -.285E+00 -.381E+01 0.341E+04   -.904E+00 -.114E+01 0.270E+01   -.586E-01 -.145E+00 0.523E+00
   -.155E-03 -.281E-04 -.343E+04   0.257E-03 0.378E-05 0.343E+04   -.196E-17 -.464E-19 0.226E+01   -.131E-01 -.674E-02 0.513E+00
   -.147E-04 -.153E-04 -.258E+04   0.111E-03 0.224E-04 0.259E+04   0.103E-17 0.254E-17 -.311E+01   0.344E-02 0.207E-02 0.629E+00
   0.170E-03 -.853E-04 -.221E+04   0.163E-04 0.766E-05 0.223E+04   0.325E-17 -.164E-17 -.267E+02   0.325E-02 0.198E-02 0.134E-01
   -.869E-04 -.104E-03 0.222E+02   0.133E-12 0.616E-14 -.909E-12   0.224E-15 -.221E-15 -.301E+02   0.283E-01 0.134E-01 0.796E+01

 POSITION                                       TOTAL-FORCE (eV/Angst)
      0.00000      0.00000      5.37156        -0.000000     -0.000000      0.004240
      2.56560      0.00000      5.37156         0.003083      0.027321      0.057719
      5.13119      0.00000      5.37156        -0.003083      0.027321      0.057719
      1.28280      2.22187      5.37156         0.025202     -0.010991      0.057719
      3.84839      2.22187      5.37156        -0.000000     -0.000000      0.051299
      6.41399      2.22187      5.37156        -0.025202     -0.010991      0.057719
      2.56560      4.44374      5.37156         0.022119     -0.016331      0.057719
      5.13119      4.44374      5.37156        -0.022119     -0.016331      0.057719
      7.69679      4.44374      5.37156        -0.000000     -0.000000      0.025569
      1.28280      0.74062      7.46636         0.009904      0.005718     -0.056079
      3.84839      0.74062      7.46636         0.000000     -0.025085     -0.042222
      6.41399      0.74062      7.46636        -0.009904      0.005718     -0.056079
      2.56560      2.96249      7.46636        -0.021724      0.012542     -0.042222
      5.13119      2.96249      7.46636         0.021724      0.012542     -0.042222
      7.69679      2.96249      7.46636         0.000000     -0.008542     -0.030292
      3.84839      5.18437      7.46636         0.000000     -0.011436     -0.056079
      6.41399      5.18437      7.46636        -0.007398      0.004271     -0.030292
      8.97958      5.18437      7.46636         0.007398      0.004271     -0.030292
      7.69679      1.48472      9.55134         0.000000     -0.015634     -0.017897
      2.55991      1.47796      9.54139         0.006393      0.003691     -0.197763
      5.13688      1.47796      9.54139        -0.006393      0.003691     -0.197763
      8.97851      3.70374      9.55759         0.025504     -0.014725     -0.033687
      3.84839      3.70969      9.54139         0.000000     -0.007382     -0.197763
      6.41506      3.70374      9.55759        -0.025504     -0.014725     -0.033687
     10.25938      5.92325      9.55134         0.013540      0.007817     -0.017897
      5.13420      5.92325      9.55134        -0.013540      0.007817     -0.017897
      7.69679      5.92375      9.55759        -0.000000      0.029450     -0.033687
      0.00000      0.00000     11.61948        -0.000000     -0.000000      0.015658
      6.40389      6.65412     11.64269        -0.123926     -0.235728     -0.087383
      8.98968      6.65412     11.64269         0.123926     -0.235728     -0.087383
      8.96459      2.21887     11.64269        -0.266110      0.010541     -0.087383
      6.42899      2.21887     11.64269         0.266110      0.010541     -0.087383
     10.25748      4.45823     11.64269        -0.142184      0.225187     -0.087383
      5.13610      4.45823     11.64269         0.142184      0.225187     -0.087383
      7.69679      4.44374     11.62337        -0.000000     -0.000000      0.038582
      3.84839      2.22187     11.63466        -0.000000     -0.000000      1.192579
      3.84839      2.22187     13.42134        -0.000000     -0.000000     -0.016121
    total drift:                                0.028224      0.013291      0.071692

  FREE ENERGIE OF THE ION-ELECTRON SYSTEM (eV)
  free  energy   TOTEN  =      -134.71226827 eV

  energy  without entropy=     -134.71226827  energy(sigma->0) =     -134.71226827

 stress matrix after NEB project (eV)
     -2.05132      0.00000     -0.00000
      0.00000     -2.05132     -0.00000
     -0.00000     -0.00000      3.36879
  FORCES: max atom, RMS     0.016121    0.002650
  FORCE total and by dimension    0.016121    0.016121
  Stress total and by dimension    4.445732    3.368788
|           W    W    AA    RRRRR   N    N  II  N    N   GGGG   !!!           |
|           W    W   A  A   R    R  NN   N  II  NN   N  G    G  !!!           |
|           W    W  A    A  R    R  N N  N  II  N N  N  G       !!!           |
|           W WW W  AAAAAA  RRRRR   N  N N  II  N  N N  G  GGG   !            |
|           WW  WW  A    A  R   R   N   NN  II  N   NN  G    G                |
|           W    W  A    A  R    R  N    N  II  N    N   GGGG   !!!           |
|     Tetrahedron method does not include variations of the Fermi             |
|     occupations, so forces and stress will be inaccurate. We suggest        |
|     using a different smearing scheme ISMEAR = 1 or 2 for metals in         |
|     relaxations.                                                            |

 total charge

# of ion       s       p       d       tot
    1        0.449   0.282   9.191   9.922
    2        0.449   0.284   9.187   9.921
    3        0.449   0.284   9.187   9.921
    4        0.449   0.284   9.187   9.921
    5        0.449   0.287   9.184   9.920
    6        0.449   0.284   9.187   9.921
    7        0.449   0.284   9.187   9.921
    8        0.449   0.284   9.187   9.921
    9        0.446   0.284   9.185   9.915
   10        0.443   0.371   9.180   9.993
   11        0.441   0.370   9.181   9.992
   12        0.443   0.371   9.180   9.993
   13        0.441   0.370   9.181   9.992
   14        0.441   0.370   9.181   9.992
   15        0.440   0.367   9.184   9.991
   16        0.443   0.371   9.180   9.993
   17        0.440   0.367   9.184   9.991
   18        0.440   0.367   9.184   9.991
   19        0.441   0.373   9.180   9.994
   20        0.454   0.384   9.175  10.013
   21        0.454   0.384   9.175  10.013
   22        0.436   0.369   9.185   9.990
   23        0.454   0.384   9.175  10.013
   24        0.436   0.369   9.185   9.990
   25        0.441   0.373   9.180   9.994
   26        0.441   0.373   9.180   9.994
   27        0.436   0.369   9.185   9.990
   28        0.457   0.286   9.196   9.939
   29        0.441   0.294   9.194   9.929
   30        0.441   0.294   9.194   9.929
   31        0.441   0.294   9.194   9.929
   32        0.441   0.294   9.194   9.929
   33        0.441   0.294   9.194   9.929
   34        0.441   0.294   9.194   9.929
   35        0.449   0.290   9.192   9.931
   36        0.560   0.650   7.438   8.648
   37        1.604   3.205   0.000   4.809
tot         17.722  15.458 328.924 362.104

 BZINTS: Fermi energy:    0.008918;  400.000000 electrons
         Band energy:-0.115536E+04;  BLOECHL correction:   -0.044086