 vasp.6.2.0 18Jan21 (build Jun 12 2021 23:27:24) complex

 executed on             LinuxIFC date 2022.05.30  17:33:24

 INCAR:
   ISMEAR = -5
   SIGMA = 0.1
   ISPIN = 1
   EDIFF = 1.d-5
   EDIFFG = -0.01
   NSW = 0
   NELM = 150
   ENCUT = 500
   ISIF = 2
   IBRION = 2
   LREAL = Auto
   ALGO = Fast
   ICHARG = 11
   LORBIT = 10
   LCHARG = .F.
   LWAVE = .F.

 POTCAR:    PAW_PBE Ag 02Apr2005
 POTCAR:    PAW_PBE Ta 17Jan2003
 POTCAR:    PAW_PBE C 08Apr2002
|           W    W    AA    RRRRR   N    N  II  N    N   GGGG   !!!           |
|           W    W   A  A   R    R  NN   N  II  NN   N  G    G  !!!           |
|           W    W  A    A  R    R  N N  N  II  N N  N  G       !!!           |
|           W WW W  AAAAAA  RRRRR   N  N N  II  N  N N  G  GGG   !            |
|           WW  WW  A    A  R   R   N   NN  II  N   NN  G    G                |
|           W    W  A    A  R    R  N    N  II  N    N   GGGG   !!!           |
|     For optimal performance we recommend to set                             |
|       NCORE = 2 up to number-of-cores-per-socket                            |
|     This setting can greatly improve the performance of VASP for DFT.       |
|     The default, NCORE=1 might be grossly inefficient on modern             |
|     multi-core architectures or massively parallel machines. Do your        |
|     Unfortunately you need to use the default for GW and RPA                |
|     calculations (for HF NCORE is supported but not extensively tested      |
|     yet).                                                                   |

 POTCAR:    PAW_PBE Ag 02Apr2005
   VRHFIN =Ag : s1 d10

   TITEL  = PAW_PBE Ag 02Apr2005
   POMASS =  107.868; ZVAL   =   11.000    mass and valenz
   ENMAX  =  249.844; ENMIN  =  187.383 eV

 POTCAR:    PAW_PBE Ta 17Jan2003
   VRHFIN =Ta:  6s5d

   TITEL  = PAW_PBE Ta 17Jan2003
   POMASS =  180.948; ZVAL   =    5.000    mass and valenz
   ENMAX  =  223.667; ENMIN  =  167.750 eV

 POTCAR:    PAW_PBE C 08Apr2002
   VRHFIN =C: s2p2

   TITEL  = PAW_PBE C 08Apr2002
   POMASS =   12.011; ZVAL   =    4.000    mass and valenz
   ENMAX  =  400.000; ENMIN  =  300.000 eV

 Optimization of the real space projectors (new method)

 maximal supplied QI-value         = 15.12
 optimisation between [QCUT,QGAM] = [ 11.34, 22.83] = [ 36.00,145.93] Ry
 Optimized for a Real-space Cutoff    1.43 Angstroem

   l    n(q)    QCUT    max X(q) W(low)/X(q) W(high)/X(q)  e(spline)
   2      9    11.338    53.897    0.16E-03    0.20E-03    0.28E-06
   2      9    11.338    52.416    0.16E-03    0.20E-03    0.29E-06
   0     10    11.338   122.045    0.31E-04    0.76E-04    0.15E-06
   0     10    11.338    73.629    0.30E-04    0.72E-04    0.15E-06
   1      9    11.338    15.255    0.20E-03    0.19E-04    0.17E-06
   1      9    11.338     9.562    0.16E-03    0.15E-04    0.14E-06
 Optimization of the real space projectors (new method)

[...]

   l    n(q)    QCUT    max X(q) W(low)/X(q) W(high)/X(q)  e(spline)
   2     10    11.437    62.315    0.14E-03    0.26E-03    0.80E-06
   2     10    11.437    52.185    0.14E-03    0.26E-03    0.80E-06
   0     11    11.437   103.837    0.25E-04    0.17E-04    0.84E-07
   0     11    11.437    59.728    0.20E-04    0.15E-04    0.73E-07
   1     11    11.437    13.958    0.47E-03    0.12E-03    0.89E-06
   1     11    11.437     8.441    0.33E-03    0.88E-04    0.61E-06
 Optimization of the real space projectors (new method)

 maximal supplied QI-value         = 25.13
 optimisation between [QCUT,QGAM] = [ 11.31, 22.87] = [ 35.82,146.48] Ry
 Optimized for a Real-space Cutoff    1.00 Angstroem

   l    n(q)    QCUT    max X(q) W(low)/X(q) W(high)/X(q)  e(spline)
   0      7    11.310   115.676    0.43E-03    0.13E-02    0.19E-06
   0      7    11.310    87.132    0.43E-03    0.13E-02    0.18E-06
   1      6    11.310     4.429    0.42E-03    0.74E-03    0.11E-06
   1      6    11.310     2.733    0.34E-03    0.55E-03    0.92E-07
  PAW_PBE Ag 02Apr2005                  :
  PAW_PBE Ta 17Jan2003                  :
  PAW_PBE C 08Apr2002                   :

 POSCAR: Ag-Ta-C
  positions in direct lattice
  velocities in cartesian coordinates
 exchange correlation table for  LEXCH =        8
   RHO(1)=    0.500       N(1)  =     2000
   RHO(2)=  100.500       N(2)  =     4000

 VTST: version 3.2, (02/03/18)

 CHAIN: initializing optimizer

 OPT: Using VASP Conjugate-Gradient optimizer
 CHAIN: Read ICHAIN            0

 POSCAR: Ag-Ta-C
  positions in direct lattice
  velocities in cartesian coordinates

 ion  position               nearest neighbor table
   1  0.000  0.000  0.217-   2 2.93   8 2.93   7 2.93   6 2.93   4 2.93  12 2.93  16 2.93  10 2.93
                             3 2.93
   2  0.333  0.000  0.217-   1 2.93   8 2.93   9 2.93   3 2.93   4 2.93   5 2.93  10 2.93  17 2.93
                            11 2.93
   3  0.667  0.000  0.217-   9 2.93   2 2.93   5 2.93  11 2.93   7 2.93  18 2.93   1 2.93   6 2.93
                            12 2.93
   4  0.000  0.333  0.217-   5 2.93   6 2.93   2 2.93   1 2.93   7 2.93  13 2.93  15 2.93   9 2.93
                            10 2.93
   5  0.333  0.333  0.217-   4 2.93   3 2.93   7 2.93   2 2.93   8 2.93  14 2.93  13 2.93  11 2.93
                             6 2.93
   6  0.667  0.333  0.217-   4 2.93   9 2.93   1 2.93  15 2.93   8 2.93  12 2.93   3 2.93   5 2.93
                            14 2.93
   7  0.000  0.667  0.217-   8 2.93   1 2.93   5 2.93   3 2.93   4 2.93  16 2.93  18 2.93  13 2.93
                             9 2.93
   8  0.333  0.667  0.217-   7 2.93   1 2.93   2 2.93   9 2.93   5 2.93  16 2.93   6 2.93  17 2.93
                            14 2.93
   9  0.667  0.667  0.217-   3 2.93   2 2.93   8 2.93   6 2.93  17 2.93   4 2.93  15 2.93   7 2.93
                            18 2.93
  10  0.111  0.111  0.315-  20 2.89  12 2.93  16 2.93  15 2.93  17 2.93  13 2.93  11 2.93   2 2.93
                             1 2.93   4 2.93  19 2.93  26 2.93
  11  0.444  0.111  0.315-  21 2.90  20 2.90  14 2.93  17 2.93  18 2.93   3 2.93  12 2.93  13 2.93
                            10 2.93   5 2.93   2 2.93  27 2.93
  12  0.778  0.111  0.315-  21 2.89  10 2.93  16 2.93  18 2.93  15 2.93  11 2.93   1 2.93  14 2.93
                             6 2.93   3 2.93  25 2.93  19 2.93
  13  0.111  0.444  0.315-  20 2.90  23 2.90  15 2.93  14 2.93  18 2.93  10 2.93  11 2.93  16 2.93
                             4 2.93   5 2.93   7 2.93  22 2.93
  14  0.444  0.444  0.315-  23 2.90  21 2.90  13 2.93  11 2.93  16 2.93   5 2.93  12 2.93  17 2.93
                             8 2.93  15 2.93   6 2.93  24 2.93
  15  0.778  0.444  0.315-  19 2.93  24 2.93  22 2.93  13 2.93  10 2.93  12 2.93  17 2.93  18 2.93
                             4 2.93   6 2.93   9 2.93  14 2.93
  16  0.111  0.778  0.315-  23 2.89  18 2.93  12 2.93  10 2.93  14 2.93  17 2.93  13 2.93   7 2.93
                             8 2.93   1 2.93  26 2.93  25 2.93
  17  0.444  0.778  0.315-  26 2.93  27 2.93  24 2.93  11 2.93  10 2.93   9 2.93  18 2.93  15 2.93
                            16 2.93   2 2.93  14 2.93   8 2.93
  18  0.778  0.778  0.315-  25 2.93  22 2.93  27 2.93  16 2.93  12 2.93  13 2.93  11 2.93  17 2.93
                            15 2.93   7 2.93   3 2.93   9 2.93
  19  0.889  0.223  0.413-  20 2.92  21 2.92  24 2.93  22 2.93  28 2.93  15 2.93  10 2.93  12 2.93
                            26 2.94  25 2.94  32 2.99  31 2.99
  20  0.222  0.222  0.411-  36 2.78  10 2.89  13 2.90  11 2.90  19 2.92  26 2.92  27 2.93  22 2.93
                            21 2.95  23 2.95  31 2.97  29 2.97
  21  0.557  0.222  0.411-  36 2.78  12 2.89  11 2.90  14 2.90  25 2.92  19 2.92  27 2.93  24 2.93
                            20 2.95  23 2.95  30 2.97  32 2.97
  22  0.888  0.556  0.413-  24 2.92  27 2.92  25 2.93  19 2.93  18 2.93  15 2.93  13 2.93  23 2.93
                            20 2.93  35 2.94  33 2.96  31 2.96
  23  0.222  0.557  0.411-  36 2.78  16 2.89  14 2.90  13 2.90  26 2.92  25 2.92  22 2.93  24 2.93
                            21 2.95  20 2.95  34 2.97  33 2.97
  24  0.556  0.556  0.413-  27 2.92  22 2.92  19 2.93  26 2.93  15 2.93  17 2.93  14 2.93  23 2.93
                            21 2.93  35 2.94  32 2.96  34 2.96
  25  0.889  0.889  0.413-  23 2.92  21 2.92  22 2.93  27 2.93  28 2.93  18 2.93  16 2.93  12 2.93
                            26 2.94  19 2.94  33 2.99  30 2.99
  26  0.223  0.889  0.413-  23 2.92  20 2.92  27 2.93  24 2.93  28 2.93  17 2.93  16 2.93  10 2.93
                            25 2.94  19 2.94  34 2.99  29 2.99
  27  0.556  0.888  0.413-  24 2.92  22 2.92  26 2.93  25 2.93  17 2.93  18 2.93  11 2.93  20 2.93
                            21 2.93  35 2.94  29 2.96  30 2.96
  28  0.000  0.000  0.511-  26 2.93  25 2.93  19 2.93  29 2.96  34 2.96  33 2.96  32 2.96  31 2.96
                            30 2.96
  29  0.334  0.006  0.513-  30 2.88  31 2.88  36 2.89  35 2.96  28 2.96  27 2.96  20 2.97  26 2.99
                            34 3.03
  30  0.661  0.006  0.513-  29 2.88  32 2.88  36 2.89  35 2.96  28 2.96  27 2.96  21 2.97  25 2.99
                            33 3.03
  31  0.006  0.334  0.513-  33 2.88  29 2.88  36 2.89  35 2.96  28 2.96  22 2.96  20 2.97  19 2.99
                            32 3.03
  32  0.661  0.334  0.513-  34 2.88  30 2.88  36 2.89  35 2.96  28 2.96  24 2.96  21 2.97  19 2.99
                            31 3.03
  33  0.006  0.661  0.513-  31 2.88  34 2.88  36 2.89  35 2.96  28 2.96  22 2.96  23 2.97  25 2.99
                            30 3.03
  34  0.334  0.661  0.513-  32 2.88  33 2.88  36 2.89  35 2.96  28 2.96  24 2.96  23 2.97  26 2.99
                            29 3.03
  35  0.667  0.667  0.512-  24 2.94  27 2.94  22 2.94  30 2.96  32 2.96  29 2.96  34 2.96  31 2.96
                            33 2.96
  36  0.333  0.333  0.502-  37 1.84  21 2.78  20 2.78  23 2.78  31 2.89  33 2.89  30 2.89  29 2.89
                            34 2.89  32 2.89
  37  0.333  0.333  0.578-  36 1.84

  LATTYP: Found a hexagonal cell.
 ALAT       =     8.7913665772
 C/A-ratio  =     2.7711238095

  Lattice vectors:

 A1 = (  -4.3956832886,  -7.6135467898,   0.0000000000)
 A2 = (   8.7913665771,   0.0000000000,   0.0000000000)
 A3 = (   0.0000000000,   0.0000000000,  24.3619652401)

Analysis of symmetry for initial positions (statically):
 Subroutine PRICEL returns:
 Original cell was already a primitive cell.

 Routine SETGRP: Setting up the symmetry group for a
 hexagonal supercell.

 Subroutine GETGRP returns: Found  6 space group operations
 (whereof  6 operations were pure point group operations)
 out of a pool of 24 trial point group operations.

The static configuration has the point symmetry C_3v.

Analysis of symmetry for dynamics (positions and initial velocities):
 Subroutine PRICEL returns:
 Original cell was already a primitive cell.

[...]

The dynamic configuration has the point symmetry C_3v.

Analysis of constrained symmetry for selective dynamics:
 Subroutine PRICEL returns:
 Original cell was already a primitive cell.

 Routine SETGRP: Setting up the symmetry group for a
 hexagonal supercell.

 Subroutine GETGRP returns: Found  6 space group operations
[...]
     24      -5.2694      2.00000
     25      -5.2569      2.00000
     26      -5.2415      2.00000
     27      -5.2311      2.00000
     28      -5.1958      2.00000
     29      -5.1947      2.00000
     30      -5.1897      2.00000
     31      -5.1611      2.00000
     32      -5.1515      2.00000
     33      -5.1207      2.00000
     34      -5.1183      2.00000
     35      -5.0822      2.00000
     36      -5.0596      2.00000
     37      -5.0412      2.00000
     38      -5.0041      2.00000
     39      -4.9772      2.00000
     40      -4.9745      2.00000
     41      -4.9591      2.00000
     42      -4.9454      2.00000
     43      -4.9319      2.00000
     44      -4.8470      2.00000
     45      -4.8244      2.00000
     46      -4.8102      2.00000
     47      -4.8002      2.00000
     48      -4.7974      2.00000
     49      -4.7904      2.00000
     50      -4.7860      2.00000
     51      -4.7840      2.00000
     52      -4.7677      2.00000
     53      -4.7588      2.00000
     54      -4.6998      2.00000
     55      -4.6942      2.00000
     56      -4.6841      2.00000
     57      -4.6646      2.00000
     58      -4.6521      2.00000
     59      -4.6347      2.00000
     60      -4.6202      2.00000
[...]
    238       5.8157      0.00000
    239       5.8688      0.00000
    240       6.0757      0.00000
    241       6.5181      0.00000
    242       6.5273      0.00000
    243       6.6103      0.00000
    244       6.6191      0.00000
    245       6.6558      0.00000
    246       6.7125      0.00000
    247       6.7941      0.00000
    248       6.8699      0.00000
    249       6.9493      0.00000
    250       7.0316      0.00000
    251       7.1729      0.00000
    252       7.2159      0.00000

 soft charge-density along one line, spin component           1
         0         1         2         3         4         5         6         7         8         9
 total charge-density along one line

------------------------ aborting loop because EDIFF is reached ----------------------------------------

 total charge

# of ion       s       p       d       tot
    1        0.416   0.204   9.177   9.797
    2        0.415   0.203   9.177   9.795
    3        0.415   0.203   9.177   9.795
    4        0.415   0.203   9.177   9.795
    5        0.420   0.200   9.178   9.798
    6        0.415   0.203   9.177   9.795
    7        0.415   0.203   9.177   9.795
    8        0.415   0.203   9.177   9.795
    9        0.414   0.203   9.177   9.795
   10        0.406   0.272   9.163   9.841
   11        0.408   0.269   9.166   9.843
   12        0.406   0.272   9.163   9.841
   13        0.408   0.269   9.166   9.843
   14        0.408   0.269   9.166   9.843
   15        0.403   0.270   9.163   9.836
   16        0.406   0.272   9.163   9.841
   17        0.403   0.270   9.163   9.836
   18        0.403   0.270   9.163   9.836
   19        0.398   0.264   9.167   9.830
   20        0.430   0.303   9.144   9.878
   21        0.430   0.303   9.144   9.878
   22        0.391   0.272   9.166   9.829
   23        0.430   0.303   9.144   9.878
   24        0.391   0.272   9.166   9.829
   25        0.398   0.264   9.167   9.830
   26        0.398   0.264   9.167   9.830
   27        0.391   0.272   9.166   9.829
   28        0.412   0.197   9.177   9.787
   29        0.428   0.217   9.158   9.803
   30        0.428   0.217   9.158   9.803
   31        0.428   0.217   9.158   9.803
   32        0.428   0.217   9.158   9.803
   33        0.428   0.217   9.158   9.803
   34        0.428   0.217   9.158   9.803
   35        0.412   0.196   9.177   9.785
   36        0.718   0.624   3.550   4.892
   37        0.990   1.234   0.000   2.223
tot         16.153  10.331 324.353 350.836

  FORCE on cell =-STRESS in cart. coord.  units (eV):
  Direction    XX          YY          ZZ          XY          YZ          ZX
  Alpha Z   685.68935   685.68935   685.68935
  Ewald  150168.82705150168.82697************    -0.00000    -0.00001     0.00001
  Hartree159929.22571159929.22567************    -0.00000    -0.00000     0.00000
  E(xc)   -2063.77758 -2063.77757 -2073.27055    -0.00001     0.00000     0.00000
  Local  ************************321356.20457     0.00028    -0.00003    -0.00008
  n-local  -327.08644  -311.94875  -331.05770     9.20307    -0.44075     0.52044
  augment  3220.90027  3220.90038  3235.34688    -0.00011     0.00003     0.00001
  Kinetic  4871.46346  4874.52293  4913.68163     3.77246     0.76319    -0.28112
  Fock        0.00000     0.00000     0.00000     0.00000     0.00000     0.00000
  Total      -7.50502    -7.50502    -0.18994    -0.00000    -0.00000     0.00000
  in kB      -7.37406    -7.37406    -0.18662    -0.00000    -0.00000     0.00000

 VOLUME and BASIS-vectors are now :
  energy-cutoff  :      500.00
  volume of cell :     1630.63
      direct lattice vectors                 reciprocal lattice vectors
     8.791366577  0.000000000  0.000000000     0.113747958 -0.065672414  0.000000000
     4.395683289  7.613546790  0.000000000     0.000000000  0.131344829  0.000000000
     0.000000000  0.000000000 24.361965240     0.000000000  0.000000000  0.041047592

  length of vectors
     8.791366577  8.791366577 24.361965240     0.131344829  0.131344829  0.041047592

 FORCES acting on ions
    electron-ion (+dipol)            ewald-force                    non-local-force                 convergence-correction
   0.464E-04 -.280E-04 0.265E+04   -.953E-04 0.593E-04 -.265E+04   -.128E-18 -.669E-17 -.198E+01   -.115E-03 -.127E-03 -.178E+00
   -.310E+00 0.544E-01 0.265E+04   0.175E-01 -.194E+00 -.265E+04   0.912E-01 0.979E-01 -.167E+01   0.188E+00 0.333E-01 -.169E+00
   0.310E+00 0.544E-01 0.265E+04   -.174E-01 -.194E+00 -.265E+04   -.912E-01 0.979E-01 -.167E+01   -.189E+00 0.352E-01 -.168E+00
   -.108E+00 -.296E+00 0.265E+04   -.159E+00 0.112E+00 -.265E+04   0.130E+00 0.300E-01 -.167E+01   0.123E+00 0.147E+00 -.169E+00
   -.697E-05 -.196E-04 0.265E+04   0.980E-04 -.197E-05 -.265E+04   -.716E-19 -.831E-18 -.147E+01   0.622E-02 0.379E-02 -.848E-01
   0.108E+00 -.296E+00 0.265E+04   0.159E+00 0.112E+00 -.265E+04   -.130E+00 0.300E-01 -.167E+01   -.125E+00 0.148E+00 -.168E+00
   0.202E+00 0.241E+00 0.265E+04   -.177E+00 0.818E-01 -.265E+04   0.392E-01 -.128E+00 -.167E+01   -.636E-01 -.181E+00 -.168E+00
   -.202E+00 0.241E+00 0.265E+04   0.177E+00 0.817E-01 -.265E+04   -.392E-01 -.128E+00 -.167E+01   0.652E-01 -.182E+00 -.168E+00
   0.364E-04 -.131E-04 0.265E+04   0.792E-04 -.643E-04 -.265E+04   -.130E-17 0.957E-18 -.182E+01   -.664E-02 -.344E-02 -.976E-01
   0.227E+01 0.131E+01 0.869E+03   -.220E+01 -.127E+01 -.868E+03   -.246E+00 -.142E+00 -.634E+00   0.146E+00 0.844E-01 0.146E+00
   -.278E-04 0.139E+01 0.867E+03   0.399E-04 -.151E+01 -.867E+03   0.144E-12 0.219E-01 -.559E+00   0.620E-02 0.671E-01 0.119E+00
   -.227E+01 0.131E+01 0.869E+03   0.220E+01 -.127E+01 -.868E+03   0.246E+00 -.142E+00 -.634E+00   -.148E+00 0.854E-01 0.146E+00
   0.120E+01 -.693E+00 0.867E+03   -.131E+01 0.754E+00 -.867E+03   0.190E-01 -.110E-01 -.559E+00   0.611E-01 -.282E-01 0.120E+00
   -.120E+01 -.693E+00 0.867E+03   0.131E+01 0.754E+00 -.867E+03   -.190E-01 -.110E-01 -.559E+00   -.505E-01 -.293E-01 0.118E+00
   0.156E-04 -.362E+00 0.867E+03   -.108E-03 0.236E+00 -.866E+03   0.297E-12 0.452E-01 -.649E+00   -.156E-02 0.752E-01 0.356E-01
   -.808E-05 -.262E+01 0.869E+03   0.205E-04 0.254E+01 -.868E+03   0.187E-11 0.284E+00 -.634E+00   -.175E-03 -.170E+00 0.145E+00
   -.313E+00 0.181E+00 0.867E+03   0.205E+00 -.118E+00 -.866E+03   0.391E-01 -.226E-01 -.649E+00   0.646E-01 -.390E-01 0.354E-01
   0.313E+00 0.181E+00 0.867E+03   -.205E+00 -.118E+00 -.866E+03   -.391E-01 -.226E-01 -.649E+00   -.645E-01 -.372E-01 0.362E-01
   0.383E-04 -.482E+01 -.931E+03   -.126E-03 0.462E+01 0.929E+03   0.877E-12 0.134E+00 0.990E+00   0.429E-02 0.723E-01 0.187E+00
   -.256E+02 -.148E+02 -.933E+03   0.257E+02 0.148E+02 0.933E+03   -.464E+00 -.268E+00 -.525E+00   0.125E+00 0.727E-01 0.173E+00
   0.256E+02 -.148E+02 -.933E+03   -.257E+02 0.148E+02 0.933E+03   0.464E+00 -.268E+00 -.525E+00   -.116E+00 0.724E-01 0.173E+00
   -.122E+02 0.705E+01 -.929E+03   0.118E+02 -.682E+01 0.928E+03   0.309E+00 -.179E+00 0.560E+00   0.127E+00 -.676E-01 0.145E+00
   -.497E-04 0.296E+02 -.933E+03   0.372E-04 -.297E+02 0.933E+03   0.352E-11 0.535E+00 -.525E+00   -.740E-03 -.146E+00 0.172E+00
   0.122E+02 0.705E+01 -.929E+03   -.118E+02 -.682E+01 0.928E+03   -.309E+00 -.179E+00 0.560E+00   -.117E+00 -.678E-01 0.145E+00
   0.417E+01 0.241E+01 -.931E+03   -.400E+01 -.231E+01 0.929E+03   -.116E+00 -.668E-01 0.990E+00   -.562E-01 -.314E-01 0.186E+00
   -.417E+01 0.241E+01 -.931E+03   0.400E+01 -.231E+01 0.929E+03   0.116E+00 -.668E-01 0.990E+00   0.652E-01 -.313E-01 0.186E+00
   0.193E-04 -.141E+02 -.929E+03   0.110E-03 0.136E+02 0.928E+03   0.235E-11 0.357E+00 0.560E+00   0.432E-02 0.143E+00 0.146E+00
   0.533E-04 -.357E-04 -.263E+04   -.113E-03 0.764E-04 0.263E+04   -.116E-17 -.271E-17 0.181E+01   0.732E-05 0.156E-02 0.160E-01
   -.822E+01 -.192E+02 -.264E+04   0.888E+01 0.204E+02 0.263E+04   -.814E+00 -.128E+01 0.208E+01   0.100E+00 0.592E-01 -.451E-01
   0.822E+01 -.192E+02 -.264E+04   -.888E+01 0.204E+02 0.263E+04   0.814E+00 -.128E+01 0.208E+01   -.100E+00 0.611E-01 -.451E-01
   -.208E+02 0.249E+01 -.264E+04   0.221E+02 -.249E+01 0.263E+04   -.151E+01 -.656E-01 0.208E+01   0.958E-01 0.472E-01 -.453E-01
   0.208E+02 0.249E+01 -.264E+04   -.221E+02 -.249E+01 0.263E+04   0.151E+01 -.656E-01 0.208E+01   -.107E+00 0.479E-01 -.450E-01
   -.125E+02 0.167E+02 -.264E+04   0.132E+02 -.179E+02 0.263E+04   -.700E+00 0.134E+01 0.208E+01   0.208E-02 -.116E+00 -.451E-01
   0.125E+02 0.167E+02 -.264E+04   -.132E+02 -.179E+02 0.263E+04   0.700E+00 0.134E+01 0.208E+01   -.613E-03 -.117E+00 -.444E-01
   0.260E-04 -.131E-04 -.264E+04   0.103E-03 -.650E-04 0.264E+04   0.623E-17 0.699E-17 0.190E+01   -.641E-02 -.199E-02 0.559E-01
   -.166E-04 -.366E-05 -.107E+04   0.479E-04 0.590E-05 0.108E+04   0.394E-18 0.117E-17 -.169E+01   0.736E-03 -.118E-03 -.101E+00
   0.454E-04 -.264E-04 -.112E+04   0.183E-04 0.234E-06 0.113E+04   -.996E-18 0.140E-17 -.439E+01   0.824E-03 0.150E-03 -.243E+00
   0.361E-03 -.723E-03 0.707E+01   0.358E-13 -.463E-13 -.121E-10   -.549E-15 0.454E-15 -.758E+01   0.339E-01 0.779E-02 0.502E+00

 POSITION                                       TOTAL-FORCE (eV/Angst)
      0.00000      0.00000      5.28219         0.000000      0.000000      0.006040
      2.93046      0.00000      5.28219        -0.012035     -0.007422      0.020001
      5.86091      0.00000      5.28219         0.012035     -0.007422      0.020001
      1.46523      2.53785      5.28219        -0.012446     -0.006712      0.020001
      4.39568      2.53785      5.28219         0.000000      0.000000     -0.022781
      7.32614      2.53785      5.28219         0.012446     -0.006712      0.020001
      2.93046      5.07570      5.28219        -0.000410      0.014134      0.020001
      5.86091      5.07570      5.28219         0.000410      0.014134      0.020001
      8.79137      5.07570      5.28219         0.000000      0.000000      0.021644
      1.46523      0.84595      7.67490        -0.034055     -0.019662     -0.021204
      4.39568      0.84595      7.67490        -0.000000     -0.035634     -0.090390
      7.32614      0.84595      7.67490         0.034055     -0.019662     -0.021204
      2.93046      3.38380      7.67490        -0.030860      0.017817     -0.090390
      5.86091      3.38380      7.67490         0.030860      0.017817     -0.090390
      8.79137      3.38380      7.67490        -0.000000     -0.005193      0.037676
      4.39568      5.92165      7.67490         0.000000      0.039324     -0.021204
      7.32614      5.92165      7.67490        -0.004497      0.002597      0.037676
     10.25659      5.92165      7.67490         0.004497      0.002597      0.037676
      8.79137      1.69476     10.06939         0.000000      0.009030      0.100675
      2.92162      1.68680     10.02387        -0.271956     -0.157014     -0.232629
      5.86975      1.68680     10.02387         0.271956     -0.157014     -0.232629
     10.25272      4.23198     10.06895         0.017665     -0.010199      0.061601
      4.39568      4.23995     10.02387         0.000000      0.314028     -0.232629
      7.33001      4.23198     10.06895        -0.017665     -0.010199      0.061601
     11.71935      6.76617     10.06939        -0.007820     -0.004515      0.100675
      5.86339      6.76617     10.06939         0.007820     -0.004515      0.100675
      8.79137      6.76312     10.06895         0.000000      0.020398      0.061601
      0.00000      0.00000     12.45783         0.000000      0.000000     -0.080631
      2.95723      0.04373     12.49962        -0.060180     -0.075837     -0.000612
      5.83413      0.04373     12.49962         0.060180     -0.075837     -0.000612
      1.51649      2.53918     12.49962        -0.095767     -0.014199     -0.000612
      7.27488      2.53918     12.49962         0.095767     -0.014199     -0.000612
      2.95494      5.03064     12.49962        -0.035587      0.090036     -0.000612
      5.83643      5.03064     12.49962         0.035587      0.090036     -0.000612
      8.79137      5.07570     12.47105         0.000000      0.000000     -0.101856
      4.39568      2.53785     12.22632         0.000000      0.000000      0.472549
      4.39568      2.53785     14.06959         0.000000      0.000000      0.021514
    total drift:                                0.034285      0.007067     -0.009605

  FREE ENERGIE OF THE ION-ELECTRON SYSTEM (eV)
  free  energy   TOTEN  =      -104.89954946 eV

  energy  without entropy=     -104.89954946  energy(sigma->0) =     -104.89954946

 stress matrix after NEB project (eV)
     -7.50502     -0.00000      0.00000
     -0.00000     -7.50502      0.00000
      0.00000     -0.00000     -0.18994
  FORCES: max atom, RMS     0.021514    0.003537
  FORCE total and by dimension    0.021514    0.021514
  Stress total and by dimension   10.615393    7.505015
|           W    W    AA    RRRRR   N    N  II  N    N   GGGG   !!!           |
|           W    W   A  A   R    R  NN   N  II  NN   N  G    G  !!!           |
|           W    W  A    A  R    R  N N  N  II  N N  N  G       !!!           |
|           W WW W  AAAAAA  RRRRR   N  N N  II  N  N N  G  GGG   !            |
|           WW  WW  A    A  R   R   N   NN  II  N   NN  G    G                |
|           W    W  A    A  R    R  N    N  II  N    N   GGGG   !!!           |
|     Tetrahedron method does not include variations of the Fermi             |
|     occupations, so forces and stress will be inaccurate. We suggest        |
|     using a different smearing scheme ISMEAR = 1 or 2 for metals in         |
|     relaxations.                                                            |

 total charge

# of ion       s       p       d       tot
    1        0.416   0.204   9.177   9.797
    2        0.415   0.203   9.177   9.795
    3        0.415   0.203   9.177   9.795
    4        0.415   0.203   9.177   9.795
    5        0.420   0.200   9.178   9.798
    6        0.415   0.203   9.177   9.795
    7        0.415   0.203   9.177   9.795
    8        0.415   0.203   9.177   9.795
    9        0.414   0.203   9.177   9.795
   10        0.406   0.272   9.163   9.841
   11        0.408   0.269   9.166   9.843
   12        0.406   0.272   9.163   9.841
   13        0.408   0.269   9.166   9.843
   14        0.408   0.269   9.166   9.843
   15        0.403   0.270   9.163   9.836
   16        0.406   0.272   9.163   9.841
   17        0.403   0.270   9.163   9.836
   18        0.403   0.270   9.163   9.836
   19        0.398   0.264   9.167   9.830
   20        0.430   0.303   9.144   9.878
   21        0.430   0.303   9.144   9.878
   22        0.391   0.272   9.166   9.829
   23        0.430   0.303   9.144   9.878
   24        0.391   0.272   9.166   9.829
   25        0.398   0.264   9.167   9.830
   26        0.398   0.264   9.167   9.830
   27        0.391   0.272   9.166   9.829
   28        0.412   0.197   9.177   9.787
   29        0.428   0.217   9.158   9.803
   30        0.428   0.217   9.158   9.803
   31        0.428   0.217   9.158   9.803
   32        0.428   0.217   9.158   9.803
   33        0.428   0.217   9.158   9.803
   34        0.428   0.217   9.158   9.803
   35        0.412   0.196   9.177   9.785
   36        0.718   0.624   3.550   4.892
   37        0.990   1.234   0.000   2.223
tot         16.153  10.331 324.353 350.836

 BZINTS: Fermi energy:    0.244051;  394.000000 electrons
         Band energy:-0.153410E+04;  BLOECHL correction:   -0.051829