 vasp.6.2.0 18Jan21 (build Jun 12 2021 23:27:24) complex

 executed on             LinuxIFC date 2022.05.28  01:23:13

 INCAR:
   ISMEAR = -5
   SIGMA = 0.1
   ISPIN = 1
   EDIFF = 1.d-5
   EDIFFG = -0.01
   NSW = 0
   NELM = 150
   ENCUT = 500
   ISIF = 2
   IBRION = 2
   LREAL = Auto
   ALGO = Fast
   ICHARG = 11
   LORBIT = 10
   LCHARG = .F.
   LWAVE = .F.

 POTCAR:    PAW_PBE Ag 02Apr2005
 POTCAR:    PAW_PBE Ti 08Apr2002
 POTCAR:    PAW_PBE H 15Jun2001
 POTCAR:    PAW_PBE O 08Apr2002
|           W    W    AA    RRRRR   N    N  II  N    N   GGGG   !!!           |
|           W    W   A  A   R    R  NN   N  II  NN   N  G    G  !!!           |
|           W    W  A    A  R    R  N N  N  II  N N  N  G       !!!           |
|           W WW W  AAAAAA  RRRRR   N  N N  II  N  N N  G  GGG   !            |
|           WW  WW  A    A  R   R   N   NN  II  N   NN  G    G                |
|           W    W  A    A  R    R  N    N  II  N    N   GGGG   !!!           |
|     For optimal performance we recommend to set                             |
|       NCORE = 2 up to number-of-cores-per-socket                            |
|     This setting can greatly improve the performance of VASP for DFT.       |
|     The default, NCORE=1 might be grossly inefficient on modern             |
|     multi-core architectures or massively parallel machines. Do your        |
|     Unfortunately you need to use the default for GW and RPA                |
|     calculations (for HF NCORE is supported but not extensively tested      |
|     yet).                                                                   |

 POTCAR:    PAW_PBE Ag 02Apr2005
   VRHFIN =Ag : s1 d10

   TITEL  = PAW_PBE Ag 02Apr2005
   POMASS =  107.868; ZVAL   =   11.000    mass and valenz
   ENMAX  =  249.844; ENMIN  =  187.383 eV

 POTCAR:    PAW_PBE Ti 08Apr2002
   VRHFIN =Ti: d3 s1

[...]

 POTCAR:    PAW_PBE H 15Jun2001
   VRHFIN =H: ultrasoft test

   TITEL  = PAW_PBE H 15Jun2001
   POMASS =    1.000; ZVAL   =    1.000    mass and valenz
   ENMAX  =  250.000; ENMIN  =  200.000 eV

 POTCAR:    PAW_PBE O 08Apr2002
   VRHFIN =O: s2p4

   TITEL  = PAW_PBE O 08Apr2002
   POMASS =   16.000; ZVAL   =    6.000    mass and valenz
   ENMAX  =  400.000; ENMIN  =  300.000 eV

 Optimization of the real space projectors (new method)

 maximal supplied QI-value         = 15.12
 optimisation between [QCUT,QGAM] = [ 11.34, 22.83] = [ 36.00,145.93] Ry
 Optimized for a Real-space Cutoff    1.43 Angstroem

   l    n(q)    QCUT    max X(q) W(low)/X(q) W(high)/X(q)  e(spline)
   2      9    11.338    53.897    0.16E-03    0.20E-03    0.28E-06
   2      9    11.338    52.416    0.16E-03    0.20E-03    0.29E-06
   0     10    11.338   122.045    0.31E-04    0.76E-04    0.15E-06
   0     10    11.338    73.629    0.30E-04    0.72E-04    0.15E-06
   1      9    11.338    15.255    0.20E-03    0.19E-04    0.17E-06
   1      9    11.338     9.562    0.16E-03    0.15E-04    0.14E-06
 Optimization of the real space projectors (new method)

[...]

   l    n(q)    QCUT    max X(q) W(low)/X(q) W(high)/X(q)  e(spline)
   0      8    11.287    19.460    0.40E-03    0.73E-03    0.16E-06
   0      8    11.287    12.209    0.38E-03    0.70E-03    0.15E-06
   1      7    11.287     4.655    0.22E-03    0.25E-04    0.22E-06
 Optimization of the real space projectors (new method)

 maximal supplied QI-value         = 24.76
 optimisation between [QCUT,QGAM] = [ 11.39, 22.77] = [ 36.31,145.25] Ry
 Optimized for a Real-space Cutoff    1.00 Angstroem

   l    n(q)    QCUT    max X(q) W(low)/X(q) W(high)/X(q)  e(spline)
   0      7    11.387    20.381    0.39E-03    0.13E-02    0.15E-06
   0      7    11.387    15.268    0.42E-03    0.14E-02    0.17E-06
   1      6    11.387     5.964    0.41E-03    0.11E-02    0.17E-06
   1      6    11.387     5.382    0.39E-03    0.87E-03    0.15E-06
  PAW_PBE Ag 02Apr2005                  :
  PAW_PBE Ti 08Apr2002                  :
  PAW_PBE H 15Jun2001                   :
  PAW_PBE O 08Apr2002                   :

 POSCAR: Ag-Ti-H2O
  positions in direct lattice
  velocities in cartesian coordinates
 exchange correlation table for  LEXCH =        8
   RHO(1)=    0.500       N(1)  =     2000
   RHO(2)=  100.500       N(2)  =     4000

 VTST: version 3.2, (02/03/18)

 CHAIN: initializing optimizer

 OPT: Using VASP Conjugate-Gradient optimizer
 CHAIN: Read ICHAIN            0

 POSCAR: Ag-Ti-H2O
  positions in direct lattice
  velocities in cartesian coordinates

 ion  position               nearest neighbor table
   1  0.000  0.000  0.212-   2 2.93   8 2.93   7 2.93   6 2.93   4 2.93  12 2.93  16 2.93  10 2.93
                             3 2.93
   2  0.333  0.000  0.212-   1 2.93   8 2.93   9 2.93   3 2.93   4 2.93   5 2.93  10 2.93  17 2.93
                            11 2.93
   3  0.667  0.000  0.212-   9 2.93   2 2.93   5 2.93  11 2.93   7 2.93  18 2.93   1 2.93   6 2.93
                            12 2.93
   4  0.000  0.333  0.212-   5 2.93   6 2.93   2 2.93   1 2.93   7 2.93  13 2.93  15 2.93   9 2.93
                            10 2.93
   5  0.333  0.333  0.212-   4 2.93   3 2.93   7 2.93   2 2.93   8 2.93  14 2.93  13 2.93  11 2.93
                             6 2.93
   6  0.667  0.333  0.212-   4 2.93   9 2.93   1 2.93  15 2.93   8 2.93  12 2.93   3 2.93   5 2.93
                            14 2.93
   7  0.000  0.667  0.212-   8 2.93   1 2.93   5 2.93   3 2.93   4 2.93  16 2.93  18 2.93  13 2.93
                             9 2.93
   8  0.333  0.667  0.212-   7 2.93   1 2.93   2 2.93   9 2.93   5 2.93  16 2.93   6 2.93  17 2.93
                            14 2.93
   9  0.667  0.667  0.212-   3 2.93   2 2.93   8 2.93   6 2.93  17 2.93   4 2.93  15 2.93   7 2.93
                            18 2.93
  10  0.111  0.111  0.308-  20 2.91  19 2.92  26 2.92  12 2.93  16 2.93  15 2.93  17 2.93  13 2.93
                            11 2.93   2 2.93   1 2.93   4 2.93
  11  0.444  0.111  0.308-  21 2.91  20 2.91  27 2.92  14 2.93  17 2.93  18 2.93   3 2.93  12 2.93
                            13 2.93  10 2.93   5 2.93   2 2.93
  12  0.778  0.111  0.308-  21 2.91  25 2.92  19 2.92  10 2.93  16 2.93  18 2.93  15 2.93  11 2.93
                             1 2.93  14 2.93   6 2.93   3 2.93
  13  0.111  0.444  0.308-  20 2.91  23 2.91  22 2.92  15 2.93  14 2.93  18 2.93  10 2.93  11 2.93
                            16 2.93   4 2.93   5 2.93   7 2.93
  14  0.444  0.444  0.308-  23 2.91  21 2.91  24 2.92  13 2.93  11 2.93  16 2.93   5 2.93  12 2.93
                            17 2.93   8 2.93  15 2.93   6 2.93
  15  0.778  0.444  0.308-  19 2.92  24 2.92  22 2.92  13 2.93  10 2.93  12 2.93  17 2.93  18 2.93
                             4 2.93   6 2.93   9 2.93  14 2.93
  16  0.111  0.778  0.308-  23 2.91  26 2.92  25 2.92  18 2.93  12 2.93  10 2.93  14 2.93  17 2.93
                            13 2.93   7 2.93   8 2.93   1 2.93
  17  0.444  0.778  0.308-  26 2.92  27 2.92  24 2.92  11 2.93  10 2.93   9 2.93  18 2.93  15 2.93
                            16 2.93   2 2.93  14 2.93   8 2.93
  18  0.778  0.778  0.308-  25 2.92  22 2.92  27 2.92  16 2.93  12 2.93  13 2.93  11 2.93  17 2.93
                            15 2.93   7 2.93   3 2.93   9 2.93
  19  0.889  0.222  0.403-  10 2.92  12 2.92  15 2.92  28 2.92  26 2.93  25 2.93  24 2.93  22 2.93
                            20 2.94  21 2.94  32 2.96  31 2.96
  20  0.223  0.223  0.402-  36 2.82  13 2.91  11 2.91  10 2.91  21 2.92  23 2.92  27 2.93  22 2.93
                            19 2.94  26 2.94  31 2.94  29 2.94
  21  0.555  0.223  0.402-  36 2.82  11 2.91  14 2.91  12 2.91  20 2.92  23 2.92  27 2.93  24 2.93
                            25 2.94  19 2.94  30 2.94  32 2.94
  22  0.889  0.556  0.403-  18 2.92  15 2.92  13 2.92  24 2.93  27 2.93  25 2.93  19 2.93  35 2.93
                            23 2.93  20 2.93  33 2.94  31 2.94
  23  0.223  0.555  0.402-  36 2.82  14 2.91  13 2.91  16 2.91  21 2.92  20 2.92  22 2.93  24 2.93
                            26 2.94  25 2.94  34 2.94  33 2.94
  24  0.556  0.556  0.403-  15 2.92  17 2.92  14 2.92  27 2.93  22 2.93  19 2.93  26 2.93  35 2.93
                            23 2.93  21 2.93  32 2.94  34 2.94
  25  0.889  0.889  0.403-  16 2.92  12 2.92  18 2.92  28 2.92  26 2.93  19 2.93  22 2.93  27 2.93
                            23 2.94  21 2.94  33 2.96  30 2.96
  26  0.222  0.889  0.403-  16 2.92  10 2.92  17 2.92  28 2.92  25 2.93  19 2.93  27 2.93  24 2.93
                            23 2.94  20 2.94  34 2.96  29 2.96
  27  0.556  0.889  0.403-  17 2.92  18 2.92  11 2.92  24 2.93  22 2.93  26 2.93  25 2.93  35 2.93
                            20 2.93  21 2.93  29 2.94  30 2.94
  28  0.000  0.000  0.498-  26 2.92  25 2.92  19 2.92  29 2.95  34 2.95  33 2.95  32 2.95  31 2.95
                            30 2.95
  29  0.334  0.004  0.499-  30 2.89  31 2.90  36 2.90  20 2.94  27 2.94  35 2.95  28 2.95  26 2.96
                            34 3.00
  30  0.662  0.004  0.499-  29 2.89  32 2.90  36 2.90  21 2.94  27 2.94  35 2.95  28 2.95  25 2.96
                            33 3.00
  31  0.004  0.334  0.499-  33 2.89  29 2.90  36 2.90  20 2.94  22 2.94  35 2.95  28 2.95  19 2.96
                            32 3.00
  32  0.662  0.334  0.499-  34 2.89  30 2.90  36 2.90  21 2.94  24 2.94  35 2.95  28 2.95  19 2.96
                            31 3.00
  33  0.004  0.662  0.499-  31 2.89  34 2.90  36 2.90  23 2.94  22 2.94  35 2.95  28 2.95  25 2.96
                            30 3.00
  34  0.334  0.662  0.499-  32 2.89  33 2.90  36 2.90  23 2.94  24 2.94  35 2.95  28 2.95  26 2.96
                            29 3.00
  35  0.667  0.667  0.499-  24 2.93  27 2.93  22 2.93  30 2.95  32 2.95  29 2.95  34 2.95  31 2.95
                            33 2.95
  36  0.333  0.333  0.493-  39 2.17  21 2.82  20 2.82  23 2.82  31 2.90  33 2.90  30 2.90  29 2.90
                            34 2.90  32 2.90
  37  0.278  0.264  0.590-  39 0.98
  38  0.458  0.263  0.590-  39 0.98
  39  0.334  0.332  0.580-  37 0.98  38 0.98  36 2.17

  LATTYP: Found a hexagonal cell.
 ALAT       =     8.7913665772
 C/A-ratio  =     2.8382349142

  Lattice vectors:

 A1 = (  -4.3956832886,  -7.6135467898,   0.0000000000)
 A2 = (   8.7913665771,   0.0000000000,   0.0000000000)
 A3 = (   0.0000000000,   0.0000000000,  24.9519635625)

Analysis of symmetry for initial positions (statically):
 Subroutine PRICEL returns:
 Original cell was already a primitive cell.

 Routine SETGRP: Setting up the symmetry group for a
 hexagonal supercell.

 Subroutine GETGRP returns: Found  1 space group operations
 (whereof  1 operations were pure point group operations)
 out of a pool of 24 trial point group operations.

The static configuration has the point symmetry C_1 .

Analysis of symmetry for dynamics (positions and initial velocities):
 Subroutine PRICEL returns:
 Original cell was already a primitive cell.

[...]

The dynamic configuration has the point symmetry C_1 .

Analysis of constrained symmetry for selective dynamics:
 Subroutine PRICEL returns:
 Original cell was already a primitive cell.

 Routine SETGRP: Setting up the symmetry group for a
 hexagonal supercell.

[...]
     41      -4.6984      2.00000
     42      -4.6675      2.00000
     43      -4.6620      2.00000
     44      -4.6521      2.00000
     45      -4.6492      2.00000
     46      -4.6308      2.00000
     47      -4.5389      2.00000
     48      -4.5141      2.00000
     49      -4.5074      2.00000
     50      -4.4997      2.00000
     51      -4.4949      2.00000
     52      -4.4868      2.00000
     53      -4.4848      2.00000
     54      -4.4727      2.00000
     55      -4.4655      2.00000
     56      -4.4516      2.00000
     57      -4.3899      2.00000
     58      -4.3824      2.00000
     59      -4.3753      2.00000
     60      -4.3590      2.00000
[...]
    238       5.6884      0.00000
    239       5.8059      0.00000
    240       5.8525      0.00000
    241       5.9668      0.00000
    242       6.1198      0.00000
    243       6.2092      0.00000
    244       6.2962      0.00000
    245       6.3638      0.00000
    246       6.4097      0.00000
    247       6.5755      0.00000
    248       6.6486      0.00000
    249       6.8580      0.00000
    250       6.8956      0.00000
    251       6.9135      0.00000
    252       7.0814      0.00000

 soft charge-density along one line, spin component           1
         0         1         2         3         4         5         6         7         8         9
 total charge-density along one line

------------------------ aborting loop because EDIFF is reached ----------------------------------------

 total charge

# of ion       s       p       d       tot
    1        0.422   0.201   9.178   9.801
    2        0.417   0.204   9.177   9.798
    3        0.417   0.204   9.177   9.798
    4        0.416   0.204   9.177   9.798
    5        0.417   0.203   9.177   9.797
    6        0.416   0.204   9.177   9.797
    7        0.416   0.204   9.178   9.798
    8        0.416   0.204   9.178   9.798
    9        0.417   0.203   9.177   9.797
   10        0.411   0.269   9.163   9.843
   11        0.407   0.267   9.168   9.842
   12        0.411   0.268   9.163   9.843
   13        0.406   0.268   9.168   9.842
   14        0.406   0.268   9.168   9.842
   15        0.404   0.269   9.165   9.838
   16        0.410   0.269   9.163   9.842
   17        0.403   0.269   9.165   9.837
   18        0.403   0.269   9.165   9.837
   19        0.407   0.265   9.165   9.837
   20        0.438   0.294   9.137   9.868
   21        0.438   0.294   9.137   9.868
   22        0.396   0.274   9.164   9.834
   23        0.436   0.295   9.136   9.867
   24        0.396   0.274   9.164   9.834
   25        0.405   0.265   9.166   9.836
   26        0.405   0.265   9.166   9.836
   27        0.398   0.273   9.163   9.834
   28        0.411   0.205   9.171   9.787
   29        0.446   0.222   9.149   9.817
   30        0.446   0.222   9.149   9.817
   31        0.447   0.220   9.150   9.817
   32        0.447   0.220   9.150   9.817
   33        0.442   0.214   9.156   9.812
   34        0.442   0.214   9.156   9.812
   35        0.407   0.206   9.173   9.786
   36        0.425   0.464   2.225   3.114
   37        0.595   0.116   0.000   0.711
   38        0.595   0.116   0.000   0.711
   39        1.567   3.622   0.000   5.189
tot         17.803  12.787 322.963 353.554

  FORCE on cell =-STRESS in cart. coord.  units (eV):
  Direction    XX          YY          ZZ          XY          YZ          ZX
  Alpha Z   670.93395   670.93395   670.93395
  Ewald  158769.67125158700.28089************    -0.21996   -12.79237    -0.06207
  Hartree168694.15335168681.83818************    -0.04077     5.43871    -0.01435
  E(xc)   -2079.87975 -2080.05341 -2085.53315    -0.00064    -0.04695     0.00027
  Local  ************************338466.56207     0.20087    -0.30234     0.05675
  n-local  -344.01369  -344.42374  -346.36559    -0.00077    -0.11090     0.00067
  augment  3230.85611  3231.98103  3243.60934     0.00328     0.44950     0.00048
  Kinetic  4922.80754  4942.07581  4974.36709     0.06091     7.27117     0.01625
  Fock        0.00000     0.00000     0.00000     0.00000     0.00000     0.00000
  Total      -7.96536    -7.97485     0.14359     0.00292    -0.09317    -0.00200
  in kB      -7.64131    -7.65042     0.13775     0.00280    -0.08938    -0.00192

 VOLUME and BASIS-vectors are now :
  energy-cutoff  :      500.00
  volume of cell :     1670.12
      direct lattice vectors                 reciprocal lattice vectors
     8.791366577  0.000000000  0.000000000     0.113747958 -0.065672414  0.000000000
     4.395683289  7.613546790  0.000000000     0.000000000  0.131344829  0.000000000
     0.000000000  0.000000000 24.951963562     0.000000000  0.000000000  0.040077006

  length of vectors
     8.791366577  8.791366577 24.951963562     0.131344829  0.131344829  0.040077006

 FORCES acting on ions
    electron-ion (+dipol)            ewald-force                    non-local-force                 convergence-correction
   0.959E-03 0.786E-02 0.270E+04   -.781E-04 -.954E-02 -.270E+04   0.570E-04 -.701E-02 -.188E+01   -.940E-03 0.133E-01 0.132E-01
   -.282E+00 -.347E+00 0.270E+04   0.211E+00 0.199E+00 -.270E+04   0.190E-01 0.132E+00 -.159E+01   0.550E-01 0.161E-01 0.127E+00
   0.282E+00 -.357E+00 0.270E+04   -.211E+00 0.199E+00 -.270E+04   -.188E-01 0.132E+00 -.159E+01   -.551E-01 0.259E-01 0.130E+00
   -.465E+00 -.106E+00 0.270E+04   0.286E+00 0.945E-01 -.270E+04   0.136E+00 -.412E-01 -.161E+01   0.397E-01 0.500E-01 0.887E-01
   -.136E-01 -.102E-01 0.270E+04   0.905E-04 0.160E-01 -.270E+04   -.198E-02 -.534E-02 -.140E+01   0.156E-01 -.428E-02 0.146E+00
   0.474E+00 -.110E+00 0.270E+04   -.286E+00 0.945E-01 -.270E+04   -.137E+00 -.415E-01 -.161E+01   -.480E-01 0.540E-01 0.920E-01
   -.128E+00 0.440E+00 0.270E+04   0.749E-01 -.293E+00 -.270E+04   0.893E-01 -.831E-01 -.167E+01   -.380E-01 -.620E-01 0.113E+00
   0.120E+00 0.445E+00 0.270E+04   -.750E-01 -.294E+00 -.270E+04   -.895E-01 -.830E-01 -.167E+01   0.460E-01 -.674E-01 0.114E+00
   0.130E-01 0.463E-01 0.270E+04   0.692E-04 -.623E-02 -.270E+04   0.233E-02 -.123E-01 -.169E+01   -.156E-01 -.258E-01 0.163E+00
   -.148E+01 -.855E+00 0.902E+03   0.176E+01 0.102E+01 -.901E+03   -.310E+00 -.191E+00 -.690E+00   0.391E-01 0.267E-01 0.228E+00
   -.105E-01 -.178E+01 0.897E+03   -.808E-04 0.172E+01 -.897E+03   -.223E-02 0.752E-01 -.304E+00   0.130E-01 -.616E-01 0.128E+00
   0.149E+01 -.859E+00 0.902E+03   -.176E+01 0.102E+01 -.901E+03   0.310E+00 -.191E+00 -.690E+00   -.451E-01 0.307E-01 0.223E+00
   -.157E+01 0.818E+00 0.897E+03   0.148E+01 -.759E+00 -.897E+03   0.826E-01 -.488E-01 -.323E+00   -.287E-01 0.148E-01 0.131E+00
   0.156E+01 0.820E+00 0.897E+03   -.148E+01 -.759E+00 -.897E+03   -.867E-01 -.486E-01 -.323E+00   0.486E-01 0.118E-01 0.122E+00
   0.693E-02 -.177E+00 0.901E+03   -.101E-03 0.669E-01 -.901E+03   0.505E-04 0.387E-01 -.717E+00   -.687E-02 0.628E-01 0.174E+00
   -.929E-03 0.178E+01 0.901E+03   0.117E-03 -.213E+01 -.901E+03   0.242E-03 0.380E+00 -.742E+00   0.580E-03 -.348E-01 0.226E+00
   -.793E-01 0.124E+00 0.901E+03   -.232E-01 -.870E-01 -.901E+03   0.149E-01 -.994E-02 -.733E+00   0.765E-01 -.228E-01 0.174E+00
   0.809E-01 0.117E+00 0.901E+03   0.230E-01 -.870E-01 -.901E+03   -.152E-01 -.101E-01 -.733E+00   -.776E-01 -.154E-01 0.178E+00
   -.840E-02 -.550E+01 -.907E+03   0.367E-03 0.548E+01 0.906E+03   -.238E-02 0.399E-01 0.655E+00   0.106E-01 -.203E-01 0.327E+00
   -.306E+02 -.182E+02 -.939E+03   0.317E+02 0.189E+02 0.940E+03   -.105E+01 -.628E+00 -.825E+00   -.128E+00 -.113E+00 0.201E+00
   0.306E+02 -.182E+02 -.939E+03   -.317E+02 0.189E+02 0.940E+03   0.105E+01 -.628E+00 -.825E+00   0.123E+00 -.114E+00 0.197E+00
   -.134E+02 0.743E+01 -.911E+03   0.135E+02 -.752E+01 0.910E+03   0.126E+00 -.357E-01 0.436E+00   -.169E+00 0.113E+00 0.282E+00
   0.255E-02 0.351E+02 -.941E+03   0.206E-03 -.365E+02 0.941E+03   0.336E-03 0.124E+01 -.727E+00   -.307E-02 0.163E+00 0.206E+00
   0.134E+02 0.742E+01 -.911E+03   -.135E+02 -.752E+01 0.910E+03   -.131E+00 -.358E-01 0.437E+00   0.186E+00 0.116E+00 0.281E+00
   0.431E+01 0.328E+01 -.907E+03   -.431E+01 -.323E+01 0.906E+03   -.112E-01 -.627E-01 0.760E+00   0.170E-01 0.215E-01 0.324E+00
   -.432E+01 0.328E+01 -.907E+03   0.431E+01 -.323E+01 0.906E+03   0.732E-02 -.630E-01 0.761E+00   -.218E-02 0.250E-01 0.326E+00
   -.223E-02 -.146E+02 -.910E+03   -.806E-03 0.147E+02 0.909E+03   -.207E-02 0.126E+00 0.390E+00   0.535E-02 -.174E+00 0.283E+00
   -.564E-02 0.199E+01 -.265E+04   0.352E-02 -.207E+01 0.265E+04   -.132E-03 0.701E-01 0.156E+01   0.221E-02 0.121E-01 -.478E-01
   -.752E+01 -.195E+02 -.263E+04   0.832E+01 0.207E+02 0.263E+04   -.843E+00 -.122E+01 0.813E+00   -.816E-02 -.616E-01 0.990E-01
   0.752E+01 -.195E+02 -.263E+04   -.832E+01 0.207E+02 0.263E+04   0.843E+00 -.122E+01 0.810E+00   0.473E-02 -.585E-01 0.998E-01
   -.238E+02 0.306E+00 -.263E+04   0.254E+02 -.140E+00 0.263E+04   -.156E+01 -.158E+00 0.760E+00   -.661E-01 -.131E-01 0.872E-01
   0.238E+02 0.294E+00 -.263E+04   -.254E+02 -.133E+00 0.263E+04   0.156E+01 -.158E+00 0.763E+00   0.663E-01 -.839E-02 0.910E-01
   -.179E+02 0.220E+02 -.264E+04   0.184E+02 -.233E+02 0.264E+04   -.484E+00 0.124E+01 0.130E+01   -.748E-01 0.845E-01 0.827E-01
   0.179E+02 0.220E+02 -.264E+04   -.184E+02 -.233E+02 0.264E+04   0.484E+00 0.124E+01 0.130E+01   0.801E-01 0.857E-01 0.857E-01
   0.132E-01 0.121E+01 -.266E+04   -.300E-02 -.121E+01 0.266E+04   0.281E-02 -.227E-01 0.175E+01   -.131E-01 0.181E-01 -.479E-01
   0.445E-02 -.327E+01 -.871E+03   -.431E-02 0.330E+01 0.870E+03   0.240E-03 0.993E-03 0.123E+01   0.188E-03 -.173E-01 0.883E-01
   0.666E+02 0.404E+02 -.288E+03   -.733E+02 -.445E+02 0.290E+03   0.668E+01 0.412E+01 -.210E+01   0.285E-02 -.926E-03 -.983E-02
   -.663E+02 0.408E+02 -.288E+03   0.730E+02 -.449E+02 0.290E+03   -.666E+01 0.416E+01 -.210E+01   -.277E-02 -.801E-03 -.991E-02
   -.163E+00 -.544E+02 -.160E+04   0.294E+00 0.948E+02 0.159E+04   -.128E+00 -.404E+02 0.972E+01   0.847E-03 -.300E-01 -.431E-01
   0.718E-01 0.324E+02 -.247E+01   -.286E-13 0.426E-13 -.387E-11   -.117E+00 -.324E+02 -.311E+01   0.505E-01 0.377E-01 0.547E+01

 POSITION                                       TOTAL-FORCE (eV/Angst)
      0.00000      0.00000      5.28219        -0.000129      0.003928     -0.018609
      2.93046      0.00000      5.28219         0.003165     -0.000466      0.025237
      5.86091      0.00000      5.28219        -0.003444     -0.000561      0.025239
      1.46523      2.53785      5.28219        -0.003260     -0.003870      0.030817
      4.39568      2.53785      5.28219         0.000011     -0.004566      0.029509
      7.32614      2.53785      5.28219         0.003084     -0.003890      0.030857
      2.93046      5.07570      5.28219        -0.001668      0.000580      0.031206
      5.86091      5.07570      5.28219         0.001345      0.000606      0.031212
      8.79137      5.07570      5.28219        -0.000296      0.001280      0.002673
      1.46523      0.84595      7.67490         0.001925      0.000801     -0.053907
      4.39568      0.84595      7.67490         0.000076     -0.046636     -0.064155
      7.32614      0.84595      7.67490        -0.002161      0.000800     -0.053892
      2.93046      3.38380      7.67490        -0.035094      0.023892     -0.063523
      5.86091      3.38380      7.67490         0.035283      0.023924     -0.063501
      8.79137      3.38380      7.67490        -0.000121     -0.009244      0.001837
      4.39568      5.92165      7.67490        -0.000118     -0.004059     -0.058180
      7.32614      5.92165      7.67490        -0.011237      0.003303      0.006748
     10.25659      5.92165      7.67490         0.010981      0.003291      0.006709
      8.79137      1.69074     10.05145         0.000080     -0.005120     -0.012785
      2.93556      1.69484     10.04095        -0.012345     -0.002777     -0.038969
      5.85581      1.69484     10.04095         0.012079     -0.002778     -0.038962
     10.25435      4.23104     10.05745         0.025868     -0.019711      0.010354
      4.39568      4.22386     10.04095        -0.000102      0.014942     -0.011282
      7.32838      4.23104     10.05745        -0.025667     -0.019800      0.010519
     11.72283      6.76818     10.05145         0.008255      0.006655     -0.005780
      5.85990      6.76818     10.05145        -0.008062      0.006669     -0.005720
      8.79137      6.76501     10.05745         0.000114      0.031155      0.001402
      0.00000      0.00000     12.43413        -0.000166      0.001290      0.051166
      2.95009      0.02948     12.45917        -0.051706     -0.077803     -0.064827
      5.84128      0.02948     12.45917         0.051523     -0.077886     -0.064760
      1.50057      2.54011     12.45917        -0.079259     -0.005408     -0.059475
      7.29079      2.54011     12.45917         0.079398     -0.005668     -0.059844
      2.94617      5.04396     12.45917        -0.073787      0.081576     -0.089168
      5.84520      5.04396     12.45917         0.073469      0.081916     -0.089530
      8.79137      5.07570     12.45428        -0.000288     -0.002637      0.047910
      4.39568      2.53785     12.30230         0.000434      0.017405      0.575207
      3.60381      2.00834     14.72986        -0.002923     -0.006712      0.006404
      5.18502      2.00333     14.73006         0.001227     -0.005585      0.005418
      4.39609      2.52969     14.47109         0.003515      0.001161     -0.013552
    total drift:                                0.004943      0.027726     -0.108849

  FREE ENERGIE OF THE ION-ELECTRON SYSTEM (eV)
  free  energy   TOTEN  =      -110.52451764 eV

  energy  without entropy=     -110.52451764  energy(sigma->0) =     -110.52451764

 stress matrix after NEB project (eV)
     -7.96536      0.00292     -0.00200
      0.00292     -7.97485     -0.09317
     -0.00200     -0.09317      0.14359
  FORCES: max atom, RMS     0.014049    0.003013
  FORCE total and by dimension    0.018816    0.013552
  Stress total and by dimension   11.273121    7.974851
|           W    W    AA    RRRRR   N    N  II  N    N   GGGG   !!!           |
|           W    W   A  A   R    R  NN   N  II  NN   N  G    G  !!!           |
|           W    W  A    A  R    R  N N  N  II  N N  N  G       !!!           |
|           W WW W  AAAAAA  RRRRR   N  N N  II  N  N N  G  GGG   !            |
|           WW  WW  A    A  R   R   N   NN  II  N   NN  G    G                |
|           W    W  A    A  R    R  N    N  II  N    N   GGGG   !!!           |
|     Tetrahedron method does not include variations of the Fermi             |
|     occupations, so forces and stress will be inaccurate. We suggest        |
|     using a different smearing scheme ISMEAR = 1 or 2 for metals in         |
|     relaxations.                                                            |

 total charge

# of ion       s       p       d       tot
    1        0.422   0.201   9.178   9.801
    2        0.417   0.204   9.177   9.798
    3        0.417   0.204   9.177   9.798
    4        0.416   0.204   9.177   9.798
    5        0.417   0.203   9.177   9.797
    6        0.416   0.204   9.177   9.797
    7        0.416   0.204   9.178   9.798
    8        0.416   0.204   9.178   9.798
    9        0.417   0.203   9.177   9.797
   10        0.411   0.269   9.163   9.843
   11        0.407   0.267   9.168   9.842
   12        0.411   0.268   9.163   9.843
   13        0.406   0.268   9.168   9.842
   14        0.406   0.268   9.168   9.842
   15        0.404   0.269   9.165   9.838
   16        0.410   0.269   9.163   9.842
   17        0.403   0.269   9.165   9.837
   18        0.403   0.269   9.165   9.837
   19        0.407   0.265   9.165   9.837
   20        0.438   0.294   9.137   9.868
   21        0.438   0.294   9.137   9.868
   22        0.396   0.274   9.164   9.834
   23        0.436   0.295   9.136   9.867
   24        0.396   0.274   9.164   9.834
   25        0.405   0.265   9.166   9.836
   26        0.405   0.265   9.166   9.836
   27        0.398   0.273   9.163   9.834
   28        0.411   0.205   9.171   9.787
   29        0.446   0.222   9.149   9.817
   30        0.446   0.222   9.149   9.817
   31        0.447   0.220   9.150   9.817
   32        0.447   0.220   9.150   9.817
   33        0.442   0.214   9.156   9.812
   34        0.442   0.214   9.156   9.812
   35        0.407   0.206   9.173   9.786
   36        0.425   0.464   2.225   3.114
   37        0.595   0.116   0.000   0.711
   38        0.595   0.116   0.000   0.711
   39        1.567   3.622   0.000   5.189
tot         17.803  12.787 322.963 353.554

 BZINTS: Fermi energy:    0.537532;  397.000000 electrons
         Band energy:-0.148617E+04;  BLOECHL correction:   -0.020075