 vasp.6.2.0 18Jan21 (build Jun 12 2021 23:27:24) complex

 executed on             LinuxIFC date 2022.05.26  20:06:07

 INCAR:
   ISMEAR = -5
   SIGMA = 0.1
   ISPIN = 1
   EDIFF = 1.d-5
   EDIFFG = -0.01
   NSW = 0
   NELM = 150
   ENCUT = 500
   ISIF = 2
   IBRION = 2
   LREAL = Auto
   ALGO = Fast
   ICHARG = 11
   LORBIT = 10
   LCHARG = .F.
   LWAVE = .F.

 POTCAR:    PAW_PBE Cu 22Jun2005
 POTCAR:    PAW_PBE Hf 20Jan2003
 POTCAR:    PAW_PBE H 15Jun2001
|           W    W    AA    RRRRR   N    N  II  N    N   GGGG   !!!           |
|           W    W   A  A   R    R  NN   N  II  NN   N  G    G  !!!           |
|           W    W  A    A  R    R  N N  N  II  N N  N  G       !!!           |
|           W WW W  AAAAAA  RRRRR   N  N N  II  N  N N  G  GGG   !            |
|           WW  WW  A    A  R   R   N   NN  II  N   NN  G    G                |
|           W    W  A    A  R    R  N    N  II  N    N   GGGG   !!!           |
|     For optimal performance we recommend to set                             |
|       NCORE = 2 up to number-of-cores-per-socket                            |
|     This setting can greatly improve the performance of VASP for DFT.       |
|     The default, NCORE=1 might be grossly inefficient on modern             |
|     multi-core architectures or massively parallel machines. Do your        |
|     Unfortunately you need to use the default for GW and RPA                |
|     calculations (for HF NCORE is supported but not extensively tested      |
|     yet).                                                                   |

 POTCAR:    PAW_PBE Cu 22Jun2005
   VRHFIN =Cu: d10 p1

   TITEL  = PAW_PBE Cu 22Jun2005
   POMASS =   63.546; ZVAL   =   11.000    mass and valenz
   ENMAX  =  295.446; ENMIN  =  221.585 eV

 POTCAR:    PAW_PBE Hf 20Jan2003
   VRHFIN =Hf: 6s5d

   TITEL  = PAW_PBE Hf 20Jan2003
   POMASS =  178.490; ZVAL   =    4.000    mass and valenz
   ENMAX  =  220.334; ENMIN  =  165.250 eV

 POTCAR:    PAW_PBE H 15Jun2001
   VRHFIN =H: ultrasoft test

   TITEL  = PAW_PBE H 15Jun2001
   POMASS =    1.000; ZVAL   =    1.000    mass and valenz
   ENMAX  =  250.000; ENMIN  =  200.000 eV

 Optimization of the real space projectors (new method)

 maximal supplied QI-value         = 16.25
 optimisation between [QCUT,QGAM] = [ 11.38, 22.75] = [ 36.24,144.96] Ry
 Optimized for a Real-space Cutoff    1.52 Angstroem

   l    n(q)    QCUT    max X(q) W(low)/X(q) W(high)/X(q)  e(spline)
   2      9    11.376     4.610    0.21E-03    0.10E-03    0.26E-06
   2      9    11.376     8.522    0.33E-03    0.16E-03    0.37E-06
   0     10    11.376    51.609    0.62E-04    0.20E-04    0.13E-06
   0     10    11.376    27.747    0.54E-04    0.20E-04    0.13E-06
   1     10    11.376    20.408    0.13E-04    0.99E-04    0.19E-06
   1     10    11.376    13.425    0.12E-04    0.87E-04    0.17E-06
 Optimization of the real space projectors (new method)

[...]

   l    n(q)    QCUT    max X(q) W(low)/X(q) W(high)/X(q)  e(spline)
   2     10    11.350    48.111    0.20E-03    0.11E-03    0.41E-06
   2     10    11.350    40.545    0.19E-03    0.10E-03    0.39E-06
   0     11    11.350   121.658    0.22E-04    0.19E-04    0.24E-06
   0     11    11.350    71.177    0.17E-04    0.17E-04    0.23E-06
   1     11    11.350    14.183    0.25E-03    0.43E-03    0.12E-05
   1     11    11.350     8.257    0.17E-03    0.29E-03    0.81E-06
 Optimization of the real space projectors (new method)

 maximal supplied QI-value         = 34.20
 optimisation between [QCUT,QGAM] = [ 11.29, 22.57] = [ 35.68,142.71] Ry
 Optimized for a Real-space Cutoff    1.16 Angstroem

   l    n(q)    QCUT    max X(q) W(low)/X(q) W(high)/X(q)  e(spline)
   0      8    11.287    19.460    0.40E-03    0.73E-03    0.16E-06
   0      8    11.287    12.209    0.38E-03    0.70E-03    0.15E-06
   1      7    11.287     4.655    0.22E-03    0.25E-04    0.22E-06
  PAW_PBE Cu 22Jun2005                  :
  PAW_PBE Hf 20Jan2003                  :
  PAW_PBE H 15Jun2001                   :

 POSCAR: Cu-Hf-H
  positions in direct lattice
  velocities in cartesian coordinates
 exchange correlation table for  LEXCH =        8
   RHO(1)=    0.500       N(1)  =     2000
   RHO(2)=  100.500       N(2)  =     4000

 VTST: version 3.2, (02/03/18)

 CHAIN: initializing optimizer

 OPT: Using VASP Conjugate-Gradient optimizer
 CHAIN: Read ICHAIN            0

 POSCAR: Cu-Hf-H
  positions in direct lattice
  velocities in cartesian coordinates

 ion  position               nearest neighbor table
   1  0.000  0.000  0.252-   7 2.57   3 2.57   4 2.57   2 2.57   6 2.57   8 2.57  12 2.57  10 2.57
                            16 2.57
   2  0.333  0.000  0.252-   8 2.57   9 2.57   5 2.57   1 2.57   3 2.57  11 2.57   4 2.57  10 2.57
                            17 2.57
   3  0.667  0.000  0.252-   1 2.57   7 2.57   6 2.57   9 2.57   2 2.57  12 2.57   5 2.57  18 2.57
                            11 2.57
   4  0.000  0.333  0.252-   5 2.57   6 2.57   1 2.57   7 2.57   2 2.57  13 2.57   9 2.57  10 2.57
                            15 2.57
   5  0.333  0.333  0.252-   4 2.57   2 2.57   7 2.57  13 2.57   8 2.57   6 2.57   3 2.57  11 2.57
                            14 2.57
   6  0.667  0.333  0.252-   4 2.57   9 2.57  15 2.57   3 2.57   1 2.57   8 2.57  14 2.57   5 2.57
                            12 2.57
   7  0.000  0.667  0.252-   1 2.57   3 2.57  16 2.57  18 2.57   4 2.57   5 2.57   8 2.57   9 2.57
                            13 2.57
   8  0.333  0.667  0.252-   9 2.57   2 2.57  17 2.57   6 2.57   1 2.57   7 2.57   5 2.57  14 2.57
                            16 2.57
   9  0.667  0.667  0.252-   8 2.57   6 2.57   2 2.57  17 2.57   3 2.57   7 2.57   4 2.57  15 2.57
                            18 2.57
  10  0.111  0.111  0.351-  26 2.54  19 2.54  11 2.57  12 2.57  13 2.57   1 2.57   2 2.57   4 2.57
                            15 2.57  16 2.57  17 2.57  20 2.58
  11  0.444  0.111  0.351-  27 2.56  10 2.57  13 2.57   2 2.57  17 2.57  14 2.57  12 2.57   5 2.57
                             3 2.57  18 2.57  20 2.57  21 2.57
  12  0.778  0.111  0.351-  19 2.54  25 2.54  15 2.57  10 2.57  14 2.57  18 2.57   3 2.57   1 2.57
                            16 2.57  11 2.57   6 2.57  21 2.58
  13  0.111  0.444  0.351-  22 2.56  16 2.57  18 2.57  10 2.57  11 2.57  14 2.57   5 2.57   4 2.57
                             7 2.57  15 2.57  23 2.57  20 2.57
  14  0.444  0.444  0.351-  24 2.56  15 2.57  17 2.57  12 2.57  16 2.57  13 2.57  11 2.57   6 2.57
                             8 2.57   5 2.57  21 2.57  23 2.57
  15  0.778  0.444  0.351-  19 2.55  24 2.56  22 2.56  14 2.57  17 2.57  12 2.57   6 2.57  18 2.57
                            10 2.57   9 2.57  13 2.57   4 2.57
  16  0.111  0.778  0.351-  25 2.54  26 2.54  18 2.57  13 2.57   7 2.57  14 2.57  17 2.57  12 2.57
                            10 2.57   8 2.57   1 2.57  23 2.58
  17  0.444  0.778  0.351-  26 2.55  27 2.56  24 2.56  14 2.57  15 2.57   8 2.57   9 2.57  11 2.57
                            16 2.57  18 2.57  10 2.57   2 2.57
  18  0.778  0.778  0.351-  25 2.55  22 2.56  27 2.56  16 2.57  13 2.57   7 2.57  15 2.57  12 2.57
                            17 2.57   9 2.57   3 2.57  11 2.57
  19  0.889  0.221  0.448-  12 2.54  10 2.54  15 2.55  25 2.56  26 2.56  32 2.57  31 2.57  22 2.57
                            24 2.57  21 2.57  20 2.57  28 2.57
  20  0.223  0.223  0.450-  23 2.55  21 2.55  27 2.57  22 2.57  26 2.57  19 2.57  11 2.57  13 2.57
                            10 2.58  29 2.58  31 2.58  36 2.77
  21  0.555  0.223  0.450-  20 2.55  23 2.55  24 2.57  27 2.57  19 2.57  25 2.57  14 2.57  11 2.57
                            12 2.58  32 2.58  30 2.58  36 2.77
  22  0.889  0.556  0.449-  18 2.56  15 2.56  13 2.56  24 2.56  27 2.56  23 2.57  20 2.57  31 2.57
                            33 2.57  19 2.57  25 2.57  35 2.58
  23  0.223  0.555  0.450-  20 2.55  21 2.55  22 2.57  24 2.57  25 2.57  26 2.57  13 2.57  14 2.57
                            16 2.58  33 2.58  34 2.58  36 2.77
  24  0.556  0.556  0.449-  15 2.56  17 2.56  14 2.56  22 2.56  27 2.56  21 2.57  23 2.57  32 2.57
                            34 2.57  19 2.57  26 2.57  35 2.58
  25  0.889  0.889  0.448-  12 2.54  16 2.54  18 2.55  19 2.56  26 2.56  33 2.57  30 2.57  22 2.57
                            27 2.57  21 2.57  23 2.57  28 2.57
  26  0.221  0.889  0.448-  10 2.54  16 2.54  17 2.55  25 2.56  19 2.56  29 2.57  34 2.57  27 2.57
                            24 2.57  20 2.57  23 2.57  28 2.57
  27  0.556  0.889  0.449-  17 2.56  18 2.56  11 2.56  24 2.56  22 2.56  20 2.57  21 2.57  29 2.57
                            30 2.57  26 2.57  25 2.57  35 2.58
  28  0.000  0.000  0.547-  33 2.55  30 2.55  31 2.55  29 2.55  32 2.55  34 2.55  25 2.57  19 2.57
                            26 2.57
  29  0.334  0.994  0.548-  34 2.48  35 2.54  28 2.55  26 2.57  27 2.57  20 2.58  30 2.60  31 2.61
                            36 2.62
  30  0.672  0.994  0.548-  33 2.48  35 2.54  28 2.55  25 2.57  27 2.57  21 2.58  29 2.60  32 2.61
                            36 2.62
  31  0.994  0.334  0.548-  32 2.48  35 2.54  28 2.55  19 2.57  22 2.57  20 2.58  33 2.60  29 2.61
                            36 2.62
  32  0.672  0.334  0.548-  31 2.48  35 2.54  28 2.55  19 2.57  24 2.57  21 2.58  34 2.60  30 2.61
                            36 2.62
  33  0.994  0.672  0.548-  30 2.48  35 2.54  28 2.55  25 2.57  22 2.57  23 2.58  31 2.60  34 2.61
                            36 2.62
  34  0.334  0.672  0.548-  29 2.48  35 2.54  28 2.55  26 2.57  24 2.57  23 2.58  32 2.60  33 2.61
                            36 2.62
  35  0.667  0.667  0.548-  34 2.54  32 2.54  29 2.54  30 2.54  33 2.54  31 2.54  24 2.58  27 2.58
                            22 2.58
  36  0.333  0.333  0.560-  37 1.86  31 2.62  29 2.62  33 2.62  32 2.62  34 2.62  30 2.62  23 2.77
                            20 2.77  21 2.77
  37  0.333  0.333  0.647-  36 1.86

  LATTYP: Found a hexagonal cell.
 ALAT       =     7.6967864036
 C/A-ratio  =     2.7653617908

  Lattice vectors:

 A1 = (  -3.8483927580,  -6.6656128093,   0.0000000000)
 A2 = (   7.6967864037,   0.0000000000,   0.0000000000)
 A3 = (   0.0000000000,   0.0000000000,  21.2843990326)

Analysis of symmetry for initial positions (statically):
 Subroutine PRICEL returns:
 Original cell was already a primitive cell.

 Routine SETGRP: Setting up the symmetry group for a
 hexagonal supercell.

 Subroutine GETGRP returns: Found  6 space group operations
 (whereof  6 operations were pure point group operations)
 out of a pool of 24 trial point group operations.

The static configuration has the point symmetry C_3v.

Analysis of symmetry for dynamics (positions and initial velocities):
 Subroutine PRICEL returns:
 Original cell was already a primitive cell.

[...]

The dynamic configuration has the point symmetry C_3v.

Analysis of constrained symmetry for selective dynamics:
 Subroutine PRICEL returns:
 Original cell was already a primitive cell.

 Routine SETGRP: Setting up the symmetry group for a
 hexagonal supercell.

 Subroutine GETGRP returns: Found  6 space group operations
 (whereof  6 operations were pure point group operations)
[...]
     24      -4.3313      2.00000
     25      -4.2696      2.00000
     26      -4.2440      2.00000
     27      -4.2416      2.00000
     28      -4.2040      2.00000
     29      -4.1831      2.00000
     30      -4.1788      2.00000
     31      -4.1718      2.00000
     32      -4.1653      2.00000
     33      -4.1575      2.00000
     34      -4.1177      2.00000
     35      -4.0362      2.00000
     36      -4.0219      2.00000
     37      -3.8720      2.00000
     38      -3.8611      2.00000
     39      -3.8143      2.00000
     40      -3.8032      2.00000
     41      -3.7761      2.00000
     42      -3.7657      2.00000
     43      -3.7585      2.00000
     44      -3.7512      2.00000
     45      -3.7488      2.00000
     46      -3.6087      2.00000
     47      -3.5815      2.00000
     48      -3.5649      2.00000
     49      -3.5426      2.00000
     50      -3.4900      2.00000
     51      -3.4825      2.00000
     52      -3.4734      2.00000
     53      -3.4527      2.00000
     54      -3.4416      2.00000
     55      -3.4378      2.00000
     56      -3.4129      2.00000
     57      -3.3946      2.00000
     58      -3.3850      2.00000
     59      -3.3780      2.00000
     60      -3.3650      2.00000
[...]
    238       6.9494      0.00000
    239       6.9796      0.00000
    240       7.0770      0.00000
    241       7.1063      0.00000
    242       7.2517      0.00000
    243       7.3103      0.00000
    244       7.3792      0.00000
    245       7.4167      0.00000
    246       7.5066      0.00000
    247       7.6457      0.00000
    248       7.7083      0.00000
    249       7.9219      0.00000
    250       8.0928      0.00000
    251       8.1884      0.00000
    252       8.4547      0.00000

 soft charge-density along one line, spin component           1
         0         1         2         3         4         5         6         7         8         9
 total charge-density along one line

------------------------ aborting loop because EDIFF is reached ----------------------------------------

 total charge

# of ion       s       p       d       tot
    1        0.450   0.282   9.188   9.920
    2        0.448   0.285   9.187   9.919
    3        0.448   0.285   9.187   9.919
    4        0.448   0.285   9.187   9.919
    5        0.449   0.284   9.185   9.918
    6        0.448   0.285   9.187   9.919
    7        0.448   0.285   9.187   9.919
    8        0.448   0.285   9.187   9.919
    9        0.449   0.284   9.188   9.921
   10        0.443   0.370   9.179   9.992
   11        0.441   0.365   9.181   9.987
   12        0.443   0.370   9.179   9.992
   13        0.441   0.365   9.181   9.987
   14        0.441   0.365   9.181   9.987
   15        0.440   0.372   9.177   9.989
   16        0.443   0.370   9.179   9.992
   17        0.440   0.372   9.177   9.989
   18        0.440   0.372   9.177   9.989
   19        0.445   0.370   9.181   9.996
   20        0.458   0.381   9.167  10.006
   21        0.458   0.381   9.167  10.006
   22        0.435   0.374   9.177   9.987
   23        0.458   0.381   9.167  10.006
   24        0.435   0.374   9.177   9.987
   25        0.445   0.370   9.181   9.996
   26        0.445   0.370   9.181   9.996
   27        0.435   0.374   9.177   9.987
   28        0.446   0.298   9.178   9.923
   29        0.489   0.317   9.163   9.969
   30        0.489   0.317   9.163   9.969
   31        0.489   0.317   9.163   9.969
   32        0.489   0.317   9.163   9.969
   33        0.489   0.317   9.163   9.969
   34        0.489   0.317   9.163   9.969
   35        0.445   0.302   9.178   9.924
   36        0.648   0.557   2.011   3.216
   37        0.537   0.005   0.000   0.542
tot         17.023  12.323 323.216 352.563

  FORCE on cell =-STRESS in cart. coord.  units (eV):
  Direction    XX          YY          ZZ          XY          YZ          ZX
  Alpha Z   861.42486   861.42486   861.42486
  Ewald  169409.04040169409.04010************     0.00033     0.00013     0.00015
  Hartree182134.87954182134.87959************     0.00001     0.00006     0.00005
  E(xc)   -2265.68000 -2265.67951 -2270.43590    -0.00042    -0.00003    -0.00005
  Local  ************************364321.67988     0.01833    -0.00057    -0.00086
  n-local  -753.20688  -740.88517  -760.12451     6.58178    -0.15565     0.20646
  augment  3308.62316  3308.64295  3331.27221    -0.01715     0.00022     0.00042
  Kinetic  3170.69335  3170.88528  3203.45821     0.89545     1.99666    -1.42727
  Fock        0.00000     0.00000     0.00000     0.00000     0.00000     0.00000
  Total      -2.25156    -2.25156     1.35185     0.00000     0.00000    -0.00000
  in kB      -3.30357    -3.30357     1.98348     0.00000     0.00000    -0.00000

 VOLUME and BASIS-vectors are now :
  energy-cutoff  :      500.00
  volume of cell :     1091.97
      direct lattice vectors                 reciprocal lattice vectors
     7.696786404  0.000000000  0.000000000     0.129924354 -0.075011849  0.000000000
     3.848392758  6.665612809  0.000000000     0.000000000  0.150023716  0.000000000
     0.000000000  0.000000000 21.284399033     0.000000000  0.000000000  0.046982769

  length of vectors
     7.696786404  7.696786404 21.284399033     0.150023716  0.150023716  0.046982769

 FORCES acting on ions
    electron-ion (+dipol)            ewald-force                    non-local-force                 convergence-correction
   -.413E-04 0.310E-06 0.343E+04   0.582E-04 -.422E-05 -.343E+04   0.668E-19 0.313E-17 -.208E+01   -.222E-03 -.146E-03 -.325E+00
   -.124E+01 -.164E+01 0.343E+04   0.120E+01 0.153E+01 -.343E+04   0.381E-01 0.931E-01 -.199E+01   0.116E-02 0.185E-01 -.257E+00
   0.124E+01 -.164E+01 0.343E+04   -.120E+01 0.153E+01 -.343E+04   -.381E-01 0.931E-01 -.199E+01   -.435E-03 0.211E-01 -.256E+00
   -.204E+01 -.249E+00 0.343E+04   0.193E+01 0.273E+00 -.343E+04   0.997E-01 -.136E-01 -.199E+01   0.167E-01 -.832E-02 -.257E+00
   -.610E-04 -.289E-05 0.342E+04   0.116E-03 -.101E-04 -.342E+04   -.890E-18 0.631E-18 -.190E+01   0.122E-01 0.744E-02 -.248E+00
   0.204E+01 -.249E+00 0.343E+04   -.193E+01 0.273E+00 -.343E+04   -.997E-01 -.136E-01 -.199E+01   -.183E-01 -.701E-02 -.255E+00
   -.806E+00 0.189E+01 0.343E+04   0.727E+00 -.180E+01 -.343E+04   0.616E-01 -.795E-01 -.199E+01   0.181E-01 -.109E-01 -.256E+00
   0.806E+00 0.189E+01 0.343E+04   -.727E+00 -.180E+01 -.343E+04   -.616E-01 -.795E-01 -.199E+01   -.146E-01 -.123E-01 -.255E+00
   -.143E-03 -.326E-04 0.343E+04   0.263E-03 0.204E-04 -.343E+04   0.482E-17 0.120E-17 -.198E+01   -.133E-01 -.683E-02 -.257E+00
   -.130E+02 -.750E+01 0.110E+04   0.131E+02 0.757E+01 -.110E+04   -.165E+00 -.951E-01 -.797E+00   0.502E-01 0.287E-01 -.237E+00
   -.908E-04 -.144E+02 0.108E+04   0.189E-03 0.140E+02 -.107E+04   -.195E-07 0.294E+00 -.423E+00   0.113E-01 0.119E-01 -.208E+00
   0.130E+02 -.750E+01 0.110E+04   -.131E+02 0.757E+01 -.110E+04   0.165E+00 -.951E-01 -.797E+00   -.512E-01 0.303E-01 -.238E+00
   -.124E+02 0.718E+01 0.108E+04   0.122E+02 -.703E+01 -.107E+04   0.254E+00 -.147E+00 -.423E+00   0.165E-01 0.464E-02 -.209E+00
   0.124E+02 0.718E+01 0.108E+04   -.122E+02 -.703E+01 -.107E+04   -.254E+00 -.147E+00 -.423E+00   0.751E-02 0.433E-02 -.209E+00
   -.139E-03 -.623E+00 0.110E+04   0.294E-03 0.552E+00 -.110E+04   -.360E-08 0.541E-01 -.891E+00   -.345E-02 0.253E-01 -.189E+00
   -.932E-04 0.150E+02 0.110E+04   0.187E-03 -.151E+02 -.110E+04   -.127E-07 0.190E+00 -.797E+00   0.843E-04 -.610E-01 -.237E+00
   -.539E+00 0.311E+00 0.110E+04   0.478E+00 -.276E+00 -.110E+04   0.468E-01 -.270E-01 -.891E+00   0.206E-01 -.156E-01 -.189E+00
   0.539E+00 0.311E+00 0.110E+04   -.478E+00 -.276E+00 -.110E+04   -.468E-01 -.270E-01 -.891E+00   -.202E-01 -.133E-01 -.189E+00
   -.723E-04 -.106E+02 -.121E+04   0.747E-04 0.105E+02 0.121E+04   0.209E-08 -.314E-01 0.108E+01   0.106E-02 0.452E-01 -.145E+00
   -.811E+02 -.469E+02 -.135E+04   0.818E+02 0.472E+02 0.135E+04   -.800E+00 -.462E+00 -.127E+00   -.201E-01 -.127E-01 -.261E+00
   0.811E+02 -.469E+02 -.135E+04   -.818E+02 0.472E+02 0.135E+04   0.800E+00 -.462E+00 -.127E+00   -.300E-03 -.108E-01 -.263E+00
   -.403E+02 0.232E+02 -.124E+04   0.402E+02 -.232E+02 0.124E+04   0.219E+00 -.126E+00 0.747E+00   -.100E+00 0.430E-01 -.201E+00
   -.710E-04 0.937E+02 -.135E+04   0.158E-03 -.945E+02 0.135E+04   -.615E-07 0.923E+00 -.127E+00   0.130E-02 0.237E-01 -.263E+00
   0.403E+02 0.232E+02 -.124E+04   -.402E+02 -.232E+02 0.124E+04   -.219E+00 -.126E+00 0.747E+00   0.780E-01 0.452E-01 -.200E+00
   0.915E+01 0.528E+01 -.121E+04   -.911E+01 -.526E+01 0.121E+04   0.272E-01 0.157E-01 0.108E+01   -.363E-01 -.219E-01 -.145E+00
   -.915E+01 0.528E+01 -.121E+04   0.911E+01 -.526E+01 0.121E+04   -.272E-01 0.157E-01 0.108E+01   0.395E-01 -.229E-01 -.145E+00
   -.137E-03 -.465E+02 -.124E+04   0.239E-03 0.464E+02 0.124E+04   -.168E-07 0.253E+00 0.747E+00   -.132E-01 -.108E+00 -.201E+00
   -.313E-04 0.217E-04 -.345E+04   0.527E-04 -.298E-04 0.345E+04   0.169E-17 -.337E-18 0.168E+01   -.103E-02 -.914E-03 0.192E+00
   -.743E+02 -.138E+03 -.345E+04   0.747E+02 0.138E+03 0.345E+04   -.344E+00 -.225E+00 0.106E+01   -.577E-01 -.921E-01 0.136E+00
   0.743E+02 -.138E+03 -.345E+04   -.747E+02 0.138E+03 0.345E+04   0.344E+00 -.225E+00 0.106E+01   0.797E-01 -.902E-01 0.137E+00
   -.157E+03 0.476E+01 -.345E+04   0.157E+03 -.456E+01 0.345E+04   -.367E+00 -.185E+00 0.106E+01   -.108E+00 -.414E-02 0.136E+00
   0.157E+03 0.476E+01 -.345E+04   -.157E+03 -.456E+01 0.345E+04   0.367E+00 -.185E+00 0.106E+01   0.130E+00 -.234E-02 0.137E+00
   -.826E+02 0.134E+03 -.345E+04   0.826E+02 -.134E+03 0.345E+04   -.229E-01 0.410E+00 0.106E+01   -.379E-01 0.114E+00 0.137E+00
   0.826E+02 0.134E+03 -.345E+04   -.826E+02 -.134E+03 0.345E+04   0.229E-01 0.410E+00 0.106E+01   0.635E-01 0.114E+00 0.136E+00
   -.120E-03 -.118E-04 -.347E+04   0.244E-03 -.293E-05 0.347E+04   -.186E-17 0.133E-17 0.180E+01   -.149E-01 -.758E-02 0.948E-01
   -.379E-04 -.953E-05 -.128E+04   0.434E-04 0.109E-04 0.129E+04   -.141E-17 -.132E-18 -.600E-01   -.156E-03 -.129E-03 0.447E-01
   0.525E-05 -.465E-05 -.332E+03   0.172E-05 0.932E-06 0.333E+03   0.401E-19 0.208E-19 -.181E+01   0.161E-04 0.931E-05 0.293E-01
   -.241E-03 0.885E-05 0.161E+02   0.983E-13 0.284E-12 -.676E-11   -.379E-16 -.165E-15 -.112E+02   0.353E-01 0.290E-01 -.491E+01

 POSITION                                       TOTAL-FORCE (eV/Angst)
      0.00000      0.00000      5.37156         0.000000     -0.000000      0.009418
      2.56560      0.00000      5.37156         0.002455      0.000676      0.061225
      5.13119      0.00000      5.37156        -0.002455      0.000676      0.061225
      1.28280      2.22187      5.37156         0.001813      0.001788      0.061225
      3.84839      2.22187      5.37156        -0.000000     -0.000000      0.060225
      6.41399      2.22187      5.37156        -0.001813      0.001788      0.061225
      2.56560      4.44374      5.37156        -0.000642     -0.002465      0.061225
      5.13119      4.44374      5.37156         0.000642     -0.002465      0.061225
      7.69679      4.44374      5.37156         0.000000     -0.000000      0.035312
      1.28280      0.74062      7.46636         0.004502      0.002599     -0.108642
      3.84839      0.74062      7.46636         0.000000     -0.016374     -0.029581
      6.41399      0.74062      7.46636        -0.004502      0.002599     -0.108642
      2.56560      2.96249      7.46636        -0.014180      0.008187     -0.029581
      5.13119      2.96249      7.46636         0.014180      0.008187     -0.029581
      7.69679      2.96249      7.46636        -0.000000      0.008691     -0.030026
      3.84839      5.18437      7.46636         0.000000     -0.005199     -0.108642
      6.41399      5.18437      7.46636         0.007526     -0.004345     -0.030026
      8.97958      5.18437      7.46636        -0.007526     -0.004345     -0.030026
      7.69679      1.47625      9.53578         0.000000     -0.028733      0.009020
      2.57143      1.48462      9.57247        -0.128672     -0.074289     -0.181042
      5.12535      1.48462      9.57247         0.128673     -0.074289     -0.181042
      8.97869      3.70363      9.55450         0.036868     -0.021286      0.047184
      3.84839      3.69638      9.57247        -0.000000      0.148578     -0.181042
      6.41488      3.70363      9.55450        -0.036868     -0.021286      0.047184
     10.26671      5.92749      9.53578         0.024884      0.014367      0.009020
      5.12686      5.92749      9.53578        -0.024884      0.014367      0.009020
      7.69679      5.92396      9.55450        -0.000000      0.042572      0.047184
      0.00000      0.00000     11.64309         0.000000     -0.000000      0.004476
      6.39641      6.62889     11.65568        -0.063757     -0.124501     -0.136000
      8.99717      6.62889     11.65568         0.063757     -0.124501     -0.136000
      8.93899      2.22500     11.65568        -0.139699      0.007036     -0.136000
      6.45458      2.22500     11.65568         0.139699      0.007036     -0.136000
     10.23937      4.47733     11.65568        -0.075943      0.117466     -0.136000
      5.15420      4.47733     11.65568         0.075943      0.117466     -0.136000
      7.69679      4.44374     11.66757         0.000000     -0.000000      0.003713
      3.84839      2.22187     11.91603         0.000000     -0.000000      1.256522
      3.84839      2.22187     13.77611         0.000000     -0.000000     -0.041752
    total drift:                                0.035092      0.029011     -0.001208

  FREE ENERGIE OF THE ION-ELECTRON SYSTEM (eV)
  free  energy   TOTEN  =      -135.06489537 eV

  energy  without entropy=     -135.06489537  energy(sigma->0) =     -135.06489537

 stress matrix after NEB project (eV)
     -2.25156      0.00000     -0.00000
      0.00000     -2.25156      0.00000
     -0.00000      0.00000      1.35185
  FORCES: max atom, RMS     0.041752    0.006864
  FORCE total and by dimension    0.041752    0.041752
  Stress total and by dimension    3.459269    2.251560
|           W    W    AA    RRRRR   N    N  II  N    N   GGGG   !!!           |
|           W    W   A  A   R    R  NN   N  II  NN   N  G    G  !!!           |
|           W    W  A    A  R    R  N N  N  II  N N  N  G       !!!           |
|           W WW W  AAAAAA  RRRRR   N  N N  II  N  N N  G  GGG   !            |
|           WW  WW  A    A  R   R   N   NN  II  N   NN  G    G                |
|           W    W  A    A  R    R  N    N  II  N    N   GGGG   !!!           |
|     Tetrahedron method does not include variations of the Fermi             |
|     occupations, so forces and stress will be inaccurate. We suggest        |
|     using a different smearing scheme ISMEAR = 1 or 2 for metals in         |
|     relaxations.                                                            |

 total charge

# of ion       s       p       d       tot
    1        0.450   0.282   9.188   9.920
    2        0.448   0.285   9.187   9.919
    3        0.448   0.285   9.187   9.919
    4        0.448   0.285   9.187   9.919
    5        0.449   0.284   9.185   9.918
    6        0.448   0.285   9.187   9.919
    7        0.448   0.285   9.187   9.919
    8        0.448   0.285   9.187   9.919
    9        0.449   0.284   9.188   9.921
   10        0.443   0.370   9.179   9.992
   11        0.441   0.365   9.181   9.987
   12        0.443   0.370   9.179   9.992
   13        0.441   0.365   9.181   9.987
   14        0.441   0.365   9.181   9.987
   15        0.440   0.372   9.177   9.989
   16        0.443   0.370   9.179   9.992
   17        0.440   0.372   9.177   9.989
   18        0.440   0.372   9.177   9.989
   19        0.445   0.370   9.181   9.996
   20        0.458   0.381   9.167  10.006
   21        0.458   0.381   9.167  10.006
   22        0.435   0.374   9.177   9.987
   23        0.458   0.381   9.167  10.006
   24        0.435   0.374   9.177   9.987
   25        0.445   0.370   9.181   9.996
   26        0.445   0.370   9.181   9.996
   27        0.435   0.374   9.177   9.987
   28        0.446   0.298   9.178   9.923
   29        0.489   0.317   9.163   9.969
   30        0.489   0.317   9.163   9.969
   31        0.489   0.317   9.163   9.969
   32        0.489   0.317   9.163   9.969
   33        0.489   0.317   9.163   9.969
   34        0.489   0.317   9.163   9.969
   35        0.445   0.302   9.178   9.924
   36        0.648   0.557   2.011   3.216
   37        0.537   0.005   0.000   0.542
tot         17.023  12.323 323.216 352.563

 BZINTS: Fermi energy:   -0.023267;  390.000000 electrons
         Band energy:-0.113814E+04;  BLOECHL correction:   -0.061173