 vasp.6.2.0 18Jan21 (build Jun 12 2021 23:27:24) complex

 executed on             LinuxIFC date 2022.05.30  15:51:01

 INCAR:
   ISMEAR = -5
   SIGMA = 0.1
   ISPIN = 1
   EDIFF = 1.d-5
   EDIFFG = -0.01
   NSW = 0
   NELM = 150
   ENCUT = 500
   ISIF = 2
   IBRION = 2
   LREAL = Auto
   ALGO = Fast
   ICHARG = 11
   LORBIT = 10
   LCHARG = .F.
   LWAVE = .F.

 POTCAR:    PAW_PBE Au 04Oct2007
 POTCAR:    PAW_PBE Mn 06Sep2000
 POTCAR:    PAW_PBE C 08Apr2002
 POTCAR:    PAW_PBE O 08Apr2002
 POTCAR:    PAW_PBE H 15Jun2001
|           W    W    AA    RRRRR   N    N  II  N    N   GGGG   !!!           |
|           W    W   A  A   R    R  NN   N  II  NN   N  G    G  !!!           |
|           W    W  A    A  R    R  N N  N  II  N N  N  G       !!!           |
|           W WW W  AAAAAA  RRRRR   N  N N  II  N  N N  G  GGG   !            |
|           WW  WW  A    A  R   R   N   NN  II  N   NN  G    G                |
|           W    W  A    A  R    R  N    N  II  N    N   GGGG   !!!           |
|     For optimal performance we recommend to set                             |
|       NCORE = 2 up to number-of-cores-per-socket                            |
|     This setting can greatly improve the performance of VASP for DFT.       |
|     The default, NCORE=1 might be grossly inefficient on modern             |
|     multi-core architectures or massively parallel machines. Do your        |
|     Unfortunately you need to use the default for GW and RPA                |
|     calculations (for HF NCORE is supported but not extensively tested      |
|     yet).                                                                   |

 POTCAR:    PAW_PBE Au 04Oct2007
   VRHFIN =Au: s1d10

   TITEL  = PAW_PBE Au 04Oct2007
   POMASS =  196.966; ZVAL   =   11.000    mass and valenz
   ENMAX  =  229.943; ENMIN  =  172.457 eV

 POTCAR:    PAW_PBE Mn 06Sep2000
   VRHFIN =Mn: d6 s1

   TITEL  = PAW_PBE Mn 06Sep2000
   POMASS =   54.938; ZVAL   =    7.000    mass and valenz
   ENMAX  =  269.864; ENMIN  =  202.398 eV

 POTCAR:    PAW_PBE C 08Apr2002
   VRHFIN =C: s2p2

   TITEL  = PAW_PBE C 08Apr2002
   POMASS =   12.011; ZVAL   =    4.000    mass and valenz
   ENMAX  =  400.000; ENMIN  =  300.000 eV

 POTCAR:    PAW_PBE O 08Apr2002
   VRHFIN =O: s2p4

   TITEL  = PAW_PBE O 08Apr2002
   POMASS =   16.000; ZVAL   =    6.000    mass and valenz
   ENMAX  =  400.000; ENMIN  =  300.000 eV

 POTCAR:    PAW_PBE H 15Jun2001
   VRHFIN =H: ultrasoft test

   TITEL  = PAW_PBE H 15Jun2001
   POMASS =    1.000; ZVAL   =    1.000    mass and valenz
   ENMAX  =  250.000; ENMIN  =  200.000 eV

 Optimization of the real space projectors (new method)

 maximal supplied QI-value         = 15.12
 optimisation between [QCUT,QGAM] = [ 11.34, 22.83] = [ 36.00,145.93] Ry
 Optimized for a Real-space Cutoff    1.39 Angstroem

   l    n(q)    QCUT    max X(q) W(low)/X(q) W(high)/X(q)  e(spline)
   2      9    11.338    60.898    0.39E-03    0.42E-03    0.21E-06
   2      9    11.338    58.894    0.40E-03    0.42E-03    0.22E-06
   0      9    11.338   109.617    0.13E-03    0.20E-04    0.13E-06
   0      9    11.338    75.026    0.13E-03    0.20E-04    0.13E-06
   1      9    11.338    16.344    0.33E-04    0.24E-03    0.18E-06
   1      9    11.338    10.160    0.26E-04    0.19E-03    0.15E-06
 Optimization of the real space projectors (new method)

[...]

   l    n(q)    QCUT    max X(q) W(low)/X(q) W(high)/X(q)  e(spline)
   0      7    11.387    20.381    0.39E-03    0.13E-02    0.15E-06
   0      7    11.387    15.268    0.42E-03    0.14E-02    0.17E-06
   1      6    11.387     5.964    0.41E-03    0.11E-02    0.17E-06
   1      6    11.387     5.382    0.39E-03    0.87E-03    0.15E-06
 Optimization of the real space projectors (new method)

 maximal supplied QI-value         = 34.20
 optimisation between [QCUT,QGAM] = [ 11.29, 22.57] = [ 35.68,142.71] Ry
 Optimized for a Real-space Cutoff    1.16 Angstroem

   l    n(q)    QCUT    max X(q) W(low)/X(q) W(high)/X(q)  e(spline)
   0      8    11.287    19.460    0.40E-03    0.73E-03    0.16E-06
   0      8    11.287    12.209    0.38E-03    0.70E-03    0.15E-06
   1      7    11.287     4.655    0.22E-03    0.25E-04    0.22E-06
  PAW_PBE Au 04Oct2007                  :
  PAW_PBE Mn 06Sep2000                  :
  PAW_PBE C 08Apr2002                   :
  PAW_PBE O 08Apr2002                   :
  PAW_PBE H 15Jun2001                   :

 POSCAR: Au-Mn-COH
  positions in direct lattice
  velocities in cartesian coordinates
 exchange correlation table for  LEXCH =        8
   RHO(1)=    0.500       N(1)  =     2000
   RHO(2)=  100.500       N(2)  =     4000

 VTST: version 3.2, (02/03/18)

 CHAIN: initializing optimizer

 OPT: Using VASP Conjugate-Gradient optimizer
 CHAIN: Read ICHAIN            0

 POSCAR: Au-Mn-COH
  positions in direct lattice
  velocities in cartesian coordinates

 ion  position               nearest neighbor table
   1  0.000  0.000  0.197-  16 2.94  12 2.94   6 2.94   8 2.94   7 2.94   3 2.94  10 2.94   4 2.94
                             2 2.94
   2  0.333  0.000  0.197-   9 2.94  11 2.94  17 2.94  10 2.94   8 2.94   4 2.94   5 2.94   1 2.94
                             3 2.94
   3  0.667  0.000  0.197-   7 2.94  18 2.94  12 2.94   1 2.94  11 2.94   5 2.94   6 2.94   9 2.94
                             2 2.94
   4  0.000  0.333  0.197-  10 2.94   6 2.94   5 2.94  13 2.94   2 2.94  15 2.94   9 2.94   1 2.94
                             7 2.94
   5  0.333  0.333  0.197-  13 2.94   7 2.94  11 2.94   4 2.94   2 2.94  14 2.94   3 2.94   8 2.94
                             6 2.94
   6  0.667  0.333  0.197-  15 2.94  14 2.94   1 2.94  12 2.94   4 2.94   9 2.94   8 2.94   3 2.94
                             5 2.94
   7  0.000  0.667  0.197-  18 2.94   3 2.94  16 2.94   5 2.94   1 2.94  13 2.94   8 2.94   4 2.94
                             9 2.94
   8  0.333  0.667  0.197-   9 2.94  17 2.94   1 2.94   2 2.94  14 2.94  16 2.94   6 2.94   7 2.94
                             5 2.94
   9  0.667  0.667  0.197-   2 2.94   8 2.94  17 2.94   6 2.94  15 2.94   4 2.94   3 2.94  18 2.94
                             7 2.94
  10  0.111  0.111  0.287-  20 2.93  26 2.94  19 2.94  11 2.94  17 2.94   2 2.94   4 2.94   1 2.94
                            12 2.94  16 2.94  13 2.94  15 2.94
  11  0.444  0.111  0.287-  20 2.91  21 2.91  27 2.93  13 2.94   2 2.94  10 2.94  17 2.94   5 2.94
                             3 2.94  18 2.94  14 2.94  12 2.94
  12  0.778  0.111  0.287-  21 2.93  25 2.94  19 2.94  16 2.94  18 2.94   1 2.94  14 2.94  15 2.94
                             3 2.94   6 2.94  10 2.94  11 2.94
  13  0.111  0.444  0.287-  23 2.91  20 2.91  22 2.93   5 2.94  18 2.94  11 2.94   7 2.94   4 2.94
                            16 2.94  10 2.94  14 2.94  15 2.94
  14  0.444  0.444  0.287-  21 2.91  23 2.91  24 2.93  15 2.94   6 2.94  12 2.94   8 2.94  17 2.94
                             5 2.94  16 2.94  13 2.94  11 2.94
  15  0.778  0.444  0.287-  24 2.92  22 2.92  19 2.94  14 2.94   6 2.94  17 2.94  12 2.94   9 2.94
                             4 2.94  10 2.94  13 2.94  18 2.94
  16  0.111  0.778  0.287-  23 2.93  25 2.94  26 2.94  18 2.94  12 2.94   7 2.94   1 2.94   8 2.94
                            13 2.94  10 2.94  14 2.94  17 2.94
  17  0.444  0.778  0.287-  27 2.92  24 2.92  26 2.94   9 2.94  15 2.94   2 2.94  10 2.94  11 2.94
                             8 2.94  14 2.94  16 2.94  18 2.94
  18  0.778  0.778  0.287-  22 2.92  27 2.92  25 2.94  16 2.94   7 2.94  13 2.94  12 2.94   3 2.94
                            11 2.94   9 2.94  15 2.94  17 2.94
  19  0.889  0.222  0.377-  10 2.94  12 2.94  15 2.94  26 2.94  25 2.94  24 2.94  22 2.94  28 2.95
                            21 2.95  20 2.95  32 2.99  31 2.99
  20  0.223  0.223  0.376-  36 2.70  23 2.91  21 2.91  11 2.91  13 2.91  29 2.92  31 2.92  10 2.93
                            26 2.95  19 2.95  27 2.95  22 2.95
  21  0.553  0.223  0.376-  36 2.70  20 2.91  23 2.91  14 2.91  11 2.91  30 2.92  32 2.92  12 2.93
                            25 2.95  19 2.95  27 2.95  24 2.95
  22  0.886  0.557  0.376-  24 2.91  27 2.91  18 2.92  15 2.92  13 2.93  25 2.94  19 2.94  23 2.95
                            20 2.95  33 2.96  31 2.96  35 2.96
  23  0.223  0.553  0.376-  36 2.70  20 2.91  21 2.91  13 2.91  14 2.91  33 2.92  34 2.92  16 2.93
                            25 2.95  26 2.95  22 2.95  24 2.95
  24  0.557  0.557  0.376-  27 2.91  22 2.91  15 2.92  17 2.92  14 2.93  26 2.94  19 2.94  21 2.95
                            23 2.95  32 2.96  34 2.96  35 2.96
  25  0.889  0.889  0.377-  16 2.94  12 2.94  18 2.94  19 2.94  26 2.94  22 2.94  27 2.94  28 2.95
                            23 2.95  21 2.95  33 2.99  30 2.99
  26  0.222  0.889  0.377-  10 2.94  16 2.94  17 2.94  19 2.94  25 2.94  27 2.94  24 2.94  28 2.95
                            20 2.95  23 2.95  29 2.99  34 2.99
  27  0.557  0.886  0.376-  24 2.91  22 2.91  17 2.92  18 2.92  11 2.93  26 2.94  25 2.94  20 2.95
                            21 2.95  29 2.96  30 2.96  35 2.96
  28  0.000  0.000  0.467-  25 2.95  19 2.95  26 2.95  34 2.99  32 2.99  33 2.99  30 2.99  31 2.99
                            29 2.99
  29  0.334  0.010  0.466-  30 2.84  31 2.85  36 2.86  20 2.92  27 2.96  35 2.98  26 2.99  28 2.99
                            34 3.12
  30  0.656  0.010  0.466-  29 2.84  32 2.85  36 2.86  21 2.92  27 2.96  35 2.98  25 2.99  28 2.99
                            33 3.12
  31  0.010  0.334  0.466-  33 2.84  29 2.85  36 2.86  20 2.92  22 2.96  35 2.98  19 2.99  28 2.99
                            32 3.12
  32  0.656  0.334  0.466-  34 2.84  30 2.85  36 2.86  21 2.92  24 2.96  35 2.98  19 2.99  28 2.99
                            31 3.12
  33  0.010  0.656  0.466-  31 2.84  34 2.85  36 2.86  23 2.92  22 2.96  35 2.98  25 2.99  28 2.99
                            30 3.12
  34  0.334  0.656  0.466-  32 2.84  33 2.85  36 2.86  23 2.92  24 2.96  35 2.98  26 2.99  28 2.99
                            29 3.12
  35  0.667  0.667  0.467-  24 2.96  27 2.96  22 2.96  29 2.98  34 2.98  32 2.98  31 2.98  30 2.98
                            33 2.98
  36  0.333  0.333  0.455-  37 1.68  20 2.70  23 2.70  21 2.70  33 2.86  31 2.86  29 2.86  30 2.86
                            34 2.86  32 2.86
  37  0.333  0.333  0.518-  38 1.25  36 1.68
  38  0.333  0.333  0.564-  39 0.96  37 1.25
  39  0.333  0.333  0.600-  38 0.96

  LATTYP: Found a hexagonal cell.
 ALAT       =     8.8135128021
 C/A-ratio  =     3.0356784858

  Lattice vectors:

 A1 = (  -4.4067569092,  -7.6327256898,   0.0000000000)
 A2 = (   8.8135128021,   0.0000000000,   0.0000000000)
 A3 = (   0.0000000000,   0.0000000000,  26.7549911976)

Analysis of symmetry for initial positions (statically):
 Subroutine PRICEL returns:
 Original cell was already a primitive cell.

 Routine SETGRP: Setting up the symmetry group for a
 hexagonal supercell.

 Subroutine GETGRP returns: Found  6 space group operations
 (whereof  6 operations were pure point group operations)
 out of a pool of 24 trial point group operations.

The static configuration has the point symmetry C_3v.

Analysis of symmetry for dynamics (positions and initial velocities):
[...]
     41      -4.9866      2.00000
     42      -4.9687      2.00000
     43      -4.9464      2.00000
     44      -4.8948      2.00000
     45      -4.8328      2.00000
     46      -4.8075      2.00000
     47      -4.7472      2.00000
     48      -4.7268      2.00000
     49      -4.7205      2.00000
     50      -4.7079      2.00000
     51      -4.6062      2.00000
     52      -4.5858      2.00000
     53      -4.5568      2.00000
     54      -4.5377      2.00000
     55      -4.5327      2.00000
     56      -4.5284      2.00000
     57      -4.5077      2.00000
     58      -4.4773      2.00000
     59      -4.4372      2.00000
     60      -4.4071      2.00000
[...]
    238       5.2492      0.00000
    239       5.2920      0.00000
    240       5.4573      0.00000
    241       5.5522      0.00000
    242       5.6510      0.00000
    243       5.8975      0.00000
    244       5.9132      0.00000
    245       5.9590      0.00000
    246       6.0221      0.00000
    247       6.0621      0.00000
    248       6.0901      0.00000
    249       6.1113      0.00000
    250       6.1557      0.00000
    251       6.2988      0.00000
    252       6.3675      0.00000

 soft charge-density along one line, spin component           1
         0         1         2         3         4         5         6         7         8         9
 total charge-density along one line

------------------------ aborting loop because EDIFF is reached ----------------------------------------

 total charge

# of ion       s       p       d       tot
    1        0.546   0.239   8.768   9.553
    2        0.546   0.242   8.765   9.552
    3        0.546   0.242   8.765   9.552
    4        0.546   0.242   8.765   9.552
    5        0.545   0.242   8.762   9.549
    6        0.546   0.242   8.765   9.552
    7        0.546   0.242   8.765   9.552
    8        0.546   0.242   8.765   9.552
    9        0.542   0.241   8.770   9.553
   10        0.521   0.308   8.772   9.602
   11        0.523   0.308   8.779   9.610
   12        0.521   0.308   8.772   9.602
   13        0.523   0.308   8.779   9.610
   14        0.523   0.308   8.779   9.610
   15        0.515   0.311   8.775   9.602
   16        0.521   0.308   8.772   9.602
   17        0.515   0.311   8.775   9.602
   18        0.515   0.311   8.775   9.602
   19        0.518   0.300   8.773   9.591
   20        0.550   0.332   8.751   9.633
   21        0.550   0.332   8.751   9.633
   22        0.512   0.312   8.775   9.599
   23        0.550   0.332   8.751   9.633
   24        0.512   0.312   8.775   9.599
   25        0.518   0.300   8.773   9.591
   26        0.518   0.300   8.773   9.591
   27        0.512   0.312   8.775   9.599
   28        0.544   0.224   8.764   9.532
   29        0.551   0.245   8.757   9.552
   30        0.551   0.245   8.757   9.552
   31        0.551   0.245   8.757   9.552
   32        0.551   0.245   8.757   9.552
   33        0.551   0.245   8.757   9.552
   34        0.551   0.245   8.757   9.552
   35        0.540   0.225   8.764   9.529
   36        0.326   0.391   5.159   5.876
   37        0.933   1.446   0.000   2.379
   38        1.524   3.768   0.000   5.292
   39        0.560   0.136   0.000   0.696
tot         22.056  15.444 311.997 349.497

  FORCE on cell =-STRESS in cart. coord.  units (eV):
  Direction    XX          YY          ZZ          XY          YZ          ZX
  Alpha Z   857.83316   857.83316   857.83316
  Ewald  187209.68320187209.68364************    -0.00031    -0.00008    -0.00012
  Hartree195779.38931195779.38932************     0.00001    -0.00002    -0.00003
  E(xc)   -1808.07919 -1808.07935 -1814.10526     0.00013    -0.00002    -0.00003
  Local  ************************395107.55843     0.00217     0.00000    -0.00003
  n-local  -128.63130   -83.70381   -82.38461    22.31942    -1.53736     1.44247
  augment  2403.54108  2403.54264  2413.66613    -0.00135    -0.00001     0.00003
  Kinetic  5630.67711  5641.22556  5619.40319     6.52325     0.06714     0.41764
  Fock        0.00000     0.00000     0.00000     0.00000     0.00000     0.00000
  Total     -22.16118   -22.16118     1.65019    -0.00000     0.00000    -0.00000
  in kB     -19.72741   -19.72741     1.46896    -0.00000     0.00000    -0.00000

 VOLUME and BASIS-vectors are now :
  energy-cutoff  :      500.00
  volume of cell :     1799.84
      direct lattice vectors                 reciprocal lattice vectors
     8.813512802  0.000000000  0.000000000     0.113462137 -0.065507406  0.000000000
     4.406756909  7.632725690  0.000000000     0.000000000  0.131014796  0.000000000
     0.000000000  0.000000000 26.754991198     0.000000000  0.000000000  0.037376204

  length of vectors
     8.813512802  8.813512802 26.754991198     0.131014796  0.131014796  0.037376204

 FORCES acting on ions
    electron-ion (+dipol)            ewald-force                    non-local-force                 convergence-correction
   -.201E-04 -.165E-04 0.283E+04   0.519E-04 0.434E-04 -.283E+04   -.558E-18 -.242E-17 -.828E+00   -.296E-03 -.184E-03 -.369E+00
   0.568E+00 0.203E+00 0.283E+04   -.641E+00 -.341E+00 -.283E+04   0.329E-01 0.767E-01 -.272E+00   0.415E-01 0.735E-01 -.337E+00
   -.568E+00 0.203E+00 0.283E+04   0.640E+00 -.341E+00 -.283E+04   -.329E-01 0.767E-01 -.272E+00   -.412E-01 0.754E-01 -.336E+00
   0.460E+00 0.390E+00 0.283E+04   -.616E+00 -.384E+00 -.283E+04   0.828E-01 -.988E-02 -.272E+00   0.845E-01 -.836E-03 -.337E+00
   0.109E-04 -.219E-04 0.283E+04   0.951E-04 0.174E-05 -.283E+04   0.533E-18 -.862E-18 -.120E+00   0.432E-02 0.263E-02 -.273E+00
   -.460E+00 0.390E+00 0.283E+04   0.616E+00 -.384E+00 -.283E+04   -.828E-01 -.988E-02 -.272E+00   -.860E-01 0.314E-04 -.336E+00
   -.108E+00 -.593E+00 0.283E+04   0.247E-01 0.725E+00 -.283E+04   0.500E-01 -.668E-01 -.272E+00   0.448E-01 -.734E-01 -.336E+00
   0.108E+00 -.593E+00 0.283E+04   -.248E-01 0.725E+00 -.283E+04   -.500E-01 -.668E-01 -.272E+00   -.430E-01 -.745E-01 -.336E+00
   0.197E-04 -.414E-04 0.283E+04   0.166E-03 -.201E-04 -.283E+04   -.539E-18 0.607E-18 -.574E+00   -.456E-02 -.236E-02 -.404E+00
   0.461E+01 0.266E+01 0.978E+03   -.447E+01 -.258E+01 -.978E+03   -.279E+00 -.161E+00 -.601E+00   0.144E+00 0.832E-01 0.671E+00
   0.155E-04 0.518E+01 0.986E+03   0.147E-03 -.538E+01 -.987E+03   0.348E-08 0.523E-01 -.308E+00   0.436E-02 0.104E+00 0.745E+00
   -.461E+01 0.266E+01 0.978E+03   0.447E+01 -.258E+01 -.978E+03   0.279E+00 -.161E+00 -.601E+00   -.146E+00 0.844E-01 0.672E+00
   0.448E+01 -.259E+01 0.986E+03   -.466E+01 0.269E+01 -.987E+03   0.453E-01 -.262E-01 -.308E+00   0.922E-01 -.478E-01 0.745E+00
   -.448E+01 -.259E+01 0.986E+03   0.466E+01 0.269E+01 -.987E+03   -.453E-01 -.262E-01 -.308E+00   -.845E-01 -.489E-01 0.744E+00
   0.313E-04 0.387E+01 0.981E+03   0.236E-03 -.386E+01 -.981E+03   -.722E-09 -.108E-01 -.521E+00   -.249E-02 -.410E-01 0.620E+00
   -.211E-04 -.532E+01 0.978E+03   0.163E-03 0.516E+01 -.978E+03   0.215E-07 0.322E+00 -.601E+00   -.178E-03 -.169E+00 0.672E+00
   0.335E+01 -.194E+01 0.981E+03   -.334E+01 0.193E+01 -.981E+03   -.940E-02 0.542E-02 -.521E+00   -.365E-01 0.187E-01 0.620E+00
   -.335E+01 -.194E+01 0.981E+03   0.334E+01 0.193E+01 -.981E+03   0.940E-02 0.542E-02 -.521E+00   0.371E-01 0.211E-01 0.622E+00
   -.423E-04 0.235E+01 -.907E+03   0.541E-04 -.244E+01 0.905E+03   0.194E-08 0.292E-01 0.667E+00   -.464E-02 0.497E-01 0.145E+01
   0.219E+02 0.126E+02 -.863E+03   -.216E+02 -.125E+02 0.862E+03   -.107E+01 -.618E+00 -.102E+01   0.656E+00 0.378E+00 0.224E+01
   -.219E+02 0.126E+02 -.863E+03   0.216E+02 -.125E+02 0.862E+03   0.107E+01 -.618E+00 -.102E+01   -.653E+00 0.378E+00 0.224E+01
   0.320E+01 -.185E+01 -.890E+03   -.385E+01 0.223E+01 0.888E+03   0.336E+00 -.194E+00 0.571E+00   0.359E+00 -.205E+00 0.150E+01
   -.104E-04 -.253E+02 -.863E+03   0.141E-03 0.249E+02 0.862E+03   0.823E-07 0.124E+01 -.102E+01   0.444E-03 -.755E+00 0.224E+01
   -.320E+01 -.185E+01 -.890E+03   0.385E+01 0.223E+01 0.888E+03   -.336E+00 -.194E+00 0.571E+00   -.359E+00 -.207E+00 0.150E+01
   -.204E+01 -.118E+01 -.907E+03   0.211E+01 0.122E+01 0.905E+03   -.253E-01 -.146E-01 0.667E+00   -.474E-01 -.274E-01 0.145E+01
   0.204E+01 -.118E+01 -.907E+03   -.211E+01 0.122E+01 0.905E+03   0.253E-01 -.146E-01 0.667E+00   0.410E-01 -.288E-01 0.145E+01
   0.103E-04 0.369E+01 -.890E+03   0.196E-03 -.445E+01 0.888E+03   0.258E-07 0.388E+00 0.571E+00   0.106E-02 0.414E+00 0.150E+01
   -.146E-04 -.143E-04 -.274E+04   0.308E-04 0.353E-04 0.274E+04   -.269E-17 0.215E-17 0.363E+00   -.390E-03 -.243E-03 0.102E+01
   0.380E+02 0.626E+02 -.271E+04   -.380E+02 -.628E+02 0.270E+04   -.593E+00 -.841E+00 0.419E+00   0.519E+00 0.925E+00 0.906E+00
   -.380E+02 0.626E+02 -.271E+04   0.380E+02 -.628E+02 0.270E+04   0.593E+00 -.841E+00 0.419E+00   -.518E+00 0.927E+00 0.905E+00
   0.732E+02 0.164E+01 -.271E+04   -.735E+02 -.153E+01 0.270E+04   -.102E+01 -.926E-01 0.419E+00   0.106E+01 -.137E-01 0.906E+00
   -.732E+02 0.164E+01 -.271E+04   0.735E+02 -.153E+01 0.270E+04   0.102E+01 -.926E-01 0.419E+00   -.106E+01 -.133E-01 0.905E+00
   0.352E+02 -.642E+02 -.271E+04   -.354E+02 0.644E+02 0.270E+04   -.432E+00 0.934E+00 0.419E+00   0.544E+00 -.912E+00 0.905E+00
   -.352E+02 -.642E+02 -.271E+04   0.354E+02 0.644E+02 0.270E+04   0.432E+00 0.934E+00 0.419E+00   -.542E+00 -.913E+00 0.905E+00
   0.358E-04 -.270E-04 -.275E+04   0.140E-03 -.507E-04 0.275E+04   -.508E-17 -.520E-18 0.327E+00   -.430E-02 -.219E-02 0.102E+01
   -.291E-04 -.149E-04 -.147E+04   0.740E-04 0.688E-05 0.147E+04   0.148E-16 -.201E-17 0.429E+00   0.318E-02 0.194E-02 0.819E+00
   -.566E-05 -.777E-04 -.106E+04   0.178E-04 0.115E-05 0.104E+04   -.405E-20 -.531E-20 0.207E+02   0.124E-02 0.753E-03 -.896E+00
   0.245E-03 -.886E-04 -.177E+04   0.620E-05 0.609E-06 0.178E+04   -.466E-19 0.133E-19 -.587E+01   0.388E-02 0.237E-02 -.657E+00
   0.620E-05 -.145E-04 -.339E+03   0.270E-06 0.457E-07 0.348E+03   0.122E-20 0.237E-20 -.867E+01   0.205E-03 0.125E-03 -.820E-01
   -.539E-03 -.957E-03 -.277E+02   -.164E-13 -.572E-13 -.489E-11   0.343E-15 0.220E-15 0.297E+01   0.586E-02 0.419E-02 0.252E+02

 POSITION                                       TOTAL-FORCE (eV/Angst)
      0.00000      0.00000      5.28038         0.000000     -0.000000     -0.115089
      2.93784      0.00000      5.28038         0.002099      0.013239     -0.050716
      5.87568      0.00000      5.28038        -0.002099      0.013239     -0.050716
      1.46892      2.54424      5.28038         0.012515     -0.004801     -0.050716
      4.40676      2.54424      5.28038         0.000000     -0.000000     -0.075119
      7.34459      2.54424      5.28038        -0.012515     -0.004801     -0.050716
      2.93784      5.08848      5.28038         0.010415     -0.008437     -0.050716
      5.87568      5.08848      5.28038        -0.010415     -0.008437     -0.050716
      8.81351      5.08848      5.28038         0.000000     -0.000000     -0.058280
      1.46892      0.84808      7.67911         0.005125      0.002959      0.141491
      4.40676      0.84808      7.67911        -0.000000     -0.045016      0.058347
      7.34459      0.84808      7.67911        -0.005125      0.002959      0.141491
      2.93784      3.39232      7.67911        -0.038985      0.022508      0.058347
      5.87568      3.39232      7.67911         0.038985      0.022508      0.058347
      8.81351      3.39232      7.67911        -0.000000     -0.039330      0.116325
      4.40676      5.93656      7.67911        -0.000000     -0.005918      0.141491
      7.34459      5.93656      7.67911        -0.034061      0.019665      0.116325
     10.28243      5.93656      7.67911         0.034061      0.019665      0.116325
      8.81351      1.69603     10.07479        -0.000000     -0.006944      0.006266
      2.95306      1.70495     10.04990        -0.083530     -0.048226     -0.189781
      5.86045      1.70495     10.04990         0.083530     -0.048226     -0.189781
     10.26640      4.24966     10.05812         0.040059     -0.023128     -0.010139
      4.40676      4.22282     10.04990         0.000000      0.096452     -0.189781
      7.36062      4.24966     10.05812        -0.040059     -0.023128     -0.010139
     11.75147      6.78471     10.07479         0.006014      0.003472      0.006266
      5.87556      6.78471     10.07479        -0.006014      0.003472      0.006266
      8.81351      6.76613     10.05812         0.000000      0.046257     -0.010139
      0.00000      0.00000     12.48774         0.000000     -0.000000     -0.121810
      2.98478      0.07843     12.47445        -0.094228     -0.175373     -0.111307
      5.82873      0.07843     12.47445         0.094228     -0.175373     -0.111307
      1.56032      2.54568     12.47445        -0.198991      0.006082     -0.111307
      7.25320      2.54568     12.47445         0.198991      0.006082     -0.111307
      2.98229      5.00861     12.47445        -0.104763      0.169290     -0.111307
      5.83122      5.00861     12.47445         0.104763      0.169290     -0.111307
      8.81351      5.08848     12.49541         0.000000     -0.000000     -0.111559
      4.40676      2.54424     12.16834         0.000000     -0.000000      0.967230
      4.40676      2.54424     13.84662         0.000000     -0.000000      0.161112
      4.40676      2.54424     15.10127         0.000000     -0.000000     -0.045380
      4.40676      2.54424     16.05956         0.000000     -0.000000      0.003505
    total drift:                                0.005317      0.003229      0.474311

  FREE ENERGIE OF THE ION-ELECTRON SYSTEM (eV)
  free  energy   TOTEN  =      -131.95931346 eV

  energy  without entropy=     -131.95931346  energy(sigma->0) =     -131.95931346

 stress matrix after NEB project (eV)
    -22.16118     -0.00000     -0.00000
     -0.00000    -22.16118      0.00000
      0.00000      0.00000      1.65019
  FORCES: max atom, RMS     0.161112    0.026808
  FORCE total and by dimension    0.167418    0.161112
  Stress total and by dimension   31.384057   22.161182
|           W    W    AA    RRRRR   N    N  II  N    N   GGGG   !!!           |
|           W    W   A  A   R    R  NN   N  II  NN   N  G    G  !!!           |
|           W    W  A    A  R    R  N N  N  II  N N  N  G       !!!           |
|           W WW W  AAAAAA  RRRRR   N  N N  II  N  N N  G  GGG   !            |
|           WW  WW  A    A  R   R   N   NN  II  N   NN  G    G                |
|           W    W  A    A  R    R  N    N  II  N    N   GGGG   !!!           |
|     Tetrahedron method does not include variations of the Fermi             |
|     occupations, so forces and stress will be inaccurate. We suggest        |
|     using a different smearing scheme ISMEAR = 1 or 2 for metals in         |
|     relaxations.                                                            |

 total charge

# of ion       s       p       d       tot
    1        0.546   0.239   8.768   9.553
    2        0.546   0.242   8.765   9.552
    3        0.546   0.242   8.765   9.552
    4        0.546   0.242   8.765   9.552
    5        0.545   0.242   8.762   9.549
    6        0.546   0.242   8.765   9.552
    7        0.546   0.242   8.765   9.552
    8        0.546   0.242   8.765   9.552
    9        0.542   0.241   8.770   9.553
   10        0.521   0.308   8.772   9.602
   11        0.523   0.308   8.779   9.610
   12        0.521   0.308   8.772   9.602
   13        0.523   0.308   8.779   9.610
   14        0.523   0.308   8.779   9.610
   15        0.515   0.311   8.775   9.602
   16        0.521   0.308   8.772   9.602
   17        0.515   0.311   8.775   9.602
   18        0.515   0.311   8.775   9.602
   19        0.518   0.300   8.773   9.591
   20        0.550   0.332   8.751   9.633
   21        0.550   0.332   8.751   9.633
   22        0.512   0.312   8.775   9.599
   23        0.550   0.332   8.751   9.633
   24        0.512   0.312   8.775   9.599
   25        0.518   0.300   8.773   9.591
   26        0.518   0.300   8.773   9.591
   27        0.512   0.312   8.775   9.599
   28        0.544   0.224   8.764   9.532
   29        0.551   0.245   8.757   9.552
   30        0.551   0.245   8.757   9.552
   31        0.551   0.245   8.757   9.552
   32        0.551   0.245   8.757   9.552
   33        0.551   0.245   8.757   9.552
   34        0.551   0.245   8.757   9.552
   35        0.540   0.225   8.764   9.529
   36        0.326   0.391   5.159   5.876
   37        0.933   1.446   0.000   2.379
   38        1.524   3.768   0.000   5.292
   39        0.560   0.136   0.000   0.696
tot         22.056  15.444 311.997 349.497

 BZINTS: Fermi energy:    0.261644;  403.000000 electrons
         Band energy:-0.146903E+04;  BLOECHL correction:   -0.037804