 vasp.6.2.0 18Jan21 (build Jun 12 2021 23:27:24) complex

 executed on             LinuxIFC date 2022.05.30  17:57:15

 INCAR:
   ISMEAR = -5
   SIGMA = 0.1
   ISPIN = 1
   EDIFF = 1.d-5
   EDIFFG = -0.01
   NSW = 0
   NELM = 150
   ENCUT = 500
   ISIF = 2
   IBRION = 2
   LREAL = Auto
   ALGO = Fast
   ICHARG = 11
   LORBIT = 10
   LCHARG = .F.
   LWAVE = .F.

 POTCAR:    PAW_PBE Cu 22Jun2005
 POTCAR:    PAW_PBE Cr 06Sep2000
 POTCAR:    PAW_PBE O 08Apr2002
|           W    W    AA    RRRRR   N    N  II  N    N   GGGG   !!!           |
|           W    W   A  A   R    R  NN   N  II  NN   N  G    G  !!!           |
|           W    W  A    A  R    R  N N  N  II  N N  N  G       !!!           |
|           W WW W  AAAAAA  RRRRR   N  N N  II  N  N N  G  GGG   !            |
|           WW  WW  A    A  R   R   N   NN  II  N   NN  G    G                |
|           W    W  A    A  R    R  N    N  II  N    N   GGGG   !!!           |
|     For optimal performance we recommend to set                             |
|       NCORE = 2 up to number-of-cores-per-socket                            |
|     This setting can greatly improve the performance of VASP for DFT.       |
|     The default, NCORE=1 might be grossly inefficient on modern             |
|     multi-core architectures or massively parallel machines. Do your        |
|     Unfortunately you need to use the default for GW and RPA                |
|     calculations (for HF NCORE is supported but not extensively tested      |
|     yet).                                                                   |

 POTCAR:    PAW_PBE Cu 22Jun2005
   VRHFIN =Cu: d10 p1

   TITEL  = PAW_PBE Cu 22Jun2005
   POMASS =   63.546; ZVAL   =   11.000    mass and valenz
   ENMAX  =  295.446; ENMIN  =  221.585 eV

 POTCAR:    PAW_PBE Cr 06Sep2000
   VRHFIN =Cr : d5 s1

   TITEL  = PAW_PBE Cr 06Sep2000
   POMASS =   51.996; ZVAL   =    6.000    mass and valenz
   ENMAX  =  227.080; ENMIN  =  170.310 eV

 POTCAR:    PAW_PBE O 08Apr2002
   VRHFIN =O: s2p4

   TITEL  = PAW_PBE O 08Apr2002
   POMASS =   16.000; ZVAL   =    6.000    mass and valenz
   ENMAX  =  400.000; ENMIN  =  300.000 eV

 Optimization of the real space projectors (new method)

 maximal supplied QI-value         = 16.25
 optimisation between [QCUT,QGAM] = [ 11.38, 22.75] = [ 36.24,144.96] Ry
 Optimized for a Real-space Cutoff    1.52 Angstroem

   l    n(q)    QCUT    max X(q) W(low)/X(q) W(high)/X(q)  e(spline)
   2      9    11.376     4.610    0.21E-03    0.10E-03    0.26E-06
   2      9    11.376     8.522    0.33E-03    0.16E-03    0.37E-06
   0     10    11.376    51.609    0.62E-04    0.20E-04    0.13E-06
   0     10    11.376    27.747    0.54E-04    0.20E-04    0.13E-06
   1     10    11.376    20.408    0.13E-04    0.99E-04    0.19E-06
   1     10    11.376    13.425    0.12E-04    0.87E-04    0.17E-06
 Optimization of the real space projectors (new method)

[...]

   l    n(q)    QCUT    max X(q) W(low)/X(q) W(high)/X(q)  e(spline)
   2      9    11.338    94.395    0.18E-03    0.10E-02    0.64E-06
   2      9    11.338    88.078    0.18E-03    0.10E-02    0.65E-06
   0     10    11.338    50.173    0.13E-03    0.16E-03    0.96E-07
   0     10    11.338    24.906    0.12E-03    0.14E-03    0.88E-07
   1      9    11.338    12.133    0.13E-03    0.15E-03    0.24E-06
   1      9    11.338     7.290    0.10E-03    0.10E-03    0.18E-06
 Optimization of the real space projectors (new method)

 maximal supplied QI-value         = 24.76
 optimisation between [QCUT,QGAM] = [ 11.39, 22.77] = [ 36.31,145.25] Ry
 Optimized for a Real-space Cutoff    1.00 Angstroem

   l    n(q)    QCUT    max X(q) W(low)/X(q) W(high)/X(q)  e(spline)
   0      7    11.387    20.381    0.39E-03    0.13E-02    0.15E-06
   0      7    11.387    15.268    0.42E-03    0.14E-02    0.17E-06
   1      6    11.387     5.964    0.41E-03    0.11E-02    0.17E-06
   1      6    11.387     5.382    0.39E-03    0.87E-03    0.15E-06
  PAW_PBE Cu 22Jun2005                  :
  PAW_PBE Cr 06Sep2000                  :
  PAW_PBE O 08Apr2002                   :

 POSCAR: Cu-Cr-O2
  positions in direct lattice
  velocities in cartesian coordinates
 exchange correlation table for  LEXCH =        8
   RHO(1)=    0.500       N(1)  =     2000
   RHO(2)=  100.500       N(2)  =     4000

 VTST: version 3.2, (02/03/18)

 CHAIN: initializing optimizer

 OPT: Using VASP Conjugate-Gradient optimizer
 CHAIN: Read ICHAIN            0

 POSCAR: Cu-Cr-O2
  positions in direct lattice
  velocities in cartesian coordinates

 ion  position               nearest neighbor table
   1  0.000  0.000  0.226-   7 2.57   3 2.57   4 2.57   2 2.57   6 2.57   8 2.57  12 2.57  10 2.57
                            16 2.57
   2  0.333  0.000  0.226-   8 2.57   9 2.57   5 2.57   1 2.57   3 2.57  11 2.57   4 2.57  10 2.57
                            17 2.57
   3  0.667  0.000  0.226-   1 2.57   7 2.57   6 2.57   9 2.57   2 2.57  12 2.57   5 2.57  18 2.57
                            11 2.57
   4  0.000  0.333  0.226-   5 2.57   6 2.57   1 2.57   7 2.57   2 2.57  13 2.57   9 2.57  10 2.57
                            15 2.57
   5  0.333  0.333  0.226-   4 2.57   2 2.57   7 2.57  13 2.57   8 2.57   6 2.57   3 2.57  11 2.57
                            14 2.57
   6  0.667  0.333  0.226-   4 2.57   9 2.57  15 2.57   3 2.57   1 2.57   8 2.57  14 2.57   5 2.57
                            12 2.57
   7  0.000  0.667  0.226-   1 2.57   3 2.57  16 2.57  18 2.57   4 2.57   5 2.57   8 2.57   9 2.57
                            13 2.57
   8  0.333  0.667  0.226-   9 2.57   2 2.57  17 2.57   6 2.57   1 2.57   7 2.57   5 2.57  14 2.57
                            16 2.57
   9  0.667  0.667  0.226-   8 2.57   6 2.57   2 2.57  17 2.57   3 2.57   7 2.57   4 2.57  15 2.57
                            18 2.57
  10  0.111  0.111  0.314-  20 2.55  26 2.56  19 2.56  11 2.57  12 2.57  13 2.57   1 2.57   2 2.57
                             4 2.57  15 2.57  16 2.57  17 2.57
  11  0.444  0.111  0.314-  20 2.55  21 2.55  10 2.57  13 2.57   2 2.57  17 2.57  14 2.57  12 2.57
                             5 2.57   3 2.57  18 2.57  27 2.57
  12  0.778  0.111  0.314-  21 2.55  19 2.56  25 2.56  15 2.57  10 2.57  14 2.57  18 2.57   3 2.57
                             1 2.57  16 2.57  11 2.57   6 2.57
  13  0.111  0.444  0.314-  23 2.55  20 2.55  16 2.57  18 2.57  10 2.57  11 2.57  14 2.57   5 2.57
                             4 2.57   7 2.57  15 2.57  22 2.57
  14  0.444  0.444  0.314-  21 2.55  23 2.55  15 2.57  17 2.57  12 2.57  16 2.57  13 2.57  11 2.57
                             6 2.57   8 2.57   5 2.57  24 2.57
  15  0.778  0.444  0.314-  19 2.56  24 2.56  22 2.56  14 2.57  17 2.57  12 2.57   6 2.57  18 2.57
                            10 2.57   9 2.57  13 2.57   4 2.57
  16  0.111  0.778  0.314-  23 2.55  25 2.56  26 2.56  18 2.57  13 2.57   7 2.57  14 2.57  17 2.57
                            12 2.57  10 2.57   8 2.57   1 2.57
  17  0.444  0.778  0.314-  26 2.56  27 2.56  24 2.56  14 2.57  15 2.57   8 2.57   9 2.57  11 2.57
                            16 2.57  18 2.57  10 2.57   2 2.57
  18  0.778  0.778  0.314-  25 2.56  22 2.56  27 2.56  16 2.57  13 2.57   7 2.57  15 2.57  12 2.57
                            17 2.57   9 2.57   3 2.57  11 2.57
  19  0.889  0.222  0.402-  12 2.56  10 2.56  15 2.56  28 2.56  25 2.57  26 2.57  22 2.57  24 2.57
                            21 2.57  20 2.57  32 2.58  31 2.58
  20  0.222  0.222  0.401-  36 2.50  11 2.55  13 2.55  10 2.55  23 2.56  21 2.56  26 2.57  19 2.57
                            29 2.57  31 2.57  27 2.57  22 2.57
  21  0.555  0.222  0.401-  36 2.50  14 2.55  11 2.55  12 2.55  20 2.56  23 2.56  19 2.57  25 2.57
                            32 2.57  30 2.57  24 2.57  27 2.57
  22  0.888  0.556  0.402-  35 2.56  24 2.56  27 2.56  18 2.56  15 2.56  31 2.56  33 2.56  19 2.57
                            25 2.57  13 2.57  23 2.57  20 2.57
  23  0.222  0.555  0.401-  36 2.50  13 2.55  14 2.55  16 2.55  20 2.56  21 2.56  25 2.57  26 2.57
                            33 2.57  34 2.57  22 2.57  24 2.57
  24  0.556  0.556  0.402-  35 2.56  22 2.56  27 2.56  15 2.56  17 2.56  32 2.56  34 2.56  19 2.57
                            26 2.57  14 2.57  21 2.57  23 2.57
  25  0.889  0.889  0.402-  12 2.56  16 2.56  18 2.56  28 2.56  19 2.57  26 2.57  22 2.57  27 2.57
                            21 2.57  23 2.57  33 2.58  30 2.58
  26  0.222  0.889  0.402-  10 2.56  16 2.56  17 2.56  28 2.56  25 2.57  19 2.57  27 2.57  24 2.57
                            20 2.57  23 2.57  29 2.58  34 2.58
  27  0.556  0.888  0.402-  35 2.56  24 2.56  22 2.56  17 2.56  18 2.56  29 2.56  30 2.56  26 2.57
                            25 2.57  11 2.57  20 2.57  21 2.57
  28  0.000  0.000  0.489-  25 2.56  19 2.56  26 2.56  33 2.57  30 2.57  31 2.57  29 2.57  32 2.57
                            34 2.57
  29  0.333  0.002  0.490-  31 2.55  30 2.55  36 2.55  27 2.56  20 2.57  28 2.57  35 2.57  26 2.58
                            34 2.60
  30  0.665  0.002  0.490-  32 2.55  29 2.55  36 2.55  27 2.56  21 2.57  28 2.57  35 2.57  25 2.58
                            33 2.60
  31  0.002  0.333  0.490-  37 1.83  29 2.55  33 2.55  36 2.55  22 2.56  20 2.57  28 2.57  35 2.57
                            19 2.58  32 2.60
  32  0.665  0.333  0.490-  38 1.83  30 2.55  34 2.55  36 2.55  24 2.56  21 2.57  28 2.57  35 2.57
                            19 2.58  31 2.60
  33  0.002  0.665  0.490-  37 1.97  34 2.55  31 2.55  36 2.55  22 2.56  23 2.57  28 2.57  35 2.57
                            25 2.58  30 2.60
  34  0.333  0.665  0.490-  38 1.97  33 2.55  32 2.55  36 2.55  24 2.56  23 2.57  28 2.57  35 2.57
                            26 2.58  29 2.60
  35  0.667  0.667  0.489-  24 2.56  27 2.56  22 2.56  34 2.57  32 2.57  29 2.57  30 2.57  33 2.57
                            31 2.57
  36  0.333  0.333  0.486-  38 1.79  37 1.79  23 2.50  20 2.50  21 2.50  31 2.55  29 2.55  33 2.55
                            34 2.55  32 2.55  30 2.55
  37  0.134  0.419  0.536-  36 1.79  31 1.83  33 1.97
  38  0.447  0.419  0.536-  36 1.79  32 1.83  34 1.97

  LATTYP: Found a hexagonal cell.
 ALAT       =     7.6967864036
 C/A-ratio  =     3.0908716217

  Lattice vectors:

 A1 = (  -3.8483927580,  -6.6656128093,   0.0000000000)
 A2 = (   7.6967864037,   0.0000000000,   0.0000000000)
 A3 = (   0.0000000000,   0.0000000000,  23.7897786731)

Analysis of symmetry for initial positions (statically):
 Subroutine PRICEL returns:
 Original cell was already a primitive cell.

 Routine SETGRP: Setting up the symmetry group for a
 hexagonal supercell.

 Subroutine GETGRP returns: Found  2 space group operations
 (whereof  2 operations were pure point group operations)
 out of a pool of 24 trial point group operations.

The static configuration has the point symmetry C_1h.

Analysis of symmetry for dynamics (positions and initial velocities):
 Subroutine PRICEL returns:
 Original cell was already a primitive cell.

[...]

The dynamic configuration has the point symmetry C_1h.

Analysis of constrained symmetry for selective dynamics:
 Subroutine PRICEL returns:
 Original cell was already a primitive cell.

[...]
     33      -4.6596      2.00000
     34      -4.6090      2.00000
     35      -4.6060      2.00000
     36      -4.5963      2.00000
     37      -4.5780      2.00000
     38      -4.5346      2.00000
     39      -4.5268      2.00000
     40      -4.4772      2.00000
     41      -4.4549      2.00000
     42      -4.4385      2.00000
     43      -4.3087      2.00000
     44      -4.2844      2.00000
     45      -4.2758      2.00000
     46      -4.2400      2.00000
     47      -4.2086      2.00000
     48      -4.1809      2.00000
     49      -4.1778      2.00000
     50      -4.1690      2.00000
     51      -4.1503      2.00000
     52      -4.1152      2.00000
     53      -4.0200      2.00000
     54      -3.9907      2.00000
     55      -3.9467      2.00000
     56      -3.9347      2.00000
     57      -3.9210      2.00000
     58      -3.8877      2.00000
     59      -3.8810      2.00000
     60      -3.8551      2.00000
[...]
    238       5.4234      0.00000
    239       5.5726      0.00000
    240       5.6859      0.00000
    241       5.7365      0.00000
    242       6.0226      0.00000
    243       6.0589      0.00000
    244       6.1212      0.00000
    245       6.3084      0.00000
    246       6.3474      0.00000
    247       6.4209      0.00000
    248       6.4626      0.00000
    249       6.5965      0.00000
    250       6.7191      0.00000
    251       6.8395      0.00000
    252       7.0109      0.00000

 soft charge-density along one line, spin component           1
         0         1         2         3         4         5         6         7         8         9
 total charge-density along one line

------------------------ aborting loop because EDIFF is reached ----------------------------------------

 total charge

# of ion       s       p       d       tot
    1        0.451   0.283   9.191   9.925
    2        0.448   0.287   9.187   9.922
    3        0.448   0.287   9.187   9.922
    4        0.449   0.286   9.187   9.922
    5        0.448   0.287   9.187   9.922
    6        0.449   0.286   9.187   9.922
    7        0.449   0.284   9.190   9.923
    8        0.449   0.284   9.190   9.923
    9        0.447   0.285   9.188   9.921
   10        0.446   0.370   9.178   9.994
   11        0.443   0.368   9.183   9.994
   12        0.446   0.370   9.178   9.994
   13        0.440   0.370   9.182   9.992
   14        0.440   0.370   9.182   9.992
   15        0.441   0.366   9.184   9.992
   16        0.442   0.372   9.178   9.993
   17        0.440   0.368   9.183   9.991
   18        0.440   0.368   9.183   9.991
   19        0.439   0.385   9.165   9.989
   20        0.469   0.393   9.164  10.026
   21        0.469   0.393   9.164  10.026
   22        0.438   0.372   9.183   9.993
   23        0.455   0.409   9.157  10.021
   24        0.438   0.372   9.183   9.993
   25        0.439   0.372   9.179   9.990
   26        0.439   0.372   9.179   9.990
   27        0.433   0.370   9.185   9.988
   28        0.448   0.282   9.197   9.927
   29        0.452   0.300   9.183   9.935
   30        0.452   0.300   9.183   9.935
   31        0.455   0.425   9.157  10.036
   32        0.455   0.425   9.157  10.036
   33        0.429   0.362   9.176   9.967
   34        0.429   0.362   9.176   9.967
   35        0.446   0.272   9.209   9.928
   36        0.537   0.779   4.453   5.769
   37        1.592   3.352   0.000   4.945
   38        1.592   3.352   0.000   4.945
tot         19.325  19.538 325.779 364.642

  FORCE on cell =-STRESS in cart. coord.  units (eV):
  Direction    XX          YY          ZZ          XY          YZ          ZX
  Alpha Z   806.37729   806.37729   806.37729
  Ewald  226772.78978226607.91288************     0.00050   -55.56447     0.00018
  Hartree239503.23593239412.27766************     0.00007   -63.54229     0.00005
  E(xc)   -2333.09416 -2333.42197 -2337.85182    -0.00031    -0.11415    -0.00003
  Local  ************************479422.83355     0.02011   121.48911    -0.00072
  n-local  -799.24460  -800.95948  -812.35573     1.47840     1.04717     0.00851
  augment  3347.51984  3350.79715  3365.41961    -0.01843    -0.77397     0.00042
  Kinetic  3437.77119  3441.43593  3465.14284     0.64026    -1.94354    -0.15047
  Fock        0.00000     0.00000     0.00000     0.00000     0.00000     0.00000
  Total       3.48053    -1.43907     1.15108     0.00000     0.59785    -0.00000
  in kB       4.56895    -1.88909     1.51104     0.00000     0.78481    -0.00000

 VOLUME and BASIS-vectors are now :
  energy-cutoff  :      500.00
  volume of cell :     1220.51
      direct lattice vectors                 reciprocal lattice vectors
     7.696786404  0.000000000  0.000000000     0.129924354 -0.075011849  0.000000000
     3.848392758  6.665612809  0.000000000     0.000000000  0.150023716  0.000000000
     0.000000000  0.000000000 23.789778673     0.000000000  0.000000000  0.042034859

  length of vectors
     7.696786404  7.696786404 23.789778673     0.150023716  0.150023716  0.042034859

 FORCES acting on ions
    electron-ion (+dipol)            ewald-force                    non-local-force                 convergence-correction
   -.412E-04 0.240E+00 0.377E+04   0.579E-04 0.196E-01 -.376E+04   0.106E-07 -.159E+00 -.240E+01   -.155E-03 -.662E-01 0.124E+00
   -.293E+00 -.939E-01 0.376E+04   0.273E+00 0.146E-01 -.376E+04   -.148E-01 0.111E+00 -.173E+01   0.420E-01 -.189E-01 0.126E+00
   0.293E+00 -.939E-01 0.376E+04   -.273E+00 0.146E-01 -.376E+04   0.148E-01 0.111E+00 -.173E+01   -.413E-01 -.163E-01 0.126E+00
   -.436E+00 -.537E-01 0.377E+04   0.127E+00 -.542E-01 -.376E+04   0.244E+00 0.151E-01 -.184E+01   0.608E-01 0.565E-01 0.186E+00
   -.624E-04 0.172E+00 0.376E+04   0.116E-03 -.295E+00 -.376E+04   -.149E-08 0.223E-01 -.170E+01   0.121E-01 0.935E-01 0.195E+00
   0.436E+00 -.536E-01 0.377E+04   -.127E+00 -.543E-01 -.376E+04   -.244E+00 0.151E-01 -.184E+01   -.623E-01 0.579E-01 0.187E+00
   0.886E-01 0.178E-01 0.377E+04   -.140E+00 0.425E-01 -.376E+04   0.276E-02 -.900E-02 -.212E+01   0.470E-01 -.470E-01 0.976E-01
   -.885E-01 0.178E-01 0.377E+04   0.140E+00 0.425E-01 -.376E+04   -.276E-02 -.900E-02 -.212E+01   -.434E-01 -.483E-01 0.979E-01
   -.143E-03 -.103E+00 0.377E+04   0.263E-03 0.270E+00 -.376E+04   0.100E-07 -.150E+00 -.216E+01   -.133E-01 -.108E-01 0.876E-01
   -.101E+01 0.653E+00 0.131E+04   0.125E+01 -.662E+00 -.131E+04   -.285E+00 -.953E-01 -.924E+00   0.127E-01 0.101E+00 0.141E+01
   -.821E-04 0.145E+01 0.131E+04   0.190E-03 -.149E+01 -.131E+04   0.454E-08 -.682E-01 -.119E+00   0.108E-01 0.456E-01 0.154E+01
   0.101E+01 0.653E+00 0.131E+04   -.125E+01 -.662E+00 -.131E+04   0.285E+00 -.953E-01 -.924E+00   -.132E-01 0.102E+00 0.141E+01
   0.538E-01 0.963E+00 0.131E+04   -.799E-01 -.882E+00 -.131E+04   -.252E-01 -.670E-01 -.369E+00   0.448E-01 -.509E-03 0.151E+01
   -.536E-01 0.963E+00 0.131E+04   0.796E-01 -.882E+00 -.131E+04   0.252E-01 -.670E-01 -.369E+00   -.212E-01 -.738E-03 0.151E+01
   -.140E-03 -.642E+00 0.132E+04   0.298E-03 0.542E+00 -.132E+04   -.811E-08 0.122E+00 -.899E+00   -.298E-02 -.271E-01 0.135E+01
   -.881E-04 -.126E+01 0.132E+04   0.186E-03 0.868E+00 -.132E+04   -.345E-07 0.519E+00 -.115E+01   -.891E-04 -.109E+00 0.133E+01
   -.119E+01 -.136E+01 0.131E+04   0.128E+01 0.158E+01 -.131E+04   -.878E-01 -.168E+00 -.736E+00   -.146E-01 -.535E-01 0.131E+01
   0.119E+01 -.136E+01 0.131E+04   -.128E+01 0.158E+01 -.131E+04   0.878E-01 -.168E+00 -.736E+00   0.149E-01 -.520E-01 0.131E+01
   -.604E-04 0.715E+01 -.115E+04   0.674E-04 -.690E+01 0.115E+04   0.161E-07 -.241E+00 0.726E-01   0.134E-01 0.114E+00 0.185E+01
   -.268E+02 0.361E+01 -.117E+04   0.265E+02 -.386E+01 0.117E+04   -.390E+00 -.332E+00 -.914E+00   0.605E+00 0.463E+00 0.270E+01
   0.268E+02 0.361E+01 -.117E+04   -.265E+02 -.386E+01 0.117E+04   0.390E+00 -.332E+00 -.914E+00   -.628E+00 0.466E+00 0.270E+01
   -.241E+01 -.210E+01 -.115E+04   0.224E+01 0.262E+01 0.114E+04   -.107E+00 -.218E+00 0.761E+00   0.299E+00 -.319E+00 0.189E+01
   -.803E-04 0.210E+02 -.115E+04   0.146E-03 -.213E+02 0.115E+04   -.771E-07 0.116E+01 -.630E+00   -.105E-01 -.884E+00 0.274E+01
   0.241E+01 -.210E+01 -.115E+04   -.224E+01 0.262E+01 0.114E+04   0.107E+00 -.218E+00 0.761E+00   -.320E+00 -.315E+00 0.189E+01
   0.590E+01 -.698E+01 -.116E+04   -.583E+01 0.648E+01 0.116E+04   -.107E+00 0.415E+00 0.629E+00   -.203E-01 0.307E-01 0.179E+01
   -.590E+01 -.698E+01 -.116E+04   0.583E+01 0.648E+01 0.116E+04   0.107E+00 0.415E+00 0.629E+00   0.458E-01 0.318E-01 0.179E+01
   -.124E-03 -.184E+02 -.117E+04   0.242E-03 0.179E+02 0.117E+04   -.123E-07 0.184E+00 0.119E+01   -.146E-01 0.395E+00 0.181E+01
   -.301E-04 -.668E+00 -.364E+04   0.342E-04 0.116E+00 0.363E+04   -.267E-07 0.400E+00 0.209E+01   0.874E-03 0.102E+00 0.872E+00
   -.251E+02 0.471E+00 -.363E+04   0.252E+02 -.307E+01 0.363E+04   -.702E+00 0.882E+00 0.266E+01   0.585E+00 0.123E+01 0.830E+00
   0.251E+02 0.471E+00 -.363E+04   -.252E+02 -.307E+01 0.363E+04   0.702E+00 0.882E+00 0.266E+01   -.585E+00 0.123E+01 0.832E+00
   0.116E+03 0.886E+02 -.350E+04   -.120E+03 -.901E+02 0.350E+04   0.156E+01 0.734E+00 0.797E+00   0.131E+01 0.113E+00 0.990E+00
   -.116E+03 0.886E+02 -.350E+04   0.120E+03 -.901E+02 0.350E+04   -.156E+01 0.734E+00 0.797E+00   -.131E+01 0.115E+00 0.991E+00
   0.128E+02 -.141E+03 -.353E+04   -.139E+02 0.146E+03 0.352E+04   0.817E-01 -.344E+01 0.266E+01   0.597E+00 -.132E+01 0.105E+01
   -.128E+02 -.141E+03 -.353E+04   0.139E+02 0.146E+03 0.352E+04   -.817E-01 -.344E+01 0.266E+01   -.593E+00 -.132E+01 0.105E+01
   -.144E-03 -.479E+02 -.363E+04   0.264E-03 0.490E+02 0.363E+04   0.367E-07 -.551E+00 0.334E+01   -.133E-01 -.215E+00 0.103E+01
   -.586E-04 0.968E+02 -.177E+04   0.745E-04 -.968E+02 0.177E+04   -.365E-07 0.549E+00 0.485E+00   0.994E-03 0.632E-01 0.615E+00
   -.170E+02 0.322E+02 -.246E+04   0.165E+02 -.293E+02 0.249E+04   -.377E+00 -.247E+01 -.285E+02   0.904E+00 -.452E+00 -.830E+00
   0.170E+02 0.322E+02 -.246E+04   -.165E+02 -.293E+02 0.249E+04   0.377E+00 -.247E+01 -.285E+02   -.904E+00 -.452E+00 -.831E+00
   0.564E-04 0.844E+01 0.215E+02   0.213E-13 -.924E-13 0.282E-10   0.499E-06 -.749E+01 -.612E+02   -.533E-02 -.916E+00 0.396E+02

 POSITION                                       TOTAL-FORCE (eV/Angst)
      0.00000      0.00000      5.37156        -0.000000      0.033062     -0.008047
      2.56560      0.00000      5.37156         0.006524      0.013085      0.061969
      5.13119      0.00000      5.37156        -0.006524      0.013085      0.061969
      1.28280      2.22187      5.37156        -0.003916     -0.036327      0.041204
      3.84839      2.22187      5.37156         0.000000     -0.008881      0.077937
      6.41399      2.22187      5.37156         0.003916     -0.036327      0.041204
      2.56560      4.44374      5.37156        -0.003769      0.002811      0.058464
      5.13119      4.44374      5.37156         0.003769      0.002811      0.058464
      7.69679      4.44374      5.37156        -0.000000      0.004916      0.034285
      1.28280      0.74062      7.46636        -0.031863     -0.003165     -0.067961
      3.84839      0.74062      7.46636         0.000000     -0.063194     -0.094807
      6.41399      0.74062      7.46636         0.031863     -0.003165     -0.067961
      2.56560      2.96249      7.46636        -0.018292      0.012693     -0.099003
      5.13119      2.96249      7.46636         0.018292      0.012693     -0.099003
      7.69679      2.96249      7.46636         0.000000     -0.006193     -0.073682
      3.84839      5.18437      7.46636        -0.000000      0.020515     -0.074430
      6.41399      5.18437      7.46636        -0.005644     -0.001119     -0.037714
      8.97958      5.18437      7.46636         0.005644     -0.001119     -0.037714
      7.69679      1.48113      9.55176        -0.000000      0.121217      0.300465
      2.56610      1.48154      9.54462        -0.082277     -0.123097     -0.402716
      5.13069      1.48154      9.54462         0.082277     -0.123097     -0.402716
      8.97635      3.70498      9.55922         0.025687     -0.019210     -0.083898
      3.84839      3.70254      9.54462         0.000000     -0.003428     -0.113374
      6.41722      3.70498      9.55922        -0.025687     -0.019210     -0.083898
     10.26248      5.92505      9.55176        -0.078374     -0.049018      0.176245
      5.13109      5.92505      9.55176         0.078374     -0.049018      0.176245
      7.69679      5.92126      9.55922        -0.000000      0.066013      0.058127
      0.00000      0.00000     11.63975         0.000000     -0.050758     -0.193272
      2.57267      0.01383     11.65039        -0.055753     -0.480166     -0.279211
      5.12411      0.01383     11.65039         0.055753     -0.480166     -0.279211
      1.29831      2.22109     11.65039        -1.610852     -0.653908     -0.610407
      6.39847      2.22109     11.65039         1.610852     -0.653908     -0.610407
      2.57403      4.43070     11.65039        -0.343304      0.871885     -0.014809
      5.12275      4.43070     11.65039         0.343304      0.871885     -0.014809
      7.69679      4.44374     11.64501        -0.000000      0.278592     -0.155831
      3.84839      2.22187     11.55740        -0.000000      0.582297      2.866660
      2.64333      2.79118     12.74632         0.020414     -0.021543     -0.054178
      5.05345      2.79118     12.74632        -0.020414     -0.021543     -0.054178
    total drift:                               -0.005276      0.028290     -0.083057

  FREE ENERGIE OF THE ION-ELECTRON SYSTEM (eV)
  free  energy   TOTEN  =      -144.64832344 eV

  energy  without entropy=     -144.64832344  energy(sigma->0) =     -144.64832344

 stress matrix after NEB project (eV)
      3.48053      0.00000     -0.00000
      0.00000     -1.43907      0.59785
     -0.00000      0.59785      1.15108
  FORCES: max atom, RMS     0.061775    0.014172
  FORCE total and by dimension    0.087362    0.054178
  Stress total and by dimension    4.028011    3.480534
|           W    W    AA    RRRRR   N    N  II  N    N   GGGG   !!!           |
|           W    W   A  A   R    R  NN   N  II  NN   N  G    G  !!!           |
|           W    W  A    A  R    R  N N  N  II  N N  N  G       !!!           |
|           W WW W  AAAAAA  RRRRR   N  N N  II  N  N N  G  GGG   !            |
|           WW  WW  A    A  R   R   N   NN  II  N   NN  G    G                |
|           W    W  A    A  R    R  N    N  II  N    N   GGGG   !!!           |
|     Tetrahedron method does not include variations of the Fermi             |
|     occupations, so forces and stress will be inaccurate. We suggest        |
|     using a different smearing scheme ISMEAR = 1 or 2 for metals in         |
|     relaxations.                                                            |

 total charge

# of ion       s       p       d       tot
    1        0.451   0.283   9.191   9.925
    2        0.448   0.287   9.187   9.922
    3        0.448   0.287   9.187   9.922
    4        0.449   0.286   9.187   9.922
    5        0.448   0.287   9.187   9.922
    6        0.449   0.286   9.187   9.922
    7        0.449   0.284   9.190   9.923
    8        0.449   0.284   9.190   9.923
    9        0.447   0.285   9.188   9.921
   10        0.446   0.370   9.178   9.994
   11        0.443   0.368   9.183   9.994
   12        0.446   0.370   9.178   9.994
   13        0.440   0.370   9.182   9.992
   14        0.440   0.370   9.182   9.992
   15        0.441   0.366   9.184   9.992
   16        0.442   0.372   9.178   9.993
   17        0.440   0.368   9.183   9.991
   18        0.440   0.368   9.183   9.991
   19        0.439   0.385   9.165   9.989
   20        0.469   0.393   9.164  10.026
   21        0.469   0.393   9.164  10.026
   22        0.438   0.372   9.183   9.993
   23        0.455   0.409   9.157  10.021
   24        0.438   0.372   9.183   9.993
   25        0.439   0.372   9.179   9.990
   26        0.439   0.372   9.179   9.990
   27        0.433   0.370   9.185   9.988
   28        0.448   0.282   9.197   9.927
   29        0.452   0.300   9.183   9.935
   30        0.452   0.300   9.183   9.935
   31        0.455   0.425   9.157  10.036
   32        0.455   0.425   9.157  10.036
   33        0.429   0.362   9.176   9.967
   34        0.429   0.362   9.176   9.967
   35        0.446   0.272   9.209   9.928
   36        0.537   0.779   4.453   5.769
   37        1.592   3.352   0.000   4.945
   38        1.592   3.352   0.000   4.945
tot         19.325  19.538 325.779 364.642

 BZINTS: Fermi energy:   -0.459352;  403.000000 electrons
         Band energy:-0.142720E+04;  BLOECHL correction:   -0.023405