 vasp.6.2.0 18Jan21 (build Jun 12 2021 23:27:24) complex

 executed on             LinuxIFC date 2022.05.27  06:22:18

 INCAR:
   ISMEAR = -5
   SIGMA = 0.1
   ISPIN = 1
   EDIFF = 1.d-5
   EDIFFG = -0.01
   NSW = 0
   NELM = 150
   ENCUT = 500
   ISIF = 2
   IBRION = 2
   LREAL = Auto
   ALGO = Fast
   ICHARG = 11
   LORBIT = 10
   LCHARG = .F.
   LWAVE = .F.

 POTCAR:    PAW_PBE Cu 22Jun2005
 POTCAR:    PAW_PBE Pt 04Feb2005
 POTCAR:    PAW_PBE H 15Jun2001
|           W    W    AA    RRRRR   N    N  II  N    N   GGGG   !!!           |
|           W    W   A  A   R    R  NN   N  II  NN   N  G    G  !!!           |
|           W    W  A    A  R    R  N N  N  II  N N  N  G       !!!           |
|           W WW W  AAAAAA  RRRRR   N  N N  II  N  N N  G  GGG   !            |
|           WW  WW  A    A  R   R   N   NN  II  N   NN  G    G                |
|           W    W  A    A  R    R  N    N  II  N    N   GGGG   !!!           |
|     For optimal performance we recommend to set                             |
|       NCORE = 2 up to number-of-cores-per-socket                            |
|     This setting can greatly improve the performance of VASP for DFT.       |
|     The default, NCORE=1 might be grossly inefficient on modern             |
|     multi-core architectures or massively parallel machines. Do your        |
|     Unfortunately you need to use the default for GW and RPA                |
|     calculations (for HF NCORE is supported but not extensively tested      |
|     yet).                                                                   |

 POTCAR:    PAW_PBE Cu 22Jun2005
   VRHFIN =Cu: d10 p1

   TITEL  = PAW_PBE Cu 22Jun2005
   POMASS =   63.546; ZVAL   =   11.000    mass and valenz
   ENMAX  =  295.446; ENMIN  =  221.585 eV

 POTCAR:    PAW_PBE Pt 04Feb2005
   VRHFIN =Pt: s1d9

   TITEL  = PAW_PBE Pt 04Feb2005
   POMASS =  195.080; ZVAL   =   10.000    mass and valenz
   ENMAX  =  230.283; ENMIN  =  172.712 eV

 POTCAR:    PAW_PBE H 15Jun2001
   VRHFIN =H: ultrasoft test

   TITEL  = PAW_PBE H 15Jun2001
   POMASS =    1.000; ZVAL   =    1.000    mass and valenz
   ENMAX  =  250.000; ENMIN  =  200.000 eV

 Optimization of the real space projectors (new method)

 maximal supplied QI-value         = 16.25
 optimisation between [QCUT,QGAM] = [ 11.38, 22.75] = [ 36.24,144.96] Ry
 Optimized for a Real-space Cutoff    1.52 Angstroem

   l    n(q)    QCUT    max X(q) W(low)/X(q) W(high)/X(q)  e(spline)
   2      9    11.376     4.610    0.21E-03    0.10E-03    0.26E-06
   2      9    11.376     8.522    0.33E-03    0.16E-03    0.37E-06
   0     10    11.376    51.609    0.62E-04    0.20E-04    0.13E-06
   0     10    11.376    27.747    0.54E-04    0.20E-04    0.13E-06
   1     10    11.376    20.408    0.13E-04    0.99E-04    0.19E-06
   1     10    11.376    13.425    0.12E-04    0.87E-04    0.17E-06
 Optimization of the real space projectors (new method)

[...]

   l    n(q)    QCUT    max X(q) W(low)/X(q) W(high)/X(q)  e(spline)
   2      9    11.346    66.195    0.31E-03    0.12E-04    0.29E-06
   2      9    11.346    64.643    0.32E-03    0.12E-04    0.29E-06
   0     10    11.346    95.520    0.90E-04    0.16E-04    0.19E-06
   0     10    11.346    63.403    0.87E-04    0.15E-04    0.19E-06
   1     10    11.346    19.961    0.17E-03    0.21E-03    0.11E-06
   1     10    11.346    13.289    0.14E-03    0.18E-03    0.89E-07
 Optimization of the real space projectors (new method)

 maximal supplied QI-value         = 34.20
 optimisation between [QCUT,QGAM] = [ 11.29, 22.57] = [ 35.68,142.71] Ry
 Optimized for a Real-space Cutoff    1.16 Angstroem

   l    n(q)    QCUT    max X(q) W(low)/X(q) W(high)/X(q)  e(spline)
   0      8    11.287    19.460    0.40E-03    0.73E-03    0.16E-06
   0      8    11.287    12.209    0.38E-03    0.70E-03    0.15E-06
   1      7    11.287     4.655    0.22E-03    0.25E-04    0.22E-06
  PAW_PBE Cu 22Jun2005                  :
  PAW_PBE Pt 04Feb2005                  :
  PAW_PBE H 15Jun2001                   :

 POSCAR: Cu-Pt-H2
  positions in direct lattice
  velocities in cartesian coordinates
 exchange correlation table for  LEXCH =        8
   RHO(1)=    0.500       N(1)  =     2000
   RHO(2)=  100.500       N(2)  =     4000

 VTST: version 3.2, (02/03/18)

 CHAIN: initializing optimizer

 OPT: Using VASP Conjugate-Gradient optimizer
 CHAIN: Read ICHAIN            0

 POSCAR: Cu-Pt-H2
  positions in direct lattice
  velocities in cartesian coordinates

 ion  position               nearest neighbor table
   1  0.000  0.000  0.252-   7 2.57   3 2.57   4 2.57   2 2.57   6 2.57   8 2.57  12 2.57  10 2.57
                            16 2.57
   2  0.333  0.000  0.252-   8 2.57   9 2.57   5 2.57   1 2.57   3 2.57  11 2.57   4 2.57  10 2.57
                            17 2.57
   3  0.667  0.000  0.252-   1 2.57   7 2.57   6 2.57   9 2.57   2 2.57  12 2.57   5 2.57  18 2.57
                            11 2.57
   4  0.000  0.333  0.252-   5 2.57   6 2.57   1 2.57   7 2.57   2 2.57  13 2.57   9 2.57  10 2.57
                            15 2.57
   5  0.333  0.333  0.252-   4 2.57   2 2.57   7 2.57  13 2.57   8 2.57   6 2.57   3 2.57  11 2.57
                            14 2.57
   6  0.667  0.333  0.252-   4 2.57   9 2.57  15 2.57   3 2.57   1 2.57   8 2.57  14 2.57   5 2.57
                            12 2.57
   7  0.000  0.667  0.252-   1 2.57   3 2.57  16 2.57  18 2.57   4 2.57   5 2.57   8 2.57   9 2.57
                            13 2.57
   8  0.333  0.667  0.252-   9 2.57   2 2.57  17 2.57   6 2.57   1 2.57   7 2.57   5 2.57  14 2.57
                            16 2.57
   9  0.667  0.667  0.252-   8 2.57   6 2.57   2 2.57  17 2.57   3 2.57   7 2.57   4 2.57  15 2.57
                            18 2.57
  10  0.111  0.111  0.351-  20 2.53  26 2.56  19 2.56  11 2.57  12 2.57  13 2.57   1 2.57   2 2.57
                             4 2.57  15 2.57  16 2.57  17 2.57
  11  0.444  0.111  0.351-  20 2.55  21 2.55  27 2.56  10 2.57  13 2.57   2 2.57  17 2.57  14 2.57
                            12 2.57   5 2.57   3 2.57  18 2.57
  12  0.778  0.111  0.351-  21 2.53  19 2.56  25 2.56  15 2.57  10 2.57  14 2.57  18 2.57   3 2.57
                             1 2.57  16 2.57  11 2.57   6 2.57
  13  0.111  0.444  0.351-  23 2.55  20 2.55  22 2.56  16 2.57  18 2.57  10 2.57  11 2.57  14 2.57
                             5 2.57   4 2.57   7 2.57  15 2.57
  14  0.444  0.444  0.351-  21 2.55  23 2.55  24 2.56  15 2.57  17 2.57  12 2.57  16 2.57  13 2.57
                            11 2.57   6 2.57   8 2.57   5 2.57
  15  0.778  0.444  0.351-  19 2.56  24 2.56  22 2.56  14 2.57  17 2.57  12 2.57   6 2.57  18 2.57
                            10 2.57   9 2.57  13 2.57   4 2.57
  16  0.111  0.778  0.351-  23 2.53  25 2.56  26 2.56  18 2.57  13 2.57   7 2.57  14 2.57  17 2.57
                            12 2.57  10 2.57   8 2.57   1 2.57
  17  0.444  0.778  0.351-  26 2.56  27 2.56  24 2.56  14 2.57  15 2.57   8 2.57   9 2.57  11 2.57
                            16 2.57  18 2.57  10 2.57   2 2.57
  18  0.778  0.778  0.351-  25 2.56  22 2.56  27 2.56  16 2.57  13 2.57   7 2.57  15 2.57  12 2.57
                            17 2.57   9 2.57   3 2.57  11 2.57
  19  0.888  0.223  0.449-  28 2.54  32 2.55  31 2.55  21 2.55  20 2.55  15 2.56  12 2.56  10 2.56
                            22 2.56  24 2.56  25 2.58  26 2.58
  20  0.221  0.221  0.448-  10 2.53  11 2.55  13 2.55  26 2.55  19 2.55  27 2.57  22 2.57  29 2.59
                            31 2.59  36 2.60  23 2.60  21 2.60
  21  0.558  0.221  0.448-  12 2.53  14 2.55  11 2.55  19 2.55  25 2.55  24 2.57  27 2.57  32 2.59
                            30 2.59  36 2.60  20 2.60  23 2.60
  22  0.889  0.556  0.449-  35 2.54  18 2.56  15 2.56  13 2.56  19 2.56  25 2.56  24 2.56  27 2.56
                            31 2.57  33 2.57  23 2.57  20 2.57
  23  0.221  0.558  0.448-  16 2.53  13 2.55  14 2.55  25 2.55  26 2.55  22 2.57  24 2.57  33 2.59
                            34 2.59  36 2.60  20 2.60  21 2.60
  24  0.556  0.556  0.449-  35 2.54  15 2.56  17 2.56  14 2.56  19 2.56  26 2.56  22 2.56  27 2.56
                            32 2.57  34 2.57  21 2.57  23 2.57
  25  0.888  0.888  0.449-  28 2.54  33 2.55  30 2.55  21 2.55  23 2.55  18 2.56  16 2.56  12 2.56
                            22 2.56  27 2.56  19 2.58  26 2.58
  26  0.223  0.888  0.449-  28 2.54  29 2.55  34 2.55  20 2.55  23 2.55  17 2.56  10 2.56  16 2.56
                            27 2.56  24 2.56  25 2.58  19 2.58
  27  0.556  0.889  0.449-  35 2.54  17 2.56  18 2.56  11 2.56  26 2.56  25 2.56  24 2.56  22 2.56
                            29 2.57  30 2.57  20 2.57  21 2.57
  28  0.000  0.000  0.546-  25 2.54  19 2.54  26 2.54  33 2.55  30 2.55  31 2.55  29 2.55  32 2.55
                            34 2.55
  29  0.333  0.997  0.547-  34 2.52  26 2.55  28 2.55  35 2.56  27 2.57  31 2.59  20 2.59  36 2.59
                            30 2.59
  30  0.670  0.997  0.547-  33 2.52  25 2.55  28 2.55  35 2.56  27 2.57  32 2.59  21 2.59  36 2.59
                            29 2.59
  31  0.997  0.333  0.547-  32 2.52  19 2.55  28 2.55  35 2.56  22 2.57  29 2.59  20 2.59  36 2.59
                            33 2.59
  32  0.670  0.333  0.547-  31 2.52  19 2.55  28 2.55  35 2.56  24 2.57  30 2.59  21 2.59  36 2.59
                            34 2.59
  33  0.997  0.670  0.547-  30 2.52  25 2.55  28 2.55  35 2.56  22 2.57  34 2.59  23 2.59  36 2.59
                            31 2.59
  34  0.333  0.670  0.547-  29 2.52  26 2.55  28 2.55  35 2.56  24 2.57  33 2.59  23 2.59  36 2.59
                            32 2.59
  35  0.667  0.667  0.546-  24 2.54  27 2.54  22 2.54  34 2.56  32 2.56  29 2.56  30 2.56  33 2.56
                            31 2.56
  36  0.333  0.333  0.547-  37 1.73  38 1.73  31 2.59  29 2.59  33 2.59  34 2.59  32 2.59  30 2.59
                            23 2.60  20 2.60  21 2.60
  37  0.273  0.332  0.626-  36 1.73
  38  0.394  0.332  0.626-  36 1.73

  LATTYP: Found a hexagonal cell.
 ALAT       =     7.6967864036
 C/A-ratio  =     2.7653617908

  Lattice vectors:

 A1 = (  -3.8483927580,  -6.6656128093,   0.0000000000)
 A2 = (   7.6967864037,   0.0000000000,   0.0000000000)
 A3 = (   0.0000000000,   0.0000000000,  21.2843990326)

Analysis of symmetry for initial positions (statically):
 Subroutine PRICEL returns:
 Original cell was already a primitive cell.

 Routine SETGRP: Setting up the symmetry group for a
 hexagonal supercell.

 Subroutine GETGRP returns: Found  2 space group operations
 (whereof  2 operations were pure point group operations)
 out of a pool of 24 trial point group operations.

The static configuration has the point symmetry C_1h.

Analysis of symmetry for dynamics (positions and initial velocities):
 Subroutine PRICEL returns:
 Original cell was already a primitive cell.

[...]

The dynamic configuration has the point symmetry C_1h.

Analysis of constrained symmetry for selective dynamics:
 Subroutine PRICEL returns:
 Original cell was already a primitive cell.

 Routine SETGRP: Setting up the symmetry group for a
 hexagonal supercell.

 Subroutine GETGRP returns: Found  2 space group operations
[...]
     33      -3.7639      2.00000
     34      -3.7562      2.00000
     35      -3.7302      2.00000
     36      -3.6866      2.00000
     37      -3.6172      2.00000
     38      -3.5198      2.00000
     39      -3.4958      2.00000
     40      -3.4566      2.00000
     41      -3.4433      2.00000
     42      -3.3857      2.00000
     43      -3.3699      2.00000
     44      -3.3478      2.00000
     45      -3.3399      2.00000
     46      -3.3349      2.00000
     47      -3.2089      2.00000
     48      -3.1904      2.00000
     49      -3.1642      2.00000
     50      -3.1432      2.00000
     51      -3.1074      2.00000
     52      -3.0945      2.00000
     53      -3.0646      2.00000
     54      -3.0424      2.00000
     55      -3.0270      2.00000
     56      -3.0193      2.00000
     57      -3.0144      2.00000
     58      -2.9839      2.00000
     59      -2.9821      2.00000
     60      -2.9535      2.00000
[...]
    238       6.7068      0.00000
    239       6.8672      0.00000
    240       6.8746      0.00000
    241       7.0227      0.00000
    242       7.0909      0.00000
    243       7.2754      0.00000
    244       7.3960      0.00000
    245       7.4993      0.00000
    246       7.5922      0.00000
    247       7.6870      0.00000
    248       7.8165      0.00000
    249       8.0164      0.00000
    250       8.2232      0.00000
    251       8.2818      0.00000
    252       8.3947      0.00000

 soft charge-density along one line, spin component           1
         0         1         2         3         4         5         6         7         8         9
 total charge-density along one line

------------------------ aborting loop because EDIFF is reached ----------------------------------------

 total charge

# of ion       s       p       d       tot
    1        0.445   0.286   9.187   9.918
    2        0.450   0.284   9.188   9.922
    3        0.450   0.284   9.188   9.922
    4        0.450   0.285   9.188   9.922
    5        0.446   0.288   9.186   9.920
    6        0.450   0.285   9.188   9.922
    7        0.450   0.285   9.187   9.922
    8        0.450   0.285   9.187   9.922
    9        0.445   0.286   9.187   9.918
   10        0.441   0.375   9.177   9.993
   11        0.444   0.370   9.182   9.996
   12        0.441   0.375   9.177   9.993
   13        0.444   0.370   9.182   9.996
   14        0.444   0.370   9.182   9.996
   15        0.437   0.372   9.181   9.990
   16        0.441   0.375   9.178   9.993
   17        0.437   0.372   9.181   9.990
   18        0.437   0.372   9.181   9.990
   19        0.445   0.374   9.182  10.000
   20        0.440   0.389   9.175  10.004
   21        0.440   0.389   9.175  10.004
   22        0.437   0.374   9.181   9.992
   23        0.439   0.389   9.175  10.004
   24        0.437   0.374   9.181   9.992
   25        0.444   0.374   9.182  10.000
   26        0.444   0.374   9.182  10.000
   27        0.437   0.374   9.181   9.993
   28        0.455   0.293   9.192   9.940
   29        0.447   0.301   9.196   9.944
   30        0.447   0.301   9.196   9.944
   31        0.445   0.305   9.194   9.943
   32        0.445   0.305   9.194   9.943
   33        0.447   0.301   9.196   9.943
   34        0.447   0.301   9.196   9.943
   35        0.452   0.294   9.193   9.939
   36        0.708   0.699   8.115   9.522
   37        0.518   0.032   0.000   0.550
   38        0.518   0.032   0.000   0.550
tot         17.291  12.494 329.589 359.375

  FORCE on cell =-STRESS in cart. coord.  units (eV):
  Direction    XX          YY          ZZ          XY          YZ          ZX
  Alpha Z   882.32486   882.32486   882.32486
  Ewald  174503.26632174481.08485************     0.00038    -0.12225     0.00017
  Hartree187588.87717187584.88918************     0.00003    -0.00901     0.00007
  E(xc)   -2297.89261 -2298.19690 -2302.29526    -0.00032    -0.00432    -0.00003
  Local  ************************375602.34252     0.01961     0.02046    -0.00068
  n-local  -747.27972  -747.37507  -765.97471     1.76943     0.00834     0.07382
  augment  3361.00269  3362.00850  3374.04527    -0.01824     0.02937     0.00022
  Kinetic  3293.79296  3300.22308  3309.57739     0.94295     0.12306    -0.15675
  Fock        0.00000     0.00000     0.00000     0.00000     0.00000     0.00000
  Total       1.00475     0.83119     5.05619    -0.00000     0.04565    -0.00000
  in kB       1.47421     1.21956     7.41862    -0.00000     0.06697    -0.00000

 VOLUME and BASIS-vectors are now :
  energy-cutoff  :      500.00
  volume of cell :     1091.97
      direct lattice vectors                 reciprocal lattice vectors
     7.696786404  0.000000000  0.000000000     0.129924354 -0.075011849  0.000000000
     3.848392758  6.665612809  0.000000000     0.000000000  0.150023716  0.000000000
     0.000000000  0.000000000 21.284399033     0.000000000  0.000000000  0.046982769

  length of vectors
     7.696786404  7.696786404 21.284399033     0.150023716  0.150023716  0.046982769

 FORCES acting on ions
    electron-ion (+dipol)            ewald-force                    non-local-force                 convergence-correction
   -.407E-04 -.184E-02 0.349E+04   0.580E-04 -.288E-02 -.349E+04   -.298E-10 0.447E-03 -.299E+01   -.327E-03 0.416E-02 -.121E+01
   -.144E-01 0.132E+00 0.349E+04   0.146E+00 0.117E+00 -.349E+04   -.431E-01 -.997E-01 -.202E+01   -.809E-01 -.132E+00 -.105E+01
   0.144E-01 0.132E+00 0.349E+04   -.146E+00 0.117E+00 -.349E+04   0.431E-01 -.997E-01 -.202E+01   0.818E-01 -.130E+00 -.105E+01
   0.655E-01 -.671E-01 0.349E+04   0.177E+00 0.670E-01 -.349E+04   -.949E-01 0.117E-01 -.200E+01   -.131E+00 -.132E-01 -.104E+01
   -.612E-04 0.362E-01 0.349E+04   0.116E-03 0.370E-03 -.349E+04   0.132E-08 -.198E-01 -.206E+01   0.121E-01 -.155E-01 -.868E+00
   -.655E-01 -.670E-01 0.349E+04   -.177E+00 0.668E-01 -.349E+04   0.949E-01 0.117E-01 -.200E+01   0.130E+00 -.121E-01 -.103E+01
   0.148E+00 -.658E-01 0.349E+04   0.307E-01 -.184E+00 -.349E+04   -.659E-01 0.914E-01 -.201E+01   -.966E-01 0.144E+00 -.103E+01
   -.147E+00 -.658E-01 0.349E+04   -.309E-01 -.184E+00 -.349E+04   0.659E-01 0.914E-01 -.201E+01   0.999E-01 0.142E+00 -.103E+01
   -.143E-03 -.476E-01 0.349E+04   0.263E-03 0.252E-02 -.349E+04   -.152E-08 0.229E-01 -.250E+01   -.131E-01 0.208E-01 -.107E+01
   0.177E+01 0.104E+01 0.118E+04   -.131E+01 -.779E+00 -.118E+04   -.366E+00 -.217E+00 -.989E+00   -.614E-01 -.299E-01 -.306E+00
   -.915E-04 -.201E+01 0.117E+04   0.191E-03 0.204E+01 -.117E+04   0.404E-08 -.606E-01 -.949E+00   0.118E-01 -.670E-02 -.156E+00
   -.177E+01 0.104E+01 0.118E+04   0.131E+01 -.779E+00 -.118E+04   0.366E+00 -.217E+00 -.989E+00   0.599E-01 -.293E-01 -.307E+00
   -.174E+01 0.101E+01 0.117E+04   0.178E+01 -.101E+01 -.117E+04   -.403E-01 0.185E-01 -.922E+00   -.251E-01 0.794E-02 -.112E+00
   0.174E+01 0.101E+01 0.117E+04   -.178E+01 -.101E+01 -.117E+04   0.403E-01 0.185E-01 -.922E+00   0.483E-01 0.621E-02 -.115E+00
   -.142E-03 -.842E-01 0.118E+04   0.298E-03 0.151E-01 -.118E+04   -.259E-08 0.390E-01 -.613E+00   -.298E-02 0.182E-01 -.314E+00
   -.923E-04 -.205E+01 0.118E+04   0.186E-03 0.152E+01 -.118E+04   -.273E-07 0.410E+00 -.982E+00   -.118E-02 0.836E-01 -.312E+00
   -.454E-01 0.181E-01 0.118E+04   -.293E-03 0.592E-02 -.118E+04   0.155E-01 -.119E-02 -.603E+00   0.198E-01 -.170E-01 -.337E+00
   0.455E-01 0.181E-01 0.118E+04   0.803E-04 0.585E-02 -.118E+04   -.155E-01 -.119E-02 -.603E+00   -.182E-01 -.147E-01 -.334E+00
   -.571E-04 0.276E+00 -.116E+04   0.690E-04 -.329E+00 0.115E+04   0.743E-09 -.112E-01 0.684E+00   0.107E-02 0.406E-01 0.486E+00
   -.276E+02 -.158E+02 -.117E+04   0.278E+02 0.159E+02 0.117E+04   -.201E+00 -.156E+00 -.169E+00   0.110E+00 0.106E+00 0.589E+00
   0.276E+02 -.158E+02 -.117E+04   -.278E+02 0.159E+02 0.117E+04   0.201E+00 -.156E+00 -.169E+00   -.131E+00 0.103E+00 0.589E+00
   -.159E+02 0.904E+01 -.116E+04   0.153E+02 -.867E+01 0.116E+04   0.533E+00 -.323E+00 0.111E+01   0.859E-01 -.556E-01 0.482E+00
   -.870E-04 0.318E+02 -.117E+04   0.147E-03 -.319E+02 0.117E+04   -.127E-07 0.191E+00 -.757E-01   -.139E-01 -.187E+00 0.620E+00
   0.159E+02 0.904E+01 -.116E+04   -.153E+02 -.867E+01 0.116E+04   -.533E+00 -.323E+00 0.111E+01   -.623E-01 -.560E-01 0.482E+00
   -.221E+00 -.312E-01 -.116E+04   0.224E+00 0.538E-01 0.115E+04   0.311E-01 0.911E-03 0.716E+00   -.113E-01 -.147E-01 0.489E+00
   0.222E+00 -.312E-01 -.116E+04   -.224E+00 0.538E-01 0.115E+04   -.311E-01 0.911E-03 0.716E+00   0.104E-01 -.126E-01 0.490E+00
   -.123E-03 -.182E+02 -.116E+04   0.245E-03 0.176E+02 0.116E+04   -.389E-07 0.585E+00 0.109E+01   0.113E-01 0.666E-01 0.488E+00
   -.364E-04 0.651E+00 -.346E+04   0.411E-04 -.606E+00 0.346E+04   0.344E-08 -.517E-01 0.203E+01   -.129E-03 -.297E-02 0.825E+00
   -.174E+02 -.262E+02 -.347E+04   0.172E+02 0.252E+02 0.346E+04   0.173E+00 0.712E+00 0.248E+01   -.403E-01 0.582E-01 0.712E+00
   0.175E+02 -.262E+02 -.347E+04   -.172E+02 0.252E+02 0.346E+04   -.173E+00 0.712E+00 0.248E+01   0.408E-01 0.594E-01 0.711E+00
   -.307E+02 -.147E+01 -.347E+04   0.296E+02 0.164E+01 0.346E+04   0.758E+00 -.135E+00 0.248E+01   0.859E-01 -.154E-01 0.722E+00
   0.307E+02 -.147E+01 -.347E+04   -.296E+02 0.164E+01 0.346E+04   -.758E+00 -.135E+00 0.248E+01   -.860E-01 -.147E-01 0.723E+00
   -.151E+02 0.277E+02 -.347E+04   0.146E+02 -.269E+02 0.346E+04   0.388E+00 -.569E+00 0.246E+01   0.289E-01 -.413E-01 0.706E+00
   0.151E+02 0.277E+02 -.347E+04   -.146E+02 -.269E+02 0.346E+04   -.388E+00 -.569E+00 0.246E+01   -.264E-01 -.416E-01 0.708E+00
   -.160E-03 -.563E+00 -.346E+04   0.255E-03 0.541E+00 0.346E+04   -.423E-08 0.635E-01 0.227E+01   -.124E-01 -.341E-01 0.810E+00
   -.418E-04 -.326E+00 -.306E+04   0.123E-03 0.328E+00 0.306E+04   -.845E-09 0.127E-01 0.230E+01   0.214E-02 0.194E-01 0.515E+00
   0.175E+02 0.335E-01 -.381E+03   -.203E+02 -.430E-01 0.383E+03   0.277E+01 0.375E-02 -.143E+01   0.141E-01 0.845E-03 0.109E-01
   -.175E+02 0.335E-01 -.381E+03   0.203E+02 -.430E-01 0.383E+03   -.277E+01 0.375E-02 -.143E+01   -.140E-01 0.850E-03 0.109E-01
   -.183E-03 0.141E+00 0.406E+01   0.163E-12 0.233E-12 -.722E-11   0.964E-08 -.145E+00 -.357E+01   0.253E-01 0.505E-02 -.493E+00

 POSITION                                       TOTAL-FORCE (eV/Angst)
      0.00000      0.00000      5.37156         0.000000     -0.000136      0.102307
      2.56560      0.00000      5.37156         0.007213      0.017759      0.091559
      5.13119      0.00000      5.37156        -0.007213      0.017759      0.091559
      1.28280      2.22187      5.37156         0.016811     -0.001205      0.091055
      3.84839      2.22187      5.37156        -0.000000      0.001284      0.060276
      6.41399      2.22187      5.37156        -0.016811     -0.001205      0.091055
      2.56560      4.44374      5.37156         0.014166     -0.015308      0.091673
      5.13119      4.44374      5.37156        -0.014166     -0.015308      0.091673
      7.69679      4.44374      5.37156         0.000000     -0.001474      0.087014
      1.28280      0.74062      7.46636         0.029131      0.017762     -0.074569
      3.84839      0.74062      7.46636         0.000000     -0.040569     -0.163975
      6.41399      0.74062      7.46636        -0.029131      0.017762     -0.074569
      2.56560      2.96249      7.46636        -0.034156      0.020347     -0.163874
      5.13119      2.96249      7.46636         0.034156      0.020347     -0.163874
      7.69679      2.96249      7.46636         0.000000     -0.011913     -0.044982
      3.84839      5.18437      7.46636         0.000000     -0.039138     -0.075689
      6.41399      5.18437      7.46636        -0.011157      0.006959     -0.042121
      8.97958      5.18437      7.46636         0.011157      0.006959     -0.042121
      7.69679      1.48680      9.55287         0.000000     -0.024451     -0.012118
      2.54973      1.47208      9.52995         0.071851      0.037969     -0.081576
      5.14706      1.47208      9.52995        -0.071851      0.037969     -0.081576
      8.97744      3.70436      9.55084         0.016689     -0.011979      0.022720
      3.84839      3.72144      9.52995         0.000000     -0.094404     -0.075836
      6.41613      3.70436      9.55084        -0.016689     -0.011979      0.022720
     10.25757      5.92221      9.55287         0.022804      0.009780     -0.015323
      5.13600      5.92221      9.55287        -0.022804      0.009780     -0.015323
      7.69679      5.92251      9.55084        -0.000000      0.019035      0.021220
      0.00000      0.00000     11.61595         0.000000     -0.009180     -0.030919
      6.40108      6.64688     11.64473        -0.096905     -0.208378     -0.091170
      8.99249      6.64688     11.64473         0.096905     -0.208378     -0.091170
      8.95691      2.22006     11.64473        -0.219099      0.021769     -0.076434
      6.43666      2.22006     11.64473         0.219099      0.021769     -0.076434
     10.25261      4.46428     11.64473        -0.132859      0.188580     -0.086995
      5.14096      4.46428     11.64473         0.132859      0.188580     -0.086995
      7.69679      4.44374     11.61500        -0.000000      0.007764     -0.005066
      3.84839      2.22187     11.65010        -0.000000      0.034817      0.858014
      3.38341      2.21562     13.31647        -0.028876     -0.004872     -0.025068
      4.31337      2.21562     13.31647         0.028876     -0.004872     -0.025068
    total drift:                                0.025092      0.000730     -0.002637

  FREE ENERGIE OF THE ION-ELECTRON SYSTEM (eV)
  free  energy   TOTEN  =      -135.76476334 eV

  energy  without entropy=     -135.76476334  energy(sigma->0) =     -135.76476334

 stress matrix after NEB project (eV)
      1.00475     -0.00000     -0.00000
     -0.00000      0.83119      0.04565
     -0.00000      0.04565      5.05619
  FORCES: max atom, RMS     0.038548    0.008844
  FORCE total and by dimension    0.054515    0.028876
  Stress total and by dimension    5.222035    5.056192
|           W    W    AA    RRRRR   N    N  II  N    N   GGGG   !!!           |
|           W    W   A  A   R    R  NN   N  II  NN   N  G    G  !!!           |
|           W    W  A    A  R    R  N N  N  II  N N  N  G       !!!           |
|           W WW W  AAAAAA  RRRRR   N  N N  II  N  N N  G  GGG   !            |
|           WW  WW  A    A  R   R   N   NN  II  N   NN  G    G                |
|           W    W  A    A  R    R  N    N  II  N    N   GGGG   !!!           |
|     Tetrahedron method does not include variations of the Fermi             |
|     occupations, so forces and stress will be inaccurate. We suggest        |
|     using a different smearing scheme ISMEAR = 1 or 2 for metals in         |
|     relaxations.                                                            |

 total charge

# of ion       s       p       d       tot
    1        0.445   0.286   9.187   9.918
    2        0.450   0.284   9.188   9.922
    3        0.450   0.284   9.188   9.922
    4        0.450   0.285   9.188   9.922
    5        0.446   0.288   9.186   9.920
    6        0.450   0.285   9.188   9.922
    7        0.450   0.285   9.187   9.922
    8        0.450   0.285   9.187   9.922
    9        0.445   0.286   9.187   9.918
   10        0.441   0.375   9.177   9.993
   11        0.444   0.370   9.182   9.996
   12        0.441   0.375   9.177   9.993
   13        0.444   0.370   9.182   9.996
   14        0.444   0.370   9.182   9.996
   15        0.437   0.372   9.181   9.990
   16        0.441   0.375   9.178   9.993
   17        0.437   0.372   9.181   9.990
   18        0.437   0.372   9.181   9.990
   19        0.445   0.374   9.182  10.000
   20        0.440   0.389   9.175  10.004
   21        0.440   0.389   9.175  10.004
   22        0.437   0.374   9.181   9.992
   23        0.439   0.389   9.175  10.004
   24        0.437   0.374   9.181   9.992
   25        0.444   0.374   9.182  10.000
   26        0.444   0.374   9.182  10.000
   27        0.437   0.374   9.181   9.993
   28        0.455   0.293   9.192   9.940
   29        0.447   0.301   9.196   9.944
   30        0.447   0.301   9.196   9.944
   31        0.445   0.305   9.194   9.943
   32        0.445   0.305   9.194   9.943
   33        0.447   0.301   9.196   9.943
   34        0.447   0.301   9.196   9.943
   35        0.452   0.294   9.193   9.939
   36        0.708   0.699   8.115   9.522
   37        0.518   0.032   0.000   0.550
   38        0.518   0.032   0.000   0.550
tot         17.291  12.494 329.589 359.375

 BZINTS: Fermi energy:    0.300693;  397.000000 electrons
         Band energy:-0.100081E+04;  BLOECHL correction:   -0.060827