 vasp.6.2.0 18Jan21 (build Jun 12 2021 23:27:24) complex

 executed on             LinuxIFC date 2022.05.30  15:52:50

 INCAR:
   ISMEAR = -5
   SIGMA = 0.1
   ISPIN = 1
   EDIFF = 1.d-5
   EDIFFG = -0.01
   NSW = 0
   NELM = 150
   ENCUT = 500
   ISIF = 2
   IBRION = 2
   LREAL = Auto
   ALGO = Fast
   ICHARG = 11
   LORBIT = 10
   LCHARG = .F.
   LWAVE = .F.

 POTCAR:    PAW_PBE Au 04Oct2007
 POTCAR:    PAW_PBE Mn 06Sep2000
 POTCAR:    PAW_PBE C 08Apr2002
|           W    W    AA    RRRRR   N    N  II  N    N   GGGG   !!!           |
|           W    W   A  A   R    R  NN   N  II  NN   N  G    G  !!!           |
|           W    W  A    A  R    R  N N  N  II  N N  N  G       !!!           |
|           W WW W  AAAAAA  RRRRR   N  N N  II  N  N N  G  GGG   !            |
|           WW  WW  A    A  R   R   N   NN  II  N   NN  G    G                |
|           W    W  A    A  R    R  N    N  II  N    N   GGGG   !!!           |
|     For optimal performance we recommend to set                             |
|       NCORE = 2 up to number-of-cores-per-socket                            |
|     This setting can greatly improve the performance of VASP for DFT.       |
|     The default, NCORE=1 might be grossly inefficient on modern             |
|     multi-core architectures or massively parallel machines. Do your        |
|     Unfortunately you need to use the default for GW and RPA                |
|     calculations (for HF NCORE is supported but not extensively tested      |
|     yet).                                                                   |

 POTCAR:    PAW_PBE Au 04Oct2007
   VRHFIN =Au: s1d10

   TITEL  = PAW_PBE Au 04Oct2007
   POMASS =  196.966; ZVAL   =   11.000    mass and valenz
   ENMAX  =  229.943; ENMIN  =  172.457 eV

 POTCAR:    PAW_PBE Mn 06Sep2000
   VRHFIN =Mn: d6 s1

   TITEL  = PAW_PBE Mn 06Sep2000
   POMASS =   54.938; ZVAL   =    7.000    mass and valenz
   ENMAX  =  269.864; ENMIN  =  202.398 eV

 POTCAR:    PAW_PBE C 08Apr2002
   VRHFIN =C: s2p2

   TITEL  = PAW_PBE C 08Apr2002
   POMASS =   12.011; ZVAL   =    4.000    mass and valenz
   ENMAX  =  400.000; ENMIN  =  300.000 eV

 Optimization of the real space projectors (new method)

 maximal supplied QI-value         = 15.12
 optimisation between [QCUT,QGAM] = [ 11.34, 22.83] = [ 36.00,145.93] Ry
 Optimized for a Real-space Cutoff    1.39 Angstroem

   l    n(q)    QCUT    max X(q) W(low)/X(q) W(high)/X(q)  e(spline)
   2      9    11.338    60.898    0.39E-03    0.42E-03    0.21E-06
   2      9    11.338    58.894    0.40E-03    0.42E-03    0.22E-06
   0      9    11.338   109.617    0.13E-03    0.20E-04    0.13E-06
   0      9    11.338    75.026    0.13E-03    0.20E-04    0.13E-06
   1      9    11.338    16.344    0.33E-04    0.24E-03    0.18E-06
   1      9    11.338    10.160    0.26E-04    0.19E-03    0.15E-06
 Optimization of the real space projectors (new method)

[...]

   l    n(q)    QCUT    max X(q) W(low)/X(q) W(high)/X(q)  e(spline)
   2      8    11.376   110.144    0.49E-03    0.27E-04    0.26E-06
   2      8    11.376   103.200    0.49E-03    0.28E-04    0.27E-06
   0      9    11.376    68.437    0.57E-04    0.92E-04    0.15E-06
   0      9    11.376    33.971    0.51E-04    0.83E-04    0.14E-06
   1      9    11.376    17.065    0.34E-03    0.68E-04    0.14E-06
   1      9    11.376    12.540    0.27E-03    0.59E-04    0.11E-06
 Optimization of the real space projectors (new method)

 maximal supplied QI-value         = 25.13
 optimisation between [QCUT,QGAM] = [ 11.31, 22.87] = [ 35.82,146.48] Ry
 Optimized for a Real-space Cutoff    1.00 Angstroem

   l    n(q)    QCUT    max X(q) W(low)/X(q) W(high)/X(q)  e(spline)
   0      7    11.310   115.676    0.43E-03    0.13E-02    0.19E-06
   0      7    11.310    87.132    0.43E-03    0.13E-02    0.18E-06
   1      6    11.310     4.429    0.42E-03    0.74E-03    0.11E-06
   1      6    11.310     2.733    0.34E-03    0.55E-03    0.92E-07
  PAW_PBE Au 04Oct2007                  :
  PAW_PBE Mn 06Sep2000                  :
  PAW_PBE C 08Apr2002                   :

 POSCAR: Au-Mn-C
  positions in direct lattice
  velocities in cartesian coordinates
 exchange correlation table for  LEXCH =        8
   RHO(1)=    0.500       N(1)  =     2000
   RHO(2)=  100.500       N(2)  =     4000

 VTST: version 3.2, (02/03/18)

 CHAIN: initializing optimizer

 OPT: Using VASP Conjugate-Gradient optimizer
 CHAIN: Read ICHAIN            0

 POSCAR: Au-Mn-C
  positions in direct lattice
  velocities in cartesian coordinates

 ion  position               nearest neighbor table
   1  0.000  0.000  0.217-  16 2.94  12 2.94   6 2.94   8 2.94   7 2.94   3 2.94  10 2.94   4 2.94
                             2 2.94
   2  0.333  0.000  0.217-   9 2.94  11 2.94  17 2.94  10 2.94   8 2.94   4 2.94   5 2.94   1 2.94
                             3 2.94
   3  0.667  0.000  0.217-   7 2.94  18 2.94  12 2.94   1 2.94  11 2.94   5 2.94   6 2.94   9 2.94
                             2 2.94
   4  0.000  0.333  0.217-  10 2.94   6 2.94   5 2.94  13 2.94   2 2.94  15 2.94   9 2.94   1 2.94
                             7 2.94
   5  0.333  0.333  0.217-  13 2.94   7 2.94  11 2.94   4 2.94   2 2.94  14 2.94   3 2.94   8 2.94
                             6 2.94
   6  0.667  0.333  0.217-  15 2.94  14 2.94   1 2.94  12 2.94   4 2.94   9 2.94   8 2.94   3 2.94
                             5 2.94
   7  0.000  0.667  0.217-  18 2.94   3 2.94  16 2.94   5 2.94   1 2.94  13 2.94   8 2.94   4 2.94
                             9 2.94
   8  0.333  0.667  0.217-   9 2.94  17 2.94   1 2.94   2 2.94  14 2.94  16 2.94   6 2.94   7 2.94
                             5 2.94
   9  0.667  0.667  0.217-   2 2.94   8 2.94  17 2.94   6 2.94  15 2.94   4 2.94   3 2.94  18 2.94
                             7 2.94
  10  0.111  0.111  0.316-  20 2.93  26 2.94  19 2.94  11 2.94  17 2.94   2 2.94   4 2.94   1 2.94
                            12 2.94  16 2.94  13 2.94  15 2.94
  11  0.444  0.111  0.316-  20 2.91  21 2.91  27 2.93  13 2.94   2 2.94  10 2.94  17 2.94   5 2.94
                             3 2.94  18 2.94  14 2.94  12 2.94
  12  0.778  0.111  0.316-  21 2.93  25 2.94  19 2.94  16 2.94  18 2.94   1 2.94  14 2.94  15 2.94
                             3 2.94   6 2.94  10 2.94  11 2.94
  13  0.111  0.444  0.316-  23 2.91  20 2.91  22 2.93   5 2.94  18 2.94  11 2.94   7 2.94   4 2.94
                            16 2.94  10 2.94  14 2.94  15 2.94
  14  0.444  0.444  0.316-  21 2.91  23 2.91  24 2.93  15 2.94   6 2.94  12 2.94   8 2.94  17 2.94
                             5 2.94  16 2.94  13 2.94  11 2.94
  15  0.778  0.444  0.316-  24 2.92  22 2.92  19 2.94  14 2.94   6 2.94  17 2.94  12 2.94   9 2.94
                             4 2.94  10 2.94  13 2.94  18 2.94
  16  0.111  0.778  0.316-  23 2.93  25 2.94  26 2.94  18 2.94  12 2.94   7 2.94   1 2.94   8 2.94
                            13 2.94  10 2.94  14 2.94  17 2.94
  17  0.444  0.778  0.316-  27 2.92  24 2.92  26 2.94   9 2.94  15 2.94   2 2.94  10 2.94  11 2.94
                             8 2.94  14 2.94  16 2.94  18 2.94
  18  0.778  0.778  0.316-  22 2.92  27 2.92  25 2.94  16 2.94   7 2.94  13 2.94  12 2.94   3 2.94
                            11 2.94   9 2.94  15 2.94  17 2.94
  19  0.889  0.222  0.414-  10 2.94  12 2.94  15 2.94  26 2.94  25 2.94  24 2.94  22 2.94  28 2.95
                            21 2.95  20 2.95  32 2.99  31 2.99
  20  0.223  0.223  0.413-  36 2.70  23 2.91  21 2.91  11 2.91  13 2.91  29 2.92  31 2.92  10 2.93
                            26 2.95  19 2.95  27 2.95  22 2.95
  21  0.553  0.223  0.413-  36 2.70  20 2.91  23 2.91  14 2.91  11 2.91  30 2.92  32 2.92  12 2.93
                            25 2.95  19 2.95  27 2.95  24 2.95
  22  0.886  0.557  0.414-  24 2.91  27 2.91  18 2.92  15 2.92  13 2.93  25 2.94  19 2.94  23 2.95
                            20 2.95  33 2.96  31 2.96  35 2.96
  23  0.223  0.553  0.413-  36 2.70  20 2.91  21 2.91  13 2.91  14 2.91  33 2.92  34 2.92  16 2.93
                            25 2.95  26 2.95  22 2.95  24 2.95
  24  0.557  0.557  0.414-  27 2.91  22 2.91  15 2.92  17 2.92  14 2.93  26 2.94  19 2.94  21 2.95
                            23 2.95  32 2.96  34 2.96  35 2.96
  25  0.889  0.889  0.414-  16 2.94  12 2.94  18 2.94  19 2.94  26 2.94  22 2.94  27 2.94  28 2.95
                            23 2.95  21 2.95  33 2.99  30 2.99
  26  0.222  0.889  0.414-  10 2.94  16 2.94  17 2.94  19 2.94  25 2.94  27 2.94  24 2.94  28 2.95
                            20 2.95  23 2.95  29 2.99  34 2.99
  27  0.557  0.886  0.414-  24 2.91  22 2.91  17 2.92  18 2.92  11 2.93  26 2.94  25 2.94  20 2.95
                            21 2.95  29 2.96  30 2.96  35 2.96
  28  0.000  0.000  0.514-  25 2.95  19 2.95  26 2.95  34 2.99  32 2.99  33 2.99  30 2.99  31 2.99
                            29 2.99
  29  0.334  0.010  0.513-  30 2.84  31 2.85  36 2.86  20 2.92  27 2.96  35 2.98  26 2.99  28 2.99
                            34 3.12
  30  0.656  0.010  0.513-  29 2.84  32 2.85  36 2.86  21 2.92  27 2.96  35 2.98  25 2.99  28 2.99
                            33 3.12
  31  0.010  0.334  0.513-  33 2.84  29 2.85  36 2.86  20 2.92  22 2.96  35 2.98  19 2.99  28 2.99
                            32 3.12
  32  0.656  0.334  0.513-  34 2.84  30 2.85  36 2.86  21 2.92  24 2.96  35 2.98  19 2.99  28 2.99
                            31 3.12
  33  0.010  0.656  0.513-  31 2.84  34 2.85  36 2.86  23 2.92  22 2.96  35 2.98  25 2.99  28 2.99
                            30 3.12
  34  0.334  0.656  0.513-  32 2.84  33 2.85  36 2.86  23 2.92  24 2.96  35 2.98  26 2.99  28 2.99
                            29 3.12
  35  0.667  0.667  0.514-  24 2.96  27 2.96  22 2.96  29 2.98  34 2.98  32 2.98  31 2.98  30 2.98
                            33 2.98
  36  0.333  0.333  0.500-  37 1.61  20 2.70  23 2.70  21 2.70  33 2.86  31 2.86  29 2.86  30 2.86
                            34 2.86  32 2.86
  37  0.333  0.333  0.567-  36 1.61

  LATTYP: Found a hexagonal cell.
 ALAT       =     8.8135128021
 C/A-ratio  =     2.7586513333

  Lattice vectors:

 A1 = (  -4.4067569092,  -7.6327256898,   0.0000000000)
 A2 = (   8.8135128021,   0.0000000000,   0.0000000000)
 A3 = (   0.0000000000,   0.0000000000,  24.3134088421)

Analysis of symmetry for initial positions (statically):
 Subroutine PRICEL returns:
 Original cell was already a primitive cell.

 Routine SETGRP: Setting up the symmetry group for a
 hexagonal supercell.

 Subroutine GETGRP returns: Found  6 space group operations
 (whereof  6 operations were pure point group operations)
 out of a pool of 24 trial point group operations.

The static configuration has the point symmetry C_3v.

Analysis of symmetry for dynamics (positions and initial velocities):
 Subroutine PRICEL returns:
 Original cell was already a primitive cell.

[...]

The dynamic configuration has the point symmetry C_3v.

Analysis of constrained symmetry for selective dynamics:
 Subroutine PRICEL returns:
 Original cell was already a primitive cell.

 Routine SETGRP: Setting up the symmetry group for a
 hexagonal supercell.

 Subroutine GETGRP returns: Found  6 space group operations
[...]
     24      -5.6402      2.00000
     25      -5.6157      2.00000
     26      -5.5918      2.00000
     27      -5.5622      2.00000
     28      -5.4858      2.00000
     29      -5.4462      2.00000
     30      -5.3426      2.00000
     31      -5.3329      2.00000
     32      -5.3168      2.00000
     33      -5.3067      2.00000
     34      -5.2953      2.00000
     35      -5.2260      2.00000
     36      -5.1437      2.00000
     37      -5.1292      2.00000
     38      -5.1035      2.00000
     39      -5.0985      2.00000
     40      -5.0390      2.00000
     41      -4.9705      2.00000
     42      -4.9389      2.00000
     43      -4.8886      2.00000
     44      -4.8645      2.00000
     45      -4.8622      2.00000
     46      -4.8390      2.00000
     47      -4.7431      2.00000
     48      -4.7252      2.00000
     49      -4.6961      2.00000
     50      -4.6727      2.00000
     51      -4.6676      2.00000
     52      -4.6623      2.00000
     53      -4.6405      2.00000
     54      -4.6165      2.00000
     55      -4.5750      2.00000
     56      -4.5462      2.00000
     57      -4.5279      2.00000
     58      -4.5203      2.00000
     59      -4.4973      2.00000
     60      -4.4928      2.00000
[...]
    238       5.9577      0.00000
    239       5.9703      0.00000
    240       6.0096      0.00000
    241       6.1322      0.00000
    242       6.2326      0.00000
    243       6.2973      0.00000
    244       6.3067      0.00000
    245       6.3419      0.00000
    246       6.6519      0.00000
    247       6.6898      0.00000
    248       6.7895      0.00000
    249       6.8321      0.00000
    250       6.8864      0.00000
    251       6.9392      0.00000
    252       7.0374      0.00000

 soft charge-density along one line, spin component           1
         0         1         2         3         4         5         6         7         8         9
 total charge-density along one line

------------------------ aborting loop because EDIFF is reached ----------------------------------------

 total charge

# of ion       s       p       d       tot
    1        0.545   0.241   8.764   9.549
    2        0.545   0.241   8.764   9.550
    3        0.545   0.241   8.764   9.550
    4        0.545   0.241   8.764   9.550
    5        0.543   0.240   8.764   9.547
    6        0.545   0.241   8.764   9.550
    7        0.545   0.241   8.764   9.550
    8        0.545   0.241   8.764   9.550
    9        0.542   0.241   8.767   9.551
   10        0.519   0.308   8.772   9.599
   11        0.521   0.309   8.776   9.606
   12        0.519   0.308   8.772   9.599
   13        0.521   0.309   8.776   9.606
   14        0.521   0.309   8.776   9.606
   15        0.516   0.311   8.774   9.601
   16        0.519   0.308   8.772   9.599
   17        0.516   0.311   8.774   9.601
   18        0.516   0.311   8.774   9.601
   19        0.517   0.298   8.777   9.591
   20        0.543   0.331   8.754   9.628
   21        0.543   0.331   8.754   9.628
   22        0.512   0.311   8.775   9.598
   23        0.543   0.331   8.754   9.628
   24        0.512   0.311   8.775   9.598
   25        0.517   0.298   8.777   9.591
   26        0.517   0.298   8.777   9.591
   27        0.512   0.311   8.775   9.598
   28        0.543   0.222   8.763   9.528
   29        0.547   0.239   8.761   9.547
   30        0.547   0.239   8.761   9.547
   31        0.547   0.239   8.761   9.547
   32        0.547   0.239   8.761   9.547
   33        0.547   0.239   8.761   9.547
   34        0.547   0.239   8.761   9.547
   35        0.539   0.223   8.765   9.526
   36        0.339   0.368   5.311   6.018
   37        1.022   1.213   0.000   2.234
tot         20.008  11.231 312.163 343.401

  FORCE on cell =-STRESS in cart. coord.  units (eV):
  Direction    XX          YY          ZZ          XY          YZ          ZX
  Alpha Z   921.38421   921.38421   921.38421
  Ewald  150509.71127150509.71169************    -0.00032    -0.00009    -0.00014
  Hartree158841.49782158841.49783************     0.00001    -0.00002    -0.00003
  E(xc)   -1773.69270 -1773.69268 -1781.75965    -0.00002    -0.00000    -0.00000
  Local  ************************321937.58244     0.00178     0.00004     0.00005
  n-local  -100.92770   -54.96491   -57.94176    22.99597    -1.41669     1.45261
  augment  2395.18574  2395.18725  2409.74106    -0.00130     0.00000     0.00006
  Kinetic  5467.86239  5477.86530  5519.14699     5.95989    -0.18530     0.61465
  Fock        0.00000     0.00000     0.00000     0.00000     0.00000     0.00000
  Total     -21.57553   -21.57553     1.07102    -0.00000     0.00000    -0.00000
  in kB     -21.13477   -21.13477     1.04914    -0.00000     0.00000    -0.00000

 VOLUME and BASIS-vectors are now :
  energy-cutoff  :      500.00
  volume of cell :     1635.59
      direct lattice vectors                 reciprocal lattice vectors
     8.813512802  0.000000000  0.000000000     0.113462137 -0.065507406  0.000000000
     4.406756909  7.632725690  0.000000000     0.000000000  0.131014796  0.000000000
     0.000000000  0.000000000 24.313408842     0.000000000  0.000000000  0.041129568

  length of vectors
     8.813512802  8.813512802 24.313408842     0.131014796  0.131014796  0.041129568

 FORCES acting on ions
    electron-ion (+dipol)            ewald-force                    non-local-force                 convergence-correction
   -.197E-04 -.163E-04 0.265E+04   0.519E-04 0.433E-04 -.265E+04   0.697E-17 -.260E-17 -.544E+00   -.296E-03 -.184E-03 -.116E+00
   0.656E+00 0.156E+00 0.265E+04   -.601E+00 -.272E+00 -.265E+04   -.250E-01 0.122E-01 -.316E+00   -.286E-01 0.956E-01 -.827E-01
   -.656E+00 0.156E+00 0.265E+04   0.600E+00 -.272E+00 -.265E+04   0.250E-01 0.122E-01 -.316E+00   0.290E-01 0.975E-01 -.819E-01
   0.463E+00 0.490E+00 0.265E+04   -.536E+00 -.384E+00 -.265E+04   -.191E-02 -.277E-01 -.316E+00   0.685E-01 -.726E-01 -.828E-01
   0.816E-05 -.235E-04 0.265E+04   0.951E-04 0.174E-05 -.265E+04   0.360E-17 -.655E-18 -.365E+00   0.432E-02 0.262E-02 -.256E-01
   -.463E+00 0.490E+00 0.265E+04   0.536E+00 -.384E+00 -.265E+04   0.191E-02 -.277E-01 -.316E+00   -.701E-01 -.718E-01 -.817E-01
   -.192E+00 -.646E+00 0.265E+04   0.647E-01 0.656E+00 -.265E+04   0.230E-01 0.155E-01 -.316E+00   0.990E-01 -.237E-01 -.819E-01
   0.192E+00 -.646E+00 0.265E+04   -.649E-01 0.656E+00 -.265E+04   -.230E-01 0.155E-01 -.316E+00   -.972E-01 -.248E-01 -.818E-01
   0.197E-04 -.415E-04 0.265E+04   0.166E-03 -.201E-04 -.265E+04   0.691E-18 -.948E-18 -.446E+00   -.456E-02 -.236E-02 -.152E+00
   0.410E+01 0.237E+01 0.880E+03   -.403E+01 -.233E+01 -.880E+03   -.150E+00 -.863E-01 -.505E+00   0.737E-01 0.424E-01 0.279E+00
   0.152E-04 0.460E+01 0.889E+03   0.147E-03 -.475E+01 -.888E+03   0.141E-09 0.212E-02 -.589E+00   0.436E-02 0.112E+00 0.291E+00
   -.410E+01 0.237E+01 0.880E+03   0.403E+01 -.233E+01 -.880E+03   0.150E+00 -.863E-01 -.505E+00   -.755E-01 0.437E-01 0.279E+00
   0.398E+01 -.230E+01 0.889E+03   -.411E+01 0.237E+01 -.888E+03   0.184E-02 -.106E-02 -.589E+00   0.997E-01 -.521E-01 0.291E+00
   -.398E+01 -.230E+01 0.889E+03   0.411E+01 0.237E+01 -.888E+03   -.184E-02 -.106E-02 -.589E+00   -.920E-01 -.532E-01 0.290E+00
   0.315E-04 0.398E+01 0.884E+03   0.236E-03 -.397E+01 -.884E+03   0.741E-09 0.111E-01 -.454E+00   -.249E-02 -.666E-01 0.249E+00
   -.213E-04 -.473E+01 0.880E+03   0.163E-03 0.466E+01 -.880E+03   0.115E-07 0.173E+00 -.505E+00   -.178E-03 -.873E-01 0.279E+00
   0.345E+01 -.199E+01 0.884E+03   -.344E+01 0.198E+01 -.884E+03   0.964E-02 -.557E-02 -.454E+00   -.586E-01 0.316E-01 0.249E+00
   -.345E+01 -.199E+01 0.884E+03   0.344E+01 0.198E+01 -.884E+03   -.964E-02 -.557E-02 -.454E+00   0.592E-01 0.340E-01 0.250E+00
   -.409E-04 0.166E+01 -.914E+03   0.545E-04 -.171E+01 0.913E+03   0.323E-08 0.485E-01 0.747E+00   -.463E-02 -.171E-01 0.511E+00
   0.179E+02 0.103E+02 -.878E+03   -.176E+02 -.102E+02 0.878E+03   -.831E+00 -.480E+00 -.664E+00   0.385E+00 0.222E+00 0.101E+01
   -.179E+02 0.103E+02 -.878E+03   0.176E+02 -.102E+02 0.878E+03   0.831E+00 -.480E+00 -.664E+00   -.383E+00 0.222E+00 0.101E+01
   0.255E+00 -.147E+00 -.899E+03   -.880E+00 0.508E+00 0.897E+03   0.403E+00 -.233E+00 0.721E+00   0.257E+00 -.147E+00 0.584E+00
   -.948E-05 -.207E+02 -.878E+03   0.141E-03 0.204E+02 0.878E+03   0.638E-07 0.959E+00 -.664E+00   0.432E-03 -.442E+00 0.101E+01
   -.255E+00 -.147E+00 -.899E+03   0.880E+00 0.508E+00 0.897E+03   -.403E+00 -.233E+00 0.721E+00   -.257E+00 -.148E+00 0.584E+00
   -.144E+01 -.829E+00 -.914E+03   0.148E+01 0.855E+00 0.913E+03   -.420E-01 -.242E-01 0.747E+00   0.104E-01 0.595E-02 0.511E+00
   0.144E+01 -.829E+00 -.914E+03   -.148E+01 0.855E+00 0.913E+03   0.420E-01 -.242E-01 0.747E+00   -.168E-01 0.455E-02 0.511E+00
   0.111E-04 0.295E+00 -.899E+03   0.197E-03 -.102E+01 0.897E+03   0.310E-07 0.466E+00 0.721E+00   0.106E-02 0.296E+00 0.584E+00
   -.122E-04 -.128E-04 -.264E+04   0.292E-04 0.332E-04 0.264E+04   -.566E-18 0.313E-18 0.496E+00   -.356E-03 -.222E-03 0.291E+00
   0.235E+02 0.375E+02 -.263E+04   -.233E+02 -.373E+02 0.263E+04   -.566E+00 -.818E+00 0.832E+00   0.298E+00 0.522E+00 0.194E+00
   -.235E+02 0.375E+02 -.263E+04   0.233E+02 -.373E+02 0.263E+04   0.566E+00 -.818E+00 0.832E+00   -.297E+00 0.524E+00 0.193E+00
   0.442E+02 0.163E+01 -.263E+04   -.440E+02 -.154E+01 0.263E+04   -.991E+00 -.817E-01 0.832E+00   0.601E+00 -.316E-02 0.194E+00
   -.442E+02 0.163E+01 -.263E+04   0.440E+02 -.154E+01 0.263E+04   0.991E+00 -.817E-01 0.832E+00   -.602E+00 -.278E-02 0.193E+00
   0.207E+02 -.391E+02 -.263E+04   -.207E+02 0.389E+02 0.263E+04   -.425E+00 0.899E+00 0.832E+00   0.305E+00 -.519E+00 0.193E+00
   -.207E+02 -.391E+02 -.263E+04   0.207E+02 0.389E+02 0.263E+04   0.425E+00 0.899E+00 0.832E+00   -.304E+00 -.520E+00 0.193E+00
   0.349E-04 -.298E-04 -.265E+04   0.142E-03 -.485E-04 0.265E+04   -.237E-17 -.846E-17 0.542E+00   -.426E-02 -.217E-02 0.380E+00
   -.189E-04 -.853E-05 -.146E+04   0.740E-04 0.688E-05 0.146E+04   0.160E-17 0.158E-17 0.377E+01   0.311E-02 0.190E-02 0.183E+00
   0.470E-04 -.260E-04 -.120E+04   0.189E-04 0.121E-05 0.121E+04   0.464E-19 0.477E-18 -.799E+01   0.796E-03 0.483E-03 -.685E+00
   -.730E-03 -.800E-03 -.539E+01   -.136E-13 0.227E-12 0.796E-11   -.728E-18 0.327E-15 -.368E+01   0.140E-02 0.146E-02 0.931E+01

 POSITION                                       TOTAL-FORCE (eV/Angst)
      0.00000      0.00000      5.28038         0.000000      0.000000     -0.054412
      2.93784      0.00000      5.28038         0.002134     -0.006573     -0.041582
      5.87568      0.00000      5.28038        -0.002134     -0.006573     -0.041582
      1.46892      2.54424      5.28038        -0.004626      0.005135     -0.041582
      4.40676      2.54424      5.28038         0.000000      0.000000     -0.086289
      7.34459      2.54424      5.28038         0.004626      0.005135     -0.041582
      2.93784      5.08848      5.28038        -0.006760      0.001439     -0.041582
      5.87568      5.08848      5.28038         0.006760      0.001439     -0.041582
      8.81351      5.08848      5.28038         0.000000     -0.000000     -0.040509
      1.46892      0.84808      7.67911        -0.008792     -0.005076      0.076517
      4.40676      0.84808      7.67911        -0.000000     -0.032126     -0.001255
      7.34459      0.84808      7.67911         0.008792     -0.005076      0.076517
      2.93784      3.39232      7.67911        -0.027822      0.016063     -0.001255
      5.87568      3.39232      7.67911         0.027822      0.016063     -0.001255
      8.81351      3.39232      7.67911        -0.000000     -0.043057      0.068229
      4.40676      5.93656      7.67911         0.000000      0.010152      0.076517
      7.34459      5.93656      7.67911        -0.037288      0.021528      0.068229
     10.28243      5.93656      7.67911         0.037288      0.021528      0.068229
      8.81351      1.69603     10.07479        -0.000000     -0.018704      0.030646
      2.95306      1.70495     10.04990        -0.178496     -0.103055     -0.102549
      5.86045      1.70495     10.04990         0.178496     -0.103055     -0.102549
     10.26640      4.24966     10.05812         0.035073     -0.020250      0.054663
      4.40676      4.22282     10.04990         0.000000      0.206110     -0.102549
      7.36062      4.24966     10.05812        -0.035073     -0.020250      0.054663
     11.75147      6.78471     10.07479         0.016198      0.009352      0.030646
      5.87556      6.78471     10.07479        -0.016198      0.009352      0.030646
      8.81351      6.76613     10.05812         0.000000      0.040499      0.054663
      0.00000      0.00000     12.48774         0.000000     -0.000000     -0.077833
      2.98478      0.07843     12.47445        -0.097620     -0.183167     -0.115362
      5.82873      0.07843     12.47445         0.097620     -0.183167     -0.115362
      1.56032      2.54568     12.47445        -0.207437      0.007042     -0.115362
      7.25320      2.54568     12.47445         0.207437      0.007042     -0.115362
      2.98229      5.00861     12.47445        -0.109817      0.176125     -0.115362
      5.83122      5.00861     12.47445         0.109817      0.176125     -0.115362
      8.81351      5.08848     12.49541         0.000000     -0.000000     -0.023407
      4.40676      2.54424     12.16834         0.000000      0.000000      0.766319
      4.40676      2.54424     13.78235         0.000000     -0.000000      0.079043
    total drift:                                0.000670      0.000659      0.247544

  FREE ENERGIE OF THE ION-ELECTRON SYSTEM (eV)
  free  energy   TOTEN  =      -120.56297904 eV

  energy  without entropy=     -120.56297904  energy(sigma->0) =     -120.56297904

 stress matrix after NEB project (eV)
    -21.57553     -0.00000     -0.00000
     -0.00000    -21.57553      0.00000
     -0.00000      0.00000      1.07102
  FORCES: max atom, RMS     0.079043    0.012995
  FORCE total and by dimension    0.079043    0.079043
  Stress total and by dimension   30.531198   21.575530
|           W    W    AA    RRRRR   N    N  II  N    N   GGGG   !!!           |
|           W    W   A  A   R    R  NN   N  II  NN   N  G    G  !!!           |
|           W    W  A    A  R    R  N N  N  II  N N  N  G       !!!           |
|           W WW W  AAAAAA  RRRRR   N  N N  II  N  N N  G  GGG   !            |
|           WW  WW  A    A  R   R   N   NN  II  N   NN  G    G                |
|           W    W  A    A  R    R  N    N  II  N    N   GGGG   !!!           |
|     Tetrahedron method does not include variations of the Fermi             |
|     occupations, so forces and stress will be inaccurate. We suggest        |
|     using a different smearing scheme ISMEAR = 1 or 2 for metals in         |
|     relaxations.                                                            |

 total charge

# of ion       s       p       d       tot
    1        0.545   0.241   8.764   9.549
    2        0.545   0.241   8.764   9.550
    3        0.545   0.241   8.764   9.550
    4        0.545   0.241   8.764   9.550
    5        0.543   0.240   8.764   9.547
    6        0.545   0.241   8.764   9.550
    7        0.545   0.241   8.764   9.550
    8        0.545   0.241   8.764   9.550
    9        0.542   0.241   8.767   9.551
   10        0.519   0.308   8.772   9.599
   11        0.521   0.309   8.776   9.606
   12        0.519   0.308   8.772   9.599
   13        0.521   0.309   8.776   9.606
   14        0.521   0.309   8.776   9.606
   15        0.516   0.311   8.774   9.601
   16        0.519   0.308   8.772   9.599
   17        0.516   0.311   8.774   9.601
   18        0.516   0.311   8.774   9.601
   19        0.517   0.298   8.777   9.591
   20        0.543   0.331   8.754   9.628
   21        0.543   0.331   8.754   9.628
   22        0.512   0.311   8.775   9.598
   23        0.543   0.331   8.754   9.628
   24        0.512   0.311   8.775   9.598
   25        0.517   0.298   8.777   9.591
   26        0.517   0.298   8.777   9.591
   27        0.512   0.311   8.775   9.598
   28        0.543   0.222   8.763   9.528
   29        0.547   0.239   8.761   9.547
   30        0.547   0.239   8.761   9.547
   31        0.547   0.239   8.761   9.547
   32        0.547   0.239   8.761   9.547
   33        0.547   0.239   8.761   9.547
   34        0.547   0.239   8.761   9.547
   35        0.539   0.223   8.765   9.526
   36        0.339   0.368   5.311   6.018
   37        1.022   1.213   0.000   2.234
tot         20.008  11.231 312.163 343.401

 BZINTS: Fermi energy:    0.122492;  396.000000 electrons
         Band energy:-0.142183E+04;  BLOECHL correction:   -0.052396