 vasp.6.2.0 18Jan21 (build Jun 12 2021 23:27:24) complex

 executed on             LinuxIFC date 2022.05.30  17:17:15

 INCAR:
   ISMEAR = -5
   SIGMA = 0.1
   ISPIN = 1
   EDIFF = 1.d-5
   EDIFFG = -0.01
   NSW = 0
   NELM = 150
   ENCUT = 500
   ISIF = 2
   IBRION = 2
   LREAL = Auto
   ALGO = Fast
   ICHARG = 11
   LORBIT = 10
   LCHARG = .F.
   LWAVE = .F.

 POTCAR:    PAW_PBE Ag 02Apr2005
 POTCAR:    PAW_PBE Nb_sv 25May2007
 POTCAR:    PAW_PBE C 08Apr2002
|           W    W    AA    RRRRR   N    N  II  N    N   GGGG   !!!           |
|           W    W   A  A   R    R  NN   N  II  NN   N  G    G  !!!           |
|           W    W  A    A  R    R  N N  N  II  N N  N  G       !!!           |
|           W WW W  AAAAAA  RRRRR   N  N N  II  N  N N  G  GGG   !            |
|           WW  WW  A    A  R   R   N   NN  II  N   NN  G    G                |
|           W    W  A    A  R    R  N    N  II  N    N   GGGG   !!!           |
|     For optimal performance we recommend to set                             |
|       NCORE = 2 up to number-of-cores-per-socket                            |
|     This setting can greatly improve the performance of VASP for DFT.       |
|     The default, NCORE=1 might be grossly inefficient on modern             |
|     multi-core architectures or massively parallel machines. Do your        |
|     Unfortunately you need to use the default for GW and RPA                |
|     calculations (for HF NCORE is supported but not extensively tested      |
|     yet).                                                                   |

 POTCAR:    PAW_PBE Ag 02Apr2005
   VRHFIN =Ag : s1 d10

   TITEL  = PAW_PBE Ag 02Apr2005
   POMASS =  107.868; ZVAL   =   11.000    mass and valenz
   ENMAX  =  249.844; ENMIN  =  187.383 eV

 POTCAR:    PAW_PBE Nb_sv 25May2007
   VRHFIN =Nb: 4p5s4d

   TITEL  = PAW_PBE Nb_sv 25May2007
   POMASS =   92.910; ZVAL   =   13.000    mass and valenz
   ENMAX  =  293.235; ENMIN  =  219.927 eV

 POTCAR:    PAW_PBE C 08Apr2002
   VRHFIN =C: s2p2

   TITEL  = PAW_PBE C 08Apr2002
   POMASS =   12.011; ZVAL   =    4.000    mass and valenz
   ENMAX  =  400.000; ENMIN  =  300.000 eV

 Optimization of the real space projectors (new method)

 maximal supplied QI-value         = 15.12
 optimisation between [QCUT,QGAM] = [ 11.34, 22.83] = [ 36.00,145.93] Ry
 Optimized for a Real-space Cutoff    1.43 Angstroem

   l    n(q)    QCUT    max X(q) W(low)/X(q) W(high)/X(q)  e(spline)
   2      9    11.338    53.897    0.16E-03    0.20E-03    0.28E-06
   2      9    11.338    52.416    0.16E-03    0.20E-03    0.29E-06
   0     10    11.338   122.045    0.31E-04    0.76E-04    0.15E-06
   0     10    11.338    73.629    0.30E-04    0.72E-04    0.15E-06
   1      9    11.338    15.255    0.20E-03    0.19E-04    0.17E-06
   1      9    11.338     9.562    0.16E-03    0.15E-04    0.14E-06
 Optimization of the real space projectors (new method)

[...]

   l    n(q)    QCUT    max X(q) W(low)/X(q) W(high)/X(q)  e(spline)
   0     11    11.450    10.201    0.21E-04    0.96E-05    0.78E-07
   0     11    11.450     8.174    0.31E-04    0.18E-04    0.14E-06
   1     10    11.450     3.488    0.27E-04    0.12E-04    0.96E-07
   1     10    11.450     4.917    0.11E-03    0.11E-03    0.37E-06
   2     10    11.450   153.744    0.37E-03    0.81E-03    0.10E-05
   2     10    11.450   126.342    0.37E-03    0.81E-03    0.10E-05
 Optimization of the real space projectors (new method)

 maximal supplied QI-value         = 25.13
 optimisation between [QCUT,QGAM] = [ 11.31, 22.87] = [ 35.82,146.48] Ry
 Optimized for a Real-space Cutoff    1.00 Angstroem

   l    n(q)    QCUT    max X(q) W(low)/X(q) W(high)/X(q)  e(spline)
   0      7    11.310   115.676    0.43E-03    0.13E-02    0.19E-06
   0      7    11.310    87.132    0.43E-03    0.13E-02    0.18E-06
   1      6    11.310     4.429    0.42E-03    0.74E-03    0.11E-06
   1      6    11.310     2.733    0.34E-03    0.55E-03    0.92E-07
  PAW_PBE Ag 02Apr2005                  :
  PAW_PBE Nb_sv 25May2007               :
  PAW_PBE C 08Apr2002                   :

 POSCAR: Ag-Nb-C
  positions in direct lattice
  velocities in cartesian coordinates
 exchange correlation table for  LEXCH =        8
   RHO(1)=    0.500       N(1)  =     2000
   RHO(2)=  100.500       N(2)  =     4000

 VTST: version 3.2, (02/03/18)

 CHAIN: initializing optimizer

 OPT: Using VASP Conjugate-Gradient optimizer
 CHAIN: Read ICHAIN            0

 POSCAR: Ag-Nb-C
  positions in direct lattice
  velocities in cartesian coordinates

 ion  position               nearest neighbor table
   1  0.000  0.000  0.217-   2 2.93   8 2.93   7 2.93   6 2.93   4 2.93  12 2.93  16 2.93  10 2.93
                             3 2.93
   2  0.333  0.000  0.217-   1 2.93   8 2.93   9 2.93   3 2.93   4 2.93   5 2.93  10 2.93  17 2.93
                            11 2.93
   3  0.667  0.000  0.217-   9 2.93   2 2.93   5 2.93  11 2.93   7 2.93  18 2.93   1 2.93   6 2.93
                            12 2.93
   4  0.000  0.333  0.217-   5 2.93   6 2.93   2 2.93   1 2.93   7 2.93  13 2.93  15 2.93   9 2.93
                            10 2.93
   5  0.333  0.333  0.217-   4 2.93   3 2.93   7 2.93   2 2.93   8 2.93  14 2.93  13 2.93  11 2.93
                             6 2.93
   6  0.667  0.333  0.217-   4 2.93   9 2.93   1 2.93  15 2.93   8 2.93  12 2.93   3 2.93   5 2.93
                            14 2.93
   7  0.000  0.667  0.217-   8 2.93   1 2.93   5 2.93   3 2.93   4 2.93  16 2.93  18 2.93  13 2.93
                             9 2.93
   8  0.333  0.667  0.217-   7 2.93   1 2.93   2 2.93   9 2.93   5 2.93  16 2.93   6 2.93  17 2.93
                            14 2.93
   9  0.667  0.667  0.217-   3 2.93   2 2.93   8 2.93   6 2.93  17 2.93   4 2.93  15 2.93   7 2.93
                            18 2.93
  10  0.111  0.111  0.315-  20 2.90  19 2.93  26 2.93  12 2.93  16 2.93  15 2.93  17 2.93  13 2.93
                            11 2.93   2 2.93   1 2.93   4 2.93
  11  0.444  0.111  0.315-  21 2.90  20 2.90  14 2.93  17 2.93  18 2.93   3 2.93  12 2.93  13 2.93
                            10 2.93   5 2.93   2 2.93  27 2.93
  12  0.778  0.111  0.315-  21 2.90  25 2.93  19 2.93  10 2.93  16 2.93  18 2.93  15 2.93  11 2.93
                             1 2.93  14 2.93   6 2.93   3 2.93
  13  0.111  0.444  0.315-  20 2.90  23 2.90  15 2.93  14 2.93  18 2.93  10 2.93  11 2.93  16 2.93
                             4 2.93   5 2.93   7 2.93  22 2.93
  14  0.444  0.444  0.315-  23 2.90  21 2.90  13 2.93  11 2.93  16 2.93   5 2.93  12 2.93  17 2.93
                             8 2.93  15 2.93   6 2.93  24 2.93
  15  0.778  0.444  0.315-  19 2.93  13 2.93  10 2.93  12 2.93  17 2.93  18 2.93   4 2.93   6 2.93
                             9 2.93  14 2.93  24 2.93  22 2.93
  16  0.111  0.778  0.315-  23 2.90  26 2.93  25 2.93  18 2.93  12 2.93  10 2.93  14 2.93  17 2.93
                            13 2.93   7 2.93   8 2.93   1 2.93
  17  0.444  0.778  0.315-  26 2.93  11 2.93  10 2.93   9 2.93  18 2.93  15 2.93  16 2.93   2 2.93
                            14 2.93   8 2.93  27 2.93  24 2.93
  18  0.778  0.778  0.315-  25 2.93  16 2.93  12 2.93  13 2.93  11 2.93  17 2.93  15 2.93   7 2.93
                             3 2.93   9 2.93  22 2.93  27 2.93
  19  0.889  0.222  0.413-  15 2.93  10 2.93  12 2.93  20 2.93  21 2.93  28 2.93  24 2.93  22 2.93
                            26 2.93  25 2.93  32 2.97  31 2.97
  20  0.222  0.222  0.412-  36 2.82  10 2.90  13 2.90  11 2.90  19 2.93  26 2.93  27 2.93  22 2.93
                            21 2.94  23 2.94  31 2.97  29 2.97
  21  0.556  0.222  0.412-  36 2.82  12 2.90  11 2.90  14 2.90  25 2.93  19 2.93  27 2.93  24 2.93
                            20 2.94  23 2.94  30 2.97  32 2.97
  22  0.889  0.556  0.413-  24 2.93  27 2.93  25 2.93  19 2.93  18 2.93  15 2.93  23 2.93  20 2.93
                            35 2.93  13 2.93  33 2.95  31 2.95
  23  0.222  0.556  0.412-  36 2.82  16 2.90  14 2.90  13 2.90  26 2.93  25 2.93  22 2.93  24 2.93
                            21 2.94  20 2.94  34 2.97  33 2.97
  24  0.556  0.556  0.413-  27 2.93  22 2.93  19 2.93  26 2.93  15 2.93  17 2.93  23 2.93  21 2.93
                            35 2.93  14 2.93  32 2.95  34 2.95
  25  0.889  0.889  0.413-  18 2.93  16 2.93  12 2.93  23 2.93  21 2.93  28 2.93  22 2.93  27 2.93
                            26 2.93  19 2.93  33 2.97  30 2.97
  26  0.222  0.889  0.413-  17 2.93  16 2.93  10 2.93  23 2.93  20 2.93  28 2.93  27 2.93  24 2.93
                            25 2.93  19 2.93  34 2.97  29 2.97
  27  0.556  0.889  0.413-  24 2.93  22 2.93  26 2.93  25 2.93  17 2.93  18 2.93  20 2.93  21 2.93
                            35 2.93  11 2.93  29 2.95  30 2.95
  28  0.000  0.000  0.511-  26 2.93  25 2.93  19 2.93  29 2.95  34 2.95  33 2.95  32 2.95  31 2.95
                            30 2.95
  29  0.333  0.004  0.513-  30 2.90  31 2.90  36 2.91  35 2.95  28 2.95  27 2.95  20 2.97  26 2.97
                            34 2.99
  30  0.663  0.004  0.513-  29 2.90  32 2.90  36 2.91  35 2.95  28 2.95  27 2.95  21 2.97  25 2.97
                            33 2.99
  31  0.004  0.333  0.513-  33 2.90  29 2.90  36 2.91  35 2.95  28 2.95  22 2.95  20 2.97  19 2.97
                            32 2.99
  32  0.663  0.333  0.513-  34 2.90  30 2.90  36 2.91  35 2.95  28 2.95  24 2.95  21 2.97  19 2.97
                            31 2.99
  33  0.004  0.663  0.513-  31 2.90  34 2.90  36 2.91  35 2.95  28 2.95  22 2.95  23 2.97  25 2.97
                            30 2.99
  34  0.333  0.663  0.513-  32 2.90  33 2.90  36 2.91  35 2.95  28 2.95  24 2.95  23 2.97  26 2.97
                            29 2.99
  35  0.667  0.667  0.512-  24 2.93  27 2.93  22 2.93  30 2.95  29 2.95  32 2.95  34 2.95  31 2.95
                            33 2.95
  36  0.333  0.333  0.504-  37 1.79  21 2.82  20 2.82  23 2.82  31 2.91  33 2.91  30 2.91  29 2.91
                            34 2.91  32 2.91
  37  0.333  0.333  0.578-  36 1.79

  LATTYP: Found a hexagonal cell.
 ALAT       =     8.7913665772
 C/A-ratio  =     2.7711238095

  Lattice vectors:

 A1 = (  -4.3956832886,  -7.6135467898,   0.0000000000)
 A2 = (   8.7913665771,   0.0000000000,   0.0000000000)
 A3 = (   0.0000000000,   0.0000000000,  24.3619652401)

Analysis of symmetry for initial positions (statically):
 Subroutine PRICEL returns:
 Original cell was already a primitive cell.

 Routine SETGRP: Setting up the symmetry group for a
 hexagonal supercell.

 Subroutine GETGRP returns: Found  6 space group operations
 (whereof  6 operations were pure point group operations)
 out of a pool of 24 trial point group operations.

The static configuration has the point symmetry C_3v.

Analysis of symmetry for dynamics (positions and initial velocities):
 Subroutine PRICEL returns:
 Original cell was already a primitive cell.

[...]

The dynamic configuration has the point symmetry C_3v.

Analysis of constrained symmetry for selective dynamics:
 Subroutine PRICEL returns:
 Original cell was already a primitive cell.

 Routine SETGRP: Setting up the symmetry group for a
 hexagonal supercell.

 Subroutine GETGRP returns: Found  6 space group operations
[...]
     24      -5.2352      2.00000
     25      -5.2230      2.00000
     26      -5.2113      2.00000
     27      -5.1945      2.00000
     28      -5.1798      2.00000
     29      -5.1574      2.00000
     30      -5.1495      2.00000
     31      -5.1418      2.00000
     32      -5.1056      2.00000
     33      -5.1045      2.00000
     34      -5.1037      2.00000
     35      -5.0673      2.00000
     36      -5.0601      2.00000
     37      -5.0411      2.00000
     38      -5.0189      2.00000
     39      -4.9898      2.00000
     40      -4.9760      2.00000
     41      -4.9519      2.00000
     42      -4.9184      2.00000
     43      -4.8897      2.00000
     44      -4.8820      2.00000
     45      -4.8755      2.00000
     46      -4.8661      2.00000
     47      -4.8495      2.00000
     48      -4.7514      2.00000
     49      -4.7306      2.00000
     50      -4.7191      2.00000
     51      -4.7151      2.00000
     52      -4.7090      2.00000
     53      -4.7050      2.00000
     54      -4.6994      2.00000
     55      -4.6916      2.00000
     56      -4.6848      2.00000
     57      -4.6703      2.00000
     58      -4.6066      2.00000
     59      -4.5987      2.00000
     60      -4.5908      2.00000
[...]
    238       5.6645      0.00000
    239       5.6863      0.00000
    240       5.7410      0.00000
    241       5.8049      0.00000
    242       5.8784      0.00000
    243       5.9262      0.00000
    244       6.1473      0.00000
    245       6.5772      0.00000
    246       6.5854      0.00000
    247       6.6680      0.00000
    248       6.6881      0.00000
    249       6.7262      0.00000
    250       6.8020      0.00000
    251       6.8670      0.00000
    252       6.9371      0.00000

 soft charge-density along one line, spin component           1
         0         1         2         3         4         5         6         7         8         9
 total charge-density along one line

------------------------ aborting loop because EDIFF is reached ----------------------------------------

 total charge

# of ion       s       p       d       tot
    1        0.413   0.204   9.177   9.795
    2        0.417   0.203   9.177   9.797
    3        0.417   0.203   9.177   9.797
    4        0.417   0.203   9.177   9.797
    5        0.417   0.202   9.177   9.797
    6        0.417   0.203   9.177   9.797
    7        0.417   0.203   9.177   9.797
    8        0.417   0.203   9.177   9.797
    9        0.413   0.203   9.177   9.794
   10        0.406   0.272   9.163   9.841
   11        0.409   0.268   9.166   9.843
   12        0.406   0.272   9.163   9.841
   13        0.409   0.268   9.166   9.843
   14        0.409   0.268   9.166   9.843
   15        0.401   0.270   9.164   9.835
   16        0.406   0.272   9.163   9.841
   17        0.401   0.270   9.164   9.835
   18        0.401   0.270   9.164   9.835
   19        0.400   0.264   9.169   9.833
   20        0.425   0.295   9.149   9.869
   21        0.425   0.295   9.149   9.869
   22        0.392   0.273   9.164   9.829
   23        0.425   0.295   9.149   9.869
   24        0.392   0.273   9.164   9.829
   25        0.400   0.264   9.169   9.833
   26        0.400   0.264   9.169   9.833
   27        0.392   0.273   9.164   9.829
   28        0.412   0.200   9.177   9.788
   29        0.431   0.212   9.162   9.805
   30        0.431   0.212   9.162   9.805
   31        0.431   0.212   9.162   9.805
   32        0.431   0.212   9.162   9.805
   33        0.431   0.212   9.162   9.805
   34        0.431   0.212   9.162   9.805
   35        0.412   0.201   9.176   9.789
   36        2.187   5.988   2.732  10.907
   37        1.001   1.249   0.000   2.250
tot         17.646  15.661 323.573 356.880

  FORCE on cell =-STRESS in cart. coord.  units (eV):
  Direction    XX          YY          ZZ          XY          YZ          ZX
  Alpha Z   700.53541   700.53541   700.53541
  Ewald  155288.82950155288.82964************     0.00004     0.00001     0.00003
  Hartree165424.03787165424.03792************     0.00002     0.00000     0.00001
  E(xc)   -2102.51174 -2102.51173 -2107.36525    -0.00001     0.00000     0.00000
  Local  ************************332308.54172     0.00025    -0.00005    -0.00012
  n-local  -326.06616  -309.74742  -336.65667    10.28335    -0.59232     0.57866
  augment  3236.47598  3236.47617  3253.61585    -0.00016    -0.00002     0.00002
  Kinetic  5059.38183  5064.03558  5117.63658     3.64961     0.79835    -0.21200
  Fock        0.00000     0.00000     0.00000     0.00000     0.00000     0.00000
  Total      -6.74630    -6.74630     0.09276    -0.00000    -0.00000     0.00000
  in kB      -6.62858    -6.62858     0.09115    -0.00000    -0.00000     0.00000

 VOLUME and BASIS-vectors are now :
  energy-cutoff  :      500.00
  volume of cell :     1630.63
      direct lattice vectors                 reciprocal lattice vectors
     8.791366577  0.000000000  0.000000000     0.113747958 -0.065672414  0.000000000
     4.395683289  7.613546790  0.000000000     0.000000000  0.131344829  0.000000000
     0.000000000  0.000000000 24.361965240     0.000000000  0.000000000  0.041047592

  length of vectors
     8.791366577  8.791366577 24.361965240     0.131344829  0.131344829  0.041047592

 FORCES acting on ions
    electron-ion (+dipol)            ewald-force                    non-local-force                 convergence-correction
   0.465E-04 -.279E-04 0.270E+04   -.954E-04 0.593E-04 -.270E+04   -.729E-17 -.297E-17 -.212E+01   -.129E-03 -.181E-03 -.230E+00
   0.197E+00 0.116E+01 0.270E+04   -.356E+00 -.102E+01 -.270E+04   0.589E-01 -.618E-04 -.162E+01   0.939E-01 -.127E+00 -.950E-01
   -.197E+00 0.116E+01 0.270E+04   0.357E+00 -.102E+01 -.270E+04   -.589E-01 -.618E-04 -.162E+01   -.944E-01 -.125E+00 -.942E-01
   0.110E+01 -.408E+00 0.270E+04   -.107E+01 0.203E+00 -.270E+04   0.294E-01 0.511E-01 -.162E+01   -.631E-01 0.145E+00 -.949E-01
   -.643E-05 -.193E-04 0.270E+04   0.980E-04 -.199E-05 -.270E+04   -.124E-18 0.241E-17 -.155E+01   0.630E-02 0.385E-02 0.138E-01
   -.110E+01 -.408E+00 0.270E+04   0.107E+01 0.203E+00 -.270E+04   -.294E-01 0.511E-01 -.162E+01   0.616E-01 0.146E+00 -.940E-01
   0.904E+00 -.749E+00 0.270E+04   -.709E+00 0.821E+00 -.270E+04   -.295E-01 -.510E-01 -.162E+01   -.155E+00 -.186E-01 -.942E-01
   -.904E+00 -.749E+00 0.270E+04   0.709E+00 0.821E+00 -.270E+04   0.295E-01 -.510E-01 -.162E+01   0.157E+00 -.196E-01 -.940E-01
   0.361E-04 -.130E-04 0.270E+04   0.792E-04 -.643E-04 -.270E+04   -.186E-17 0.128E-17 -.191E+01   -.670E-02 -.346E-02 -.114E+00
   0.586E+01 0.338E+01 0.941E+03   -.566E+01 -.327E+01 -.940E+03   -.260E+00 -.150E+00 -.686E+00   0.495E-01 0.286E-01 0.170E+00
   -.282E-04 0.960E+01 0.949E+03   0.411E-04 -.979E+01 -.949E+03   0.418E-12 0.637E-01 -.632E+00   0.640E-02 0.741E-01 0.208E+00
   -.586E+01 0.338E+01 0.941E+03   0.566E+01 -.327E+01 -.940E+03   0.260E+00 -.150E+00 -.686E+00   -.514E-01 0.301E-01 0.171E+00
   0.832E+01 -.480E+01 0.949E+03   -.847E+01 0.489E+01 -.949E+03   0.552E-01 -.319E-01 -.632E+00   0.672E-01 -.315E-01 0.208E+00
   -.832E+01 -.480E+01 0.949E+03   0.847E+01 0.489E+01 -.949E+03   -.552E-01 -.319E-01 -.632E+00   -.562E-01 -.322E-01 0.208E+00
   0.163E-04 -.248E+01 0.936E+03   -.109E-03 0.237E+01 -.936E+03   0.271E-12 0.412E-01 -.630E+00   -.203E-02 0.740E-01 0.100E+00
   -.796E-05 -.677E+01 0.941E+03   0.207E-04 0.653E+01 -.940E+03   0.197E-11 0.300E+00 -.686E+00   0.335E-03 -.596E-01 0.171E+00
   -.215E+01 0.124E+01 0.936E+03   0.205E+01 -.118E+01 -.936E+03   0.357E-01 -.206E-01 -.630E+00   0.630E-01 -.388E-01 0.100E+00
   0.215E+01 0.124E+01 0.936E+03   -.205E+01 -.118E+01 -.936E+03   -.357E-01 -.206E-01 -.630E+00   -.632E-01 -.365E-01 0.101E+00
   0.405E-04 -.146E+00 -.860E+03   -.131E-03 -.577E-01 0.859E+03   0.103E-11 0.157E+00 0.102E+01   -.189E-02 0.533E-01 0.274E+00
   0.420E+02 0.243E+02 -.790E+03   -.419E+02 -.242E+02 0.790E+03   -.548E+00 -.316E+00 -.513E+00   0.135E+00 0.780E-01 0.259E+00
   -.420E+02 0.243E+02 -.790E+03   0.419E+02 -.242E+02 0.790E+03   0.548E+00 -.316E+00 -.513E+00   -.124E+00 0.792E-01 0.258E+00
   0.174E+02 -.100E+02 -.854E+03   -.178E+02 0.103E+02 0.854E+03   0.310E+00 -.179E+00 0.594E+00   0.942E-01 -.542E-01 0.194E+00
   -.570E-04 -.485E+02 -.790E+03   0.496E-04 0.483E+02 0.790E+03   0.415E-11 0.633E+00 -.513E+00   0.681E-02 -.147E+00 0.259E+00
   -.174E+02 -.100E+02 -.854E+03   0.178E+02 0.103E+02 0.854E+03   -.310E+00 -.179E+00 0.594E+00   -.958E-01 -.552E-01 0.194E+00
   0.126E+00 0.729E-01 -.860E+03   0.499E-01 0.290E-01 0.859E+03   -.136E+00 -.785E-01 0.102E+01   -.451E-01 -.262E-01 0.274E+00
   -.126E+00 0.730E-01 -.860E+03   -.500E-01 0.289E-01 0.859E+03   0.136E+00 -.785E-01 0.102E+01   0.449E-01 -.284E-01 0.274E+00
   0.211E-04 0.201E+02 -.854E+03   0.109E-03 -.205E+02 0.854E+03   0.235E-11 0.357E+00 0.594E+00   -.466E-03 0.109E+00 0.194E+00
   0.542E-04 -.360E-04 -.264E+04   -.117E-03 0.783E-04 0.264E+04   -.205E-17 -.468E-18 0.178E+01   -.142E-03 -.220E-03 0.103E+00
   0.444E+02 0.717E+02 -.265E+04   -.439E+02 -.708E+02 0.265E+04   -.683E+00 -.104E+01 0.217E+01   0.638E-01 0.103E+00 0.726E-01
   -.444E+02 0.717E+02 -.265E+04   0.439E+02 -.708E+02 0.265E+04   0.683E+00 -.104E+01 0.217E+01   -.641E-01 0.105E+00 0.725E-01
   0.843E+02 0.263E+01 -.265E+04   -.833E+02 -.257E+01 0.265E+04   -.124E+01 -.718E-01 0.217E+01   0.121E+00 0.405E-02 0.727E-01
   -.843E+02 0.263E+01 -.265E+04   0.833E+02 -.257E+01 0.265E+04   0.124E+01 -.718E-01 0.217E+01   -.123E+00 0.485E-02 0.718E-01
   0.399E+02 -.743E+02 -.265E+04   -.394E+02 0.734E+02 0.265E+04   -.559E+00 0.111E+01 0.217E+01   0.592E-01 -.107E+00 0.724E-01
   -.399E+02 -.743E+02 -.265E+04   0.394E+02 0.734E+02 0.265E+04   0.559E+00 0.111E+01 0.217E+01   -.576E-01 -.109E+00 0.717E-01
   0.207E-04 -.937E-05 -.265E+04   0.106E-03 -.670E-04 0.265E+04   -.131E-16 -.437E-17 0.187E+01   -.679E-02 -.349E-02 0.145E+00
   0.254E-03 -.165E-03 -.282E+04   0.123E-03 0.141E-04 0.282E+04   0.241E-18 -.106E-17 -.167E+01   0.772E-02 0.471E-02 0.597E-01
   0.595E-04 -.293E-04 -.128E+04   0.179E-04 0.238E-06 0.128E+04   0.169E-17 0.146E-17 -.449E+01   0.931E-03 0.569E-03 -.714E-01
   0.672E-03 -.869E-03 0.387E+01   0.323E-14 -.154E-12 -.364E-11   0.322E-15 -.226E-15 -.728E+01   0.274E-01 0.192E-01 0.339E+01

 POSITION                                       TOTAL-FORCE (eV/Angst)
      0.00000      0.00000      5.28219         0.000000     -0.000000      0.021912
      2.93046      0.00000      5.28219        -0.006099      0.007322      0.013716
      5.86091      0.00000      5.28219         0.006099      0.007322      0.013716
      1.46523      2.53785      5.28219         0.003292     -0.008943      0.013716
      4.39568      2.53785      5.28219         0.000000     -0.000000     -0.036411
      7.32614      2.53785      5.28219        -0.003292     -0.008943      0.013716
      2.93046      5.07570      5.28219         0.009391      0.001621      0.013716
      5.86091      5.07570      5.28219        -0.009391      0.001621      0.013716
      8.79137      5.07570      5.28219         0.000000     -0.000000      0.026792
      1.46523      0.84595      7.67490        -0.005503     -0.003177     -0.025845
      4.39568      0.84595      7.67490        -0.000000     -0.046496     -0.073128
      7.32614      0.84595      7.67490         0.005503     -0.003177     -0.025845
      2.93046      3.38380      7.67490        -0.040267      0.023248     -0.073128
      5.86091      3.38380      7.67490         0.040267      0.023248     -0.073128
      8.79137      3.38380      7.67490         0.000000      0.003264      0.052197
      4.39568      5.92165      7.67490         0.000000      0.006354     -0.025845
      7.32614      5.92165      7.67490         0.002827     -0.001632      0.052197
     10.25659      5.92165      7.67490        -0.002827     -0.001632      0.052197
      8.79137      1.69211     10.06133         0.000000      0.006177      0.076854
      2.92756      1.69022     10.03254        -0.265846     -0.153486     -0.216549
      5.86381      1.69022     10.03254         0.265846     -0.153486     -0.216549
     10.25459      4.23091     10.07004         0.031455     -0.018160      0.043795
      4.39568      4.23310     10.03254         0.000000      0.306973     -0.216549
      7.32815      4.23091     10.07004        -0.031455     -0.018160      0.043795
     11.72164      6.76749     10.06133        -0.005350     -0.003089      0.076854
      5.86110      6.76749     10.06133         0.005350     -0.003089      0.076854
      8.79137      6.76528     10.07004         0.000000      0.036321      0.043795
      0.00000      0.00000     12.45237         0.000000     -0.000000     -0.070310
      2.94700      0.02679     12.48745        -0.052623     -0.075662      0.004639
      5.84437      0.02679     12.48745         0.052623     -0.075662      0.004639
      1.49670      2.53878     12.48745        -0.091836     -0.007742      0.004639
      7.29466      2.53878     12.48745         0.091836     -0.007742      0.004639
      2.94539      5.04797     12.48745        -0.039214      0.083403      0.004639
      5.84598      5.04797     12.48745         0.039214      0.083403      0.004639
      8.79137      5.07570     12.46721         0.000000     -0.000000     -0.074898
      4.39568      2.53785     12.28926         0.000000     -0.000000      0.457643
      4.39568      2.53785     14.07800         0.000000     -0.000000     -0.006828
    total drift:                                0.028072      0.018360     -0.018888

  FREE ENERGIE OF THE ION-ELECTRON SYSTEM (eV)
  free  energy   TOTEN  =      -103.75844417 eV

  energy  without entropy=     -103.75844417  energy(sigma->0) =     -103.75844417

 stress matrix after NEB project (eV)
     -6.74630     -0.00000      0.00000
     -0.00000     -6.74630      0.00000
      0.00000     -0.00000      0.09276
  FORCES: max atom, RMS     0.006828    0.001123
  FORCE total and by dimension    0.006828    0.006828
  Stress total and by dimension    9.541155    6.746296
|           W    W    AA    RRRRR   N    N  II  N    N   GGGG   !!!           |
|           W    W   A  A   R    R  NN   N  II  NN   N  G    G  !!!           |
|           W    W  A    A  R    R  N N  N  II  N N  N  G       !!!           |
|           W WW W  AAAAAA  RRRRR   N  N N  II  N  N N  G  GGG   !            |
|           WW  WW  A    A  R   R   N   NN  II  N   NN  G    G                |
|           W    W  A    A  R    R  N    N  II  N    N   GGGG   !!!           |
|     Tetrahedron method does not include variations of the Fermi             |
|     occupations, so forces and stress will be inaccurate. We suggest        |
|     using a different smearing scheme ISMEAR = 1 or 2 for metals in         |
|     relaxations.                                                            |

 total charge

# of ion       s       p       d       tot
    1        0.413   0.204   9.177   9.795
    2        0.417   0.203   9.177   9.797
    3        0.417   0.203   9.177   9.797
    4        0.417   0.203   9.177   9.797
    5        0.417   0.202   9.177   9.797
    6        0.417   0.203   9.177   9.797
    7        0.417   0.203   9.177   9.797
    8        0.417   0.203   9.177   9.797
    9        0.413   0.203   9.177   9.794
   10        0.406   0.272   9.163   9.841
   11        0.409   0.268   9.166   9.843
   12        0.406   0.272   9.163   9.841
   13        0.409   0.268   9.166   9.843
   14        0.409   0.268   9.166   9.843
   15        0.401   0.270   9.164   9.835
   16        0.406   0.272   9.163   9.841
   17        0.401   0.270   9.164   9.835
   18        0.401   0.270   9.164   9.835
   19        0.400   0.264   9.169   9.833
   20        0.425   0.295   9.149   9.869
   21        0.425   0.295   9.149   9.869
   22        0.392   0.273   9.164   9.829
   23        0.425   0.295   9.149   9.869
   24        0.392   0.273   9.164   9.829
   25        0.400   0.264   9.169   9.833
   26        0.400   0.264   9.169   9.833
   27        0.392   0.273   9.164   9.829
   28        0.412   0.200   9.177   9.788
   29        0.431   0.212   9.162   9.805
   30        0.431   0.212   9.162   9.805
   31        0.431   0.212   9.162   9.805
   32        0.431   0.212   9.162   9.805
   33        0.431   0.212   9.162   9.805
   34        0.431   0.212   9.162   9.805
   35        0.412   0.201   9.176   9.789
   36        2.187   5.988   2.732  10.907
   37        1.001   1.249   0.000   2.250
tot         17.646  15.661 323.573 356.880

 BZINTS: Fermi energy:    0.315806;  402.000000 electrons
         Band energy:-0.178998E+04;  BLOECHL correction:   -0.052550