 vasp.6.2.0 18Jan21 (build Jun 12 2021 23:27:24) complex

 executed on             LinuxIFC date 2022.05.26  19:20:10

 INCAR:
   ISMEAR = -5
   SIGMA = 0.1
   ISPIN = 1
   EDIFF = 1.d-5
   EDIFFG = -0.01
   NSW = 0
   NELM = 150
   ENCUT = 500
   ISIF = 2
   IBRION = 2
   LREAL = Auto
   ALGO = Fast
   ICHARG = 11
   LORBIT = 10
   LCHARG = .F.
   LWAVE = .F.

 POTCAR:    PAW_PBE Au 04Oct2007
 POTCAR:    PAW_PBE Mn 06Sep2000
 POTCAR:    PAW_PBE O 08Apr2002
|           W    W    AA    RRRRR   N    N  II  N    N   GGGG   !!!           |
|           W    W   A  A   R    R  NN   N  II  NN   N  G    G  !!!           |
|           W    W  A    A  R    R  N N  N  II  N N  N  G       !!!           |
|           W WW W  AAAAAA  RRRRR   N  N N  II  N  N N  G  GGG   !            |
|           WW  WW  A    A  R   R   N   NN  II  N   NN  G    G                |
|           W    W  A    A  R    R  N    N  II  N    N   GGGG   !!!           |
|     For optimal performance we recommend to set                             |
|       NCORE = 2 up to number-of-cores-per-socket                            |
|     This setting can greatly improve the performance of VASP for DFT.       |
|     The default, NCORE=1 might be grossly inefficient on modern             |
|     multi-core architectures or massively parallel machines. Do your        |
|     Unfortunately you need to use the default for GW and RPA                |
|     calculations (for HF NCORE is supported but not extensively tested      |
|     yet).                                                                   |

 POTCAR:    PAW_PBE Au 04Oct2007
   VRHFIN =Au: s1d10

   TITEL  = PAW_PBE Au 04Oct2007
   POMASS =  196.966; ZVAL   =   11.000    mass and valenz
   ENMAX  =  229.943; ENMIN  =  172.457 eV

 POTCAR:    PAW_PBE Mn 06Sep2000
   VRHFIN =Mn: d6 s1

   TITEL  = PAW_PBE Mn 06Sep2000
   POMASS =   54.938; ZVAL   =    7.000    mass and valenz
   ENMAX  =  269.864; ENMIN  =  202.398 eV

 POTCAR:    PAW_PBE O 08Apr2002
   VRHFIN =O: s2p4

   TITEL  = PAW_PBE O 08Apr2002
   POMASS =   16.000; ZVAL   =    6.000    mass and valenz
   ENMAX  =  400.000; ENMIN  =  300.000 eV

 Optimization of the real space projectors (new method)

 maximal supplied QI-value         = 15.12
 optimisation between [QCUT,QGAM] = [ 11.34, 22.83] = [ 36.00,145.93] Ry
 Optimized for a Real-space Cutoff    1.39 Angstroem

   l    n(q)    QCUT    max X(q) W(low)/X(q) W(high)/X(q)  e(spline)
   2      9    11.338    60.898    0.39E-03    0.42E-03    0.21E-06
   2      9    11.338    58.894    0.40E-03    0.42E-03    0.22E-06
   0      9    11.338   109.617    0.13E-03    0.20E-04    0.13E-06
   0      9    11.338    75.026    0.13E-03    0.20E-04    0.13E-06
   1      9    11.338    16.344    0.33E-04    0.24E-03    0.18E-06
   1      9    11.338    10.160    0.26E-04    0.19E-03    0.15E-06
 Optimization of the real space projectors (new method)

[...]

   l    n(q)    QCUT    max X(q) W(low)/X(q) W(high)/X(q)  e(spline)
   2      8    11.376   110.144    0.49E-03    0.27E-04    0.26E-06
   2      8    11.376   103.200    0.49E-03    0.28E-04    0.27E-06
   0      9    11.376    68.437    0.57E-04    0.92E-04    0.15E-06
   0      9    11.376    33.971    0.51E-04    0.83E-04    0.14E-06
   1      9    11.376    17.065    0.34E-03    0.68E-04    0.14E-06
   1      9    11.376    12.540    0.27E-03    0.59E-04    0.11E-06
 Optimization of the real space projectors (new method)

 maximal supplied QI-value         = 24.76
 optimisation between [QCUT,QGAM] = [ 11.39, 22.77] = [ 36.31,145.25] Ry
 Optimized for a Real-space Cutoff    1.00 Angstroem

   l    n(q)    QCUT    max X(q) W(low)/X(q) W(high)/X(q)  e(spline)
   0      7    11.387    20.381    0.39E-03    0.13E-02    0.15E-06
   0      7    11.387    15.268    0.42E-03    0.14E-02    0.17E-06
   1      6    11.387     5.964    0.41E-03    0.11E-02    0.17E-06
   1      6    11.387     5.382    0.39E-03    0.87E-03    0.15E-06
  PAW_PBE Au 04Oct2007                  :
  PAW_PBE Mn 06Sep2000                  :
  PAW_PBE O 08Apr2002                   :

 POSCAR: Au-Mn-O
  positions in direct lattice
  velocities in cartesian coordinates
 exchange correlation table for  LEXCH =        8
   RHO(1)=    0.500       N(1)  =     2000
   RHO(2)=  100.500       N(2)  =     4000

 VTST: version 3.2, (02/03/18)

 CHAIN: initializing optimizer

 OPT: Using VASP Conjugate-Gradient optimizer
 CHAIN: Read ICHAIN            0

 POSCAR: Au-Mn-O
  positions in direct lattice
  velocities in cartesian coordinates

 ion  position               nearest neighbor table
   1  0.000  0.000  0.238-  16 2.94  12 2.94   6 2.94   8 2.94   7 2.94   3 2.94  10 2.94   4 2.94
                             2 2.94
   2  0.333  0.000  0.238-   9 2.94  11 2.94  17 2.94  10 2.94   8 2.94   4 2.94   5 2.94   1 2.94
                             3 2.94
   3  0.667  0.000  0.238-   7 2.94  18 2.94  12 2.94   1 2.94  11 2.94   5 2.94   6 2.94   9 2.94
                             2 2.94
   4  0.000  0.333  0.238-  10 2.94   6 2.94   5 2.94  13 2.94   2 2.94  15 2.94   9 2.94   1 2.94
                             7 2.94
   5  0.333  0.333  0.238-  13 2.94   7 2.94  11 2.94   4 2.94   2 2.94  14 2.94   3 2.94   8 2.94
                             6 2.94
   6  0.667  0.333  0.238-  15 2.94  14 2.94   1 2.94  12 2.94   4 2.94   9 2.94   8 2.94   3 2.94
                             5 2.94
   7  0.000  0.667  0.238-  18 2.94   3 2.94  16 2.94   5 2.94   1 2.94  13 2.94   8 2.94   4 2.94
                             9 2.94
   8  0.333  0.667  0.238-   9 2.94  17 2.94   1 2.94   2 2.94  14 2.94  16 2.94   6 2.94   7 2.94
                             5 2.94
   9  0.667  0.667  0.238-   2 2.94   8 2.94  17 2.94   6 2.94  15 2.94   4 2.94   3 2.94  18 2.94
                             7 2.94
  10  0.111  0.111  0.346-  20 2.93  26 2.94  19 2.94  11 2.94  17 2.94   2 2.94   4 2.94   1 2.94
                            12 2.94  16 2.94  13 2.94  15 2.94
  11  0.444  0.111  0.346-  20 2.91  21 2.91  27 2.93  13 2.94   2 2.94  10 2.94  17 2.94   5 2.94
                             3 2.94  18 2.94  14 2.94  12 2.94
  12  0.778  0.111  0.346-  21 2.93  25 2.94  19 2.94  16 2.94  18 2.94   1 2.94  14 2.94  15 2.94
                             3 2.94   6 2.94  10 2.94  11 2.94
  13  0.111  0.444  0.346-  23 2.91  20 2.91  22 2.93   5 2.94  18 2.94  11 2.94   7 2.94   4 2.94
                            16 2.94  10 2.94  14 2.94  15 2.94
  14  0.444  0.444  0.346-  21 2.91  23 2.91  24 2.93  15 2.94   6 2.94  12 2.94   8 2.94  17 2.94
                             5 2.94  16 2.94  13 2.94  11 2.94
  15  0.778  0.444  0.346-  24 2.92  22 2.92  19 2.94  14 2.94   6 2.94  17 2.94  12 2.94   9 2.94
                             4 2.94  10 2.94  13 2.94  18 2.94
  16  0.111  0.778  0.346-  23 2.93  25 2.94  26 2.94  18 2.94  12 2.94   7 2.94   1 2.94   8 2.94
                            13 2.94  10 2.94  14 2.94  17 2.94
  17  0.444  0.778  0.346-  27 2.92  24 2.92  26 2.94   9 2.94  15 2.94   2 2.94  10 2.94  11 2.94
                             8 2.94  14 2.94  16 2.94  18 2.94
  18  0.778  0.778  0.346-  22 2.92  27 2.92  25 2.94  16 2.94   7 2.94  13 2.94  12 2.94   3 2.94
                            11 2.94   9 2.94  15 2.94  17 2.94
  19  0.889  0.222  0.454-  10 2.94  12 2.94  15 2.94  26 2.94  25 2.94  24 2.94  22 2.94  28 2.95
                            21 2.95  20 2.95  32 2.99  31 2.99
  20  0.223  0.223  0.453-  36 2.70  23 2.91  21 2.91  11 2.91  13 2.91  29 2.92  31 2.92  10 2.93
                            26 2.95  19 2.95  27 2.95  22 2.95
  21  0.553  0.223  0.453-  36 2.70  20 2.91  23 2.91  14 2.91  11 2.91  30 2.92  32 2.92  12 2.93
                            25 2.95  19 2.95  27 2.95  24 2.95
  22  0.886  0.557  0.453-  24 2.91  27 2.91  18 2.92  15 2.92  13 2.93  25 2.94  19 2.94  23 2.95
                            20 2.95  33 2.96  31 2.96  35 2.96
  23  0.223  0.553  0.453-  36 2.70  20 2.91  21 2.91  13 2.91  14 2.91  33 2.92  34 2.92  16 2.93
                            25 2.95  26 2.95  22 2.95  24 2.95
  24  0.557  0.557  0.453-  27 2.91  22 2.91  15 2.92  17 2.92  14 2.93  26 2.94  19 2.94  21 2.95
                            23 2.95  32 2.96  34 2.96  35 2.96
  25  0.889  0.889  0.454-  16 2.94  12 2.94  18 2.94  19 2.94  26 2.94  22 2.94  27 2.94  28 2.95
                            23 2.95  21 2.95  33 2.99  30 2.99
  26  0.222  0.889  0.454-  10 2.94  16 2.94  17 2.94  19 2.94  25 2.94  27 2.94  24 2.94  28 2.95
                            20 2.95  23 2.95  29 2.99  34 2.99
  27  0.557  0.886  0.453-  24 2.91  22 2.91  17 2.92  18 2.92  11 2.93  26 2.94  25 2.94  20 2.95
                            21 2.95  29 2.96  30 2.96  35 2.96
  28  0.000  0.000  0.563-  25 2.95  19 2.95  26 2.95  34 2.99  32 2.99  33 2.99  30 2.99  31 2.99
                            29 2.99
  29  0.334  0.010  0.562-  30 2.84  31 2.85  36 2.86  20 2.92  27 2.96  35 2.98  26 2.99  28 2.99
                            34 3.12
  30  0.656  0.010  0.562-  29 2.84  32 2.85  36 2.86  21 2.92  27 2.96  35 2.98  25 2.99  28 2.99
                            33 3.12
  31  0.010  0.334  0.562-  33 2.84  29 2.85  36 2.86  20 2.92  22 2.96  35 2.98  19 2.99  28 2.99
                            32 3.12
  32  0.656  0.334  0.562-  34 2.84  30 2.85  36 2.86  21 2.92  24 2.96  35 2.98  19 2.99  28 2.99
                            31 3.12
  33  0.010  0.656  0.562-  31 2.84  34 2.85  36 2.86  23 2.92  22 2.96  35 2.98  25 2.99  28 2.99
                            30 3.12
  34  0.334  0.656  0.562-  32 2.84  33 2.85  36 2.86  23 2.92  24 2.96  35 2.98  26 2.99  28 2.99
                            29 3.12
  35  0.667  0.667  0.563-  24 2.96  27 2.96  22 2.96  29 2.98  34 2.98  32 2.98  31 2.98  30 2.98
                            33 2.98
  36  0.333  0.333  0.548-  37 1.59  20 2.70  23 2.70  21 2.70  33 2.86  31 2.86  29 2.86  30 2.86
                            34 2.86  32 2.86
  37  0.333  0.333  0.620-  36 1.59

  LATTYP: Found a hexagonal cell.
 ALAT       =     8.8135128021
 C/A-ratio  =     2.5184286595

  Lattice vectors:

 A1 = (  -4.4067569092,  -7.6327256898,   0.0000000000)
 A2 = (   8.8135128021,   0.0000000000,   0.0000000000)
 A3 = (   0.0000000000,   0.0000000000,  22.1962032318)

Analysis of symmetry for initial positions (statically):
 Subroutine PRICEL returns:
 Original cell was already a primitive cell.

 Routine SETGRP: Setting up the symmetry group for a
 hexagonal supercell.

 Subroutine GETGRP returns: Found  6 space group operations
 (whereof  6 operations were pure point group operations)
 out of a pool of 24 trial point group operations.

The static configuration has the point symmetry C_3v.

Analysis of symmetry for dynamics (positions and initial velocities):
 Subroutine PRICEL returns:
 Original cell was already a primitive cell.

[...]

The dynamic configuration has the point symmetry C_3v.

Analysis of constrained symmetry for selective dynamics:
 Subroutine PRICEL returns:
 Original cell was already a primitive cell.

 Routine SETGRP: Setting up the symmetry group for a
 hexagonal supercell.

 Subroutine GETGRP returns: Found  6 space group operations
[...]
     24      -5.1223      2.00000
     25      -5.0907      2.00000
     26      -5.0854      2.00000
     27      -5.0423      2.00000
     28      -4.9661      2.00000
     29      -4.9368      2.00000
     30      -4.8219      2.00000
     31      -4.8175      2.00000
     32      -4.8056      2.00000
     33      -4.7862      2.00000
     34      -4.7721      2.00000
     35      -4.6997      2.00000
     36      -4.6511      2.00000
     37      -4.6214      2.00000
     38      -4.6095      2.00000
     39      -4.5726      2.00000
     40      -4.5289      2.00000
     41      -4.4798      2.00000
     42      -4.4397      2.00000
     43      -4.4173      2.00000
     44      -4.3647      2.00000
     45      -4.3526      2.00000
     46      -4.3092      2.00000
     47      -4.2579      2.00000
     48      -4.2430      2.00000
     49      -4.2051      2.00000
     50      -4.1841      2.00000
     51      -4.1650      2.00000
     52      -4.1363      2.00000
     53      -4.1335      2.00000
     54      -4.1174      2.00000
     55      -4.1061      2.00000
     56      -4.0613      2.00000
     57      -4.0357      2.00000
     58      -4.0072      2.00000
     59      -3.9952      2.00000
     60      -3.9911      2.00000
[...]
    238       6.4477      0.00000
    239       6.4682      0.00000
    240       6.4872      0.00000
    241       6.5502      0.00000
    242       6.7587      0.00000
    243       6.7957      0.00000
    244       6.8098      0.00000
    245       6.8285      0.00000
    246       7.1266      0.00000
    247       7.1542      0.00000
    248       7.2879      0.00000
    249       7.4578      0.00000
    250       7.6265      0.00000
    251       7.7368      0.00000
    252       7.7885      0.00000

 soft charge-density along one line, spin component           1
         0         1         2         3         4         5         6         7         8         9
 total charge-density along one line

------------------------ aborting loop because EDIFF is reached ----------------------------------------

 total charge

# of ion       s       p       d       tot
    1        0.547   0.238   8.767   9.552
    2        0.543   0.241   8.764   9.549
    3        0.543   0.241   8.764   9.549
    4        0.543   0.241   8.764   9.549
    5        0.545   0.241   8.763   9.549
    6        0.543   0.241   8.764   9.549
    7        0.543   0.241   8.764   9.549
    8        0.543   0.241   8.764   9.549
    9        0.542   0.241   8.765   9.548
   10        0.521   0.308   8.771   9.600
   11        0.518   0.311   8.776   9.605
   12        0.521   0.308   8.771   9.600
   13        0.518   0.311   8.776   9.605
   14        0.518   0.311   8.776   9.605
   15        0.515   0.310   8.773   9.598
   16        0.521   0.308   8.771   9.600
   17        0.515   0.310   8.773   9.598
   18        0.515   0.310   8.773   9.598
   19        0.517   0.299   8.776   9.592
   20        0.551   0.335   8.746   9.631
   21        0.551   0.335   8.746   9.631
   22        0.510   0.311   8.774   9.595
   23        0.551   0.335   8.746   9.631
   24        0.510   0.311   8.774   9.595
   25        0.517   0.299   8.776   9.592
   26        0.517   0.299   8.776   9.592
   27        0.510   0.311   8.774   9.595
   28        0.541   0.222   8.768   9.531
   29        0.545   0.237   8.767   9.550
   30        0.545   0.237   8.767   9.550
   31        0.545   0.237   8.767   9.550
   32        0.545   0.237   8.767   9.550
   33        0.545   0.237   8.767   9.550
   34        0.545   0.237   8.767   9.550
   35        0.536   0.222   8.769   9.527
   36        0.351   0.427   5.135   5.914
   37        1.617   3.242   0.000   4.859
tot         20.604  13.330 312.003 345.937

  FORCE on cell =-STRESS in cart. coord.  units (eV):
  Direction    XX          YY          ZZ          XY          YZ          ZX
  Alpha Z  1015.06763  1015.06763  1015.06763
  Ewald  119523.51352119523.51396************    -0.00031    -0.00008    -0.00012
  Hartree128266.18273128266.18274************     0.00001    -0.00002    -0.00003
  E(xc)   -1789.74081 -1789.74080 -1796.27194    -0.00001     0.00000     0.00001
  Local  ************************260193.16035     0.00199     0.00002    -0.00001
  n-local  -125.45191   -77.81236   -74.20895    23.60079    -1.51417     1.63143
  augment  2404.01286  2404.01439  2411.30674    -0.00132     0.00001     0.00006
  Kinetic  5547.40833  5556.52248  5578.78065     5.41611     0.16107     0.32035
  Fock        0.00000     0.00000     0.00000     0.00000     0.00000     0.00000
  Total     -20.85635   -20.85635     0.61613    -0.00000     0.00000    -0.00000
  in kB     -22.37905   -22.37904     0.66111    -0.00000     0.00000    -0.00000

 VOLUME and BASIS-vectors are now :
  energy-cutoff  :      500.00
  volume of cell :     1493.16
      direct lattice vectors                 reciprocal lattice vectors
     8.813512802  0.000000000  0.000000000     0.113462137 -0.065507406  0.000000000
     4.406756909  7.632725690  0.000000000     0.000000000  0.131014796  0.000000000
     0.000000000  0.000000000 22.196203232     0.000000000  0.000000000  0.045052750

  length of vectors
     8.813512802  8.813512802 22.196203232     0.131014796  0.131014796  0.045052750

 FORCES acting on ions
    electron-ion (+dipol)            ewald-force                    non-local-force                 convergence-correction
   -.194E-04 -.161E-04 0.249E+04   0.519E-04 0.434E-04 -.249E+04   -.429E-17 0.414E-17 -.683E+00   -.296E-03 -.185E-03 -.266E+00
   0.566E+00 0.311E+00 0.249E+04   -.644E+00 -.348E+00 -.249E+04   0.174E-01 0.677E-01 -.333E+00   0.614E-01 -.256E-01 -.275E+00
   -.566E+00 0.311E+00 0.249E+04   0.644E+00 -.348E+00 -.249E+04   -.174E-01 0.677E-01 -.333E+00   -.611E-01 -.236E-01 -.274E+00
   0.552E+00 0.334E+00 0.249E+04   -.623E+00 -.384E+00 -.249E+04   0.674E-01 -.188E-01 -.333E+00   0.864E-02 0.659E-01 -.275E+00
   0.959E-05 -.227E-04 0.249E+04   0.951E-04 0.174E-05 -.249E+04   0.110E-17 0.245E-18 -.251E+00   0.432E-02 0.263E-02 -.257E+00
   -.552E+00 0.334E+00 0.249E+04   0.623E+00 -.384E+00 -.249E+04   -.674E-01 -.188E-01 -.333E+00   -.102E-01 0.668E-01 -.274E+00
   -.135E-01 -.645E+00 0.249E+04   0.210E-01 0.732E+00 -.249E+04   0.499E-01 -.489E-01 -.333E+00   -.509E-01 -.411E-01 -.274E+00
   0.135E-01 -.646E+00 0.249E+04   -.211E-01 0.732E+00 -.249E+04   -.499E-01 -.489E-01 -.333E+00   0.527E-01 -.422E-01 -.274E+00
   0.196E-04 -.416E-04 0.249E+04   0.166E-03 -.201E-04 -.249E+04   -.181E-17 0.145E-17 -.460E+00   -.456E-02 -.236E-02 -.230E+00
   0.469E+01 0.271E+01 0.839E+03   -.449E+01 -.259E+01 -.838E+03   -.270E+00 -.156E+00 -.538E+00   0.750E-01 0.432E-01 0.431E-01
   0.149E-04 0.535E+01 0.847E+03   0.147E-03 -.543E+01 -.847E+03   0.492E-08 0.739E-01 -.320E+00   0.436E-02 -.396E-01 0.163E+00
   -.469E+01 0.271E+01 0.839E+03   0.449E+01 -.259E+01 -.838E+03   0.270E+00 -.156E+00 -.538E+00   -.768E-01 0.444E-01 0.438E-01
   0.464E+01 -.268E+01 0.847E+03   -.470E+01 0.272E+01 -.847E+03   0.640E-01 -.369E-01 -.320E+00   -.318E-01 0.238E-01 0.163E+00
   -.464E+01 -.268E+01 0.847E+03   0.470E+01 0.272E+01 -.847E+03   -.640E-01 -.369E-01 -.320E+00   0.395E-01 0.227E-01 0.162E+00
   0.309E-04 0.370E+01 0.842E+03   0.236E-03 -.386E+01 -.842E+03   0.407E-09 0.611E-02 -.472E+00   -.249E-02 0.104E+00 0.524E-01
   -.213E-04 -.541E+01 0.839E+03   0.163E-03 0.518E+01 -.838E+03   0.208E-07 0.312E+00 -.538E+00   -.178E-03 -.887E-01 0.438E-01
   0.320E+01 -.185E+01 0.842E+03   -.334E+01 0.193E+01 -.842E+03   0.529E-02 -.306E-02 -.472E+00   0.895E-01 -.540E-01 0.524E-01
   -.320E+01 -.185E+01 0.842E+03   0.334E+01 0.193E+01 -.842E+03   -.529E-02 -.306E-02 -.472E+00   -.889E-01 -.516E-01 0.537E-01
   -.412E-04 0.202E+01 -.842E+03   0.541E-04 -.233E+01 0.841E+03   0.423E-08 0.635E-01 0.679E+00   -.464E-02 0.210E+00 0.361E+00
   0.229E+02 0.132E+02 -.800E+03   -.223E+02 -.128E+02 0.800E+03   -.104E+01 -.600E+00 -.731E+00   0.400E+00 0.231E+00 0.818E+00
   -.229E+02 0.132E+02 -.800E+03   0.223E+02 -.128E+02 0.800E+03   0.104E+01 -.600E+00 -.731E+00   -.398E+00 0.231E+00 0.818E+00
   0.330E+01 -.191E+01 -.826E+03   -.374E+01 0.216E+01 0.825E+03   0.377E+00 -.217E+00 0.640E+00   0.978E-01 -.546E-01 0.370E+00
   -.928E-05 -.264E+02 -.800E+03   0.141E-03 0.257E+02 0.800E+03   0.799E-07 0.120E+01 -.731E+00   0.446E-03 -.460E+00 0.818E+00
   -.330E+01 -.191E+01 -.826E+03   0.374E+01 0.216E+01 0.825E+03   -.377E+00 -.217E+00 0.640E+00   -.978E-01 -.564E-01 0.370E+00
   -.175E+01 -.101E+01 -.842E+03   0.202E+01 0.117E+01 0.841E+03   -.550E-01 -.318E-01 0.679E+00   -.187E+00 -.108E+00 0.360E+00
   0.175E+01 -.101E+01 -.842E+03   -.202E+01 0.117E+01 0.841E+03   0.550E-01 -.318E-01 0.679E+00   0.180E+00 -.109E+00 0.361E+00
   0.118E-04 0.381E+01 -.826E+03   0.196E-03 -.431E+01 0.825E+03   0.290E-07 0.435E+00 0.640E+00   0.106E-02 0.112E+00 0.370E+00
   -.130E-04 -.134E-04 -.247E+04   0.300E-04 0.343E-04 0.247E+04   -.401E-18 0.845E-18 0.581E+00   -.375E-03 -.234E-03 0.511E+00
   0.345E+02 0.566E+02 -.244E+04   -.346E+02 -.568E+02 0.244E+04   -.488E+00 -.640E+00 0.666E+00   0.334E+00 0.489E+00 0.387E+00
   -.345E+02 0.566E+02 -.244E+04   0.346E+02 -.568E+02 0.244E+04   0.488E+00 -.640E+00 0.666E+00   -.333E+00 0.491E+00 0.387E+00
   0.663E+02 0.161E+01 -.244E+04   -.665E+02 -.153E+01 0.244E+04   -.798E+00 -.102E+00 0.666E+00   0.591E+00 0.447E-01 0.387E+00
   -.663E+02 0.161E+01 -.244E+04   0.665E+02 -.153E+01 0.244E+04   0.798E+00 -.102E+00 0.666E+00   -.592E+00 0.451E-01 0.387E+00
   0.318E+02 -.582E+02 -.244E+04   -.319E+02 0.584E+02 0.244E+04   -.310E+00 0.743E+00 0.666E+00   0.258E+00 -.534E+00 0.386E+00
   -.318E+02 -.582E+02 -.244E+04   0.319E+02 0.584E+02 0.244E+04   0.310E+00 0.743E+00 0.666E+00   -.257E+00 -.535E+00 0.387E+00
   0.349E-04 -.285E-04 -.247E+04   0.141E-03 -.497E-04 0.247E+04   0.694E-17 -.719E-17 0.624E+00   -.428E-02 -.218E-02 0.368E+00
   -.255E-04 -.169E-04 -.128E+04   0.740E-04 0.688E-05 0.128E+04   0.919E-19 0.176E-18 0.785E+00   0.332E-02 0.202E-02 0.383E+00
   0.183E-03 -.954E-04 -.167E+04   0.289E-04 0.184E-05 0.170E+04   0.132E-17 0.179E-17 -.292E+02   0.369E-02 0.225E-02 -.898E+00
   -.593E-03 -.873E-03 0.235E+02   -.141E-14 0.207E-12 -.364E-11   -.158E-15 -.116E-15 -.289E+02   0.431E-02 0.324E-02 0.571E+01

 POSITION                                       TOTAL-FORCE (eV/Angst)
      0.00000      0.00000      5.28038         0.000000      0.000000     -0.128894
      2.93784      0.00000      5.28038         0.000758      0.006594     -0.048275
      5.87568      0.00000      5.28038        -0.000758      0.006594     -0.048275
      1.46892      2.54424      5.28038         0.006089     -0.002641     -0.048275
      4.40676      2.54424      5.28038         0.000000      0.000000     -0.082471
      7.34459      2.54424      5.28038        -0.006089     -0.002641     -0.048275
      2.93784      5.08848      5.28038         0.005331     -0.003953     -0.048275
      5.87568      5.08848      5.28038        -0.005331     -0.003953     -0.048275
      8.81351      5.08848      5.28038         0.000000      0.000000     -0.073234
      1.46892      0.84808      7.67911         0.003676      0.002122      0.130678
      4.40676      0.84808      7.67911        -0.000000     -0.047013      0.046319
      7.34459      0.84808      7.67911        -0.003676      0.002122      0.130678
      2.93784      3.39232      7.67911        -0.040715      0.023507      0.046319
      5.87568      3.39232      7.67911         0.040715      0.023507      0.046319
      8.81351      3.39232      7.67911        -0.000000     -0.047452      0.100223
      4.40676      5.93656      7.67911        -0.000000     -0.004244      0.130678
      7.34459      5.93656      7.67911        -0.041095      0.023726      0.100223
     10.28243      5.93656      7.67911         0.041095      0.023726      0.100223
      8.81351      1.69603     10.07479        -0.000000     -0.032186     -0.000490
      2.95306      1.70495     10.04990        -0.042510     -0.024543     -0.033019
      5.86045      1.70495     10.04990         0.042510     -0.024543     -0.033019
     10.26640      4.24966     10.05812         0.039773     -0.022963      0.017776
      4.40676      4.22282     10.04990         0.000000      0.049087     -0.033019
      7.36062      4.24966     10.05812        -0.039773     -0.022963      0.017776
     11.75147      6.78471     10.07479         0.027874      0.016093     -0.000490
      5.87556      6.78471     10.07479        -0.027874      0.016093     -0.000490
      8.81351      6.76613     10.05812         0.000000      0.045926      0.017776
      0.00000      0.00000     12.48774         0.000000      0.000000     -0.033347
      2.98478      0.07843     12.47445        -0.199925     -0.379442     -0.227720
      5.82873      0.07843     12.47445         0.199925     -0.379442     -0.227720
      1.56032      2.54568     12.47445        -0.428569      0.016581     -0.227720
      7.25320      2.54568     12.47445         0.428569      0.016581     -0.227720
      2.98229      5.00861     12.47445        -0.228644      0.362861     -0.227720
      5.83122      5.00861     12.47445         0.228644      0.362861     -0.227720
      8.81351      5.08848     12.49541         0.000000      0.000000      0.015571
      4.40676      2.54424     12.16834         0.000000      0.000000      1.248099
      4.40676      2.54424     13.76209         0.000000      0.000000     -0.074218
    total drift:                                0.003722      0.002371      0.347281

  FREE ENERGIE OF THE ION-ELECTRON SYSTEM (eV)
  free  energy   TOTEN  =      -120.63835627 eV

  energy  without entropy=     -120.63835627  energy(sigma->0) =     -120.63835627

 stress matrix after NEB project (eV)
    -20.85635     -0.00000     -0.00000
     -0.00000    -20.85635      0.00000
      0.00000      0.00000      0.61613
  FORCES: max atom, RMS     0.074218    0.012201
  FORCE total and by dimension    0.074218    0.074218
  Stress total and by dimension   29.501771   20.856353
|           W    W    AA    RRRRR   N    N  II  N    N   GGGG   !!!           |
|           W    W   A  A   R    R  NN   N  II  NN   N  G    G  !!!           |
|           W    W  A    A  R    R  N N  N  II  N N  N  G       !!!           |
|           W WW W  AAAAAA  RRRRR   N  N N  II  N  N N  G  GGG   !            |
|           WW  WW  A    A  R   R   N   NN  II  N   NN  G    G                |
|           W    W  A    A  R    R  N    N  II  N    N   GGGG   !!!           |
|     Tetrahedron method does not include variations of the Fermi             |
|     occupations, so forces and stress will be inaccurate. We suggest        |
|     using a different smearing scheme ISMEAR = 1 or 2 for metals in         |
|     relaxations.                                                            |

 total charge

# of ion       s       p       d       tot
    1        0.547   0.238   8.767   9.552
    2        0.543   0.241   8.764   9.549
    3        0.543   0.241   8.764   9.549
    4        0.543   0.241   8.764   9.549
    5        0.545   0.241   8.763   9.549
    6        0.543   0.241   8.764   9.549
    7        0.543   0.241   8.764   9.549
    8        0.543   0.241   8.764   9.549
    9        0.542   0.241   8.765   9.548
   10        0.521   0.308   8.771   9.600
   11        0.518   0.311   8.776   9.605
   12        0.521   0.308   8.771   9.600
   13        0.518   0.311   8.776   9.605
   14        0.518   0.311   8.776   9.605
   15        0.515   0.310   8.773   9.598
   16        0.521   0.308   8.771   9.600
   17        0.515   0.310   8.773   9.598
   18        0.515   0.310   8.773   9.598
   19        0.517   0.299   8.776   9.592
   20        0.551   0.335   8.746   9.631
   21        0.551   0.335   8.746   9.631
   22        0.510   0.311   8.774   9.595
   23        0.551   0.335   8.746   9.631
   24        0.510   0.311   8.774   9.595
   25        0.517   0.299   8.776   9.592
   26        0.517   0.299   8.776   9.592
   27        0.510   0.311   8.774   9.595
   28        0.541   0.222   8.768   9.531
   29        0.545   0.237   8.767   9.550
   30        0.545   0.237   8.767   9.550
   31        0.545   0.237   8.767   9.550
   32        0.545   0.237   8.767   9.550
   33        0.545   0.237   8.767   9.550
   34        0.545   0.237   8.767   9.550
   35        0.536   0.222   8.769   9.527
   36        0.351   0.427   5.135   5.914
   37        1.617   3.242   0.000   4.859
tot         20.604  13.330 312.003 345.937

 BZINTS: Fermi energy:    0.653201;  398.000000 electrons
         Band energy:-0.124617E+04;  BLOECHL correction:   -0.056109