 vasp.6.2.0 18Jan21 (build Jun 12 2021 23:27:24) complex

 executed on             LinuxIFC date 2022.05.26  19:33:21

 INCAR:
   ISMEAR = -5
   SIGMA = 0.1
   ISPIN = 1
   EDIFF = 1.d-5
   EDIFFG = -0.01
   NSW = 0
   NELM = 150
   ENCUT = 500
   ISIF = 2
   IBRION = 2
   LREAL = Auto
   ALGO = Fast
   ICHARG = 11
   LORBIT = 10
   LCHARG = .F.
   LWAVE = .F.

 POTCAR:    PAW_PBE Au 04Oct2007
 POTCAR:    PAW_PBE Re 17Jan2003
 POTCAR:    PAW_PBE O 08Apr2002
|           W    W    AA    RRRRR   N    N  II  N    N   GGGG   !!!           |
|           W    W   A  A   R    R  NN   N  II  NN   N  G    G  !!!           |
|           W    W  A    A  R    R  N N  N  II  N N  N  G       !!!           |
|           W WW W  AAAAAA  RRRRR   N  N N  II  N  N N  G  GGG   !            |
|           WW  WW  A    A  R   R   N   NN  II  N   NN  G    G                |
|           W    W  A    A  R    R  N    N  II  N    N   GGGG   !!!           |
|     For optimal performance we recommend to set                             |
|       NCORE = 2 up to number-of-cores-per-socket                            |
|     This setting can greatly improve the performance of VASP for DFT.       |
|     The default, NCORE=1 might be grossly inefficient on modern             |
|     multi-core architectures or massively parallel machines. Do your        |
|     Unfortunately you need to use the default for GW and RPA                |
|     calculations (for HF NCORE is supported but not extensively tested      |
|     yet).                                                                   |

 POTCAR:    PAW_PBE Au 04Oct2007
   VRHFIN =Au: s1d10

   TITEL  = PAW_PBE Au 04Oct2007
   POMASS =  196.966; ZVAL   =   11.000    mass and valenz
   ENMAX  =  229.943; ENMIN  =  172.457 eV

 POTCAR:    PAW_PBE Re 17Jan2003
   VRHFIN =Re: 5p6s5d

   TITEL  = PAW_PBE Re 17Jan2003
   POMASS =  186.207; ZVAL   =    7.000    mass and valenz
   ENMAX  =  226.216; ENMIN  =  169.662 eV

 POTCAR:    PAW_PBE O 08Apr2002
   VRHFIN =O: s2p4

   TITEL  = PAW_PBE O 08Apr2002
   POMASS =   16.000; ZVAL   =    6.000    mass and valenz
   ENMAX  =  400.000; ENMIN  =  300.000 eV

 Optimization of the real space projectors (new method)

 maximal supplied QI-value         = 15.12
 optimisation between [QCUT,QGAM] = [ 11.34, 22.83] = [ 36.00,145.93] Ry
 Optimized for a Real-space Cutoff    1.39 Angstroem

   l    n(q)    QCUT    max X(q) W(low)/X(q) W(high)/X(q)  e(spline)
   2      9    11.338    60.898    0.39E-03    0.42E-03    0.21E-06
   2      9    11.338    58.894    0.40E-03    0.42E-03    0.22E-06
   0      9    11.338   109.617    0.13E-03    0.20E-04    0.13E-06
   0      9    11.338    75.026    0.13E-03    0.20E-04    0.13E-06
   1      9    11.338    16.344    0.33E-04    0.24E-03    0.18E-06
   1      9    11.338    10.160    0.26E-04    0.19E-03    0.15E-06
 Optimization of the real space projectors (new method)

[...]

   l    n(q)    QCUT    max X(q) W(low)/X(q) W(high)/X(q)  e(spline)
   2     10    11.327   884.633    0.22E-03    0.51E-03    0.88E-06
   2     10    11.327   796.723    0.22E-03    0.51E-03    0.88E-06
   0     11    11.327    65.348    0.44E-04    0.11E-03    0.75E-06
   0     11    11.327    39.642    0.40E-04    0.10E-03    0.69E-06
   1     10    11.327    13.988    0.15E-03    0.10E-03    0.19E-06
   1     10    11.327     8.682    0.11E-03    0.76E-04    0.14E-06
 Optimization of the real space projectors (new method)

 maximal supplied QI-value         = 24.76
 optimisation between [QCUT,QGAM] = [ 11.39, 22.77] = [ 36.31,145.25] Ry
 Optimized for a Real-space Cutoff    1.00 Angstroem

   l    n(q)    QCUT    max X(q) W(low)/X(q) W(high)/X(q)  e(spline)
   0      7    11.387    20.381    0.39E-03    0.13E-02    0.15E-06
   0      7    11.387    15.268    0.42E-03    0.14E-02    0.17E-06
   1      6    11.387     5.964    0.41E-03    0.11E-02    0.17E-06
   1      6    11.387     5.382    0.39E-03    0.87E-03    0.15E-06
  PAW_PBE Au 04Oct2007                  :
  PAW_PBE Re 17Jan2003                  :
  PAW_PBE O 08Apr2002                   :

 POSCAR: Au-Re-O
  positions in direct lattice
  velocities in cartesian coordinates
 exchange correlation table for  LEXCH =        8
   RHO(1)=    0.500       N(1)  =     2000
   RHO(2)=  100.500       N(2)  =     4000

 VTST: version 3.2, (02/03/18)

 CHAIN: initializing optimizer

 OPT: Using VASP Conjugate-Gradient optimizer
 CHAIN: Read ICHAIN            0

 POSCAR: Au-Re-O
  positions in direct lattice
  velocities in cartesian coordinates

 ion  position               nearest neighbor table
   1  0.000  0.000  0.238-  16 2.94  12 2.94   6 2.94   8 2.94   7 2.94   3 2.94  10 2.94   4 2.94
                             2 2.94
   2  0.333  0.000  0.238-   9 2.94  11 2.94  17 2.94  10 2.94   8 2.94   4 2.94   5 2.94   1 2.94
                             3 2.94
   3  0.667  0.000  0.238-   7 2.94  18 2.94  12 2.94   1 2.94  11 2.94   5 2.94   6 2.94   9 2.94
                             2 2.94
   4  0.000  0.333  0.238-  10 2.94   6 2.94   5 2.94  13 2.94   2 2.94  15 2.94   9 2.94   1 2.94
                             7 2.94
   5  0.333  0.333  0.238-  13 2.94   7 2.94  11 2.94   4 2.94   2 2.94  14 2.94   3 2.94   8 2.94
                             6 2.94
   6  0.667  0.333  0.238-  15 2.94  14 2.94   1 2.94  12 2.94   4 2.94   9 2.94   8 2.94   3 2.94
                             5 2.94
   7  0.000  0.667  0.238-  18 2.94   3 2.94  16 2.94   5 2.94   1 2.94  13 2.94   8 2.94   4 2.94
                             9 2.94
   8  0.333  0.667  0.238-   9 2.94  17 2.94   1 2.94   2 2.94  14 2.94  16 2.94   6 2.94   7 2.94
                             5 2.94
   9  0.667  0.667  0.238-   2 2.94   8 2.94  17 2.94   6 2.94  15 2.94   4 2.94   3 2.94  18 2.94
                             7 2.94
  10  0.111  0.111  0.346-  20 2.90  11 2.94  17 2.94   2 2.94   4 2.94   1 2.94  12 2.94  16 2.94
                            13 2.94  15 2.94  26 2.96  19 2.96
  11  0.444  0.111  0.346-  20 2.91  21 2.91  13 2.94   2 2.94  10 2.94  17 2.94   5 2.94   3 2.94
                            18 2.94  14 2.94  12 2.94  27 2.94
  12  0.778  0.111  0.346-  21 2.90  16 2.94  18 2.94   1 2.94  14 2.94  15 2.94   3 2.94   6 2.94
                            10 2.94  11 2.94  25 2.96  19 2.96
  13  0.111  0.444  0.346-  23 2.91  20 2.91   5 2.94  18 2.94  11 2.94   7 2.94   4 2.94  16 2.94
                            10 2.94  14 2.94  15 2.94  22 2.94
  14  0.444  0.444  0.346-  21 2.91  23 2.91  15 2.94   6 2.94  12 2.94   8 2.94  17 2.94   5 2.94
                            16 2.94  13 2.94  11 2.94  24 2.94
  15  0.778  0.444  0.346-  24 2.92  22 2.92  14 2.94   6 2.94  17 2.94  12 2.94   9 2.94   4 2.94
                            10 2.94  13 2.94  18 2.94  19 2.95
  16  0.111  0.778  0.346-  23 2.90  18 2.94  12 2.94   7 2.94   1 2.94   8 2.94  13 2.94  10 2.94
                            14 2.94  17 2.94  25 2.96  26 2.96
  17  0.444  0.778  0.346-  27 2.92  24 2.92   9 2.94  15 2.94   2 2.94  10 2.94  11 2.94   8 2.94
                            14 2.94  16 2.94  18 2.94  26 2.95
  18  0.778  0.778  0.346-  22 2.92  27 2.92  16 2.94   7 2.94  13 2.94  12 2.94   3 2.94  11 2.94
                             9 2.94  15 2.94  17 2.94  25 2.95
  19  0.888  0.224  0.455-  24 2.93  22 2.93  21 2.93  20 2.93  28 2.94  15 2.95  26 2.96  25 2.96
                            10 2.96  12 2.96  32 3.02  31 3.02
  20  0.222  0.222  0.452-  36 2.75  10 2.90  11 2.91  13 2.91  26 2.93  19 2.93  23 2.95  21 2.95
                            27 2.96  22 2.96  29 2.97  31 2.97
  21  0.556  0.222  0.452-  36 2.75  12 2.90  14 2.91  11 2.91  25 2.93  19 2.93  20 2.95  23 2.95
                            27 2.96  24 2.96  30 2.97  32 2.97
  22  0.886  0.557  0.454-  24 2.90  27 2.90  18 2.92  15 2.92  25 2.93  19 2.93  13 2.94  35 2.95
                            23 2.96  20 2.96  33 3.00  31 3.00
  23  0.222  0.556  0.452-  36 2.75  16 2.90  13 2.91  14 2.91  25 2.93  26 2.93  20 2.95  21 2.95
                            22 2.96  24 2.96  33 2.97  34 2.97
  24  0.557  0.557  0.454-  27 2.90  22 2.90  15 2.92  17 2.92  26 2.93  19 2.93  14 2.94  35 2.95
                            21 2.96  23 2.96  32 3.00  34 3.00
  25  0.888  0.888  0.455-  22 2.93  27 2.93  23 2.93  21 2.93  28 2.94  18 2.95  19 2.96  26 2.96
                            16 2.96  12 2.96  33 3.02  30 3.02
  26  0.224  0.888  0.455-  27 2.93  24 2.93  20 2.93  23 2.93  28 2.94  17 2.95  19 2.96  25 2.96
                            10 2.96  16 2.96  29 3.02  34 3.02
  27  0.557  0.886  0.454-  24 2.90  22 2.90  17 2.92  18 2.92  26 2.93  25 2.93  11 2.94  35 2.95
                            20 2.96  21 2.96  29 3.00  30 3.00
  28  0.000  0.000  0.563-  25 2.94  19 2.94  26 2.94  34 2.99  32 2.99  33 2.99  30 2.99  31 2.99
                            29 2.99
  29  0.333  0.011  0.565-  30 2.84  31 2.84  36 2.86  20 2.97  35 2.99  28 2.99  27 3.00  26 3.02
                            34 3.14
  30  0.655  0.011  0.565-  29 2.84  32 2.84  36 2.86  21 2.97  35 2.99  28 2.99  27 3.00  25 3.02
                            33 3.14
  31  0.011  0.333  0.565-  33 2.84  29 2.84  36 2.86  20 2.97  35 2.99  28 2.99  22 3.00  19 3.02
                            32 3.14
  32  0.655  0.333  0.565-  34 2.84  30 2.84  36 2.86  21 2.97  35 2.99  28 2.99  24 3.00  19 3.02
                            31 3.14
  33  0.011  0.655  0.565-  31 2.84  34 2.84  36 2.86  23 2.97  35 2.99  28 2.99  22 3.00  25 3.02
                            30 3.14
  34  0.333  0.655  0.565-  32 2.84  33 2.84  36 2.86  23 2.97  35 2.99  28 2.99  24 3.00  26 3.02
                            29 3.14
  35  0.667  0.667  0.563-  24 2.95  27 2.95  22 2.95  29 2.99  34 2.99  32 2.99  31 2.99  30 2.99
                            33 2.99
  36  0.333  0.333  0.550-  37 1.72  20 2.75  23 2.75  21 2.75  33 2.86  31 2.86  29 2.86  30 2.86
                            34 2.86  32 2.86
  37  0.333  0.333  0.627-  36 1.72

  LATTYP: Found a hexagonal cell.
 ALAT       =     8.8135128021
 C/A-ratio  =     2.5184286595

  Lattice vectors:

 A1 = (  -4.4067569092,  -7.6327256898,   0.0000000000)
 A2 = (   8.8135128021,   0.0000000000,   0.0000000000)
 A3 = (   0.0000000000,   0.0000000000,  22.1962032318)

Analysis of symmetry for initial positions (statically):
 Subroutine PRICEL returns:
 Original cell was already a primitive cell.

 Routine SETGRP: Setting up the symmetry group for a
 hexagonal supercell.

 Subroutine GETGRP returns: Found  6 space group operations
 (whereof  6 operations were pure point group operations)
 out of a pool of 24 trial point group operations.

The static configuration has the point symmetry C_3v.

Analysis of symmetry for dynamics (positions and initial velocities):
 Subroutine PRICEL returns:
 Original cell was already a primitive cell.

[...]

The dynamic configuration has the point symmetry C_3v.

Analysis of constrained symmetry for selective dynamics:
 Subroutine PRICEL returns:
 Original cell was already a primitive cell.

 Routine SETGRP: Setting up the symmetry group for a
 hexagonal supercell.

 Subroutine GETGRP returns: Found  6 space group operations
[...]
     24      -5.1052      2.00000
     25      -5.0706      2.00000
     26      -5.0555      2.00000
     27      -5.0296      2.00000
     28      -4.9637      2.00000
     29      -4.9389      2.00000
     30      -4.8642      2.00000
     31      -4.8554      2.00000
     32      -4.8298      2.00000
     33      -4.8031      2.00000
     34      -4.7703      2.00000
     35      -4.7151      2.00000
     36      -4.7107      2.00000
     37      -4.7015      2.00000
     38      -4.6597      2.00000
     39      -4.6315      2.00000
     40      -4.6083      2.00000
     41      -4.5080      2.00000
     42      -4.4792      2.00000
     43      -4.4263      2.00000
     44      -4.3887      2.00000
     45      -4.3167      2.00000
     46      -4.2763      2.00000
     47      -4.2525      2.00000
     48      -4.2374      2.00000
     49      -4.2012      2.00000
     50      -4.1676      2.00000
     51      -4.1515      2.00000
     52      -4.1413      2.00000
     53      -4.1209      2.00000
     54      -4.0845      2.00000
     55      -4.0606      2.00000
     56      -4.0444      2.00000
     57      -4.0127      2.00000
     58      -4.0030      2.00000
     59      -3.9688      2.00000
     60      -3.9665      2.00000
[...]
    238       6.5218      0.00000
    239       6.5373      0.00000
    240       6.5779      0.00000
    241       6.7648      0.00000
    242       6.7688      0.00000
    243       6.8072      0.00000
    244       6.8717      0.00000
    245       6.9360      0.00000
    246       7.2080      0.00000
    247       7.2188      0.00000
    248       7.3335      0.00000
    249       7.6122      0.00000
    250       7.6706      0.00000
    251       7.7473      0.00000
    252       7.8388      0.00000

 soft charge-density along one line, spin component           1
         0         1         2         3         4         5         6         7         8         9
 total charge-density along one line

------------------------ aborting loop because EDIFF is reached ----------------------------------------

 total charge

# of ion       s       p       d       tot
    1        0.549   0.237   8.767   9.553
    2        0.542   0.241   8.765   9.549
    3        0.542   0.241   8.765   9.549
    4        0.542   0.241   8.765   9.549
    5        0.546   0.241   8.763   9.550
    6        0.542   0.241   8.765   9.549
    7        0.542   0.241   8.765   9.549
    8        0.542   0.241   8.765   9.549
    9        0.542   0.241   8.766   9.549
   10        0.523   0.306   8.771   9.600
   11        0.519   0.311   8.778   9.608
   12        0.523   0.306   8.771   9.600
   13        0.519   0.311   8.778   9.608
   14        0.519   0.311   8.778   9.608
   15        0.514   0.309   8.773   9.596
   16        0.523   0.306   8.771   9.600
   17        0.514   0.309   8.773   9.596
   18        0.514   0.309   8.773   9.596
   19        0.518   0.294   8.776   9.588
   20        0.566   0.344   8.732   9.642
   21        0.566   0.344   8.732   9.642
   22        0.508   0.308   8.775   9.591
   23        0.566   0.344   8.732   9.642
   24        0.508   0.308   8.775   9.591
   25        0.518   0.294   8.776   9.588
   26        0.518   0.294   8.776   9.588
   27        0.508   0.308   8.775   9.591
   28        0.542   0.225   8.761   9.528
   29        0.553   0.248   8.757   9.558
   30        0.553   0.248   8.757   9.558
   31        0.553   0.248   8.757   9.558
   32        0.553   0.248   8.757   9.558
   33        0.553   0.248   8.757   9.558
   34        0.553   0.248   8.757   9.558
   35        0.534   0.224   8.766   9.524
   36        0.590   0.597   4.734   5.921
   37        1.612   3.288   0.000   4.899
tot         20.928  13.604 311.507 346.039

  FORCE on cell =-STRESS in cart. coord.  units (eV):
  Direction    XX          YY          ZZ          XY          YZ          ZX
  Alpha Z  1030.10085  1030.10085  1030.10085
  Ewald  118217.15725118217.15768************    -0.00032    -0.00008    -0.00013
  Hartree126921.62501126921.62502************     0.00001    -0.00002    -0.00004
  E(xc)   -1789.38219 -1789.38219 -1796.31284     0.00000     0.00000     0.00001
  Local  ************************257541.88326     0.00196     0.00002     0.00001
  n-local  -118.98735   -69.29407   -60.31556    25.24590    -1.61627     1.49007
  augment  2381.16791  2381.16937  2394.30477    -0.00126     0.00002     0.00006
  Kinetic  5574.78555  5584.39569  5601.07309     5.94743     0.13797     0.27544
  Fock        0.00000     0.00000     0.00000     0.00000     0.00000     0.00000
  Total     -18.61573   -18.61573     1.14049    -0.00000    -0.00000     0.00000
  in kB     -19.97484   -19.97483     1.22375    -0.00000    -0.00000     0.00000

 VOLUME and BASIS-vectors are now :
  energy-cutoff  :      500.00
  volume of cell :     1493.16
      direct lattice vectors                 reciprocal lattice vectors
     8.813512802  0.000000000  0.000000000     0.113462137 -0.065507406  0.000000000
     4.406756909  7.632725690  0.000000000     0.000000000  0.131014796  0.000000000
     0.000000000  0.000000000 22.196203232     0.000000000  0.000000000  0.045052750

  length of vectors
     8.813512802  8.813512802 22.196203232     0.131014796  0.131014796  0.045052750

 FORCES acting on ions
    electron-ion (+dipol)            ewald-force                    non-local-force                 convergence-correction
   -.195E-04 -.161E-04 0.248E+04   0.520E-04 0.434E-04 -.248E+04   0.335E-17 0.192E-17 -.727E+00   -.160E-03 -.106E-03 -.241E+00
   0.790E+00 0.283E+00 0.248E+04   -.826E+00 -.372E+00 -.248E+04   0.115E-01 0.110E+00 -.323E+00   0.252E-01 -.186E-01 -.245E+00
   -.790E+00 0.283E+00 0.248E+04   0.826E+00 -.372E+00 -.248E+04   -.115E-01 0.110E+00 -.323E+00   -.249E-01 -.168E-01 -.244E+00
   0.640E+00 0.543E+00 0.248E+04   -.735E+00 -.529E+00 -.248E+04   0.101E+00 -.449E-01 -.323E+00   -.350E-02 0.311E-01 -.245E+00
   0.925E-05 -.230E-04 0.248E+04   0.951E-04 0.175E-05 -.248E+04   -.957E-18 0.390E-17 -.133E+00   0.419E-02 0.255E-02 -.274E+00
   -.640E+00 0.543E+00 0.248E+04   0.735E+00 -.529E+00 -.248E+04   -.101E+00 -.449E-01 -.323E+00   0.206E-02 0.320E-01 -.244E+00
   -.150E+00 -.825E+00 0.248E+04   0.910E-01 0.901E+00 -.248E+04   0.892E-01 -.648E-01 -.323E+00   -.269E-01 -.132E-01 -.244E+00
   0.150E+00 -.825E+00 0.248E+04   -.912E-01 0.901E+00 -.248E+04   -.892E-01 -.648E-01 -.323E+00   0.288E-01 -.142E-01 -.244E+00
   0.196E-04 -.416E-04 0.248E+04   0.166E-03 -.201E-04 -.248E+04   -.236E-17 -.174E-17 -.479E+00   -.457E-02 -.236E-02 -.204E+00
   0.824E+01 0.476E+01 0.830E+03   -.790E+01 -.456E+01 -.830E+03   -.390E+00 -.225E+00 -.521E+00   0.120E-01 0.683E-02 0.199E+00
   0.145E-04 0.496E+01 0.839E+03   0.148E-03 -.492E+01 -.839E+03   0.225E-08 0.338E-01 -.229E+00   0.354E-02 -.139E+00 0.287E+00
   -.824E+01 0.476E+01 0.830E+03   0.790E+01 -.456E+01 -.830E+03   0.390E+00 -.225E+00 -.521E+00   -.129E-01 0.750E-02 0.197E+00
   0.430E+01 -.248E+01 0.839E+03   -.426E+01 0.246E+01 -.839E+03   0.293E-01 -.169E-01 -.229E+00   -.119E+00 0.730E-01 0.287E+00
   -.430E+01 -.248E+01 0.839E+03   0.426E+01 0.246E+01 -.839E+03   -.293E-01 -.169E-01 -.229E+00   0.126E+00 0.724E-01 0.285E+00
   0.309E-04 0.509E+01 0.835E+03   0.236E-03 -.523E+01 -.835E+03   -.317E-09 -.477E-02 -.441E+00   -.171E-02 0.763E-01 0.200E+00
   -.212E-04 -.951E+01 0.830E+03   0.163E-03 0.912E+01 -.830E+03   0.300E-07 0.451E+00 -.521E+00   -.176E-03 -.149E-01 0.197E+00
   0.441E+01 -.255E+01 0.835E+03   -.453E+01 0.262E+01 -.835E+03   -.413E-02 0.238E-02 -.441E+00   0.655E-01 -.392E-01 0.200E+00
   -.441E+01 -.255E+01 0.835E+03   0.453E+01 0.262E+01 -.835E+03   0.413E-02 0.238E-02 -.441E+00   -.653E-01 -.379E-01 0.200E+00
   -.432E-04 0.414E+01 -.851E+03   0.542E-04 -.431E+01 0.850E+03   -.322E-08 -.483E-01 0.615E+00   0.509E-02 0.145E+00 0.642E+00
   0.110E+02 0.637E+01 -.800E+03   -.101E+02 -.585E+01 0.799E+03   -.112E+01 -.644E+00 -.923E+00   0.198E+00 0.114E+00 0.100E+01
   -.110E+02 0.637E+01 -.800E+03   0.101E+02 -.585E+01 0.799E+03   0.112E+01 -.644E+00 -.923E+00   -.206E+00 0.115E+00 0.100E+01
   -.450E+01 0.260E+01 -.830E+03   0.406E+01 -.234E+01 0.829E+03   0.487E+00 -.281E+00 0.710E+00   0.264E-01 -.164E-01 0.685E+00
   -.105E-04 -.127E+02 -.800E+03   0.140E-03 0.117E+02 0.799E+03   0.857E-07 0.129E+01 -.923E+00   -.368E-02 -.236E+00 0.100E+01
   0.450E+01 0.260E+01 -.830E+03   -.406E+01 -.234E+01 0.829E+03   -.487E+00 -.281E+00 0.710E+00   -.253E-01 -.146E-01 0.685E+00
   -.358E+01 -.207E+01 -.851E+03   0.373E+01 0.215E+01 0.850E+03   0.419E-01 0.242E-01 0.615E+00   -.121E+00 -.702E-01 0.641E+00
   0.358E+01 -.207E+01 -.851E+03   -.373E+01 0.215E+01 0.850E+03   -.419E-01 0.242E-01 0.615E+00   0.129E+00 -.682E-01 0.642E+00
   0.112E-04 -.520E+01 -.830E+03   0.197E-03 0.469E+01 0.829E+03   0.375E-07 0.563E+00 0.710E+00   -.154E-02 0.311E-01 0.685E+00
   -.139E-04 -.130E-04 -.244E+04   0.301E-04 0.340E-04 0.244E+04   0.434E-17 -.167E-18 0.522E+00   0.156E-02 0.884E-03 0.544E+00
   0.325E+02 0.555E+02 -.243E+04   -.323E+02 -.554E+02 0.243E+04   -.745E+00 -.994E+00 0.303E+00   0.232E+00 0.283E+00 0.381E+00
   -.325E+02 0.555E+02 -.243E+04   0.323E+02 -.554E+02 0.243E+04   0.745E+00 -.994E+00 0.303E+00   -.239E+00 0.284E+00 0.382E+00
   0.643E+02 0.385E+00 -.243E+04   -.641E+02 -.259E+00 0.243E+04   -.123E+01 -.148E+00 0.303E+00   0.361E+00 0.597E-01 0.381E+00
   -.643E+02 0.385E+00 -.243E+04   0.641E+02 -.259E+00 0.243E+04   0.123E+01 -.148E+00 0.303E+00   -.368E+00 0.610E-01 0.382E+00
   0.318E+02 -.559E+02 -.243E+04   -.318E+02 0.556E+02 0.243E+04   -.488E+00 0.114E+01 0.303E+00   0.127E+00 -.349E+00 0.382E+00
   -.318E+02 -.559E+02 -.243E+04   0.318E+02 0.556E+02 0.243E+04   0.488E+00 0.114E+01 0.303E+00   -.131E+00 -.349E+00 0.382E+00
   0.337E-04 -.287E-04 -.244E+04   0.140E-03 -.497E-04 0.244E+04   0.462E-17 -.708E-17 0.732E+00   -.324E-02 -.158E-02 0.418E+00
   -.737E-06 -.544E-05 -.129E+04   0.737E-04 0.671E-05 0.129E+04   -.252E-17 -.433E-18 0.114E+01   0.149E-02 0.899E-03 0.336E+00
   0.184E-03 -.987E-04 -.161E+04   0.262E-04 0.162E-05 0.165E+04   0.624E-18 -.287E-18 -.345E+02   0.377E-02 0.230E-02 -.580E+00
   -.592E-03 -.867E-03 0.267E+02   0.570E-14 -.227E-12 0.143E-10   -.497E-15 -.230E-15 -.360E+02   -.585E-02 -.269E-02 0.986E+01

 POSITION                                       TOTAL-FORCE (eV/Angst)
      0.00000      0.00000      5.28038        -0.000000     -0.000000     -0.155600
      2.93784      0.00000      5.28038         0.001221      0.002967     -0.052029
      5.87568      0.00000      5.28038        -0.001221      0.002967     -0.052029
      1.46892      2.54424      5.28038         0.003180     -0.000426     -0.052029
      4.40676      2.54424      5.28038        -0.000000     -0.000000     -0.069160
      7.34459      2.54424      5.28038        -0.003180     -0.000426     -0.052029
      2.93784      5.08848      5.28038         0.001959     -0.002541     -0.052029
      5.87568      5.08848      5.28038        -0.001959     -0.002541     -0.052029
      8.81351      5.08848      5.28038        -0.000000      0.000000     -0.081160
      1.46892      0.84808      7.67911        -0.037241     -0.021501      0.135550
      4.40676      0.84808      7.67911        -0.000000     -0.070396      0.007339
      7.34459      0.84808      7.67911         0.037241     -0.021501      0.135550
      2.93784      3.39232      7.67911        -0.060965      0.035198      0.007339
      5.87568      3.39232      7.67911         0.060965      0.035198      0.007339
      8.81351      3.39232      7.67911        -0.000000     -0.066455      0.122057
      4.40676      5.93656      7.67911         0.000000      0.043003      0.135550
      7.34459      5.93656      7.67911        -0.057552      0.033227      0.122057
     10.28243      5.93656      7.67911         0.057552      0.033227      0.122057
      8.81351      1.70659     10.09931        -0.000000     -0.073118     -0.060817
      2.93410      1.69400     10.03753        -0.019267     -0.011124     -0.065130
      5.87941      1.69400     10.03753         0.019267     -0.011124     -0.065130
     10.26439      4.25082     10.06692         0.071522     -0.041293      0.006010
      4.40676      4.24472     10.03753         0.000000      0.022248     -0.065130
      7.36264      4.25082     10.06692        -0.071522     -0.041293      0.006010
     11.74232      6.77943     10.09931         0.063322      0.036559     -0.060817
      5.88471      6.77943     10.09931        -0.063322      0.036559     -0.060817
      8.81351      6.76381     10.06692         0.000000      0.082586      0.006010
      0.00000      0.00000     12.49835        -0.000000      0.000000     -0.025808
      2.98825      0.08685     12.53577        -0.275879     -0.557317     -0.295735
      5.82526      0.08685     12.53577         0.275879     -0.557317     -0.295735
      1.56934      2.54447     12.53577        -0.620590      0.039740     -0.295735
      7.24417      2.54447     12.53577         0.620590      0.039740     -0.295735
      2.98785      5.00140     12.53577        -0.344711      0.517576     -0.295735
      5.82567      5.00140     12.53577         0.344711      0.517576     -0.295735
      8.81351      5.08848     12.49628        -0.000000      0.000000      0.071214
      4.40676      2.54424     12.20474        -0.000000     -0.000000      1.946844
      4.40676      2.54424     13.92748        -0.000000      0.000000     -0.034767
    total drift:                               -0.006437     -0.003561      0.569567

  FREE ENERGIE OF THE ION-ELECTRON SYSTEM (eV)
  free  energy   TOTEN  =      -123.76548271 eV

  energy  without entropy=     -123.76548271  energy(sigma->0) =     -123.76548271

 stress matrix after NEB project (eV)
    -18.61573     -0.00000      0.00000
     -0.00000    -18.61573      0.00000
      0.00000     -0.00000      1.14049
  FORCES: max atom, RMS     0.034767    0.005716
  FORCE total and by dimension    0.034767    0.034767
  Stress total and by dimension   26.351305   18.615727
|           W    W    AA    RRRRR   N    N  II  N    N   GGGG   !!!           |
|           W    W   A  A   R    R  NN   N  II  NN   N  G    G  !!!           |
|           W    W  A    A  R    R  N N  N  II  N N  N  G       !!!           |
|           W WW W  AAAAAA  RRRRR   N  N N  II  N  N N  G  GGG   !            |
|           WW  WW  A    A  R   R   N   NN  II  N   NN  G    G                |
|           W    W  A    A  R    R  N    N  II  N    N   GGGG   !!!           |
|     Tetrahedron method does not include variations of the Fermi             |
|     occupations, so forces and stress will be inaccurate. We suggest        |
|     using a different smearing scheme ISMEAR = 1 or 2 for metals in         |
|     relaxations.                                                            |

 total charge

# of ion       s       p       d       tot
    1        0.549   0.237   8.767   9.553
    2        0.542   0.241   8.765   9.549
    3        0.542   0.241   8.765   9.549
    4        0.542   0.241   8.765   9.549
    5        0.546   0.241   8.763   9.550
    6        0.542   0.241   8.765   9.549
    7        0.542   0.241   8.765   9.549
    8        0.542   0.241   8.765   9.549
    9        0.542   0.241   8.766   9.549
   10        0.523   0.306   8.771   9.600
   11        0.519   0.311   8.778   9.608
   12        0.523   0.306   8.771   9.600
   13        0.519   0.311   8.778   9.608
   14        0.519   0.311   8.778   9.608
   15        0.514   0.309   8.773   9.596
   16        0.523   0.306   8.771   9.600
   17        0.514   0.309   8.773   9.596
   18        0.514   0.309   8.773   9.596
   19        0.518   0.294   8.776   9.588
   20        0.566   0.344   8.732   9.642
   21        0.566   0.344   8.732   9.642
   22        0.508   0.308   8.775   9.591
   23        0.566   0.344   8.732   9.642
   24        0.508   0.308   8.775   9.591
   25        0.518   0.294   8.776   9.588
   26        0.518   0.294   8.776   9.588
   27        0.508   0.308   8.775   9.591
   28        0.542   0.225   8.761   9.528
   29        0.553   0.248   8.757   9.558
   30        0.553   0.248   8.757   9.558
   31        0.553   0.248   8.757   9.558
   32        0.553   0.248   8.757   9.558
   33        0.553   0.248   8.757   9.558
   34        0.553   0.248   8.757   9.558
   35        0.534   0.224   8.766   9.524
   36        0.590   0.597   4.734   5.921
   37        1.612   3.288   0.000   4.899
tot         20.928  13.604 311.507 346.039

 BZINTS: Fermi energy:    0.702296;  398.000000 electrons
         Band energy:-0.124264E+04;  BLOECHL correction:   -0.055508