 vasp.6.2.0 18Jan21 (build Jun 12 2021 23:27:24) complex

 executed on             LinuxIFC date 2022.05.30  16:23:06

 INCAR:
   ISMEAR = -5
   SIGMA = 0.1
   ISPIN = 1
   EDIFF = 1.d-5
   EDIFFG = -0.01
   NSW = 0
   NELM = 150
   ENCUT = 500
   ISIF = 2
   IBRION = 2
   LREAL = Auto
   ALGO = Fast
   ICHARG = 11
   LORBIT = 10
   LCHARG = .F.
   LWAVE = .F.

 POTCAR:    PAW_PBE Au 04Oct2007
 POTCAR:    PAW_PBE Pd 04Jan2005
 POTCAR:    PAW_PBE C 08Apr2002
|           W    W    AA    RRRRR   N    N  II  N    N   GGGG   !!!           |
|           W    W   A  A   R    R  NN   N  II  NN   N  G    G  !!!           |
|           W    W  A    A  R    R  N N  N  II  N N  N  G       !!!           |
|           W WW W  AAAAAA  RRRRR   N  N N  II  N  N N  G  GGG   !            |
|           WW  WW  A    A  R   R   N   NN  II  N   NN  G    G                |
|           W    W  A    A  R    R  N    N  II  N    N   GGGG   !!!           |
|     For optimal performance we recommend to set                             |
|       NCORE = 2 up to number-of-cores-per-socket                            |
|     This setting can greatly improve the performance of VASP for DFT.       |
|     The default, NCORE=1 might be grossly inefficient on modern             |
|     multi-core architectures or massively parallel machines. Do your        |
|     Unfortunately you need to use the default for GW and RPA                |
|     calculations (for HF NCORE is supported but not extensively tested      |
|     yet).                                                                   |

 POTCAR:    PAW_PBE Au 04Oct2007
   VRHFIN =Au: s1d10

   TITEL  = PAW_PBE Au 04Oct2007
   POMASS =  196.966; ZVAL   =   11.000    mass and valenz
   ENMAX  =  229.943; ENMIN  =  172.457 eV

 POTCAR:    PAW_PBE Pd 04Jan2005
   VRHFIN =Pd : s1 d9

   TITEL  = PAW_PBE Pd 04Jan2005
   POMASS =  106.420; ZVAL   =   10.000    mass and valenz
   ENMAX  =  250.925; ENMIN  =  188.194 eV

 POTCAR:    PAW_PBE C 08Apr2002
   VRHFIN =C: s2p2

   TITEL  = PAW_PBE C 08Apr2002
   POMASS =   12.011; ZVAL   =    4.000    mass and valenz
   ENMAX  =  400.000; ENMIN  =  300.000 eV

 Optimization of the real space projectors (new method)

 maximal supplied QI-value         = 15.12
 optimisation between [QCUT,QGAM] = [ 11.34, 22.83] = [ 36.00,145.93] Ry
 Optimized for a Real-space Cutoff    1.39 Angstroem

   l    n(q)    QCUT    max X(q) W(low)/X(q) W(high)/X(q)  e(spline)
   2      9    11.338    60.898    0.39E-03    0.42E-03    0.21E-06
   2      9    11.338    58.894    0.40E-03    0.42E-03    0.22E-06
   0      9    11.338   109.617    0.13E-03    0.20E-04    0.13E-06
   0      9    11.338    75.026    0.13E-03    0.20E-04    0.13E-06
   1      9    11.338    16.344    0.33E-04    0.24E-03    0.18E-06
   1      9    11.338    10.160    0.26E-04    0.19E-03    0.15E-06
 Optimization of the real space projectors (new method)

[...]

   l    n(q)    QCUT    max X(q) W(low)/X(q) W(high)/X(q)  e(spline)
   2      9    11.346    59.108    0.74E-04    0.81E-04    0.26E-06
   2      9    11.346    58.101    0.74E-04    0.83E-04    0.27E-06
   0     10    11.346   102.235    0.26E-04    0.31E-04    0.16E-06
   0     10    11.346    58.388    0.23E-04    0.29E-04    0.15E-06
   1     10    11.346    22.191    0.23E-03    0.26E-03    0.14E-06
   1     10    11.346    15.590    0.19E-03    0.22E-03    0.12E-06
 Optimization of the real space projectors (new method)

 maximal supplied QI-value         = 25.13
 optimisation between [QCUT,QGAM] = [ 11.31, 22.87] = [ 35.82,146.48] Ry
 Optimized for a Real-space Cutoff    1.00 Angstroem

   l    n(q)    QCUT    max X(q) W(low)/X(q) W(high)/X(q)  e(spline)
   0      7    11.310   115.676    0.43E-03    0.13E-02    0.19E-06
   0      7    11.310    87.132    0.43E-03    0.13E-02    0.18E-06
   1      6    11.310     4.429    0.42E-03    0.74E-03    0.11E-06
   1      6    11.310     2.733    0.34E-03    0.55E-03    0.92E-07
  PAW_PBE Au 04Oct2007                  :
  PAW_PBE Pd 04Jan2005                  :
  PAW_PBE C 08Apr2002                   :

 POSCAR: Au-Pd-C
  positions in direct lattice
  velocities in cartesian coordinates
 exchange correlation table for  LEXCH =        8
   RHO(1)=    0.500       N(1)  =     2000
   RHO(2)=  100.500       N(2)  =     4000

 VTST: version 3.2, (02/03/18)

 CHAIN: initializing optimizer

 OPT: Using VASP Conjugate-Gradient optimizer
 CHAIN: Read ICHAIN            0

 POSCAR: Au-Pd-C
  positions in direct lattice
  velocities in cartesian coordinates

 ion  position               nearest neighbor table
   1  0.000  0.000  0.217-  16 2.94  12 2.94   6 2.94   8 2.94   7 2.94   3 2.94  10 2.94   4 2.94
                             2 2.94
   2  0.333  0.000  0.217-   9 2.94  11 2.94  17 2.94  10 2.94   8 2.94   4 2.94   5 2.94   1 2.94
                             3 2.94
   3  0.667  0.000  0.217-   7 2.94  18 2.94  12 2.94   1 2.94  11 2.94   5 2.94   6 2.94   9 2.94
                             2 2.94
   4  0.000  0.333  0.217-  10 2.94   6 2.94   5 2.94  13 2.94   2 2.94  15 2.94   9 2.94   1 2.94
                             7 2.94
   5  0.333  0.333  0.217-  13 2.94   7 2.94  11 2.94   4 2.94   2 2.94  14 2.94   3 2.94   8 2.94
                             6 2.94
   6  0.667  0.333  0.217-  15 2.94  14 2.94   1 2.94  12 2.94   4 2.94   9 2.94   8 2.94   3 2.94
                             5 2.94
   7  0.000  0.667  0.217-  18 2.94   3 2.94  16 2.94   5 2.94   1 2.94  13 2.94   8 2.94   4 2.94
                             9 2.94
   8  0.333  0.667  0.217-   9 2.94  17 2.94   1 2.94   2 2.94  14 2.94  16 2.94   6 2.94   7 2.94
                             5 2.94
   9  0.667  0.667  0.217-   2 2.94   8 2.94  17 2.94   6 2.94  15 2.94   4 2.94   3 2.94  18 2.94
                             7 2.94
  10  0.111  0.111  0.316-  26 2.92  19 2.92  20 2.93  11 2.94  17 2.94   2 2.94   4 2.94   1 2.94
                            12 2.94  16 2.94  13 2.94  15 2.94
  11  0.444  0.111  0.316-  27 2.93  20 2.93  21 2.93  13 2.94   2 2.94  10 2.94  17 2.94   5 2.94
                             3 2.94  18 2.94  14 2.94  12 2.94
  12  0.778  0.111  0.316-  25 2.92  19 2.92  21 2.93  16 2.94  18 2.94   1 2.94  14 2.94  15 2.94
                             3 2.94   6 2.94  10 2.94  11 2.94
  13  0.111  0.444  0.316-  22 2.93  23 2.93  20 2.93   5 2.94  18 2.94  11 2.94   7 2.94   4 2.94
                            16 2.94  10 2.94  14 2.94  15 2.94
  14  0.444  0.444  0.316-  24 2.93  21 2.93  23 2.93  15 2.94   6 2.94  12 2.94   8 2.94  17 2.94
                             5 2.94  16 2.94  13 2.94  11 2.94
  15  0.778  0.444  0.316-  19 2.93  24 2.93  22 2.93  14 2.94   6 2.94  17 2.94  12 2.94   9 2.94
                             4 2.94  10 2.94  13 2.94  18 2.94
  16  0.111  0.778  0.316-  25 2.92  26 2.92  23 2.93  18 2.94  12 2.94   7 2.94   1 2.94   8 2.94
                            13 2.94  10 2.94  14 2.94  17 2.94
  17  0.444  0.778  0.316-  26 2.93  27 2.93  24 2.93   9 2.94  15 2.94   2 2.94  10 2.94  11 2.94
                             8 2.94  14 2.94  16 2.94  18 2.94
  18  0.778  0.778  0.316-  25 2.93  22 2.93  27 2.93  16 2.94   7 2.94  13 2.94  12 2.94   3 2.94
                            11 2.94   9 2.94  15 2.94  17 2.94
  19  0.889  0.222  0.414-  10 2.92  12 2.92  15 2.93  26 2.93  25 2.93  21 2.94  20 2.94  24 2.94
                            22 2.94  28 2.96  32 2.97  31 2.97
  20  0.222  0.222  0.414-  36 2.83  10 2.93  11 2.93  13 2.93  26 2.94  19 2.94  27 2.94  22 2.94
                            23 2.94  21 2.94  29 2.95  31 2.95
  21  0.556  0.222  0.414-  36 2.83  12 2.93  14 2.93  11 2.93  25 2.94  19 2.94  24 2.94  27 2.94
                            20 2.94  23 2.94  30 2.95  32 2.95
  22  0.889  0.556  0.414-  18 2.93  15 2.93  13 2.93  24 2.94  27 2.94  23 2.94  20 2.94  25 2.94
                            19 2.94  33 2.96  31 2.96  35 2.96
  23  0.222  0.556  0.414-  36 2.83  16 2.93  13 2.93  14 2.93  25 2.94  26 2.94  22 2.94  24 2.94
                            20 2.94  21 2.94  33 2.95  34 2.95
  24  0.556  0.556  0.414-  15 2.93  17 2.93  14 2.93  27 2.94  22 2.94  21 2.94  23 2.94  26 2.94
                            19 2.94  32 2.96  34 2.96  35 2.96
  25  0.889  0.889  0.414-  16 2.92  12 2.92  18 2.93  19 2.93  26 2.93  23 2.94  21 2.94  22 2.94
                            27 2.94  28 2.96  33 2.97  30 2.97
  26  0.222  0.889  0.414-  10 2.92  16 2.92  17 2.93  19 2.93  25 2.93  20 2.94  23 2.94  27 2.94
                            24 2.94  28 2.96  29 2.97  34 2.97
  27  0.556  0.889  0.414-  17 2.93  18 2.93  11 2.93  24 2.94  22 2.94  20 2.94  21 2.94  26 2.94
                            25 2.94  29 2.96  30 2.96  35 2.96
  28  0.000  0.000  0.514-  34 2.94  32 2.94  33 2.94  30 2.94  31 2.94  29 2.94  25 2.96  19 2.96
                            26 2.96
  29  0.333  0.001  0.514-  30 2.93  31 2.93  36 2.93  35 2.94  28 2.94  20 2.95  34 2.95  27 2.96
                            26 2.97
  30  0.666  0.001  0.514-  29 2.93  32 2.93  36 2.93  35 2.94  28 2.94  21 2.95  33 2.95  27 2.96
                            25 2.97
  31  0.001  0.333  0.514-  33 2.93  29 2.93  36 2.93  35 2.94  28 2.94  20 2.95  32 2.95  22 2.96
                            19 2.97
  32  0.666  0.333  0.514-  34 2.93  30 2.93  36 2.93  35 2.94  28 2.94  21 2.95  31 2.95  24 2.96
                            19 2.97
  33  0.001  0.666  0.514-  31 2.93  34 2.93  36 2.93  35 2.94  28 2.94  23 2.95  30 2.95  22 2.96
                            25 2.97
  34  0.333  0.666  0.514-  32 2.93  33 2.93  36 2.93  35 2.94  28 2.94  23 2.95  29 2.95  24 2.96
                            26 2.97
  35  0.667  0.667  0.514-  29 2.94  34 2.94  32 2.94  31 2.94  30 2.94  33 2.94  24 2.96  27 2.96
                            22 2.96
  36  0.333  0.333  0.508-  37 1.74  20 2.83  23 2.83  21 2.83  33 2.93  31 2.93  29 2.93  30 2.93
                            34 2.93  32 2.93
  37  0.333  0.333  0.579-  36 1.74

  LATTYP: Found a hexagonal cell.
 ALAT       =     8.8135128021
 C/A-ratio  =     2.7586513333

  Lattice vectors:

 A1 = (  -4.4067569092,  -7.6327256898,   0.0000000000)
 A2 = (   8.8135128021,   0.0000000000,   0.0000000000)
 A3 = (   0.0000000000,   0.0000000000,  24.3134088421)

Analysis of symmetry for initial positions (statically):
 Subroutine PRICEL returns:
 Original cell was already a primitive cell.

 Routine SETGRP: Setting up the symmetry group for a
 hexagonal supercell.

 Subroutine GETGRP returns: Found  6 space group operations
 (whereof  6 operations were pure point group operations)
 out of a pool of 24 trial point group operations.

The static configuration has the point symmetry C_3v.

Analysis of symmetry for dynamics (positions and initial velocities):
 Subroutine PRICEL returns:
 Original cell was already a primitive cell.

[...]

The dynamic configuration has the point symmetry C_3v.

Analysis of constrained symmetry for selective dynamics:
 Subroutine PRICEL returns:
 Original cell was already a primitive cell.

 Routine SETGRP: Setting up the symmetry group for a
 hexagonal supercell.

 Subroutine GETGRP returns: Found  6 space group operations
[...]
     24      -5.5275      2.00000
     25      -5.4986      2.00000
     26      -5.4828      2.00000
     27      -5.4353      2.00000
     28      -5.3823      2.00000
     29      -5.3601      2.00000
     30      -5.2690      2.00000
     31      -5.2547      2.00000
     32      -5.2350      2.00000
     33      -5.2058      2.00000
     34      -5.1812      2.00000
     35      -5.1626      2.00000
     36      -5.1227      2.00000
     37      -5.0989      2.00000
     38      -5.0364      2.00000
     39      -4.9975      2.00000
     40      -4.9670      2.00000
     41      -4.9561      2.00000
     42      -4.9034      2.00000
     43      -4.8311      2.00000
     44      -4.8247      2.00000
     45      -4.7342      2.00000
     46      -4.7216      2.00000
     47      -4.6594      2.00000
     48      -4.6406      2.00000
     49      -4.6183      2.00000
     50      -4.5871      2.00000
     51      -4.5737      2.00000
     52      -4.5510      2.00000
     53      -4.5479      2.00000
     54      -4.5172      2.00000
     55      -4.5095      2.00000
     56      -4.4565      2.00000
     57      -4.4266      2.00000
     58      -4.4172      2.00000
     59      -4.3878      2.00000
     60      -4.3845      2.00000
[...]
    238       5.9986      0.00000
    239       6.0493      0.00000
    240       6.0700      0.00000
    241       6.1404      0.00000
    242       6.3224      0.00000
    243       6.3488      0.00000
    244       6.3728      0.00000
    245       6.3974      0.00000
    246       6.7261      0.00000
    247       6.7607      0.00000
    248       6.8490      0.00000
    249       6.8566      0.00000
    250       6.9162      0.00000
    251       6.9602      0.00000
    252       7.0461      0.00000

 soft charge-density along one line, spin component           1
         0         1         2         3         4         5         6         7         8         9
 total charge-density along one line

------------------------ aborting loop because EDIFF is reached ----------------------------------------

 total charge

# of ion       s       p       d       tot
    1        0.543   0.240   8.765   9.548
    2        0.543   0.241   8.765   9.548
    3        0.543   0.241   8.765   9.548
    4        0.543   0.241   8.765   9.548
    5        0.543   0.240   8.765   9.548
    6        0.543   0.241   8.765   9.548
    7        0.543   0.241   8.765   9.548
    8        0.543   0.241   8.765   9.548
    9        0.541   0.241   8.763   9.546
   10        0.520   0.308   8.773   9.600
   11        0.514   0.309   8.774   9.597
   12        0.520   0.308   8.773   9.600
   13        0.514   0.309   8.774   9.597
   14        0.514   0.309   8.774   9.597
   15        0.516   0.308   8.773   9.598
   16        0.520   0.308   8.773   9.600
   17        0.516   0.308   8.773   9.598
   18        0.516   0.308   8.773   9.598
   19        0.518   0.304   8.771   9.594
   20        0.532   0.317   8.763   9.612
   21        0.532   0.317   8.763   9.612
   22        0.514   0.305   8.773   9.592
   23        0.532   0.317   8.763   9.612
   24        0.514   0.305   8.773   9.592
   25        0.518   0.304   8.771   9.594
   26        0.518   0.304   8.771   9.594
   27        0.514   0.305   8.773   9.592
   28        0.546   0.232   8.767   9.545
   29        0.536   0.239   8.770   9.545
   30        0.536   0.239   8.770   9.545
   31        0.536   0.239   8.770   9.545
   32        0.536   0.239   8.770   9.545
   33        0.536   0.239   8.770   9.545
   34        0.536   0.239   8.770   9.545
   35        0.544   0.233   8.768   9.545
   36        0.550   0.631   8.513   9.694
   37        1.045   1.093   0.000   2.139
tot         20.131  11.340 315.431 346.902

  FORCE on cell =-STRESS in cart. coord.  units (eV):
  Direction    XX          YY          ZZ          XY          YZ          ZX
  Alpha Z   925.02414   925.02414   925.02414
  Ewald  151350.97516151350.97558************    -0.00034    -0.00008    -0.00013
  Hartree159824.29392159824.29392************     0.00000    -0.00002    -0.00003
  E(xc)   -1793.87919 -1793.87917 -1800.27171    -0.00002    -0.00000    -0.00000
  Local  ************************323871.31810     0.00181     0.00003     0.00003
  n-local   -75.66624   -30.76717   -25.92968    22.93977    -1.40897     1.46253
  augment  2444.79161  2444.79317  2448.51699    -0.00135     0.00001     0.00007
  Kinetic  5538.38681  5543.00768  5570.46591     3.84320     0.57138     0.12011
  Fock        0.00000     0.00000     0.00000     0.00000     0.00000     0.00000
  Total     -18.84838   -18.84838     0.04382    -0.00000     0.00000    -0.00000
  in kB     -18.46333   -18.46333     0.04293    -0.00000     0.00000    -0.00000

 VOLUME and BASIS-vectors are now :
  energy-cutoff  :      500.00
  volume of cell :     1635.59
      direct lattice vectors                 reciprocal lattice vectors
     8.813512802  0.000000000  0.000000000     0.113462137 -0.065507406  0.000000000
     4.406756909  7.632725690  0.000000000     0.000000000  0.131014796  0.000000000
     0.000000000  0.000000000 24.313408842     0.000000000  0.000000000  0.041129568

  length of vectors
     8.813512802  8.813512802 24.313408842     0.131014796  0.131014796  0.041129568

 FORCES acting on ions
    electron-ion (+dipol)            ewald-force                    non-local-force                 convergence-correction
   -.197E-04 -.163E-04 0.266E+04   0.518E-04 0.433E-04 -.266E+04   -.612E-18 0.210E-17 -.482E+00   -.254E-03 -.160E-03 -.240E+00
   -.972E-01 0.216E+00 0.266E+04   0.616E-01 -.144E+00 -.266E+04   0.232E-01 -.134E-02 -.348E+00   0.117E-01 -.656E-01 -.232E+00
   0.971E-01 0.216E+00 0.266E+04   -.617E-01 -.144E+00 -.266E+04   -.232E-01 -.134E-02 -.348E+00   -.114E-01 -.638E-01 -.231E+00
   0.138E+00 -.192E+00 0.266E+04   -.941E-01 0.125E+00 -.266E+04   0.104E-01 0.208E-01 -.348E+00   -.509E-01 0.429E-01 -.232E+00
   0.772E-05 -.236E-04 0.266E+04   0.952E-04 0.169E-05 -.266E+04   -.104E-16 0.516E-17 -.465E+00   0.420E-02 0.256E-02 -.175E+00
   -.138E+00 -.192E+00 0.266E+04   0.940E-01 0.125E+00 -.266E+04   -.104E-01 0.208E-01 -.348E+00   0.494E-01 0.437E-01 -.231E+00
   0.235E+00 -.238E-01 0.266E+04   -.156E+00 0.187E-01 -.266E+04   -.128E-01 -.194E-01 -.348E+00   -.608E-01 0.220E-01 -.231E+00
   -.235E+00 -.238E-01 0.266E+04   0.156E+00 0.187E-01 -.266E+04   0.128E-01 -.194E-01 -.348E+00   0.626E-01 0.210E-01 -.231E+00
   0.194E-04 -.415E-04 0.266E+04   0.166E-03 -.200E-04 -.266E+04   0.163E-17 0.479E-17 -.377E+00   -.449E-02 -.232E-02 -.349E+00
   -.172E+00 -.991E-01 0.908E+03   0.250E+00 0.144E+00 -.907E+03   -.643E-01 -.371E-01 -.545E+00   -.160E-01 -.933E-02 -.281E+00
   0.140E-04 0.122E+01 0.908E+03   0.148E-03 -.133E+01 -.907E+03   0.554E-08 0.833E-01 -.342E+00   0.410E-02 0.191E-02 -.394E+00
   0.172E+00 -.991E-01 0.908E+03   -.250E+00 0.144E+00 -.907E+03   0.643E-01 -.371E-01 -.545E+00   0.146E-01 -.889E-02 -.281E+00
   0.105E+01 -.608E+00 0.908E+03   -.115E+01 0.664E+00 -.907E+03   0.721E-01 -.416E-01 -.342E+00   0.399E-02 0.287E-02 -.394E+00
   -.105E+01 -.608E+00 0.908E+03   0.115E+01 0.664E+00 -.907E+03   -.721E-01 -.416E-01 -.342E+00   0.292E-02 0.154E-02 -.396E+00
   0.314E-04 -.107E+01 0.906E+03   0.236E-03 0.112E+01 -.905E+03   -.195E-08 -.293E-01 -.378E+00   -.182E-02 -.152E-01 -.295E+00
   -.210E-04 0.198E+00 0.908E+03   0.162E-03 -.288E+00 -.907E+03   0.494E-08 0.742E-01 -.545E+00   -.636E-03 0.171E-01 -.281E+00
   -.929E+00 0.536E+00 0.906E+03   0.968E+00 -.559E+00 -.905E+03   -.254E-01 0.146E-01 -.378E+00   -.139E-01 0.647E-02 -.295E+00
   0.929E+00 0.536E+00 0.906E+03   -.969E+00 -.559E+00 -.905E+03   0.254E-01 0.146E-01 -.378E+00   0.147E-01 0.822E-02 -.293E+00
   -.403E-04 -.117E+01 -.866E+03   0.530E-04 0.130E+01 0.866E+03   -.153E-08 -.231E-01 0.550E+00   0.699E-03 -.102E+00 -.110E+00
   0.120E+02 0.691E+01 -.853E+03   -.112E+02 -.648E+01 0.853E+03   -.542E+00 -.313E+00 -.108E+00   -.194E+00 -.112E+00 -.238E+00
   -.120E+02 0.691E+01 -.853E+03   0.112E+02 -.648E+01 0.853E+03   0.542E+00 -.313E+00 -.108E+00   0.188E+00 -.114E+00 -.238E+00
   0.567E+01 -.327E+01 -.867E+03   -.569E+01 0.328E+01 0.866E+03   0.101E+00 -.586E-01 0.610E+00   -.945E-01 0.596E-01 -.117E+00
   -.141E-04 -.138E+02 -.853E+03   0.144E-03 0.130E+02 0.853E+03   0.417E-07 0.626E+00 -.108E+00   -.506E-02 0.220E+00 -.238E+00
   -.567E+01 -.327E+01 -.867E+03   0.569E+01 0.328E+01 0.866E+03   -.101E+00 -.586E-01 0.610E+00   0.103E+00 0.592E-01 -.117E+00
   0.101E+01 0.583E+00 -.866E+03   -.112E+01 -.648E+00 0.866E+03   0.200E-01 0.115E-01 0.550E+00   0.869E-01 0.501E-01 -.110E+00
   -.101E+01 0.583E+00 -.866E+03   0.112E+01 -.648E+00 0.866E+03   -.200E-01 0.115E-01 0.550E+00   -.879E-01 0.518E-01 -.110E+00
   0.562E-05 0.655E+01 -.867E+03   0.200E-03 -.657E+01 0.866E+03   0.780E-08 0.117E+00 0.610E+00   0.379E-02 -.112E+00 -.117E+00
   -.102E-04 -.121E-04 -.263E+04   0.269E-04 0.333E-04 0.263E+04   -.196E-18 0.178E-18 0.361E+00   -.112E-03 -.833E-04 -.335E-02
   0.141E+02 0.228E+02 -.262E+04   -.141E+02 -.227E+02 0.262E+04   -.425E-02 0.289E-01 0.480E+00   -.116E+00 -.237E+00 0.221E-01
   -.141E+02 0.228E+02 -.262E+04   0.141E+02 -.227E+02 0.262E+04   0.425E-02 0.289E-01 0.480E+00   0.116E+00 -.236E+00 0.216E-01
   0.268E+02 0.847E+00 -.262E+04   -.267E+02 -.862E+00 0.262E+04   0.229E-01 -.181E-01 0.480E+00   -.263E+00 0.176E-01 0.222E-01
   -.268E+02 0.847E+00 -.262E+04   0.267E+02 -.862E+00 0.262E+04   -.229E-01 -.181E-01 0.480E+00   0.262E+00 0.182E-01 0.232E-01
   0.126E+02 -.236E+02 -.262E+04   -.126E+02 0.235E+02 0.262E+04   0.271E-01 -.108E-01 0.480E+00   -.146E+00 0.218E+00 0.216E-01
   -.126E+02 -.236E+02 -.262E+04   0.126E+02 0.235E+02 0.262E+04   -.271E-01 -.108E-01 0.480E+00   0.147E+00 0.218E+00 0.232E-01
   0.277E-04 -.292E-04 -.263E+04   0.149E-03 -.483E-04 0.263E+04   0.224E-17 -.150E-17 0.377E+00   -.396E-02 -.199E-02 0.124E+00
   0.745E-05 -.259E-04 -.216E+04   0.992E-04 0.867E-05 0.216E+04   0.197E-17 -.192E-17 -.405E+01   0.416E-02 0.256E-02 -.157E+00
   0.473E-04 -.289E-04 -.121E+04   0.145E-04 0.937E-06 0.123E+04   -.517E-18 0.513E-18 -.127E+02   0.765E-03 0.467E-03 0.859E-01
   -.688E-03 -.809E-03 0.235E+02   -.283E-13 0.127E-12 0.682E-12   0.106E-16 0.197E-15 -.171E+02   0.997E-02 0.645E-02 -.627E+01

 POSITION                                       TOTAL-FORCE (eV/Angst)
      0.00000      0.00000      5.28038         0.000000      0.000000     -0.032347
      2.93784      0.00000      5.28038        -0.000221      0.005658     -0.011775
      5.87568      0.00000      5.28038         0.000221      0.005658     -0.011775
      1.46892      2.54424      5.28038         0.004789     -0.003021     -0.011775
      4.40676      2.54424      5.28038         0.000000      0.000000     -0.024138
      7.34459      2.54424      5.28038        -0.004789     -0.003021     -0.011775
      2.93784      5.08848      5.28038         0.005010     -0.002637     -0.011775
      5.87568      5.08848      5.28038        -0.005010     -0.002637     -0.011775
      8.81351      5.08848      5.28038         0.000000      0.000000     -0.000228
      1.46892      0.84808      7.67911        -0.001228     -0.000709      0.072013
      4.40676      0.84808      7.67911        -0.000000     -0.029558      0.087096
      7.34459      0.84808      7.67911         0.001228     -0.000709      0.072013
      2.93784      3.39232      7.67911        -0.025598      0.014779      0.087096
      5.87568      3.39232      7.67911         0.025598      0.014779      0.087096
      8.81351      3.39232      7.67911         0.000000      0.000801      0.082881
      4.40676      5.93656      7.67911         0.000000      0.001418      0.072013
      7.34459      5.93656      7.67911         0.000694     -0.000400      0.082881
     10.28243      5.93656      7.67911        -0.000694     -0.000400      0.082881
      8.81351      1.69299     10.06281         0.000000      0.005677      0.009246
      2.93673      1.69552     10.07074         0.009359      0.005403     -0.171474
      5.87678      1.69552     10.07074        -0.009359      0.005403     -0.171474
     10.28200      4.24065     10.07064        -0.012075      0.006972     -0.027722
      4.40676      4.24168     10.07074        -0.000000     -0.010807     -0.171474
      7.34503      4.24065     10.07064         0.012075      0.006972     -0.027722
     11.75410      6.78623     10.06281        -0.004916     -0.002838      0.009246
      5.87293      6.78623     10.06281         0.004916     -0.002838      0.009246
      8.81351      6.78414     10.07064        -0.000000     -0.013943     -0.027722
      0.00000      0.00000     12.49359         0.000000      0.000000     -0.076913
      2.94266      0.00661     12.49157        -0.095933     -0.136444     -0.067416
      5.87086      0.00661     12.49157         0.095933     -0.136444     -0.067416
      1.47706      2.54511     12.49157        -0.166131     -0.014859     -0.067416
      7.33646      2.54511     12.49157         0.166131     -0.014859     -0.067416
      2.94116      5.08100     12.49157        -0.070197      0.151303     -0.067416
      5.87236      5.08100     12.49157         0.070197      0.151303     -0.067416
      8.81351      5.08848     12.49778         0.000000      0.000000     -0.058100
      4.40676      2.54424     12.34091         0.000000      0.000000      0.529793
      4.40676      2.54424     14.08286         0.000000      0.000000     -0.019042
    total drift:                                0.009286      0.005640      0.052960

  FREE ENERGIE OF THE ION-ELECTRON SYSTEM (eV)
  free  energy   TOTEN  =      -116.91583659 eV

  energy  without entropy=     -116.91583659  energy(sigma->0) =     -116.91583659

 stress matrix after NEB project (eV)
    -18.84838     -0.00000     -0.00000
     -0.00000    -18.84838      0.00000
      0.00000      0.00000      0.04382
  FORCES: max atom, RMS     0.019042    0.003130
  FORCE total and by dimension    0.019042    0.019042
  Stress total and by dimension   26.655666   18.848377
|           W    W    AA    RRRRR   N    N  II  N    N   GGGG   !!!           |
|           W    W   A  A   R    R  NN   N  II  NN   N  G    G  !!!           |
|           W    W  A    A  R    R  N N  N  II  N N  N  G       !!!           |
|           W WW W  AAAAAA  RRRRR   N  N N  II  N  N N  G  GGG   !            |
|           WW  WW  A    A  R   R   N   NN  II  N   NN  G    G                |
|           W    W  A    A  R    R  N    N  II  N    N   GGGG   !!!           |
|     Tetrahedron method does not include variations of the Fermi             |
|     occupations, so forces and stress will be inaccurate. We suggest        |
|     using a different smearing scheme ISMEAR = 1 or 2 for metals in         |
|     relaxations.                                                            |

 total charge

# of ion       s       p       d       tot
    1        0.543   0.240   8.765   9.548
    2        0.543   0.241   8.765   9.548
    3        0.543   0.241   8.765   9.548
    4        0.543   0.241   8.765   9.548
    5        0.543   0.240   8.765   9.548
    6        0.543   0.241   8.765   9.548
    7        0.543   0.241   8.765   9.548
    8        0.543   0.241   8.765   9.548
    9        0.541   0.241   8.763   9.546
   10        0.520   0.308   8.773   9.600
   11        0.514   0.309   8.774   9.597
   12        0.520   0.308   8.773   9.600
   13        0.514   0.309   8.774   9.597
   14        0.514   0.309   8.774   9.597
   15        0.516   0.308   8.773   9.598
   16        0.520   0.308   8.773   9.600
   17        0.516   0.308   8.773   9.598
   18        0.516   0.308   8.773   9.598
   19        0.518   0.304   8.771   9.594
   20        0.532   0.317   8.763   9.612
   21        0.532   0.317   8.763   9.612
   22        0.514   0.305   8.773   9.592
   23        0.532   0.317   8.763   9.612
   24        0.514   0.305   8.773   9.592
   25        0.518   0.304   8.771   9.594
   26        0.518   0.304   8.771   9.594
   27        0.514   0.305   8.773   9.592
   28        0.546   0.232   8.767   9.545
   29        0.536   0.239   8.770   9.545
   30        0.536   0.239   8.770   9.545
   31        0.536   0.239   8.770   9.545
   32        0.536   0.239   8.770   9.545
   33        0.536   0.239   8.770   9.545
   34        0.536   0.239   8.770   9.545
   35        0.544   0.233   8.768   9.545
   36        0.550   0.631   8.513   9.694
   37        1.045   1.093   0.000   2.139
tot         20.131  11.340 315.431 346.902

 BZINTS: Fermi energy:    0.232985;  399.000000 electrons
         Band energy:-0.140162E+04;  BLOECHL correction:   -0.089897