 vasp.6.2.0 18Jan21 (build Jun 12 2021 23:27:24) complex

 executed on             LinuxIFC date 2022.05.30  17:08:10

 INCAR:
   ISMEAR = -5
   SIGMA = 0.1
   ISPIN = 1
   EDIFF = 1.d-5
   EDIFFG = -0.01
   NSW = 0
   NELM = 150
   ENCUT = 500
   ISIF = 2
   IBRION = 2
   LREAL = Auto
   ALGO = Fast
   ICHARG = 11
   LORBIT = 10
   LCHARG = .F.
   LWAVE = .F.

 POTCAR:    PAW_PBE Ag 02Apr2005
 POTCAR:    PAW_PBE Ni 02Aug2007
 POTCAR:    PAW_PBE O 08Apr2002
|           W    W    AA    RRRRR   N    N  II  N    N   GGGG   !!!           |
|           W    W   A  A   R    R  NN   N  II  NN   N  G    G  !!!           |
|           W    W  A    A  R    R  N N  N  II  N N  N  G       !!!           |
|           W WW W  AAAAAA  RRRRR   N  N N  II  N  N N  G  GGG   !            |
|           WW  WW  A    A  R   R   N   NN  II  N   NN  G    G                |
|           W    W  A    A  R    R  N    N  II  N    N   GGGG   !!!           |
|     For optimal performance we recommend to set                             |
|       NCORE = 2 up to number-of-cores-per-socket                            |
|     This setting can greatly improve the performance of VASP for DFT.       |
|     The default, NCORE=1 might be grossly inefficient on modern             |
|     multi-core architectures or massively parallel machines. Do your        |
|     Unfortunately you need to use the default for GW and RPA                |
|     calculations (for HF NCORE is supported but not extensively tested      |
|     yet).                                                                   |

 POTCAR:    PAW_PBE Ag 02Apr2005
   VRHFIN =Ag : s1 d10

   TITEL  = PAW_PBE Ag 02Apr2005
   POMASS =  107.868; ZVAL   =   11.000    mass and valenz
   ENMAX  =  249.844; ENMIN  =  187.383 eV

 POTCAR:    PAW_PBE Ni 02Aug2007
   VRHFIN =Ni:

   TITEL  = PAW_PBE Ni 02Aug2007
   POMASS =   58.690; ZVAL   =   10.000    mass and valenz
   ENMAX  =  269.532; ENMIN  =  202.149 eV

 POTCAR:    PAW_PBE O 08Apr2002
   VRHFIN =O: s2p4

   TITEL  = PAW_PBE O 08Apr2002
   POMASS =   16.000; ZVAL   =    6.000    mass and valenz
   ENMAX  =  400.000; ENMIN  =  300.000 eV

 Optimization of the real space projectors (new method)

 maximal supplied QI-value         = 15.12
 optimisation between [QCUT,QGAM] = [ 11.34, 22.83] = [ 36.00,145.93] Ry
 Optimized for a Real-space Cutoff    1.43 Angstroem

   l    n(q)    QCUT    max X(q) W(low)/X(q) W(high)/X(q)  e(spline)
   2      9    11.338    53.897    0.16E-03    0.20E-03    0.28E-06
   2      9    11.338    52.416    0.16E-03    0.20E-03    0.29E-06
   0     10    11.338   122.045    0.31E-04    0.76E-04    0.15E-06
   0     10    11.338    73.629    0.30E-04    0.72E-04    0.15E-06
   1      9    11.338    15.255    0.20E-03    0.19E-04    0.17E-06
   1      9    11.338     9.562    0.16E-03    0.15E-04    0.14E-06
 Optimization of the real space projectors (new method)

[...]

   l    n(q)    QCUT    max X(q) W(low)/X(q) W(high)/X(q)  e(spline)
   2      8    11.376    60.317    0.19E-03    0.33E-04    0.13E-06
   2      8    11.376    55.921    0.20E-03    0.34E-04    0.14E-06
   0      9    11.376    51.690    0.82E-04    0.12E-03    0.20E-06
   0      9    11.376    30.015    0.74E-04    0.11E-03    0.18E-06
   1      9    11.376    18.849    0.39E-03    0.12E-03    0.13E-06
   1      9    11.376    14.624    0.33E-03    0.10E-03    0.11E-06
 Optimization of the real space projectors (new method)

 maximal supplied QI-value         = 24.76
 optimisation between [QCUT,QGAM] = [ 11.39, 22.77] = [ 36.31,145.25] Ry
 Optimized for a Real-space Cutoff    1.00 Angstroem

   l    n(q)    QCUT    max X(q) W(low)/X(q) W(high)/X(q)  e(spline)
   0      7    11.387    20.381    0.39E-03    0.13E-02    0.15E-06
   0      7    11.387    15.268    0.42E-03    0.14E-02    0.17E-06
   1      6    11.387     5.964    0.41E-03    0.11E-02    0.17E-06
   1      6    11.387     5.382    0.39E-03    0.87E-03    0.15E-06
  PAW_PBE Ag 02Apr2005                  :
  PAW_PBE Ni 02Aug2007                  :
  PAW_PBE O 08Apr2002                   :

 POSCAR: Ag-Ni-O2
  positions in direct lattice
  velocities in cartesian coordinates
 exchange correlation table for  LEXCH =        8
   RHO(1)=    0.500       N(1)  =     2000
   RHO(2)=  100.500       N(2)  =     4000

 VTST: version 3.2, (02/03/18)

 CHAIN: initializing optimizer

 OPT: Using VASP Conjugate-Gradient optimizer
 CHAIN: Read ICHAIN            0

 POSCAR: Ag-Ni-O2
  positions in direct lattice
  velocities in cartesian coordinates

 ion  position               nearest neighbor table
   1  0.000  0.000  0.217-   2 2.93   8 2.93   7 2.93   6 2.93   4 2.93  12 2.93  16 2.93  10 2.93
                             3 2.93
   2  0.333  0.000  0.217-   1 2.93   8 2.93   9 2.93   3 2.93   4 2.93   5 2.93  10 2.93  17 2.93
                            11 2.93
   3  0.667  0.000  0.217-   9 2.93   2 2.93   5 2.93  11 2.93   7 2.93  18 2.93   1 2.93   6 2.93
                            12 2.93
   4  0.000  0.333  0.217-   5 2.93   6 2.93   2 2.93   1 2.93   7 2.93  13 2.93  15 2.93   9 2.93
                            10 2.93
   5  0.333  0.333  0.217-   4 2.93   3 2.93   7 2.93   2 2.93   8 2.93  14 2.93  13 2.93  11 2.93
                             6 2.93
   6  0.667  0.333  0.217-   4 2.93   9 2.93   1 2.93  15 2.93   8 2.93  12 2.93   3 2.93   5 2.93
                            14 2.93
   7  0.000  0.667  0.217-   8 2.93   1 2.93   5 2.93   3 2.93   4 2.93  16 2.93  18 2.93  13 2.93
                             9 2.93
   8  0.333  0.667  0.217-   7 2.93   1 2.93   2 2.93   9 2.93   5 2.93  16 2.93   6 2.93  17 2.93
                            14 2.93
   9  0.667  0.667  0.217-   3 2.93   2 2.93   8 2.93   6 2.93  17 2.93   4 2.93  15 2.93   7 2.93
                            18 2.93
  10  0.111  0.111  0.315-  20 2.91  19 2.92  26 2.92  12 2.93  16 2.93  15 2.93  17 2.93  13 2.93
                            11 2.93   2 2.93   1 2.93   4 2.93
  11  0.444  0.111  0.315-  21 2.91  20 2.91  27 2.91  14 2.93  17 2.93  18 2.93   3 2.93  12 2.93
                            13 2.93  10 2.93   5 2.93   2 2.93
  12  0.778  0.111  0.315-  21 2.91  25 2.92  19 2.92  10 2.93  16 2.93  18 2.93  15 2.93  11 2.93
                             1 2.93  14 2.93   6 2.93   3 2.93
  13  0.111  0.444  0.315-  20 2.91  23 2.91  22 2.91  15 2.93  14 2.93  18 2.93  10 2.93  11 2.93
                            16 2.93   4 2.93   5 2.93   7 2.93
  14  0.444  0.444  0.315-  23 2.91  21 2.91  24 2.91  13 2.93  11 2.93  16 2.93   5 2.93  12 2.93
                            17 2.93   8 2.93  15 2.93   6 2.93
  15  0.778  0.444  0.315-  24 2.91  22 2.91  19 2.92  13 2.93  10 2.93  12 2.93  17 2.93  18 2.93
                             4 2.93   6 2.93   9 2.93  14 2.93
  16  0.111  0.778  0.315-  23 2.91  26 2.92  25 2.92  18 2.93  12 2.93  10 2.93  14 2.93  17 2.93
                            13 2.93   7 2.93   8 2.93   1 2.93
  17  0.444  0.778  0.315-  27 2.91  24 2.91  26 2.92  11 2.93  10 2.93   9 2.93  18 2.93  15 2.93
                            16 2.93   2 2.93  14 2.93   8 2.93
  18  0.778  0.778  0.315-  22 2.91  27 2.91  25 2.92  16 2.93  12 2.93  13 2.93  11 2.93  17 2.93
                            15 2.93   7 2.93   3 2.93   9 2.93
  19  0.889  0.223  0.413-  28 2.91  15 2.92  10 2.92  12 2.92  24 2.93  22 2.93  32 2.94  31 2.94
                            26 2.94  25 2.94  20 2.94  21 2.94
  20  0.223  0.223  0.412-  36 2.69  31 2.89  29 2.89  13 2.91  11 2.91  10 2.91  21 2.92  23 2.92
                            27 2.93  22 2.93  19 2.94  26 2.94
  21  0.554  0.223  0.412-  36 2.69  30 2.89  32 2.89  11 2.91  14 2.91  12 2.91  20 2.92  23 2.92
                            27 2.93  24 2.93  25 2.94  19 2.94
  22  0.889  0.556  0.412-  18 2.91  15 2.91  35 2.91  13 2.91  33 2.91  31 2.91  24 2.93  27 2.93
                            25 2.93  19 2.93  23 2.93  20 2.93
  23  0.223  0.554  0.412-  36 2.69  34 2.89  33 2.89  14 2.91  13 2.91  16 2.91  21 2.92  20 2.92
                            22 2.93  24 2.93  26 2.94  25 2.94
  24  0.556  0.556  0.412-  15 2.91  17 2.91  35 2.91  14 2.91  32 2.91  34 2.91  27 2.93  22 2.93
                            19 2.93  26 2.93  23 2.93  21 2.93
  25  0.889  0.889  0.413-  28 2.91  18 2.92  16 2.92  12 2.92  22 2.93  27 2.93  33 2.94  30 2.94
                            26 2.94  19 2.94  23 2.94  21 2.94
  26  0.223  0.889  0.413-  28 2.91  17 2.92  16 2.92  10 2.92  27 2.93  24 2.93  34 2.94  29 2.94
                            25 2.94  19 2.94  23 2.94  20 2.94
  27  0.556  0.889  0.412-  17 2.91  18 2.91  35 2.91  11 2.91  29 2.91  30 2.91  24 2.93  22 2.93
                            26 2.93  25 2.93  20 2.93  21 2.93
  28  0.000  0.000  0.510-  26 2.91  25 2.91  19 2.91  29 2.96  34 2.96  33 2.96  32 2.96  31 2.96
                            30 2.96
  29  0.333  0.007  0.510-  30 2.87  31 2.87  36 2.88  20 2.89  27 2.91  26 2.94  35 2.96  28 2.96
                            34 3.06
  30  0.659  0.007  0.510-  29 2.87  32 2.87  36 2.88  21 2.89  27 2.91  25 2.94  35 2.96  28 2.96
                            33 3.06
  31  0.007  0.333  0.510-  37 2.63  33 2.87  29 2.87  36 2.88  20 2.89  22 2.91  19 2.94  35 2.96
                            28 2.96  32 3.06
  32  0.659  0.333  0.510-  38 2.63  34 2.87  30 2.87  36 2.88  21 2.89  24 2.91  19 2.94  35 2.96
                            28 2.96  31 3.06
  33  0.007  0.659  0.510-  31 2.87  34 2.87  36 2.88  23 2.89  22 2.91  25 2.94  35 2.96  28 2.96
                            30 3.06
  34  0.333  0.659  0.510-  32 2.87  33 2.87  36 2.88  23 2.89  24 2.91  26 2.94  35 2.96  28 2.96
                            29 3.06
  35  0.667  0.667  0.510-  24 2.91  27 2.91  22 2.91  30 2.96  32 2.96  29 2.96  34 2.96  31 2.96
                            33 2.96
  36  0.333  0.333  0.498-  38 1.92  37 1.92  21 2.69  20 2.69  23 2.69  31 2.88  33 2.88  30 2.88
                            29 2.88  34 2.88  32 2.88
  37  0.252  0.333  0.571-  38 1.42  36 1.92  31 2.63
  38  0.414  0.333  0.571-  37 1.42  36 1.92  32 2.63

  LATTYP: Found a hexagonal cell.
 ALAT       =     8.7913665772
 C/A-ratio  =     2.7711238095

  Lattice vectors:

 A1 = (  -4.3956832886,  -7.6135467898,   0.0000000000)
 A2 = (   8.7913665771,   0.0000000000,   0.0000000000)
 A3 = (   0.0000000000,   0.0000000000,  24.3619652401)

Analysis of symmetry for initial positions (statically):
 Subroutine PRICEL returns:
 Original cell was already a primitive cell.

 Routine SETGRP: Setting up the symmetry group for a
 hexagonal supercell.

 Subroutine GETGRP returns: Found  2 space group operations
 (whereof  2 operations were pure point group operations)
 out of a pool of 24 trial point group operations.

The static configuration has the point symmetry C_1h.

Analysis of symmetry for dynamics (positions and initial velocities):
 Subroutine PRICEL returns:
 Original cell was already a primitive cell.

[...]

The dynamic configuration has the point symmetry C_1h.

Analysis of constrained symmetry for selective dynamics:
 Subroutine PRICEL returns:
 Original cell was already a primitive cell.

 Routine SETGRP: Setting up the symmetry group for a
[...]
     33      -5.0797      2.00000
     34      -5.0561      2.00000
     35      -5.0539      2.00000
     36      -5.0444      2.00000
     37      -4.9850      2.00000
     38      -4.9551      2.00000
     39      -4.9216      2.00000
     40      -4.9041      2.00000
     41      -4.8768      2.00000
     42      -4.8600      2.00000
     43      -4.8497      2.00000
     44      -4.8413      2.00000
     45      -4.8257      2.00000
     46      -4.8230      2.00000
     47      -4.7618      2.00000
     48      -4.7397      2.00000
     49      -4.7084      2.00000
     50      -4.6990      2.00000
     51      -4.6922      2.00000
     52      -4.6872      2.00000
     53      -4.6843      2.00000
     54      -4.6625      2.00000
     55      -4.6592      2.00000
     56      -4.6451      2.00000
     57      -4.6345      2.00000
     58      -4.5710      2.00000
     59      -4.5632      2.00000
     60      -4.5532      2.00000
[...]
    238       5.5183      0.00000
    239       5.6080      0.00000
    240       5.7092      0.00000
    241       5.8028      0.00000
    242       5.8874      0.00000
    243       5.8972      0.00000
    244       6.1992      0.00000
    245       6.3983      0.00000
    246       6.4329      0.00000
    247       6.5386      0.00000
    248       6.6437      0.00000
    249       6.6906      0.00000
    250       6.7208      0.00000
    251       6.7882      0.00000
    252       6.8145      0.00000

 soft charge-density along one line, spin component           1
         0         1         2         3         4         5         6         7         8         9
 total charge-density along one line

------------------------ aborting loop because EDIFF is reached ----------------------------------------

 total charge

# of ion       s       p       d       tot
    1        0.415   0.203   9.177   9.796
    2        0.418   0.203   9.177   9.798
    3        0.418   0.203   9.177   9.798
    4        0.419   0.203   9.177   9.799
    5        0.415   0.205   9.177   9.797
    6        0.419   0.203   9.177   9.799
    7        0.417   0.204   9.177   9.797
    8        0.417   0.204   9.177   9.797
    9        0.415   0.204   9.178   9.796
   10        0.405   0.270   9.163   9.839
   11        0.409   0.269   9.167   9.845
   12        0.405   0.270   9.163   9.839
   13        0.408   0.269   9.166   9.843
   14        0.408   0.269   9.166   9.843
   15        0.401   0.272   9.164   9.837
   16        0.406   0.269   9.164   9.839
   17        0.402   0.271   9.165   9.838
   18        0.402   0.271   9.165   9.838
   19        0.401   0.268   9.168   9.837
   20        0.418   0.293   9.149   9.861
   21        0.418   0.293   9.149   9.861
   22        0.400   0.273   9.167   9.840
   23        0.414   0.292   9.155   9.861
   24        0.400   0.273   9.167   9.840
   25        0.401   0.269   9.167   9.837
   26        0.401   0.269   9.167   9.837
   27        0.402   0.275   9.164   9.841
   28        0.415   0.195   9.181   9.791
   29        0.400   0.197   9.192   9.789
   30        0.400   0.197   9.192   9.789
   31        0.391   0.202   9.193   9.786
   32        0.391   0.202   9.193   9.786
   33        0.399   0.196   9.193   9.788
   34        0.399   0.196   9.193   9.788
   35        0.415   0.194   9.181   9.790
   36        0.390   0.411   8.341   9.142
   37        1.603   3.243   0.000   4.846
   38        1.603   3.243   0.000   4.846
tot         17.859  15.246 329.389 362.495

  FORCE on cell =-STRESS in cart. coord.  units (eV):
  Direction    XX          YY          ZZ          XY          YZ          ZX
  Alpha Z   699.79459   699.79459   699.79459
  Ewald  157230.71493156797.28555************     0.00008     0.38363     0.00009
  Hartree167444.01083167219.51285************     0.00004     0.36247     0.00004
  E(xc)   -2143.14190 -2144.11158 -2148.60830    -0.00003     0.00449     0.00000
  Local  ************************335286.83512     0.00131    -0.92734    -0.00024
  n-local  -375.52358  -382.79455  -384.56805     2.36725    -0.00983     0.08991
  augment  3404.17407  3418.00338  3411.44066    -0.00036     0.10836    -0.00002
  Kinetic  5079.06371  5134.49971  5125.62487     1.09936     0.11465     0.03203
  Fock        0.00000     0.00000     0.00000     0.00000     0.00000     0.00000
  Total      -9.46554   -10.45655    -3.22259    -0.00000     0.03643     0.00000
  in kB      -9.30037   -10.27408    -3.16635    -0.00000     0.03579     0.00000

 VOLUME and BASIS-vectors are now :
  energy-cutoff  :      500.00
  volume of cell :     1630.63
      direct lattice vectors                 reciprocal lattice vectors
     8.791366577  0.000000000  0.000000000     0.113747958 -0.065672414  0.000000000
     4.395683289  7.613546790  0.000000000     0.000000000  0.131344829  0.000000000
     0.000000000  0.000000000 24.361965240     0.000000000  0.000000000  0.041047592

  length of vectors
     8.791366577  8.791366577 24.361965240     0.131344829  0.131344829  0.041047592

 FORCES acting on ions
    electron-ion (+dipol)            ewald-force                    non-local-force                 convergence-correction
   0.462E-04 -.141E-01 0.273E+04   -.954E-04 -.317E-01 -.272E+04   0.386E-12 0.587E-01 -.225E+01   -.131E-03 -.176E-01 -.165E+00
   0.801E+00 0.957E+00 0.273E+04   -.720E+00 -.824E+00 -.273E+04   -.346E-01 -.396E-01 -.165E+01   -.400E-01 -.799E-01 -.160E+00
   -.801E+00 0.957E+00 0.273E+04   0.720E+00 -.824E+00 -.273E+04   0.346E-01 -.396E-01 -.165E+01   0.395E-01 -.779E-01 -.159E+00
   0.112E+01 0.168E+00 0.273E+04   -.105E+01 -.227E+00 -.273E+04   -.273E-01 0.146E-01 -.167E+01   -.365E-01 0.402E-01 -.134E+00
   -.778E-05 0.481E-01 0.273E+04   0.981E-04 0.679E-03 -.273E+04   -.483E-12 -.736E-01 -.155E+01   0.631E-02 0.266E-01 -.108E+00
   -.112E+01 0.168E+00 0.273E+04   0.105E+01 -.227E+00 -.273E+04   0.273E-01 0.146E-01 -.167E+01   0.350E-01 0.411E-01 -.133E+00
   0.487E+00 -.112E+01 0.273E+04   -.326E+00 0.105E+01 -.273E+04   -.770E-01 0.218E-01 -.168E+01   -.610E-01 0.327E-01 -.165E+00
   -.487E+00 -.112E+01 0.273E+04   0.325E+00 0.105E+01 -.273E+04   0.770E-01 0.218E-01 -.168E+01   0.627E-01 0.316E-01 -.165E+00
   0.363E-04 -.139E-01 0.273E+04   0.792E-04 0.310E-01 -.273E+04   -.450E-13 -.686E-02 -.195E+01   -.670E-02 -.964E-02 -.149E+00
   0.690E+01 0.416E+01 0.978E+03   -.645E+01 -.397E+01 -.977E+03   -.368E+00 -.205E+00 -.747E+00   -.567E-01 0.231E-01 0.157E+00
   -.270E-04 0.844E+01 0.990E+03   0.421E-04 -.844E+01 -.990E+03   -.115E-12 -.175E-01 -.571E+00   0.643E-02 -.486E-02 0.277E+00
   -.690E+01 0.416E+01 0.978E+03   0.645E+01 -.397E+01 -.977E+03   0.368E+00 -.205E+00 -.747E+00   0.548E-01 0.246E-01 0.158E+00
   0.713E+01 -.431E+01 0.991E+03   -.708E+01 0.427E+01 -.990E+03   -.250E-01 0.962E-02 -.543E+00   -.498E-01 0.316E-01 0.308E+00
   -.713E+01 -.431E+01 0.991E+03   0.708E+01 0.427E+01 -.990E+03   0.250E-01 0.962E-02 -.543E+00   0.609E-01 0.309E-01 0.308E+00
   0.167E-04 0.697E+00 0.978E+03   -.109E-03 -.750E+00 -.978E+03   0.287E-12 0.437E-01 -.639E+00   -.206E-02 0.282E-02 0.179E+00
   -.844E-05 -.781E+01 0.977E+03   0.208E-04 0.751E+01 -.977E+03   0.180E-11 0.275E+00 -.773E+00   0.333E-03 0.169E-02 0.161E+00
   0.774E+00 -.497E+00 0.978E+03   -.788E+00 0.544E+00 -.978E+03   0.281E-02 0.203E-01 -.585E+00   0.836E-02 -.556E-01 0.173E+00
   -.774E+00 -.497E+00 0.978E+03   0.788E+00 0.545E+00 -.978E+03   -.281E-02 0.203E-01 -.585E+00   -.853E-02 -.533E-01 0.173E+00
   0.436E-04 0.635E+01 -.815E+03   -.132E-03 -.675E+01 0.814E+03   0.130E-11 0.197E+00 0.740E+00   -.210E-02 0.203E+00 0.444E+00
   0.498E+02 0.305E+02 -.737E+03   -.494E+02 -.303E+02 0.737E+03   -.829E+00 -.558E+00 -.102E+01   0.422E+00 0.308E+00 0.938E+00
   -.498E+02 0.305E+02 -.737E+03   0.494E+02 -.303E+02 0.737E+03   0.829E+00 -.558E+00 -.102E+01   -.411E+00 0.309E+00 0.938E+00
   0.237E+02 -.153E+02 -.797E+03   -.239E+02 0.155E+02 0.796E+03   0.189E+00 -.124E+00 0.642E+00   0.882E-01 -.128E+00 0.429E+00
   -.586E-04 -.597E+02 -.739E+03   0.498E-04 0.594E+02 0.739E+03   0.557E-11 0.848E+00 -.797E+00   0.682E-02 -.573E+00 0.912E+00
   -.237E+02 -.153E+02 -.797E+03   0.239E+02 0.155E+02 0.796E+03   -.189E+00 -.124E+00 0.642E+00   -.899E-01 -.129E+00 0.429E+00
   -.484E+01 -.206E+01 -.818E+03   0.505E+01 0.219E+01 0.817E+03   -.677E-01 -.829E-01 0.713E+00   -.119E+00 -.481E-01 0.377E+00
   0.484E+01 -.206E+01 -.818E+03   -.505E+01 0.219E+01 0.817E+03   0.677E-01 -.829E-01 0.713E+00   0.119E+00 -.507E-01 0.377E+00
   0.204E-04 0.275E+02 -.799E+03   0.109E-03 -.277E+02 0.798E+03   0.502E-12 0.764E-01 0.613E+00   -.597E-03 0.103E+00 0.412E+00
   0.551E-04 0.580E+01 -.263E+04   -.118E-03 -.583E+01 0.263E+04   -.398E-12 -.606E-01 0.183E+01   -.128E-02 0.641E-01 0.350E+00
   0.614E+02 0.123E+03 -.259E+04   -.617E+02 -.124E+03 0.259E+04   -.717E-01 0.439E+00 0.277E+01   0.257E+00 0.545E+00 0.269E+00
   -.614E+02 0.123E+03 -.259E+04   0.617E+02 -.124E+03 0.259E+04   0.717E-01 0.439E+00 0.277E+01   -.247E+00 0.547E+00 0.268E+00
   0.152E+03 0.481E-01 -.257E+04   -.154E+03 -.808E-01 0.257E+04   0.646E+00 0.979E-02 0.297E+01   0.660E+00 0.315E-01 0.275E+00
   -.152E+03 0.482E-01 -.257E+04   0.154E+03 -.810E-01 0.257E+04   -.646E+00 0.979E-02 0.297E+01   -.661E+00 0.323E-01 0.273E+00
   0.608E+02 -.123E+03 -.259E+04   -.611E+02 0.124E+03 0.259E+04   -.569E-01 -.428E+00 0.276E+01   0.225E+00 -.570E+00 0.264E+00
   -.608E+02 -.123E+03 -.259E+04   0.611E+02 0.124E+03 0.259E+04   0.569E-01 -.428E+00 0.276E+01   -.213E+00 -.572E+00 0.263E+00
   0.184E-04 -.576E+01 -.263E+04   0.108E-03 0.572E+01 0.263E+04   0.870E-12 0.132E+00 0.183E+01   -.793E-02 -.739E-01 0.303E+00
   -.479E-04 -.535E+00 -.190E+04   0.957E-04 0.460E+00 0.189E+04   -.230E-13 -.350E-02 0.238E+01   0.988E-02 0.265E-01 0.116E+00
   0.228E+03 -.995E-02 -.182E+04   -.261E+03 0.478E-01 0.184E+04   0.325E+02 -.430E-01 -.158E+02   0.319E+00 0.119E-01 -.574E+00
   -.228E+03 -.997E-02 -.182E+04   0.261E+03 0.477E-01 0.184E+04   -.325E+02 -.430E-01 -.158E+02   -.318E+00 0.120E-01 -.575E+00
   0.640E-03 0.424E+00 0.217E+02   0.114E-12 -.127E-12 -.364E-11   -.303E-11 -.462E+00 -.288E+02   0.480E-01 0.382E-01 0.704E+01

 POSITION                                       TOTAL-FORCE (eV/Angst)
      0.00000      0.00000      5.28219        -0.000000     -0.004604      0.039542
      2.93046      0.00000      5.28219         0.007000      0.014275      0.025595
      5.86091      0.00000      5.28219        -0.007000      0.014275      0.025595
      1.46523      2.53785      5.28219         0.013987     -0.003635      0.033178
      4.39568      2.53785      5.28219         0.000000      0.001826      0.000456
      7.32614      2.53785      5.28219        -0.013987     -0.003635      0.033178
      2.93046      5.07570      5.28219         0.022403     -0.011729      0.034743
      5.86091      5.07570      5.28219        -0.022403     -0.011729      0.034743
      8.79137      5.07570      5.28219         0.000000      0.000605      0.032467
      1.46523      0.84595      7.67490         0.027875      0.011015      0.004983
      4.39568      0.84595      7.67490        -0.000000     -0.024735     -0.080407
      7.32614      0.84595      7.67490        -0.027875      0.011015      0.004983
      2.93046      3.38380      7.67490        -0.020712      0.001579     -0.091064
      5.86091      3.38380      7.67490         0.020712      0.001579     -0.091064
      8.79137      3.38380      7.67490        -0.000000     -0.005849     -0.012950
      4.39568      5.92165      7.67490        -0.000000     -0.029923     -0.007336
      7.32614      5.92165      7.67490        -0.003259      0.013048     -0.006284
     10.25659      5.92165      7.67490         0.003259      0.013048     -0.006284
      8.79137      1.69533     10.05818        -0.000000     -0.002913      0.033613
      2.93805      1.69629     10.04232         0.013874      0.026977     -0.030745
      5.85331      1.69629     10.04232        -0.013874      0.026977     -0.030745
     10.25424      4.23111     10.04634         0.037863     -0.033259      0.019083
      4.39568      4.22098     10.04232         0.000000      0.004132     -0.067840
      7.32849      4.23111     10.04634        -0.037863     -0.033259      0.019083
     11.71886      6.76588     10.05818         0.017923     -0.005003      0.039502
      5.86388      6.76588     10.05818        -0.017923     -0.005003      0.039502
      8.79137      6.76488     10.04634         0.000000      0.045888      0.043464
      0.00000      0.00000     12.42348        -0.000000     -0.020733     -0.010589
      2.96241      0.05505     12.41819        -0.119882     -0.227864     -0.054324
      5.82895      0.05505     12.41819         0.119882     -0.227864     -0.054324
      1.52888      2.53800     12.41819        -0.425518      0.008942     -0.167303
      7.26249      2.53800     12.41819         0.425518      0.008942     -0.167303
      2.96215      5.02050     12.41819        -0.134272      0.232110     -0.044146
      5.82922      5.02050     12.41819         0.134272      0.232110     -0.044146
      8.79137      5.07570     12.42030         0.000000      0.021130     -0.003664
      4.39568      2.53785     12.13895        -0.000000     -0.051313      0.634658
      3.68379      2.53587     13.91918         0.021513      0.006790     -0.063926
      5.10758      2.53587     13.91918        -0.021513      0.006790     -0.063926
    total drift:                                0.048650      0.000061     -0.109906

  FREE ENERGIE OF THE ION-ELECTRON SYSTEM (eV)
  free  energy   TOTEN  =      -104.05734759 eV

  energy  without entropy=     -104.05734759  energy(sigma->0) =     -104.05734759

 stress matrix after NEB project (eV)
     -9.46554     -0.00000      0.00000
     -0.00000    -10.45655      0.03643
      0.00000      0.03643     -3.22259
  FORCES: max atom, RMS     0.067790    0.015552
  FORCE total and by dimension    0.095869    0.063926
  Stress total and by dimension   14.468019   10.456546
|           W    W    AA    RRRRR   N    N  II  N    N   GGGG   !!!           |
|           W    W   A  A   R    R  NN   N  II  NN   N  G    G  !!!           |
|           W    W  A    A  R    R  N N  N  II  N N  N  G       !!!           |
|           W WW W  AAAAAA  RRRRR   N  N N  II  N  N N  G  GGG   !            |
|           WW  WW  A    A  R   R   N   NN  II  N   NN  G    G                |
|           W    W  A    A  R    R  N    N  II  N    N   GGGG   !!!           |
|     Tetrahedron method does not include variations of the Fermi             |
|     occupations, so forces and stress will be inaccurate. We suggest        |
|     using a different smearing scheme ISMEAR = 1 or 2 for metals in         |
|     relaxations.                                                            |

 total charge

# of ion       s       p       d       tot
    1        0.415   0.203   9.177   9.796
    2        0.418   0.203   9.177   9.798
    3        0.418   0.203   9.177   9.798
    4        0.419   0.203   9.177   9.799
    5        0.415   0.205   9.177   9.797
    6        0.419   0.203   9.177   9.799
    7        0.417   0.204   9.177   9.797
    8        0.417   0.204   9.177   9.797
    9        0.415   0.204   9.178   9.796
   10        0.405   0.270   9.163   9.839
   11        0.409   0.269   9.167   9.845
   12        0.405   0.270   9.163   9.839
   13        0.408   0.269   9.166   9.843
   14        0.408   0.269   9.166   9.843
   15        0.401   0.272   9.164   9.837
   16        0.406   0.269   9.164   9.839
   17        0.402   0.271   9.165   9.838
   18        0.402   0.271   9.165   9.838
   19        0.401   0.268   9.168   9.837
   20        0.418   0.293   9.149   9.861
   21        0.418   0.293   9.149   9.861
   22        0.400   0.273   9.167   9.840
   23        0.414   0.292   9.155   9.861
   24        0.400   0.273   9.167   9.840
   25        0.401   0.269   9.167   9.837
   26        0.401   0.269   9.167   9.837
   27        0.402   0.275   9.164   9.841
   28        0.415   0.195   9.181   9.791
   29        0.400   0.197   9.192   9.789
   30        0.400   0.197   9.192   9.789
   31        0.391   0.202   9.193   9.786
   32        0.391   0.202   9.193   9.786
   33        0.399   0.196   9.193   9.788
   34        0.399   0.196   9.193   9.788
   35        0.415   0.194   9.181   9.790
   36        0.390   0.411   8.341   9.142
   37        1.603   3.243   0.000   4.846
   38        1.603   3.243   0.000   4.846
tot         17.859  15.246 329.389 362.495

 BZINTS: Fermi energy:    0.305104;  407.000000 electrons
         Band energy:-0.158392E+04;  BLOECHL correction:   -0.041632