 vasp.6.2.0 18Jan21 (build Jun 12 2021 23:27:24) complex

 executed on             LinuxIFC date 2022.05.28  02:21:47

 INCAR:
   ISMEAR = -5
   SIGMA = 0.1
   ISPIN = 1
   EDIFF = 1.d-5
   EDIFFG = -0.01
   NSW = 0
   NELM = 150
   ENCUT = 500
   ISIF = 2
   IBRION = 2
   LREAL = Auto
   ALGO = Fast
   ICHARG = 11
   LORBIT = 10
   LCHARG = .F.
   LWAVE = .F.

 POTCAR:    PAW_PBE Cu 22Jun2005
 POTCAR:    PAW_PBE Fe 06Sep2000
 POTCAR:    PAW_PBE H 15Jun2001
 POTCAR:    PAW_PBE O 08Apr2002
|           W    W    AA    RRRRR   N    N  II  N    N   GGGG   !!!           |
|           W    W   A  A   R    R  NN   N  II  NN   N  G    G  !!!           |
|           W    W  A    A  R    R  N N  N  II  N N  N  G       !!!           |
|           W WW W  AAAAAA  RRRRR   N  N N  II  N  N N  G  GGG   !            |
|           WW  WW  A    A  R   R   N   NN  II  N   NN  G    G                |
|           W    W  A    A  R    R  N    N  II  N    N   GGGG   !!!           |
|     For optimal performance we recommend to set                             |
|       NCORE = 2 up to number-of-cores-per-socket                            |
|     This setting can greatly improve the performance of VASP for DFT.       |
|     The default, NCORE=1 might be grossly inefficient on modern             |
|     multi-core architectures or massively parallel machines. Do your        |
|     Unfortunately you need to use the default for GW and RPA                |
|     calculations (for HF NCORE is supported but not extensively tested      |
|     yet).                                                                   |

 POTCAR:    PAW_PBE Cu 22Jun2005
   VRHFIN =Cu: d10 p1

   TITEL  = PAW_PBE Cu 22Jun2005
   POMASS =   63.546; ZVAL   =   11.000    mass and valenz
   ENMAX  =  295.446; ENMIN  =  221.585 eV

 POTCAR:    PAW_PBE Fe 06Sep2000
   VRHFIN =Fe:  d7 s1

   TITEL  = PAW_PBE Fe 06Sep2000
   POMASS =   55.847; ZVAL   =    8.000    mass and valenz
   ENMAX  =  267.882; ENMIN  =  200.911 eV

 POTCAR:    PAW_PBE H 15Jun2001
   VRHFIN =H: ultrasoft test

   TITEL  = PAW_PBE H 15Jun2001
   POMASS =    1.000; ZVAL   =    1.000    mass and valenz
   ENMAX  =  250.000; ENMIN  =  200.000 eV

 POTCAR:    PAW_PBE O 08Apr2002
   VRHFIN =O: s2p4

   TITEL  = PAW_PBE O 08Apr2002
   POMASS =   16.000; ZVAL   =    6.000    mass and valenz
   ENMAX  =  400.000; ENMIN  =  300.000 eV

 Optimization of the real space projectors (new method)

 maximal supplied QI-value         = 16.25
 optimisation between [QCUT,QGAM] = [ 11.38, 22.75] = [ 36.24,144.96] Ry
 Optimized for a Real-space Cutoff    1.52 Angstroem

   l    n(q)    QCUT    max X(q) W(low)/X(q) W(high)/X(q)  e(spline)
   2      9    11.376     4.610    0.21E-03    0.10E-03    0.26E-06
   2      9    11.376     8.522    0.33E-03    0.16E-03    0.37E-06
   0     10    11.376    51.609    0.62E-04    0.20E-04    0.13E-06
   0     10    11.376    27.747    0.54E-04    0.20E-04    0.13E-06
   1     10    11.376    20.408    0.13E-04    0.99E-04    0.19E-06
   1     10    11.376    13.425    0.12E-04    0.87E-04    0.17E-06
 Optimization of the real space projectors (new method)

[...]

   l    n(q)    QCUT    max X(q) W(low)/X(q) W(high)/X(q)  e(spline)
   0      8    11.287    19.460    0.40E-03    0.73E-03    0.16E-06
   0      8    11.287    12.209    0.38E-03    0.70E-03    0.15E-06
   1      7    11.287     4.655    0.22E-03    0.25E-04    0.22E-06
 Optimization of the real space projectors (new method)

 maximal supplied QI-value         = 24.76
 optimisation between [QCUT,QGAM] = [ 11.39, 22.77] = [ 36.31,145.25] Ry
 Optimized for a Real-space Cutoff    1.00 Angstroem

   l    n(q)    QCUT    max X(q) W(low)/X(q) W(high)/X(q)  e(spline)
   0      7    11.387    20.381    0.39E-03    0.13E-02    0.15E-06
   0      7    11.387    15.268    0.42E-03    0.14E-02    0.17E-06
   1      6    11.387     5.964    0.41E-03    0.11E-02    0.17E-06
   1      6    11.387     5.382    0.39E-03    0.87E-03    0.15E-06
  PAW_PBE Cu 22Jun2005                  :
  PAW_PBE Fe 06Sep2000                  :
  PAW_PBE H 15Jun2001                   :
  PAW_PBE O 08Apr2002                   :

 POSCAR: Cu-Fe-H2O
  positions in direct lattice
  velocities in cartesian coordinates
 exchange correlation table for  LEXCH =        8
   RHO(1)=    0.500       N(1)  =     2000
   RHO(2)=  100.500       N(2)  =     4000

 VTST: version 3.2, (02/03/18)

 CHAIN: initializing optimizer

 OPT: Using VASP Conjugate-Gradient optimizer
 CHAIN: Read ICHAIN            0

 POSCAR: Cu-Fe-H2O
  positions in direct lattice
  velocities in cartesian coordinates

 ion  position               nearest neighbor table
   1  0.000  0.000  0.221-   7 2.57   3 2.57   4 2.57   2 2.57   6 2.57   8 2.57  12 2.57  10 2.57
                            16 2.57
   2  0.333  0.000  0.221-   8 2.57   9 2.57   5 2.57   1 2.57   3 2.57  11 2.57   4 2.57  10 2.57
                            17 2.57
   3  0.667  0.000  0.221-   1 2.57   7 2.57   6 2.57   9 2.57   2 2.57  12 2.57   5 2.57  18 2.57
                            11 2.57
   4  0.000  0.333  0.221-   5 2.57   6 2.57   1 2.57   7 2.57   2 2.57  13 2.57   9 2.57  10 2.57
                            15 2.57
   5  0.333  0.333  0.221-   4 2.57   2 2.57   7 2.57  13 2.57   8 2.57   6 2.57   3 2.57  11 2.57
                            14 2.57
   6  0.667  0.333  0.221-   4 2.57   9 2.57  15 2.57   3 2.57   1 2.57   8 2.57  14 2.57   5 2.57
                            12 2.57
   7  0.000  0.667  0.221-   1 2.57   3 2.57  16 2.57  18 2.57   4 2.57   5 2.57   8 2.57   9 2.57
                            13 2.57
   8  0.333  0.667  0.221-   9 2.57   2 2.57  17 2.57   6 2.57   1 2.57   7 2.57   5 2.57  14 2.57
                            16 2.57
   9  0.667  0.667  0.221-   8 2.57   6 2.57   2 2.57  17 2.57   3 2.57   7 2.57   4 2.57  15 2.57
                            18 2.57
  10  0.111  0.111  0.308-  20 2.55  26 2.56  19 2.56  11 2.57  12 2.57  13 2.57   1 2.57   2 2.57
                             4 2.57  15 2.57  16 2.57  17 2.57
  11  0.444  0.111  0.308-  20 2.55  21 2.55  27 2.56  10 2.57  13 2.57   2 2.57  17 2.57  14 2.57
                            12 2.57   5 2.57   3 2.57  18 2.57
  12  0.778  0.111  0.308-  21 2.55  19 2.56  25 2.56  15 2.57  10 2.57  14 2.57  18 2.57   3 2.57
                             1 2.57  16 2.57  11 2.57   6 2.57
  13  0.111  0.444  0.308-  23 2.55  20 2.55  22 2.56  16 2.57  18 2.57  10 2.57  11 2.57  14 2.57
                             5 2.57   4 2.57   7 2.57  15 2.57
  14  0.444  0.444  0.308-  21 2.55  23 2.55  24 2.56  15 2.57  17 2.57  12 2.57  16 2.57  13 2.57
                            11 2.57   6 2.57   8 2.57   5 2.57
  15  0.778  0.444  0.308-  19 2.56  24 2.56  22 2.56  14 2.57  17 2.57  12 2.57   6 2.57  18 2.57
                            10 2.57   9 2.57  13 2.57   4 2.57
  16  0.111  0.778  0.308-  23 2.55  25 2.56  26 2.56  18 2.57  13 2.57   7 2.57  14 2.57  17 2.57
                            12 2.57  10 2.57   8 2.57   1 2.57
  17  0.444  0.778  0.308-  26 2.56  27 2.56  24 2.56  14 2.57  15 2.57   8 2.57   9 2.57  11 2.57
                            16 2.57  18 2.57  10 2.57   2 2.57
  18  0.778  0.778  0.308-  25 2.56  22 2.56  27 2.56  16 2.57  13 2.57   7 2.57  15 2.57  12 2.57
                            17 2.57   9 2.57   3 2.57  11 2.57
  19  0.889  0.223  0.394-  28 2.55  15 2.56  12 2.56  10 2.56  22 2.56  24 2.56  32 2.57  31 2.57
                            21 2.57  20 2.57  25 2.57  26 2.57
  20  0.222  0.222  0.393-  36 2.47  11 2.55  13 2.55  10 2.55  29 2.55  31 2.55  23 2.56  21 2.56
                            26 2.57  19 2.57  27 2.57  22 2.57
  21  0.555  0.222  0.393-  36 2.47  14 2.55  11 2.55  12 2.55  32 2.55  30 2.55  20 2.56  23 2.56
                            19 2.57  25 2.57  24 2.57  27 2.57
  22  0.888  0.556  0.394-  35 2.54  31 2.56  33 2.56  18 2.56  15 2.56  24 2.56  27 2.56  13 2.56
                            19 2.56  25 2.56  23 2.57  20 2.57
  23  0.222  0.555  0.393-  36 2.47  13 2.55  14 2.55  16 2.55  33 2.55  34 2.55  20 2.56  21 2.56
                            25 2.57  26 2.57  22 2.57  24 2.57
  24  0.556  0.556  0.394-  35 2.54  32 2.56  34 2.56  15 2.56  17 2.56  22 2.56  27 2.56  14 2.56
                            19 2.56  26 2.56  21 2.57  23 2.57
  25  0.889  0.889  0.394-  28 2.55  18 2.56  16 2.56  12 2.56  22 2.56  27 2.56  33 2.57  30 2.57
                            21 2.57  23 2.57  19 2.57  26 2.57
  26  0.223  0.889  0.394-  28 2.55  17 2.56  10 2.56  16 2.56  27 2.56  24 2.56  29 2.57  34 2.57
                            20 2.57  23 2.57  25 2.57  19 2.57
  27  0.556  0.888  0.394-  35 2.54  29 2.56  30 2.56  17 2.56  18 2.56  24 2.56  22 2.56  11 2.56
                            26 2.56  25 2.56  20 2.57  21 2.57
  28  0.000  0.000  0.479-  25 2.55  19 2.55  26 2.55  33 2.58  30 2.58  31 2.58  29 2.58  32 2.58
                            34 2.58
  29  0.333  0.003  0.479-  31 2.54  30 2.54  36 2.54  20 2.55  27 2.56  26 2.57  28 2.58  35 2.58
                            34 2.61
  30  0.664  0.003  0.479-  32 2.54  29 2.54  36 2.54  21 2.55  27 2.56  25 2.57  28 2.58  35 2.58
                            33 2.61
  31  0.003  0.333  0.479-  29 2.54  33 2.54  36 2.54  20 2.55  22 2.56  19 2.57  28 2.58  35 2.58
                            32 2.61
  32  0.664  0.333  0.479-  30 2.54  34 2.54  36 2.54  21 2.55  24 2.56  19 2.57  28 2.58  35 2.58
                            31 2.61
  33  0.003  0.664  0.479-  34 2.54  31 2.54  36 2.54  23 2.55  22 2.56  25 2.57  28 2.58  35 2.58
                            30 2.61
  34  0.333  0.664  0.479-  33 2.54  32 2.54  36 2.54  23 2.55  24 2.56  26 2.57  28 2.58  35 2.58
                            29 2.61
  35  0.667  0.667  0.479-  24 2.54  27 2.54  22 2.54  34 2.58  32 2.58  29 2.58  30 2.58  33 2.58
                            31 2.58
  36  0.333  0.333  0.474-  39 2.17  23 2.47  20 2.47  21 2.47  31 2.54  29 2.54  33 2.54  34 2.54
                            32 2.54  30 2.54
  37  0.272  0.253  0.572-  39 0.98
  38  0.475  0.252  0.571-  39 0.98
  39  0.331  0.337  0.564-  37 0.98  38 0.98  36 2.17

  LATTYP: Found a hexagonal cell.
 ALAT       =     7.6967864036
 C/A-ratio  =     3.1535378041

  Lattice vectors:

 A1 = (  -3.8483927580,  -6.6656128093,   0.0000000000)
 A2 = (   7.6967864037,   0.0000000000,   0.0000000000)
 A3 = (   0.0000000000,   0.0000000000,  24.2721068937)

Analysis of symmetry for initial positions (statically):
 Subroutine PRICEL returns:
 Original cell was already a primitive cell.

 Routine SETGRP: Setting up the symmetry group for a
 hexagonal supercell.

 Subroutine GETGRP returns: Found  1 space group operations
 (whereof  1 operations were pure point group operations)
 out of a pool of 24 trial point group operations.

The static configuration has the point symmetry C_1 .

Analysis of symmetry for dynamics (positions and initial velocities):
 Subroutine PRICEL returns:
 Original cell was already a primitive cell.

[...]

The dynamic configuration has the point symmetry C_1 .

Analysis of constrained symmetry for selective dynamics:
 Subroutine PRICEL returns:
[...]
     41      -4.0052      2.00000
     42      -3.9984      2.00000
     43      -3.9193      2.00000
     44      -3.9162      2.00000
     45      -3.9009      2.00000
     46      -3.8766      2.00000
     47      -3.8728      2.00000
     48      -3.8545      2.00000
     49      -3.8405      2.00000
     50      -3.6698      2.00000
     51      -3.6522      2.00000
     52      -3.6493      2.00000
     53      -3.6422      2.00000
     54      -3.5900      2.00000
     55      -3.5842      2.00000
     56      -3.5732      2.00000
     57      -3.5499      2.00000
     58      -3.5459      2.00000
     59      -3.5191      2.00000
     60      -3.5098      2.00000
[...]
    238       5.5732      0.00000
    239       5.7373      0.00000
    240       5.7504      0.00000
    241       5.8474      0.00000
    242       5.9299      0.00000
    243       5.9919      0.00000
    244       6.0656      0.00000
    245       6.0940      0.00000
    246       6.3460      0.00000
    247       6.5884      0.00000
    248       6.7220      0.00000
    249       6.9519      0.00000
    250       7.0321      0.00000
    251       7.1734      0.00000
    252       7.4089      0.00000

 soft charge-density along one line, spin component           1
         0         1         2         3         4         5         6         7         8         9
 total charge-density along one line

------------------------ aborting loop because EDIFF is reached ----------------------------------------

 total charge

# of ion       s       p       d       tot
    1        0.449   0.284   9.187   9.921
    2        0.449   0.285   9.186   9.920
    3        0.449   0.285   9.186   9.920
    4        0.449   0.285   9.186   9.920
    5        0.447   0.287   9.181   9.915
    6        0.449   0.285   9.186   9.920
    7        0.449   0.285   9.187   9.920
    8        0.449   0.285   9.187   9.920
    9        0.447   0.283   9.190   9.920
   10        0.442   0.372   9.175   9.989
   11        0.444   0.366   9.184   9.994
   12        0.442   0.372   9.175   9.989
   13        0.443   0.367   9.183   9.994
   14        0.443   0.367   9.183   9.994
   15        0.439   0.370   9.179   9.988
   16        0.442   0.372   9.175   9.989
   17        0.439   0.370   9.178   9.988
   18        0.439   0.370   9.178   9.988
   19        0.442   0.369   9.181   9.993
   20        0.457   0.393   9.164  10.013
   21        0.457   0.393   9.163  10.013
   22        0.435   0.376   9.181   9.992
   23        0.456   0.394   9.163  10.013
   24        0.435   0.376   9.181   9.992
   25        0.441   0.370   9.181   9.992
   26        0.441   0.370   9.181   9.992
   27        0.436   0.375   9.181   9.992
   28        0.445   0.288   9.187   9.920
   29        0.459   0.302   9.178   9.939
   30        0.459   0.302   9.178   9.939
   31        0.459   0.300   9.178   9.938
   32        0.459   0.300   9.178   9.938
   33        0.456   0.294   9.182   9.931
   34        0.456   0.294   9.182   9.931
   35        0.440   0.291   9.187   9.918
   36        0.408   0.374   6.311   7.093
   37        0.605   0.118   0.000   0.723
   38        0.605   0.118   0.000   0.722
   39        1.570   3.596   0.000   5.166
tot         18.830  15.884 327.625 362.338

  FORCE on cell =-STRESS in cart. coord.  units (eV):
  Direction    XX          YY          ZZ          XY          YZ          ZX
  Alpha Z   786.18026   786.18026   786.18026
  Ewald  233874.75654233813.46798************    -0.46973   -14.14798    -0.87366
  Hartree246753.50912246741.92629************    -0.09772     1.08936    -0.15680
  E(xc)   -2321.41488 -2321.66342 -2325.85062    -0.00230    -0.04324    -0.00477
  Local  ************************493829.49354     0.46215     6.90716     0.78178
  n-local  -814.11905  -815.15219  -826.49222    -0.00413     0.02243     0.00049
  augment  3351.62131  3352.76244  3370.89701    -0.00999     0.33134     0.01910
  Kinetic  3337.44581  3354.62798  3387.39993     0.12606     5.88131     0.24344
  Fock        0.00000     0.00000     0.00000     0.00000     0.00000     0.00000
  Total      -7.36514    -7.71576     1.36991     0.00435     0.04038     0.00959
  in kB      -9.47621    -9.92732     1.76256     0.00560     0.05196     0.01234

 VOLUME and BASIS-vectors are now :
  energy-cutoff  :      500.00
  volume of cell :     1245.25
      direct lattice vectors                 reciprocal lattice vectors
     7.696786404  0.000000000  0.000000000     0.129924354 -0.075011849  0.000000000
     3.848392758  6.665612809  0.000000000     0.000000000  0.150023716  0.000000000
     0.000000000  0.000000000 24.272106894     0.000000000  0.000000000  0.041199555

  length of vectors
     7.696786404  7.696786404 24.272106894     0.150023716  0.150023716  0.041199555

 FORCES acting on ions
    electron-ion (+dipol)            ewald-force                    non-local-force                 convergence-correction
   0.269E-02 0.236E-03 0.379E+04   0.978E-04 -.938E-02 -.378E+04   -.443E-04 0.170E-01 -.276E+01   -.282E-02 -.217E-02 -.355E+00
   0.138E-01 0.126E+00 0.379E+04   -.143E+00 -.160E+00 -.378E+04   0.685E-01 0.429E-01 -.179E+01   0.666E-01 0.799E-02 -.340E+00
   -.158E-01 0.115E+00 0.379E+04   0.143E+00 -.160E+00 -.378E+04   -.693E-01 0.415E-01 -.179E+01   -.636E-01 0.200E-01 -.335E+00
   0.119E+00 -.599E-01 0.379E+04   -.202E+00 -.341E-01 -.378E+04   0.633E-01 0.219E-01 -.179E+01   0.367E-01 0.641E-01 -.345E+00
   -.152E-01 -.345E-01 0.379E+04   0.157E-03 0.146E-01 -.378E+04   -.870E-02 -.791E-02 -.176E+01   0.241E-01 0.239E-01 -.271E+00
   -.109E+00 -.641E-01 0.379E+04   0.201E+00 -.342E-01 -.378E+04   -.627E-01 0.217E-01 -.179E+01   -.470E-01 0.685E-01 -.340E+00
   0.561E-01 -.683E-01 0.379E+04   -.586E-01 0.194E+00 -.378E+04   0.154E-01 -.688E-01 -.187E+01   -.383E-02 -.678E-01 -.374E+00
   -.652E-01 -.612E-01 0.379E+04   0.584E-01 0.194E+00 -.378E+04   -.175E-01 -.681E-01 -.187E+01   0.151E-01 -.756E-01 -.375E+00
   0.134E-01 0.631E-01 0.379E+04   0.183E-03 -.510E-02 -.378E+04   0.990E-02 -.186E-01 -.235E+01   -.238E-01 -.402E-01 -.364E+00
   0.217E+01 0.122E+01 0.130E+04   -.179E+01 -.103E+01 -.130E+04   -.437E+00 -.240E+00 -.104E+01   0.758E-01 0.571E-01 -.352E+00
   -.149E-01 0.161E+01 0.130E+04   0.649E-04 -.194E+01 -.130E+04   -.790E-02 0.195E+00 -.389E+00   0.232E-01 0.935E-01 -.313E+00
   -.216E+01 0.122E+01 0.130E+04   0.179E+01 -.103E+01 -.130E+04   0.438E+00 -.241E+00 -.104E+01   -.850E-01 0.598E-01 -.356E+00
   0.134E+01 -.846E+00 0.130E+04   -.168E+01 0.106E+01 -.130E+04   0.206E+00 -.145E+00 -.445E+00   0.105E+00 -.535E-01 -.340E+00
   -.136E+01 -.840E+00 0.130E+04   0.168E+01 0.106E+01 -.130E+04   -.223E+00 -.144E+00 -.443E+00   -.682E-01 -.615E-01 -.354E+00
   0.860E-02 0.104E+00 0.130E+04   -.163E-03 -.394E+00 -.130E+04   0.190E-02 0.202E+00 -.859E+00   -.103E-01 0.711E-01 -.443E+00
   0.249E-02 -.239E+01 0.130E+04   0.716E-03 0.197E+01 -.130E+04   0.659E-03 0.497E+00 -.111E+01   -.383E-02 -.984E-01 -.367E+00
   0.208E+00 -.354E-01 0.130E+04   -.419E+00 0.151E+00 -.130E+04   0.136E+00 -.749E-01 -.891E+00   0.502E-01 -.295E-01 -.441E+00
   -.209E+00 -.447E-01 0.130E+04   0.419E+00 0.151E+00 -.130E+04   -.139E+00 -.766E-01 -.891E+00   -.468E-01 -.189E-01 -.431E+00
   -.238E-02 0.323E+00 -.121E+04   -.828E-03 -.404E+00 0.121E+04   0.668E-03 0.446E-01 0.686E+00   0.270E-02 0.257E-01 -.839E-01
   -.317E+01 -.232E+01 -.120E+04   0.415E+01 0.289E+01 0.120E+04   -.123E+01 -.699E+00 -.108E+01   0.256E+00 0.129E+00 0.216E+00
   0.318E+01 -.231E+01 -.120E+04   -.415E+01 0.290E+01 0.120E+04   0.125E+01 -.699E+00 -.108E+01   -.284E+00 0.119E+00 0.214E+00
   -.412E+01 0.209E+01 -.121E+04   0.339E+01 -.170E+01 0.121E+04   0.498E+00 -.262E+00 0.615E+00   0.252E+00 -.135E+00 -.129E+00
   0.101E-01 0.341E+01 -.120E+04   0.435E-02 -.458E+01 0.120E+04   0.970E-02 0.149E+01 -.105E+01   -.244E-01 -.319E+00 0.204E+00
   0.410E+01 0.209E+01 -.121E+04   -.339E+01 -.170E+01 0.121E+04   -.518E+00 -.262E+00 0.615E+00   -.215E+00 -.140E+00 -.131E+00
   -.687E+00 0.381E+00 -.121E+04   0.753E+00 -.285E+00 0.121E+04   -.125E-01 -.859E-01 0.787E+00   -.410E-01 -.938E-02 -.967E-01
   0.690E+00 0.375E+00 -.121E+04   -.750E+00 -.287E+00 0.121E+04   0.143E-01 -.858E-01 0.789E+00   0.340E-01 -.133E-02 -.924E-01
   -.866E-02 -.406E+01 -.120E+04   -.295E-02 0.315E+01 0.120E+04   -.939E-02 0.606E+00 0.557E+00   0.214E-01 0.334E+00 -.145E+00
   -.824E-02 0.224E+01 -.368E+04   0.645E-02 -.229E+01 0.368E+04   -.211E-02 0.514E-01 0.198E+01   0.367E-02 0.109E-01 0.338E+00
   0.122E+02 0.220E+02 -.366E+04   -.119E+02 -.218E+02 0.366E+04   -.477E+00 -.610E+00 0.145E+01   0.989E-01 0.253E+00 0.206E+00
   -.122E+02 0.221E+02 -.366E+04   0.119E+02 -.218E+02 0.366E+04   0.496E+00 -.616E+00 0.143E+01   -.128E+00 0.257E+00 0.202E+00
   0.224E+02 -.319E+01 -.366E+04   -.220E+02 0.335E+01 0.366E+04   -.873E+00 -.133E+00 0.152E+01   0.261E+00 -.301E-01 0.228E+00
   -.224E+02 -.323E+01 -.366E+04   0.219E+02 0.339E+01 0.366E+04   0.895E+00 -.133E+00 0.152E+01   -.293E+00 -.294E-01 0.233E+00
   0.852E+01 -.168E+02 -.367E+04   -.862E+01 0.165E+02 0.367E+04   -.143E+00 0.647E+00 0.216E+01   0.149E+00 -.252E+00 0.246E+00
   -.853E+01 -.168E+02 -.367E+04   0.864E+01 0.165E+02 0.367E+04   0.157E+00 0.647E+00 0.216E+01   -.175E+00 -.253E+00 0.254E+00
   0.254E-01 0.114E+01 -.369E+04   -.213E-01 -.112E+01 0.369E+04   0.814E-02 0.964E-02 0.240E+01   -.126E-01 -.234E-01 0.387E+00
   -.187E-01 -.492E+01 -.249E+04   0.980E-02 0.494E+01 0.248E+04   -.437E-02 -.151E-01 0.232E+01   0.860E-02 0.416E-02 -.119E+00
   0.680E+02 0.448E+02 -.397E+03   -.747E+02 -.493E+02 0.398E+03   0.671E+01 0.448E+01 -.154E+01   0.695E-02 0.634E-02 0.427E-02
   -.677E+02 0.456E+02 -.396E+03   0.744E+02 -.501E+02 0.398E+03   -.667E+01 0.455E+01 -.145E+01   -.676E-02 0.668E-02 0.402E-02
   -.156E+00 -.578E+02 -.231E+04   0.356E+00 0.102E+03 0.231E+04   -.204E+00 -.440E+02 0.610E+01   0.367E-02 0.887E-02 -.320E-01
   0.173E+00 0.351E+02 0.867E+01   -.570E-13 -.711E-13 0.173E-10   -.137E+00 -.351E+02 -.398E+01   -.418E-01 -.182E-01 -.459E+01

 POSITION                                       TOTAL-FORCE (eV/Angst)
      0.00000      0.00000      5.37156         0.000092      0.006018      0.004403
      2.56560      0.00000      5.37156         0.006196      0.017694      0.064535
      5.13119      0.00000      5.37156        -0.005823      0.017588      0.064414
      1.28280      2.22187      5.37156         0.017404     -0.007726      0.066816
      3.84839      2.22187      5.37156         0.000587     -0.003663      0.036687
      6.41399      2.22187      5.37156        -0.016996     -0.007799      0.066799
      2.56560      4.44374      5.37156         0.009242     -0.010897      0.065906
      5.13119      4.44374      5.37156        -0.008981     -0.010899      0.065915
      7.69679      4.44374      5.37156        -0.000189     -0.000461      0.014926
      1.28280      0.74062      7.46636         0.016451      0.009695     -0.058024
      3.84839      0.74062      7.46636         0.000581     -0.039879     -0.087935
      6.41399      0.74062      7.46636        -0.015958      0.009610     -0.057924
      2.56560      2.96249      7.46636        -0.028136      0.018885     -0.089628
      5.13119      2.96249      7.46636         0.029565      0.019023     -0.089656
      7.69679      2.96249      7.46636         0.000251     -0.016929     -0.027030
      3.84839      5.18437      7.46636         0.000192     -0.021405     -0.067282
      6.41399      5.18437      7.46636        -0.024042      0.011205     -0.026934
      8.97958      5.18437      7.46636         0.024269      0.010986     -0.027009
      7.69679      1.48386      9.55425         0.000320     -0.010869     -0.019333
      2.56752      1.48236      9.54187         0.012796      0.009629     -0.087957
      5.12927      1.48236      9.54187        -0.013185      0.009811     -0.087894
      8.97669      3.70479      9.55452         0.020892     -0.010762     -0.004141
      3.84839      3.70090      9.54187        -0.000170     -0.011438     -0.062687
      6.41688      3.70479      9.55452        -0.019944     -0.010967     -0.004104
     10.26012      5.92368      9.55425         0.012203      0.000702     -0.003356
      5.13345      5.92368      9.55425        -0.011633      0.000879     -0.003035
      7.69679      5.92165      9.55452         0.000533      0.026718     -0.017577
      0.00000      0.00000     11.62539        -0.000073      0.010014      0.041536
      2.57645      0.02208     11.63568        -0.077402     -0.123987     -0.091535
      5.12034      0.02208     11.63568         0.077504     -0.123909     -0.091189
      1.30734      2.22023     11.63568        -0.149370     -0.008902     -0.096910
      6.38944      2.22023     11.63568         0.147947     -0.009424     -0.095635
      2.57929      4.42331     11.63568        -0.089942      0.117118     -0.076419
      5.11749      4.42331     11.63568         0.089181      0.116490     -0.076167
      7.69679      4.44374     11.62587        -0.000229      0.004669      0.028879
      3.84839      2.22187     11.51524        -0.004486      0.008401      0.887959
      3.06516      1.68765     13.87372        -0.006497     -0.001653     -0.000858
      4.62683      1.67904     13.86284         0.007238     -0.001775      0.008419
      3.84770      2.24615     13.68287        -0.000390      0.008210     -0.066978
    total drift:                               -0.006441     -0.011255      0.100705

  FREE ENERGIE OF THE ION-ELECTRON SYSTEM (eV)
  free  energy   TOTEN  =      -143.38253007 eV

  energy  without entropy=     -143.38253007  energy(sigma->0) =     -143.38253007

 stress matrix after NEB project (eV)
     -7.36514      0.00435      0.00959
      0.00435     -7.71576      0.04038
      0.00959      0.04038      1.36991
  FORCES: max atom, RMS     0.067480    0.011008
  FORCE total and by dimension    0.068744    0.066978
  Stress total and by dimension   10.754457    7.715757
|           W    W    AA    RRRRR   N    N  II  N    N   GGGG   !!!           |
|           W    W   A  A   R    R  NN   N  II  NN   N  G    G  !!!           |
|           W    W  A    A  R    R  N N  N  II  N N  N  G       !!!           |
|           W WW W  AAAAAA  RRRRR   N  N N  II  N  N N  G  GGG   !            |
|           WW  WW  A    A  R   R   N   NN  II  N   NN  G    G                |
|           W    W  A    A  R    R  N    N  II  N    N   GGGG   !!!           |
|     Tetrahedron method does not include variations of the Fermi             |
|     occupations, so forces and stress will be inaccurate. We suggest        |
|     using a different smearing scheme ISMEAR = 1 or 2 for metals in         |
|     relaxations.                                                            |

 total charge

# of ion       s       p       d       tot
    1        0.449   0.284   9.187   9.921
    2        0.449   0.285   9.186   9.920
    3        0.449   0.285   9.186   9.920
    4        0.449   0.285   9.186   9.920
    5        0.447   0.287   9.181   9.915
    6        0.449   0.285   9.186   9.920
    7        0.449   0.285   9.187   9.920
    8        0.449   0.285   9.187   9.920
    9        0.447   0.283   9.190   9.920
   10        0.442   0.372   9.175   9.989
   11        0.444   0.366   9.184   9.994
   12        0.442   0.372   9.175   9.989
   13        0.443   0.367   9.183   9.994
   14        0.443   0.367   9.183   9.994
   15        0.439   0.370   9.179   9.988
   16        0.442   0.372   9.175   9.989
   17        0.439   0.370   9.178   9.988
   18        0.439   0.370   9.178   9.988
   19        0.442   0.369   9.181   9.993
   20        0.457   0.393   9.164  10.013
   21        0.457   0.393   9.163  10.013
   22        0.435   0.376   9.181   9.992
   23        0.456   0.394   9.163  10.013
   24        0.435   0.376   9.181   9.992
   25        0.441   0.370   9.181   9.992
   26        0.441   0.370   9.181   9.992
   27        0.436   0.375   9.181   9.992
   28        0.445   0.288   9.187   9.920
   29        0.459   0.302   9.178   9.939
   30        0.459   0.302   9.178   9.939
   31        0.459   0.300   9.178   9.938
   32        0.459   0.300   9.178   9.938
   33        0.456   0.294   9.182   9.931
   34        0.456   0.294   9.182   9.931
   35        0.440   0.291   9.187   9.918
   36        0.408   0.374   6.311   7.093
   37        0.605   0.118   0.000   0.723
   38        0.605   0.118   0.000   0.722
   39        1.570   3.596   0.000   5.166
tot         18.830  15.884 327.625 362.338

 BZINTS: Fermi energy:   -0.232337;  401.000000 electrons
         Band energy:-0.126935E+04;  BLOECHL correction:   -0.045282