 vasp.6.2.0 18Jan21 (build Jun 12 2021 23:27:24) complex

 executed on             LinuxIFC date 2022.05.28  02:10:44

 INCAR:
   ISMEAR = -5
   SIGMA = 0.1
   ISPIN = 1
   EDIFF = 1.d-5
   EDIFFG = -0.01
   NSW = 0
   NELM = 150
   ENCUT = 500
   ISIF = 2
   IBRION = 2
   LREAL = Auto
   ALGO = Fast
   ICHARG = 11
   LORBIT = 10
   LCHARG = .F.
   LWAVE = .F.

 POTCAR:    PAW_PBE Ag 02Apr2005
 POTCAR:    PAW_PBE Pt 04Feb2005
 POTCAR:    PAW_PBE H 15Jun2001
 POTCAR:    PAW_PBE O 08Apr2002
|           W    W    AA    RRRRR   N    N  II  N    N   GGGG   !!!           |
|           W    W   A  A   R    R  NN   N  II  NN   N  G    G  !!!           |
|           W    W  A    A  R    R  N N  N  II  N N  N  G       !!!           |
|           W WW W  AAAAAA  RRRRR   N  N N  II  N  N N  G  GGG   !            |
|           WW  WW  A    A  R   R   N   NN  II  N   NN  G    G                |
|           W    W  A    A  R    R  N    N  II  N    N   GGGG   !!!           |
|     For optimal performance we recommend to set                             |
|       NCORE = 2 up to number-of-cores-per-socket                            |
|     This setting can greatly improve the performance of VASP for DFT.       |
|     The default, NCORE=1 might be grossly inefficient on modern             |
|     multi-core architectures or massively parallel machines. Do your        |
|     Unfortunately you need to use the default for GW and RPA                |
|     calculations (for HF NCORE is supported but not extensively tested      |
|     yet).                                                                   |

 POTCAR:    PAW_PBE Ag 02Apr2005
   VRHFIN =Ag : s1 d10

   TITEL  = PAW_PBE Ag 02Apr2005
   POMASS =  107.868; ZVAL   =   11.000    mass and valenz
   ENMAX  =  249.844; ENMIN  =  187.383 eV

 POTCAR:    PAW_PBE Pt 04Feb2005
   VRHFIN =Pt: s1d9

   TITEL  = PAW_PBE Pt 04Feb2005
   POMASS =  195.080; ZVAL   =   10.000    mass and valenz
   ENMAX  =  230.283; ENMIN  =  172.712 eV

 POTCAR:    PAW_PBE H 15Jun2001
   VRHFIN =H: ultrasoft test

   TITEL  = PAW_PBE H 15Jun2001
   POMASS =    1.000; ZVAL   =    1.000    mass and valenz
   ENMAX  =  250.000; ENMIN  =  200.000 eV

 POTCAR:    PAW_PBE O 08Apr2002
   VRHFIN =O: s2p4

   TITEL  = PAW_PBE O 08Apr2002
   POMASS =   16.000; ZVAL   =    6.000    mass and valenz
   ENMAX  =  400.000; ENMIN  =  300.000 eV

 Optimization of the real space projectors (new method)

 maximal supplied QI-value         = 15.12
 optimisation between [QCUT,QGAM] = [ 11.34, 22.83] = [ 36.00,145.93] Ry
 Optimized for a Real-space Cutoff    1.43 Angstroem

   l    n(q)    QCUT    max X(q) W(low)/X(q) W(high)/X(q)  e(spline)
   2      9    11.338    53.897    0.16E-03    0.20E-03    0.28E-06
   2      9    11.338    52.416    0.16E-03    0.20E-03    0.29E-06
   0     10    11.338   122.045    0.31E-04    0.76E-04    0.15E-06
   0     10    11.338    73.629    0.30E-04    0.72E-04    0.15E-06
   1      9    11.338    15.255    0.20E-03    0.19E-04    0.17E-06
   1      9    11.338     9.562    0.16E-03    0.15E-04    0.14E-06
 Optimization of the real space projectors (new method)

[...]

   l    n(q)    QCUT    max X(q) W(low)/X(q) W(high)/X(q)  e(spline)
   0      8    11.287    19.460    0.40E-03    0.73E-03    0.16E-06
   0      8    11.287    12.209    0.38E-03    0.70E-03    0.15E-06
   1      7    11.287     4.655    0.22E-03    0.25E-04    0.22E-06
 Optimization of the real space projectors (new method)

 maximal supplied QI-value         = 24.76
 optimisation between [QCUT,QGAM] = [ 11.39, 22.77] = [ 36.31,145.25] Ry
 Optimized for a Real-space Cutoff    1.00 Angstroem

   l    n(q)    QCUT    max X(q) W(low)/X(q) W(high)/X(q)  e(spline)
   0      7    11.387    20.381    0.39E-03    0.13E-02    0.15E-06
   0      7    11.387    15.268    0.42E-03    0.14E-02    0.17E-06
   1      6    11.387     5.964    0.41E-03    0.11E-02    0.17E-06
   1      6    11.387     5.382    0.39E-03    0.87E-03    0.15E-06
  PAW_PBE Ag 02Apr2005                  :
  PAW_PBE Pt 04Feb2005                  :
  PAW_PBE H 15Jun2001                   :
  PAW_PBE O 08Apr2002                   :

 POSCAR: Ag-Pt-H2O
  positions in direct lattice
  velocities in cartesian coordinates
 exchange correlation table for  LEXCH =        8
   RHO(1)=    0.500       N(1)  =     2000
   RHO(2)=  100.500       N(2)  =     4000

 VTST: version 3.2, (02/03/18)

 CHAIN: initializing optimizer

 OPT: Using VASP Conjugate-Gradient optimizer
 CHAIN: Read ICHAIN            0

 POSCAR: Ag-Pt-H2O
  positions in direct lattice
  velocities in cartesian coordinates

 ion  position               nearest neighbor table
   1  0.000  0.000  0.212-   2 2.93   8 2.93   7 2.93   6 2.93   4 2.93  12 2.93  16 2.93  10 2.93
                             3 2.93
   2  0.333  0.000  0.212-   1 2.93   8 2.93   9 2.93   3 2.93   4 2.93   5 2.93  10 2.93  17 2.93
                            11 2.93
   3  0.667  0.000  0.212-   9 2.93   2 2.93   5 2.93  11 2.93   7 2.93  18 2.93   1 2.93   6 2.93
                            12 2.93
   4  0.000  0.333  0.212-   5 2.93   6 2.93   2 2.93   1 2.93   7 2.93  13 2.93  15 2.93   9 2.93
                            10 2.93
   5  0.333  0.333  0.212-   4 2.93   3 2.93   7 2.93   2 2.93   8 2.93  14 2.93  13 2.93  11 2.93
                             6 2.93
   6  0.667  0.333  0.212-   4 2.93   9 2.93   1 2.93  15 2.93   8 2.93  12 2.93   3 2.93   5 2.93
                            14 2.93
   7  0.000  0.667  0.212-   8 2.93   1 2.93   5 2.93   3 2.93   4 2.93  16 2.93  18 2.93  13 2.93
                             9 2.93
   8  0.333  0.667  0.212-   7 2.93   1 2.93   2 2.93   9 2.93   5 2.93  16 2.93   6 2.93  17 2.93
                            14 2.93
   9  0.667  0.667  0.212-   3 2.93   2 2.93   8 2.93   6 2.93  17 2.93   4 2.93  15 2.93   7 2.93
                            18 2.93
  10  0.111  0.111  0.308-  20 2.89  19 2.93  26 2.93  12 2.93  16 2.93  15 2.93  17 2.93  13 2.93
                            11 2.93   2 2.93   1 2.93   4 2.93
  11  0.444  0.111  0.308-  21 2.90  20 2.90  27 2.91  14 2.93  17 2.93  18 2.93   3 2.93  12 2.93
                            13 2.93  10 2.93   5 2.93   2 2.93
  12  0.778  0.111  0.308-  21 2.89  25 2.93  19 2.93  10 2.93  16 2.93  18 2.93  15 2.93  11 2.93
                             1 2.93  14 2.93   6 2.93   3 2.93
  13  0.111  0.444  0.308-  20 2.90  23 2.90  22 2.91  15 2.93  14 2.93  18 2.93  10 2.93  11 2.93
                            16 2.93   4 2.93   5 2.93   7 2.93
  14  0.444  0.444  0.308-  23 2.90  21 2.90  24 2.91  13 2.93  11 2.93  16 2.93   5 2.93  12 2.93
                            17 2.93   8 2.93  15 2.93   6 2.93
  15  0.778  0.444  0.308-  24 2.91  22 2.91  19 2.92  13 2.93  10 2.93  12 2.93  17 2.93  18 2.93
                             4 2.93   6 2.93   9 2.93  14 2.93
  16  0.111  0.778  0.308-  23 2.89  26 2.93  25 2.93  18 2.93  12 2.93  10 2.93  14 2.93  17 2.93
                            13 2.93   7 2.93   8 2.93   1 2.93
  17  0.444  0.778  0.308-  27 2.91  24 2.91  26 2.92  11 2.93  10 2.93   9 2.93  18 2.93  15 2.93
                            16 2.93   2 2.93  14 2.93   8 2.93
  18  0.778  0.778  0.308-  22 2.91  27 2.91  25 2.92  16 2.93  12 2.93  13 2.93  11 2.93  17 2.93
                            15 2.93   7 2.93   3 2.93   9 2.93
  19  0.888  0.223  0.403-  28 2.91  15 2.92  20 2.92  21 2.92  24 2.92  22 2.92  10 2.93  12 2.93
                            32 2.93  31 2.93  26 2.94  25 2.94
  20  0.221  0.221  0.402-  36 2.81  10 2.89  13 2.90  11 2.90  19 2.92  26 2.92  31 2.92  29 2.92
                            27 2.93  22 2.93  21 2.95  23 2.95
  21  0.557  0.221  0.402-  36 2.81  12 2.89  11 2.90  14 2.90  25 2.92  19 2.92  30 2.92  32 2.92
                            27 2.93  24 2.93  20 2.95  23 2.95
  22  0.889  0.556  0.403-  35 2.91  18 2.91  15 2.91  13 2.91  25 2.92  19 2.92  24 2.93  27 2.93
                            33 2.93  31 2.93  23 2.93  20 2.93
  23  0.221  0.557  0.402-  36 2.81  16 2.89  14 2.90  13 2.90  26 2.92  25 2.92  34 2.92  33 2.92
                            22 2.93  24 2.93  21 2.95  20 2.95
  24  0.556  0.556  0.403-  35 2.91  15 2.91  17 2.91  14 2.91  19 2.92  26 2.92  27 2.93  22 2.93
                            32 2.93  34 2.93  23 2.93  21 2.93
  25  0.888  0.888  0.403-  28 2.91  18 2.92  23 2.92  21 2.92  22 2.92  27 2.92  16 2.93  12 2.93
                            33 2.93  30 2.93  26 2.94  19 2.94
  26  0.223  0.888  0.403-  28 2.91  17 2.92  23 2.92  20 2.92  27 2.92  24 2.92  16 2.93  10 2.93
                            34 2.93  29 2.93  25 2.94  19 2.94
  27  0.556  0.889  0.403-  35 2.91  17 2.91  18 2.91  11 2.91  26 2.92  25 2.92  24 2.93  22 2.93
                            29 2.93  30 2.93  20 2.93  21 2.93
  28  0.000  0.000  0.498-  26 2.91  25 2.91  19 2.91  29 2.95  34 2.95  33 2.95  32 2.95  31 2.95
                            30 2.95
  29  0.333  0.004  0.498-  30 2.89  31 2.89  36 2.90  20 2.92  27 2.93  26 2.93  35 2.95  28 2.95
                            34 3.00
  30  0.662  0.004  0.498-  29 2.89  32 2.89  36 2.90  21 2.92  27 2.93  25 2.93  35 2.95  28 2.95
                            33 3.00
  31  0.004  0.333  0.498-  33 2.89  29 2.89  36 2.90  20 2.92  22 2.93  19 2.93  35 2.95  28 2.95
                            32 3.00
  32  0.662  0.333  0.498-  34 2.89  30 2.89  36 2.90  21 2.92  24 2.93  19 2.93  35 2.95  28 2.95
                            31 3.00
  33  0.004  0.662  0.498-  31 2.89  34 2.89  36 2.90  23 2.92  22 2.93  25 2.93  35 2.95  28 2.95
                            30 3.00
  34  0.333  0.662  0.498-  32 2.89  33 2.89  36 2.90  23 2.92  24 2.93  26 2.93  35 2.95  28 2.95
                            29 3.00
  35  0.667  0.667  0.497-  24 2.91  27 2.91  22 2.91  30 2.95  32 2.95  29 2.95  34 2.95  31 2.95
                            33 2.95
  36  0.333  0.333  0.491-  21 2.81  20 2.81  23 2.81  31 2.90  33 2.90  30 2.90  29 2.90  34 2.90
                            32 2.90
  37  0.266  0.333  0.636-  39 0.97
  38  0.376  0.325  0.586-  39 0.99
  39  0.382  0.311  0.626-  37 0.97  38 0.99

  LATTYP: Found a hexagonal cell.
 ALAT       =     8.7913665772
 C/A-ratio  =     2.8382349142

  Lattice vectors:

 A1 = (  -4.3956832886,  -7.6135467898,   0.0000000000)
 A2 = (   8.7913665771,   0.0000000000,   0.0000000000)
 A3 = (   0.0000000000,   0.0000000000,  24.9519635625)

Analysis of symmetry for initial positions (statically):
 Subroutine PRICEL returns:
 Original cell was already a primitive cell.

 Routine SETGRP: Setting up the symmetry group for a
 hexagonal supercell.

 Subroutine GETGRP returns: Found  1 space group operations
 (whereof  1 operations were pure point group operations)
 out of a pool of 24 trial point group operations.

The static configuration has the point symmetry C_1 .

Analysis of symmetry for dynamics (positions and initial velocities):
 Subroutine PRICEL returns:
 Original cell was already a primitive cell.

[...]

The dynamic configuration has the point symmetry C_1 .

Analysis of constrained symmetry for selective dynamics:
 Subroutine PRICEL returns:
 Original cell was already a primitive cell.

[...]
     41      -4.9831      2.00000
     42      -4.9752      2.00000
     43      -4.9560      2.00000
     44      -4.9493      2.00000
     45      -4.8748      2.00000
     46      -4.8432      2.00000
     47      -4.8324      2.00000
     48      -4.8232      2.00000
     49      -4.8178      2.00000
     50      -4.8130      2.00000
     51      -4.8049      2.00000
     52      -4.7917      2.00000
     53      -4.7784      2.00000
     54      -4.7728      2.00000
     55      -4.7002      2.00000
     56      -4.6913      2.00000
     57      -4.6897      2.00000
     58      -4.6837      2.00000
     59      -4.6645      2.00000
     60      -4.6534      2.00000
[...]
    238       5.6082      0.00000
    239       5.6836      0.00000
    240       5.7223      0.00000
    241       5.7317      0.00000
    242       6.2178      0.00000
    243       6.3290      0.00000
    244       6.4329      0.00000
    245       6.4539      0.00000
    246       6.5707      0.00000
    247       6.6045      0.00000
    248       6.6295      0.00000
    249       6.7078      0.00000
    250       6.7452      0.00000
    251       6.9735      0.00000
    252       6.9827      0.00000

 soft charge-density along one line, spin component           1
         0         1         2         3         4         5         6         7         8         9
 total charge-density along one line

------------------------ aborting loop because EDIFF is reached ----------------------------------------

 total charge

# of ion       s       p       d       tot
    1        0.414   0.204   9.177   9.795
    2        0.417   0.202   9.177   9.797
    3        0.417   0.202   9.177   9.797
    4        0.417   0.203   9.177   9.797
    5        0.417   0.202   9.178   9.797
    6        0.418   0.202   9.177   9.797
    7        0.417   0.202   9.177   9.797
    8        0.417   0.202   9.177   9.797
    9        0.416   0.203   9.177   9.796
   10        0.405   0.270   9.164   9.840
   11        0.407   0.269   9.166   9.842
   12        0.405   0.271   9.164   9.840
   13        0.407   0.269   9.166   9.843
   14        0.407   0.269   9.166   9.842
   15        0.404   0.269   9.166   9.840
   16        0.405   0.270   9.164   9.840
   17        0.404   0.269   9.166   9.839
   18        0.404   0.269   9.166   9.839
   19        0.403   0.269   9.166   9.838
   20        0.408   0.282   9.165   9.855
   21        0.407   0.283   9.165   9.855
   22        0.402   0.271   9.168   9.841
   23        0.407   0.282   9.165   9.855
   24        0.401   0.271   9.168   9.841
   25        0.403   0.269   9.166   9.838
   26        0.403   0.269   9.166   9.838
   27        0.401   0.271   9.167   9.840
   28        0.414   0.196   9.182   9.792
   29        0.408   0.207   9.177   9.792
   30        0.407   0.207   9.177   9.791
   31        0.410   0.208   9.176   9.795
   32        0.409   0.207   9.177   9.793
   33        0.409   0.208   9.176   9.794
   34        0.408   0.207   9.177   9.792
   35        0.411   0.198   9.182   9.791
   36        0.627   0.278   8.189   9.094
   37        0.626   0.119   0.000   0.745
   38        0.605   0.117   0.000   0.722
   39        1.570   3.588   0.000   5.158
tot         17.740  12.458 329.196 359.394

  FORCE on cell =-STRESS in cart. coord.  units (eV):
  Direction    XX          YY          ZZ          XY          YZ          ZX
  Alpha Z   682.75153   682.75153   682.75153
  Ewald  161314.36190161233.74631************   -14.17267    -3.88310   -26.52983
  Hartree171310.91655171296.26637************    -2.60409    -0.13248    -5.99945
  E(xc)   -2109.98901 -2110.33566 -2115.46871    -0.06203    -0.02743    -0.08236
  Local  ************************343853.53225    12.50612     2.62341    25.30804
  n-local  -352.02823  -352.17484  -356.38820     0.01385     0.02686    -0.26703
  augment  3278.89403  3280.56873  3288.56162     0.29045     0.09572     0.43498
  Kinetic  5056.97586  5080.03426  5081.76448     4.03710     1.28300     7.20181
  Fock        0.00000     0.00000     0.00000     0.00000     0.00000     0.00000
  Total      -8.38690    -8.40767    -0.66212     0.00875    -0.01403     0.06616
  in kB      -8.04570    -8.06563    -0.63518     0.00839    -0.01345     0.06347

 VOLUME and BASIS-vectors are now :
  energy-cutoff  :      500.00
  volume of cell :     1670.12
      direct lattice vectors                 reciprocal lattice vectors
     8.791366577  0.000000000  0.000000000     0.113747958 -0.065672414  0.000000000
     4.395683289  7.613546790  0.000000000     0.000000000  0.131344829  0.000000000
     0.000000000  0.000000000 24.951963562     0.000000000  0.000000000  0.040077006

  length of vectors
     8.791366577  8.791366577 24.951963562     0.131344829  0.131344829  0.040077006

 FORCES acting on ions
    electron-ion (+dipol)            ewald-force                    non-local-force                 convergence-correction
   -.209E-01 0.537E-01 0.274E+04   0.927E-02 -.555E-02 -.273E+04   0.950E-03 -.339E-02 -.196E+01   0.105E-01 -.426E-01 -.117E+00
   0.261E+00 0.231E+00 0.274E+04   -.420E+00 -.324E+00 -.273E+04   0.572E-01 0.459E-01 -.170E+01   0.967E-01 0.444E-01 -.841E-01
   -.238E+00 0.255E+00 0.274E+04   0.410E+00 -.338E+00 -.273E+04   -.581E-01 0.358E-01 -.170E+01   -.109E+00 0.440E-01 -.797E-01
   0.358E+00 0.161E+00 0.274E+04   -.481E+00 -.189E+00 -.273E+04   0.500E-01 0.187E-01 -.169E+01   0.702E-01 0.909E-02 -.746E-01
   0.120E-01 0.442E-01 0.274E+04   -.168E-01 0.857E-02 -.273E+04   -.616E-02 -.153E-01 -.161E+01   0.104E-01 -.347E-01 -.815E-01
   -.374E+00 0.127E+00 0.274E+04   0.498E+00 -.187E+00 -.273E+04   -.463E-01 0.225E-01 -.170E+01   -.736E-01 0.369E-01 -.711E-01
   0.184E-01 -.421E+00 0.274E+04   -.781E-01 0.511E+00 -.273E+04   0.117E-01 -.507E-01 -.170E+01   0.453E-01 -.389E-01 -.872E-01
   -.234E-01 -.424E+00 0.274E+04   0.707E-01 0.527E+00 -.273E+04   -.157E-01 -.534E-01 -.171E+01   -.292E-01 -.466E-01 -.912E-01
   0.124E-01 -.290E-01 0.274E+04   0.742E-02 -.293E-02 -.273E+04   0.436E-02 0.676E-03 -.181E+01   -.244E-01 0.301E-01 -.734E-01
   0.506E+01 0.295E+01 0.949E+03   -.495E+01 -.285E+01 -.948E+03   -.130E+00 -.755E-01 -.652E+00   0.177E-01 -.306E-01 -.444E-01
   0.999E-01 0.292E+01 0.954E+03   -.979E-01 -.281E+01 -.953E+03   -.382E-02 -.495E-01 -.556E+00   0.339E-02 -.722E-01 -.183E-01
   -.517E+01 0.302E+01 0.949E+03   0.505E+01 -.292E+01 -.948E+03   0.135E+00 -.783E-01 -.670E+00   -.143E-01 -.174E-01 -.477E-01
   0.253E+01 -.148E+01 0.953E+03   -.248E+01 0.143E+01 -.953E+03   -.431E-01 0.234E-01 -.570E+00   -.132E-01 0.304E-01 -.534E-01
   -.245E+01 -.155E+01 0.954E+03   0.237E+01 0.148E+01 -.953E+03   0.352E-01 0.233E-01 -.584E+00   0.427E-01 0.465E-01 -.521E-01
   -.907E-01 0.125E+01 0.950E+03   0.108E+00 -.135E+01 -.949E+03   -.503E-03 0.212E-01 -.639E+00   -.167E-01 0.648E-01 -.647E-01
   -.239E-02 -.586E+01 0.949E+03   -.133E-01 0.572E+01 -.948E+03   0.336E-03 0.152E+00 -.645E+00   0.153E-01 -.341E-02 -.370E-01
   0.113E+01 -.678E+00 0.950E+03   -.121E+01 0.708E+00 -.949E+03   0.173E-01 -.112E-01 -.654E+00   0.408E-01 -.892E-02 -.591E-01
   -.113E+01 -.576E+00 0.950E+03   0.122E+01 0.592E+00 -.949E+03   -.153E-01 -.897E-02 -.649E+00   -.561E-01 0.395E-02 -.581E-01
   -.768E+00 0.412E+01 -.872E+03   0.776E+00 -.397E+01 0.871E+03   -.491E-02 -.874E-01 0.509E+00   -.337E-02 -.642E-01 0.386E-01
   0.930E+01 0.480E+01 -.836E+03   -.908E+01 -.460E+01 0.836E+03   -.236E+00 -.144E+00 -.224E+00   0.597E-02 -.603E-01 -.549E-01
   -.859E+01 0.509E+01 -.834E+03   0.834E+01 -.490E+01 0.835E+03   0.256E+00 -.145E+00 -.226E+00   -.422E-02 -.439E-01 -.483E-01
   0.302E+01 -.180E+01 -.860E+03   -.320E+01 0.188E+01 0.860E+03   0.183E+00 -.995E-01 0.588E+00   -.158E-01 0.285E-01 -.332E-01
   0.600E+00 -.105E+02 -.836E+03   -.626E+00 0.102E+02 0.836E+03   0.887E-02 0.281E+00 -.221E+00   0.173E-01 0.526E-01 -.496E-01
   -.362E+01 -.240E+01 -.859E+03   0.383E+01 0.249E+01 0.859E+03   -.194E+00 -.109E+00 0.581E+00   -.247E-03 0.294E-01 -.349E-01
   -.388E+01 -.138E+01 -.872E+03   0.377E+01 0.132E+01 0.871E+03   0.695E-01 0.464E-01 0.516E+00   0.419E-01 0.232E-01 0.329E-01
   0.366E+01 -.214E+01 -.872E+03   -.356E+01 0.209E+01 0.872E+03   -.704E-01 0.422E-01 0.520E+00   -.345E-01 0.128E-01 0.290E-01
   0.216E+00 0.424E+01 -.859E+03   -.211E+00 -.449E+01 0.859E+03   0.213E-02 0.216E+00 0.574E+00   -.795E-02 0.218E-01 -.510E-01
   -.213E+01 0.139E+01 -.266E+04   0.214E+01 -.137E+01 0.266E+04   -.646E-02 0.147E-02 0.208E+01   0.526E-02 -.208E-01 0.109E+00
   0.192E+02 0.283E+02 -.265E+04   -.189E+02 -.278E+02 0.265E+04   -.334E+00 -.487E+00 0.189E+01   0.416E-01 -.479E-01 0.876E-01
   -.172E+02 0.342E+02 -.265E+04   0.169E+02 -.337E+02 0.264E+04   0.343E+00 -.492E+00 0.195E+01   -.340E-01 -.442E-01 0.878E-01
   0.305E+02 -.109E+01 -.266E+04   -.298E+02 0.117E+01 0.265E+04   -.635E+00 -.770E-01 0.177E+01   -.422E-01 0.301E-02 0.853E-01
   -.387E+02 -.175E+01 -.265E+04   0.380E+02 0.179E+01 0.264E+04   0.639E+00 -.690E-01 0.188E+01   0.511E-01 0.289E-01 0.844E-01
   0.163E+02 -.261E+02 -.266E+04   -.161E+02 0.255E+02 0.265E+04   -.236E+00 0.577E+00 0.182E+01   -.101E-01 0.610E-01 0.859E-01
   -.148E+02 -.316E+02 -.265E+04   0.145E+02 0.310E+02 0.265E+04   0.243E+00 0.563E+00 0.189E+01   0.446E-01 0.505E-01 0.865E-01
   -.154E+01 0.586E+00 -.266E+04   0.157E+01 -.619E+00 0.265E+04   0.951E-03 0.157E-02 0.208E+01   -.277E-01 0.275E-01 0.129E+00
   0.788E+01 -.351E+01 -.228E+04   -.777E+01 0.357E+01 0.227E+04   -.128E+00 -.164E-01 0.103E+01   0.905E-02 -.314E-01 0.507E-01
   0.817E+02 -.138E+02 -.259E+03   -.896E+02 0.152E+02 0.261E+03   0.781E+01 -.133E+01 -.236E+01   -.159E-02 -.437E-03 0.326E-02
   -.339E+01 -.795E+01 -.198E+03   0.365E+01 0.868E+01 0.190E+03   -.254E+00 -.735E+00 0.763E+01   0.152E-02 -.152E-02 0.595E-02
   -.479E+02 0.132E+02 -.150E+04   0.853E+02 -.234E+02 0.152E+04   -.374E+02 0.102E+02 -.264E+02   0.444E-02 -.691E-02 0.183E-01
   0.299E+02 -.818E+01 0.237E+02   -.284E-13 0.238E-12 -.114E-11   -.300E+02 0.817E+01 -.233E+02   0.577E-01 0.322E-01 -.532E+00

 POSITION                                       TOTAL-FORCE (eV/Angst)
      0.00000      0.00000      5.28219        -0.000045      0.001762      0.052787
      2.93046      0.00000      5.28219        -0.004842     -0.003608      0.031615
      5.86091      0.00000      5.28219         0.005122     -0.003256      0.030151
      1.46523      2.53785      5.28219        -0.002882     -0.000407      0.030598
      4.39568      2.53785      5.28219        -0.000376      0.002369      0.027402
      7.32614      2.53785      5.28219         0.003769     -0.001482      0.029182
      2.93046      5.07570      5.28219        -0.002565      0.000948      0.030758
      5.86091      5.07570      5.28219         0.002532      0.002163      0.031119
      8.79137      5.07570      5.28219        -0.000009     -0.001593      0.035759
      1.46523      0.84595      7.67490         0.000044     -0.001109     -0.010550
      4.39568      0.84595      7.67490         0.001701     -0.006456     -0.067477
      7.32614      0.84595      7.67490        -0.001259     -0.000002     -0.009808
      2.93046      3.38380      7.67490        -0.005129      0.003026     -0.067687
      5.86091      3.38380      7.67490         0.006318      0.001376     -0.069543
      8.79137      3.38380      7.67490        -0.000215     -0.019555     -0.029626
      4.39568      5.92165      7.67490         0.000002      0.000083     -0.008794
      7.32614      5.92165      7.67490        -0.016266      0.009477     -0.032211
     10.25659      5.92165      7.67490         0.017038      0.009787     -0.031106
      8.79137      1.70009     10.06101        -0.000351     -0.003451      0.017937
      2.92042      1.68610     10.02751        -0.008935     -0.004112     -0.025078
      5.87095      1.68610     10.02751         0.001572      0.000955     -0.012425
     10.25445      4.23098     10.04520        -0.009989      0.004564      0.008181
      4.39568      4.24134     10.02751         0.000540      0.002077     -0.020293
      7.32828      4.23098     10.04520         0.011870      0.006253      0.010890
     11.71473      6.76350     10.06101         0.002662      0.002551      0.022696
      5.86800      6.76350     10.06101        -0.001843      0.001465      0.022318
      8.79137      6.76512     10.04520        -0.000479     -0.013754      0.014583
      0.00000      0.00000     12.42233         0.002438      0.000526     -0.000452
      2.94927      0.03214     12.43461        -0.007258     -0.003581     -0.002894
      5.84210      0.03214     12.43461         0.006286     -0.005755      0.004260
      1.50247      2.53807     12.43461        -0.005685      0.001250     -0.010624
      7.28890      2.53807     12.43461         0.010792      0.000208     -0.002922
      2.94888      5.04334     12.43461        -0.004633      0.001779     -0.004926
      5.84248      5.04334     12.43461         0.002190      0.003338      0.004097
      8.79137      5.07570     12.41249         0.003143     -0.003725      0.002826
      4.39568      2.53785     12.25656        -0.014352      0.012744     -0.003666
      3.80427      2.53163     15.86323         0.002800     -0.002044      0.015652
      4.73074      2.47137     14.63174         0.007488     -0.010987     -0.010838
      4.73092      2.37127     15.61346        -0.001193      0.016175     -0.001891
    total drift:                               -0.004884      0.015066     -0.158052

  FREE ENERGIE OF THE ION-ELECTRON SYSTEM (eV)
  free  energy   TOTEN  =      -109.28338391 eV

  energy  without entropy=     -109.28338391  energy(sigma->0) =     -109.28338391

 stress matrix after NEB project (eV)
     -8.38690      0.00875      0.06616
      0.00875     -8.40767     -0.01403
      0.06616     -0.01403     -0.66212
  FORCES: max atom, RMS     0.017153    0.004579
  FORCE total and by dimension    0.028598    0.016175
  Stress total and by dimension   11.894396    8.407669
|           W    W    AA    RRRRR   N    N  II  N    N   GGGG   !!!           |
|           W    W   A  A   R    R  NN   N  II  NN   N  G    G  !!!           |
|           W    W  A    A  R    R  N N  N  II  N N  N  G       !!!           |
|           W WW W  AAAAAA  RRRRR   N  N N  II  N  N N  G  GGG   !            |
|           WW  WW  A    A  R   R   N   NN  II  N   NN  G    G                |
|           W    W  A    A  R    R  N    N  II  N    N   GGGG   !!!           |
|     Tetrahedron method does not include variations of the Fermi             |
|     occupations, so forces and stress will be inaccurate. We suggest        |
|     using a different smearing scheme ISMEAR = 1 or 2 for metals in         |
|     relaxations.                                                            |

 total charge

# of ion       s       p       d       tot
    1        0.414   0.204   9.177   9.795
    2        0.417   0.202   9.177   9.797
    3        0.417   0.202   9.177   9.797
    4        0.417   0.203   9.177   9.797
    5        0.417   0.202   9.178   9.797
    6        0.418   0.202   9.177   9.797
    7        0.417   0.202   9.177   9.797
    8        0.417   0.202   9.177   9.797
    9        0.416   0.203   9.177   9.796
   10        0.405   0.270   9.164   9.840
   11        0.407   0.269   9.166   9.842
   12        0.405   0.271   9.164   9.840
   13        0.407   0.269   9.166   9.843
   14        0.407   0.269   9.166   9.842
   15        0.404   0.269   9.166   9.840
   16        0.405   0.270   9.164   9.840
   17        0.404   0.269   9.166   9.839
   18        0.404   0.269   9.166   9.839
   19        0.403   0.269   9.166   9.838
   20        0.408   0.282   9.165   9.855
   21        0.407   0.283   9.165   9.855
   22        0.402   0.271   9.168   9.841
   23        0.407   0.282   9.165   9.855
   24        0.401   0.271   9.168   9.841
   25        0.403   0.269   9.166   9.838
   26        0.403   0.269   9.166   9.838
   27        0.401   0.271   9.167   9.840
   28        0.414   0.196   9.182   9.792
   29        0.408   0.207   9.177   9.792
   30        0.407   0.207   9.177   9.791
   31        0.410   0.208   9.176   9.795
   32        0.409   0.207   9.177   9.793
   33        0.409   0.208   9.176   9.794
   34        0.408   0.207   9.177   9.792
   35        0.411   0.198   9.182   9.791
   36        0.627   0.278   8.189   9.094
   37        0.626   0.119   0.000   0.745
   38        0.605   0.117   0.000   0.722
   39        1.570   3.588   0.000   5.158
tot         17.740  12.458 329.196 359.394

 BZINTS: Fermi energy:    0.133867;  403.000000 electrons
         Band energy:-0.159632E+04;  BLOECHL correction:   -0.088818