 vasp.6.2.0 18Jan21 (build Jun 12 2021 23:27:24) complex

 executed on             LinuxIFC date 2022.05.30  17:49:57

 INCAR:
   ISMEAR = -5
   SIGMA = 0.1
   ISPIN = 1
   EDIFF = 1.d-5
   EDIFFG = -0.01
   NSW = 0
   NELM = 150
   ENCUT = 500
   ISIF = 2
   IBRION = 2
   LREAL = Auto
   ALGO = Fast
   ICHARG = 11
   LORBIT = 10
   LCHARG = .F.
   LWAVE = .F.

 POTCAR:    PAW_PBE Cu 22Jun2005
 POTCAR:    PAW_PBE Ti 08Apr2002
 POTCAR:    PAW_PBE C 08Apr2002
 POTCAR:    PAW_PBE O 08Apr2002
 POTCAR:    PAW_PBE H 15Jun2001
|           W    W    AA    RRRRR   N    N  II  N    N   GGGG   !!!           |
|           W    W   A  A   R    R  NN   N  II  NN   N  G    G  !!!           |
|           W    W  A    A  R    R  N N  N  II  N N  N  G       !!!           |
|           W WW W  AAAAAA  RRRRR   N  N N  II  N  N N  G  GGG   !            |
|           WW  WW  A    A  R   R   N   NN  II  N   NN  G    G                |
|           W    W  A    A  R    R  N    N  II  N    N   GGGG   !!!           |
|     For optimal performance we recommend to set                             |
|       NCORE = 2 up to number-of-cores-per-socket                            |
|     This setting can greatly improve the performance of VASP for DFT.       |
|     The default, NCORE=1 might be grossly inefficient on modern             |
|     multi-core architectures or massively parallel machines. Do your        |
|     Unfortunately you need to use the default for GW and RPA                |
|     calculations (for HF NCORE is supported but not extensively tested      |
|     yet).                                                                   |

 POTCAR:    PAW_PBE Cu 22Jun2005
   VRHFIN =Cu: d10 p1

   TITEL  = PAW_PBE Cu 22Jun2005
   POMASS =   63.546; ZVAL   =   11.000    mass and valenz
   ENMAX  =  295.446; ENMIN  =  221.585 eV

 POTCAR:    PAW_PBE Ti 08Apr2002
   VRHFIN =Ti: d3 s1

   TITEL  = PAW_PBE Ti 08Apr2002
   POMASS =   47.880; ZVAL   =    4.000    mass and valenz
   ENMAX  =  178.330; ENMIN  =  133.747 eV

 POTCAR:    PAW_PBE C 08Apr2002
   VRHFIN =C: s2p2

[...]

 POTCAR:    PAW_PBE O 08Apr2002
   VRHFIN =O: s2p4

   TITEL  = PAW_PBE O 08Apr2002
   POMASS =   16.000; ZVAL   =    6.000    mass and valenz
   ENMAX  =  400.000; ENMIN  =  300.000 eV

 POTCAR:    PAW_PBE H 15Jun2001
   VRHFIN =H: ultrasoft test

   TITEL  = PAW_PBE H 15Jun2001
   POMASS =    1.000; ZVAL   =    1.000    mass and valenz
   ENMAX  =  250.000; ENMIN  =  200.000 eV

 Optimization of the real space projectors (new method)

 maximal supplied QI-value         = 16.25
 optimisation between [QCUT,QGAM] = [ 11.38, 22.75] = [ 36.24,144.96] Ry
 Optimized for a Real-space Cutoff    1.52 Angstroem

   l    n(q)    QCUT    max X(q) W(low)/X(q) W(high)/X(q)  e(spline)
   2      9    11.376     4.610    0.21E-03    0.10E-03    0.26E-06
   2      9    11.376     8.522    0.33E-03    0.16E-03    0.37E-06
   0     10    11.376    51.609    0.62E-04    0.20E-04    0.13E-06
   0     10    11.376    27.747    0.54E-04    0.20E-04    0.13E-06
   1     10    11.376    20.408    0.13E-04    0.99E-04    0.19E-06
   1     10    11.376    13.425    0.12E-04    0.87E-04    0.17E-06
 Optimization of the real space projectors (new method)

[...]

   l    n(q)    QCUT    max X(q) W(low)/X(q) W(high)/X(q)  e(spline)
   0      7    11.387    20.381    0.39E-03    0.13E-02    0.15E-06
   0      7    11.387    15.268    0.42E-03    0.14E-02    0.17E-06
   1      6    11.387     5.964    0.41E-03    0.11E-02    0.17E-06
   1      6    11.387     5.382    0.39E-03    0.87E-03    0.15E-06
 Optimization of the real space projectors (new method)

 maximal supplied QI-value         = 34.20
 optimisation between [QCUT,QGAM] = [ 11.29, 22.57] = [ 35.68,142.71] Ry
 Optimized for a Real-space Cutoff    1.16 Angstroem

   l    n(q)    QCUT    max X(q) W(low)/X(q) W(high)/X(q)  e(spline)
   0      8    11.287    19.460    0.40E-03    0.73E-03    0.16E-06
   0      8    11.287    12.209    0.38E-03    0.70E-03    0.15E-06
   1      7    11.287     4.655    0.22E-03    0.25E-04    0.22E-06
  PAW_PBE Cu 22Jun2005                  :
  PAW_PBE Ti 08Apr2002                  :
  PAW_PBE C 08Apr2002                   :
  PAW_PBE O 08Apr2002                   :
  PAW_PBE H 15Jun2001                   :

 POSCAR: Cu-Ti-COH
  positions in direct lattice
  velocities in cartesian coordinates
 exchange correlation table for  LEXCH =        8
   RHO(1)=    0.500       N(1)  =     2000
   RHO(2)=  100.500       N(2)  =     4000

 VTST: version 3.2, (02/03/18)

 CHAIN: initializing optimizer

 OPT: Using VASP Conjugate-Gradient optimizer
 CHAIN: Read ICHAIN            0

 POSCAR: Cu-Ti-COH
  positions in direct lattice
  velocities in cartesian coordinates

 ion  position               nearest neighbor table
   1  0.000  0.000  0.206-   7 2.57   3 2.57   4 2.57   2 2.57   6 2.57   8 2.57  12 2.57  10 2.57
                            16 2.57
   2  0.333  0.000  0.206-   8 2.57   9 2.57   5 2.57   1 2.57   3 2.57  11 2.57   4 2.57  10 2.57
                            17 2.57
   3  0.667  0.000  0.206-   1 2.57   7 2.57   6 2.57   9 2.57   2 2.57  12 2.57   5 2.57  18 2.57
                            11 2.57
   4  0.000  0.333  0.206-   5 2.57   6 2.57   1 2.57   7 2.57   2 2.57  13 2.57   9 2.57  10 2.57
                            15 2.57
   5  0.333  0.333  0.206-   4 2.57   2 2.57   7 2.57  13 2.57   8 2.57   6 2.57   3 2.57  11 2.57
                            14 2.57
   6  0.667  0.333  0.206-   4 2.57   9 2.57  15 2.57   3 2.57   1 2.57   8 2.57  14 2.57   5 2.57
                            12 2.57
   7  0.000  0.667  0.206-   1 2.57   3 2.57  16 2.57  18 2.57   4 2.57   5 2.57   8 2.57   9 2.57
                            13 2.57
   8  0.333  0.667  0.206-   9 2.57   2 2.57  17 2.57   6 2.57   1 2.57   7 2.57   5 2.57  14 2.57
                            16 2.57
   9  0.667  0.667  0.206-   8 2.57   6 2.57   2 2.57  17 2.57   3 2.57   7 2.57   4 2.57  15 2.57
                            18 2.57
  10  0.111  0.111  0.286-  26 2.55  19 2.55  11 2.57  12 2.57  13 2.57   1 2.57   2 2.57   4 2.57
                            15 2.57  16 2.57  17 2.57  20 2.57
  11  0.444  0.111  0.286-  27 2.56  20 2.56  21 2.56  10 2.57  13 2.57   2 2.57  17 2.57  14 2.57
                            12 2.57   5 2.57   3 2.57  18 2.57
  12  0.778  0.111  0.286-  19 2.55  25 2.55  15 2.57  10 2.57  14 2.57  18 2.57   3 2.57   1 2.57
                            16 2.57  11 2.57   6 2.57  21 2.57
  13  0.111  0.444  0.286-  22 2.56  23 2.56  20 2.56  16 2.57  18 2.57  10 2.57  11 2.57  14 2.57
                             5 2.57   4 2.57   7 2.57  15 2.57
  14  0.444  0.444  0.286-  24 2.56  21 2.56  23 2.56  15 2.57  17 2.57  12 2.57  16 2.57  13 2.57
                            11 2.57   6 2.57   8 2.57   5 2.57
  15  0.778  0.444  0.286-  19 2.55  24 2.56  22 2.56  14 2.57  17 2.57  12 2.57   6 2.57  18 2.57
                            10 2.57   9 2.57  13 2.57   4 2.57
  16  0.111  0.778  0.286-  25 2.55  26 2.55  18 2.57  13 2.57   7 2.57  14 2.57  17 2.57  12 2.57
                            10 2.57   8 2.57   1 2.57  23 2.57
  17  0.444  0.778  0.286-  26 2.55  27 2.56  24 2.56  14 2.57  15 2.57   8 2.57   9 2.57  11 2.57
                            16 2.57  18 2.57  10 2.57   2 2.57
  18  0.778  0.778  0.286-  25 2.55  22 2.56  27 2.56  16 2.57  13 2.57   7 2.57  15 2.57  12 2.57
                            17 2.57   9 2.57   3 2.57  11 2.57
  19  0.889  0.222  0.365-  12 2.55  10 2.55  15 2.55  25 2.56  26 2.56  28 2.56  22 2.57  24 2.57
                            21 2.57  20 2.57  32 2.57  31 2.57
  20  0.223  0.223  0.366-  23 2.55  21 2.55  11 2.56  13 2.56  27 2.57  22 2.57  29 2.57  31 2.57
                            10 2.57  26 2.57  19 2.57  36 2.66
  21  0.555  0.223  0.366-  20 2.55  23 2.55  14 2.56  11 2.56  24 2.57  27 2.57  32 2.57  30 2.57
                            12 2.57  19 2.57  25 2.57  36 2.66
  22  0.889  0.556  0.366-  18 2.56  15 2.56  13 2.56  31 2.56  33 2.56  24 2.56  27 2.56  23 2.57
                            20 2.57  19 2.57  25 2.57  35 2.57
  23  0.223  0.555  0.366-  20 2.55  21 2.55  13 2.56  14 2.56  22 2.57  24 2.57  33 2.57  34 2.57
                            16 2.57  25 2.57  26 2.57  36 2.66
  24  0.556  0.556  0.366-  15 2.56  17 2.56  14 2.56  32 2.56  34 2.56  22 2.56  27 2.56  21 2.57
                            23 2.57  19 2.57  26 2.57  35 2.57
  25  0.889  0.889  0.365-  12 2.55  16 2.55  18 2.55  19 2.56  26 2.56  28 2.56  22 2.57  27 2.57
                            21 2.57  23 2.57  33 2.57  30 2.57
  26  0.222  0.889  0.365-  10 2.55  16 2.55  17 2.55  25 2.56  19 2.56  28 2.56  27 2.57  24 2.57
                            20 2.57  23 2.57  29 2.57  34 2.57
  27  0.556  0.889  0.366-  17 2.56  18 2.56  11 2.56  29 2.56  30 2.56  24 2.56  22 2.56  20 2.57
                            21 2.57  26 2.57  25 2.57  35 2.57
  28  0.000  0.000  0.445-  33 2.56  30 2.56  31 2.56  29 2.56  32 2.56  34 2.56  25 2.56  19 2.56
                            26 2.56
  29  0.334  0.998  0.446-  34 2.53  35 2.55  28 2.56  27 2.56  20 2.57  26 2.57  30 2.58  36 2.59
                            31 2.59
  30  0.669  0.998  0.446-  33 2.53  35 2.55  28 2.56  27 2.56  21 2.57  25 2.57  29 2.58  36 2.59
                            32 2.59
  31  0.998  0.334  0.446-  32 2.53  35 2.55  28 2.56  22 2.56  20 2.57  19 2.57  33 2.58  36 2.59
                            29 2.59
  32  0.669  0.334  0.446-  31 2.53  35 2.55  28 2.56  24 2.56  21 2.57  19 2.57  34 2.58  36 2.59
                            30 2.59
  33  0.998  0.669  0.446-  30 2.53  35 2.55  28 2.56  22 2.56  23 2.57  25 2.57  31 2.58  36 2.59
                            34 2.59
  34  0.334  0.669  0.446-  29 2.53  35 2.55  28 2.56  24 2.56  23 2.57  26 2.57  32 2.58  36 2.59
                            33 2.59
  35  0.667  0.667  0.446-  34 2.55  32 2.55  29 2.55  30 2.55  33 2.55  31 2.55  24 2.57  27 2.57
                            22 2.57
  36  0.333  0.333  0.451-  37 1.90  31 2.59  29 2.59  33 2.59  32 2.59  34 2.59  30 2.59  23 2.66
                            20 2.66  21 2.66
  37  0.333  0.333  0.524-  38 1.27  36 1.90
  38  0.333  0.333  0.572-  39 0.96  37 1.27
  39  0.333  0.333  0.609-  38 0.96

  LATTYP: Found a hexagonal cell.
 ALAT       =     7.6967864036
 C/A-ratio  =     3.3950614187

  Lattice vectors:

 A1 = (  -3.8483927580,  -6.6656128093,   0.0000000000)
 A2 = (   7.6967864037,   0.0000000000,   0.0000000000)
 A3 = (   0.0000000000,   0.0000000000,  26.1310625667)

Analysis of symmetry for initial positions (statically):
 Subroutine PRICEL returns:
 Original cell was already a primitive cell.

 Routine SETGRP: Setting up the symmetry group for a
 hexagonal supercell.

 Subroutine GETGRP returns: Found  6 space group operations
 (whereof  6 operations were pure point group operations)
 out of a pool of 24 trial point group operations.

The static configuration has the point symmetry C_3v.

Analysis of symmetry for dynamics (positions and initial velocities):
 Subroutine PRICEL returns:
 Original cell was already a primitive cell.

[...]

[...]
     41      -4.1140      2.00000
     42      -4.0105      2.00000
     43      -3.9961      2.00000
     44      -3.9290      2.00000
     45      -3.9267      2.00000
     46      -3.9164      2.00000
     47      -3.8860      2.00000
     48      -3.8796      2.00000
     49      -3.8750      2.00000
     50      -3.8693      2.00000
     51      -3.6911      2.00000
     52      -3.6824      2.00000
     53      -3.6684      2.00000
     54      -3.6454      2.00000
     55      -3.6074      2.00000
     56      -3.6030      2.00000
     57      -3.5854      2.00000
     58      -3.5806      2.00000
     59      -3.5676      2.00000
     60      -3.5509      2.00000
[...]
    238       5.1629      0.00000
    239       5.2892      0.00000
    240       5.3852      0.00000
    241       5.4776      0.00000
    242       5.4882      0.00000
    243       5.5436      0.00000
    244       5.5914      0.00000
    245       5.7894      0.00000
    246       5.8137      0.00000
    247       5.8631      0.00000
    248       6.0100      0.00000
    249       6.1111      0.00000
    250       6.1857      0.00000
    251       6.7656      0.00000
    252       6.8562      0.00000

 soft charge-density along one line, spin component           1
         0         1         2         3         4         5         6         7         8         9
 total charge-density along one line

------------------------ aborting loop because EDIFF is reached ----------------------------------------

 total charge

# of ion       s       p       d       tot
    1        0.449   0.283   9.189   9.921
    2        0.447   0.286   9.187   9.919
    3        0.447   0.286   9.187   9.919
    4        0.447   0.286   9.187   9.919
    5        0.452   0.285   9.182   9.919
    6        0.447   0.286   9.187   9.919
    7        0.447   0.286   9.187   9.919
    8        0.447   0.286   9.187   9.919
    9        0.448   0.284   9.190   9.921
   10        0.442   0.372   9.176   9.990
   11        0.443   0.365   9.182   9.990
   12        0.442   0.372   9.176   9.990
   13        0.443   0.365   9.182   9.990
   14        0.443   0.365   9.182   9.990
   15        0.440   0.372   9.175   9.987
   16        0.442   0.372   9.176   9.990
   17        0.440   0.372   9.175   9.987
   18        0.440   0.372   9.175   9.987
   19        0.443   0.372   9.178   9.992
   20        0.458   0.381   9.165  10.004
   21        0.458   0.381   9.165  10.004
   22        0.434   0.375   9.178   9.987
   23        0.458   0.381   9.165  10.004
   24        0.434   0.375   9.178   9.987
   25        0.443   0.372   9.178   9.992
   26        0.443   0.372   9.178   9.992
   27        0.434   0.375   9.178   9.987
   28        0.446   0.291   9.185   9.922
   29        0.470   0.301   9.171   9.943
   30        0.470   0.301   9.171   9.943
   31        0.470   0.301   9.171   9.943
   32        0.470   0.301   9.171   9.943
   33        0.470   0.301   9.171   9.943
   34        0.470   0.301   9.171   9.943
   35        0.446   0.293   9.186   9.924
   36        0.535   0.747   2.633   3.915
   37        0.943   1.384   0.000   2.327
   38        1.524   3.754   0.000   5.279
   39        0.568   0.138   0.000   0.706
tot         19.291  17.693 323.874 360.858

  FORCE on cell =-STRESS in cart. coord.  units (eV):
  Direction    XX          YY          ZZ          XY          YZ          ZX
  Alpha Z   734.34260   734.34260   734.34260
  Ewald  264660.91723264660.91690************     0.00036     0.00014     0.00016
  Hartree277496.38089277496.38092************     0.00002     0.00007     0.00006
  E(xc)   -2309.62568 -2309.62523 -2313.82998    -0.00039    -0.00003    -0.00005
  Local  ************************554710.19527     0.01893    -0.00063    -0.00096
  n-local  -788.86100  -777.39096  -797.75336     6.38121    -0.07698     0.15922
  augment  3320.48925  3320.50964  3340.57484    -0.01767     0.00032     0.00058
  Kinetic  3366.87227  3367.52891  3342.17826     2.53309     1.87183    -1.26654
  Fock        0.00000     0.00000     0.00000     0.00000     0.00000     0.00000
  Total      -6.58432    -6.58432    -1.50269     0.00000     0.00000    -0.00000
  in kB      -7.86892    -7.86892    -1.79586     0.00000     0.00000    -0.00000

 VOLUME and BASIS-vectors are now :
  energy-cutoff  :      500.00
  volume of cell :     1340.62
      direct lattice vectors                 reciprocal lattice vectors
     7.696786404  0.000000000  0.000000000     0.129924354 -0.075011849  0.000000000
     3.848392758  6.665612809  0.000000000     0.000000000  0.150023716  0.000000000
     0.000000000  0.000000000 26.131062567     0.000000000  0.000000000  0.038268631

  length of vectors
     7.696786404  7.696786404 26.131062567     0.150023716  0.150023716  0.038268631

 FORCES acting on ions
    electron-ion (+dipol)            ewald-force                    non-local-force                 convergence-correction
   -.438E-04 -.111E-05 0.390E+04   0.581E-04 -.428E-05 -.390E+04   0.602E-18 -.401E-17 -.234E+01   -.261E-03 -.127E-03 0.146E+00
   -.103E+01 -.127E+01 0.389E+04   0.931E+00 0.107E+01 -.389E+04   0.935E-01 0.219E+00 -.191E+01   0.198E-01 -.135E-01 0.144E+00
   0.103E+01 -.127E+01 0.389E+04   -.931E+00 0.107E+01 -.389E+04   -.935E-01 0.219E+00 -.191E+01   -.190E-01 -.110E-01 0.145E+00
   -.162E+01 -.261E+00 0.389E+04   0.139E+01 0.271E+00 -.389E+04   0.236E+00 -.286E-01 -.191E+01   -.177E-02 0.238E-01 0.144E+00
   -.693E-04 -.789E-05 0.389E+04   0.116E-03 -.101E-04 -.389E+04   0.452E-17 0.493E-17 -.122E+01   0.122E-01 0.740E-02 0.261E+00
   0.162E+01 -.261E+00 0.389E+04   -.139E+01 0.271E+00 -.389E+04   -.236E+00 -.286E-01 -.191E+01   0.163E-03 0.251E-01 0.145E+00
   -.582E+00 0.153E+01 0.389E+04   0.461E+00 -.134E+01 -.389E+04   0.143E+00 -.190E+00 -.191E+01   -.190E-01 -.110E-01 0.145E+00
   0.582E+00 0.153E+01 0.389E+04   -.461E+00 -.134E+01 -.389E+04   -.143E+00 -.190E+00 -.191E+01   0.225E-01 -.124E-01 0.145E+00
   -.145E-03 -.338E-04 0.390E+04   0.263E-03 0.204E-04 -.389E+04   0.489E-18 0.743E-17 -.223E+01   -.133E-01 -.680E-02 0.108E+00
   -.945E+01 -.546E+01 0.132E+04   0.968E+01 0.559E+01 -.132E+04   -.228E+00 -.131E+00 -.864E+00   -.178E-01 -.105E-01 0.962E-01
   -.893E-04 -.996E+01 0.130E+04   0.189E-03 0.982E+01 -.130E+04   -.131E-07 0.197E+00 -.261E+00   0.116E-01 -.455E-01 0.632E-01
   0.945E+01 -.546E+01 0.132E+04   -.968E+01 0.559E+01 -.132E+04   0.228E+00 -.131E+00 -.864E+00   0.165E-01 -.909E-02 0.952E-01
   -.862E+01 0.498E+01 0.130E+04   0.850E+01 -.491E+01 -.130E+04   0.170E+00 -.984E-01 -.261E+00   -.331E-01 0.332E-01 0.624E-01
   0.862E+01 0.498E+01 0.130E+04   -.850E+01 -.491E+01 -.130E+04   -.170E+00 -.984E-01 -.261E+00   0.568E-01 0.327E-01 0.619E-01
   -.138E-03 -.106E+01 0.132E+04   0.296E-03 0.919E+00 -.132E+04   -.752E-08 0.113E+00 -.105E+01   -.351E-02 0.250E-01 0.600E-01
   -.910E-04 0.109E+02 0.132E+04   0.187E-03 -.112E+02 -.132E+04   -.175E-07 0.263E+00 -.864E+00   -.628E-04 0.178E-01 0.951E-01
   -.922E+00 0.532E+00 0.132E+04   0.796E+00 -.459E+00 -.132E+04   0.978E-01 -.564E-01 -.105E+01   0.205E-01 -.154E-01 0.601E-01
   0.922E+00 0.532E+00 0.132E+04   -.796E+00 -.459E+00 -.132E+04   -.978E-01 -.564E-01 -.105E+01   -.199E-01 -.128E-01 0.606E-01
   -.696E-04 -.905E+01 -.125E+04   0.732E-04 0.916E+01 0.124E+04   -.278E-09 0.418E-02 0.109E+01   0.924E-03 -.764E-01 -.292E+00
   -.662E+02 -.382E+02 -.135E+04   0.672E+02 0.388E+02 0.136E+04   -.985E+00 -.569E+00 -.524E+00   -.142E+00 -.829E-01 -.309E+00
   0.662E+02 -.382E+02 -.135E+04   -.672E+02 0.388E+02 0.136E+04   0.985E+00 -.569E+00 -.524E+00   0.121E+00 -.816E-01 -.310E+00
   -.303E+02 0.175E+02 -.127E+04   0.301E+02 -.174E+02 0.127E+04   0.213E+00 -.123E+00 0.507E+00   -.912E-03 -.125E-02 -.293E+00
   -.752E-04 0.764E+02 -.135E+04   0.155E-03 -.776E+02 0.136E+04   -.757E-07 0.114E+01 -.524E+00   0.118E-01 0.145E+00 -.310E+00
   0.303E+02 0.175E+02 -.127E+04   -.301E+02 -.174E+02 0.127E+04   -.213E+00 -.123E+00 0.507E+00   -.102E-02 -.512E-03 -.293E+00
   0.783E+01 0.452E+01 -.125E+04   -.793E+01 -.458E+01 0.124E+04   -.362E-02 -.209E-02 0.109E+01   0.663E-01 0.393E-01 -.293E+00
   -.783E+01 0.452E+01 -.125E+04   0.793E+01 -.458E+01 0.124E+04   0.362E-02 -.209E-02 0.109E+01   -.651E-01 0.385E-01 -.292E+00
   -.134E-03 -.350E+02 -.127E+04   0.239E-03 0.347E+02 0.127E+04   -.163E-07 0.245E+00 0.507E+00   -.109E-02 0.123E-02 -.293E+00
   -.306E-04 0.210E-04 -.376E+04   0.445E-04 -.321E-04 0.376E+04   0.531E-17 0.625E-17 0.224E+01   0.303E-03 0.166E-03 -.253E+00
   -.441E+02 -.867E+02 -.374E+04   0.445E+02 0.871E+02 0.374E+04   -.365E+00 -.473E+00 0.147E+01   -.195E-01 -.679E-02 -.244E+00
   0.441E+02 -.867E+02 -.374E+04   -.445E+02 0.871E+02 0.374E+04   0.365E+00 -.473E+00 0.147E+01   0.198E-01 -.518E-02 -.244E+00
   -.971E+02 0.511E+01 -.374E+04   0.977E+02 -.503E+01 0.374E+04   -.592E+00 -.798E-01 0.147E+01   -.156E-01 -.138E-01 -.244E+00
   0.971E+02 0.511E+01 -.374E+04   -.977E+02 -.503E+01 0.374E+04   0.592E+00 -.798E-01 0.147E+01   0.155E-01 -.122E-01 -.243E+00
   -.530E+02 0.816E+02 -.374E+04   0.532E+02 -.821E+02 0.374E+04   -.227E+00 0.553E+00 0.147E+01   0.530E-02 0.202E-01 -.243E+00
   0.530E+02 0.816E+02 -.374E+04   -.532E+02 -.821E+02 0.374E+04   0.227E+00 0.553E+00 0.147E+01   -.204E-02 0.196E-01 -.244E+00
   -.124E-03 -.130E-04 -.378E+04   0.250E-03 0.950E-06 0.378E+04   -.620E-17 -.965E-18 0.240E+01   -.131E-01 -.652E-02 -.177E+00
   -.301E-04 -.644E-05 -.132E+04   0.467E-04 0.108E-04 0.132E+04   0.161E-17 0.317E-17 -.137E+01   0.451E-03 0.158E-03 -.914E-01
   -.702E-05 -.720E-04 -.139E+04   0.757E-05 0.406E-05 0.136E+04   0.103E-17 -.717E-18 0.225E+02   0.891E-03 0.522E-03 -.155E-01
   0.227E-03 -.722E-04 -.217E+04   0.149E-05 0.182E-05 0.217E+04   -.832E-18 -.128E-18 -.287E+01   0.330E-02 0.201E-02 0.579E-01
   0.324E-05 -.142E-04 -.394E+03   0.396E-07 0.120E-06 0.402E+03   -.232E-19 -.342E-19 -.871E+01   0.173E-03 0.105E-03 0.162E-01
   -.107E-03 -.194E-03 -.576E-01   -.106E-12 0.119E-12 -.392E-11   -.599E-16 0.112E-15 0.251E+01   0.180E-01 -.381E-02 -.257E+01

 POSITION                                       TOTAL-FORCE (eV/Angst)
      0.00000      0.00000      5.37156         0.000000      0.000000      0.001852
      2.56560      0.00000      5.37156         0.011054      0.008027      0.063447
      5.13119      0.00000      5.37156        -0.011054      0.008027      0.063447
      1.28280      2.22187      5.37156         0.012478      0.005559      0.063447
      3.84839      2.22187      5.37156         0.000000      0.000000      0.053983
      6.41399      2.22187      5.37156        -0.012478      0.005559      0.063447
      2.56560      4.44374      5.37156         0.001425     -0.013586      0.063447
      5.13119      4.44374      5.37156        -0.001425     -0.013586      0.063447
      7.69679      4.44374      5.37156         0.000000      0.000000      0.032933
      1.28280      0.74062      7.46636        -0.010800     -0.006235     -0.103073
      3.84839      0.74062      7.46636        -0.000000      0.006636     -0.043110
      6.41399      0.74062      7.46636         0.010800     -0.006235     -0.103073
      2.56560      2.96249      7.46636         0.005747     -0.003318     -0.043110
      5.13119      2.96249      7.46636        -0.005747     -0.003318     -0.043110
      7.69679      2.96249      7.46636         0.000000     -0.008320     -0.060894
      3.84839      5.18437      7.46636        -0.000000      0.012470     -0.103073
      6.41399      5.18437      7.46636        -0.007206      0.004160     -0.060894
      8.97958      5.18437      7.46636         0.007206      0.004160     -0.060894
      7.69679      1.47704      9.53921        -0.000000      0.038818      0.087183
      2.57092      1.48432      9.56248        -0.099515     -0.057455     -0.114285
      5.12587      1.48432      9.56248         0.099515     -0.057455     -0.114285
      8.97870      3.70363      9.55579         0.020325     -0.011735      0.049546
      3.84839      3.69697      9.56248        -0.000000      0.114910     -0.114285
      6.41487      3.70363      9.55579        -0.020325     -0.011735      0.049546
     10.26602      5.92709      9.53921        -0.033617     -0.019409      0.087183
      5.12755      5.92709      9.53921         0.033617     -0.019409      0.087183
      7.69679      5.92397      9.55579        -0.000000      0.023470      0.049546
      0.00000      0.00000     11.63511         0.000000      0.000000     -0.027013
      6.40848      6.64966     11.64831        -0.044019     -0.043609      0.099739
      8.98509      6.64966     11.64831         0.044019     -0.043609      0.099739
      8.96302      2.22507     11.64831        -0.059776     -0.016317      0.099739
      6.43055      2.22507     11.64831         0.059776     -0.016317      0.099739
     10.25132      4.45649     11.64831        -0.015757      0.059926      0.099739
      5.14225      4.45649     11.64831         0.015757      0.059926      0.099739
      7.69679      4.44374     11.65790         0.000000      0.000000     -0.062124
      3.84839      2.22187     11.77538         0.000000      0.000000     -0.394620
      3.84839      2.22187     13.67975         0.000000      0.000000     -0.045060
      3.84839      2.22187     14.94892         0.000000      0.000000      0.021212
      3.84839      2.22187     15.90523         0.000000      0.000000     -0.006385
    total drift:                                0.017917     -0.004000     -0.123203

  FREE ENERGIE OF THE ION-ELECTRON SYSTEM (eV)
  free  energy   TOTEN  =      -146.83220871 eV

  energy  without entropy=     -146.83220871  energy(sigma->0) =     -146.83220871

 stress matrix after NEB project (eV)
     -6.58432      0.00000     -0.00000
      0.00000     -6.58432     -0.00000
     -0.00000      0.00000     -1.50269
  FORCES: max atom, RMS     0.045060    0.008040
  FORCE total and by dimension    0.050210    0.045060
  Stress total and by dimension    9.432110    6.584323
|           W    W    AA    RRRRR   N    N  II  N    N   GGGG   !!!           |
|           W    W   A  A   R    R  NN   N  II  NN   N  G    G  !!!           |
|           W    W  A    A  R    R  N N  N  II  N N  N  G       !!!           |
|           W WW W  AAAAAA  RRRRR   N  N N  II  N  N N  G  GGG   !            |
|           WW  WW  A    A  R   R   N   NN  II  N   NN  G    G                |
|           W    W  A    A  R    R  N    N  II  N    N   GGGG   !!!           |
|     Tetrahedron method does not include variations of the Fermi             |
|     occupations, so forces and stress will be inaccurate. We suggest        |
|     using a different smearing scheme ISMEAR = 1 or 2 for metals in         |
|     relaxations.                                                            |

 total charge

# of ion       s       p       d       tot
    1        0.449   0.283   9.189   9.921
    2        0.447   0.286   9.187   9.919
    3        0.447   0.286   9.187   9.919
    4        0.447   0.286   9.187   9.919
    5        0.452   0.285   9.182   9.919
    6        0.447   0.286   9.187   9.919
    7        0.447   0.286   9.187   9.919
    8        0.447   0.286   9.187   9.919
    9        0.448   0.284   9.190   9.921
   10        0.442   0.372   9.176   9.990
   11        0.443   0.365   9.182   9.990
   12        0.442   0.372   9.176   9.990
   13        0.443   0.365   9.182   9.990
   14        0.443   0.365   9.182   9.990
   15        0.440   0.372   9.175   9.987
   16        0.442   0.372   9.176   9.990
   17        0.440   0.372   9.175   9.987
   18        0.440   0.372   9.175   9.987
   19        0.443   0.372   9.178   9.992
   20        0.458   0.381   9.165  10.004
   21        0.458   0.381   9.165  10.004
   22        0.434   0.375   9.178   9.987
   23        0.458   0.381   9.165  10.004
   24        0.434   0.375   9.178   9.987
   25        0.443   0.372   9.178   9.992
   26        0.443   0.372   9.178   9.992
   27        0.434   0.375   9.178   9.987
   28        0.446   0.291   9.185   9.922
   29        0.470   0.301   9.171   9.943
   30        0.470   0.301   9.171   9.943
   31        0.470   0.301   9.171   9.943
   32        0.470   0.301   9.171   9.943
   33        0.470   0.301   9.171   9.943
   34        0.470   0.301   9.171   9.943
   35        0.446   0.293   9.186   9.924
   36        0.535   0.747   2.633   3.915
   37        0.943   1.384   0.000   2.327
   38        1.524   3.754   0.000   5.279
   39        0.568   0.138   0.000   0.706
tot         19.291  17.693 323.874 360.858

 BZINTS: Fermi energy:   -0.210616;  400.000000 electrons
         Band energy:-0.130229E+04;  BLOECHL correction:   -0.038228