 vasp.6.2.0 18Jan21 (build Jun 12 2021 23:27:24) complex

 executed on             LinuxIFC date 2022.05.30  17:56:51

 INCAR:
   ISMEAR = -5
   SIGMA = 0.1
   ISPIN = 1
   EDIFF = 1.d-5
   EDIFFG = -0.01
   NSW = 0
   NELM = 150
   ENCUT = 500
   ISIF = 2
   IBRION = 2
   LREAL = Auto
   ALGO = Fast
   ICHARG = 11
   LORBIT = 10
   LCHARG = .F.
   LWAVE = .F.

 POTCAR:    PAW_PBE Cu 22Jun2005
 POTCAR:    PAW_PBE Cr 06Sep2000
 POTCAR:    PAW_PBE C 08Apr2002
|           W    W    AA    RRRRR   N    N  II  N    N   GGGG   !!!           |
|           W    W   A  A   R    R  NN   N  II  NN   N  G    G  !!!           |
|           W    W  A    A  R    R  N N  N  II  N N  N  G       !!!           |
|           W WW W  AAAAAA  RRRRR   N  N N  II  N  N N  G  GGG   !            |
|           WW  WW  A    A  R   R   N   NN  II  N   NN  G    G                |
|           W    W  A    A  R    R  N    N  II  N    N   GGGG   !!!           |
|     For optimal performance we recommend to set                             |
|       NCORE = 2 up to number-of-cores-per-socket                            |
|     This setting can greatly improve the performance of VASP for DFT.       |
|     The default, NCORE=1 might be grossly inefficient on modern             |
|     multi-core architectures or massively parallel machines. Do your        |
|     Unfortunately you need to use the default for GW and RPA                |
|     calculations (for HF NCORE is supported but not extensively tested      |
|     yet).                                                                   |

 POTCAR:    PAW_PBE Cu 22Jun2005
   VRHFIN =Cu: d10 p1

   TITEL  = PAW_PBE Cu 22Jun2005
   POMASS =   63.546; ZVAL   =   11.000    mass and valenz
   ENMAX  =  295.446; ENMIN  =  221.585 eV

 POTCAR:    PAW_PBE Cr 06Sep2000
   VRHFIN =Cr : d5 s1

   TITEL  = PAW_PBE Cr 06Sep2000
   POMASS =   51.996; ZVAL   =    6.000    mass and valenz
   ENMAX  =  227.080; ENMIN  =  170.310 eV

 POTCAR:    PAW_PBE C 08Apr2002
   VRHFIN =C: s2p2

   TITEL  = PAW_PBE C 08Apr2002
   POMASS =   12.011; ZVAL   =    4.000    mass and valenz
   ENMAX  =  400.000; ENMIN  =  300.000 eV

 Optimization of the real space projectors (new method)

 maximal supplied QI-value         = 16.25
 optimisation between [QCUT,QGAM] = [ 11.38, 22.75] = [ 36.24,144.96] Ry
 Optimized for a Real-space Cutoff    1.52 Angstroem

   l    n(q)    QCUT    max X(q) W(low)/X(q) W(high)/X(q)  e(spline)
   2      9    11.376     4.610    0.21E-03    0.10E-03    0.26E-06
   2      9    11.376     8.522    0.33E-03    0.16E-03    0.37E-06
   0     10    11.376    51.609    0.62E-04    0.20E-04    0.13E-06
   0     10    11.376    27.747    0.54E-04    0.20E-04    0.13E-06
   1     10    11.376    20.408    0.13E-04    0.99E-04    0.19E-06
   1     10    11.376    13.425    0.12E-04    0.87E-04    0.17E-06
 Optimization of the real space projectors (new method)

[...]

   l    n(q)    QCUT    max X(q) W(low)/X(q) W(high)/X(q)  e(spline)
   2      9    11.338    94.395    0.18E-03    0.10E-02    0.64E-06
   2      9    11.338    88.078    0.18E-03    0.10E-02    0.65E-06
   0     10    11.338    50.173    0.13E-03    0.16E-03    0.96E-07
   0     10    11.338    24.906    0.12E-03    0.14E-03    0.88E-07
   1      9    11.338    12.133    0.13E-03    0.15E-03    0.24E-06
   1      9    11.338     7.290    0.10E-03    0.10E-03    0.18E-06
 Optimization of the real space projectors (new method)

 maximal supplied QI-value         = 25.13
 optimisation between [QCUT,QGAM] = [ 11.31, 22.87] = [ 35.82,146.48] Ry
 Optimized for a Real-space Cutoff    1.00 Angstroem

   l    n(q)    QCUT    max X(q) W(low)/X(q) W(high)/X(q)  e(spline)
   0      7    11.310   115.676    0.43E-03    0.13E-02    0.19E-06
   0      7    11.310    87.132    0.43E-03    0.13E-02    0.18E-06
   1      6    11.310     4.429    0.42E-03    0.74E-03    0.11E-06
   1      6    11.310     2.733    0.34E-03    0.55E-03    0.92E-07
  PAW_PBE Cu 22Jun2005                  :
  PAW_PBE Cr 06Sep2000                  :
  PAW_PBE C 08Apr2002                   :

 POSCAR: Cu-Cr-C
  positions in direct lattice
  velocities in cartesian coordinates
 exchange correlation table for  LEXCH =        8
   RHO(1)=    0.500       N(1)  =     2000
   RHO(2)=  100.500       N(2)  =     4000

 VTST: version 3.2, (02/03/18)

 CHAIN: initializing optimizer

 OPT: Using VASP Conjugate-Gradient optimizer
 CHAIN: Read ICHAIN            0

 POSCAR: Cu-Cr-C
  positions in direct lattice
  velocities in cartesian coordinates

 ion  position               nearest neighbor table
   1  0.000  0.000  0.226-   7 2.57   3 2.57   4 2.57   2 2.57   6 2.57   8 2.57  12 2.57  10 2.57
                            16 2.57
   2  0.333  0.000  0.226-   8 2.57   9 2.57   5 2.57   1 2.57   3 2.57  11 2.57   4 2.57  10 2.57
                            17 2.57
   3  0.667  0.000  0.226-   1 2.57   7 2.57   6 2.57   9 2.57   2 2.57  12 2.57   5 2.57  18 2.57
                            11 2.57
   4  0.000  0.333  0.226-   5 2.57   6 2.57   1 2.57   7 2.57   2 2.57  13 2.57   9 2.57  10 2.57
                            15 2.57
   5  0.333  0.333  0.226-   4 2.57   2 2.57   7 2.57  13 2.57   8 2.57   6 2.57   3 2.57  11 2.57
                            14 2.57
   6  0.667  0.333  0.226-   4 2.57   9 2.57  15 2.57   3 2.57   1 2.57   8 2.57  14 2.57   5 2.57
                            12 2.57
   7  0.000  0.667  0.226-   1 2.57   3 2.57  16 2.57  18 2.57   4 2.57   5 2.57   8 2.57   9 2.57
                            13 2.57
   8  0.333  0.667  0.226-   9 2.57   2 2.57  17 2.57   6 2.57   1 2.57   7 2.57   5 2.57  14 2.57
                            16 2.57
   9  0.667  0.667  0.226-   8 2.57   6 2.57   2 2.57  17 2.57   3 2.57   7 2.57   4 2.57  15 2.57
                            18 2.57
  10  0.111  0.111  0.314-  20 2.55  26 2.56  19 2.56  11 2.57  12 2.57  13 2.57   1 2.57   2 2.57
                             4 2.57  15 2.57  16 2.57  17 2.57
  11  0.444  0.111  0.314-  20 2.55  21 2.55  10 2.57  13 2.57   2 2.57  17 2.57  14 2.57  12 2.57
                             5 2.57   3 2.57  18 2.57  27 2.57
  12  0.778  0.111  0.314-  21 2.55  19 2.56  25 2.56  15 2.57  10 2.57  14 2.57  18 2.57   3 2.57
                             1 2.57  16 2.57  11 2.57   6 2.57
  13  0.111  0.444  0.314-  23 2.55  20 2.55  16 2.57  18 2.57  10 2.57  11 2.57  14 2.57   5 2.57
                             4 2.57   7 2.57  15 2.57  22 2.57
  14  0.444  0.444  0.314-  21 2.55  23 2.55  15 2.57  17 2.57  12 2.57  16 2.57  13 2.57  11 2.57
                             6 2.57   8 2.57   5 2.57  24 2.57
  15  0.778  0.444  0.314-  19 2.56  24 2.56  22 2.56  14 2.57  17 2.57  12 2.57   6 2.57  18 2.57
                            10 2.57   9 2.57  13 2.57   4 2.57
  16  0.111  0.778  0.314-  23 2.55  25 2.56  26 2.56  18 2.57  13 2.57   7 2.57  14 2.57  17 2.57
                            12 2.57  10 2.57   8 2.57   1 2.57
  17  0.444  0.778  0.314-  26 2.56  27 2.56  24 2.56  14 2.57  15 2.57   8 2.57   9 2.57  11 2.57
                            16 2.57  18 2.57  10 2.57   2 2.57
  18  0.778  0.778  0.314-  25 2.56  22 2.56  27 2.56  16 2.57  13 2.57   7 2.57  15 2.57  12 2.57
                            17 2.57   9 2.57   3 2.57  11 2.57
  19  0.889  0.222  0.402-  12 2.56  10 2.56  15 2.56  28 2.56  25 2.57  26 2.57  22 2.57  24 2.57
                            21 2.57  20 2.57  32 2.58  31 2.58
  20  0.222  0.222  0.401-  36 2.50  11 2.55  13 2.55  10 2.55  23 2.56  21 2.56  26 2.57  19 2.57
                            29 2.57  31 2.57  27 2.57  22 2.57
  21  0.555  0.222  0.401-  36 2.50  14 2.55  11 2.55  12 2.55  20 2.56  23 2.56  19 2.57  25 2.57
                            32 2.57  30 2.57  24 2.57  27 2.57
  22  0.888  0.556  0.402-  35 2.56  24 2.56  27 2.56  18 2.56  15 2.56  31 2.56  33 2.56  19 2.57
                            25 2.57  13 2.57  23 2.57  20 2.57
  23  0.222  0.555  0.401-  36 2.50  13 2.55  14 2.55  16 2.55  20 2.56  21 2.56  25 2.57  26 2.57
                            33 2.57  34 2.57  22 2.57  24 2.57
  24  0.556  0.556  0.402-  35 2.56  22 2.56  27 2.56  15 2.56  17 2.56  32 2.56  34 2.56  19 2.57
                            26 2.57  14 2.57  21 2.57  23 2.57
  25  0.889  0.889  0.402-  12 2.56  16 2.56  18 2.56  28 2.56  19 2.57  26 2.57  22 2.57  27 2.57
                            21 2.57  23 2.57  33 2.58  30 2.58
  26  0.222  0.889  0.402-  10 2.56  16 2.56  17 2.56  28 2.56  25 2.57  19 2.57  27 2.57  24 2.57
                            20 2.57  23 2.57  29 2.58  34 2.58
  27  0.556  0.888  0.402-  35 2.56  24 2.56  22 2.56  17 2.56  18 2.56  29 2.56  30 2.56  26 2.57
                            25 2.57  11 2.57  20 2.57  21 2.57
  28  0.000  0.000  0.489-  25 2.56  19 2.56  26 2.56  33 2.57  30 2.57  31 2.57  29 2.57  32 2.57
                            34 2.57
  29  0.333  0.002  0.490-  31 2.55  30 2.55  36 2.55  27 2.56  20 2.57  28 2.57  35 2.57  26 2.58
                            34 2.60
  30  0.665  0.002  0.490-  32 2.55  29 2.55  36 2.55  27 2.56  21 2.57  28 2.57  35 2.57  25 2.58
                            33 2.60
  31  0.002  0.333  0.490-  29 2.55  33 2.55  36 2.55  22 2.56  20 2.57  28 2.57  35 2.57  19 2.58
                            32 2.60
  32  0.665  0.333  0.490-  30 2.55  34 2.55  36 2.55  24 2.56  21 2.57  28 2.57  35 2.57  19 2.58
                            31 2.60
  33  0.002  0.665  0.490-  34 2.55  31 2.55  36 2.55  22 2.56  23 2.57  28 2.57  35 2.57  25 2.58
                            30 2.60
  34  0.333  0.665  0.490-  33 2.55  32 2.55  36 2.55  24 2.56  23 2.57  28 2.57  35 2.57  26 2.58
                            29 2.60
  35  0.667  0.667  0.489-  24 2.56  27 2.56  22 2.56  34 2.57  32 2.57  29 2.57  30 2.57  33 2.57
                            31 2.57
  36  0.333  0.333  0.486-  37 1.65  23 2.50  20 2.50  21 2.50  31 2.55  29 2.55  33 2.55  34 2.55
                            32 2.55  30 2.55
  37  0.333  0.333  0.555-  36 1.65

  LATTYP: Found a hexagonal cell.
 ALAT       =     7.6967864036
 C/A-ratio  =     3.0908716217

  Lattice vectors:

 A1 = (  -3.8483927580,  -6.6656128093,   0.0000000000)
 A2 = (   7.6967864037,   0.0000000000,   0.0000000000)
 A3 = (   0.0000000000,   0.0000000000,  23.7897786731)

Analysis of symmetry for initial positions (statically):
 Subroutine PRICEL returns:
 Original cell was already a primitive cell.

 Routine SETGRP: Setting up the symmetry group for a
 hexagonal supercell.

 Subroutine GETGRP returns: Found  6 space group operations
 (whereof  6 operations were pure point group operations)
 out of a pool of 24 trial point group operations.

The static configuration has the point symmetry C_3v.

Analysis of symmetry for dynamics (positions and initial velocities):
 Subroutine PRICEL returns:
 Original cell was already a primitive cell.

[...]

The dynamic configuration has the point symmetry C_3v.

Analysis of constrained symmetry for selective dynamics:
 Subroutine PRICEL returns:
 Original cell was already a primitive cell.

 Routine SETGRP: Setting up the symmetry group for a
 hexagonal supercell.

 Subroutine GETGRP returns: Found  6 space group operations
[...]
     24      -4.8984      2.00000
     25      -4.7491      2.00000
     26      -4.7287      2.00000
     27      -4.6770      2.00000
     28      -4.6671      2.00000
     29      -4.6641      2.00000
     30      -4.6540      2.00000
     31      -4.6488      2.00000
     32      -4.6328      2.00000
     33      -4.5871      2.00000
     34      -4.5818      2.00000
     35      -4.5546      2.00000
     36      -4.4765      2.00000
     37      -4.4584      2.00000
     38      -4.3466      2.00000
     39      -4.3432      2.00000
     40      -4.2677      2.00000
     41      -4.2625      2.00000
     42      -4.2564      2.00000
     43      -4.2278      2.00000
     44      -4.2195      2.00000
     45      -4.2087      2.00000
     46      -4.2052      2.00000
     47      -4.0189      2.00000
     48      -4.0055      2.00000
     49      -3.9964      2.00000
     50      -3.9852      2.00000
     51      -3.9384      2.00000
     52      -3.9366      2.00000
     53      -3.9173      2.00000
     54      -3.9124      2.00000
     55      -3.9027      2.00000
     56      -3.8859      2.00000
     57      -3.8610      2.00000
     58      -3.8587      2.00000
     59      -3.8483      2.00000
     60      -3.8389      2.00000
[...]
    238       5.7199      0.00000
    239       5.7635      0.00000
    240       5.8761      0.00000
    241       6.0119      0.00000
    242       6.0919      0.00000
    243       6.2690      0.00000
    244       6.3055      0.00000
    245       6.4978      0.00000
    246       6.6424      0.00000
    247       6.7230      0.00000
    248       6.7494      0.00000
    249       6.9483      0.00000
    250       7.2044      0.00000
    251       7.2450      0.00000
    252       7.5005      0.00000

 soft charge-density along one line, spin component           1
         0         1         2         3         4         5         6         7         8         9
 total charge-density along one line

------------------------ aborting loop because EDIFF is reached ----------------------------------------

 total charge

# of ion       s       p       d       tot
    1        0.447   0.285   9.187   9.920
    2        0.449   0.285   9.185   9.920
    3        0.449   0.285   9.185   9.920
    4        0.449   0.285   9.185   9.920
    5        0.447   0.286   9.184   9.918
    6        0.449   0.285   9.185   9.920
    7        0.449   0.285   9.185   9.920
    8        0.449   0.285   9.185   9.920
    9        0.447   0.285   9.186   9.918
   10        0.440   0.372   9.176   9.988
   11        0.442   0.369   9.181   9.992
   12        0.440   0.372   9.176   9.988
   13        0.442   0.369   9.181   9.992
   14        0.442   0.369   9.181   9.992
   15        0.438   0.371   9.177   9.986
   16        0.440   0.372   9.176   9.988
   17        0.438   0.371   9.177   9.986
   18        0.438   0.371   9.177   9.986
   19        0.440   0.366   9.183   9.990
   20        0.455   0.391   9.169  10.015
   21        0.455   0.391   9.169  10.015
   22        0.433   0.376   9.178   9.987
   23        0.455   0.391   9.169  10.015
   24        0.433   0.376   9.178   9.987
   25        0.440   0.366   9.183   9.990
   26        0.440   0.366   9.183   9.990
   27        0.433   0.376   9.178   9.987
   28        0.448   0.284   9.187   9.919
   29        0.454   0.297   9.177   9.928
   30        0.454   0.297   9.177   9.928
   31        0.454   0.297   9.177   9.928
   32        0.454   0.297   9.177   9.928
   33        0.454   0.297   9.177   9.928
   34        0.454   0.297   9.177   9.928
   35        0.449   0.287   9.184   9.920
   36        0.545   0.657   4.750   5.952
   37        1.003   1.229   0.000   2.232
tot         17.151  13.541 326.044 356.736

  FORCE on cell =-STRESS in cart. coord.  units (eV):
  Direction    XX          YY          ZZ          XY          YZ          ZX
  Alpha Z   782.02598   782.02598   782.02598
  Ewald  221768.75413221768.75374************     0.00038     0.00012     0.00017
  Hartree234349.06940234349.06940************     0.00004     0.00006     0.00007
  E(xc)   -2286.24111 -2286.24062 -2292.40574    -0.00042    -0.00004    -0.00007
  Local  ************************469381.53523     0.01850    -0.00057    -0.00092
  n-local  -769.67986  -757.53652  -778.96144     6.33325    -0.08317     0.19704
  augment  3333.93570  3333.95594  3355.49847    -0.01753     0.00032     0.00058
  Kinetic  3232.54697  3235.73744  3258.95405     2.78659     1.69501    -1.19327
  Fock        0.00000     0.00000     0.00000     0.00000     0.00000     0.00000
  Total      -8.40873    -8.40873    -1.37288     0.00000     0.00000    -0.00000
  in kB     -11.03827   -11.03827    -1.80220     0.00000     0.00000    -0.00000

 VOLUME and BASIS-vectors are now :
  energy-cutoff  :      500.00
  volume of cell :     1220.51
      direct lattice vectors                 reciprocal lattice vectors
     7.696786404  0.000000000  0.000000000     0.129924354 -0.075011849  0.000000000
     3.848392758  6.665612809  0.000000000     0.000000000  0.150023716  0.000000000
     0.000000000  0.000000000 23.789778673     0.000000000  0.000000000  0.042034859

  length of vectors
     7.696786404  7.696786404 23.789778673     0.150023716  0.150023716  0.042034859

 FORCES acting on ions
    electron-ion (+dipol)            ewald-force                    non-local-force                 convergence-correction
   -.423E-04 -.232E-06 0.370E+04   0.580E-04 -.435E-05 -.370E+04   -.380E-18 0.321E-17 -.229E+01   -.155E-03 -.569E-04 -.284E-01
   -.360E+00 -.666E-01 0.370E+04   0.292E+00 0.225E+00 -.370E+04   0.966E-02 -.376E-01 -.191E+01   0.548E-01 -.116E+00 0.558E-02
   0.360E+00 -.666E-01 0.370E+04   -.292E+00 0.225E+00 -.370E+04   -.966E-02 -.376E-01 -.191E+01   -.541E-01 -.113E+00 0.613E-02
   -.237E+00 -.278E+00 0.370E+04   0.341E+00 0.140E+00 -.370E+04   -.277E-01 0.271E-01 -.191E+01   -.726E-01 0.105E+00 0.561E-02
   -.640E-04 -.471E-05 0.370E+04   0.116E-03 -.101E-04 -.370E+04   0.270E-17 -.134E-17 -.201E+01   0.121E-01 0.739E-02 0.534E-03
   0.238E+00 -.278E+00 0.370E+04   -.341E+00 0.140E+00 -.370E+04   0.277E-01 0.271E-01 -.191E+01   0.710E-01 0.107E+00 0.663E-02
   0.122E+00 0.345E+00 0.370E+04   0.490E-01 -.366E+00 -.370E+04   -.374E-01 0.104E-01 -.191E+01   -.125E+00 0.955E-02 0.629E-02
   -.122E+00 0.345E+00 0.370E+04   -.492E-01 -.366E+00 -.370E+04   0.374E-01 0.104E-01 -.191E+01   0.128E+00 0.826E-02 0.659E-02
   -.144E-03 -.333E-04 0.370E+04   0.263E-03 0.205E-04 -.370E+04   -.235E-17 -.181E-17 -.222E+01   -.133E-01 -.686E-02 -.524E-01
   -.179E+01 -.103E+01 0.123E+04   0.197E+01 0.114E+01 -.123E+04   -.221E+00 -.128E+00 -.795E+00   0.375E-01 0.217E-01 -.386E-02
   -.881E-04 -.197E+01 0.122E+04   0.189E-03 0.182E+01 -.122E+04   -.706E-08 0.106E+00 -.870E+00   0.108E-01 0.207E-01 -.141E-01
   0.179E+01 -.103E+01 0.123E+04   -.197E+01 0.114E+01 -.123E+04   0.221E+00 -.128E+00 -.795E+00   -.381E-01 0.230E-01 -.635E-02
   -.171E+01 0.984E+00 0.122E+04   0.158E+01 -.911E+00 -.122E+04   0.918E-01 -.530E-01 -.870E+00   0.238E-01 -.214E-03 -.141E-01
   0.171E+01 0.984E+00 0.122E+04   -.158E+01 -.911E+00 -.122E+04   -.918E-01 -.530E-01 -.870E+00   -.122E-03 -.444E-03 -.155E-01
   -.140E-03 -.460E+00 0.123E+04   0.298E-03 0.377E+00 -.123E+04   -.479E-08 0.719E-01 -.780E+00   -.298E-02 0.181E-01 -.731E-01
   -.893E-04 0.206E+01 0.123E+04   0.186E-03 -.228E+01 -.123E+04   -.170E-07 0.255E+00 -.795E+00   -.883E-04 -.457E-01 -.641E-02
   -.398E+00 0.230E+00 0.123E+04   0.327E+00 -.188E+00 -.123E+04   0.622E-01 -.359E-01 -.780E+00   0.148E-01 -.116E-01 -.733E-01
   0.399E+00 0.230E+00 0.123E+04   -.327E+00 -.188E+00 -.123E+04   -.622E-01 -.359E-01 -.780E+00   -.145E-01 -.101E-01 -.743E-01
   -.622E-04 -.427E+01 -.126E+04   0.706E-04 0.421E+01 0.126E+04   -.471E-08 0.707E-01 0.117E+01   0.134E-01 0.990E-03 -.169E+00
   -.329E+02 -.190E+02 -.129E+04   0.329E+02 0.190E+02 0.129E+04   -.321E+00 -.186E+00 -.191E-01   0.119E+00 0.687E-01 -.160E-01
   0.329E+02 -.190E+02 -.129E+04   -.329E+02 0.190E+02 0.129E+04   0.321E+00 -.186E+00 -.191E-01   -.142E+00 0.711E-01 -.167E-01
   -.166E+02 0.956E+01 -.127E+04   0.160E+02 -.926E+01 0.127E+04   0.439E+00 -.253E+00 0.998E+00   0.134E+00 -.941E-01 -.248E+00
   -.800E-04 0.380E+02 -.129E+04   0.148E-03 -.380E+02 0.129E+04   -.247E-07 0.371E+00 -.191E-01   -.104E-01 -.159E+00 -.168E-01
   0.166E+02 0.956E+01 -.127E+04   -.160E+02 -.926E+01 0.127E+04   -.439E+00 -.253E+00 0.998E+00   -.155E+00 -.904E-01 -.248E+00
   0.370E+01 0.213E+01 -.126E+04   -.364E+01 -.210E+01 0.126E+04   -.612E-01 -.353E-01 0.117E+01   0.176E-01 0.102E-01 -.170E+00
   -.370E+01 0.213E+01 -.126E+04   0.364E+01 -.210E+01 0.126E+04   0.612E-01 -.353E-01 0.117E+01   0.790E-02 0.113E-01 -.169E+00
   -.122E-03 -.191E+02 -.127E+04   0.240E-03 0.185E+02 0.127E+04   -.337E-07 0.507E+00 0.998E+00   -.146E-01 0.163E+00 -.248E+00
   -.347E-04 0.171E-04 -.369E+04   0.392E-04 -.330E-04 0.368E+04   0.104E-16 -.141E-18 0.223E+01   0.830E-03 0.531E-03 0.511E-01
   -.177E+02 -.329E+02 -.368E+04   0.180E+02 0.331E+02 0.367E+04   -.369E+00 -.505E+00 0.294E+01   0.387E-01 0.242E+00 -.586E-01
   0.177E+02 -.329E+02 -.368E+04   -.180E+02 0.331E+02 0.367E+04   0.369E+00 -.505E+00 0.294E+01   -.390E-01 0.244E+00 -.563E-01
   -.373E+02 0.111E+01 -.368E+04   0.377E+02 -.952E+00 0.367E+04   -.621E+00 -.672E-01 0.294E+01   0.229E+00 -.877E-01 -.586E-01
   0.373E+02 0.111E+01 -.368E+04   -.377E+02 -.952E+00 0.367E+04   0.621E+00 -.672E-01 0.294E+01   -.229E+00 -.856E-01 -.569E-01
   -.196E+02 0.318E+02 -.368E+04   0.197E+02 -.322E+02 0.367E+04   -.253E+00 0.572E+00 0.294E+01   0.192E+00 -.156E+00 -.563E-01
   0.196E+02 0.318E+02 -.368E+04   -.197E+02 -.322E+02 0.367E+04   0.253E+00 0.572E+00 0.294E+01   -.188E+00 -.156E+00 -.568E-01
   -.125E-03 -.162E-04 -.369E+04   0.251E-03 0.450E-05 0.369E+04   0.338E-17 0.413E-17 0.247E+01   -.134E-01 -.689E-02 0.122E+00
   -.462E-04 -.133E-04 -.187E+04   0.773E-04 0.145E-04 0.187E+04   0.116E-17 -.783E-18 0.266E+01   0.117E-02 0.709E-03 -.386E-01
   0.517E-04 -.199E-04 -.160E+04   0.142E-04 0.624E-05 0.161E+04   -.103E-18 -.459E-18 -.596E+01   0.566E-03 0.339E-03 -.189E+00
   -.163E-03 0.361E-05 0.177E+01   0.217E-15 -.827E-13 -.296E-11   0.115E-15 -.219E-15 0.177E+00   -.485E-02 -.586E-02 -.202E+01

 POSITION                                       TOTAL-FORCE (eV/Angst)
      0.00000      0.00000      5.37156        -0.000000      0.000000      0.030385
      2.56560      0.00000      5.37156        -0.002512      0.006664      0.045904
      5.13119      0.00000      5.37156         0.002512      0.006664      0.045904
      1.28280      2.22187      5.37156         0.004515     -0.005508      0.045904
      3.84839      2.22187      5.37156        -0.000000      0.000000      0.013792
      6.41399      2.22187      5.37156        -0.004515     -0.005508      0.045904
      2.56560      4.44374      5.37156         0.007028     -0.001156      0.045904
      5.13119      4.44374      5.37156        -0.007028     -0.001156      0.045904
      7.69679      4.44374      5.37156        -0.000000      0.000000      0.039869
      1.28280      0.74062      7.46636         0.002177      0.001257     -0.053226
      3.84839      0.74062      7.46636         0.000000     -0.027752     -0.079952
      6.41399      0.74062      7.46636        -0.002177      0.001257     -0.053226
      2.56560      2.96249      7.46636        -0.024034      0.013876     -0.079952
      5.13119      2.96249      7.46636         0.024034      0.013876     -0.079952
      7.69679      2.96249      7.46636        -0.000000      0.007168      0.011383
      3.84839      5.18437      7.46636         0.000000     -0.002514     -0.053226
      6.41399      5.18437      7.46636         0.006207     -0.003584      0.011383
      8.97958      5.18437      7.46636        -0.006207     -0.003584      0.011383
      7.69679      1.48113      9.55176        -0.000000      0.000851      0.085723
      2.56610      1.48154      9.54462        -0.215243     -0.124271     -0.214944
      5.13069      1.48154      9.54462         0.215243     -0.124271     -0.214944
      8.97635      3.70498      9.55922         0.057531     -0.033216      0.040484
      3.84839      3.70254      9.54462        -0.000000      0.248541     -0.214944
      6.41722      3.70498      9.55922        -0.057531     -0.033216      0.040484
     10.26248      5.92505      9.55176        -0.000737     -0.000425      0.085723
      5.13109      5.92505      9.55176         0.000737     -0.000425      0.085723
      7.69679      5.92126      9.55922        -0.000000      0.066431      0.040484
      0.00000      0.00000     11.63975        -0.000000      0.000000     -0.099437
      2.57267      0.01383     11.65039        -0.012141     -0.032009      0.041153
      5.12411      0.01383     11.65039         0.012141     -0.032009      0.041153
      1.29831      2.22109     11.65039        -0.033791      0.005490      0.041153
      6.39847      2.22109     11.65039         0.033791      0.005490      0.041153
      2.57403      4.43070     11.65039        -0.021650      0.026519      0.041153
      5.12275      4.43070     11.65039         0.021650      0.026519      0.041153
      7.69679      4.44374     11.64501        -0.000000      0.000000     -0.088510
      3.84839      2.22187     11.55740        -0.000000      0.000000      0.210316
      3.84839      2.22187     13.20492        -0.000000      0.000000      0.002839
    total drift:                               -0.005015     -0.005858     -0.079056

  FREE ENERGIE OF THE ION-ELECTRON SYSTEM (eV)
  free  energy   TOTEN  =      -136.70837590 eV

  energy  without entropy=     -136.70837590  energy(sigma->0) =     -136.70837590

 stress matrix after NEB project (eV)
     -8.40873      0.00000     -0.00000
      0.00000     -8.40873      0.00000
     -0.00000      0.00000     -1.37288
  FORCES: max atom, RMS     0.002839    0.000467
  FORCE total and by dimension    0.002839    0.002839
  Stress total and by dimension   11.970724    8.408729
|           W    W    AA    RRRRR   N    N  II  N    N   GGGG   !!!           |
|           W    W   A  A   R    R  NN   N  II  NN   N  G    G  !!!           |
|           W    W  A    A  R    R  N N  N  II  N N  N  G       !!!           |
|           W WW W  AAAAAA  RRRRR   N  N N  II  N  N N  G  GGG   !            |
|           WW  WW  A    A  R   R   N   NN  II  N   NN  G    G                |
|           W    W  A    A  R    R  N    N  II  N    N   GGGG   !!!           |
|     Tetrahedron method does not include variations of the Fermi             |
|     occupations, so forces and stress will be inaccurate. We suggest        |
|     using a different smearing scheme ISMEAR = 1 or 2 for metals in         |
|     relaxations.                                                            |

 total charge

# of ion       s       p       d       tot
    1        0.447   0.285   9.187   9.920
    2        0.449   0.285   9.185   9.920
    3        0.449   0.285   9.185   9.920
    4        0.449   0.285   9.185   9.920
    5        0.447   0.286   9.184   9.918
    6        0.449   0.285   9.185   9.920
    7        0.449   0.285   9.185   9.920
    8        0.449   0.285   9.185   9.920
    9        0.447   0.285   9.186   9.918
   10        0.440   0.372   9.176   9.988
   11        0.442   0.369   9.181   9.992
   12        0.440   0.372   9.176   9.988
   13        0.442   0.369   9.181   9.992
   14        0.442   0.369   9.181   9.992
   15        0.438   0.371   9.177   9.986
   16        0.440   0.372   9.176   9.988
   17        0.438   0.371   9.177   9.986
   18        0.438   0.371   9.177   9.986
   19        0.440   0.366   9.183   9.990
   20        0.455   0.391   9.169  10.015
   21        0.455   0.391   9.169  10.015
   22        0.433   0.376   9.178   9.987
   23        0.455   0.391   9.169  10.015
   24        0.433   0.376   9.178   9.987
   25        0.440   0.366   9.183   9.990
   26        0.440   0.366   9.183   9.990
   27        0.433   0.376   9.178   9.987
   28        0.448   0.284   9.187   9.919
   29        0.454   0.297   9.177   9.928
   30        0.454   0.297   9.177   9.928
   31        0.454   0.297   9.177   9.928
   32        0.454   0.297   9.177   9.928
   33        0.454   0.297   9.177   9.928
   34        0.454   0.297   9.177   9.928
   35        0.449   0.287   9.184   9.920
   36        0.545   0.657   4.750   5.952
   37        1.003   1.229   0.000   2.232
tot         17.151  13.541 326.044 356.736

 BZINTS: Fermi energy:   -0.548072;  395.000000 electrons
         Band energy:-0.133875E+04;  BLOECHL correction:   -0.039665