 vasp.6.2.0 18Jan21 (build Jun 12 2021 23:27:24) complex

 executed on             LinuxIFC date 2022.05.26  19:32:47

 INCAR:
   ISMEAR = -5
   SIGMA = 0.1
   ISPIN = 1
   EDIFF = 1.d-5
   EDIFFG = -0.01
   NSW = 0
   NELM = 150
   ENCUT = 500
   ISIF = 2
   IBRION = 2
   LREAL = Auto
   ALGO = Fast
   ICHARG = 11
   LORBIT = 10
   LCHARG = .F.
   LWAVE = .F.

 POTCAR:    PAW_PBE Au 04Oct2007
 POTCAR:    PAW_PBE Re 17Jan2003
 POTCAR:    PAW_PBE H 15Jun2001
|           W    W    AA    RRRRR   N    N  II  N    N   GGGG   !!!           |
|           W    W   A  A   R    R  NN   N  II  NN   N  G    G  !!!           |
|           W    W  A    A  R    R  N N  N  II  N N  N  G       !!!           |
|           W WW W  AAAAAA  RRRRR   N  N N  II  N  N N  G  GGG   !            |
|           WW  WW  A    A  R   R   N   NN  II  N   NN  G    G                |
|           W    W  A    A  R    R  N    N  II  N    N   GGGG   !!!           |
|     For optimal performance we recommend to set                             |
|       NCORE = 2 up to number-of-cores-per-socket                            |
|     This setting can greatly improve the performance of VASP for DFT.       |
|     The default, NCORE=1 might be grossly inefficient on modern             |
|     multi-core architectures or massively parallel machines. Do your        |
|     Unfortunately you need to use the default for GW and RPA                |
|     calculations (for HF NCORE is supported but not extensively tested      |
|     yet).                                                                   |

 POTCAR:    PAW_PBE Au 04Oct2007
   VRHFIN =Au: s1d10

   TITEL  = PAW_PBE Au 04Oct2007
   POMASS =  196.966; ZVAL   =   11.000    mass and valenz
   ENMAX  =  229.943; ENMIN  =  172.457 eV

 POTCAR:    PAW_PBE Re 17Jan2003
   VRHFIN =Re: 5p6s5d

   TITEL  = PAW_PBE Re 17Jan2003
   POMASS =  186.207; ZVAL   =    7.000    mass and valenz
   ENMAX  =  226.216; ENMIN  =  169.662 eV

 POTCAR:    PAW_PBE H 15Jun2001
   VRHFIN =H: ultrasoft test

   TITEL  = PAW_PBE H 15Jun2001
   POMASS =    1.000; ZVAL   =    1.000    mass and valenz
   ENMAX  =  250.000; ENMIN  =  200.000 eV

 Optimization of the real space projectors (new method)

 maximal supplied QI-value         = 15.12
 optimisation between [QCUT,QGAM] = [ 11.34, 22.83] = [ 36.00,145.93] Ry
 Optimized for a Real-space Cutoff    1.39 Angstroem

   l    n(q)    QCUT    max X(q) W(low)/X(q) W(high)/X(q)  e(spline)
   2      9    11.338    60.898    0.39E-03    0.42E-03    0.21E-06
   2      9    11.338    58.894    0.40E-03    0.42E-03    0.22E-06
   0      9    11.338   109.617    0.13E-03    0.20E-04    0.13E-06
   0      9    11.338    75.026    0.13E-03    0.20E-04    0.13E-06
   1      9    11.338    16.344    0.33E-04    0.24E-03    0.18E-06
   1      9    11.338    10.160    0.26E-04    0.19E-03    0.15E-06
 Optimization of the real space projectors (new method)

[...]

   l    n(q)    QCUT    max X(q) W(low)/X(q) W(high)/X(q)  e(spline)
   2     10    11.327   884.633    0.22E-03    0.51E-03    0.88E-06
   2     10    11.327   796.723    0.22E-03    0.51E-03    0.88E-06
   0     11    11.327    65.348    0.44E-04    0.11E-03    0.75E-06
   0     11    11.327    39.642    0.40E-04    0.10E-03    0.69E-06
   1     10    11.327    13.988    0.15E-03    0.10E-03    0.19E-06
   1     10    11.327     8.682    0.11E-03    0.76E-04    0.14E-06
 Optimization of the real space projectors (new method)

 maximal supplied QI-value         = 34.20
 optimisation between [QCUT,QGAM] = [ 11.29, 22.57] = [ 35.68,142.71] Ry
 Optimized for a Real-space Cutoff    1.16 Angstroem

   l    n(q)    QCUT    max X(q) W(low)/X(q) W(high)/X(q)  e(spline)
   0      8    11.287    19.460    0.40E-03    0.73E-03    0.16E-06
   0      8    11.287    12.209    0.38E-03    0.70E-03    0.15E-06
   1      7    11.287     4.655    0.22E-03    0.25E-04    0.22E-06
  PAW_PBE Au 04Oct2007                  :
  PAW_PBE Re 17Jan2003                  :
  PAW_PBE H 15Jun2001                   :

 POSCAR: Au-Re-H
  positions in direct lattice
  velocities in cartesian coordinates
 exchange correlation table for  LEXCH =        8
   RHO(1)=    0.500       N(1)  =     2000
   RHO(2)=  100.500       N(2)  =     4000

 VTST: version 3.2, (02/03/18)

 CHAIN: initializing optimizer

 OPT: Using VASP Conjugate-Gradient optimizer
 CHAIN: Read ICHAIN            0

 POSCAR: Au-Re-H
  positions in direct lattice
  velocities in cartesian coordinates

 ion  position               nearest neighbor table
   1  0.000  0.000  0.238-  16 2.94  12 2.94   6 2.94   8 2.94   7 2.94   3 2.94  10 2.94   4 2.94
                             2 2.94
   2  0.333  0.000  0.238-   9 2.94  11 2.94  17 2.94  10 2.94   8 2.94   4 2.94   5 2.94   1 2.94
                             3 2.94
   3  0.667  0.000  0.238-   7 2.94  18 2.94  12 2.94   1 2.94  11 2.94   5 2.94   6 2.94   9 2.94
                             2 2.94
   4  0.000  0.333  0.238-  10 2.94   6 2.94   5 2.94  13 2.94   2 2.94  15 2.94   9 2.94   1 2.94
                             7 2.94
   5  0.333  0.333  0.238-  13 2.94   7 2.94  11 2.94   4 2.94   2 2.94  14 2.94   3 2.94   8 2.94
                             6 2.94
   6  0.667  0.333  0.238-  15 2.94  14 2.94   1 2.94  12 2.94   4 2.94   9 2.94   8 2.94   3 2.94
                             5 2.94
   7  0.000  0.667  0.238-  18 2.94   3 2.94  16 2.94   5 2.94   1 2.94  13 2.94   8 2.94   4 2.94
                             9 2.94
   8  0.333  0.667  0.238-   9 2.94  17 2.94   1 2.94   2 2.94  14 2.94  16 2.94   6 2.94   7 2.94
                             5 2.94
   9  0.667  0.667  0.238-   2 2.94   8 2.94  17 2.94   6 2.94  15 2.94   4 2.94   3 2.94  18 2.94
                             7 2.94
  10  0.111  0.111  0.346-  20 2.90  11 2.94  17 2.94   2 2.94   4 2.94   1 2.94  12 2.94  16 2.94
                            13 2.94  15 2.94  26 2.96  19 2.96
  11  0.444  0.111  0.346-  20 2.91  21 2.91  13 2.94   2 2.94  10 2.94  17 2.94   5 2.94   3 2.94
                            18 2.94  14 2.94  12 2.94  27 2.94
  12  0.778  0.111  0.346-  21 2.90  16 2.94  18 2.94   1 2.94  14 2.94  15 2.94   3 2.94   6 2.94
                            10 2.94  11 2.94  25 2.96  19 2.96
  13  0.111  0.444  0.346-  23 2.91  20 2.91   5 2.94  18 2.94  11 2.94   7 2.94   4 2.94  16 2.94
                            10 2.94  14 2.94  15 2.94  22 2.94
  14  0.444  0.444  0.346-  21 2.91  23 2.91  15 2.94   6 2.94  12 2.94   8 2.94  17 2.94   5 2.94
                            16 2.94  13 2.94  11 2.94  24 2.94
  15  0.778  0.444  0.346-  24 2.92  22 2.92  14 2.94   6 2.94  17 2.94  12 2.94   9 2.94   4 2.94
                            10 2.94  13 2.94  18 2.94  19 2.95
  16  0.111  0.778  0.346-  23 2.90  18 2.94  12 2.94   7 2.94   1 2.94   8 2.94  13 2.94  10 2.94
                            14 2.94  17 2.94  25 2.96  26 2.96
  17  0.444  0.778  0.346-  27 2.92  24 2.92   9 2.94  15 2.94   2 2.94  10 2.94  11 2.94   8 2.94
                            14 2.94  16 2.94  18 2.94  26 2.95
  18  0.778  0.778  0.346-  22 2.92  27 2.92  16 2.94   7 2.94  13 2.94  12 2.94   3 2.94  11 2.94
                             9 2.94  15 2.94  17 2.94  25 2.95
  19  0.888  0.224  0.455-  24 2.93  22 2.93  21 2.93  20 2.93  28 2.94  15 2.95  26 2.96  25 2.96
                            10 2.96  12 2.96  32 3.02  31 3.02
  20  0.222  0.222  0.452-  36 2.75  10 2.90  11 2.91  13 2.91  26 2.93  19 2.93  23 2.95  21 2.95
                            27 2.96  22 2.96  29 2.97  31 2.97
  21  0.556  0.222  0.452-  36 2.75  12 2.90  14 2.91  11 2.91  25 2.93  19 2.93  20 2.95  23 2.95
                            27 2.96  24 2.96  30 2.97  32 2.97
  22  0.886  0.557  0.454-  24 2.90  27 2.90  18 2.92  15 2.92  25 2.93  19 2.93  13 2.94  35 2.95
                            23 2.96  20 2.96  33 3.00  31 3.00
  23  0.222  0.556  0.452-  36 2.75  16 2.90  13 2.91  14 2.91  25 2.93  26 2.93  20 2.95  21 2.95
                            22 2.96  24 2.96  33 2.97  34 2.97
  24  0.557  0.557  0.454-  27 2.90  22 2.90  15 2.92  17 2.92  26 2.93  19 2.93  14 2.94  35 2.95
                            21 2.96  23 2.96  32 3.00  34 3.00
  25  0.888  0.888  0.455-  22 2.93  27 2.93  23 2.93  21 2.93  28 2.94  18 2.95  19 2.96  26 2.96
                            16 2.96  12 2.96  33 3.02  30 3.02
  26  0.224  0.888  0.455-  27 2.93  24 2.93  20 2.93  23 2.93  28 2.94  17 2.95  19 2.96  25 2.96
                            10 2.96  16 2.96  29 3.02  34 3.02
  27  0.557  0.886  0.454-  24 2.90  22 2.90  17 2.92  18 2.92  26 2.93  25 2.93  11 2.94  35 2.95
                            20 2.96  21 2.96  29 3.00  30 3.00
  28  0.000  0.000  0.563-  25 2.94  19 2.94  26 2.94  34 2.99  32 2.99  33 2.99  30 2.99  31 2.99
                            29 2.99
  29  0.333  0.011  0.565-  30 2.84  31 2.84  36 2.86  20 2.97  35 2.99  28 2.99  27 3.00  26 3.02
                            34 3.14
  30  0.655  0.011  0.565-  29 2.84  32 2.84  36 2.86  21 2.97  35 2.99  28 2.99  27 3.00  25 3.02
                            33 3.14
  31  0.011  0.333  0.565-  33 2.84  29 2.84  36 2.86  20 2.97  35 2.99  28 2.99  22 3.00  19 3.02
                            32 3.14
  32  0.655  0.333  0.565-  34 2.84  30 2.84  36 2.86  21 2.97  35 2.99  28 2.99  24 3.00  19 3.02
                            31 3.14
  33  0.011  0.655  0.565-  31 2.84  34 2.84  36 2.86  23 2.97  35 2.99  28 2.99  22 3.00  25 3.02
                            30 3.14
  34  0.333  0.655  0.565-  32 2.84  33 2.84  36 2.86  23 2.97  35 2.99  28 2.99  24 3.00  26 3.02
                            29 3.14
  35  0.667  0.667  0.563-  24 2.95  27 2.95  22 2.95  29 2.99  34 2.99  32 2.99  31 2.99  30 2.99
                            33 2.99
  36  0.333  0.333  0.550-  37 1.66  20 2.75  23 2.75  21 2.75  33 2.86  31 2.86  29 2.86  30 2.86
                            34 2.86  32 2.86
  37  0.333  0.333  0.625-  36 1.66

  LATTYP: Found a hexagonal cell.
 ALAT       =     8.8135128021
 C/A-ratio  =     2.5184286595

  Lattice vectors:

 A1 = (  -4.4067569092,  -7.6327256898,   0.0000000000)
 A2 = (   8.8135128021,   0.0000000000,   0.0000000000)
 A3 = (   0.0000000000,   0.0000000000,  22.1962032318)

Analysis of symmetry for initial positions (statically):
 Subroutine PRICEL returns:
 Original cell was already a primitive cell.

 Routine SETGRP: Setting up the symmetry group for a
 hexagonal supercell.

 Subroutine GETGRP returns: Found  6 space group operations
 (whereof  6 operations were pure point group operations)
 out of a pool of 24 trial point group operations.

The static configuration has the point symmetry C_3v.

Analysis of symmetry for dynamics (positions and initial velocities):
 Subroutine PRICEL returns:
 Original cell was already a primitive cell.

[...]

The dynamic configuration has the point symmetry C_3v.

Analysis of constrained symmetry for selective dynamics:
 Subroutine PRICEL returns:
 Original cell was already a primitive cell.

 Routine SETGRP: Setting up the symmetry group for a
 hexagonal supercell.

 Subroutine GETGRP returns: Found  6 space group operations
 (whereof  6 operations were pure point group operations)
[...]
     24      -5.0923      2.00000
     25      -5.0879      2.00000
     26      -5.0448      2.00000
     27      -4.9895      2.00000
     28      -4.9543      2.00000
     29      -4.9127      2.00000
     30      -4.8586      2.00000
     31      -4.8471      2.00000
     32      -4.7976      2.00000
     33      -4.7919      2.00000
     34      -4.7730      2.00000
     35      -4.7215      2.00000
     36      -4.7036      2.00000
     37      -4.6278      2.00000
     38      -4.5663      2.00000
     39      -4.5248      2.00000
     40      -4.4571      2.00000
     41      -4.4271      2.00000
     42      -4.3935      2.00000
     43      -4.3711      2.00000
     44      -4.3554      2.00000
     45      -4.3320      2.00000
     46      -4.2474      2.00000
     47      -4.2308      2.00000
     48      -4.1895      2.00000
     49      -4.1722      2.00000
     50      -4.1642      2.00000
     51      -4.1492      2.00000
     52      -4.1356      2.00000
     53      -4.1132      2.00000
     54      -4.0674      2.00000
     55      -4.0503      2.00000
     56      -4.0313      2.00000
     57      -4.0171      2.00000
     58      -3.9990      2.00000
     59      -3.9967      2.00000
     60      -3.9729      2.00000
[...]
    238       6.6990      0.00000
    239       6.7530      0.00000
    240       6.7610      0.00000
    241       6.8296      0.00000
    242       6.8596      0.00000
    243       7.0978      0.00000
    244       7.1609      0.00000
    245       7.2420      0.00000
    246       7.5966      0.00000
    247       7.6618      0.00000
    248       7.6771      0.00000
    249       7.7063      0.00000
    250       7.9189      0.00000
    251       7.9629      0.00000
    252       8.0011      0.00000

 soft charge-density along one line, spin component           1
         0         1         2         3         4         5         6         7         8         9
 total charge-density along one line

------------------------ aborting loop because EDIFF is reached ----------------------------------------

 total charge

# of ion       s       p       d       tot
    1        0.548   0.236   8.769   9.553
    2        0.543   0.241   8.766   9.549
    3        0.543   0.241   8.766   9.549
    4        0.543   0.241   8.766   9.549
    5        0.547   0.240   8.760   9.547
    6        0.543   0.241   8.766   9.549
    7        0.543   0.241   8.766   9.549
    8        0.543   0.241   8.766   9.549
    9        0.543   0.239   8.768   9.549
   10        0.528   0.307   8.765   9.600
   11        0.524   0.307   8.781   9.613
   12        0.528   0.307   8.765   9.600
   13        0.524   0.307   8.781   9.613
   14        0.524   0.307   8.781   9.613
   15        0.517   0.307   8.777   9.601
   16        0.528   0.307   8.765   9.600
   17        0.517   0.307   8.777   9.601
   18        0.517   0.307   8.777   9.601
   19        0.513   0.295   8.775   9.583
   20        0.569   0.339   8.735   9.643
   21        0.569   0.339   8.735   9.643
   22        0.505   0.305   8.779   9.589
   23        0.569   0.339   8.735   9.643
   24        0.505   0.305   8.779   9.589
   25        0.513   0.295   8.775   9.583
   26        0.513   0.295   8.775   9.583
   27        0.505   0.305   8.779   9.589
   28        0.537   0.226   8.755   9.518
   29        0.568   0.249   8.732   9.549
   30        0.568   0.249   8.732   9.549
   31        0.568   0.249   8.732   9.549
   32        0.568   0.249   8.732   9.549
   33        0.568   0.249   8.732   9.549
   34        0.568   0.249   8.732   9.549
   35        0.531   0.225   8.759   9.515
   36        0.529   0.431   4.627   5.588
   37        0.529   0.017   0.000   0.547
tot         19.898  10.130 311.264 341.293

  FORCE on cell =-STRESS in cart. coord.  units (eV):
  Direction    XX          YY          ZZ          XY          YZ          ZX
  Alpha Z  1011.70562  1011.70562  1011.70562
  Ewald  117950.15152117950.15192************    -0.00033    -0.00009    -0.00017
  Hartree126464.60797126464.60797************     0.00000    -0.00002    -0.00004
  E(xc)   -1761.25204 -1761.25202 -1770.22805    -0.00001     0.00000     0.00000
  Local  ************************256886.22510     0.00170     0.00005     0.00010
  n-local  -101.15624   -48.42092   -42.92513    25.82146    -1.04485     1.28299
  augment  2371.49508  2371.49652  2393.89883    -0.00124     0.00004     0.00006
  Kinetic  5435.01634  5449.15829  5512.70791     7.36457    -0.87095     1.28855
  Fock        0.00000     0.00000     0.00000     0.00000     0.00000     0.00000
  Total     -24.05390   -24.05390     3.03728    -0.00000    -0.00000    -0.00000
  in kB     -25.81004   -25.81004     3.25903    -0.00000    -0.00000    -0.00000

 VOLUME and BASIS-vectors are now :
  energy-cutoff  :      500.00
  volume of cell :     1493.16
      direct lattice vectors                 reciprocal lattice vectors
     8.813512802  0.000000000  0.000000000     0.113462137 -0.065507406  0.000000000
     4.406756909  7.632725690  0.000000000     0.000000000  0.131014796  0.000000000
     0.000000000  0.000000000 22.196203232     0.000000000  0.000000000  0.045052750

  length of vectors
     8.813512802  8.813512802 22.196203232     0.131014796  0.131014796  0.045052750

 FORCES acting on ions
    electron-ion (+dipol)            ewald-force                    non-local-force                 convergence-correction
   -.198E-04 -.163E-04 0.246E+04   0.520E-04 0.433E-04 -.246E+04   0.246E-17 0.238E-17 -.894E+00   -.160E-03 -.107E-03 -.181E+00
   0.623E+00 0.330E-01 0.246E+04   -.735E+00 -.215E+00 -.246E+04   0.728E-01 0.157E+00 -.234E+00   0.346E-01 0.148E-01 -.233E+00
   -.623E+00 0.330E-01 0.246E+04   0.735E+00 -.215E+00 -.246E+04   -.728E-01 0.157E+00 -.234E+00   -.344E-01 0.166E-01 -.232E+00
   0.340E+00 0.523E+00 0.246E+04   -.554E+00 -.529E+00 -.246E+04   0.172E+00 -.154E-01 -.234E+00   0.302E-01 0.225E-01 -.233E+00
   0.717E-05 -.243E-04 0.246E+04   0.951E-04 0.175E-05 -.246E+04   0.215E-17 -.612E-18 0.963E-01   0.418E-02 0.255E-02 -.269E+00
   -.340E+00 0.523E+00 0.246E+04   0.554E+00 -.529E+00 -.246E+04   -.172E+00 -.154E-01 -.234E+00   -.316E-01 0.235E-01 -.232E+00
   -.283E+00 -.556E+00 0.246E+04   0.182E+00 0.744E+00 -.246E+04   0.996E-01 -.142E+00 -.234E+00   -.273E-02 -.381E-01 -.232E+00
   0.283E+00 -.556E+00 0.246E+04   -.182E+00 0.744E+00 -.246E+04   -.996E-01 -.142E+00 -.234E+00   0.455E-02 -.391E-01 -.232E+00
   0.198E-04 -.415E-04 0.246E+04   0.166E-03 -.200E-04 -.246E+04   -.848E-18 -.993E-18 -.554E+00   -.457E-02 -.236E-02 -.217E+00
   0.753E+01 0.435E+01 0.798E+03   -.694E+01 -.401E+01 -.798E+03   -.459E+00 -.265E+00 -.717E+00   -.140E+00 -.808E-01 0.530E+00
   0.145E-04 0.353E+01 0.805E+03   0.148E-03 -.350E+01 -.805E+03   0.405E-08 0.608E-01 -.109E+00   0.354E-02 -.143E+00 0.579E+00
   -.753E+01 0.435E+01 0.798E+03   0.694E+01 -.401E+01 -.798E+03   0.459E+00 -.265E+00 -.717E+00   0.139E+00 -.801E-01 0.528E+00
   0.305E+01 -.176E+01 0.805E+03   -.303E+01 0.175E+01 -.805E+03   0.526E-01 -.304E-01 -.109E+00   -.122E+00 0.749E-01 0.579E+00
   -.305E+01 -.176E+01 0.805E+03   0.303E+01 0.175E+01 -.805E+03   -.526E-01 -.304E-01 -.109E+00   0.129E+00 0.743E-01 0.577E+00
   0.315E-04 0.527E+01 0.803E+03   0.236E-03 -.547E+01 -.803E+03   0.378E-08 0.568E-01 -.554E+00   -.170E-02 0.686E-01 0.624E+00
   -.213E-04 -.870E+01 0.798E+03   0.163E-03 0.802E+01 -.798E+03   0.353E-07 0.530E+00 -.717E+00   -.177E-03 0.160E+00 0.528E+00
   0.456E+01 -.263E+01 0.803E+03   -.474E+01 0.273E+01 -.803E+03   0.492E-01 -.284E-01 -.554E+00   0.588E-01 -.353E-01 0.624E+00
   -.456E+01 -.263E+01 0.803E+03   0.473E+01 0.273E+01 -.803E+03   -.492E-01 -.284E-01 -.554E+00   -.586E-01 -.341E-01 0.625E+00
   -.427E-04 0.269E+01 -.894E+03   0.551E-04 -.295E+01 0.892E+03   0.296E-08 0.444E-01 0.554E+00   0.511E-02 0.180E+00 0.128E+01
   0.171E+01 0.988E+00 -.858E+03   -.731E+00 -.422E+00 0.857E+03   -.118E+01 -.681E+00 -.132E+01   0.119E+00 0.686E-01 0.175E+01
   -.171E+01 0.988E+00 -.858E+03   0.730E+00 -.422E+00 0.857E+03   0.118E+01 -.681E+00 -.132E+01   -.127E+00 0.691E-01 0.175E+01
   -.106E+02 0.609E+01 -.875E+03   0.102E+02 -.587E+01 0.873E+03   0.512E+00 -.296E+00 0.566E+00   -.766E-01 0.431E-01 0.137E+01
   -.100E-04 -.198E+01 -.858E+03   0.139E-03 0.843E+00 0.857E+03   0.907E-07 0.136E+01 -.132E+01   -.371E-02 -.144E+00 0.175E+01
   0.106E+02 0.609E+01 -.875E+03   -.102E+02 -.587E+01 0.873E+03   -.512E+00 -.296E+00 0.566E+00   0.777E-01 0.449E-01 0.137E+01
   -.233E+01 -.135E+01 -.894E+03   0.255E+01 0.147E+01 0.892E+03   -.385E-01 -.222E-01 0.554E+00   -.151E+00 -.873E-01 0.127E+01
   0.233E+01 -.135E+01 -.894E+03   -.255E+01 0.147E+01 0.892E+03   0.385E-01 -.222E-01 0.554E+00   0.158E+00 -.854E-01 0.128E+01
   0.983E-05 -.122E+02 -.875E+03   0.199E-03 0.117E+02 0.873E+03   0.394E-07 0.591E+00 0.566E+00   -.155E-02 -.879E-01 0.137E+01
   -.114E-04 -.114E-04 -.246E+04   0.284E-04 0.314E-04 0.246E+04   0.582E-17 0.613E-17 0.671E+00   0.161E-02 0.911E-03 0.659E+00
   0.673E+01 0.110E+02 -.248E+04   -.608E+01 -.100E+02 0.248E+04   -.982E+00 -.151E+01 -.292E-01   0.331E+00 0.442E+00 0.506E+00
   -.673E+01 0.110E+02 -.248E+04   0.608E+01 -.100E+02 0.248E+04   0.982E+00 -.151E+01 -.292E-01   -.338E+00 0.443E+00 0.507E+00
   0.129E+02 0.312E+00 -.248E+04   -.117E+02 -.263E+00 0.248E+04   -.180E+01 -.957E-01 -.292E-01   0.548E+00 0.659E-01 0.506E+00
   -.129E+02 0.312E+00 -.248E+04   0.117E+02 -.263E+00 0.248E+04   0.180E+01 -.957E-01 -.292E-01   -.555E+00 0.671E-01 0.508E+00
   0.619E+01 -.113E+02 -.248E+04   -.562E+01 0.103E+02 0.248E+04   -.816E+00 0.161E+01 -.292E-01   0.215E+00 -.514E+00 0.507E+00
   -.619E+01 -.113E+02 -.248E+04   0.562E+01 0.103E+02 0.248E+04   0.816E+00 0.161E+01 -.292E-01   -.219E+00 -.514E+00 0.508E+00
   0.335E-04 -.319E-04 -.247E+04   0.142E-03 -.470E-04 0.246E+04   0.776E-17 0.672E-17 0.769E+00   -.320E-02 -.155E-02 0.454E+00
   -.203E-04 -.589E-05 -.146E+04   0.737E-04 0.671E-05 0.146E+04   -.232E-17 -.375E-18 -.270E+01   0.120E-02 0.716E-03 0.643E+00
   0.619E-05 -.407E-05 -.275E+03   0.464E-05 0.284E-06 0.278E+03   -.149E-18 0.471E-19 -.263E+01   0.129E-03 0.764E-04 -.135E+00
   -.798E-03 -.780E-03 -.884E+01   -.138E-13 -.237E-12 0.625E-11   0.529E-17 0.228E-15 -.116E+02   -.940E-02 -.486E-02 0.210E+02

 POSITION                                       TOTAL-FORCE (eV/Angst)
      0.00000      0.00000      5.28038         0.000000      0.000000     -0.201655
      2.93784      0.00000      5.28038        -0.004613     -0.009211     -0.085225
      5.87568      0.00000      5.28038         0.004613     -0.009211     -0.085225
      1.46892      2.54424      5.28038        -0.010283      0.000610     -0.085225
      4.40676      2.54424      5.28038         0.000000      0.000000     -0.141206
      7.34459      2.54424      5.28038         0.010283      0.000610     -0.085225
      2.93784      5.08848      5.28038        -0.005670      0.008601     -0.085225
      5.87568      5.08848      5.28038         0.005670      0.008601     -0.085225
      8.81351      5.08848      5.28038         0.000000      0.000000     -0.117237
      1.46892      0.84808      7.67911        -0.011234     -0.006486      0.150588
      4.40676      0.84808      7.67911        -0.000000     -0.055253      0.029551
      7.34459      0.84808      7.67911         0.011234     -0.006486      0.150588
      2.93784      3.39232      7.67911        -0.047851      0.027627      0.029551
      5.87568      3.39232      7.67911         0.047851      0.027627      0.029551
      8.81351      3.39232      7.67911        -0.000000     -0.072774      0.101523
      4.40676      5.93656      7.67911         0.000000      0.012972      0.150588
      7.34459      5.93656      7.67911        -0.063024      0.036387      0.101523
     10.28243      5.93656      7.67911         0.063024      0.036387      0.101523
      8.81351      1.70659     10.09931        -0.000000     -0.033914     -0.003207
      2.93410      1.69400     10.03753        -0.076624     -0.044239     -0.091467
      5.87941      1.69400     10.03753         0.076624     -0.044239     -0.091467
     10.26439      4.25082     10.06692         0.047835     -0.027618     -0.006205
      4.40676      4.24472     10.03753         0.000000      0.088477     -0.091467
      7.36264      4.25082     10.06692        -0.047835     -0.027618     -0.006205
     11.74232      6.77943     10.09931         0.029370      0.016957     -0.003207
      5.88471      6.77943     10.09931        -0.029370      0.016957     -0.003207
      8.81351      6.76381     10.06692         0.000000      0.055235     -0.006205
      0.00000      0.00000     12.49835         0.000000      0.000000     -0.010922
      2.98825      0.08685     12.53577         0.003887     -0.034784      0.013594
      5.82526      0.08685     12.53577        -0.003887     -0.034784      0.013594
      1.56934      2.54447     12.53577        -0.028180      0.020758      0.013594
      7.24417      2.54447     12.53577         0.028180      0.020758      0.013594
      2.98785      5.00140     12.53577        -0.032067      0.014026      0.013594
      5.82567      5.00140     12.53577         0.032067      0.014026      0.013594
      8.81351      5.08848     12.49628         0.000000      0.000000      0.052024
      4.40676      2.54424     12.20474         0.000000      0.000000      0.295198
      4.40676      2.54424     13.86285         0.000000      0.000000      0.011234
    total drift:                               -0.010199     -0.005642      0.570403

  FREE ENERGIE OF THE ION-ELECTRON SYSTEM (eV)
  free  energy   TOTEN  =      -119.83517271 eV

  energy  without entropy=     -119.83517271  energy(sigma->0) =     -119.83517271

 stress matrix after NEB project (eV)
    -24.05390     -0.00000     -0.00000
     -0.00000    -24.05390     -0.00000
     -0.00000     -0.00000      3.03728
  FORCES: max atom, RMS     0.011234    0.001847
  FORCE total and by dimension    0.011234    0.011234
  Stress total and by dimension   34.152673   24.053899
|           W    W    AA    RRRRR   N    N  II  N    N   GGGG   !!!           |
|           W    W   A  A   R    R  NN   N  II  NN   N  G    G  !!!           |
|           W    W  A    A  R    R  N N  N  II  N N  N  G       !!!           |
|           W WW W  AAAAAA  RRRRR   N  N N  II  N  N N  G  GGG   !            |
|           WW  WW  A    A  R   R   N   NN  II  N   NN  G    G                |
|           W    W  A    A  R    R  N    N  II  N    N   GGGG   !!!           |
|     Tetrahedron method does not include variations of the Fermi             |
|     occupations, so forces and stress will be inaccurate. We suggest        |
|     using a different smearing scheme ISMEAR = 1 or 2 for metals in         |
|     relaxations.                                                            |

 total charge

# of ion       s       p       d       tot
    1        0.548   0.236   8.769   9.553
    2        0.543   0.241   8.766   9.549
    3        0.543   0.241   8.766   9.549
    4        0.543   0.241   8.766   9.549
    5        0.547   0.240   8.760   9.547
    6        0.543   0.241   8.766   9.549
    7        0.543   0.241   8.766   9.549
    8        0.543   0.241   8.766   9.549
    9        0.543   0.239   8.768   9.549
   10        0.528   0.307   8.765   9.600
   11        0.524   0.307   8.781   9.613
   12        0.528   0.307   8.765   9.600
   13        0.524   0.307   8.781   9.613
   14        0.524   0.307   8.781   9.613
   15        0.517   0.307   8.777   9.601
   16        0.528   0.307   8.765   9.600
   17        0.517   0.307   8.777   9.601
   18        0.517   0.307   8.777   9.601
   19        0.513   0.295   8.775   9.583
   20        0.569   0.339   8.735   9.643
   21        0.569   0.339   8.735   9.643
   22        0.505   0.305   8.779   9.589
   23        0.569   0.339   8.735   9.643
   24        0.505   0.305   8.779   9.589
   25        0.513   0.295   8.775   9.583
   26        0.513   0.295   8.775   9.583
   27        0.505   0.305   8.779   9.589
   28        0.537   0.226   8.755   9.518
   29        0.568   0.249   8.732   9.549
   30        0.568   0.249   8.732   9.549
   31        0.568   0.249   8.732   9.549
   32        0.568   0.249   8.732   9.549
   33        0.568   0.249   8.732   9.549
   34        0.568   0.249   8.732   9.549
   35        0.531   0.225   8.759   9.515
   36        0.529   0.431   4.627   5.588
   37        0.529   0.017   0.000   0.547
tot         19.898  10.130 311.264 341.293

 BZINTS: Fermi energy:    0.625059;  393.000000 electrons
         Band energy:-0.120865E+04;  BLOECHL correction:   -0.036284