 vasp.6.2.0 18Jan21 (build Jun 12 2021 23:27:24) complex

 executed on             LinuxIFC date 2022.05.28  02:46:09

 INCAR:
   ISMEAR = -5
   SIGMA = 0.1
   ISPIN = 1
   EDIFF = 1.d-5
   EDIFFG = -0.01
   NSW = 0
   NELM = 150
   ENCUT = 500
   ISIF = 2
   IBRION = 2
   LREAL = Auto
   ALGO = Fast
   ICHARG = 11
   LORBIT = 10
   LCHARG = .F.
   LWAVE = .F.

 POTCAR:    PAW_PBE Cu 22Jun2005
 POTCAR:    PAW_PBE W 08Apr2002
 POTCAR:    PAW_PBE C 08Apr2002
 POTCAR:    PAW_PBE O 08Apr2002
|           W    W    AA    RRRRR   N    N  II  N    N   GGGG   !!!           |
|           W    W   A  A   R    R  NN   N  II  NN   N  G    G  !!!           |
|           W    W  A    A  R    R  N N  N  II  N N  N  G       !!!           |
|           W WW W  AAAAAA  RRRRR   N  N N  II  N  N N  G  GGG   !            |
|           WW  WW  A    A  R   R   N   NN  II  N   NN  G    G                |
|           W    W  A    A  R    R  N    N  II  N    N   GGGG   !!!           |
|     For optimal performance we recommend to set                             |
|       NCORE = 2 up to number-of-cores-per-socket                            |
|     This setting can greatly improve the performance of VASP for DFT.       |
|     The default, NCORE=1 might be grossly inefficient on modern             |
|     multi-core architectures or massively parallel machines. Do your        |
|     Unfortunately you need to use the default for GW and RPA                |
|     calculations (for HF NCORE is supported but not extensively tested      |
|     yet).                                                                   |

 POTCAR:    PAW_PBE Cu 22Jun2005
   VRHFIN =Cu: d10 p1

   TITEL  = PAW_PBE Cu 22Jun2005
   POMASS =   63.546; ZVAL   =   11.000    mass and valenz
   ENMAX  =  295.446; ENMIN  =  221.585 eV

 POTCAR:    PAW_PBE W 08Apr2002
   VRHFIN =W : 6s5d

   TITEL  = PAW_PBE W 08Apr2002
   POMASS =  183.850; ZVAL   =    6.000    mass and valenz
   ENMAX  =  223.057; ENMIN  =  167.293 eV

 POTCAR:    PAW_PBE C 08Apr2002
   VRHFIN =C: s2p2

[...]

 POTCAR:    PAW_PBE O 08Apr2002
   VRHFIN =O: s2p4

   TITEL  = PAW_PBE O 08Apr2002
   POMASS =   16.000; ZVAL   =    6.000    mass and valenz
   ENMAX  =  400.000; ENMIN  =  300.000 eV

 Optimization of the real space projectors (new method)

 maximal supplied QI-value         = 16.25
 optimisation between [QCUT,QGAM] = [ 11.38, 22.75] = [ 36.24,144.96] Ry
 Optimized for a Real-space Cutoff    1.52 Angstroem

   l    n(q)    QCUT    max X(q) W(low)/X(q) W(high)/X(q)  e(spline)
   2      9    11.376     4.610    0.21E-03    0.10E-03    0.26E-06
   2      9    11.376     8.522    0.33E-03    0.16E-03    0.37E-06
   0     10    11.376    51.609    0.62E-04    0.20E-04    0.13E-06
   0     10    11.376    27.747    0.54E-04    0.20E-04    0.13E-06
   1     10    11.376    20.408    0.13E-04    0.99E-04    0.19E-06
   1     10    11.376    13.425    0.12E-04    0.87E-04    0.17E-06
 Optimization of the real space projectors (new method)

[...]

   l    n(q)    QCUT    max X(q) W(low)/X(q) W(high)/X(q)  e(spline)
   0      7    11.310   115.676    0.43E-03    0.13E-02    0.19E-06
   0      7    11.310    87.132    0.43E-03    0.13E-02    0.18E-06
   1      6    11.310     4.429    0.42E-03    0.74E-03    0.11E-06
   1      6    11.310     2.733    0.34E-03    0.55E-03    0.92E-07
 Optimization of the real space projectors (new method)

 maximal supplied QI-value         = 24.76
 optimisation between [QCUT,QGAM] = [ 11.39, 22.77] = [ 36.31,145.25] Ry
 Optimized for a Real-space Cutoff    1.00 Angstroem

   l    n(q)    QCUT    max X(q) W(low)/X(q) W(high)/X(q)  e(spline)
   0      7    11.387    20.381    0.39E-03    0.13E-02    0.15E-06
   0      7    11.387    15.268    0.42E-03    0.14E-02    0.17E-06
   1      6    11.387     5.964    0.41E-03    0.11E-02    0.17E-06
   1      6    11.387     5.382    0.39E-03    0.87E-03    0.15E-06
  PAW_PBE Cu 22Jun2005                  :
  PAW_PBE W 08Apr2002                   :
  PAW_PBE C 08Apr2002                   :
  PAW_PBE O 08Apr2002                   :

 POSCAR: Cu-W-CO2
  positions in direct lattice
  velocities in cartesian coordinates
 exchange correlation table for  LEXCH =        8
   RHO(1)=    0.500       N(1)  =     2000
   RHO(2)=  100.500       N(2)  =     4000

 VTST: version 3.2, (02/03/18)

 CHAIN: initializing optimizer

 OPT: Using VASP Conjugate-Gradient optimizer
 CHAIN: Read ICHAIN            0

 POSCAR: Cu-W-CO2
  positions in direct lattice
  velocities in cartesian coordinates

 ion  position               nearest neighbor table
   1  0.000  0.000  0.229-   7 2.57   3 2.57   4 2.57   2 2.57   6 2.57   8 2.57  12 2.57  10 2.57
                            16 2.57
   2  0.333  0.000  0.229-   8 2.57   9 2.57   5 2.57   1 2.57   3 2.57  11 2.57   4 2.57  10 2.57
                            17 2.57
   3  0.667  0.000  0.229-   1 2.57   7 2.57   6 2.57   9 2.57   2 2.57  12 2.57   5 2.57  18 2.57
                            11 2.57
   4  0.000  0.333  0.229-   5 2.57   6 2.57   1 2.57   7 2.57   2 2.57  13 2.57   9 2.57  10 2.57
                            15 2.57
   5  0.333  0.333  0.229-   4 2.57   2 2.57   7 2.57  13 2.57   8 2.57   6 2.57   3 2.57  11 2.57
                            14 2.57
   6  0.667  0.333  0.229-   4 2.57   9 2.57  15 2.57   3 2.57   1 2.57   8 2.57  14 2.57   5 2.57
                            12 2.57
   7  0.000  0.667  0.229-   1 2.57   3 2.57  16 2.57  18 2.57   4 2.57   5 2.57   8 2.57   9 2.57
                            13 2.57
   8  0.333  0.667  0.229-   9 2.57   2 2.57  17 2.57   6 2.57   1 2.57   7 2.57   5 2.57  14 2.57
                            16 2.57
   9  0.667  0.667  0.229-   8 2.57   6 2.57   2 2.57  17 2.57   3 2.57   7 2.57   4 2.57  15 2.57
                            18 2.57
  10  0.111  0.111  0.318-  20 2.54  11 2.57  12 2.57  13 2.57   1 2.57   2 2.57   4 2.57  15 2.57
                            16 2.57  17 2.57  26 2.57  19 2.57
  11  0.444  0.111  0.318-  20 2.55  21 2.55  10 2.57  13 2.57   2 2.57  17 2.57  14 2.57  12 2.57
                             5 2.57   3 2.57  18 2.57  27 2.58
  12  0.778  0.111  0.318-  21 2.54  15 2.57  10 2.57  14 2.57  18 2.57   3 2.57   1 2.57  16 2.57
                            11 2.57   6 2.57  19 2.57  25 2.57
  13  0.111  0.444  0.318-  23 2.55  20 2.55  16 2.57  18 2.57  10 2.57  11 2.57  14 2.57   5 2.57
                             4 2.57   7 2.57  15 2.57  22 2.58
  14  0.444  0.444  0.318-  21 2.55  23 2.55  15 2.57  17 2.57  12 2.57  16 2.57  13 2.57  11 2.57
                             6 2.57   8 2.57   5 2.57  24 2.58
  15  0.778  0.444  0.318-  19 2.57  14 2.57  17 2.57  12 2.57   6 2.57  18 2.57  10 2.57   9 2.57
                            13 2.57   4 2.57  24 2.57  22 2.57
  16  0.111  0.778  0.318-  23 2.54  18 2.57  13 2.57   7 2.57  14 2.57  17 2.57  12 2.57  10 2.57
                             8 2.57   1 2.57  25 2.57  26 2.57
  17  0.444  0.778  0.318-  26 2.57  14 2.57  15 2.57   8 2.57   9 2.57  11 2.57  16 2.57  18 2.57
                            10 2.57   2 2.57  27 2.57  24 2.57
  18  0.778  0.778  0.318-  25 2.57  16 2.57  13 2.57   7 2.57  15 2.57  12 2.57  17 2.57   9 2.57
                             3 2.57  11 2.57  22 2.57  27 2.57
  19  0.889  0.223  0.408-  21 2.55  20 2.55  22 2.56  24 2.56  15 2.57  12 2.57  10 2.57  25 2.57
                            26 2.57  28 2.57  32 2.60  31 2.60
  20  0.221  0.221  0.406-  10 2.54  36 2.54  11 2.55  13 2.55  26 2.55  19 2.55  27 2.57  22 2.57
                            23 2.59  21 2.59  29 2.62  31 2.62
  21  0.558  0.221  0.406-  12 2.54  36 2.54  14 2.55  11 2.55  19 2.55  25 2.55  24 2.57  27 2.57
                            20 2.59  23 2.59  32 2.62  30 2.62
  22  0.888  0.556  0.408-  24 2.56  27 2.56  19 2.56  25 2.56  35 2.56  23 2.57  20 2.57  18 2.57
                            15 2.57  13 2.58  31 2.59  33 2.59
  23  0.221  0.558  0.406-  16 2.54  36 2.54  13 2.55  14 2.55  25 2.55  26 2.55  22 2.57  24 2.57
                            20 2.59  21 2.59  33 2.62  34 2.62
  24  0.556  0.556  0.408-  22 2.56  27 2.56  19 2.56  26 2.56  35 2.56  21 2.57  23 2.57  15 2.57
                            17 2.57  14 2.58  32 2.59  34 2.59
  25  0.889  0.889  0.408-  21 2.55  23 2.55  22 2.56  27 2.56  18 2.57  16 2.57  12 2.57  19 2.57
                            26 2.57  28 2.57  33 2.60  30 2.60
  26  0.223  0.889  0.408-  20 2.55  23 2.55  27 2.56  24 2.56  17 2.57  10 2.57  16 2.57  25 2.57
                            19 2.57  28 2.57  29 2.60  34 2.60
  27  0.556  0.888  0.408-  24 2.56  22 2.56  26 2.56  25 2.56  35 2.56  20 2.57  21 2.57  17 2.57
                            18 2.57  11 2.58  29 2.59  30 2.59
  28  0.000  0.000  0.497-  33 2.56  30 2.56  31 2.56  29 2.56  32 2.56  34 2.56  25 2.57  19 2.57
                            26 2.57
  29  0.333  1.000  0.499-  34 2.56  28 2.56  35 2.57  31 2.57  36 2.57  30 2.57  27 2.59  26 2.60
                            20 2.62
  30  0.667  1.000  0.499-  33 2.56  28 2.56  35 2.57  32 2.57  36 2.57  29 2.57  27 2.59  25 2.60
                            21 2.62
  31  1.000  0.333  0.499-  32 2.56  28 2.56  35 2.57  29 2.57  36 2.57  33 2.57  22 2.59  19 2.60
                            20 2.62
  32  0.667  0.333  0.499-  31 2.56  28 2.56  35 2.57  30 2.57  36 2.57  34 2.57  24 2.59  19 2.60
                            21 2.62
  33  1.000  0.667  0.499-  30 2.56  28 2.56  35 2.57  34 2.57  36 2.57  31 2.57  22 2.59  25 2.60
                            23 2.62
  34  0.333  0.667  0.499-  29 2.56  28 2.56  35 2.57  33 2.57  36 2.57  32 2.57  24 2.59  26 2.60
                            23 2.62
  35  0.667  0.667  0.497-  24 2.56  27 2.56  22 2.56  34 2.57  32 2.57  29 2.57  30 2.57  33 2.57
                            31 2.57
  36  0.333  0.333  0.494-  37 2.17  23 2.54  20 2.54  21 2.54  31 2.57  29 2.57  33 2.57  34 2.57
                            32 2.57  30 2.57
  37  0.333  0.334  0.586-  38 1.24  39 1.24  36 2.17
  38  0.182  0.331  0.604-  37 1.24
  39  0.486  0.331  0.604-  37 1.24

  LATTYP: Found a hexagonal cell.
 ALAT       =     7.6967864036
 C/A-ratio  =     3.0484540560

  Lattice vectors:

 A1 = (  -3.8483927580,  -6.6656128093,   0.0000000000)
 A2 = (   7.6967864037,   0.0000000000,   0.0000000000)
 A3 = (   0.0000000000,   0.0000000000,  23.4632997305)

Analysis of symmetry for initial positions (statically):
 Subroutine PRICEL returns:
 Original cell was already a primitive cell.

 Routine SETGRP: Setting up the symmetry group for a
 hexagonal supercell.

 Subroutine GETGRP returns: Found  2 space group operations
 (whereof  2 operations were pure point group operations)
 out of a pool of 24 trial point group operations.

The static configuration has the point symmetry C_1h.

Analysis of symmetry for dynamics (positions and initial velocities):
 Subroutine PRICEL returns:
 Original cell was already a primitive cell.

[...]

The dynamic configuration has the point symmetry C_1h.

Analysis of constrained symmetry for selective dynamics:
 Subroutine PRICEL returns:
 Original cell was already a primitive cell.

 Routine SETGRP: Setting up the symmetry group for a
[...]
     41      -4.5091      2.00000
     42      -4.4643      2.00000
     43      -4.3150      2.00000
     44      -4.3034      2.00000
     45      -4.2576      2.00000
     46      -4.2501      2.00000
     47      -4.2258      2.00000
     48      -4.2051      2.00000
     49      -4.2023      2.00000
     50      -4.1822      2.00000
     51      -4.1771      2.00000
     52      -4.0230      2.00000
     53      -3.9970      2.00000
     54      -3.9874      2.00000
     55      -3.9791      2.00000
     56      -3.9548      2.00000
     57      -3.9202      2.00000
     58      -3.9128      2.00000
     59      -3.8951      2.00000
     60      -3.8882      2.00000
[...]
    238       5.3377      0.00000
    239       5.3719      0.00000
    240       5.4767      0.00000
    241       5.6414      0.00000
    242       5.6617      0.00000
    243       5.7607      0.00000
    244       5.9237      0.00000
    245       6.0272      0.00000
    246       6.0435      0.00000
    247       6.4020      0.00000
    248       6.4745      0.00000
    249       6.4904      0.00000
    250       6.5983      0.00000
    251       6.8096      0.00000
    252       6.8372      0.00000

 soft charge-density along one line, spin component           1
         0         1         2         3         4         5         6         7         8         9
 total charge-density along one line

------------------------ aborting loop because EDIFF is reached ----------------------------------------

 total charge

# of ion       s       p       d       tot
    1        0.450   0.283   9.190   9.922
    2        0.448   0.285   9.187   9.919
    3        0.448   0.285   9.187   9.919
    4        0.448   0.285   9.187   9.919
    5        0.449   0.283   9.187   9.919
    6        0.448   0.285   9.187   9.919
    7        0.448   0.285   9.186   9.919
    8        0.448   0.285   9.186   9.919
    9        0.449   0.284   9.186   9.919
   10        0.444   0.372   9.176   9.992
   11        0.441   0.368   9.183   9.992
   12        0.444   0.372   9.176   9.992
   13        0.441   0.368   9.183   9.992
   14        0.441   0.368   9.183   9.992
   15        0.437   0.368   9.179   9.984
   16        0.444   0.371   9.177   9.992
   17        0.439   0.367   9.179   9.985
   18        0.439   0.367   9.179   9.985
   19        0.438   0.363   9.185   9.986
   20        0.466   0.404   9.159  10.029
   21        0.466   0.404   9.159  10.029
   22        0.427   0.370   9.180   9.977
   23        0.466   0.403   9.161  10.030
   24        0.427   0.370   9.180   9.977
   25        0.440   0.364   9.183   9.986
   26        0.440   0.364   9.183   9.986
   27        0.429   0.367   9.183   9.979
   28        0.450   0.287   9.181   9.918
   29        0.474   0.313   9.164   9.950
   30        0.474   0.313   9.164   9.950
   31        0.460   0.314   9.167   9.940
   32        0.460   0.314   9.167   9.940
   33        0.474   0.312   9.163   9.950
   34        0.474   0.312   9.163   9.950
   35        0.441   0.291   9.183   9.916
   36        0.699   0.509   4.133   5.342
   37        0.888   1.707   0.000   2.595
   38        1.602   3.467   0.000   5.069
   39        1.602   3.467   0.000   5.069
tot         20.500  20.896 325.356 366.752

  FORCE on cell =-STRESS in cart. coord.  units (eV):
  Direction    XX          YY          ZZ          XY          YZ          ZX
  Alpha Z   850.43692   850.43692   850.43692
  Ewald  212661.79702211989.06912************     0.00039    -1.01697     0.00015
  Hartree225336.84937225012.91205************     0.00004    -0.30766     0.00005
  E(xc)   -2346.23209 -2348.38079 -2352.51372    -0.00028    -0.03268    -0.00005
  Local  ************************450158.37327     0.02036     1.52997    -0.00070
  n-local  -817.20279  -812.34976  -829.30878     1.94639     0.41722     0.08616
  augment  3323.59201  3325.55721  3347.76621    -0.01848    -0.10740     0.00044
  Kinetic  3497.44926  3545.14769  3567.40515     1.22498    -0.29134    -0.21848
  Fock        0.00000     0.00000     0.00000     0.00000     0.00000     0.00000
  Total      -3.96013    -3.93866    -0.06408     0.00000     0.19114    -0.00000
  in kB      -5.27086    -5.24229    -0.08529     0.00000     0.25440    -0.00000

 VOLUME and BASIS-vectors are now :
  energy-cutoff  :      500.00
  volume of cell :     1203.76
      direct lattice vectors                 reciprocal lattice vectors
     7.696786404  0.000000000  0.000000000     0.129924354 -0.075011849  0.000000000
     3.848392758  6.665612809  0.000000000     0.000000000  0.150023716  0.000000000
     0.000000000  0.000000000 23.463299730     0.000000000  0.000000000  0.042619751

  length of vectors
     7.696786404  7.696786404 23.463299730     0.150023716  0.150023716  0.042619751

 FORCES acting on ions
    electron-ion (+dipol)            ewald-force                    non-local-force                 convergence-correction
   -.417E-04 0.104E+00 0.372E+04   0.581E-04 -.435E-01 -.372E+04   0.365E-08 -.548E-01 -.233E+01   -.419E-03 -.101E-01 -.297E+00
   -.532E+00 -.796E-01 0.372E+04   0.434E+00 0.352E-01 -.372E+04   0.243E-01 0.817E-01 -.197E+01   0.676E-01 -.518E-01 -.262E+00
   0.532E+00 -.796E-01 0.372E+04   -.434E+00 0.352E-01 -.372E+04   -.243E-01 0.817E-01 -.197E+01   -.667E-01 -.492E-01 -.261E+00
   -.424E+00 -.408E+00 0.372E+04   0.285E+00 0.338E+00 -.372E+04   0.145E+00 -.234E-01 -.211E+01   -.879E-02 0.970E-01 -.267E+00
   -.633E-04 -.153E+00 0.372E+04   0.116E-03 0.163E-02 -.372E+04   -.451E-08 0.677E-01 -.167E+01   0.122E-01 0.802E-01 -.259E+00
   0.424E+00 -.408E+00 0.372E+04   -.285E+00 0.338E+00 -.372E+04   -.145E+00 -.234E-01 -.211E+01   0.712E-02 0.982E-01 -.266E+00
   -.104E-01 0.535E+00 0.372E+04   -.149E+00 -.373E+00 -.372E+04   0.166E+00 -.778E-01 -.193E+01   -.187E-01 -.698E-01 -.255E+00
   0.105E-01 0.535E+00 0.372E+04   0.148E+00 -.373E+00 -.372E+04   -.166E+00 -.778E-01 -.193E+01   0.221E-01 -.713E-01 -.255E+00
   -.144E-03 -.358E-01 0.372E+04   0.263E-03 0.419E-01 -.372E+04   -.139E-08 0.209E-01 -.201E+01   -.132E-01 -.282E-01 -.178E+00
   -.699E-01 0.224E+00 0.131E+04   0.523E+00 -.410E-01 -.131E+04   -.472E+00 -.179E+00 -.105E+01   -.114E-01 -.164E-01 0.168E+00
   -.930E-04 -.880E+00 0.130E+04   0.190E-03 0.866E+00 -.130E+04   -.291E-09 0.438E-02 -.545E+00   0.124E-01 -.278E-01 0.177E+00
   0.700E-01 0.224E+00 0.131E+04   -.524E+00 -.411E-01 -.131E+04   0.472E+00 -.179E+00 -.105E+01   0.908E-02 -.150E-01 0.169E+00
   -.115E+01 0.314E+00 0.130E+04   0.106E+01 -.368E+00 -.130E+04   0.594E-01 -.664E-02 -.479E+00   -.772E-02 0.763E-01 0.130E+00
   0.115E+01 0.314E+00 0.130E+04   -.106E+01 -.368E+00 -.130E+04   -.594E-01 -.664E-02 -.479E+00   0.319E-01 0.746E-01 0.129E+00
   -.140E-03 -.213E+01 0.131E+04   0.298E-03 0.186E+01 -.130E+04   -.631E-08 0.947E-01 -.998E+00   -.379E-02 0.165E+00 0.172E+00
   -.887E-04 0.210E+00 0.131E+04   0.186E-03 -.503E+00 -.131E+04   -.243E-07 0.365E+00 -.820E+00   -.767E-03 -.378E-01 0.140E+00
   -.167E+01 0.848E+00 0.130E+04   0.141E+01 -.703E+00 -.130E+04   0.126E+00 -.458E-01 -.827E+00   0.117E+00 -.996E-01 0.147E+00
   0.167E+01 0.848E+00 0.130E+04   -.141E+01 -.703E+00 -.130E+04   -.126E+00 -.458E-01 -.827E+00   -.116E+00 -.962E-01 0.149E+00
   -.659E-04 -.396E+01 -.111E+04   0.705E-04 0.380E+01 0.111E+04   -.621E-08 0.933E-01 0.132E+01   -.128E-01 0.360E-01 0.284E+00
   -.449E+02 -.241E+02 -.114E+04   0.452E+02 0.243E+02 0.114E+04   -.537E+00 -.428E+00 -.607E+00   0.696E-01 0.931E-01 0.451E+00
   0.449E+02 -.241E+02 -.114E+04   -.452E+02 0.243E+02 0.114E+04   0.537E+00 -.428E+00 -.607E+00   -.660E-01 0.915E-01 0.450E+00
   -.240E+02 0.116E+02 -.113E+04   0.236E+02 -.111E+02 0.113E+04   0.515E+00 -.469E+00 0.959E+00   -.242E-01 -.252E-01 0.180E+00
   -.993E-04 0.492E+02 -.114E+04   0.148E-03 -.495E+02 0.114E+04   -.364E-07 0.546E+00 -.459E+00   -.184E-03 -.977E-01 0.336E+00
   0.240E+02 0.116E+02 -.113E+04   -.236E+02 -.111E+02 0.113E+04   -.515E+00 -.469E+00 0.959E+00   0.239E-01 -.285E-01 0.180E+00
   0.452E+01 0.356E+01 -.112E+04   -.454E+01 -.361E+01 0.112E+04   0.448E-01 0.650E-01 0.101E+01   -.307E-01 -.163E-02 0.275E+00
   -.452E+01 0.356E+01 -.112E+04   0.454E+01 -.361E+01 0.112E+04   -.448E-01 0.650E-01 0.101E+01   0.747E-02 -.343E-02 0.276E+00
   -.113E-03 -.272E+02 -.113E+04   0.240E-03 0.265E+02 0.113E+04   -.450E-07 0.675E+00 0.798E+00   0.130E-01 -.132E-01 0.161E+00
   -.464E-04 0.130E+02 -.348E+04   0.369E-04 -.128E+02 0.348E+04   0.176E-07 -.264E+00 0.197E+01   -.657E-03 0.585E-01 0.173E+00
   -.221E+02 -.183E+02 -.346E+04   0.232E+02 0.186E+02 0.346E+04   -.103E+01 -.571E+00 0.147E+01   -.389E-01 0.190E-01 0.748E-01
   0.221E+02 -.183E+02 -.346E+04   -.232E+02 0.186E+02 0.346E+04   0.103E+01 -.571E+00 0.147E+01   0.403E-01 0.203E-01 0.729E-01
   -.279E+02 0.207E-01 -.343E+04   0.277E+02 0.305E+00 0.343E+04   0.489E-01 -.322E+00 0.289E+01   0.177E-01 0.108E-01 0.151E+00
   0.279E+02 0.207E-01 -.343E+04   -.277E+02 0.305E+00 0.343E+04   -.489E-01 -.322E+00 0.289E+01   -.183E-01 0.112E-01 0.151E+00
   -.232E+02 0.186E+02 -.346E+04   0.237E+02 -.192E+02 0.346E+04   -.479E+00 0.848E+00 0.131E+01   0.427E-02 -.398E-01 0.987E-01
   0.232E+02 0.186E+02 -.346E+04   -.237E+02 -.192E+02 0.346E+04   0.479E+00 0.848E+00 0.131E+01   -.157E-02 -.410E-01 0.992E-01
   -.155E-03 -.127E+02 -.349E+04   0.254E-03 0.125E+02 0.349E+04   -.211E-07 0.317E+00 0.254E+01   -.125E-01 -.710E-01 0.137E+00
   -.349E-04 -.381E+00 -.174E+04   0.757E-04 0.398E+00 0.173E+04   -.706E-08 0.106E+00 0.176E+01   0.703E-03 0.174E-01 0.288E-01
   -.664E-05 -.503E+01 -.133E+04   0.783E-05 0.523E+01 0.132E+04   0.137E-07 -.206E+00 0.547E+01   -.291E-03 0.121E-01 -.375E-01
   0.215E+03 0.186E+01 -.216E+04   -.263E+03 -.239E+01 0.218E+04   0.485E+02 0.537E+00 -.194E+02   -.267E-01 0.454E-02 -.653E-01
   -.215E+03 0.186E+01 -.216E+04   0.263E+03 -.239E+01 0.218E+04   -.485E+02 0.537E+00 -.194E+02   0.318E-01 0.459E-02 -.656E-01
   0.187E-04 -.611E+00 0.338E+02   0.568E-13 0.149E-12 -.182E-11   -.389E-07 0.584E+00 -.364E+02   0.833E-02 0.751E-01 0.249E+01

 POSITION                                       TOTAL-FORCE (eV/Angst)
      0.00000      0.00000      5.37156         0.000000     -0.005720      0.029029
      2.56560      0.00000      5.37156        -0.006963     -0.014377      0.063873
      5.13119      0.00000      5.37156         0.006963     -0.014377      0.063873
      1.28280      2.22187      5.37156        -0.003064      0.002780      0.055058
      3.84839      2.22187      5.37156         0.000000     -0.004961      0.051342
      6.41399      2.22187      5.37156         0.003064      0.002780      0.055058
      2.56560      4.44374      5.37156        -0.013654      0.012198      0.069496
      5.13119      4.44374      5.37156         0.013654      0.012198      0.069496
      7.69679      4.44374      5.37156         0.000000     -0.002490      0.034795
      1.28280      0.74062      7.46636        -0.029200     -0.012311     -0.072527
      3.84839      0.74062      7.46636         0.000000     -0.038548     -0.101616
      6.41399      0.74062      7.46636         0.029200     -0.012311     -0.072527
      2.56560      2.96249      7.46636        -0.050098      0.012850     -0.084361
      5.13119      2.96249      7.46636         0.050098      0.012850     -0.084361
      7.69679      2.96249      7.46636         0.000000     -0.008390      0.029205
      3.84839      5.18437      7.46636        -0.000000      0.032030     -0.065184
      6.41399      5.18437      7.46636        -0.014651      0.000686      0.033200
      8.97958      5.18437      7.46636         0.014651      0.000686      0.033200
      7.69679      1.48345      9.56239         0.000000     -0.032674      0.068259
      2.55319      1.47409      9.53589        -0.152930     -0.119410     -0.160104
      5.14360      1.47409      9.53589         0.152930     -0.119410     -0.160104
      8.97438      3.70612      9.57309         0.076593     -0.032747      0.039857
      3.84839      3.71744      9.53589        -0.000000      0.157893     -0.163920
      6.41919      3.70612      9.57309        -0.076593     -0.032747      0.039857
     10.26047      5.92389      9.56239         0.004111      0.006662      0.015398
      5.13310      5.92389      9.56239        -0.004111      0.006662      0.015398
      7.69679      5.91898      9.57309        -0.000000      0.039366     -0.009028
      0.00000      0.00000     11.66245         0.000000     -0.054353     -0.063953
      6.40959      6.66262     11.69844        -0.007673     -0.205067     -0.193236
      8.98399      6.66262     11.69844         0.007673     -0.205067     -0.193236
      8.97479      2.21956     11.69844        -0.188206      0.014071     -0.102459
      6.41878      2.21956     11.69844         0.188206      0.014071     -0.102459
     10.26199      4.44905     11.69844        -0.020877      0.193120     -0.174308
      5.13158      4.44905     11.69844         0.020876      0.193120     -0.174308
      7.69679      4.44374     11.67118        -0.000000      0.046498     -0.019104
      3.84839      2.22187     11.59207        -0.000000      0.139095      1.247972
      3.84839      2.22401     13.76047        -0.000000      0.005891     -0.044547
      2.67811      2.20910     14.17270        -0.002893      0.004729      0.013487
      5.01867      2.20910     14.17270         0.002893      0.004729      0.013487
    total drift:                                0.008347      0.047622     -0.039377

  FREE ENERGIE OF THE ION-ELECTRON SYSTEM (eV)
  free  energy   TOTEN  =      -154.85435612 eV

  energy  without entropy=     -154.85435612  energy(sigma->0) =     -154.85435612

 stress matrix after NEB project (eV)
     -3.96013      0.00000     -0.00000
      0.00000     -3.93866      0.19114
     -0.00000      0.19114     -0.06408
  FORCES: max atom, RMS     0.044935    0.007917
  FORCE total and by dimension    0.049441    0.044547
  Stress total and by dimension    5.592216    3.960129
|           W    W    AA    RRRRR   N    N  II  N    N   GGGG   !!!           |
|           W    W   A  A   R    R  NN   N  II  NN   N  G    G  !!!           |
|           W    W  A    A  R    R  N N  N  II  N N  N  G       !!!           |
|           W WW W  AAAAAA  RRRRR   N  N N  II  N  N N  G  GGG   !            |
|           WW  WW  A    A  R   R   N   NN  II  N   NN  G    G                |
|           W    W  A    A  R    R  N    N  II  N    N   GGGG   !!!           |
|     Tetrahedron method does not include variations of the Fermi             |
|     occupations, so forces and stress will be inaccurate. We suggest        |
|     using a different smearing scheme ISMEAR = 1 or 2 for metals in         |
|     relaxations.                                                            |

 total charge

# of ion       s       p       d       tot
    1        0.450   0.283   9.190   9.922
    2        0.448   0.285   9.187   9.919
    3        0.448   0.285   9.187   9.919
    4        0.448   0.285   9.187   9.919
    5        0.449   0.283   9.187   9.919
    6        0.448   0.285   9.187   9.919
    7        0.448   0.285   9.186   9.919
    8        0.448   0.285   9.186   9.919
    9        0.449   0.284   9.186   9.919
   10        0.444   0.372   9.176   9.992
   11        0.441   0.368   9.183   9.992
   12        0.444   0.372   9.176   9.992
   13        0.441   0.368   9.183   9.992
   14        0.441   0.368   9.183   9.992
   15        0.437   0.368   9.179   9.984
   16        0.444   0.371   9.177   9.992
   17        0.439   0.367   9.179   9.985
   18        0.439   0.367   9.179   9.985
   19        0.438   0.363   9.185   9.986
   20        0.466   0.404   9.159  10.029
   21        0.466   0.404   9.159  10.029
   22        0.427   0.370   9.180   9.977
   23        0.466   0.403   9.161  10.030
   24        0.427   0.370   9.180   9.977
   25        0.440   0.364   9.183   9.986
   26        0.440   0.364   9.183   9.986
   27        0.429   0.367   9.183   9.979
   28        0.450   0.287   9.181   9.918
   29        0.474   0.313   9.164   9.950
   30        0.474   0.313   9.164   9.950
   31        0.460   0.314   9.167   9.940
   32        0.460   0.314   9.167   9.940
   33        0.474   0.312   9.163   9.950
   34        0.474   0.312   9.163   9.950
   35        0.441   0.291   9.183   9.916
   36        0.699   0.509   4.133   5.342
   37        0.888   1.707   0.000   2.595
   38        1.602   3.467   0.000   5.069
   39        1.602   3.467   0.000   5.069
tot         20.500  20.896 325.356 366.752

 BZINTS: Fermi energy:   -0.488823;  407.000000 electrons
         Band energy:-0.146830E+04;  BLOECHL correction:   -0.029904