 vasp.6.2.0 18Jan21 (build Jun 12 2021 23:27:24) complex

 executed on             LinuxIFC date 2022.05.27  05:11:35

 INCAR:
   ISMEAR = -5
   SIGMA = 0.1
   ISPIN = 1
   EDIFF = 1.d-5
   EDIFFG = -0.01
   NSW = 0
   NELM = 150
   ENCUT = 500
   ISIF = 2
   IBRION = 2
   LREAL = Auto
   ALGO = Fast
   ICHARG = 11
   LORBIT = 10
   LCHARG = .F.
   LWAVE = .F.

 POTCAR:    PAW_PBE Au 04Oct2007
 POTCAR:    PAW_PBE Pd 04Jan2005
 POTCAR:    PAW_PBE C 08Apr2002
 POTCAR:    PAW_PBE O 08Apr2002
|           W    W    AA    RRRRR   N    N  II  N    N   GGGG   !!!           |
|           W    W   A  A   R    R  NN   N  II  NN   N  G    G  !!!           |
|           W    W  A    A  R    R  N N  N  II  N N  N  G       !!!           |
|           W WW W  AAAAAA  RRRRR   N  N N  II  N  N N  G  GGG   !            |
|           WW  WW  A    A  R   R   N   NN  II  N   NN  G    G                |
|           W    W  A    A  R    R  N    N  II  N    N   GGGG   !!!           |
|     For optimal performance we recommend to set                             |
|       NCORE = 2 up to number-of-cores-per-socket                            |
|     This setting can greatly improve the performance of VASP for DFT.       |
|     The default, NCORE=1 might be grossly inefficient on modern             |
|     multi-core architectures or massively parallel machines. Do your        |
|     Unfortunately you need to use the default for GW and RPA                |
|     calculations (for HF NCORE is supported but not extensively tested      |
|     yet).                                                                   |

 POTCAR:    PAW_PBE Au 04Oct2007
   VRHFIN =Au: s1d10

   TITEL  = PAW_PBE Au 04Oct2007
   POMASS =  196.966; ZVAL   =   11.000    mass and valenz
   ENMAX  =  229.943; ENMIN  =  172.457 eV

 POTCAR:    PAW_PBE Pd 04Jan2005
   VRHFIN =Pd : s1 d9

   TITEL  = PAW_PBE Pd 04Jan2005
   POMASS =  106.420; ZVAL   =   10.000    mass and valenz
   ENMAX  =  250.925; ENMIN  =  188.194 eV

 POTCAR:    PAW_PBE C 08Apr2002
   VRHFIN =C: s2p2

   TITEL  = PAW_PBE C 08Apr2002
   POMASS =   12.011; ZVAL   =    4.000    mass and valenz
   ENMAX  =  400.000; ENMIN  =  300.000 eV

 POTCAR:    PAW_PBE O 08Apr2002
   VRHFIN =O: s2p4

   TITEL  = PAW_PBE O 08Apr2002
   POMASS =   16.000; ZVAL   =    6.000    mass and valenz
   ENMAX  =  400.000; ENMIN  =  300.000 eV

 Optimization of the real space projectors (new method)

 maximal supplied QI-value         = 15.12
 optimisation between [QCUT,QGAM] = [ 11.34, 22.83] = [ 36.00,145.93] Ry
 Optimized for a Real-space Cutoff    1.39 Angstroem

   l    n(q)    QCUT    max X(q) W(low)/X(q) W(high)/X(q)  e(spline)
   2      9    11.338    60.898    0.39E-03    0.42E-03    0.21E-06
   2      9    11.338    58.894    0.40E-03    0.42E-03    0.22E-06
   0      9    11.338   109.617    0.13E-03    0.20E-04    0.13E-06
   0      9    11.338    75.026    0.13E-03    0.20E-04    0.13E-06
   1      9    11.338    16.344    0.33E-04    0.24E-03    0.18E-06
   1      9    11.338    10.160    0.26E-04    0.19E-03    0.15E-06
 Optimization of the real space projectors (new method)

[...]

   l    n(q)    QCUT    max X(q) W(low)/X(q) W(high)/X(q)  e(spline)
   0      7    11.310   115.676    0.43E-03    0.13E-02    0.19E-06
   0      7    11.310    87.132    0.43E-03    0.13E-02    0.18E-06
   1      6    11.310     4.429    0.42E-03    0.74E-03    0.11E-06
   1      6    11.310     2.733    0.34E-03    0.55E-03    0.92E-07
 Optimization of the real space projectors (new method)

 maximal supplied QI-value         = 24.76
 optimisation between [QCUT,QGAM] = [ 11.39, 22.77] = [ 36.31,145.25] Ry
 Optimized for a Real-space Cutoff    1.00 Angstroem

   l    n(q)    QCUT    max X(q) W(low)/X(q) W(high)/X(q)  e(spline)
   0      7    11.387    20.381    0.39E-03    0.13E-02    0.15E-06
   0      7    11.387    15.268    0.42E-03    0.14E-02    0.17E-06
   1      6    11.387     5.964    0.41E-03    0.11E-02    0.17E-06
   1      6    11.387     5.382    0.39E-03    0.87E-03    0.15E-06
  PAW_PBE Au 04Oct2007                  :
  PAW_PBE Pd 04Jan2005                  :
  PAW_PBE C 08Apr2002                   :
  PAW_PBE O 08Apr2002                   :

 POSCAR: Au-Pd-CO
  positions in direct lattice
  velocities in cartesian coordinates
 exchange correlation table for  LEXCH =        8
   RHO(1)=    0.500       N(1)  =     2000
   RHO(2)=  100.500       N(2)  =     4000

 VTST: version 3.2, (02/03/18)

 CHAIN: initializing optimizer

 OPT: Using VASP Conjugate-Gradient optimizer
 CHAIN: Read ICHAIN            0

 POSCAR: Au-Pd-CO
  positions in direct lattice
  velocities in cartesian coordinates

 ion  position               nearest neighbor table
   1  0.000  0.000  0.238-  16 2.94  12 2.94   6 2.94   8 2.94   7 2.94   3 2.94  10 2.94   4 2.94
                             2 2.94
   2  0.333  0.000  0.238-   9 2.94  11 2.94  17 2.94  10 2.94   8 2.94   4 2.94   5 2.94   1 2.94
                             3 2.94
   3  0.667  0.000  0.238-   7 2.94  18 2.94  12 2.94   1 2.94  11 2.94   5 2.94   6 2.94   9 2.94
                             2 2.94
   4  0.000  0.333  0.238-  10 2.94   6 2.94   5 2.94  13 2.94   2 2.94  15 2.94   9 2.94   1 2.94
                             7 2.94
   5  0.333  0.333  0.238-  13 2.94   7 2.94  11 2.94   4 2.94   2 2.94  14 2.94   3 2.94   8 2.94
                             6 2.94
   6  0.667  0.333  0.238-  15 2.94  14 2.94   1 2.94  12 2.94   4 2.94   9 2.94   8 2.94   3 2.94
                             5 2.94
   7  0.000  0.667  0.238-  18 2.94   3 2.94  16 2.94   5 2.94   1 2.94  13 2.94   8 2.94   4 2.94
                             9 2.94
   8  0.333  0.667  0.238-   9 2.94  17 2.94   1 2.94   2 2.94  14 2.94  16 2.94   6 2.94   7 2.94
                             5 2.94
   9  0.667  0.667  0.238-   2 2.94   8 2.94  17 2.94   6 2.94  15 2.94   4 2.94   3 2.94  18 2.94
                             7 2.94
  10  0.111  0.111  0.346-  26 2.92  19 2.92  20 2.93  11 2.94  17 2.94   2 2.94   4 2.94   1 2.94
                            12 2.94  16 2.94  13 2.94  15 2.94
  11  0.444  0.111  0.346-  27 2.93  20 2.93  21 2.93  13 2.94   2 2.94  10 2.94  17 2.94   5 2.94
                             3 2.94  18 2.94  14 2.94  12 2.94
  12  0.778  0.111  0.346-  25 2.92  19 2.92  21 2.93  16 2.94  18 2.94   1 2.94  14 2.94  15 2.94
                             3 2.94   6 2.94  10 2.94  11 2.94
  13  0.111  0.444  0.346-  22 2.93  23 2.93  20 2.93   5 2.94  18 2.94  11 2.94   7 2.94   4 2.94
                            16 2.94  10 2.94  14 2.94  15 2.94
  14  0.444  0.444  0.346-  24 2.93  21 2.93  23 2.93  15 2.94   6 2.94  12 2.94   8 2.94  17 2.94
                             5 2.94  16 2.94  13 2.94  11 2.94
  15  0.778  0.444  0.346-  19 2.93  24 2.93  22 2.93  14 2.94   6 2.94  17 2.94  12 2.94   9 2.94
                             4 2.94  10 2.94  13 2.94  18 2.94
  16  0.111  0.778  0.346-  25 2.92  26 2.92  23 2.93  18 2.94  12 2.94   7 2.94   1 2.94   8 2.94
                            13 2.94  10 2.94  14 2.94  17 2.94
  17  0.444  0.778  0.346-  26 2.93  27 2.93  24 2.93   9 2.94  15 2.94   2 2.94  10 2.94  11 2.94
                             8 2.94  14 2.94  16 2.94  18 2.94
  18  0.778  0.778  0.346-  25 2.93  22 2.93  27 2.93  16 2.94   7 2.94  13 2.94  12 2.94   3 2.94
                            11 2.94   9 2.94  15 2.94  17 2.94
  19  0.889  0.222  0.453-  10 2.92  12 2.92  15 2.93  26 2.93  25 2.93  21 2.94  20 2.94  24 2.94
                            22 2.94  28 2.96  32 2.97  31 2.97
  20  0.222  0.222  0.454-  36 2.83  10 2.93  11 2.93  13 2.93  26 2.94  19 2.94  27 2.94  22 2.94
                            23 2.94  21 2.94  29 2.95  31 2.95
  21  0.556  0.222  0.454-  36 2.83  12 2.93  14 2.93  11 2.93  25 2.94  19 2.94  24 2.94  27 2.94
                            20 2.94  23 2.94  30 2.95  32 2.95
  22  0.889  0.556  0.454-  18 2.93  15 2.93  13 2.93  24 2.94  27 2.94  23 2.94  20 2.94  25 2.94
                            19 2.94  33 2.96  31 2.96  35 2.96
  23  0.222  0.556  0.454-  36 2.83  16 2.93  13 2.93  14 2.93  25 2.94  26 2.94  22 2.94  24 2.94
                            20 2.94  21 2.94  33 2.95  34 2.95
  24  0.556  0.556  0.454-  15 2.93  17 2.93  14 2.93  27 2.94  22 2.94  21 2.94  23 2.94  26 2.94
                            19 2.94  32 2.96  34 2.96  35 2.96
  25  0.889  0.889  0.453-  16 2.92  12 2.92  18 2.93  19 2.93  26 2.93  23 2.94  21 2.94  22 2.94
                            27 2.94  28 2.96  33 2.97  30 2.97
  26  0.222  0.889  0.453-  10 2.92  16 2.92  17 2.93  19 2.93  25 2.93  20 2.94  23 2.94  27 2.94
                            24 2.94  28 2.96  29 2.97  34 2.97
  27  0.556  0.889  0.454-  17 2.93  18 2.93  11 2.93  24 2.94  22 2.94  20 2.94  21 2.94  26 2.94
                            25 2.94  29 2.96  30 2.96  35 2.96
  28  0.000  0.000  0.563-  34 2.94  32 2.94  33 2.94  30 2.94  31 2.94  29 2.94  25 2.96  19 2.96
                            26 2.96
  29  0.333  0.001  0.563-  30 2.93  31 2.93  36 2.93  35 2.94  28 2.94  20 2.95  34 2.95  27 2.96
                            26 2.97
  30  0.666  0.001  0.563-  29 2.93  32 2.93  36 2.93  35 2.94  28 2.94  21 2.95  33 2.95  27 2.96
                            25 2.97
  31  0.001  0.333  0.563-  33 2.93  29 2.93  36 2.93  35 2.94  28 2.94  20 2.95  32 2.95  22 2.96
                            19 2.97
  32  0.666  0.333  0.563-  34 2.93  30 2.93  36 2.93  35 2.94  28 2.94  21 2.95  31 2.95  24 2.96
                            19 2.97
  33  0.001  0.666  0.563-  31 2.93  34 2.93  36 2.93  35 2.94  28 2.94  23 2.95  30 2.95  22 2.96
                            25 2.97
  34  0.333  0.666  0.563-  32 2.93  33 2.93  36 2.93  35 2.94  28 2.94  23 2.95  29 2.95  24 2.96
                            26 2.97
  35  0.667  0.667  0.563-  29 2.94  34 2.94  32 2.94  31 2.94  30 2.94  33 2.94  24 2.96  27 2.96
                            22 2.96
  36  0.333  0.333  0.556-  37 1.89  20 2.83  23 2.83  21 2.83  33 2.93  31 2.93  29 2.93  30 2.93
                            34 2.93  32 2.93
  37  0.333  0.333  0.641-  38 1.15  36 1.89
  38  0.333  0.333  0.693-  37 1.15

  LATTYP: Found a hexagonal cell.
 ALAT       =     8.8135128021
 C/A-ratio  =     2.5184286595

  Lattice vectors:

 A1 = (  -4.4067569092,  -7.6327256898,   0.0000000000)
 A2 = (   8.8135128021,   0.0000000000,   0.0000000000)
 A3 = (   0.0000000000,   0.0000000000,  22.1962032318)

Analysis of symmetry for initial positions (statically):
 Subroutine PRICEL returns:
 Original cell was already a primitive cell.

 Routine SETGRP: Setting up the symmetry group for a
 hexagonal supercell.

 Subroutine GETGRP returns: Found  6 space group operations
 (whereof  6 operations were pure point group operations)
 out of a pool of 24 trial point group operations.

The static configuration has the point symmetry C_3v.

Analysis of symmetry for dynamics (positions and initial velocities):
 Subroutine PRICEL returns:
 Original cell was already a primitive cell.

[...]

The dynamic configuration has the point symmetry C_3v.

Analysis of constrained symmetry for selective dynamics:
 Subroutine PRICEL returns:
[...]
     33      -4.6991      2.00000
     34      -4.6048      2.00000
     35      -4.5994      2.00000
     36      -4.5924      2.00000
     37      -4.5796      2.00000
     38      -4.5678      2.00000
     39      -4.5389      2.00000
     40      -4.4525      2.00000
     41      -4.4346      2.00000
     42      -4.3690      2.00000
     43      -4.3418      2.00000
     44      -4.2841      2.00000
     45      -4.2231      2.00000
     46      -4.2112      2.00000
     47      -4.1660      2.00000
     48      -4.1538      2.00000
     49      -4.1152      2.00000
     50      -4.1032      2.00000
     51      -4.0065      2.00000
     52      -3.9718      2.00000
     53      -3.9464      2.00000
     54      -3.9434      2.00000
     55      -3.9367      2.00000
     56      -3.9323      2.00000
     57      -3.9136      2.00000
     58      -3.8719      2.00000
     59      -3.8320      2.00000
     60      -3.8020      2.00000
[...]
    238       6.2180      0.00000
    239       6.4437      0.00000
    240       6.5029      0.00000
    241       6.5763      0.00000
    242       6.6102      0.00000
    243       6.6502      0.00000
    244       6.7299      0.00000
    245       6.8085      0.00000
    246       6.9271      0.00000
    247       6.9802      0.00000
    248       6.9899      0.00000
    249       7.3540      0.00000
    250       7.3923      0.00000
    251       7.4456      0.00000
    252       7.6614      0.00000

 soft charge-density along one line, spin component           1
         0         1         2         3         4         5         6         7         8         9
 total charge-density along one line

------------------------ aborting loop because EDIFF is reached ----------------------------------------

 total charge

# of ion       s       p       d       tot
    1        0.541   0.239   8.767   9.547
    2        0.545   0.240   8.766   9.550
    3        0.545   0.240   8.766   9.550
    4        0.545   0.240   8.766   9.550
    5        0.542   0.241   8.765   9.548
    6        0.545   0.240   8.766   9.550
    7        0.545   0.240   8.766   9.550
    8        0.545   0.240   8.766   9.550
    9        0.540   0.240   8.768   9.548
   10        0.519   0.308   8.774   9.601
   11        0.523   0.304   8.779   9.606
   12        0.519   0.308   8.774   9.601
   13        0.523   0.304   8.779   9.606
   14        0.523   0.304   8.779   9.606
   15        0.514   0.309   8.776   9.599
   16        0.519   0.308   8.774   9.601
   17        0.514   0.309   8.776   9.599
   18        0.514   0.309   8.776   9.599
   19        0.519   0.302   8.777   9.598
   20        0.531   0.315   8.764   9.610
   21        0.531   0.315   8.764   9.610
   22        0.513   0.306   8.772   9.591
   23        0.531   0.315   8.764   9.610
   24        0.513   0.306   8.772   9.591
   25        0.519   0.302   8.777   9.598
   26        0.519   0.302   8.777   9.598
   27        0.513   0.306   8.772   9.591
   28        0.544   0.233   8.766   9.543
   29        0.539   0.234   8.775   9.548
   30        0.539   0.234   8.775   9.548
   31        0.539   0.234   8.775   9.548
   32        0.539   0.234   8.775   9.548
   33        0.539   0.234   8.775   9.548
   34        0.539   0.234   8.775   9.548
   35        0.544   0.234   8.767   9.545
   36        0.473   0.567   8.496   9.535
   37        0.972   1.534   0.000   2.506
   38        1.621   3.527   0.000   5.148
tot         21.639  15.187 315.503 352.328

  FORCE on cell =-STRESS in cart. coord.  units (eV):
  Direction    XX          YY          ZZ          XY          YZ          ZX
  Alpha Z  1034.77698  1034.77698  1034.77698
  Ewald  117814.15392117814.15435************    -0.00033    -0.00008    -0.00012
  Hartree126889.34877126889.34878************     0.00001    -0.00002    -0.00003
  E(xc)   -1825.23100 -1825.23107 -1830.17399     0.00005    -0.00001    -0.00001
  Local  ************************256782.93559     0.00210     0.00001    -0.00003
  n-local  -104.76192   -57.01232   -65.87877    22.95926    -1.28776     1.33239
  augment  2450.39749  2450.39909  2456.87337    -0.00139     0.00001     0.00003
  Kinetic  5681.17784  5690.72433  5692.95111     5.31824     0.13675     0.41168
  Fock        0.00000     0.00000     0.00000     0.00000     0.00000     0.00000
  Total     -17.39640   -17.39639     3.27810    -0.00000     0.00000    -0.00000
  in kB     -18.66648   -18.66648     3.51743    -0.00000     0.00000    -0.00000

 VOLUME and BASIS-vectors are now :
  energy-cutoff  :      500.00
  volume of cell :     1493.16
      direct lattice vectors                 reciprocal lattice vectors
     8.813512802  0.000000000  0.000000000     0.113462137 -0.065507406  0.000000000
     4.406756909  7.632725690  0.000000000     0.000000000  0.131014796  0.000000000
     0.000000000  0.000000000 22.196203232     0.000000000  0.000000000  0.045052750

  length of vectors
     8.813512802  8.813512802 22.196203232     0.131014796  0.131014796  0.045052750

 FORCES acting on ions
    electron-ion (+dipol)            ewald-force                    non-local-force                 convergence-correction
   -.195E-04 -.162E-04 0.250E+04   0.518E-04 0.433E-04 -.250E+04   0.789E-17 0.230E-17 -.986E+00   -.254E-03 -.160E-03 -.768E+00
   -.773E-01 0.204E+00 0.250E+04   0.290E-01 -.201E+00 -.250E+04   0.343E-01 0.384E-01 -.366E+00   0.103E-01 -.321E-01 -.805E+00
   0.772E-01 0.204E+00 0.250E+04   -.291E-01 -.201E+00 -.250E+04   -.343E-01 0.384E-01 -.366E+00   -.998E-02 -.302E-01 -.804E+00
   0.138E+00 -.169E+00 0.250E+04   -.159E+00 0.125E+00 -.250E+04   0.504E-01 0.105E-01 -.366E+00   -.225E-01 0.249E-01 -.805E+00
   0.849E-05 -.232E-04 0.250E+04   0.952E-04 0.169E-05 -.250E+04   0.128E-17 -.675E-19 -.311E+00   0.420E-02 0.256E-02 -.761E+00
   -.138E+00 -.169E+00 0.250E+04   0.159E+00 0.125E+00 -.250E+04   -.504E-01 0.105E-01 -.366E+00   0.211E-01 0.257E-01 -.804E+00
   0.215E+00 -.352E-01 0.250E+04   -.188E+00 0.751E-01 -.250E+04   0.161E-01 -.489E-01 -.366E+00   -.311E-01 0.646E-02 -.804E+00
   -.215E+00 -.352E-01 0.250E+04   0.188E+00 0.751E-01 -.250E+04   -.161E-01 -.489E-01 -.366E+00   0.329E-01 0.540E-02 -.804E+00
   0.192E-04 -.416E-04 0.250E+04   0.166E-03 -.200E-04 -.250E+04   -.200E-17 -.966E-18 -.635E+00   -.449E-02 -.232E-02 -.825E+00
   0.382E+00 0.220E+00 0.877E+03   -.274E-01 -.157E-01 -.876E+03   -.224E+00 -.129E+00 -.593E+00   -.683E-01 -.396E-01 -.373E+00
   0.143E-04 0.176E+01 0.877E+03   0.148E-03 -.172E+01 -.877E+03   0.175E-08 0.263E-01 -.349E+00   0.410E-02 -.889E-01 -.342E+00
   -.382E+00 0.220E+00 0.877E+03   0.272E-01 -.157E-01 -.876E+03   0.224E+00 -.129E+00 -.593E+00   0.670E-01 -.391E-01 -.373E+00
   0.153E+01 -.882E+00 0.877E+03   -.149E+01 0.861E+00 -.877E+03   0.227E-01 -.131E-01 -.349E+00   -.747E-01 0.483E-01 -.342E+00
   -.153E+01 -.882E+00 0.877E+03   0.149E+01 0.861E+00 -.877E+03   -.227E-01 -.131E-01 -.349E+00   0.816E-01 0.470E-01 -.344E+00
   0.309E-04 -.120E+01 0.875E+03   0.236E-03 0.119E+01 -.874E+03   -.125E-08 -.188E-01 -.431E+00   -.182E-02 0.374E-01 -.372E+00
   -.214E-04 -.441E+00 0.877E+03   0.162E-03 0.315E-01 -.876E+03   0.172E-07 0.259E+00 -.593E+00   -.636E-03 0.775E-01 -.373E+00
   -.104E+01 0.599E+00 0.875E+03   0.103E+01 -.595E+00 -.874E+03   -.163E-01 0.942E-02 -.431E+00   0.317E-01 -.198E-01 -.372E+00
   0.104E+01 0.599E+00 0.875E+03   -.103E+01 -.595E+00 -.874E+03   0.163E-01 0.942E-02 -.431E+00   -.309E-01 -.181E-01 -.371E+00
   -.403E-04 -.892E+00 -.771E+03   0.528E-04 0.813E+00 0.770E+03   0.448E-08 0.672E-01 0.771E+00   0.691E-03 0.939E-02 0.475E+00
   0.143E+02 0.823E+01 -.751E+03   -.137E+02 -.789E+01 0.751E+03   -.583E+00 -.337E+00 -.650E+00   0.180E-01 0.103E-01 0.577E+00
   -.143E+02 0.823E+01 -.751E+03   0.137E+02 -.789E+01 0.751E+03   0.583E+00 -.337E+00 -.650E+00   -.242E-01 0.842E-02 0.577E+00
   0.759E+01 -.438E+01 -.770E+03   -.764E+01 0.441E+01 0.769E+03   0.133E+00 -.765E-01 0.596E+00   -.446E-01 0.308E-01 0.467E+00
   -.141E-04 -.165E+02 -.751E+03   0.145E-03 0.158E+02 0.751E+03   0.449E-07 0.674E+00 -.650E+00   -.505E-02 -.251E-01 0.577E+00
   -.759E+01 -.438E+01 -.770E+03   0.764E+01 0.441E+01 0.769E+03   -.133E+00 -.765E-01 0.596E+00   0.527E-01 0.305E-01 0.467E+00
   0.773E+00 0.446E+00 -.771E+03   -.704E+00 -.407E+00 0.770E+03   -.582E-01 -.336E-01 0.771E+00   -.972E-02 -.568E-02 0.474E+00
   -.773E+00 0.446E+00 -.771E+03   0.704E+00 -.407E+00 0.770E+03   0.582E-01 -.336E-01 0.771E+00   0.880E-02 -.407E-02 0.475E+00
   0.640E-05 0.876E+01 -.770E+03   0.200E-03 -.883E+01 0.769E+03   0.102E-07 0.153E+00 0.596E+00   0.379E-02 -.541E-01 0.467E+00
   -.117E-04 -.131E-04 -.241E+04   0.281E-04 0.349E-04 0.241E+04   -.106E-17 0.233E-18 0.277E+00   -.138E-03 -.987E-04 0.720E+00
   0.236E+02 0.392E+02 -.239E+04   -.238E+02 -.395E+02 0.239E+04   0.237E-01 0.418E-01 0.703E+00   0.458E-01 0.683E-01 0.685E+00
   -.236E+02 0.392E+02 -.239E+04   0.238E+02 -.395E+02 0.239E+04   -.237E-01 0.418E-01 0.703E+00   -.457E-01 0.693E-01 0.684E+00
   0.457E+02 0.862E+00 -.239E+04   -.461E+02 -.855E+00 0.239E+04   0.480E-01 -.361E-03 0.703E+00   0.821E-01 0.551E-02 0.685E+00
   -.457E+02 0.862E+00 -.239E+04   0.461E+02 -.855E+00 0.239E+04   -.480E-01 -.361E-03 0.703E+00   -.828E-01 0.606E-02 0.686E+00
   0.221E+02 -.400E+02 -.239E+04   -.223E+02 0.403E+02 0.239E+04   0.243E-01 -.414E-01 0.703E+00   0.372E-01 -.742E-01 0.684E+00
   -.221E+02 -.400E+02 -.239E+04   0.223E+02 0.403E+02 0.239E+04   -.243E-01 -.414E-01 0.703E+00   -.361E-01 -.747E-01 0.686E+00
   0.282E-04 -.273E-04 -.241E+04   0.148E-03 -.499E-04 0.241E+04   0.224E-17 -.258E-17 0.322E+00   -.398E-02 -.201E-02 0.691E+00
   0.205E-04 -.175E-04 -.194E+04   0.992E-04 0.867E-05 0.194E+04   -.356E-17 -.216E-17 -.379E+01   0.421E-02 0.259E-02 0.730E+00
   -.216E-05 -.854E-04 -.856E+03   0.125E-04 0.828E-06 0.839E+03   0.108E-18 -.321E-19 0.173E+02   0.122E-02 0.746E-03 0.927E-03
   0.243E-03 -.921E-04 -.151E+04   0.501E-05 0.476E-06 0.157E+04   0.131E-18 0.861E-19 -.609E+02   0.373E-02 0.228E-02 -.108E+00
   -.452E-03 -.931E-03 0.491E+02   -.214E-13 0.514E-14 -.909E-12   0.406E-16 -.741E-16 -.486E+02   0.141E-01 0.898E-02 0.253E+00

 POSITION                                       TOTAL-FORCE (eV/Angst)
      0.00000      0.00000      5.28038        -0.000000      0.000000     -0.039326
      2.93784      0.00000      5.28038        -0.003177      0.010777     -0.042357
      5.87568      0.00000      5.28038         0.003177      0.010777     -0.042357
      1.46892      2.54424      5.28038         0.007745     -0.008140     -0.042357
      4.40676      2.54424      5.28038        -0.000000      0.000000     -0.048659
      7.34459      2.54424      5.28038        -0.007745     -0.008140     -0.042357
      2.93784      5.08848      5.28038         0.010922     -0.002637     -0.042357
      5.87568      5.08848      5.28038        -0.010922     -0.002637     -0.042357
      8.81351      5.08848      5.28038        -0.000000     -0.000000     -0.039796
      1.46892      0.84808      7.67911         0.062556      0.036117      0.086749
      4.40676      0.84808      7.67911        -0.000000     -0.022587      0.055121
      7.34459      0.84808      7.67911        -0.062556      0.036117      0.086749
      2.93784      3.39232      7.67911        -0.019561      0.011294      0.055121
      5.87568      3.39232      7.67911         0.019561      0.011294      0.055121
      8.81351      3.39232      7.67911         0.000000      0.009348      0.109946
      4.40676      5.93656      7.67911        -0.000000     -0.072233      0.086749
      7.34459      5.93656      7.67911         0.008096     -0.004674      0.109946
     10.28243      5.93656      7.67911        -0.008096     -0.004674      0.109946
      8.81351      1.69299     10.06281        -0.000000     -0.001944     -0.000005
      2.93673      1.69552     10.07074         0.027511      0.015884     -0.124497
      5.87678      1.69552     10.07074        -0.027511      0.015884     -0.124497
     10.28200      4.24065     10.07064         0.028853     -0.016658     -0.005130
      4.40676      4.24168     10.07074        -0.000000     -0.031767     -0.124497
      7.34503      4.24065     10.07064        -0.028853     -0.016658     -0.005130
     11.75410      6.78623     10.06281         0.001684      0.000972     -0.000005
      5.87293      6.78623     10.06281        -0.001684      0.000972     -0.000005
      8.81351      6.78414     10.07064         0.000000      0.033316     -0.005130
      0.00000      0.00000     12.49359        -0.000000     -0.000000     -0.020234
      2.94266      0.00661     12.49157        -0.104963     -0.206616     -0.078703
      5.87086      0.00661     12.49157         0.104963     -0.206616     -0.078703
      1.47706      2.54511     12.49157        -0.231416      0.012407     -0.078703
      7.33646      2.54511     12.49157         0.231416      0.012407     -0.078703
      2.94116      5.08100     12.49157        -0.126453      0.194209     -0.078703
      5.87236      5.08100     12.49157         0.126453      0.194209     -0.078703
      8.81351      5.08848     12.49778        -0.000000     -0.000000     -0.003002
      4.40676      2.54424     12.34091        -0.000000     -0.000000      0.501618
      4.40676      2.54424     14.23381        -0.000000     -0.000000      0.000165
      4.40676      2.54424     15.38829        -0.000000      0.000000      0.009042
    total drift:                                0.013661      0.008053      0.770084

  FREE ENERGIE OF THE ION-ELECTRON SYSTEM (eV)
  free  energy   TOTEN  =      -127.80047481 eV

  energy  without entropy=     -127.80047481  energy(sigma->0) =     -127.80047481

 stress matrix after NEB project (eV)
    -17.39640     -0.00000     -0.00000
     -0.00000    -17.39639      0.00000
     -0.00000      0.00000      3.27810
  FORCES: max atom, RMS     0.009042    0.001467
  FORCE total and by dimension    0.009044    0.009042
  Stress total and by dimension   24.819651   17.396396
|           W    W    AA    RRRRR   N    N  II  N    N   GGGG   !!!           |
|           W    W   A  A   R    R  NN   N  II  NN   N  G    G  !!!           |
|           W    W  A    A  R    R  N N  N  II  N N  N  G       !!!           |
|           W WW W  AAAAAA  RRRRR   N  N N  II  N  N N  G  GGG   !            |
|           WW  WW  A    A  R   R   N   NN  II  N   NN  G    G                |
|           W    W  A    A  R    R  N    N  II  N    N   GGGG   !!!           |
|     Tetrahedron method does not include variations of the Fermi             |
|     occupations, so forces and stress will be inaccurate. We suggest        |
|     using a different smearing scheme ISMEAR = 1 or 2 for metals in         |
|     relaxations.                                                            |

 total charge

# of ion       s       p       d       tot
    1        0.541   0.239   8.767   9.547
    2        0.545   0.240   8.766   9.550
    3        0.545   0.240   8.766   9.550
    4        0.545   0.240   8.766   9.550
    5        0.542   0.241   8.765   9.548
    6        0.545   0.240   8.766   9.550
    7        0.545   0.240   8.766   9.550
    8        0.545   0.240   8.766   9.550
    9        0.540   0.240   8.768   9.548
   10        0.519   0.308   8.774   9.601
   11        0.523   0.304   8.779   9.606
   12        0.519   0.308   8.774   9.601
   13        0.523   0.304   8.779   9.606
   14        0.523   0.304   8.779   9.606
   15        0.514   0.309   8.776   9.599
   16        0.519   0.308   8.774   9.601
   17        0.514   0.309   8.776   9.599
   18        0.514   0.309   8.776   9.599
   19        0.519   0.302   8.777   9.598
   20        0.531   0.315   8.764   9.610
   21        0.531   0.315   8.764   9.610
   22        0.513   0.306   8.772   9.591
   23        0.531   0.315   8.764   9.610
   24        0.513   0.306   8.772   9.591
   25        0.519   0.302   8.777   9.598
   26        0.519   0.302   8.777   9.598
   27        0.513   0.306   8.772   9.591
   28        0.544   0.233   8.766   9.543
   29        0.539   0.234   8.775   9.548
   30        0.539   0.234   8.775   9.548
   31        0.539   0.234   8.775   9.548
   32        0.539   0.234   8.775   9.548
   33        0.539   0.234   8.775   9.548
   34        0.539   0.234   8.775   9.548
   35        0.544   0.234   8.767   9.545
   36        0.473   0.567   8.496   9.535
   37        0.972   1.534   0.000   2.506
   38        1.621   3.527   0.000   5.148
tot         21.639  15.187 315.503 352.328

 BZINTS: Fermi energy:    0.817839;  405.000000 electrons
         Band energy:-0.122465E+04;  BLOECHL correction:   -0.079573