 vasp.6.2.0 18Jan21 (build Jun 12 2021 23:27:24) complex

 executed on             LinuxIFC date 2022.05.28  01:09:22

 INCAR:
   ISMEAR = -5
   SIGMA = 0.1
   ISPIN = 1
   EDIFF = 1.d-5
   EDIFFG = -0.01
   NSW = 0
   NELM = 150
   ENCUT = 500
   ISIF = 2
   IBRION = 2
   LREAL = Auto
   ALGO = Fast
   ICHARG = 11
   LORBIT = 10
   LCHARG = .F.
   LWAVE = .F.

 POTCAR:    PAW_PBE Au 04Oct2007
 POTCAR:    PAW_PBE Ta 17Jan2003
 POTCAR:    PAW_PBE O 08Apr2002
 POTCAR:    PAW_PBE H 15Jun2001
|           W    W    AA    RRRRR   N    N  II  N    N   GGGG   !!!           |
|           W    W   A  A   R    R  NN   N  II  NN   N  G    G  !!!           |
|           W    W  A    A  R    R  N N  N  II  N N  N  G       !!!           |
|           W WW W  AAAAAA  RRRRR   N  N N  II  N  N N  G  GGG   !            |
|           WW  WW  A    A  R   R   N   NN  II  N   NN  G    G                |
|           W    W  A    A  R    R  N    N  II  N    N   GGGG   !!!           |
|     For optimal performance we recommend to set                             |
|       NCORE = 2 up to number-of-cores-per-socket                            |
|     This setting can greatly improve the performance of VASP for DFT.       |
|     The default, NCORE=1 might be grossly inefficient on modern             |
|     multi-core architectures or massively parallel machines. Do your        |
|     Unfortunately you need to use the default for GW and RPA                |
|     calculations (for HF NCORE is supported but not extensively tested      |
|     yet).                                                                   |

 POTCAR:    PAW_PBE Au 04Oct2007
   VRHFIN =Au: s1d10

   TITEL  = PAW_PBE Au 04Oct2007
   POMASS =  196.966; ZVAL   =   11.000    mass and valenz
   ENMAX  =  229.943; ENMIN  =  172.457 eV

 POTCAR:    PAW_PBE Ta 17Jan2003
   VRHFIN =Ta:  6s5d

   TITEL  = PAW_PBE Ta 17Jan2003
   POMASS =  180.948; ZVAL   =    5.000    mass and valenz
   ENMAX  =  223.667; ENMIN  =  167.750 eV

 POTCAR:    PAW_PBE O 08Apr2002
   VRHFIN =O: s2p4

   TITEL  = PAW_PBE O 08Apr2002
   POMASS =   16.000; ZVAL   =    6.000    mass and valenz
   ENMAX  =  400.000; ENMIN  =  300.000 eV

 POTCAR:    PAW_PBE H 15Jun2001
   VRHFIN =H: ultrasoft test

   TITEL  = PAW_PBE H 15Jun2001
   POMASS =    1.000; ZVAL   =    1.000    mass and valenz
   ENMAX  =  250.000; ENMIN  =  200.000 eV

 Optimization of the real space projectors (new method)

 maximal supplied QI-value         = 15.12
 optimisation between [QCUT,QGAM] = [ 11.34, 22.83] = [ 36.00,145.93] Ry
 Optimized for a Real-space Cutoff    1.39 Angstroem

   l    n(q)    QCUT    max X(q) W(low)/X(q) W(high)/X(q)  e(spline)
   2      9    11.338    60.898    0.39E-03    0.42E-03    0.21E-06
   2      9    11.338    58.894    0.40E-03    0.42E-03    0.22E-06
   0      9    11.338   109.617    0.13E-03    0.20E-04    0.13E-06
   0      9    11.338    75.026    0.13E-03    0.20E-04    0.13E-06
   1      9    11.338    16.344    0.33E-04    0.24E-03    0.18E-06
   1      9    11.338    10.160    0.26E-04    0.19E-03    0.15E-06
 Optimization of the real space projectors (new method)

[...]

   l    n(q)    QCUT    max X(q) W(low)/X(q) W(high)/X(q)  e(spline)
   0      7    11.387    20.381    0.39E-03    0.13E-02    0.15E-06
   0      7    11.387    15.268    0.42E-03    0.14E-02    0.17E-06
   1      6    11.387     5.964    0.41E-03    0.11E-02    0.17E-06
   1      6    11.387     5.382    0.39E-03    0.87E-03    0.15E-06
 Optimization of the real space projectors (new method)

 maximal supplied QI-value         = 34.20
 optimisation between [QCUT,QGAM] = [ 11.29, 22.57] = [ 35.68,142.71] Ry
 Optimized for a Real-space Cutoff    1.16 Angstroem

   l    n(q)    QCUT    max X(q) W(low)/X(q) W(high)/X(q)  e(spline)
   0      8    11.287    19.460    0.40E-03    0.73E-03    0.16E-06
   0      8    11.287    12.209    0.38E-03    0.70E-03    0.15E-06
   1      7    11.287     4.655    0.22E-03    0.25E-04    0.22E-06
  PAW_PBE Au 04Oct2007                  :
  PAW_PBE Ta 17Jan2003                  :
  PAW_PBE O 08Apr2002                   :
  PAW_PBE H 15Jun2001                   :

 POSCAR: Au-Ta-OOH
  positions in direct lattice
  velocities in cartesian coordinates
 exchange correlation table for  LEXCH =        8
   RHO(1)=    0.500       N(1)  =     2000
   RHO(2)=  100.500       N(2)  =     4000

 VTST: version 3.2, (02/03/18)

 CHAIN: initializing optimizer

 OPT: Using VASP Conjugate-Gradient optimizer
 CHAIN: Read ICHAIN            0

 POSCAR: Au-Ta-OOH
  positions in direct lattice
  velocities in cartesian coordinates

 ion  position               nearest neighbor table
   1  0.000  0.000  0.204-  16 2.94  12 2.94   6 2.94   8 2.94   7 2.94   3 2.94  10 2.94   4 2.94
                             2 2.94
   2  0.333  0.000  0.204-   9 2.94  11 2.94  17 2.94  10 2.94   8 2.94   4 2.94   5 2.94   1 2.94
                             3 2.94
   3  0.667  0.000  0.204-   7 2.94  18 2.94  12 2.94   1 2.94  11 2.94   5 2.94   6 2.94   9 2.94
                             2 2.94
   4  0.000  0.333  0.204-  10 2.94   6 2.94   5 2.94  13 2.94   2 2.94  15 2.94   9 2.94   1 2.94
                             7 2.94
   5  0.333  0.333  0.204-  13 2.94   7 2.94  11 2.94   4 2.94   2 2.94  14 2.94   3 2.94   8 2.94
                             6 2.94
   6  0.667  0.333  0.204-  15 2.94  14 2.94   1 2.94  12 2.94   4 2.94   9 2.94   8 2.94   3 2.94
                             5 2.94
   7  0.000  0.667  0.204-  18 2.94   3 2.94  16 2.94   5 2.94   1 2.94  13 2.94   8 2.94   4 2.94
                             9 2.94
   8  0.333  0.667  0.204-   9 2.94  17 2.94   1 2.94   2 2.94  14 2.94  16 2.94   6 2.94   7 2.94
                             5 2.94
   9  0.667  0.667  0.204-   2 2.94   8 2.94  17 2.94   6 2.94  15 2.94   4 2.94   3 2.94  18 2.94
                             7 2.94
  10  0.111  0.111  0.296-  20 2.91  11 2.94  17 2.94   2 2.94   4 2.94   1 2.94  12 2.94  16 2.94
                            13 2.94  15 2.94  26 2.96  19 2.96
  11  0.444  0.111  0.296-  20 2.91  21 2.91  13 2.94   2 2.94  10 2.94  17 2.94   5 2.94   3 2.94
                            18 2.94  14 2.94  12 2.94  27 2.94
  12  0.778  0.111  0.296-  21 2.91  16 2.94  18 2.94   1 2.94  14 2.94  15 2.94   3 2.94   6 2.94
                            10 2.94  11 2.94  25 2.96  19 2.96
  13  0.111  0.444  0.296-  23 2.91  20 2.91   5 2.94  18 2.94  11 2.94   7 2.94   4 2.94  16 2.94
                            10 2.94  14 2.94  15 2.94  22 2.94
  14  0.444  0.444  0.296-  21 2.91  23 2.91  15 2.94   6 2.94  12 2.94   8 2.94  17 2.94   5 2.94
                            16 2.94  13 2.94  11 2.94  24 2.94
  15  0.778  0.444  0.296-  24 2.92  22 2.92  14 2.94   6 2.94  17 2.94  12 2.94   9 2.94   4 2.94
                            10 2.94  13 2.94  18 2.94  19 2.95
  16  0.111  0.778  0.296-  23 2.91  18 2.94  12 2.94   7 2.94   1 2.94   8 2.94  13 2.94  10 2.94
                            14 2.94  17 2.94  25 2.96  26 2.96
  17  0.444  0.778  0.296-  27 2.92  24 2.92   9 2.94  15 2.94   2 2.94  10 2.94  11 2.94   8 2.94
                            14 2.94  16 2.94  18 2.94  26 2.95
  18  0.778  0.778  0.296-  22 2.92  27 2.92  16 2.94   7 2.94  13 2.94  12 2.94   3 2.94  11 2.94
                             9 2.94  15 2.94  17 2.94  25 2.95
  19  0.888  0.223  0.390-  24 2.93  22 2.93  21 2.93  20 2.93  28 2.95  15 2.95  26 2.95  25 2.95
                            10 2.96  12 2.96  32 3.06  31 3.06
  20  0.222  0.222  0.388-  36 2.74  10 2.91  11 2.91  13 2.91  26 2.93  19 2.93  23 2.95  21 2.95
                            27 2.95  22 2.95  29 2.99  31 2.99
  21  0.556  0.222  0.388-  36 2.74  12 2.91  14 2.91  11 2.91  25 2.93  19 2.93  20 2.95  23 2.95
                            27 2.95  24 2.95  30 2.99  32 2.99
  22  0.886  0.557  0.388-  24 2.91  27 2.91  18 2.92  15 2.92  25 2.93  19 2.93  13 2.94  23 2.95
                            20 2.95  35 2.96  33 3.03  31 3.03
  23  0.222  0.556  0.388-  36 2.74  16 2.91  13 2.91  14 2.91  25 2.93  26 2.93  20 2.95  21 2.95
                            22 2.95  24 2.95  33 2.99  34 2.99
  24  0.557  0.557  0.388-  27 2.91  22 2.91  15 2.92  17 2.92  26 2.93  19 2.93  14 2.94  21 2.95
                            23 2.95  35 2.96  32 3.03  34 3.03
  25  0.888  0.888  0.390-  22 2.93  27 2.93  23 2.93  21 2.93  28 2.95  18 2.95  19 2.95  26 2.95
                            16 2.96  12 2.96  33 3.06  30 3.06
  26  0.223  0.888  0.390-  27 2.93  24 2.93  20 2.93  23 2.93  28 2.95  17 2.95  19 2.95  25 2.95
                            10 2.96  16 2.96  29 3.06  34 3.06
  27  0.557  0.886  0.388-  24 2.91  22 2.91  17 2.92  18 2.92  26 2.93  25 2.93  11 2.94  20 2.95
                            21 2.95  35 2.96  29 3.03  30 3.03
  28  0.000  0.000  0.482-  25 2.95  19 2.95  26 2.95  34 3.00  32 3.00  33 3.00  30 3.00  31 3.00
                            29 3.00
  29  0.334  0.012  0.485-  30 2.82  31 2.84  36 2.85  35 2.99  20 2.99  28 3.00  27 3.03  26 3.06
                            34 3.16
  30  0.654  0.012  0.485-  29 2.82  32 2.84  36 2.85  35 2.99  21 2.99  28 3.00  27 3.03  25 3.06
                            33 3.16
  31  0.012  0.334  0.485-  33 2.82  29 2.84  36 2.85  35 2.99  20 2.99  28 3.00  22 3.03  19 3.06
                            32 3.16
  32  0.654  0.334  0.485-  34 2.82  30 2.84  36 2.85  35 2.99  21 2.99  28 3.00  24 3.03  19 3.06
                            31 3.16
  33  0.012  0.654  0.485-  31 2.82  34 2.84  36 2.85  35 2.99  23 2.99  28 3.00  22 3.03  25 3.06
                            30 3.16
  34  0.334  0.654  0.485-  32 2.82  33 2.84  36 2.85  35 2.99  23 2.99  28 3.00  24 3.03  26 3.06
                            29 3.16
  35  0.667  0.667  0.482-  24 2.96  27 2.96  22 2.96  29 2.99  34 2.99  32 2.99  31 2.99  30 2.99
                            33 2.99
  36  0.333  0.333  0.471-  37 1.94  20 2.74  23 2.74  21 2.74  33 2.85  31 2.85  29 2.85  30 2.85
                            34 2.85  32 2.85
  37  0.342  0.346  0.545-  38 1.48  36 1.94
  38  0.372  0.206  0.582-  39 0.98  37 1.48
  39  0.364  0.269  0.615-  38 0.98

  LATTYP: Found a hexagonal cell.
 ALAT       =     8.8135128021
 C/A-ratio  =     2.9412617888

  Lattice vectors:

 A1 = (  -4.4067569092,  -7.6327256898,   0.0000000000)
 A2 = (   8.8135128021,   0.0000000000,   0.0000000000)
 A3 = (   0.0000000000,   0.0000000000,  25.9228484302)

Analysis of symmetry for initial positions (statically):
 Subroutine PRICEL returns:
 Original cell was already a primitive cell.

 Routine SETGRP: Setting up the symmetry group for a
 hexagonal supercell.

 Subroutine GETGRP returns: Found  1 space group operations
 (whereof  1 operations were pure point group operations)
 out of a pool of 24 trial point group operations.

The static configuration has the point symmetry C_1 .

Analysis of symmetry for dynamics (positions and initial velocities):
 Subroutine PRICEL returns:
 Original cell was already a primitive cell.

[...]

The dynamic configuration has the point symmetry C_1 .

Analysis of constrained symmetry for selective dynamics:
 Subroutine PRICEL returns:
[...]
     41      -5.2668      2.00000
     42      -5.1671      2.00000
     43      -5.1083      2.00000
     44      -5.0532      2.00000
     45      -5.0218      2.00000
     46      -4.9835      2.00000
     47      -4.9491      2.00000
     48      -4.9197      2.00000
     49      -4.8934      2.00000
     50      -4.8802      2.00000
     51      -4.8073      2.00000
     52      -4.7914      2.00000
     53      -4.7604      2.00000
     54      -4.7370      2.00000
     55      -4.7235      2.00000
     56      -4.6954      2.00000
     57      -4.6907      2.00000
     58      -4.6678      2.00000
     59      -4.6460      2.00000
     60      -4.6118      2.00000
[...]
    238       5.1985      0.00000
    239       5.4276      0.00000
    240       5.5594      0.00000
    241       5.6036      0.00000
    242       5.7880      0.00000
    243       5.8138      0.00000
    244       5.8413      0.00000
    245       5.9484      0.00000
    246       6.1214      0.00000
    247       6.1514      0.00000
    248       6.1722      0.00000
    249       6.2872      0.00000
    250       6.3277      0.00000
    251       6.3737      0.00000
    252       6.4066      0.00000

 soft charge-density along one line, spin component           1
         0         1         2         3         4         5         6         7         8         9
 total charge-density along one line

------------------------ aborting loop because EDIFF is reached ----------------------------------------

 total charge

# of ion       s       p       d       tot
    1        0.550   0.237   8.766   9.552
    2        0.542   0.242   8.764   9.548
    3        0.542   0.242   8.764   9.548
    4        0.543   0.241   8.764   9.548
    5        0.545   0.241   8.761   9.548
    6        0.543   0.241   8.764   9.548
    7        0.542   0.242   8.764   9.548
    8        0.540   0.242   8.765   9.547
    9        0.544   0.240   8.766   9.550
   10        0.525   0.305   8.767   9.597
   11        0.519   0.307   8.780   9.607
   12        0.522   0.305   8.770   9.597
   13        0.520   0.308   8.777   9.605
   14        0.519   0.308   8.778   9.606
   15        0.515   0.307   8.771   9.594
   16        0.524   0.306   8.767   9.597
   17        0.515   0.307   8.772   9.595
   18        0.515   0.307   8.772   9.594
   19        0.519   0.292   8.773   9.584
   20        0.581   0.346   8.724   9.650
   21        0.574   0.345   8.727   9.647
   22        0.510   0.305   8.774   9.589
   23        0.583   0.344   8.725   9.652
   24        0.509   0.305   8.776   9.589
   25        0.518   0.292   8.773   9.583
   26        0.519   0.293   8.771   9.583
   27        0.508   0.304   8.777   9.589
   28        0.541   0.228   8.752   9.521
   29        0.592   0.247   8.733   9.571
   30        0.589   0.247   8.736   9.572
   31        0.591   0.249   8.733   9.572
   32        0.584   0.247   8.741   9.572
   33        0.589   0.248   8.735   9.573
   34        0.594   0.246   8.735   9.575
   35        0.537   0.229   8.754   9.521
   36        0.664   0.753   3.080   4.497
   37        1.592   3.308   0.000   4.900
   38        1.597   3.370   0.000   4.967
   39        0.616   0.112   0.000   0.729
tot         23.470  17.240 309.653 350.363

  FORCE on cell =-STRESS in cart. coord.  units (eV):
  Direction    XX          YY          ZZ          XY          YZ          ZX
  Alpha Z   893.38162   893.38162   893.38162
  Ewald  170932.09377171100.23816************    65.58219   -94.59360   -35.15815
  Hartree179411.08715179494.01527************    31.82853   -54.03086   -27.60270
  E(xc)   -1811.82720 -1811.61319 -1819.68682     0.11978    -0.10690    -0.10477
  Local  ************************362372.06464   -87.52088   138.68355    61.22627
  n-local   -99.39243   -96.19523   -62.57412     0.71477    -3.94585    -1.65539
  augment  2378.69982  2376.08855  2395.76820    -0.95777     1.62857     0.47602
  Kinetic  5687.09249  5662.12559  5702.98103    -9.90319    12.29882     2.43343
  Fock        0.00000     0.00000     0.00000     0.00000     0.00000     0.00000
  Total     -21.82374   -21.60059     1.62909    -0.13657    -0.06627    -0.38529
  in kB     -20.05064   -19.84563     1.49673    -0.12547    -0.06089    -0.35398

 VOLUME and BASIS-vectors are now :
  energy-cutoff  :      500.00
  volume of cell :     1743.86
      direct lattice vectors                 reciprocal lattice vectors
     8.813512802  0.000000000  0.000000000     0.113462137 -0.065507406  0.000000000
     4.406756909  7.632725690  0.000000000     0.000000000  0.131014796  0.000000000
     0.000000000  0.000000000 25.922848430     0.000000000  0.000000000  0.038576008

  length of vectors
     8.813512802  8.813512802 25.922848430     0.131014796  0.131014796  0.038576008

 FORCES acting on ions
    electron-ion (+dipol)            ewald-force                    non-local-force                 convergence-correction
   0.588E-01 -.221E-01 0.276E+04   -.300E-02 -.143E-01 -.276E+04   -.408E-01 0.219E-01 -.603E+00   -.987E-02 0.149E-01 0.113E+00
   0.627E+00 0.153E-01 0.276E+04   -.613E+00 -.807E-01 -.276E+04   0.266E-01 0.117E+00 -.257E+00   -.513E-01 -.594E-01 0.112E+00
   -.649E+00 0.668E-01 0.276E+04   0.616E+00 -.885E-01 -.276E+04   -.820E-02 0.694E-01 -.299E+00   0.478E-01 -.502E-01 0.103E+00
   0.397E+00 0.517E+00 0.276E+04   -.365E+00 -.444E+00 -.276E+04   0.506E-01 -.463E-01 -.311E+00   -.820E-01 -.185E-01 0.941E-01
   0.172E-01 -.764E-01 0.276E+04   -.529E-02 0.494E-01 -.276E+04   -.232E-01 0.474E-03 -.363E-01   0.148E-01 0.252E-01 0.821E-01
   -.432E+00 0.475E+00 0.276E+04   0.370E+00 -.451E+00 -.276E+04   -.245E-01 -.233E-01 -.307E+00   0.818E-01 0.264E-02 0.854E-01
   -.381E+00 -.551E+00 0.276E+04   0.242E+00 0.531E+00 -.276E+04   0.108E+00 -.324E-01 -.286E+00   0.125E-01 0.532E-01 0.863E-01
   0.365E+00 -.519E+00 0.276E+04   -.250E+00 0.533E+00 -.276E+04   -.110E+00 -.573E-01 -.390E+00   0.104E-01 0.508E-01 0.566E-01
   0.101E-01 0.702E-01 0.276E+04   0.830E-02 -.347E-01 -.276E+04   0.133E-01 -.221E-01 -.365E+00   -.271E-01 -.155E-01 0.122E+00
   0.597E+01 0.319E+01 0.946E+03   -.554E+01 -.302E+01 -.945E+03   -.381E+00 -.166E+00 -.560E+00   -.890E-01 -.350E-01 -.229E+00
   -.333E-01 0.175E+01 0.951E+03   0.423E-03 -.169E+01 -.951E+03   0.287E-01 0.192E-01 -.140E+00   0.116E-01 -.158E+00 -.232E+00
   -.594E+01 0.329E+01 0.946E+03   0.554E+01 -.308E+01 -.945E+03   0.347E+00 -.180E+00 -.499E+00   0.100E+00 -.554E-01 -.253E+00
   0.173E+01 -.118E+01 0.950E+03   -.162E+01 0.115E+01 -.950E+03   -.249E-01 0.787E-02 -.220E+00   -.146E+00 0.632E-01 -.245E+00
   -.167E+01 -.116E+01 0.951E+03   0.156E+01 0.112E+01 -.950E+03   0.145E-01 0.280E-02 -.219E+00   0.150E+00 0.641E-01 -.258E+00
   -.821E-01 0.503E+01 0.950E+03   0.507E-01 -.510E+01 -.950E+03   0.185E-01 0.613E-02 -.367E+00   0.608E-02 0.390E-02 -.196E+00
   0.560E-01 -.647E+01 0.946E+03   -.518E-01 0.604E+01 -.945E+03   -.487E-02 0.382E+00 -.456E+00   -.101E-02 0.107E+00 -.227E+00
   0.453E+01 -.228E+01 0.951E+03   -.458E+01 0.231E+01 -.950E+03   -.635E-02 -.164E-01 -.472E+00   -.267E-02 0.192E-01 -.201E+00
   -.452E+01 -.224E+01 0.951E+03   0.463E+01 0.229E+01 -.950E+03   -.304E-01 -.171E-01 -.414E+00   -.257E-01 0.116E-01 -.189E+00
   -.819E-01 -.114E+01 -.898E+03   0.745E-01 0.107E+01 0.897E+03   -.201E-02 -.366E-01 0.653E+00   0.190E-01 0.391E-01 -.341E+00
   -.266E+01 -.431E+01 -.861E+03   0.395E+01 0.500E+01 0.862E+03   -.126E+01 -.696E+00 -.135E+01   -.919E-01 -.912E-01 -.260E+00
   0.288E+01 -.377E+01 -.861E+03   -.399E+01 0.439E+01 0.862E+03   0.114E+01 -.609E+00 -.103E+01   0.811E-01 -.802E-01 -.256E+00
   -.108E+02 0.622E+01 -.876E+03   0.106E+02 -.608E+01 0.876E+03   0.421E+00 -.238E+00 0.722E+00   -.143E+00 0.675E-01 -.288E+00
   0.593E+00 0.366E+01 -.864E+03   -.501E+00 -.496E+01 0.866E+03   -.680E-01 0.140E+01 -.125E+01   -.726E-02 0.934E-01 -.267E+00
   0.104E+02 0.628E+01 -.875E+03   -.101E+02 -.606E+01 0.875E+03   -.460E+00 -.291E+00 0.724E+00   0.129E+00 0.528E-01 -.283E+00
   -.731E+00 0.167E+01 -.898E+03   0.850E+00 -.164E+01 0.897E+03   -.997E-02 0.943E-02 0.654E+00   -.548E-01 -.262E-02 -.342E+00
   0.972E+00 0.143E+01 -.897E+03   -.113E+01 -.144E+01 0.897E+03   0.432E-01 0.393E-01 0.606E+00   0.695E-01 0.880E-02 -.337E+00
   -.276E+00 -.997E+01 -.872E+03   0.274E+00 0.954E+01 0.871E+03   -.649E-02 0.549E+00 0.651E+00   0.371E-02 -.909E-01 -.287E+00
   0.151E+01 0.351E+01 -.262E+04   -.161E+01 -.353E+01 0.262E+04   0.658E-01 0.364E-02 0.361E+00   0.214E-01 0.141E-01 -.121E+00
   0.511E+02 0.615E+02 -.259E+04   -.498E+02 -.597E+02 0.259E+04   -.141E+01 -.200E+01 -.714E-01   0.188E-01 -.123E-01 -.115E+00
   -.525E+02 0.610E+02 -.260E+04   0.512E+02 -.594E+02 0.260E+04   0.140E+01 -.190E+01 0.222E-01   -.363E-01 -.238E-01 -.123E+00
   0.643E+02 -.536E+01 -.262E+04   -.622E+02 0.548E+01 0.262E+04   -.239E+01 -.147E+00 -.130E+00   -.775E-02 0.117E-01 -.100E+00
   -.684E+02 -.141E+01 -.262E+04   0.669E+02 0.158E+01 0.262E+04   0.194E+01 -.199E+00 0.171E+00   -.889E-02 0.289E-01 -.101E+00
   0.225E+02 -.508E+02 -.263E+04   -.217E+02 0.491E+02 0.263E+04   -.885E+00 0.194E+01 -.828E-01   -.627E-01 -.932E-02 -.104E+00
   -.218E+02 -.545E+02 -.262E+04   0.209E+02 0.528E+02 0.262E+04   0.954E+00 0.207E+01 -.277E+00   0.485E-01 -.164E-01 -.119E+00
   -.138E+01 0.926E+01 -.263E+04   0.138E+01 -.935E+01 0.263E+04   -.320E-02 0.810E-01 0.518E+00   0.711E-03 -.409E-03 -.168E+00
   0.427E+01 -.758E+01 -.992E+03   -.437E+01 0.720E+01 0.994E+03   -.595E-01 0.359E+00 -.182E+00   0.425E-02 -.142E-01 -.309E-01
   -.410E+02 -.145E+03 -.157E+04   0.506E+02 0.170E+03 0.157E+04   -.961E+01 -.259E+02 -.109E+01   0.800E-02 -.246E-01 0.110E-01
   0.530E+02 0.151E+03 -.169E+04   -.681E+02 -.191E+03 0.168E+04   0.151E+02 0.409E+02 0.139E+02   0.394E-03 0.356E-02 0.229E-01
   -.151E+02 -.331E+02 -.328E+03   0.167E+02 0.370E+02 0.335E+03   -.167E+01 -.390E+01 -.700E+01   0.885E-04 -.195E-03 0.640E-02
   -.315E+01 -.115E+02 0.473E+01   -.995E-13 0.149E-12 0.161E-10   0.323E+01 0.115E+02 0.304E+00   -.770E-02 -.229E-01 -.478E+01

 POSITION                                       TOTAL-FORCE (eV/Angst)
      0.00000      0.00000      5.28038         0.003278      0.000256     -0.156294
      2.93784      0.00000      5.28038        -0.012807     -0.008060     -0.066139
      5.87568      0.00000      5.28038         0.004690     -0.002520     -0.071725
      1.46892      2.54424      5.28038        -0.001317      0.007779     -0.069232
      4.40676      2.54424      5.28038         0.001610     -0.001424     -0.072946
      7.34459      2.54424      5.28038        -0.005926      0.003544     -0.065960
      2.93784      5.08848      5.28038        -0.020006      0.001609     -0.052155
      5.87568      5.08848      5.28038         0.012739      0.006890     -0.049744
      8.81351      5.08848      5.28038         0.002780     -0.002150     -0.088002
      1.46892      0.84808      7.67911        -0.045609     -0.030235      0.084927
      4.40676      0.84808      7.67911         0.005522     -0.079405     -0.026431
      7.34459      0.84808      7.67911         0.050069     -0.032386      0.083030
      2.93784      3.39232      7.67911        -0.056492      0.036925     -0.002159
      5.87568      3.39232      7.67911         0.058432      0.031226     -0.009017
      8.81351      3.39232      7.67911        -0.008593     -0.061697      0.125663
      4.40676      5.93656      7.67911        -0.003541      0.060216      0.080563
      7.34459      5.93656      7.67911        -0.052413      0.037641      0.115887
     10.28243      5.93656      7.67911         0.047893      0.043830      0.123762
      8.81351      1.70341     10.09804         0.007697     -0.072261     -0.031006
      2.93277      1.69323     10.04724        -0.061930     -0.097795     -0.130948
      5.88075      1.69323     10.04724         0.106959     -0.067905     -0.114162
     10.26617      4.24979     10.06844         0.046517     -0.031517      0.007298
      4.40676      4.24626     10.04724         0.014674      0.187454     -0.123678
      7.36086      4.24979     10.06844        -0.044175     -0.025514      0.011498
     11.74508      6.78102     10.09804         0.052526      0.032466     -0.020645
      5.88195      6.78102     10.09804        -0.042973      0.040564     -0.004125
      8.81351      6.76586     10.06844        -0.007114      0.027598      0.008365
      0.00000      0.00000     12.50054        -0.014172     -0.006295     -0.010691
      2.99863      0.09131     12.57640        -0.134681     -0.223676     -0.185816
      5.81488      0.09131     12.57640         0.152383     -0.321286     -0.263813
      1.57839      2.55123     12.57640        -0.301994     -0.014942     -0.215712
      7.23512      2.55123     12.57640         0.434608      0.007042     -0.296858
      2.98652      4.99018     12.57640        -0.158579      0.316573     -0.234285
      5.82700      4.99018     12.57640         0.133691      0.295695     -0.244733
      8.81351      5.08848     12.50707        -0.002401     -0.017041      0.078765
      4.40676      2.54424     12.20058        -0.162914     -0.035410      1.883734
      4.53334      2.63861     14.13662         0.003384     -0.007555      0.001912
      4.18951      1.57484     15.09998         0.002096      0.003397      0.005804
      4.39344      2.05433     15.93348        -0.003913     -0.001631     -0.004931
    total drift:                                0.071066      0.002521      0.255578

  FREE ENERGIE OF THE ION-ELECTRON SYSTEM (eV)
  free  energy   TOTEN  =      -133.48965574 eV

  energy  without entropy=     -133.48965574  energy(sigma->0) =     -133.48965574

 stress matrix after NEB project (eV)
    -21.82374     -0.13657     -0.38529
     -0.13657    -21.60059     -0.06627
     -0.38529     -0.06627      1.62909
  FORCES: max atom, RMS     0.008497    0.002051
  FORCE total and by dimension    0.012810    0.007555
  Stress total and by dimension   30.754805   21.823736
|           W    W    AA    RRRRR   N    N  II  N    N   GGGG   !!!           |
|           W    W   A  A   R    R  NN   N  II  NN   N  G    G  !!!           |
|           W    W  A    A  R    R  N N  N  II  N N  N  G       !!!           |
|           W WW W  AAAAAA  RRRRR   N  N N  II  N  N N  G  GGG   !            |
|           WW  WW  A    A  R   R   N   NN  II  N   NN  G    G                |
|           W    W  A    A  R    R  N    N  II  N    N   GGGG   !!!           |
|     Tetrahedron method does not include variations of the Fermi             |
|     occupations, so forces and stress will be inaccurate. We suggest        |
|     using a different smearing scheme ISMEAR = 1 or 2 for metals in         |
|     relaxations.                                                            |

 total charge

# of ion       s       p       d       tot
    1        0.550   0.237   8.766   9.552
    2        0.542   0.242   8.764   9.548
    3        0.542   0.242   8.764   9.548
    4        0.543   0.241   8.764   9.548
    5        0.545   0.241   8.761   9.548
    6        0.543   0.241   8.764   9.548
    7        0.542   0.242   8.764   9.548
    8        0.540   0.242   8.765   9.547
    9        0.544   0.240   8.766   9.550
   10        0.525   0.305   8.767   9.597
   11        0.519   0.307   8.780   9.607
   12        0.522   0.305   8.770   9.597
   13        0.520   0.308   8.777   9.605
   14        0.519   0.308   8.778   9.606
   15        0.515   0.307   8.771   9.594
   16        0.524   0.306   8.767   9.597
   17        0.515   0.307   8.772   9.595
   18        0.515   0.307   8.772   9.594
   19        0.519   0.292   8.773   9.584
   20        0.581   0.346   8.724   9.650
   21        0.574   0.345   8.727   9.647
   22        0.510   0.305   8.774   9.589
   23        0.583   0.344   8.725   9.652
   24        0.509   0.305   8.776   9.589
   25        0.518   0.292   8.773   9.583
   26        0.519   0.293   8.771   9.583
   27        0.508   0.304   8.777   9.589
   28        0.541   0.228   8.752   9.521
   29        0.592   0.247   8.733   9.571
   30        0.589   0.247   8.736   9.572
   31        0.591   0.249   8.733   9.572
   32        0.584   0.247   8.741   9.572
   33        0.589   0.248   8.735   9.573
   34        0.594   0.246   8.735   9.575
   35        0.537   0.229   8.754   9.521
   36        0.664   0.753   3.080   4.497
   37        1.592   3.308   0.000   4.900
   38        1.597   3.370   0.000   4.967
   39        0.616   0.112   0.000   0.729
tot         23.470  17.240 309.653 350.363

 BZINTS: Fermi energy:    0.122628;  403.000000 electrons
         Band energy:-0.155624E+04;  BLOECHL correction:   -0.036461