 vasp.6.2.0 18Jan21 (build Jun 12 2021 23:27:24) complex

 executed on             LinuxIFC date 2022.05.30  17:14:55

 INCAR:
   ISMEAR = -5
   SIGMA = 0.1
   ISPIN = 1
   EDIFF = 1.d-5
   EDIFFG = -0.01
   NSW = 0
   NELM = 150
   ENCUT = 500
   ISIF = 2
   IBRION = 2
   LREAL = Auto
   ALGO = Fast
   ICHARG = 11
   LORBIT = 10
   LCHARG = .F.
   LWAVE = .F.

 POTCAR:    PAW_PBE Ag 02Apr2005
 POTCAR:    PAW_PBE Nb_sv 25May2007
 POTCAR:    PAW_PBE C 08Apr2002
 POTCAR:    PAW_PBE O 08Apr2002
 POTCAR:    PAW_PBE H 15Jun2001
|           W    W    AA    RRRRR   N    N  II  N    N   GGGG   !!!           |
|           W    W   A  A   R    R  NN   N  II  NN   N  G    G  !!!           |
|           W    W  A    A  R    R  N N  N  II  N N  N  G       !!!           |
|           W WW W  AAAAAA  RRRRR   N  N N  II  N  N N  G  GGG   !            |
|           WW  WW  A    A  R   R   N   NN  II  N   NN  G    G                |
|           W    W  A    A  R    R  N    N  II  N    N   GGGG   !!!           |
|     For optimal performance we recommend to set                             |
|       NCORE = 2 up to number-of-cores-per-socket                            |
|     This setting can greatly improve the performance of VASP for DFT.       |
|     The default, NCORE=1 might be grossly inefficient on modern             |
|     multi-core architectures or massively parallel machines. Do your        |
|     Unfortunately you need to use the default for GW and RPA                |
|     calculations (for HF NCORE is supported but not extensively tested      |
|     yet).                                                                   |

 POTCAR:    PAW_PBE Ag 02Apr2005
   VRHFIN =Ag : s1 d10

   TITEL  = PAW_PBE Ag 02Apr2005
   POMASS =  107.868; ZVAL   =   11.000    mass and valenz
   ENMAX  =  249.844; ENMIN  =  187.383 eV

 POTCAR:    PAW_PBE Nb_sv 25May2007
   VRHFIN =Nb: 4p5s4d

   TITEL  = PAW_PBE Nb_sv 25May2007
   POMASS =   92.910; ZVAL   =   13.000    mass and valenz
   ENMAX  =  293.235; ENMIN  =  219.927 eV

 POTCAR:    PAW_PBE C 08Apr2002
   VRHFIN =C: s2p2

[...]

 POTCAR:    PAW_PBE O 08Apr2002
   VRHFIN =O: s2p4

   TITEL  = PAW_PBE O 08Apr2002
   POMASS =   16.000; ZVAL   =    6.000    mass and valenz
   ENMAX  =  400.000; ENMIN  =  300.000 eV

 POTCAR:    PAW_PBE H 15Jun2001
   VRHFIN =H: ultrasoft test

   TITEL  = PAW_PBE H 15Jun2001
   POMASS =    1.000; ZVAL   =    1.000    mass and valenz
   ENMAX  =  250.000; ENMIN  =  200.000 eV

 Optimization of the real space projectors (new method)

 maximal supplied QI-value         = 15.12
 optimisation between [QCUT,QGAM] = [ 11.34, 22.83] = [ 36.00,145.93] Ry
 Optimized for a Real-space Cutoff    1.43 Angstroem

   l    n(q)    QCUT    max X(q) W(low)/X(q) W(high)/X(q)  e(spline)
   2      9    11.338    53.897    0.16E-03    0.20E-03    0.28E-06
   2      9    11.338    52.416    0.16E-03    0.20E-03    0.29E-06
   0     10    11.338   122.045    0.31E-04    0.76E-04    0.15E-06
   0     10    11.338    73.629    0.30E-04    0.72E-04    0.15E-06
   1      9    11.338    15.255    0.20E-03    0.19E-04    0.17E-06
   1      9    11.338     9.562    0.16E-03    0.15E-04    0.14E-06
 Optimization of the real space projectors (new method)

[...]

   l    n(q)    QCUT    max X(q) W(low)/X(q) W(high)/X(q)  e(spline)
   0      7    11.387    20.381    0.39E-03    0.13E-02    0.15E-06
   0      7    11.387    15.268    0.42E-03    0.14E-02    0.17E-06
   1      6    11.387     5.964    0.41E-03    0.11E-02    0.17E-06
   1      6    11.387     5.382    0.39E-03    0.87E-03    0.15E-06
 Optimization of the real space projectors (new method)

 maximal supplied QI-value         = 34.20
 optimisation between [QCUT,QGAM] = [ 11.29, 22.57] = [ 35.68,142.71] Ry
 Optimized for a Real-space Cutoff    1.16 Angstroem

   l    n(q)    QCUT    max X(q) W(low)/X(q) W(high)/X(q)  e(spline)
   0      8    11.287    19.460    0.40E-03    0.73E-03    0.16E-06
   0      8    11.287    12.209    0.38E-03    0.70E-03    0.15E-06
   1      7    11.287     4.655    0.22E-03    0.25E-04    0.22E-06
  PAW_PBE Ag 02Apr2005                  :
  PAW_PBE Nb_sv 25May2007               :
  PAW_PBE C 08Apr2002                   :
  PAW_PBE O 08Apr2002                   :
  PAW_PBE H 15Jun2001                   :

 POSCAR: Ag-Nb-COH
  positions in direct lattice
  velocities in cartesian coordinates
 exchange correlation table for  LEXCH =        8
   RHO(1)=    0.500       N(1)  =     2000
   RHO(2)=  100.500       N(2)  =     4000

 VTST: version 3.2, (02/03/18)

 CHAIN: initializing optimizer

 OPT: Using VASP Conjugate-Gradient optimizer
 CHAIN: Read ICHAIN            0

 POSCAR: Ag-Nb-COH
  positions in direct lattice
  velocities in cartesian coordinates

 ion  position               nearest neighbor table
   1  0.000  0.000  0.199-   2 2.93   8 2.93   7 2.93   6 2.93   4 2.93  12 2.93  16 2.93  10 2.93
                             3 2.93
   2  0.333  0.000  0.199-   1 2.93   8 2.93   9 2.93   3 2.93   4 2.93   5 2.93  10 2.93  17 2.93
                            11 2.93
   3  0.667  0.000  0.199-   9 2.93   2 2.93   5 2.93  11 2.93   7 2.93  18 2.93   1 2.93   6 2.93
                            12 2.93
   4  0.000  0.333  0.199-   5 2.93   6 2.93   2 2.93   1 2.93   7 2.93  13 2.93  15 2.93   9 2.93
                            10 2.93
   5  0.333  0.333  0.199-   4 2.93   3 2.93   7 2.93   2 2.93   8 2.93  14 2.93  13 2.93  11 2.93
                             6 2.93
   6  0.667  0.333  0.199-   4 2.93   9 2.93   1 2.93  15 2.93   8 2.93  12 2.93   3 2.93   5 2.93
                            14 2.93
   7  0.000  0.667  0.199-   8 2.93   1 2.93   5 2.93   3 2.93   4 2.93  16 2.93  18 2.93  13 2.93
                             9 2.93
   8  0.333  0.667  0.199-   7 2.93   1 2.93   2 2.93   9 2.93   5 2.93  16 2.93   6 2.93  17 2.93
                            14 2.93
   9  0.667  0.667  0.199-   3 2.93   2 2.93   8 2.93   6 2.93  17 2.93   4 2.93  15 2.93   7 2.93
                            18 2.93
  10  0.111  0.111  0.289-  20 2.90  19 2.93  26 2.93  12 2.93  16 2.93  15 2.93  17 2.93  13 2.93
                            11 2.93   2 2.93   1 2.93   4 2.93
  11  0.444  0.111  0.289-  21 2.90  20 2.90  14 2.93  17 2.93  18 2.93   3 2.93  12 2.93  13 2.93
                            10 2.93   5 2.93   2 2.93  27 2.93
  12  0.778  0.111  0.289-  21 2.90  25 2.93  19 2.93  10 2.93  16 2.93  18 2.93  15 2.93  11 2.93
                             1 2.93  14 2.93   6 2.93   3 2.93
  13  0.111  0.444  0.289-  20 2.90  23 2.90  15 2.93  14 2.93  18 2.93  10 2.93  11 2.93  16 2.93
                             4 2.93   5 2.93   7 2.93  22 2.93
  14  0.444  0.444  0.289-  23 2.90  21 2.90  13 2.93  11 2.93  16 2.93   5 2.93  12 2.93  17 2.93
                             8 2.93  15 2.93   6 2.93  24 2.93
  15  0.778  0.444  0.289-  19 2.93  13 2.93  10 2.93  12 2.93  17 2.93  18 2.93   4 2.93   6 2.93
                             9 2.93  14 2.93  24 2.93  22 2.93
  16  0.111  0.778  0.289-  23 2.90  26 2.93  25 2.93  18 2.93  12 2.93  10 2.93  14 2.93  17 2.93
                            13 2.93   7 2.93   8 2.93   1 2.93
  17  0.444  0.778  0.289-  26 2.93  11 2.93  10 2.93   9 2.93  18 2.93  15 2.93  16 2.93   2 2.93
                            14 2.93   8 2.93  27 2.93  24 2.93
  18  0.778  0.778  0.289-  25 2.93  16 2.93  12 2.93  13 2.93  11 2.93  17 2.93  15 2.93   7 2.93
                             3 2.93   9 2.93  22 2.93  27 2.93
  19  0.889  0.222  0.379-  15 2.93  10 2.93  12 2.93  20 2.93  21 2.93  28 2.93  24 2.93  22 2.93
                            26 2.93  25 2.93  32 2.97  31 2.97
  20  0.222  0.222  0.377-  36 2.82  10 2.90  13 2.90  11 2.90  19 2.93  26 2.93  27 2.93  22 2.93
                            21 2.94  23 2.94  31 2.97  29 2.97
  21  0.556  0.222  0.377-  36 2.82  12 2.90  11 2.90  14 2.90  25 2.93  19 2.93  27 2.93  24 2.93
                            20 2.94  23 2.94  30 2.97  32 2.97
  22  0.889  0.556  0.379-  24 2.93  27 2.93  25 2.93  19 2.93  18 2.93  15 2.93  23 2.93  20 2.93
                            35 2.93  13 2.93  33 2.95  31 2.95
  23  0.222  0.556  0.377-  36 2.82  16 2.90  14 2.90  13 2.90  26 2.93  25 2.93  22 2.93  24 2.93
                            21 2.94  20 2.94  34 2.97  33 2.97
  24  0.556  0.556  0.379-  27 2.93  22 2.93  19 2.93  26 2.93  15 2.93  17 2.93  23 2.93  21 2.93
                            35 2.93  14 2.93  32 2.95  34 2.95
  25  0.889  0.889  0.379-  18 2.93  16 2.93  12 2.93  23 2.93  21 2.93  28 2.93  22 2.93  27 2.93
                            26 2.93  19 2.93  33 2.97  30 2.97
  26  0.222  0.889  0.379-  17 2.93  16 2.93  10 2.93  23 2.93  20 2.93  28 2.93  27 2.93  24 2.93
                            25 2.93  19 2.93  34 2.97  29 2.97
  27  0.556  0.889  0.379-  24 2.93  22 2.93  26 2.93  25 2.93  17 2.93  18 2.93  20 2.93  21 2.93
                            35 2.93  11 2.93  29 2.95  30 2.95
  28  0.000  0.000  0.468-  26 2.93  25 2.93  19 2.93  29 2.95  34 2.95  33 2.95  32 2.95  31 2.95
                            30 2.95
  29  0.333  0.004  0.470-  30 2.90  31 2.90  36 2.91  35 2.95  28 2.95  27 2.95  20 2.97  26 2.97
                            34 2.99
  30  0.663  0.004  0.470-  29 2.90  32 2.90  36 2.91  35 2.95  28 2.95  27 2.95  21 2.97  25 2.97
                            33 2.99
  31  0.004  0.333  0.470-  33 2.90  29 2.90  36 2.91  35 2.95  28 2.95  22 2.95  20 2.97  19 2.97
                            32 2.99
  32  0.663  0.333  0.470-  34 2.90  30 2.90  36 2.91  35 2.95  28 2.95  24 2.95  21 2.97  19 2.97
                            31 2.99
  33  0.004  0.663  0.470-  31 2.90  34 2.90  36 2.91  35 2.95  28 2.95  22 2.95  23 2.97  25 2.97
                            30 2.99
  34  0.333  0.663  0.470-  32 2.90  33 2.90  36 2.91  35 2.95  28 2.95  24 2.95  23 2.97  26 2.97
                            29 2.99
  35  0.667  0.667  0.469-  24 2.93  27 2.93  22 2.93  30 2.95  29 2.95  32 2.95  34 2.95  31 2.95
                            33 2.95
  36  0.333  0.333  0.462-  37 1.89  21 2.82  20 2.82  23 2.82  31 2.91  33 2.91  30 2.91  29 2.91
                            34 2.91  32 2.91
  37  0.333  0.333  0.533-  38 1.28  36 1.89
  38  0.333  0.333  0.581-  39 0.95  37 1.28
  39  0.333  0.333  0.617-  38 0.95

  LATTYP: Found a hexagonal cell.
 ALAT       =     8.7913665772
 C/A-ratio  =     3.0233954145

  Lattice vectors:

 A1 = (  -4.3956832886,  -7.6135467898,   0.0000000000)
 A2 = (   8.7913665771,   0.0000000000,   0.0000000000)
 A3 = (   0.0000000000,   0.0000000000,  26.5797773968)

Analysis of symmetry for initial positions (statically):
 Subroutine PRICEL returns:
 Original cell was already a primitive cell.

 Routine SETGRP: Setting up the symmetry group for a
 hexagonal supercell.

 Subroutine GETGRP returns: Found  6 space group operations
 (whereof  6 operations were pure point group operations)
 out of a pool of 24 trial point group operations.

The static configuration has the point symmetry C_3v.

Analysis of symmetry for dynamics (positions and initial velocities):
 Subroutine PRICEL returns:
 Original cell was already a primitive cell.

[...]

[...]
     41      -4.8839      2.00000
     42      -4.8613      2.00000
     43      -4.8261      2.00000
     44      -4.8184      2.00000
     45      -4.7974      2.00000
     46      -4.7587      2.00000
     47      -4.7318      2.00000
     48      -4.7257      2.00000
     49      -4.7169      2.00000
     50      -4.7118      2.00000
     51      -4.6948      2.00000
     52      -4.5970      2.00000
     53      -4.5750      2.00000
     54      -4.5634      2.00000
     55      -4.5588      2.00000
     56      -4.5520      2.00000
     57      -4.5498      2.00000
     58      -4.5418      2.00000
     59      -4.5363      2.00000
     60      -4.5295      2.00000
[...]
    238       5.0248      0.00000
    239       5.1705      0.00000
    240       5.2243      0.00000
    241       5.3260      0.00000
    242       5.4093      0.00000
    243       5.4551      0.00000
    244       5.5337      0.00000
    245       5.6863      0.00000
    246       5.7330      0.00000
    247       5.7919      0.00000
    248       5.8336      0.00000
    249       5.9317      0.00000
    250       5.9586      0.00000
    251       5.9753      0.00000
    252       5.9796      0.00000

 soft charge-density along one line, spin component           1
         0         1         2         3         4         5         6         7         8         9
 total charge-density along one line

------------------------ aborting loop because EDIFF is reached ----------------------------------------

 total charge

# of ion       s       p       d       tot
    1        0.418   0.202   9.179   9.800
    2        0.417   0.204   9.177   9.798
    3        0.417   0.204   9.177   9.798
    4        0.417   0.204   9.177   9.798
    5        0.420   0.203   9.174   9.797
    6        0.417   0.204   9.177   9.798
    7        0.417   0.204   9.177   9.798
    8        0.417   0.204   9.177   9.798
    9        0.416   0.202   9.179   9.797
   10        0.408   0.270   9.163   9.842
   11        0.410   0.266   9.167   9.844
   12        0.408   0.270   9.163   9.842
   13        0.410   0.266   9.167   9.844
   14        0.410   0.266   9.167   9.844
   15        0.402   0.270   9.164   9.836
   16        0.408   0.270   9.163   9.842
   17        0.402   0.270   9.164   9.836
   18        0.402   0.270   9.164   9.836
   19        0.402   0.264   9.166   9.832
   20        0.438   0.294   9.142   9.875
   21        0.438   0.294   9.142   9.875
   22        0.392   0.272   9.165   9.830
   23        0.438   0.294   9.142   9.875
   24        0.392   0.272   9.165   9.830
   25        0.402   0.264   9.166   9.832
   26        0.402   0.264   9.166   9.832
   27        0.392   0.272   9.165   9.830
   28        0.411   0.202   9.177   9.790
   29        0.437   0.217   9.157   9.810
   30        0.437   0.217   9.157   9.810
   31        0.437   0.217   9.157   9.810
   32        0.437   0.217   9.157   9.810
   33        0.437   0.217   9.157   9.810
   34        0.437   0.217   9.157   9.810
   35        0.411   0.203   9.176   9.790
   36        2.189   6.007   2.500  10.696
   37        0.930   1.434   0.000   2.364
   38        1.520   3.762   0.000   5.281
   39        0.570   0.139   0.000   0.709
tot         19.764  19.792 323.291 362.846

  FORCE on cell =-STRESS in cart. coord.  units (eV):
  Direction    XX          YY          ZZ          XY          YZ          ZX
  Alpha Z   659.14761   659.14761   659.14761
  Ewald  188974.49633188974.49650************     0.00006     0.00001     0.00006
  Hartree199355.97968199355.97975************     0.00003     0.00001     0.00002
  E(xc)   -2136.35151 -2136.35162 -2140.04825     0.00010    -0.00000    -0.00000
  Local  ************************399333.43748     0.00060    -0.00009    -0.00021
  n-local  -356.64638  -341.37341  -354.11497     9.90468    -0.55921     0.62560
  augment  3244.85835  3244.85857  3257.53024    -0.00020    -0.00003    -0.00000
  Kinetic  5222.27771  5227.18425  5211.25629     3.46591     0.83722    -0.18118
  Fock        0.00000     0.00000     0.00000     0.00000     0.00000     0.00000
  Total      -7.48805    -7.48805     0.89090    -0.00000    -0.00000     0.00000
  in kB      -6.74349    -6.74349     0.80232    -0.00000    -0.00000     0.00000

 VOLUME and BASIS-vectors are now :
  energy-cutoff  :      500.00
  volume of cell :     1779.08
      direct lattice vectors                 reciprocal lattice vectors
     8.791366577  0.000000000  0.000000000     0.113747958 -0.065672414  0.000000000
     4.395683289  7.613546790  0.000000000     0.000000000  0.131344829  0.000000000
     0.000000000  0.000000000 26.579777397     0.000000000  0.000000000  0.037622587

  length of vectors
     8.791366577  8.791366577 26.579777397     0.131344829  0.131344829  0.037622587

 FORCES acting on ions
    electron-ion (+dipol)            ewald-force                    non-local-force                 convergence-correction
   0.455E-04 -.285E-04 0.287E+04   -.954E-04 0.593E-04 -.287E+04   -.215E-17 -.700E-17 -.204E+01   -.129E-03 -.181E-03 -.279E-01
   0.956E-01 0.106E+01 0.287E+04   -.384E+00 -.107E+01 -.287E+04   0.107E+00 0.831E-01 -.151E+01   0.181E+00 -.489E-01 -.209E-01
   -.955E-01 0.106E+01 0.287E+04   0.384E+00 -.107E+01 -.287E+04   -.107E+00 0.831E-01 -.151E+01   -.182E+00 -.469E-01 -.202E-01
   0.963E+00 -.446E+00 0.287E+04   -.112E+01 0.203E+00 -.287E+04   0.125E+00 0.511E-01 -.151E+01   0.485E-01 0.181E+00 -.209E-01
   -.361E-05 -.177E-04 0.288E+04   0.980E-04 -.199E-05 -.288E+04   0.240E-17 0.212E-17 -.112E+01   0.630E-02 0.385E-02 0.148E+00
   -.963E+00 -.445E+00 0.287E+04   0.112E+01 0.203E+00 -.287E+04   -.125E+00 0.511E-01 -.151E+01   -.499E-01 0.182E+00 -.199E-01
   0.867E+00 -.611E+00 0.287E+04   -.736E+00 0.869E+00 -.287E+04   0.185E-01 -.134E+00 -.151E+01   -.131E+00 -.133E+00 -.202E-01
   -.867E+00 -.611E+00 0.287E+04   0.736E+00 0.868E+00 -.287E+04   -.185E-01 -.134E+00 -.151E+01   0.133E+00 -.134E+00 -.199E-01
   0.371E-04 -.125E-04 0.287E+04   0.792E-04 -.643E-04 -.287E+04   0.350E-18 -.170E-17 -.190E+01   -.670E-02 -.346E-02 -.412E-01
   0.615E+01 0.355E+01 0.103E+04   -.596E+01 -.344E+01 -.103E+04   -.351E+00 -.203E+00 -.745E+00   0.137E+00 0.793E-01 0.520E+00
   -.282E-04 0.988E+01 0.104E+04   0.411E-04 -.102E+02 -.104E+04   0.118E-11 0.179E+00 -.299E+00   0.640E-02 0.114E+00 0.496E+00
   -.615E+01 0.355E+01 0.103E+04   0.596E+01 -.344E+01 -.103E+04   0.351E+00 -.203E+00 -.745E+00   -.139E+00 0.808E-01 0.521E+00
   0.856E+01 -.494E+01 0.104E+04   -.885E+01 0.511E+01 -.104E+04   0.155E+00 -.897E-01 -.299E+00   0.102E+00 -.513E-01 0.496E+00
   -.856E+01 -.494E+01 0.104E+04   0.885E+01 0.511E+01 -.104E+04   -.155E+00 -.897E-01 -.299E+00   -.905E-01 -.520E-01 0.497E+00
   0.152E-04 -.259E+01 0.103E+04   -.109E-03 0.245E+01 -.103E+04   0.597E-12 0.908E-01 -.736E+00   -.203E-02 0.447E-01 0.409E+00
   -.720E-05 -.710E+01 0.103E+04   0.207E-04 0.688E+01 -.103E+04   0.266E-11 0.405E+00 -.745E+00   0.335E-03 -.161E+00 0.521E+00
   -.224E+01 0.129E+01 0.103E+04   0.212E+01 -.122E+01 -.103E+04   0.787E-01 -.454E-01 -.736E+00   0.376E-01 -.241E-01 0.409E+00
   0.224E+01 0.129E+01 0.103E+04   -.212E+01 -.122E+01 -.103E+04   -.787E-01 -.454E-01 -.736E+00   -.378E-01 -.219E-01 0.410E+00
   0.405E-04 0.408E+00 -.848E+03   -.132E-03 -.582E+00 0.847E+03   0.917E-12 0.140E+00 0.921E+00   -.190E-02 0.429E-01 0.465E+00
   0.452E+02 0.261E+02 -.772E+03   -.445E+02 -.257E+02 0.772E+03   -.106E+01 -.610E+00 -.798E+00   0.153E+00 0.885E-01 0.561E+00
   -.452E+02 0.261E+02 -.772E+03   0.445E+02 -.257E+02 0.772E+03   0.106E+01 -.610E+00 -.798E+00   -.142E+00 0.897E-01 0.561E+00
   0.195E+02 -.112E+02 -.842E+03   -.199E+02 0.115E+02 0.841E+03   0.317E+00 -.183E+00 0.477E+00   0.164E+00 -.943E-01 0.396E+00
   -.580E-04 -.522E+02 -.772E+03   0.501E-04 0.514E+02 0.772E+03   0.801E-11 0.122E+01 -.798E+00   0.682E-02 -.167E+00 0.561E+00
   -.195E+02 -.112E+02 -.842E+03   0.199E+02 0.115E+02 0.841E+03   -.317E+00 -.183E+00 0.477E+00   -.165E+00 -.954E-01 0.396E+00
   -.353E+00 -.204E+00 -.848E+03   0.504E+00 0.291E+00 0.847E+03   -.121E+00 -.698E-01 0.921E+00   -.362E-01 -.210E-01 0.465E+00
   0.353E+00 -.204E+00 -.848E+03   -.504E+00 0.291E+00 0.847E+03   0.121E+00 -.698E-01 0.921E+00   0.359E-01 -.232E-01 0.465E+00
   0.204E-04 0.225E+02 -.842E+03   0.109E-03 -.230E+02 0.841E+03   0.240E-11 0.366E+00 0.477E+00   -.464E-03 0.189E+00 0.396E+00
   0.542E-04 -.361E-04 -.272E+04   -.118E-03 0.788E-04 0.272E+04   0.223E-17 0.217E-17 0.171E+01   -.169E-03 -.236E-03 0.153E+00
   0.551E+02 0.901E+02 -.272E+04   -.544E+02 -.891E+02 0.271E+04   -.849E+00 -.131E+01 0.154E+01   0.144E+00 0.287E+00 0.168E+00
   -.551E+02 0.901E+02 -.272E+04   0.544E+02 -.891E+02 0.271E+04   0.849E+00 -.131E+01 0.154E+01   -.144E+00 0.289E+00 0.168E+00
   0.106E+03 0.266E+01 -.272E+04   -.104E+03 -.257E+01 0.271E+04   -.156E+01 -.819E-01 0.154E+01   0.320E+00 -.188E-01 0.168E+00
   -.106E+03 0.266E+01 -.272E+04   0.104E+03 -.257E+01 0.271E+04   0.156E+01 -.819E-01 0.154E+01   -.322E+00 -.180E-01 0.168E+00
   0.505E+02 -.928E+02 -.272E+04   -.500E+02 0.917E+02 0.271E+04   -.707E+00 0.139E+01 0.154E+01   0.179E+00 -.268E+00 0.168E+00
   -.505E+02 -.928E+02 -.272E+04   0.500E+02 0.917E+02 0.271E+04   0.707E+00 0.139E+01 0.154E+01   -.177E+00 -.270E+00 0.168E+00
   0.194E-04 -.832E-05 -.273E+04   0.107E-03 -.675E-04 0.273E+04   0.166E-17 0.463E-18 0.183E+01   -.682E-02 -.351E-02 0.201E+00
   0.269E-03 -.155E-03 -.285E+04   0.123E-03 0.141E-04 0.285E+04   0.809E-18 0.811E-18 -.443E+01   0.780E-02 0.475E-02 0.286E+00
   0.123E-04 -.755E-04 -.112E+04   0.165E-04 0.199E-06 0.110E+04   0.459E-18 0.376E-18 0.207E+02   0.133E-02 0.811E-03 -.176E+00
   0.243E-03 -.908E-04 -.175E+04   0.793E-05 0.107E-07 0.176E+04   -.633E-18 0.337E-18 -.303E+01   0.389E-02 0.238E-02 -.205E+00
   0.673E-05 -.144E-04 -.333E+03   0.546E-06 -.185E-08 0.342E+03   -.123E-18 -.151E-19 -.873E+01   0.208E-03 0.127E-03 -.265E-01
   0.927E-03 -.990E-03 -.929E+01   -.888E-13 0.242E-12 0.836E-11   0.446E-15 -.442E-15 -.367E+00   0.319E-01 0.220E-01 0.974E+01

 POSITION                                       TOTAL-FORCE (eV/Angst)
      0.00000      0.00000      5.28219         0.000000     -0.000000     -0.028346
      2.93046      0.00000      5.28219         0.000310      0.019884      0.026907
      5.86091      0.00000      5.28219        -0.000310      0.019884      0.026907
      1.46523      2.53785      5.28219         0.017376     -0.009673      0.026907
      4.39568      2.53785      5.28219         0.000000     -0.000000     -0.028821
      7.32614      2.53785      5.28219        -0.017376     -0.009673      0.026907
      2.93046      5.07570      5.28219         0.017065     -0.010211      0.026907
      5.86091      5.07570      5.28219        -0.017065     -0.010211      0.026907
      8.79137      5.07570      5.28219         0.000000     -0.000000      0.015191
      1.46523      0.84595      7.67490        -0.018214     -0.010516     -0.041112
      4.39568      0.84595      7.67490        -0.000000     -0.044240     -0.051274
      7.32614      0.84595      7.67490         0.018214     -0.010516     -0.041112
      2.93046      3.38380      7.67490        -0.038313      0.022120     -0.051274
      5.86091      3.38380      7.67490         0.038313      0.022120     -0.051274
      8.79137      3.38380      7.67490        -0.000000     -0.005217      0.032814
      4.39568      5.92165      7.67490         0.000000      0.021032     -0.041112
      7.32614      5.92165      7.67490        -0.004518      0.002608      0.032814
     10.25659      5.92165      7.67490         0.004518      0.002608      0.032814
      8.79137      1.69211     10.06133         0.000000      0.008117      0.062337
      2.92756      1.69022     10.03254        -0.204428     -0.118027     -0.220916
      5.86381      1.69022     10.03254         0.204428     -0.118027     -0.220916
     10.25459      4.23091     10.07004         0.014904     -0.008605      0.022258
      4.39568      4.23310     10.03254         0.000000      0.236053     -0.220916
      7.32815      4.23091     10.07004        -0.014904     -0.008605      0.022258
     11.72164      6.76749     10.06133        -0.007029     -0.004058      0.062337
      5.86110      6.76749     10.06133         0.007029     -0.004058      0.062337
      8.79137      6.76528     10.07004         0.000000      0.017210      0.022258
      0.00000      0.00000     12.45237         0.000000     -0.000000     -0.059313
      2.94700      0.02679     12.48745        -0.031969     -0.048094     -0.007703
      5.84437      0.02679     12.48745         0.031969     -0.048094     -0.007703
      1.49670      2.53878     12.48745        -0.057635     -0.003639     -0.007703
      7.29466      2.53878     12.48745         0.057635     -0.003639     -0.007703
      2.94539      5.04797     12.48745        -0.025666      0.051733     -0.007703
      5.84598      5.04797     12.48745         0.025666      0.051733     -0.007703
      8.79137      5.07570     12.46721         0.000000     -0.000000     -0.072116
      4.39568      2.53785     12.28926         0.000000     -0.000000      0.633424
      4.39568      2.53785     14.17886         0.000000     -0.000000      0.014336
      4.39568      2.53785     15.45427         0.000000     -0.000000     -0.007283
      4.39568      2.53785     16.40920         0.000000     -0.000000      0.005380
    total drift:                                0.032801      0.020980      0.083116

  FREE ENERGIE OF THE ION-ELECTRON SYSTEM (eV)
  free  energy   TOTEN  =      -115.26702910 eV

  energy  without entropy=     -115.26702910  energy(sigma->0) =     -115.26702910

 stress matrix after NEB project (eV)
     -7.48805     -0.00000      0.00000
     -0.00000     -7.48805      0.00000
      0.00000     -0.00000      0.89090
  FORCES: max atom, RMS     0.014336    0.002715
  FORCE total and by dimension    0.016956    0.014336
  Stress total and by dimension   10.627117    7.488054
|           W    W    AA    RRRRR   N    N  II  N    N   GGGG   !!!           |
|           W    W   A  A   R    R  NN   N  II  NN   N  G    G  !!!           |
|           W    W  A    A  R    R  N N  N  II  N N  N  G       !!!           |
|           W WW W  AAAAAA  RRRRR   N  N N  II  N  N N  G  GGG   !            |
|           WW  WW  A    A  R   R   N   NN  II  N   NN  G    G                |
|           W    W  A    A  R    R  N    N  II  N    N   GGGG   !!!           |
|     Tetrahedron method does not include variations of the Fermi             |
|     occupations, so forces and stress will be inaccurate. We suggest        |
|     using a different smearing scheme ISMEAR = 1 or 2 for metals in         |
|     relaxations.                                                            |

 total charge

# of ion       s       p       d       tot
    1        0.418   0.202   9.179   9.800
    2        0.417   0.204   9.177   9.798
    3        0.417   0.204   9.177   9.798
    4        0.417   0.204   9.177   9.798
    5        0.420   0.203   9.174   9.797
    6        0.417   0.204   9.177   9.798
    7        0.417   0.204   9.177   9.798
    8        0.417   0.204   9.177   9.798
    9        0.416   0.202   9.179   9.797
   10        0.408   0.270   9.163   9.842
   11        0.410   0.266   9.167   9.844
   12        0.408   0.270   9.163   9.842
   13        0.410   0.266   9.167   9.844
   14        0.410   0.266   9.167   9.844
   15        0.402   0.270   9.164   9.836
   16        0.408   0.270   9.163   9.842
   17        0.402   0.270   9.164   9.836
   18        0.402   0.270   9.164   9.836
   19        0.402   0.264   9.166   9.832
   20        0.438   0.294   9.142   9.875
   21        0.438   0.294   9.142   9.875
   22        0.392   0.272   9.165   9.830
   23        0.438   0.294   9.142   9.875
   24        0.392   0.272   9.165   9.830
   25        0.402   0.264   9.166   9.832
   26        0.402   0.264   9.166   9.832
   27        0.392   0.272   9.165   9.830
   28        0.411   0.202   9.177   9.790
   29        0.437   0.217   9.157   9.810
   30        0.437   0.217   9.157   9.810
   31        0.437   0.217   9.157   9.810
   32        0.437   0.217   9.157   9.810
   33        0.437   0.217   9.157   9.810
   34        0.437   0.217   9.157   9.810
   35        0.411   0.203   9.176   9.790
   36        2.189   6.007   2.500  10.696
   37        0.930   1.434   0.000   2.364
   38        1.520   3.762   0.000   5.281
   39        0.570   0.139   0.000   0.709
tot         19.764  19.792 323.291 362.846

 BZINTS: Fermi energy:    0.463425;  409.000000 electrons
         Band energy:-0.182495E+04;  BLOECHL correction:   -0.044248