 vasp.6.2.0 18Jan21 (build Jun 12 2021 23:27:24) complex

 executed on             LinuxIFC date 2022.05.26  19:54:58

 INCAR:
   ISMEAR = -5
   SIGMA = 0.1
   ISPIN = 1
   EDIFF = 1.d-5
   EDIFFG = -0.01
   NSW = 0
   NELM = 150
   ENCUT = 500
   ISIF = 2
   IBRION = 2
   LREAL = Auto
   ALGO = Fast
   ICHARG = 11
   LORBIT = 10
   LCHARG = .F.
   LWAVE = .F.

 POTCAR:    PAW_PBE Ag 02Apr2005
 POTCAR:    PAW_PBE Ir 06Sep2000
 POTCAR:    PAW_PBE H 15Jun2001
|           W    W    AA    RRRRR   N    N  II  N    N   GGGG   !!!           |
|           W    W   A  A   R    R  NN   N  II  NN   N  G    G  !!!           |
|           W    W  A    A  R    R  N N  N  II  N N  N  G       !!!           |
|           W WW W  AAAAAA  RRRRR   N  N N  II  N  N N  G  GGG   !            |
|           WW  WW  A    A  R   R   N   NN  II  N   NN  G    G                |
|           W    W  A    A  R    R  N    N  II  N    N   GGGG   !!!           |
|     For optimal performance we recommend to set                             |
|       NCORE = 2 up to number-of-cores-per-socket                            |
|     This setting can greatly improve the performance of VASP for DFT.       |
|     The default, NCORE=1 might be grossly inefficient on modern             |
|     multi-core architectures or massively parallel machines. Do your        |
|     Unfortunately you need to use the default for GW and RPA                |
|     calculations (for HF NCORE is supported but not extensively tested      |
|     yet).                                                                   |

 POTCAR:    PAW_PBE Ag 02Apr2005
   VRHFIN =Ag : s1 d10

   TITEL  = PAW_PBE Ag 02Apr2005
   POMASS =  107.868; ZVAL   =   11.000    mass and valenz
   ENMAX  =  249.844; ENMIN  =  187.383 eV

 POTCAR:    PAW_PBE Ir 06Sep2000
   VRHFIN =Ir: s1d8

   TITEL  = PAW_PBE Ir 06Sep2000
   POMASS =  192.220; ZVAL   =    9.000    mass and valenz
   ENMAX  =  210.864; ENMIN  =  158.148 eV

 POTCAR:    PAW_PBE H 15Jun2001
   VRHFIN =H: ultrasoft test

   TITEL  = PAW_PBE H 15Jun2001
   POMASS =    1.000; ZVAL   =    1.000    mass and valenz
   ENMAX  =  250.000; ENMIN  =  200.000 eV

 Optimization of the real space projectors (new method)

 maximal supplied QI-value         = 15.12
 optimisation between [QCUT,QGAM] = [ 11.34, 22.83] = [ 36.00,145.93] Ry
 Optimized for a Real-space Cutoff    1.43 Angstroem

   l    n(q)    QCUT    max X(q) W(low)/X(q) W(high)/X(q)  e(spline)
   2      9    11.338    53.897    0.16E-03    0.20E-03    0.28E-06
   2      9    11.338    52.416    0.16E-03    0.20E-03    0.29E-06
   0     10    11.338   122.045    0.31E-04    0.76E-04    0.15E-06
   0     10    11.338    73.629    0.30E-04    0.72E-04    0.15E-06
   1      9    11.338    15.255    0.20E-03    0.19E-04    0.17E-06
   1      9    11.338     9.562    0.16E-03    0.15E-04    0.14E-06
 Optimization of the real space projectors (new method)

[...]

   l    n(q)    QCUT    max X(q) W(low)/X(q) W(high)/X(q)  e(spline)
   2      9    11.346   134.116    0.47E-03    0.13E-03    0.92E-06
   2      9    11.346   130.192    0.47E-03    0.13E-03    0.92E-06
   0     10    11.346    60.310    0.74E-04    0.13E-03    0.69E-06
   0     10    11.346    39.218    0.68E-04    0.12E-03    0.65E-06
   1     10    11.346    18.439    0.15E-03    0.34E-04    0.20E-06
   1     10    11.346    12.760    0.12E-03    0.31E-04    0.16E-06
 Optimization of the real space projectors (new method)

 maximal supplied QI-value         = 34.20
 optimisation between [QCUT,QGAM] = [ 11.29, 22.57] = [ 35.68,142.71] Ry
 Optimized for a Real-space Cutoff    1.16 Angstroem

   l    n(q)    QCUT    max X(q) W(low)/X(q) W(high)/X(q)  e(spline)
   0      8    11.287    19.460    0.40E-03    0.73E-03    0.16E-06
   0      8    11.287    12.209    0.38E-03    0.70E-03    0.15E-06
   1      7    11.287     4.655    0.22E-03    0.25E-04    0.22E-06
  PAW_PBE Ag 02Apr2005                  :
  PAW_PBE Ir 06Sep2000                  :
  PAW_PBE H 15Jun2001                   :

 POSCAR: Ag-Ir-H
  positions in direct lattice
  velocities in cartesian coordinates
 exchange correlation table for  LEXCH =        8
   RHO(1)=    0.500       N(1)  =     2000
   RHO(2)=  100.500       N(2)  =     4000

 VTST: version 3.2, (02/03/18)

 CHAIN: initializing optimizer

 OPT: Using VASP Conjugate-Gradient optimizer
 CHAIN: Read ICHAIN            0

 POSCAR: Ag-Ir-H
  positions in direct lattice
  velocities in cartesian coordinates

 ion  position               nearest neighbor table
   1  0.000  0.000  0.238-   2 2.93   8 2.93   7 2.93   6 2.93   4 2.93  12 2.93  16 2.93  10 2.93
                             3 2.93
   2  0.333  0.000  0.238-   1 2.93   8 2.93   9 2.93   3 2.93   4 2.93   5 2.93  10 2.93  17 2.93
                            11 2.93
   3  0.667  0.000  0.238-   9 2.93   2 2.93   5 2.93  11 2.93   7 2.93  18 2.93   1 2.93   6 2.93
                            12 2.93
   4  0.000  0.333  0.238-   5 2.93   6 2.93   2 2.93   1 2.93   7 2.93  13 2.93  15 2.93   9 2.93
                            10 2.93
   5  0.333  0.333  0.238-   4 2.93   3 2.93   7 2.93   2 2.93   8 2.93  14 2.93  13 2.93  11 2.93
                             6 2.93
   6  0.667  0.333  0.238-   4 2.93   9 2.93   1 2.93  15 2.93   8 2.93  12 2.93   3 2.93   5 2.93
                            14 2.93
   7  0.000  0.667  0.238-   8 2.93   1 2.93   5 2.93   3 2.93   4 2.93  16 2.93  18 2.93  13 2.93
                             9 2.93
   8  0.333  0.667  0.238-   7 2.93   1 2.93   2 2.93   9 2.93   5 2.93  16 2.93   6 2.93  17 2.93
                            14 2.93
   9  0.667  0.667  0.238-   3 2.93   2 2.93   8 2.93   6 2.93  17 2.93   4 2.93  15 2.93   7 2.93
                            18 2.93
  10  0.111  0.111  0.346-  20 2.89  12 2.93  16 2.93  15 2.93  17 2.93  13 2.93  11 2.93   2 2.93
                             1 2.93   4 2.93  19 2.93  26 2.93
  11  0.444  0.111  0.346-  21 2.90  20 2.90  27 2.92  14 2.93  17 2.93  18 2.93   3 2.93  12 2.93
                            13 2.93  10 2.93   5 2.93   2 2.93
  12  0.778  0.111  0.346-  21 2.89  10 2.93  16 2.93  18 2.93  15 2.93  11 2.93   1 2.93  14 2.93
                             6 2.93   3 2.93  25 2.93  19 2.93
  13  0.111  0.444  0.346-  20 2.90  23 2.90  22 2.92  15 2.93  14 2.93  18 2.93  10 2.93  11 2.93
                            16 2.93   4 2.93   5 2.93   7 2.93
  14  0.444  0.444  0.346-  23 2.90  21 2.90  24 2.92  13 2.93  11 2.93  16 2.93   5 2.93  12 2.93
                            17 2.93   8 2.93  15 2.93   6 2.93
  15  0.778  0.444  0.346-  24 2.92  22 2.92  19 2.93  13 2.93  10 2.93  12 2.93  17 2.93  18 2.93
                             4 2.93   6 2.93   9 2.93  14 2.93
  16  0.111  0.778  0.346-  23 2.89  18 2.93  12 2.93  10 2.93  14 2.93  17 2.93  13 2.93   7 2.93
                             8 2.93   1 2.93  26 2.93  25 2.93
  17  0.444  0.778  0.346-  27 2.92  24 2.92  26 2.93  11 2.93  10 2.93   9 2.93  18 2.93  15 2.93
                            16 2.93   2 2.93  14 2.93   8 2.93
  18  0.778  0.778  0.346-  22 2.92  27 2.92  25 2.93  16 2.93  12 2.93  13 2.93  11 2.93  17 2.93
                            15 2.93   7 2.93   3 2.93   9 2.93
  19  0.888  0.223  0.454-  28 2.90  24 2.92  22 2.92  15 2.93  20 2.93  21 2.93  10 2.93  12 2.93
                            32 2.94  31 2.94  26 2.94  25 2.94
  20  0.222  0.222  0.452-  36 2.77  10 2.89  13 2.90  11 2.90  31 2.92  29 2.92  19 2.93  26 2.93
                            27 2.93  22 2.93  21 2.94  23 2.94
  21  0.556  0.222  0.452-  36 2.77  12 2.89  11 2.90  14 2.90  30 2.92  32 2.92  25 2.93  19 2.93
                            27 2.93  24 2.93  20 2.94  23 2.94
  22  0.888  0.556  0.453-  35 2.90  18 2.92  15 2.92  13 2.92  24 2.92  27 2.92  25 2.92  19 2.92
                            33 2.93  31 2.93  23 2.93  20 2.93
  23  0.222  0.556  0.452-  36 2.77  16 2.89  14 2.90  13 2.90  34 2.92  33 2.92  26 2.93  25 2.93
                            22 2.93  24 2.93  21 2.94  20 2.94
  24  0.556  0.556  0.453-  35 2.90  15 2.92  17 2.92  14 2.92  27 2.92  22 2.92  19 2.92  26 2.92
                            32 2.93  34 2.93  23 2.93  21 2.93
  25  0.888  0.888  0.454-  28 2.90  22 2.92  27 2.92  18 2.93  23 2.93  21 2.93  16 2.93  12 2.93
                            33 2.94  30 2.94  26 2.94  19 2.94
  26  0.223  0.888  0.454-  28 2.90  27 2.92  24 2.92  17 2.93  23 2.93  20 2.93  16 2.93  10 2.93
                            34 2.94  29 2.94  25 2.94  19 2.94
  27  0.556  0.888  0.453-  35 2.90  17 2.92  18 2.92  11 2.92  24 2.92  22 2.92  26 2.92  25 2.92
                            29 2.93  30 2.93  20 2.93  21 2.93
  28  0.000  0.000  0.560-  26 2.90  25 2.90  19 2.90  29 2.96  34 2.96  33 2.96  32 2.96  31 2.96
                            30 2.96
  29  0.333  0.007  0.561-  31 2.87  30 2.88  36 2.88  20 2.92  27 2.93  26 2.94  28 2.96  35 2.96
                            34 3.04
  30  0.660  0.007  0.561-  32 2.87  29 2.88  36 2.88  21 2.92  27 2.93  25 2.94  28 2.96  35 2.96
                            33 3.04
  31  0.007  0.333  0.561-  29 2.87  33 2.88  36 2.88  20 2.92  22 2.93  19 2.94  28 2.96  35 2.96
                            32 3.04
  32  0.660  0.333  0.561-  30 2.87  34 2.88  36 2.88  21 2.92  24 2.93  19 2.94  28 2.96  35 2.96
                            31 3.04
  33  0.007  0.660  0.561-  34 2.87  31 2.88  36 2.88  23 2.92  22 2.93  25 2.94  28 2.96  35 2.96
                            30 3.04
  34  0.333  0.660  0.561-  33 2.87  32 2.88  36 2.88  23 2.92  24 2.93  26 2.94  28 2.96  35 2.96
                            29 3.04
  35  0.667  0.667  0.560-  24 2.90  27 2.90  22 2.90  30 2.96  32 2.96  29 2.96  34 2.96  31 2.96
                            33 2.96
  36  0.333  0.333  0.551-  37 1.59  21 2.77  20 2.77  23 2.77  31 2.88  30 2.88  33 2.88  29 2.88
                            34 2.88  32 2.88
  37  0.333  0.333  0.623-  36 1.59

  LATTYP: Found a hexagonal cell.
 ALAT       =     8.7913665772
 C/A-ratio  =     2.5227160501

  Lattice vectors:

 A1 = (  -4.3956832886,  -7.6135467898,   0.0000000000)
 A2 = (   8.7913665771,   0.0000000000,   0.0000000000)
 A3 = (   0.0000000000,   0.0000000000,  22.1781215668)

Analysis of symmetry for initial positions (statically):
 Subroutine PRICEL returns:
 Original cell was already a primitive cell.

 Routine SETGRP: Setting up the symmetry group for a
 hexagonal supercell.

 Subroutine GETGRP returns: Found  6 space group operations
 (whereof  6 operations were pure point group operations)
 out of a pool of 24 trial point group operations.

The static configuration has the point symmetry C_3v.

Analysis of symmetry for dynamics (positions and initial velocities):
 Subroutine PRICEL returns:
 Original cell was already a primitive cell.

[...]

The dynamic configuration has the point symmetry C_3v.

Analysis of constrained symmetry for selective dynamics:
 Subroutine PRICEL returns:
 Original cell was already a primitive cell.

 Routine SETGRP: Setting up the symmetry group for a
 hexagonal supercell.

 Subroutine GETGRP returns: Found  6 space group operations
 (whereof  6 operations were pure point group operations)
[...]
     24      -4.6576      2.00000
     25      -4.6228      2.00000
     26      -4.6053      2.00000
     27      -4.5971      2.00000
     28      -4.5836      2.00000
     29      -4.5820      2.00000
     30      -4.5543      2.00000
     31      -4.5431      2.00000
     32      -4.5078      2.00000
     33      -4.4951      2.00000
     34      -4.4455      2.00000
     35      -4.4271      2.00000
     36      -4.4050      2.00000
     37      -4.3803      2.00000
     38      -4.3544      2.00000
     39      -4.3482      2.00000
     40      -4.3296      2.00000
     41      -4.3215      2.00000
     42      -4.2991      2.00000
     43      -4.2618      2.00000
     44      -4.2205      2.00000
     45      -4.2014      2.00000
     46      -4.1971      2.00000
     47      -4.1808      2.00000
     48      -4.1753      2.00000
     49      -4.1646      2.00000
     50      -4.1601      2.00000
     51      -4.1548      2.00000
     52      -4.1428      2.00000
     53      -4.0747      2.00000
     54      -4.0607      2.00000
     55      -4.0567      2.00000
     56      -4.0507      2.00000
     57      -4.0283      2.00000
     58      -4.0152      2.00000
     59      -3.9909      2.00000
     60      -3.9750      2.00000
[...]
    238       7.2028      0.00000
    239       7.2245      0.00000
    240       7.2398      0.00000
    241       7.2591      0.00000
    242       7.3085      0.00000
    243       7.3274      0.00000
    244       7.3669      0.00000
    245       7.5302      0.00000
    246       7.5702      0.00000
    247       7.5930      0.00000
    248       7.6388      0.00000
    249       7.6958      0.00000
    250       7.9335      0.00000
    251       7.9567      0.00000
    252       8.1499      0.00000

 soft charge-density along one line, spin component           1
         0         1         2         3         4         5         6         7         8         9
 total charge-density along one line

------------------------ aborting loop because EDIFF is reached ----------------------------------------

 total charge

# of ion       s       p       d       tot
    1        0.417   0.201   9.179   9.796
    2        0.417   0.202   9.178   9.797
    3        0.417   0.202   9.178   9.797
    4        0.417   0.202   9.178   9.797
    5        0.420   0.203   9.175   9.798
    6        0.417   0.202   9.178   9.797
    7        0.417   0.202   9.178   9.797
    8        0.417   0.202   9.178   9.797
    9        0.413   0.202   9.180   9.794
   10        0.407   0.268   9.164   9.839
   11        0.410   0.267   9.168   9.846
   12        0.407   0.268   9.164   9.839
   13        0.410   0.267   9.168   9.846
   14        0.410   0.267   9.168   9.846
   15        0.403   0.269   9.165   9.837
   16        0.407   0.268   9.164   9.839
   17        0.403   0.269   9.165   9.837
   18        0.403   0.269   9.165   9.837
   19        0.402   0.266   9.166   9.834
   20        0.428   0.290   9.154   9.871
   21        0.428   0.290   9.154   9.871
   22        0.397   0.272   9.169   9.838
   23        0.428   0.290   9.154   9.871
   24        0.397   0.272   9.169   9.838
   25        0.402   0.266   9.166   9.834
   26        0.402   0.266   9.166   9.834
   27        0.397   0.272   9.169   9.838
   28        0.412   0.195   9.183   9.790
   29        0.410   0.212   9.174   9.796
   30        0.410   0.212   9.174   9.796
   31        0.410   0.212   9.174   9.796
   32        0.410   0.212   9.174   9.796
   33        0.410   0.212   9.174   9.796
   34        0.410   0.212   9.174   9.796
   35        0.404   0.198   9.184   9.786
   36        0.628   0.407   7.133   8.168
   37        0.522   0.024   0.000   0.545
tot         15.519   8.814 328.100 352.433

  FORCE on cell =-STRESS in cart. coord.  units (eV):
  Direction    XX          YY          ZZ          XY          YZ          ZX
  Alpha Z   754.50233   754.50233   754.50233
  Ewald  121360.94797121360.94797************     0.00001     0.00000    -0.00001
  Hartree131491.88317131491.88316************     0.00000    -0.00000    -0.00000
  E(xc)   -2073.15184 -2073.15182 -2078.85641    -0.00001     0.00000     0.00000
  Local  ************************264377.17411     0.00020    -0.00003    -0.00006
  n-local  -348.68203  -325.94924  -338.05755    12.35444    -0.55056     0.73778
  augment  3259.98819  3259.98834  3268.25274    -0.00013     0.00000     0.00003
  Kinetic  4890.93273  4898.43885  4917.03282     5.69489     0.72723    -0.17595
  Fock        0.00000     0.00000     0.00000     0.00000     0.00000     0.00000
  Total      -8.86323    -8.86323     1.06336    -0.00000     0.00000    -0.00000
  in kB      -9.56608    -9.56608     1.14769    -0.00000     0.00000    -0.00000

 VOLUME and BASIS-vectors are now :
  energy-cutoff  :      500.00
  volume of cell :     1484.46
      direct lattice vectors                 reciprocal lattice vectors
     8.791366577  0.000000000  0.000000000     0.113747958 -0.065672414  0.000000000
     4.395683289  7.613546790  0.000000000     0.000000000  0.131344829  0.000000000
     0.000000000  0.000000000 22.178121567     0.000000000  0.000000000  0.045089481

  length of vectors
     8.791366577  8.791366577 22.178121567     0.131344829  0.131344829  0.045089481

 FORCES acting on ions
    electron-ion (+dipol)            ewald-force                    non-local-force                 convergence-correction
   0.461E-04 -.282E-04 0.250E+04   -.954E-04 0.593E-04 -.250E+04   -.598E-18 0.350E-18 -.220E+01   -.126E-03 -.180E-03 -.567E-01
   0.434E+00 0.381E+00 0.250E+04   -.511E+00 -.451E+00 -.250E+04   0.798E-01 0.121E+00 -.155E+01   0.549E-02 -.336E-01 -.279E-01
   -.434E+00 0.381E+00 0.250E+04   0.511E+00 -.451E+00 -.250E+04   -.798E-01 0.121E+00 -.155E+01   -.602E-02 -.316E-01 -.271E-01
   0.547E+00 0.185E+00 0.250E+04   -.646E+00 -.217E+00 -.250E+04   0.145E+00 0.842E-02 -.155E+01   -.262E-01 0.218E-01 -.278E-01
   -.805E-05 -.202E-04 0.250E+04   0.981E-04 -.197E-05 -.250E+04   -.177E-17 0.252E-17 -.124E+01   0.630E-02 0.385E-02 0.272E-01
   -.547E+00 0.185E+00 0.250E+04   0.646E+00 -.217E+00 -.250E+04   -.145E+00 0.842E-02 -.155E+01   0.247E-01 0.227E-01 -.269E-01
   0.113E+00 -.566E+00 0.250E+04   -.135E+00 0.668E+00 -.250E+04   0.653E-01 -.130E+00 -.155E+01   -.300E-01 0.111E-01 -.271E-01
   -.113E+00 -.566E+00 0.250E+04   0.135E+00 0.668E+00 -.250E+04   -.653E-01 -.130E+00 -.155E+01   0.316E-01 0.101E-01 -.269E-01
   0.363E-04 -.130E-04 0.250E+04   0.792E-04 -.643E-04 -.250E+04   -.902E-17 -.288E-17 -.204E+01   -.670E-02 -.346E-02 -.141E+00
   0.625E+01 0.361E+01 0.833E+03   -.586E+01 -.338E+01 -.832E+03   -.377E+00 -.217E+00 -.779E+00   -.319E-01 -.184E-01 0.940E-01
   -.286E-04 0.445E+01 0.839E+03   0.410E-04 -.451E+01 -.839E+03   0.100E-11 0.152E+00 -.297E+00   0.644E-02 -.121E+00 0.925E-01
   -.625E+01 0.361E+01 0.833E+03   0.586E+01 -.338E+01 -.832E+03   0.377E+00 -.217E+00 -.779E+00   0.301E-01 -.169E-01 0.946E-01
   0.385E+01 -.223E+01 0.839E+03   -.391E+01 0.225E+01 -.839E+03   0.132E+00 -.762E-01 -.297E+00   -.102E+00 0.663E-01 0.924E-01
   -.385E+01 -.223E+01 0.839E+03   0.391E+01 0.225E+01 -.839E+03   -.132E+00 -.762E-01 -.297E+00   0.113E+00 0.656E-01 0.926E-01
   0.162E-04 0.158E+01 0.834E+03   -.108E-03 -.174E+01 -.833E+03   0.518E-12 0.788E-01 -.796E+00   -.196E-02 0.424E-01 0.523E-01
   -.806E-05 -.722E+01 0.833E+03   0.205E-04 0.677E+01 -.832E+03   0.286E-11 0.435E+00 -.779E+00   0.385E-03 0.345E-01 0.946E-01
   0.137E+01 -.791E+00 0.834E+03   -.150E+01 0.868E+00 -.833E+03   0.683E-01 -.394E-01 -.796E+00   0.357E-01 -.229E-01 0.523E-01
   -.137E+01 -.791E+00 0.834E+03   0.150E+01 0.868E+00 -.833E+03   -.683E-01 -.394E-01 -.796E+00   -.358E-01 -.207E-01 0.528E-01
   0.408E-04 0.294E+01 -.868E+03   -.128E-03 -.291E+01 0.867E+03   0.794E-13 0.121E-01 0.616E+00   -.638E-02 -.481E-01 0.292E-01
   0.906E+01 0.523E+01 -.833E+03   -.772E+01 -.446E+01 0.834E+03   -.126E+01 -.728E+00 -.111E+01   -.111E+00 -.643E-01 -.552E-01
   -.906E+01 0.523E+01 -.833E+03   0.772E+01 -.446E+01 0.834E+03   0.126E+01 -.728E+00 -.111E+01   0.113E+00 -.631E-01 -.555E-01
   0.464E+00 -.268E+00 -.856E+03   -.710E+00 0.410E+00 0.855E+03   0.308E+00 -.178E+00 0.472E+00   -.446E-01 0.207E-01 -.386E-01
   -.545E-04 -.105E+02 -.833E+03   0.428E-04 0.891E+01 0.834E+03   0.956E-11 0.146E+01 -.111E+01   0.217E-02 0.130E+00 -.554E-01
   -.464E+00 -.268E+00 -.856E+03   0.710E+00 0.410E+00 0.855E+03   -.308E+00 -.178E+00 0.472E+00   0.340E-01 0.197E-01 -.385E-01
   -.254E+01 -.147E+01 -.868E+03   0.252E+01 0.145E+01 0.867E+03   -.105E-01 -.605E-02 0.616E+00   0.358E-01 0.205E-01 0.289E-01
   0.254E+01 -.147E+01 -.868E+03   -.252E+01 0.145E+01 0.867E+03   0.105E-01 -.605E-02 0.616E+00   -.451E-01 0.184E-01 0.293E-01
   0.199E-04 0.536E+00 -.856E+03   0.110E-03 -.820E+00 0.855E+03   0.234E-11 0.356E+00 0.472E+00   -.504E-02 -.490E-01 -.385E-01
   0.541E-04 -.368E-04 -.251E+04   -.115E-03 0.776E-04 0.251E+04   0.525E-17 -.366E-17 0.219E+01   -.239E-04 -.149E-03 0.322E-01
   0.753E+01 0.144E+02 -.252E+04   -.683E+01 -.134E+02 0.252E+04   -.634E+00 -.875E+00 0.177E+01   -.684E-01 -.831E-01 -.403E-01
   -.753E+01 0.144E+02 -.252E+04   0.683E+01 -.134E+02 0.252E+04   0.634E+00 -.875E+00 0.177E+01   0.682E-01 -.813E-01 -.405E-01
   0.162E+02 -.665E+00 -.252E+04   -.151E+02 0.803E+00 0.252E+04   -.107E+01 -.112E+00 0.177E+01   -.106E+00 -.176E-01 -.403E-01
   -.162E+02 -.665E+00 -.252E+04   0.151E+02 0.803E+00 0.252E+04   0.107E+01 -.112E+00 0.177E+01   0.105E+00 -.168E-01 -.413E-01
   0.869E+01 -.137E+02 -.252E+04   -.822E+01 0.126E+02 0.252E+04   -.441E+00 0.987E+00 0.177E+01   -.359E-01 0.100E+00 -.406E-01
   -.869E+01 -.137E+02 -.252E+04   0.822E+01 0.126E+02 0.252E+04   0.441E+00 0.987E+00 0.177E+01   0.375E-01 0.993E-01 -.414E-01
   0.239E-04 -.128E-04 -.251E+04   0.105E-03 -.655E-04 0.251E+04   0.153E-18 -.294E-18 0.226E+01   -.668E-02 -.343E-02 0.801E-01
   -.199E-04 -.166E-04 -.194E+04   0.867E-04 0.108E-04 0.194E+04   0.142E-18 0.131E-17 -.376E+01   0.239E-02 0.144E-02 -.942E-01
   0.567E-05 -.445E-05 -.292E+03   0.537E-05 0.898E-07 0.295E+03   0.311E-19 0.101E-18 -.279E+01   0.127E-03 0.772E-04 0.168E-01
   0.330E-03 -.715E-03 0.121E+02   0.423E-13 0.171E-12 -.625E-12   0.555E-15 0.223E-15 -.120E+02   -.182E-01 -.726E-02 -.199E-01

 POSITION                                       TOTAL-FORCE (eV/Angst)
      0.00000      0.00000      5.28219         0.000000     -0.000000     -0.013004
      2.93046      0.00000      5.28219         0.008863      0.018525      0.031390
      5.86091      0.00000      5.28219        -0.008863      0.018525      0.031390
      1.46523      2.53785      5.28219         0.020475     -0.001587      0.031390
      4.39568      2.53785      5.28219         0.000000      0.000000     -0.000566
      7.32614      2.53785      5.28219        -0.020475     -0.001587      0.031390
      2.93046      5.07570      5.28219         0.011612     -0.016938      0.031390
      5.86091      5.07570      5.28219        -0.011612     -0.016938      0.031390
      8.79137      5.07570      5.28219         0.000000      0.000000      0.017470
      1.46523      0.84595      7.67490        -0.015153     -0.008749     -0.006835
      4.39568      0.84595      7.67490        -0.000000     -0.030644     -0.061694
      7.32614      0.84595      7.67490         0.015153     -0.008749     -0.006835
      2.93046      3.38380      7.67490        -0.026539      0.015322     -0.061694
      5.86091      3.38380      7.67490         0.026539      0.015322     -0.061694
      8.79137      3.38380      7.67490        -0.000000     -0.033614     -0.017044
      4.39568      5.92165      7.67490         0.000000      0.017497     -0.006835
      7.32614      5.92165      7.67490        -0.029110      0.016807     -0.017044
     10.25659      5.92165      7.67490         0.029110      0.016807     -0.017044
      8.79137      1.70006     10.06849        -0.000000     -0.004890      0.009353
      2.92657      1.68966     10.02287        -0.035239     -0.020345     -0.151809
      5.86479      1.68966     10.02287         0.035239     -0.020345     -0.151809
     10.25237      4.23218     10.05185         0.022667     -0.013087     -0.008820
      4.39568      4.23423     10.02287         0.000000      0.040691     -0.151809
      7.33036      4.23218     10.05185        -0.022667     -0.013087     -0.008820
     11.71475      6.76352     10.06849         0.004235      0.002445      0.009353
      5.86798      6.76352     10.06849        -0.004235      0.002445      0.009353
      8.79137      6.76272     10.05185         0.000000      0.026173     -0.008820
      0.00000      0.00000     12.42216         0.000000     -0.000000      0.006492
      2.95716      0.04978     12.43839         0.002361     -0.012603      0.029580
      5.83420      0.04978     12.43839        -0.002361     -0.012603      0.029580
      1.52169      2.53609     12.43839        -0.009734      0.008346      0.029580
      7.26967      2.53609     12.43839         0.009734      0.008346      0.029580
      2.96021      5.02768     12.43839        -0.012095      0.004257      0.029580
      5.83115      5.02768     12.43839         0.012095      0.004257      0.029580
      8.79137      5.07570     12.41166         0.000000      0.000000      0.009868
      4.39568      2.53785     12.21369         0.000000     -0.000000      0.312577
      4.39568      2.53785     13.80617         0.000000     -0.000000      0.011886
    total drift:                               -0.017828     -0.007975      0.088905

  FREE ENERGIE OF THE ION-ELECTRON SYSTEM (eV)
  free  energy   TOTEN  =      -100.10630850 eV

  energy  without entropy=     -100.10630850  energy(sigma->0) =     -100.10630850

 stress matrix after NEB project (eV)
     -8.86323     -0.00000     -0.00000
     -0.00000     -8.86323     -0.00000
      0.00000      0.00000      1.06336
  FORCES: max atom, RMS     0.011886    0.001954
  FORCE total and by dimension    0.011886    0.011886
  Stress total and by dimension   12.579518    8.863226
|           W    W    AA    RRRRR   N    N  II  N    N   GGGG   !!!           |
|           W    W   A  A   R    R  NN   N  II  NN   N  G    G  !!!           |
|           W    W  A    A  R    R  N N  N  II  N N  N  G       !!!           |
|           W WW W  AAAAAA  RRRRR   N  N N  II  N  N N  G  GGG   !            |
|           WW  WW  A    A  R   R   N   NN  II  N   NN  G    G                |
|           W    W  A    A  R    R  N    N  II  N    N   GGGG   !!!           |
|     Tetrahedron method does not include variations of the Fermi             |
|     occupations, so forces and stress will be inaccurate. We suggest        |
|     using a different smearing scheme ISMEAR = 1 or 2 for metals in         |
|     relaxations.                                                            |

 total charge

# of ion       s       p       d       tot
    1        0.417   0.201   9.179   9.796
    2        0.417   0.202   9.178   9.797
    3        0.417   0.202   9.178   9.797
    4        0.417   0.202   9.178   9.797
    5        0.420   0.203   9.175   9.798
    6        0.417   0.202   9.178   9.797
    7        0.417   0.202   9.178   9.797
    8        0.417   0.202   9.178   9.797
    9        0.413   0.202   9.180   9.794
   10        0.407   0.268   9.164   9.839
   11        0.410   0.267   9.168   9.846
   12        0.407   0.268   9.164   9.839
   13        0.410   0.267   9.168   9.846
   14        0.410   0.267   9.168   9.846
   15        0.403   0.269   9.165   9.837
   16        0.407   0.268   9.164   9.839
   17        0.403   0.269   9.165   9.837
   18        0.403   0.269   9.165   9.837
   19        0.402   0.266   9.166   9.834
   20        0.428   0.290   9.154   9.871
   21        0.428   0.290   9.154   9.871
   22        0.397   0.272   9.169   9.838
   23        0.428   0.290   9.154   9.871
   24        0.397   0.272   9.169   9.838
   25        0.402   0.266   9.166   9.834
   26        0.402   0.266   9.166   9.834
   27        0.397   0.272   9.169   9.838
   28        0.412   0.195   9.183   9.790
   29        0.410   0.212   9.174   9.796
   30        0.410   0.212   9.174   9.796
   31        0.410   0.212   9.174   9.796
   32        0.410   0.212   9.174   9.796
   33        0.410   0.212   9.174   9.796
   34        0.410   0.212   9.174   9.796
   35        0.404   0.198   9.184   9.786
   36        0.628   0.407   7.133   8.168
   37        0.522   0.024   0.000   0.545
tot         15.519   8.814 328.100 352.433

 BZINTS: Fermi energy:    0.744845;  395.000000 electrons
         Band energy:-0.127805E+04;  BLOECHL correction:   -0.053297