 vasp.6.2.0 18Jan21 (build Jun 12 2021 23:27:24) complex

 executed on             LinuxIFC date 2022.05.26  19:39:10

 INCAR:
   ISMEAR = -5
   SIGMA = 0.1
   ISPIN = 1
   EDIFF = 1.d-5
   EDIFFG = -0.01
   NSW = 0
   NELM = 150
   ENCUT = 500
   ISIF = 2
   IBRION = 2
   LREAL = Auto
   ALGO = Fast
   ICHARG = 11
   LORBIT = 10
   LCHARG = .F.
   LWAVE = .F.

 POTCAR:    PAW_PBE Ag 02Apr2005
 POTCAR:    PAW_PBE Cr 06Sep2000
 POTCAR:    PAW_PBE N 08Apr2002
|           W    W    AA    RRRRR   N    N  II  N    N   GGGG   !!!           |
|           W    W   A  A   R    R  NN   N  II  NN   N  G    G  !!!           |
|           W    W  A    A  R    R  N N  N  II  N N  N  G       !!!           |
|           W WW W  AAAAAA  RRRRR   N  N N  II  N  N N  G  GGG   !            |
|           WW  WW  A    A  R   R   N   NN  II  N   NN  G    G                |
|           W    W  A    A  R    R  N    N  II  N    N   GGGG   !!!           |
|     For optimal performance we recommend to set                             |
|       NCORE = 2 up to number-of-cores-per-socket                            |
|     This setting can greatly improve the performance of VASP for DFT.       |
|     The default, NCORE=1 might be grossly inefficient on modern             |
|     multi-core architectures or massively parallel machines. Do your        |
|     Unfortunately you need to use the default for GW and RPA                |
|     calculations (for HF NCORE is supported but not extensively tested      |
|     yet).                                                                   |

 POTCAR:    PAW_PBE Ag 02Apr2005
   VRHFIN =Ag : s1 d10

   TITEL  = PAW_PBE Ag 02Apr2005
   POMASS =  107.868; ZVAL   =   11.000    mass and valenz
   ENMAX  =  249.844; ENMIN  =  187.383 eV

 POTCAR:    PAW_PBE Cr 06Sep2000
   VRHFIN =Cr : d5 s1

   TITEL  = PAW_PBE Cr 06Sep2000
   POMASS =   51.996; ZVAL   =    6.000    mass and valenz
   ENMAX  =  227.080; ENMIN  =  170.310 eV

 POTCAR:    PAW_PBE N 08Apr2002
   VRHFIN =N: s2p3

   TITEL  = PAW_PBE N 08Apr2002
   POMASS =   14.001; ZVAL   =    5.000    mass and valenz
   ENMAX  =  400.000; ENMIN  =  300.000 eV

 Optimization of the real space projectors (new method)

 maximal supplied QI-value         = 15.12
 optimisation between [QCUT,QGAM] = [ 11.34, 22.83] = [ 36.00,145.93] Ry
 Optimized for a Real-space Cutoff    1.43 Angstroem

   l    n(q)    QCUT    max X(q) W(low)/X(q) W(high)/X(q)  e(spline)
   2      9    11.338    53.897    0.16E-03    0.20E-03    0.28E-06
   2      9    11.338    52.416    0.16E-03    0.20E-03    0.29E-06
   0     10    11.338   122.045    0.31E-04    0.76E-04    0.15E-06
   0     10    11.338    73.629    0.30E-04    0.72E-04    0.15E-06
   1      9    11.338    15.255    0.20E-03    0.19E-04    0.17E-06
   1      9    11.338     9.562    0.16E-03    0.15E-04    0.14E-06
 Optimization of the real space projectors (new method)

[...]

   l    n(q)    QCUT    max X(q) W(low)/X(q) W(high)/X(q)  e(spline)
   2      9    11.338    94.395    0.18E-03    0.10E-02    0.64E-06
   2      9    11.338    88.078    0.18E-03    0.10E-02    0.65E-06
   0     10    11.338    50.173    0.13E-03    0.16E-03    0.96E-07
   0     10    11.338    24.906    0.12E-03    0.14E-03    0.88E-07
   1      9    11.338    12.133    0.13E-03    0.15E-03    0.24E-06
   1      9    11.338     7.290    0.10E-03    0.10E-03    0.18E-06
 Optimization of the real space projectors (new method)

 maximal supplied QI-value         = 25.13
 optimisation between [QCUT,QGAM] = [ 11.31, 22.87] = [ 35.82,146.48] Ry
 Optimized for a Real-space Cutoff    1.27 Angstroem

   l    n(q)    QCUT    max X(q) W(low)/X(q) W(high)/X(q)  e(spline)
   0      9    11.310    79.467    0.75E-04    0.16E-03    0.36E-06
   0      9    11.310    66.151    0.74E-04    0.16E-03    0.36E-06
   1      8    11.310    17.416    0.35E-03    0.12E-03    0.95E-06
   1      8    11.310    12.382    0.37E-03    0.13E-03    0.98E-06
  PAW_PBE Ag 02Apr2005                  :
  PAW_PBE Cr 06Sep2000                  :
  PAW_PBE N 08Apr2002                   :

 POSCAR: Ag-Cr-N
  positions in direct lattice
  velocities in cartesian coordinates
 exchange correlation table for  LEXCH =        8
   RHO(1)=    0.500       N(1)  =     2000
   RHO(2)=  100.500       N(2)  =     4000

 VTST: version 3.2, (02/03/18)

 CHAIN: initializing optimizer

 OPT: Using VASP Conjugate-Gradient optimizer
 CHAIN: Read ICHAIN            0

 POSCAR: Ag-Cr-N
  positions in direct lattice
  velocities in cartesian coordinates

 ion  position               nearest neighbor table
   1  0.000  0.000  0.238-   2 2.93   8 2.93   7 2.93   6 2.93   4 2.93  12 2.93  16 2.93  10 2.93
                             3 2.93
   2  0.333  0.000  0.238-   1 2.93   8 2.93   9 2.93   3 2.93   4 2.93   5 2.93  10 2.93  17 2.93
                            11 2.93
   3  0.667  0.000  0.238-   9 2.93   2 2.93   5 2.93  11 2.93   7 2.93  18 2.93   1 2.93   6 2.93
                            12 2.93
   4  0.000  0.333  0.238-   5 2.93   6 2.93   2 2.93   1 2.93   7 2.93  13 2.93  15 2.93   9 2.93
                            10 2.93
   5  0.333  0.333  0.238-   4 2.93   3 2.93   7 2.93   2 2.93   8 2.93  14 2.93  13 2.93  11 2.93
                             6 2.93
   6  0.667  0.333  0.238-   4 2.93   9 2.93   1 2.93  15 2.93   8 2.93  12 2.93   3 2.93   5 2.93
                            14 2.93
   7  0.000  0.667  0.238-   8 2.93   1 2.93   5 2.93   3 2.93   4 2.93  16 2.93  18 2.93  13 2.93
                             9 2.93
   8  0.333  0.667  0.238-   7 2.93   1 2.93   2 2.93   9 2.93   5 2.93  16 2.93   6 2.93  17 2.93
                            14 2.93
   9  0.667  0.667  0.238-   3 2.93   2 2.93   8 2.93   6 2.93  17 2.93   4 2.93  15 2.93   7 2.93
                            18 2.93
  10  0.111  0.111  0.346-  20 2.91  19 2.92  26 2.92  12 2.93  16 2.93  15 2.93  17 2.93  13 2.93
                            11 2.93   2 2.93   1 2.93   4 2.93
  11  0.444  0.111  0.346-  21 2.90  20 2.90  27 2.92  14 2.93  17 2.93  18 2.93   3 2.93  12 2.93
                            13 2.93  10 2.93   5 2.93   2 2.93
  12  0.778  0.111  0.346-  21 2.91  25 2.92  19 2.92  10 2.93  16 2.93  18 2.93  15 2.93  11 2.93
                             1 2.93  14 2.93   6 2.93   3 2.93
  13  0.111  0.444  0.346-  20 2.90  23 2.90  22 2.92  15 2.93  14 2.93  18 2.93  10 2.93  11 2.93
                            16 2.93   4 2.93   5 2.93   7 2.93
  14  0.444  0.444  0.346-  23 2.90  21 2.90  24 2.92  13 2.93  11 2.93  16 2.93   5 2.93  12 2.93
                            17 2.93   8 2.93  15 2.93   6 2.93
  15  0.778  0.444  0.346-  24 2.92  22 2.92  19 2.92  13 2.93  10 2.93  12 2.93  17 2.93  18 2.93
                             4 2.93   6 2.93   9 2.93  14 2.93
  16  0.111  0.778  0.346-  23 2.91  26 2.92  25 2.92  18 2.93  12 2.93  10 2.93  14 2.93  17 2.93
                            13 2.93   7 2.93   8 2.93   1 2.93
  17  0.444  0.778  0.346-  27 2.92  24 2.92  26 2.92  11 2.93  10 2.93   9 2.93  18 2.93  15 2.93
                            16 2.93   2 2.93  14 2.93   8 2.93
  18  0.778  0.778  0.346-  22 2.92  27 2.92  25 2.92  16 2.93  12 2.93  13 2.93  11 2.93  17 2.93
                            15 2.93   7 2.93   3 2.93   9 2.93
  19  0.889  0.222  0.454-  28 2.91  15 2.92  10 2.92  12 2.92  24 2.93  22 2.93  26 2.93  25 2.93
                            20 2.94  21 2.94  32 2.96  31 2.96
  20  0.223  0.223  0.453-  36 2.73  13 2.90  11 2.90  21 2.91  23 2.91  10 2.91  31 2.91  29 2.91
                            27 2.93  22 2.93  19 2.94  26 2.94
  21  0.554  0.223  0.453-  36 2.73  11 2.90  14 2.90  20 2.91  23 2.91  12 2.91  30 2.91  32 2.91
                            27 2.93  24 2.93  25 2.94  19 2.94
  22  0.888  0.556  0.453-  35 2.91  18 2.92  15 2.92  13 2.92  24 2.92  27 2.92  25 2.93  19 2.93
                            33 2.93  31 2.93  23 2.93  20 2.93
  23  0.223  0.554  0.453-  36 2.73  14 2.90  13 2.90  21 2.91  20 2.91  16 2.91  34 2.91  33 2.91
                            22 2.93  24 2.93  26 2.94  25 2.94
  24  0.556  0.556  0.453-  35 2.91  15 2.92  17 2.92  14 2.92  27 2.92  22 2.92  19 2.93  26 2.93
                            32 2.93  34 2.93  23 2.93  21 2.93
  25  0.889  0.889  0.454-  28 2.91  18 2.92  16 2.92  12 2.92  22 2.93  27 2.93  26 2.93  19 2.93
                            23 2.94  21 2.94  33 2.96  30 2.96
  26  0.222  0.889  0.454-  28 2.91  17 2.92  16 2.92  10 2.92  27 2.93  24 2.93  25 2.93  19 2.93
                            23 2.94  20 2.94  34 2.96  29 2.96
  27  0.556  0.888  0.453-  35 2.91  17 2.92  18 2.92  11 2.92  24 2.92  22 2.92  26 2.93  25 2.93
                            29 2.93  30 2.93  20 2.93  21 2.93
  28  0.000  0.000  0.560-  26 2.91  25 2.91  19 2.91  29 2.96  34 2.96  33 2.96  32 2.96  31 2.96
                            30 2.96
  29  0.333  0.007  0.561-  30 2.87  31 2.87  36 2.88  20 2.91  27 2.93  26 2.96  35 2.96  28 2.96
                            34 3.06
  30  0.659  0.007  0.561-  29 2.87  32 2.87  36 2.88  21 2.91  27 2.93  25 2.96  35 2.96  28 2.96
                            33 3.06
  31  0.007  0.333  0.561-  33 2.87  29 2.87  36 2.88  20 2.91  22 2.93  19 2.96  35 2.96  28 2.96
                            32 3.06
  32  0.659  0.333  0.561-  34 2.87  30 2.87  36 2.88  21 2.91  24 2.93  19 2.96  35 2.96  28 2.96
                            31 3.06
  33  0.007  0.659  0.561-  31 2.87  34 2.87  36 2.88  23 2.91  22 2.93  25 2.96  35 2.96  28 2.96
                            30 3.06
  34  0.333  0.659  0.561-  32 2.87  33 2.87  36 2.88  23 2.91  24 2.93  26 2.96  35 2.96  28 2.96
                            29 3.06
  35  0.667  0.667  0.560-  24 2.91  27 2.91  22 2.91  30 2.96  32 2.96  29 2.96  34 2.96  31 2.96
                            33 2.96
  36  0.333  0.333  0.550-  37 1.59  21 2.73  20 2.73  23 2.73  31 2.88  33 2.88  30 2.88  29 2.88
                            34 2.88  32 2.88
  37  0.333  0.333  0.621-  36 1.59

  LATTYP: Found a hexagonal cell.
 ALAT       =     8.7913665772
 C/A-ratio  =     2.5227160501

  Lattice vectors:

 A1 = (  -4.3956832886,  -7.6135467898,   0.0000000000)
 A2 = (   8.7913665771,   0.0000000000,   0.0000000000)
 A3 = (   0.0000000000,   0.0000000000,  22.1781215668)

Analysis of symmetry for initial positions (statically):
 Subroutine PRICEL returns:
 Original cell was already a primitive cell.

 Routine SETGRP: Setting up the symmetry group for a
 hexagonal supercell.

 Subroutine GETGRP returns: Found  6 space group operations
 (whereof  6 operations were pure point group operations)
 out of a pool of 24 trial point group operations.

The static configuration has the point symmetry C_3v.

Analysis of symmetry for dynamics (positions and initial velocities):
 Subroutine PRICEL returns:
 Original cell was already a primitive cell.

[...]

The dynamic configuration has the point symmetry C_3v.

Analysis of constrained symmetry for selective dynamics:
 Subroutine PRICEL returns:
 Original cell was already a primitive cell.

 Routine SETGRP: Setting up the symmetry group for a
 hexagonal supercell.

 Subroutine GETGRP returns: Found  6 space group operations
[...]
     24      -4.6923      2.00000
     25      -4.6772      2.00000
     26      -4.6578      2.00000
     27      -4.6377      2.00000
     28      -4.6236      2.00000
     29      -4.6193      2.00000
     30      -4.5943      2.00000
     31      -4.5916      2.00000
     32      -4.5817      2.00000
     33      -4.5503      2.00000
     34      -4.5090      2.00000
     35      -4.4834      2.00000
     36      -4.4586      2.00000
     37      -4.4452      2.00000
     38      -4.4249      2.00000
     39      -4.3962      2.00000
     40      -4.3890      2.00000
     41      -4.3785      2.00000
     42      -4.3652      2.00000
     43      -4.3535      2.00000
     44      -4.2801      2.00000
     45      -4.2456      2.00000
     46      -4.2401      2.00000
     47      -4.2274      2.00000
     48      -4.2257      2.00000
     49      -4.2187      2.00000
     50      -4.2017      2.00000
     51      -4.1973      2.00000
     52      -4.1856      2.00000
     53      -4.1807      2.00000
     54      -4.1190      2.00000
     55      -4.1081      2.00000
     56      -4.0996      2.00000
     57      -4.0892      2.00000
     58      -4.0747      2.00000
     59      -4.0571      2.00000
     60      -4.0320      2.00000
[...]
    238       6.2632      0.00000
    239       6.3203      0.00000
    240       6.4159      0.00000
    241       7.0859      0.00000
    242       7.1701      0.00000
    243       7.2369      0.00000
    244       7.2845      0.00000
    245       7.3081      0.00000
    246       7.3428      0.00000
    247       7.4079      0.00000
    248       7.5016      0.00000
    249       7.5735      0.00000
    250       7.6089      0.00000
    251       7.6193      0.00000
    252       7.7640      0.00000

 soft charge-density along one line, spin component           1
         0         1         2         3         4         5         6         7         8         9
 total charge-density along one line

------------------------ aborting loop because EDIFF is reached ----------------------------------------

 total charge

# of ion       s       p       d       tot
    1        0.418   0.203   9.177   9.798
    2        0.417   0.204   9.176   9.797
    3        0.417   0.204   9.176   9.797
    4        0.417   0.204   9.176   9.797
    5        0.417   0.202   9.178   9.797
    6        0.417   0.204   9.176   9.797
    7        0.417   0.204   9.176   9.797
    8        0.417   0.204   9.176   9.797
    9        0.413   0.204   9.177   9.795
   10        0.406   0.269   9.165   9.840
   11        0.404   0.272   9.165   9.841
   12        0.406   0.269   9.165   9.840
   13        0.404   0.272   9.165   9.841
   14        0.404   0.272   9.165   9.841
   15        0.403   0.271   9.164   9.838
   16        0.406   0.269   9.165   9.840
   17        0.403   0.271   9.164   9.838
   18        0.403   0.271   9.164   9.838
   19        0.402   0.263   9.168   9.834
   20        0.427   0.295   9.146   9.868
   21        0.427   0.295   9.146   9.868
   22        0.396   0.277   9.163   9.836
   23        0.427   0.295   9.146   9.868
   24        0.396   0.277   9.163   9.836
   25        0.402   0.263   9.168   9.834
   26        0.402   0.263   9.168   9.834
   27        0.396   0.277   9.163   9.836
   28        0.419   0.194   9.176   9.790
   29        0.415   0.206   9.176   9.796
   30        0.415   0.206   9.176   9.796
   31        0.415   0.206   9.176   9.796
   32        0.415   0.206   9.176   9.796
   33        0.415   0.206   9.176   9.796
   34        0.415   0.206   9.176   9.796
   35        0.416   0.198   9.176   9.789
   36        0.501   0.591   4.717   5.809
   37        1.349   2.206   0.000   3.555
tot         16.234  11.198 325.628 353.060

  FORCE on cell =-STRESS in cart. coord.  units (eV):
  Direction    XX          YY          ZZ          XY          YZ          ZX
  Alpha Z   746.08990   746.08990   746.08990
  Ewald  120108.88627120108.88626************     0.00002    -0.00001     0.00002
  Hartree130272.49490130272.49490************     0.00001    -0.00000     0.00001
  E(xc)   -2075.64678 -2075.64676 -2082.18058    -0.00002     0.00000     0.00000
  Local  ************************261662.50351     0.00041    -0.00005    -0.00014
  n-local  -346.38992  -329.48068  -341.69149     9.92235    -0.46726     0.56622
  augment  3248.93799  3248.93816  3256.34973    -0.00015    -0.00000     0.00003
  Kinetic  4911.41105  4913.92299  4928.54333     3.62934     0.85182    -0.31469
  Fock        0.00000     0.00000     0.00000     0.00000     0.00000     0.00000
  Total      -7.84290    -7.84290    -0.40118    -0.00000    -0.00000    -0.00000
  in kB      -8.46485    -8.46485    -0.43299    -0.00000    -0.00000    -0.00000

 VOLUME and BASIS-vectors are now :
  energy-cutoff  :      500.00
  volume of cell :     1484.46
      direct lattice vectors                 reciprocal lattice vectors
     8.791366577  0.000000000  0.000000000     0.113747958 -0.065672414  0.000000000
     4.395683289  7.613546790  0.000000000     0.000000000  0.131344829  0.000000000
     0.000000000  0.000000000 22.178121567     0.000000000  0.000000000  0.045089481

  length of vectors
     8.791366577  8.791366577 22.178121567     0.131344829  0.131344829  0.045089481

 FORCES acting on ions
    electron-ion (+dipol)            ewald-force                    non-local-force                 convergence-correction
   0.459E-04 -.282E-04 0.250E+04   -.954E-04 0.593E-04 -.250E+04   -.533E-17 -.924E-18 -.179E+01   -.120E-03 -.176E-03 -.141E+00
   0.160E+00 0.244E+00 0.250E+04   -.242E+00 -.217E+00 -.250E+04   0.506E-02 0.124E-01 -.167E+01   0.740E-01 -.357E-01 -.127E+00
   -.160E+00 0.244E+00 0.250E+04   0.242E+00 -.217E+00 -.250E+04   -.506E-02 0.124E-01 -.167E+01   -.746E-01 -.339E-01 -.126E+00
   0.291E+00 0.166E-01 0.250E+04   -.309E+00 -.101E+00 -.250E+04   0.133E-01 -.184E-02 -.167E+01   0.631E-02 0.821E-01 -.127E+00
   -.618E-05 -.189E-04 0.250E+04   0.981E-04 -.200E-05 -.250E+04   -.766E-18 -.111E-17 -.169E+01   0.616E-02 0.377E-02 -.655E-02
   -.291E+00 0.167E-01 0.250E+04   0.309E+00 -.101E+00 -.250E+04   -.133E-01 -.184E-02 -.167E+01   -.763E-02 0.830E-01 -.126E+00
   0.131E+00 -.261E+00 0.250E+04   -.675E-01 0.318E+00 -.250E+04   0.824E-02 -.106E-01 -.167E+01   -.662E-01 -.471E-01 -.126E+00
   -.131E+00 -.261E+00 0.250E+04   0.675E-01 0.318E+00 -.250E+04   -.824E-02 -.106E-01 -.167E+01   0.677E-01 -.481E-01 -.126E+00
   0.362E-04 -.132E-04 0.250E+04   0.792E-04 -.642E-04 -.250E+04   -.237E-17 -.163E-17 -.177E+01   -.657E-02 -.338E-02 -.236E+00
   0.217E+01 0.125E+01 0.833E+03   -.210E+01 -.122E+01 -.833E+03   -.183E+00 -.106E+00 -.558E+00   0.106E+00 0.613E-01 0.173E+00
   -.289E-04 0.243E+01 0.837E+03   0.412E-04 -.269E+01 -.836E+03   0.824E-12 0.126E+00 -.663E+00   0.638E-02 0.104E+00 0.695E-01
   -.217E+01 0.125E+01 0.833E+03   0.210E+01 -.122E+01 -.833E+03   0.183E+00 -.106E+00 -.558E+00   -.108E+00 0.617E-01 0.173E+00
   0.210E+01 -.121E+01 0.837E+03   -.233E+01 0.135E+01 -.836E+03   0.109E+00 -.628E-01 -.663E+00   0.932E-01 -.465E-01 0.695E-01
   -.210E+01 -.121E+01 0.837E+03   0.233E+01 0.135E+01 -.836E+03   -.109E+00 -.628E-01 -.663E+00   -.832E-01 -.478E-01 0.671E-01
   0.156E-04 0.842E+00 0.834E+03   -.108E-03 -.907E+00 -.833E+03   0.294E-12 0.447E-01 -.592E+00   -.116E-02 0.624E-02 0.154E+00
   -.811E-05 -.251E+01 0.833E+03   0.207E-04 0.243E+01 -.833E+03   0.139E-11 0.211E+00 -.558E+00   -.454E-03 -.124E+00 0.173E+00
   0.729E+00 -.421E+00 0.834E+03   -.785E+00 0.453E+00 -.833E+03   0.388E-01 -.224E-01 -.592E+00   0.479E-02 -.414E-02 0.154E+00
   -.729E+00 -.421E+00 0.834E+03   0.785E+00 0.453E+00 -.833E+03   -.388E-01 -.224E-01 -.592E+00   -.428E-02 -.250E-02 0.155E+00
   0.397E-04 -.143E+01 -.854E+03   -.127E-03 0.132E+01 0.853E+03   0.460E-12 0.700E-01 0.859E+00   0.947E-03 0.331E-01 0.317E+00
   -.245E+00 -.141E+00 -.844E+03   0.723E+00 0.417E+00 0.844E+03   -.665E+00 -.384E+00 -.349E+00   0.404E-02 0.237E-02 0.171E+00
   0.245E+00 -.141E+00 -.844E+03   -.723E+00 0.417E+00 0.844E+03   0.665E+00 -.384E+00 -.349E+00   -.151E-01 0.373E-03 0.170E+00
   -.117E+01 0.675E+00 -.847E+03   0.863E+00 -.498E+00 0.846E+03   0.292E+00 -.168E+00 0.666E+00   0.434E-01 -.176E-01 0.189E+00
   -.551E-04 0.283E+00 -.844E+03   0.407E-04 -.835E+00 0.844E+03   0.504E-11 0.768E+00 -.349E+00   -.689E-02 -.126E-01 0.170E+00
   0.117E+01 0.675E+00 -.847E+03   -.863E+00 -.499E+00 0.846E+03   -.292E+00 -.168E+00 0.666E+00   -.310E-01 -.178E-01 0.189E+00
   0.124E+01 0.716E+00 -.854E+03   -.114E+01 -.660E+00 0.853E+03   -.607E-01 -.350E-01 0.859E+00   -.302E-01 -.176E-01 0.316E+00
   -.124E+01 0.716E+00 -.854E+03   0.114E+01 -.660E+00 0.853E+03   0.607E-01 -.350E-01 0.859E+00   0.288E-01 -.159E-01 0.317E+00
   0.207E-04 -.135E+01 -.847E+03   0.110E-03 0.997E+00 0.846E+03   0.221E-11 0.337E+00 0.666E+00   0.576E-02 0.464E-01 0.189E+00
   0.539E-04 -.366E-04 -.248E+04   -.114E-03 0.773E-04 0.248E+04   -.253E-17 -.229E-17 0.184E+01   0.501E-04 -.106E-03 0.178E+00
   0.122E+02 0.184E+02 -.248E+04   -.116E+02 -.176E+02 0.247E+04   -.559E+00 -.785E+00 0.240E+01   -.165E+00 -.168E+00 0.153E+00
   -.122E+02 0.184E+02 -.248E+04   0.116E+02 -.176E+02 0.247E+04   0.559E+00 -.785E+00 0.240E+01   0.164E+00 -.167E+00 0.153E+00
   0.221E+02 0.138E+01 -.248E+04   -.210E+02 -.123E+01 0.247E+04   -.959E+00 -.922E-01 0.240E+01   -.227E+00 -.586E-01 0.153E+00
   -.221E+02 0.138E+01 -.248E+04   0.210E+02 -.123E+01 0.247E+04   0.959E+00 -.922E-01 0.240E+01   0.227E+00 -.580E-01 0.154E+00
   0.985E+01 -.198E+02 -.248E+04   -.945E+01 0.188E+02 0.247E+04   -.400E+00 0.877E+00 0.240E+01   -.622E-01 0.226E+00 0.153E+00
   -.985E+01 -.198E+02 -.248E+04   0.945E+01 0.188E+02 0.247E+04   0.400E+00 0.877E+00 0.240E+01   0.631E-01 0.226E+00 0.154E+00
   0.237E-04 -.131E-04 -.249E+04   0.105E-03 -.655E-04 0.248E+04   -.560E-17 -.137E-17 0.198E+01   -.603E-02 -.305E-02 0.278E+00
   -.150E-04 -.723E-05 -.115E+04   0.576E-04 0.774E-05 0.115E+04   -.890E-18 -.408E-18 0.164E+01   0.139E-02 0.857E-03 0.257E-01
   0.102E-03 -.569E-04 -.137E+04   0.277E-04 0.488E-06 0.139E+04   -.111E-18 -.338E-18 -.177E+02   0.157E-02 0.967E-03 0.827E-01
   0.456E-03 -.746E-03 0.115E+02   -.114E-12 -.389E-13 -.136E-11   -.660E-17 -.212E-17 -.150E+02   0.981E-02 0.894E-02 0.356E+01

 POSITION                                       TOTAL-FORCE (eV/Angst)
      0.00000      0.00000      5.28219         0.000000      0.000000      0.015411
      2.93046      0.00000      5.28219        -0.002155      0.004030      0.035721
      5.86091      0.00000      5.28219         0.002155      0.004030      0.035721
      1.46523      2.53785      5.28219         0.002413     -0.003882      0.035721
      4.39568      2.53785      5.28219         0.000000      0.000000     -0.005646
      7.32614      2.53785      5.28219        -0.002413     -0.003882      0.035721
      2.93046      5.07570      5.28219         0.004568     -0.000149      0.035721
      5.86091      5.07570      5.28219        -0.004568     -0.000149      0.035721
      8.79137      5.07570      5.28219         0.000000      0.000000      0.042393
      1.46523      0.84595      7.67490        -0.007274     -0.004200     -0.014957
      4.39568      0.84595      7.67490        -0.000000     -0.039913     -0.045289
      7.32614      0.84595      7.67490         0.007274     -0.004200     -0.014957
      2.93046      3.38380      7.67490        -0.034565      0.019956     -0.045289
      5.86091      3.38380      7.67490         0.034565      0.019956     -0.045289
      8.79137      3.38380      7.67490        -0.000000     -0.014377      0.016528
      4.39568      5.92165      7.67490         0.000000      0.008399     -0.014957
      7.32614      5.92165      7.67490        -0.012451      0.007189      0.016528
     10.25659      5.92165      7.67490         0.012451      0.007189      0.016528
      8.79137      1.69374     10.05841        -0.000000     -0.008483      0.015915
      2.93927      1.69699     10.03909        -0.177997     -0.102767     -0.109225
      5.85210      1.69699     10.03909         0.177997     -0.102767     -0.109225
     10.25385      4.23133     10.05420         0.023170     -0.013377      0.024028
      4.39568      4.21957     10.03909         0.000000      0.205534     -0.109225
      7.32888      4.23133     10.05420        -0.023170     -0.013377      0.024028
     11.72023      6.76668     10.05841         0.007346      0.004241      0.015915
      5.86251      6.76668     10.05841        -0.007346      0.004241      0.015915
      8.79137      6.76443     10.05420         0.000000      0.026755      0.024028
      0.00000      0.00000     12.42643         0.000000      0.000000     -0.013713
      2.96234      0.05459     12.44639        -0.067578     -0.109805     -0.102788
      5.82903      0.05459     12.44639         0.067578     -0.109805     -0.102788
      1.52844      2.53816     12.44639        -0.128883     -0.003622     -0.102788
      7.26292      2.53816     12.44639         0.128883     -0.003622     -0.102788
      2.96179      5.02079     12.44639        -0.061305      0.113427     -0.102788
      5.82958      5.02079     12.44639         0.061305      0.113427     -0.102788
      8.79137      5.07570     12.42906         0.000000      0.000000     -0.015136
      4.39568      2.53785     12.18689         0.000000      0.000000      0.734285
      4.39568      2.53785     13.77353         0.000000      0.000000     -0.016192
    total drift:                                0.010267      0.008191     -0.001321

  FREE ENERGIE OF THE ION-ELECTRON SYSTEM (eV)
  free  energy   TOTEN  =      -104.30796475 eV

  energy  without entropy=     -104.30796475  energy(sigma->0) =     -104.30796475

 stress matrix after NEB project (eV)
     -7.84290     -0.00000     -0.00000
     -0.00000     -7.84290      0.00000
      0.00000     -0.00000     -0.40118
  FORCES: max atom, RMS     0.016192    0.002662
  FORCE total and by dimension    0.016192    0.016192
  Stress total and by dimension   11.098790    7.842901
|           W    W    AA    RRRRR   N    N  II  N    N   GGGG   !!!           |
|           W    W   A  A   R    R  NN   N  II  NN   N  G    G  !!!           |
|           W    W  A    A  R    R  N N  N  II  N N  N  G       !!!           |
|           W WW W  AAAAAA  RRRRR   N  N N  II  N  N N  G  GGG   !            |
|           WW  WW  A    A  R   R   N   NN  II  N   NN  G    G                |
|           W    W  A    A  R    R  N    N  II  N    N   GGGG   !!!           |
|     Tetrahedron method does not include variations of the Fermi             |
|     occupations, so forces and stress will be inaccurate. We suggest        |
|     using a different smearing scheme ISMEAR = 1 or 2 for metals in         |
|     relaxations.                                                            |

 total charge

# of ion       s       p       d       tot
    1        0.418   0.203   9.177   9.798
    2        0.417   0.204   9.176   9.797
    3        0.417   0.204   9.176   9.797
    4        0.417   0.204   9.176   9.797
    5        0.417   0.202   9.178   9.797
    6        0.417   0.204   9.176   9.797
    7        0.417   0.204   9.176   9.797
    8        0.417   0.204   9.176   9.797
    9        0.413   0.204   9.177   9.795
   10        0.406   0.269   9.165   9.840
   11        0.404   0.272   9.165   9.841
   12        0.406   0.269   9.165   9.840
   13        0.404   0.272   9.165   9.841
   14        0.404   0.272   9.165   9.841
   15        0.403   0.271   9.164   9.838
   16        0.406   0.269   9.165   9.840
   17        0.403   0.271   9.164   9.838
   18        0.403   0.271   9.164   9.838
   19        0.402   0.263   9.168   9.834
   20        0.427   0.295   9.146   9.868
   21        0.427   0.295   9.146   9.868
   22        0.396   0.277   9.163   9.836
   23        0.427   0.295   9.146   9.868
   24        0.396   0.277   9.163   9.836
   25        0.402   0.263   9.168   9.834
   26        0.402   0.263   9.168   9.834
   27        0.396   0.277   9.163   9.836
   28        0.419   0.194   9.176   9.790
   29        0.415   0.206   9.176   9.796
   30        0.415   0.206   9.176   9.796
   31        0.415   0.206   9.176   9.796
   32        0.415   0.206   9.176   9.796
   33        0.415   0.206   9.176   9.796
   34        0.415   0.206   9.176   9.796
   35        0.416   0.198   9.176   9.789
   36        0.501   0.591   4.717   5.809
   37        1.349   2.206   0.000   3.555
tot         16.234  11.198 325.628 353.060

 BZINTS: Fermi energy:    0.763866;  396.000000 electrons
         Band energy:-0.132214E+04;  BLOECHL correction:   -0.027193