 vasp.6.2.0 18Jan21 (build Jun 12 2021 23:27:24) complex

 executed on             LinuxIFC date 2022.05.27  05:08:36

 INCAR:
   ISMEAR = -5
   SIGMA = 0.1
   ISPIN = 1
   EDIFF = 1.d-5
   EDIFFG = -0.01
   NSW = 0
   NELM = 150
   ENCUT = 500
   ISIF = 2
   IBRION = 2
   LREAL = Auto
   ALGO = Fast
   ICHARG = 11
   LORBIT = 10
   LCHARG = .F.
   LWAVE = .F.

 POTCAR:    PAW_PBE Au 04Oct2007
 POTCAR:    PAW_PBE Nb_sv 25May2007
 POTCAR:    PAW_PBE C 08Apr2002
 POTCAR:    PAW_PBE O 08Apr2002
|           W    W    AA    RRRRR   N    N  II  N    N   GGGG   !!!           |
|           W    W   A  A   R    R  NN   N  II  NN   N  G    G  !!!           |
|           W    W  A    A  R    R  N N  N  II  N N  N  G       !!!           |
|           W WW W  AAAAAA  RRRRR   N  N N  II  N  N N  G  GGG   !            |
|           WW  WW  A    A  R   R   N   NN  II  N   NN  G    G                |
|           W    W  A    A  R    R  N    N  II  N    N   GGGG   !!!           |
|     For optimal performance we recommend to set                             |
|       NCORE = 2 up to number-of-cores-per-socket                            |
|     This setting can greatly improve the performance of VASP for DFT.       |
|     The default, NCORE=1 might be grossly inefficient on modern             |
|     multi-core architectures or massively parallel machines. Do your        |
|     Unfortunately you need to use the default for GW and RPA                |
|     calculations (for HF NCORE is supported but not extensively tested      |
|     yet).                                                                   |

 POTCAR:    PAW_PBE Au 04Oct2007
   VRHFIN =Au: s1d10

   TITEL  = PAW_PBE Au 04Oct2007
   POMASS =  196.966; ZVAL   =   11.000    mass and valenz
   ENMAX  =  229.943; ENMIN  =  172.457 eV

 POTCAR:    PAW_PBE Nb_sv 25May2007
   VRHFIN =Nb: 4p5s4d

   TITEL  = PAW_PBE Nb_sv 25May2007
   POMASS =   92.910; ZVAL   =   13.000    mass and valenz
   ENMAX  =  293.235; ENMIN  =  219.927 eV

 POTCAR:    PAW_PBE C 08Apr2002
   VRHFIN =C: s2p2

   TITEL  = PAW_PBE C 08Apr2002
   POMASS =   12.011; ZVAL   =    4.000    mass and valenz
   ENMAX  =  400.000; ENMIN  =  300.000 eV

 POTCAR:    PAW_PBE O 08Apr2002
   VRHFIN =O: s2p4

   TITEL  = PAW_PBE O 08Apr2002
   POMASS =   16.000; ZVAL   =    6.000    mass and valenz
   ENMAX  =  400.000; ENMIN  =  300.000 eV

 Optimization of the real space projectors (new method)

 maximal supplied QI-value         = 15.12
 optimisation between [QCUT,QGAM] = [ 11.34, 22.83] = [ 36.00,145.93] Ry
 Optimized for a Real-space Cutoff    1.39 Angstroem

   l    n(q)    QCUT    max X(q) W(low)/X(q) W(high)/X(q)  e(spline)
   2      9    11.338    60.898    0.39E-03    0.42E-03    0.21E-06
   2      9    11.338    58.894    0.40E-03    0.42E-03    0.22E-06
   0      9    11.338   109.617    0.13E-03    0.20E-04    0.13E-06
   0      9    11.338    75.026    0.13E-03    0.20E-04    0.13E-06
   1      9    11.338    16.344    0.33E-04    0.24E-03    0.18E-06
   1      9    11.338    10.160    0.26E-04    0.19E-03    0.15E-06
 Optimization of the real space projectors (new method)

[...]

   l    n(q)    QCUT    max X(q) W(low)/X(q) W(high)/X(q)  e(spline)
   0      7    11.310   115.676    0.43E-03    0.13E-02    0.19E-06
   0      7    11.310    87.132    0.43E-03    0.13E-02    0.18E-06
   1      6    11.310     4.429    0.42E-03    0.74E-03    0.11E-06
   1      6    11.310     2.733    0.34E-03    0.55E-03    0.92E-07
 Optimization of the real space projectors (new method)

 maximal supplied QI-value         = 24.76
 optimisation between [QCUT,QGAM] = [ 11.39, 22.77] = [ 36.31,145.25] Ry
 Optimized for a Real-space Cutoff    1.00 Angstroem

   l    n(q)    QCUT    max X(q) W(low)/X(q) W(high)/X(q)  e(spline)
   0      7    11.387    20.381    0.39E-03    0.13E-02    0.15E-06
   0      7    11.387    15.268    0.42E-03    0.14E-02    0.17E-06
   1      6    11.387     5.964    0.41E-03    0.11E-02    0.17E-06
   1      6    11.387     5.382    0.39E-03    0.87E-03    0.15E-06
  PAW_PBE Au 04Oct2007                  :
  PAW_PBE Nb_sv 25May2007               :
  PAW_PBE C 08Apr2002                   :
  PAW_PBE O 08Apr2002                   :

 POSCAR: Au-Nb-CO
  positions in direct lattice
  velocities in cartesian coordinates
 exchange correlation table for  LEXCH =        8
   RHO(1)=    0.500       N(1)  =     2000
   RHO(2)=  100.500       N(2)  =     4000

 VTST: version 3.2, (02/03/18)

 CHAIN: initializing optimizer

 OPT: Using VASP Conjugate-Gradient optimizer
 CHAIN: Read ICHAIN            0

 POSCAR: Au-Nb-CO
  positions in direct lattice
  velocities in cartesian coordinates

 ion  position               nearest neighbor table
   1  0.000  0.000  0.238-  16 2.94  12 2.94   6 2.94   8 2.94   7 2.94   3 2.94  10 2.94   4 2.94
                             2 2.94
   2  0.333  0.000  0.238-   9 2.94  11 2.94  17 2.94  10 2.94   8 2.94   4 2.94   5 2.94   1 2.94
                             3 2.94
   3  0.667  0.000  0.238-   7 2.94  18 2.94  12 2.94   1 2.94  11 2.94   5 2.94   6 2.94   9 2.94
                             2 2.94
   4  0.000  0.333  0.238-  10 2.94   6 2.94   5 2.94  13 2.94   2 2.94  15 2.94   9 2.94   1 2.94
                             7 2.94
   5  0.333  0.333  0.238-  13 2.94   7 2.94  11 2.94   4 2.94   2 2.94  14 2.94   3 2.94   8 2.94
                             6 2.94
   6  0.667  0.333  0.238-  15 2.94  14 2.94   1 2.94  12 2.94   4 2.94   9 2.94   8 2.94   3 2.94
                             5 2.94
   7  0.000  0.667  0.238-  18 2.94   3 2.94  16 2.94   5 2.94   1 2.94  13 2.94   8 2.94   4 2.94
                             9 2.94
   8  0.333  0.667  0.238-   9 2.94  17 2.94   1 2.94   2 2.94  14 2.94  16 2.94   6 2.94   7 2.94
                             5 2.94
   9  0.667  0.667  0.238-   2 2.94   8 2.94  17 2.94   6 2.94  15 2.94   4 2.94   3 2.94  18 2.94
                             7 2.94
  10  0.111  0.111  0.346-  20 2.91  11 2.94  17 2.94   2 2.94   4 2.94   1 2.94  12 2.94  16 2.94
                            13 2.94  15 2.94  26 2.95  19 2.95
  11  0.444  0.111  0.346-  20 2.91  21 2.91  13 2.94   2 2.94  10 2.94  17 2.94   5 2.94   3 2.94
                            18 2.94  14 2.94  12 2.94  27 2.94
  12  0.778  0.111  0.346-  21 2.91  16 2.94  18 2.94   1 2.94  14 2.94  15 2.94   3 2.94   6 2.94
                            10 2.94  11 2.94  25 2.95  19 2.95
  13  0.111  0.444  0.346-  23 2.91  20 2.91   5 2.94  18 2.94  11 2.94   7 2.94   4 2.94  16 2.94
                            10 2.94  14 2.94  15 2.94  22 2.94
  14  0.444  0.444  0.346-  21 2.91  23 2.91  15 2.94   6 2.94  12 2.94   8 2.94  17 2.94   5 2.94
                            16 2.94  13 2.94  11 2.94  24 2.94
  15  0.778  0.444  0.346-  24 2.93  22 2.93  14 2.94   6 2.94  17 2.94  12 2.94   9 2.94   4 2.94
                            10 2.94  13 2.94  18 2.94  19 2.94
  16  0.111  0.778  0.346-  23 2.91  18 2.94  12 2.94   7 2.94   1 2.94   8 2.94  13 2.94  10 2.94
                            14 2.94  17 2.94  25 2.95  26 2.95
  17  0.444  0.778  0.346-  27 2.93  24 2.93   9 2.94  15 2.94   2 2.94  10 2.94  11 2.94   8 2.94
                            14 2.94  16 2.94  18 2.94  26 2.94
  18  0.778  0.778  0.346-  22 2.93  27 2.93  16 2.94   7 2.94  13 2.94  12 2.94   3 2.94  11 2.94
                             9 2.94  15 2.94  17 2.94  25 2.94
  19  0.889  0.223  0.454-  24 2.93  22 2.93  21 2.94  20 2.94  15 2.94  26 2.94  25 2.94  10 2.95
                            12 2.95  28 2.95  32 3.04  31 3.04
  20  0.222  0.222  0.453-  36 2.78  10 2.91  11 2.91  13 2.91  26 2.94  19 2.94  23 2.94  21 2.94
                            27 2.95  22 2.95  29 2.99  31 2.99
  21  0.556  0.222  0.453-  36 2.78  12 2.91  14 2.91  11 2.91  25 2.94  19 2.94  20 2.94  23 2.94
                            27 2.95  24 2.95  30 2.99  32 2.99
  22  0.887  0.557  0.454-  24 2.91  27 2.91  18 2.93  15 2.93  25 2.93  19 2.93  13 2.94  23 2.95
                            20 2.95  35 2.96  33 3.02  31 3.02
  23  0.222  0.556  0.453-  36 2.78  16 2.91  13 2.91  14 2.91  25 2.94  26 2.94  20 2.94  21 2.94
                            22 2.95  24 2.95  33 2.99  34 2.99
  24  0.557  0.557  0.454-  27 2.91  22 2.91  15 2.93  17 2.93  26 2.93  19 2.93  14 2.94  21 2.95
                            23 2.95  35 2.96  32 3.02  34 3.02
  25  0.889  0.889  0.454-  22 2.93  27 2.93  23 2.94  21 2.94  18 2.94  19 2.94  26 2.94  16 2.95
                            12 2.95  28 2.95  33 3.04  30 3.04
  26  0.223  0.889  0.454-  27 2.93  24 2.93  20 2.94  23 2.94  17 2.94  19 2.94  25 2.94  10 2.95
                            16 2.95  28 2.95  29 3.04  34 3.04
  27  0.557  0.887  0.454-  24 2.91  22 2.91  17 2.93  18 2.93  26 2.93  25 2.93  11 2.94  20 2.95
                            21 2.95  35 2.96  29 3.02  30 3.02
  28  0.000  0.000  0.563-  25 2.95  19 2.95  26 2.95  34 2.98  32 2.98  33 2.98  30 2.98  31 2.98
                            29 2.98
  29  0.334  0.009  0.566-  30 2.85  31 2.86  36 2.87  35 2.98  28 2.98  20 2.99  27 3.02  26 3.04
                            34 3.10
  30  0.657  0.009  0.566-  29 2.85  32 2.86  36 2.87  35 2.98  28 2.98  21 2.99  27 3.02  25 3.04
                            33 3.10
  31  0.009  0.334  0.566-  33 2.85  29 2.86  36 2.87  35 2.98  28 2.98  20 2.99  22 3.02  19 3.04
                            32 3.10
  32  0.657  0.334  0.566-  34 2.85  30 2.86  36 2.87  35 2.98  28 2.98  21 2.99  24 3.02  19 3.04
                            31 3.10
  33  0.009  0.657  0.566-  31 2.85  34 2.86  36 2.87  35 2.98  28 2.98  23 2.99  22 3.02  25 3.04
                            30 3.10
  34  0.334  0.657  0.566-  32 2.85  33 2.86  36 2.87  35 2.98  28 2.98  23 2.99  24 3.02  26 3.04
                            29 3.10
  35  0.667  0.667  0.563-  24 2.96  27 2.96  22 2.96  29 2.98  34 2.98  32 2.98  31 2.98  30 2.98
                            33 2.98
  36  0.333  0.333  0.552-  37 2.10  20 2.78  23 2.78  21 2.78  33 2.87  31 2.87  29 2.87  30 2.87
                            34 2.87  32 2.87
  37  0.333  0.333  0.646-  38 1.16  36 2.10
  38  0.333  0.333  0.699-  37 1.16

  LATTYP: Found a hexagonal cell.
 ALAT       =     8.8135128021
 C/A-ratio  =     2.5184286595

  Lattice vectors:

 A1 = (  -4.4067569092,  -7.6327256898,   0.0000000000)
 A2 = (   8.8135128021,   0.0000000000,   0.0000000000)
 A3 = (   0.0000000000,   0.0000000000,  22.1962032318)

Analysis of symmetry for initial positions (statically):
 Subroutine PRICEL returns:
 Original cell was already a primitive cell.

 Routine SETGRP: Setting up the symmetry group for a
 hexagonal supercell.

 Subroutine GETGRP returns: Found  6 space group operations
 (whereof  6 operations were pure point group operations)
 out of a pool of 24 trial point group operations.

The static configuration has the point symmetry C_3v.

Analysis of symmetry for dynamics (positions and initial velocities):
 Subroutine PRICEL returns:
 Original cell was already a primitive cell.

[...]

The dynamic configuration has the point symmetry C_3v.

Analysis of constrained symmetry for selective dynamics:
 Subroutine PRICEL returns:
[...]
     33      -4.9153      2.00000
     34      -4.8728      2.00000
     35      -4.8519      2.00000
     36      -4.8108      2.00000
     37      -4.7756      2.00000
     38      -4.7034      2.00000
     39      -4.6811      2.00000
     40      -4.6583      2.00000
     41      -4.6185      2.00000
     42      -4.6011      2.00000
     43      -4.5914      2.00000
     44      -4.5512      2.00000
     45      -4.5322      2.00000
     46      -4.3942      2.00000
     47      -4.3777      2.00000
     48      -4.3205      2.00000
     49      -4.2776      2.00000
     50      -4.2506      2.00000
     51      -4.2137      2.00000
     52      -4.1951      2.00000
     53      -4.1692      2.00000
     54      -4.1558      2.00000
     55      -4.0639      2.00000
     56      -4.0301      2.00000
     57      -4.0218      2.00000
     58      -3.9878      2.00000
     59      -3.9836      2.00000
     60      -3.9773      2.00000
[...]
    238       5.5685      0.00000
    239       5.9290      0.00000
    240       5.9647      0.00000
    241       6.1845      0.00000
    242       6.2562      0.00000
    243       6.5167      0.00000
    244       6.5751      0.00000
    245       6.6249      0.00000
    246       6.6404      0.00000
    247       6.6756      0.00000
    248       6.8769      0.00000
    249       6.8854      0.00000
    250       6.9231      0.00000
    251       6.9851      0.00000
    252       7.0175      0.00000

 soft charge-density along one line, spin component           1
         0         1         2         3         4         5         6         7         8         9
 total charge-density along one line

------------------------ aborting loop because EDIFF is reached ----------------------------------------

 total charge

# of ion       s       p       d       tot
    1        0.547   0.236   8.770   9.552
    2        0.541   0.241   8.766   9.548
    3        0.541   0.241   8.766   9.548
    4        0.541   0.241   8.766   9.548
    5        0.549   0.240   8.759   9.549
    6        0.541   0.241   8.766   9.548
    7        0.541   0.241   8.766   9.548
    8        0.541   0.241   8.766   9.548
    9        0.542   0.239   8.769   9.550
   10        0.527   0.307   8.767   9.600
   11        0.524   0.306   8.780   9.609
   12        0.527   0.307   8.767   9.600
   13        0.524   0.306   8.780   9.609
   14        0.524   0.306   8.780   9.609
   15        0.516   0.308   8.775   9.598
   16        0.527   0.307   8.767   9.600
   17        0.516   0.308   8.775   9.598
   18        0.516   0.308   8.775   9.598
   19        0.518   0.296   8.770   9.584
   20        0.576   0.335   8.732   9.643
   21        0.576   0.335   8.732   9.643
   22        0.506   0.305   8.778   9.590
   23        0.576   0.335   8.732   9.643
   24        0.506   0.305   8.778   9.590
   25        0.518   0.296   8.770   9.584
   26        0.518   0.296   8.770   9.584
   27        0.506   0.305   8.778   9.590
   28        0.538   0.228   8.757   9.523
   29        0.585   0.246   8.735   9.565
   30        0.585   0.246   8.735   9.565
   31        0.585   0.246   8.735   9.565
   32        0.585   0.246   8.735   9.565
   33        0.585   0.246   8.735   9.565
   34        0.585   0.246   8.735   9.565
   35        0.539   0.228   8.759   9.526
   36        2.173   6.015   2.311  10.499
   37        0.975   1.534   0.000   2.509
   38        1.617   3.525   0.000   5.142
tot         23.735  20.732 308.934 353.402

  FORCE on cell =-STRESS in cart. coord.  units (eV):
  Direction    XX          YY          ZZ          XY          YZ          ZX
  Alpha Z  1055.96287  1055.96287  1055.96287
  Ewald  118228.46869118228.46918************    -0.00031    -0.00008    -0.00012
  Hartree127373.82600127373.82602************     0.00002    -0.00002    -0.00003
  E(xc)   -1831.13464 -1831.13469 -1837.09360     0.00005    -0.00000    -0.00000
  Local  ************************257656.79064     0.00200     0.00000    -0.00002
  n-local   -95.36724   -50.32546   -49.91548    22.18052    -1.44293     1.39178
  augment  2387.64201  2387.64354  2409.37524    -0.00132     0.00000     0.00002
  Kinetic  5774.04802  5782.51346  5824.89964     4.87392     0.03777     0.44057
  Fock        0.00000     0.00000     0.00000     0.00000     0.00000     0.00000
  Total     -21.34207   -21.34207     3.77267    -0.00000     0.00000    -0.00000
  in kB     -22.90023   -22.90022     4.04811    -0.00000     0.00000    -0.00000

 VOLUME and BASIS-vectors are now :
  energy-cutoff  :      500.00
  volume of cell :     1493.16
      direct lattice vectors                 reciprocal lattice vectors
     8.813512802  0.000000000  0.000000000     0.113462137 -0.065507406  0.000000000
     4.406756909  7.632725690  0.000000000     0.000000000  0.131014796  0.000000000
     0.000000000  0.000000000 22.196203232     0.000000000  0.000000000  0.045052750

  length of vectors
     8.813512802  8.813512802 22.196203232     0.131014796  0.131014796  0.045052750

 FORCES acting on ions
    electron-ion (+dipol)            ewald-force                    non-local-force                 convergence-correction
   -.196E-04 -.162E-04 0.251E+04   0.520E-04 0.435E-04 -.251E+04   0.617E-18 0.183E-17 -.829E+00   -.240E-03 -.152E-03 -.200E+00
   0.872E+00 0.763E+00 0.251E+04   -.897E+00 -.949E+00 -.251E+04   0.639E-01 0.174E+00 -.306E+00   -.372E-01 -.912E-03 -.219E+00
   -.872E+00 0.763E+00 0.251E+04   0.897E+00 -.949E+00 -.251E+04   -.639E-01 0.174E+00 -.306E+00   0.375E-01 0.102E-02 -.219E+00
   0.110E+01 0.374E+00 0.251E+04   -.127E+01 -.303E+00 -.251E+04   0.183E+00 -.319E-01 -.306E+00   -.193E-01 -.318E-01 -.219E+00
   0.903E-05 -.234E-04 0.251E+04   0.951E-04 0.173E-05 -.251E+04   -.106E-17 -.208E-18 0.221E+00   0.428E-02 0.261E-02 -.148E+00
   -.110E+01 0.374E+00 0.251E+04   0.127E+01 -.303E+00 -.251E+04   -.183E+00 -.319E-01 -.306E+00   0.178E-01 -.309E-01 -.218E+00
   0.225E+00 -.114E+01 0.251E+04   -.373E+00 0.125E+01 -.251E+04   0.119E+00 -.143E+00 -.306E+00   0.197E-01 0.319E-01 -.219E+00
   -.225E+00 -.114E+01 0.251E+04   0.373E+00 0.125E+01 -.251E+04   -.119E+00 -.143E+00 -.306E+00   -.178E-01 0.308E-01 -.218E+00
   0.196E-04 -.415E-04 0.251E+04   0.166E-03 -.202E-04 -.251E+04   -.286E-17 -.908E-18 -.521E+00   -.459E-02 -.237E-02 -.196E+00
   0.921E+01 0.532E+01 0.891E+03   -.881E+01 -.509E+01 -.890E+03   -.388E+00 -.224E+00 -.641E+00   -.512E-01 -.297E-01 0.373E-01
   0.161E-04 0.102E+02 0.904E+03   0.147E-03 -.102E+02 -.904E+03   0.138E-08 0.207E-01 -.542E-01   0.402E-02 -.862E-01 0.444E-01
   -.921E+01 0.532E+01 0.891E+03   0.881E+01 -.509E+01 -.890E+03   0.388E+00 -.224E+00 -.641E+00   0.497E-01 -.285E-01 0.372E-01
   0.886E+01 -.512E+01 0.904E+03   -.884E+01 0.510E+01 -.904E+03   0.180E-01 -.104E-01 -.542E-01   -.723E-01 0.468E-01 0.444E-01
   -.886E+01 -.512E+01 0.904E+03   0.884E+01 0.510E+01 -.904E+03   -.180E-01 -.104E-01 -.542E-01   0.799E-01 0.460E-01 0.437E-01
   0.299E-04 0.243E+01 0.892E+03   0.236E-03 -.249E+01 -.891E+03   0.115E-08 0.173E-01 -.551E+00   -.230E-02 -.257E-01 0.781E-02
   -.219E-04 -.106E+02 0.891E+03   0.163E-03 0.102E+02 -.890E+03   0.298E-07 0.448E+00 -.641E+00   -.664E-04 0.572E-01 0.371E-01
   0.211E+01 -.122E+01 0.892E+03   -.216E+01 0.125E+01 -.891E+03   0.150E-01 -.867E-02 -.551E+00   -.232E-01 0.113E-01 0.784E-02
   -.211E+01 -.122E+01 0.892E+03   0.216E+01 0.125E+01 -.891E+03   -.150E-01 -.867E-02 -.551E+00   0.235E-01 0.133E-01 0.844E-02
   -.425E-04 0.352E+01 -.775E+03   0.513E-04 -.340E+01 0.774E+03   0.514E-10 0.772E-03 0.637E+00   -.676E-03 -.110E+00 0.344E+00
   0.604E+02 0.349E+02 -.675E+03   -.593E+02 -.342E+02 0.676E+03   -.125E+01 -.723E+00 -.151E+01   -.241E-01 -.140E-01 0.457E+00
   -.604E+02 0.349E+02 -.675E+03   0.593E+02 -.342E+02 0.676E+03   0.125E+01 -.723E+00 -.151E+01   0.249E-01 -.135E-01 0.457E+00
   0.164E+02 -.947E+01 -.754E+03   -.168E+02 0.972E+01 0.753E+03   0.428E+00 -.247E+00 0.585E+00   0.450E-01 -.257E-01 0.293E+00
   -.995E-05 -.698E+02 -.675E+03   0.145E-03 0.684E+02 0.676E+03   0.963E-07 0.145E+01 -.151E+01   0.476E-03 0.283E-01 0.457E+00
   -.164E+02 -.947E+01 -.754E+03   0.168E+02 0.972E+01 0.753E+03   -.428E+00 -.247E+00 0.585E+00   -.453E-01 -.261E-01 0.293E+00
   -.305E+01 -.176E+01 -.775E+03   0.294E+01 0.170E+01 0.774E+03   -.669E-03 -.386E-03 0.637E+00   0.954E-01 0.550E-01 0.344E+00
   0.305E+01 -.176E+01 -.775E+03   -.294E+01 0.170E+01 0.774E+03   0.669E-03 -.386E-03 0.637E+00   -.950E-01 0.543E-01 0.344E+00
   0.158E-04 0.189E+02 -.754E+03   0.193E-03 -.194E+02 0.753E+03   0.329E-07 0.494E+00 0.585E+00   -.325E-03 0.518E-01 0.293E+00
   -.185E-04 -.158E-04 -.239E+04   0.321E-04 0.379E-04 0.239E+04   -.190E-17 0.169E-18 0.605E+00   -.134E-03 -.978E-04 0.163E+00
   0.719E+02 0.119E+03 -.239E+04   -.709E+02 -.118E+03 0.239E+04   -.115E+01 -.185E+01 -.203E+00   0.241E-01 0.138E+00 0.171E+00
   -.719E+02 0.119E+03 -.239E+04   0.709E+02 -.118E+03 0.239E+04   0.115E+01 -.185E+01 -.203E+00   -.238E-01 0.140E+00 0.171E+00
   0.139E+03 0.256E+01 -.239E+04   -.138E+03 -.243E+01 0.239E+04   -.218E+01 -.714E-01 -.203E+00   0.132E+00 -.482E-01 0.171E+00
   -.139E+03 0.256E+01 -.239E+04   0.138E+03 -.243E+01 0.239E+04   0.218E+01 -.714E-01 -.203E+00   -.133E+00 -.474E-01 0.171E+00
   0.675E+02 -.122E+03 -.239E+04   -.667E+02 0.120E+03 0.239E+04   -.103E+01 0.192E+01 -.203E+00   0.109E+00 -.907E-01 0.171E+00
   -.675E+02 -.122E+03 -.239E+04   0.667E+02 0.120E+03 0.239E+04   0.103E+01 0.192E+01 -.203E+00   -.108E+00 -.918E-01 0.171E+00
   0.336E-04 -.235E-04 -.239E+04   0.139E-03 -.535E-04 0.239E+04   0.570E-17 -.283E-17 0.651E+00   -.451E-02 -.231E-02 0.231E+00
   0.259E-03 -.147E-03 -.248E+04   0.135E-03 0.122E-04 0.249E+04   0.349E-17 -.153E-17 -.163E+01   0.733E-02 0.448E-02 0.360E+00
   0.417E-05 -.855E-04 -.869E+03   0.116E-04 0.790E-06 0.850E+03   -.650E-18 -.109E-18 0.185E+02   0.126E-02 0.766E-03 -.963E-01
   0.245E-03 -.923E-04 -.150E+04   0.407E-05 0.449E-06 0.156E+04   -.849E-18 -.201E-18 -.597E+02   0.375E-02 0.230E-02 -.889E-01
   -.233E-03 -.107E-02 0.473E+02   0.939E-13 0.951E-13 -.136E-11   -.658E-15 0.439E-15 -.504E+02   0.165E-01 0.104E-01 0.329E+01

 POSITION                                       TOTAL-FORCE (eV/Angst)
      0.00000      0.00000      5.28038         0.000000     -0.000000     -0.169839
      2.93784      0.00000      5.28038         0.001998     -0.011027     -0.057696
      5.87568      0.00000      5.28038        -0.001998     -0.011027     -0.057696
      1.46892      2.54424      5.28038        -0.008551      0.007244     -0.057696
      4.40676      2.54424      5.28038         0.000000     -0.000000     -0.094773
      7.34459      2.54424      5.28038         0.008551      0.007244     -0.057696
      2.93784      5.08848      5.28038        -0.010549      0.003783     -0.057696
      5.87568      5.08848      5.28038         0.010549      0.003783     -0.057696
      8.81351      5.08848      5.28038         0.000000     -0.000000     -0.079614
      1.46892      0.84808      7.67911        -0.039469     -0.022788      0.087411
      4.40676      0.84808      7.67911        -0.000000     -0.039872      0.005719
      7.34459      0.84808      7.67911         0.039469     -0.022788      0.087411
      2.93784      3.39232      7.67911        -0.034530      0.019936      0.005719
      5.87568      3.39232      7.67911         0.034530      0.019936      0.005719
      8.81351      3.39232      7.67911        -0.000000     -0.066217      0.103699
      4.40676      5.93656      7.67911         0.000000      0.045575      0.087411
      7.34459      5.93656      7.67911        -0.057346      0.033109      0.103699
     10.28243      5.93656      7.67911         0.057346      0.033109      0.103699
      8.81351      1.70030     10.08698         0.000000      0.015682      0.044417
      2.93503      1.69454     10.04736        -0.113455     -0.065503     -0.185668
      5.87848      1.69454     10.04736         0.113455     -0.065503     -0.185668
     10.26776      4.24887     10.06889         0.031400     -0.018129      0.040941
      4.40676      4.24365     10.04736         0.000000      0.131006     -0.185668
      7.35926      4.24887     10.06889        -0.031400     -0.018129      0.040941
     11.74777      6.78258     10.08698        -0.013581     -0.007841      0.044417
      5.87926      6.78258     10.08698         0.013581     -0.007841      0.044417
      8.81351      6.76771     10.06889         0.000000      0.036258      0.040941
      0.00000      0.00000     12.49943         0.000000     -0.000000     -0.018574
      2.98194      0.07009     12.55649        -0.047504     -0.101143     -0.038814
      5.83157      0.07009     12.55649         0.047504     -0.101143     -0.038814
      1.55167      2.54739     12.55649        -0.111344      0.009432     -0.038814
      7.26184      2.54739     12.55649         0.111344      0.009432     -0.038814
      2.97649      5.01524     12.55649        -0.063841      0.091711     -0.038814
      5.83702      5.01524     12.55649         0.063841      0.091711     -0.038814
      8.81351      5.08848     12.50498         0.000000     -0.000000     -0.001054
      4.40676      2.54424     12.24418         0.000000     -0.000000      0.658714
      4.40676      2.54424     14.34599         0.000000     -0.000000     -0.005260
      4.40676      2.54424     15.50813         0.000000     -0.000000     -0.000098
    total drift:                                0.016241      0.009367      0.245152

  FREE ENERGIE OF THE ION-ELECTRON SYSTEM (eV)
  free  energy   TOTEN  =      -132.62684428 eV

  energy  without entropy=     -132.62684428  energy(sigma->0) =     -132.62684428

 stress matrix after NEB project (eV)
    -21.34207     -0.00000     -0.00000
     -0.00000    -21.34207      0.00000
      0.00000      0.00000      3.77267
  FORCES: max atom, RMS     0.005260    0.000853
  FORCE total and by dimension    0.005261    0.005260
  Stress total and by dimension   30.417116   21.342071
|           W    W    AA    RRRRR   N    N  II  N    N   GGGG   !!!           |
|           W    W   A  A   R    R  NN   N  II  NN   N  G    G  !!!           |
|           W    W  A    A  R    R  N N  N  II  N N  N  G       !!!           |
|           W WW W  AAAAAA  RRRRR   N  N N  II  N  N N  G  GGG   !            |
|           WW  WW  A    A  R   R   N   NN  II  N   NN  G    G                |
|           W    W  A    A  R    R  N    N  II  N    N   GGGG   !!!           |
|     Tetrahedron method does not include variations of the Fermi             |
|     occupations, so forces and stress will be inaccurate. We suggest        |
|     using a different smearing scheme ISMEAR = 1 or 2 for metals in         |
|     relaxations.                                                            |

 total charge

# of ion       s       p       d       tot
    1        0.547   0.236   8.770   9.552
    2        0.541   0.241   8.766   9.548
    3        0.541   0.241   8.766   9.548
    4        0.541   0.241   8.766   9.548
    5        0.549   0.240   8.759   9.549
    6        0.541   0.241   8.766   9.548
    7        0.541   0.241   8.766   9.548
    8        0.541   0.241   8.766   9.548
    9        0.542   0.239   8.769   9.550
   10        0.527   0.307   8.767   9.600
   11        0.524   0.306   8.780   9.609
   12        0.527   0.307   8.767   9.600
   13        0.524   0.306   8.780   9.609
   14        0.524   0.306   8.780   9.609
   15        0.516   0.308   8.775   9.598
   16        0.527   0.307   8.767   9.600
   17        0.516   0.308   8.775   9.598
   18        0.516   0.308   8.775   9.598
   19        0.518   0.296   8.770   9.584
   20        0.576   0.335   8.732   9.643
   21        0.576   0.335   8.732   9.643
   22        0.506   0.305   8.778   9.590
   23        0.576   0.335   8.732   9.643
   24        0.506   0.305   8.778   9.590
   25        0.518   0.296   8.770   9.584
   26        0.518   0.296   8.770   9.584
   27        0.506   0.305   8.778   9.590
   28        0.538   0.228   8.757   9.523
   29        0.585   0.246   8.735   9.565
   30        0.585   0.246   8.735   9.565
   31        0.585   0.246   8.735   9.565
   32        0.585   0.246   8.735   9.565
   33        0.585   0.246   8.735   9.565
   34        0.585   0.246   8.735   9.565
   35        0.539   0.228   8.759   9.526
   36        2.173   6.015   2.311  10.499
   37        0.975   1.534   0.000   2.509
   38        1.617   3.525   0.000   5.142
tot         23.735  20.732 308.934 353.402

 BZINTS: Fermi energy:    0.809081;  408.000000 electrons
         Band energy:-0.152561E+04;  BLOECHL correction:   -0.036711