 vasp.6.2.0 18Jan21 (build Jun 12 2021 23:27:24) complex

 executed on             LinuxIFC date 2022.05.26  19:42:39

 INCAR:
   ISMEAR = -5
   SIGMA = 0.1
   ISPIN = 1
   EDIFF = 1.d-5
   EDIFFG = -0.01
   NSW = 0
   NELM = 150
   ENCUT = 500
   ISIF = 2
   IBRION = 2
   LREAL = Auto
   ALGO = Fast
   ICHARG = 11
   LORBIT = 10
   LCHARG = .F.
   LWAVE = .F.

 POTCAR:    PAW_PBE Ag 02Apr2005
 POTCAR:    PAW_PBE Co 02Aug2007
 POTCAR:    PAW_PBE O 08Apr2002
|           W    W    AA    RRRRR   N    N  II  N    N   GGGG   !!!           |
|           W    W   A  A   R    R  NN   N  II  NN   N  G    G  !!!           |
|           W    W  A    A  R    R  N N  N  II  N N  N  G       !!!           |
|           W WW W  AAAAAA  RRRRR   N  N N  II  N  N N  G  GGG   !            |
|           WW  WW  A    A  R   R   N   NN  II  N   NN  G    G                |
|           W    W  A    A  R    R  N    N  II  N    N   GGGG   !!!           |
|     For optimal performance we recommend to set                             |
|       NCORE = 2 up to number-of-cores-per-socket                            |
|     This setting can greatly improve the performance of VASP for DFT.       |
|     The default, NCORE=1 might be grossly inefficient on modern             |
|     multi-core architectures or massively parallel machines. Do your        |
|     Unfortunately you need to use the default for GW and RPA                |
|     calculations (for HF NCORE is supported but not extensively tested      |
|     yet).                                                                   |

 POTCAR:    PAW_PBE Ag 02Apr2005
   VRHFIN =Ag : s1 d10

   TITEL  = PAW_PBE Ag 02Apr2005
   POMASS =  107.868; ZVAL   =   11.000    mass and valenz
   ENMAX  =  249.844; ENMIN  =  187.383 eV

 POTCAR:    PAW_PBE Co 02Aug2007
   VRHFIN =Co: d8 s1

   TITEL  = PAW_PBE Co 02Aug2007
   POMASS =   58.933; ZVAL   =    9.000    mass and valenz
   ENMAX  =  267.968; ENMIN  =  200.976 eV

 POTCAR:    PAW_PBE O 08Apr2002
   VRHFIN =O: s2p4

   TITEL  = PAW_PBE O 08Apr2002
   POMASS =   16.000; ZVAL   =    6.000    mass and valenz
   ENMAX  =  400.000; ENMIN  =  300.000 eV

 Optimization of the real space projectors (new method)

 maximal supplied QI-value         = 15.12
 optimisation between [QCUT,QGAM] = [ 11.34, 22.83] = [ 36.00,145.93] Ry
 Optimized for a Real-space Cutoff    1.43 Angstroem

   l    n(q)    QCUT    max X(q) W(low)/X(q) W(high)/X(q)  e(spline)
   2      9    11.338    53.897    0.16E-03    0.20E-03    0.28E-06
   2      9    11.338    52.416    0.16E-03    0.20E-03    0.29E-06
   0     10    11.338   122.045    0.31E-04    0.76E-04    0.15E-06
   0     10    11.338    73.629    0.30E-04    0.72E-04    0.15E-06
   1      9    11.338    15.255    0.20E-03    0.19E-04    0.17E-06
   1      9    11.338     9.562    0.16E-03    0.15E-04    0.14E-06
 Optimization of the real space projectors (new method)

[...]

   l    n(q)    QCUT    max X(q) W(low)/X(q) W(high)/X(q)  e(spline)
   2      8    11.376    65.824    0.20E-03    0.32E-04    0.13E-06
   2      8    11.376    61.429    0.20E-03    0.33E-04    0.14E-06
   0      9    11.376    56.174    0.76E-04    0.11E-03    0.19E-06
   0      9    11.376    31.263    0.69E-04    0.99E-04    0.17E-06
   1      9    11.376    19.828    0.35E-03    0.11E-03    0.12E-06
   1      9    11.376    15.139    0.29E-03    0.94E-04    0.10E-06
 Optimization of the real space projectors (new method)

 maximal supplied QI-value         = 24.76
 optimisation between [QCUT,QGAM] = [ 11.39, 22.77] = [ 36.31,145.25] Ry
 Optimized for a Real-space Cutoff    1.00 Angstroem

   l    n(q)    QCUT    max X(q) W(low)/X(q) W(high)/X(q)  e(spline)
   0      7    11.387    20.381    0.39E-03    0.13E-02    0.15E-06
   0      7    11.387    15.268    0.42E-03    0.14E-02    0.17E-06
   1      6    11.387     5.964    0.41E-03    0.11E-02    0.17E-06
   1      6    11.387     5.382    0.39E-03    0.87E-03    0.15E-06
  PAW_PBE Ag 02Apr2005                  :
  PAW_PBE Co 02Aug2007                  :
  PAW_PBE O 08Apr2002                   :

 POSCAR: Ag-Co-O
  positions in direct lattice
  velocities in cartesian coordinates
 exchange correlation table for  LEXCH =        8
   RHO(1)=    0.500       N(1)  =     2000
   RHO(2)=  100.500       N(2)  =     4000

 VTST: version 3.2, (02/03/18)

 CHAIN: initializing optimizer

 OPT: Using VASP Conjugate-Gradient optimizer
 CHAIN: Read ICHAIN            0

 POSCAR: Ag-Co-O
  positions in direct lattice
  velocities in cartesian coordinates

 ion  position               nearest neighbor table
   1  0.000  0.000  0.238-   2 2.93   8 2.93   7 2.93   6 2.93   4 2.93  12 2.93  16 2.93  10 2.93
                             3 2.93
   2  0.333  0.000  0.238-   1 2.93   8 2.93   9 2.93   3 2.93   4 2.93   5 2.93  10 2.93  17 2.93
                            11 2.93
   3  0.667  0.000  0.238-   9 2.93   2 2.93   5 2.93  11 2.93   7 2.93  18 2.93   1 2.93   6 2.93
                            12 2.93
   4  0.000  0.333  0.238-   5 2.93   6 2.93   2 2.93   1 2.93   7 2.93  13 2.93  15 2.93   9 2.93
                            10 2.93
   5  0.333  0.333  0.238-   4 2.93   3 2.93   7 2.93   2 2.93   8 2.93  14 2.93  13 2.93  11 2.93
                             6 2.93
   6  0.667  0.333  0.238-   4 2.93   9 2.93   1 2.93  15 2.93   8 2.93  12 2.93   3 2.93   5 2.93
                            14 2.93
   7  0.000  0.667  0.238-   8 2.93   1 2.93   5 2.93   3 2.93   4 2.93  16 2.93  18 2.93  13 2.93
                             9 2.93
   8  0.333  0.667  0.238-   7 2.93   1 2.93   2 2.93   9 2.93   5 2.93  16 2.93   6 2.93  17 2.93
                            14 2.93
   9  0.667  0.667  0.238-   3 2.93   2 2.93   8 2.93   6 2.93  17 2.93   4 2.93  15 2.93   7 2.93
                            18 2.93
  10  0.111  0.111  0.346-  20 2.92  19 2.93  26 2.93  12 2.93  16 2.93  15 2.93  17 2.93  13 2.93
                            11 2.93   2 2.93   1 2.93   4 2.93
  11  0.444  0.111  0.346-  21 2.90  20 2.90  27 2.92  14 2.93  17 2.93  18 2.93   3 2.93  12 2.93
                            13 2.93  10 2.93   5 2.93   2 2.93
  12  0.778  0.111  0.346-  21 2.92  25 2.93  19 2.93  10 2.93  16 2.93  18 2.93  15 2.93  11 2.93
                             1 2.93  14 2.93   6 2.93   3 2.93
  13  0.111  0.444  0.346-  20 2.90  23 2.90  22 2.92  15 2.93  14 2.93  18 2.93  10 2.93  11 2.93
                            16 2.93   4 2.93   5 2.93   7 2.93
  14  0.444  0.444  0.346-  23 2.90  21 2.90  24 2.92  13 2.93  11 2.93  16 2.93   5 2.93  12 2.93
                            17 2.93   8 2.93  15 2.93   6 2.93
  15  0.778  0.444  0.346-  24 2.91  22 2.91  19 2.92  13 2.93  10 2.93  12 2.93  17 2.93  18 2.93
                             4 2.93   6 2.93   9 2.93  14 2.93
  16  0.111  0.778  0.346-  23 2.92  26 2.93  25 2.93  18 2.93  12 2.93  10 2.93  14 2.93  17 2.93
                            13 2.93   7 2.93   8 2.93   1 2.93
  17  0.444  0.778  0.346-  27 2.91  24 2.91  26 2.92  11 2.93  10 2.93   9 2.93  18 2.93  15 2.93
                            16 2.93   2 2.93  14 2.93   8 2.93
  18  0.778  0.778  0.346-  22 2.91  27 2.91  25 2.92  16 2.93  12 2.93  13 2.93  11 2.93  17 2.93
                            15 2.93   7 2.93   3 2.93   9 2.93
  19  0.889  0.222  0.454-  28 2.91  15 2.92  10 2.93  12 2.93  24 2.93  22 2.93  26 2.93  25 2.93
                            32 2.94  31 2.94  20 2.94  21 2.94
  20  0.223  0.223  0.453-  36 2.69  31 2.89  29 2.89  13 2.90  11 2.90  21 2.91  23 2.91  10 2.92
                            27 2.93  22 2.93  19 2.94  26 2.94
  21  0.554  0.223  0.453-  36 2.69  30 2.89  32 2.89  11 2.90  14 2.90  20 2.91  23 2.91  12 2.92
                            27 2.93  24 2.93  25 2.94  19 2.94
  22  0.888  0.556  0.453-  35 2.91  33 2.91  31 2.91  18 2.91  15 2.91  13 2.92  24 2.92  27 2.92
                            25 2.93  19 2.93  23 2.93  20 2.93
  23  0.223  0.554  0.453-  36 2.69  34 2.89  33 2.89  14 2.90  13 2.90  21 2.91  20 2.91  16 2.92
                            22 2.93  24 2.93  26 2.94  25 2.94
  24  0.556  0.556  0.453-  35 2.91  32 2.91  34 2.91  15 2.91  17 2.91  14 2.92  27 2.92  22 2.92
                            19 2.93  26 2.93  23 2.93  21 2.93
  25  0.889  0.889  0.454-  28 2.91  18 2.92  16 2.93  12 2.93  22 2.93  27 2.93  26 2.93  19 2.93
                            33 2.94  30 2.94  23 2.94  21 2.94
  26  0.222  0.889  0.454-  28 2.91  17 2.92  16 2.93  10 2.93  27 2.93  24 2.93  25 2.93  19 2.93
                            34 2.94  29 2.94  23 2.94  20 2.94
  27  0.556  0.888  0.453-  35 2.91  29 2.91  30 2.91  17 2.91  18 2.91  11 2.92  24 2.92  22 2.92
                            26 2.93  25 2.93  20 2.93  21 2.93
  28  0.000  0.000  0.560-  26 2.91  25 2.91  19 2.91  29 2.97  34 2.97  33 2.97  32 2.97  31 2.97
                            30 2.97
  29  0.333  0.008  0.560-  31 2.86  30 2.86  36 2.87  20 2.89  27 2.91  26 2.94  28 2.97  35 2.97
                            34 3.07
  30  0.659  0.008  0.560-  32 2.86  29 2.86  36 2.87  21 2.89  27 2.91  25 2.94  28 2.97  35 2.97
                            33 3.07
  31  0.008  0.333  0.560-  29 2.86  33 2.86  36 2.87  20 2.89  22 2.91  19 2.94  28 2.97  35 2.97
                            32 3.07
  32  0.659  0.333  0.560-  30 2.86  34 2.86  36 2.87  21 2.89  24 2.91  19 2.94  28 2.97  35 2.97
                            31 3.07
  33  0.008  0.659  0.560-  34 2.86  31 2.86  36 2.87  23 2.89  22 2.91  25 2.94  28 2.97  35 2.97
                            30 3.07
  34  0.333  0.659  0.560-  33 2.86  32 2.86  36 2.87  23 2.89  24 2.91  26 2.94  28 2.97  35 2.97
                            29 3.07
  35  0.667  0.667  0.560-  24 2.91  27 2.91  22 2.91  32 2.97  30 2.97  29 2.97  34 2.97  31 2.97
                            33 2.97
  36  0.333  0.333  0.547-  37 1.63  21 2.69  20 2.69  23 2.69  31 2.87  30 2.87  33 2.87  29 2.87
                            34 2.87  32 2.87
  37  0.333  0.333  0.621-  36 1.63

  LATTYP: Found a hexagonal cell.
 ALAT       =     8.7913665772
 C/A-ratio  =     2.5227160501

  Lattice vectors:

 A1 = (  -4.3956832886,  -7.6135467898,   0.0000000000)
 A2 = (   8.7913665771,   0.0000000000,   0.0000000000)
 A3 = (   0.0000000000,   0.0000000000,  22.1781215668)

Analysis of symmetry for initial positions (statically):
 Subroutine PRICEL returns:
 Original cell was already a primitive cell.

 Routine SETGRP: Setting up the symmetry group for a
 hexagonal supercell.

 Subroutine GETGRP returns: Found  6 space group operations
 (whereof  6 operations were pure point group operations)
 out of a pool of 24 trial point group operations.

The static configuration has the point symmetry C_3v.

Analysis of symmetry for dynamics (positions and initial velocities):
 Subroutine PRICEL returns:
 Original cell was already a primitive cell.

[...]

The dynamic configuration has the point symmetry C_3v.

Analysis of constrained symmetry for selective dynamics:
 Subroutine PRICEL returns:
 Original cell was already a primitive cell.

 Routine SETGRP: Setting up the symmetry group for a
 hexagonal supercell.

 Subroutine GETGRP returns: Found  6 space group operations
[...]
     24      -4.6971      2.00000
     25      -4.6879      2.00000
     26      -4.6584      2.00000
     27      -4.6325      2.00000
     28      -4.6237      2.00000
     29      -4.6141      2.00000
     30      -4.6029      2.00000
     31      -4.5887      2.00000
     32      -4.5855      2.00000
     33      -4.5575      2.00000
     34      -4.5121      2.00000
     35      -4.4823      2.00000
     36      -4.4585      2.00000
     37      -4.4411      2.00000
     38      -4.4240      2.00000
     39      -4.3901      2.00000
     40      -4.3860      2.00000
     41      -4.3799      2.00000
     42      -4.3571      2.00000
     43      -4.3449      2.00000
     44      -4.2896      2.00000
     45      -4.2538      2.00000
     46      -4.2398      2.00000
     47      -4.2342      2.00000
     48      -4.2209      2.00000
     49      -4.2174      2.00000
     50      -4.2018      2.00000
     51      -4.1964      2.00000
     52      -4.1836      2.00000
     53      -4.1754      2.00000
     54      -4.1147      2.00000
     55      -4.1007      2.00000
     56      -4.0889      2.00000
     57      -4.0836      2.00000
     58      -4.0732      2.00000
     59      -4.0534      2.00000
     60      -4.0314      2.00000
[...]
    238       6.2677      0.00000
    239       6.3083      0.00000
    240       6.3737      0.00000
    241       6.9780      0.00000
    242       7.1563      0.00000
    243       7.2095      0.00000
    244       7.2933      0.00000
    245       7.3340      0.00000
    246       7.3605      0.00000
    247       7.3984      0.00000
    248       7.4816      0.00000
    249       7.5907      0.00000
    250       7.6276      0.00000
    251       7.6384      0.00000
    252       7.7096      0.00000

 soft charge-density along one line, spin component           1
         0         1         2         3         4         5         6         7         8         9
 total charge-density along one line

------------------------ aborting loop because EDIFF is reached ----------------------------------------

 total charge

# of ion       s       p       d       tot
    1        0.418   0.202   9.178   9.798
    2        0.417   0.203   9.177   9.797
    3        0.417   0.203   9.177   9.797
    4        0.417   0.203   9.177   9.797
    5        0.415   0.205   9.176   9.796
    6        0.417   0.203   9.177   9.797
    7        0.417   0.203   9.177   9.797
    8        0.417   0.203   9.177   9.797
    9        0.414   0.202   9.178   9.794
   10        0.406   0.269   9.164   9.839
   11        0.406   0.270   9.167   9.843
   12        0.406   0.269   9.164   9.839
   13        0.406   0.270   9.167   9.843
   14        0.406   0.270   9.167   9.843
   15        0.403   0.269   9.166   9.837
   16        0.406   0.269   9.164   9.839
   17        0.403   0.269   9.166   9.837
   18        0.403   0.269   9.166   9.837
   19        0.401   0.268   9.164   9.834
   20        0.425   0.292   9.152   9.869
   21        0.425   0.292   9.152   9.869
   22        0.401   0.271   9.168   9.840
   23        0.425   0.292   9.152   9.869
   24        0.401   0.271   9.168   9.840
   25        0.401   0.268   9.164   9.834
   26        0.401   0.268   9.164   9.834
   27        0.401   0.271   9.168   9.840
   28        0.415   0.193   9.183   9.791
   29        0.396   0.203   9.186   9.785
   30        0.396   0.203   9.186   9.785
   31        0.396   0.203   9.186   9.785
   32        0.396   0.203   9.186   9.785
   33        0.396   0.203   9.186   9.785
   34        0.396   0.203   9.186   9.785
   35        0.410   0.195   9.180   9.786
   36        0.461   0.501   7.363   8.326
   37        1.606   3.234   0.000   4.840
tot         16.345  12.086 328.379 356.809

  FORCE on cell =-STRESS in cart. coord.  units (eV):
  Direction    XX          YY          ZZ          XY          YZ          ZX
  Alpha Z   748.18050   748.18050   748.18050
  Ewald  122219.55647122219.55657************     0.00005     0.00000     0.00004
  Hartree132587.73447132587.73452************     0.00002    -0.00000     0.00002
  E(xc)   -2104.63456 -2104.63454 -2109.46467    -0.00002     0.00000     0.00000
  Local  ************************265982.67138     0.00051    -0.00006    -0.00017
  n-local  -361.01924  -342.89457  -352.26731    10.73212    -0.34419     0.47026
  augment  3386.31820  3386.31840  3380.71175    -0.00018     0.00002     0.00006
  Kinetic  4974.42591  4977.68073  4986.23418     3.53626     1.23211    -0.36069
  Fock        0.00000     0.00000     0.00000     0.00000     0.00000     0.00000
  Total      -9.12895    -9.12895    -0.61586    -0.00000    -0.00000     0.00000
  in kB      -9.85288    -9.85288    -0.66470    -0.00000    -0.00000     0.00000

 VOLUME and BASIS-vectors are now :
  energy-cutoff  :      500.00
  volume of cell :     1484.46
      direct lattice vectors                 reciprocal lattice vectors
     8.791366577  0.000000000  0.000000000     0.113747958 -0.065672414  0.000000000
     4.395683289  7.613546790  0.000000000     0.000000000  0.131344829  0.000000000
     0.000000000  0.000000000 22.178121567     0.000000000  0.000000000  0.045089481

  length of vectors
     8.791366577  8.791366577 22.178121567     0.131344829  0.131344829  0.045089481

 FORCES acting on ions
    electron-ion (+dipol)            ewald-force                    non-local-force                 convergence-correction
   0.459E-04 -.283E-04 0.252E+04   -.954E-04 0.593E-04 -.252E+04   -.231E-18 0.443E-17 -.205E+01   -.201E-03 -.223E-03 0.858E-01
   0.540E+00 0.763E+00 0.252E+04   -.662E+00 -.688E+00 -.252E+04   0.524E-01 0.368E-01 -.159E+01   0.673E-01 -.972E-01 0.938E-01
   -.540E+00 0.763E+00 0.252E+04   0.662E+00 -.688E+00 -.252E+04   -.524E-01 0.368E-01 -.159E+01   -.678E-01 -.953E-01 0.947E-01
   0.931E+00 0.863E-01 0.252E+04   -.927E+00 -.229E+00 -.252E+04   0.581E-01 0.270E-01 -.159E+01   -.503E-01 0.107E+00 0.938E-01
   -.528E-05 -.185E-04 0.252E+04   0.981E-04 -.199E-05 -.252E+04   0.381E-17 -.174E-17 -.152E+01   0.626E-02 0.382E-02 0.472E-01
   -.931E+00 0.864E-01 0.252E+04   0.927E+00 -.229E+00 -.252E+04   -.581E-01 0.270E-01 -.159E+01   0.489E-01 0.108E+00 0.946E-01
   0.391E+00 -.849E+00 0.252E+04   -.265E+00 0.917E+00 -.252E+04   0.565E-02 -.638E-01 -.159E+01   -.116E+00 -.105E-01 0.947E-01
   -.391E+00 -.849E+00 0.252E+04   0.265E+00 0.917E+00 -.252E+04   -.565E-02 -.638E-01 -.159E+01   0.118E+00 -.116E-01 0.947E-01
   0.361E-04 -.131E-04 0.252E+04   0.792E-04 -.643E-04 -.252E+04   0.110E-17 0.165E-18 -.186E+01   -.659E-02 -.339E-02 0.130E+00
   0.598E+01 0.346E+01 0.867E+03   -.568E+01 -.328E+01 -.866E+03   -.277E+00 -.160E+00 -.747E+00   -.211E-01 -.122E-01 0.154E+00
   -.293E-04 0.762E+01 0.878E+03   0.419E-04 -.753E+01 -.878E+03   0.552E-12 0.840E-01 -.316E+00   0.686E-02 -.192E+00 0.125E+00
   -.598E+01 0.346E+01 0.867E+03   0.568E+01 -.328E+01 -.866E+03   0.277E+00 -.160E+00 -.747E+00   0.191E-01 -.114E-01 0.155E+00
   0.660E+01 -.381E+01 0.878E+03   -.652E+01 0.377E+01 -.878E+03   0.727E-01 -.420E-01 -.316E+00   -.163E+00 0.102E+00 0.125E+00
   -.660E+01 -.381E+01 0.878E+03   0.652E+01 0.377E+01 -.878E+03   -.727E-01 -.420E-01 -.316E+00   0.174E+00 0.101E+00 0.123E+00
   0.165E-04 0.120E+01 0.868E+03   -.109E-03 -.138E+01 -.867E+03   0.379E-12 0.577E-01 -.643E+00   -.175E-02 0.102E+00 0.156E+00
   -.786E-05 -.691E+01 0.867E+03   0.208E-04 0.656E+01 -.866E+03   0.210E-11 0.320E+00 -.747E+00   -.348E-03 0.221E-01 0.155E+00
   0.104E+01 -.599E+00 0.868E+03   -.119E+01 0.689E+00 -.867E+03   0.500E-01 -.288E-01 -.643E+00   0.871E-01 -.523E-01 0.156E+00
   -.104E+01 -.599E+00 0.868E+03   0.119E+01 0.689E+00 -.867E+03   -.500E-01 -.288E-01 -.643E+00   -.865E-01 -.500E-01 0.158E+00
   0.419E-04 0.311E+01 -.825E+03   -.130E-03 -.334E+01 0.824E+03   0.856E-12 0.130E+00 0.603E+00   -.659E-02 0.985E-01 0.180E+00
   0.381E+02 0.220E+02 -.767E+03   -.369E+02 -.213E+02 0.767E+03   -.108E+01 -.626E+00 -.675E+00   -.974E-01 -.562E-01 0.277E+00
   -.381E+02 0.220E+02 -.767E+03   0.369E+02 -.213E+02 0.767E+03   0.108E+01 -.626E+00 -.675E+00   0.986E-01 -.580E-01 0.277E+00
   0.152E+02 -.878E+01 -.809E+03   -.153E+02 0.884E+01 0.809E+03   0.184E+00 -.106E+00 0.652E+00   -.459E-01 0.355E-01 0.155E+00
   -.617E-04 -.440E+02 -.767E+03   0.473E-04 0.426E+02 0.767E+03   0.822E-11 0.125E+01 -.675E+00   -.609E-03 0.115E+00 0.277E+00
   -.152E+02 -.878E+01 -.809E+03   0.153E+02 0.884E+01 0.809E+03   -.184E+00 -.106E+00 0.652E+00   0.569E-01 0.329E-01 0.155E+00
   -.270E+01 -.156E+01 -.825E+03   0.289E+01 0.167E+01 0.824E+03   -.113E+00 -.652E-01 0.603E+00   -.941E-01 -.545E-01 0.180E+00
   0.270E+01 -.156E+01 -.825E+03   -.289E+01 0.167E+01 0.824E+03   0.113E+00 -.652E-01 0.603E+00   0.817E-01 -.551E-01 0.180E+00
   0.214E-04 0.176E+02 -.809E+03   0.109E-03 -.177E+02 0.809E+03   0.139E-11 0.212E+00 0.652E+00   0.711E-02 -.575E-01 0.155E+00
   0.548E-04 -.372E-04 -.250E+04   -.115E-03 0.780E-04 0.249E+04   0.185E-17 -.195E-17 0.192E+01   -.469E-03 -.407E-03 -.939E-04
   0.408E+02 0.706E+02 -.248E+04   -.409E+02 -.710E+02 0.248E+04   0.404E-01 0.224E+00 0.242E+01   0.330E-01 0.406E-01 -.516E-01
   -.408E+02 0.706E+02 -.248E+04   0.409E+02 -.710E+02 0.248E+04   -.404E-01 0.224E+00 0.242E+01   -.330E-01 0.418E-01 -.532E-01
   0.815E+02 0.676E-03 -.248E+04   -.820E+02 0.747E-01 0.248E+04   0.214E+00 -.771E-01 0.242E+01   0.519E-01 0.840E-02 -.516E-01
   -.815E+02 0.701E-03 -.248E+04   0.820E+02 0.746E-01 0.248E+04   -.214E+00 -.771E-01 0.242E+01   -.529E-01 0.850E-02 -.521E-01
   0.408E+02 -.706E+02 -.248E+04   -.411E+02 0.710E+02 0.248E+04   0.174E+00 -.147E+00 0.242E+01   0.202E-01 -.489E-01 -.532E-01
   -.408E+02 -.706E+02 -.248E+04   0.411E+02 0.710E+02 0.248E+04   -.174E+00 -.147E+00 0.242E+01   -.195E-01 -.500E-01 -.521E-01
   0.215E-04 -.125E-04 -.250E+04   0.107E-03 -.663E-04 0.249E+04   0.667E-17 0.226E-18 0.191E+01   -.610E-02 -.309E-02 -.199E-01
   -.250E-04 -.178E-04 -.169E+04   0.866E-04 0.126E-04 0.169E+04   -.593E-17 -.349E-18 -.178E+01   0.649E-02 0.396E-02 0.308E+00
   0.178E-03 -.955E-04 -.174E+04   0.330E-04 0.588E-06 0.177E+04   0.999E-18 0.874E-18 -.262E+02   0.379E-02 0.232E-02 -.849E-01
   0.549E-03 -.791E-03 0.242E+02   0.911E-13 0.182E-12 -.273E-11   -.276E-15 -.166E-15 -.280E+02   0.162E-01 0.128E-01 0.386E+01

 POSITION                                       TOTAL-FORCE (eV/Angst)
      0.00000      0.00000      5.28219         0.000000     -0.000000     -0.002186
      2.93046      0.00000      5.28219        -0.001198      0.015191      0.031592
      5.86091      0.00000      5.28219         0.001198      0.015191      0.031592
      1.46523      2.53785      5.28219         0.012556     -0.008633      0.031592
      4.39568      2.53785      5.28219         0.000000     -0.000000      0.031541
      7.32614      2.53785      5.28219        -0.012556     -0.008633      0.031592
      2.93046      5.07570      5.28219         0.013754     -0.006558      0.031592
      5.86091      5.07570      5.28219        -0.013754     -0.006558      0.031592
      8.79137      5.07570      5.28219         0.000000     -0.000000      0.009431
      1.46523      0.84595      7.67490         0.006998      0.004040      0.013628
      4.39568      0.84595      7.67490        -0.000000     -0.026563     -0.049115
      7.32614      0.84595      7.67490        -0.006998      0.004040      0.013628
      2.93046      3.38380      7.67490        -0.023004      0.013281     -0.049115
      5.86091      3.38380      7.67490         0.023004      0.013281     -0.049115
      8.79137      3.38380      7.67490        -0.000000     -0.021264     -0.011246
      4.39568      5.92165      7.67490        -0.000000     -0.008081      0.013628
      7.32614      5.92165      7.67490        -0.018415      0.010632     -0.011246
     10.25659      5.92165      7.67490         0.018415      0.010632     -0.011246
      8.79137      1.69398     10.06180         0.000000      0.008769      0.009561
      2.94231      1.69874     10.03918         0.000432      0.000250     -0.137356
      5.84906      1.69874     10.03918        -0.000432      0.000250     -0.137356
     10.25255      4.23208     10.04993         0.014076     -0.008127     -0.023157
      4.39568      4.21606     10.03918        -0.000000     -0.000499     -0.137356
      7.33018      4.23208     10.04993        -0.014076     -0.008127     -0.023157
     11.72002      6.76656     10.06180        -0.007594     -0.004384      0.009561
      5.86271      6.76656     10.06180         0.007594     -0.004384      0.009561
      8.79137      6.76293     10.04993         0.000000      0.016253     -0.023157
      0.00000      0.00000     12.42562         0.000000      0.000000     -0.019830
      2.96563      0.06260     12.41952        -0.097282     -0.180893     -0.041301
      5.82574      0.06260     12.41952         0.097282     -0.180893     -0.041301
      1.53702      2.53701     12.41952        -0.205299      0.006198     -0.041301
      7.25434      2.53701     12.41952         0.205299      0.006198     -0.041301
      2.96708      5.01394     12.41952        -0.108017      0.174696     -0.041301
      5.82429      5.01394     12.41952         0.108017      0.174696     -0.041301
      8.79137      5.07570     12.42127         0.000000      0.000000      0.003399
      4.39568      2.53785     12.13550         0.000000     -0.000000      0.612485
      4.39568      2.53785     13.76330         0.000000     -0.000000      0.016474
    total drift:                                0.016746      0.012053      0.088145

  FREE ENERGIE OF THE ION-ELECTRON SYSTEM (eV)
  free  energy   TOTEN  =      -100.67952251 eV

  energy  without entropy=     -100.67952251  energy(sigma->0) =     -100.67952251

 stress matrix after NEB project (eV)
     -9.12895     -0.00000      0.00000
     -0.00000     -9.12895     -0.00000
      0.00000     -0.00000     -0.61586
  FORCES: max atom, RMS     0.016474    0.002708
  FORCE total and by dimension    0.016474    0.016474
  Stress total and by dimension   12.924961    9.128946
|           W    W    AA    RRRRR   N    N  II  N    N   GGGG   !!!           |
|           W    W   A  A   R    R  NN   N  II  NN   N  G    G  !!!           |
|           W    W  A    A  R    R  N N  N  II  N N  N  G       !!!           |
|           W WW W  AAAAAA  RRRRR   N  N N  II  N  N N  G  GGG   !            |
|           WW  WW  A    A  R   R   N   NN  II  N   NN  G    G                |
|           W    W  A    A  R    R  N    N  II  N    N   GGGG   !!!           |
|     Tetrahedron method does not include variations of the Fermi             |
|     occupations, so forces and stress will be inaccurate. We suggest        |
|     using a different smearing scheme ISMEAR = 1 or 2 for metals in         |
|     relaxations.                                                            |

 total charge

# of ion       s       p       d       tot
    1        0.418   0.202   9.178   9.798
    2        0.417   0.203   9.177   9.797
    3        0.417   0.203   9.177   9.797
    4        0.417   0.203   9.177   9.797
    5        0.415   0.205   9.176   9.796
    6        0.417   0.203   9.177   9.797
    7        0.417   0.203   9.177   9.797
    8        0.417   0.203   9.177   9.797
    9        0.414   0.202   9.178   9.794
   10        0.406   0.269   9.164   9.839
   11        0.406   0.270   9.167   9.843
   12        0.406   0.269   9.164   9.839
   13        0.406   0.270   9.167   9.843
   14        0.406   0.270   9.167   9.843
   15        0.403   0.269   9.166   9.837
   16        0.406   0.269   9.164   9.839
   17        0.403   0.269   9.166   9.837
   18        0.403   0.269   9.166   9.837
   19        0.401   0.268   9.164   9.834
   20        0.425   0.292   9.152   9.869
   21        0.425   0.292   9.152   9.869
   22        0.401   0.271   9.168   9.840
   23        0.425   0.292   9.152   9.869
   24        0.401   0.271   9.168   9.840
   25        0.401   0.268   9.164   9.834
   26        0.401   0.268   9.164   9.834
   27        0.401   0.271   9.168   9.840
   28        0.415   0.193   9.183   9.791
   29        0.396   0.203   9.186   9.785
   30        0.396   0.203   9.186   9.785
   31        0.396   0.203   9.186   9.785
   32        0.396   0.203   9.186   9.785
   33        0.396   0.203   9.186   9.785
   34        0.396   0.203   9.186   9.785
   35        0.410   0.195   9.180   9.786
   36        0.461   0.501   7.363   8.326
   37        1.606   3.234   0.000   4.840
tot         16.345  12.086 328.379 356.809

 BZINTS: Fermi energy:    0.765443;  400.000000 electrons
         Band energy:-0.133571E+04;  BLOECHL correction:   -0.037011