 vasp.6.2.0 18Jan21 (build Jun 12 2021 23:27:24) complex

 executed on             LinuxIFC date 2022.05.27  06:13:11

 INCAR:
   ISMEAR = -5
   SIGMA = 0.1
   ISPIN = 1
   EDIFF = 1.d-5
   EDIFFG = -0.01
   NSW = 0
   NELM = 150
   ENCUT = 500
   ISIF = 2
   IBRION = 2
   LREAL = Auto
   ALGO = Fast
   ICHARG = 11
   LORBIT = 10
   LCHARG = .F.
   LWAVE = .F.

 POTCAR:    PAW_PBE Cu 22Jun2005
 POTCAR:    PAW_PBE Pd 04Jan2005
 POTCAR:    PAW_PBE C 08Apr2002
 POTCAR:    PAW_PBE O 08Apr2002
|           W    W    AA    RRRRR   N    N  II  N    N   GGGG   !!!           |
|           W    W   A  A   R    R  NN   N  II  NN   N  G    G  !!!           |
|           W    W  A    A  R    R  N N  N  II  N N  N  G       !!!           |
|           W WW W  AAAAAA  RRRRR   N  N N  II  N  N N  G  GGG   !            |
|           WW  WW  A    A  R   R   N   NN  II  N   NN  G    G                |
|           W    W  A    A  R    R  N    N  II  N    N   GGGG   !!!           |
|     For optimal performance we recommend to set                             |
|       NCORE = 2 up to number-of-cores-per-socket                            |
|     This setting can greatly improve the performance of VASP for DFT.       |
|     The default, NCORE=1 might be grossly inefficient on modern             |
|     multi-core architectures or massively parallel machines. Do your        |
|     Unfortunately you need to use the default for GW and RPA                |
|     calculations (for HF NCORE is supported but not extensively tested      |
|     yet).                                                                   |

 POTCAR:    PAW_PBE Cu 22Jun2005
   VRHFIN =Cu: d10 p1

   TITEL  = PAW_PBE Cu 22Jun2005
   POMASS =   63.546; ZVAL   =   11.000    mass and valenz
   ENMAX  =  295.446; ENMIN  =  221.585 eV

 POTCAR:    PAW_PBE Pd 04Jan2005
   VRHFIN =Pd : s1 d9

   TITEL  = PAW_PBE Pd 04Jan2005
   POMASS =  106.420; ZVAL   =   10.000    mass and valenz
   ENMAX  =  250.925; ENMIN  =  188.194 eV

 POTCAR:    PAW_PBE C 08Apr2002
   VRHFIN =C: s2p2

   TITEL  = PAW_PBE C 08Apr2002
   POMASS =   12.011; ZVAL   =    4.000    mass and valenz
   ENMAX  =  400.000; ENMIN  =  300.000 eV

 POTCAR:    PAW_PBE O 08Apr2002
   VRHFIN =O: s2p4

   TITEL  = PAW_PBE O 08Apr2002
   POMASS =   16.000; ZVAL   =    6.000    mass and valenz
   ENMAX  =  400.000; ENMIN  =  300.000 eV

 Optimization of the real space projectors (new method)

 maximal supplied QI-value         = 16.25
 optimisation between [QCUT,QGAM] = [ 11.38, 22.75] = [ 36.24,144.96] Ry
 Optimized for a Real-space Cutoff    1.52 Angstroem

   l    n(q)    QCUT    max X(q) W(low)/X(q) W(high)/X(q)  e(spline)
   2      9    11.376     4.610    0.21E-03    0.10E-03    0.26E-06
   2      9    11.376     8.522    0.33E-03    0.16E-03    0.37E-06
   0     10    11.376    51.609    0.62E-04    0.20E-04    0.13E-06
   0     10    11.376    27.747    0.54E-04    0.20E-04    0.13E-06
   1     10    11.376    20.408    0.13E-04    0.99E-04    0.19E-06
   1     10    11.376    13.425    0.12E-04    0.87E-04    0.17E-06
 Optimization of the real space projectors (new method)

[...]

   l    n(q)    QCUT    max X(q) W(low)/X(q) W(high)/X(q)  e(spline)
   0      7    11.310   115.676    0.43E-03    0.13E-02    0.19E-06
   0      7    11.310    87.132    0.43E-03    0.13E-02    0.18E-06
   1      6    11.310     4.429    0.42E-03    0.74E-03    0.11E-06
   1      6    11.310     2.733    0.34E-03    0.55E-03    0.92E-07
 Optimization of the real space projectors (new method)

 maximal supplied QI-value         = 24.76
 optimisation between [QCUT,QGAM] = [ 11.39, 22.77] = [ 36.31,145.25] Ry
 Optimized for a Real-space Cutoff    1.00 Angstroem

   l    n(q)    QCUT    max X(q) W(low)/X(q) W(high)/X(q)  e(spline)
   0      7    11.387    20.381    0.39E-03    0.13E-02    0.15E-06
   0      7    11.387    15.268    0.42E-03    0.14E-02    0.17E-06
   1      6    11.387     5.964    0.41E-03    0.11E-02    0.17E-06
   1      6    11.387     5.382    0.39E-03    0.87E-03    0.15E-06
  PAW_PBE Cu 22Jun2005                  :
  PAW_PBE Pd 04Jan2005                  :
  PAW_PBE C 08Apr2002                   :
  PAW_PBE O 08Apr2002                   :

 POSCAR: Cu-Pd-CO
  positions in direct lattice
  velocities in cartesian coordinates
 exchange correlation table for  LEXCH =        8
   RHO(1)=    0.500       N(1)  =     2000
   RHO(2)=  100.500       N(2)  =     4000

 VTST: version 3.2, (02/03/18)

 CHAIN: initializing optimizer

 OPT: Using VASP Conjugate-Gradient optimizer
 CHAIN: Read ICHAIN            0

 POSCAR: Cu-Pd-CO
  positions in direct lattice
  velocities in cartesian coordinates

 ion  position               nearest neighbor table
   1  0.000  0.000  0.218-   7 2.57   3 2.57   4 2.57   2 2.57   6 2.57   8 2.57  12 2.57  10 2.57
                            16 2.57
   2  0.333  0.000  0.218-   8 2.57   9 2.57   5 2.57   1 2.57   3 2.57  11 2.57   4 2.57  10 2.57
                            17 2.57
   3  0.667  0.000  0.218-   1 2.57   7 2.57   6 2.57   9 2.57   2 2.57  12 2.57   5 2.57  18 2.57
                            11 2.57
   4  0.000  0.333  0.218-   5 2.57   6 2.57   1 2.57   7 2.57   2 2.57  13 2.57   9 2.57  10 2.57
                            15 2.57
   5  0.333  0.333  0.218-   4 2.57   2 2.57   7 2.57  13 2.57   8 2.57   6 2.57   3 2.57  11 2.57
                            14 2.57
   6  0.667  0.333  0.218-   4 2.57   9 2.57  15 2.57   3 2.57   1 2.57   8 2.57  14 2.57   5 2.57
                            12 2.57
   7  0.000  0.667  0.218-   1 2.57   3 2.57  16 2.57  18 2.57   4 2.57   5 2.57   8 2.57   9 2.57
                            13 2.57
   8  0.333  0.667  0.218-   9 2.57   2 2.57  17 2.57   6 2.57   1 2.57   7 2.57   5 2.57  14 2.57
                            16 2.57
   9  0.667  0.667  0.218-   8 2.57   6 2.57   2 2.57  17 2.57   3 2.57   7 2.57   4 2.57  15 2.57
                            18 2.57
  10  0.111  0.111  0.303-  20 2.54  26 2.55  19 2.55  11 2.57  12 2.57  13 2.57   1 2.57   2 2.57
                             4 2.57  15 2.57  16 2.57  17 2.57
  11  0.444  0.111  0.303-  20 2.55  21 2.55  27 2.55  10 2.57  13 2.57   2 2.57  17 2.57  14 2.57
                            12 2.57   5 2.57   3 2.57  18 2.57
  12  0.778  0.111  0.303-  21 2.54  19 2.55  25 2.55  15 2.57  10 2.57  14 2.57  18 2.57   3 2.57
                             1 2.57  16 2.57  11 2.57   6 2.57
  13  0.111  0.444  0.303-  23 2.55  20 2.55  22 2.55  16 2.57  18 2.57  10 2.57  11 2.57  14 2.57
                             5 2.57   4 2.57   7 2.57  15 2.57
  14  0.444  0.444  0.303-  21 2.55  23 2.55  24 2.55  15 2.57  17 2.57  12 2.57  16 2.57  13 2.57
                            11 2.57   6 2.57   8 2.57   5 2.57
  15  0.778  0.444  0.303-  19 2.55  24 2.55  22 2.55  14 2.57  17 2.57  12 2.57   6 2.57  18 2.57
                            10 2.57   9 2.57  13 2.57   4 2.57
  16  0.111  0.778  0.303-  23 2.54  25 2.55  26 2.55  18 2.57  13 2.57   7 2.57  14 2.57  17 2.57
                            12 2.57  10 2.57   8 2.57   1 2.57
  17  0.444  0.778  0.303-  26 2.55  27 2.55  24 2.55  14 2.57  15 2.57   8 2.57   9 2.57  11 2.57
                            16 2.57  18 2.57  10 2.57   2 2.57
  18  0.778  0.778  0.303-  25 2.55  22 2.55  27 2.55  16 2.57  13 2.57   7 2.57  15 2.57  12 2.57
                            17 2.57   9 2.57   3 2.57  11 2.57
  19  0.889  0.222  0.387-  32 2.54  31 2.54  28 2.55  15 2.55  12 2.55  10 2.55  21 2.56  20 2.56
                            22 2.56  24 2.56  25 2.57  26 2.57
  20  0.222  0.222  0.387-  10 2.54  11 2.55  13 2.55  26 2.56  19 2.56  27 2.56  22 2.56  29 2.57
                            31 2.57  23 2.58  21 2.58  36 2.62
  21  0.557  0.222  0.387-  12 2.54  14 2.55  11 2.55  19 2.56  25 2.56  24 2.56  27 2.56  32 2.57
                            30 2.57  20 2.58  23 2.58  36 2.62
  22  0.889  0.555  0.387-  35 2.54  31 2.55  33 2.55  13 2.55  18 2.55  15 2.55  23 2.56  20 2.56
                            19 2.56  25 2.56  24 2.57  27 2.57
  23  0.222  0.557  0.387-  16 2.54  13 2.55  14 2.55  25 2.56  26 2.56  22 2.56  24 2.56  33 2.57
                            34 2.57  20 2.58  21 2.58  36 2.62
  24  0.555  0.555  0.387-  35 2.54  32 2.55  34 2.55  14 2.55  15 2.55  17 2.55  21 2.56  23 2.56
                            19 2.56  26 2.56  22 2.57  27 2.57
  25  0.889  0.889  0.387-  33 2.54  30 2.54  28 2.55  18 2.55  16 2.55  12 2.55  21 2.56  23 2.56
                            22 2.56  27 2.56  19 2.57  26 2.57
  26  0.222  0.889  0.387-  29 2.54  34 2.54  28 2.55  17 2.55  10 2.55  16 2.55  20 2.56  23 2.56
                            27 2.56  24 2.56  25 2.57  19 2.57
  27  0.555  0.889  0.387-  35 2.54  29 2.55  30 2.55  11 2.55  17 2.55  18 2.55  20 2.56  21 2.56
                            26 2.56  25 2.56  24 2.57  22 2.57
  28  0.000  0.000  0.471-  25 2.55  19 2.55  26 2.55  33 2.55  30 2.55  31 2.55  29 2.55  32 2.55
                            34 2.55
  29  0.333  0.996  0.471-  34 2.51  26 2.54  28 2.55  27 2.55  35 2.55  20 2.57  31 2.59  36 2.60
                            30 2.60
  30  0.671  0.996  0.471-  33 2.51  25 2.54  28 2.55  27 2.55  35 2.55  21 2.57  32 2.59  36 2.60
                            29 2.60
  31  0.996  0.333  0.471-  32 2.51  19 2.54  28 2.55  22 2.55  35 2.55  20 2.57  29 2.59  36 2.60
                            33 2.60
  32  0.671  0.333  0.471-  31 2.51  19 2.54  28 2.55  24 2.55  35 2.55  21 2.57  30 2.59  36 2.60
                            34 2.60
  33  0.996  0.671  0.471-  30 2.51  25 2.54  28 2.55  22 2.55  35 2.55  23 2.57  34 2.59  36 2.60
                            31 2.60
  34  0.333  0.671  0.471-  29 2.51  26 2.54  28 2.55  24 2.55  35 2.55  23 2.57  33 2.59  36 2.60
                            32 2.60
  35  0.667  0.667  0.471-  24 2.54  27 2.54  22 2.54  34 2.55  32 2.55  29 2.55  30 2.55  33 2.55
                            31 2.55
  36  0.333  0.333  0.474-  37 1.91  31 2.60  29 2.60  33 2.60  34 2.60  32 2.60  30 2.60  23 2.62
                            20 2.62  21 2.62
  37  0.333  0.333  0.552-  38 1.16  36 1.91
  38  0.333  0.333  0.599-  37 1.16

  LATTYP: Found a hexagonal cell.
 ALAT       =     7.6967864036
 C/A-ratio  =     3.2035062624

  Lattice vectors:

 A1 = (  -3.8483927580,  -6.6656128093,   0.0000000000)
 A2 = (   7.6967864037,   0.0000000000,   0.0000000000)
 A3 = (   0.0000000000,   0.0000000000,  24.6567034444)

Analysis of symmetry for initial positions (statically):
 Subroutine PRICEL returns:
 Original cell was already a primitive cell.

 Routine SETGRP: Setting up the symmetry group for a
 hexagonal supercell.

 Subroutine GETGRP returns: Found  6 space group operations
 (whereof  6 operations were pure point group operations)
 out of a pool of 24 trial point group operations.

The static configuration has the point symmetry C_3v.

Analysis of symmetry for dynamics (positions and initial velocities):
 Subroutine PRICEL returns:
 Original cell was already a primitive cell.

[...]

The dynamic configuration has the point symmetry C_3v.

Analysis of constrained symmetry for selective dynamics:
 Subroutine PRICEL returns:
[...]
     33      -4.5521      2.00000
     34      -4.5255      2.00000
     35      -4.5103      2.00000
     36      -4.4968      2.00000
     37      -4.4846      2.00000
     38      -4.4649      2.00000
     39      -4.4396      2.00000
     40      -4.3921      2.00000
     41      -4.3231      2.00000
     42      -4.2360      2.00000
     43      -4.1971      2.00000
     44      -4.1784      2.00000
     45      -4.1732      2.00000
     46      -4.1153      2.00000
     47      -4.0874      2.00000
     48      -4.0717      2.00000
     49      -4.0684      2.00000
     50      -4.0592      2.00000
     51      -3.9241      2.00000
     52      -3.8958      2.00000
     53      -3.8825      2.00000
     54      -3.8634      2.00000
     55      -3.8388      2.00000
     56      -3.8249      2.00000
     57      -3.7885      2.00000
     58      -3.7731      2.00000
     59      -3.7596      2.00000
     60      -3.7475      2.00000
[...]
    238       5.3532      0.00000
    239       5.4358      0.00000
    240       5.6075      0.00000
    241       5.6985      0.00000
    242       5.8289      0.00000
    243       5.8316      0.00000
    244       5.8572      0.00000
    245       5.9537      0.00000
    246       6.0439      0.00000
    247       6.1337      0.00000
    248       6.2550      0.00000
    249       6.4719      0.00000
    250       6.7355      0.00000
    251       6.8345      0.00000
    252       7.0374      0.00000

 soft charge-density along one line, spin component           1
         0         1         2         3         4         5         6         7         8         9
 total charge-density along one line

------------------------ aborting loop because EDIFF is reached ----------------------------------------

 total charge

# of ion       s       p       d       tot
    1        0.445   0.285   9.187   9.917
    2        0.449   0.284   9.187   9.921
    3        0.449   0.284   9.187   9.921
    4        0.449   0.284   9.187   9.921
    5        0.447   0.287   9.185   9.919
    6        0.449   0.284   9.187   9.921
    7        0.449   0.284   9.187   9.921
    8        0.449   0.284   9.187   9.921
    9        0.446   0.285   9.188   9.919
   10        0.441   0.374   9.178   9.994
   11        0.444   0.370   9.182   9.995
   12        0.441   0.374   9.178   9.994
   13        0.444   0.370   9.182   9.995
   14        0.444   0.370   9.182   9.995
   15        0.438   0.374   9.181   9.992
   16        0.441   0.374   9.178   9.994
   17        0.438   0.374   9.181   9.992
   18        0.438   0.374   9.181   9.992
   19        0.445   0.377   9.183  10.004
   20        0.444   0.382   9.176  10.002
   21        0.444   0.382   9.176  10.002
   22        0.439   0.377   9.180   9.996
   23        0.444   0.382   9.176  10.002
   24        0.439   0.377   9.180   9.996
   25        0.445   0.377   9.183  10.004
   26        0.445   0.377   9.183  10.004
   27        0.439   0.377   9.180   9.996
   28        0.456   0.293   9.192   9.941
   29        0.447   0.295   9.198   9.941
   30        0.447   0.295   9.198   9.941
   31        0.447   0.295   9.198   9.941
   32        0.447   0.295   9.198   9.941
   33        0.447   0.295   9.198   9.941
   34        0.447   0.295   9.198   9.941
   35        0.454   0.294   9.193   9.941
   36        0.564   0.711   8.496   9.771
   37        0.969   1.528   0.000   2.496
   38        1.619   3.526   0.000   5.145
tot         18.728  17.446 329.991 366.164

  FORCE on cell =-STRESS in cart. coord.  units (eV):
  Direction    XX          YY          ZZ          XY          YZ          ZX
  Alpha Z   779.85950   779.85950   779.85950
  Ewald  241983.61780241983.61736************     0.00040     0.00012     0.00019
  Hartree255009.44919255009.44916************     0.00004     0.00006     0.00008
  E(xc)   -2344.78407 -2344.78361 -2347.43196    -0.00039    -0.00003    -0.00005
  Local  ************************510057.67246     0.01879    -0.00058    -0.00098
  n-local  -778.90387  -765.70729  -794.23692     7.18975    -0.04089     0.10008
  augment  3390.21268  3390.23282  3399.02821    -0.01744     0.00038     0.00067
  Kinetic  3466.10942  3467.62700  3450.92991     2.63502     2.08517    -1.49547
  Fock        0.00000     0.00000     0.00000     0.00000     0.00000     0.00000
  Total       1.25764     1.25764     5.41963    -0.00000     0.00000    -0.00000
  in kB       1.59288     1.59288     6.86429    -0.00000     0.00000    -0.00000

 VOLUME and BASIS-vectors are now :
  energy-cutoff  :      500.00
  volume of cell :     1264.98
      direct lattice vectors                 reciprocal lattice vectors
     7.696786404  0.000000000  0.000000000     0.129924354 -0.075011849  0.000000000
     3.848392758  6.665612809  0.000000000     0.000000000  0.150023716  0.000000000
     0.000000000  0.000000000 24.656703444     0.000000000  0.000000000  0.040556922

  length of vectors
     7.696786404  7.696786404 24.656703444     0.150023716  0.150023716  0.040556922

 FORCES acting on ions
    electron-ion (+dipol)            ewald-force                    non-local-force                 convergence-correction
   -.426E-04 -.439E-06 0.384E+04   0.579E-04 -.442E-05 -.384E+04   0.235E-17 0.260E-17 -.299E+01   -.259E-03 -.117E-03 -.121E+01
   -.246E+00 -.122E+00 0.384E+04   0.349E+00 0.199E+00 -.384E+04   -.161E-01 -.295E-01 -.207E+01   -.779E-01 -.322E-01 -.108E+01
   0.246E+00 -.122E+00 0.384E+04   -.349E+00 0.199E+00 -.384E+04   0.161E-01 -.295E-01 -.207E+01   0.786E-01 -.296E-01 -.108E+01
   -.228E+00 -.152E+00 0.384E+04   0.347E+00 0.203E+00 -.384E+04   -.336E-01 0.810E-03 -.207E+01   -.667E-01 -.514E-01 -.108E+01
   -.676E-04 -.672E-05 0.384E+04   0.116E-03 -.101E-04 -.384E+04   0.584E-17 0.174E-17 -.200E+01   0.122E-01 0.746E-02 -.892E+00
   0.228E+00 -.152E+00 0.384E+04   -.347E+00 0.202E+00 -.384E+04   0.336E-01 0.810E-03 -.207E+01   0.651E-01 -.501E-01 -.107E+01
   0.171E-01 0.274E+00 0.384E+04   -.204E-02 -.402E+00 -.384E+04   -.175E-01 0.287E-01 -.207E+01   0.137E-01 0.828E-01 -.108E+01
   -.170E-01 0.274E+00 0.384E+04   0.177E-02 -.402E+00 -.384E+04   0.175E-01 0.287E-01 -.207E+01   -.102E-01 0.814E-01 -.107E+01
   -.145E-03 -.336E-04 0.384E+04   0.263E-03 0.206E-04 -.384E+04   0.114E-16 0.279E-17 -.255E+01   -.133E-01 -.687E-02 -.111E+01
   -.155E+01 -.895E+00 0.135E+04   0.194E+01 0.112E+01 -.135E+04   -.327E+00 -.189E+00 -.909E+00   -.306E-01 -.177E-01 -.783E+00
   -.900E-04 -.257E+01 0.135E+04   0.191E-03 0.252E+01 -.134E+04   0.910E-10 -.137E-02 -.777E+00   0.113E-01 0.313E-01 -.648E+00
   0.155E+01 -.895E+00 0.135E+04   -.194E+01 0.112E+01 -.135E+04   0.327E+00 -.189E+00 -.909E+00   0.291E-01 -.157E-01 -.784E+00
   -.223E+01 0.129E+01 0.135E+04   0.218E+01 -.126E+01 -.134E+04   -.118E-02 0.683E-03 -.777E+00   0.332E-01 -.504E-02 -.648E+00
   0.223E+01 0.129E+01 0.135E+04   -.219E+01 -.126E+01 -.134E+04   0.118E-02 0.683E-03 -.777E+00   -.901E-02 -.558E-02 -.648E+00
   -.141E-03 -.153E+01 0.135E+04   0.298E-03 0.152E+01 -.135E+04   -.186E-08 0.279E-01 -.674E+00   -.380E-02 -.240E-01 -.800E+00
   -.907E-04 0.179E+01 0.135E+04   0.186E-03 -.224E+01 -.135E+04   -.252E-07 0.378E+00 -.909E+00   -.153E-04 0.318E-01 -.784E+00
   -.132E+01 0.765E+00 0.135E+04   0.132E+01 -.761E+00 -.135E+04   0.242E-01 -.140E-01 -.674E+00   -.220E-01 0.868E-02 -.800E+00
   0.133E+01 0.765E+00 0.135E+04   -.132E+01 -.761E+00 -.135E+04   -.242E-01 -.140E-01 -.674E+00   0.223E-01 0.112E-01 -.801E+00
   -.583E-04 -.880E+00 -.116E+04   0.677E-04 0.866E+00 0.116E+04   -.193E-08 0.290E-01 0.914E+00   0.953E-02 -.994E-02 0.196E+00
   -.218E+02 -.126E+02 -.118E+04   0.222E+02 0.128E+02 0.118E+04   -.500E+00 -.289E+00 -.374E+00   0.950E-01 0.547E-01 0.273E+00
   0.218E+02 -.126E+02 -.118E+04   -.222E+02 0.128E+02 0.118E+04   0.500E+00 -.289E+00 -.374E+00   -.729E-01 0.572E-01 0.273E+00
   -.895E+01 0.517E+01 -.117E+04   0.863E+01 -.498E+01 0.117E+04   0.259E+00 -.149E+00 0.981E+00   0.872E-01 -.535E-01 0.278E+00
   -.765E-04 0.251E+02 -.118E+04   0.148E-03 -.257E+02 0.118E+04   -.384E-07 0.577E+00 -.374E+00   0.119E-01 -.929E-01 0.273E+00
   0.895E+01 0.517E+01 -.117E+04   -.863E+01 -.498E+01 0.117E+04   -.259E+00 -.149E+00 0.981E+00   -.901E-01 -.529E-01 0.278E+00
   0.762E+00 0.440E+00 -.116E+04   -.750E+00 -.433E+00 0.116E+04   -.251E-01 -.145E-01 0.914E+00   0.265E-01 0.153E-01 0.195E+00
   -.762E+00 0.440E+00 -.116E+04   0.750E+00 -.433E+00 0.116E+04   0.251E-01 -.145E-01 0.914E+00   -.349E-02 0.134E-01 0.196E+00
   -.133E-03 -.103E+02 -.117E+04   0.246E-03 0.997E+01 0.117E+04   -.199E-07 0.299E+00 0.981E+00   -.282E-02 0.102E+00 0.278E+00
   -.190E-04 0.270E-04 -.368E+04   0.374E-04 -.340E-04 0.368E+04   -.358E-17 -.442E-18 0.195E+01   0.709E-04 0.927E-04 0.988E+00
   -.395E+01 -.511E+01 -.366E+04   0.339E+01 0.394E+01 0.365E+04   0.449E+00 0.928E+00 0.277E+01   0.361E-01 0.773E-01 0.924E+00
   0.395E+01 -.511E+01 -.366E+04   -.339E+01 0.394E+01 0.365E+04   -.449E+00 0.928E+00 0.277E+01   -.356E-01 0.800E-01 0.925E+00
   -.640E+01 -.866E+00 -.366E+04   0.511E+01 0.966E+00 0.365E+04   0.103E+01 -.752E-01 0.277E+01   0.850E-01 -.748E-02 0.924E+00
   0.640E+01 -.867E+00 -.366E+04   -.511E+01 0.966E+00 0.365E+04   -.103E+01 -.752E-01 0.277E+01   -.866E-01 -.598E-02 0.924E+00
   -.245E+01 0.598E+01 -.366E+04   0.172E+01 -.491E+01 0.365E+04   0.579E+00 -.853E+00 0.277E+01   0.515E-01 -.709E-01 0.925E+00
   0.245E+01 0.598E+01 -.366E+04   -.172E+01 -.491E+01 0.365E+04   -.579E+00 -.853E+00 0.277E+01   -.478E-01 -.720E-01 0.924E+00
   -.152E-03 -.243E-04 -.368E+04   0.259E-03 0.302E-05 0.368E+04   -.147E-17 0.957E-18 0.223E+01   -.135E-01 -.700E-02 0.922E+00
   -.391E-04 -.400E-04 -.319E+04   0.120E-03 0.255E-04 0.319E+04   0.308E-17 0.389E-17 -.146E+01   0.423E-02 0.256E-02 0.691E+00
   -.469E-05 -.792E-04 -.140E+04   0.835E-05 0.423E-05 0.138E+04   -.211E-18 0.409E-19 0.173E+02   0.110E-02 0.667E-03 0.104E+00
   0.227E-03 -.742E-04 -.225E+04   0.218E-05 0.214E-05 0.231E+04   0.110E-18 -.103E-18 -.601E+02   0.326E-02 0.199E-02 0.321E-01
   -.512E-04 -.191E-03 0.517E+02   0.168E-12 0.106E-12 0.146E-10   0.113E-15 0.479E-17 -.459E+02   0.904E-01 0.493E-01 -.583E+01

 POSITION                                       TOTAL-FORCE (eV/Angst)
      0.00000      0.00000      5.37156        -0.000000      0.000000      0.093883
      2.56560      0.00000      5.37156         0.009795      0.016554      0.102787
      5.13119      0.00000      5.37156        -0.009795      0.016554      0.102787
      1.28280      2.22187      5.37156         0.019234      0.000205      0.102787
      3.84839      2.22187      5.37156        -0.000000     -0.000000      0.084838
      6.41399      2.22187      5.37156        -0.019234      0.000205      0.102787
      2.56560      4.44374      5.37156         0.009439     -0.016759      0.102787
      5.13119      4.44374      5.37156        -0.009439     -0.016759      0.102787
      7.69679      4.44374      5.37156        -0.000000     -0.000000      0.085877
      1.28280      0.74062      7.46636         0.032613      0.018829     -0.109451
      3.84839      0.74062      7.46636         0.000000     -0.026457     -0.145447
      6.41399      0.74062      7.46636        -0.032613      0.018829     -0.109451
      2.56560      2.96249      7.46636        -0.022912      0.013228     -0.145447
      5.13119      2.96249      7.46636         0.022912      0.013228     -0.145447
      7.69679      2.96249      7.46636         0.000000     -0.003018     -0.073427
      3.84839      5.18437      7.46636         0.000000     -0.037658     -0.109451
      6.41399      5.18437      7.46636        -0.002614      0.001509     -0.073427
      8.97958      5.18437      7.46636         0.002614      0.001509     -0.073427
      7.69679      1.48223      9.53996         0.000000     -0.001946      0.023656
      2.55948      1.47772      9.53985         0.026842      0.015497     -0.138419
      5.13731      1.47772      9.53985        -0.026842      0.015497     -0.138419
      8.98047      3.70261      9.54732         0.032494     -0.018760      0.018162
      3.84839      3.71018      9.53985         0.000000     -0.030994     -0.138419
      6.41310      3.70261      9.54732        -0.032494     -0.018760      0.018162
     10.26153      5.92450      9.53996         0.001686      0.000973      0.023656
      5.13204      5.92450      9.53996        -0.001686      0.000973      0.023656
      7.69679      5.92601      9.54732        -0.000000      0.037520      0.018162
      0.00000      0.00000     11.61018        -0.000000      0.000000     -0.038221
      6.39795      6.64100     11.62214        -0.072386     -0.158812     -0.049244
      8.99562      6.64100     11.62214         0.072386     -0.158812     -0.049244
      8.95025      2.22029     11.62214        -0.173728      0.016718     -0.049244
      6.44333      2.22029     11.62214         0.173728      0.016718     -0.049244
     10.24908      4.46994     11.62214        -0.101342      0.142094     -0.049244
      5.14449      4.46994     11.62214         0.101342      0.142094     -0.049244
      7.69679      4.44374     11.61116        -0.000000     -0.000000     -0.004594
      3.84839      2.22187     11.69545        -0.000000      0.000000      0.760719
      3.84839      2.22187     13.60824        -0.000000      0.000000     -0.032910
      3.84839      2.22187     14.76655        -0.000000      0.000000      0.003930
    total drift:                                0.090398      0.049157     -0.060456

  FREE ENERGIE OF THE ION-ELECTRON SYSTEM (eV)
  free  energy   TOTEN  =      -143.69996411 eV

  energy  without entropy=     -143.69996411  energy(sigma->0) =     -143.69996411

 stress matrix after NEB project (eV)
      1.25764     -0.00000     -0.00000
     -0.00000      1.25764      0.00000
     -0.00000      0.00000      5.41963
  FORCES: max atom, RMS     0.032910    0.005377
  FORCE total and by dimension    0.033144    0.032910
  Stress total and by dimension    5.704011    5.419631
|           W    W    AA    RRRRR   N    N  II  N    N   GGGG   !!!           |
|           W    W   A  A   R    R  NN   N  II  NN   N  G    G  !!!           |
|           W    W  A    A  R    R  N N  N  II  N N  N  G       !!!           |
|           W WW W  AAAAAA  RRRRR   N  N N  II  N  N N  G  GGG   !            |
|           WW  WW  A    A  R   R   N   NN  II  N   NN  G    G                |
|           W    W  A    A  R    R  N    N  II  N    N   GGGG   !!!           |
|     Tetrahedron method does not include variations of the Fermi             |
|     occupations, so forces and stress will be inaccurate. We suggest        |
|     using a different smearing scheme ISMEAR = 1 or 2 for metals in         |
|     relaxations.                                                            |

 total charge

# of ion       s       p       d       tot
    1        0.445   0.285   9.187   9.917
    2        0.449   0.284   9.187   9.921
    3        0.449   0.284   9.187   9.921
    4        0.449   0.284   9.187   9.921
    5        0.447   0.287   9.185   9.919
    6        0.449   0.284   9.187   9.921
    7        0.449   0.284   9.187   9.921
    8        0.449   0.284   9.187   9.921
    9        0.446   0.285   9.188   9.919
   10        0.441   0.374   9.178   9.994
   11        0.444   0.370   9.182   9.995
   12        0.441   0.374   9.178   9.994
   13        0.444   0.370   9.182   9.995
   14        0.444   0.370   9.182   9.995
   15        0.438   0.374   9.181   9.992
   16        0.441   0.374   9.178   9.994
   17        0.438   0.374   9.181   9.992
   18        0.438   0.374   9.181   9.992
   19        0.445   0.377   9.183  10.004
   20        0.444   0.382   9.176  10.002
   21        0.444   0.382   9.176  10.002
   22        0.439   0.377   9.180   9.996
   23        0.444   0.382   9.176  10.002
   24        0.439   0.377   9.180   9.996
   25        0.445   0.377   9.183  10.004
   26        0.445   0.377   9.183  10.004
   27        0.439   0.377   9.180   9.996
   28        0.456   0.293   9.192   9.941
   29        0.447   0.295   9.198   9.941
   30        0.447   0.295   9.198   9.941
   31        0.447   0.295   9.198   9.941
   32        0.447   0.295   9.198   9.941
   33        0.447   0.295   9.198   9.941
   34        0.447   0.295   9.198   9.941
   35        0.454   0.294   9.193   9.941
   36        0.564   0.711   8.496   9.771
   37        0.969   1.528   0.000   2.496
   38        1.619   3.526   0.000   5.145
tot         18.728  17.446 329.991 366.164

 BZINTS: Fermi energy:   -0.422133;  405.000000 electrons
         Band energy:-0.138347E+04;  BLOECHL correction:   -0.061820