 vasp.6.2.0 18Jan21 (build Jun 12 2021 23:27:24) complex

 executed on             LinuxIFC date 2022.05.28  02:30:39

 INCAR:
   ISMEAR = -5
   SIGMA = 0.1
   ISPIN = 1
   EDIFF = 1.d-5
   EDIFFG = -0.01
   NSW = 0
   NELM = 150
   ENCUT = 500
   ISIF = 2
   IBRION = 2
   LREAL = Auto
   ALGO = Fast
   ICHARG = 11
   LORBIT = 10
   LCHARG = .F.
   LWAVE = .F.

 POTCAR:    PAW_PBE Cu 22Jun2005
 POTCAR:    PAW_PBE Nb_sv 25May2007
 POTCAR:    PAW_PBE C 08Apr2002
 POTCAR:    PAW_PBE O 08Apr2002
|           W    W    AA    RRRRR   N    N  II  N    N   GGGG   !!!           |
|           W    W   A  A   R    R  NN   N  II  NN   N  G    G  !!!           |
|           W    W  A    A  R    R  N N  N  II  N N  N  G       !!!           |
|           W WW W  AAAAAA  RRRRR   N  N N  II  N  N N  G  GGG   !            |
|           WW  WW  A    A  R   R   N   NN  II  N   NN  G    G                |
|           W    W  A    A  R    R  N    N  II  N    N   GGGG   !!!           |
|     For optimal performance we recommend to set                             |
|       NCORE = 2 up to number-of-cores-per-socket                            |
|     This setting can greatly improve the performance of VASP for DFT.       |
|     The default, NCORE=1 might be grossly inefficient on modern             |
|     multi-core architectures or massively parallel machines. Do your        |
|     Unfortunately you need to use the default for GW and RPA                |
|     calculations (for HF NCORE is supported but not extensively tested      |
|     yet).                                                                   |

 POTCAR:    PAW_PBE Cu 22Jun2005
   VRHFIN =Cu: d10 p1

   TITEL  = PAW_PBE Cu 22Jun2005
   POMASS =   63.546; ZVAL   =   11.000    mass and valenz
   ENMAX  =  295.446; ENMIN  =  221.585 eV

 POTCAR:    PAW_PBE Nb_sv 25May2007
   VRHFIN =Nb: 4p5s4d

   TITEL  = PAW_PBE Nb_sv 25May2007
   POMASS =   92.910; ZVAL   =   13.000    mass and valenz
   ENMAX  =  293.235; ENMIN  =  219.927 eV

 POTCAR:    PAW_PBE C 08Apr2002
   VRHFIN =C: s2p2

   TITEL  = PAW_PBE C 08Apr2002
   POMASS =   12.011; ZVAL   =    4.000    mass and valenz
   ENMAX  =  400.000; ENMIN  =  300.000 eV

 POTCAR:    PAW_PBE O 08Apr2002
   VRHFIN =O: s2p4

   TITEL  = PAW_PBE O 08Apr2002
   POMASS =   16.000; ZVAL   =    6.000    mass and valenz
   ENMAX  =  400.000; ENMIN  =  300.000 eV

 Optimization of the real space projectors (new method)

 maximal supplied QI-value         = 16.25
 optimisation between [QCUT,QGAM] = [ 11.38, 22.75] = [ 36.24,144.96] Ry
 Optimized for a Real-space Cutoff    1.52 Angstroem

   l    n(q)    QCUT    max X(q) W(low)/X(q) W(high)/X(q)  e(spline)
   2      9    11.376     4.610    0.21E-03    0.10E-03    0.26E-06
   2      9    11.376     8.522    0.33E-03    0.16E-03    0.37E-06
   0     10    11.376    51.609    0.62E-04    0.20E-04    0.13E-06
   0     10    11.376    27.747    0.54E-04    0.20E-04    0.13E-06
   1     10    11.376    20.408    0.13E-04    0.99E-04    0.19E-06
   1     10    11.376    13.425    0.12E-04    0.87E-04    0.17E-06
 Optimization of the real space projectors (new method)

[...]

   l    n(q)    QCUT    max X(q) W(low)/X(q) W(high)/X(q)  e(spline)
   0      7    11.310   115.676    0.43E-03    0.13E-02    0.19E-06
   0      7    11.310    87.132    0.43E-03    0.13E-02    0.18E-06
   1      6    11.310     4.429    0.42E-03    0.74E-03    0.11E-06
   1      6    11.310     2.733    0.34E-03    0.55E-03    0.92E-07
 Optimization of the real space projectors (new method)

 maximal supplied QI-value         = 24.76
 optimisation between [QCUT,QGAM] = [ 11.39, 22.77] = [ 36.31,145.25] Ry
 Optimized for a Real-space Cutoff    1.00 Angstroem

   l    n(q)    QCUT    max X(q) W(low)/X(q) W(high)/X(q)  e(spline)
   0      7    11.387    20.381    0.39E-03    0.13E-02    0.15E-06
   0      7    11.387    15.268    0.42E-03    0.14E-02    0.17E-06
   1      6    11.387     5.964    0.41E-03    0.11E-02    0.17E-06
   1      6    11.387     5.382    0.39E-03    0.87E-03    0.15E-06
  PAW_PBE Cu 22Jun2005                  :
  PAW_PBE Nb_sv 25May2007               :
  PAW_PBE C 08Apr2002                   :
  PAW_PBE O 08Apr2002                   :

 POSCAR: Cu-Nb-CO2
  positions in direct lattice
  velocities in cartesian coordinates
 exchange correlation table for  LEXCH =        8
   RHO(1)=    0.500       N(1)  =     2000
   RHO(2)=  100.500       N(2)  =     4000

 VTST: version 3.2, (02/03/18)

 CHAIN: initializing optimizer

 OPT: Using VASP Conjugate-Gradient optimizer
 CHAIN: Read ICHAIN            0

 POSCAR: Cu-Nb-CO2
  positions in direct lattice
  velocities in cartesian coordinates

 ion  position               nearest neighbor table
   1  0.000  0.000  0.229-   7 2.57   3 2.57   4 2.57   2 2.57   6 2.57   8 2.57  12 2.57  10 2.57
                            16 2.57
   2  0.333  0.000  0.229-   8 2.57   9 2.57   5 2.57   1 2.57   3 2.57  11 2.57   4 2.57  10 2.57
                            17 2.57
   3  0.667  0.000  0.229-   1 2.57   7 2.57   6 2.57   9 2.57   2 2.57  12 2.57   5 2.57  18 2.57
                            11 2.57
   4  0.000  0.333  0.229-   5 2.57   6 2.57   1 2.57   7 2.57   2 2.57  13 2.57   9 2.57  10 2.57
                            15 2.57
   5  0.333  0.333  0.229-   4 2.57   2 2.57   7 2.57  13 2.57   8 2.57   6 2.57   3 2.57  11 2.57
                            14 2.57
   6  0.667  0.333  0.229-   4 2.57   9 2.57  15 2.57   3 2.57   1 2.57   8 2.57  14 2.57   5 2.57
                            12 2.57
   7  0.000  0.667  0.229-   1 2.57   3 2.57  16 2.57  18 2.57   4 2.57   5 2.57   8 2.57   9 2.57
                            13 2.57
   8  0.333  0.667  0.229-   9 2.57   2 2.57  17 2.57   6 2.57   1 2.57   7 2.57   5 2.57  14 2.57
                            16 2.57
   9  0.667  0.667  0.229-   8 2.57   6 2.57   2 2.57  17 2.57   3 2.57   7 2.57   4 2.57  15 2.57
                            18 2.57
  10  0.111  0.111  0.318-  26 2.55  19 2.55  11 2.57  12 2.57  13 2.57   1 2.57   2 2.57   4 2.57
                            15 2.57  16 2.57  17 2.57  20 2.57
  11  0.444  0.111  0.318-  20 2.57  21 2.57  10 2.57  13 2.57   2 2.57  17 2.57  14 2.57  12 2.57
                             5 2.57   3 2.57  18 2.57  27 2.57
  12  0.778  0.111  0.318-  19 2.55  25 2.55  15 2.57  10 2.57  14 2.57  18 2.57   3 2.57   1 2.57
                            16 2.57  11 2.57   6 2.57  21 2.57
  13  0.111  0.444  0.318-  23 2.57  20 2.57  16 2.57  18 2.57  10 2.57  11 2.57  14 2.57   5 2.57
                             4 2.57   7 2.57  15 2.57  22 2.57
  14  0.444  0.444  0.318-  21 2.57  23 2.57  15 2.57  17 2.57  12 2.57  16 2.57  13 2.57  11 2.57
                             6 2.57   8 2.57   5 2.57  24 2.57
  15  0.778  0.444  0.318-  19 2.55  14 2.57  17 2.57  12 2.57   6 2.57  18 2.57  10 2.57   9 2.57
                            13 2.57   4 2.57  24 2.57  22 2.57
  16  0.111  0.778  0.318-  25 2.55  26 2.55  18 2.57  13 2.57   7 2.57  14 2.57  17 2.57  12 2.57
                            10 2.57   8 2.57   1 2.57  23 2.57
  17  0.444  0.778  0.318-  26 2.55  14 2.57  15 2.57   8 2.57   9 2.57  11 2.57  16 2.57  18 2.57
                            10 2.57   2 2.57  27 2.57  24 2.57
  18  0.778  0.778  0.318-  25 2.55  16 2.57  13 2.57   7 2.57  15 2.57  12 2.57  17 2.57   9 2.57
                             3 2.57  11 2.57  22 2.57  27 2.57
  19  0.889  0.222  0.407-  12 2.55  10 2.55  15 2.55  25 2.56  26 2.56  21 2.57  20 2.57  22 2.57
                            24 2.57  28 2.57  32 2.58  31 2.58
  20  0.222  0.222  0.408-  23 2.56  21 2.56  11 2.57  13 2.57  10 2.57  26 2.57  19 2.57  27 2.57
                            22 2.57  29 2.59  31 2.59  36 2.66
  21  0.555  0.222  0.408-  20 2.56  23 2.56  14 2.57  11 2.57  12 2.57  19 2.57  25 2.57  24 2.57
                            27 2.57  32 2.59  30 2.59  36 2.66
  22  0.889  0.556  0.408-  24 2.56  27 2.56  18 2.57  15 2.57  23 2.57  20 2.57  19 2.57  25 2.57
                            13 2.57  35 2.57  31 2.57  33 2.57
  23  0.222  0.555  0.408-  20 2.56  21 2.56  13 2.57  14 2.57  16 2.57  25 2.57  26 2.57  22 2.57
                            24 2.57  33 2.59  34 2.59  36 2.66
  24  0.556  0.556  0.408-  22 2.56  27 2.56  15 2.57  17 2.57  21 2.57  23 2.57  19 2.57  26 2.57
                            14 2.57  35 2.57  32 2.57  34 2.57
  25  0.889  0.889  0.407-  12 2.55  16 2.55  18 2.55  19 2.56  26 2.56  21 2.57  23 2.57  22 2.57
                            27 2.57  28 2.57  33 2.58  30 2.58
  26  0.222  0.889  0.407-  10 2.55  16 2.55  17 2.55  25 2.56  19 2.56  20 2.57  23 2.57  27 2.57
                            24 2.57  28 2.57  29 2.58  34 2.58
  27  0.556  0.889  0.408-  24 2.56  22 2.56  17 2.57  18 2.57  20 2.57  21 2.57  26 2.57  25 2.57
                            11 2.57  35 2.57  29 2.57  30 2.57
  28  0.000  0.000  0.496-  33 2.55  30 2.55  31 2.55  29 2.55  32 2.55  34 2.55  25 2.57  19 2.57
                            26 2.57
  29  0.334  0.996  0.497-  34 2.51  35 2.55  28 2.55  27 2.57  26 2.58  20 2.59  30 2.59  36 2.60
                            31 2.60
  30  0.670  0.996  0.497-  33 2.51  35 2.55  28 2.55  27 2.57  25 2.58  21 2.59  29 2.59  36 2.60
                            32 2.60
  31  0.996  0.334  0.497-  32 2.51  35 2.55  28 2.55  22 2.57  19 2.58  20 2.59  33 2.59  36 2.60
                            29 2.60
  32  0.670  0.334  0.497-  31 2.51  35 2.55  28 2.55  24 2.57  19 2.58  21 2.59  34 2.59  36 2.60
                            30 2.60
  33  0.996  0.670  0.497-  30 2.51  35 2.55  28 2.55  22 2.57  25 2.58  23 2.59  31 2.59  36 2.60
                            34 2.60
  34  0.334  0.670  0.497-  29 2.51  35 2.55  28 2.55  24 2.57  26 2.58  23 2.59  32 2.59  36 2.60
                            33 2.60
  35  0.667  0.667  0.497-  34 2.55  32 2.55  29 2.55  30 2.55  33 2.55  31 2.55  24 2.57  27 2.57
                            22 2.57
  36  0.333  0.333  0.502-  31 2.60  29 2.60  33 2.60  32 2.60  34 2.60  30 2.60  23 2.66  20 2.66
                            21 2.66
  37  0.346  0.309  0.667-  38 1.18  39 1.18
  38  0.193  0.309  0.666-  37 1.18
  39  0.499  0.309  0.666-  37 1.18

  LATTYP: Found a hexagonal cell.
 ALAT       =     7.6967864036
 C/A-ratio  =     3.0484540560

  Lattice vectors:

 A1 = (  -3.8483927580,  -6.6656128093,   0.0000000000)
 A2 = (   7.6967864037,   0.0000000000,   0.0000000000)
 A3 = (   0.0000000000,   0.0000000000,  23.4632997305)

Analysis of symmetry for initial positions (statically):
 Subroutine PRICEL returns:
 Original cell was already a primitive cell.

 Routine SETGRP: Setting up the symmetry group for a
 hexagonal supercell.

 Subroutine GETGRP returns: Found  2 space group operations
 (whereof  2 operations were pure point group operations)
 out of a pool of 24 trial point group operations.

The static configuration has the point symmetry C_1h.

Analysis of symmetry for dynamics (positions and initial velocities):
 Subroutine PRICEL returns:
 Original cell was already a primitive cell.

[...]

The dynamic configuration has the point symmetry C_1h.

Analysis of constrained symmetry for selective dynamics:
[...]
     41      -4.1569      2.00000
     42      -4.1517      2.00000
     43      -4.1467      2.00000
     44      -4.1353      2.00000
     45      -4.1059      2.00000
     46      -4.0662      2.00000
     47      -4.0196      2.00000
     48      -3.9896      2.00000
     49      -3.8409      2.00000
     50      -3.8362      2.00000
     51      -3.7924      2.00000
     52      -3.7671      2.00000
     53      -3.7510      2.00000
     54      -3.7400      2.00000
     55      -3.7283      2.00000
     56      -3.7249      2.00000
     57      -3.7179      2.00000
     58      -3.5669      2.00000
     59      -3.5358      2.00000
     60      -3.5228      2.00000
[...]
    238       4.8697      0.00000
    239       5.1691      0.00000
    240       5.2493      0.00000
    241       5.2650      0.00000
    242       5.3237      0.00000
    243       5.5747      0.00000
    244       5.6548      0.00000
    245       5.7056      0.00000
    246       5.8256      0.00000
    247       5.9936      0.00000
    248       6.0164      0.00000
    249       6.1407      0.00000
    250       6.1990      0.00000
    251       6.3841      0.00000
    252       6.4355      0.00000

 soft charge-density along one line, spin component           1
         0         1         2         3         4         5         6         7         8         9
 total charge-density along one line

------------------------ aborting loop because EDIFF is reached ----------------------------------------

 total charge

# of ion       s       p       d       tot
    1        0.449   0.282   9.188   9.920
    2        0.447   0.286   9.185   9.918
    3        0.447   0.286   9.185   9.918
    4        0.447   0.286   9.185   9.918
    5        0.447   0.287   9.180   9.914
    6        0.447   0.286   9.185   9.918
    7        0.447   0.286   9.185   9.918
    8        0.447   0.286   9.185   9.918
    9        0.449   0.283   9.187   9.919
   10        0.443   0.372   9.174   9.989
   11        0.441   0.364   9.183   9.988
   12        0.443   0.372   9.174   9.989
   13        0.441   0.364   9.183   9.988
   14        0.441   0.364   9.183   9.988
   15        0.439   0.371   9.176   9.986
   16        0.443   0.372   9.174   9.989
   17        0.439   0.371   9.176   9.986
   18        0.439   0.371   9.176   9.986
   19        0.443   0.371   9.178   9.992
   20        0.463   0.393   9.156  10.012
   21        0.463   0.393   9.156  10.012
   22        0.431   0.374   9.180   9.984
   23        0.463   0.393   9.156  10.012
   24        0.431   0.374   9.180   9.984
   25        0.443   0.371   9.178   9.992
   26        0.443   0.371   9.178   9.992
   27        0.431   0.374   9.180   9.984
   28        0.444   0.295   9.181   9.920
   29        0.482   0.320   9.156   9.958
   30        0.482   0.320   9.156   9.958
   31        0.482   0.319   9.157   9.957
   32        0.482   0.319   9.157   9.957
   33        0.482   0.320   9.156   9.958
   34        0.482   0.320   9.156   9.958
   35        0.438   0.301   9.179   9.918
   36        2.212   5.970   2.436  10.618
   37        0.933   1.800   0.000   2.733
   38        1.608   3.526   0.000   5.134
   39        1.608   3.526   0.000   5.134
tot         22.144  26.635 323.539 372.318

  FORCE on cell =-STRESS in cart. coord.  units (eV):
  Direction    XX          YY          ZZ          XY          YZ          ZX
  Alpha Z   862.71999   862.71999   862.71999
  Ewald  211083.36464210272.45306************     0.00041    -3.52155     0.00019
  Hartree224134.03180223746.42783************     0.00004    -1.90097     0.00007
  E(xc)   -2378.04473 -2380.15423 -2385.17137    -0.00032    -0.00122    -0.00003
  Local  ************************447698.14902     0.02029     5.35798    -0.00075
  n-local  -818.92105  -813.03493  -819.30628     1.43461     0.00681     0.02292
  augment  3336.89060  3339.64966  3361.50275    -0.01829     0.00105     0.00046
  Kinetic  3656.13062  3721.65016  3745.70034     0.82391     0.05837    -0.31033
  Fock        0.00000     0.00000     0.00000     0.00000     0.00000     0.00000
  Total      -9.11103    -9.17420    -3.70325     0.00000     0.00047    -0.00000
  in kB     -12.12662   -12.21069    -4.92896     0.00000     0.00062    -0.00000

 VOLUME and BASIS-vectors are now :
  energy-cutoff  :      500.00
  volume of cell :     1203.76
      direct lattice vectors                 reciprocal lattice vectors
     7.696786404  0.000000000  0.000000000     0.129924354 -0.075011849  0.000000000
     3.848392758  6.665612809  0.000000000     0.000000000  0.150023716  0.000000000
     0.000000000  0.000000000 23.463299730     0.000000000  0.000000000  0.042619751

  length of vectors
     7.696786404  7.696786404 23.463299730     0.150023716  0.150023716  0.042619751

 FORCES acting on ions
    electron-ion (+dipol)            ewald-force                    non-local-force                 convergence-correction
   -.418E-04 0.141E-01 0.375E+04   0.578E-04 -.154E-01 -.374E+04   -.241E-11 0.362E-04 -.238E+01   -.335E-03 0.956E-03 0.216E+00
   -.539E+00 -.289E-01 0.374E+04   0.454E+00 0.353E-01 -.374E+04   0.755E-01 0.117E+00 -.184E+01   0.191E-01 -.107E+00 0.176E+00
   0.539E+00 -.289E-01 0.374E+04   -.454E+00 0.352E-01 -.374E+04   -.755E-01 0.117E+00 -.184E+01   -.182E-01 -.105E+00 0.177E+00
   -.312E+00 -.463E+00 0.374E+04   0.271E+00 0.376E+00 -.374E+04   0.141E+00 0.101E-01 -.185E+01   -.822E-01 0.755E-01 0.180E+00
   -.622E-04 -.143E-01 0.374E+04   0.116E-03 0.851E-02 -.374E+04   0.297E-09 -.446E-02 -.142E+01   0.122E-01 0.106E-01 0.446E+00
   0.312E+00 -.463E+00 0.374E+04   -.271E+00 0.376E+00 -.374E+04   -.141E+00 0.101E-01 -.185E+01   0.805E-01 0.767E-01 0.182E+00
   0.242E+00 0.489E+00 0.374E+04   -.183E+00 -.412E+00 -.374E+04   0.598E-01 -.126E+00 -.184E+01   -.107E+00 0.326E-01 0.185E+00
   -.242E+00 0.489E+00 0.374E+04   0.183E+00 -.412E+00 -.374E+04   -.598E-01 -.126E+00 -.184E+01   0.110E+00 0.311E-01 0.185E+00
   -.144E-03 0.179E-02 0.374E+04   0.263E-03 0.696E-02 -.374E+04   -.257E-09 0.386E-02 -.210E+01   -.133E-01 -.131E-01 0.613E-01
   -.330E+01 -.184E+01 0.135E+04   0.370E+01 0.206E+01 -.135E+04   -.385E+00 -.217E+00 -.105E+01   -.147E-02 0.333E-02 -.116E+00
   -.874E-04 -.440E+00 0.135E+04   0.190E-03 0.195E-01 -.135E+04   -.166E-07 0.249E+00 -.118E+00   0.118E-01 0.118E+00 -.181E+00
   0.330E+01 -.184E+01 0.135E+04   -.370E+01 0.206E+01 -.135E+04   0.385E+00 -.217E+00 -.105E+01   -.540E-03 0.540E-02 -.116E+00
   -.442E+00 0.148E+00 0.135E+04   0.840E-01 0.526E-01 -.135E+04   0.219E+00 -.133E+00 -.113E+00   0.104E+00 -.407E-01 -.176E+00
   0.442E+00 0.148E+00 0.135E+04   -.843E-01 0.526E-01 -.135E+04   -.219E+00 -.133E+00 -.113E+00   -.800E-01 -.417E-01 -.176E+00
   -.140E-03 -.333E+01 0.135E+04   0.297E-03 0.315E+01 -.135E+04   -.915E-08 0.137E+00 -.101E+01   -.407E-02 0.488E-01 -.217E+00
   -.894E-04 0.385E+01 0.135E+04   0.186E-03 -.430E+01 -.135E+04   -.294E-07 0.442E+00 -.106E+01   -.152E-03 -.833E-02 -.116E+00
   -.280E+01 0.165E+01 0.135E+04   0.264E+01 -.155E+01 -.135E+04   0.121E+00 -.708E-01 -.101E+01   0.362E-01 -.349E-01 -.222E+00
   0.280E+01 0.165E+01 0.135E+04   -.264E+01 -.155E+01 -.135E+04   -.121E+00 -.708E-01 -.101E+01   -.355E-01 -.319E-01 -.221E+00
   -.650E-04 -.242E+01 -.105E+04   0.648E-04 0.257E+01 0.105E+04   0.590E-08 -.886E-01 0.929E+00   -.234E-02 -.572E-01 -.248E+00
   0.394E+01 0.237E+01 -.106E+04   -.246E+01 -.152E+01 0.106E+04   -.126E+01 -.738E+00 -.977E+00   -.204E+00 -.108E+00 -.524E+00
   -.394E+01 0.237E+01 -.106E+04   0.246E+01 -.152E+01 0.106E+04   0.126E+01 -.738E+00 -.977E+00   0.228E+00 -.106E+00 -.524E+00
   -.171E+01 0.308E+00 -.107E+04   0.142E+01 -.128E+00 0.107E+04   0.388E+00 -.229E+00 0.673E+00   -.889E-01 0.488E-01 -.279E+00
   -.561E-04 -.526E+01 -.106E+04   0.142E-03 0.355E+01 0.106E+04   -.962E-07 0.144E+01 -.982E+00   0.123E-01 0.256E+00 -.524E+00
   0.171E+01 0.308E+00 -.107E+04   -.142E+01 -.128E+00 0.107E+04   -.388E+00 -.229E+00 0.673E+00   0.861E-01 0.471E-01 -.280E+00
   0.215E+01 0.184E+01 -.105E+04   -.229E+01 -.192E+01 0.105E+04   0.816E-01 0.509E-01 0.897E+00   0.601E-01 0.266E-01 -.252E+00
   -.215E+01 0.184E+01 -.105E+04   0.229E+01 -.192E+01 0.105E+04   -.816E-01 0.509E-01 0.897E+00   -.596E-01 0.240E-01 -.251E+00
   -.136E-03 -.138E+01 -.107E+04   0.243E-03 0.105E+01 0.107E+04   -.301E-07 0.452E+00 0.657E+00   -.711E-03 -.110E+00 -.280E+00
   -.284E-04 0.494E+01 -.347E+04   0.358E-04 -.494E+01 0.347E+04   0.796E-09 -.120E-01 0.172E+01   0.126E-02 0.492E-03 -.259E+00
   0.145E+02 0.202E+02 -.347E+04   -.138E+02 -.193E+02 0.347E+04   -.673E+00 -.690E+00 0.295E+00   -.777E-01 -.168E+00 -.520E-01
   -.145E+02 0.202E+02 -.347E+04   0.138E+02 -.193E+02 0.347E+04   0.673E+00 -.690E+00 0.295E+00   0.569E-01 -.165E+00 -.522E-01
   0.209E+02 0.262E+01 -.346E+04   -.198E+02 -.241E+01 0.346E+04   -.924E+00 -.235E+00 0.394E+00   -.180E+00 0.191E-01 -.598E-01
   -.209E+02 0.262E+01 -.346E+04   0.198E+02 -.241E+01 0.346E+04   0.924E+00 -.235E+00 0.394E+00   0.157E+00 0.201E-01 -.610E-01
   0.478E+01 -.223E+02 -.347E+04   -.441E+01 0.212E+02 0.347E+04   -.266E+00 0.937E+00 0.290E+00   -.110E+00 0.121E+00 -.546E-01
   -.478E+01 -.223E+02 -.347E+04   0.441E+01 0.212E+02 0.347E+04   0.266E+00 0.937E+00 0.290E+00   0.913E-01 0.119E+00 -.555E-01
   -.148E-03 -.241E+01 -.349E+04   0.259E-03 0.241E+01 0.349E+04   -.136E-08 0.205E-01 0.240E+01   -.117E-01 -.119E-01 -.244E-02
   0.121E-03 -.451E+01 -.413E+04   0.151E-03 0.450E+01 0.412E+04   -.554E-10 0.832E-03 0.476E+01   0.824E-02 0.171E-01 0.303E-02
   -.262E-04 0.169E+00 -.111E+04   0.480E-06 -.185E+00 0.111E+04   -.520E-09 0.782E-02 -.213E+00   0.516E-04 -.598E-03 0.276E-01
   0.260E+03 0.374E+00 -.166E+04   -.324E+03 -.424E+00 0.166E+04   0.640E+02 0.413E-01 0.422E+00   -.145E-01 0.167E-02 0.359E-01
   -.260E+03 0.374E+00 -.166E+04   0.324E+03 -.424E+00 0.166E+04   -.640E+02 0.413E-01 0.422E+00   0.144E-01 0.170E-02 0.358E-01
   0.193E-03 -.105E+00 0.135E+02   0.114E-12 0.143E-12 -.909E-11   -.583E-08 0.875E-01 -.102E+02   -.198E-02 -.211E-02 -.339E+01

 POSITION                                       TOTAL-FORCE (eV/Angst)
      0.00000      0.00000      5.37156        -0.000000      0.000178     -0.023015
      2.56560      0.00000      5.37156         0.009615      0.017758      0.054489
      5.13119      0.00000      5.37156        -0.009615      0.017758      0.054489
      1.28280      2.22187      5.37156         0.018992      0.000291      0.055337
      3.84839      2.22187      5.37156        -0.000000      0.000963      0.061650
      6.41399      2.22187      5.37156        -0.018992      0.000291      0.055337
      2.56560      4.44374      5.37156         0.010705     -0.016092      0.054692
      5.13119      4.44374      5.37156        -0.010705     -0.016092      0.054692
      7.69679      4.44374      5.37156        -0.000000      0.000064      0.019834
      1.28280      0.74062      7.46636         0.016450      0.009936     -0.086791
      3.84839      0.74062      7.46636         0.000000     -0.052829     -0.043690
      6.41399      0.74062      7.46636        -0.016450      0.009936     -0.086791
      2.56560      2.96249      7.46636        -0.046708      0.027285     -0.043206
      5.13119      2.96249      7.46636         0.046708      0.027285     -0.043206
      7.69679      2.96249      7.46636        -0.000000      0.001690     -0.011081
      3.84839      5.18437      7.46636         0.000000     -0.018809     -0.086319
      6.41399      5.18437      7.46636         0.000476      0.000163     -0.012739
      8.97958      5.18437      7.46636        -0.000476      0.000163     -0.012739
      7.69679      1.47855      9.54201        -0.000000      0.006216      0.008245
      2.56706      1.48209      9.56134         0.002928     -0.000066     -0.005442
      5.12972      1.48209      9.56134        -0.002928     -0.000066     -0.005442
      8.97774      3.70418      9.56312         0.005170     -0.000709      0.001530
      3.84839      3.70142      9.56134         0.000000     -0.004591     -0.006459
      6.41583      3.70418      9.56312        -0.005170     -0.000709      0.001530
     10.26471      5.92634      9.54201        -0.006727     -0.003227      0.006440
      5.12886      5.92634      9.54201         0.006727     -0.003227      0.006440
      7.69679      5.92286      9.56312        -0.000000      0.004673     -0.001892
      0.00000      0.00000     11.64396         0.000000     -0.002525      0.023780
      6.40056      6.63873     11.66709         0.001384     -0.001535      0.016189
      8.99302      6.63873     11.66709        -0.001384     -0.001535      0.016189
      8.94959      2.22368     11.66709        -0.005296     -0.000652      0.008848
      6.44399      2.22368     11.66709         0.005296     -0.000652      0.008848
     10.24582      4.46882     11.66709         0.003304      0.003328      0.017999
      5.14776      4.46882     11.66709        -0.003304      0.003328      0.017999
      7.69679      4.44374     11.66626        -0.000000      0.002658      0.014534
      3.84839      2.22187     11.77465        -0.000000      0.011231     -0.074779
      3.84839      2.05905     15.64248         0.000000     -0.008625     -0.003736
      2.67127      2.05882     15.63151         0.001165     -0.006627     -0.005883
      5.02551      2.05882     15.63151        -0.001165     -0.006627     -0.005883
    total drift:                               -0.001790     -0.020055     -0.185529

  FREE ENERGIE OF THE ION-ELECTRON SYSTEM (eV)
  free  energy   TOTEN  =      -153.76876730 eV

  energy  without entropy=     -153.76876730  energy(sigma->0) =     -153.76876730

 stress matrix after NEB project (eV)
     -9.11103      0.00000     -0.00000
      0.00000     -9.17420      0.00047
     -0.00000      0.00047     -3.70325
  FORCES: max atom, RMS     0.009400    0.002522
  FORCE total and by dimension    0.015752    0.008625
  Stress total and by dimension   13.449571    9.174201
|           W    W    AA    RRRRR   N    N  II  N    N   GGGG   !!!           |
|           W    W   A  A   R    R  NN   N  II  NN   N  G    G  !!!           |
|           W    W  A    A  R    R  N N  N  II  N N  N  G       !!!           |
|           W WW W  AAAAAA  RRRRR   N  N N  II  N  N N  G  GGG   !            |
|           WW  WW  A    A  R   R   N   NN  II  N   NN  G    G                |
|           W    W  A    A  R    R  N    N  II  N    N   GGGG   !!!           |
|     Tetrahedron method does not include variations of the Fermi             |
|     occupations, so forces and stress will be inaccurate. We suggest        |
|     using a different smearing scheme ISMEAR = 1 or 2 for metals in         |
|     relaxations.                                                            |

 total charge

# of ion       s       p       d       tot
    1        0.449   0.282   9.188   9.920
    2        0.447   0.286   9.185   9.918
    3        0.447   0.286   9.185   9.918
    4        0.447   0.286   9.185   9.918
    5        0.447   0.287   9.180   9.914
    6        0.447   0.286   9.185   9.918
    7        0.447   0.286   9.185   9.918
    8        0.447   0.286   9.185   9.918
    9        0.449   0.283   9.187   9.919
   10        0.443   0.372   9.174   9.989
   11        0.441   0.364   9.183   9.988
   12        0.443   0.372   9.174   9.989
   13        0.441   0.364   9.183   9.988
   14        0.441   0.364   9.183   9.988
   15        0.439   0.371   9.176   9.986
   16        0.443   0.372   9.174   9.989
   17        0.439   0.371   9.176   9.986
   18        0.439   0.371   9.176   9.986
   19        0.443   0.371   9.178   9.992
   20        0.463   0.393   9.156  10.012
   21        0.463   0.393   9.156  10.012
   22        0.431   0.374   9.180   9.984
   23        0.463   0.393   9.156  10.012
   24        0.431   0.374   9.180   9.984
   25        0.443   0.371   9.178   9.992
   26        0.443   0.371   9.178   9.992
   27        0.431   0.374   9.180   9.984
   28        0.444   0.295   9.181   9.920
   29        0.482   0.320   9.156   9.958
   30        0.482   0.320   9.156   9.958
   31        0.482   0.319   9.157   9.957
   32        0.482   0.319   9.157   9.957
   33        0.482   0.320   9.156   9.958
   34        0.482   0.320   9.156   9.958
   35        0.438   0.301   9.179   9.918
   36        2.212   5.970   2.436  10.618
   37        0.933   1.800   0.000   2.733
   38        1.608   3.526   0.000   5.134
   39        1.608   3.526   0.000   5.134
tot         22.144  26.635 323.539 372.318

 BZINTS: Fermi energy:   -0.008857;  414.000000 electrons
         Band energy:-0.160540E+04;  BLOECHL correction:   -0.021217