 vasp.6.2.0 18Jan21 (build Jun 12 2021 23:27:24) complex

 executed on             LinuxIFC date 2022.05.30  18:34:26

 INCAR:
   ISMEAR = -5
   SIGMA = 0.1
   ISPIN = 1
   EDIFF = 1.d-5
   EDIFFG = -0.01
   NSW = 0
   NELM = 150
   ENCUT = 500
   ISIF = 2
   IBRION = 2
   LREAL = Auto
   ALGO = Fast
   ICHARG = 11
   LORBIT = 10
   LCHARG = .F.
   LWAVE = .F.

 POTCAR:    PAW_PBE Cu 22Jun2005
 POTCAR:    PAW_PBE Ta 17Jan2003
 POTCAR:    PAW_PBE C 08Apr2002
|           W    W    AA    RRRRR   N    N  II  N    N   GGGG   !!!           |
|           W    W   A  A   R    R  NN   N  II  NN   N  G    G  !!!           |
|           W    W  A    A  R    R  N N  N  II  N N  N  G       !!!           |
|           W WW W  AAAAAA  RRRRR   N  N N  II  N  N N  G  GGG   !            |
|           WW  WW  A    A  R   R   N   NN  II  N   NN  G    G                |
|           W    W  A    A  R    R  N    N  II  N    N   GGGG   !!!           |
|     For optimal performance we recommend to set                             |
|       NCORE = 2 up to number-of-cores-per-socket                            |
|     This setting can greatly improve the performance of VASP for DFT.       |
|     The default, NCORE=1 might be grossly inefficient on modern             |
|     multi-core architectures or massively parallel machines. Do your        |
|     Unfortunately you need to use the default for GW and RPA                |
|     calculations (for HF NCORE is supported but not extensively tested      |
|     yet).                                                                   |

 POTCAR:    PAW_PBE Cu 22Jun2005
   VRHFIN =Cu: d10 p1

   TITEL  = PAW_PBE Cu 22Jun2005
   POMASS =   63.546; ZVAL   =   11.000    mass and valenz
   ENMAX  =  295.446; ENMIN  =  221.585 eV

 POTCAR:    PAW_PBE Ta 17Jan2003
   VRHFIN =Ta:  6s5d

   TITEL  = PAW_PBE Ta 17Jan2003
   POMASS =  180.948; ZVAL   =    5.000    mass and valenz
   ENMAX  =  223.667; ENMIN  =  167.750 eV

 POTCAR:    PAW_PBE C 08Apr2002
   VRHFIN =C: s2p2

   TITEL  = PAW_PBE C 08Apr2002
   POMASS =   12.011; ZVAL   =    4.000    mass and valenz
   ENMAX  =  400.000; ENMIN  =  300.000 eV

 Optimization of the real space projectors (new method)

 maximal supplied QI-value         = 16.25
 optimisation between [QCUT,QGAM] = [ 11.38, 22.75] = [ 36.24,144.96] Ry
 Optimized for a Real-space Cutoff    1.52 Angstroem

   l    n(q)    QCUT    max X(q) W(low)/X(q) W(high)/X(q)  e(spline)
   2      9    11.376     4.610    0.21E-03    0.10E-03    0.26E-06
   2      9    11.376     8.522    0.33E-03    0.16E-03    0.37E-06
   0     10    11.376    51.609    0.62E-04    0.20E-04    0.13E-06
   0     10    11.376    27.747    0.54E-04    0.20E-04    0.13E-06
   1     10    11.376    20.408    0.13E-04    0.99E-04    0.19E-06
   1     10    11.376    13.425    0.12E-04    0.87E-04    0.17E-06
 Optimization of the real space projectors (new method)

[...]

   l    n(q)    QCUT    max X(q) W(low)/X(q) W(high)/X(q)  e(spline)
   2     10    11.437    62.315    0.14E-03    0.26E-03    0.80E-06
   2     10    11.437    52.185    0.14E-03    0.26E-03    0.80E-06
   0     11    11.437   103.837    0.25E-04    0.17E-04    0.84E-07
   0     11    11.437    59.728    0.20E-04    0.15E-04    0.73E-07
   1     11    11.437    13.958    0.47E-03    0.12E-03    0.89E-06
   1     11    11.437     8.441    0.33E-03    0.88E-04    0.61E-06
 Optimization of the real space projectors (new method)

 maximal supplied QI-value         = 25.13
 optimisation between [QCUT,QGAM] = [ 11.31, 22.87] = [ 35.82,146.48] Ry
 Optimized for a Real-space Cutoff    1.00 Angstroem

   l    n(q)    QCUT    max X(q) W(low)/X(q) W(high)/X(q)  e(spline)
   0      7    11.310   115.676    0.43E-03    0.13E-02    0.19E-06
   0      7    11.310    87.132    0.43E-03    0.13E-02    0.18E-06
   1      6    11.310     4.429    0.42E-03    0.74E-03    0.11E-06
   1      6    11.310     2.733    0.34E-03    0.55E-03    0.92E-07
  PAW_PBE Cu 22Jun2005                  :
  PAW_PBE Ta 17Jan2003                  :
  PAW_PBE C 08Apr2002                   :

 POSCAR: Cu-Ta-C
  positions in direct lattice
  velocities in cartesian coordinates
 exchange correlation table for  LEXCH =        8
   RHO(1)=    0.500       N(1)  =     2000
   RHO(2)=  100.500       N(2)  =     4000

 VTST: version 3.2, (02/03/18)

 CHAIN: initializing optimizer

 OPT: Using VASP Conjugate-Gradient optimizer
 CHAIN: Read ICHAIN            0

 POSCAR: Cu-Ta-C
  positions in direct lattice
  velocities in cartesian coordinates

 ion  position               nearest neighbor table
   1  0.000  0.000  0.226-   7 2.57   3 2.57   4 2.57   2 2.57   6 2.57   8 2.57  12 2.57  10 2.57
                            16 2.57
   2  0.333  0.000  0.226-   8 2.57   9 2.57   5 2.57   1 2.57   3 2.57  11 2.57   4 2.57  10 2.57
                            17 2.57
   3  0.667  0.000  0.226-   1 2.57   7 2.57   6 2.57   9 2.57   2 2.57  12 2.57   5 2.57  18 2.57
                            11 2.57
   4  0.000  0.333  0.226-   5 2.57   6 2.57   1 2.57   7 2.57   2 2.57  13 2.57   9 2.57  10 2.57
                            15 2.57
   5  0.333  0.333  0.226-   4 2.57   2 2.57   7 2.57  13 2.57   8 2.57   6 2.57   3 2.57  11 2.57
                            14 2.57
   6  0.667  0.333  0.226-   4 2.57   9 2.57  15 2.57   3 2.57   1 2.57   8 2.57  14 2.57   5 2.57
                            12 2.57
   7  0.000  0.667  0.226-   1 2.57   3 2.57  16 2.57  18 2.57   4 2.57   5 2.57   8 2.57   9 2.57
                            13 2.57
   8  0.333  0.667  0.226-   9 2.57   2 2.57  17 2.57   6 2.57   1 2.57   7 2.57   5 2.57  14 2.57
                            16 2.57
   9  0.667  0.667  0.226-   8 2.57   6 2.57   2 2.57  17 2.57   3 2.57   7 2.57   4 2.57  15 2.57
                            18 2.57
  10  0.111  0.111  0.314-  20 2.55  26 2.56  19 2.56  11 2.57  12 2.57  13 2.57   1 2.57   2 2.57
                             4 2.57  15 2.57  16 2.57  17 2.57
  11  0.444  0.111  0.314-  20 2.56  21 2.56  10 2.57  13 2.57   2 2.57  17 2.57  14 2.57  12 2.57
                             5 2.57   3 2.57  18 2.57  27 2.57
  12  0.778  0.111  0.314-  21 2.55  19 2.56  25 2.56  15 2.57  10 2.57  14 2.57  18 2.57   3 2.57
                             1 2.57  16 2.57  11 2.57   6 2.57
  13  0.111  0.444  0.314-  23 2.56  20 2.56  16 2.57  18 2.57  10 2.57  11 2.57  14 2.57   5 2.57
                             4 2.57   7 2.57  15 2.57  22 2.57
  14  0.444  0.444  0.314-  21 2.56  23 2.56  15 2.57  17 2.57  12 2.57  16 2.57  13 2.57  11 2.57
                             6 2.57   8 2.57   5 2.57  24 2.57
  15  0.778  0.444  0.314-  19 2.56  14 2.57  17 2.57  12 2.57   6 2.57  18 2.57  10 2.57   9 2.57
                            13 2.57   4 2.57  24 2.57  22 2.57
  16  0.111  0.778  0.314-  23 2.55  25 2.56  26 2.56  18 2.57  13 2.57   7 2.57  14 2.57  17 2.57
                            12 2.57  10 2.57   8 2.57   1 2.57
  17  0.444  0.778  0.314-  26 2.56  14 2.57  15 2.57   8 2.57   9 2.57  11 2.57  16 2.57  18 2.57
                            10 2.57   2 2.57  27 2.57  24 2.57
  18  0.778  0.778  0.314-  25 2.56  16 2.57  13 2.57   7 2.57  15 2.57  12 2.57  17 2.57   9 2.57
                             3 2.57  11 2.57  22 2.57  27 2.57
  19  0.889  0.222  0.402-  12 2.56  10 2.56  15 2.56  21 2.56  20 2.56  25 2.56  26 2.56  22 2.57
                            24 2.57  28 2.57  32 2.59  31 2.59
  20  0.222  0.222  0.401-  10 2.55  11 2.56  13 2.56  26 2.56  19 2.56  27 2.57  22 2.57  23 2.58
                            21 2.58  36 2.61  29 2.61  31 2.61
  21  0.557  0.222  0.401-  12 2.55  14 2.56  11 2.56  19 2.56  25 2.56  24 2.57  27 2.57  20 2.58
                            23 2.58  36 2.61  32 2.61  30 2.61
  22  0.888  0.556  0.402-  24 2.56  27 2.56  19 2.57  25 2.57  23 2.57  20 2.57  18 2.57  15 2.57
                            35 2.57  13 2.57  31 2.59  33 2.59
  23  0.222  0.557  0.401-  16 2.55  13 2.56  14 2.56  25 2.56  26 2.56  22 2.57  24 2.57  20 2.58
                            21 2.58  36 2.61  33 2.61  34 2.61
  24  0.556  0.556  0.402-  22 2.56  27 2.56  19 2.57  26 2.57  21 2.57  23 2.57  15 2.57  17 2.57
                            35 2.57  14 2.57  32 2.59  34 2.59
  25  0.889  0.889  0.402-  12 2.56  16 2.56  18 2.56  21 2.56  23 2.56  19 2.56  26 2.56  22 2.57
                            27 2.57  28 2.57  33 2.59  30 2.59
  26  0.222  0.889  0.402-  10 2.56  16 2.56  17 2.56  20 2.56  23 2.56  25 2.56  19 2.56  27 2.57
                            24 2.57  28 2.57  29 2.59  34 2.59
  27  0.556  0.888  0.402-  24 2.56  22 2.56  26 2.57  25 2.57  20 2.57  21 2.57  17 2.57  18 2.57
                            35 2.57  11 2.57  29 2.59  30 2.59
  28  0.000  0.000  0.490-  33 2.55  30 2.55  31 2.55  29 2.55  32 2.55  34 2.55  25 2.57  19 2.57
                            26 2.57
  29  0.333  0.997  0.491-  34 2.52  35 2.55  28 2.55  31 2.59  27 2.59  36 2.59  30 2.59  26 2.59
                            20 2.61
  30  0.670  0.997  0.491-  33 2.52  35 2.55  28 2.55  32 2.59  27 2.59  36 2.59  29 2.59  25 2.59
                            21 2.61
  31  0.997  0.333  0.491-  32 2.52  35 2.55  28 2.55  29 2.59  22 2.59  36 2.59  33 2.59  19 2.59
                            20 2.61
  32  0.670  0.333  0.491-  31 2.52  35 2.55  28 2.55  30 2.59  24 2.59  36 2.59  34 2.59  19 2.59
                            21 2.61
  33  0.997  0.670  0.491-  30 2.52  35 2.55  28 2.55  34 2.59  22 2.59  36 2.59  31 2.59  25 2.59
                            23 2.61
  34  0.333  0.670  0.491-  29 2.52  35 2.55  28 2.55  33 2.59  24 2.59  36 2.59  32 2.59  26 2.59
                            23 2.61
  35  0.667  0.667  0.491-  34 2.55  32 2.55  29 2.55  30 2.55  33 2.55  31 2.55  24 2.57  27 2.57
                            22 2.57
  36  0.333  0.333  0.492-  37 1.87  31 2.59  29 2.59  33 2.59  34 2.59  32 2.59  30 2.59  23 2.61
                            20 2.61  21 2.61
  37  0.333  0.333  0.570-  36 1.87

  LATTYP: Found a hexagonal cell.
 ALAT       =     7.6967864036
 C/A-ratio  =     3.0908716217

  Lattice vectors:

 A1 = (  -3.8483927580,  -6.6656128093,   0.0000000000)
 A2 = (   7.6967864037,   0.0000000000,   0.0000000000)
 A3 = (   0.0000000000,   0.0000000000,  23.7897786731)

Analysis of symmetry for initial positions (statically):
 Subroutine PRICEL returns:
 Original cell was already a primitive cell.

 Routine SETGRP: Setting up the symmetry group for a
 hexagonal supercell.

 Subroutine GETGRP returns: Found  6 space group operations
 (whereof  6 operations were pure point group operations)
 out of a pool of 24 trial point group operations.

The static configuration has the point symmetry C_3v.

Analysis of symmetry for dynamics (positions and initial velocities):
 Subroutine PRICEL returns:
 Original cell was already a primitive cell.

[...]

The dynamic configuration has the point symmetry C_3v.

Analysis of constrained symmetry for selective dynamics:
 Subroutine PRICEL returns:
 Original cell was already a primitive cell.

 Routine SETGRP: Setting up the symmetry group for a
 hexagonal supercell.

 Subroutine GETGRP returns: Found  6 space group operations
[...]
     24      -5.0197      2.00000
     25      -4.8829      2.00000
     26      -4.8476      2.00000
     27      -4.8117      2.00000
     28      -4.8023      2.00000
     29      -4.7631      2.00000
     30      -4.7489      2.00000
     31      -4.7474      2.00000
     32      -4.7403      2.00000
     33      -4.7298      2.00000
     34      -4.7046      2.00000
     35      -4.6877      2.00000
     36      -4.6150      2.00000
     37      -4.5916      2.00000
     38      -4.4342      2.00000
     39      -4.4321      2.00000
     40      -4.3836      2.00000
     41      -4.3586      2.00000
     42      -4.3452      2.00000
     43      -4.3323      2.00000
     44      -4.3226      2.00000
     45      -4.3143      2.00000
     46      -4.3105      2.00000
     47      -4.1500      2.00000
     48      -4.1146      2.00000
     49      -4.1085      2.00000
     50      -4.0930      2.00000
     51      -4.0468      2.00000
     52      -4.0399      2.00000
     53      -4.0288      2.00000
     54      -4.0171      2.00000
     55      -4.0106      2.00000
     56      -4.0059      2.00000
     57      -3.9677      2.00000
     58      -3.9659      2.00000
     59      -3.9511      2.00000
     60      -3.9465      2.00000
[...]
    238       5.9034      0.00000
    239       6.0023      0.00000
    240       6.0344      0.00000
    241       6.1919      0.00000
    242       6.2221      0.00000
    243       6.2939      0.00000
    244       6.3614      0.00000
    245       6.6241      0.00000
    246       6.6550      0.00000
    247       6.7238      0.00000
    248       6.7656      0.00000
    249       6.9505      0.00000
    250       7.1605      0.00000
    251       7.2363      0.00000
    252       7.3955      0.00000

 soft charge-density along one line, spin component           1
         0         1         2         3         4         5         6         7         8         9
 total charge-density along one line

------------------------ aborting loop because EDIFF is reached ----------------------------------------

 total charge

# of ion       s       p       d       tot
    1        0.448   0.285   9.188   9.920
    2        0.447   0.285   9.186   9.918
    3        0.447   0.285   9.186   9.918
    4        0.447   0.285   9.186   9.918
    5        0.451   0.283   9.185   9.919
    6        0.447   0.285   9.186   9.918
    7        0.447   0.285   9.186   9.918
    8        0.447   0.285   9.186   9.918
    9        0.448   0.285   9.188   9.921
   10        0.441   0.372   9.177   9.990
   11        0.443   0.366   9.180   9.989
   12        0.441   0.372   9.177   9.990
   13        0.443   0.366   9.180   9.989
   14        0.443   0.366   9.180   9.989
   15        0.438   0.370   9.176   9.985
   16        0.441   0.372   9.177   9.990
   17        0.438   0.370   9.176   9.985
   18        0.438   0.370   9.176   9.985
   19        0.440   0.367   9.180   9.987
   20        0.455   0.391   9.171  10.018
   21        0.455   0.391   9.171  10.018
   22        0.429   0.370   9.180   9.979
   23        0.455   0.391   9.171  10.018
   24        0.429   0.370   9.180   9.979
   25        0.440   0.367   9.180   9.987
   26        0.440   0.367   9.180   9.987
   27        0.429   0.370   9.180   9.979
   28        0.449   0.290   9.186   9.925
   29        0.471   0.309   9.171   9.950
   30        0.471   0.309   9.171   9.950
   31        0.471   0.309   9.171   9.950
   32        0.471   0.309   9.171   9.950
   33        0.471   0.309   9.171   9.950
   34        0.471   0.309   9.171   9.950
   35        0.448   0.290   9.186   9.923
   36        0.771   0.744   3.749   5.264
   37        0.998   1.197   0.000   2.195
tot         17.458  13.650 325.017 356.125

  FORCE on cell =-STRESS in cart. coord.  units (eV):
  Direction    XX          YY          ZZ          XY          YZ          ZX
  Alpha Z   793.61365   793.61365   793.61365
  Ewald  218929.77146218929.77111************     0.00035     0.00013     0.00016
  Hartree231403.08877231403.08879************     0.00002     0.00006     0.00005
  E(xc)   -2282.42930 -2282.42881 -2289.71154    -0.00043    -0.00003    -0.00006
  Local  ************************463391.62922     0.01857    -0.00058    -0.00088
  n-local  -762.58208  -750.89543  -776.03554     6.43098    -0.11400     0.31093
  augment  3308.71700  3308.73731  3333.01203    -0.01758     0.00034     0.00052
  Kinetic  3237.12759  3240.30205  3273.21346     3.08827     1.63608    -1.15303
  Fock        0.00000     0.00000     0.00000     0.00000     0.00000     0.00000
  Total      -4.61330    -4.61330    -1.91596     0.00000     0.00000    -0.00000
  in kB      -6.05595    -6.05595    -2.51511     0.00000     0.00000    -0.00000

 VOLUME and BASIS-vectors are now :
  energy-cutoff  :      500.00
  volume of cell :     1220.51
      direct lattice vectors                 reciprocal lattice vectors
     7.696786404  0.000000000  0.000000000     0.129924354 -0.075011849  0.000000000
     3.848392758  6.665612809  0.000000000     0.000000000  0.150023716  0.000000000
     0.000000000  0.000000000 23.789778673     0.000000000  0.000000000  0.042034859

  length of vectors
     7.696786404  7.696786404 23.789778673     0.150023716  0.150023716  0.042034859

 FORCES acting on ions
    electron-ion (+dipol)            ewald-force                    non-local-force                 convergence-correction
   -.423E-04 -.278E-06 0.369E+04   0.581E-04 -.425E-05 -.368E+04   0.156E-17 0.682E-18 -.230E+01   -.364E-03 -.176E-03 -.851E-01
   -.101E+01 -.931E+00 0.368E+04   0.834E+00 0.662E+00 -.368E+04   0.658E-01 0.148E+00 -.195E+01   0.105E+00 0.110E+00 -.930E-01
   0.101E+01 -.931E+00 0.368E+04   -.834E+00 0.662E+00 -.368E+04   -.658E-01 0.148E+00 -.195E+01   -.104E+00 0.113E+00 -.920E-01
   -.131E+01 -.407E+00 0.368E+04   0.990E+00 0.391E+00 -.368E+04   0.161E+00 -.168E-01 -.195E+01   0.148E+00 0.359E-01 -.929E-01
   -.636E-04 -.453E-05 0.368E+04   0.116E-03 -.101E-04 -.368E+04   -.492E-17 -.226E-17 -.170E+01   0.121E-01 0.742E-02 -.684E-01
   0.131E+01 -.407E+00 0.368E+04   -.990E+00 0.391E+00 -.368E+04   -.161E+00 -.168E-01 -.195E+01   -.150E+00 0.370E-01 -.919E-01
   -.302E+00 0.134E+01 0.368E+04   0.156E+00 -.105E+01 -.368E+04   0.949E-01 -.131E+00 -.195E+01   0.454E-01 -.147E+00 -.918E-01
   0.302E+00 0.134E+01 0.368E+04   -.157E+00 -.105E+01 -.368E+04   -.949E-01 -.131E+00 -.195E+01   -.421E-01 -.148E+00 -.919E-01
   -.144E-03 -.332E-04 0.369E+04   0.263E-03 0.204E-04 -.368E+04   0.482E-17 -.198E-17 -.219E+01   -.131E-01 -.679E-02 -.112E-02
   -.595E+01 -.343E+01 0.121E+04   0.604E+01 0.348E+01 -.121E+04   -.251E+00 -.145E+00 -.835E+00   0.150E+00 0.869E-01 0.168E+00
   -.893E-04 -.651E+01 0.119E+04   0.190E-03 0.645E+01 -.119E+04   -.493E-08 0.740E-01 -.628E+00   0.120E-01 -.123E-01 0.184E+00
   0.595E+01 -.343E+01 0.121E+04   -.604E+01 0.348E+01 -.121E+04   0.251E+00 -.145E+00 -.835E+00   -.152E+00 0.872E-01 0.167E+00
   -.564E+01 0.326E+01 0.119E+04   0.559E+01 -.323E+01 -.119E+04   0.641E-01 -.370E-01 -.628E+00   -.441E-02 0.175E-01 0.185E+00
   0.564E+01 0.326E+01 0.119E+04   -.559E+01 -.323E+01 -.119E+04   -.641E-01 -.370E-01 -.628E+00   0.275E-01 0.156E-01 0.181E+00
   -.138E-03 -.196E+01 0.121E+04   0.296E-03 0.189E+01 -.121E+04   -.455E-08 0.683E-01 -.919E+00   -.292E-02 0.147E-01 0.117E+00
   -.908E-04 0.687E+01 0.121E+04   0.187E-03 -.697E+01 -.121E+04   -.193E-07 0.290E+00 -.835E+00   -.125E-02 -.176E+00 0.168E+00
   -.170E+01 0.979E+00 0.121E+04   0.164E+01 -.944E+00 -.121E+04   0.591E-01 -.341E-01 -.919E+00   0.120E-01 -.104E-01 0.116E+00
   0.170E+01 0.979E+00 0.121E+04   -.164E+01 -.944E+00 -.121E+04   -.591E-01 -.341E-01 -.919E+00   -.101E-01 -.774E-02 0.119E+00
   -.671E-04 -.865E+01 -.126E+04   0.727E-04 0.854E+01 0.126E+04   -.264E-08 0.397E-01 0.123E+01   0.908E-03 0.989E-01 0.606E-02
   -.636E+02 -.367E+02 -.134E+04   0.633E+02 0.366E+02 0.134E+04   -.908E-01 -.524E-01 0.279E+00   0.775E-01 0.456E-01 -.337E-01
   0.636E+02 -.367E+02 -.134E+04   -.633E+02 0.366E+02 0.134E+04   0.908E-01 -.524E-01 0.279E+00   -.982E-01 0.417E-01 -.351E-01
   -.330E+02 0.190E+02 -.128E+04   0.324E+02 -.187E+02 0.128E+04   0.431E+00 -.249E+00 0.899E+00   0.155E+00 -.765E-01 -.855E-01
   -.864E-04 0.734E+02 -.134E+04   0.152E-03 -.731E+02 0.134E+04   -.698E-08 0.105E+00 0.279E+00   -.143E-01 -.106E+00 -.352E-01
   0.330E+02 0.190E+02 -.128E+04   -.324E+02 -.187E+02 0.128E+04   -.431E+00 -.249E+00 0.899E+00   -.131E+00 -.774E-01 -.850E-01
   0.749E+01 0.432E+01 -.126E+04   -.739E+01 -.427E+01 0.126E+04   -.344E-01 -.198E-01 0.123E+01   -.864E-01 -.508E-01 0.620E-02
   -.749E+01 0.432E+01 -.126E+04   0.739E+01 -.427E+01 0.126E+04   0.344E-01 -.198E-01 0.123E+01   0.633E-01 -.489E-01 0.613E-02
   -.121E-03 -.381E+02 -.128E+04   0.239E-03 0.374E+02 0.128E+04   -.331E-07 0.498E+00 0.899E+00   0.127E-01 0.172E+00 -.853E-01
   -.438E-04 0.136E-04 -.365E+04   0.460E-04 -.309E-04 0.365E+04   0.360E-17 0.126E-17 0.209E+01   -.173E-02 -.121E-02 -.450E-01
   -.492E+02 -.902E+02 -.365E+04   0.494E+02 0.904E+02 0.365E+04   -.405E+00 -.470E+00 0.206E+01   0.127E+00 0.111E+00 -.596E-01
   0.492E+02 -.902E+02 -.365E+04   -.494E+02 0.904E+02 0.365E+04   0.405E+00 -.470E+00 0.206E+01   -.104E+00 0.111E+00 -.610E-01
   -.103E+03 0.249E+01 -.365E+04   0.103E+03 -.243E+01 0.365E+04   -.609E+00 -.116E+00 0.206E+01   0.159E+00 0.543E-01 -.604E-01
   0.103E+03 0.249E+01 -.365E+04   -.103E+03 -.243E+01 0.365E+04   0.609E+00 -.116E+00 0.206E+01   -.137E+00 0.549E-01 -.592E-01
   -.535E+02 0.877E+02 -.365E+04   0.536E+02 -.880E+02 0.365E+04   -.205E+00 0.586E+00 0.206E+01   0.445E-01 -.146E+00 -.613E-01
   0.535E+02 0.877E+02 -.365E+04   -.536E+02 -.880E+02 0.365E+04   0.205E+00 0.586E+00 0.206E+01   -.206E-01 -.146E+00 -.590E-01
   -.142E-03 -.237E-04 -.367E+04   0.248E-03 -.202E-06 0.366E+04   0.252E-17 0.297E-17 0.253E+01   -.136E-01 -.741E-02 0.684E-01
   -.347E-04 -.965E-05 -.159E+04   0.604E-04 0.127E-04 0.159E+04   0.458E-19 0.271E-18 -.140E+01   -.370E-03 -.140E-03 -.116E+00
   0.516E-04 -.209E-04 -.152E+04   0.958E-05 0.465E-05 0.152E+04   0.198E-17 0.105E-17 -.411E+01   0.335E-03 0.218E-03 -.185E+00
   -.192E-03 -.415E-05 0.657E+01   0.179E-13 -.376E-12 0.682E-12   0.227E-15 -.107E-15 -.634E+01   0.657E-01 0.462E-01 -.284E+00

 POSITION                                       TOTAL-FORCE (eV/Angst)
      0.00000      0.00000      5.37156         0.000000     -0.000000      0.018998
      2.56560      0.00000      5.37156        -0.002890     -0.010048      0.049492
      5.13119      0.00000      5.37156         0.002890     -0.010048      0.049492
      1.28280      2.22187      5.37156        -0.010147      0.002522      0.049492
      3.84839      2.22187      5.37156         0.000000     -0.000000      0.047279
      6.41399      2.22187      5.37156         0.010147      0.002522      0.049492
      2.56560      4.44374      5.37156        -0.007257      0.007527      0.049492
      5.13119      4.44374      5.37156         0.007257      0.007527      0.049492
      7.69679      4.44374      5.37156         0.000000     -0.000000      0.029052
      1.28280      0.74062      7.46636        -0.013304     -0.007681     -0.054787
      3.84839      0.74062      7.46636         0.000000     -0.001746     -0.066432
      6.41399      0.74062      7.46636         0.013304     -0.007681     -0.054787
      2.56560      2.96249      7.46636        -0.001512      0.000873     -0.066432
      5.13119      2.96249      7.46636         0.001512      0.000873     -0.066432
      7.69679      2.96249      7.46636        -0.000000      0.011658      0.013562
      3.84839      5.18437      7.46636        -0.000000      0.015362     -0.054787
      6.41399      5.18437      7.46636         0.010096     -0.005829      0.013562
      8.97958      5.18437      7.46636        -0.010096     -0.005829      0.013562
      7.69679      1.48082      9.55187        -0.000000      0.021311      0.143499
      2.55960      1.47778      9.55047        -0.275546     -0.159087     -0.327583
      5.13719      1.47778      9.55047         0.275546     -0.159087     -0.327583
      8.97653      3.70488      9.56926         0.025599     -0.014780      0.067211
      3.84839      3.71005      9.55047        -0.000000      0.318173     -0.327583
      6.41705      3.70488      9.56926        -0.025599     -0.014780      0.067211
     10.26275      5.92520      9.55187        -0.018456     -0.010656      0.143499
      5.13082      5.92520      9.55187         0.018456     -0.010656      0.143499
      7.69679      5.92146      9.56926        -0.000000      0.029559      0.067211
      0.00000      0.00000     11.65662         0.000000     -0.000000     -0.153190
      6.40243      6.64574     11.69071        -0.080682     -0.125324      0.047411
      8.99114      6.64574     11.69071         0.080682     -0.125324      0.047411
      8.95659      2.22180     11.69071        -0.148875     -0.007211      0.047411
      6.43698      2.22180     11.69071         0.148875     -0.007211      0.047411
     10.25095      4.46369     11.69071        -0.068193      0.132535      0.047411
      5.14262      4.46369     11.69071         0.068192      0.132535      0.047411
      7.69679      4.44374     11.67656         0.000000     -0.000000     -0.154930
      3.84839      2.22187     11.69355         0.000000     -0.000000      0.325504
      3.84839      2.22187     13.56242         0.000000     -0.000000     -0.020539
    total drift:                                0.065459      0.046220     -0.048975

  FREE ENERGIE OF THE ION-ELECTRON SYSTEM (eV)
  free  energy   TOTEN  =      -138.47640005 eV

  energy  without entropy=     -138.47640005  energy(sigma->0) =     -138.47640005

 stress matrix after NEB project (eV)
     -4.61330      0.00000     -0.00000
      0.00000     -4.61330      0.00000
     -0.00000      0.00000     -1.91596
  FORCES: max atom, RMS     0.020539    0.003377
  FORCE total and by dimension    0.020539    0.020539
  Stress total and by dimension    6.799704    4.613301
|           W    W    AA    RRRRR   N    N  II  N    N   GGGG   !!!           |
|           W    W   A  A   R    R  NN   N  II  NN   N  G    G  !!!           |
|           W    W  A    A  R    R  N N  N  II  N N  N  G       !!!           |
|           W WW W  AAAAAA  RRRRR   N  N N  II  N  N N  G  GGG   !            |
|           WW  WW  A    A  R   R   N   NN  II  N   NN  G    G                |
|           W    W  A    A  R    R  N    N  II  N    N   GGGG   !!!           |
|     Tetrahedron method does not include variations of the Fermi             |
|     occupations, so forces and stress will be inaccurate. We suggest        |
|     using a different smearing scheme ISMEAR = 1 or 2 for metals in         |
|     relaxations.                                                            |

 total charge

# of ion       s       p       d       tot
    1        0.448   0.285   9.188   9.920
    2        0.447   0.285   9.186   9.918
    3        0.447   0.285   9.186   9.918
    4        0.447   0.285   9.186   9.918
    5        0.451   0.283   9.185   9.919
    6        0.447   0.285   9.186   9.918
    7        0.447   0.285   9.186   9.918
    8        0.447   0.285   9.186   9.918
    9        0.448   0.285   9.188   9.921
   10        0.441   0.372   9.177   9.990
   11        0.443   0.366   9.180   9.989
   12        0.441   0.372   9.177   9.990
   13        0.443   0.366   9.180   9.989
   14        0.443   0.366   9.180   9.989
   15        0.438   0.370   9.176   9.985
   16        0.441   0.372   9.177   9.990
   17        0.438   0.370   9.176   9.985
   18        0.438   0.370   9.176   9.985
   19        0.440   0.367   9.180   9.987
   20        0.455   0.391   9.171  10.018
   21        0.455   0.391   9.171  10.018
   22        0.429   0.370   9.180   9.979
   23        0.455   0.391   9.171  10.018
   24        0.429   0.370   9.180   9.979
   25        0.440   0.367   9.180   9.987
   26        0.440   0.367   9.180   9.987
   27        0.429   0.370   9.180   9.979
   28        0.449   0.290   9.186   9.925
   29        0.471   0.309   9.171   9.950
   30        0.471   0.309   9.171   9.950
   31        0.471   0.309   9.171   9.950
   32        0.471   0.309   9.171   9.950
   33        0.471   0.309   9.171   9.950
   34        0.471   0.309   9.171   9.950
   35        0.448   0.290   9.186   9.923
   36        0.771   0.744   3.749   5.264
   37        0.998   1.197   0.000   2.195
tot         17.458  13.650 325.017 356.125

 BZINTS: Fermi energy:   -0.614243;  394.000000 electrons
         Band energy:-0.137806E+04;  BLOECHL correction:   -0.054158