 vasp.6.2.0 18Jan21 (build Jun 12 2021 23:27:24) complex

 executed on             LinuxIFC date 2022.05.28  01:02:28

 INCAR:
   ISMEAR = -5
   SIGMA = 0.1
   ISPIN = 1
   EDIFF = 1.d-5
   EDIFFG = -0.01
   NSW = 0
   NELM = 150
   ENCUT = 500
   ISIF = 2
   IBRION = 2
   LREAL = Auto
   ALGO = Fast
   ICHARG = 11
   LORBIT = 10
   LCHARG = .F.
   LWAVE = .F.

 POTCAR:    PAW_PBE Au 04Oct2007
 POTCAR:    PAW_PBE Rh 04Feb2005
 POTCAR:    PAW_PBE O 08Apr2002
 POTCAR:    PAW_PBE H 15Jun2001
|           W    W    AA    RRRRR   N    N  II  N    N   GGGG   !!!           |
|           W    W   A  A   R    R  NN   N  II  NN   N  G    G  !!!           |
|           W    W  A    A  R    R  N N  N  II  N N  N  G       !!!           |
|           W WW W  AAAAAA  RRRRR   N  N N  II  N  N N  G  GGG   !            |
|           WW  WW  A    A  R   R   N   NN  II  N   NN  G    G                |
|           W    W  A    A  R    R  N    N  II  N    N   GGGG   !!!           |
|     For optimal performance we recommend to set                             |
|       NCORE = 2 up to number-of-cores-per-socket                            |
|     This setting can greatly improve the performance of VASP for DFT.       |
|     The default, NCORE=1 might be grossly inefficient on modern             |
|     multi-core architectures or massively parallel machines. Do your        |
|     Unfortunately you need to use the default for GW and RPA                |
|     calculations (for HF NCORE is supported but not extensively tested      |
|     yet).                                                                   |

 POTCAR:    PAW_PBE Au 04Oct2007
   VRHFIN =Au: s1d10

   TITEL  = PAW_PBE Au 04Oct2007
   POMASS =  196.966; ZVAL   =   11.000    mass and valenz
   ENMAX  =  229.943; ENMIN  =  172.457 eV

 POTCAR:    PAW_PBE Rh 04Feb2005
   VRHFIN =Rh: s1 d8

   TITEL  = PAW_PBE Rh 04Feb2005
   POMASS =  102.906; ZVAL   =    9.000    mass and valenz
   ENMAX  =  228.996; ENMIN  =  171.747 eV

 POTCAR:    PAW_PBE O 08Apr2002
   VRHFIN =O: s2p4

   TITEL  = PAW_PBE O 08Apr2002
   POMASS =   16.000; ZVAL   =    6.000    mass and valenz
   ENMAX  =  400.000; ENMIN  =  300.000 eV

 POTCAR:    PAW_PBE H 15Jun2001
   VRHFIN =H: ultrasoft test

   TITEL  = PAW_PBE H 15Jun2001
   POMASS =    1.000; ZVAL   =    1.000    mass and valenz
   ENMAX  =  250.000; ENMIN  =  200.000 eV

 Optimization of the real space projectors (new method)

 maximal supplied QI-value         = 15.12
 optimisation between [QCUT,QGAM] = [ 11.34, 22.83] = [ 36.00,145.93] Ry
 Optimized for a Real-space Cutoff    1.39 Angstroem

   l    n(q)    QCUT    max X(q) W(low)/X(q) W(high)/X(q)  e(spline)
   2      9    11.338    60.898    0.39E-03    0.42E-03    0.21E-06
   2      9    11.338    58.894    0.40E-03    0.42E-03    0.22E-06
   0      9    11.338   109.617    0.13E-03    0.20E-04    0.13E-06
   0      9    11.338    75.026    0.13E-03    0.20E-04    0.13E-06
   1      9    11.338    16.344    0.33E-04    0.24E-03    0.18E-06
   1      9    11.338    10.160    0.26E-04    0.19E-03    0.15E-06
 Optimization of the real space projectors (new method)

[...]

   l    n(q)    QCUT    max X(q) W(low)/X(q) W(high)/X(q)  e(spline)
   0      7    11.387    20.381    0.39E-03    0.13E-02    0.15E-06
   0      7    11.387    15.268    0.42E-03    0.14E-02    0.17E-06
   1      6    11.387     5.964    0.41E-03    0.11E-02    0.17E-06
   1      6    11.387     5.382    0.39E-03    0.87E-03    0.15E-06
 Optimization of the real space projectors (new method)

 maximal supplied QI-value         = 34.20
 optimisation between [QCUT,QGAM] = [ 11.29, 22.57] = [ 35.68,142.71] Ry
 Optimized for a Real-space Cutoff    1.16 Angstroem

   l    n(q)    QCUT    max X(q) W(low)/X(q) W(high)/X(q)  e(spline)
   0      8    11.287    19.460    0.40E-03    0.73E-03    0.16E-06
   0      8    11.287    12.209    0.38E-03    0.70E-03    0.15E-06
   1      7    11.287     4.655    0.22E-03    0.25E-04    0.22E-06
  PAW_PBE Au 04Oct2007                  :
  PAW_PBE Rh 04Feb2005                  :
  PAW_PBE O 08Apr2002                   :
  PAW_PBE H 15Jun2001                   :

 POSCAR: Au-Rh-OOH
  positions in direct lattice
  velocities in cartesian coordinates
 exchange correlation table for  LEXCH =        8
   RHO(1)=    0.500       N(1)  =     2000
   RHO(2)=  100.500       N(2)  =     4000

 VTST: version 3.2, (02/03/18)

 CHAIN: initializing optimizer

 OPT: Using VASP Conjugate-Gradient optimizer
 CHAIN: Read ICHAIN            0

 POSCAR: Au-Rh-OOH
  positions in direct lattice
  velocities in cartesian coordinates

 ion  position               nearest neighbor table
   1  0.000  0.000  0.204-  16 2.94  12 2.94   6 2.94   8 2.94   7 2.94   3 2.94  10 2.94   4 2.94
                             2 2.94
   2  0.333  0.000  0.204-   9 2.94  11 2.94  17 2.94  10 2.94   8 2.94   4 2.94   5 2.94   1 2.94
                             3 2.94
   3  0.667  0.000  0.204-   7 2.94  18 2.94  12 2.94   1 2.94  11 2.94   5 2.94   6 2.94   9 2.94
                             2 2.94
   4  0.000  0.333  0.204-  10 2.94   6 2.94   5 2.94  13 2.94   2 2.94  15 2.94   9 2.94   1 2.94
                             7 2.94
   5  0.333  0.333  0.204-  13 2.94   7 2.94  11 2.94   4 2.94   2 2.94  14 2.94   3 2.94   8 2.94
                             6 2.94
   6  0.667  0.333  0.204-  15 2.94  14 2.94   1 2.94  12 2.94   4 2.94   9 2.94   8 2.94   3 2.94
                             5 2.94
   7  0.000  0.667  0.204-  18 2.94   3 2.94  16 2.94   5 2.94   1 2.94  13 2.94   8 2.94   4 2.94
                             9 2.94
   8  0.333  0.667  0.204-   9 2.94  17 2.94   1 2.94   2 2.94  14 2.94  16 2.94   6 2.94   7 2.94
                             5 2.94
   9  0.667  0.667  0.204-   2 2.94   8 2.94  17 2.94   6 2.94  15 2.94   4 2.94   3 2.94  18 2.94
                             7 2.94
  10  0.111  0.111  0.296-  20 2.91  26 2.93  19 2.93  11 2.94  17 2.94   2 2.94   4 2.94   1 2.94
                            12 2.94  16 2.94  13 2.94  15 2.94
  11  0.444  0.111  0.296-  20 2.91  21 2.91  27 2.93  13 2.94   2 2.94  10 2.94  17 2.94   5 2.94
                             3 2.94  18 2.94  14 2.94  12 2.94
  12  0.778  0.111  0.296-  21 2.91  25 2.93  19 2.93  16 2.94  18 2.94   1 2.94  14 2.94  15 2.94
                             3 2.94   6 2.94  10 2.94  11 2.94
  13  0.111  0.444  0.296-  23 2.91  20 2.91  22 2.93   5 2.94  18 2.94  11 2.94   7 2.94   4 2.94
                            16 2.94  10 2.94  14 2.94  15 2.94
  14  0.444  0.444  0.296-  21 2.91  23 2.91  24 2.93  15 2.94   6 2.94  12 2.94   8 2.94  17 2.94
                             5 2.94  16 2.94  13 2.94  11 2.94
  15  0.778  0.444  0.296-  24 2.93  22 2.93  19 2.93  14 2.94   6 2.94  17 2.94  12 2.94   9 2.94
                             4 2.94  10 2.94  13 2.94  18 2.94
  16  0.111  0.778  0.296-  23 2.91  25 2.93  26 2.93  18 2.94  12 2.94   7 2.94   1 2.94   8 2.94
                            13 2.94  10 2.94  14 2.94  17 2.94
  17  0.444  0.778  0.296-  27 2.93  24 2.93  26 2.93   9 2.94  15 2.94   2 2.94  10 2.94  11 2.94
                             8 2.94  14 2.94  16 2.94  18 2.94
  18  0.778  0.778  0.296-  22 2.93  27 2.93  25 2.93  16 2.94   7 2.94  13 2.94  12 2.94   3 2.94
                            11 2.94   9 2.94  15 2.94  17 2.94
  19  0.889  0.222  0.389-  15 2.93  10 2.93  12 2.93  21 2.94  20 2.94  24 2.94  22 2.94  26 2.94
                            25 2.94  28 2.96  32 2.96  31 2.96
  20  0.222  0.222  0.388-  36 2.79  10 2.91  11 2.91  13 2.91  26 2.94  19 2.94  23 2.94  21 2.94
                            27 2.94  22 2.94  29 2.95  31 2.95
  21  0.556  0.222  0.388-  36 2.79  12 2.91  14 2.91  11 2.91  25 2.94  19 2.94  20 2.94  23 2.94
                            27 2.94  24 2.94  30 2.95  32 2.95
  22  0.888  0.556  0.388-  24 2.92  27 2.92  18 2.93  15 2.93  13 2.93  25 2.94  19 2.94  23 2.94
                            20 2.94  33 2.95  31 2.95  35 2.96
  23  0.222  0.556  0.388-  36 2.79  16 2.91  13 2.91  14 2.91  25 2.94  26 2.94  20 2.94  21 2.94
                            22 2.94  24 2.94  33 2.95  34 2.95
  24  0.556  0.556  0.388-  27 2.92  22 2.92  15 2.93  17 2.93  14 2.93  26 2.94  19 2.94  21 2.94
                            23 2.94  32 2.95  34 2.95  35 2.96
  25  0.889  0.889  0.389-  18 2.93  16 2.93  12 2.93  23 2.94  21 2.94  22 2.94  27 2.94  19 2.94
                            26 2.94  28 2.96  33 2.96  30 2.96
  26  0.222  0.889  0.389-  17 2.93  10 2.93  16 2.93  20 2.94  23 2.94  27 2.94  24 2.94  19 2.94
                            25 2.94  28 2.96  29 2.96  34 2.96
  27  0.556  0.888  0.388-  24 2.92  22 2.92  17 2.93  18 2.93  11 2.93  26 2.94  25 2.94  20 2.94
                            21 2.94  29 2.95  30 2.95  35 2.96
  28  0.000  0.000  0.482-  34 2.95  32 2.95  33 2.95  30 2.95  31 2.95  29 2.95  25 2.96  19 2.96
                            26 2.96
  29  0.333  0.004  0.481-  31 2.90  30 2.90  36 2.91  20 2.95  27 2.95  28 2.95  35 2.96  26 2.96
                            34 3.01
  30  0.663  0.004  0.481-  32 2.90  29 2.90  36 2.91  21 2.95  27 2.95  28 2.95  35 2.96  25 2.96
                            33 3.01
  31  0.004  0.333  0.481-  29 2.90  33 2.90  36 2.91  20 2.95  22 2.95  28 2.95  35 2.96  19 2.96
                            32 3.01
  32  0.663  0.333  0.481-  30 2.90  34 2.90  36 2.91  21 2.95  24 2.95  28 2.95  35 2.96  19 2.96
                            31 3.01
  33  0.004  0.663  0.481-  34 2.90  31 2.90  36 2.91  23 2.95  22 2.95  28 2.95  35 2.96  25 2.96
                            30 3.01
  34  0.333  0.663  0.481-  33 2.90  32 2.90  36 2.91  23 2.95  24 2.95  28 2.95  35 2.96  26 2.96
                            29 3.01
  35  0.667  0.667  0.482-  29 2.96  34 2.96  32 2.96  31 2.96  30 2.96  33 2.96  24 2.96  27 2.96
                            22 2.96
  36  0.333  0.333  0.473-  37 1.95  20 2.79  23 2.79  21 2.79  33 2.91  31 2.91  29 2.91  30 2.91
                            34 2.91  32 2.91
  37  0.313  0.354  0.548-  38 1.46  36 1.95
  38  0.419  0.191  0.576-  39 0.98  37 1.46
  39  0.520  0.204  0.586-  38 0.98

  LATTYP: Found a hexagonal cell.
 ALAT       =     8.8135128021
 C/A-ratio  =     2.9412617888

  Lattice vectors:

 A1 = (  -4.4067569092,  -7.6327256898,   0.0000000000)
 A2 = (   8.8135128021,   0.0000000000,   0.0000000000)
 A3 = (   0.0000000000,   0.0000000000,  25.9228484302)

Analysis of symmetry for initial positions (statically):
 Subroutine PRICEL returns:
 Original cell was already a primitive cell.

 Routine SETGRP: Setting up the symmetry group for a
 hexagonal supercell.

 Subroutine GETGRP returns: Found  1 space group operations
 (whereof  1 operations were pure point group operations)
 out of a pool of 24 trial point group operations.

The static configuration has the point symmetry C_1 .

Analysis of symmetry for dynamics (positions and initial velocities):
 Subroutine PRICEL returns:
 Original cell was already a primitive cell.

[...]

The dynamic configuration has the point symmetry C_1 .

Analysis of constrained symmetry for selective dynamics:
 Subroutine PRICEL returns:
[...]
     41      -5.3072      2.00000
     42      -5.2750      2.00000
     43      -5.2420      2.00000
     44      -5.1835      2.00000
     45      -5.1310      2.00000
     46      -5.0960      2.00000
     47      -5.0503      2.00000
     48      -5.0304      2.00000
     49      -5.0195      2.00000
     50      -5.0107      2.00000
     51      -4.9083      2.00000
     52      -4.8786      2.00000
     53      -4.8521      2.00000
     54      -4.8454      2.00000
     55      -4.8411      2.00000
     56      -4.8317      2.00000
     57      -4.8112      2.00000
     58      -4.7773      2.00000
     59      -4.7375      2.00000
     60      -4.7068      2.00000
[...]
    238       5.2875      0.00000
    239       5.4317      0.00000
    240       5.5289      0.00000
    241       5.6709      0.00000
    242       5.7036      0.00000
    243       5.7255      0.00000
    244       5.7843      0.00000
    245       5.8247      0.00000
    246       5.9543      0.00000
    247       6.0501      0.00000
    248       6.1030      0.00000
    249       6.1577      0.00000
    250       6.3106      0.00000
    251       6.4127      0.00000
    252       6.4482      0.00000

 soft charge-density along one line, spin component           1
         0         1         2         3         4         5         6         7         8         9
 total charge-density along one line

------------------------ aborting loop because EDIFF is reached ----------------------------------------

 total charge

# of ion       s       p       d       tot
    1        0.546   0.239   8.767   9.552
    2        0.544   0.240   8.765   9.549
    3        0.544   0.240   8.764   9.548
    4        0.544   0.241   8.764   9.549
    5        0.544   0.241   8.761   9.545
    6        0.544   0.241   8.763   9.549
    7        0.544   0.241   8.763   9.548
    8        0.544   0.241   8.763   9.548
    9        0.541   0.240   8.767   9.548
   10        0.522   0.309   8.769   9.600
   11        0.518   0.308   8.777   9.604
   12        0.521   0.309   8.770   9.599
   13        0.518   0.308   8.777   9.604
   14        0.519   0.308   8.776   9.603
   15        0.515   0.308   8.775   9.599
   16        0.520   0.309   8.770   9.599
   17        0.516   0.308   8.775   9.599
   18        0.516   0.308   8.776   9.599
   19        0.517   0.302   8.775   9.595
   20        0.540   0.325   8.753   9.618
   21        0.540   0.325   8.754   9.618
   22        0.511   0.307   8.775   9.592
   23        0.538   0.322   8.758   9.618
   24        0.512   0.306   8.776   9.593
   25        0.516   0.303   8.776   9.595
   26        0.516   0.303   8.775   9.594
   27        0.509   0.308   8.774   9.591
   28        0.542   0.230   8.766   9.539
   29        0.543   0.233   8.766   9.542
   30        0.546   0.238   8.762   9.545
   31        0.541   0.233   8.767   9.541
   32        0.550   0.238   8.762   9.549
   33        0.548   0.234   8.763   9.545
   34        0.546   0.234   8.763   9.543
   35        0.536   0.231   8.768   9.535
   36        0.386   0.412   7.394   8.191
   37        1.601   3.246   0.000   4.847
   38        1.593   3.382   0.000   4.975
   39        0.615   0.112   0.000   0.727
tot         22.806  16.762 314.271 353.838

  FORCE on cell =-STRESS in cart. coord.  units (eV):
  Direction    XX          YY          ZZ          XY          YZ          ZX
  Alpha Z   890.74606   890.74606   890.74606
  Ewald  175985.35466176147.12862************   -53.47999  -130.10716    51.74584
  Hartree184519.87441184635.54396************   -31.29292   -69.63209    19.79170
  E(xc)   -1832.79767 -1832.77139 -1839.14436    -0.05096    -0.23088     0.13614
  Local  ************************372789.68879    80.03253   183.38736   -62.30638
  n-local  -111.48504  -103.65499   -78.61476    -2.16065    -2.46297     0.27712
  augment  2441.18512  2438.73824  2450.10326     0.78009     1.61970    -0.55327
  Kinetic  5737.17741  5723.86667  5776.01438     6.04894    17.48184    -9.01056
  Fock        0.00000     0.00000     0.00000     0.00000     0.00000     0.00000
  Total     -21.35008   -20.81624     1.49740    -0.12296     0.05580     0.08058
  in kB     -19.61547   -19.12500     1.37575    -0.11297     0.05126     0.07403

 VOLUME and BASIS-vectors are now :
  energy-cutoff  :      500.00
  volume of cell :     1743.86
      direct lattice vectors                 reciprocal lattice vectors
     8.813512802  0.000000000  0.000000000     0.113462137 -0.065507406  0.000000000
     4.406756909  7.632725690  0.000000000     0.000000000  0.131014796  0.000000000
     0.000000000  0.000000000 25.922848430     0.000000000  0.000000000  0.038576008

  length of vectors
     8.813512802  8.813512802 25.922848430     0.131014796  0.131014796  0.038576008

 FORCES acting on ions
    electron-ion (+dipol)            ewald-force                    non-local-force                 convergence-correction
   0.347E-02 0.722E-01 0.280E+04   0.110E-01 -.162E-01 -.280E+04   0.652E-02 -.919E-02 -.771E+00   -.203E-01 -.432E-01 -.259E+00
   0.296E+00 0.395E+00 0.280E+04   -.377E+00 -.484E+00 -.280E+04   0.584E-02 0.536E-01 -.332E+00   0.685E-01 0.376E-01 -.333E+00
   -.309E+00 0.381E+00 0.280E+04   0.366E+00 -.485E+00 -.280E+04   -.873E-02 0.546E-01 -.342E+00   -.417E-01 0.566E-01 -.333E+00
   0.445E+00 -.147E-01 0.280E+04   -.588E+00 -.292E-01 -.280E+04   0.538E-01 0.948E-03 -.305E+00   0.881E-01 0.409E-01 -.346E+00
   -.633E-02 -.511E-01 0.280E+04   -.566E-02 0.629E-01 -.280E+04   -.109E-01 -.226E-01 -.332E+00   0.221E-01 0.121E-01 -.297E+00
   -.409E+00 -.153E-01 0.280E+04   0.594E+00 -.198E-01 -.280E+04   -.723E-01 0.124E-01 -.288E+00   -.114E+00 0.157E-01 -.324E+00
   0.118E+00 -.399E+00 0.280E+04   -.218E+00 0.504E+00 -.280E+04   0.531E-01 -.503E-01 -.318E+00   0.586E-01 -.588E-01 -.330E+00
   -.133E+00 -.369E+00 0.280E+04   0.223E+00 0.514E+00 -.280E+04   -.415E-01 -.649E-01 -.297E+00   -.592E-01 -.815E-01 -.326E+00
   0.416E-02 0.243E-01 0.280E+04   -.494E-02 -.462E-01 -.280E+04   0.204E-03 -.358E-02 -.512E+00   -.677E-03 0.211E-01 -.294E+00
   0.448E+01 0.244E+01 0.996E+03   -.415E+01 -.223E+01 -.995E+03   -.314E+00 -.191E+00 -.644E+00   -.387E-02 -.199E-01 -.114E+00
   0.665E-01 0.458E+01 0.100E+04   -.757E-01 -.472E+01 -.100E+04   -.238E-01 0.119E+00 -.368E+00   0.305E-01 -.822E-02 -.154E+00
   -.447E+01 0.237E+01 0.996E+03   0.422E+01 -.220E+01 -.995E+03   0.272E+00 -.175E+00 -.652E+00   -.421E-01 0.109E-01 -.117E+00
   0.414E+01 -.268E+01 0.100E+04   -.427E+01 0.269E+01 -.100E+04   0.737E-01 -.548E-01 -.308E+00   0.213E-01 0.593E-01 -.139E+00
   -.419E+01 -.275E+01 0.100E+04   0.426E+01 0.276E+01 -.100E+04   -.469E-01 -.348E-01 -.280E+00   0.199E-01 0.414E-01 -.126E+00
   -.174E-01 0.407E+00 0.994E+03   0.158E-01 -.542E+00 -.994E+03   0.237E-01 0.441E-01 -.404E+00   -.205E-01 0.701E-01 -.948E-01
   -.443E-01 -.455E+01 0.995E+03   0.574E-01 0.437E+01 -.994E+03   -.138E-01 0.248E+00 -.589E+00   -.146E-04 -.885E-01 -.108E+00
   0.614E+00 0.837E-01 0.995E+03   -.725E+00 -.345E-01 -.994E+03   0.541E-01 0.105E-01 -.454E+00   0.348E-01 -.461E-01 -.923E-01
   -.585E+00 0.101E+00 0.995E+03   0.668E+00 -.876E-01 -.994E+03   -.324E-01 0.150E-01 -.467E+00   -.277E-01 -.141E-01 -.109E+00
   -.429E+00 0.136E+01 -.843E+03   0.466E+00 -.157E+01 0.842E+03   -.956E-03 0.689E-01 0.617E+00   -.311E-01 0.121E+00 0.330E+00
   0.193E+02 0.810E+01 -.799E+03   -.185E+02 -.765E+01 0.799E+03   -.883E+00 -.524E+00 -.555E+00   0.109E+00 0.731E-01 0.521E+00
   -.188E+02 0.763E+01 -.798E+03   0.181E+02 -.715E+01 0.798E+03   0.818E+00 -.542E+00 -.593E+00   -.648E-01 0.893E-01 0.504E+00
   0.687E+01 -.352E+01 -.836E+03   -.718E+01 0.364E+01 0.835E+03   0.289E+00 -.149E+00 0.572E+00   0.290E-01 0.138E-01 0.354E+00
   -.146E+00 -.214E+02 -.803E+03   0.141E+00 0.205E+02 0.803E+03   -.112E-01 0.952E+00 -.436E+00   0.244E-01 -.570E-01 0.497E+00
   -.668E+01 -.393E+01 -.836E+03   0.705E+01 0.410E+01 0.835E+03   -.308E+00 -.171E+00 0.560E+00   -.654E-01 -.938E-02 0.344E+00
   -.382E+01 0.710E+00 -.842E+03   0.405E+01 -.543E+00 0.841E+03   -.105E+00 -.519E-01 0.642E+00   -.103E+00 -.952E-01 0.342E+00
   0.333E+01 0.423E+00 -.843E+03   -.354E+01 -.250E+00 0.842E+03   0.953E-01 -.406E-01 0.645E+00   0.907E-01 -.122E+00 0.338E+00
   0.516E+00 0.110E+02 -.830E+03   -.517E+00 -.112E+02 0.830E+03   -.146E-02 0.287E+00 0.566E+00   -.167E-02 -.200E-01 0.365E+00
   -.342E+01 0.405E+01 -.267E+04   0.343E+01 -.399E+01 0.267E+04   -.172E-01 -.187E-01 0.335E+00   0.250E-02 -.237E-01 0.396E+00
   0.542E+02 0.666E+02 -.261E+04   -.542E+02 -.666E+02 0.261E+04   -.141E+00 -.255E+00 0.831E+00   0.901E-01 0.991E-01 0.312E+00
   -.514E+02 0.713E+02 -.260E+04   0.515E+02 -.713E+02 0.260E+04   0.115E+00 -.290E+00 0.737E+00   -.942E-01 0.124E+00 0.300E+00
   0.698E+02 -.656E+01 -.264E+04   -.699E+02 0.663E+01 0.264E+04   -.273E+00 -.550E-01 0.664E+00   0.133E+00 0.124E-01 0.299E+00
   -.716E+02 -.116E+02 -.263E+04   0.714E+02 0.116E+02 0.263E+04   0.478E+00 -.900E-02 0.167E+00   -.148E+00 0.163E-01 0.298E+00
   0.276E+02 -.524E+02 -.264E+04   -.276E+02 0.523E+02 0.264E+04   -.194E+00 0.442E+00 0.584E+00   0.712E-01 -.112E+00 0.269E+00
   -.281E+02 -.528E+02 -.264E+04   0.281E+02 0.527E+02 0.264E+04   0.176E+00 0.410E+00 0.559E+00   -.518E-01 -.109E+00 0.279E+00
   0.996E+00 0.121E+02 -.267E+04   -.967E+00 -.121E+02 0.267E+04   -.107E-01 0.197E-01 0.471E+00   -.208E-01 0.129E-01 0.274E+00
   -.235E+01 -.169E+02 -.185E+04   0.231E+01 0.170E+02 0.186E+04   0.241E-01 -.187E+00 -.174E+01   0.145E-01 -.127E-01 0.173E+00
   0.427E+02 -.185E+03 -.170E+04   -.512E+02 0.218E+03 0.170E+04   0.846E+01 -.324E+02 -.489E+01   0.299E-01 -.697E-01 -.158E+00
   0.163E+02 0.171E+03 -.176E+04   -.503E+02 -.201E+03 0.177E+04   0.340E+02 0.295E+02 -.648E+01   0.421E-01 -.888E-01 -.595E-01
   -.896E+02 0.393E+01 -.303E+03   0.974E+02 -.319E+01 0.305E+03   -.780E+01 -.733E+00 -.216E+01   -.157E-02 -.794E-02 -.649E-02
   -.348E+02 0.391E+01 0.144E+02   -.995E-13 0.275E-12 0.178E-10   0.347E+02 -.377E+01 -.166E+02   0.681E-01 -.159E+00 0.207E+01

 POSITION                                       TOTAL-FORCE (eV/Angst)
      0.00000      0.00000      5.28038         0.001571      0.004120     -0.091249
      2.93784      0.00000      5.28038        -0.004930      0.002183     -0.045196
      5.87568      0.00000      5.28038         0.006868      0.008245     -0.043670
      1.46892      2.54424      5.28038        -0.000475     -0.001443     -0.037585
      4.40676      2.54424      5.28038         0.000127      0.001901     -0.082510
      7.34459      2.54424      5.28038        -0.001280     -0.006438     -0.038630
      2.93784      5.08848      5.28038         0.013001     -0.003755     -0.037784
      5.87568      5.08848      5.28038        -0.010342     -0.001640     -0.038031
      8.81351      5.08848      5.28038        -0.000396     -0.003855     -0.066998
      1.46892      0.84808      7.67911         0.021206      0.006809      0.115131
      4.40676      0.84808      7.67911        -0.001600     -0.034149      0.065669
      7.34459      0.84808      7.67911        -0.023013      0.008020      0.114886
      2.93784      3.39232      7.67911        -0.038755      0.017239      0.074513
      5.87568      3.39232      7.67911         0.044297      0.021549      0.072031
      8.81351      3.39232      7.67911         0.002468     -0.020213      0.118338
      4.40676      5.93656      7.67911         0.000070     -0.019666      0.111467
      7.34459      5.93656      7.67911        -0.021216      0.014163      0.114185
     10.28243      5.93656      7.67911         0.023907      0.014558      0.110821
      8.81351      1.69621     10.07295         0.005569     -0.019635     -0.032312
      2.93663      1.69546     10.04742         0.020161      0.009464     -0.010135
      5.87688      1.69546     10.04742        -0.016572      0.027068     -0.045037
     10.27557      4.24437     10.06760         0.010400     -0.020698     -0.013167
      4.40676      4.24180     10.04742         0.009533      0.004290     -0.103099
      7.35146      4.24437     10.06760        -0.008676     -0.010378     -0.024937
     11.75131      6.78462     10.07295         0.024273      0.019860     -0.028507
      5.87571      6.78462     10.07295        -0.024092      0.011887     -0.020648
      8.81351      6.77672     10.06760        -0.002640      0.024728     -0.004508
      0.00000      0.00000     12.49471         0.003662      0.012913     -0.094340
      2.95476      0.03042     12.47845        -0.080105     -0.178644     -0.163033
      5.85875      0.03042     12.47845         0.072278     -0.137089     -0.133374
      1.50372      2.54369     12.47845        -0.221734      0.030136     -0.126264
      7.30979      2.54369     12.47845         0.191852      0.014357     -0.107423
      2.95572      5.05862     12.47845        -0.088489      0.153239     -0.134146
      5.85780      5.05862     12.47845         0.097199      0.157549     -0.106653
      8.81351      5.08848     12.49462        -0.001216     -0.017228     -0.080833
      4.40676      2.54424     12.26123         0.000481     -0.097649      0.839202
      4.31597      2.70045     14.20154         0.008430     -0.017458      0.012302
      4.53797      1.45913     14.93490        -0.012461      0.024616     -0.035178
      5.48413      1.55830     15.18829         0.000639      0.001042     -0.003298
    total drift:                               -0.033313     -0.020830     -0.042046

  FREE ENERGIE OF THE ION-ELECTRON SYSTEM (eV)
  free  energy   TOTEN  =      -127.65161648 eV

  energy  without entropy=     -127.65161648  energy(sigma->0) =     -127.65161648

 stress matrix after NEB project (eV)
    -21.35008     -0.12296      0.08058
     -0.12296    -20.81624      0.05580
      0.08058      0.05580      1.49740
  FORCES: max atom, RMS     0.044707    0.008067
  FORCE total and by dimension    0.050381    0.035178
  Stress total and by dimension   29.856884   21.350082
|           W    W    AA    RRRRR   N    N  II  N    N   GGGG   !!!           |
|           W    W   A  A   R    R  NN   N  II  NN   N  G    G  !!!           |
|           W    W  A    A  R    R  N N  N  II  N N  N  G       !!!           |
|           W WW W  AAAAAA  RRRRR   N  N N  II  N  N N  G  GGG   !            |
|           WW  WW  A    A  R   R   N   NN  II  N   NN  G    G                |
|           W    W  A    A  R    R  N    N  II  N    N   GGGG   !!!           |
|     Tetrahedron method does not include variations of the Fermi             |
|     occupations, so forces and stress will be inaccurate. We suggest        |
|     using a different smearing scheme ISMEAR = 1 or 2 for metals in         |
|     relaxations.                                                            |

 total charge

# of ion       s       p       d       tot
    1        0.546   0.239   8.767   9.552
    2        0.544   0.240   8.765   9.549
    3        0.544   0.240   8.764   9.548
    4        0.544   0.241   8.764   9.549
    5        0.544   0.241   8.761   9.545
    6        0.544   0.241   8.763   9.549
    7        0.544   0.241   8.763   9.548
    8        0.544   0.241   8.763   9.548
    9        0.541   0.240   8.767   9.548
   10        0.522   0.309   8.769   9.600
   11        0.518   0.308   8.777   9.604
   12        0.521   0.309   8.770   9.599
   13        0.518   0.308   8.777   9.604
   14        0.519   0.308   8.776   9.603
   15        0.515   0.308   8.775   9.599
   16        0.520   0.309   8.770   9.599
   17        0.516   0.308   8.775   9.599
   18        0.516   0.308   8.776   9.599
   19        0.517   0.302   8.775   9.595
   20        0.540   0.325   8.753   9.618
   21        0.540   0.325   8.754   9.618
   22        0.511   0.307   8.775   9.592
   23        0.538   0.322   8.758   9.618
   24        0.512   0.306   8.776   9.593
   25        0.516   0.303   8.776   9.595
   26        0.516   0.303   8.775   9.594
   27        0.509   0.308   8.774   9.591
   28        0.542   0.230   8.766   9.539
   29        0.543   0.233   8.766   9.542
   30        0.546   0.238   8.762   9.545
   31        0.541   0.233   8.767   9.541
   32        0.550   0.238   8.762   9.549
   33        0.548   0.234   8.763   9.545
   34        0.546   0.234   8.763   9.543
   35        0.536   0.231   8.768   9.535
   36        0.386   0.412   7.394   8.191
   37        1.601   3.246   0.000   4.847
   38        1.593   3.382   0.000   4.975
   39        0.615   0.112   0.000   0.727
tot         22.806  16.762 314.271 353.838

 BZINTS: Fermi energy:   -0.066314;  407.000000 electrons
         Band energy:-0.159442E+04;  BLOECHL correction:   -0.090033