 vasp.6.2.0 18Jan21 (build Jun 12 2021 23:27:24) complex

 executed on             LinuxIFC date 2022.05.27  06:00:55

 INCAR:
   ISMEAR = -5
   SIGMA = 0.1
   ISPIN = 1
   EDIFF = 1.d-5
   EDIFFG = -0.01
   NSW = 0
   NELM = 150
   ENCUT = 500
   ISIF = 2
   IBRION = 2
   LREAL = Auto
   ALGO = Fast
   ICHARG = 11
   LORBIT = 10
   LCHARG = .F.
   LWAVE = .F.

 POTCAR:    PAW_PBE Cu 22Jun2005
 POTCAR:    PAW_PBE Mn 06Sep2000
 POTCAR:    PAW_PBE O 08Apr2002
 POTCAR:    PAW_PBE H 15Jun2001
|           W    W    AA    RRRRR   N    N  II  N    N   GGGG   !!!           |
|           W    W   A  A   R    R  NN   N  II  NN   N  G    G  !!!           |
|           W    W  A    A  R    R  N N  N  II  N N  N  G       !!!           |
|           W WW W  AAAAAA  RRRRR   N  N N  II  N  N N  G  GGG   !            |
|           WW  WW  A    A  R   R   N   NN  II  N   NN  G    G                |
|           W    W  A    A  R    R  N    N  II  N    N   GGGG   !!!           |
|     For optimal performance we recommend to set                             |
|       NCORE = 2 up to number-of-cores-per-socket                            |
|     This setting can greatly improve the performance of VASP for DFT.       |
|     The default, NCORE=1 might be grossly inefficient on modern             |
|     multi-core architectures or massively parallel machines. Do your        |
|     Unfortunately you need to use the default for GW and RPA                |
|     calculations (for HF NCORE is supported but not extensively tested      |
|     yet).                                                                   |

 POTCAR:    PAW_PBE Cu 22Jun2005
   VRHFIN =Cu: d10 p1

   TITEL  = PAW_PBE Cu 22Jun2005
   POMASS =   63.546; ZVAL   =   11.000    mass and valenz
   ENMAX  =  295.446; ENMIN  =  221.585 eV

 POTCAR:    PAW_PBE Mn 06Sep2000
   VRHFIN =Mn: d6 s1

   TITEL  = PAW_PBE Mn 06Sep2000
   POMASS =   54.938; ZVAL   =    7.000    mass and valenz
   ENMAX  =  269.864; ENMIN  =  202.398 eV

 POTCAR:    PAW_PBE O 08Apr2002
   VRHFIN =O: s2p4

   TITEL  = PAW_PBE O 08Apr2002
   POMASS =   16.000; ZVAL   =    6.000    mass and valenz
   ENMAX  =  400.000; ENMIN  =  300.000 eV

 POTCAR:    PAW_PBE H 15Jun2001
   VRHFIN =H: ultrasoft test

   TITEL  = PAW_PBE H 15Jun2001
   POMASS =    1.000; ZVAL   =    1.000    mass and valenz
   ENMAX  =  250.000; ENMIN  =  200.000 eV

 Optimization of the real space projectors (new method)

 maximal supplied QI-value         = 16.25
 optimisation between [QCUT,QGAM] = [ 11.38, 22.75] = [ 36.24,144.96] Ry
 Optimized for a Real-space Cutoff    1.52 Angstroem

   l    n(q)    QCUT    max X(q) W(low)/X(q) W(high)/X(q)  e(spline)
   2      9    11.376     4.610    0.21E-03    0.10E-03    0.26E-06
   2      9    11.376     8.522    0.33E-03    0.16E-03    0.37E-06
   0     10    11.376    51.609    0.62E-04    0.20E-04    0.13E-06
   0     10    11.376    27.747    0.54E-04    0.20E-04    0.13E-06
   1     10    11.376    20.408    0.13E-04    0.99E-04    0.19E-06
   1     10    11.376    13.425    0.12E-04    0.87E-04    0.17E-06
 Optimization of the real space projectors (new method)

[...]

   l    n(q)    QCUT    max X(q) W(low)/X(q) W(high)/X(q)  e(spline)
   0      7    11.387    20.381    0.39E-03    0.13E-02    0.15E-06
   0      7    11.387    15.268    0.42E-03    0.14E-02    0.17E-06
   1      6    11.387     5.964    0.41E-03    0.11E-02    0.17E-06
   1      6    11.387     5.382    0.39E-03    0.87E-03    0.15E-06
 Optimization of the real space projectors (new method)

 maximal supplied QI-value         = 34.20
 optimisation between [QCUT,QGAM] = [ 11.29, 22.57] = [ 35.68,142.71] Ry
 Optimized for a Real-space Cutoff    1.16 Angstroem

   l    n(q)    QCUT    max X(q) W(low)/X(q) W(high)/X(q)  e(spline)
   0      8    11.287    19.460    0.40E-03    0.73E-03    0.16E-06
   0      8    11.287    12.209    0.38E-03    0.70E-03    0.15E-06
   1      7    11.287     4.655    0.22E-03    0.25E-04    0.22E-06
  PAW_PBE Cu 22Jun2005                  :
  PAW_PBE Mn 06Sep2000                  :
  PAW_PBE O 08Apr2002                   :
  PAW_PBE H 15Jun2001                   :

 POSCAR: Cu-Mn-OH
  positions in direct lattice
  velocities in cartesian coordinates
 exchange correlation table for  LEXCH =        8
   RHO(1)=    0.500       N(1)  =     2000
   RHO(2)=  100.500       N(2)  =     4000

 VTST: version 3.2, (02/03/18)

 CHAIN: initializing optimizer

 OPT: Using VASP Conjugate-Gradient optimizer
 CHAIN: Read ICHAIN            0

 POSCAR: Cu-Mn-OH
  positions in direct lattice
  velocities in cartesian coordinates

 ion  position               nearest neighbor table
   1  0.000  0.000  0.252-   7 2.57   3 2.57   4 2.57   2 2.57   6 2.57   8 2.57  12 2.57  10 2.57
                            16 2.57
   2  0.333  0.000  0.252-   8 2.57   9 2.57   5 2.57   1 2.57   3 2.57  11 2.57   4 2.57  10 2.57
                            17 2.57
   3  0.667  0.000  0.252-   1 2.57   7 2.57   6 2.57   9 2.57   2 2.57  12 2.57   5 2.57  18 2.57
                            11 2.57
   4  0.000  0.333  0.252-   5 2.57   6 2.57   1 2.57   7 2.57   2 2.57  13 2.57   9 2.57  10 2.57
                            15 2.57
   5  0.333  0.333  0.252-   4 2.57   2 2.57   7 2.57  13 2.57   8 2.57   6 2.57   3 2.57  11 2.57
                            14 2.57
   6  0.667  0.333  0.252-   4 2.57   9 2.57  15 2.57   3 2.57   1 2.57   8 2.57  14 2.57   5 2.57
                            12 2.57
   7  0.000  0.667  0.252-   1 2.57   3 2.57  16 2.57  18 2.57   4 2.57   5 2.57   8 2.57   9 2.57
                            13 2.57
   8  0.333  0.667  0.252-   9 2.57   2 2.57  17 2.57   6 2.57   1 2.57   7 2.57   5 2.57  14 2.57
                            16 2.57
   9  0.667  0.667  0.252-   8 2.57   6 2.57   2 2.57  17 2.57   3 2.57   7 2.57   4 2.57  15 2.57
                            18 2.57
  10  0.111  0.111  0.351-  20 2.55  26 2.56  19 2.56  11 2.57  12 2.57  13 2.57   1 2.57   2 2.57
                             4 2.57  15 2.57  16 2.57  17 2.57
  11  0.444  0.111  0.351-  20 2.55  21 2.55  27 2.56  10 2.57  13 2.57   2 2.57  17 2.57  14 2.57
                            12 2.57   5 2.57   3 2.57  18 2.57
  12  0.778  0.111  0.351-  21 2.55  19 2.56  25 2.56  15 2.57  10 2.57  14 2.57  18 2.57   3 2.57
                             1 2.57  16 2.57  11 2.57   6 2.57
  13  0.111  0.444  0.351-  23 2.55  20 2.55  22 2.56  16 2.57  18 2.57  10 2.57  11 2.57  14 2.57
                             5 2.57   4 2.57   7 2.57  15 2.57
  14  0.444  0.444  0.351-  21 2.55  23 2.55  24 2.56  15 2.57  17 2.57  12 2.57  16 2.57  13 2.57
                            11 2.57   6 2.57   8 2.57   5 2.57
  15  0.778  0.444  0.351-  19 2.56  24 2.56  22 2.56  14 2.57  17 2.57  12 2.57   6 2.57  18 2.57
                            10 2.57   9 2.57  13 2.57   4 2.57
  16  0.111  0.778  0.351-  23 2.55  25 2.56  26 2.56  18 2.57  13 2.57   7 2.57  14 2.57  17 2.57
                            12 2.57  10 2.57   8 2.57   1 2.57
  17  0.444  0.778  0.351-  26 2.56  27 2.56  24 2.56  14 2.57  15 2.57   8 2.57   9 2.57  11 2.57
                            16 2.57  18 2.57  10 2.57   2 2.57
  18  0.778  0.778  0.351-  25 2.56  22 2.56  27 2.56  16 2.57  13 2.57   7 2.57  15 2.57  12 2.57
                            17 2.57   9 2.57   3 2.57  11 2.57
  19  0.889  0.222  0.449-  28 2.55  15 2.56  12 2.56  10 2.56  22 2.56  24 2.56  21 2.57  20 2.57
                            25 2.57  26 2.57  32 2.57  31 2.57
  20  0.222  0.222  0.448-  36 2.48  11 2.55  13 2.55  10 2.55  29 2.56  31 2.56  23 2.56  21 2.56
                            26 2.57  19 2.57  27 2.57  22 2.57
  21  0.555  0.222  0.448-  36 2.48  14 2.55  11 2.55  12 2.55  32 2.56  30 2.56  20 2.56  23 2.56
                            19 2.57  25 2.57  24 2.57  27 2.57
  22  0.888  0.556  0.449-  35 2.55  24 2.56  27 2.56  31 2.56  33 2.56  18 2.56  15 2.56  13 2.56
                            19 2.56  25 2.56  23 2.57  20 2.57
  23  0.222  0.555  0.448-  36 2.48  13 2.55  14 2.55  16 2.55  33 2.56  34 2.56  20 2.56  21 2.56
                            25 2.57  26 2.57  22 2.57  24 2.57
  24  0.556  0.556  0.449-  35 2.55  22 2.56  27 2.56  32 2.56  34 2.56  15 2.56  17 2.56  14 2.56
                            19 2.56  26 2.56  21 2.57  23 2.57
  25  0.889  0.889  0.449-  28 2.55  18 2.56  16 2.56  12 2.56  22 2.56  27 2.56  21 2.57  23 2.57
                            19 2.57  26 2.57  33 2.57  30 2.57
  26  0.222  0.889  0.449-  28 2.55  17 2.56  10 2.56  16 2.56  27 2.56  24 2.56  20 2.57  23 2.57
                            25 2.57  19 2.57  29 2.57  34 2.57
  27  0.556  0.888  0.449-  35 2.55  24 2.56  22 2.56  29 2.56  30 2.56  17 2.56  18 2.56  11 2.56
                            26 2.56  25 2.56  20 2.57  21 2.57
  28  0.000  0.000  0.547-  25 2.55  19 2.55  26 2.55  33 2.58  30 2.58  31 2.58  29 2.58  32 2.58
                            34 2.58
  29  0.333  0.003  0.547-  31 2.54  36 2.55  30 2.55  20 2.56  27 2.56  26 2.57  28 2.58  35 2.58
                            34 2.61
  30  0.664  0.003  0.547-  32 2.54  36 2.55  29 2.55  21 2.56  27 2.56  25 2.57  28 2.58  35 2.58
                            33 2.61
  31  0.003  0.333  0.547-  29 2.54  36 2.55  33 2.55  20 2.56  22 2.56  19 2.57  28 2.58  35 2.58
                            32 2.61
  32  0.664  0.333  0.547-  30 2.54  36 2.55  34 2.55  21 2.56  24 2.56  19 2.57  28 2.58  35 2.58
                            31 2.61
  33  0.003  0.664  0.547-  34 2.54  36 2.55  31 2.55  23 2.56  22 2.56  25 2.57  28 2.58  35 2.58
                            30 2.61
  34  0.333  0.664  0.547-  33 2.54  36 2.55  32 2.55  23 2.56  24 2.56  26 2.57  28 2.58  35 2.58
                            29 2.61
  35  0.667  0.667  0.547-  24 2.55  27 2.55  22 2.55  34 2.58  32 2.58  29 2.58  30 2.58  33 2.58
                            31 2.58
  36  0.333  0.333  0.542-  37 1.75  23 2.48  20 2.48  21 2.48  31 2.55  29 2.55  33 2.55  34 2.55
                            32 2.55  30 2.55
  37  0.333  0.333  0.624-  38 0.97  36 1.75
  38  0.333  0.333  0.670-  37 0.97

  LATTYP: Found a hexagonal cell.
 ALAT       =     7.6967864036
 C/A-ratio  =     2.7653617908

  Lattice vectors:

 A1 = (  -3.8483927580,  -6.6656128093,   0.0000000000)
 A2 = (   7.6967864037,   0.0000000000,   0.0000000000)
 A3 = (   0.0000000000,   0.0000000000,  21.2843990326)

Analysis of symmetry for initial positions (statically):
 Subroutine PRICEL returns:
 Original cell was already a primitive cell.

 Routine SETGRP: Setting up the symmetry group for a
 hexagonal supercell.

 Subroutine GETGRP returns: Found  6 space group operations
 (whereof  6 operations were pure point group operations)
 out of a pool of 24 trial point group operations.

The static configuration has the point symmetry C_3v.

Analysis of symmetry for dynamics (positions and initial velocities):
 Subroutine PRICEL returns:
 Original cell was already a primitive cell.

[...]

The dynamic configuration has the point symmetry C_3v.

Analysis of constrained symmetry for selective dynamics:
 Subroutine PRICEL returns:
 Original cell was already a primitive cell.

[...]
     33      -3.7398      2.00000
     34      -3.7304      2.00000
     35      -3.7113      2.00000
     36      -3.6606      2.00000
     37      -3.6351      2.00000
     38      -3.6283      2.00000
     39      -3.5332      2.00000
     40      -3.5237      2.00000
     41      -3.4370      2.00000
     42      -3.4309      2.00000
     43      -3.3514      2.00000
     44      -3.3485      2.00000
     45      -3.3273      2.00000
     46      -3.3093      2.00000
     47      -3.3012      2.00000
     48      -3.2744      2.00000
     49      -3.2529      2.00000
     50      -3.1033      2.00000
     51      -3.0808      2.00000
     52      -3.0762      2.00000
     53      -3.0750      2.00000
     54      -3.0233      2.00000
     55      -3.0172      2.00000
     56      -3.0065      2.00000
     57      -2.9783      2.00000
     58      -2.9696      2.00000
     59      -2.9521      2.00000
     60      -2.9413      2.00000
[...]
    238       6.3597      0.00000
    239       6.5498      0.00000
    240       6.5995      0.00000
    241       6.6765      0.00000
    242       6.7584      0.00000
    243       6.9752      0.00000
    244       7.0171      0.00000
    245       7.1375      0.00000
    246       7.3510      0.00000
    247       7.4549      0.00000
    248       7.5550      0.00000
    249       7.6535      0.00000
    250       7.6803      0.00000
    251       7.9258      0.00000
    252       8.1679      0.00000

 soft charge-density along one line, spin component           1
         0         1         2         3         4         5         6         7         8         9
 total charge-density along one line

------------------------ aborting loop because EDIFF is reached ----------------------------------------

 total charge

# of ion       s       p       d       tot
    1        0.449   0.284   9.190   9.924
    2        0.449   0.286   9.187   9.922
    3        0.449   0.286   9.187   9.922
    4        0.449   0.286   9.187   9.922
    5        0.450   0.286   9.184   9.919
    6        0.449   0.286   9.187   9.922
    7        0.449   0.286   9.187   9.922
    8        0.449   0.286   9.187   9.922
    9        0.447   0.286   9.187   9.920
   10        0.443   0.371   9.179   9.993
   11        0.442   0.369   9.183   9.994
   12        0.443   0.371   9.179   9.993
   13        0.442   0.369   9.183   9.994
   14        0.442   0.369   9.183   9.994
   15        0.439   0.369   9.182   9.991
   16        0.443   0.371   9.179   9.993
   17        0.439   0.369   9.182   9.991
   18        0.439   0.369   9.182   9.991
   19        0.440   0.367   9.184   9.992
   20        0.461   0.396   9.160  10.018
   21        0.461   0.396   9.160  10.018
   22        0.433   0.373   9.183   9.989
   23        0.461   0.396   9.160  10.018
   24        0.433   0.373   9.183   9.989
   25        0.440   0.367   9.184   9.992
   26        0.440   0.367   9.184   9.992
   27        0.433   0.373   9.183   9.989
   28        0.450   0.286   9.187   9.923
   29        0.449   0.295   9.187   9.931
   30        0.449   0.295   9.187   9.931
   31        0.449   0.295   9.187   9.931
   32        0.449   0.295   9.187   9.931
   33        0.449   0.295   9.187   9.931
   34        0.449   0.295   9.187   9.931
   35        0.443   0.289   9.188   9.920
   36        0.358   0.396   5.048   5.801
   37        1.557   3.512   0.000   5.069
   38        0.606   0.125   0.000   0.731
tot         18.127  15.691 326.439 360.258

  FORCE on cell =-STRESS in cart. coord.  units (eV):
  Direction    XX          YY          ZZ          XY          YZ          ZX
  Alpha Z   888.42590   888.42590   888.42590
  Ewald  172632.49496172632.49454************     0.00040     0.00012     0.00019
  Hartree185877.61989185877.61986************     0.00005     0.00006     0.00008
  E(xc)   -2312.58137 -2312.58093 -2315.84050    -0.00038    -0.00003    -0.00006
  Local  ************************371619.88162     0.01866    -0.00061    -0.00100
  n-local  -812.09807  -798.86062  -815.18118     7.17212    -0.00232     0.16626
  augment  3345.49663  3345.51664  3357.17565    -0.01732     0.00025     0.00037
  Kinetic  3347.63306  3352.56766  3336.11097     3.66879     1.46266    -0.95739
  Fock        0.00000     0.00000     0.00000     0.00000     0.00000     0.00000
  Total      -4.65886    -4.65886     2.76780     0.00000    -0.00000    -0.00000
  in kB      -6.83565    -6.83565     4.06102     0.00000    -0.00000    -0.00000

 VOLUME and BASIS-vectors are now :
  energy-cutoff  :      500.00
  volume of cell :     1091.97
      direct lattice vectors                 reciprocal lattice vectors
     7.696786404  0.000000000  0.000000000     0.129924354 -0.075011849  0.000000000
     3.848392758  6.665612809  0.000000000     0.000000000  0.150023716  0.000000000
     0.000000000  0.000000000 21.284399033     0.000000000  0.000000000  0.046982769

  length of vectors
     7.696786404  7.696786404 21.284399033     0.150023716  0.150023716  0.046982769

 FORCES acting on ions
    electron-ion (+dipol)            ewald-force                    non-local-force                 convergence-correction
   -.417E-04 0.102E-06 0.349E+04   0.579E-04 -.439E-05 -.349E+04   -.234E-17 -.536E-17 -.273E+01   -.251E-03 -.112E-03 -.341E+00
   -.257E+00 -.188E+00 0.349E+04   0.211E-01 -.408E-01 -.349E+04   0.711E-01 0.156E+00 -.183E+01   0.161E+00 0.825E-01 -.311E+00
   0.257E+00 -.187E+00 0.349E+04   -.212E-01 -.408E-01 -.349E+04   -.711E-01 0.156E+00 -.183E+01   -.160E+00 0.849E-01 -.310E+00
   -.291E+00 -.129E+00 0.349E+04   -.249E-01 0.387E-01 -.349E+04   0.171E+00 -.166E-01 -.183E+01   0.152E+00 0.981E-01 -.311E+00
   -.660E-04 -.591E-05 0.349E+04   0.116E-03 -.101E-04 -.349E+04   -.114E-17 -.972E-18 -.170E+01   0.120E-01 0.735E-02 -.226E+00
   0.291E+00 -.129E+00 0.349E+04   0.247E-01 0.386E-01 -.349E+04   -.171E+00 -.166E-01 -.183E+01   -.153E+00 0.993E-01 -.310E+00
   -.338E-01 0.316E+00 0.349E+04   -.460E-01 0.212E-02 -.349E+04   0.998E-01 -.140E+00 -.183E+01   -.656E-02 -.181E+00 -.310E+00
   0.339E-01 0.316E+00 0.349E+04   0.457E-01 0.214E-02 -.349E+04   -.998E-01 -.140E+00 -.183E+01   0.995E-02 -.182E+00 -.310E+00
   -.144E-03 -.329E-04 0.349E+04   0.263E-03 0.206E-04 -.349E+04   0.777E-18 0.108E-17 -.226E+01   -.131E-01 -.677E-02 -.295E+00
   0.853E+00 0.492E+00 0.118E+04   -.452E+00 -.261E+00 -.118E+04   -.537E+00 -.310E+00 -.105E+01   0.147E+00 0.851E-01 0.784E+00
   -.905E-04 0.449E+00 0.118E+04   0.189E-03 -.826E+00 -.118E+04   -.140E-07 0.210E+00 -.422E+00   0.113E-01 0.137E+00 0.891E+00
   -.853E+00 0.492E+00 0.118E+04   0.452E+00 -.261E+00 -.118E+04   0.537E+00 -.310E+00 -.105E+01   -.148E+00 0.856E-01 0.782E+00
   0.389E+00 -.224E+00 0.118E+04   -.715E+00 0.413E+00 -.118E+04   0.182E+00 -.105E+00 -.422E+00   0.124E+00 -.577E-01 0.891E+00
   -.389E+00 -.224E+00 0.118E+04   0.715E+00 0.413E+00 -.118E+04   -.182E+00 -.105E+00 -.422E+00   -.101E+00 -.590E-01 0.888E+00
   -.143E-03 -.182E+00 0.118E+04   0.299E-03 -.100E-01 -.118E+04   -.775E-08 0.116E+00 -.909E+00   -.272E-02 0.556E-01 0.675E+00
   -.917E-04 -.985E+00 0.118E+04   0.186E-03 0.522E+00 -.118E+04   -.413E-07 0.620E+00 -.105E+01   -.104E-02 -.173E+00 0.782E+00
   -.158E+00 0.910E-01 0.118E+04   -.862E-02 0.526E-02 -.118E+04   0.101E+00 -.582E-01 -.909E+00   0.475E-01 -.302E-01 0.675E+00
   0.158E+00 0.911E-01 0.118E+04   0.841E-02 0.520E-02 -.118E+04   -.101E+00 -.582E-01 -.909E+00   -.462E-01 -.284E-01 0.676E+00
   -.602E-04 -.147E+01 -.114E+04   0.686E-04 0.122E+01 0.114E+04   -.825E-08 0.124E+00 0.955E+00   0.129E-01 0.112E+00 0.125E+01
   -.141E+02 -.813E+01 -.115E+04   0.145E+02 0.835E+01 0.115E+04   -.129E+01 -.745E+00 -.112E+01   0.892E+00 0.515E+00 0.225E+01
   0.141E+02 -.813E+01 -.115E+04   -.145E+02 0.835E+01 0.115E+04   0.129E+01 -.745E+00 -.112E+01   -.915E+00 0.513E+00 0.225E+01
   -.813E+01 0.469E+01 -.114E+04   0.733E+01 -.423E+01 0.114E+04   0.471E+00 -.272E+00 0.735E+00   0.401E+00 -.221E+00 0.135E+01
   -.788E-04 0.163E+02 -.115E+04   0.144E-03 -.167E+02 0.115E+04   -.992E-07 0.149E+01 -.112E+01   -.143E-01 -.105E+01 0.225E+01
   0.813E+01 0.469E+01 -.114E+04   -.733E+01 -.423E+01 0.114E+04   -.471E+00 -.272E+00 0.735E+00   -.378E+00 -.219E+00 0.136E+01
   0.127E+01 0.734E+00 -.114E+04   -.106E+01 -.610E+00 0.114E+04   -.107E+00 -.619E-01 0.955E+00   -.824E-01 -.475E-01 0.125E+01
   -.127E+01 0.734E+00 -.114E+04   0.106E+01 -.610E+00 0.114E+04   0.107E+00 -.619E-01 0.955E+00   0.104E+00 -.448E-01 0.125E+01
   -.125E-03 -.938E+01 -.114E+04   0.242E-03 0.846E+01 0.114E+04   -.362E-07 0.544E+00 0.735E+00   0.925E-02 0.458E+00 0.135E+01
   -.340E-04 0.169E-04 -.342E+04   0.345E-04 -.344E-04 0.342E+04   -.122E-17 -.209E-17 0.175E+01   -.128E-02 -.689E-03 0.844E+00
   0.359E+01 0.598E+01 -.341E+04   -.454E+01 -.806E+01 0.340E+04   0.869E-01 0.599E+00 0.277E+01   0.710E+00 0.118E+01 0.877E+00
   -.359E+01 0.598E+01 -.341E+04   0.454E+01 -.806E+01 0.340E+04   -.869E-01 0.599E+00 0.277E+01   -.689E+00 0.118E+01 0.878E+00
   0.697E+01 0.118E+00 -.341E+04   -.925E+01 0.956E-01 0.340E+04   0.563E+00 -.224E+00 0.277E+01   0.138E+01 0.241E-01 0.877E+00
   -.697E+01 0.118E+00 -.341E+04   0.925E+01 0.955E-01 0.340E+04   -.563E+00 -.224E+00 0.277E+01   -.136E+01 0.253E-01 0.879E+00
   0.339E+01 -.610E+01 -.341E+04   -.471E+01 0.796E+01 0.340E+04   0.476E+00 -.375E+00 0.277E+01   0.680E+00 -.119E+01 0.878E+00
   -.339E+01 -.610E+01 -.341E+04   0.471E+01 0.796E+01 0.340E+04   -.476E+00 -.375E+00 0.277E+01   -.656E+00 -.119E+01 0.880E+00
   -.132E-03 -.180E-04 -.343E+04   0.255E-03 0.625E-05 0.343E+04   0.106E-18 -.175E-17 0.208E+01   -.141E-01 -.734E-02 0.927E+00
   -.628E-04 -.256E-04 -.196E+04   0.914E-04 0.167E-04 0.196E+04   -.176E-17 0.341E-18 0.189E+01   0.123E-02 0.789E-03 0.720E+00
   0.188E-03 -.778E-04 -.214E+04   0.189E-04 0.875E-05 0.212E+04   -.413E-17 0.194E-17 0.208E+02   0.284E-02 0.174E-02 -.128E+01
   0.478E-05 -.132E-04 -.396E+03   0.723E-06 0.596E-06 0.405E+03   0.233E-18 0.387E-19 -.845E+01   0.156E-03 0.951E-04 -.191E+00
   -.134E-03 -.135E-03 -.368E+02   0.541E-13 0.505E-13 -.284E-11   -.283E-15 0.167E-15 0.116E+02   0.119E+00 0.659E-01 0.252E+02

 POSITION                                       TOTAL-FORCE (eV/Angst)
      0.00000      0.00000      5.37156        -0.000000     -0.000000     -0.008126
      2.56560      0.00000      5.37156        -0.003668      0.011439      0.066107
      5.13119      0.00000      5.37156         0.003668      0.011439      0.066107
      1.28280      2.22187      5.37156         0.008073     -0.008896      0.066107
      3.84839      2.22187      5.37156        -0.000000     -0.000000      0.045008
      6.41399      2.22187      5.37156        -0.008073     -0.008896      0.066107
      2.56560      4.44374      5.37156         0.011741     -0.002543      0.066107
      5.13119      4.44374      5.37156        -0.011741     -0.002543      0.066107
      7.69679      4.44374      5.37156        -0.000000     -0.000000      0.017869
      1.28280      0.74062      7.46636         0.011619      0.006708     -0.059150
      3.84839      0.74062      7.46636         0.000000     -0.036443     -0.085366
      6.41399      0.74062      7.46636        -0.011619      0.006708     -0.059150
      2.56560      2.96249      7.46636        -0.031561      0.018222     -0.085366
      5.13119      2.96249      7.46636         0.031561      0.018222     -0.085366
      7.69679      2.96249      7.46636         0.000000     -0.020503     -0.022736
      3.84839      5.18437      7.46636         0.000000     -0.013416     -0.059150
      6.41399      5.18437      7.46636        -0.017756      0.010252     -0.022736
      8.97958      5.18437      7.46636         0.017756      0.010252     -0.022736
      7.69679      1.48275      9.55327         0.000000     -0.018396      0.030563
      2.56715      1.48214      9.54261        -0.018303     -0.010567     -0.098655
      5.12964      1.48214      9.54261         0.018303     -0.010567     -0.098655
      8.97640      3.70496      9.55687         0.063892     -0.036888      0.005748
      3.84839      3.70133      9.54261        -0.000000      0.021135     -0.098655
      6.41717      3.70496      9.55687        -0.063892     -0.036888      0.005748
     10.26108      5.92424      9.55327         0.015931      0.009198      0.030563
      5.13249      5.92424      9.55327        -0.015931      0.009198      0.030563
      7.69679      5.92131      9.55687        -0.000000      0.073776      0.005748
      0.00000      0.00000     11.63217        -0.000000     -0.000000     -0.003644
      2.57513      0.01976     11.64308        -0.164779     -0.299618     -0.204368
      5.12165      0.01976     11.64308         0.164779     -0.299618     -0.204368
      1.30468      2.22025     11.64308        -0.341867      0.007106     -0.204368
      6.39211      2.22025     11.64308         0.341867      0.007106     -0.204368
      2.57794      4.42560     11.64308        -0.177087      0.292512     -0.204368
      5.11885      4.42560     11.64308         0.177087      0.292512     -0.204368
      7.69679      4.44374     11.63403        -0.000000     -0.000000      0.043110
      3.84839      2.22187     11.52902        -0.000000     -0.000000      1.556366
      3.84839      2.22187     13.28347        -0.000000     -0.000000     -0.202268
      3.84839      2.22187     14.25043        -0.000000     -0.000000      0.070048
    total drift:                                0.119129      0.065788      0.014814

  FREE ENERGIE OF THE ION-ELECTRON SYSTEM (eV)
  free  energy   TOTEN  =      -140.11883419 eV

  energy  without entropy=     -140.11883419  energy(sigma->0) =     -140.11883419

 stress matrix after NEB project (eV)
     -4.65886      0.00000     -0.00000
      0.00000     -4.65886     -0.00000
      0.00000     -0.00000      2.76780
  FORCES: max atom, RMS     0.202268    0.034724
  FORCE total and by dimension    0.214054    0.202268
  Stress total and by dimension    7.146380    4.658864
|           W    W    AA    RRRRR   N    N  II  N    N   GGGG   !!!           |
|           W    W   A  A   R    R  NN   N  II  NN   N  G    G  !!!           |
|           W    W  A    A  R    R  N N  N  II  N N  N  G       !!!           |
|           W WW W  AAAAAA  RRRRR   N  N N  II  N  N N  G  GGG   !            |
|           WW  WW  A    A  R   R   N   NN  II  N   NN  G    G                |
|           W    W  A    A  R    R  N    N  II  N    N   GGGG   !!!           |
|     Tetrahedron method does not include variations of the Fermi             |
|     occupations, so forces and stress will be inaccurate. We suggest        |
|     using a different smearing scheme ISMEAR = 1 or 2 for metals in         |
|     relaxations.                                                            |

 total charge

# of ion       s       p       d       tot
    1        0.449   0.284   9.190   9.924
    2        0.449   0.286   9.187   9.922
    3        0.449   0.286   9.187   9.922
    4        0.449   0.286   9.187   9.922
    5        0.450   0.286   9.184   9.919
    6        0.449   0.286   9.187   9.922
    7        0.449   0.286   9.187   9.922
    8        0.449   0.286   9.187   9.922
    9        0.447   0.286   9.187   9.920
   10        0.443   0.371   9.179   9.993
   11        0.442   0.369   9.183   9.994
   12        0.443   0.371   9.179   9.993
   13        0.442   0.369   9.183   9.994
   14        0.442   0.369   9.183   9.994
   15        0.439   0.369   9.182   9.991
   16        0.443   0.371   9.179   9.993
   17        0.439   0.369   9.182   9.991
   18        0.439   0.369   9.182   9.991
   19        0.440   0.367   9.184   9.992
   20        0.461   0.396   9.160  10.018
   21        0.461   0.396   9.160  10.018
   22        0.433   0.373   9.183   9.989
   23        0.461   0.396   9.160  10.018
   24        0.433   0.373   9.183   9.989
   25        0.440   0.367   9.184   9.992
   26        0.440   0.367   9.184   9.992
   27        0.433   0.373   9.183   9.989
   28        0.450   0.286   9.187   9.923
   29        0.449   0.295   9.187   9.931
   30        0.449   0.295   9.187   9.931
   31        0.449   0.295   9.187   9.931
   32        0.449   0.295   9.187   9.931
   33        0.449   0.295   9.187   9.931
   34        0.449   0.295   9.187   9.931
   35        0.443   0.289   9.188   9.920
   36        0.358   0.396   5.048   5.801
   37        1.557   3.512   0.000   5.069
   38        0.606   0.125   0.000   0.731
tot         18.127  15.691 326.439 360.258

 BZINTS: Fermi energy:    0.367097;  399.000000 electrons
         Band energy:-0.102650E+04;  BLOECHL correction:   -0.028528