 vasp.6.2.0 18Jan21 (build Jun 12 2021 23:27:24) complex

 executed on             LinuxIFC date 2022.05.27  05:08:33

 INCAR:
   ISMEAR = -5
   SIGMA = 0.1
   ISPIN = 1
   EDIFF = 1.d-5
   EDIFFG = -0.01
   NSW = 0
   NELM = 150
   ENCUT = 500
   ISIF = 2
   IBRION = 2
   LREAL = Auto
   ALGO = Fast
   ICHARG = 11
   LORBIT = 10
   LCHARG = .F.
   LWAVE = .F.

 POTCAR:    PAW_PBE Au 04Oct2007
 POTCAR:    PAW_PBE Zr_sv 04Jan2005
 POTCAR:    PAW_PBE O 08Apr2002
 POTCAR:    PAW_PBE H 15Jun2001
|           W    W    AA    RRRRR   N    N  II  N    N   GGGG   !!!           |
|           W    W   A  A   R    R  NN   N  II  NN   N  G    G  !!!           |
|           W    W  A    A  R    R  N N  N  II  N N  N  G       !!!           |
|           W WW W  AAAAAA  RRRRR   N  N N  II  N  N N  G  GGG   !            |
|           WW  WW  A    A  R   R   N   NN  II  N   NN  G    G                |
|           W    W  A    A  R    R  N    N  II  N    N   GGGG   !!!           |
|     For optimal performance we recommend to set                             |
|       NCORE = 2 up to number-of-cores-per-socket                            |
|     This setting can greatly improve the performance of VASP for DFT.       |
|     The default, NCORE=1 might be grossly inefficient on modern             |
|     multi-core architectures or massively parallel machines. Do your        |
|     Unfortunately you need to use the default for GW and RPA                |
|     calculations (for HF NCORE is supported but not extensively tested      |
|     yet).                                                                   |

 POTCAR:    PAW_PBE Au 04Oct2007
   VRHFIN =Au: s1d10

   TITEL  = PAW_PBE Au 04Oct2007
   POMASS =  196.966; ZVAL   =   11.000    mass and valenz
   ENMAX  =  229.943; ENMIN  =  172.457 eV

 POTCAR:    PAW_PBE Zr_sv 04Jan2005
   VRHFIN =Zr: 4s4p5s4d

   TITEL  = PAW_PBE Zr_sv 04Jan2005
   POMASS =   91.224; ZVAL   =   12.000    mass and valenz
   ENMAX  =  229.898; ENMIN  =  172.424 eV

 POTCAR:    PAW_PBE O 08Apr2002
   VRHFIN =O: s2p4

   TITEL  = PAW_PBE O 08Apr2002
   POMASS =   16.000; ZVAL   =    6.000    mass and valenz
   ENMAX  =  400.000; ENMIN  =  300.000 eV

 POTCAR:    PAW_PBE H 15Jun2001
   VRHFIN =H: ultrasoft test

   TITEL  = PAW_PBE H 15Jun2001
   POMASS =    1.000; ZVAL   =    1.000    mass and valenz
   ENMAX  =  250.000; ENMIN  =  200.000 eV

 Optimization of the real space projectors (new method)

 maximal supplied QI-value         = 15.12
 optimisation between [QCUT,QGAM] = [ 11.34, 22.83] = [ 36.00,145.93] Ry
 Optimized for a Real-space Cutoff    1.39 Angstroem

   l    n(q)    QCUT    max X(q) W(low)/X(q) W(high)/X(q)  e(spline)
   2      9    11.338    60.898    0.39E-03    0.42E-03    0.21E-06
   2      9    11.338    58.894    0.40E-03    0.42E-03    0.22E-06
   0      9    11.338   109.617    0.13E-03    0.20E-04    0.13E-06
   0      9    11.338    75.026    0.13E-03    0.20E-04    0.13E-06
   1      9    11.338    16.344    0.33E-04    0.24E-03    0.18E-06
   1      9    11.338    10.160    0.26E-04    0.19E-03    0.15E-06
 Optimization of the real space projectors (new method)

[...]

   l    n(q)    QCUT    max X(q) W(low)/X(q) W(high)/X(q)  e(spline)
   0      7    11.387    20.381    0.39E-03    0.13E-02    0.15E-06
   0      7    11.387    15.268    0.42E-03    0.14E-02    0.17E-06
   1      6    11.387     5.964    0.41E-03    0.11E-02    0.17E-06
   1      6    11.387     5.382    0.39E-03    0.87E-03    0.15E-06
 Optimization of the real space projectors (new method)

 maximal supplied QI-value         = 34.20
 optimisation between [QCUT,QGAM] = [ 11.29, 22.57] = [ 35.68,142.71] Ry
 Optimized for a Real-space Cutoff    1.16 Angstroem

   l    n(q)    QCUT    max X(q) W(low)/X(q) W(high)/X(q)  e(spline)
   0      8    11.287    19.460    0.40E-03    0.73E-03    0.16E-06
   0      8    11.287    12.209    0.38E-03    0.70E-03    0.15E-06
   1      7    11.287     4.655    0.22E-03    0.25E-04    0.22E-06
  PAW_PBE Au 04Oct2007                  :
  PAW_PBE Zr_sv 04Jan2005               :
  PAW_PBE O 08Apr2002                   :
  PAW_PBE H 15Jun2001                   :

 POSCAR: Au-Zr-OH
  positions in direct lattice
  velocities in cartesian coordinates
 exchange correlation table for  LEXCH =        8
   RHO(1)=    0.500       N(1)  =     2000
   RHO(2)=  100.500       N(2)  =     4000

 VTST: version 3.2, (02/03/18)

 CHAIN: initializing optimizer

 OPT: Using VASP Conjugate-Gradient optimizer
 CHAIN: Read ICHAIN            0

 POSCAR: Au-Zr-OH
  positions in direct lattice
  velocities in cartesian coordinates

 ion  position               nearest neighbor table
   1  0.000  0.000  0.208-  16 2.94  12 2.94   6 2.94   8 2.94   7 2.94   3 2.94  10 2.94   4 2.94
                             2 2.94
   2  0.333  0.000  0.208-   9 2.94  11 2.94  17 2.94  10 2.94   8 2.94   4 2.94   5 2.94   1 2.94
                             3 2.94
   3  0.667  0.000  0.208-   7 2.94  18 2.94  12 2.94   1 2.94  11 2.94   5 2.94   6 2.94   9 2.94
                             2 2.94
   4  0.000  0.333  0.208-  10 2.94   6 2.94   5 2.94  13 2.94   2 2.94  15 2.94   9 2.94   1 2.94
                             7 2.94
   5  0.333  0.333  0.208-  13 2.94   7 2.94  11 2.94   4 2.94   2 2.94  14 2.94   3 2.94   8 2.94
                             6 2.94
   6  0.667  0.333  0.208-  15 2.94  14 2.94   1 2.94  12 2.94   4 2.94   9 2.94   8 2.94   3 2.94
                             5 2.94
   7  0.000  0.667  0.208-  18 2.94   3 2.94  16 2.94   5 2.94   1 2.94  13 2.94   8 2.94   4 2.94
                             9 2.94
   8  0.333  0.667  0.208-   9 2.94  17 2.94   1 2.94   2 2.94  14 2.94  16 2.94   6 2.94   7 2.94
                             5 2.94
   9  0.667  0.667  0.208-   2 2.94   8 2.94  17 2.94   6 2.94  15 2.94   4 2.94   3 2.94  18 2.94
                             7 2.94
  10  0.111  0.111  0.302-  20 2.93  26 2.93  19 2.93  11 2.94  17 2.94   2 2.94   4 2.94   1 2.94
                            12 2.94  16 2.94  13 2.94  15 2.94
  11  0.444  0.111  0.302-  20 2.92  21 2.92  27 2.94  13 2.94   2 2.94  10 2.94  17 2.94   5 2.94
                             3 2.94  18 2.94  14 2.94  12 2.94
  12  0.778  0.111  0.302-  21 2.93  25 2.93  19 2.93  16 2.94  18 2.94   1 2.94  14 2.94  15 2.94
                             3 2.94   6 2.94  10 2.94  11 2.94
  13  0.111  0.444  0.302-  23 2.92  20 2.92  22 2.94   5 2.94  18 2.94  11 2.94   7 2.94   4 2.94
                            16 2.94  10 2.94  14 2.94  15 2.94
  14  0.444  0.444  0.302-  21 2.92  23 2.92  24 2.94  15 2.94   6 2.94  12 2.94   8 2.94  17 2.94
                             5 2.94  16 2.94  13 2.94  11 2.94
  15  0.778  0.444  0.302-  24 2.93  22 2.93  19 2.93  14 2.94   6 2.94  17 2.94  12 2.94   9 2.94
                             4 2.94  10 2.94  13 2.94  18 2.94
  16  0.111  0.778  0.302-  23 2.93  25 2.93  26 2.93  18 2.94  12 2.94   7 2.94   1 2.94   8 2.94
                            13 2.94  10 2.94  14 2.94  17 2.94
  17  0.444  0.778  0.302-  27 2.93  24 2.93  26 2.93   9 2.94  15 2.94   2 2.94  10 2.94  11 2.94
                             8 2.94  14 2.94  16 2.94  18 2.94
  18  0.778  0.778  0.302-  22 2.93  27 2.93  25 2.93  16 2.94   7 2.94  13 2.94  12 2.94   3 2.94
                            11 2.94   9 2.94  15 2.94  17 2.94
  19  0.889  0.222  0.396-  10 2.93  12 2.93  15 2.93  26 2.94  25 2.94  24 2.94  22 2.94  21 2.95
                            20 2.95  28 2.96  32 3.04  31 3.04
  20  0.223  0.223  0.396-  36 2.86  23 2.92  21 2.92  11 2.92  13 2.92  10 2.93  27 2.94  22 2.94
                            26 2.95  19 2.95  29 3.00  31 3.00
  21  0.554  0.223  0.396-  36 2.86  20 2.92  23 2.92  14 2.92  11 2.92  12 2.93  27 2.94  24 2.94
                            25 2.95  19 2.95  30 3.00  32 3.00
  22  0.888  0.556  0.396-  24 2.92  27 2.92  18 2.93  15 2.93  13 2.94  25 2.94  19 2.94  23 2.94
                            20 2.94  35 2.96  33 3.01  31 3.01
  23  0.223  0.554  0.396-  36 2.86  20 2.92  21 2.92  13 2.92  14 2.92  16 2.93  22 2.94  24 2.94
                            25 2.95  26 2.95  33 3.00  34 3.00
  24  0.556  0.556  0.396-  27 2.92  22 2.92  15 2.93  17 2.93  14 2.94  26 2.94  19 2.94  21 2.94
                            23 2.94  35 2.96  32 3.01  34 3.01
  25  0.889  0.889  0.396-  16 2.93  12 2.93  18 2.93  19 2.94  26 2.94  22 2.94  27 2.94  23 2.95
                            21 2.95  28 2.96  33 3.04  30 3.04
  26  0.222  0.889  0.396-  10 2.93  16 2.93  17 2.93  19 2.94  25 2.94  27 2.94  24 2.94  20 2.95
                            23 2.95  28 2.96  29 3.04  34 3.04
  27  0.556  0.888  0.396-  24 2.92  22 2.92  17 2.93  18 2.93  11 2.94  26 2.94  25 2.94  20 2.94
                            21 2.94  35 2.96  29 3.01  30 3.01
  28  0.000  0.000  0.491-  25 2.96  19 2.96  26 2.96  34 2.97  32 2.97  33 2.97  30 2.97  31 2.97
                            29 2.97
  29  0.334  0.006  0.494-  30 2.88  31 2.89  36 2.89  35 2.96  28 2.97  20 3.00  27 3.01  26 3.04
                            34 3.04
  30  0.661  0.006  0.494-  29 2.88  32 2.89  36 2.89  35 2.96  28 2.97  21 3.00  27 3.01  25 3.04
                            33 3.04
  31  0.006  0.334  0.494-  33 2.88  29 2.89  36 2.89  35 2.96  28 2.97  20 3.00  22 3.01  19 3.04
                            32 3.04
  32  0.661  0.334  0.494-  34 2.88  30 2.89  36 2.89  35 2.96  28 2.97  21 3.00  24 3.01  19 3.04
                            31 3.04
  33  0.006  0.661  0.494-  31 2.88  34 2.89  36 2.89  35 2.96  28 2.97  23 3.00  22 3.01  25 3.04
                            30 3.04
  34  0.334  0.661  0.494-  32 2.88  33 2.89  36 2.89  35 2.96  28 2.97  23 3.00  24 3.01  26 3.04
                            29 3.04
  35  0.667  0.667  0.492-  24 2.96  27 2.96  22 2.96  29 2.96  34 2.96  32 2.96  31 2.96  30 2.96
                            33 2.96
  36  0.333  0.333  0.486-  37 1.92  20 2.86  23 2.86  21 2.86  33 2.89  31 2.89  29 2.89  30 2.89
                            34 2.89  32 2.89
  37  0.333  0.333  0.562-  38 0.97  36 1.92
  38  0.333  0.333  0.600-  37 0.97

  LATTYP: Found a hexagonal cell.
 ALAT       =     8.8135128021
 C/A-ratio  =     2.8868945868

  Lattice vectors:

 A1 = (  -4.4067569092,  -7.6327256898,   0.0000000000)
 A2 = (   8.8135128021,   0.0000000000,   0.0000000000)
 A3 = (   0.0000000000,   0.0000000000,  25.4436823995)

Analysis of symmetry for initial positions (statically):
 Subroutine PRICEL returns:
 Original cell was already a primitive cell.

 Routine SETGRP: Setting up the symmetry group for a
 hexagonal supercell.

 Subroutine GETGRP returns: Found  6 space group operations
 (whereof  6 operations were pure point group operations)
 out of a pool of 24 trial point group operations.

The static configuration has the point symmetry C_3v.

Analysis of symmetry for dynamics (positions and initial velocities):
 Subroutine PRICEL returns:
 Original cell was already a primitive cell.

[...]

The dynamic configuration has the point symmetry C_3v.

Analysis of constrained symmetry for selective dynamics:
 Subroutine PRICEL returns:
 Original cell was already a primitive cell.

[...]
     33      -5.3919      2.00000
     34      -5.3589      2.00000
     35      -5.3028      2.00000
     36      -5.2569      2.00000
     37      -5.2308      2.00000
     38      -5.1897      2.00000
     39      -5.1801      2.00000
     40      -5.1603      2.00000
     41      -5.1486      2.00000
     42      -5.1283      2.00000
     43      -4.9699      2.00000
     44      -4.9575      2.00000
     45      -4.8982      2.00000
     46      -4.8700      2.00000
     47      -4.8401      2.00000
     48      -4.8143      2.00000
     49      -4.7979      2.00000
     50      -4.7457      2.00000
     51      -4.7210      2.00000
     52      -4.6355      2.00000
     53      -4.6295      2.00000
     54      -4.5893      2.00000
     55      -4.5680      2.00000
     56      -4.5653      2.00000
     57      -4.5549      2.00000
     58      -4.5338      2.00000
     59      -4.5119      2.00000
     60      -4.4727      2.00000
[...]
    238       5.3115      0.00000
    239       5.5551      0.00000
    240       5.6830      0.00000
    241       5.7150      0.00000
    242       5.9276      0.00000
    243       5.9517      0.00000
    244       5.9870      0.00000
    245       6.0811      0.00000
    246       6.2003      0.00000
    247       6.2886      0.00000
    248       6.3153      0.00000
    249       6.3770      0.00000
    250       6.4641      0.00000
    251       6.5360      0.00000
    252       6.5844      0.00000

 soft charge-density along one line, spin component           1
         0         1         2         3         4         5         6         7         8         9
 total charge-density along one line

------------------------ aborting loop because EDIFF is reached ----------------------------------------

 total charge

# of ion       s       p       d       tot
    1        0.549   0.238   8.765   9.552
    2        0.543   0.241   8.765   9.549
    3        0.543   0.241   8.765   9.549
    4        0.543   0.241   8.765   9.549
    5        0.543   0.242   8.763   9.548
    6        0.543   0.241   8.765   9.549
    7        0.543   0.241   8.765   9.549
    8        0.543   0.241   8.765   9.549
    9        0.541   0.240   8.767   9.548
   10        0.523   0.306   8.773   9.602
   11        0.519   0.307   8.778   9.605
   12        0.523   0.306   8.773   9.602
   13        0.519   0.307   8.778   9.605
   14        0.519   0.307   8.778   9.605
   15        0.515   0.308   8.773   9.596
   16        0.523   0.306   8.773   9.602
   17        0.515   0.308   8.773   9.596
   18        0.515   0.308   8.773   9.596
   19        0.522   0.295   8.772   9.589
   20        0.564   0.329   8.743   9.636
   21        0.564   0.329   8.743   9.636
   22        0.512   0.304   8.772   9.588
   23        0.564   0.329   8.743   9.636
   24        0.512   0.304   8.772   9.588
   25        0.522   0.295   8.772   9.589
   26        0.522   0.295   8.772   9.589
   27        0.512   0.304   8.772   9.588
   28        0.544   0.236   8.753   9.533
   29        0.593   0.241   8.741   9.575
   30        0.593   0.241   8.741   9.575
   31        0.593   0.241   8.741   9.575
   32        0.593   0.241   8.741   9.575
   33        0.593   0.241   8.741   9.575
   34        0.593   0.241   8.741   9.575
   35        0.541   0.238   8.752   9.531
   36        2.202   6.018   1.480   9.699
   37        1.564   3.556   0.000   5.120
   38        0.608   0.124   0.000   0.732
tot         23.368  19.336 308.152 350.856

  FORCE on cell =-STRESS in cart. coord.  units (eV):
  Direction    XX          YY          ZZ          XY          YZ          ZX
  Alpha Z   906.95358   906.95358   906.95358
  Ewald  168697.30066168697.30113************    -0.00032    -0.00008    -0.00011
  Hartree177303.61357177303.61358************     0.00001    -0.00002    -0.00003
  E(xc)   -1812.34504 -1812.34506 -1818.75841     0.00002    -0.00000    -0.00000
  Local  ************************358494.80658     0.00203    -0.00000    -0.00002
  n-local  -105.00895   -59.94212   -56.47546    22.23837    -1.83336     1.40815
  augment  2371.63362  2371.63517  2389.81239    -0.00134    -0.00000     0.00002
  Kinetic  5715.71741  5722.49760  5750.13874     3.82222     0.58388    -0.18554
  Fock        0.00000     0.00000     0.00000     0.00000     0.00000     0.00000
  Total     -18.51105   -18.51105     2.16633    -0.00000     0.00000    -0.00000
  in kB     -17.32738   -17.32738     2.02781    -0.00000     0.00000    -0.00000

 VOLUME and BASIS-vectors are now :
  energy-cutoff  :      500.00
  volume of cell :     1711.63
      direct lattice vectors                 reciprocal lattice vectors
     8.813512802  0.000000000  0.000000000     0.113462137 -0.065507406  0.000000000
     4.406756909  7.632725690  0.000000000     0.000000000  0.131014796  0.000000000
     0.000000000  0.000000000 25.443682399     0.000000000  0.000000000  0.039302487

  length of vectors
     8.813512802  8.813512802 25.443682399     0.131014796  0.131014796  0.039302487

 FORCES acting on ions
    electron-ion (+dipol)            ewald-force                    non-local-force                 convergence-correction
   -.201E-04 -.165E-04 0.276E+04   0.519E-04 0.434E-04 -.276E+04   0.109E-16 0.593E-18 -.544E+00   -.146E-03 -.978E-04 -.369E-03
   0.412E+00 0.590E+00 0.276E+04   -.445E+00 -.607E+00 -.276E+04   -.574E-02 0.586E-01 -.337E+00   0.318E-01 -.376E-01 -.495E-01
   -.412E+00 0.590E+00 0.276E+04   0.445E+00 -.607E+00 -.276E+04   0.574E-02 0.586E-01 -.337E+00   -.316E-01 -.356E-01 -.491E-01
   0.717E+00 0.620E-01 0.276E+04   -.748E+00 -.821E-01 -.276E+04   0.479E-01 -.343E-01 -.337E+00   -.166E-01 0.463E-01 -.496E-01
   0.957E-05 -.228E-04 0.276E+04   0.951E-04 0.171E-05 -.276E+04   0.104E-17 -.829E-18 -.264E+00   0.427E-02 0.260E-02 -.736E-01
   -.717E+00 0.621E-01 0.276E+04   0.748E+00 -.822E-01 -.276E+04   -.479E-01 -.343E-01 -.337E+00   0.151E-01 0.473E-01 -.487E-01
   0.305E+00 -.652E+00 0.276E+04   -.303E+00 0.689E+00 -.276E+04   0.536E-01 -.243E-01 -.337E+00   -.465E-01 -.954E-02 -.490E-01
   -.305E+00 -.652E+00 0.276E+04   0.303E+00 0.689E+00 -.276E+04   -.536E-01 -.243E-01 -.337E+00   0.485E-01 -.106E-01 -.487E-01
   0.197E-04 -.414E-04 0.276E+04   0.166E-03 -.201E-04 -.276E+04   -.162E-17 -.129E-18 -.470E+00   -.466E-02 -.242E-02 -.646E-01
   0.424E+01 0.245E+01 0.963E+03   -.395E+01 -.228E+01 -.962E+03   -.256E+00 -.148E+00 -.523E+00   -.471E-01 -.273E-01 -.441E-01
   0.157E-04 0.686E+01 0.971E+03   0.147E-03 -.684E+01 -.971E+03   0.223E-08 0.335E-01 -.279E+00   0.345E-02 -.116E+00 0.145E-01
   -.424E+01 0.245E+01 0.963E+03   0.395E+01 -.228E+01 -.962E+03   0.256E+00 -.148E+00 -.523E+00   0.461E-01 -.259E-01 -.453E-01
   0.594E+01 -.343E+01 0.971E+03   -.593E+01 0.342E+01 -.971E+03   0.290E-01 -.167E-01 -.279E+00   -.988E-01 0.615E-01 0.145E-01
   -.594E+01 -.343E+01 0.971E+03   0.593E+01 0.342E+01 -.971E+03   -.290E-01 -.167E-01 -.279E+00   0.106E+00 0.613E-01 0.143E-01
   0.299E-04 0.396E+00 0.963E+03   0.236E-03 -.448E+00 -.962E+03   -.142E-09 -.214E-02 -.430E+00   -.221E-02 0.377E-01 0.120E-01
   -.214E-04 -.489E+01 0.963E+03   0.163E-03 0.456E+01 -.962E+03   0.197E-07 0.295E+00 -.523E+00   0.403E-03 0.528E-01 -.453E-01
   0.343E+00 -.198E+00 0.963E+03   -.388E+00 0.224E+00 -.962E+03   -.185E-02 0.107E-02 -.430E+00   0.318E-01 -.203E-01 0.120E-01
   -.343E+00 -.198E+00 0.963E+03   0.388E+00 0.224E+00 -.962E+03   0.185E-02 0.107E-02 -.430E+00   -.321E-01 -.188E-01 0.110E-01
   -.430E-04 -.875E+00 -.863E+03   0.519E-04 0.702E+00 0.862E+03   0.278E-08 0.418E-01 0.681E+00   0.347E-02 0.913E-01 0.206E-01
   0.425E+02 0.245E+02 -.803E+03   -.415E+02 -.239E+02 0.804E+03   -.115E+01 -.666E+00 -.925E+00   -.558E-01 -.324E-01 0.248E-01
   -.425E+02 0.245E+02 -.803E+03   0.415E+02 -.239E+02 0.804E+03   0.115E+01 -.666E+00 -.925E+00   0.554E-01 -.297E-01 0.247E-01
   0.127E+02 -.735E+01 -.852E+03   -.129E+02 0.744E+01 0.852E+03   0.267E+00 -.154E+00 0.666E+00   -.985E-01 0.509E-01 -.136E-01
   -.779E-05 -.491E+02 -.803E+03   0.144E-03 0.479E+02 0.804E+03   0.886E-07 0.133E+01 -.925E+00   0.173E-02 0.628E-01 0.247E-01
   -.127E+02 -.735E+01 -.852E+03   0.129E+02 0.744E+01 0.852E+03   -.267E+00 -.154E+00 0.666E+00   0.914E-01 0.528E-01 -.135E-01
   0.757E+00 0.437E+00 -.863E+03   -.608E+00 -.351E+00 0.862E+03   -.362E-01 -.209E-01 0.681E+00   -.725E-01 -.419E-01 0.203E-01
   -.757E+00 0.437E+00 -.863E+03   0.608E+00 -.351E+00 0.862E+03   0.362E-01 -.209E-01 0.681E+00   0.812E-01 -.426E-01 0.206E-01
   0.119E-04 0.147E+02 -.852E+03   0.194E-03 -.149E+02 0.852E+03   0.205E-07 0.308E+00 0.666E+00   -.577E-02 -.111E+00 -.135E-01
   -.169E-04 -.145E-04 -.264E+04   0.304E-04 0.366E-04 0.264E+04   0.404E-18 0.375E-18 0.162E+00   0.379E-03 0.199E-03 0.630E-01
   0.555E+02 0.925E+02 -.265E+04   -.546E+02 -.912E+02 0.265E+04   -.105E+01 -.163E+01 -.841E-01   0.772E-01 -.131E-01 0.346E-01
   -.555E+02 0.925E+02 -.265E+04   0.546E+02 -.912E+02 0.265E+04   0.105E+01 -.163E+01 -.841E-01   -.775E-01 -.108E-01 0.361E-01
   0.108E+03 0.178E+01 -.265E+04   -.106E+03 -.173E+01 0.265E+04   -.194E+01 -.926E-01 -.841E-01   0.273E-01 0.734E-01 0.347E-01
   -.108E+03 0.178E+01 -.265E+04   0.106E+03 -.173E+01 0.265E+04   0.194E+01 -.926E-01 -.841E-01   -.290E-01 0.749E-01 0.351E-01
   0.524E+02 -.943E+02 -.265E+04   -.516E+02 0.929E+02 0.265E+04   -.889E+00 0.173E+01 -.841E-01   -.481E-01 -.617E-01 0.361E-01
   -.524E+02 -.943E+02 -.265E+04   0.516E+02 0.929E+02 0.265E+04   0.889E+00 0.173E+01 -.841E-01   0.504E-01 -.625E-01 0.351E-01
   0.304E-04 -.250E-04 -.265E+04   0.142E-03 -.519E-04 0.265E+04   -.785E-17 0.314E-17 0.251E+00   -.496E-02 -.257E-02 0.315E-01
   0.248E-03 -.136E-03 -.256E+04   0.120E-03 0.103E-04 0.256E+04   -.267E-18 -.259E-18 -.263E+01   0.579E-02 0.354E-02 0.852E-01
   0.211E-03 -.101E-03 -.182E+04   0.185E-04 0.121E-05 0.180E+04   -.197E-18 0.609E-18 0.209E+02   0.384E-02 0.235E-02 0.270E-02
   0.903E-05 -.133E-04 -.352E+03   0.987E-06 0.904E-07 0.361E+03   0.455E-20 0.199E-20 -.849E+01   0.209E-03 0.127E-03 -.107E-02
   -.262E-03 -.979E-03 -.475E+01   0.137E-12 -.137E-12 -.261E-11   -.831E-17 -.441E-15 0.399E+01   0.141E-01 0.899E-02 -.151E-02

 POSITION                                       TOTAL-FORCE (eV/Angst)
      0.00000      0.00000      5.28038         0.000000     -0.000000     -0.157265
      2.93784      0.00000      5.28038        -0.006455      0.005077     -0.068107
      5.87568      0.00000      5.28038         0.006455      0.005077     -0.068107
      1.46892      2.54424      5.28038         0.001169     -0.008129     -0.068107
      4.40676      2.54424      5.28038         0.000000     -0.000000     -0.065317
      7.34459      2.54424      5.28038        -0.001169     -0.008129     -0.068107
      2.93784      5.08848      5.28038         0.007624      0.003052     -0.068107
      5.87568      5.08848      5.28038        -0.007624      0.003052     -0.068107
      8.81351      5.08848      5.28038         0.000000     -0.000000     -0.073722
      1.46892      0.84808      7.67911        -0.012783     -0.007381      0.021802
      4.40676      0.84808      7.67911        -0.000000     -0.071774     -0.000476
      7.34459      0.84808      7.67911         0.012783     -0.007381      0.021802
      2.93784      3.39232      7.67911        -0.062158      0.035887     -0.000476
      5.87568      3.39232      7.67911         0.062158      0.035887     -0.000476
      8.81351      3.39232      7.67911        -0.000000     -0.016832      0.114724
      4.40676      5.93656      7.67911         0.000000      0.014761      0.021802
      7.34459      5.93656      7.67911        -0.014577      0.008416      0.114724
     10.28243      5.93656      7.67911         0.014577      0.008416      0.114724
      8.81351      1.69571     10.07248        -0.000000     -0.042021     -0.007565
      2.94528      1.70046     10.06340        -0.163725     -0.094526     -0.184426
      5.86824      1.70046     10.06340         0.163725     -0.094526     -0.184426
     10.27570      4.24429     10.07162         0.018194     -0.010505      0.024830
      4.40676      4.23182     10.06340         0.000000      0.189053     -0.184426
      7.35132      4.24429     10.07162        -0.018194     -0.010505      0.024830
     11.75174      6.78487     10.07248         0.036391      0.021011     -0.007565
      5.87529      6.78487     10.07248        -0.036391      0.021011     -0.007565
      8.81351      6.77688     10.07162         0.000000      0.021009      0.024830
      0.00000      0.00000     12.49858         0.000000      0.000000      0.004110
      2.96552      0.04535     12.55994        -0.139523     -0.307170     -0.203077
      5.84799      0.04535     12.55994         0.139523     -0.307170     -0.203077
      1.52204      2.54555     12.55994        -0.335779      0.032754     -0.203077
      7.29148      2.54555     12.55994         0.335779      0.032754     -0.203077
      2.96327      5.04183     12.55994        -0.196256      0.274416     -0.203077
      5.85025      5.04183     12.55994         0.196256      0.274416     -0.203077
      8.81351      5.08848     12.50663         0.000000      0.000000      0.027911
      4.40676      2.54424     12.37417         0.000000     -0.000000      1.964899
      4.40676      2.54424     14.29432         0.000000      0.000000      0.016545
      4.40676      2.54424     15.26115         0.000000      0.000000      0.003270
    total drift:                                0.013852      0.008009     -0.764738

  FREE ENERGIE OF THE ION-ELECTRON SYSTEM (eV)
  free  energy   TOTEN  =      -128.39604897 eV

  energy  without entropy=     -128.39604897  energy(sigma->0) =     -128.39604897

 stress matrix after NEB project (eV)
    -18.51105     -0.00000     -0.00000
     -0.00000    -18.51105      0.00000
     -0.00000      0.00000      2.16633
  FORCES: max atom, RMS     0.016545    0.002736
  FORCE total and by dimension    0.016865    0.016545
  Stress total and by dimension   26.268056   18.511049
|           W    W    AA    RRRRR   N    N  II  N    N   GGGG   !!!           |
|           W    W   A  A   R    R  NN   N  II  NN   N  G    G  !!!           |
|           W    W  A    A  R    R  N N  N  II  N N  N  G       !!!           |
|           W WW W  AAAAAA  RRRRR   N  N N  II  N  N N  G  GGG   !            |
|           WW  WW  A    A  R   R   N   NN  II  N   NN  G    G                |
|           W    W  A    A  R    R  N    N  II  N    N   GGGG   !!!           |
|     Tetrahedron method does not include variations of the Fermi             |
|     occupations, so forces and stress will be inaccurate. We suggest        |
|     using a different smearing scheme ISMEAR = 1 or 2 for metals in         |
|     relaxations.                                                            |

 total charge

# of ion       s       p       d       tot
    1        0.549   0.238   8.765   9.552
    2        0.543   0.241   8.765   9.549
    3        0.543   0.241   8.765   9.549
    4        0.543   0.241   8.765   9.549
    5        0.543   0.242   8.763   9.548
    6        0.543   0.241   8.765   9.549
    7        0.543   0.241   8.765   9.549
    8        0.543   0.241   8.765   9.549
    9        0.541   0.240   8.767   9.548
   10        0.523   0.306   8.773   9.602
   11        0.519   0.307   8.778   9.605
   12        0.523   0.306   8.773   9.602
   13        0.519   0.307   8.778   9.605
   14        0.519   0.307   8.778   9.605
   15        0.515   0.308   8.773   9.596
   16        0.523   0.306   8.773   9.602
   17        0.515   0.308   8.773   9.596
   18        0.515   0.308   8.773   9.596
   19        0.522   0.295   8.772   9.589
   20        0.564   0.329   8.743   9.636
   21        0.564   0.329   8.743   9.636
   22        0.512   0.304   8.772   9.588
   23        0.564   0.329   8.743   9.636
   24        0.512   0.304   8.772   9.588
   25        0.522   0.295   8.772   9.589
   26        0.522   0.295   8.772   9.589
   27        0.512   0.304   8.772   9.588
   28        0.544   0.236   8.753   9.533
   29        0.593   0.241   8.741   9.575
   30        0.593   0.241   8.741   9.575
   31        0.593   0.241   8.741   9.575
   32        0.593   0.241   8.741   9.575
   33        0.593   0.241   8.741   9.575
   34        0.593   0.241   8.741   9.575
   35        0.541   0.238   8.752   9.531
   36        2.202   6.018   1.480   9.699
   37        1.564   3.556   0.000   5.120
   38        0.608   0.124   0.000   0.732
tot         23.368  19.336 308.152 350.856

 BZINTS: Fermi energy:    0.259647;  404.000000 electrons
         Band energy:-0.169557E+04;  BLOECHL correction:   -0.061860