 vasp.6.2.0 18Jan21 (build Jun 12 2021 23:27:24) complex

 executed on             LinuxIFC date 2022.05.26  19:42:00

 INCAR:
   ISMEAR = -5
   SIGMA = 0.1
   ISPIN = 1
   EDIFF = 1.d-5
   EDIFFG = -0.01
   NSW = 0
   NELM = 150
   ENCUT = 500
   ISIF = 2
   IBRION = 2
   LREAL = Auto
   ALGO = Fast
   ICHARG = 11
   LORBIT = 10
   LCHARG = .F.
   LWAVE = .F.

 POTCAR:    PAW_PBE Ag 02Apr2005
 POTCAR:    PAW_PBE Co 02Aug2007
 POTCAR:    PAW_PBE H 15Jun2001
|           W    W    AA    RRRRR   N    N  II  N    N   GGGG   !!!           |
|           W    W   A  A   R    R  NN   N  II  NN   N  G    G  !!!           |
|           W    W  A    A  R    R  N N  N  II  N N  N  G       !!!           |
|           W WW W  AAAAAA  RRRRR   N  N N  II  N  N N  G  GGG   !            |
|           WW  WW  A    A  R   R   N   NN  II  N   NN  G    G                |
|           W    W  A    A  R    R  N    N  II  N    N   GGGG   !!!           |
|     For optimal performance we recommend to set                             |
|       NCORE = 2 up to number-of-cores-per-socket                            |
|     This setting can greatly improve the performance of VASP for DFT.       |
|     The default, NCORE=1 might be grossly inefficient on modern             |
|     multi-core architectures or massively parallel machines. Do your        |
|     Unfortunately you need to use the default for GW and RPA                |
|     calculations (for HF NCORE is supported but not extensively tested      |
|     yet).                                                                   |

 POTCAR:    PAW_PBE Ag 02Apr2005
   VRHFIN =Ag : s1 d10

   TITEL  = PAW_PBE Ag 02Apr2005
   POMASS =  107.868; ZVAL   =   11.000    mass and valenz
   ENMAX  =  249.844; ENMIN  =  187.383 eV

 POTCAR:    PAW_PBE Co 02Aug2007
   VRHFIN =Co: d8 s1

   TITEL  = PAW_PBE Co 02Aug2007
   POMASS =   58.933; ZVAL   =    9.000    mass and valenz
   ENMAX  =  267.968; ENMIN  =  200.976 eV

 POTCAR:    PAW_PBE H 15Jun2001
   VRHFIN =H: ultrasoft test

   TITEL  = PAW_PBE H 15Jun2001
   POMASS =    1.000; ZVAL   =    1.000    mass and valenz
   ENMAX  =  250.000; ENMIN  =  200.000 eV

 Optimization of the real space projectors (new method)

 maximal supplied QI-value         = 15.12
 optimisation between [QCUT,QGAM] = [ 11.34, 22.83] = [ 36.00,145.93] Ry
 Optimized for a Real-space Cutoff    1.43 Angstroem

   l    n(q)    QCUT    max X(q) W(low)/X(q) W(high)/X(q)  e(spline)
   2      9    11.338    53.897    0.16E-03    0.20E-03    0.28E-06
   2      9    11.338    52.416    0.16E-03    0.20E-03    0.29E-06
   0     10    11.338   122.045    0.31E-04    0.76E-04    0.15E-06
   0     10    11.338    73.629    0.30E-04    0.72E-04    0.15E-06
   1      9    11.338    15.255    0.20E-03    0.19E-04    0.17E-06
   1      9    11.338     9.562    0.16E-03    0.15E-04    0.14E-06
 Optimization of the real space projectors (new method)

[...]

   l    n(q)    QCUT    max X(q) W(low)/X(q) W(high)/X(q)  e(spline)
   2      8    11.376    65.824    0.20E-03    0.32E-04    0.13E-06
   2      8    11.376    61.429    0.20E-03    0.33E-04    0.14E-06
   0      9    11.376    56.174    0.76E-04    0.11E-03    0.19E-06
   0      9    11.376    31.263    0.69E-04    0.99E-04    0.17E-06
   1      9    11.376    19.828    0.35E-03    0.11E-03    0.12E-06
   1      9    11.376    15.139    0.29E-03    0.94E-04    0.10E-06
 Optimization of the real space projectors (new method)

 maximal supplied QI-value         = 34.20
 optimisation between [QCUT,QGAM] = [ 11.29, 22.57] = [ 35.68,142.71] Ry
 Optimized for a Real-space Cutoff    1.16 Angstroem

   l    n(q)    QCUT    max X(q) W(low)/X(q) W(high)/X(q)  e(spline)
   0      8    11.287    19.460    0.40E-03    0.73E-03    0.16E-06
   0      8    11.287    12.209    0.38E-03    0.70E-03    0.15E-06
   1      7    11.287     4.655    0.22E-03    0.25E-04    0.22E-06
  PAW_PBE Ag 02Apr2005                  :
  PAW_PBE Co 02Aug2007                  :
  PAW_PBE H 15Jun2001                   :

 POSCAR: Ag-Co-H
  positions in direct lattice
  velocities in cartesian coordinates
 exchange correlation table for  LEXCH =        8
   RHO(1)=    0.500       N(1)  =     2000
   RHO(2)=  100.500       N(2)  =     4000

 VTST: version 3.2, (02/03/18)

 CHAIN: initializing optimizer

 OPT: Using VASP Conjugate-Gradient optimizer
 CHAIN: Read ICHAIN            0

 POSCAR: Ag-Co-H
  positions in direct lattice
  velocities in cartesian coordinates

 ion  position               nearest neighbor table
   1  0.000  0.000  0.238-   2 2.93   8 2.93   7 2.93   6 2.93   4 2.93  12 2.93  16 2.93  10 2.93
                             3 2.93
   2  0.333  0.000  0.238-   1 2.93   8 2.93   9 2.93   3 2.93   4 2.93   5 2.93  10 2.93  17 2.93
                            11 2.93
   3  0.667  0.000  0.238-   9 2.93   2 2.93   5 2.93  11 2.93   7 2.93  18 2.93   1 2.93   6 2.93
                            12 2.93
   4  0.000  0.333  0.238-   5 2.93   6 2.93   2 2.93   1 2.93   7 2.93  13 2.93  15 2.93   9 2.93
                            10 2.93
   5  0.333  0.333  0.238-   4 2.93   3 2.93   7 2.93   2 2.93   8 2.93  14 2.93  13 2.93  11 2.93
                             6 2.93
   6  0.667  0.333  0.238-   4 2.93   9 2.93   1 2.93  15 2.93   8 2.93  12 2.93   3 2.93   5 2.93
                            14 2.93
   7  0.000  0.667  0.238-   8 2.93   1 2.93   5 2.93   3 2.93   4 2.93  16 2.93  18 2.93  13 2.93
                             9 2.93
   8  0.333  0.667  0.238-   7 2.93   1 2.93   2 2.93   9 2.93   5 2.93  16 2.93   6 2.93  17 2.93
                            14 2.93
   9  0.667  0.667  0.238-   3 2.93   2 2.93   8 2.93   6 2.93  17 2.93   4 2.93  15 2.93   7 2.93
                            18 2.93
  10  0.111  0.111  0.346-  20 2.92  19 2.93  26 2.93  12 2.93  16 2.93  15 2.93  17 2.93  13 2.93
                            11 2.93   2 2.93   1 2.93   4 2.93
  11  0.444  0.111  0.346-  21 2.90  20 2.90  27 2.92  14 2.93  17 2.93  18 2.93   3 2.93  12 2.93
                            13 2.93  10 2.93   5 2.93   2 2.93
  12  0.778  0.111  0.346-  21 2.92  25 2.93  19 2.93  10 2.93  16 2.93  18 2.93  15 2.93  11 2.93
                             1 2.93  14 2.93   6 2.93   3 2.93
  13  0.111  0.444  0.346-  20 2.90  23 2.90  22 2.92  15 2.93  14 2.93  18 2.93  10 2.93  11 2.93
                            16 2.93   4 2.93   5 2.93   7 2.93
  14  0.444  0.444  0.346-  23 2.90  21 2.90  24 2.92  13 2.93  11 2.93  16 2.93   5 2.93  12 2.93
                            17 2.93   8 2.93  15 2.93   6 2.93
  15  0.778  0.444  0.346-  24 2.91  22 2.91  19 2.92  13 2.93  10 2.93  12 2.93  17 2.93  18 2.93
                             4 2.93   6 2.93   9 2.93  14 2.93
  16  0.111  0.778  0.346-  23 2.92  26 2.93  25 2.93  18 2.93  12 2.93  10 2.93  14 2.93  17 2.93
                            13 2.93   7 2.93   8 2.93   1 2.93
  17  0.444  0.778  0.346-  27 2.91  24 2.91  26 2.92  11 2.93  10 2.93   9 2.93  18 2.93  15 2.93
                            16 2.93   2 2.93  14 2.93   8 2.93
  18  0.778  0.778  0.346-  22 2.91  27 2.91  25 2.92  16 2.93  12 2.93  13 2.93  11 2.93  17 2.93
                            15 2.93   7 2.93   3 2.93   9 2.93
  19  0.889  0.222  0.454-  28 2.91  15 2.92  10 2.93  12 2.93  24 2.93  22 2.93  26 2.93  25 2.93
                            32 2.94  31 2.94  20 2.94  21 2.94
  20  0.223  0.223  0.453-  36 2.69  31 2.89  29 2.89  13 2.90  11 2.90  21 2.91  23 2.91  10 2.92
                            27 2.93  22 2.93  19 2.94  26 2.94
  21  0.554  0.223  0.453-  36 2.69  30 2.89  32 2.89  11 2.90  14 2.90  20 2.91  23 2.91  12 2.92
                            27 2.93  24 2.93  25 2.94  19 2.94
  22  0.888  0.556  0.453-  35 2.91  33 2.91  31 2.91  18 2.91  15 2.91  13 2.92  24 2.92  27 2.92
                            25 2.93  19 2.93  23 2.93  20 2.93
  23  0.223  0.554  0.453-  36 2.69  34 2.89  33 2.89  14 2.90  13 2.90  21 2.91  20 2.91  16 2.92
                            22 2.93  24 2.93  26 2.94  25 2.94
  24  0.556  0.556  0.453-  35 2.91  32 2.91  34 2.91  15 2.91  17 2.91  14 2.92  27 2.92  22 2.92
                            19 2.93  26 2.93  23 2.93  21 2.93
  25  0.889  0.889  0.454-  28 2.91  18 2.92  16 2.93  12 2.93  22 2.93  27 2.93  26 2.93  19 2.93
                            33 2.94  30 2.94  23 2.94  21 2.94
  26  0.222  0.889  0.454-  28 2.91  17 2.92  16 2.93  10 2.93  27 2.93  24 2.93  25 2.93  19 2.93
                            34 2.94  29 2.94  23 2.94  20 2.94
  27  0.556  0.888  0.453-  35 2.91  29 2.91  30 2.91  17 2.91  18 2.91  11 2.92  24 2.92  22 2.92
                            26 2.93  25 2.93  20 2.93  21 2.93
  28  0.000  0.000  0.560-  26 2.91  25 2.91  19 2.91  29 2.97  34 2.97  33 2.97  32 2.97  31 2.97
                            30 2.97
  29  0.333  0.008  0.560-  31 2.86  30 2.86  36 2.87  20 2.89  27 2.91  26 2.94  28 2.97  35 2.97
                            34 3.07
  30  0.659  0.008  0.560-  32 2.86  29 2.86  36 2.87  21 2.89  27 2.91  25 2.94  28 2.97  35 2.97
                            33 3.07
  31  0.008  0.333  0.560-  29 2.86  33 2.86  36 2.87  20 2.89  22 2.91  19 2.94  28 2.97  35 2.97
                            32 3.07
  32  0.659  0.333  0.560-  30 2.86  34 2.86  36 2.87  21 2.89  24 2.91  19 2.94  28 2.97  35 2.97
                            31 3.07
  33  0.008  0.659  0.560-  34 2.86  31 2.86  36 2.87  23 2.89  22 2.91  25 2.94  28 2.97  35 2.97
                            30 3.07
  34  0.333  0.659  0.560-  33 2.86  32 2.86  36 2.87  23 2.89  24 2.91  26 2.94  28 2.97  35 2.97
                            29 3.07
  35  0.667  0.667  0.560-  24 2.91  27 2.91  22 2.91  32 2.97  30 2.97  29 2.97  34 2.97  31 2.97
                            33 2.97
  36  0.333  0.333  0.547-  37 1.49  21 2.69  20 2.69  23 2.69  31 2.87  30 2.87  33 2.87  29 2.87
                            34 2.87  32 2.87
  37  0.333  0.333  0.614-  36 1.49

  LATTYP: Found a hexagonal cell.
 ALAT       =     8.7913665772
 C/A-ratio  =     2.5227160501

  Lattice vectors:

 A1 = (  -4.3956832886,  -7.6135467898,   0.0000000000)
 A2 = (   8.7913665771,   0.0000000000,   0.0000000000)
 A3 = (   0.0000000000,   0.0000000000,  22.1781215668)

Analysis of symmetry for initial positions (statically):
 Subroutine PRICEL returns:
 Original cell was already a primitive cell.

 Routine SETGRP: Setting up the symmetry group for a
 hexagonal supercell.

 Subroutine GETGRP returns: Found  6 space group operations
 (whereof  6 operations were pure point group operations)
 out of a pool of 24 trial point group operations.

The static configuration has the point symmetry C_3v.

Analysis of symmetry for dynamics (positions and initial velocities):
 Subroutine PRICEL returns:
 Original cell was already a primitive cell.

[...]

The dynamic configuration has the point symmetry C_3v.

Analysis of constrained symmetry for selective dynamics:
 Subroutine PRICEL returns:
 Original cell was already a primitive cell.

 Routine SETGRP: Setting up the symmetry group for a
 hexagonal supercell.

 Subroutine GETGRP returns: Found  6 space group operations
 (whereof  6 operations were pure point group operations)
[...]
     24      -4.6698      2.00000
     25      -4.6379      2.00000
     26      -4.6120      2.00000
     27      -4.6027      2.00000
     28      -4.5937      2.00000
     29      -4.5860      2.00000
     30      -4.5657      2.00000
     31      -4.5549      2.00000
     32      -4.5202      2.00000
     33      -4.4961      2.00000
     34      -4.4541      2.00000
     35      -4.4289      2.00000
     36      -4.4092      2.00000
     37      -4.3918      2.00000
     38      -4.3653      2.00000
     39      -4.3556      2.00000
     40      -4.3345      2.00000
     41      -4.3265      2.00000
     42      -4.2985      2.00000
     43      -4.2534      2.00000
     44      -4.2279      2.00000
     45      -4.2164      2.00000
     46      -4.2073      2.00000
     47      -4.1967      2.00000
     48      -4.1910      2.00000
     49      -4.1759      2.00000
     50      -4.1654      2.00000
     51      -4.1497      2.00000
     52      -4.1446      2.00000
     53      -4.0852      2.00000
     54      -4.0772      2.00000
     55      -4.0645      2.00000
     56      -4.0588      2.00000
     57      -4.0418      2.00000
     58      -4.0268      2.00000
     59      -3.9872      2.00000
     60      -3.9817      2.00000
[...]
    238       7.0925      0.00000
    239       7.1746      0.00000
    240       7.1850      0.00000
    241       7.2259      0.00000
    242       7.2572      0.00000
    243       7.3096      0.00000
    244       7.3225      0.00000
    245       7.4819      0.00000
    246       7.5200      0.00000
    247       7.5469      0.00000
    248       7.5888      0.00000
    249       7.6245      0.00000
    250       7.8299      0.00000
    251       7.9037      0.00000
    252       8.1036      0.00000

 soft charge-density along one line, spin component           1
         0         1         2         3         4         5         6         7         8         9
 total charge-density along one line

------------------------ aborting loop because EDIFF is reached ----------------------------------------

 total charge

# of ion       s       p       d       tot
    1        0.417   0.201   9.179   9.797
    2        0.417   0.203   9.178   9.798
    3        0.417   0.203   9.178   9.798
    4        0.417   0.203   9.178   9.798
    5        0.420   0.203   9.176   9.798
    6        0.417   0.203   9.178   9.798
    7        0.417   0.203   9.178   9.798
    8        0.417   0.203   9.178   9.798
    9        0.414   0.202   9.179   9.795
   10        0.407   0.268   9.165   9.839
   11        0.410   0.267   9.168   9.845
   12        0.407   0.268   9.165   9.839
   13        0.410   0.267   9.168   9.845
   14        0.410   0.267   9.168   9.845
   15        0.403   0.270   9.165   9.838
   16        0.407   0.268   9.165   9.839
   17        0.403   0.270   9.165   9.838
   18        0.403   0.270   9.165   9.838
   19        0.401   0.266   9.166   9.834
   20        0.428   0.288   9.152   9.867
   21        0.428   0.288   9.152   9.867
   22        0.399   0.275   9.166   9.840
   23        0.428   0.288   9.152   9.867
   24        0.399   0.275   9.166   9.840
   25        0.401   0.266   9.166   9.834
   26        0.401   0.266   9.166   9.834
   27        0.399   0.275   9.166   9.840
   28        0.411   0.192   9.182   9.785
   29        0.413   0.202   9.177   9.791
   30        0.413   0.202   9.177   9.791
   31        0.413   0.202   9.177   9.791
   32        0.413   0.202   9.177   9.791
   33        0.413   0.202   9.177   9.791
   34        0.413   0.202   9.177   9.791
   35        0.406   0.195   9.182   9.783
   36        0.403   0.316   7.366   8.086
   37        0.512   0.016   0.000   0.529
tot         15.305   8.656 328.337 352.298

  FORCE on cell =-STRESS in cart. coord.  units (eV):
  Direction    XX          YY          ZZ          XY          YZ          ZX
  Alpha Z   733.31408   733.31408   733.31408
  Ewald  121802.48485121802.48487************     0.00002     0.00000    -0.00001
  Hartree132016.59727132016.59728************     0.00001    -0.00000    -0.00000
  E(xc)   -2077.75903 -2077.75900 -2083.23526    -0.00003     0.00000     0.00000
  Local  ************************265191.90738     0.00026    -0.00004    -0.00006
  n-local  -344.06619  -323.70076  -334.40323    11.44250    -0.52761     0.68568
  augment  3377.11627  3377.11647  3384.08892    -0.00017     0.00000     0.00003
  Kinetic  4848.49781  4854.49075  4876.00577     5.29288     0.76832    -0.20094
  Fock        0.00000     0.00000     0.00000     0.00000     0.00000     0.00000
  Total      -9.63390    -9.63390     0.24826    -0.00000     0.00000     0.00000
  in kB     -10.39787   -10.39787     0.26795    -0.00000     0.00000     0.00000

 VOLUME and BASIS-vectors are now :
  energy-cutoff  :      500.00
  volume of cell :     1484.46
      direct lattice vectors                 reciprocal lattice vectors
     8.791366577  0.000000000  0.000000000     0.113747958 -0.065672414  0.000000000
     4.395683289  7.613546790  0.000000000     0.000000000  0.131344829  0.000000000
     0.000000000  0.000000000 22.178121567     0.000000000  0.000000000  0.045089481

  length of vectors
     8.791366577  8.791366577 22.178121567     0.131344829  0.131344829  0.045089481

 FORCES acting on ions
    electron-ion (+dipol)            ewald-force                    non-local-force                 convergence-correction
   0.459E-04 -.283E-04 0.250E+04   -.954E-04 0.593E-04 -.250E+04   0.995E-18 0.577E-18 -.210E+01   -.200E-03 -.223E-03 -.772E-01
   0.489E+00 0.516E+00 0.250E+04   -.561E+00 -.514E+00 -.250E+04   0.662E-01 0.982E-01 -.158E+01   0.127E-01 -.827E-01 -.443E-01
   -.488E+00 0.516E+00 0.250E+04   0.561E+00 -.514E+00 -.250E+04   -.662E-01 0.982E-01 -.158E+01   -.131E-01 -.808E-01 -.434E-01
   0.691E+00 0.165E+00 0.250E+04   -.726E+00 -.229E+00 -.250E+04   0.118E+00 0.827E-02 -.158E+01   -.651E-01 0.525E-01 -.443E-01
   -.787E-05 -.200E-04 0.251E+04   0.981E-04 -.199E-05 -.250E+04   0.195E-17 0.180E-18 -.127E+01   0.626E-02 0.382E-02 0.115E-01
   -.691E+00 0.165E+00 0.250E+04   0.726E+00 -.229E+00 -.250E+04   -.118E+00 0.827E-02 -.158E+01   0.637E-01 0.533E-01 -.434E-01
   0.202E+00 -.681E+00 0.250E+04   -.165E+00 0.743E+00 -.250E+04   0.519E-01 -.106E+00 -.158E+01   -.761E-01 0.296E-01 -.434E-01
   -.202E+00 -.681E+00 0.250E+04   0.165E+00 0.743E+00 -.250E+04   -.519E-01 -.106E+00 -.158E+01   0.777E-01 0.285E-01 -.434E-01
   0.363E-04 -.130E-04 0.250E+04   0.792E-04 -.643E-04 -.250E+04   0.144E-17 0.110E-17 -.197E+01   -.659E-02 -.339E-02 -.157E+00
   0.491E+01 0.283E+01 0.834E+03   -.462E+01 -.267E+01 -.834E+03   -.299E+00 -.172E+00 -.696E+00   0.534E-03 0.334E-03 0.288E+00
   -.293E-04 0.584E+01 0.843E+03   0.417E-04 -.593E+01 -.843E+03   0.937E-12 0.143E+00 -.332E+00   0.686E-02 -.719E-01 0.265E+00
   -.491E+01 0.283E+01 0.834E+03   0.462E+01 -.266E+01 -.834E+03   0.299E+00 -.172E+00 -.696E+00   -.262E-02 0.116E-02 0.289E+00
   0.506E+01 -.292E+01 0.843E+03   -.514E+01 0.297E+01 -.843E+03   0.124E+00 -.714E-01 -.332E+00   -.589E-01 0.419E-01 0.265E+00
   -.506E+01 -.292E+01 0.843E+03   0.514E+01 0.297E+01 -.843E+03   -.124E+00 -.714E-01 -.332E+00   0.695E-01 0.404E-01 0.263E+00
   0.165E-04 0.151E+01 0.836E+03   -.109E-03 -.164E+01 -.835E+03   0.424E-12 0.646E-01 -.776E+00   -.175E-02 0.406E-01 0.224E+00
   -.807E-05 -.567E+01 0.834E+03   0.208E-04 0.533E+01 -.834E+03   0.226E-11 0.345E+00 -.696E+00   -.349E-03 -.293E-02 0.289E+00
   0.131E+01 -.754E+00 0.836E+03   -.142E+01 0.820E+00 -.835E+03   0.559E-01 -.323E-01 -.776E+00   0.343E-01 -.218E-01 0.224E+00
   -.131E+01 -.754E+00 0.836E+03   0.142E+01 0.820E+00 -.835E+03   -.559E-01 -.323E-01 -.776E+00   -.337E-01 -.195E-01 0.227E+00
   0.423E-04 0.178E+01 -.867E+03   -.128E-03 -.187E+01 0.866E+03   0.553E-12 0.842E-01 0.711E+00   -.657E-02 0.420E-02 0.418E+00
   0.274E+02 0.158E+02 -.827E+03   -.262E+02 -.152E+02 0.828E+03   -.116E+01 -.671E+00 -.101E+01   -.120E-01 -.688E-02 0.416E+00
   -.274E+02 0.158E+02 -.827E+03   0.262E+02 -.152E+02 0.828E+03   0.116E+01 -.671E+00 -.101E+01   0.132E-01 -.875E-02 0.415E+00
   0.834E+01 -.482E+01 -.854E+03   -.853E+01 0.492E+01 0.854E+03   0.193E+00 -.111E+00 0.388E+00   0.230E-01 -.431E-02 0.310E+00
   -.602E-04 -.316E+02 -.827E+03   0.454E-04 0.303E+02 0.828E+03   0.882E-11 0.134E+01 -.101E+01   -.640E-03 0.165E-01 0.415E+00
   -.834E+01 -.482E+01 -.854E+03   0.853E+01 0.492E+01 0.854E+03   -.193E+00 -.111E+00 0.388E+00   -.120E-01 -.683E-02 0.310E+00
   -.154E+01 -.889E+00 -.867E+03   0.162E+01 0.933E+00 0.866E+03   -.729E-01 -.421E-01 0.711E+00   -.124E-01 -.731E-02 0.418E+00
   0.154E+01 -.889E+00 -.867E+03   -.162E+01 0.933E+00 0.866E+03   0.729E-01 -.421E-01 0.711E+00   0.470E-04 -.791E-02 0.418E+00
   0.209E-04 0.964E+01 -.854E+03   0.110E-03 -.984E+01 0.854E+03   0.146E-11 0.223E+00 0.388E+00   0.710E-02 0.220E-01 0.310E+00
   0.544E-04 -.373E-04 -.252E+04   -.114E-03 0.773E-04 0.252E+04   0.212E-16 0.317E-17 0.213E+01   -.423E-03 -.379E-03 0.226E+00
   0.154E+02 0.265E+02 -.253E+04   -.148E+02 -.258E+02 0.252E+04   -.472E+00 -.647E+00 0.205E+01   -.990E-01 -.132E-01 0.110E+00
   -.154E+02 0.265E+02 -.253E+04   0.148E+02 -.258E+02 0.252E+04   0.472E+00 -.647E+00 0.205E+01   0.989E-01 -.123E-01 0.108E+00
   0.306E+02 0.816E-01 -.253E+04   -.297E+02 0.910E-01 0.252E+04   -.796E+00 -.853E-01 0.205E+01   -.607E-01 -.789E-01 0.110E+00
   -.306E+02 0.816E-01 -.253E+04   0.297E+02 0.909E-01 0.252E+04   0.796E+00 -.853E-01 0.205E+01   0.601E-01 -.788E-01 0.109E+00
   0.152E+02 -.266E+02 -.253E+04   -.150E+02 0.257E+02 0.252E+04   -.324E+00 0.732E+00 0.205E+01   0.393E-01 0.924E-01 0.108E+00
   -.152E+02 -.266E+02 -.253E+04   0.150E+02 0.257E+02 0.252E+04   0.324E+00 0.732E+00 0.205E+01   -.386E-01 0.915E-01 0.109E+00
   0.240E-04 -.141E-04 -.252E+04   0.105E-03 -.654E-04 0.252E+04   -.216E-17 -.372E-18 0.217E+01   -.605E-02 -.306E-02 0.264E+00
   -.411E-04 -.100E-04 -.193E+04   0.866E-04 0.126E-04 0.193E+04   -.618E-17 -.174E-17 -.397E+01   0.597E-02 0.365E-02 -.113E+00
   0.412E-05 -.421E-05 -.302E+03   0.607E-05 0.124E-06 0.305E+03   0.163E-19 -.104E-18 -.225E+01   0.145E-03 0.887E-04 -.836E-02
   0.316E-03 -.715E-03 0.337E+01   0.100E-12 0.187E-12 -.779E-11   -.119E-15 -.222E-17 -.963E+01   0.124E-01 0.105E-01 0.630E+01

 POSITION                                       TOTAL-FORCE (eV/Angst)
      0.00000      0.00000      5.28219         0.000000      0.000000     -0.011929
      2.93046      0.00000      5.28219         0.006853      0.018091      0.034658
      5.86091      0.00000      5.28219        -0.006853      0.018091      0.034658
      1.46523      2.53785      5.28219         0.019094     -0.003111      0.034658
      4.39568      2.53785      5.28219        -0.000000      0.000000      0.003060
      7.32614      2.53785      5.28219        -0.019094     -0.003111      0.034658
      2.93046      5.07570      5.28219         0.012241     -0.014980      0.034658
      5.86091      5.07570      5.28219        -0.012241     -0.014980      0.034658
      8.79137      5.07570      5.28219         0.000000      0.000000      0.018706
      1.46523      0.84595      7.67490        -0.002868     -0.001656     -0.004078
      4.39568      0.84595      7.67490        -0.000000     -0.025273     -0.052532
      7.32614      0.84595      7.67490         0.002868     -0.001656     -0.004078
      2.93046      3.38380      7.67490        -0.021887      0.012636     -0.052532
      5.86091      3.38380      7.67490         0.021887      0.012636     -0.052532
      8.79137      3.38380      7.67490        -0.000000     -0.026306     -0.015500
      4.39568      5.92165      7.67490         0.000000      0.003312     -0.004078
      7.32614      5.92165      7.67490        -0.022781      0.013153     -0.015500
     10.25659      5.92165      7.67490         0.022781      0.013153     -0.015500
      8.79137      1.69398     10.06180         0.000000      0.004418      0.020433
      2.94231      1.69874     10.03918        -0.016451     -0.009498     -0.096693
      5.84906      1.69874     10.03918         0.016451     -0.009498     -0.096693
     10.25255      4.23208     10.04993         0.028269     -0.016321     -0.003054
      4.39568      4.21606     10.03918         0.000000      0.018995     -0.096693
      7.33018      4.23208     10.04993        -0.028269     -0.016321     -0.003054
     11.72002      6.76656     10.06180        -0.003826     -0.002209      0.020433
      5.86271      6.76656     10.06180         0.003826     -0.002209      0.020433
      8.79137      6.76293     10.04993         0.000000      0.032642     -0.003054
      0.00000      0.00000     12.42562         0.000000      0.000000     -0.022539
      2.96563      0.06260     12.41952         0.014460      0.009160      0.026248
      5.82574      0.06260     12.41952        -0.014460      0.009160      0.026248
      1.53702      2.53701     12.41952         0.015162      0.007942      0.026248
      7.25434      2.53701     12.41952        -0.015162      0.007942      0.026248
      2.96708      5.01394     12.41952         0.000703     -0.017102      0.026248
      5.82429      5.01394     12.41952        -0.000703     -0.017102      0.026248
      8.79137      5.07570     12.42127         0.000000      0.000000     -0.005522
      4.39568      2.53785     12.13550        -0.000000      0.000000      0.130649
      4.39568      2.53785     13.62540         0.000000      0.000000     -0.023589
    total drift:                                0.012745      0.009821      0.042427

  FREE ENERGIE OF THE ION-ELECTRON SYSTEM (eV)
  free  energy   TOTEN  =       -97.62451403 eV

  energy  without entropy=      -97.62451403  energy(sigma->0) =      -97.62451403

 stress matrix after NEB project (eV)
     -9.63390     -0.00000      0.00000
     -0.00000     -9.63390      0.00000
      0.00000      0.00000      0.24826
  FORCES: max atom, RMS     0.023589    0.003878
  FORCE total and by dimension    0.023589    0.023589
  Stress total and by dimension   13.626649    9.633896
|           W    W    AA    RRRRR   N    N  II  N    N   GGGG   !!!           |
|           W    W   A  A   R    R  NN   N  II  NN   N  G    G  !!!           |
|           W    W  A    A  R    R  N N  N  II  N N  N  G       !!!           |
|           W WW W  AAAAAA  RRRRR   N  N N  II  N  N N  G  GGG   !            |
|           WW  WW  A    A  R   R   N   NN  II  N   NN  G    G                |
|           W    W  A    A  R    R  N    N  II  N    N   GGGG   !!!           |
|     Tetrahedron method does not include variations of the Fermi             |
|     occupations, so forces and stress will be inaccurate. We suggest        |
|     using a different smearing scheme ISMEAR = 1 or 2 for metals in         |
|     relaxations.                                                            |

 total charge

# of ion       s       p       d       tot
    1        0.417   0.201   9.179   9.797
    2        0.417   0.203   9.178   9.798
    3        0.417   0.203   9.178   9.798
    4        0.417   0.203   9.178   9.798
    5        0.420   0.203   9.176   9.798
    6        0.417   0.203   9.178   9.798
    7        0.417   0.203   9.178   9.798
    8        0.417   0.203   9.178   9.798
    9        0.414   0.202   9.179   9.795
   10        0.407   0.268   9.165   9.839
   11        0.410   0.267   9.168   9.845
   12        0.407   0.268   9.165   9.839
   13        0.410   0.267   9.168   9.845
   14        0.410   0.267   9.168   9.845
   15        0.403   0.270   9.165   9.838
   16        0.407   0.268   9.165   9.839
   17        0.403   0.270   9.165   9.838
   18        0.403   0.270   9.165   9.838
   19        0.401   0.266   9.166   9.834
   20        0.428   0.288   9.152   9.867
   21        0.428   0.288   9.152   9.867
   22        0.399   0.275   9.166   9.840
   23        0.428   0.288   9.152   9.867
   24        0.399   0.275   9.166   9.840
   25        0.401   0.266   9.166   9.834
   26        0.401   0.266   9.166   9.834
   27        0.399   0.275   9.166   9.840
   28        0.411   0.192   9.182   9.785
   29        0.413   0.202   9.177   9.791
   30        0.413   0.202   9.177   9.791
   31        0.413   0.202   9.177   9.791
   32        0.413   0.202   9.177   9.791
   33        0.413   0.202   9.177   9.791
   34        0.413   0.202   9.177   9.791
   35        0.406   0.195   9.182   9.783
   36        0.403   0.316   7.366   8.086
   37        0.512   0.016   0.000   0.529
tot         15.305   8.656 328.337 352.298

 BZINTS: Fermi energy:    0.740856;  395.000000 electrons
         Band energy:-0.127604E+04;  BLOECHL correction:   -0.037885