 vasp.6.2.0 18Jan21 (build Jun 12 2021 23:27:24) complex

 executed on             LinuxIFC date 2022.05.26  19:58:33

 INCAR:
   ISMEAR = -5
   SIGMA = 0.1
   ISPIN = 1
   EDIFF = 1.d-5
   EDIFFG = -0.01
   NSW = 0
   NELM = 150
   ENCUT = 500
   ISIF = 2
   IBRION = 2
   LREAL = Auto
   ALGO = Fast
   ICHARG = 11
   LORBIT = 10
   LCHARG = .F.
   LWAVE = .F.

 POTCAR:    PAW_PBE Cu 22Jun2005
 POTCAR:    PAW_PBE Mn 06Sep2000
 POTCAR:    PAW_PBE O 08Apr2002
|           W    W    AA    RRRRR   N    N  II  N    N   GGGG   !!!           |
|           W    W   A  A   R    R  NN   N  II  NN   N  G    G  !!!           |
|           W    W  A    A  R    R  N N  N  II  N N  N  G       !!!           |
|           W WW W  AAAAAA  RRRRR   N  N N  II  N  N N  G  GGG   !            |
|           WW  WW  A    A  R   R   N   NN  II  N   NN  G    G                |
|           W    W  A    A  R    R  N    N  II  N    N   GGGG   !!!           |
|     For optimal performance we recommend to set                             |
|       NCORE = 2 up to number-of-cores-per-socket                            |
|     This setting can greatly improve the performance of VASP for DFT.       |
|     The default, NCORE=1 might be grossly inefficient on modern             |
|     multi-core architectures or massively parallel machines. Do your        |
|     Unfortunately you need to use the default for GW and RPA                |
|     calculations (for HF NCORE is supported but not extensively tested      |
|     yet).                                                                   |

 POTCAR:    PAW_PBE Cu 22Jun2005
   VRHFIN =Cu: d10 p1

   TITEL  = PAW_PBE Cu 22Jun2005
   POMASS =   63.546; ZVAL   =   11.000    mass and valenz
   ENMAX  =  295.446; ENMIN  =  221.585 eV

 POTCAR:    PAW_PBE Mn 06Sep2000
   VRHFIN =Mn: d6 s1

   TITEL  = PAW_PBE Mn 06Sep2000
   POMASS =   54.938; ZVAL   =    7.000    mass and valenz
   ENMAX  =  269.864; ENMIN  =  202.398 eV

 POTCAR:    PAW_PBE O 08Apr2002
   VRHFIN =O: s2p4

   TITEL  = PAW_PBE O 08Apr2002
   POMASS =   16.000; ZVAL   =    6.000    mass and valenz
   ENMAX  =  400.000; ENMIN  =  300.000 eV

 Optimization of the real space projectors (new method)

 maximal supplied QI-value         = 16.25
 optimisation between [QCUT,QGAM] = [ 11.38, 22.75] = [ 36.24,144.96] Ry
 Optimized for a Real-space Cutoff    1.52 Angstroem

   l    n(q)    QCUT    max X(q) W(low)/X(q) W(high)/X(q)  e(spline)
   2      9    11.376     4.610    0.21E-03    0.10E-03    0.26E-06
   2      9    11.376     8.522    0.33E-03    0.16E-03    0.37E-06
   0     10    11.376    51.609    0.62E-04    0.20E-04    0.13E-06
   0     10    11.376    27.747    0.54E-04    0.20E-04    0.13E-06
   1     10    11.376    20.408    0.13E-04    0.99E-04    0.19E-06
   1     10    11.376    13.425    0.12E-04    0.87E-04    0.17E-06
 Optimization of the real space projectors (new method)

[...]

   l    n(q)    QCUT    max X(q) W(low)/X(q) W(high)/X(q)  e(spline)
   2      8    11.376   110.144    0.49E-03    0.27E-04    0.26E-06
   2      8    11.376   103.200    0.49E-03    0.28E-04    0.27E-06
   0      9    11.376    68.437    0.57E-04    0.92E-04    0.15E-06
   0      9    11.376    33.971    0.51E-04    0.83E-04    0.14E-06
   1      9    11.376    17.065    0.34E-03    0.68E-04    0.14E-06
   1      9    11.376    12.540    0.27E-03    0.59E-04    0.11E-06
 Optimization of the real space projectors (new method)

 maximal supplied QI-value         = 24.76
 optimisation between [QCUT,QGAM] = [ 11.39, 22.77] = [ 36.31,145.25] Ry
 Optimized for a Real-space Cutoff    1.00 Angstroem

   l    n(q)    QCUT    max X(q) W(low)/X(q) W(high)/X(q)  e(spline)
   0      7    11.387    20.381    0.39E-03    0.13E-02    0.15E-06
   0      7    11.387    15.268    0.42E-03    0.14E-02    0.17E-06
   1      6    11.387     5.964    0.41E-03    0.11E-02    0.17E-06
   1      6    11.387     5.382    0.39E-03    0.87E-03    0.15E-06
  PAW_PBE Cu 22Jun2005                  :
  PAW_PBE Mn 06Sep2000                  :
  PAW_PBE O 08Apr2002                   :

 POSCAR: Cu-Mn-O
  positions in direct lattice
  velocities in cartesian coordinates
 exchange correlation table for  LEXCH =        8
   RHO(1)=    0.500       N(1)  =     2000
   RHO(2)=  100.500       N(2)  =     4000

 VTST: version 3.2, (02/03/18)

 CHAIN: initializing optimizer

 OPT: Using VASP Conjugate-Gradient optimizer
 CHAIN: Read ICHAIN            0

 POSCAR: Cu-Mn-O
  positions in direct lattice
  velocities in cartesian coordinates

 ion  position               nearest neighbor table
   1  0.000  0.000  0.252-   7 2.57   3 2.57   4 2.57   2 2.57   6 2.57   8 2.57  12 2.57  10 2.57
                            16 2.57
   2  0.333  0.000  0.252-   8 2.57   9 2.57   5 2.57   1 2.57   3 2.57  11 2.57   4 2.57  10 2.57
                            17 2.57
   3  0.667  0.000  0.252-   1 2.57   7 2.57   6 2.57   9 2.57   2 2.57  12 2.57   5 2.57  18 2.57
                            11 2.57
   4  0.000  0.333  0.252-   5 2.57   6 2.57   1 2.57   7 2.57   2 2.57  13 2.57   9 2.57  10 2.57
                            15 2.57
   5  0.333  0.333  0.252-   4 2.57   2 2.57   7 2.57  13 2.57   8 2.57   6 2.57   3 2.57  11 2.57
                            14 2.57
   6  0.667  0.333  0.252-   4 2.57   9 2.57  15 2.57   3 2.57   1 2.57   8 2.57  14 2.57   5 2.57
                            12 2.57
   7  0.000  0.667  0.252-   1 2.57   3 2.57  16 2.57  18 2.57   4 2.57   5 2.57   8 2.57   9 2.57
                            13 2.57
   8  0.333  0.667  0.252-   9 2.57   2 2.57  17 2.57   6 2.57   1 2.57   7 2.57   5 2.57  14 2.57
                            16 2.57
   9  0.667  0.667  0.252-   8 2.57   6 2.57   2 2.57  17 2.57   3 2.57   7 2.57   4 2.57  15 2.57
                            18 2.57
  10  0.111  0.111  0.351-  20 2.55  26 2.56  19 2.56  11 2.57  12 2.57  13 2.57   1 2.57   2 2.57
                             4 2.57  15 2.57  16 2.57  17 2.57
  11  0.444  0.111  0.351-  20 2.55  21 2.55  27 2.56  10 2.57  13 2.57   2 2.57  17 2.57  14 2.57
                            12 2.57   5 2.57   3 2.57  18 2.57
  12  0.778  0.111  0.351-  21 2.55  19 2.56  25 2.56  15 2.57  10 2.57  14 2.57  18 2.57   3 2.57
                             1 2.57  16 2.57  11 2.57   6 2.57
  13  0.111  0.444  0.351-  23 2.55  20 2.55  22 2.56  16 2.57  18 2.57  10 2.57  11 2.57  14 2.57
                             5 2.57   4 2.57   7 2.57  15 2.57
  14  0.444  0.444  0.351-  21 2.55  23 2.55  24 2.56  15 2.57  17 2.57  12 2.57  16 2.57  13 2.57
                            11 2.57   6 2.57   8 2.57   5 2.57
  15  0.778  0.444  0.351-  19 2.56  24 2.56  22 2.56  14 2.57  17 2.57  12 2.57   6 2.57  18 2.57
                            10 2.57   9 2.57  13 2.57   4 2.57
  16  0.111  0.778  0.351-  23 2.55  25 2.56  26 2.56  18 2.57  13 2.57   7 2.57  14 2.57  17 2.57
                            12 2.57  10 2.57   8 2.57   1 2.57
  17  0.444  0.778  0.351-  26 2.56  27 2.56  24 2.56  14 2.57  15 2.57   8 2.57   9 2.57  11 2.57
                            16 2.57  18 2.57  10 2.57   2 2.57
  18  0.778  0.778  0.351-  25 2.56  22 2.56  27 2.56  16 2.57  13 2.57   7 2.57  15 2.57  12 2.57
                            17 2.57   9 2.57   3 2.57  11 2.57
  19  0.889  0.222  0.449-  28 2.55  15 2.56  12 2.56  10 2.56  22 2.56  24 2.56  21 2.57  20 2.57
                            25 2.57  26 2.57  32 2.57  31 2.57
  20  0.222  0.222  0.448-  36 2.48  11 2.55  13 2.55  10 2.55  29 2.56  31 2.56  23 2.56  21 2.56
                            26 2.57  19 2.57  27 2.57  22 2.57
  21  0.555  0.222  0.448-  36 2.48  14 2.55  11 2.55  12 2.55  32 2.56  30 2.56  20 2.56  23 2.56
                            19 2.57  25 2.57  24 2.57  27 2.57
  22  0.888  0.556  0.449-  35 2.55  24 2.56  27 2.56  31 2.56  33 2.56  18 2.56  15 2.56  13 2.56
                            19 2.56  25 2.56  23 2.57  20 2.57
  23  0.222  0.555  0.448-  36 2.48  13 2.55  14 2.55  16 2.55  33 2.56  34 2.56  20 2.56  21 2.56
                            25 2.57  26 2.57  22 2.57  24 2.57
  24  0.556  0.556  0.449-  35 2.55  22 2.56  27 2.56  32 2.56  34 2.56  15 2.56  17 2.56  14 2.56
                            19 2.56  26 2.56  21 2.57  23 2.57
  25  0.889  0.889  0.449-  28 2.55  18 2.56  16 2.56  12 2.56  22 2.56  27 2.56  21 2.57  23 2.57
                            19 2.57  26 2.57  33 2.57  30 2.57
  26  0.222  0.889  0.449-  28 2.55  17 2.56  10 2.56  16 2.56  27 2.56  24 2.56  20 2.57  23 2.57
                            25 2.57  19 2.57  29 2.57  34 2.57
  27  0.556  0.888  0.449-  35 2.55  24 2.56  22 2.56  29 2.56  30 2.56  17 2.56  18 2.56  11 2.56
                            26 2.56  25 2.56  20 2.57  21 2.57
  28  0.000  0.000  0.547-  25 2.55  19 2.55  26 2.55  33 2.58  30 2.58  31 2.58  29 2.58  32 2.58
                            34 2.58
  29  0.333  0.003  0.547-  31 2.54  36 2.55  30 2.55  20 2.56  27 2.56  26 2.57  28 2.58  35 2.58
                            34 2.61
  30  0.664  0.003  0.547-  32 2.54  36 2.55  29 2.55  21 2.56  27 2.56  25 2.57  28 2.58  35 2.58
                            33 2.61
  31  0.003  0.333  0.547-  29 2.54  36 2.55  33 2.55  20 2.56  22 2.56  19 2.57  28 2.58  35 2.58
                            32 2.61
  32  0.664  0.333  0.547-  30 2.54  36 2.55  34 2.55  21 2.56  24 2.56  19 2.57  28 2.58  35 2.58
                            31 2.61
  33  0.003  0.664  0.547-  34 2.54  36 2.55  31 2.55  23 2.56  22 2.56  25 2.57  28 2.58  35 2.58
                            30 2.61
  34  0.333  0.664  0.547-  33 2.54  36 2.55  32 2.55  23 2.56  24 2.56  26 2.57  28 2.58  35 2.58
                            29 2.61
  35  0.667  0.667  0.547-  24 2.55  27 2.55  22 2.55  34 2.58  32 2.58  29 2.58  30 2.58  33 2.58
                            31 2.58
  36  0.333  0.333  0.542-  37 1.61  23 2.48  20 2.48  21 2.48  31 2.55  29 2.55  33 2.55  34 2.55
                            32 2.55  30 2.55
  37  0.333  0.333  0.617-  36 1.61

  LATTYP: Found a hexagonal cell.
 ALAT       =     7.6967864036
 C/A-ratio  =     2.7653617908

  Lattice vectors:

 A1 = (  -3.8483927580,  -6.6656128093,   0.0000000000)
 A2 = (   7.6967864037,   0.0000000000,   0.0000000000)
 A3 = (   0.0000000000,   0.0000000000,  21.2843990326)

Analysis of symmetry for initial positions (statically):
 Subroutine PRICEL returns:
 Original cell was already a primitive cell.

 Routine SETGRP: Setting up the symmetry group for a
 hexagonal supercell.

 Subroutine GETGRP returns: Found  6 space group operations
 (whereof  6 operations were pure point group operations)
 out of a pool of 24 trial point group operations.

The static configuration has the point symmetry C_3v.

Analysis of symmetry for dynamics (positions and initial velocities):
 Subroutine PRICEL returns:
 Original cell was already a primitive cell.

[...]

The dynamic configuration has the point symmetry C_3v.

Analysis of constrained symmetry for selective dynamics:
 Subroutine PRICEL returns:
 Original cell was already a primitive cell.

 Routine SETGRP: Setting up the symmetry group for a
 hexagonal supercell.

 Subroutine GETGRP returns: Found  6 space group operations
[...]
     24      -4.3761      2.00000
     25      -4.3347      2.00000
     26      -4.3114      2.00000
     27      -4.2854      2.00000
     28      -4.1465      2.00000
     29      -4.1223      2.00000
     30      -4.0944      2.00000
     31      -4.0824      2.00000
     32      -4.0783      2.00000
     33      -4.0647      2.00000
     34      -4.0398      2.00000
     35      -4.0294      2.00000
     36      -3.9810      2.00000
     37      -3.9513      2.00000
     38      -3.9390      2.00000
     39      -3.8478      2.00000
     40      -3.8380      2.00000
     41      -3.7647      2.00000
     42      -3.7489      2.00000
     43      -3.6787      2.00000
     44      -3.6721      2.00000
     45      -3.6357      2.00000
     46      -3.6335      2.00000
     47      -3.6209      2.00000
     48      -3.5856      2.00000
     49      -3.5583      2.00000
     50      -3.4258      2.00000
     51      -3.3987      2.00000
     52      -3.3952      2.00000
     53      -3.3930      2.00000
     54      -3.3501      2.00000
     55      -3.3450      2.00000
     56      -3.3272      2.00000
     57      -3.2957      2.00000
     58      -3.2854      2.00000
     59      -3.2776      2.00000
     60      -3.2658      2.00000
[...]
    238       6.1667      0.00000
    239       6.3326      0.00000
    240       6.4092      0.00000
    241       6.9164      0.00000
    242       6.9416      0.00000
    243       7.0679      0.00000
    244       7.1150      0.00000
    245       7.1931      0.00000
    246       7.2613      0.00000
    247       7.3565      0.00000
    248       7.4625      0.00000
    249       7.4794      0.00000
    250       7.6995      0.00000
    251       7.7806      0.00000
    252       7.9097      0.00000

 soft charge-density along one line, spin component           1
         0         1         2         3         4         5         6         7         8         9
 total charge-density along one line

------------------------ aborting loop because EDIFF is reached ----------------------------------------

 total charge

# of ion       s       p       d       tot
    1        0.450   0.281   9.192   9.924
    2        0.449   0.285   9.187   9.921
    3        0.449   0.285   9.187   9.921
    4        0.449   0.285   9.187   9.921
    5        0.451   0.285   9.185   9.920
    6        0.449   0.285   9.187   9.921
    7        0.449   0.285   9.187   9.921
    8        0.449   0.285   9.187   9.921
    9        0.447   0.285   9.188   9.919
   10        0.443   0.369   9.179   9.991
   11        0.441   0.370   9.182   9.993
   12        0.443   0.369   9.179   9.991
   13        0.441   0.370   9.182   9.993
   14        0.441   0.370   9.182   9.993
   15        0.440   0.369   9.181   9.989
   16        0.443   0.369   9.179   9.991
   17        0.440   0.369   9.181   9.989
   18        0.440   0.369   9.181   9.989
   19        0.441   0.366   9.182   9.990
   20        0.463   0.394   9.166  10.022
   21        0.463   0.394   9.166  10.022
   22        0.433   0.374   9.181   9.988
   23        0.463   0.394   9.166  10.022
   24        0.433   0.374   9.181   9.988
   25        0.441   0.366   9.182   9.990
   26        0.441   0.366   9.182   9.990
   27        0.433   0.374   9.181   9.988
   28        0.451   0.280   9.192   9.923
   29        0.445   0.294   9.189   9.928
   30        0.445   0.294   9.189   9.928
   31        0.445   0.294   9.189   9.928
   32        0.445   0.294   9.189   9.928
   33        0.445   0.294   9.189   9.928
   34        0.445   0.294   9.189   9.928
   35        0.445   0.284   9.191   9.920
   36        0.426   0.495   5.182   6.103
   37        1.612   3.252   0.000   4.864
tot         17.624  15.364 326.599 359.586

  FORCE on cell =-STRESS in cart. coord.  units (eV):
  Direction    XX          YY          ZZ          XY          YZ          ZX
  Alpha Z   885.31134   885.31134   885.31134
  Ewald  173226.25524173226.25482************     0.00040     0.00012     0.00019
  Hartree186309.23601186309.23598************     0.00005     0.00006     0.00008
  E(xc)   -2309.16235 -2309.16188 -2313.27006    -0.00041    -0.00003    -0.00006
  Local  ************************372732.03000     0.01860    -0.00060    -0.00100
  n-local  -808.49086  -794.69849  -810.70892     7.34590    -0.04735     0.30801
  augment  3345.14135  3345.16137  3355.20002    -0.01734     0.00025     0.00038
  Kinetic  3333.11867  3335.98146  3338.33223     3.12629     1.54459    -1.19036
  Fock        0.00000     0.00000     0.00000     0.00000     0.00000     0.00000
  Total      -3.28422    -3.28422     2.40584     0.00000    -0.00000    -0.00000
  in kB      -4.81873    -4.81873     3.52994     0.00000    -0.00000    -0.00000

 VOLUME and BASIS-vectors are now :
  energy-cutoff  :      500.00
  volume of cell :     1091.97
      direct lattice vectors                 reciprocal lattice vectors
     7.696786404  0.000000000  0.000000000     0.129924354 -0.075011849  0.000000000
     3.848392758  6.665612809  0.000000000     0.000000000  0.150023716  0.000000000
     0.000000000  0.000000000 21.284399033     0.000000000  0.000000000  0.046982769

  length of vectors
     7.696786404  7.696786404 21.284399033     0.150023716  0.150023716  0.046982769

 FORCES acting on ions
    electron-ion (+dipol)            ewald-force                    non-local-force                 convergence-correction
   -.416E-04 0.141E-06 0.349E+04   0.579E-04 -.439E-05 -.348E+04   -.312E-17 0.411E-17 -.250E+01   -.251E-03 -.112E-03 -.298E+00
   -.811E-01 -.359E-01 0.349E+04   0.132E-01 -.546E-01 -.348E+04   0.427E-01 0.131E+00 -.193E+01   0.306E-01 -.230E-01 -.342E+00
   0.812E-01 -.358E-01 0.349E+04   -.132E-01 -.546E-01 -.348E+04   -.427E-01 0.131E+00 -.193E+01   -.299E-01 -.205E-01 -.341E+00
   -.716E-01 -.524E-01 0.349E+04   -.408E-01 0.387E-01 -.348E+04   0.135E+00 -.286E-01 -.193E+01   -.449E-02 0.380E-01 -.342E+00
   -.658E-04 -.583E-05 0.349E+04   0.116E-03 -.101E-04 -.348E+04   0.603E-17 0.115E-17 -.168E+01   0.120E-01 0.735E-02 -.210E+00
   0.716E-01 -.523E-01 0.349E+04   0.406E-01 0.386E-01 -.348E+04   -.135E+00 -.286E-01 -.193E+01   0.303E-02 0.392E-01 -.341E+00
   0.955E-02 0.882E-01 0.349E+04   -.539E-01 0.159E-01 -.348E+04   0.922E-01 -.103E+00 -.193E+01   -.327E-01 -.156E-01 -.341E+00
   -.944E-02 0.882E-01 0.349E+04   0.537E-01 0.159E-01 -.348E+04   -.922E-01 -.103E+00 -.193E+01   0.361E-01 -.170E-01 -.341E+00
   -.144E-03 -.329E-04 0.349E+04   0.263E-03 0.206E-04 -.348E+04   -.239E-17 0.134E-17 -.217E+01   -.131E-01 -.677E-02 -.347E+00
   0.109E+01 0.629E+00 0.118E+04   -.538E+00 -.311E+00 -.118E+04   -.432E+00 -.250E+00 -.924E+00   -.124E+00 -.716E-01 0.203E+00
   -.904E-04 0.668E+00 0.118E+04   0.189E-03 -.963E+00 -.118E+04   -.156E-07 0.235E+00 -.418E+00   0.113E-01 0.262E-01 0.202E+00
   -.109E+01 0.629E+00 0.118E+04   0.538E+00 -.311E+00 -.118E+04   0.432E+00 -.250E+00 -.924E+00   0.123E+00 -.711E-01 0.201E+00
   0.579E+00 -.334E+00 0.118E+04   -.834E+00 0.481E+00 -.118E+04   0.203E+00 -.117E+00 -.418E+00   0.289E-01 -.251E-02 0.202E+00
   -.579E+00 -.334E+00 0.118E+04   0.833E+00 0.481E+00 -.118E+04   -.203E+00 -.117E+00 -.418E+00   -.590E-02 -.378E-02 0.199E+00
   -.143E-03 -.136E+00 0.118E+04   0.299E-03 0.957E-02 -.118E+04   -.518E-08 0.778E-01 -.859E+00   -.272E-02 0.295E-01 0.187E+00
   -.916E-04 -.126E+01 0.118E+04   0.186E-03 0.621E+00 -.118E+04   -.332E-07 0.499E+00 -.924E+00   -.104E-02 0.141E+00 0.200E+00
   -.117E+00 0.677E-01 0.118E+04   0.833E-02 -.452E-02 -.118E+04   0.674E-01 -.389E-01 -.859E+00   0.249E-01 -.171E-01 0.187E+00
   0.118E+00 0.677E-01 0.118E+04   -.854E-02 -.459E-02 -.118E+04   -.674E-01 -.389E-01 -.859E+00   -.236E-01 -.153E-01 0.188E+00
   -.601E-04 -.108E+01 -.115E+04   0.685E-04 0.114E+01 0.115E+04   -.134E-08 0.201E-01 0.889E+00   0.129E-01 -.841E-01 0.460E+00
   -.124E+02 -.718E+01 -.115E+04   0.134E+02 0.776E+01 0.115E+04   -.109E+01 -.627E+00 -.567E+00   -.113E-01 -.663E-02 0.689E+00
   0.124E+02 -.718E+01 -.115E+04   -.134E+02 0.776E+01 0.115E+04   0.109E+01 -.627E+00 -.567E+00   -.115E-01 -.847E-02 0.688E+00
   -.716E+01 0.413E+01 -.115E+04   0.685E+01 -.395E+01 0.115E+04   0.403E+00 -.233E+00 0.798E+00   -.167E-01 0.204E-01 0.483E+00
   -.790E-04 0.144E+02 -.115E+04   0.144E-03 -.155E+02 0.115E+04   -.835E-07 0.125E+01 -.567E+00   -.143E-01 -.698E-02 0.688E+00
   0.716E+01 0.413E+01 -.115E+04   -.685E+01 -.395E+01 0.115E+04   -.403E+00 -.233E+00 0.798E+00   0.402E-01 0.224E-01 0.483E+00
   0.935E+00 0.540E+00 -.115E+04   -.990E+00 -.571E+00 0.115E+04   -.174E-01 -.100E-01 0.889E+00   0.877E-01 0.507E-01 0.460E+00
   -.935E+00 0.540E+00 -.115E+04   0.990E+00 -.572E+00 0.115E+04   0.174E-01 -.100E-01 0.889E+00   -.661E-01 0.534E-01 0.460E+00
   -.125E-03 -.827E+01 -.115E+04   0.242E-03 0.791E+01 0.115E+04   -.310E-07 0.466E+00 0.798E+00   0.925E-02 -.247E-01 0.483E+00
   -.341E-04 0.169E-04 -.344E+04   0.347E-04 -.343E-04 0.344E+04   -.182E-18 -.224E-17 0.214E+01   -.128E-02 -.688E-03 0.525E+00
   0.505E+01 0.858E+01 -.342E+04   -.538E+01 -.951E+01 0.342E+04   0.953E-01 0.492E+00 0.306E+01   0.986E-01 0.189E+00 0.535E+00
   -.505E+01 0.858E+01 -.342E+04   0.538E+01 -.951E+01 0.342E+04   -.953E-01 0.492E+00 0.306E+01   -.769E-01 0.190E+00 0.536E+00
   0.995E+01 0.819E-01 -.342E+04   -.109E+02 0.947E-01 0.342E+04   0.474E+00 -.163E+00 0.306E+01   0.213E+00 -.909E-02 0.535E+00
   -.995E+01 0.822E-01 -.342E+04   0.109E+02 0.946E-01 0.342E+04   -.473E+00 -.163E+00 0.306E+01   -.191E+00 -.784E-02 0.537E+00
   0.491E+01 -.866E+01 -.342E+04   -.555E+01 0.942E+01 0.342E+04   0.378E+00 -.328E+00 0.306E+01   0.126E+00 -.162E+00 0.536E+00
   -.491E+01 -.866E+01 -.342E+04   0.555E+01 0.942E+01 0.342E+04   -.378E+00 -.328E+00 0.306E+01   -.102E+00 -.161E+00 0.538E+00
   -.132E-03 -.180E-04 -.344E+04   0.255E-03 0.618E-05 0.344E+04   0.780E-18 -.162E-17 0.235E+01   -.141E-01 -.734E-02 0.587E+00
   -.588E-04 -.276E-04 -.194E+04   0.914E-04 0.167E-04 0.194E+04   0.348E-17 0.248E-17 0.107E+01   0.130E-02 0.829E-03 0.370E+00
   0.173E-03 -.817E-04 -.225E+04   0.229E-04 0.989E-05 0.227E+04   0.181E-17 0.113E-17 -.284E+02   0.269E-02 0.165E-02 -.388E+00
   -.146E-03 -.125E-03 0.176E+02   0.572E-13 0.478E-13 0.273E-11   0.616E-16 -.535E-16 -.256E+02   0.119E+00 0.658E-01 0.807E+01

 POSITION                                       TOTAL-FORCE (eV/Angst)
      0.00000      0.00000      5.37156         0.000000     -0.000000     -0.017715
      2.56560      0.00000      5.37156         0.005768      0.018676      0.067582
      5.13119      0.00000      5.37156        -0.005768      0.018676      0.067582
      1.28280      2.22187      5.37156         0.019058     -0.004342      0.067582
      3.84839      2.22187      5.37156         0.000000      0.000000      0.042058
      6.41399      2.22187      5.37156        -0.019058     -0.004342      0.067582
      2.56560      4.44374      5.37156         0.013290     -0.014333      0.067582
      5.13119      4.44374      5.37156        -0.013290     -0.014333      0.067582
      7.69679      4.44374      5.37156        -0.000000      0.000000      0.036849
      1.28280      0.74062      7.46636        -0.004781     -0.002761     -0.061129
      3.84839      0.74062      7.46636         0.000000     -0.039677     -0.063484
      6.41399      0.74062      7.46636         0.004781     -0.002761     -0.061129
      2.56560      2.96249      7.46636        -0.034361      0.019838     -0.063484
      5.13119      2.96249      7.46636         0.034361      0.019838     -0.063484
      7.69679      2.96249      7.46636         0.000000     -0.019044     -0.030435
      3.84839      5.18437      7.46636        -0.000000      0.005521     -0.061129
      6.41399      5.18437      7.46636        -0.016492      0.009522     -0.030435
      8.97958      5.18437      7.46636         0.016492      0.009522     -0.030435
      7.69679      1.48275      9.55327         0.000000     -0.006275      0.057206
      2.56715      1.48214      9.54261        -0.079612     -0.045964     -0.148602
      5.12964      1.48214      9.54261         0.079612     -0.045964     -0.148602
      8.97640      3.70496      9.55687         0.061834     -0.035700      0.029609
      3.84839      3.70133      9.54261        -0.000000      0.091928     -0.148602
      6.41717      3.70496      9.55687        -0.061834     -0.035700      0.029609
     10.26108      5.92424      9.55327         0.005434      0.003137      0.057206
      5.13249      5.92424      9.55327        -0.005434      0.003137      0.057206
      7.69679      5.92131      9.55687        -0.000000      0.071400      0.029609
      0.00000      0.00000     11.63217        -0.000000     -0.000000     -0.041230
      2.57513      0.01976     11.64308        -0.152643     -0.261157     -0.195176
      5.12165      0.01976     11.64308         0.152643     -0.261157     -0.195176
      1.30468      2.22025     11.64308        -0.302490     -0.001614     -0.195176
      6.39211      2.22025     11.64308         0.302490     -0.001614     -0.195176
      2.57794      4.42560     11.64308        -0.149847      0.262771     -0.195176
      5.11885      4.42560     11.64308         0.149847      0.262771     -0.195176
      7.69679      4.44374     11.63403        -0.000000      0.000000     -0.004283
      3.84839      2.22187     11.52902        -0.000000     -0.000000      1.415313
      3.84839      2.22187     13.13590        -0.000000     -0.000000     -0.014918
    total drift:                                0.118834      0.065627      0.047728

  FREE ENERGIE OF THE ION-ELECTRON SYSTEM (eV)
  free  energy   TOTEN  =      -136.79438879 eV

  energy  without entropy=     -136.79438879  energy(sigma->0) =     -136.79438879

 stress matrix after NEB project (eV)
     -3.28422      0.00000     -0.00000
      0.00000     -3.28422     -0.00000
     -0.00000     -0.00000      2.40584
  FORCES: max atom, RMS     0.014918    0.002453
  FORCE total and by dimension    0.014918    0.014918
  Stress total and by dimension    5.230711    3.284224
|           W    W    AA    RRRRR   N    N  II  N    N   GGGG   !!!           |
|           W    W   A  A   R    R  NN   N  II  NN   N  G    G  !!!           |
|           W    W  A    A  R    R  N N  N  II  N N  N  G       !!!           |
|           W WW W  AAAAAA  RRRRR   N  N N  II  N  N N  G  GGG   !            |
|           WW  WW  A    A  R   R   N   NN  II  N   NN  G    G                |
|           W    W  A    A  R    R  N    N  II  N    N   GGGG   !!!           |
|     Tetrahedron method does not include variations of the Fermi             |
|     occupations, so forces and stress will be inaccurate. We suggest        |
|     using a different smearing scheme ISMEAR = 1 or 2 for metals in         |
|     relaxations.                                                            |

 total charge

# of ion       s       p       d       tot
    1        0.450   0.281   9.192   9.924
    2        0.449   0.285   9.187   9.921
    3        0.449   0.285   9.187   9.921
    4        0.449   0.285   9.187   9.921
    5        0.451   0.285   9.185   9.920
    6        0.449   0.285   9.187   9.921
    7        0.449   0.285   9.187   9.921
    8        0.449   0.285   9.187   9.921
    9        0.447   0.285   9.188   9.919
   10        0.443   0.369   9.179   9.991
   11        0.441   0.370   9.182   9.993
   12        0.443   0.369   9.179   9.991
   13        0.441   0.370   9.182   9.993
   14        0.441   0.370   9.182   9.993
   15        0.440   0.369   9.181   9.989
   16        0.443   0.369   9.179   9.991
   17        0.440   0.369   9.181   9.989
   18        0.440   0.369   9.181   9.989
   19        0.441   0.366   9.182   9.990
   20        0.463   0.394   9.166  10.022
   21        0.463   0.394   9.166  10.022
   22        0.433   0.374   9.181   9.988
   23        0.463   0.394   9.166  10.022
   24        0.433   0.374   9.181   9.988
   25        0.441   0.366   9.182   9.990
   26        0.441   0.366   9.182   9.990
   27        0.433   0.374   9.181   9.988
   28        0.451   0.280   9.192   9.923
   29        0.445   0.294   9.189   9.928
   30        0.445   0.294   9.189   9.928
   31        0.445   0.294   9.189   9.928
   32        0.445   0.294   9.189   9.928
   33        0.445   0.294   9.189   9.928
   34        0.445   0.294   9.189   9.928
   35        0.445   0.284   9.191   9.920
   36        0.426   0.495   5.182   6.103
   37        1.612   3.252   0.000   4.864
tot         17.624  15.364 326.599 359.586

 BZINTS: Fermi energy:    0.025614;  398.000000 electrons
         Band energy:-0.114218E+04;  BLOECHL correction:   -0.041822