 vasp.6.2.0 18Jan21 (build Jun 12 2021 23:27:24) complex

 executed on             LinuxIFC date 2022.05.27  04:58:56

 INCAR:
   ISMEAR = -5
   SIGMA = 0.1
   ISPIN = 1
   EDIFF = 1.d-5
   EDIFFG = -0.01
   NSW = 0
   NELM = 150
   ENCUT = 500
   ISIF = 2
   IBRION = 2
   LREAL = Auto
   ALGO = Fast
   ICHARG = 11
   LORBIT = 10
   LCHARG = .F.
   LWAVE = .F.

 POTCAR:    PAW_PBE Au 04Oct2007
 POTCAR:    PAW_PBE V 08Apr2002
 POTCAR:    PAW_PBE H 15Jun2001
|           W    W    AA    RRRRR   N    N  II  N    N   GGGG   !!!           |
|           W    W   A  A   R    R  NN   N  II  NN   N  G    G  !!!           |
|           W    W  A    A  R    R  N N  N  II  N N  N  G       !!!           |
|           W WW W  AAAAAA  RRRRR   N  N N  II  N  N N  G  GGG   !            |
|           WW  WW  A    A  R   R   N   NN  II  N   NN  G    G                |
|           W    W  A    A  R    R  N    N  II  N    N   GGGG   !!!           |
|     For optimal performance we recommend to set                             |
|       NCORE = 2 up to number-of-cores-per-socket                            |
|     This setting can greatly improve the performance of VASP for DFT.       |
|     The default, NCORE=1 might be grossly inefficient on modern             |
|     multi-core architectures or massively parallel machines. Do your        |
|     Unfortunately you need to use the default for GW and RPA                |
|     calculations (for HF NCORE is supported but not extensively tested      |
|     yet).                                                                   |

 POTCAR:    PAW_PBE Au 04Oct2007
   VRHFIN =Au: s1d10

   TITEL  = PAW_PBE Au 04Oct2007
   POMASS =  196.966; ZVAL   =   11.000    mass and valenz
   ENMAX  =  229.943; ENMIN  =  172.457 eV

 POTCAR:    PAW_PBE V 08Apr2002
   VRHFIN =V: p6 d4 s1

   TITEL  = PAW_PBE V 08Apr2002
   POMASS =   50.941; ZVAL   =    5.000    mass and valenz
   ENMAX  =  192.543; ENMIN  =  144.408 eV

 POTCAR:    PAW_PBE H 15Jun2001
   VRHFIN =H: ultrasoft test

   TITEL  = PAW_PBE H 15Jun2001
   POMASS =    1.000; ZVAL   =    1.000    mass and valenz
   ENMAX  =  250.000; ENMIN  =  200.000 eV

 Optimization of the real space projectors (new method)

 maximal supplied QI-value         = 15.12
 optimisation between [QCUT,QGAM] = [ 11.34, 22.83] = [ 36.00,145.93] Ry
 Optimized for a Real-space Cutoff    1.39 Angstroem

   l    n(q)    QCUT    max X(q) W(low)/X(q) W(high)/X(q)  e(spline)
   2      9    11.338    60.898    0.39E-03    0.42E-03    0.21E-06
   2      9    11.338    58.894    0.40E-03    0.42E-03    0.22E-06
   0      9    11.338   109.617    0.13E-03    0.20E-04    0.13E-06
   0      9    11.338    75.026    0.13E-03    0.20E-04    0.13E-06
   1      9    11.338    16.344    0.33E-04    0.24E-03    0.18E-06
   1      9    11.338    10.160    0.26E-04    0.19E-03    0.15E-06
 Optimization of the real space projectors (new method)

[...]

   l    n(q)    QCUT    max X(q) W(low)/X(q) W(high)/X(q)  e(spline)
   2     10    11.327    96.114    0.36E-03    0.35E-03    0.42E-06
   2     10    11.327    88.986    0.37E-03    0.35E-03    0.42E-06
   0     11    11.327    20.919    0.40E-04    0.56E-04    0.79E-06
   0     11    11.327     9.593    0.30E-04    0.41E-04    0.60E-06
   1     10    11.327    11.615    0.15E-03    0.10E-03    0.19E-06
   1     10    11.327     7.031    0.11E-03    0.73E-04    0.14E-06
 Optimization of the real space projectors (new method)

 maximal supplied QI-value         = 34.20
 optimisation between [QCUT,QGAM] = [ 11.29, 22.57] = [ 35.68,142.71] Ry
 Optimized for a Real-space Cutoff    1.16 Angstroem

   l    n(q)    QCUT    max X(q) W(low)/X(q) W(high)/X(q)  e(spline)
   0      8    11.287    19.460    0.40E-03    0.73E-03    0.16E-06
   0      8    11.287    12.209    0.38E-03    0.70E-03    0.15E-06
   1      7    11.287     4.655    0.22E-03    0.25E-04    0.22E-06
  PAW_PBE Au 04Oct2007                  :
  PAW_PBE V 08Apr2002                   :
  PAW_PBE H 15Jun2001                   :

 POSCAR: Au-V-H2
  positions in direct lattice
  velocities in cartesian coordinates
 exchange correlation table for  LEXCH =        8
   RHO(1)=    0.500       N(1)  =     2000
   RHO(2)=  100.500       N(2)  =     4000

 VTST: version 3.2, (02/03/18)

 CHAIN: initializing optimizer

 OPT: Using VASP Conjugate-Gradient optimizer
 CHAIN: Read ICHAIN            0

 POSCAR: Au-V-H2
  positions in direct lattice
  velocities in cartesian coordinates

 ion  position               nearest neighbor table
   1  0.000  0.000  0.238-  16 2.94  12 2.94   6 2.94   8 2.94   7 2.94   3 2.94  10 2.94   4 2.94
                             2 2.94
   2  0.333  0.000  0.238-   9 2.94  11 2.94  17 2.94  10 2.94   8 2.94   4 2.94   5 2.94   1 2.94
                             3 2.94
   3  0.667  0.000  0.238-   7 2.94  18 2.94  12 2.94   1 2.94  11 2.94   5 2.94   6 2.94   9 2.94
                             2 2.94
   4  0.000  0.333  0.238-  10 2.94   6 2.94   5 2.94  13 2.94   2 2.94  15 2.94   9 2.94   1 2.94
                             7 2.94
   5  0.333  0.333  0.238-  13 2.94   7 2.94  11 2.94   4 2.94   2 2.94  14 2.94   3 2.94   8 2.94
                             6 2.94
   6  0.667  0.333  0.238-  15 2.94  14 2.94   1 2.94  12 2.94   4 2.94   9 2.94   8 2.94   3 2.94
                             5 2.94
   7  0.000  0.667  0.238-  18 2.94   3 2.94  16 2.94   5 2.94   1 2.94  13 2.94   8 2.94   4 2.94
                             9 2.94
   8  0.333  0.667  0.238-   9 2.94  17 2.94   1 2.94   2 2.94  14 2.94  16 2.94   6 2.94   7 2.94
                             5 2.94
   9  0.667  0.667  0.238-   2 2.94   8 2.94  17 2.94   6 2.94  15 2.94   4 2.94   3 2.94  18 2.94
                             7 2.94
  10  0.111  0.111  0.346-  20 2.93  26 2.94  19 2.94  11 2.94  17 2.94   2 2.94   4 2.94   1 2.94
                            12 2.94  16 2.94  13 2.94  15 2.94
  11  0.444  0.111  0.346-  20 2.92  21 2.92  27 2.94  13 2.94   2 2.94  10 2.94  17 2.94   5 2.94
                             3 2.94  18 2.94  14 2.94  12 2.94
  12  0.778  0.111  0.346-  21 2.93  25 2.94  19 2.94  16 2.94  18 2.94   1 2.94  14 2.94  15 2.94
                             3 2.94   6 2.94  10 2.94  11 2.94
  13  0.111  0.444  0.346-  23 2.92  20 2.92  22 2.94   5 2.94  18 2.94  11 2.94   7 2.94   4 2.94
                            16 2.94  10 2.94  14 2.94  15 2.94
  14  0.444  0.444  0.346-  21 2.92  23 2.92  24 2.94  15 2.94   6 2.94  12 2.94   8 2.94  17 2.94
                             5 2.94  16 2.94  13 2.94  11 2.94
  15  0.778  0.444  0.346-  24 2.92  22 2.92  19 2.93  14 2.94   6 2.94  17 2.94  12 2.94   9 2.94
                             4 2.94  10 2.94  13 2.94  18 2.94
  16  0.111  0.778  0.346-  23 2.93  25 2.94  26 2.94  18 2.94  12 2.94   7 2.94   1 2.94   8 2.94
                            13 2.94  10 2.94  14 2.94  17 2.94
  17  0.444  0.778  0.346-  27 2.92  24 2.92  26 2.93   9 2.94  15 2.94   2 2.94  10 2.94  11 2.94
                             8 2.94  14 2.94  16 2.94  18 2.94
  18  0.778  0.778  0.346-  22 2.92  27 2.92  25 2.93  16 2.94   7 2.94  13 2.94  12 2.94   3 2.94
                            11 2.94   9 2.94  15 2.94  17 2.94
  19  0.889  0.222  0.454-  15 2.93  10 2.94  12 2.94  24 2.94  22 2.94  28 2.94  26 2.94  25 2.94
                            21 2.95  20 2.95  32 3.03  31 3.03
  20  0.223  0.223  0.453-  36 2.72  23 2.92  21 2.92  11 2.92  13 2.92  10 2.93  29 2.95  31 2.95
                            26 2.95  19 2.95  27 2.95  22 2.95
  21  0.554  0.223  0.453-  36 2.72  20 2.92  23 2.92  14 2.92  11 2.92  12 2.93  30 2.95  32 2.95
                            25 2.95  19 2.95  27 2.95  24 2.95
  22  0.887  0.557  0.453-  24 2.91  27 2.91  18 2.92  15 2.92  25 2.94  19 2.94  13 2.94  23 2.95
                            20 2.95  35 2.96  33 2.99  31 2.99
  23  0.223  0.554  0.453-  36 2.72  20 2.92  21 2.92  13 2.92  14 2.92  16 2.93  33 2.95  34 2.95
                            25 2.95  26 2.95  22 2.95  24 2.95
  24  0.557  0.557  0.453-  27 2.91  22 2.91  15 2.92  17 2.92  26 2.94  19 2.94  14 2.94  21 2.95
                            23 2.95  35 2.96  32 2.99  34 2.99
  25  0.889  0.889  0.454-  18 2.93  16 2.94  12 2.94  22 2.94  27 2.94  28 2.94  19 2.94  26 2.94
                            23 2.95  21 2.95  33 3.03  30 3.03
  26  0.222  0.889  0.454-  17 2.93  10 2.94  16 2.94  27 2.94  24 2.94  28 2.94  19 2.94  25 2.94
                            20 2.95  23 2.95  29 3.03  34 3.03
  27  0.557  0.887  0.453-  24 2.91  22 2.91  17 2.92  18 2.92  26 2.94  25 2.94  11 2.94  20 2.95
                            21 2.95  35 2.96  29 2.99  30 2.99
  28  0.000  0.000  0.562-  25 2.94  19 2.94  26 2.94  34 2.99  32 2.99  33 2.99  30 2.99  31 2.99
                            29 2.99
  29  0.334  0.011  0.564-  30 2.83  31 2.85  36 2.86  20 2.95  35 2.98  27 2.99  28 2.99  26 3.03
                            34 3.13
  30  0.655  0.011  0.564-  29 2.83  32 2.85  36 2.86  21 2.95  35 2.98  27 2.99  28 2.99  25 3.03
                            33 3.13
  31  0.011  0.334  0.564-  33 2.83  29 2.85  36 2.86  20 2.95  35 2.98  22 2.99  28 2.99  19 3.03
                            32 3.13
  32  0.655  0.334  0.564-  34 2.83  30 2.85  36 2.86  21 2.95  35 2.98  24 2.99  28 2.99  19 3.03
                            31 3.13
  33  0.011  0.655  0.564-  31 2.83  34 2.85  36 2.86  23 2.95  35 2.98  22 2.99  28 2.99  25 3.03
                            30 3.13
  34  0.334  0.655  0.564-  32 2.83  33 2.85  36 2.86  23 2.95  35 2.98  24 2.99  28 2.99  26 3.03
                            29 3.13
  35  0.667  0.667  0.563-  24 2.96  27 2.96  22 2.96  29 2.98  34 2.98  32 2.98  31 2.98  30 2.98
                            33 2.98
  36  0.333  0.333  0.550-  37 1.83  38 1.83  20 2.72  23 2.72  21 2.72  33 2.86  31 2.86  29 2.86
                            30 2.86  34 2.86  32 2.86
  37  0.286  0.334  0.630-  38 0.83  36 1.83
  38  0.380  0.334  0.630-  37 0.83  36 1.83

  LATTYP: Found a hexagonal cell.
 ALAT       =     8.8135128021
 C/A-ratio  =     2.5184286595

  Lattice vectors:

 A1 = (  -4.4067569092,  -7.6327256898,   0.0000000000)
 A2 = (   8.8135128021,   0.0000000000,   0.0000000000)
 A3 = (   0.0000000000,   0.0000000000,  22.1962032318)

Analysis of symmetry for initial positions (statically):
 Subroutine PRICEL returns:
 Original cell was already a primitive cell.

 Routine SETGRP: Setting up the symmetry group for a
 hexagonal supercell.

 Subroutine GETGRP returns: Found  2 space group operations
 (whereof  2 operations were pure point group operations)
 out of a pool of 24 trial point group operations.

The static configuration has the point symmetry C_1h.

Analysis of symmetry for dynamics (positions and initial velocities):
 Subroutine PRICEL returns:
 Original cell was already a primitive cell.

[...]

The dynamic configuration has the point symmetry C_1h.

Analysis of constrained symmetry for selective dynamics:
 Subroutine PRICEL returns:
 Original cell was already a primitive cell.

 Routine SETGRP: Setting up the symmetry group for a
 hexagonal supercell.

 Subroutine GETGRP returns: Found  2 space group operations
[...]
     33      -4.6678      2.00000
     34      -4.6549      2.00000
     35      -4.6364      2.00000
     36      -4.5426      2.00000
     37      -4.5342      2.00000
     38      -4.4668      2.00000
     39      -4.4570      2.00000
     40      -4.3992      2.00000
     41      -4.3366      2.00000
     42      -4.3078      2.00000
     43      -4.2599      2.00000
     44      -4.2396      2.00000
     45      -4.2301      2.00000
     46      -4.2087      2.00000
     47      -4.1105      2.00000
     48      -4.0922      2.00000
     49      -4.0699      2.00000
     50      -4.0406      2.00000
     51      -4.0374      2.00000
     52      -4.0335      2.00000
     53      -4.0070      2.00000
     54      -3.9906      2.00000
     55      -3.9440      2.00000
     56      -3.9190      2.00000
     57      -3.9010      2.00000
     58      -3.8961      2.00000
     59      -3.8728      2.00000
     60      -3.8669      2.00000
[...]
    238       6.5825      0.00000
    239       6.6761      0.00000
    240       6.7439      0.00000
    241       6.8074      0.00000
    242       6.8536      0.00000
    243       7.0127      0.00000
    244       7.1573      0.00000
    245       7.3188      0.00000
    246       7.4714      0.00000
    247       7.5230      0.00000
    248       7.5661      0.00000
    249       7.6917      0.00000
    250       7.7060      0.00000
    251       7.7880      0.00000
    252       7.8883      0.00000

 soft charge-density along one line, spin component           1
         0         1         2         3         4         5         6         7         8         9
 total charge-density along one line

------------------------ aborting loop because EDIFF is reached ----------------------------------------

 total charge

# of ion       s       p       d       tot
    1        0.547   0.237   8.768   9.552
    2        0.542   0.241   8.764   9.548
    3        0.542   0.241   8.764   9.548
    4        0.541   0.241   8.766   9.548
    5        0.547   0.241   8.760   9.548
    6        0.541   0.241   8.766   9.548
    7        0.541   0.241   8.766   9.549
    8        0.541   0.241   8.766   9.549
    9        0.543   0.239   8.768   9.551
   10        0.525   0.307   8.767   9.599
   11        0.522   0.305   8.780   9.608
   12        0.525   0.307   8.767   9.599
   13        0.522   0.306   8.780   9.607
   14        0.522   0.306   8.780   9.607
   15        0.516   0.309   8.774   9.599
   16        0.526   0.307   8.766   9.599
   17        0.516   0.308   8.775   9.599
   18        0.516   0.308   8.775   9.599
   19        0.518   0.298   8.771   9.587
   20        0.562   0.332   8.735   9.630
   21        0.562   0.332   8.735   9.630
   22        0.508   0.307   8.776   9.591
   23        0.564   0.332   8.736   9.632
   24        0.508   0.307   8.776   9.591
   25        0.519   0.297   8.771   9.587
   26        0.519   0.297   8.771   9.587
   27        0.510   0.306   8.777   9.594
   28        0.538   0.227   8.758   9.523
   29        0.577   0.241   8.741   9.559
   30        0.577   0.241   8.741   9.559
   31        0.573   0.244   8.740   9.557
   32        0.573   0.244   8.740   9.557
   33        0.576   0.241   8.742   9.559
   34        0.576   0.241   8.742   9.559
   35        0.539   0.225   8.760   9.524
   36        0.395   0.512   3.311   4.219
   37        0.563   0.030   0.000   0.593
   38        0.563   0.030   0.000   0.593
tot         20.400  10.213 309.976 340.589

  FORCE on cell =-STRESS in cart. coord.  units (eV):
  Direction    XX          YY          ZZ          XY          YZ          ZX
  Alpha Z   990.53443   990.53443   990.53443
  Ewald  117291.27488117273.18841************    -0.00033    -0.01523    -0.00016
  Hartree125815.06743125812.71907************     0.00000     0.01149    -0.00004
  E(xc)   -1754.38140 -1754.38728 -1762.74978     0.00000     0.04795    -0.00000
  Local  ************************255437.78405     0.00183     0.24866     0.00012
  n-local   -55.72372   -54.58214   -27.06842     4.79795    -0.11035     0.11510
  augment  2383.32830  2382.61536  2404.29069    -0.00134    -0.10225     0.00002
  Kinetic  5389.77179  5394.59073  5454.67568     1.32875    -0.17650     0.09294
  Fock        0.00000     0.00000     0.00000     0.00000     0.00000     0.00000
  Total     -22.72009   -22.59169     2.43520    -0.00000    -0.09623    -0.00000
  in kB     -24.37885   -24.24108     2.61299    -0.00000    -0.10325    -0.00000

 VOLUME and BASIS-vectors are now :
  energy-cutoff  :      500.00
  volume of cell :     1493.16
      direct lattice vectors                 reciprocal lattice vectors
     8.813512802  0.000000000  0.000000000     0.113462137 -0.065507406  0.000000000
     4.406756909  7.632725690  0.000000000     0.000000000  0.131014796  0.000000000
     0.000000000  0.000000000 22.196203232     0.000000000  0.000000000  0.045052750

  length of vectors
     8.813512802  8.813512802 22.196203232     0.131014796  0.131014796  0.045052750

 FORCES acting on ions
    electron-ion (+dipol)            ewald-force                    non-local-force                 convergence-correction
   -.198E-04 -.504E-01 0.246E+04   0.518E-04 -.165E-02 -.246E+04   -.197E-09 -.295E-02 -.749E+00   -.238E-03 0.479E-01 -.186E+00
   0.202E+00 -.347E+00 0.246E+04   -.231E+00 0.201E+00 -.246E+04   0.682E-01 0.120E+00 -.284E+00   -.408E-01 0.188E-01 -.180E+00
   -.202E+00 -.347E+00 0.246E+04   0.231E+00 0.201E+00 -.246E+04   -.682E-01 0.120E+00 -.284E+00   0.411E-01 0.207E-01 -.179E+00
   -.185E+00 0.348E+00 0.246E+04   0.597E-01 -.301E+00 -.246E+04   0.135E+00 -.231E-01 -.329E+00   -.148E-01 -.237E-01 -.213E+00
   0.746E-05 -.268E-01 0.246E+04   0.951E-04 -.103E-03 -.246E+04   0.542E-09 0.815E-02 0.105E+00   0.428E-02 0.132E-01 -.114E+00
   0.185E+00 0.348E+00 0.246E+04   -.598E-01 -.301E+00 -.246E+04   -.135E+00 -.231E-01 -.329E+00   0.132E-01 -.228E-01 -.212E+00
   -.379E+00 0.274E-01 0.246E+04   0.290E+00 0.100E+00 -.246E+04   0.908E-01 -.109E+00 -.293E+00   -.851E-02 -.874E-02 -.206E+00
   0.379E+00 0.274E-01 0.246E+04   -.291E+00 0.100E+00 -.246E+04   -.908E-01 -.109E+00 -.293E+00   0.103E-01 -.984E-02 -.206E+00
   0.197E-04 0.252E-01 0.246E+04   0.166E-03 0.178E-02 -.246E+04   0.540E-09 0.811E-02 -.461E+00   -.458E-02 -.345E-01 -.170E+00
   0.104E+01 0.591E+00 0.791E+03   -.668E+00 -.399E+00 -.791E+03   -.308E+00 -.180E+00 -.641E+00   -.617E-01 -.304E-02 0.342E-01
   0.146E-04 -.156E+00 0.792E+03   0.148E-03 0.162E+00 -.792E+03   0.572E-09 0.859E-02 -.115E+00   0.399E-02 -.492E-01 0.822E-01
   -.104E+01 0.591E+00 0.791E+03   0.668E+00 -.399E+00 -.791E+03   0.308E+00 -.180E+00 -.641E+00   0.602E-01 -.189E-02 0.341E-01
   -.126E+00 0.121E+00 0.792E+03   0.154E+00 -.795E-01 -.792E+03   0.408E-01 -.131E-01 -.114E+00   -.911E-01 -.341E-02 0.846E-01
   0.126E+00 0.121E+00 0.792E+03   -.154E+00 -.795E-01 -.792E+03   -.408E-01 -.131E-01 -.114E+00   0.986E-01 -.425E-02 0.838E-01
   0.323E-04 0.354E+01 0.796E+03   0.235E-03 -.363E+01 -.795E+03   0.132E-08 0.198E-01 -.550E+00   -.228E-02 0.606E-02 0.466E-01
   -.209E-04 -.128E+01 0.791E+03   0.162E-03 0.776E+00 -.791E+03   0.258E-07 0.387E+00 -.591E+00   -.724E-04 0.106E+00 0.436E-01
   0.304E+01 -.177E+01 0.796E+03   -.315E+01 0.182E+01 -.795E+03   0.299E-01 -.853E-02 -.520E+00   0.248E-01 -.196E-01 0.624E-01
   -.304E+01 -.177E+01 0.796E+03   0.315E+01 0.182E+01 -.795E+03   -.299E-01 -.853E-02 -.520E+00   -.244E-01 -.176E-01 0.630E-01
   -.421E-04 -.362E+01 -.889E+03   0.562E-04 0.364E+01 0.888E+03   0.107E-08 0.161E-01 0.607E+00   -.530E-03 -.191E-01 0.392E+00
   -.890E+01 -.508E+01 -.892E+03   0.998E+01 0.566E+01 0.893E+03   -.115E+01 -.620E+00 -.122E+01   0.604E-01 0.349E-01 0.620E+00
   0.890E+01 -.508E+01 -.892E+03   -.998E+01 0.566E+01 0.893E+03   0.115E+01 -.620E+00 -.122E+01   -.596E-01 0.352E-01 0.620E+00
   -.124E+02 0.708E+01 -.880E+03   0.120E+02 -.686E+01 0.879E+03   0.353E+00 -.212E+00 0.544E+00   0.251E-01 -.191E-01 0.397E+00
   -.763E-05 0.101E+02 -.892E+03   0.138E-03 -.114E+02 0.893E+03   0.913E-07 0.137E+01 -.120E+01   0.254E-03 -.883E-01 0.602E+00
   0.124E+02 0.708E+01 -.880E+03   -.120E+02 -.686E+01 0.879E+03   -.353E+00 -.212E+00 0.544E+00   -.253E-01 -.193E-01 0.397E+00
   0.324E+01 0.187E+01 -.889E+03   -.320E+01 -.188E+01 0.888E+03   -.377E-01 -.869E-02 0.595E+00   -.177E-01 0.207E-01 0.390E+00
   -.324E+01 0.187E+01 -.889E+03   0.320E+01 -.188E+01 0.888E+03   0.377E-01 -.869E-02 0.595E+00   0.181E-01 0.202E-01 0.390E+00
   0.993E-05 -.144E+02 -.880E+03   0.198E-03 0.139E+02 0.880E+03   0.286E-07 0.430E+00 0.547E+00   -.362E-03 0.376E-01 0.396E+00
   -.104E-04 0.292E+00 -.245E+04   0.278E-04 -.314E+00 0.245E+04   -.321E-09 -.483E-02 0.617E+00   0.123E-04 0.104E-01 0.275E+00
   0.115E+01 -.594E+01 -.247E+04   -.181E+00 0.731E+01 0.247E+04   -.112E+01 -.168E+01 -.139E+00   0.111E+00 0.235E+00 0.177E+00
   -.115E+01 -.594E+01 -.247E+04   0.181E+00 0.731E+01 0.247E+04   0.112E+01 -.168E+01 -.139E+00   -.111E+00 0.236E+00 0.177E+00
   -.364E+01 0.443E+01 -.246E+04   0.527E+01 -.439E+01 0.246E+04   -.196E+01 -.492E-01 -.678E-01   0.302E+00 0.150E-01 0.202E+00
   0.364E+01 0.443E+01 -.246E+04   -.527E+01 -.439E+01 0.246E+04   0.196E+01 -.492E-01 -.678E-01   -.302E+00 0.158E-01 0.202E+00
   -.656E+01 0.148E+01 -.247E+04   0.736E+01 -.289E+01 0.247E+04   -.978E+00 0.174E+01 -.117E+00   0.125E+00 -.254E+00 0.211E+00
   0.656E+01 0.148E+01 -.247E+04   -.736E+01 -.289E+01 0.247E+04   0.978E+00 0.174E+01 -.117E+00   -.123E+00 -.254E+00 0.211E+00
   0.339E-04 -.329E+00 -.246E+04   0.143E-03 0.333E+00 0.246E+04   0.260E-08 0.391E-01 0.637E+00   -.436E-02 -.258E-01 0.245E+00
   -.259E-04 -.135E-02 -.104E+04   0.527E-04 -.410E-01 0.104E+04   -.138E-08 -.208E-01 0.591E+00   0.727E-03 0.255E-02 0.152E+00
   0.144E+02 0.154E-01 -.261E+03   -.183E+02 -.198E-01 0.262E+03   0.389E+01 0.807E-03 -.101E+01   0.168E-02 0.565E-02 -.523E-01
   -.144E+02 0.154E-01 -.261E+03   0.183E+02 -.198E-01 0.262E+03   -.389E+01 0.807E-03 -.101E+01   -.160E-02 0.566E-02 -.524E-01
   -.806E-03 -.169E+00 0.334E+01   -.107E-13 0.268E-12 -.841E-11   0.106E-07 0.159E+00 -.774E+01   0.638E-02 0.921E-02 0.482E+01

 POSITION                                       TOTAL-FORCE (eV/Angst)
      0.00000      0.00000      5.28038        -0.000000     -0.007059     -0.162486
      2.93784      0.00000      5.28038        -0.001296     -0.006268     -0.063076
      5.87568      0.00000      5.28038         0.001296     -0.006268     -0.063076
      1.46892      2.54424      5.28038        -0.004505      0.001076     -0.065917
      4.40676      2.54424      5.28038        -0.000000     -0.005544     -0.100515
      7.34459      2.54424      5.28038         0.004505      0.001076     -0.065917
      2.93784      5.08848      5.28038        -0.007101      0.009758     -0.058263
      5.87568      5.08848      5.28038         0.007101      0.009758     -0.058263
      8.81351      5.08848      5.28038         0.000000      0.000627     -0.085048
      1.46892      0.84808      7.67911         0.007625      0.009459      0.110789
      4.40676      0.84808      7.67911        -0.000000     -0.033817      0.040642
      7.34459      0.84808      7.67911        -0.007625      0.009459      0.110789
      2.93784      3.39232      7.67911        -0.025922      0.024487      0.036927
      5.87568      3.39232      7.67911         0.025922      0.024487      0.036927
      8.81351      3.39232      7.67911        -0.000000     -0.062223      0.089226
      4.40676      5.93656      7.67911        -0.000000     -0.009661      0.109025
      7.34459      5.93656      7.67911        -0.051934      0.026091      0.095919
     10.28243      5.93656      7.67911         0.051934      0.026091      0.095919
      8.81351      1.69782     10.07545         0.000000      0.018382      0.043614
      2.94790      1.70197     10.06171        -0.006170     -0.002031     -0.076313
      5.86562      1.70197     10.06171         0.006170     -0.002031     -0.076313
     10.26824      4.24860     10.06503         0.004374     -0.010745      0.011081
      4.40676      4.22879     10.06171         0.000000      0.027218     -0.049786
      7.35878      4.24860     10.06503        -0.004374     -0.010745      0.011081
     11.74991      6.78381     10.07545        -0.010717     -0.003295      0.013516
      5.87712      6.78381     10.07545         0.010717     -0.003295      0.013516
      8.81351      6.76826     10.06503         0.000000      0.023654      0.009421
      0.00000      0.00000     12.47281        -0.000000     -0.016004     -0.020709
      2.99055      0.08121     12.52138        -0.036479     -0.078768     -0.033294
      5.82296      0.08121     12.52138         0.036479     -0.078768     -0.033294
      1.56560      2.54929     12.52138        -0.031557      0.010463      0.007980
      7.24791      2.54929     12.52138         0.031557      0.010463      0.007980
      2.98181      5.00223     12.52138        -0.055875      0.071696     -0.056582
      5.83171      5.00223     12.52138         0.055875      0.071696     -0.056582
      8.81351      5.08848     12.50032         0.000000      0.017080     -0.004644
      4.40676      2.54424     12.20130        -0.000000     -0.060574      0.301896
      3.99191      2.54607     13.98550         0.006318      0.002036     -0.008085
      4.82160      2.54607     13.98550        -0.006318      0.002036     -0.008085
    total drift:                                0.005577     -0.000750      0.418508

  FREE ENERGIE OF THE ION-ELECTRON SYSTEM (eV)
  free  energy   TOTEN  =      -121.67811305 eV

  energy  without entropy=     -121.67811305  energy(sigma->0) =     -121.67811305

 stress matrix after NEB project (eV)
    -22.72009     -0.00000     -0.00000
     -0.00000    -22.59169     -0.09623
     -0.00000     -0.09623      2.43520
  FORCES: max atom, RMS     0.010461    0.002400
  FORCE total and by dimension    0.014793    0.008085
  Stress total and by dimension   32.133089   22.720086
|           W    W    AA    RRRRR   N    N  II  N    N   GGGG   !!!           |
|           W    W   A  A   R    R  NN   N  II  NN   N  G    G  !!!           |
|           W    W  A    A  R    R  N N  N  II  N N  N  G       !!!           |
|           W WW W  AAAAAA  RRRRR   N  N N  II  N  N N  G  GGG   !            |
|           WW  WW  A    A  R   R   N   NN  II  N   NN  G    G                |
|           W    W  A    A  R    R  N    N  II  N    N   GGGG   !!!           |
|     Tetrahedron method does not include variations of the Fermi             |
|     occupations, so forces and stress will be inaccurate. We suggest        |
|     using a different smearing scheme ISMEAR = 1 or 2 for metals in         |
|     relaxations.                                                            |

 total charge

# of ion       s       p       d       tot
    1        0.547   0.237   8.768   9.552
    2        0.542   0.241   8.764   9.548
    3        0.542   0.241   8.764   9.548
    4        0.541   0.241   8.766   9.548
    5        0.547   0.241   8.760   9.548
    6        0.541   0.241   8.766   9.548
    7        0.541   0.241   8.766   9.549
    8        0.541   0.241   8.766   9.549
    9        0.543   0.239   8.768   9.551
   10        0.525   0.307   8.767   9.599
   11        0.522   0.305   8.780   9.608
   12        0.525   0.307   8.767   9.599
   13        0.522   0.306   8.780   9.607
   14        0.522   0.306   8.780   9.607
   15        0.516   0.309   8.774   9.599
   16        0.526   0.307   8.766   9.599
   17        0.516   0.308   8.775   9.599
   18        0.516   0.308   8.775   9.599
   19        0.518   0.298   8.771   9.587
   20        0.562   0.332   8.735   9.630
   21        0.562   0.332   8.735   9.630
   22        0.508   0.307   8.776   9.591
   23        0.564   0.332   8.736   9.632
   24        0.508   0.307   8.776   9.591
   25        0.519   0.297   8.771   9.587
   26        0.519   0.297   8.771   9.587
   27        0.510   0.306   8.777   9.594
   28        0.538   0.227   8.758   9.523
   29        0.577   0.241   8.741   9.559
   30        0.577   0.241   8.741   9.559
   31        0.573   0.244   8.740   9.557
   32        0.573   0.244   8.740   9.557
   33        0.576   0.241   8.742   9.559
   34        0.576   0.241   8.742   9.559
   35        0.539   0.225   8.760   9.524
   36        0.395   0.512   3.311   4.219
   37        0.563   0.030   0.000   0.593
   38        0.563   0.030   0.000   0.593
tot         20.400  10.213 309.976 340.589

 BZINTS: Fermi energy:    0.748277;  392.000000 electrons
         Band energy:-0.116972E+04;  BLOECHL correction:   -0.031210