 vasp.6.2.0 18Jan21 (build Jun 12 2021 23:27:24) complex

 executed on             LinuxIFC date 2022.05.28  02:55:08

 INCAR:
   ISMEAR = -5
   SIGMA = 0.1
   ISPIN = 1
   EDIFF = 1.d-5
   EDIFFG = -0.01
   NSW = 0
   NELM = 150
   ENCUT = 500
   ISIF = 2
   IBRION = 2
   LREAL = Auto
   ALGO = Fast
   ICHARG = 11
   LORBIT = 10
   LCHARG = .F.
   LWAVE = .F.

 POTCAR:    PAW_PBE Cu 22Jun2005
 POTCAR:    PAW_PBE Pt 04Feb2005
 POTCAR:    PAW_PBE O 08Apr2002
 POTCAR:    PAW_PBE H 15Jun2001
|           W    W    AA    RRRRR   N    N  II  N    N   GGGG   !!!           |
|           W    W   A  A   R    R  NN   N  II  NN   N  G    G  !!!           |
|           W    W  A    A  R    R  N N  N  II  N N  N  G       !!!           |
|           W WW W  AAAAAA  RRRRR   N  N N  II  N  N N  G  GGG   !            |
|           WW  WW  A    A  R   R   N   NN  II  N   NN  G    G                |
|           W    W  A    A  R    R  N    N  II  N    N   GGGG   !!!           |
|     For optimal performance we recommend to set                             |
|       NCORE = 2 up to number-of-cores-per-socket                            |
|     This setting can greatly improve the performance of VASP for DFT.       |
|     The default, NCORE=1 might be grossly inefficient on modern             |
|     multi-core architectures or massively parallel machines. Do your        |
|     Unfortunately you need to use the default for GW and RPA                |
|     calculations (for HF NCORE is supported but not extensively tested      |
|     yet).                                                                   |

 POTCAR:    PAW_PBE Cu 22Jun2005
   VRHFIN =Cu: d10 p1

   TITEL  = PAW_PBE Cu 22Jun2005
   POMASS =   63.546; ZVAL   =   11.000    mass and valenz
   ENMAX  =  295.446; ENMIN  =  221.585 eV

 POTCAR:    PAW_PBE Pt 04Feb2005
   VRHFIN =Pt: s1d9

   TITEL  = PAW_PBE Pt 04Feb2005
   POMASS =  195.080; ZVAL   =   10.000    mass and valenz
   ENMAX  =  230.283; ENMIN  =  172.712 eV

 POTCAR:    PAW_PBE O 08Apr2002
   VRHFIN =O: s2p4

   TITEL  = PAW_PBE O 08Apr2002
   POMASS =   16.000; ZVAL   =    6.000    mass and valenz
   ENMAX  =  400.000; ENMIN  =  300.000 eV

 POTCAR:    PAW_PBE H 15Jun2001
   VRHFIN =H: ultrasoft test

   TITEL  = PAW_PBE H 15Jun2001
   POMASS =    1.000; ZVAL   =    1.000    mass and valenz
   ENMAX  =  250.000; ENMIN  =  200.000 eV

 Optimization of the real space projectors (new method)

 maximal supplied QI-value         = 16.25
 optimisation between [QCUT,QGAM] = [ 11.38, 22.75] = [ 36.24,144.96] Ry
 Optimized for a Real-space Cutoff    1.52 Angstroem

   l    n(q)    QCUT    max X(q) W(low)/X(q) W(high)/X(q)  e(spline)
   2      9    11.376     4.610    0.21E-03    0.10E-03    0.26E-06
   2      9    11.376     8.522    0.33E-03    0.16E-03    0.37E-06
   0     10    11.376    51.609    0.62E-04    0.20E-04    0.13E-06
   0     10    11.376    27.747    0.54E-04    0.20E-04    0.13E-06
   1     10    11.376    20.408    0.13E-04    0.99E-04    0.19E-06
   1     10    11.376    13.425    0.12E-04    0.87E-04    0.17E-06
 Optimization of the real space projectors (new method)

[...]

   l    n(q)    QCUT    max X(q) W(low)/X(q) W(high)/X(q)  e(spline)
   0      7    11.387    20.381    0.39E-03    0.13E-02    0.15E-06
   0      7    11.387    15.268    0.42E-03    0.14E-02    0.17E-06
   1      6    11.387     5.964    0.41E-03    0.11E-02    0.17E-06
   1      6    11.387     5.382    0.39E-03    0.87E-03    0.15E-06
 Optimization of the real space projectors (new method)

 maximal supplied QI-value         = 34.20
 optimisation between [QCUT,QGAM] = [ 11.29, 22.57] = [ 35.68,142.71] Ry
 Optimized for a Real-space Cutoff    1.16 Angstroem

   l    n(q)    QCUT    max X(q) W(low)/X(q) W(high)/X(q)  e(spline)
   0      8    11.287    19.460    0.40E-03    0.73E-03    0.16E-06
   0      8    11.287    12.209    0.38E-03    0.70E-03    0.15E-06
   1      7    11.287     4.655    0.22E-03    0.25E-04    0.22E-06
  PAW_PBE Cu 22Jun2005                  :
  PAW_PBE Pt 04Feb2005                  :
  PAW_PBE O 08Apr2002                   :
  PAW_PBE H 15Jun2001                   :

 POSCAR: Cu-Pt-OOH
  positions in direct lattice
  velocities in cartesian coordinates
 exchange correlation table for  LEXCH =        8
   RHO(1)=    0.500       N(1)  =     2000
   RHO(2)=  100.500       N(2)  =     4000

 VTST: version 3.2, (02/03/18)

 CHAIN: initializing optimizer

 OPT: Using VASP Conjugate-Gradient optimizer
 CHAIN: Read ICHAIN            0

 POSCAR: Cu-Pt-OOH
  positions in direct lattice
  velocities in cartesian coordinates

 ion  position               nearest neighbor table
   1  0.000  0.000  0.212-   7 2.57   3 2.57   4 2.57   2 2.57   6 2.57   8 2.57  12 2.57  10 2.57
                            16 2.57
   2  0.333  0.000  0.212-   8 2.57   9 2.57   5 2.57   1 2.57   3 2.57  11 2.57   4 2.57  10 2.57
                            17 2.57
   3  0.667  0.000  0.212-   1 2.57   7 2.57   6 2.57   9 2.57   2 2.57  12 2.57   5 2.57  18 2.57
                            11 2.57
   4  0.000  0.333  0.212-   5 2.57   6 2.57   1 2.57   7 2.57   2 2.57  13 2.57   9 2.57  10 2.57
                            15 2.57
   5  0.333  0.333  0.212-   4 2.57   2 2.57   7 2.57  13 2.57   8 2.57   6 2.57   3 2.57  11 2.57
                            14 2.57
   6  0.667  0.333  0.212-   4 2.57   9 2.57  15 2.57   3 2.57   1 2.57   8 2.57  14 2.57   5 2.57
                            12 2.57
   7  0.000  0.667  0.212-   1 2.57   3 2.57  16 2.57  18 2.57   4 2.57   5 2.57   8 2.57   9 2.57
                            13 2.57
   8  0.333  0.667  0.212-   9 2.57   2 2.57  17 2.57   6 2.57   1 2.57   7 2.57   5 2.57  14 2.57
                            16 2.57
   9  0.667  0.667  0.212-   8 2.57   6 2.57   2 2.57  17 2.57   3 2.57   7 2.57   4 2.57  15 2.57
                            18 2.57
  10  0.111  0.111  0.294-  20 2.53  26 2.56  19 2.56  11 2.57  12 2.57  13 2.57   1 2.57   2 2.57
                             4 2.57  15 2.57  16 2.57  17 2.57
  11  0.444  0.111  0.294-  20 2.55  21 2.55  27 2.56  10 2.57  13 2.57   2 2.57  17 2.57  14 2.57
                            12 2.57   5 2.57   3 2.57  18 2.57
  12  0.778  0.111  0.294-  21 2.53  19 2.56  25 2.56  15 2.57  10 2.57  14 2.57  18 2.57   3 2.57
                             1 2.57  16 2.57  11 2.57   6 2.57
  13  0.111  0.444  0.294-  23 2.55  20 2.55  22 2.56  16 2.57  18 2.57  10 2.57  11 2.57  14 2.57
                             5 2.57   4 2.57   7 2.57  15 2.57
  14  0.444  0.444  0.294-  21 2.55  23 2.55  24 2.56  15 2.57  17 2.57  12 2.57  16 2.57  13 2.57
                            11 2.57   6 2.57   8 2.57   5 2.57
  15  0.778  0.444  0.294-  19 2.56  24 2.56  22 2.56  14 2.57  17 2.57  12 2.57   6 2.57  18 2.57
                            10 2.57   9 2.57  13 2.57   4 2.57
  16  0.111  0.778  0.294-  23 2.53  25 2.56  26 2.56  18 2.57  13 2.57   7 2.57  14 2.57  17 2.57
                            12 2.57  10 2.57   8 2.57   1 2.57
  17  0.444  0.778  0.294-  26 2.56  27 2.56  24 2.56  14 2.57  15 2.57   8 2.57   9 2.57  11 2.57
                            16 2.57  18 2.57  10 2.57   2 2.57
  18  0.778  0.778  0.294-  25 2.56  22 2.56  27 2.56  16 2.57  13 2.57   7 2.57  15 2.57  12 2.57
                            17 2.57   9 2.57   3 2.57  11 2.57
  19  0.888  0.223  0.376-  28 2.54  32 2.55  31 2.55  21 2.55  20 2.55  15 2.56  12 2.56  10 2.56
                            22 2.56  24 2.56  25 2.58  26 2.58
  20  0.221  0.221  0.376-  10 2.53  11 2.55  13 2.55  26 2.55  19 2.55  27 2.57  22 2.57  29 2.59
                            31 2.59  36 2.60  23 2.60  21 2.60
  21  0.558  0.221  0.376-  12 2.53  14 2.55  11 2.55  19 2.55  25 2.55  24 2.57  27 2.57  32 2.59
                            30 2.59  36 2.60  20 2.60  23 2.60
  22  0.889  0.556  0.376-  35 2.54  18 2.56  15 2.56  13 2.56  19 2.56  25 2.56  24 2.56  27 2.56
                            31 2.57  33 2.57  23 2.57  20 2.57
  23  0.221  0.558  0.376-  16 2.53  13 2.55  14 2.55  25 2.55  26 2.55  22 2.57  24 2.57  33 2.59
                            34 2.59  36 2.60  20 2.60  21 2.60
  24  0.556  0.556  0.376-  35 2.54  15 2.56  17 2.56  14 2.56  19 2.56  26 2.56  22 2.56  27 2.56
                            32 2.57  34 2.57  21 2.57  23 2.57
  25  0.888  0.888  0.376-  28 2.54  33 2.55  30 2.55  21 2.55  23 2.55  18 2.56  16 2.56  12 2.56
                            22 2.56  27 2.56  19 2.58  26 2.58
  26  0.223  0.888  0.376-  28 2.54  29 2.55  34 2.55  20 2.55  23 2.55  17 2.56  10 2.56  16 2.56
                            27 2.56  24 2.56  25 2.58  19 2.58
  27  0.556  0.889  0.376-  35 2.54  17 2.56  18 2.56  11 2.56  26 2.56  25 2.56  24 2.56  22 2.56
                            29 2.57  30 2.57  20 2.57  21 2.57
  28  0.000  0.000  0.458-  25 2.54  19 2.54  26 2.54  33 2.55  30 2.55  31 2.55  29 2.55  32 2.55
                            34 2.55
  29  0.333  0.997  0.459-  34 2.52  26 2.55  28 2.55  35 2.56  27 2.57  31 2.59  20 2.59  36 2.59
                            30 2.59
  30  0.670  0.997  0.459-  33 2.52  25 2.55  28 2.55  35 2.56  27 2.57  32 2.59  21 2.59  36 2.59
                            29 2.59
  31  0.997  0.333  0.459-  38 2.26  32 2.52  19 2.55  28 2.55  35 2.56  22 2.57  29 2.59  20 2.59
                            36 2.59  33 2.59
  32  0.670  0.333  0.459-  31 2.52  19 2.55  28 2.55  35 2.56  24 2.57  30 2.59  21 2.59  36 2.59
                            34 2.59
  33  0.997  0.670  0.459-  30 2.52  25 2.55  28 2.55  35 2.56  22 2.57  34 2.59  23 2.59  36 2.59
                            31 2.59
  34  0.333  0.670  0.459-  29 2.52  26 2.55  28 2.55  35 2.56  24 2.57  33 2.59  23 2.59  36 2.59
                            32 2.59
  35  0.667  0.667  0.458-  24 2.54  27 2.54  22 2.54  34 2.56  32 2.56  29 2.56  30 2.56  33 2.56
                            31 2.56
  36  0.333  0.333  0.459-  37 2.08  31 2.59  29 2.59  33 2.59  34 2.59  32 2.59  30 2.59  23 2.60
                            20 2.60  21 2.60
  37  0.256  0.364  0.538-  38 1.49  36 2.08
  38  0.072  0.347  0.544-  39 0.98  37 1.49  31 2.26
  39  0.129  0.213  0.560-  38 0.98

  LATTYP: Found a hexagonal cell.
 ALAT       =     7.6967864036
 C/A-ratio  =     3.2973366172

  Lattice vectors:

 A1 = (  -3.8483927580,  -6.6656128093,   0.0000000000)
 A2 = (   7.6967864037,   0.0000000000,   0.0000000000)
 A3 = (   0.0000000000,   0.0000000000,  25.3788956434)

Analysis of symmetry for initial positions (statically):
 Subroutine PRICEL returns:
 Original cell was already a primitive cell.

 Routine SETGRP: Setting up the symmetry group for a
 hexagonal supercell.

 Subroutine GETGRP returns: Found  1 space group operations
 (whereof  1 operations were pure point group operations)
 out of a pool of 24 trial point group operations.

The static configuration has the point symmetry C_1 .

Analysis of symmetry for dynamics (positions and initial velocities):
 Subroutine PRICEL returns:
 Original cell was already a primitive cell.

[...]

The dynamic configuration has the point symmetry C_1 .

Analysis of constrained symmetry for selective dynamics:
 Subroutine PRICEL returns:
[...]
     41      -4.4805      2.00000
     42      -4.3802      2.00000
     43      -4.3545      2.00000
     44      -4.3159      2.00000
     45      -4.2760      2.00000
     46      -4.2662      2.00000
     47      -4.2399      2.00000
     48      -4.2182      2.00000
     49      -4.2105      2.00000
     50      -4.2022      2.00000
     51      -4.0700      2.00000
     52      -4.0579      2.00000
     53      -4.0312      2.00000
     54      -3.9831      2.00000
     55      -3.9698      2.00000
     56      -3.9394      2.00000
     57      -3.9163      2.00000
     58      -3.9129      2.00000
     59      -3.8926      2.00000
     60      -3.8879      2.00000
[...]
    238       5.1495      0.00000
    239       5.1826      0.00000
    240       5.3132      0.00000
    241       5.5331      0.00000
    242       5.5435      0.00000
    243       5.6302      0.00000
    244       5.6648      0.00000
    245       5.7955      0.00000
    246       5.8687      0.00000
    247       5.9292      0.00000
    248       6.0177      0.00000
    249       6.1159      0.00000
    250       6.3204      0.00000
    251       6.4814      0.00000
    252       6.8012      0.00000

 soft charge-density along one line, spin component           1
         0         1         2         3         4         5         6         7         8         9
 total charge-density along one line

------------------------ aborting loop because EDIFF is reached ----------------------------------------

 total charge

# of ion       s       p       d       tot
    1        0.446   0.286   9.188   9.920
    2        0.449   0.284   9.187   9.921
    3        0.449   0.286   9.185   9.920
    4        0.447   0.285   9.188   9.920
    5        0.447   0.287   9.182   9.916
    6        0.451   0.285   9.185   9.921
    7        0.449   0.285   9.187   9.921
    8        0.449   0.285   9.187   9.920
    9        0.446   0.284   9.190   9.920
   10        0.440   0.375   9.176   9.991
   11        0.444   0.368   9.183   9.995
   12        0.442   0.375   9.174   9.991
   13        0.443   0.369   9.183   9.995
   14        0.444   0.367   9.184   9.996
   15        0.439   0.371   9.181   9.991
   16        0.440   0.375   9.176   9.991
   17        0.437   0.372   9.180   9.989
   18        0.438   0.373   9.180   9.990
   19        0.442   0.378   9.178   9.999
   20        0.439   0.384   9.180  10.003
   21        0.448   0.386   9.171  10.004
   22        0.436   0.377   9.179   9.992
   23        0.442   0.384   9.177  10.003
   24        0.437   0.372   9.184   9.993
   25        0.443   0.375   9.181  10.000
   26        0.443   0.375   9.181   9.999
   27        0.438   0.371   9.186   9.995
   28        0.454   0.292   9.197   9.944
   29        0.450   0.296   9.199   9.945
   30        0.446   0.300   9.190   9.936
   31        0.426   0.328   9.184   9.937
   32        0.449   0.298   9.193   9.940
   33        0.442   0.291   9.203   9.936
   34        0.446   0.297   9.194   9.937
   35        0.448   0.293   9.197   9.939
   36        0.710   0.575   8.050   9.335
   37        1.602   3.217   0.000   4.818
   38        1.588   3.391   0.000   4.979
   39        0.613   0.113   0.000   0.726
tot         20.046  19.003 329.519 368.568

  FORCE on cell =-STRESS in cart. coord.  units (eV):
  Direction    XX          YY          ZZ          XY          YZ          ZX
  Alpha Z   774.22901   774.22901   774.22901
  Ewald  259986.00012259705.34866************    48.17684   -33.83315   -19.02642
  Hartree272833.56261272663.97666************    25.44261   -10.56138    18.70918
  E(xc)   -2354.27092 -2354.52797 -2358.43850     0.06463    -0.09956    -0.20031
  Local  ************************545696.53972   -67.59129    35.75155    -8.06446
  n-local  -789.00365  -798.70321  -814.38075     1.33232    -0.00339    -0.35372
  augment  3369.70261  3374.14389  3388.56757    -0.51565     0.37463     1.08571
  Kinetic  3524.79241  3556.86211  3578.13056    -6.66898     8.42947     7.81327
  Fock        0.00000     0.00000     0.00000     0.00000     0.00000     0.00000
  Total      -2.12577    -2.25147     1.71884     0.24048     0.05817    -0.03676
  in kB      -2.61580    -2.77048     2.11507     0.29592     0.07157    -0.04523

 VOLUME and BASIS-vectors are now :
  energy-cutoff  :      500.00
  volume of cell :     1302.03
      direct lattice vectors                 reciprocal lattice vectors
     7.696786404  0.000000000  0.000000000     0.129924354 -0.075011849  0.000000000
     3.848392758  6.665612809  0.000000000     0.000000000  0.150023716  0.000000000
     0.000000000  0.000000000 25.378895643     0.000000000  0.000000000  0.039402818

  length of vectors
     7.696786404  7.696786404 25.378895643     0.150023716  0.150023716  0.039402818

 FORCES acting on ions
    electron-ion (+dipol)            ewald-force                    non-local-force                 convergence-correction
   -.822E-01 0.148E+00 0.393E+04   -.103E+00 -.704E-01 -.392E+04   0.915E-01 -.523E-01 -.294E+01   0.658E-01 -.204E-01 -.839E+00
   -.100E+00 0.126E+00 0.393E+04   0.177E+00 -.108E+00 -.392E+04   -.257E-01 -.371E-01 -.196E+01   -.313E-01 0.320E-01 -.818E+00
   0.249E+00 -.142E+00 0.393E+04   -.738E-01 0.828E-01 -.392E+04   -.111E+00 0.243E-01 -.181E+01   -.625E-01 0.552E-01 -.752E+00
   -.606E-01 0.275E-01 0.393E+04   0.302E-02 0.497E-01 -.392E+04   -.435E-01 -.331E-01 -.226E+01   0.113E+00 -.433E-01 -.785E+00
   -.349E+00 0.329E-01 0.393E+04   0.218E+00 -.270E-01 -.392E+04   0.165E+00 -.354E-01 -.182E+01   -.215E-01 0.262E-01 -.574E+00
   0.382E+00 -.159E+00 0.393E+04   -.221E+00 0.556E-01 -.392E+04   -.107E+00 0.482E-01 -.174E+01   -.740E-01 0.451E-01 -.722E+00
   -.144E+00 -.127E-01 0.393E+04   0.441E-01 0.529E-01 -.392E+04   0.348E-01 0.352E-01 -.205E+01   0.746E-01 -.799E-01 -.795E+00
   0.138E-02 0.771E-01 0.393E+04   0.688E-01 -.132E+00 -.392E+04   -.539E-01 0.233E-01 -.191E+01   -.246E-01 0.123E-01 -.836E+00
   0.180E+00 -.999E-01 0.393E+04   -.113E+00 0.970E-01 -.392E+04   -.934E-02 0.175E-01 -.249E+01   -.633E-01 -.150E-01 -.848E+00
   0.258E+01 0.221E+01 0.141E+04   -.220E+01 -.218E+01 -.141E+04   -.381E+00 -.136E+00 -.981E+00   0.164E-01 0.111E+00 -.438E+00
   -.119E+01 -.106E+01 0.140E+04   0.117E+01 0.796E+00 -.140E+04   0.209E-02 0.339E-01 -.473E+00   0.631E-02 0.185E+00 -.381E+00
   -.149E+01 0.133E+01 0.141E+04   0.103E+01 -.112E+01 -.141E+04   0.462E+00 -.249E+00 -.110E+01   0.456E-02 0.519E-01 -.401E+00
   -.236E+01 0.401E+00 0.141E+04   0.206E+01 -.193E+00 -.140E+04   0.109E+00 -.631E-01 -.864E+00   0.165E+00 -.123E+00 -.435E+00
   0.846E+00 0.100E+01 0.140E+04   -.575E+00 -.716E+00 -.140E+04   -.121E+00 -.118E+00 -.412E+00   -.110E+00 -.150E+00 -.382E+00
   0.151E+01 -.623E+00 0.141E+04   -.148E+01 0.496E+00 -.141E+04   -.264E-01 0.116E+00 -.857E+00   -.141E-01 0.650E-02 -.489E+00
   -.197E+00 -.269E+01 0.141E+04   0.312E+00 0.227E+01 -.141E+04   -.508E-01 0.436E+00 -.847E+00   -.510E-01 -.379E-01 -.423E+00
   -.118E+00 0.460E+00 0.141E+04   0.161E-01 -.433E+00 -.140E+04   0.739E-01 -.219E-01 -.675E+00   -.538E-02 0.101E-01 -.562E+00
   0.364E+00 -.100E+01 0.141E+04   -.328E+00 0.107E+01 -.140E+04   -.358E-01 -.372E-01 -.732E+00   0.141E-01 -.374E-01 -.512E+00
   0.103E+02 0.433E+01 -.113E+04   -.103E+02 -.427E+01 0.113E+04   0.390E-01 0.223E-01 0.567E+00   -.223E-01 -.656E-01 0.229E+00
   -.300E+02 -.741E+01 -.113E+04   0.301E+02 0.740E+01 0.113E+04   -.209E+00 -.525E-01 0.133E+00   0.206E+00 0.106E+00 0.399E+00
   0.194E+02 -.120E+02 -.115E+04   -.203E+02 0.125E+02 0.115E+04   0.914E+00 -.552E+00 -.652E+00   -.181E+00 0.117E+00 0.431E+00
   -.813E+01 -.123E+01 -.113E+04   0.775E+01 0.141E+01 0.113E+04   0.239E+00 -.121E+00 0.765E+00   0.139E+00 -.847E-01 0.268E+00
   -.848E+01 0.237E+02 -.114E+04   0.859E+01 -.239E+02 0.114E+04   -.109E+00 0.419E+00 0.107E+00   0.219E-01 -.271E+00 0.458E+00
   0.172E+02 0.685E+01 -.115E+04   -.166E+02 -.633E+01 0.115E+04   -.444E+00 -.352E+00 0.101E+01   -.174E+00 -.184E+00 0.271E+00
   0.454E+00 -.469E+01 -.114E+04   -.556E+00 0.470E+01 0.114E+04   0.337E-01 -.871E-01 0.809E+00   0.840E-01 0.558E-01 0.252E+00
   0.107E+01 0.542E+01 -.114E+04   -.101E+01 -.548E+01 0.114E+04   0.266E-01 0.465E-01 0.889E+00   -.930E-01 0.275E-01 0.287E+00
   -.158E+01 -.150E+02 -.115E+04   0.158E+01 0.141E+02 0.115E+04   -.407E-01 0.613E+00 0.103E+01   0.413E-01 0.292E+00 0.262E+00
   0.265E+02 0.215E+02 -.368E+04   -.266E+02 -.216E+02 0.368E+04   0.332E-01 0.629E-01 0.207E+01   0.629E-01 -.162E-01 0.738E+00
   -.272E+02 0.472E+02 -.366E+04   0.269E+02 -.490E+02 0.366E+04   0.247E+00 0.118E+01 0.254E+01   0.521E-01 0.294E+00 0.719E+00
   0.105E+01 -.183E+02 -.371E+04   -.562E+00 0.171E+02 0.370E+04   -.325E+00 0.804E+00 0.187E+01   -.977E-01 0.291E+00 0.593E+00
   0.574E+02 0.609E+01 -.352E+04   -.598E+02 -.599E+01 0.352E+04   0.177E+01 -.346E-01 0.414E+01   0.341E+00 -.103E+00 0.706E+00
   0.469E+02 0.997E+00 -.370E+04   -.460E+02 -.796E+00 0.369E+04   -.466E+00 -.169E+00 0.209E+01   -.314E+00 -.291E-01 0.537E+00
   -.175E+02 -.573E+02 -.365E+04   0.165E+02 0.593E+02 0.364E+04   0.792E+00 -.144E+01 0.351E+01   0.216E+00 -.233E+00 0.691E+00
   -.105E+02 0.129E+02 -.370E+04   0.115E+02 -.119E+02 0.370E+04   -.728E+00 -.606E+00 0.227E+01   -.175E+00 -.221E+00 0.672E+00
   0.289E+02 -.267E+02 -.368E+04   -.289E+02 0.269E+02 0.368E+04   -.103E-01 -.108E+00 0.265E+01   -.504E-01 -.176E-01 0.725E+00
   -.970E+02 0.178E+02 -.316E+04   0.976E+02 -.181E+02 0.316E+04   -.458E+00 0.255E+00 0.170E+01   -.198E-01 0.178E-01 0.452E+00
   -.203E+03 -.244E+02 -.242E+04   0.231E+03 0.304E+02 0.244E+04   -.281E+02 -.602E+01 -.164E+02   -.538E-02 -.346E-01 -.112E+00
   0.176E+03 -.295E+02 -.242E+04   -.198E+03 0.642E+02 0.242E+04   0.226E+02 -.347E+02 0.667E+01   0.169E+00 -.226E-01 0.431E-01
   0.221E+02 0.834E+02 -.424E+03   -.228E+02 -.908E+02 0.427E+03   0.690E+00 0.736E+01 -.348E+01   0.142E-01 0.144E-01 0.277E-02
   0.334E+01 0.336E+02 0.139E+02   -.114E-12 0.313E-12 -.113E-10   -.355E+01 -.335E+02 -.117E+02   0.216E+00 -.379E-01 -.237E+01

 POSITION                                       TOTAL-FORCE (eV/Angst)
      0.00000      0.00000      5.37156        -0.027755      0.004419      0.075465
      2.56560      0.00000      5.37156         0.019473      0.011876      0.100980
      5.13119      0.00000      5.37156         0.001427      0.019414      0.097905
      1.28280      2.22187      5.37156         0.011692      0.000341      0.093118
      3.84839      2.22187      5.37156         0.012380     -0.003708      0.067971
      6.41399      2.22187      5.37156        -0.020652     -0.010943      0.084073
      2.56560      4.44374      5.37156         0.009162     -0.004989      0.092546
      5.13119      4.44374      5.37156        -0.008248     -0.020224      0.102663
      7.69679      4.44374      5.37156        -0.005295     -0.000879      0.057894
      1.28280      0.74062      7.46636         0.020165      0.002286     -0.101936
      3.84839      0.74062      7.46636        -0.012587     -0.048570     -0.120270
      6.41399      0.74062      7.46636         0.005382      0.011522     -0.075601
      2.56560      2.96249      7.46636        -0.031325      0.021641     -0.155093
      5.13119      2.96249      7.46636         0.039981      0.021167     -0.121842
      7.69679      2.96249      7.46636        -0.013311     -0.004786     -0.085470
      3.84839      5.18437      7.46636         0.013008     -0.021524     -0.074715
      6.41399      5.18437      7.46636        -0.032943      0.014514     -0.035922
      8.97958      5.18437      7.46636         0.014258     -0.003474     -0.053967
      7.69679      1.48680      9.55287         0.065455      0.016442      0.031810
      2.54973      1.47208      9.52995         0.050125      0.039184     -0.087852
      5.14706      1.47208      9.52995        -0.113031      0.066058      0.004995
      8.97744      3.70436      9.55084        -0.002033     -0.027912      0.045890
      3.84839      3.72144      9.52995         0.026040     -0.123288     -0.047988
      6.41613      3.70436      9.55084        -0.016893     -0.019877      0.000294
     10.25757      5.92221      9.55287         0.016017     -0.020597     -0.022353
      5.13600      5.92221      9.55287        -0.004865      0.013141      0.003397
      7.69679      5.92251      9.55084         0.001152      0.020751     -0.025189
      0.00000      0.00000     11.61595        -0.038891     -0.052106     -0.043356
      6.40108      6.64688     11.64473        -0.020733     -0.279693     -0.178765
      8.99249      6.64688     11.64473         0.065834     -0.089351     -0.043645
      8.95691      2.22006     11.64473        -0.254268     -0.033505      0.224413
      6.43666      2.22006     11.64473         0.055143      0.002384     -0.061689
     10.25261      4.46428     11.64473        -0.034964      0.295885     -0.148739
      5.14096      4.46428     11.64473         0.135357      0.130453     -0.050486
      7.69679      4.44374     11.61500        -0.064667      0.071699     -0.032029
      3.84839      2.22187     11.65010         0.126966      0.005579      0.557808
      3.37099      2.42396     13.66249        -0.001840     -0.005364     -0.081524
      1.88932      2.31116     13.81406         0.021665      0.008512      0.002167
      1.81302      1.42055     14.22415        -0.006383     -0.006480      0.005040
    total drift:                               -0.001128      0.019058     -0.120438

  FREE ENERGIE OF THE ION-ELECTRON SYSTEM (eV)
  free  energy   TOTEN  =      -143.19684890 eV

  energy  without entropy=     -143.19684890  energy(sigma->0) =     -143.19684890

 stress matrix after NEB project (eV)
     -2.12577      0.24048     -0.03676
      0.24048     -2.25147      0.05817
     -0.03676      0.05817      1.71884
  FORCES: max atom, RMS     0.081721    0.013712
  FORCE total and by dimension    0.085633    0.081524
  Stress total and by dimension    3.559153    2.251470
|           W    W    AA    RRRRR   N    N  II  N    N   GGGG   !!!           |
|           W    W   A  A   R    R  NN   N  II  NN   N  G    G  !!!           |
|           W    W  A    A  R    R  N N  N  II  N N  N  G       !!!           |
|           W WW W  AAAAAA  RRRRR   N  N N  II  N  N N  G  GGG   !            |
|           WW  WW  A    A  R   R   N   NN  II  N   NN  G    G                |
|           W    W  A    A  R    R  N    N  II  N    N   GGGG   !!!           |
|     Tetrahedron method does not include variations of the Fermi             |
|     occupations, so forces and stress will be inaccurate. We suggest        |
|     using a different smearing scheme ISMEAR = 1 or 2 for metals in         |
|     relaxations.                                                            |

 total charge

# of ion       s       p       d       tot
    1        0.446   0.286   9.188   9.920
    2        0.449   0.284   9.187   9.921
    3        0.449   0.286   9.185   9.920
    4        0.447   0.285   9.188   9.920
    5        0.447   0.287   9.182   9.916
    6        0.451   0.285   9.185   9.921
    7        0.449   0.285   9.187   9.921
    8        0.449   0.285   9.187   9.920
    9        0.446   0.284   9.190   9.920
   10        0.440   0.375   9.176   9.991
   11        0.444   0.368   9.183   9.995
   12        0.442   0.375   9.174   9.991
   13        0.443   0.369   9.183   9.995
   14        0.444   0.367   9.184   9.996
   15        0.439   0.371   9.181   9.991
   16        0.440   0.375   9.176   9.991
   17        0.437   0.372   9.180   9.989
   18        0.438   0.373   9.180   9.990
   19        0.442   0.378   9.178   9.999
   20        0.439   0.384   9.180  10.003
   21        0.448   0.386   9.171  10.004
   22        0.436   0.377   9.179   9.992
   23        0.442   0.384   9.177  10.003
   24        0.437   0.372   9.184   9.993
   25        0.443   0.375   9.181  10.000
   26        0.443   0.375   9.181   9.999
   27        0.438   0.371   9.186   9.995
   28        0.454   0.292   9.197   9.944
   29        0.450   0.296   9.199   9.945
   30        0.446   0.300   9.190   9.936
   31        0.426   0.328   9.184   9.937
   32        0.449   0.298   9.193   9.940
   33        0.442   0.291   9.203   9.936
   34        0.446   0.297   9.194   9.937
   35        0.448   0.293   9.197   9.939
   36        0.710   0.575   8.050   9.335
   37        1.602   3.217   0.000   4.818
   38        1.588   3.391   0.000   4.979
   39        0.613   0.113   0.000   0.726
tot         20.046  19.003 329.519 368.568

 BZINTS: Fermi energy:   -0.565797;  408.000000 electrons
         Band energy:-0.145847E+04;  BLOECHL correction:   -0.051889