 vasp.6.2.0 18Jan21 (build Jun 12 2021 23:27:24) complex

 executed on             LinuxIFC date 2022.05.26  19:27:24

 INCAR:
   ISMEAR = -5
   SIGMA = 0.1
   ISPIN = 1
   EDIFF = 1.d-5
   EDIFFG = -0.01
   NSW = 0
   NELM = 150
   ENCUT = 500
   ISIF = 2
   IBRION = 2
   LREAL = Auto
   ALGO = Fast
   ICHARG = 11
   LORBIT = 10
   LCHARG = .F.
   LWAVE = .F.

 POTCAR:    PAW_PBE Au 04Oct2007
 POTCAR:    PAW_PBE Ru 04Feb2005
 POTCAR:    PAW_PBE N 08Apr2002
|           W    W    AA    RRRRR   N    N  II  N    N   GGGG   !!!           |
|           W    W   A  A   R    R  NN   N  II  NN   N  G    G  !!!           |
|           W    W  A    A  R    R  N N  N  II  N N  N  G       !!!           |
|           W WW W  AAAAAA  RRRRR   N  N N  II  N  N N  G  GGG   !            |
|           WW  WW  A    A  R   R   N   NN  II  N   NN  G    G                |
|           W    W  A    A  R    R  N    N  II  N    N   GGGG   !!!           |
|     For optimal performance we recommend to set                             |
|       NCORE = 2 up to number-of-cores-per-socket                            |
|     This setting can greatly improve the performance of VASP for DFT.       |
|     The default, NCORE=1 might be grossly inefficient on modern             |
|     multi-core architectures or massively parallel machines. Do your        |
|     Unfortunately you need to use the default for GW and RPA                |
|     calculations (for HF NCORE is supported but not extensively tested      |
|     yet).                                                                   |

 POTCAR:    PAW_PBE Au 04Oct2007
   VRHFIN =Au: s1d10

   TITEL  = PAW_PBE Au 04Oct2007
   POMASS =  196.966; ZVAL   =   11.000    mass and valenz
   ENMAX  =  229.943; ENMIN  =  172.457 eV

 POTCAR:    PAW_PBE Ru 04Feb2005
   VRHFIN =Ru: s1 d7

   TITEL  = PAW_PBE Ru 04Feb2005
   POMASS =  101.070; ZVAL   =    8.000    mass and valenz
   ENMAX  =  213.271; ENMIN  =  159.953 eV

 POTCAR:    PAW_PBE N 08Apr2002
   VRHFIN =N: s2p3

   TITEL  = PAW_PBE N 08Apr2002
   POMASS =   14.001; ZVAL   =    5.000    mass and valenz
   ENMAX  =  400.000; ENMIN  =  300.000 eV

 Optimization of the real space projectors (new method)

 maximal supplied QI-value         = 15.12
 optimisation between [QCUT,QGAM] = [ 11.34, 22.83] = [ 36.00,145.93] Ry
 Optimized for a Real-space Cutoff    1.39 Angstroem

   l    n(q)    QCUT    max X(q) W(low)/X(q) W(high)/X(q)  e(spline)
   2      9    11.338    60.898    0.39E-03    0.42E-03    0.21E-06
   2      9    11.338    58.894    0.40E-03    0.42E-03    0.22E-06
   0      9    11.338   109.617    0.13E-03    0.20E-04    0.13E-06
   0      9    11.338    75.026    0.13E-03    0.20E-04    0.13E-06
   1      9    11.338    16.344    0.33E-04    0.24E-03    0.18E-06
   1      9    11.338    10.160    0.26E-04    0.19E-03    0.15E-06
 Optimization of the real space projectors (new method)

[...]

   l    n(q)    QCUT    max X(q) W(low)/X(q) W(high)/X(q)  e(spline)
   2      9    11.327    61.733    0.26E-03    0.14E-03    0.16E-06
   2      9    11.327    59.886    0.26E-03    0.14E-03    0.17E-06
   0     10    11.327    23.358    0.19E-03    0.14E-04    0.46E-06
   0     10    11.327    11.320    0.15E-03    0.11E-04    0.37E-06
   1     10    11.327    14.765    0.49E-04    0.26E-03    0.24E-06
   1     10    11.327     8.283    0.37E-04    0.20E-03    0.18E-06
 Optimization of the real space projectors (new method)

 maximal supplied QI-value         = 25.13
 optimisation between [QCUT,QGAM] = [ 11.31, 22.87] = [ 35.82,146.48] Ry
 Optimized for a Real-space Cutoff    1.27 Angstroem

   l    n(q)    QCUT    max X(q) W(low)/X(q) W(high)/X(q)  e(spline)
   0      9    11.310    79.467    0.75E-04    0.16E-03    0.36E-06
   0      9    11.310    66.151    0.74E-04    0.16E-03    0.36E-06
   1      8    11.310    17.416    0.35E-03    0.12E-03    0.95E-06
   1      8    11.310    12.382    0.37E-03    0.13E-03    0.98E-06
  PAW_PBE Au 04Oct2007                  :
  PAW_PBE Ru 04Feb2005                  :
  PAW_PBE N 08Apr2002                   :

 POSCAR: Au-Ru-N
  positions in direct lattice
  velocities in cartesian coordinates
 exchange correlation table for  LEXCH =        8
   RHO(1)=    0.500       N(1)  =     2000
   RHO(2)=  100.500       N(2)  =     4000

 VTST: version 3.2, (02/03/18)

 CHAIN: initializing optimizer

 OPT: Using VASP Conjugate-Gradient optimizer
 CHAIN: Read ICHAIN            0

 POSCAR: Au-Ru-N
  positions in direct lattice
  velocities in cartesian coordinates

 ion  position               nearest neighbor table
   1  0.000  0.000  0.238-  16 2.94  12 2.94   6 2.94   8 2.94   7 2.94   3 2.94  10 2.94   4 2.94
                             2 2.94
   2  0.333  0.000  0.238-   9 2.94  11 2.94  17 2.94  10 2.94   8 2.94   4 2.94   5 2.94   1 2.94
                             3 2.94
   3  0.667  0.000  0.238-   7 2.94  18 2.94  12 2.94   1 2.94  11 2.94   5 2.94   6 2.94   9 2.94
                             2 2.94
   4  0.000  0.333  0.238-  10 2.94   6 2.94   5 2.94  13 2.94   2 2.94  15 2.94   9 2.94   1 2.94
                             7 2.94
   5  0.333  0.333  0.238-  13 2.94   7 2.94  11 2.94   4 2.94   2 2.94  14 2.94   3 2.94   8 2.94
                             6 2.94
   6  0.667  0.333  0.238-  15 2.94  14 2.94   1 2.94  12 2.94   4 2.94   9 2.94   8 2.94   3 2.94
                             5 2.94
   7  0.000  0.667  0.238-  18 2.94   3 2.94  16 2.94   5 2.94   1 2.94  13 2.94   8 2.94   4 2.94
                             9 2.94
   8  0.333  0.667  0.238-   9 2.94  17 2.94   1 2.94   2 2.94  14 2.94  16 2.94   6 2.94   7 2.94
                             5 2.94
   9  0.667  0.667  0.238-   2 2.94   8 2.94  17 2.94   6 2.94  15 2.94   4 2.94   3 2.94  18 2.94
                             7 2.94
  10  0.111  0.111  0.346-  20 2.91  26 2.94  19 2.94  11 2.94  17 2.94   2 2.94   4 2.94   1 2.94
                            12 2.94  16 2.94  13 2.94  15 2.94
  11  0.444  0.111  0.346-  20 2.91  21 2.91  27 2.94  13 2.94   2 2.94  10 2.94  17 2.94   5 2.94
                             3 2.94  18 2.94  14 2.94  12 2.94
  12  0.778  0.111  0.346-  21 2.91  25 2.94  19 2.94  16 2.94  18 2.94   1 2.94  14 2.94  15 2.94
                             3 2.94   6 2.94  10 2.94  11 2.94
  13  0.111  0.444  0.346-  23 2.91  20 2.91  22 2.94   5 2.94  18 2.94  11 2.94   7 2.94   4 2.94
                            16 2.94  10 2.94  14 2.94  15 2.94
  14  0.444  0.444  0.346-  21 2.91  23 2.91  24 2.94  15 2.94   6 2.94  12 2.94   8 2.94  17 2.94
                             5 2.94  16 2.94  13 2.94  11 2.94
  15  0.778  0.444  0.346-  24 2.92  22 2.92  19 2.94  14 2.94   6 2.94  17 2.94  12 2.94   9 2.94
                             4 2.94  10 2.94  13 2.94  18 2.94
  16  0.111  0.778  0.346-  23 2.91  25 2.94  26 2.94  18 2.94  12 2.94   7 2.94   1 2.94   8 2.94
                            13 2.94  10 2.94  14 2.94  17 2.94
  17  0.444  0.778  0.346-  27 2.92  24 2.92  26 2.94   9 2.94  15 2.94   2 2.94  10 2.94  11 2.94
                             8 2.94  14 2.94  16 2.94  18 2.94
  18  0.778  0.778  0.346-  22 2.92  27 2.92  25 2.94  16 2.94   7 2.94  13 2.94  12 2.94   3 2.94
                            11 2.94   9 2.94  15 2.94  17 2.94
  19  0.889  0.222  0.454-  15 2.94  10 2.94  12 2.94  24 2.94  22 2.94  26 2.94  25 2.94  21 2.94
                            20 2.94  28 2.95  32 2.97  31 2.97
  20  0.223  0.223  0.452-  36 2.78  11 2.91  13 2.91  10 2.91  23 2.93  21 2.93  29 2.94  31 2.94
                            26 2.94  19 2.94  27 2.95  22 2.95
  21  0.555  0.223  0.452-  36 2.78  14 2.91  11 2.91  12 2.91  20 2.93  23 2.93  30 2.94  32 2.94
                            25 2.94  19 2.94  27 2.95  24 2.95
  22  0.887  0.557  0.453-  24 2.91  27 2.91  18 2.92  15 2.92  13 2.94  25 2.94  19 2.94  23 2.95
                            20 2.95  35 2.96  33 2.96  31 2.96
  23  0.223  0.555  0.452-  36 2.78  13 2.91  14 2.91  16 2.91  20 2.93  21 2.93  33 2.94  34 2.94
                            25 2.94  26 2.94  22 2.95  24 2.95
  24  0.557  0.557  0.453-  27 2.91  22 2.91  15 2.92  17 2.92  14 2.94  26 2.94  19 2.94  21 2.95
                            23 2.95  35 2.96  32 2.96  34 2.96
  25  0.889  0.889  0.454-  18 2.94  16 2.94  12 2.94  22 2.94  27 2.94  19 2.94  26 2.94  23 2.94
                            21 2.94  28 2.95  33 2.97  30 2.97
  26  0.222  0.889  0.454-  17 2.94  10 2.94  16 2.94  27 2.94  24 2.94  19 2.94  25 2.94  20 2.94
                            23 2.94  28 2.95  29 2.97  34 2.97
  27  0.557  0.887  0.453-  24 2.91  22 2.91  17 2.92  18 2.92  11 2.94  26 2.94  25 2.94  20 2.95
                            21 2.95  35 2.96  29 2.96  30 2.96
  28  0.000  0.000  0.563-  25 2.95  19 2.95  26 2.95  34 2.97  32 2.97  33 2.97  30 2.97  31 2.97
                            29 2.97
  29  0.333  0.007  0.562-  31 2.88  30 2.88  36 2.89  20 2.94  27 2.96  28 2.97  35 2.97  26 2.97
                            34 3.05
  30  0.660  0.007  0.562-  32 2.88  29 2.88  36 2.89  21 2.94  27 2.96  28 2.97  35 2.97  25 2.97
                            33 3.05
  31  0.007  0.333  0.562-  29 2.88  33 2.88  36 2.89  20 2.94  22 2.96  28 2.97  35 2.97  19 2.97
                            32 3.05
  32  0.660  0.333  0.562-  30 2.88  34 2.88  36 2.89  21 2.94  24 2.96  28 2.97  35 2.97  19 2.97
                            31 3.05
  33  0.007  0.660  0.562-  34 2.88  31 2.88  36 2.89  23 2.94  22 2.96  28 2.97  35 2.97  25 2.97
                            30 3.05
  34  0.333  0.660  0.562-  33 2.88  32 2.88  36 2.89  23 2.94  24 2.96  28 2.97  35 2.97  26 2.97
                            29 3.05
  35  0.667  0.667  0.563-  24 2.96  27 2.96  22 2.96  29 2.97  34 2.97  32 2.97  31 2.97  30 2.97
                            33 2.97
  36  0.333  0.333  0.552-  37 1.64  20 2.78  23 2.78  21 2.78  33 2.89  31 2.89  29 2.89  30 2.89
                            34 2.89  32 2.89
  37  0.333  0.333  0.625-  36 1.64

  LATTYP: Found a hexagonal cell.
 ALAT       =     8.8135128021
 C/A-ratio  =     2.5184286595

  Lattice vectors:

 A1 = (  -4.4067569092,  -7.6327256898,   0.0000000000)
 A2 = (   8.8135128021,   0.0000000000,   0.0000000000)
 A3 = (   0.0000000000,   0.0000000000,  22.1962032318)

Analysis of symmetry for initial positions (statically):
 Subroutine PRICEL returns:
 Original cell was already a primitive cell.

 Routine SETGRP: Setting up the symmetry group for a
 hexagonal supercell.

 Subroutine GETGRP returns: Found  6 space group operations
 (whereof  6 operations were pure point group operations)
 out of a pool of 24 trial point group operations.

The static configuration has the point symmetry C_3v.

Analysis of symmetry for dynamics (positions and initial velocities):
 Subroutine PRICEL returns:
 Original cell was already a primitive cell.

[...]

The dynamic configuration has the point symmetry C_3v.

Analysis of constrained symmetry for selective dynamics:
 Subroutine PRICEL returns:
 Original cell was already a primitive cell.

 Routine SETGRP: Setting up the symmetry group for a
 hexagonal supercell.

 Subroutine GETGRP returns: Found  6 space group operations
[...]
     24      -5.0332      2.00000
     25      -5.0080      2.00000
     26      -4.9902      2.00000
     27      -4.9473      2.00000
     28      -4.8698      2.00000
     29      -4.8576      2.00000
     30      -4.7508      2.00000
     31      -4.7333      2.00000
     32      -4.6996      2.00000
     33      -4.6966      2.00000
     34      -4.6920      2.00000
     35      -4.6699      2.00000
     36      -4.5837      2.00000
     37      -4.5720      2.00000
     38      -4.5190      2.00000
     39      -4.4960      2.00000
     40      -4.4779      2.00000
     41      -4.4594      2.00000
     42      -4.4218      2.00000
     43      -4.3466      2.00000
     44      -4.3311      2.00000
     45      -4.2456      2.00000
     46      -4.2182      2.00000
     47      -4.1575      2.00000
     48      -4.1481      2.00000
     49      -4.1182      2.00000
     50      -4.0863      2.00000
     51      -4.0811      2.00000
     52      -4.0696      2.00000
     53      -4.0370      2.00000
     54      -4.0245      2.00000
     55      -4.0093      2.00000
     56      -3.9481      2.00000
     57      -3.9349      2.00000
     58      -3.9244      2.00000
     59      -3.9032      2.00000
     60      -3.8954      2.00000
[...]
    238       6.5290      0.00000
    239       6.5758      0.00000
    240       6.6024      0.00000
    241       6.7439      0.00000
    242       6.8512      0.00000
    243       6.8863      0.00000
    244       6.9201      0.00000
    245       6.9365      0.00000
    246       7.2555      0.00000
    247       7.2977      0.00000
    248       7.3950      0.00000
    249       7.6150      0.00000
    250       7.6879      0.00000
    251       7.8253      0.00000
    252       7.8464      0.00000

 soft charge-density along one line, spin component           1
         0         1         2         3         4         5         6         7         8         9
 total charge-density along one line

------------------------ aborting loop because EDIFF is reached ----------------------------------------

 total charge

# of ion       s       p       d       tot
    1        0.547   0.239   8.766   9.552
    2        0.543   0.241   8.765   9.549
    3        0.543   0.241   8.765   9.549
    4        0.543   0.241   8.765   9.549
    5        0.545   0.240   8.764   9.549
    6        0.543   0.241   8.765   9.549
    7        0.543   0.241   8.765   9.549
    8        0.543   0.241   8.765   9.549
    9        0.542   0.241   8.765   9.548
   10        0.521   0.308   8.772   9.601
   11        0.517   0.311   8.775   9.604
   12        0.521   0.308   8.772   9.601
   13        0.517   0.311   8.775   9.604
   14        0.517   0.311   8.775   9.604
   15        0.515   0.310   8.772   9.597
   16        0.521   0.308   8.772   9.601
   17        0.515   0.310   8.772   9.597
   18        0.515   0.310   8.772   9.597
   19        0.518   0.300   8.777   9.596
   20        0.549   0.332   8.750   9.632
   21        0.549   0.332   8.750   9.632
   22        0.510   0.311   8.772   9.594
   23        0.549   0.332   8.750   9.632
   24        0.510   0.311   8.772   9.594
   25        0.518   0.300   8.777   9.596
   26        0.518   0.300   8.777   9.596
   27        0.510   0.311   8.772   9.594
   28        0.545   0.226   8.769   9.539
   29        0.542   0.242   8.769   9.554
   30        0.542   0.242   8.769   9.554
   31        0.542   0.242   8.769   9.554
   32        0.542   0.242   8.769   9.554
   33        0.542   0.242   8.769   9.554
   34        0.542   0.242   8.769   9.554
   35        0.540   0.225   8.772   9.538
   36        0.599   0.768   6.896   8.262
   37        1.366   2.177   0.000   3.543
tot         20.588  12.635 313.791 347.014

  FORCE on cell =-STRESS in cart. coord.  units (eV):
  Direction    XX          YY          ZZ          XY          YZ          ZX
  Alpha Z  1008.90364  1008.90364  1008.90364
  Ewald  119566.75710119566.75752************    -0.00032    -0.00009    -0.00013
  Hartree128266.92231128266.92232************     0.00000    -0.00002    -0.00003
  E(xc)   -1786.72665 -1786.72664 -1793.50260    -0.00001     0.00000     0.00000
  Local  ************************260337.06236     0.00196     0.00002     0.00000
  n-local   -78.24951   -28.37877   -17.87116    24.71563    -1.43621     1.61682
  augment  2417.13004  2417.13160  2418.31854    -0.00136     0.00001     0.00006
  Kinetic  5539.55121  5548.78004  5563.00458     5.23117     0.26689     0.29602
  Fock        0.00000     0.00000     0.00000     0.00000     0.00000     0.00000
  Total     -17.14194   -17.14194     2.45159    -0.00000     0.00000     0.00000
  in kB     -18.39345   -18.39345     2.63057    -0.00000     0.00000     0.00000

 VOLUME and BASIS-vectors are now :
  energy-cutoff  :      500.00
  volume of cell :     1493.16
      direct lattice vectors                 reciprocal lattice vectors
     8.813512802  0.000000000  0.000000000     0.113462137 -0.065507406  0.000000000
     4.406756909  7.632725690  0.000000000     0.000000000  0.131014796  0.000000000
     0.000000000  0.000000000 22.196203232     0.000000000  0.000000000  0.045052750

  length of vectors
     8.813512802  8.813512802 22.196203232     0.131014796  0.131014796  0.045052750

 FORCES acting on ions
    electron-ion (+dipol)            ewald-force                    non-local-force                 convergence-correction
   -.195E-04 -.162E-04 0.249E+04   0.519E-04 0.434E-04 -.249E+04   -.368E-17 -.291E-17 -.595E+00   -.182E-03 -.118E-03 -.296E+00
   0.396E+00 0.290E+00 0.249E+04   -.482E+00 -.352E+00 -.249E+04   0.893E-02 0.441E-01 -.372E+00   0.767E-01 0.193E-01 -.323E+00
   -.396E+00 0.290E+00 0.249E+04   0.482E+00 -.352E+00 -.249E+04   -.893E-02 0.441E-01 -.372E+00   -.765E-01 0.212E-01 -.323E+00
   0.449E+00 0.198E+00 0.249E+04   -.545E+00 -.241E+00 -.249E+04   0.427E-01 -.143E-01 -.372E+00   0.551E-01 0.567E-01 -.323E+00
   0.861E-05 -.233E-04 0.249E+04   0.951E-04 0.173E-05 -.249E+04   0.320E-17 0.113E-17 -.338E+00   0.424E-02 0.258E-02 -.297E+00
   -.449E+00 0.198E+00 0.249E+04   0.545E+00 -.241E+00 -.249E+04   -.427E-01 -.143E-01 -.372E+00   -.567E-01 0.577E-01 -.322E+00
   0.529E-01 -.488E+00 0.249E+04   -.638E-01 0.593E+00 -.249E+04   0.337E-01 -.298E-01 -.372E+00   -.198E-01 -.768E-01 -.323E+00
   -.529E-01 -.488E+00 0.249E+04   0.637E-01 0.593E+00 -.249E+04   -.337E-01 -.298E-01 -.372E+00   0.216E-01 -.779E-01 -.322E+00
   0.194E-04 -.416E-04 0.249E+04   0.166E-03 -.201E-04 -.249E+04   -.685E-18 0.125E-17 -.430E+00   -.461E-02 -.238E-02 -.259E+00
   0.456E+01 0.263E+01 0.841E+03   -.441E+01 -.254E+01 -.840E+03   -.228E+00 -.131E+00 -.514E+00   0.532E-01 0.306E-01 -.181E+00
   0.141E-04 0.469E+01 0.847E+03   0.148E-03 -.479E+01 -.846E+03   0.394E-08 0.591E-01 -.378E+00   0.364E-02 -.174E-01 -.163E+00
   -.456E+01 0.263E+01 0.841E+03   0.441E+01 -.254E+01 -.840E+03   0.228E+00 -.131E+00 -.514E+00   -.543E-01 0.317E-01 -.182E+00
   0.407E+01 -.235E+01 0.847E+03   -.415E+01 0.239E+01 -.846E+03   0.512E-01 -.296E-01 -.378E+00   -.129E-01 0.121E-01 -.163E+00
   -.407E+01 -.235E+01 0.847E+03   0.415E+01 0.239E+01 -.846E+03   -.512E-01 -.296E-01 -.378E+00   0.203E-01 0.116E-01 -.164E+00
   0.311E-04 0.265E+01 0.843E+03   0.236E-03 -.278E+01 -.842E+03   -.578E-10 -.868E-03 -.418E+00   -.209E-02 0.834E-01 -.175E+00
   -.213E-04 -.527E+01 0.841E+03   0.163E-03 0.509E+01 -.840E+03   0.175E-07 0.263E+00 -.514E+00   0.381E-04 -.629E-01 -.182E+00
   0.230E+01 -.133E+01 0.843E+03   -.241E+01 0.139E+01 -.842E+03   -.751E-03 0.434E-03 -.418E+00   0.714E-01 -.431E-01 -.175E+00
   -.230E+01 -.133E+01 0.843E+03   0.241E+01 0.139E+01 -.842E+03   0.751E-03 0.434E-03 -.418E+00   -.714E-01 -.415E-01 -.175E+00
   -.411E-04 0.224E+01 -.838E+03   0.536E-04 -.241E+01 0.837E+03   0.286E-10 0.429E-03 0.602E+00   0.344E-02 0.131E+00 -.195E-01
   0.130E+02 0.752E+01 -.803E+03   -.123E+02 -.709E+01 0.803E+03   -.892E+00 -.515E+00 -.548E+00   0.498E-01 0.286E-01 0.215E-01
   -.130E+02 0.752E+01 -.803E+03   0.123E+02 -.709E+01 0.803E+03   0.892E+00 -.515E+00 -.548E+00   -.505E-01 0.297E-01 0.211E-01
   -.549E+00 0.317E+00 -.827E+03   0.232E+00 -.134E+00 0.827E+03   0.373E+00 -.215E+00 0.657E+00   -.139E-01 0.666E-02 -.415E-01
   -.110E-04 -.150E+02 -.803E+03   0.142E-03 0.142E+02 0.803E+03   0.686E-07 0.103E+01 -.548E+00   0.265E-03 -.586E-01 0.211E-01
   0.548E+00 0.317E+00 -.827E+03   -.232E+00 -.134E+00 0.827E+03   -.373E+00 -.215E+00 0.657E+00   0.135E-01 0.787E-02 -.415E-01
   -.194E+01 -.112E+01 -.838E+03   0.209E+01 0.121E+01 0.837E+03   -.371E-03 -.214E-03 0.602E+00   -.108E+00 -.626E-01 -.198E-01
   0.194E+01 -.112E+01 -.838E+03   -.209E+01 0.121E+01 0.837E+03   0.371E-03 -.214E-03 0.602E+00   0.115E+00 -.625E-01 -.194E-01
   0.972E-05 -.633E+00 -.827E+03   0.199E-03 0.267E+00 0.827E+03   0.287E-07 0.430E+00 0.657E+00   -.175E-02 -.154E-01 -.415E-01
   -.114E-04 -.122E-04 -.247E+04   0.284E-04 0.335E-04 0.247E+04   -.215E-17 -.937E-18 0.546E+00   0.239E-03 0.120E-03 0.260E+00
   0.215E+02 0.366E+02 -.245E+04   -.214E+02 -.365E+02 0.245E+04   -.372E+00 -.562E+00 0.563E+00   0.716E-01 0.402E-01 0.209E+00
   -.215E+02 0.366E+02 -.245E+04   0.214E+02 -.365E+02 0.245E+04   0.372E+00 -.562E+00 0.563E+00   -.719E-01 0.419E-01 0.210E+00
   0.424E+02 0.301E+00 -.245E+04   -.423E+02 -.276E+00 0.245E+04   -.672E+00 -.410E-01 0.563E+00   0.707E-01 0.418E-01 0.209E+00
   -.424E+02 0.301E+00 -.245E+04   0.423E+02 -.276E+00 0.245E+04   0.672E+00 -.410E-01 0.563E+00   -.717E-01 0.430E-01 0.210E+00
   0.209E+02 -.369E+02 -.245E+04   -.209E+02 0.368E+02 0.245E+04   -.301E+00 0.603E+00 0.563E+00   0.426E-03 -.832E-01 0.210E+00
   -.209E+02 -.369E+02 -.245E+04   0.209E+02 0.368E+02 0.245E+04   0.301E+00 0.603E+00 0.563E+00   0.143E-02 -.836E-01 0.210E+00
   0.316E-04 -.293E-04 -.247E+04   0.144E-03 -.487E-04 0.247E+04   0.679E-17 -.201E-17 0.624E+00   -.460E-02 -.236E-02 0.183E+00
   0.299E-05 -.947E-05 -.152E+04   0.824E-04 0.740E-05 0.153E+04   0.262E-17 -.193E-17 -.918E+01   0.199E-02 0.122E-02 0.877E-01
   0.106E-03 -.604E-04 -.140E+04   0.217E-04 0.137E-05 0.142E+04   -.955E-18 0.477E-18 -.235E+02   0.170E-02 0.104E-02 -.332E-01
   -.623E-03 -.815E-03 0.366E+02   0.275E-13 -.328E-13 0.432E-11   -.436E-15 0.219E-15 -.335E+02   0.159E-01 0.985E-02 -.271E+01

 POSITION                                       TOTAL-FORCE (eV/Angst)
      0.00000      0.00000      5.28038         0.000000      0.000000     -0.108527
      2.93784      0.00000      5.28038         0.000839      0.002607     -0.037736
      5.87568      0.00000      5.28038        -0.000839      0.002607     -0.037736
      1.46892      2.54424      5.28038         0.002677     -0.000577     -0.037736
      4.40676      2.54424      5.28038         0.000000      0.000000     -0.075007
      7.34459      2.54424      5.28038        -0.002677     -0.000577     -0.037736
      2.93784      5.08848      5.28038         0.001839     -0.002030     -0.037736
      5.87568      5.08848      5.28038        -0.001839     -0.002030     -0.037736
      8.81351      5.08848      5.28038         0.000000      0.000000     -0.052893
      1.46892      0.84808      7.67911        -0.020602     -0.011894      0.093497
      4.40676      0.84808      7.67911        -0.000000     -0.054114      0.031476
      7.34459      0.84808      7.67911         0.020602     -0.011894      0.093497
      2.93784      3.39232      7.67911        -0.046864      0.027057      0.031476
      5.87568      3.39232      7.67911         0.046864      0.027057      0.031476
      8.81351      3.39232      7.67911        -0.000000     -0.040928      0.098398
      4.40676      5.93656      7.67911         0.000000      0.023789      0.093497
      7.34459      5.93656      7.67911        -0.035444      0.020464      0.098398
     10.28243      5.93656      7.67911         0.035444      0.020464      0.098398
      8.81351      1.69681     10.07567        -0.000000     -0.038640     -0.038574
      2.94232      1.69875     10.04120        -0.097042     -0.056028     -0.135758
      5.87120      1.69875     10.04120         0.097042     -0.056028     -0.135758
     10.26751      4.24902     10.06295         0.042515     -0.024546      0.001849
      4.40676      4.23523     10.04120         0.000000      0.112055     -0.135758
      7.35952      4.24902     10.06295        -0.042515     -0.024546      0.001849
     11.75079      6.78432     10.07567         0.033463      0.019320     -0.038574
      5.87624      6.78432     10.07567        -0.033463      0.019320     -0.038574
      8.81351      6.76742     10.06295         0.000000      0.049092      0.001849
      0.00000      0.00000     12.49459         0.000000      0.000000     -0.027333
      2.96623      0.05046     12.47837        -0.223525     -0.438773     -0.200987
      5.84728      0.05046     12.47837         0.223525     -0.438773     -0.200987
      1.52682      2.54360     12.47837        -0.491751      0.025808     -0.200987
      7.28669      2.54360     12.47837         0.491751      0.025808     -0.200987
      2.96734      5.03866     12.47837        -0.268226      0.412965     -0.200987
      5.84617      5.03866     12.47837         0.268226      0.412965     -0.200987
      8.81351      5.08848     12.49555         0.000000      0.000000      0.013129
      4.40676      2.54424     12.24198         0.000000      0.000000      1.555421
      4.40676      2.54424     13.87916         0.000000      0.000000     -0.025122
    total drift:                                0.015312      0.009031      0.387412

  FREE ENERGIE OF THE ION-ELECTRON SYSTEM (eV)
  free  energy   TOTEN  =      -121.94502984 eV

  energy  without entropy=     -121.94502984  energy(sigma->0) =     -121.94502984

 stress matrix after NEB project (eV)
    -17.14194     -0.00000      0.00000
     -0.00000    -17.14194      0.00000
     -0.00000      0.00000      2.45159
  FORCES: max atom, RMS     0.025122    0.004130
  FORCE total and by dimension    0.025122    0.025122
  Stress total and by dimension   24.366013   17.141942
|           W    W    AA    RRRRR   N    N  II  N    N   GGGG   !!!           |
|           W    W   A  A   R    R  NN   N  II  NN   N  G    G  !!!           |
|           W    W  A    A  R    R  N N  N  II  N N  N  G       !!!           |
|           W WW W  AAAAAA  RRRRR   N  N N  II  N  N N  G  GGG   !            |
|           WW  WW  A    A  R   R   N   NN  II  N   NN  G    G                |
|           W    W  A    A  R    R  N    N  II  N    N   GGGG   !!!           |
|     Tetrahedron method does not include variations of the Fermi             |
|     occupations, so forces and stress will be inaccurate. We suggest        |
|     using a different smearing scheme ISMEAR = 1 or 2 for metals in         |
|     relaxations.                                                            |

 total charge

# of ion       s       p       d       tot
    1        0.547   0.239   8.766   9.552
    2        0.543   0.241   8.765   9.549
    3        0.543   0.241   8.765   9.549
    4        0.543   0.241   8.765   9.549
    5        0.545   0.240   8.764   9.549
    6        0.543   0.241   8.765   9.549
    7        0.543   0.241   8.765   9.549
    8        0.543   0.241   8.765   9.549
    9        0.542   0.241   8.765   9.548
   10        0.521   0.308   8.772   9.601
   11        0.517   0.311   8.775   9.604
   12        0.521   0.308   8.772   9.601
   13        0.517   0.311   8.775   9.604
   14        0.517   0.311   8.775   9.604
   15        0.515   0.310   8.772   9.597
   16        0.521   0.308   8.772   9.601
   17        0.515   0.310   8.772   9.597
   18        0.515   0.310   8.772   9.597
   19        0.518   0.300   8.777   9.596
   20        0.549   0.332   8.750   9.632
   21        0.549   0.332   8.750   9.632
   22        0.510   0.311   8.772   9.594
   23        0.549   0.332   8.750   9.632
   24        0.510   0.311   8.772   9.594
   25        0.518   0.300   8.777   9.596
   26        0.518   0.300   8.777   9.596
   27        0.510   0.311   8.772   9.594
   28        0.545   0.226   8.769   9.539
   29        0.542   0.242   8.769   9.554
   30        0.542   0.242   8.769   9.554
   31        0.542   0.242   8.769   9.554
   32        0.542   0.242   8.769   9.554
   33        0.542   0.242   8.769   9.554
   34        0.542   0.242   8.769   9.554
   35        0.540   0.225   8.772   9.538
   36        0.599   0.768   6.896   8.262
   37        1.366   2.177   0.000   3.543
tot         20.588  12.635 313.791 347.014

 BZINTS: Fermi energy:    0.740847;  398.000000 electrons
         Band energy:-0.120243E+04;  BLOECHL correction:   -0.099620