 vasp.6.2.0 18Jan21 (build Jun 12 2021 23:27:24) complex

 executed on             LinuxIFC date 2022.05.27  05:31:50

 INCAR:
   ISMEAR = -5
   SIGMA = 0.1
   ISPIN = 1
   EDIFF = 1.d-5
   EDIFFG = -0.01
   NSW = 0
   NELM = 150
   ENCUT = 500
   ISIF = 2
   IBRION = 2
   LREAL = Auto
   ALGO = Fast
   ICHARG = 11
   LORBIT = 10
   LCHARG = .F.
   LWAVE = .F.

 POTCAR:    PAW_PBE Ag 02Apr2005
 POTCAR:    PAW_PBE Co 02Aug2007
 POTCAR:    PAW_PBE H 15Jun2001
|           W    W    AA    RRRRR   N    N  II  N    N   GGGG   !!!           |
|           W    W   A  A   R    R  NN   N  II  NN   N  G    G  !!!           |
|           W    W  A    A  R    R  N N  N  II  N N  N  G       !!!           |
|           W WW W  AAAAAA  RRRRR   N  N N  II  N  N N  G  GGG   !            |
|           WW  WW  A    A  R   R   N   NN  II  N   NN  G    G                |
|           W    W  A    A  R    R  N    N  II  N    N   GGGG   !!!           |
|     For optimal performance we recommend to set                             |
|       NCORE = 2 up to number-of-cores-per-socket                            |
|     This setting can greatly improve the performance of VASP for DFT.       |
|     The default, NCORE=1 might be grossly inefficient on modern             |
|     multi-core architectures or massively parallel machines. Do your        |
|     Unfortunately you need to use the default for GW and RPA                |
|     calculations (for HF NCORE is supported but not extensively tested      |
|     yet).                                                                   |

 POTCAR:    PAW_PBE Ag 02Apr2005
   VRHFIN =Ag : s1 d10

   TITEL  = PAW_PBE Ag 02Apr2005
   POMASS =  107.868; ZVAL   =   11.000    mass and valenz
   ENMAX  =  249.844; ENMIN  =  187.383 eV

 POTCAR:    PAW_PBE Co 02Aug2007
   VRHFIN =Co: d8 s1

   TITEL  = PAW_PBE Co 02Aug2007
   POMASS =   58.933; ZVAL   =    9.000    mass and valenz
   ENMAX  =  267.968; ENMIN  =  200.976 eV

 POTCAR:    PAW_PBE H 15Jun2001
   VRHFIN =H: ultrasoft test

   TITEL  = PAW_PBE H 15Jun2001
   POMASS =    1.000; ZVAL   =    1.000    mass and valenz
   ENMAX  =  250.000; ENMIN  =  200.000 eV

 Optimization of the real space projectors (new method)

 maximal supplied QI-value         = 15.12
 optimisation between [QCUT,QGAM] = [ 11.34, 22.83] = [ 36.00,145.93] Ry
 Optimized for a Real-space Cutoff    1.43 Angstroem

   l    n(q)    QCUT    max X(q) W(low)/X(q) W(high)/X(q)  e(spline)
   2      9    11.338    53.897    0.16E-03    0.20E-03    0.28E-06
   2      9    11.338    52.416    0.16E-03    0.20E-03    0.29E-06
   0     10    11.338   122.045    0.31E-04    0.76E-04    0.15E-06
   0     10    11.338    73.629    0.30E-04    0.72E-04    0.15E-06
   1      9    11.338    15.255    0.20E-03    0.19E-04    0.17E-06
   1      9    11.338     9.562    0.16E-03    0.15E-04    0.14E-06
 Optimization of the real space projectors (new method)

[...]

   l    n(q)    QCUT    max X(q) W(low)/X(q) W(high)/X(q)  e(spline)
   2      8    11.376    65.824    0.20E-03    0.32E-04    0.13E-06
   2      8    11.376    61.429    0.20E-03    0.33E-04    0.14E-06
   0      9    11.376    56.174    0.76E-04    0.11E-03    0.19E-06
   0      9    11.376    31.263    0.69E-04    0.99E-04    0.17E-06
   1      9    11.376    19.828    0.35E-03    0.11E-03    0.12E-06
   1      9    11.376    15.139    0.29E-03    0.94E-04    0.10E-06
 Optimization of the real space projectors (new method)

 maximal supplied QI-value         = 34.20
 optimisation between [QCUT,QGAM] = [ 11.29, 22.57] = [ 35.68,142.71] Ry
 Optimized for a Real-space Cutoff    1.16 Angstroem

   l    n(q)    QCUT    max X(q) W(low)/X(q) W(high)/X(q)  e(spline)
   0      8    11.287    19.460    0.40E-03    0.73E-03    0.16E-06
   0      8    11.287    12.209    0.38E-03    0.70E-03    0.15E-06
   1      7    11.287     4.655    0.22E-03    0.25E-04    0.22E-06
  PAW_PBE Ag 02Apr2005                  :
  PAW_PBE Co 02Aug2007                  :
  PAW_PBE H 15Jun2001                   :

 POSCAR: Ag-Co-H2
  positions in direct lattice
  velocities in cartesian coordinates
 exchange correlation table for  LEXCH =        8
   RHO(1)=    0.500       N(1)  =     2000
   RHO(2)=  100.500       N(2)  =     4000

 VTST: version 3.2, (02/03/18)

 CHAIN: initializing optimizer

 OPT: Using VASP Conjugate-Gradient optimizer
 CHAIN: Read ICHAIN            0

 POSCAR: Ag-Co-H2
  positions in direct lattice
  velocities in cartesian coordinates

 ion  position               nearest neighbor table
   1  0.000  0.000  0.238-   2 2.93   8 2.93   7 2.93   6 2.93   4 2.93  12 2.93  16 2.93  10 2.93
                             3 2.93
   2  0.333  0.000  0.238-   1 2.93   8 2.93   9 2.93   3 2.93   4 2.93   5 2.93  10 2.93  17 2.93
                            11 2.93
   3  0.667  0.000  0.238-   9 2.93   2 2.93   5 2.93  11 2.93   7 2.93  18 2.93   1 2.93   6 2.93
                            12 2.93
   4  0.000  0.333  0.238-   5 2.93   6 2.93   2 2.93   1 2.93   7 2.93  13 2.93  15 2.93   9 2.93
                            10 2.93
   5  0.333  0.333  0.238-   4 2.93   3 2.93   7 2.93   2 2.93   8 2.93  14 2.93  13 2.93  11 2.93
                             6 2.93
   6  0.667  0.333  0.238-   4 2.93   9 2.93   1 2.93  15 2.93   8 2.93  12 2.93   3 2.93   5 2.93
                            14 2.93
   7  0.000  0.667  0.238-   8 2.93   1 2.93   5 2.93   3 2.93   4 2.93  16 2.93  18 2.93  13 2.93
                             9 2.93
   8  0.333  0.667  0.238-   7 2.93   1 2.93   2 2.93   9 2.93   5 2.93  16 2.93   6 2.93  17 2.93
                            14 2.93
   9  0.667  0.667  0.238-   3 2.93   2 2.93   8 2.93   6 2.93  17 2.93   4 2.93  15 2.93   7 2.93
                            18 2.93
  10  0.111  0.111  0.346-  20 2.92  19 2.93  26 2.93  12 2.93  16 2.93  15 2.93  17 2.93  13 2.93
                            11 2.93   2 2.93   1 2.93   4 2.93
  11  0.444  0.111  0.346-  21 2.90  20 2.90  27 2.92  14 2.93  17 2.93  18 2.93   3 2.93  12 2.93
                            13 2.93  10 2.93   5 2.93   2 2.93
  12  0.778  0.111  0.346-  21 2.92  25 2.93  19 2.93  10 2.93  16 2.93  18 2.93  15 2.93  11 2.93
                             1 2.93  14 2.93   6 2.93   3 2.93
  13  0.111  0.444  0.346-  20 2.90  23 2.90  22 2.92  15 2.93  14 2.93  18 2.93  10 2.93  11 2.93
                            16 2.93   4 2.93   5 2.93   7 2.93
  14  0.444  0.444  0.346-  23 2.90  21 2.90  24 2.92  13 2.93  11 2.93  16 2.93   5 2.93  12 2.93
                            17 2.93   8 2.93  15 2.93   6 2.93
  15  0.778  0.444  0.346-  24 2.91  22 2.91  19 2.92  13 2.93  10 2.93  12 2.93  17 2.93  18 2.93
                             4 2.93   6 2.93   9 2.93  14 2.93
  16  0.111  0.778  0.346-  23 2.92  26 2.93  25 2.93  18 2.93  12 2.93  10 2.93  14 2.93  17 2.93
                            13 2.93   7 2.93   8 2.93   1 2.93
  17  0.444  0.778  0.346-  27 2.91  24 2.91  26 2.92  11 2.93  10 2.93   9 2.93  18 2.93  15 2.93
                            16 2.93   2 2.93  14 2.93   8 2.93
  18  0.778  0.778  0.346-  22 2.91  27 2.91  25 2.92  16 2.93  12 2.93  13 2.93  11 2.93  17 2.93
                            15 2.93   7 2.93   3 2.93   9 2.93
  19  0.889  0.222  0.454-  28 2.91  15 2.92  10 2.93  12 2.93  24 2.93  22 2.93  26 2.93  25 2.93
                            32 2.94  31 2.94  20 2.94  21 2.94
  20  0.223  0.223  0.453-  36 2.69  31 2.89  29 2.89  13 2.90  11 2.90  21 2.91  23 2.91  10 2.92
                            27 2.93  22 2.93  19 2.94  26 2.94
  21  0.554  0.223  0.453-  36 2.69  30 2.89  32 2.89  11 2.90  14 2.90  20 2.91  23 2.91  12 2.92
                            27 2.93  24 2.93  25 2.94  19 2.94
  22  0.888  0.556  0.453-  35 2.91  33 2.91  31 2.91  18 2.91  15 2.91  13 2.92  24 2.92  27 2.92
                            25 2.93  19 2.93  23 2.93  20 2.93
  23  0.223  0.554  0.453-  36 2.69  34 2.89  33 2.89  14 2.90  13 2.90  21 2.91  20 2.91  16 2.92
                            22 2.93  24 2.93  26 2.94  25 2.94
  24  0.556  0.556  0.453-  35 2.91  32 2.91  34 2.91  15 2.91  17 2.91  14 2.92  27 2.92  22 2.92
                            19 2.93  26 2.93  23 2.93  21 2.93
  25  0.889  0.889  0.454-  28 2.91  18 2.92  16 2.93  12 2.93  22 2.93  27 2.93  26 2.93  19 2.93
                            33 2.94  30 2.94  23 2.94  21 2.94
  26  0.222  0.889  0.454-  28 2.91  17 2.92  16 2.93  10 2.93  27 2.93  24 2.93  25 2.93  19 2.93
                            34 2.94  29 2.94  23 2.94  20 2.94
  27  0.556  0.888  0.453-  35 2.91  29 2.91  30 2.91  17 2.91  18 2.91  11 2.92  24 2.92  22 2.92
                            26 2.93  25 2.93  20 2.93  21 2.93
  28  0.000  0.000  0.560-  26 2.91  25 2.91  19 2.91  29 2.97  34 2.97  33 2.97  32 2.97  31 2.97
                            30 2.97
  29  0.333  0.008  0.560-  31 2.86  30 2.86  36 2.87  20 2.89  27 2.91  26 2.94  28 2.97  35 2.97
                            34 3.07
  30  0.659  0.008  0.560-  32 2.86  29 2.86  36 2.87  21 2.89  27 2.91  25 2.94  28 2.97  35 2.97
                            33 3.07
  31  0.008  0.333  0.560-  29 2.86  33 2.86  36 2.87  20 2.89  22 2.91  19 2.94  28 2.97  35 2.97
                            32 3.07
  32  0.659  0.333  0.560-  30 2.86  34 2.86  36 2.87  21 2.89  24 2.91  19 2.94  28 2.97  35 2.97
                            31 3.07
  33  0.008  0.659  0.560-  34 2.86  31 2.86  36 2.87  23 2.89  22 2.91  25 2.94  28 2.97  35 2.97
                            30 3.07
  34  0.333  0.659  0.560-  33 2.86  32 2.86  36 2.87  23 2.89  24 2.91  26 2.94  28 2.97  35 2.97
                            29 3.07
  35  0.667  0.667  0.560-  24 2.91  27 2.91  22 2.91  32 2.97  30 2.97  29 2.97  34 2.97  31 2.97
                            33 2.97
  36  0.333  0.333  0.547-  38 1.55  37 1.55  21 2.69  20 2.69  23 2.69  31 2.87  30 2.87  33 2.87
                            29 2.87  34 2.87  32 2.87
  37  0.280  0.333  0.614-  36 1.55
  38  0.387  0.333  0.614-  36 1.55

  LATTYP: Found a hexagonal cell.
 ALAT       =     8.7913665772
 C/A-ratio  =     2.5227160501

  Lattice vectors:

 A1 = (  -4.3956832886,  -7.6135467898,   0.0000000000)
 A2 = (   8.7913665771,   0.0000000000,   0.0000000000)
 A3 = (   0.0000000000,   0.0000000000,  22.1781215668)

Analysis of symmetry for initial positions (statically):
 Subroutine PRICEL returns:
 Original cell was already a primitive cell.

 Routine SETGRP: Setting up the symmetry group for a
 hexagonal supercell.

 Subroutine GETGRP returns: Found  2 space group operations
 (whereof  2 operations were pure point group operations)
 out of a pool of 24 trial point group operations.

The static configuration has the point symmetry C_1h.

Analysis of symmetry for dynamics (positions and initial velocities):
 Subroutine PRICEL returns:
 Original cell was already a primitive cell.

[...]

The dynamic configuration has the point symmetry C_1h.

Analysis of constrained symmetry for selective dynamics:
 Subroutine PRICEL returns:
 Original cell was already a primitive cell.

 Routine SETGRP: Setting up the symmetry group for a
 hexagonal supercell.

 Subroutine GETGRP returns: Found  2 space group operations
[...]
     33      -4.3944      2.00000
     34      -4.3356      2.00000
     35      -4.3166      2.00000
     36      -4.2935      2.00000
     37      -4.2870      2.00000
     38      -4.2521      2.00000
     39      -4.2386      2.00000
     40      -4.2287      2.00000
     41      -4.2126      2.00000
     42      -4.2045      2.00000
     43      -4.1794      2.00000
     44      -4.1237      2.00000
     45      -4.0931      2.00000
     46      -4.0875      2.00000
     47      -4.0766      2.00000
     48      -4.0690      2.00000
     49      -4.0650      2.00000
     50      -4.0465      2.00000
     51      -4.0416      2.00000
     52      -4.0224      2.00000
     53      -4.0214      2.00000
     54      -3.9572      2.00000
     55      -3.9488      2.00000
     56      -3.9357      2.00000
     57      -3.9339      2.00000
     58      -3.9183      2.00000
     59      -3.9011      2.00000
     60      -3.8634      2.00000
[...]
    238       6.9900      0.00000
    239       7.0855      0.00000
    240       7.1879      0.00000
    241       7.2182      0.00000
    242       7.2891      0.00000
    243       7.3044      0.00000
    244       7.3198      0.00000
    245       7.3698      0.00000
    246       7.4598      0.00000
    247       7.5048      0.00000
    248       7.6218      0.00000
    249       7.6264      0.00000
    250       7.8558      0.00000
    251       7.9787      0.00000
    252       8.0595      0.00000

 soft charge-density along one line, spin component           1
         0         1         2         3         4         5         6         7         8         9
 total charge-density along one line

------------------------ aborting loop because EDIFF is reached ----------------------------------------

 total charge

# of ion       s       p       d       tot
    1        0.416   0.202   9.178   9.797
    2        0.419   0.203   9.177   9.799
    3        0.419   0.203   9.177   9.799
    4        0.418   0.203   9.177   9.799
    5        0.418   0.204   9.175   9.798
    6        0.418   0.203   9.177   9.799
    7        0.419   0.203   9.177   9.799
    8        0.419   0.203   9.177   9.799
    9        0.414   0.203   9.179   9.796
   10        0.406   0.268   9.164   9.838
   11        0.410   0.267   9.167   9.844
   12        0.406   0.268   9.164   9.838
   13        0.409   0.268   9.167   9.844
   14        0.409   0.268   9.167   9.844
   15        0.400   0.271   9.165   9.837
   16        0.406   0.268   9.164   9.838
   17        0.400   0.271   9.165   9.837
   18        0.400   0.271   9.165   9.837
   19        0.403   0.266   9.167   9.835
   20        0.425   0.291   9.150   9.866
   21        0.425   0.291   9.150   9.866
   22        0.397   0.277   9.165   9.839
   23        0.424   0.293   9.149   9.866
   24        0.397   0.277   9.165   9.839
   25        0.403   0.266   9.167   9.836
   26        0.403   0.266   9.167   9.836
   27        0.397   0.276   9.165   9.839
   28        0.414   0.193   9.182   9.789
   29        0.415   0.205   9.178   9.799
   30        0.415   0.205   9.178   9.799
   31        0.411   0.211   9.175   9.797
   32        0.411   0.211   9.175   9.797
   33        0.414   0.205   9.179   9.798
   34        0.414   0.205   9.179   9.798
   35        0.411   0.194   9.183   9.788
   36        0.376   0.387   7.441   8.205
   37        0.531   0.032   0.000   0.563
   38        0.531   0.032   0.000   0.563
tot         15.826   8.834 328.398 353.057

  FORCE on cell =-STRESS in cart. coord.  units (eV):
  Direction    XX          YY          ZZ          XY          YZ          ZX
  Alpha Z   735.82045   735.82045   735.82045
  Ewald  121963.02506121936.64732************     0.00003    -0.03547     0.00000
  Hartree132228.63332132221.17709************     0.00001    -0.01590     0.00000
  E(xc)   -2081.06813 -2081.34058 -2086.41360    -0.00004    -0.00348     0.00000
  Local  ************************265554.79998     0.00036    -0.01276    -0.00005
  n-local  -334.25374  -333.71298  -339.86649     2.34074     0.01562     0.11547
  augment  3378.77559  3379.73297  3380.27877    -0.00017     0.04942     0.00002
  Kinetic  4861.89468  4866.62926  4880.70826     1.25078     0.05399     0.01411
  Fock        0.00000     0.00000     0.00000     0.00000     0.00000     0.00000
  Total      -8.96110    -8.64636    -0.63096    -0.00000     0.05141     0.00000
  in kB      -9.67172    -9.33202    -0.68100    -0.00000     0.05549     0.00000

 VOLUME and BASIS-vectors are now :
  energy-cutoff  :      500.00
  volume of cell :     1484.46
      direct lattice vectors                 reciprocal lattice vectors
     8.791366577  0.000000000  0.000000000     0.113747958 -0.065672414  0.000000000
     4.395683289  7.613546790  0.000000000     0.000000000  0.131344829  0.000000000
     0.000000000  0.000000000 22.178121567     0.000000000  0.000000000  0.045089481

  length of vectors
     8.791366577  8.791366577 22.178121567     0.131344829  0.131344829  0.045089481

 FORCES acting on ions
    electron-ion (+dipol)            ewald-force                    non-local-force                 convergence-correction
   0.458E-04 0.607E-02 0.251E+04   -.954E-04 -.310E-02 -.251E+04   0.386E-14 0.588E-03 -.237E+01   -.200E-03 -.305E-02 -.202E+00
   0.560E+00 0.562E+00 0.251E+04   -.582E+00 -.553E+00 -.251E+04   0.371E-01 0.458E-01 -.165E+01   -.502E-02 -.355E-01 -.205E+00
   -.560E+00 0.562E+00 0.251E+04   0.582E+00 -.553E+00 -.251E+04   -.371E-01 0.458E-01 -.165E+01   0.456E-02 -.336E-01 -.204E+00
   0.731E+00 0.171E+00 0.251E+04   -.768E+00 -.229E+00 -.251E+04   0.795E-01 0.181E-01 -.166E+01   -.231E-01 0.357E-01 -.219E+00
   -.764E-05 0.129E-01 0.251E+04   0.981E-04 0.229E-03 -.251E+04   -.104E-12 -.158E-01 -.144E+01   0.626E-02 0.367E-02 -.183E+00
   -.731E+00 0.171E+00 0.251E+04   0.767E+00 -.229E+00 -.251E+04   -.795E-01 0.181E-01 -.166E+01   0.217E-01 0.365E-01 -.218E+00
   0.242E+00 -.748E+00 0.251E+04   -.185E+00 0.782E+00 -.251E+04   0.833E-02 -.609E-01 -.165E+01   -.476E-01 0.961E-02 -.216E+00
   -.242E+00 -.748E+00 0.251E+04   0.185E+00 0.782E+00 -.251E+04   -.833E-02 -.609E-01 -.165E+01   0.491E-01 0.855E-02 -.216E+00
   0.361E-04 0.164E-01 0.251E+04   0.792E-04 0.287E-02 -.251E+04   0.113E-13 0.172E-02 -.207E+01   -.658E-02 -.203E-01 -.217E+00
   0.524E+01 0.303E+01 0.841E+03   -.484E+01 -.282E+01 -.840E+03   -.375E+00 -.214E+00 -.790E+00   -.101E-01 0.640E-02 0.183E-01
   -.292E-04 0.620E+01 0.850E+03   0.418E-04 -.629E+01 -.850E+03   0.656E-12 0.999E-01 -.449E+00   0.686E-02 -.444E-01 0.395E-01
   -.524E+01 0.303E+01 0.841E+03   0.484E+01 -.282E+01 -.840E+03   0.375E+00 -.214E+00 -.790E+00   0.803E-02 0.723E-02 0.192E-01
   0.536E+01 -.310E+01 0.850E+03   -.542E+01 0.315E+01 -.850E+03   0.815E-01 -.617E-01 -.440E+00   -.402E-01 0.297E-01 0.356E-01
   -.536E+01 -.310E+01 0.850E+03   0.542E+01 0.315E+01 -.850E+03   -.815E-01 -.617E-01 -.440E+00   0.507E-01 0.281E-01 0.343E-01
   0.167E-04 0.151E+01 0.843E+03   -.109E-03 -.157E+01 -.842E+03   0.120E-12 0.183E-01 -.776E+00   -.175E-02 0.217E-01 -.159E-02
   -.806E-05 -.604E+01 0.841E+03   0.208E-04 0.559E+01 -.840E+03   0.281E-11 0.427E+00 -.798E+00   -.349E-03 -.230E-02 0.234E-01
   0.131E+01 -.774E+00 0.843E+03   -.137E+01 0.800E+00 -.842E+03   0.135E-01 0.358E-03 -.756E+00   0.273E-01 -.177E-01 0.430E-02
   -.131E+01 -.774E+00 0.843E+03   0.137E+01 0.801E+00 -.842E+03   -.135E-01 0.358E-03 -.756E+00   -.267E-01 -.153E-01 0.652E-02
   0.426E-04 0.225E+01 -.858E+03   -.128E-03 -.226E+01 0.857E+03   0.218E-12 0.332E-01 0.687E+00   -.656E-02 -.635E-02 0.163E+00
   0.295E+02 0.173E+02 -.814E+03   -.284E+02 -.166E+02 0.815E+03   -.114E+01 -.698E+00 -.118E+01   0.375E-01 0.829E-02 0.217E+00
   -.295E+02 0.173E+02 -.814E+03   0.284E+02 -.166E+02 0.815E+03   0.114E+01 -.698E+00 -.118E+01   -.363E-01 0.641E-02 0.217E+00
   0.978E+01 -.579E+01 -.845E+03   -.996E+01 0.591E+01 0.844E+03   0.217E+00 -.136E+00 0.522E+00   -.137E-03 0.147E-02 0.114E+00
   -.611E-04 -.344E+02 -.815E+03   0.458E-04 0.331E+02 0.815E+03   0.887E-11 0.135E+01 -.116E+01   -.648E-03 -.281E-01 0.224E+00
   -.978E+01 -.579E+01 -.845E+03   0.996E+01 0.591E+01 0.844E+03   -.217E+00 -.136E+00 0.522E+00   0.111E-01 -.104E-02 0.114E+00
   -.191E+01 -.101E+01 -.859E+03   0.189E+01 0.102E+01 0.858E+03   -.236E-02 -.879E-02 0.710E+00   0.814E-02 -.190E-02 0.169E+00
   0.191E+01 -.101E+01 -.859E+03   -.189E+01 0.102E+01 0.858E+03   0.236E-02 -.879E-02 0.710E+00   -.205E-01 -.249E-02 0.169E+00
   0.206E-04 0.112E+02 -.845E+03   0.109E-03 -.115E+02 0.845E+03   0.188E-11 0.286E+00 0.531E+00   0.710E-02 0.159E-01 0.122E+00
   0.544E-04 0.543E+00 -.252E+04   -.114E-03 -.490E+00 0.252E+04   -.337E-12 -.513E-01 0.205E+01   -.413E-03 -.104E-01 0.260E+00
   0.201E+02 0.364E+02 -.252E+04   -.196E+02 -.358E+02 0.252E+04   -.526E+00 -.673E+00 0.215E+01   -.181E-01 0.124E-01 0.214E+00
   -.201E+02 0.364E+02 -.252E+04   0.196E+02 -.358E+02 0.252E+04   0.526E+00 -.673E+00 0.215E+01   0.181E-01 0.133E-01 0.213E+00
   0.433E+02 -.130E-01 -.252E+04   -.424E+02 0.116E+00 0.251E+04   -.856E+00 -.560E-01 0.214E+01   -.844E-02 -.323E-01 0.211E+00
   -.433E+02 -.130E-01 -.252E+04   0.424E+02 0.116E+00 0.251E+04   0.856E+00 -.560E-01 0.214E+01   0.788E-02 -.322E-01 0.210E+00
   0.200E+02 -.363E+02 -.252E+04   -.197E+02 0.356E+02 0.252E+04   -.446E+00 0.738E+00 0.215E+01   0.219E-01 0.328E-01 0.220E+00
   -.200E+02 -.363E+02 -.252E+04   0.197E+02 0.356E+02 0.252E+04   0.446E+00 0.738E+00 0.215E+01   -.212E-01 0.320E-01 0.221E+00
   0.237E-04 -.523E+00 -.252E+04   0.106E-03 0.462E+00 0.251E+04   0.440E-12 0.669E-01 0.213E+01   -.604E-02 0.503E-03 0.294E+00
   -.432E-04 -.177E+00 -.189E+04   0.866E-04 0.203E+00 0.189E+04   0.227E-12 0.346E-01 0.965E+00   0.586E-02 -.200E-01 0.122E+00
   0.189E+02 0.997E-02 -.298E+03   -.215E+02 -.183E-01 0.299E+03   0.257E+01 0.120E-02 -.153E+01   0.109E-01 -.657E-03 0.639E-02
   -.189E+02 0.997E-02 -.298E+03   0.215E+02 -.183E-01 0.299E+03   -.257E+01 0.120E-02 -.153E+01   -.107E-01 -.657E-03 0.626E-02
   0.320E-03 -.441E-01 0.493E+01   0.103E-12 0.186E-12 -.597E-11   0.281E-12 0.427E-01 -.667E+01   0.124E-01 0.202E-02 0.179E+01

 POSITION                                       TOTAL-FORCE (eV/Angst)
      0.00000      0.00000      5.28219         0.000000      0.000493      0.029759
      2.93046      0.00000      5.28219         0.010203      0.019957      0.051149
      5.86091      0.00000      5.28219        -0.010203      0.019957      0.051149
      1.46523      2.53785      5.28219         0.020265     -0.003193      0.052434
      4.39568      2.53785      5.28219         0.000000      0.001021      0.026798
      7.32614      2.53785      5.28219        -0.020265     -0.003193      0.052434
      2.93046      5.07570      5.28219         0.016159     -0.017958      0.052676
      5.86091      5.07570      5.28219        -0.016159     -0.017958      0.052676
      8.79137      5.07570      5.28219         0.000000      0.000656      0.045837
      1.46523      0.84595      7.67490         0.017215      0.009095     -0.004328
      4.39568      0.84595      7.67490        -0.000000     -0.035273     -0.082221
      7.32614      0.84595      7.67490        -0.017215      0.009095     -0.004328
      2.93046      3.38380      7.67490        -0.030443      0.017902     -0.077846
      5.86091      3.38380      7.67490         0.030443      0.017902     -0.077846
      8.79137      3.38380      7.67490        -0.000000     -0.019380     -0.007179
      4.39568      5.92165      7.67490        -0.000000     -0.023899     -0.001866
      7.32614      5.92165      7.67490        -0.019395      0.010362     -0.000846
     10.25659      5.92165      7.67490         0.019395      0.010362     -0.000846
      8.79137      1.69398     10.06180         0.000000      0.011825      0.021426
      2.94231      1.69874     10.03918        -0.006073     -0.010028     -0.107894
      5.84906      1.69874     10.03918         0.006073     -0.010028     -0.107894
     10.25255      4.23208     10.04993         0.032943     -0.019551      0.001883
      4.39568      4.21606     10.03918        -0.000000     -0.002440     -0.096386
      7.33018      4.23208     10.04993        -0.032943     -0.019551      0.001883
     11.72002      6.76656     10.06180        -0.009672     -0.006108      0.008094
      5.86271      6.76656     10.06180         0.009672     -0.006108      0.008094
      8.79137      6.76293     10.04993         0.000000      0.037445      0.004322
      0.00000      0.00000     12.42562        -0.000000     -0.008705     -0.029247
      2.96563      0.06260     12.41952        -0.032524     -0.076121     -0.053675
      5.82574      0.06260     12.41952         0.032524     -0.076121     -0.053675
      1.53702      2.53701     12.41952        -0.032969      0.014486     -0.022076
      7.25434      2.53701     12.41952         0.032969      0.014486     -0.022076
      2.96708      5.01394     12.41952        -0.053350      0.064580     -0.051734
      5.82429      5.01394     12.41952         0.053350      0.064580     -0.051734
      8.79137      5.07570     12.42127         0.000000      0.005906     -0.019606
      4.39568      2.53785     12.13550         0.000000      0.041019      0.451273
      3.92144      2.53483     13.61440        -0.006715     -0.007757     -0.019293
      4.86993      2.53483     13.61440         0.006715     -0.007757     -0.019293
    total drift:                                0.012767      0.000633      0.039227

  FREE ENERGIE OF THE ION-ELECTRON SYSTEM (eV)
  free  energy   TOTEN  =      -101.61132033 eV

  energy  without entropy=     -101.61132033  energy(sigma->0) =     -101.61132033

 stress matrix after NEB project (eV)
     -8.96110     -0.00000      0.00000
     -0.00000     -8.64636      0.05141
      0.00000      0.05141     -0.63096
  FORCES: max atom, RMS     0.021851    0.005013
  FORCE total and by dimension    0.030902    0.019293
  Stress total and by dimension   12.468529    8.961098
|           W    W    AA    RRRRR   N    N  II  N    N   GGGG   !!!           |
|           W    W   A  A   R    R  NN   N  II  NN   N  G    G  !!!           |
|           W    W  A    A  R    R  N N  N  II  N N  N  G       !!!           |
|           W WW W  AAAAAA  RRRRR   N  N N  II  N  N N  G  GGG   !            |
|           WW  WW  A    A  R   R   N   NN  II  N   NN  G    G                |
|           W    W  A    A  R    R  N    N  II  N    N   GGGG   !!!           |
|     Tetrahedron method does not include variations of the Fermi             |
|     occupations, so forces and stress will be inaccurate. We suggest        |
|     using a different smearing scheme ISMEAR = 1 or 2 for metals in         |
|     relaxations.                                                            |

 total charge

# of ion       s       p       d       tot
    1        0.416   0.202   9.178   9.797
    2        0.419   0.203   9.177   9.799
    3        0.419   0.203   9.177   9.799
    4        0.418   0.203   9.177   9.799
    5        0.418   0.204   9.175   9.798
    6        0.418   0.203   9.177   9.799
    7        0.419   0.203   9.177   9.799
    8        0.419   0.203   9.177   9.799
    9        0.414   0.203   9.179   9.796
   10        0.406   0.268   9.164   9.838
   11        0.410   0.267   9.167   9.844
   12        0.406   0.268   9.164   9.838
   13        0.409   0.268   9.167   9.844
   14        0.409   0.268   9.167   9.844
   15        0.400   0.271   9.165   9.837
   16        0.406   0.268   9.164   9.838
   17        0.400   0.271   9.165   9.837
   18        0.400   0.271   9.165   9.837
   19        0.403   0.266   9.167   9.835
   20        0.425   0.291   9.150   9.866
   21        0.425   0.291   9.150   9.866
   22        0.397   0.277   9.165   9.839
   23        0.424   0.293   9.149   9.866
   24        0.397   0.277   9.165   9.839
   25        0.403   0.266   9.167   9.836
   26        0.403   0.266   9.167   9.836
   27        0.397   0.276   9.165   9.839
   28        0.414   0.193   9.182   9.789
   29        0.415   0.205   9.178   9.799
   30        0.415   0.205   9.178   9.799
   31        0.411   0.211   9.175   9.797
   32        0.411   0.211   9.175   9.797
   33        0.414   0.205   9.179   9.798
   34        0.414   0.205   9.179   9.798
   35        0.411   0.194   9.183   9.788
   36        0.376   0.387   7.441   8.205
   37        0.531   0.032   0.000   0.563
   38        0.531   0.032   0.000   0.563
tot         15.826   8.834 328.398 353.057

 BZINTS: Fermi energy:    0.907738;  396.000000 electrons
         Band energy:-0.123877E+04;  BLOECHL correction:   -0.045780