 vasp.6.2.0 18Jan21 (build Jun 12 2021 23:27:24) complex

 executed on             LinuxIFC date 2022.05.28  00:42:50

 INCAR:
   ISMEAR = -5
   SIGMA = 0.1
   ISPIN = 1
   EDIFF = 1.d-5
   EDIFFG = -0.01
   NSW = 0
   NELM = 150
   ENCUT = 500
   ISIF = 2
   IBRION = 2
   LREAL = Auto
   ALGO = Fast
   ICHARG = 11
   LORBIT = 10
   LCHARG = .F.
   LWAVE = .F.

 POTCAR:    PAW_PBE Au 04Oct2007
 POTCAR:    PAW_PBE Mn 06Sep2000
 POTCAR:    PAW_PBE O 08Apr2002
 POTCAR:    PAW_PBE H 15Jun2001
|           W    W    AA    RRRRR   N    N  II  N    N   GGGG   !!!           |
|           W    W   A  A   R    R  NN   N  II  NN   N  G    G  !!!           |
|           W    W  A    A  R    R  N N  N  II  N N  N  G       !!!           |
|           W WW W  AAAAAA  RRRRR   N  N N  II  N  N N  G  GGG   !            |
|           WW  WW  A    A  R   R   N   NN  II  N   NN  G    G                |
|           W    W  A    A  R    R  N    N  II  N    N   GGGG   !!!           |
|     For optimal performance we recommend to set                             |
|       NCORE = 2 up to number-of-cores-per-socket                            |
|     This setting can greatly improve the performance of VASP for DFT.       |
|     The default, NCORE=1 might be grossly inefficient on modern             |
|     multi-core architectures or massively parallel machines. Do your        |
|     Unfortunately you need to use the default for GW and RPA                |
|     calculations (for HF NCORE is supported but not extensively tested      |
|     yet).                                                                   |

 POTCAR:    PAW_PBE Au 04Oct2007
   VRHFIN =Au: s1d10

   TITEL  = PAW_PBE Au 04Oct2007
   POMASS =  196.966; ZVAL   =   11.000    mass and valenz
   ENMAX  =  229.943; ENMIN  =  172.457 eV

 POTCAR:    PAW_PBE Mn 06Sep2000
   VRHFIN =Mn: d6 s1

   TITEL  = PAW_PBE Mn 06Sep2000
   POMASS =   54.938; ZVAL   =    7.000    mass and valenz
   ENMAX  =  269.864; ENMIN  =  202.398 eV

 POTCAR:    PAW_PBE O 08Apr2002
   VRHFIN =O: s2p4

   TITEL  = PAW_PBE O 08Apr2002
   POMASS =   16.000; ZVAL   =    6.000    mass and valenz
   ENMAX  =  400.000; ENMIN  =  300.000 eV

 POTCAR:    PAW_PBE H 15Jun2001
   VRHFIN =H: ultrasoft test

   TITEL  = PAW_PBE H 15Jun2001
   POMASS =    1.000; ZVAL   =    1.000    mass and valenz
   ENMAX  =  250.000; ENMIN  =  200.000 eV

 Optimization of the real space projectors (new method)

 maximal supplied QI-value         = 15.12
 optimisation between [QCUT,QGAM] = [ 11.34, 22.83] = [ 36.00,145.93] Ry
 Optimized for a Real-space Cutoff    1.39 Angstroem

   l    n(q)    QCUT    max X(q) W(low)/X(q) W(high)/X(q)  e(spline)
   2      9    11.338    60.898    0.39E-03    0.42E-03    0.21E-06
   2      9    11.338    58.894    0.40E-03    0.42E-03    0.22E-06
   0      9    11.338   109.617    0.13E-03    0.20E-04    0.13E-06
   0      9    11.338    75.026    0.13E-03    0.20E-04    0.13E-06
   1      9    11.338    16.344    0.33E-04    0.24E-03    0.18E-06
   1      9    11.338    10.160    0.26E-04    0.19E-03    0.15E-06
 Optimization of the real space projectors (new method)

[...]

   l    n(q)    QCUT    max X(q) W(low)/X(q) W(high)/X(q)  e(spline)
   0      7    11.387    20.381    0.39E-03    0.13E-02    0.15E-06
   0      7    11.387    15.268    0.42E-03    0.14E-02    0.17E-06
   1      6    11.387     5.964    0.41E-03    0.11E-02    0.17E-06
   1      6    11.387     5.382    0.39E-03    0.87E-03    0.15E-06
 Optimization of the real space projectors (new method)

 maximal supplied QI-value         = 34.20
 optimisation between [QCUT,QGAM] = [ 11.29, 22.57] = [ 35.68,142.71] Ry
 Optimized for a Real-space Cutoff    1.16 Angstroem

   l    n(q)    QCUT    max X(q) W(low)/X(q) W(high)/X(q)  e(spline)
   0      8    11.287    19.460    0.40E-03    0.73E-03    0.16E-06
   0      8    11.287    12.209    0.38E-03    0.70E-03    0.15E-06
   1      7    11.287     4.655    0.22E-03    0.25E-04    0.22E-06
  PAW_PBE Au 04Oct2007                  :
  PAW_PBE Mn 06Sep2000                  :
  PAW_PBE O 08Apr2002                   :
  PAW_PBE H 15Jun2001                   :

 POSCAR: Au-Mn-OOH
  positions in direct lattice
  velocities in cartesian coordinates
 exchange correlation table for  LEXCH =        8
   RHO(1)=    0.500       N(1)  =     2000
   RHO(2)=  100.500       N(2)  =     4000

 VTST: version 3.2, (02/03/18)

 CHAIN: initializing optimizer

 OPT: Using VASP Conjugate-Gradient optimizer
 CHAIN: Read ICHAIN            0

 POSCAR: Au-Mn-OOH
  positions in direct lattice
  velocities in cartesian coordinates

 ion  position               nearest neighbor table
   1  0.000  0.000  0.204-  16 2.94  12 2.94   6 2.94   8 2.94   7 2.94   3 2.94  10 2.94   4 2.94
                             2 2.94
   2  0.333  0.000  0.204-   9 2.94  11 2.94  17 2.94  10 2.94   8 2.94   4 2.94   5 2.94   1 2.94
                             3 2.94
   3  0.667  0.000  0.204-   7 2.94  18 2.94  12 2.94   1 2.94  11 2.94   5 2.94   6 2.94   9 2.94
                             2 2.94
   4  0.000  0.333  0.204-  10 2.94   6 2.94   5 2.94  13 2.94   2 2.94  15 2.94   9 2.94   1 2.94
                             7 2.94
   5  0.333  0.333  0.204-  13 2.94   7 2.94  11 2.94   4 2.94   2 2.94  14 2.94   3 2.94   8 2.94
                             6 2.94
   6  0.667  0.333  0.204-  15 2.94  14 2.94   1 2.94  12 2.94   4 2.94   9 2.94   8 2.94   3 2.94
                             5 2.94
   7  0.000  0.667  0.204-  18 2.94   3 2.94  16 2.94   5 2.94   1 2.94  13 2.94   8 2.94   4 2.94
                             9 2.94
   8  0.333  0.667  0.204-   9 2.94  17 2.94   1 2.94   2 2.94  14 2.94  16 2.94   6 2.94   7 2.94
                             5 2.94
   9  0.667  0.667  0.204-   2 2.94   8 2.94  17 2.94   6 2.94  15 2.94   4 2.94   3 2.94  18 2.94
                             7 2.94
  10  0.111  0.111  0.296-  20 2.93  26 2.94  19 2.94  11 2.94  17 2.94   2 2.94   4 2.94   1 2.94
                            12 2.94  16 2.94  13 2.94  15 2.94
  11  0.444  0.111  0.296-  20 2.91  21 2.91  27 2.93  13 2.94   2 2.94  10 2.94  17 2.94   5 2.94
                             3 2.94  18 2.94  14 2.94  12 2.94
  12  0.778  0.111  0.296-  21 2.93  25 2.94  19 2.94  16 2.94  18 2.94   1 2.94  14 2.94  15 2.94
                             3 2.94   6 2.94  10 2.94  11 2.94
  13  0.111  0.444  0.296-  23 2.91  20 2.91  22 2.93   5 2.94  18 2.94  11 2.94   7 2.94   4 2.94
                            16 2.94  10 2.94  14 2.94  15 2.94
  14  0.444  0.444  0.296-  21 2.91  23 2.91  24 2.93  15 2.94   6 2.94  12 2.94   8 2.94  17 2.94
                             5 2.94  16 2.94  13 2.94  11 2.94
  15  0.778  0.444  0.296-  24 2.92  22 2.92  19 2.94  14 2.94   6 2.94  17 2.94  12 2.94   9 2.94
                             4 2.94  10 2.94  13 2.94  18 2.94
  16  0.111  0.778  0.296-  23 2.93  25 2.94  26 2.94  18 2.94  12 2.94   7 2.94   1 2.94   8 2.94
                            13 2.94  10 2.94  14 2.94  17 2.94
  17  0.444  0.778  0.296-  27 2.92  24 2.92  26 2.94   9 2.94  15 2.94   2 2.94  10 2.94  11 2.94
                             8 2.94  14 2.94  16 2.94  18 2.94
  18  0.778  0.778  0.296-  22 2.92  27 2.92  25 2.94  16 2.94   7 2.94  13 2.94  12 2.94   3 2.94
                            11 2.94   9 2.94  15 2.94  17 2.94
  19  0.889  0.222  0.389-  10 2.94  12 2.94  15 2.94  26 2.94  25 2.94  24 2.94  22 2.94  28 2.95
                            21 2.95  20 2.95  32 2.99  31 2.99
  20  0.223  0.223  0.388-  36 2.70  23 2.91  21 2.91  11 2.91  13 2.91  29 2.92  31 2.92  10 2.93
                            26 2.95  19 2.95  27 2.95  22 2.95
  21  0.553  0.223  0.388-  36 2.70  20 2.91  23 2.91  14 2.91  11 2.91  30 2.92  32 2.92  12 2.93
                            25 2.95  19 2.95  27 2.95  24 2.95
  22  0.886  0.557  0.388-  24 2.91  27 2.91  18 2.92  15 2.92  13 2.93  25 2.94  19 2.94  23 2.95
                            20 2.95  33 2.96  31 2.96  35 2.96
  23  0.223  0.553  0.388-  36 2.70  20 2.91  21 2.91  13 2.91  14 2.91  33 2.92  34 2.92  16 2.93
                            25 2.95  26 2.95  22 2.95  24 2.95
  24  0.557  0.557  0.388-  27 2.91  22 2.91  15 2.92  17 2.92  14 2.93  26 2.94  19 2.94  21 2.95
                            23 2.95  32 2.96  34 2.96  35 2.96
  25  0.889  0.889  0.389-  16 2.94  12 2.94  18 2.94  19 2.94  26 2.94  22 2.94  27 2.94  28 2.95
                            23 2.95  21 2.95  33 2.99  30 2.99
  26  0.222  0.889  0.389-  10 2.94  16 2.94  17 2.94  19 2.94  25 2.94  27 2.94  24 2.94  28 2.95
                            20 2.95  23 2.95  29 2.99  34 2.99
  27  0.557  0.886  0.388-  24 2.91  22 2.91  17 2.92  18 2.92  11 2.93  26 2.94  25 2.94  20 2.95
                            21 2.95  29 2.96  30 2.96  35 2.96
  28  0.000  0.000  0.482-  25 2.95  19 2.95  26 2.95  34 2.99  32 2.99  33 2.99  30 2.99  31 2.99
                            29 2.99
  29  0.334  0.010  0.481-  30 2.84  31 2.85  36 2.86  20 2.92  27 2.96  35 2.98  26 2.99  28 2.99
                            34 3.12
  30  0.656  0.010  0.481-  29 2.84  32 2.85  36 2.86  21 2.92  27 2.96  35 2.98  25 2.99  28 2.99
                            33 3.12
  31  0.010  0.334  0.481-  38 2.08  33 2.84  29 2.85  36 2.86  20 2.92  22 2.96  35 2.98  19 2.99
                            28 2.99  32 3.12
  32  0.656  0.334  0.481-  34 2.84  30 2.85  36 2.86  21 2.92  24 2.96  35 2.98  19 2.99  28 2.99
                            31 3.12
  33  0.010  0.656  0.481-  31 2.84  34 2.85  36 2.86  23 2.92  22 2.96  35 2.98  25 2.99  28 2.99
                            30 3.12
  34  0.334  0.656  0.481-  32 2.84  33 2.85  36 2.86  23 2.92  24 2.96  35 2.98  26 2.99  28 2.99
                            29 3.12
  35  0.667  0.667  0.482-  24 2.96  27 2.96  22 2.96  29 2.98  34 2.98  32 2.98  31 2.98  30 2.98
                            33 2.98
  36  0.333  0.333  0.469-  37 1.59  20 2.70  23 2.70  21 2.70  33 2.86  31 2.86  29 2.86  30 2.86
                            34 2.86  32 2.86
  37  0.338  0.333  0.531-  36 1.59
  38  0.998  0.316  0.561-  39 0.98  31 2.08
  39  0.100  0.322  0.573-  38 0.98

  LATTYP: Found a hexagonal cell.
 ALAT       =     8.8135128021
 C/A-ratio  =     2.9412617888

  Lattice vectors:

 A1 = (  -4.4067569092,  -7.6327256898,   0.0000000000)
 A2 = (   8.8135128021,   0.0000000000,   0.0000000000)
 A3 = (   0.0000000000,   0.0000000000,  25.9228484302)

Analysis of symmetry for initial positions (statically):
 Subroutine PRICEL returns:
 Original cell was already a primitive cell.

 Routine SETGRP: Setting up the symmetry group for a
 hexagonal supercell.

 Subroutine GETGRP returns: Found  1 space group operations
 (whereof  1 operations were pure point group operations)
 out of a pool of 24 trial point group operations.

The static configuration has the point symmetry C_1 .

Analysis of symmetry for dynamics (positions and initial velocities):
 Subroutine PRICEL returns:
 Original cell was already a primitive cell.

[...]

The dynamic configuration has the point symmetry C_1 .

Analysis of constrained symmetry for selective dynamics:
 Subroutine PRICEL returns:
[...]
     41      -5.4984      2.00000
     42      -5.4652      2.00000
     43      -5.4042      2.00000
     44      -5.3648      2.00000
     45      -5.3569      2.00000
     46      -5.3031      2.00000
     47      -5.2695      2.00000
     48      -5.2333      2.00000
     49      -5.2046      2.00000
     50      -5.1720      2.00000
     51      -5.1467      2.00000
     52      -5.1050      2.00000
     53      -5.1023      2.00000
     54      -5.0747      2.00000
     55      -5.0617      2.00000
     56      -5.0465      2.00000
     57      -5.0344      2.00000
     58      -5.0013      2.00000
     59      -4.9487      2.00000
     60      -4.9416      2.00000
[...]
    238       5.1891      0.00000
    239       5.2639      0.00000
    240       5.5000      0.00000
    241       5.5274      0.00000
    242       5.5592      0.00000
    243       5.6393      0.00000
    244       5.7218      0.00000
    245       5.7896      0.00000
    246       5.8561      0.00000
    247       5.8978      0.00000
    248       6.0176      0.00000
    249       6.0562      0.00000
    250       6.2579      0.00000
    251       6.3123      0.00000
    252       6.4818      0.00000

 soft charge-density along one line, spin component           1
         0         1         2         3         4         5         6         7         8         9
 total charge-density along one line

------------------------ aborting loop because EDIFF is reached ----------------------------------------

 total charge

# of ion       s       p       d       tot
    1        0.547   0.238   8.766   9.551
    2        0.545   0.241   8.763   9.550
    3        0.540   0.241   8.764   9.545
    4        0.541   0.242   8.763   9.546
    5        0.546   0.240   8.762   9.549
    6        0.544   0.240   8.764   9.548
    7        0.545   0.241   8.763   9.549
    8        0.541   0.241   8.765   9.547
    9        0.543   0.240   8.764   9.548
   10        0.523   0.306   8.773   9.602
   11        0.519   0.312   8.772   9.602
   12        0.522   0.308   8.768   9.599
   13        0.522   0.308   8.777   9.607
   14        0.514   0.312   8.776   9.602
   15        0.517   0.309   8.774   9.600
   16        0.520   0.309   8.770   9.598
   17        0.514   0.311   8.771   9.596
   18        0.516   0.311   8.770   9.597
   19        0.517   0.303   8.770   9.591
   20        0.551   0.343   8.734   9.628
   21        0.552   0.336   8.744   9.631
   22        0.512   0.317   8.766   9.594
   23        0.551   0.334   8.745   9.631
   24        0.508   0.311   8.775   9.594
   25        0.512   0.299   8.779   9.590
   26        0.516   0.299   8.776   9.591
   27        0.509   0.311   8.776   9.596
   28        0.531   0.215   8.779   9.525
   29        0.536   0.233   8.781   9.549
   30        0.543   0.237   8.769   9.549
   31        0.551   0.350   8.659   9.560
   32        0.540   0.229   8.781   9.549
   33        0.538   0.234   8.778   9.550
   34        0.544   0.236   8.770   9.549
   35        0.528   0.216   8.781   9.525
   36        0.351   0.424   5.170   5.944
   37        1.615   3.251   0.000   4.867
   38        1.579   3.414   0.000   4.993
   39        0.619   0.117   0.000   0.737
tot         22.763  16.959 311.958 351.680

  FORCE on cell =-STRESS in cart. coord.  units (eV):
  Direction    XX          YY          ZZ          XY          YZ          ZX
  Alpha Z   890.37318   890.37318   890.37318
  Ewald  176357.40742176153.20741************     8.92331   -10.92769   -11.84675
  Hartree184747.30481184616.11280************     4.85531    -5.24221   -25.10677
  E(xc)   -1822.66961 -1823.10668 -1828.57686     0.00718    -0.02524     0.06664
  Local  ************************373165.46736   -12.88103    15.28685    43.37184
  n-local  -126.66276  -126.76883  -101.96620     0.19761    -0.02049     0.27393
  augment  2410.95878  2412.77879  2416.26014    -0.04171     0.13696    -0.49487
  Kinetic  5684.38290  5705.32829  5711.55984    -0.91466     0.75560    -6.13616
  Fock        0.00000     0.00000     0.00000     0.00000     0.00000     0.00000
  Total     -20.00855   -20.32368    -0.55254     0.14600    -0.03622     0.12785
  in kB     -18.38293   -18.67246    -0.50765     0.13414    -0.03327     0.11746

 VOLUME and BASIS-vectors are now :
  energy-cutoff  :      500.00
  volume of cell :     1743.86
      direct lattice vectors                 reciprocal lattice vectors
     8.813512802  0.000000000  0.000000000     0.113462137 -0.065507406  0.000000000
     4.406756909  7.632725690  0.000000000     0.000000000  0.131014796  0.000000000
     0.000000000  0.000000000 25.922848430     0.000000000  0.000000000  0.038576008

  length of vectors
     8.813512802  8.813512802 25.922848430     0.131014796  0.131014796  0.038576008

 FORCES acting on ions
    electron-ion (+dipol)            ewald-force                    non-local-force                 convergence-correction
   0.147E+00 0.140E+00 0.279E+04   -.745E-01 -.130E+00 -.279E+04   -.743E-02 -.102E-01 -.669E+00   -.613E-01 0.598E-02 -.347E+00
   0.487E+00 0.473E+00 0.279E+04   -.567E+00 -.472E+00 -.279E+04   0.160E-01 0.401E-01 -.283E+00   0.663E-01 -.256E-01 -.299E+00
   -.619E+00 0.248E+00 0.279E+04   0.641E+00 -.358E+00 -.279E+04   -.183E-01 0.767E-01 -.720E+00   -.126E-01 0.288E-01 -.355E+00
   0.548E+00 0.325E+00 0.279E+04   -.617E+00 -.368E+00 -.279E+04   0.783E-01 -.337E-02 -.285E+00   0.509E-03 0.435E-01 -.273E+00
   -.265E+00 0.159E-01 0.280E+04   0.136E+00 0.864E-02 -.280E+04   0.384E-01 -.104E-01 -.279E+00   0.744E-01 -.180E-01 -.279E+00
   -.330E+00 0.355E+00 0.279E+04   0.481E+00 -.376E+00 -.279E+04   -.847E-01 -.110E-01 -.306E+00   -.577E-01 0.296E-01 -.351E+00
   -.767E-01 -.807E+00 0.279E+04   0.857E-01 0.848E+00 -.279E+04   0.181E-01 -.503E-01 -.264E+00   -.349E-01 0.180E-02 -.284E+00
   -.348E-02 -.611E+00 0.279E+04   -.244E-01 0.726E+00 -.279E+04   -.405E-01 -.489E-01 -.462E+00   0.601E-01 -.658E-01 -.368E+00
   0.145E+00 -.113E+00 0.279E+04   -.612E-01 0.121E+00 -.279E+04   -.327E-01 -.565E-02 -.432E+00   -.418E-01 -.546E-02 -.278E+00
   0.465E+01 0.376E+01 0.982E+03   -.447E+01 -.368E+01 -.981E+03   -.245E+00 -.158E+00 -.590E+00   0.683E-01 0.590E-01 -.338E+00
   -.103E+01 0.592E+01 0.990E+03   0.768E+00 -.589E+01 -.989E+03   0.157E+00 -.195E-01 -.448E+00   0.633E-01 -.273E-01 -.358E+00
   -.370E+01 0.325E+01 0.981E+03   0.370E+01 -.307E+01 -.980E+03   0.159E+00 -.199E+00 -.665E+00   -.110E+00 0.406E-01 -.386E+00
   0.367E+01 -.332E+01 0.991E+03   -.376E+01 0.336E+01 -.990E+03   0.779E-01 -.267E-01 -.395E+00   -.131E-01 0.141E-01 -.316E+00
   -.451E+01 -.283E+01 0.989E+03   0.468E+01 0.296E+01 -.988E+03   -.132E+00 -.649E-01 -.303E+00   0.711E-02 -.289E-01 -.367E+00
   0.923E+00 0.307E+01 0.986E+03   -.915E+00 -.320E+01 -.985E+03   -.286E-01 0.131E-01 -.516E+00   -.326E-02 0.813E-01 -.374E+00
   -.685E-01 -.518E+01 0.980E+03   0.106E+00 0.502E+01 -.979E+03   -.135E-01 0.255E+00 -.571E+00   -.249E-01 -.892E-01 -.369E+00
   0.327E+01 -.176E+01 0.984E+03   -.345E+01 0.178E+01 -.983E+03   0.308E-01 0.327E-01 -.468E+00   0.101E+00 -.392E-01 -.367E+00
   -.322E+01 -.292E+01 0.984E+03   0.335E+01 0.273E+01 -.983E+03   -.269E-02 0.167E+00 -.577E+00   -.761E-01 -.804E-03 -.367E+00
   0.760E+01 0.610E+01 -.854E+03   -.740E+01 -.618E+01 0.854E+03   -.185E+00 -.319E-01 0.254E+00   0.455E-01 0.128E+00 0.947E-01
   0.154E+02 0.171E+02 -.810E+03   -.148E+02 -.164E+02 0.811E+03   -.753E+00 -.675E+00 -.118E+01   0.134E-01 0.836E-01 0.817E-01
   -.233E+02 0.145E+02 -.823E+03   0.222E+02 -.140E+02 0.824E+03   0.113E+01 -.576E+00 -.639E+00   -.572E-01 0.194E-01 -.188E-01
   0.325E+01 -.110E+02 -.839E+03   -.364E+01 0.109E+02 0.839E+03   0.406E+00 0.890E-02 0.885E-01   0.149E-01 -.430E-01 0.423E-01
   -.436E+01 -.298E+02 -.822E+03   0.456E+01 0.288E+02 0.823E+03   -.133E+00 0.120E+01 -.674E+00   -.622E-01 -.600E-01 0.331E-01
   0.129E+01 -.521E+01 -.850E+03   -.102E+01 0.539E+01 0.849E+03   -.330E+00 -.232E+00 0.705E+00   0.416E-01 0.117E-01 -.252E-01
   -.643E+00 -.942E+00 -.869E+03   0.694E+00 0.107E+01 0.868E+03   0.526E-01 -.398E-01 0.859E+00   -.839E-01 -.727E-01 0.118E-01
   0.187E+01 0.535E+01 -.866E+03   -.199E+01 -.526E+01 0.866E+03   0.363E-01 -.819E-02 0.653E+00   0.703E-01 -.437E-01 0.250E-01
   -.117E+01 0.387E+01 -.852E+03   0.124E+01 -.421E+01 0.851E+03   -.751E-01 0.406E+00 0.808E+00   0.985E-02 -.229E-01 -.499E-01
   0.239E+02 0.408E+02 -.266E+04   -.243E+02 -.415E+02 0.266E+04   0.318E+00 0.415E+00 0.118E+01   0.434E-01 0.795E-01 0.384E+00
   0.940E+01 0.969E+02 -.264E+04   -.869E+01 -.971E+02 0.264E+04   -.806E+00 -.389E+00 0.113E+01   -.670E-02 0.113E+00 0.365E+00
   -.355E+02 0.611E+02 -.267E+04   0.354E+02 -.610E+02 0.266E+04   0.427E+00 -.595E+00 0.680E+00   -.491E-01 0.736E-01 0.378E+00
   0.533E+02 -.127E+02 -.245E+04   -.526E+02 0.128E+02 0.246E+04   -.101E+01 -.103E+00 -.173E+01   0.341E-01 0.256E-01 0.349E+00
   -.283E+02 -.566E+00 -.264E+04   0.275E+02 0.653E+00 0.264E+04   0.101E+01 -.630E-01 0.118E+01   0.259E-01 0.281E-01 0.407E+00
   0.117E+02 -.934E+02 -.265E+04   -.113E+02 0.935E+02 0.264E+04   -.538E+00 0.460E+00 0.104E+01   -.207E-02 -.166E+00 0.342E+00
   -.323E+02 -.598E+02 -.267E+04   0.323E+02 0.595E+02 0.266E+04   0.292E+00 0.679E+00 0.714E+00   -.201E-01 -.756E-01 0.395E+00
   0.186E+02 -.355E+02 -.268E+04   -.190E+02 0.361E+02 0.267E+04   0.241E+00 -.324E+00 0.973E+00   0.256E-01 -.100E+00 0.314E+00
   -.170E+02 -.183E+01 -.139E+04   0.172E+02 0.178E+01 0.139E+04   0.770E-01 -.331E-02 0.735E+00   -.516E-01 0.156E-01 0.357E+00
   -.474E+02 -.212E+01 -.184E+04   0.483E+02 0.198E+01 0.187E+04   -.925E+00 0.117E+00 -.285E+02   -.271E-01 0.151E-01 0.117E+00
   0.828E+02 0.772E+01 -.178E+04   -.121E+03 -.106E+02 0.179E+04   0.385E+02 0.291E+01 -.670E+01   0.674E-01 0.179E-01 -.185E-01
   -.691E+02 -.346E+01 -.317E+03   0.767E+02 0.384E+01 0.319E+03   -.759E+01 -.383E+00 -.273E+01   -.691E-02 0.863E-03 -.385E-02
   -.301E+02 -.282E+01 0.421E+02   -.568E-13 -.457E-13 -.489E-11   0.301E+02 0.274E+01 -.394E+02   0.302E-01 0.320E-01 -.250E+01

 POSITION                                       TOTAL-FORCE (eV/Angst)
      0.00000      0.00000      5.28038         0.003747      0.006686     -0.121270
      2.93784      0.00000      5.28038         0.001944      0.016780     -0.055394
      5.87568      0.00000      5.28038        -0.008843     -0.003443     -0.005423
      1.46892      2.54424      5.28038         0.009534     -0.001891     -0.074636
      4.40676      2.54424      5.28038        -0.016232     -0.002702     -0.089002
      7.34459      2.54424      5.28038         0.008681     -0.000591     -0.043030
      2.93784      5.08848      5.28038        -0.007861     -0.006146     -0.063255
      5.87568      5.08848      5.28038        -0.008327      0.001872     -0.032923
      8.81351      5.08848      5.28038         0.009210     -0.001917     -0.069159
      1.46892      0.84808      7.67911         0.001645     -0.018775      0.078782
      4.40676      0.84808      7.67911        -0.043026     -0.013596      0.056672
      7.34459      0.84808      7.67911         0.045934      0.019750      0.118758
      2.93784      3.39232      7.67911        -0.030226      0.033350     -0.000289
      5.87568      3.39232      7.67911         0.042021      0.029294      0.051122
      8.81351      3.39232      7.67911        -0.024494     -0.036994      0.050507
      4.40676      5.93656      7.67911        -0.000470      0.007453      0.125208
      7.34459      5.93656      7.67911        -0.056348      0.016302      0.093690
     10.28243      5.93656      7.67911         0.053068     -0.019173      0.116992
      8.81351      1.69603     10.07479         0.061899      0.019046      0.050081
      2.95306      1.70495     10.04990        -0.180469      0.058150      0.119915
      5.86045      1.70495     10.04990         0.043859     -0.024031      0.000572
     10.26640      4.24966     10.05812         0.034312     -0.132458      0.124167
      4.40676      4.22282     10.04990         0.006178      0.068512     -0.017341
      7.36062      4.24966     10.05812        -0.019093     -0.038568      0.051347
     11.75147      6.78471     10.07479         0.019384      0.017678      0.006700
      5.87556      6.78471     10.07479        -0.016570      0.043772      0.019163
      8.81351      6.76613     10.05812         0.005831      0.043643      0.034480
      0.00000      0.00000     12.48774        -0.096244     -0.174676     -0.156356
      2.98478      0.07843     12.47445        -0.103438     -0.521559     -0.219146
      5.82873      0.07843     12.47445         0.217731     -0.401842     -0.198123
      1.56032      2.54568     12.47445        -0.342882     -0.019064     -0.082244
      7.25320      2.54568     12.47445         0.251081      0.053019     -0.278564
      2.98229      5.00861     12.47445        -0.116556      0.492739     -0.224627
      5.83122      5.00861     12.47445         0.250744      0.362016     -0.191945
      8.81351      5.08848     12.49541        -0.115533      0.162701     -0.156103
      4.40676      2.54424     12.16834         0.139057     -0.029319      1.099945
      4.44731      2.53957     13.76268         0.004450     -0.001816     -0.100707
     10.18793      2.41020     14.54272        -0.023858     -0.003241     -0.016321
      2.30079      2.45788     14.85646         0.000162     -0.000959     -0.002242
    total drift:                                0.001955     -0.048227      0.194504

  FREE ENERGIE OF THE ION-ELECTRON SYSTEM (eV)
  free  energy   TOTEN  =      -130.00017262 eV

  energy  without entropy=     -130.00017262  energy(sigma->0) =     -130.00017262

 stress matrix after NEB project (eV)
    -20.00855      0.14600      0.12785
      0.14600    -20.32368     -0.03622
      0.12785     -0.03622     -0.55254
  FORCES: max atom, RMS     0.100822    0.016807
  FORCE total and by dimension    0.104963    0.100707
  Stress total and by dimension   28.526779   20.323680
|           W    W    AA    RRRRR   N    N  II  N    N   GGGG   !!!           |
|           W    W   A  A   R    R  NN   N  II  NN   N  G    G  !!!           |
|           W    W  A    A  R    R  N N  N  II  N N  N  G       !!!           |
|           W WW W  AAAAAA  RRRRR   N  N N  II  N  N N  G  GGG   !            |
|           WW  WW  A    A  R   R   N   NN  II  N   NN  G    G                |
|           W    W  A    A  R    R  N    N  II  N    N   GGGG   !!!           |
|     Tetrahedron method does not include variations of the Fermi             |
|     occupations, so forces and stress will be inaccurate. We suggest        |
|     using a different smearing scheme ISMEAR = 1 or 2 for metals in         |
|     relaxations.                                                            |

 total charge

# of ion       s       p       d       tot
    1        0.547   0.238   8.766   9.551
    2        0.545   0.241   8.763   9.550
    3        0.540   0.241   8.764   9.545
    4        0.541   0.242   8.763   9.546
    5        0.546   0.240   8.762   9.549
    6        0.544   0.240   8.764   9.548
    7        0.545   0.241   8.763   9.549
    8        0.541   0.241   8.765   9.547
    9        0.543   0.240   8.764   9.548
   10        0.523   0.306   8.773   9.602
   11        0.519   0.312   8.772   9.602
   12        0.522   0.308   8.768   9.599
   13        0.522   0.308   8.777   9.607
   14        0.514   0.312   8.776   9.602
   15        0.517   0.309   8.774   9.600
   16        0.520   0.309   8.770   9.598
   17        0.514   0.311   8.771   9.596
   18        0.516   0.311   8.770   9.597
   19        0.517   0.303   8.770   9.591
   20        0.551   0.343   8.734   9.628
   21        0.552   0.336   8.744   9.631
   22        0.512   0.317   8.766   9.594
   23        0.551   0.334   8.745   9.631
   24        0.508   0.311   8.775   9.594
   25        0.512   0.299   8.779   9.590
   26        0.516   0.299   8.776   9.591
   27        0.509   0.311   8.776   9.596
   28        0.531   0.215   8.779   9.525
   29        0.536   0.233   8.781   9.549
   30        0.543   0.237   8.769   9.549
   31        0.551   0.350   8.659   9.560
   32        0.540   0.229   8.781   9.549
   33        0.538   0.234   8.778   9.550
   34        0.544   0.236   8.770   9.549
   35        0.528   0.216   8.781   9.525
   36        0.351   0.424   5.170   5.944
   37        1.615   3.251   0.000   4.867
   38        1.579   3.414   0.000   4.993
   39        0.619   0.117   0.000   0.737
tot         22.763  16.959 311.958 351.680

 BZINTS: Fermi energy:   -0.274154;  405.000000 electrons
         Band energy:-0.167110E+04;  BLOECHL correction:   -0.040032