 vasp.6.2.0 18Jan21 (build Jun 12 2021 23:27:24) complex

 executed on             LinuxIFC date 2022.05.26  19:33:55

 INCAR:
   ISMEAR = -5
   SIGMA = 0.1
   ISPIN = 1
   EDIFF = 1.d-5
   EDIFFG = -0.01
   NSW = 0
   NELM = 150
   ENCUT = 500
   ISIF = 2
   IBRION = 2
   LREAL = Auto
   ALGO = Fast
   ICHARG = 11
   LORBIT = 10
   LCHARG = .F.
   LWAVE = .F.

 POTCAR:    PAW_PBE Au 04Oct2007
 POTCAR:    PAW_PBE Os 17Jan2003
 POTCAR:    PAW_PBE H 15Jun2001
|           W    W    AA    RRRRR   N    N  II  N    N   GGGG   !!!           |
|           W    W   A  A   R    R  NN   N  II  NN   N  G    G  !!!           |
|           W    W  A    A  R    R  N N  N  II  N N  N  G       !!!           |
|           W WW W  AAAAAA  RRRRR   N  N N  II  N  N N  G  GGG   !            |
|           WW  WW  A    A  R   R   N   NN  II  N   NN  G    G                |
|           W    W  A    A  R    R  N    N  II  N    N   GGGG   !!!           |
|     For optimal performance we recommend to set                             |
|       NCORE = 2 up to number-of-cores-per-socket                            |
|     This setting can greatly improve the performance of VASP for DFT.       |
|     The default, NCORE=1 might be grossly inefficient on modern             |
|     multi-core architectures or massively parallel machines. Do your        |
|     Unfortunately you need to use the default for GW and RPA                |
|     calculations (for HF NCORE is supported but not extensively tested      |
|     yet).                                                                   |

 POTCAR:    PAW_PBE Au 04Oct2007
   VRHFIN =Au: s1d10

   TITEL  = PAW_PBE Au 04Oct2007
   POMASS =  196.966; ZVAL   =   11.000    mass and valenz
   ENMAX  =  229.943; ENMIN  =  172.457 eV

 POTCAR:    PAW_PBE Os 17Jan2003
   VRHFIN =Os: 6s5d

   TITEL  = PAW_PBE Os 17Jan2003
   POMASS =  190.200; ZVAL   =    8.000    mass and valenz
   ENMAX  =  228.022; ENMIN  =  171.017 eV

 POTCAR:    PAW_PBE H 15Jun2001
   VRHFIN =H: ultrasoft test

   TITEL  = PAW_PBE H 15Jun2001
   POMASS =    1.000; ZVAL   =    1.000    mass and valenz
   ENMAX  =  250.000; ENMIN  =  200.000 eV

 Optimization of the real space projectors (new method)

 maximal supplied QI-value         = 15.12
 optimisation between [QCUT,QGAM] = [ 11.34, 22.83] = [ 36.00,145.93] Ry
 Optimized for a Real-space Cutoff    1.39 Angstroem

   l    n(q)    QCUT    max X(q) W(low)/X(q) W(high)/X(q)  e(spline)
   2      9    11.338    60.898    0.39E-03    0.42E-03    0.21E-06
   2      9    11.338    58.894    0.40E-03    0.42E-03    0.22E-06
   0      9    11.338   109.617    0.13E-03    0.20E-04    0.13E-06
   0      9    11.338    75.026    0.13E-03    0.20E-04    0.13E-06
   1      9    11.338    16.344    0.33E-04    0.24E-03    0.18E-06
   1      9    11.338    10.160    0.26E-04    0.19E-03    0.15E-06
 Optimization of the real space projectors (new method)

[...]

   l    n(q)    QCUT    max X(q) W(low)/X(q) W(high)/X(q)  e(spline)
   2     10    11.327   152.873    0.32E-03    0.72E-03    0.11E-05
   2     10    11.327   151.010    0.32E-03    0.72E-03    0.11E-05
   0     11    11.327    72.114    0.43E-04    0.61E-04    0.13E-06
   0     11    11.327    44.596    0.40E-04    0.57E-04    0.12E-06
   1     10    11.327    13.742    0.16E-03    0.10E-03    0.19E-06
   1     10    11.327     8.461    0.12E-03    0.78E-04    0.15E-06
 Optimization of the real space projectors (new method)

 maximal supplied QI-value         = 34.20
 optimisation between [QCUT,QGAM] = [ 11.29, 22.57] = [ 35.68,142.71] Ry
 Optimized for a Real-space Cutoff    1.16 Angstroem

   l    n(q)    QCUT    max X(q) W(low)/X(q) W(high)/X(q)  e(spline)
   0      8    11.287    19.460    0.40E-03    0.73E-03    0.16E-06
   0      8    11.287    12.209    0.38E-03    0.70E-03    0.15E-06
   1      7    11.287     4.655    0.22E-03    0.25E-04    0.22E-06
  PAW_PBE Au 04Oct2007                  :
  PAW_PBE Os 17Jan2003                  :
  PAW_PBE H 15Jun2001                   :

 POSCAR: Au-Os-H
  positions in direct lattice
  velocities in cartesian coordinates
 exchange correlation table for  LEXCH =        8
   RHO(1)=    0.500       N(1)  =     2000
   RHO(2)=  100.500       N(2)  =     4000

 VTST: version 3.2, (02/03/18)

 CHAIN: initializing optimizer

 OPT: Using VASP Conjugate-Gradient optimizer
 CHAIN: Read ICHAIN            0

 POSCAR: Au-Os-H
  positions in direct lattice
  velocities in cartesian coordinates

 ion  position               nearest neighbor table
   1  0.000  0.000  0.238-  16 2.94  12 2.94   6 2.94   8 2.94   7 2.94   3 2.94  10 2.94   4 2.94
                             2 2.94
   2  0.333  0.000  0.238-   9 2.94  11 2.94  17 2.94  10 2.94   8 2.94   4 2.94   5 2.94   1 2.94
                             3 2.94
   3  0.667  0.000  0.238-   7 2.94  18 2.94  12 2.94   1 2.94  11 2.94   5 2.94   6 2.94   9 2.94
                             2 2.94
   4  0.000  0.333  0.238-  10 2.94   6 2.94   5 2.94  13 2.94   2 2.94  15 2.94   9 2.94   1 2.94
                             7 2.94
   5  0.333  0.333  0.238-  13 2.94   7 2.94  11 2.94   4 2.94   2 2.94  14 2.94   3 2.94   8 2.94
                             6 2.94
   6  0.667  0.333  0.238-  15 2.94  14 2.94   1 2.94  12 2.94   4 2.94   9 2.94   8 2.94   3 2.94
                             5 2.94
   7  0.000  0.667  0.238-  18 2.94   3 2.94  16 2.94   5 2.94   1 2.94  13 2.94   8 2.94   4 2.94
                             9 2.94
   8  0.333  0.667  0.238-   9 2.94  17 2.94   1 2.94   2 2.94  14 2.94  16 2.94   6 2.94   7 2.94
                             5 2.94
   9  0.667  0.667  0.238-   2 2.94   8 2.94  17 2.94   6 2.94  15 2.94   4 2.94   3 2.94  18 2.94
                             7 2.94
  10  0.111  0.111  0.346-  20 2.90  11 2.94  17 2.94   2 2.94   4 2.94   1 2.94  12 2.94  16 2.94
                            13 2.94  15 2.94  26 2.95  19 2.95
  11  0.444  0.111  0.346-  20 2.91  21 2.91  27 2.94  13 2.94   2 2.94  10 2.94  17 2.94   5 2.94
                             3 2.94  18 2.94  14 2.94  12 2.94
  12  0.778  0.111  0.346-  21 2.90  16 2.94  18 2.94   1 2.94  14 2.94  15 2.94   3 2.94   6 2.94
                            10 2.94  11 2.94  25 2.95  19 2.95
  13  0.111  0.444  0.346-  23 2.91  20 2.91  22 2.94   5 2.94  18 2.94  11 2.94   7 2.94   4 2.94
                            16 2.94  10 2.94  14 2.94  15 2.94
  14  0.444  0.444  0.346-  21 2.91  23 2.91  24 2.94  15 2.94   6 2.94  12 2.94   8 2.94  17 2.94
                             5 2.94  16 2.94  13 2.94  11 2.94
  15  0.778  0.444  0.346-  24 2.92  22 2.92  14 2.94   6 2.94  17 2.94  12 2.94   9 2.94   4 2.94
                            10 2.94  13 2.94  18 2.94  19 2.95
  16  0.111  0.778  0.346-  23 2.90  18 2.94  12 2.94   7 2.94   1 2.94   8 2.94  13 2.94  10 2.94
                            14 2.94  17 2.94  25 2.95  26 2.95
  17  0.444  0.778  0.346-  27 2.92  24 2.92   9 2.94  15 2.94   2 2.94  10 2.94  11 2.94   8 2.94
                            14 2.94  16 2.94  18 2.94  26 2.95
  18  0.778  0.778  0.346-  22 2.92  27 2.92  16 2.94   7 2.94  13 2.94  12 2.94   3 2.94  11 2.94
                             9 2.94  15 2.94  17 2.94  25 2.95
  19  0.888  0.223  0.455-  24 2.93  22 2.93  21 2.93  20 2.93  28 2.95  15 2.95  26 2.95  25 2.95
                            10 2.95  12 2.95  32 2.98  31 2.98
  20  0.222  0.222  0.452-  36 2.77  10 2.90  11 2.91  13 2.91  26 2.93  19 2.93  23 2.95  21 2.95
                            27 2.96  22 2.96  29 2.96  31 2.96
  21  0.556  0.222  0.452-  36 2.77  12 2.90  14 2.91  11 2.91  25 2.93  19 2.93  20 2.95  23 2.95
                            27 2.96  24 2.96  30 2.96  32 2.96
  22  0.886  0.557  0.453-  24 2.90  27 2.90  18 2.92  15 2.92  25 2.93  19 2.93  13 2.94  35 2.95
                            23 2.96  20 2.96  33 2.98  31 2.98
  23  0.222  0.556  0.452-  36 2.77  16 2.90  13 2.91  14 2.91  25 2.93  26 2.93  20 2.95  21 2.95
                            22 2.96  24 2.96  33 2.96  34 2.96
  24  0.557  0.557  0.453-  27 2.90  22 2.90  15 2.92  17 2.92  26 2.93  19 2.93  14 2.94  35 2.95
                            21 2.96  23 2.96  32 2.98  34 2.98
  25  0.888  0.888  0.455-  22 2.93  27 2.93  23 2.93  21 2.93  28 2.95  18 2.95  19 2.95  26 2.95
                            16 2.95  12 2.95  33 2.98  30 2.98
  26  0.223  0.888  0.455-  27 2.93  24 2.93  20 2.93  23 2.93  28 2.95  17 2.95  19 2.95  25 2.95
                            10 2.95  16 2.95  29 2.98  34 2.98
  27  0.557  0.886  0.453-  24 2.90  22 2.90  17 2.92  18 2.92  26 2.93  25 2.93  11 2.94  35 2.95
                            20 2.96  21 2.96  29 2.98  30 2.98
  28  0.000  0.000  0.563-  25 2.95  19 2.95  26 2.95  34 2.98  32 2.98  33 2.98  30 2.98  31 2.98
                            29 2.98
  29  0.333  0.009  0.563-  31 2.86  30 2.86  36 2.88  20 2.96  28 2.98  35 2.98  27 2.98  26 2.98
                            34 3.09
  30  0.658  0.009  0.563-  32 2.86  29 2.86  36 2.88  21 2.96  28 2.98  35 2.98  27 2.98  25 2.98
                            33 3.09
  31  0.009  0.333  0.563-  29 2.86  33 2.86  36 2.88  20 2.96  28 2.98  35 2.98  22 2.98  19 2.98
                            32 3.09
  32  0.658  0.333  0.563-  30 2.86  34 2.86  36 2.88  21 2.96  28 2.98  35 2.98  24 2.98  19 2.98
                            31 3.09
  33  0.009  0.658  0.563-  34 2.86  31 2.86  36 2.88  23 2.96  28 2.98  35 2.98  22 2.98  25 2.98
                            30 3.09
  34  0.333  0.658  0.563-  33 2.86  32 2.86  36 2.88  23 2.96  28 2.98  35 2.98  24 2.98  26 2.98
                            29 3.09
  35  0.667  0.667  0.563-  24 2.95  27 2.95  22 2.95  29 2.98  34 2.98  32 2.98  31 2.98  30 2.98
                            33 2.98
  36  0.333  0.333  0.550-  37 1.62  20 2.77  23 2.77  21 2.77  33 2.88  31 2.88  29 2.88  30 2.88
                            34 2.88  32 2.88
  37  0.333  0.333  0.623-  36 1.62

  LATTYP: Found a hexagonal cell.
 ALAT       =     8.8135128021
 C/A-ratio  =     2.5184286595

  Lattice vectors:

 A1 = (  -4.4067569092,  -7.6327256898,   0.0000000000)
 A2 = (   8.8135128021,   0.0000000000,   0.0000000000)
 A3 = (   0.0000000000,   0.0000000000,  22.1962032318)

Analysis of symmetry for initial positions (statically):
 Subroutine PRICEL returns:
 Original cell was already a primitive cell.

 Routine SETGRP: Setting up the symmetry group for a
 hexagonal supercell.

 Subroutine GETGRP returns: Found  6 space group operations
 (whereof  6 operations were pure point group operations)
 out of a pool of 24 trial point group operations.

The static configuration has the point symmetry C_3v.

Analysis of symmetry for dynamics (positions and initial velocities):
 Subroutine PRICEL returns:
 Original cell was already a primitive cell.

[...]

The dynamic configuration has the point symmetry C_3v.

Analysis of constrained symmetry for selective dynamics:
 Subroutine PRICEL returns:
 Original cell was already a primitive cell.

 Routine SETGRP: Setting up the symmetry group for a
 hexagonal supercell.

 Subroutine GETGRP returns: Found  6 space group operations
 (whereof  6 operations were pure point group operations)
[...]
     24      -5.0960      2.00000
     25      -5.0906      2.00000
     26      -5.0451      2.00000
     27      -4.9808      2.00000
     28      -4.9291      2.00000
     29      -4.8761      2.00000
     30      -4.8328      2.00000
     31      -4.8242      2.00000
     32      -4.7924      2.00000
     33      -4.7809      2.00000
     34      -4.7753      2.00000
     35      -4.6931      2.00000
     36      -4.6574      2.00000
     37      -4.6195      2.00000
     38      -4.5694      2.00000
     39      -4.5283      2.00000
     40      -4.4476      2.00000
     41      -4.4192      2.00000
     42      -4.3754      2.00000
     43      -4.3530      2.00000
     44      -4.3453      2.00000
     45      -4.3274      2.00000
     46      -4.2367      2.00000
     47      -4.2200      2.00000
     48      -4.1785      2.00000
     49      -4.1639      2.00000
     50      -4.1512      2.00000
     51      -4.1453      2.00000
     52      -4.1325      2.00000
     53      -4.0970      2.00000
     54      -4.0574      2.00000
     55      -4.0513      2.00000
     56      -4.0047      2.00000
     57      -3.9976      2.00000
     58      -3.9864      2.00000
     59      -3.9759      2.00000
     60      -3.9605      2.00000
[...]
    238       6.7272      0.00000
    239       6.7306      0.00000
    240       6.7680      0.00000
    241       6.8273      0.00000
    242       6.8630      0.00000
    243       7.1073      0.00000
    244       7.1585      0.00000
    245       7.2431      0.00000
    246       7.5633      0.00000
    247       7.6097      0.00000
    248       7.6835      0.00000
    249       7.7129      0.00000
    250       7.8791      0.00000
    251       7.9617      0.00000
    252       8.0061      0.00000

 soft charge-density along one line, spin component           1
         0         1         2         3         4         5         6         7         8         9
 total charge-density along one line

------------------------ aborting loop because EDIFF is reached ----------------------------------------

 total charge

# of ion       s       p       d       tot
    1        0.547   0.237   8.769   9.553
    2        0.544   0.241   8.765   9.549
    3        0.544   0.241   8.765   9.549
    4        0.544   0.241   8.765   9.549
    5        0.546   0.241   8.759   9.546
    6        0.544   0.241   8.765   9.549
    7        0.544   0.241   8.765   9.549
    8        0.544   0.241   8.765   9.549
    9        0.542   0.238   8.769   9.549
   10        0.525   0.308   8.766   9.599
   11        0.524   0.308   8.782   9.614
   12        0.525   0.308   8.766   9.599
   13        0.524   0.308   8.782   9.614
   14        0.524   0.308   8.782   9.614
   15        0.517   0.308   8.777   9.601
   16        0.525   0.308   8.766   9.599
   17        0.517   0.308   8.777   9.601
   18        0.517   0.308   8.777   9.601
   19        0.514   0.298   8.775   9.587
   20        0.557   0.333   8.746   9.637
   21        0.557   0.333   8.746   9.637
   22        0.506   0.307   8.779   9.592
   23        0.557   0.333   8.746   9.637
   24        0.506   0.307   8.779   9.592
   25        0.514   0.298   8.775   9.587
   26        0.514   0.298   8.775   9.587
   27        0.506   0.307   8.779   9.592
   28        0.535   0.227   8.762   9.524
   29        0.555   0.247   8.741   9.542
   30        0.555   0.247   8.741   9.542
   31        0.555   0.247   8.741   9.542
   32        0.555   0.247   8.741   9.542
   33        0.555   0.247   8.741   9.542
   34        0.555   0.247   8.741   9.542
   35        0.529   0.226   8.764   9.520
   36        0.560   0.448   5.934   6.942
   37        0.527   0.021   0.000   0.548
tot         19.810  10.146 312.664 342.620

  FORCE on cell =-STRESS in cart. coord.  units (eV):
  Direction    XX          YY          ZZ          XY          YZ          ZX
  Alpha Z  1014.28959  1014.28959  1014.28959
  Ewald  118948.82144118948.82184************    -0.00033    -0.00009    -0.00016
  Hartree127503.99892127503.99892************     0.00000    -0.00002    -0.00004
  E(xc)   -1766.32592 -1766.32590 -1774.52887    -0.00002    -0.00000    -0.00000
  Local  ************************259027.39525     0.00172     0.00005     0.00009
  n-local  -111.27907   -56.52163   -51.87610    26.89639    -1.39723     1.58685
  augment  2381.28559  2381.28710  2400.77759    -0.00131     0.00001     0.00004
  Kinetic  5459.23305  5475.34446  5527.82692     8.38822    -0.47797     0.91764
  Fock        0.00000     0.00000     0.00000     0.00000     0.00000     0.00000
  Total     -23.40384   -23.40384     3.28623    -0.00000     0.00000     0.00000
  in kB     -25.11252   -25.11252     3.52616    -0.00000     0.00000     0.00000

 VOLUME and BASIS-vectors are now :
  energy-cutoff  :      500.00
  volume of cell :     1493.16
      direct lattice vectors                 reciprocal lattice vectors
     8.813512802  0.000000000  0.000000000     0.113462137 -0.065507406  0.000000000
     4.406756909  7.632725690  0.000000000     0.000000000  0.131014796  0.000000000
     0.000000000  0.000000000 22.196203232     0.000000000  0.000000000  0.045052750

  length of vectors
     8.813512802  8.813512802 22.196203232     0.131014796  0.131014796  0.045052750

 FORCES acting on ions
    electron-ion (+dipol)            ewald-force                    non-local-force                 convergence-correction
   -.198E-04 -.163E-04 0.247E+04   0.519E-04 0.433E-04 -.247E+04   0.563E-17 0.315E-17 -.893E+00   -.202E-03 -.131E-03 -.219E+00
   0.627E+00 0.153E+00 0.247E+04   -.697E+00 -.254E+00 -.247E+04   0.613E-01 0.113E+00 -.236E+00   0.845E-02 -.716E-02 -.321E+00
   -.627E+00 0.153E+00 0.247E+04   0.697E+00 -.254E+00 -.247E+04   -.613E-01 0.113E+00 -.236E+00   -.816E-02 -.519E-02 -.320E+00
   0.446E+00 0.467E+00 0.247E+04   -.569E+00 -.476E+00 -.247E+04   0.128E+00 -.319E-02 -.236E+00   -.192E-02 0.108E-01 -.321E+00
   0.707E-05 -.243E-04 0.247E+04   0.951E-04 0.175E-05 -.247E+04   0.177E-17 0.413E-18 0.262E-02   0.430E-02 0.262E-02 -.378E+00
   -.446E+00 0.467E+00 0.247E+04   0.569E+00 -.476E+00 -.247E+04   -.128E+00 -.319E-02 -.236E+00   0.358E-03 0.118E-01 -.320E+00
   -.181E+00 -.620E+00 0.247E+04   0.128E+00 0.731E+00 -.247E+04   0.668E-01 -.109E+00 -.236E+00   -.851E-02 -.448E-02 -.320E+00
   0.181E+00 -.620E+00 0.247E+04   -.128E+00 0.731E+00 -.247E+04   -.668E-01 -.109E+00 -.236E+00   0.104E-01 -.558E-02 -.320E+00
   0.198E-04 -.415E-04 0.247E+04   0.166E-03 -.200E-04 -.247E+04   0.255E-17 0.401E-18 -.576E+00   -.464E-02 -.240E-02 -.331E+00
   0.725E+01 0.418E+01 0.811E+03   -.669E+01 -.386E+01 -.810E+03   -.407E+00 -.235E+00 -.733E+00   -.156E+00 -.901E-01 0.410E+00
   0.145E-04 0.376E+01 0.817E+03   0.148E-03 -.369E+01 -.817E+03   0.503E-08 0.756E-01 -.181E+00   0.380E-02 -.196E+00 0.458E+00
   -.725E+01 0.418E+01 0.811E+03   0.669E+01 -.386E+01 -.810E+03   0.407E+00 -.235E+00 -.733E+00   0.155E+00 -.886E-01 0.409E+00
   0.326E+01 -.188E+01 0.817E+03   -.320E+01 0.184E+01 -.817E+03   0.654E-01 -.378E-01 -.181E+00   -.168E+00 0.102E+00 0.458E+00
   -.326E+01 -.188E+01 0.817E+03   0.320E+01 0.184E+01 -.817E+03   -.654E-01 -.378E-01 -.181E+00   0.175E+00 0.101E+00 0.457E+00
   0.314E-04 0.493E+01 0.815E+03   0.236E-03 -.509E+01 -.815E+03   0.344E-08 0.516E-01 -.536E+00   -.241E-02 0.381E-01 0.497E+00
   -.214E-04 -.837E+01 0.811E+03   0.163E-03 0.773E+01 -.810E+03   0.313E-07 0.470E+00 -.733E+00   0.296E-03 0.178E+00 0.409E+00
   0.427E+01 -.247E+01 0.815E+03   -.440E+01 0.254E+01 -.815E+03   0.447E-01 -.258E-01 -.536E+00   0.321E-01 -.207E-01 0.497E+00
   -.427E+01 -.247E+01 0.815E+03   0.440E+01 0.254E+01 -.815E+03   -.447E-01 -.258E-01 -.536E+00   -.321E-01 -.188E-01 0.497E+00
   -.419E-04 0.328E+01 -.881E+03   0.543E-04 -.346E+01 0.879E+03   0.175E-08 0.263E-01 0.513E+00   -.505E-03 0.132E+00 0.123E+01
   0.485E+01 0.280E+01 -.843E+03   -.390E+01 -.225E+01 0.842E+03   -.105E+01 -.607E+00 -.107E+01   0.577E-01 0.332E-01 0.163E+01
   -.485E+01 0.280E+01 -.843E+03   0.390E+01 -.225E+01 0.842E+03   0.105E+01 -.607E+00 -.107E+01   -.567E-01 0.350E-01 0.163E+01
   -.745E+01 0.430E+01 -.863E+03   0.706E+01 -.408E+01 0.862E+03   0.472E+00 -.273E+00 0.580E+00   -.470E-01 0.227E-01 0.127E+01
   -.112E-04 -.561E+01 -.843E+03   0.141E-03 0.450E+01 0.842E+03   0.809E-07 0.121E+01 -.107E+01   0.172E-02 -.667E-01 0.163E+01
   0.745E+01 0.430E+01 -.863E+03   -.706E+01 -.408E+01 0.862E+03   -.472E+00 -.273E+00 0.580E+00   0.400E-01 0.232E-01 0.127E+01
   -.284E+01 -.164E+01 -.881E+03   0.300E+01 0.173E+01 0.879E+03   -.228E-01 -.131E-01 0.513E+00   -.112E+00 -.648E-01 0.123E+01
   0.284E+01 -.164E+01 -.881E+03   -.300E+01 0.173E+01 0.879E+03   0.228E-01 -.131E-01 0.513E+00   0.114E+00 -.662E-01 0.123E+01
   0.919E-05 -.860E+01 -.863E+03   0.200E-03 0.816E+01 0.862E+03   0.363E-07 0.546E+00 0.580E+00   -.440E-02 -.520E-01 0.127E+01
   -.106E-04 -.112E-04 -.248E+04   0.277E-04 0.314E-04 0.248E+04   -.772E-17 0.215E-17 0.655E+00   0.160E-03 0.755E-04 0.663E+00
   0.515E+01 0.959E+01 -.248E+04   -.465E+01 -.892E+01 0.248E+04   -.702E+00 -.101E+01 0.165E+00   0.206E+00 0.305E+00 0.520E+00
   -.515E+01 0.959E+01 -.248E+04   0.465E+01 -.892E+01 0.248E+04   0.702E+00 -.101E+01 0.165E+00   -.206E+00 0.306E+00 0.521E+00
   0.109E+02 -.336E+00 -.248E+04   -.100E+02 0.433E+00 0.248E+04   -.123E+01 -.103E+00 0.165E+00   0.367E+00 0.262E-01 0.520E+00
   -.109E+02 -.336E+00 -.248E+04   0.100E+02 0.433E+00 0.248E+04   0.123E+01 -.103E+00 0.165E+00   -.368E+00 0.273E-01 0.520E+00
   0.573E+01 -.926E+01 -.248E+04   -.540E+01 0.848E+01 0.248E+04   -.523E+00 0.111E+01 0.165E+00   0.162E+00 -.332E+00 0.521E+00
   -.573E+01 -.926E+01 -.248E+04   0.540E+01 0.848E+01 0.248E+04   0.523E+00 0.111E+01 0.165E+00   -.160E+00 -.332E+00 0.520E+00
   0.318E-04 -.315E-04 -.248E+04   0.144E-03 -.470E-04 0.248E+04   0.145E-17 0.143E-17 0.741E+00   -.472E-02 -.243E-02 0.491E+00
   -.170E-04 -.107E-04 -.168E+04   0.835E-04 0.756E-05 0.169E+04   0.587E-17 0.519E-18 -.310E+01   0.154E-02 0.934E-03 0.618E+00
   0.654E-05 -.416E-05 -.282E+03   0.464E-05 0.287E-06 0.285E+03   0.764E-19 0.723E-19 -.281E+01   0.106E-03 0.641E-04 -.124E+00
   -.786E-03 -.781E-03 -.720E+01   -.824E-14 0.178E-12 -.375E-11   0.451E-15 0.203E-17 -.107E+02   -.774E-03 0.129E-03 0.184E+02

 POSITION                                       TOTAL-FORCE (eV/Angst)
      0.00000      0.00000      5.28038        -0.000000     -0.000000     -0.177420
      2.93784      0.00000      5.28038         0.000595      0.005074     -0.082227
      5.87568      0.00000      5.28038        -0.000595      0.005074     -0.082227
      1.46892      2.54424      5.28038         0.004692     -0.002022     -0.082227
      4.40676      2.54424      5.28038        -0.000000     -0.000000     -0.136779
      7.34459      2.54424      5.28038        -0.004692     -0.002022     -0.082227
      2.93784      5.08848      5.28038         0.004097     -0.003053     -0.082227
      5.87568      5.08848      5.28038        -0.004097     -0.003053     -0.082227
      8.81351      5.08848      5.28038        -0.000000     -0.000000     -0.114779
      1.46892      0.84808      7.67911        -0.007148     -0.004127      0.153504
      4.40676      0.84808      7.67911        -0.000000     -0.048613      0.051622
      7.34459      0.84808      7.67911         0.007148     -0.004127      0.153504
      2.93784      3.39232      7.67911        -0.042100      0.024306      0.051622
      5.87568      3.39232      7.67911         0.042100      0.024306      0.051622
      8.81351      3.39232      7.67911        -0.000000     -0.062998      0.099705
      4.40676      5.93656      7.67911         0.000000      0.008254      0.153504
      7.34459      5.93656      7.67911        -0.054558      0.031499      0.099705
     10.28243      5.93656      7.67911         0.054558      0.031499      0.099705
      8.81351      1.70311     10.09495        -0.000000     -0.025965     -0.007798
      2.93286      1.69329     10.03570        -0.037301     -0.021536     -0.130363
      5.88065      1.69329     10.03570         0.037301     -0.021536     -0.130363
     10.26497      4.25049     10.06286         0.041662     -0.024053     -0.010765
      4.40676      4.24615     10.03570         0.000000      0.043071     -0.130363
      7.36206      4.25049     10.06286        -0.041662     -0.024053     -0.010765
     11.74534      6.78117     10.09495         0.022486      0.012982     -0.007798
      5.88169      6.78117     10.09495        -0.022486      0.012982     -0.007798
      8.81351      6.76448     10.06286         0.000000      0.048107     -0.010765
      0.00000      0.00000     12.49897        -0.000000     -0.000000     -0.028255
      2.97514      0.06495     12.50272         0.007042     -0.028342      0.017030
      5.83837      0.06495     12.50272        -0.007042     -0.028342      0.017030
      1.54382      2.54408     12.50272        -0.021024      0.020269      0.017030
      7.26969      2.54408     12.50272         0.021024      0.020269      0.017030
      2.97543      5.02370     12.50272        -0.028066      0.008072      0.017030
      5.83808      5.02370     12.50272         0.028066      0.008072      0.017030
      8.81351      5.08848     12.49601        -0.000000     -0.000000      0.019360
      4.40676      2.54424     12.21487        -0.000000     -0.000000      0.353384
      4.40676      2.54424     13.83193        -0.000000     -0.000000      0.007955
    total drift:                               -0.001560     -0.000652      0.528940

  FREE ENERGIE OF THE ION-ELECTRON SYSTEM (eV)
  free  energy   TOTEN  =      -118.98746358 eV

  energy  without entropy=     -118.98746358  energy(sigma->0) =     -118.98746358

 stress matrix after NEB project (eV)
    -23.40384     -0.00000      0.00000
     -0.00000    -23.40384      0.00000
     -0.00000      0.00000      3.28623
  FORCES: max atom, RMS     0.007955    0.001308
  FORCE total and by dimension    0.007955    0.007955
  Stress total and by dimension   33.260773   23.403844
|           W    W    AA    RRRRR   N    N  II  N    N   GGGG   !!!           |
|           W    W   A  A   R    R  NN   N  II  NN   N  G    G  !!!           |
|           W    W  A    A  R    R  N N  N  II  N N  N  G       !!!           |
|           W WW W  AAAAAA  RRRRR   N  N N  II  N  N N  G  GGG   !            |
|           WW  WW  A    A  R   R   N   NN  II  N   NN  G    G                |
|           W    W  A    A  R    R  N    N  II  N    N   GGGG   !!!           |
|     Tetrahedron method does not include variations of the Fermi             |
|     occupations, so forces and stress will be inaccurate. We suggest        |
|     using a different smearing scheme ISMEAR = 1 or 2 for metals in         |
|     relaxations.                                                            |

 total charge

# of ion       s       p       d       tot
    1        0.547   0.237   8.769   9.553
    2        0.544   0.241   8.765   9.549
    3        0.544   0.241   8.765   9.549
    4        0.544   0.241   8.765   9.549
    5        0.546   0.241   8.759   9.546
    6        0.544   0.241   8.765   9.549
    7        0.544   0.241   8.765   9.549
    8        0.544   0.241   8.765   9.549
    9        0.542   0.238   8.769   9.549
   10        0.525   0.308   8.766   9.599
   11        0.524   0.308   8.782   9.614
   12        0.525   0.308   8.766   9.599
   13        0.524   0.308   8.782   9.614
   14        0.524   0.308   8.782   9.614
   15        0.517   0.308   8.777   9.601
   16        0.525   0.308   8.766   9.599
   17        0.517   0.308   8.777   9.601
   18        0.517   0.308   8.777   9.601
   19        0.514   0.298   8.775   9.587
   20        0.557   0.333   8.746   9.637
   21        0.557   0.333   8.746   9.637
   22        0.506   0.307   8.779   9.592
   23        0.557   0.333   8.746   9.637
   24        0.506   0.307   8.779   9.592
   25        0.514   0.298   8.775   9.587
   26        0.514   0.298   8.775   9.587
   27        0.506   0.307   8.779   9.592
   28        0.535   0.227   8.762   9.524
   29        0.555   0.247   8.741   9.542
   30        0.555   0.247   8.741   9.542
   31        0.555   0.247   8.741   9.542
   32        0.555   0.247   8.741   9.542
   33        0.555   0.247   8.741   9.542
   34        0.555   0.247   8.741   9.542
   35        0.529   0.226   8.764   9.520
   36        0.560   0.448   5.934   6.942
   37        0.527   0.021   0.000   0.548
tot         19.810  10.146 312.664 342.620

 BZINTS: Fermi energy:    0.626607;  394.000000 electrons
         Band energy:-0.120214E+04;  BLOECHL correction:   -0.069348