 vasp.6.2.0 18Jan21 (build Jun 12 2021 23:27:24) complex

 executed on             LinuxIFC date 2022.05.28  01:00:25

 INCAR:
   ISMEAR = -5
   SIGMA = 0.1
   ISPIN = 1
   EDIFF = 1.d-5
   EDIFFG = -0.01
   NSW = 0
   NELM = 150
   ENCUT = 500
   ISIF = 2
   IBRION = 2
   LREAL = Auto
   ALGO = Fast
   ICHARG = 11
   LORBIT = 10
   LCHARG = .F.
   LWAVE = .F.

 POTCAR:    PAW_PBE Au 04Oct2007
 POTCAR:    PAW_PBE Rh 04Feb2005
 POTCAR:    PAW_PBE C 08Apr2002
 POTCAR:    PAW_PBE O 08Apr2002
|           W    W    AA    RRRRR   N    N  II  N    N   GGGG   !!!           |
|           W    W   A  A   R    R  NN   N  II  NN   N  G    G  !!!           |
|           W    W  A    A  R    R  N N  N  II  N N  N  G       !!!           |
|           W WW W  AAAAAA  RRRRR   N  N N  II  N  N N  G  GGG   !            |
|           WW  WW  A    A  R   R   N   NN  II  N   NN  G    G                |
|           W    W  A    A  R    R  N    N  II  N    N   GGGG   !!!           |
|     For optimal performance we recommend to set                             |
|       NCORE = 2 up to number-of-cores-per-socket                            |
|     This setting can greatly improve the performance of VASP for DFT.       |
|     The default, NCORE=1 might be grossly inefficient on modern             |
|     multi-core architectures or massively parallel machines. Do your        |
|     Unfortunately you need to use the default for GW and RPA                |
|     calculations (for HF NCORE is supported but not extensively tested      |
|     yet).                                                                   |

 POTCAR:    PAW_PBE Au 04Oct2007
   VRHFIN =Au: s1d10

   TITEL  = PAW_PBE Au 04Oct2007
   POMASS =  196.966; ZVAL   =   11.000    mass and valenz
   ENMAX  =  229.943; ENMIN  =  172.457 eV

 POTCAR:    PAW_PBE Rh 04Feb2005
   VRHFIN =Rh: s1 d8

   TITEL  = PAW_PBE Rh 04Feb2005
   POMASS =  102.906; ZVAL   =    9.000    mass and valenz
   ENMAX  =  228.996; ENMIN  =  171.747 eV

 POTCAR:    PAW_PBE C 08Apr2002
   VRHFIN =C: s2p2

   TITEL  = PAW_PBE C 08Apr2002
   POMASS =   12.011; ZVAL   =    4.000    mass and valenz
   ENMAX  =  400.000; ENMIN  =  300.000 eV

 POTCAR:    PAW_PBE O 08Apr2002
   VRHFIN =O: s2p4

   TITEL  = PAW_PBE O 08Apr2002
   POMASS =   16.000; ZVAL   =    6.000    mass and valenz
   ENMAX  =  400.000; ENMIN  =  300.000 eV

 Optimization of the real space projectors (new method)

 maximal supplied QI-value         = 15.12
 optimisation between [QCUT,QGAM] = [ 11.34, 22.83] = [ 36.00,145.93] Ry
 Optimized for a Real-space Cutoff    1.39 Angstroem

   l    n(q)    QCUT    max X(q) W(low)/X(q) W(high)/X(q)  e(spline)
   2      9    11.338    60.898    0.39E-03    0.42E-03    0.21E-06
   2      9    11.338    58.894    0.40E-03    0.42E-03    0.22E-06
   0      9    11.338   109.617    0.13E-03    0.20E-04    0.13E-06
   0      9    11.338    75.026    0.13E-03    0.20E-04    0.13E-06
   1      9    11.338    16.344    0.33E-04    0.24E-03    0.18E-06
   1      9    11.338    10.160    0.26E-04    0.19E-03    0.15E-06
 Optimization of the real space projectors (new method)

[...]

   l    n(q)    QCUT    max X(q) W(low)/X(q) W(high)/X(q)  e(spline)
   0      7    11.310   115.676    0.43E-03    0.13E-02    0.19E-06
   0      7    11.310    87.132    0.43E-03    0.13E-02    0.18E-06
   1      6    11.310     4.429    0.42E-03    0.74E-03    0.11E-06
   1      6    11.310     2.733    0.34E-03    0.55E-03    0.92E-07
 Optimization of the real space projectors (new method)

 maximal supplied QI-value         = 24.76
 optimisation between [QCUT,QGAM] = [ 11.39, 22.77] = [ 36.31,145.25] Ry
 Optimized for a Real-space Cutoff    1.00 Angstroem

   l    n(q)    QCUT    max X(q) W(low)/X(q) W(high)/X(q)  e(spline)
   0      7    11.387    20.381    0.39E-03    0.13E-02    0.15E-06
   0      7    11.387    15.268    0.42E-03    0.14E-02    0.17E-06
   1      6    11.387     5.964    0.41E-03    0.11E-02    0.17E-06
   1      6    11.387     5.382    0.39E-03    0.87E-03    0.15E-06
  PAW_PBE Au 04Oct2007                  :
  PAW_PBE Rh 04Feb2005                  :
  PAW_PBE C 08Apr2002                   :
  PAW_PBE O 08Apr2002                   :

 POSCAR: Au-Rh-CO2
  positions in direct lattice
  velocities in cartesian coordinates
 exchange correlation table for  LEXCH =        8
   RHO(1)=    0.500       N(1)  =     2000
   RHO(2)=  100.500       N(2)  =     4000

 VTST: version 3.2, (02/03/18)

 CHAIN: initializing optimizer

 OPT: Using VASP Conjugate-Gradient optimizer
 CHAIN: Read ICHAIN            0

 POSCAR: Au-Rh-CO2
  positions in direct lattice
  velocities in cartesian coordinates

 ion  position               nearest neighbor table
   1  0.000  0.000  0.217-  16 2.94  12 2.94   6 2.94   8 2.94   7 2.94   3 2.94  10 2.94   4 2.94
                             2 2.94
   2  0.333  0.000  0.217-   9 2.94  11 2.94  17 2.94  10 2.94   8 2.94   4 2.94   5 2.94   1 2.94
                             3 2.94
   3  0.667  0.000  0.217-   7 2.94  18 2.94  12 2.94   1 2.94  11 2.94   5 2.94   6 2.94   9 2.94
                             2 2.94
   4  0.000  0.333  0.217-  10 2.94   6 2.94   5 2.94  13 2.94   2 2.94  15 2.94   9 2.94   1 2.94
                             7 2.94
   5  0.333  0.333  0.217-  13 2.94   7 2.94  11 2.94   4 2.94   2 2.94  14 2.94   3 2.94   8 2.94
                             6 2.94
   6  0.667  0.333  0.217-  15 2.94  14 2.94   1 2.94  12 2.94   4 2.94   9 2.94   8 2.94   3 2.94
                             5 2.94
   7  0.000  0.667  0.217-  18 2.94   3 2.94  16 2.94   5 2.94   1 2.94  13 2.94   8 2.94   4 2.94
                             9 2.94
   8  0.333  0.667  0.217-   9 2.94  17 2.94   1 2.94   2 2.94  14 2.94  16 2.94   6 2.94   7 2.94
                             5 2.94
   9  0.667  0.667  0.217-   2 2.94   8 2.94  17 2.94   6 2.94  15 2.94   4 2.94   3 2.94  18 2.94
                             7 2.94
  10  0.111  0.111  0.315-  20 2.91  26 2.93  19 2.93  11 2.94  17 2.94   2 2.94   4 2.94   1 2.94
                            12 2.94  16 2.94  13 2.94  15 2.94
  11  0.444  0.111  0.315-  20 2.91  21 2.91  27 2.93  13 2.94   2 2.94  10 2.94  17 2.94   5 2.94
                             3 2.94  18 2.94  14 2.94  12 2.94
  12  0.778  0.111  0.315-  21 2.91  25 2.93  19 2.93  16 2.94  18 2.94   1 2.94  14 2.94  15 2.94
                             3 2.94   6 2.94  10 2.94  11 2.94
  13  0.111  0.444  0.315-  23 2.91  20 2.91  22 2.93   5 2.94  18 2.94  11 2.94   7 2.94   4 2.94
                            16 2.94  10 2.94  14 2.94  15 2.94
  14  0.444  0.444  0.315-  21 2.91  23 2.91  24 2.93  15 2.94   6 2.94  12 2.94   8 2.94  17 2.94
                             5 2.94  16 2.94  13 2.94  11 2.94
  15  0.778  0.444  0.315-  24 2.93  22 2.93  19 2.93  14 2.94   6 2.94  17 2.94  12 2.94   9 2.94
                             4 2.94  10 2.94  13 2.94  18 2.94
  16  0.111  0.778  0.315-  23 2.91  25 2.93  26 2.93  18 2.94  12 2.94   7 2.94   1 2.94   8 2.94
                            13 2.94  10 2.94  14 2.94  17 2.94
  17  0.444  0.778  0.315-  27 2.93  24 2.93  26 2.93   9 2.94  15 2.94   2 2.94  10 2.94  11 2.94
                             8 2.94  14 2.94  16 2.94  18 2.94
  18  0.778  0.778  0.315-  22 2.93  27 2.93  25 2.93  16 2.94   7 2.94  13 2.94  12 2.94   3 2.94
                            11 2.94   9 2.94  15 2.94  17 2.94
  19  0.889  0.222  0.413-  15 2.93  10 2.93  12 2.93  21 2.94  20 2.94  24 2.94  22 2.94  26 2.94
                            25 2.94  28 2.96  32 2.96  31 2.96
  20  0.222  0.222  0.412-  36 2.79  10 2.91  11 2.91  13 2.91  26 2.94  19 2.94  23 2.94  21 2.94
                            27 2.94  22 2.94  29 2.95  31 2.95
  21  0.556  0.222  0.412-  36 2.79  12 2.91  14 2.91  11 2.91  25 2.94  19 2.94  20 2.94  23 2.94
                            27 2.94  24 2.94  30 2.95  32 2.95
  22  0.888  0.556  0.413-  24 2.92  27 2.92  18 2.93  15 2.93  13 2.93  25 2.94  19 2.94  23 2.94
                            20 2.94  33 2.95  31 2.95  35 2.96
  23  0.222  0.556  0.412-  36 2.79  16 2.91  13 2.91  14 2.91  25 2.94  26 2.94  20 2.94  21 2.94
                            22 2.94  24 2.94  33 2.95  34 2.95
  24  0.556  0.556  0.413-  27 2.92  22 2.92  15 2.93  17 2.93  14 2.93  26 2.94  19 2.94  21 2.94
                            23 2.94  32 2.95  34 2.95  35 2.96
  25  0.889  0.889  0.413-  18 2.93  16 2.93  12 2.93  23 2.94  21 2.94  22 2.94  27 2.94  19 2.94
                            26 2.94  28 2.96  33 2.96  30 2.96
  26  0.222  0.889  0.413-  17 2.93  10 2.93  16 2.93  20 2.94  23 2.94  27 2.94  24 2.94  19 2.94
                            25 2.94  28 2.96  29 2.96  34 2.96
  27  0.556  0.888  0.413-  24 2.92  22 2.92  17 2.93  18 2.93  11 2.93  26 2.94  25 2.94  20 2.94
                            21 2.94  29 2.95  30 2.95  35 2.96
  28  0.000  0.000  0.513-  34 2.95  32 2.95  33 2.95  30 2.95  31 2.95  29 2.95  25 2.96  19 2.96
                            26 2.96
  29  0.333  0.004  0.512-  31 2.90  30 2.90  36 2.91  20 2.95  27 2.95  28 2.95  35 2.96  26 2.96
                            34 3.01
  30  0.663  0.004  0.512-  32 2.90  29 2.90  36 2.91  21 2.95  27 2.95  28 2.95  35 2.96  25 2.96
                            33 3.01
  31  0.004  0.333  0.512-  29 2.90  33 2.90  36 2.91  20 2.95  22 2.95  28 2.95  35 2.96  19 2.96
                            32 3.01
  32  0.663  0.333  0.512-  30 2.90  34 2.90  36 2.91  21 2.95  24 2.95  28 2.95  35 2.96  19 2.96
                            31 3.01
  33  0.004  0.663  0.512-  34 2.90  31 2.90  36 2.91  23 2.95  22 2.95  28 2.95  35 2.96  25 2.96
                            30 3.01
  34  0.333  0.663  0.512-  33 2.90  32 2.90  36 2.91  23 2.95  24 2.95  28 2.95  35 2.96  26 2.96
                            29 3.01
  35  0.667  0.667  0.513-  29 2.96  34 2.96  32 2.96  31 2.96  30 2.96  33 2.96  24 2.96  27 2.96
                            22 2.96
  36  0.333  0.333  0.503-  20 2.79  23 2.79  21 2.79  33 2.91  31 2.91  29 2.91  30 2.91  34 2.91
                            32 2.91
  37  0.335  0.332  0.655-  39 1.18  38 1.18
  38  0.204  0.328  0.655-  37 1.18
  39  0.467  0.337  0.656-  37 1.18

  LATTYP: Found a hexagonal cell.
 ALAT       =     8.8135128021
 C/A-ratio  =     2.7649717827

  Lattice vectors:

 A1 = (  -4.4067569092,  -7.6327256898,   0.0000000000)
 A2 = (   8.8135128021,   0.0000000000,   0.0000000000)
 A3 = (   0.0000000000,   0.0000000000,  24.3691142040)

Analysis of symmetry for initial positions (statically):
 Subroutine PRICEL returns:
 Original cell was already a primitive cell.

 Routine SETGRP: Setting up the symmetry group for a
 hexagonal supercell.

 Subroutine GETGRP returns: Found  1 space group operations
 (whereof  1 operations were pure point group operations)
 out of a pool of 24 trial point group operations.

The static configuration has the point symmetry C_1 .

Analysis of symmetry for dynamics (positions and initial velocities):
 Subroutine PRICEL returns:
 Original cell was already a primitive cell.

[...]

The dynamic configuration has the point symmetry C_1 .

Analysis of constrained symmetry for selective dynamics:
 Subroutine PRICEL returns:
[...]
     41      -4.9386      2.00000
     42      -4.9343      2.00000
     43      -4.9052      2.00000
     44      -4.8778      2.00000
     45      -4.8297      2.00000
     46      -4.7598      2.00000
     47      -4.7299      2.00000
     48      -4.6829      2.00000
     49      -4.6551      2.00000
     50      -4.6516      2.00000
     51      -4.6384      2.00000
     52      -4.5397      2.00000
     53      -4.5086      2.00000
     54      -4.4841      2.00000
     55      -4.4781      2.00000
     56      -4.4696      2.00000
     57      -4.4590      2.00000
     58      -4.4435      2.00000
     59      -4.4053      2.00000
     60      -4.3655      2.00000
[...]
    238       5.0918      0.00000
    239       5.3763      0.00000
    240       5.4716      0.00000
    241       5.5866      0.00000
    242       5.7925      0.00000
    243       5.8760      0.00000
    244       5.9518      0.00000
    245       6.0767      0.00000
    246       6.1221      0.00000
    247       6.1466      0.00000
    248       6.2360      0.00000
    249       6.4241      0.00000
    250       6.4881      0.00000
    251       6.5077      0.00000
    252       6.6218      0.00000

 soft charge-density along one line, spin component           1
         0         1         2         3         4         5         6         7         8         9
 total charge-density along one line

------------------------ aborting loop because EDIFF is reached ----------------------------------------

 total charge

# of ion       s       p       d       tot
    1        0.542   0.240   8.765   9.548
    2        0.546   0.240   8.764   9.550
    3        0.546   0.240   8.764   9.550
    4        0.545   0.240   8.764   9.550
    5        0.540   0.242   8.762   9.545
    6        0.545   0.240   8.764   9.550
    7        0.546   0.240   8.764   9.550
    8        0.546   0.240   8.764   9.550
    9        0.542   0.240   8.768   9.550
   10        0.521   0.310   8.767   9.598
   11        0.522   0.306   8.779   9.607
   12        0.521   0.310   8.767   9.598
   13        0.522   0.306   8.779   9.607
   14        0.522   0.306   8.779   9.607
   15        0.516   0.307   8.776   9.599
   16        0.521   0.310   8.767   9.598
   17        0.516   0.307   8.776   9.599
   18        0.516   0.307   8.776   9.599
   19        0.517   0.303   8.776   9.596
   20        0.533   0.322   8.759   9.614
   21        0.533   0.322   8.759   9.613
   22        0.510   0.307   8.776   9.592
   23        0.533   0.321   8.759   9.613
   24        0.510   0.307   8.775   9.592
   25        0.518   0.303   8.776   9.597
   26        0.518   0.303   8.776   9.597
   27        0.510   0.307   8.776   9.593
   28        0.539   0.230   8.768   9.537
   29        0.552   0.238   8.755   9.545
   30        0.552   0.239   8.755   9.545
   31        0.550   0.237   8.756   9.543
   32        0.550   0.237   8.756   9.543
   33        0.552   0.239   8.755   9.545
   34        0.552   0.238   8.755   9.545
   35        0.535   0.231   8.769   9.535
   36        0.333   0.262   7.416   8.011
   37        0.932   1.800   0.000   2.732
   38        1.607   3.529   0.000   5.136
   39        1.607   3.529   0.000   5.136
tot         23.117  18.733 314.263 356.114

  FORCE on cell =-STRESS in cart. coord.  units (eV):
  Direction    XX          YY          ZZ          XY          YZ          ZX
  Alpha Z   959.04981   959.04981   959.04981
  Ewald  146764.16071145970.86897************    21.69303     0.36942     3.96908
  Hartree155280.49350154906.34742************    10.02760     0.26937     1.75232
  E(xc)   -1843.01341 -1845.12164 -1852.41665     0.05871    -0.00053     0.01091
  Local  ************************313391.16449   -29.71591    -0.65029    -5.34148
  n-local  -114.28528  -108.24028   -85.84065    -0.15404     0.00800    -0.03068
  augment  2435.73536  2438.41359  2455.75681    -0.07755     0.00763    -0.01307
  Kinetic  5735.41871  5800.65459  5857.24583    -1.81694     0.00798    -0.34473
  Fock        0.00000     0.00000     0.00000     0.00000     0.00000     0.00000
  Total     -22.83583   -22.86608     2.26720     0.01490     0.01158     0.00235
  in kB     -22.31819   -22.34775     2.21580     0.01456     0.01132     0.00230

 VOLUME and BASIS-vectors are now :
  energy-cutoff  :      500.00
  volume of cell :     1639.34
      direct lattice vectors                 reciprocal lattice vectors
     8.813512802  0.000000000  0.000000000     0.113462137 -0.065507406  0.000000000
     4.406756909  7.632725690  0.000000000     0.000000000  0.131014796  0.000000000
     0.000000000  0.000000000 24.369114204     0.000000000  0.000000000  0.041035550

  length of vectors
     8.813512802  8.813512802 24.369114204     0.131014796  0.131014796  0.041035550

 FORCES acting on ions
    electron-ion (+dipol)            ewald-force                    non-local-force                 convergence-correction
   0.128E-02 0.120E-01 0.267E+04   -.556E-03 -.169E-01 -.267E+04   -.680E-04 -.152E-02 -.840E+00   -.761E-03 0.560E-02 -.280E+00
   0.278E+00 0.370E+00 0.267E+04   -.253E+00 -.347E+00 -.267E+04   0.105E-01 -.102E-02 -.306E+00   -.340E-01 -.151E-01 -.286E+00
   -.279E+00 0.360E+00 0.267E+04   0.254E+00 -.348E+00 -.267E+04   -.103E-01 -.113E-02 -.305E+00   0.349E-01 -.377E-02 -.284E+00
   0.446E+00 0.657E-01 0.267E+04   -.413E+00 -.530E-01 -.267E+04   0.760E-02 0.932E-02 -.312E+00   -.339E-01 -.249E-01 -.283E+00
   -.140E-01 -.327E-02 0.267E+04   -.431E-03 0.697E-03 -.267E+04   0.880E-04 -.364E-03 -.294E+00   0.145E-01 0.283E-02 -.264E+00
   -.436E+00 0.611E-01 0.267E+04   0.413E+00 -.541E-01 -.267E+04   -.772E-02 0.936E-02 -.312E+00   0.240E-01 -.193E-01 -.276E+00
   0.162E+00 -.432E+00 0.267E+04   -.160E+00 0.401E+00 -.267E+04   -.524E-02 -.792E-02 -.304E+00   0.933E-02 0.347E-01 -.279E+00
   -.171E+00 -.425E+00 0.267E+04   0.159E+00 0.401E+00 -.267E+04   0.514E-02 -.818E-02 -.305E+00   0.792E-03 0.283E-01 -.276E+00
   0.132E-01 -.123E-01 0.267E+04   0.130E-02 0.163E-01 -.267E+04   0.166E-03 0.330E-02 -.444E+00   -.149E-01 -.711E-02 -.269E+00
   0.339E+01 0.207E+01 0.948E+03   -.304E+01 -.188E+01 -.948E+03   -.220E+00 -.126E+00 -.726E+00   -.725E-01 -.384E-01 0.312E-01
   -.128E-01 0.364E+01 0.951E+03   0.218E-02 -.368E+01 -.951E+03   0.261E-04 -.365E-02 -.439E+00   0.109E-01 0.389E-02 0.160E+00
   -.338E+01 0.207E+01 0.948E+03   0.304E+01 -.188E+01 -.948E+03   0.219E+00 -.126E+00 -.726E+00   0.657E-01 -.274E-01 0.293E-01
   0.304E+01 -.185E+01 0.952E+03   -.308E+01 0.186E+01 -.951E+03   -.452E-02 0.323E-02 -.439E+00   0.499E-02 0.536E-02 0.163E+00
   -.306E+01 -.185E+01 0.952E+03   0.307E+01 0.186E+01 -.951E+03   0.467E-02 0.336E-02 -.439E+00   0.186E-01 0.489E-02 0.164E+00
   0.848E-02 0.662E+00 0.948E+03   0.551E-02 -.699E+00 -.947E+03   -.865E-04 0.118E-01 -.475E+00   -.141E-01 0.102E-01 0.831E-01
   0.201E-02 -.393E+01 0.948E+03   -.689E-02 0.355E+01 -.948E+03   -.275E-06 0.250E+00 -.721E+00   0.501E-02 0.729E-01 0.284E-01
   0.646E+00 -.403E+00 0.948E+03   -.675E+00 0.433E+00 -.947E+03   0.974E-02 -.588E-02 -.461E+00   0.604E-02 -.173E-01 0.790E-01
   -.648E+00 -.413E+00 0.948E+03   0.681E+00 0.431E+00 -.947E+03   -.978E-02 -.575E-02 -.460E+00   -.108E-01 -.580E-02 0.767E-01
   0.105E-02 0.156E+01 -.804E+03   0.372E-02 -.167E+01 0.803E+03   0.405E-03 0.290E-02 0.524E+00   -.514E-02 0.991E-01 0.446E+00
   0.812E+01 0.525E+01 -.778E+03   -.794E+01 -.516E+01 0.778E+03   -.514E+00 -.292E+00 -.541E+00   0.332E+00 0.198E+00 0.988E+00
   -.812E+01 0.530E+01 -.778E+03   0.793E+01 -.521E+01 0.778E+03   0.514E+00 -.292E+00 -.541E+00   -.326E+00 0.210E+00 0.985E+00
   0.130E+01 -.162E+01 -.798E+03   -.177E+01 0.193E+01 0.797E+03   0.288E+00 -.176E+00 0.548E+00   0.176E+00 -.125E+00 0.507E+00
   0.358E-01 -.103E+02 -.779E+03   -.491E-01 0.101E+02 0.779E+03   0.368E-03 0.587E+00 -.538E+00   0.129E-01 -.392E+00 0.985E+00
   -.133E+01 -.160E+01 -.798E+03   0.182E+01 0.191E+01 0.797E+03   -.288E+00 -.176E+00 0.548E+00   -.198E+00 -.123E+00 0.506E+00
   -.902E+00 -.164E+00 -.805E+03   0.970E+00 0.200E+00 0.804E+03   0.547E-02 0.398E-02 0.501E+00   -.702E-01 -.376E-01 0.442E+00
   0.934E+00 -.181E+00 -.805E+03   -.101E+01 0.227E+00 0.804E+03   -.466E-02 0.415E-02 0.503E+00   0.796E-01 -.481E-01 0.444E+00
   -.279E-01 0.178E+01 -.799E+03   0.420E-01 -.234E+01 0.798E+03   -.695E-03 0.335E+00 0.545E+00   -.137E-01 0.213E+00 0.505E+00
   0.184E+00 0.504E+01 -.253E+04   -.186E+00 -.505E+01 0.252E+04   -.456E-03 -.369E-02 0.525E+00   0.225E-02 0.115E-01 0.637E+00
   0.954E+01 0.236E+02 -.250E+04   -.938E+01 -.235E+02 0.250E+04   -.453E+00 -.621E+00 0.299E+00   0.306E+00 0.514E+00 0.558E+00
   -.972E+01 0.237E+02 -.250E+04   0.956E+01 -.236E+02 0.250E+04   0.454E+00 -.623E+00 0.288E+00   -.307E+00 0.525E+00 0.560E+00
   0.235E+02 -.178E+00 -.249E+04   -.233E+02 0.247E+00 0.249E+04   -.734E+00 -.760E-01 0.429E+00   0.590E+00 0.989E-02 0.556E+00
   -.236E+02 0.340E+00 -.249E+04   0.235E+02 -.280E+00 0.249E+04   0.735E+00 -.747E-01 0.427E+00   -.597E+00 0.179E-01 0.553E+00
   0.925E+01 -.236E+02 -.250E+04   -.921E+01 0.234E+02 0.250E+04   -.322E+00 0.698E+00 0.290E+00   0.293E+00 -.532E+00 0.559E+00
   -.891E+01 -.238E+02 -.250E+04   0.886E+01 0.236E+02 0.250E+04   0.323E+00 0.697E+00 0.296E+00   -.281E+00 -.535E+00 0.553E+00
   -.330E+00 -.486E+01 -.253E+04   0.347E+00 0.487E+01 0.253E+04   0.208E-04 0.336E-02 0.620E+00   -.165E-01 -.166E-01 0.563E+00
   0.862E-01 -.206E+00 -.193E+04   -.919E-01 0.207E+00 0.192E+04   -.363E-02 -.106E-02 0.315E+01   0.918E-02 0.398E-02 0.639E+00
   0.560E-01 -.156E-01 -.875E+03   -.587E-01 0.157E-01 0.875E+03   0.158E-02 0.167E-02 -.320E-01   0.118E-02 -.169E-03 -.160E+00
   0.261E+03 0.727E+01 -.131E+04   -.325E+03 -.904E+01 0.131E+04   0.637E+02 0.177E+01 0.375E+00   0.692E-01 -.133E-02 -.201E+00
   -.261E+03 -.734E+01 -.132E+04   0.325E+03 0.911E+01 0.132E+04   -.637E+02 -.177E+01 -.294E+00   -.718E-01 -.239E-02 -.200E+00
   0.767E-02 0.433E-02 -.833E+01   0.000E+00 0.107E-12 -.159E-11   -.182E-02 0.813E-03 -.382E+00   -.180E-02 -.169E-02 0.874E+01

 POSITION                                       TOTAL-FORCE (eV/Angst)
      0.00000      0.00000      5.28038        -0.000212     -0.000968     -0.038778
      2.93784      0.00000      5.28038         0.000812      0.006766     -0.074318
      5.87568      0.00000      5.28038        -0.000924      0.006832     -0.074316
      1.46892      2.54424      5.28038         0.006544     -0.002965     -0.075795
      4.40676      2.54424      5.28038         0.000111     -0.000198     -0.105356
      7.34459      2.54424      5.28038        -0.006771     -0.003033     -0.075775
      2.93784      5.08848      5.28038         0.006216     -0.003787     -0.075628
      5.87568      5.08848      5.28038        -0.006391     -0.003815     -0.075663
      8.81351      5.08848      5.28038        -0.000338      0.000077     -0.073896
      1.46892      0.84808      7.67911         0.051959      0.030877      0.075069
      4.40676      0.84808      7.67911         0.000140     -0.039503     -0.000002
      7.34459      0.84808      7.67911        -0.052281      0.031090      0.075174
      2.93784      3.39232      7.67911        -0.035025      0.020127     -0.000796
      5.87568      3.39232      7.67911         0.035381      0.020160     -0.000894
      8.81351      3.39232      7.67911        -0.000247     -0.014719      0.079539
      4.40676      5.93656      7.67911         0.000020     -0.061843      0.075359
      7.34459      5.93656      7.67911        -0.012760      0.006173      0.080468
     10.28243      5.93656      7.67911         0.012429      0.006261      0.080541
      8.81351      1.69621     10.07295        -0.000060     -0.004739      0.042965
      2.93663      1.69546     10.04742         0.002876      0.000552      0.005049
      5.87688      1.69546     10.04742        -0.003464      0.000845      0.005436
     10.27557      4.24437     10.06760        -0.007587      0.004590     -0.018684
      4.40676      4.24180     10.04742        -0.000075     -0.004548      0.005232
      7.35146      4.24437     10.06760         0.007017      0.004633     -0.018514
     11.75131      6.78462     10.07295         0.002674      0.002404      0.036916
      5.87571      6.78462     10.07295        -0.002808      0.002488      0.037413
      8.81351      6.77672     10.06760        -0.000360     -0.009139     -0.023263
      0.00000      0.00000     12.49471        -0.000087     -0.000813     -0.003823
      2.95476      0.03042     12.47845         0.015642      0.018459      0.025236
      5.85875      0.03042     12.47845        -0.015857      0.019255      0.025986
      1.50372      2.54369     12.47845         0.019431      0.002655      0.020454
      7.30979      2.54369     12.47845        -0.020039      0.002178      0.021056
      2.95572      5.05862     12.47845         0.014311     -0.021481      0.026624
      5.85780      5.05862     12.47845        -0.014477     -0.021298      0.026450
      8.81351      5.08848     12.49462        -0.000231      0.000649     -0.006759
      4.40676      2.54424     12.26123        -0.000265      0.003089      0.007855
      4.41862      2.53648     15.97147        -0.000031      0.001468     -0.006455
      3.24228      2.50372     15.96540        -0.003444     -0.002862     -0.006251
      5.59490      2.56926     15.97802         0.008171      0.004083      0.002140
    total drift:                                0.004048      0.003451      0.029656

  FREE ENERGIE OF THE ION-ELECTRON SYSTEM (eV)
  free  energy   TOTEN  =      -136.00418026 eV

  energy  without entropy=     -136.00418026  energy(sigma->0) =     -136.00418026

 stress matrix after NEB project (eV)
    -22.83583      0.01490      0.00235
      0.01490    -22.86608      0.01158
      0.00235      0.01158      2.26720
  FORCES: max atom, RMS     0.009382    0.002213
  FORCE total and by dimension    0.013819    0.008171
  Stress total and by dimension   32.395576   22.866076
|           W    W    AA    RRRRR   N    N  II  N    N   GGGG   !!!           |
|           W    W   A  A   R    R  NN   N  II  NN   N  G    G  !!!           |
|           W    W  A    A  R    R  N N  N  II  N N  N  G       !!!           |
|           W WW W  AAAAAA  RRRRR   N  N N  II  N  N N  G  GGG   !            |
|           WW  WW  A    A  R   R   N   NN  II  N   NN  G    G                |
|           W    W  A    A  R    R  N    N  II  N    N   GGGG   !!!           |
|     Tetrahedron method does not include variations of the Fermi             |
|     occupations, so forces and stress will be inaccurate. We suggest        |
|     using a different smearing scheme ISMEAR = 1 or 2 for metals in         |
|     relaxations.                                                            |

 total charge

# of ion       s       p       d       tot
    1        0.542   0.240   8.765   9.548
    2        0.546   0.240   8.764   9.550
    3        0.546   0.240   8.764   9.550
    4        0.545   0.240   8.764   9.550
    5        0.540   0.242   8.762   9.545
    6        0.545   0.240   8.764   9.550
    7        0.546   0.240   8.764   9.550
    8        0.546   0.240   8.764   9.550
    9        0.542   0.240   8.768   9.550
   10        0.521   0.310   8.767   9.598
   11        0.522   0.306   8.779   9.607
   12        0.521   0.310   8.767   9.598
   13        0.522   0.306   8.779   9.607
   14        0.522   0.306   8.779   9.607
   15        0.516   0.307   8.776   9.599
   16        0.521   0.310   8.767   9.598
   17        0.516   0.307   8.776   9.599
   18        0.516   0.307   8.776   9.599
   19        0.517   0.303   8.776   9.596
   20        0.533   0.322   8.759   9.614
   21        0.533   0.322   8.759   9.613
   22        0.510   0.307   8.776   9.592
   23        0.533   0.321   8.759   9.613
   24        0.510   0.307   8.775   9.592
   25        0.518   0.303   8.776   9.597
   26        0.518   0.303   8.776   9.597
   27        0.510   0.307   8.776   9.593
   28        0.539   0.230   8.768   9.537
   29        0.552   0.238   8.755   9.545
   30        0.552   0.239   8.755   9.545
   31        0.550   0.237   8.756   9.543
   32        0.550   0.237   8.756   9.543
   33        0.552   0.239   8.755   9.545
   34        0.552   0.238   8.755   9.545
   35        0.535   0.231   8.769   9.535
   36        0.333   0.262   7.416   8.011
   37        0.932   1.800   0.000   2.732
   38        1.607   3.529   0.000   5.136
   39        1.607   3.529   0.000   5.136
tot         23.117  18.733 314.263 356.114

 BZINTS: Fermi energy:    0.293885;  410.000000 electrons
         Band energy:-0.148541E+04;  BLOECHL correction:   -0.096670