 vasp.6.2.0 18Jan21 (build Jun 12 2021 23:27:24) complex

 executed on             LinuxIFC date 2022.05.28  02:32:28

 INCAR:
   ISMEAR = -5
   SIGMA = 0.1
   ISPIN = 1
   EDIFF = 1.d-5
   EDIFFG = -0.01
   NSW = 0
   NELM = 150
   ENCUT = 500
   ISIF = 2
   IBRION = 2
   LREAL = Auto
   ALGO = Fast
   ICHARG = 11
   LORBIT = 10
   LCHARG = .F.
   LWAVE = .F.

 POTCAR:    PAW_PBE Cu 22Jun2005
 POTCAR:    PAW_PBE Nb_sv 25May2007
 POTCAR:    PAW_PBE H 15Jun2001
 POTCAR:    PAW_PBE O 08Apr2002
|           W    W    AA    RRRRR   N    N  II  N    N   GGGG   !!!           |
|           W    W   A  A   R    R  NN   N  II  NN   N  G    G  !!!           |
|           W    W  A    A  R    R  N N  N  II  N N  N  G       !!!           |
|           W WW W  AAAAAA  RRRRR   N  N N  II  N  N N  G  GGG   !            |
|           WW  WW  A    A  R   R   N   NN  II  N   NN  G    G                |
|           W    W  A    A  R    R  N    N  II  N    N   GGGG   !!!           |
|     For optimal performance we recommend to set                             |
|       NCORE = 2 up to number-of-cores-per-socket                            |
|     This setting can greatly improve the performance of VASP for DFT.       |
|     The default, NCORE=1 might be grossly inefficient on modern             |
|     multi-core architectures or massively parallel machines. Do your        |
|     Unfortunately you need to use the default for GW and RPA                |
|     calculations (for HF NCORE is supported but not extensively tested      |
|     yet).                                                                   |

 POTCAR:    PAW_PBE Cu 22Jun2005
   VRHFIN =Cu: d10 p1

   TITEL  = PAW_PBE Cu 22Jun2005
   POMASS =   63.546; ZVAL   =   11.000    mass and valenz
   ENMAX  =  295.446; ENMIN  =  221.585 eV

 POTCAR:    PAW_PBE Nb_sv 25May2007
   VRHFIN =Nb: 4p5s4d

   TITEL  = PAW_PBE Nb_sv 25May2007
   POMASS =   92.910; ZVAL   =   13.000    mass and valenz
   ENMAX  =  293.235; ENMIN  =  219.927 eV

 POTCAR:    PAW_PBE H 15Jun2001
   VRHFIN =H: ultrasoft test

   TITEL  = PAW_PBE H 15Jun2001
   POMASS =    1.000; ZVAL   =    1.000    mass and valenz
   ENMAX  =  250.000; ENMIN  =  200.000 eV

 POTCAR:    PAW_PBE O 08Apr2002
   VRHFIN =O: s2p4

   TITEL  = PAW_PBE O 08Apr2002
   POMASS =   16.000; ZVAL   =    6.000    mass and valenz
   ENMAX  =  400.000; ENMIN  =  300.000 eV

 Optimization of the real space projectors (new method)

 maximal supplied QI-value         = 16.25
 optimisation between [QCUT,QGAM] = [ 11.38, 22.75] = [ 36.24,144.96] Ry
 Optimized for a Real-space Cutoff    1.52 Angstroem

   l    n(q)    QCUT    max X(q) W(low)/X(q) W(high)/X(q)  e(spline)
   2      9    11.376     4.610    0.21E-03    0.10E-03    0.26E-06
   2      9    11.376     8.522    0.33E-03    0.16E-03    0.37E-06
   0     10    11.376    51.609    0.62E-04    0.20E-04    0.13E-06
   0     10    11.376    27.747    0.54E-04    0.20E-04    0.13E-06
   1     10    11.376    20.408    0.13E-04    0.99E-04    0.19E-06
   1     10    11.376    13.425    0.12E-04    0.87E-04    0.17E-06
 Optimization of the real space projectors (new method)

[...]

   l    n(q)    QCUT    max X(q) W(low)/X(q) W(high)/X(q)  e(spline)
   0      8    11.287    19.460    0.40E-03    0.73E-03    0.16E-06
   0      8    11.287    12.209    0.38E-03    0.70E-03    0.15E-06
   1      7    11.287     4.655    0.22E-03    0.25E-04    0.22E-06
 Optimization of the real space projectors (new method)

 maximal supplied QI-value         = 24.76
 optimisation between [QCUT,QGAM] = [ 11.39, 22.77] = [ 36.31,145.25] Ry
 Optimized for a Real-space Cutoff    1.00 Angstroem

   l    n(q)    QCUT    max X(q) W(low)/X(q) W(high)/X(q)  e(spline)
   0      7    11.387    20.381    0.39E-03    0.13E-02    0.15E-06
   0      7    11.387    15.268    0.42E-03    0.14E-02    0.17E-06
   1      6    11.387     5.964    0.41E-03    0.11E-02    0.17E-06
   1      6    11.387     5.382    0.39E-03    0.87E-03    0.15E-06
  PAW_PBE Cu 22Jun2005                  :
  PAW_PBE Nb_sv 25May2007               :
  PAW_PBE H 15Jun2001                   :
  PAW_PBE O 08Apr2002                   :

 POSCAR: Cu-Nb-H2O
  positions in direct lattice
  velocities in cartesian coordinates
 exchange correlation table for  LEXCH =        8
   RHO(1)=    0.500       N(1)  =     2000
   RHO(2)=  100.500       N(2)  =     4000

 VTST: version 3.2, (02/03/18)

 CHAIN: initializing optimizer

 OPT: Using VASP Conjugate-Gradient optimizer
 CHAIN: Read ICHAIN            0

 POSCAR: Cu-Nb-H2O
  positions in direct lattice
  velocities in cartesian coordinates

 ion  position               nearest neighbor table
   1  0.000  0.000  0.221-   7 2.57   3 2.57   4 2.57   2 2.57   6 2.57   8 2.57  12 2.57  10 2.57
                            16 2.57
   2  0.333  0.000  0.221-   8 2.57   9 2.57   5 2.57   1 2.57   3 2.57  11 2.57   4 2.57  10 2.57
                            17 2.57
   3  0.667  0.000  0.221-   1 2.57   7 2.57   6 2.57   9 2.57   2 2.57  12 2.57   5 2.57  18 2.57
                            11 2.57
   4  0.000  0.333  0.221-   5 2.57   6 2.57   1 2.57   7 2.57   2 2.57  13 2.57   9 2.57  10 2.57
                            15 2.57
   5  0.333  0.333  0.221-   4 2.57   2 2.57   7 2.57  13 2.57   8 2.57   6 2.57   3 2.57  11 2.57
                            14 2.57
   6  0.667  0.333  0.221-   4 2.57   9 2.57  15 2.57   3 2.57   1 2.57   8 2.57  14 2.57   5 2.57
                            12 2.57
   7  0.000  0.667  0.221-   1 2.57   3 2.57  16 2.57  18 2.57   4 2.57   5 2.57   8 2.57   9 2.57
                            13 2.57
   8  0.333  0.667  0.221-   9 2.57   2 2.57  17 2.57   6 2.57   1 2.57   7 2.57   5 2.57  14 2.57
                            16 2.57
   9  0.667  0.667  0.221-   8 2.57   6 2.57   2 2.57  17 2.57   3 2.57   7 2.57   4 2.57  15 2.57
                            18 2.57
  10  0.111  0.111  0.308-  26 2.55  19 2.55  11 2.57  12 2.57  13 2.57   1 2.57   2 2.57   4 2.57
                            15 2.57  16 2.57  17 2.57  20 2.57
  11  0.444  0.111  0.308-  20 2.57  21 2.57  10 2.57  13 2.57   2 2.57  17 2.57  14 2.57  12 2.57
                             5 2.57   3 2.57  18 2.57  27 2.57
  12  0.778  0.111  0.308-  19 2.55  25 2.55  15 2.57  10 2.57  14 2.57  18 2.57   3 2.57   1 2.57
                            16 2.57  11 2.57   6 2.57  21 2.57
  13  0.111  0.444  0.308-  23 2.57  20 2.57  16 2.57  18 2.57  10 2.57  11 2.57  14 2.57   5 2.57
                             4 2.57   7 2.57  15 2.57  22 2.57
  14  0.444  0.444  0.308-  21 2.57  23 2.57  15 2.57  17 2.57  12 2.57  16 2.57  13 2.57  11 2.57
                             6 2.57   8 2.57   5 2.57  24 2.57
  15  0.778  0.444  0.308-  19 2.55  14 2.57  17 2.57  12 2.57   6 2.57  18 2.57  10 2.57   9 2.57
                            13 2.57   4 2.57  24 2.57  22 2.57
  16  0.111  0.778  0.308-  25 2.55  26 2.55  18 2.57  13 2.57   7 2.57  14 2.57  17 2.57  12 2.57
                            10 2.57   8 2.57   1 2.57  23 2.57
  17  0.444  0.778  0.308-  26 2.55  14 2.57  15 2.57   8 2.57   9 2.57  11 2.57  16 2.57  18 2.57
                            10 2.57   2 2.57  27 2.57  24 2.57
  18  0.778  0.778  0.308-  25 2.55  16 2.57  13 2.57   7 2.57  15 2.57  12 2.57  17 2.57   9 2.57
                             3 2.57  11 2.57  22 2.57  27 2.57
  19  0.889  0.222  0.393-  12 2.55  10 2.55  15 2.55  25 2.56  26 2.56  21 2.57  20 2.57  22 2.57
                            24 2.57  28 2.57  32 2.58  31 2.58
  20  0.222  0.222  0.394-  23 2.56  21 2.56  11 2.57  13 2.57  10 2.57  26 2.57  19 2.57  27 2.57
                            22 2.57  29 2.59  31 2.59  36 2.66
  21  0.555  0.222  0.394-  20 2.56  23 2.56  14 2.57  11 2.57  12 2.57  19 2.57  25 2.57  24 2.57
                            27 2.57  32 2.59  30 2.59  36 2.66
  22  0.889  0.556  0.394-  24 2.56  27 2.56  18 2.57  15 2.57  23 2.57  20 2.57  19 2.57  25 2.57
                            13 2.57  35 2.57  31 2.57  33 2.57
  23  0.222  0.555  0.394-  20 2.56  21 2.56  13 2.57  14 2.57  16 2.57  25 2.57  26 2.57  22 2.57
                            24 2.57  33 2.59  34 2.59  36 2.66
  24  0.556  0.556  0.394-  22 2.56  27 2.56  15 2.57  17 2.57  21 2.57  23 2.57  19 2.57  26 2.57
                            14 2.57  35 2.57  32 2.57  34 2.57
  25  0.889  0.889  0.393-  12 2.55  16 2.55  18 2.55  19 2.56  26 2.56  21 2.57  23 2.57  22 2.57
                            27 2.57  28 2.57  33 2.58  30 2.58
  26  0.222  0.889  0.393-  10 2.55  16 2.55  17 2.55  25 2.56  19 2.56  20 2.57  23 2.57  27 2.57
                            24 2.57  28 2.57  29 2.58  34 2.58
  27  0.556  0.889  0.394-  24 2.56  22 2.56  17 2.57  18 2.57  20 2.57  21 2.57  26 2.57  25 2.57
                            11 2.57  35 2.57  29 2.57  30 2.57
  28  0.000  0.000  0.480-  33 2.55  30 2.55  31 2.55  29 2.55  32 2.55  34 2.55  25 2.57  19 2.57
                            26 2.57
  29  0.334  0.996  0.481-  34 2.51  35 2.55  28 2.55  27 2.57  26 2.58  20 2.59  30 2.59  36 2.60
                            31 2.60
  30  0.670  0.996  0.481-  33 2.51  35 2.55  28 2.55  27 2.57  25 2.58  21 2.59  29 2.59  36 2.60
                            32 2.60
  31  0.996  0.334  0.481-  32 2.51  35 2.55  28 2.55  22 2.57  19 2.58  20 2.59  33 2.59  36 2.60
                            29 2.60
  32  0.670  0.334  0.481-  31 2.51  35 2.55  28 2.55  24 2.57  19 2.58  21 2.59  34 2.59  36 2.60
                            30 2.60
  33  0.996  0.670  0.481-  30 2.51  35 2.55  28 2.55  22 2.57  25 2.58  23 2.59  31 2.59  36 2.60
                            34 2.60
  34  0.334  0.670  0.481-  29 2.51  35 2.55  28 2.55  24 2.57  26 2.58  23 2.59  32 2.59  36 2.60
                            33 2.60
  35  0.667  0.667  0.481-  34 2.55  32 2.55  29 2.55  30 2.55  33 2.55  31 2.55  24 2.57  27 2.57
                            22 2.57
  36  0.333  0.333  0.485-  39 2.30  31 2.60  29 2.60  33 2.60  32 2.60  34 2.60  30 2.60  23 2.66
                            20 2.66  21 2.66
  37  0.279  0.237  0.589-  39 0.98
  38  0.484  0.235  0.589-  39 0.98
  39  0.342  0.317  0.580-  38 0.98  37 0.98  36 2.30

  LATTYP: Found a hexagonal cell.
 ALAT       =     7.6967864036
 C/A-ratio  =     3.1535378041

  Lattice vectors:

 A1 = (  -3.8483927580,  -6.6656128093,   0.0000000000)
 A2 = (   7.6967864037,   0.0000000000,   0.0000000000)
 A3 = (   0.0000000000,   0.0000000000,  24.2721068937)

Analysis of symmetry for initial positions (statically):
 Subroutine PRICEL returns:
 Original cell was already a primitive cell.

 Routine SETGRP: Setting up the symmetry group for a
 hexagonal supercell.

 Subroutine GETGRP returns: Found  1 space group operations
 (whereof  1 operations were pure point group operations)
 out of a pool of 24 trial point group operations.

The static configuration has the point symmetry C_1 .

Analysis of symmetry for dynamics (positions and initial velocities):
 Subroutine PRICEL returns:
 Original cell was already a primitive cell.

[...]

The dynamic configuration has the point symmetry C_1 .

Analysis of constrained symmetry for selective dynamics:
 Subroutine PRICEL returns:
[...]
     41      -4.0329      2.00000
     42      -3.9955      2.00000
     43      -3.9509      2.00000
     44      -3.9195      2.00000
     45      -3.7753      2.00000
     46      -3.7689      2.00000
     47      -3.7197      2.00000
     48      -3.7012      2.00000
     49      -3.6844      2.00000
     50      -3.6720      2.00000
     51      -3.6633      2.00000
     52      -3.6569      2.00000
     53      -3.6509      2.00000
     54      -3.4987      2.00000
     55      -3.4694      2.00000
     56      -3.4561      2.00000
     57      -3.4436      2.00000
     58      -3.3912      2.00000
     59      -3.3768      2.00000
     60      -3.3653      2.00000
[...]
    238       5.5574      0.00000
    239       5.6091      0.00000
    240       5.6470      0.00000
    241       5.7751      0.00000
    242       5.8341      0.00000
    243       5.9304      0.00000
    244       5.9437      0.00000
    245       5.9984      0.00000
    246       6.1348      0.00000
    247       6.1882      0.00000
    248       6.3021      0.00000
    249       6.3762      0.00000
    250       6.4613      0.00000
    251       6.7742      0.00000
    252       7.0585      0.00000

 soft charge-density along one line, spin component           1
         0         1         2         3         4         5         6         7         8         9
 total charge-density along one line

------------------------ aborting loop because EDIFF is reached ----------------------------------------

 total charge

# of ion       s       p       d       tot
    1        0.449   0.283   9.188   9.920
    2        0.447   0.286   9.185   9.918
    3        0.447   0.286   9.185   9.918
    4        0.447   0.286   9.185   9.918
    5        0.448   0.286   9.181   9.915
    6        0.447   0.286   9.185   9.918
    7        0.447   0.286   9.185   9.918
    8        0.447   0.286   9.185   9.918
    9        0.448   0.284   9.186   9.919
   10        0.444   0.371   9.175   9.990
   11        0.442   0.365   9.181   9.988
   12        0.444   0.371   9.174   9.989
   13        0.441   0.365   9.181   9.987
   14        0.441   0.365   9.181   9.987
   15        0.439   0.371   9.175   9.985
   16        0.443   0.371   9.175   9.989
   17        0.438   0.371   9.175   9.985
   18        0.438   0.371   9.175   9.985
   19        0.444   0.371   9.178   9.993
   20        0.466   0.394   9.156  10.015
   21        0.466   0.393   9.155  10.015
   22        0.431   0.375   9.178   9.983
   23        0.467   0.392   9.157  10.016
   24        0.431   0.375   9.178   9.983
   25        0.444   0.370   9.179   9.993
   26        0.444   0.370   9.179   9.993
   27        0.431   0.374   9.179   9.984
   28        0.444   0.299   9.179   9.921
   29        0.482   0.326   9.157   9.965
   30        0.482   0.326   9.157   9.965
   31        0.482   0.325   9.157   9.964
   32        0.482   0.324   9.157   9.964
   33        0.482   0.321   9.159   9.961
   34        0.482   0.321   9.159   9.961
   35        0.438   0.303   9.179   9.921
   36        2.205   5.995   2.393  10.593
   37        0.600   0.117   0.000   0.717
   38        0.600   0.117   0.000   0.717
   39        1.564   3.625   0.000   5.189
tot         20.763  21.702 323.492 365.957

  FORCE on cell =-STRESS in cart. coord.  units (eV):
  Direction    XX          YY          ZZ          XY          YZ          ZX
  Alpha Z   805.19867   805.19867   805.19867
  Ewald  235601.49339235533.08668************    -0.56184   -35.47952     0.13120
  Hartree248679.53079248666.08696************    -0.11743    -7.27878     0.04402
  E(xc)   -2341.27041 -2341.56324 -2346.21523    -0.00246    -0.10627     0.00098
  Local  ************************497699.43672     0.55906    34.98857    -0.12670
  n-local  -794.36323  -795.07839  -796.51612    -0.00502    -0.22118     0.00376
  augment  3333.16188  3334.30671  3355.60499    -0.01035     0.46705    -0.00509
  Kinetic  3515.55448  3533.56334  3556.92497     0.14736     7.49903    -0.05752
  Fock        0.00000     0.00000     0.00000     0.00000     0.00000     0.00000
  Total      -8.68604    -8.51913    -3.23033     0.00934    -0.13110    -0.00935
  in kB     -11.17572   -10.96096    -4.15623     0.01202    -0.16868    -0.01203

 VOLUME and BASIS-vectors are now :
  energy-cutoff  :      500.00
  volume of cell :     1245.25
      direct lattice vectors                 reciprocal lattice vectors
     7.696786404  0.000000000  0.000000000     0.129924354 -0.075011849  0.000000000
     3.848392758  6.665612809  0.000000000     0.000000000  0.150023716  0.000000000
     0.000000000  0.000000000 24.272106894     0.000000000  0.000000000  0.041199555

  length of vectors
     7.696786404  7.696786404 24.272106894     0.150023716  0.150023716  0.041199555

 FORCES acting on ions
    electron-ion (+dipol)            ewald-force                    non-local-force                 convergence-correction
   0.145E-02 0.164E-01 0.382E+04   -.181E-04 -.126E-01 -.382E+04   0.486E-03 -.519E-02 -.242E+01   -.192E-02 0.209E-02 0.208E+00
   -.545E+00 -.617E-01 0.382E+04   0.410E+00 -.220E-01 -.382E+04   0.101E+00 0.171E+00 -.181E+01   0.422E-01 -.747E-01 0.204E+00
   0.542E+00 -.746E-01 0.382E+04   -.410E+00 -.219E-01 -.382E+04   -.101E+00 0.169E+00 -.181E+01   -.394E-01 -.608E-01 0.208E+00
   -.301E+00 -.450E+00 0.382E+04   0.197E+00 0.384E+00 -.382E+04   0.190E+00 -.108E-01 -.185E+01   -.656E-01 0.771E-01 0.199E+00
   -.186E-01 -.458E-01 0.382E+04   0.285E-03 0.244E-01 -.382E+04   -.788E-02 -.171E-01 -.150E+01   0.265E-01 0.355E-01 0.360E+00
   0.314E+00 -.458E+00 0.382E+04   -.197E+00 0.384E+00 -.382E+04   -.190E+00 -.109E-01 -.185E+01   0.530E-01 0.847E-01 0.207E+00
   0.132E+00 0.516E+00 0.382E+04   -.213E+00 -.362E+00 -.382E+04   0.123E+00 -.156E+00 -.187E+01   -.378E-01 -.112E-01 0.215E+00
   -.143E+00 0.526E+00 0.382E+04   0.213E+00 -.362E+00 -.382E+04   -.125E+00 -.156E+00 -.187E+01   0.517E-01 -.211E-01 0.218E+00
   0.175E-01 0.389E-01 0.382E+04   0.172E-03 -.115E-01 -.382E+04   0.904E-02 0.701E-02 -.214E+01   -.272E-01 -.311E-01 0.152E+00
   -.278E+01 -.162E+01 0.135E+04   0.325E+01 0.190E+01 -.135E+04   -.403E+00 -.249E+00 -.964E+00   -.571E-01 -.322E-01 -.446E+00
   -.163E-01 0.157E-01 0.135E+04   0.108E-02 -.460E+00 -.135E+04   -.866E-02 0.292E+00 -.958E-01   0.242E-01 0.109E+00 -.525E+00
   0.279E+01 -.163E+01 0.135E+04   -.325E+01 0.190E+01 -.135E+04   0.404E+00 -.250E+00 -.966E+00   0.451E-01 -.189E-01 -.442E+00
   0.365E-01 -.196E+00 0.135E+04   -.417E+00 0.379E+00 -.135E+04   0.244E+00 -.148E+00 -.109E+00   0.102E+00 -.120E-01 -.531E+00
   -.629E-01 -.193E+00 0.135E+04   0.418E+00 0.379E+00 -.135E+04   -.263E+00 -.147E+00 -.108E+00   -.569E-01 -.154E-01 -.528E+00
   0.194E-01 -.345E+01 0.135E+04   -.856E-03 0.322E+01 -.135E+04   0.163E-02 0.144E+00 -.973E+00   -.202E-01 0.790E-01 -.517E+00
   -.652E-02 0.343E+01 0.135E+04   0.460E-03 -.392E+01 -.135E+04   0.111E-02 0.463E+00 -.906E+00   0.504E-02 0.166E-01 -.423E+00
   -.284E+01 0.183E+01 0.135E+04   0.267E+01 -.170E+01 -.135E+04   0.112E+00 -.584E-01 -.949E+00   0.482E-01 -.605E-01 -.500E+00
   0.284E+01 0.181E+01 0.135E+04   -.267E+01 -.170E+01 -.135E+04   -.112E+00 -.592E-01 -.950E+00   -.516E-01 -.425E-01 -.499E+00
   0.236E-01 -.227E+01 -.113E+04   -.767E-02 0.243E+01 0.113E+04   0.226E-03 -.702E-01 0.870E+00   -.161E-01 -.874E-01 -.528E+00
   0.823E+01 0.379E+01 -.113E+04   -.661E+01 -.284E+01 0.113E+04   -.141E+01 -.812E+00 -.116E+01   -.250E+00 -.158E+00 -.815E+00
   -.827E+01 0.378E+01 -.113E+04   0.662E+01 -.284E+01 0.113E+04   0.139E+01 -.814E+00 -.116E+01   0.294E+00 -.147E+00 -.813E+00
   0.849E+00 -.779E+00 -.114E+04   -.111E+01 0.906E+00 0.114E+04   0.444E+00 -.246E+00 0.652E+00   -.151E+00 0.958E-01 -.494E+00
   -.276E-01 -.966E+01 -.113E+04   0.721E-02 0.779E+01 0.113E+04   -.921E-02 0.161E+01 -.997E+00   0.299E-01 0.333E+00 -.792E+00
   -.827E+00 -.764E+00 -.114E+04   0.110E+01 0.900E+00 0.114E+04   -.441E+00 -.245E+00 0.655E+00   0.134E+00 0.858E-01 -.495E+00
   0.119E+01 0.186E+01 -.113E+04   -.136E+01 -.190E+01 0.113E+04   0.845E-01 0.110E-01 0.985E+00   0.862E-01 0.395E-01 -.514E+00
   -.119E+01 0.188E+01 -.113E+04   0.136E+01 -.191E+01 0.113E+04   -.848E-01 0.117E-01 0.985E+00   -.855E-01 0.214E-01 -.510E+00
   0.708E-03 0.223E+01 -.114E+04   0.118E-02 -.252E+01 0.114E+04   -.153E-03 0.507E+00 0.631E+00   -.178E-02 -.179E+00 -.474E+00
   0.170E-01 0.309E+01 -.364E+04   -.181E-01 -.317E+01 0.364E+04   -.585E-03 0.970E-01 0.159E+01   0.156E-02 -.836E-02 -.291E+00
   0.297E+02 0.402E+02 -.362E+04   -.291E+02 -.395E+02 0.362E+04   -.539E+00 -.512E+00 0.160E+00   -.146E+00 -.278E+00 -.197E+00
   -.297E+02 0.402E+02 -.362E+04   0.291E+02 -.394E+02 0.362E+04   0.554E+00 -.515E+00 0.157E+00   0.119E+00 -.260E+00 -.198E+00
   0.445E+02 0.257E+00 -.362E+04   -.434E+02 -.475E-02 0.362E+04   -.799E+00 -.249E+00 0.887E-01   -.327E+00 -.206E-02 -.200E+00
   -.444E+02 0.255E+00 -.362E+04   0.433E+02 -.818E-02 0.362E+04   0.813E+00 -.249E+00 0.100E+00   0.278E+00 0.253E-02 -.205E+00
   0.141E+02 -.369E+02 -.363E+04   -.139E+02 0.360E+02 0.363E+04   -.128E+00 0.731E+00 0.487E+00   -.139E+00 0.242E+00 -.218E+00
   -.142E+02 -.368E+02 -.363E+04   0.139E+02 0.359E+02 0.363E+04   0.141E+00 0.731E+00 0.493E+00   0.121E+00 0.230E+00 -.222E+00
   0.343E-01 0.284E+01 -.366E+04   -.232E-01 -.283E+01 0.366E+04   0.107E-01 -.217E-01 0.225E+01   -.223E-01 0.563E-02 -.203E+00
   -.153E+00 -.192E+02 -.420E+04   0.126E+00 0.191E+02 0.420E+04   -.516E-03 0.143E+00 0.281E+01   0.311E-01 0.289E-01 -.128E+00
   0.721E+02 0.451E+02 -.390E+03   -.789E+02 -.494E+02 0.392E+03   0.681E+01 0.428E+01 -.188E+01   -.115E-01 -.102E-01 0.233E-01
   -.712E+02 0.464E+02 -.390E+03   0.779E+02 -.508E+02 0.392E+03   -.672E+01 0.441E+01 -.193E+01   0.118E-01 -.992E-02 0.226E-01
   -.617E+00 -.522E+02 -.229E+04   0.103E+01 0.942E+02 0.229E+04   -.426E+00 -.420E+02 0.774E+01   0.914E-02 -.961E-02 0.201E+00
   0.324E+00 0.333E+02 0.192E+02   -.284E-13 0.853E-13 -.909E-12   -.332E+00 -.332E+02 -.960E+01   0.759E-02 -.417E-01 -.949E+01

 POSITION                                       TOTAL-FORCE (eV/Angst)
      0.00000      0.00000      5.37156         0.000005      0.000026     -0.036652
      2.56560      0.00000      5.37156         0.008272      0.011435      0.050374
      5.13119      0.00000      5.37156        -0.008163      0.011428      0.050344
      1.28280      2.22187      5.37156         0.019945     -0.000964      0.050256
      3.84839      2.22187      5.37156         0.000317     -0.003819      0.049150
      6.41399      2.22187      5.37156        -0.019721     -0.001203      0.050475
      2.56560      4.44374      5.37156         0.003582     -0.013864      0.051802
      5.13119      4.44374      5.37156        -0.003719     -0.013630      0.051955
      7.69679      4.44374      5.37156        -0.000448      0.002618      0.008891
      1.28280      0.74062      7.46636         0.010989      0.005547     -0.097007
      3.84839      0.74062      7.46636         0.000384     -0.043634     -0.039091
      6.41399      0.74062      7.46636        -0.010881      0.005532     -0.097106
      2.56560      2.96249      7.46636        -0.034338      0.022763     -0.036882
      5.13119      2.96249      7.46636         0.035208      0.022754     -0.036801
      7.69679      2.96249      7.46636        -0.000028     -0.007116     -0.024777
      3.84839      5.18437      7.46636         0.000085     -0.013062     -0.095274
      6.41399      5.18437      7.46636        -0.005424      0.003617     -0.015248
      8.97958      5.18437      7.46636         0.005672      0.003525     -0.015323
      7.69679      1.47855      9.54201         0.000039     -0.000105      0.000116
      2.56706      1.48209      9.56134        -0.039023     -0.017550     -0.091155
      5.12972      1.48209      9.56134         0.039717     -0.017503     -0.090867
      8.97774      3.70418      9.56312         0.031869     -0.023960      0.006636
      3.84839      3.70142      9.56134         0.000243      0.071544     -0.101830
      6.41583      3.70418      9.56312        -0.031586     -0.023933      0.007083
     10.26471      5.92634      9.54201         0.001434      0.004488      0.003452
      5.12886      5.92634      9.54201        -0.001531      0.004644      0.003322
      7.69679      5.92286      9.56312        -0.000045      0.034665     -0.003049
      0.00000      0.00000     11.64396        -0.000136      0.007147      0.035931
      6.40056      6.63873     11.66709        -0.032752     -0.045022     -0.071881
      8.99302      6.63873     11.66709         0.031461     -0.045457     -0.072160
      8.94959      2.22368     11.66709        -0.023170     -0.000175     -0.045005
      6.44399      2.22368     11.66709         0.023607     -0.000175     -0.045991
     10.24582      4.46882     11.66709        -0.040107      0.031135     -0.078085
      5.14776      4.46882     11.66709         0.039322      0.032300     -0.078984
      7.69679      4.44374     11.66626        -0.000488     -0.002540      0.028345
      3.84839      2.22187     11.77465         0.004007     -0.002417      0.724168
      3.05698      1.57843     14.29521         0.009471      0.006513     -0.003426
      4.62820      1.56410     14.30093        -0.007809      0.006251     -0.009449
      3.84843      2.10969     14.06707        -0.006257     -0.011804      0.013742
    total drift:                               -0.000106      0.025036      0.082917

  FREE ENERGIE OF THE ION-ELECTRON SYSTEM (eV)
  free  energy   TOTEN  =      -145.96963031 eV

  energy  without entropy=     -145.96963031  energy(sigma->0) =     -145.96963031

 stress matrix after NEB project (eV)
     -8.68604      0.00934     -0.00935
      0.00934     -8.51913     -0.13110
     -0.00935     -0.13110     -3.23033
  FORCES: max atom, RMS     0.019166    0.004238
  FORCE total and by dimension    0.026467    0.013742
  Stress total and by dimension   12.589383    8.686040
|           W    W    AA    RRRRR   N    N  II  N    N   GGGG   !!!           |
|           W    W   A  A   R    R  NN   N  II  NN   N  G    G  !!!           |
|           W    W  A    A  R    R  N N  N  II  N N  N  G       !!!           |
|           W WW W  AAAAAA  RRRRR   N  N N  II  N  N N  G  GGG   !            |
|           WW  WW  A    A  R   R   N   NN  II  N   NN  G    G                |
|           W    W  A    A  R    R  N    N  II  N    N   GGGG   !!!           |
|     Tetrahedron method does not include variations of the Fermi             |
|     occupations, so forces and stress will be inaccurate. We suggest        |
|     using a different smearing scheme ISMEAR = 1 or 2 for metals in         |
|     relaxations.                                                            |

 total charge

# of ion       s       p       d       tot
    1        0.449   0.283   9.188   9.920
    2        0.447   0.286   9.185   9.918
    3        0.447   0.286   9.185   9.918
    4        0.447   0.286   9.185   9.918
    5        0.448   0.286   9.181   9.915
    6        0.447   0.286   9.185   9.918
    7        0.447   0.286   9.185   9.918
    8        0.447   0.286   9.185   9.918
    9        0.448   0.284   9.186   9.919
   10        0.444   0.371   9.175   9.990
   11        0.442   0.365   9.181   9.988
   12        0.444   0.371   9.174   9.989
   13        0.441   0.365   9.181   9.987
   14        0.441   0.365   9.181   9.987
   15        0.439   0.371   9.175   9.985
   16        0.443   0.371   9.175   9.989
   17        0.438   0.371   9.175   9.985
   18        0.438   0.371   9.175   9.985
   19        0.444   0.371   9.178   9.993
   20        0.466   0.394   9.156  10.015
   21        0.466   0.393   9.155  10.015
   22        0.431   0.375   9.178   9.983
   23        0.467   0.392   9.157  10.016
   24        0.431   0.375   9.178   9.983
   25        0.444   0.370   9.179   9.993
   26        0.444   0.370   9.179   9.993
   27        0.431   0.374   9.179   9.984
   28        0.444   0.299   9.179   9.921
   29        0.482   0.326   9.157   9.965
   30        0.482   0.326   9.157   9.965
   31        0.482   0.325   9.157   9.964
   32        0.482   0.324   9.157   9.964
   33        0.482   0.321   9.159   9.961
   34        0.482   0.321   9.159   9.961
   35        0.438   0.303   9.179   9.921
   36        2.205   5.995   2.393  10.593
   37        0.600   0.117   0.000   0.717
   38        0.600   0.117   0.000   0.717
   39        1.564   3.625   0.000   5.189
tot         20.763  21.702 323.492 365.957

 BZINTS: Fermi energy:    0.058697;  406.000000 electrons
         Band energy:-0.149365E+04;  BLOECHL correction:   -0.023281