 vasp.6.2.0 18Jan21 (build Jun 12 2021 23:27:24) complex

 executed on             LinuxIFC date 2022.05.26  19:24:19

 INCAR:
   ISMEAR = -5
   SIGMA = 0.1
   ISPIN = 1
   EDIFF = 1.d-5
   EDIFFG = -0.01
   NSW = 0
   NELM = 150
   ENCUT = 500
   ISIF = 2
   IBRION = 2
   LREAL = Auto
   ALGO = Fast
   ICHARG = 11
   LORBIT = 10
   LCHARG = .F.
   LWAVE = .F.

 POTCAR:    PAW_PBE Au 04Oct2007
 POTCAR:    PAW_PBE Zr_sv 04Jan2005
 POTCAR:    PAW_PBE H 15Jun2001
|           W    W    AA    RRRRR   N    N  II  N    N   GGGG   !!!           |
|           W    W   A  A   R    R  NN   N  II  NN   N  G    G  !!!           |
|           W    W  A    A  R    R  N N  N  II  N N  N  G       !!!           |
|           W WW W  AAAAAA  RRRRR   N  N N  II  N  N N  G  GGG   !            |
|           WW  WW  A    A  R   R   N   NN  II  N   NN  G    G                |
|           W    W  A    A  R    R  N    N  II  N    N   GGGG   !!!           |
|     For optimal performance we recommend to set                             |
|       NCORE = 2 up to number-of-cores-per-socket                            |
|     This setting can greatly improve the performance of VASP for DFT.       |
|     The default, NCORE=1 might be grossly inefficient on modern             |
|     multi-core architectures or massively parallel machines. Do your        |
|     Unfortunately you need to use the default for GW and RPA                |
|     calculations (for HF NCORE is supported but not extensively tested      |
|     yet).                                                                   |

 POTCAR:    PAW_PBE Au 04Oct2007
   VRHFIN =Au: s1d10

   TITEL  = PAW_PBE Au 04Oct2007
   POMASS =  196.966; ZVAL   =   11.000    mass and valenz
   ENMAX  =  229.943; ENMIN  =  172.457 eV

 POTCAR:    PAW_PBE Zr_sv 04Jan2005
   VRHFIN =Zr: 4s4p5s4d

   TITEL  = PAW_PBE Zr_sv 04Jan2005
   POMASS =   91.224; ZVAL   =   12.000    mass and valenz
   ENMAX  =  229.898; ENMIN  =  172.424 eV

 POTCAR:    PAW_PBE H 15Jun2001
   VRHFIN =H: ultrasoft test

   TITEL  = PAW_PBE H 15Jun2001
   POMASS =    1.000; ZVAL   =    1.000    mass and valenz
   ENMAX  =  250.000; ENMIN  =  200.000 eV

 Optimization of the real space projectors (new method)

 maximal supplied QI-value         = 15.12
 optimisation between [QCUT,QGAM] = [ 11.34, 22.83] = [ 36.00,145.93] Ry
 Optimized for a Real-space Cutoff    1.39 Angstroem

   l    n(q)    QCUT    max X(q) W(low)/X(q) W(high)/X(q)  e(spline)
   2      9    11.338    60.898    0.39E-03    0.42E-03    0.21E-06
   2      9    11.338    58.894    0.40E-03    0.42E-03    0.22E-06
   0      9    11.338   109.617    0.13E-03    0.20E-04    0.13E-06
   0      9    11.338    75.026    0.13E-03    0.20E-04    0.13E-06
   1      9    11.338    16.344    0.33E-04    0.24E-03    0.18E-06
   1      9    11.338    10.160    0.26E-04    0.19E-03    0.15E-06
 Optimization of the real space projectors (new method)

[...]

   l    n(q)    QCUT    max X(q) W(low)/X(q) W(high)/X(q)  e(spline)
   0     10    11.338    12.107    0.38E-04    0.13E-04    0.27E-07
   0     10    11.338     9.948    0.69E-04    0.30E-04    0.38E-07
   1     10    11.338     3.563    0.26E-04    0.18E-04    0.40E-07
   1     10    11.338     4.524    0.25E-03    0.39E-04    0.44E-06
   2      9    11.338    87.261    0.26E-03    0.91E-05    0.26E-06
   2      9    11.338    70.950    0.25E-03    0.91E-05    0.25E-06
 Optimization of the real space projectors (new method)

 maximal supplied QI-value         = 34.20
 optimisation between [QCUT,QGAM] = [ 11.29, 22.57] = [ 35.68,142.71] Ry
 Optimized for a Real-space Cutoff    1.16 Angstroem

   l    n(q)    QCUT    max X(q) W(low)/X(q) W(high)/X(q)  e(spline)
   0      8    11.287    19.460    0.40E-03    0.73E-03    0.16E-06
   0      8    11.287    12.209    0.38E-03    0.70E-03    0.15E-06
   1      7    11.287     4.655    0.22E-03    0.25E-04    0.22E-06
  PAW_PBE Au 04Oct2007                  :
  PAW_PBE Zr_sv 04Jan2005               :
  PAW_PBE H 15Jun2001                   :

 POSCAR: Au-Zr-H
  positions in direct lattice
  velocities in cartesian coordinates
 exchange correlation table for  LEXCH =        8
   RHO(1)=    0.500       N(1)  =     2000
   RHO(2)=  100.500       N(2)  =     4000

 VTST: version 3.2, (02/03/18)

 CHAIN: initializing optimizer

 OPT: Using VASP Conjugate-Gradient optimizer
 CHAIN: Read ICHAIN            0

 POSCAR: Au-Zr-H
  positions in direct lattice
  velocities in cartesian coordinates

 ion  position               nearest neighbor table
   1  0.000  0.000  0.238-  16 2.94  12 2.94   6 2.94   8 2.94   7 2.94   3 2.94  10 2.94   4 2.94
                             2 2.94
   2  0.333  0.000  0.238-   9 2.94  11 2.94  17 2.94  10 2.94   8 2.94   4 2.94   5 2.94   1 2.94
                             3 2.94
   3  0.667  0.000  0.238-   7 2.94  18 2.94  12 2.94   1 2.94  11 2.94   5 2.94   6 2.94   9 2.94
                             2 2.94
   4  0.000  0.333  0.238-  10 2.94   6 2.94   5 2.94  13 2.94   2 2.94  15 2.94   9 2.94   1 2.94
                             7 2.94
   5  0.333  0.333  0.238-  13 2.94   7 2.94  11 2.94   4 2.94   2 2.94  14 2.94   3 2.94   8 2.94
                             6 2.94
   6  0.667  0.333  0.238-  15 2.94  14 2.94   1 2.94  12 2.94   4 2.94   9 2.94   8 2.94   3 2.94
                             5 2.94
   7  0.000  0.667  0.238-  18 2.94   3 2.94  16 2.94   5 2.94   1 2.94  13 2.94   8 2.94   4 2.94
                             9 2.94
   8  0.333  0.667  0.238-   9 2.94  17 2.94   1 2.94   2 2.94  14 2.94  16 2.94   6 2.94   7 2.94
                             5 2.94
   9  0.667  0.667  0.238-   2 2.94   8 2.94  17 2.94   6 2.94  15 2.94   4 2.94   3 2.94  18 2.94
                             7 2.94
  10  0.111  0.111  0.346-  20 2.93  26 2.93  19 2.93  11 2.94  17 2.94   2 2.94   4 2.94   1 2.94
                            12 2.94  16 2.94  13 2.94  15 2.94
  11  0.444  0.111  0.346-  20 2.92  21 2.92  27 2.94  13 2.94   2 2.94  10 2.94  17 2.94   5 2.94
                             3 2.94  18 2.94  14 2.94  12 2.94
  12  0.778  0.111  0.346-  21 2.93  25 2.93  19 2.93  16 2.94  18 2.94   1 2.94  14 2.94  15 2.94
                             3 2.94   6 2.94  10 2.94  11 2.94
  13  0.111  0.444  0.346-  23 2.92  20 2.92  22 2.94   5 2.94  18 2.94  11 2.94   7 2.94   4 2.94
                            16 2.94  10 2.94  14 2.94  15 2.94
  14  0.444  0.444  0.346-  21 2.92  23 2.92  24 2.94  15 2.94   6 2.94  12 2.94   8 2.94  17 2.94
                             5 2.94  16 2.94  13 2.94  11 2.94
  15  0.778  0.444  0.346-  24 2.93  22 2.93  19 2.93  14 2.94   6 2.94  17 2.94  12 2.94   9 2.94
                             4 2.94  10 2.94  13 2.94  18 2.94
  16  0.111  0.778  0.346-  23 2.93  25 2.93  26 2.93  18 2.94  12 2.94   7 2.94   1 2.94   8 2.94
                            13 2.94  10 2.94  14 2.94  17 2.94
  17  0.444  0.778  0.346-  27 2.93  24 2.93  26 2.93   9 2.94  15 2.94   2 2.94  10 2.94  11 2.94
                             8 2.94  14 2.94  16 2.94  18 2.94
  18  0.778  0.778  0.346-  22 2.93  27 2.93  25 2.93  16 2.94   7 2.94  13 2.94  12 2.94   3 2.94
                            11 2.94   9 2.94  15 2.94  17 2.94
  19  0.889  0.222  0.454-  10 2.93  12 2.93  15 2.93  26 2.94  25 2.94  24 2.94  22 2.94  21 2.95
                            20 2.95  28 2.96  32 3.04  31 3.04
  20  0.223  0.223  0.453-  36 2.86  23 2.92  21 2.92  11 2.92  13 2.92  10 2.93  27 2.94  22 2.94
                            26 2.95  19 2.95  29 3.00  31 3.00
  21  0.554  0.223  0.453-  36 2.86  20 2.92  23 2.92  14 2.92  11 2.92  12 2.93  27 2.94  24 2.94
                            25 2.95  19 2.95  30 3.00  32 3.00
  22  0.888  0.556  0.454-  24 2.92  27 2.92  18 2.93  15 2.93  13 2.94  25 2.94  19 2.94  23 2.94
                            20 2.94  35 2.96  33 3.01  31 3.01
  23  0.223  0.554  0.453-  36 2.86  20 2.92  21 2.92  13 2.92  14 2.92  16 2.93  22 2.94  24 2.94
                            25 2.95  26 2.95  33 3.00  34 3.00
  24  0.556  0.556  0.454-  27 2.92  22 2.92  15 2.93  17 2.93  14 2.94  26 2.94  19 2.94  21 2.94
                            23 2.94  35 2.96  32 3.01  34 3.01
  25  0.889  0.889  0.454-  16 2.93  12 2.93  18 2.93  19 2.94  26 2.94  22 2.94  27 2.94  23 2.95
                            21 2.95  28 2.96  33 3.04  30 3.04
  26  0.222  0.889  0.454-  10 2.93  16 2.93  17 2.93  19 2.94  25 2.94  27 2.94  24 2.94  20 2.95
                            23 2.95  28 2.96  29 3.04  34 3.04
  27  0.556  0.888  0.454-  24 2.92  22 2.92  17 2.93  18 2.93  11 2.94  26 2.94  25 2.94  20 2.94
                            21 2.94  35 2.96  29 3.01  30 3.01
  28  0.000  0.000  0.563-  25 2.96  19 2.96  26 2.96  34 2.97  32 2.97  33 2.97  30 2.97  31 2.97
                            29 2.97
  29  0.334  0.006  0.566-  30 2.88  31 2.89  36 2.89  35 2.96  28 2.97  20 3.00  27 3.01  26 3.04
                            34 3.04
  30  0.661  0.006  0.566-  29 2.88  32 2.89  36 2.89  35 2.96  28 2.97  21 3.00  27 3.01  25 3.04
                            33 3.04
  31  0.006  0.334  0.566-  33 2.88  29 2.89  36 2.89  35 2.96  28 2.97  20 3.00  22 3.01  19 3.04
                            32 3.04
  32  0.661  0.334  0.566-  34 2.88  30 2.89  36 2.89  35 2.96  28 2.97  21 3.00  24 3.01  19 3.04
                            31 3.04
  33  0.006  0.661  0.566-  31 2.88  34 2.89  36 2.89  35 2.96  28 2.97  23 3.00  22 3.01  25 3.04
                            30 3.04
  34  0.334  0.661  0.566-  32 2.88  33 2.89  36 2.89  35 2.96  28 2.97  23 3.00  24 3.01  26 3.04
                            29 3.04
  35  0.667  0.667  0.563-  24 2.96  27 2.96  22 2.96  29 2.96  34 2.96  32 2.96  31 2.96  30 2.96
                            33 2.96
  36  0.333  0.333  0.557-  37 1.86  20 2.86  23 2.86  21 2.86  33 2.89  31 2.89  29 2.89  30 2.89
                            34 2.89  32 2.89
  37  0.333  0.333  0.641-  36 1.86

  LATTYP: Found a hexagonal cell.
 ALAT       =     8.8135128021
 C/A-ratio  =     2.5184286595

  Lattice vectors:

 A1 = (  -4.4067569092,  -7.6327256898,   0.0000000000)
 A2 = (   8.8135128021,   0.0000000000,   0.0000000000)
 A3 = (   0.0000000000,   0.0000000000,  22.1962032318)

Analysis of symmetry for initial positions (statically):
 Subroutine PRICEL returns:
 Original cell was already a primitive cell.

 Routine SETGRP: Setting up the symmetry group for a
 hexagonal supercell.

 Subroutine GETGRP returns: Found  6 space group operations
 (whereof  6 operations were pure point group operations)
 out of a pool of 24 trial point group operations.

The static configuration has the point symmetry C_3v.

Analysis of symmetry for dynamics (positions and initial velocities):
 Subroutine PRICEL returns:
 Original cell was already a primitive cell.

[...]

The dynamic configuration has the point symmetry C_3v.

Analysis of constrained symmetry for selective dynamics:
 Subroutine PRICEL returns:
 Original cell was already a primitive cell.

 Routine SETGRP: Setting up the symmetry group for a
 hexagonal supercell.

 Subroutine GETGRP returns: Found  6 space group operations
 (whereof  6 operations were pure point group operations)
[...]
     24      -5.1671      2.00000
     25      -5.1450      2.00000
     26      -5.1284      2.00000
     27      -5.0625      2.00000
     28      -5.0325      2.00000
     29      -5.0106      2.00000
     30      -4.9900      2.00000
     31      -4.9369      2.00000
     32      -4.9054      2.00000
     33      -4.8477      2.00000
     34      -4.7996      2.00000
     35      -4.7770      2.00000
     36      -4.7411      2.00000
     37      -4.7324      2.00000
     38      -4.7138      2.00000
     39      -4.6918      2.00000
     40      -4.6788      2.00000
     41      -4.5347      2.00000
     42      -4.5131      2.00000
     43      -4.4538      2.00000
     44      -4.4033      2.00000
     45      -4.3794      2.00000
     46      -4.3492      2.00000
     47      -4.3268      2.00000
     48      -4.3007      2.00000
     49      -4.2724      2.00000
     50      -4.1893      2.00000
     51      -4.1807      2.00000
     52      -4.1377      2.00000
     53      -4.1178      2.00000
     54      -4.1051      2.00000
     55      -4.0975      2.00000
     56      -4.0880      2.00000
     57      -4.0616      2.00000
     58      -4.0139      2.00000
     59      -3.9923      2.00000
     60      -3.9780      2.00000
[...]
    238       6.4502      0.00000
    239       6.5444      0.00000
    240       6.5870      0.00000
    241       6.5952      0.00000
    242       6.7447      0.00000
    243       6.7770      0.00000
    244       6.8642      0.00000
    245       6.9311      0.00000
    246       6.9778      0.00000
    247       7.1590      0.00000
    248       7.2648      0.00000
    249       7.3709      0.00000
    250       7.6863      0.00000
    251       7.7050      0.00000
    252       7.9064      0.00000

 soft charge-density along one line, spin component           1
         0         1         2         3         4         5         6         7         8         9
 total charge-density along one line

------------------------ aborting loop because EDIFF is reached ----------------------------------------

 total charge

# of ion       s       p       d       tot
    1        0.549   0.237   8.767   9.553
    2        0.541   0.241   8.766   9.548
    3        0.541   0.241   8.766   9.548
    4        0.541   0.241   8.766   9.548
    5        0.544   0.240   8.762   9.547
    6        0.541   0.241   8.766   9.548
    7        0.541   0.241   8.766   9.548
    8        0.541   0.241   8.766   9.548
    9        0.543   0.239   8.767   9.549
   10        0.523   0.306   8.772   9.602
   11        0.518   0.306   8.778   9.603
   12        0.523   0.306   8.772   9.602
   13        0.518   0.306   8.778   9.603
   14        0.518   0.306   8.778   9.603
   15        0.516   0.308   8.774   9.598
   16        0.523   0.306   8.772   9.602
   17        0.516   0.308   8.774   9.598
   18        0.516   0.308   8.774   9.598
   19        0.521   0.296   8.772   9.589
   20        0.565   0.325   8.744   9.634
   21        0.565   0.325   8.744   9.634
   22        0.511   0.305   8.772   9.588
   23        0.565   0.325   8.744   9.634
   24        0.511   0.305   8.772   9.588
   25        0.521   0.296   8.772   9.589
   26        0.521   0.296   8.772   9.589
   27        0.511   0.305   8.772   9.588
   28        0.542   0.234   8.754   9.530
   29        0.598   0.240   8.733   9.571
   30        0.598   0.240   8.733   9.571
   31        0.598   0.240   8.733   9.571
   32        0.598   0.240   8.733   9.571
   33        0.598   0.240   8.733   9.571
   34        0.598   0.240   8.733   9.571
   35        0.538   0.235   8.756   9.530
   36        2.203   5.994   1.473   9.670
   37        0.529   0.006   0.000   0.535
tot         21.747  15.611 308.111 345.468

  FORCE on cell =-STRESS in cart. coord.  units (eV):
  Direction    XX          YY          ZZ          XY          YZ          ZX
  Alpha Z  1018.03470  1018.03470  1018.03470
  Ewald  119437.85429119437.85473************    -0.00033    -0.00008    -0.00015
  Hartree128145.21626128145.21627************     0.00000    -0.00002    -0.00004
  E(xc)   -1781.54452 -1781.54450 -1788.77050    -0.00002    -0.00000    -0.00000
  Local  ************************260353.45590     0.00171     0.00004     0.00007
  n-local   -78.64206   -33.06937   -34.09843    22.28737    -1.86741     1.34763
  augment  2363.80757  2363.80910  2385.52618    -0.00133     0.00001     0.00003
  Kinetic  5569.32557  5575.50556  5646.89592     3.50906     0.46349    -0.04681
  Fock        0.00000     0.00000     0.00000     0.00000     0.00000     0.00000
  Total     -19.15602   -19.15602     3.65638    -0.00000     0.00000     0.00000
  in kB     -20.55457   -20.55457     3.92333    -0.00000     0.00000     0.00000

 VOLUME and BASIS-vectors are now :
  energy-cutoff  :      500.00
  volume of cell :     1493.16
      direct lattice vectors                 reciprocal lattice vectors
     8.813512802  0.000000000  0.000000000     0.113462137 -0.065507406  0.000000000
     4.406756909  7.632725690  0.000000000     0.000000000  0.131014796  0.000000000
     0.000000000  0.000000000 22.196203232     0.000000000  0.000000000  0.045052750

  length of vectors
     8.813512802  8.813512802 22.196203232     0.131014796  0.131014796  0.045052750

 FORCES acting on ions
    electron-ion (+dipol)            ewald-force                    non-local-force                 convergence-correction
   -.198E-04 -.163E-04 0.249E+04   0.519E-04 0.434E-04 -.249E+04   -.916E-18 0.233E-17 -.461E+00   -.146E-03 -.976E-04 -.222E+00
   0.311E+00 0.410E+00 0.249E+04   -.374E+00 -.483E+00 -.249E+04   0.472E-02 0.578E-01 -.369E+00   0.528E-01 0.781E-02 -.261E+00
   -.311E+00 0.410E+00 0.249E+04   0.374E+00 -.483E+00 -.249E+04   -.472E-02 0.578E-01 -.369E+00   -.526E-01 0.978E-02 -.261E+00
   0.511E+00 0.644E-01 0.249E+04   -.605E+00 -.821E-01 -.249E+04   0.524E-01 -.248E-01 -.369E+00   0.332E-01 0.418E-01 -.261E+00
   0.705E-05 -.242E-04 0.249E+04   0.951E-04 0.171E-05 -.249E+04   -.937E-17 0.414E-18 -.247E+00   0.427E-02 0.260E-02 -.214E+00
   -.511E+00 0.645E-01 0.249E+04   0.605E+00 -.822E-01 -.249E+04   -.524E-01 -.248E-01 -.369E+00   -.348E-01 0.428E-01 -.260E+00
   0.200E+00 -.475E+00 0.249E+04   -.231E+00 0.565E+00 -.249E+04   0.477E-01 -.330E-01 -.369E+00   -.178E-01 -.504E-01 -.261E+00
   -.200E+00 -.475E+00 0.249E+04   0.231E+00 0.565E+00 -.249E+04   -.477E-01 -.330E-01 -.369E+00   0.197E-01 -.515E-01 -.260E+00
   0.196E-04 -.416E-04 0.249E+04   0.166E-03 -.201E-04 -.249E+04   -.242E-18 0.223E-18 -.360E+00   -.466E-02 -.242E-02 -.294E+00
   0.329E+01 0.190E+01 0.839E+03   -.317E+01 -.183E+01 -.838E+03   -.206E+00 -.119E+00 -.467E+00   0.503E-01 0.289E-01 -.186E+00
   0.155E-04 0.552E+01 0.845E+03   0.147E-03 -.570E+01 -.845E+03   0.362E-08 0.544E-01 -.196E+00   0.344E-02 0.565E-01 -.168E+00
   -.329E+01 0.190E+01 0.839E+03   0.317E+01 -.183E+01 -.838E+03   0.206E+00 -.119E+00 -.467E+00   -.513E-01 0.303E-01 -.187E+00
   0.478E+01 -.276E+01 0.845E+03   -.494E+01 0.285E+01 -.845E+03   0.471E-01 -.272E-01 -.196E+00   0.509E-01 -.250E-01 -.168E+00
   -.478E+01 -.276E+01 0.845E+03   0.494E+01 0.285E+01 -.845E+03   -.471E-01 -.272E-01 -.196E+00   -.432E-01 -.251E-01 -.169E+00
   0.307E-04 0.623E+00 0.839E+03   0.236E-03 -.641E+00 -.838E+03   0.691E-09 0.104E-01 -.405E+00   -.220E-02 -.834E-02 -.190E+00
   -.214E-04 -.380E+01 0.839E+03   0.163E-03 0.366E+01 -.838E+03   0.158E-07 0.238E+00 -.467E+00   0.402E-03 -.596E-01 -.187E+00
   0.540E+00 -.312E+00 0.839E+03   -.556E+00 0.321E+00 -.838E+03   0.899E-02 -.519E-02 -.405E+00   -.808E-02 0.269E-02 -.190E+00
   -.540E+00 -.312E+00 0.839E+03   0.555E+00 0.321E+00 -.838E+03   -.899E-02 -.519E-02 -.405E+00   0.775E-02 0.422E-02 -.191E+00
   -.424E-04 -.191E+01 -.837E+03   0.525E-04 0.186E+01 0.837E+03   -.561E-09 -.843E-02 0.671E+00   0.349E-02 0.349E-01 -.183E-01
   0.348E+02 0.201E+02 -.792E+03   -.339E+02 -.196E+02 0.792E+03   -.109E+01 -.627E+00 -.886E+00   0.470E-01 0.270E-01 0.352E-01
   -.348E+02 0.201E+02 -.792E+03   0.339E+02 -.196E+02 0.792E+03   0.109E+01 -.627E+00 -.886E+00   -.476E-01 0.297E-01 0.350E-01
   0.744E+01 -.430E+01 -.829E+03   -.773E+01 0.447E+01 0.828E+03   0.297E+00 -.171E+00 0.662E+00   0.440E-01 -.315E-01 -.112E-01
   -.713E-05 -.402E+02 -.792E+03   0.143E-03 0.392E+02 0.792E+03   0.834E-07 0.125E+01 -.886E+00   0.171E-02 -.560E-01 0.350E-01
   -.744E+01 -.430E+01 -.829E+03   0.773E+01 0.447E+01 0.828E+03   -.297E+00 -.171E+00 0.662E+00   -.512E-01 -.295E-01 -.111E-01
   0.166E+01 0.956E+00 -.837E+03   -.161E+01 -.930E+00 0.837E+03   0.730E-02 0.422E-02 0.671E+00   -.236E-01 -.137E-01 -.186E-01
   -.166E+01 0.956E+00 -.837E+03   0.161E+01 -.930E+00 0.837E+03   -.730E-02 0.422E-02 0.671E+00   0.323E-01 -.144E-01 -.183E-01
   0.114E-04 0.859E+01 -.829E+03   0.195E-03 -.893E+01 0.828E+03   0.228E-07 0.343E+00 0.662E+00   -.578E-02 0.538E-01 -.111E-01
   -.139E-04 -.126E-04 -.244E+04   0.286E-04 0.340E-04 0.244E+04   0.219E-17 -.192E-18 0.424E+00   0.422E-03 0.226E-03 0.237E+00
   0.326E+02 0.529E+02 -.247E+04   -.316E+02 -.513E+02 0.247E+04   -.113E+01 -.179E+01 -.155E+00   0.893E-01 0.344E-01 0.190E+00
   -.326E+02 0.529E+02 -.247E+04   0.316E+02 -.513E+02 0.247E+04   0.113E+01 -.179E+01 -.155E+00   -.897E-01 0.365E-01 0.191E+00
   0.621E+02 0.179E+01 -.247E+04   -.602E+02 -.175E+01 0.247E+04   -.212E+01 -.798E-01 -.155E+00   0.746E-01 0.601E-01 0.190E+00
   -.621E+02 0.179E+01 -.247E+04   0.602E+02 -.175E+01 0.247E+04   0.212E+01 -.798E-01 -.155E+00   -.759E-01 0.616E-01 0.190E+00
   0.295E+02 -.547E+02 -.247E+04   -.286E+02 0.530E+02 0.247E+04   -.989E+00 0.187E+01 -.155E+00   -.132E-01 -.959E-01 0.191E+00
   -.295E+02 -.547E+02 -.247E+04   0.286E+02 0.530E+02 0.247E+04   0.989E+00 0.187E+01 -.155E+00   0.154E-01 -.965E-01 0.190E+00
   0.294E-04 -.284E-04 -.245E+04   0.144E-03 -.492E-04 0.245E+04   -.101E-16 0.177E-17 0.509E+00   -.492E-02 -.255E-02 0.237E+00
   0.209E-03 -.143E-03 -.257E+04   0.120E-03 0.103E-04 0.257E+04   -.301E-18 0.143E-19 -.211E+01   0.534E-02 0.326E-02 0.123E+00
   0.847E-05 -.504E-05 -.284E+03   0.329E-05 0.212E-06 0.286E+03   0.624E-19 -.163E-19 -.183E+01   0.112E-03 0.678E-04 0.636E-02
   -.553E-03 -.903E-03 0.117E+02   -.375E-13 0.580E-13 0.296E-11   0.989E-15 -.220E-15 -.908E+01   0.100E-01 0.649E-02 -.217E+01

 POSITION                                       TOTAL-FORCE (eV/Angst)
      0.00000      0.00000      5.28038        -0.000000      0.000000     -0.157489
      2.93784      0.00000      5.28038        -0.004468     -0.006182     -0.047430
      5.87568      0.00000      5.28038         0.004468     -0.006182     -0.047430
      1.46892      2.54424      5.28038        -0.007588     -0.000778     -0.047430
      4.40676      2.54424      5.28038        -0.000000      0.000000     -0.055176
      7.34459      2.54424      5.28038         0.007588     -0.000778     -0.047430
      2.93784      5.08848      5.28038        -0.003120      0.006960     -0.047430
      5.87568      5.08848      5.28038         0.003120      0.006960     -0.047430
      8.81351      5.08848      5.28038        -0.000000      0.000000     -0.068280
      1.46892      0.84808      7.67911        -0.041774     -0.024118      0.032065
      4.40676      0.84808      7.67911        -0.000000     -0.075755      0.015803
      7.34459      0.84808      7.67911         0.041774     -0.024118      0.032065
      2.93784      3.39232      7.67911        -0.065606      0.037877      0.015803
      5.87568      3.39232      7.67911         0.065606      0.037877      0.015803
      8.81351      3.39232      7.67911        -0.000000     -0.016253      0.132349
      4.40676      5.93656      7.67911         0.000000      0.048237      0.032065
      7.34459      5.93656      7.67911        -0.014075      0.008126      0.132349
     10.28243      5.93656      7.67911         0.014075      0.008126      0.132349
      8.81351      1.69571     10.07248        -0.000000     -0.026690     -0.006810
      2.94528      1.70046     10.06340        -0.158898     -0.091740     -0.185123
      5.86824      1.70046     10.06340         0.158898     -0.091740     -0.185123
     10.27570      4.24429     10.07162         0.050149     -0.028953      0.043388
      4.40676      4.23182     10.06340         0.000000      0.183480     -0.185123
      7.35132      4.24429     10.07162        -0.050149     -0.028953      0.043388
     11.75174      6.78487     10.07248         0.023114      0.013345     -0.006810
      5.87529      6.78487     10.07248        -0.023114      0.013345     -0.006810
      8.81351      6.77688     10.07162         0.000000      0.057907      0.043388
      0.00000      0.00000     12.49858        -0.000000      0.000000      0.008090
      2.96552      0.04535     12.55994        -0.060010     -0.133219     -0.111346
      5.84799      0.04535     12.55994         0.060010     -0.133219     -0.111346
      1.52204      2.54555     12.55994        -0.145376      0.014639     -0.111346
      7.29148      2.54555     12.55994         0.145376      0.014639     -0.111346
      2.96327      5.04183     12.55994        -0.085366      0.118580     -0.111346
      5.85025      5.04183     12.55994         0.085366      0.118580     -0.111346
      8.81351      5.08848     12.50663        -0.000000      0.000000      0.023674
      4.40676      2.54424     12.37417        -0.000000      0.000000      1.117695
      4.40676      2.54424     14.23426        -0.000000      0.000000     -0.010875
    total drift:                                0.009486      0.005591      0.457765

  FREE ENERGIE OF THE ION-ELECTRON SYSTEM (eV)
  free  energy   TOTEN  =      -119.37224242 eV

  energy  without entropy=     -119.37224242  energy(sigma->0) =     -119.37224242

 stress matrix after NEB project (eV)
    -19.15602     -0.00000      0.00000
     -0.00000    -19.15602      0.00000
      0.00000      0.00000      3.65638
  FORCES: max atom, RMS     0.010875    0.001788
  FORCE total and by dimension    0.010875    0.010875
  Stress total and by dimension   27.336337   19.156021
|           W    W    AA    RRRRR   N    N  II  N    N   GGGG   !!!           |
|           W    W   A  A   R    R  NN   N  II  NN   N  G    G  !!!           |
|           W    W  A    A  R    R  N N  N  II  N N  N  G       !!!           |
|           W WW W  AAAAAA  RRRRR   N  N N  II  N  N N  G  GGG   !            |
|           WW  WW  A    A  R   R   N   NN  II  N   NN  G    G                |
|           W    W  A    A  R    R  N    N  II  N    N   GGGG   !!!           |
|     Tetrahedron method does not include variations of the Fermi             |
|     occupations, so forces and stress will be inaccurate. We suggest        |
|     using a different smearing scheme ISMEAR = 1 or 2 for metals in         |
|     relaxations.                                                            |

 total charge

# of ion       s       p       d       tot
    1        0.549   0.237   8.767   9.553
    2        0.541   0.241   8.766   9.548
    3        0.541   0.241   8.766   9.548
    4        0.541   0.241   8.766   9.548
    5        0.544   0.240   8.762   9.547
    6        0.541   0.241   8.766   9.548
    7        0.541   0.241   8.766   9.548
    8        0.541   0.241   8.766   9.548
    9        0.543   0.239   8.767   9.549
   10        0.523   0.306   8.772   9.602
   11        0.518   0.306   8.778   9.603
   12        0.523   0.306   8.772   9.602
   13        0.518   0.306   8.778   9.603
   14        0.518   0.306   8.778   9.603
   15        0.516   0.308   8.774   9.598
   16        0.523   0.306   8.772   9.602
   17        0.516   0.308   8.774   9.598
   18        0.516   0.308   8.774   9.598
   19        0.521   0.296   8.772   9.589
   20        0.565   0.325   8.744   9.634
   21        0.565   0.325   8.744   9.634
   22        0.511   0.305   8.772   9.588
   23        0.565   0.325   8.744   9.634
   24        0.511   0.305   8.772   9.588
   25        0.521   0.296   8.772   9.589
   26        0.521   0.296   8.772   9.589
   27        0.511   0.305   8.772   9.588
   28        0.542   0.234   8.754   9.530
   29        0.598   0.240   8.733   9.571
   30        0.598   0.240   8.733   9.571
   31        0.598   0.240   8.733   9.571
   32        0.598   0.240   8.733   9.571
   33        0.598   0.240   8.733   9.571
   34        0.598   0.240   8.733   9.571
   35        0.538   0.235   8.756   9.530
   36        2.203   5.994   1.473   9.670
   37        0.529   0.006   0.000   0.535
tot         21.747  15.611 308.111 345.468

 BZINTS: Fermi energy:    0.701613;  398.000000 electrons
         Band energy:-0.144799E+04;  BLOECHL correction:   -0.056218