 vasp.6.2.0 18Jan21 (build Jun 12 2021 23:27:24) complex

 executed on             LinuxIFC date 2022.05.26  20:26:27

 INCAR:
   ISMEAR = -5
   SIGMA = 0.1
   ISPIN = 1
   EDIFF = 1.d-5
   EDIFFG = -0.01
   NSW = 0
   NELM = 150
   ENCUT = 500
   ISIF = 2
   IBRION = 2
   LREAL = Auto
   ALGO = Fast
   ICHARG = 11
   LORBIT = 10
   LCHARG = .F.
   LWAVE = .F.

 POTCAR:    PAW_PBE Cu 22Jun2005
 POTCAR:    PAW_PBE Mo 08Apr2002
|           W    W    AA    RRRRR   N    N  II  N    N   GGGG   !!!           |
|           W    W   A  A   R    R  NN   N  II  NN   N  G    G  !!!           |
|           W    W  A    A  R    R  N N  N  II  N N  N  G       !!!           |
|           W WW W  AAAAAA  RRRRR   N  N N  II  N  N N  G  GGG   !            |
|           WW  WW  A    A  R   R   N   NN  II  N   NN  G    G                |
|           W    W  A    A  R    R  N    N  II  N    N   GGGG   !!!           |
|     For optimal performance we recommend to set                             |
|       NCORE = 2 up to number-of-cores-per-socket                            |
|     This setting can greatly improve the performance of VASP for DFT.       |
|     The default, NCORE=1 might be grossly inefficient on modern             |
|     multi-core architectures or massively parallel machines. Do your        |
|     Unfortunately you need to use the default for GW and RPA                |
|     calculations (for HF NCORE is supported but not extensively tested      |
|     yet).                                                                   |

 POTCAR:    PAW_PBE Cu 22Jun2005
   VRHFIN =Cu: d10 p1

   TITEL  = PAW_PBE Cu 22Jun2005
   POMASS =   63.546; ZVAL   =   11.000    mass and valenz
   ENMAX  =  295.446; ENMIN  =  221.585 eV

 POTCAR:    PAW_PBE Mo 08Apr2002
   VRHFIN =Mo: 4p5s4d

   TITEL  = PAW_PBE Mo 08Apr2002
   POMASS =   95.940; ZVAL   =    6.000    mass and valenz
   ENMAX  =  224.584; ENMIN  =  168.438 eV

 Optimization of the real space projectors (new method)

 maximal supplied QI-value         = 16.25
 optimisation between [QCUT,QGAM] = [ 11.38, 22.75] = [ 36.24,144.96] Ry
 Optimized for a Real-space Cutoff    1.52 Angstroem

   l    n(q)    QCUT    max X(q) W(low)/X(q) W(high)/X(q)  e(spline)
   2      9    11.376     4.610    0.21E-03    0.10E-03    0.26E-06
   2      9    11.376     8.522    0.33E-03    0.16E-03    0.37E-06
   0     10    11.376    51.609    0.62E-04    0.20E-04    0.13E-06
   0     10    11.376    27.747    0.54E-04    0.20E-04    0.13E-06
   1     10    11.376    20.408    0.13E-04    0.99E-04    0.19E-06
   1     10    11.376    13.425    0.12E-04    0.87E-04    0.17E-06
 Optimization of the real space projectors (new method)

 maximal supplied QI-value         = 13.61
 optimisation between [QCUT,QGAM] = [ 11.43, 22.86] = [ 36.58,146.31] Ry
 Optimized for a Real-space Cutoff    1.56 Angstroem

   l    n(q)    QCUT    max X(q) W(low)/X(q) W(high)/X(q)  e(spline)
   2     10    11.429    80.908    0.27E-03    0.78E-03    0.13E-05
   2     10    11.429    79.000    0.27E-03    0.78E-03    0.13E-05
   0     11    11.429    52.066    0.33E-04    0.97E-04    0.72E-06
   0     11    11.429    24.514    0.27E-04    0.80E-04    0.60E-06
   1     10    11.429    16.033    0.31E-04    0.17E-03    0.36E-06
   1     10    11.429    11.179    0.22E-04    0.13E-03    0.29E-06
  PAW_PBE Cu 22Jun2005                  :
  PAW_PBE Mo 08Apr2002                  :

 POSCAR: Cu-Mo
  positions in direct lattice
  velocities in cartesian coordinates
 exchange correlation table for  LEXCH =        8
   RHO(1)=    0.500       N(1)  =     2000
   RHO(2)=  100.500       N(2)  =     4000

 VTST: version 3.2, (02/03/18)

 CHAIN: initializing optimizer

 OPT: Using VASP Conjugate-Gradient optimizer
 CHAIN: Read ICHAIN            0

 POSCAR: Cu-Mo
  positions in direct lattice
  velocities in cartesian coordinates

 ion  position               nearest neighbor table
   1  0.000  0.000  0.252-   7 2.57   3 2.57   4 2.57   2 2.57   6 2.57   8 2.57  12 2.57  10 2.57
                            16 2.57
   2  0.333  0.000  0.252-   8 2.57   9 2.57   5 2.57   1 2.57   3 2.57  11 2.57   4 2.57  10 2.57
                            17 2.57
   3  0.667  0.000  0.252-   1 2.57   7 2.57   6 2.57   9 2.57   2 2.57  12 2.57   5 2.57  18 2.57
                            11 2.57
   4  0.000  0.333  0.252-   5 2.57   6 2.57   1 2.57   7 2.57   2 2.57  13 2.57   9 2.57  10 2.57
                            15 2.57
   5  0.333  0.333  0.252-   4 2.57   2 2.57   7 2.57  13 2.57   8 2.57   6 2.57   3 2.57  11 2.57
                            14 2.57
   6  0.667  0.333  0.252-   4 2.57   9 2.57  15 2.57   3 2.57   1 2.57   8 2.57  14 2.57   5 2.57
                            12 2.57
   7  0.000  0.667  0.252-   1 2.57   3 2.57  16 2.57  18 2.57   4 2.57   5 2.57   8 2.57   9 2.57
                            13 2.57
   8  0.333  0.667  0.252-   9 2.57   2 2.57  17 2.57   6 2.57   1 2.57   7 2.57   5 2.57  14 2.57
                            16 2.57
   9  0.667  0.667  0.252-   8 2.57   6 2.57   2 2.57  17 2.57   3 2.57   7 2.57   4 2.57  15 2.57
                            18 2.57
  10  0.111  0.111  0.351-  20 2.55  26 2.56  19 2.56  11 2.57  12 2.57  13 2.57   1 2.57   2 2.57
                             4 2.57  15 2.57  16 2.57  17 2.57
  11  0.444  0.111  0.351-  20 2.56  21 2.56  10 2.57  13 2.57   2 2.57  17 2.57  14 2.57  12 2.57
                             5 2.57   3 2.57  18 2.57  27 2.57
  12  0.778  0.111  0.351-  21 2.55  19 2.56  25 2.56  15 2.57  10 2.57  14 2.57  18 2.57   3 2.57
                             1 2.57  16 2.57  11 2.57   6 2.57
  13  0.111  0.444  0.351-  23 2.56  20 2.56  16 2.57  18 2.57  10 2.57  11 2.57  14 2.57   5 2.57
                             4 2.57   7 2.57  15 2.57  22 2.57
  14  0.444  0.444  0.351-  21 2.56  23 2.56  15 2.57  17 2.57  12 2.57  16 2.57  13 2.57  11 2.57
                             6 2.57   8 2.57   5 2.57  24 2.57
  15  0.778  0.444  0.351-  19 2.56  14 2.57  17 2.57  12 2.57   6 2.57  18 2.57  10 2.57   9 2.57
                            13 2.57   4 2.57  24 2.57  22 2.57
  16  0.111  0.778  0.351-  23 2.55  25 2.56  26 2.56  18 2.57  13 2.57   7 2.57  14 2.57  17 2.57
                            12 2.57  10 2.57   8 2.57   1 2.57
  17  0.444  0.778  0.351-  26 2.56  14 2.57  15 2.57   8 2.57   9 2.57  11 2.57  16 2.57  18 2.57
                            10 2.57   2 2.57  27 2.57  24 2.57
  18  0.778  0.778  0.351-  25 2.56  16 2.57  13 2.57   7 2.57  15 2.57  12 2.57  17 2.57   9 2.57
                             3 2.57  11 2.57  22 2.57  27 2.57
  19  0.889  0.222  0.449-  15 2.56  12 2.56  10 2.56  21 2.56  20 2.56  22 2.57  24 2.57  25 2.57
                            26 2.57  28 2.57  32 2.58  31 2.58
  20  0.222  0.222  0.449-  10 2.55  11 2.56  13 2.56  26 2.56  19 2.56  27 2.57  22 2.57  23 2.57
                            21 2.57  36 2.58  29 2.60  31 2.60
  21  0.556  0.222  0.449-  12 2.55  14 2.56  11 2.56  19 2.56  25 2.56  24 2.57  27 2.57  20 2.57
                            23 2.57  36 2.58  32 2.60  30 2.60
  22  0.888  0.556  0.450-  24 2.56  27 2.56  35 2.56  19 2.57  25 2.57  23 2.57  20 2.57  18 2.57
                            15 2.57  13 2.57  31 2.58  33 2.58
  23  0.222  0.556  0.449-  16 2.55  13 2.56  14 2.56  25 2.56  26 2.56  22 2.57  24 2.57  20 2.57
                            21 2.57  36 2.58  33 2.60  34 2.60
  24  0.556  0.556  0.450-  22 2.56  27 2.56  35 2.56  19 2.57  26 2.57  21 2.57  23 2.57  15 2.57
                            17 2.57  14 2.57  32 2.58  34 2.58
  25  0.889  0.889  0.449-  18 2.56  12 2.56  16 2.56  21 2.56  23 2.56  22 2.57  27 2.57  19 2.57
                            26 2.57  28 2.57  33 2.58  30 2.58
  26  0.222  0.889  0.449-  17 2.56  10 2.56  16 2.56  20 2.56  23 2.56  27 2.57  24 2.57  25 2.57
                            19 2.57  28 2.57  29 2.58  34 2.58
  27  0.556  0.888  0.450-  24 2.56  22 2.56  35 2.56  26 2.57  25 2.57  20 2.57  21 2.57  17 2.57
                            18 2.57  11 2.57  29 2.58  30 2.58
  28  0.000  0.000  0.547-  33 2.56  30 2.56  31 2.56  29 2.56  32 2.56  34 2.56  25 2.57  19 2.57
                            26 2.57
  29  0.333  0.998  0.548-  34 2.54  28 2.56  35 2.56  27 2.58  31 2.58  26 2.58  36 2.58  30 2.58
                            20 2.60
  30  0.669  0.998  0.548-  33 2.54  28 2.56  35 2.56  27 2.58  32 2.58  25 2.58  36 2.58  29 2.58
                            21 2.60
  31  0.998  0.333  0.548-  32 2.54  28 2.56  35 2.56  22 2.58  29 2.58  19 2.58  36 2.58  33 2.58
                            20 2.60
  32  0.669  0.333  0.548-  31 2.54  28 2.56  35 2.56  24 2.58  30 2.58  19 2.58  36 2.58  34 2.58
                            21 2.60
  33  0.998  0.669  0.548-  30 2.54  28 2.56  35 2.56  22 2.58  34 2.58  25 2.58  36 2.58  31 2.58
                            23 2.60
  34  0.333  0.669  0.548-  29 2.54  28 2.56  35 2.56  24 2.58  33 2.58  26 2.58  36 2.58  32 2.58
                            23 2.60
  35  0.667  0.667  0.548-  34 2.56  32 2.56  29 2.56  30 2.56  33 2.56  31 2.56  24 2.56  27 2.56
                            22 2.56
  36  0.333  0.333  0.547-  23 2.58  20 2.58  21 2.58  31 2.58  29 2.58  33 2.58  34 2.58  32 2.58
                            30 2.58

  LATTYP: Found a hexagonal cell.
 ALAT       =     7.6967864036
 C/A-ratio  =     2.7653617908

  Lattice vectors:

 A1 = (  -3.8483927580,  -6.6656128093,   0.0000000000)
 A2 = (   7.6967864037,   0.0000000000,   0.0000000000)
 A3 = (   0.0000000000,   0.0000000000,  21.2843990326)

Analysis of symmetry for initial positions (statically):
 Subroutine PRICEL returns:
 Original cell was already a primitive cell.

 Routine SETGRP: Setting up the symmetry group for a
 hexagonal supercell.

 Subroutine GETGRP returns: Found  6 space group operations
 (whereof  6 operations were pure point group operations)
 out of a pool of 24 trial point group operations.

The static configuration has the point symmetry C_3v.

Analysis of symmetry for dynamics (positions and initial velocities):
 Subroutine PRICEL returns:
 Original cell was already a primitive cell.

[...]

The dynamic configuration has the point symmetry C_3v.

Analysis of constrained symmetry for selective dynamics:
 Subroutine PRICEL returns:
 Original cell was already a primitive cell.

 Routine SETGRP: Setting up the symmetry group for a
 hexagonal supercell.

 Subroutine GETGRP returns: Found  6 space group operations
 (whereof  6 operations were pure point group operations)
 out of a pool of 24 trial point group operations.

The constrained configuration has the point symmetry C_3v.

 Subroutine INISYM returns: Found  6 space group operations
 (whereof  6 operations are pure point group operations),
 and found     1 'primitive' translations

                                     Primitive cell

  volume of cell :    1091.9705

  direct lattice vectors                    reciprocal lattice vectors
     7.696786404  0.000000000  0.000000000     0.129924354 -0.075011849  0.000000000
     3.848392758  6.665612809  0.000000000     0.000000000  0.150023716  0.000000000
[...]
     15      -4.4955      2.00000
     16      -4.4938      2.00000
     17      -4.4718      2.00000
     18      -4.4213      2.00000
     19      -4.4003      2.00000
     20      -4.3531      2.00000
     21      -4.3387      2.00000
     22      -4.3079      2.00000
     23      -4.2796      2.00000
     24      -4.1520      2.00000
     25      -4.1156      2.00000
     26      -4.0885      2.00000
     27      -4.0756      2.00000
     28      -4.0334      2.00000
     29      -4.0230      2.00000
     30      -4.0177      2.00000
     31      -4.0156      2.00000
     32      -4.0027      2.00000
     33      -3.9813      2.00000
     34      -3.9270      2.00000
     35      -3.8896      2.00000
     36      -3.8468      2.00000
     37      -3.7100      2.00000
     38      -3.7071      2.00000
     39      -3.6556      2.00000
     40      -3.6303      2.00000
     41      -3.6232      2.00000
     42      -3.6053      2.00000
     43      -3.5930      2.00000
     44      -3.5899      2.00000
     45      -3.5830      2.00000
     46      -3.4108      2.00000
     47      -3.3832      2.00000
     48      -3.3770      2.00000
     49      -3.3663      2.00000
     50      -3.3103      2.00000
     51      -3.3080      2.00000
     52      -3.2987      2.00000
     53      -3.2926      2.00000
     54      -3.2834      2.00000
     55      -3.2788      2.00000
     56      -3.2341      2.00000
     57      -3.2315      2.00000
     58      -3.2201      2.00000
     59      -3.2189      2.00000
     60      -3.2105      2.00000
[...]
    238       6.8741      0.00000
    239       6.9451      0.00000
    240       7.0004      0.00000
    241       7.0820      0.00000
    242       7.3125      0.00000
    243       7.3271      0.00000
    244       7.3970      0.00000
    245       7.4599      0.00000
    246       7.6454      0.00000
    247       7.7106      0.00000
    248       7.8949      0.00000
    249       8.0436      0.00000
    250       8.1905      0.00000
    251       8.3081      0.00000
    252       8.4567      0.00000

 soft charge-density along one line, spin component           1
         0         1         2         3         4         5         6         7         8         9
 total charge-density along one line

------------------------ aborting loop because EDIFF is reached ----------------------------------------

 total charge

# of ion       s       p       d       tot
    1        0.449   0.283   9.188   9.921
    2        0.448   0.285   9.186   9.919
    3        0.448   0.285   9.186   9.919
    4        0.448   0.285   9.186   9.919
    5        0.447   0.287   9.180   9.914
    6        0.448   0.285   9.186   9.919
    7        0.448   0.285   9.186   9.919
    8        0.448   0.285   9.186   9.919
    9        0.448   0.282   9.189   9.919
   10        0.444   0.372   9.173   9.990
   11        0.442   0.364   9.185   9.991
   12        0.444   0.372   9.173   9.990
   13        0.442   0.364   9.185   9.991
   14        0.442   0.364   9.185   9.991
   15        0.439   0.369   9.177   9.985
   16        0.444   0.372   9.173   9.990
   17        0.439   0.369   9.177   9.985
   18        0.439   0.369   9.177   9.985
   19        0.441   0.369   9.180   9.991
   20        0.463   0.399   9.155  10.018
   21        0.463   0.399   9.155  10.018
   22        0.429   0.371   9.182   9.982
   23        0.463   0.399   9.155  10.018
   24        0.429   0.371   9.182   9.982
   25        0.441   0.369   9.180   9.991
   26        0.441   0.369   9.180   9.991
   27        0.429   0.371   9.182   9.982
   28        0.447   0.293   9.180   9.919
   29        0.473   0.313   9.161   9.948
   30        0.473   0.313   9.161   9.948
   31        0.473   0.313   9.161   9.948
   32        0.473   0.313   9.161   9.948
   33        0.473   0.313   9.161   9.948
   34        0.473   0.313   9.161   9.948
   35        0.438   0.295   9.182   9.915
   36        0.467   0.338   4.273   5.077
tot         16.197  12.104 325.429 353.731

  FORCE on cell =-STRESS in cart. coord.  units (eV):
  Direction    XX          YY          ZZ          XY          YZ          ZX
  Alpha Z   874.17210   874.17210   874.17210
  Ewald  170784.55910170784.55875************     0.00035     0.00012     0.00014
  Hartree183596.12658183596.12660************     0.00002     0.00005     0.00005
  E(xc)   -2273.67451 -2273.67402 -2278.17009    -0.00043    -0.00003    -0.00006
  Local  ************************367434.00746     0.01853    -0.00056    -0.00087
  n-local  -779.55540  -765.34671  -788.80392     7.05766     0.08733     0.06602
  augment  3316.44380  3316.46404  3340.02671    -0.01753     0.00026     0.00044
  Kinetic  3197.49284  3203.52403  3235.65310     3.95121     1.00516    -0.94166
  Fock        0.00000     0.00000     0.00000     0.00000     0.00000     0.00000
  Total      -7.90521    -7.90521    -1.21676     0.00000    -0.00000    -0.00000
  in kB     -11.59880   -11.59880    -1.78527     0.00000    -0.00000    -0.00000

 VOLUME and BASIS-vectors are now :
  energy-cutoff  :      500.00
  volume of cell :     1091.97
      direct lattice vectors                 reciprocal lattice vectors
     7.696786404  0.000000000  0.000000000     0.129924354 -0.075011849  0.000000000
     3.848392758  6.665612809  0.000000000     0.000000000  0.150023716  0.000000000
     0.000000000  0.000000000 21.284399033     0.000000000  0.000000000  0.046982769

  length of vectors
     7.696786404  7.696786404 21.284399033     0.150023716  0.150023716  0.046982769

 FORCES acting on ions
    electron-ion (+dipol)            ewald-force                    non-local-force                 convergence-correction
   -.415E-04 0.178E-06 0.344E+04   0.581E-04 -.428E-05 -.344E+04   0.325E-18 0.574E-19 -.262E+01   -.354E-03 -.171E-03 -.727E-01
   -.988E+00 -.574E+00 0.344E+04   0.721E+00 0.493E+00 -.344E+04   0.134E+00 0.126E+00 -.182E+01   0.129E+00 -.345E-01 -.151E+00
   0.988E+00 -.574E+00 0.344E+04   -.721E+00 0.493E+00 -.344E+04   -.134E+00 0.126E+00 -.182E+01   -.128E+00 -.320E-01 -.150E+00
   -.991E+00 -.569E+00 0.344E+04   0.788E+00 0.378E+00 -.344E+04   0.177E+00 0.528E-01 -.182E+01   0.348E-01 0.129E+00 -.151E+00
   -.618E-04 -.344E-05 0.344E+04   0.116E-03 -.101E-04 -.344E+04   -.255E-17 0.281E-17 -.147E+01   0.121E-01 0.742E-02 -.337E-01
   0.991E+00 -.569E+00 0.344E+04   -.788E+00 0.378E+00 -.344E+04   -.177E+00 0.528E-01 -.182E+01   -.364E-01 0.130E+00 -.149E+00
   -.317E-02 0.114E+01 0.344E+04   0.666E-01 -.871E+00 -.344E+04   0.426E-01 -.179E+00 -.182E+01   -.919E-01 -.952E-01 -.149E+00
   0.327E-02 0.114E+01 0.344E+04   -.669E-01 -.871E+00 -.344E+04   -.426E-01 -.179E+00 -.182E+01   0.953E-01 -.966E-01 -.149E+00
   -.144E-03 -.329E-04 0.344E+04   0.263E-03 0.204E-04 -.344E+04   0.404E-18 0.165E-17 -.225E+01   -.131E-01 -.678E-02 -.219E+00
   -.434E+01 -.251E+01 0.111E+04   0.487E+01 0.281E+01 -.111E+04   -.492E+00 -.284E+00 -.120E+01   -.203E-01 -.118E-01 -.337E+00
   -.912E-04 -.509E+01 0.110E+04   0.190E-03 0.475E+01 -.110E+04   -.159E-07 0.239E+00 -.701E-01   0.120E-01 0.471E-01 -.362E+00
   0.434E+01 -.251E+01 0.111E+04   -.487E+01 0.281E+01 -.111E+04   0.492E+00 -.284E+00 -.120E+01   0.187E-01 -.107E-01 -.337E+00
   -.440E+01 0.254E+01 0.110E+04   0.411E+01 -.237E+01 -.110E+04   0.207E+00 -.119E+00 -.701E-01   0.472E-01 -.123E-01 -.362E+00
   0.440E+01 0.254E+01 0.110E+04   -.411E+01 -.237E+01 -.110E+04   -.207E+00 -.119E+00 -.701E-01   -.235E-01 -.139E-01 -.364E+00
   -.141E-03 -.231E+01 0.111E+04   0.297E-03 0.197E+01 -.111E+04   -.116E-07 0.174E+00 -.984E+00   -.337E-02 0.151E+00 -.330E+00
   -.926E-04 0.501E+01 0.111E+04   0.187E-03 -.562E+01 -.111E+04   -.378E-07 0.568E+00 -.120E+01   -.836E-03 0.203E-01 -.338E+00
   -.200E+01 0.116E+01 0.111E+04   0.171E+01 -.986E+00 -.111E+04   0.151E+00 -.870E-01 -.984E+00   0.130E+00 -.786E-01 -.330E+00
   0.200E+01 0.116E+01 0.111E+04   -.171E+01 -.986E+00 -.111E+04   -.151E+00 -.870E-01 -.984E+00   -.129E+00 -.759E-01 -.328E+00
   -.664E-04 -.764E+01 -.122E+04   0.726E-04 0.760E+01 0.121E+04   0.197E-08 -.296E-01 0.839E+00   -.108E-01 0.660E-01 -.178E+00
   -.540E+02 -.312E+02 -.128E+04   0.555E+02 0.320E+02 0.129E+04   -.131E+01 -.755E+00 -.109E+01   -.223E+00 -.129E+00 -.445E+00
   0.540E+02 -.312E+02 -.128E+04   -.555E+02 0.320E+02 0.129E+04   0.131E+01 -.755E+00 -.109E+01   0.204E+00 -.131E+00 -.446E+00
   -.301E+02 0.174E+02 -.124E+04   0.297E+02 -.171E+02 0.124E+04   0.522E+00 -.301E+00 0.640E+00   -.121E+00 0.710E-01 -.296E+00
   -.846E-04 0.623E+02 -.128E+04   0.151E-03 -.641E+02 0.129E+04   -.101E-06 0.151E+01 -.109E+01   -.121E-01 0.241E+00 -.446E+00
   0.301E+02 0.174E+02 -.124E+04   -.297E+02 -.171E+02 0.124E+04   -.522E+00 -.301E+00 0.640E+00   0.122E+00 0.697E-01 -.296E+00
   0.662E+01 0.382E+01 -.122E+04   -.658E+01 -.380E+01 0.121E+04   0.256E-01 0.148E-01 0.839E+00   -.734E-01 -.424E-01 -.179E+00
   -.662E+01 0.382E+01 -.122E+04   0.658E+01 -.380E+01 0.121E+04   -.256E-01 0.148E-01 0.839E+00   0.521E-01 -.422E-01 -.178E+00
   -.120E-03 -.347E+02 -.124E+04   0.239E-03 0.342E+02 0.124E+04   -.401E-07 0.602E+00 0.640E+00   0.109E-02 -.140E+00 -.296E+00
   -.429E-04 0.137E-04 -.346E+04   0.472E-04 -.309E-04 0.346E+04   0.932E-17 0.808E-17 0.181E+01   -.190E-03 -.550E-04 0.197E-01
   -.534E+02 -.942E+02 -.348E+04   0.543E+02 0.954E+02 0.348E+04   -.779E+00 -.937E+00 0.693E+00   -.709E-01 -.295E+00 0.139E+00
   0.534E+02 -.942E+02 -.348E+04   -.543E+02 0.954E+02 0.348E+04   0.779E+00 -.937E+00 0.693E+00   0.719E-01 -.293E+00 0.138E+00
   -.108E+03 0.817E+00 -.348E+04   0.110E+03 -.700E+00 0.348E+04   -.120E+01 -.206E+00 0.693E+00   -.291E+00 0.858E-01 0.139E+00
   0.108E+03 0.817E+00 -.348E+04   -.110E+03 -.700E+00 0.348E+04   0.120E+01 -.206E+00 0.693E+00   0.291E+00 0.865E-01 0.139E+00
   -.548E+02 0.934E+02 -.348E+04   0.555E+02 -.947E+02 0.348E+04   -.422E+00 0.114E+01 0.693E+00   -.218E+00 0.209E+00 0.138E+00
   0.548E+02 0.934E+02 -.348E+04   -.555E+02 -.947E+02 0.348E+04   0.422E+00 0.114E+01 0.693E+00   0.221E+00 0.209E+00 0.139E+00
   -.138E-03 -.237E-04 -.347E+04   0.246E-03 0.625E-06 0.347E+04   0.758E-18 -.104E-17 0.264E+01   -.125E-01 -.639E-02 0.290E+00
   -.470E-04 -.103E-04 -.189E+04   0.738E-04 0.151E-04 0.189E+04   -.154E-17 0.363E-17 0.346E+01   0.496E-03 0.289E-03 0.883E-01
   -.247E-03 0.109E-04 0.166E+02   0.431E-13 0.130E-12 0.130E-10   0.665E-15 0.259E-17 -.108E+02   -.359E-01 -.238E-01 -.584E+01

 POSITION                                       TOTAL-FORCE (eV/Angst)
      0.00000      0.00000      5.37156        -0.000000     -0.000000     -0.036724
      2.56560      0.00000      5.37156        -0.003183      0.012324      0.057640
      5.13119      0.00000      5.37156         0.003183      0.012324      0.057640
      1.28280      2.22187      5.37156         0.009081     -0.008919      0.057640
      3.84839      2.22187      5.37156        -0.000000     -0.000000      0.048557
      6.41399      2.22187      5.37156        -0.009081     -0.008919      0.057640
      2.56560      4.44374      5.37156         0.012265     -0.003405      0.057640
      5.13119      4.44374      5.37156        -0.012265     -0.003405      0.057640
      7.69679      4.44374      5.37156        -0.000000     -0.000000      0.020992
      1.28280      0.74062      7.46636         0.014043      0.008108     -0.080297
      3.84839      0.74062      7.46636         0.000000     -0.059396     -0.065930
      6.41399      0.74062      7.46636        -0.014043      0.008108     -0.080297
      2.56560      2.96249      7.46636        -0.051438      0.029698     -0.065930
      5.13119      2.96249      7.46636         0.051438      0.029698     -0.065930
      7.69679      2.96249      7.46636         0.000000     -0.012867     -0.002667
      3.84839      5.18437      7.46636         0.000000     -0.016216     -0.080297
      6.41399      5.18437      7.46636        -0.011143      0.006434     -0.002667
      8.97958      5.18437      7.46636         0.011143      0.006434     -0.002667
      7.69679      1.48128      9.55134         0.000000     -0.000004      0.003186
      2.56091      1.47854      9.54628        -0.000375     -0.000217      0.000532
      5.13587      1.47854      9.54628         0.000375     -0.000217      0.000532
      8.97673      3.70477      9.56818         0.004139     -0.002390     -0.005907
      3.84839      3.70853      9.54628        -0.000000      0.000433      0.000532
      6.41684      3.70477      9.56818        -0.004139     -0.002390     -0.005907
     10.26235      5.92497      9.55134         0.000004      0.000002      0.003186
      5.13122      5.92497      9.55134        -0.000004      0.000002      0.003186
      7.69679      5.92169      9.56818        -0.000000      0.004779     -0.005907
      0.00000      0.00000     11.64671        -0.000000      0.000000      0.014970
      6.40484      6.65345     11.67351        -0.003007      0.002014      0.005904
      8.98873      6.65345     11.67351         0.003007      0.002014      0.005904
      8.96447      2.22003     11.67351         0.000241     -0.003611      0.005904
      6.42910      2.22003     11.67351        -0.000241     -0.003611      0.005904
     10.25642      4.45775     11.67351         0.003248      0.001597      0.005904
      5.13715      4.45775     11.67351        -0.003248      0.001597      0.005904
      7.69679      4.44374     11.65978         0.000000      0.000000      0.000394
      3.84839      2.22187     11.64991        -0.000000      0.000000      0.023790
    total drift:                               -0.036173     -0.023821     -0.036080

  FREE ENERGIE OF THE ION-ELECTRON SYSTEM (eV)
  free  energy   TOTEN  =      -130.77380584 eV

  energy  without entropy=     -130.77380584  energy(sigma->0) =     -130.77380584

 stress matrix after NEB project (eV)
     -7.90521      0.00000     -0.00000
      0.00000     -7.90521     -0.00000
     -0.00000     -0.00000     -1.21676
  FORCES: max atom, RMS     0.023790    0.005970
  FORCE total and by dimension    0.035820    0.023790
  Stress total and by dimension   11.245677    7.905212
|           W    W    AA    RRRRR   N    N  II  N    N   GGGG   !!!           |
|           W    W   A  A   R    R  NN   N  II  NN   N  G    G  !!!           |
|           W    W  A    A  R    R  N N  N  II  N N  N  G       !!!           |
|           W WW W  AAAAAA  RRRRR   N  N N  II  N  N N  G  GGG   !            |
|           WW  WW  A    A  R   R   N   NN  II  N   NN  G    G                |
|           W    W  A    A  R    R  N    N  II  N    N   GGGG   !!!           |
|     Tetrahedron method does not include variations of the Fermi             |
|     occupations, so forces and stress will be inaccurate. We suggest        |
|     using a different smearing scheme ISMEAR = 1 or 2 for metals in         |
|     relaxations.                                                            |

 total charge

# of ion       s       p       d       tot
    1        0.449   0.283   9.188   9.921
    2        0.448   0.285   9.186   9.919
    3        0.448   0.285   9.186   9.919
    4        0.448   0.285   9.186   9.919
    5        0.447   0.287   9.180   9.914
    6        0.448   0.285   9.186   9.919
    7        0.448   0.285   9.186   9.919
    8        0.448   0.285   9.186   9.919
    9        0.448   0.282   9.189   9.919
   10        0.444   0.372   9.173   9.990
   11        0.442   0.364   9.185   9.991
   12        0.444   0.372   9.173   9.990
   13        0.442   0.364   9.185   9.991
   14        0.442   0.364   9.185   9.991
   15        0.439   0.369   9.177   9.985
   16        0.444   0.372   9.173   9.990
   17        0.439   0.369   9.177   9.985
   18        0.439   0.369   9.177   9.985
   19        0.441   0.369   9.180   9.991
   20        0.463   0.399   9.155  10.018
   21        0.463   0.399   9.155  10.018
   22        0.429   0.371   9.182   9.982
   23        0.463   0.399   9.155  10.018
   24        0.429   0.371   9.182   9.982
   25        0.441   0.369   9.180   9.991
   26        0.441   0.369   9.180   9.991
   27        0.429   0.371   9.182   9.982
   28        0.447   0.293   9.180   9.919
   29        0.473   0.313   9.161   9.948
   30        0.473   0.313   9.161   9.948
   31        0.473   0.313   9.161   9.948
   32        0.473   0.313   9.161   9.948
   33        0.473   0.313   9.161   9.948
   34        0.473   0.313   9.161   9.948
   35        0.438   0.295   9.182   9.915
   36        0.467   0.338   4.273   5.077
tot         16.197  12.104 325.429 353.731

 BZINTS: Fermi energy:    0.080607;  391.000000 electrons
         Band energy:-0.107182E+04;  BLOECHL correction:   -0.022381