 vasp.6.2.0 18Jan21 (build Jun 12 2021 23:27:24) complex

 executed on             LinuxIFC date 2022.05.26  20:20:54

 INCAR:
   ISMEAR = -5
   SIGMA = 0.1
   ISPIN = 1
   EDIFF = 1.d-5
   EDIFFG = -0.01
   NSW = 0
   NELM = 150
   ENCUT = 500
   ISIF = 2
   IBRION = 2
   LREAL = Auto
   ALGO = Fast
   ICHARG = 11
   LORBIT = 10
   LCHARG = .F.
   LWAVE = .F.

 POTCAR:    PAW_PBE Ag 02Apr2005
 POTCAR:    PAW_PBE Ru 04Feb2005
|           W    W    AA    RRRRR   N    N  II  N    N   GGGG   !!!           |
|           W    W   A  A   R    R  NN   N  II  NN   N  G    G  !!!           |
|           W    W  A    A  R    R  N N  N  II  N N  N  G       !!!           |
|           W WW W  AAAAAA  RRRRR   N  N N  II  N  N N  G  GGG   !            |
|           WW  WW  A    A  R   R   N   NN  II  N   NN  G    G                |
|           W    W  A    A  R    R  N    N  II  N    N   GGGG   !!!           |
|     For optimal performance we recommend to set                             |
|       NCORE = 2 up to number-of-cores-per-socket                            |
|     This setting can greatly improve the performance of VASP for DFT.       |
|     The default, NCORE=1 might be grossly inefficient on modern             |
|     multi-core architectures or massively parallel machines. Do your        |
|     Unfortunately you need to use the default for GW and RPA                |
|     calculations (for HF NCORE is supported but not extensively tested      |
|     yet).                                                                   |

 POTCAR:    PAW_PBE Ag 02Apr2005
   VRHFIN =Ag : s1 d10

   TITEL  = PAW_PBE Ag 02Apr2005
   POMASS =  107.868; ZVAL   =   11.000    mass and valenz
   ENMAX  =  249.844; ENMIN  =  187.383 eV

 POTCAR:    PAW_PBE Ru 04Feb2005
   VRHFIN =Ru: s1 d7

   TITEL  = PAW_PBE Ru 04Feb2005
   POMASS =  101.070; ZVAL   =    8.000    mass and valenz
   ENMAX  =  213.271; ENMIN  =  159.953 eV

 Optimization of the real space projectors (new method)

 maximal supplied QI-value         = 15.12
 optimisation between [QCUT,QGAM] = [ 11.34, 22.83] = [ 36.00,145.93] Ry
 Optimized for a Real-space Cutoff    1.43 Angstroem

   l    n(q)    QCUT    max X(q) W(low)/X(q) W(high)/X(q)  e(spline)
   2      9    11.338    53.897    0.16E-03    0.20E-03    0.28E-06
   2      9    11.338    52.416    0.16E-03    0.20E-03    0.29E-06
   0     10    11.338   122.045    0.31E-04    0.76E-04    0.15E-06
   0     10    11.338    73.629    0.30E-04    0.72E-04    0.15E-06
   1      9    11.338    15.255    0.20E-03    0.19E-04    0.17E-06
   1      9    11.338     9.562    0.16E-03    0.15E-04    0.14E-06
 Optimization of the real space projectors (new method)

 maximal supplied QI-value         = 13.98
 optimisation between [QCUT,QGAM] = [ 11.33, 22.79] = [ 35.93,145.49] Ry
 Optimized for a Real-space Cutoff    1.52 Angstroem

   l    n(q)    QCUT    max X(q) W(low)/X(q) W(high)/X(q)  e(spline)
   2      9    11.327    61.733    0.26E-03    0.14E-03    0.16E-06
   2      9    11.327    59.886    0.26E-03    0.14E-03    0.17E-06
   0     10    11.327    23.358    0.19E-03    0.14E-04    0.46E-06
   0     10    11.327    11.320    0.15E-03    0.11E-04    0.37E-06
   1     10    11.327    14.765    0.49E-04    0.26E-03    0.24E-06
   1     10    11.327     8.283    0.37E-04    0.20E-03    0.18E-06
  PAW_PBE Ag 02Apr2005                  :
  PAW_PBE Ru 04Feb2005                  :

 POSCAR: Ag-Ru
  positions in direct lattice
  velocities in cartesian coordinates
 exchange correlation table for  LEXCH =        8
   RHO(1)=    0.500       N(1)  =     2000
   RHO(2)=  100.500       N(2)  =     4000

 VTST: version 3.2, (02/03/18)

 CHAIN: initializing optimizer

 OPT: Using VASP Conjugate-Gradient optimizer
 CHAIN: Read ICHAIN            0

 POSCAR: Ag-Ru
  positions in direct lattice
  velocities in cartesian coordinates

 ion  position               nearest neighbor table
   1  0.000  0.000  0.238-   2 2.93   8 2.93   7 2.93   6 2.93   4 2.93  12 2.93  16 2.93  10 2.93
                             3 2.93
   2  0.333  0.000  0.238-   1 2.93   8 2.93   9 2.93   3 2.93   4 2.93   5 2.93  10 2.93  17 2.93
                            11 2.93
   3  0.667  0.000  0.238-   9 2.93   2 2.93   5 2.93  11 2.93   7 2.93  18 2.93   1 2.93   6 2.93
                            12 2.93
   4  0.000  0.333  0.238-   5 2.93   6 2.93   2 2.93   1 2.93   7 2.93  13 2.93  15 2.93   9 2.93
                            10 2.93
   5  0.333  0.333  0.238-   4 2.93   3 2.93   7 2.93   2 2.93   8 2.93  14 2.93  13 2.93  11 2.93
                             6 2.93
   6  0.667  0.333  0.238-   4 2.93   9 2.93   1 2.93  15 2.93   8 2.93  12 2.93   3 2.93   5 2.93
                            14 2.93
   7  0.000  0.667  0.238-   8 2.93   1 2.93   5 2.93   3 2.93   4 2.93  16 2.93  18 2.93  13 2.93
                             9 2.93
   8  0.333  0.667  0.238-   7 2.93   1 2.93   2 2.93   9 2.93   5 2.93  16 2.93   6 2.93  17 2.93
                            14 2.93
   9  0.667  0.667  0.238-   3 2.93   2 2.93   8 2.93   6 2.93  17 2.93   4 2.93  15 2.93   7 2.93
                            18 2.93
  10  0.111  0.111  0.346-  20 2.90  19 2.93  26 2.93  12 2.93  16 2.93  15 2.93  17 2.93  13 2.93
                            11 2.93   2 2.93   1 2.93   4 2.93
  11  0.444  0.111  0.346-  21 2.90  20 2.90  27 2.92  14 2.93  17 2.93  18 2.93   3 2.93  12 2.93
                            13 2.93  10 2.93   5 2.93   2 2.93
  12  0.778  0.111  0.346-  21 2.90  25 2.93  19 2.93  10 2.93  16 2.93  18 2.93  15 2.93  11 2.93
                             1 2.93  14 2.93   6 2.93   3 2.93
  13  0.111  0.444  0.346-  20 2.90  23 2.90  22 2.92  15 2.93  14 2.93  18 2.93  10 2.93  11 2.93
                            16 2.93   4 2.93   5 2.93   7 2.93
  14  0.444  0.444  0.346-  23 2.90  21 2.90  24 2.92  13 2.93  11 2.93  16 2.93   5 2.93  12 2.93
                            17 2.93   8 2.93  15 2.93   6 2.93
  15  0.778  0.444  0.346-  24 2.92  22 2.92  19 2.93  13 2.93  10 2.93  12 2.93  17 2.93  18 2.93
                             4 2.93   6 2.93   9 2.93  14 2.93
  16  0.111  0.778  0.346-  23 2.90  26 2.93  25 2.93  18 2.93  12 2.93  10 2.93  14 2.93  17 2.93
                            13 2.93   7 2.93   8 2.93   1 2.93
  17  0.444  0.778  0.346-  27 2.92  24 2.92  26 2.93  11 2.93  10 2.93   9 2.93  18 2.93  15 2.93
                            16 2.93   2 2.93  14 2.93   8 2.93
  18  0.778  0.778  0.346-  22 2.92  27 2.92  25 2.93  16 2.93  12 2.93  13 2.93  11 2.93  17 2.93
                            15 2.93   7 2.93   3 2.93   9 2.93
  19  0.889  0.223  0.454-  28 2.91  15 2.93  10 2.93  12 2.93  24 2.93  22 2.93  26 2.93  25 2.93
                            20 2.94  21 2.94  32 2.94  31 2.94
  20  0.223  0.223  0.452-  36 2.77  13 2.90  11 2.90  10 2.90  21 2.92  23 2.92  31 2.92  29 2.92
                            27 2.93  22 2.93  19 2.94  26 2.94
  21  0.555  0.223  0.452-  36 2.77  11 2.90  14 2.90  12 2.90  20 2.92  23 2.92  30 2.92  32 2.92
                            27 2.93  24 2.93  25 2.94  19 2.94
  22  0.888  0.556  0.453-  35 2.91  18 2.92  15 2.92  13 2.92  33 2.92  31 2.92  24 2.92  27 2.92
                            25 2.93  19 2.93  23 2.93  20 2.93
  23  0.223  0.555  0.452-  36 2.77  14 2.90  13 2.90  16 2.90  21 2.92  20 2.92  34 2.92  33 2.92
                            22 2.93  24 2.93  26 2.94  25 2.94
  24  0.556  0.556  0.453-  35 2.91  15 2.92  17 2.92  14 2.92  32 2.92  34 2.92  27 2.92  22 2.92
                            19 2.93  26 2.93  23 2.93  21 2.93
  25  0.889  0.889  0.454-  28 2.91  18 2.93  16 2.93  12 2.93  22 2.93  27 2.93  26 2.93  19 2.93
                            23 2.94  21 2.94  33 2.94  30 2.94
  26  0.223  0.889  0.454-  28 2.91  17 2.93  16 2.93  10 2.93  27 2.93  24 2.93  25 2.93  19 2.93
                            23 2.94  20 2.94  34 2.94  29 2.94
  27  0.556  0.888  0.453-  35 2.91  17 2.92  18 2.92  11 2.92  29 2.92  30 2.92  24 2.92  22 2.92
                            26 2.93  25 2.93  20 2.93  21 2.93
  28  0.000  0.000  0.560-  26 2.91  25 2.91  19 2.91  29 2.95  34 2.95  33 2.95  32 2.95  31 2.95
                            30 2.95
  29  0.333  0.006  0.561-  31 2.88  30 2.88  36 2.89  20 2.92  27 2.92  26 2.94  28 2.95  35 2.96
                            34 3.03
  30  0.661  0.006  0.561-  32 2.88  29 2.88  36 2.89  21 2.92  27 2.92  25 2.94  28 2.95  35 2.96
                            33 3.03
  31  0.006  0.333  0.561-  29 2.88  33 2.88  36 2.89  20 2.92  22 2.92  19 2.94  28 2.95  35 2.96
                            32 3.03
  32  0.661  0.333  0.561-  30 2.88  34 2.88  36 2.89  21 2.92  24 2.92  19 2.94  28 2.95  35 2.96
                            31 3.03
  33  0.006  0.661  0.561-  34 2.88  31 2.88  36 2.89  23 2.92  22 2.92  25 2.94  28 2.95  35 2.96
                            30 3.03
  34  0.333  0.661  0.561-  33 2.88  32 2.88  36 2.89  23 2.92  24 2.92  26 2.94  28 2.95  35 2.96
                            29 3.03
  35  0.667  0.667  0.560-  24 2.91  27 2.91  22 2.91  30 2.96  32 2.96  29 2.96  34 2.96  31 2.96
                            33 2.96
  36  0.333  0.333  0.551-  21 2.77  20 2.77  23 2.77  31 2.89  30 2.89  33 2.89  29 2.89  34 2.89
                            32 2.89

  LATTYP: Found a hexagonal cell.
 ALAT       =     8.7913665772
 C/A-ratio  =     2.5227160501

  Lattice vectors:

 A1 = (  -4.3956832886,  -7.6135467898,   0.0000000000)
 A2 = (   8.7913665771,   0.0000000000,   0.0000000000)
 A3 = (   0.0000000000,   0.0000000000,  22.1781215668)

Analysis of symmetry for initial positions (statically):
 Subroutine PRICEL returns:
 Original cell was already a primitive cell.

 Routine SETGRP: Setting up the symmetry group for a
 hexagonal supercell.

 Subroutine GETGRP returns: Found  6 space group operations
 (whereof  6 operations were pure point group operations)
 out of a pool of 24 trial point group operations.

The static configuration has the point symmetry C_3v.

Analysis of symmetry for dynamics (positions and initial velocities):
 Subroutine PRICEL returns:
 Original cell was already a primitive cell.

[...]

The dynamic configuration has the point symmetry C_3v.

Analysis of constrained symmetry for selective dynamics:
 Subroutine PRICEL returns:
 Original cell was already a primitive cell.

 Routine SETGRP: Setting up the symmetry group for a
 hexagonal supercell.

 Subroutine GETGRP returns: Found  6 space group operations
 (whereof  6 operations were pure point group operations)
 out of a pool of 24 trial point group operations.

The constrained configuration has the point symmetry C_3v.

 Subroutine INISYM returns: Found  6 space group operations
 (whereof  6 operations are pure point group operations),
 and found     1 'primitive' translations

                                     Primitive cell

  volume of cell :    1484.4589

  direct lattice vectors                    reciprocal lattice vectors
     8.791366577  0.000000000  0.000000000     0.113747958 -0.065672414  0.000000000
     4.395683289  7.613546790  0.000000000     0.000000000  0.131344829  0.000000000
[...]
     15      -4.7059      2.00000
     16      -4.7009      2.00000
     17      -4.6724      2.00000
     18      -4.6653      2.00000
     19      -4.6606      2.00000
     20      -4.6594      2.00000
     21      -4.6399      2.00000
     22      -4.6156      2.00000
     23      -4.6075      2.00000
     24      -4.5888      2.00000
     25      -4.5678      2.00000
     26      -4.5519      2.00000
     27      -4.5268      2.00000
     28      -4.5210      2.00000
     29      -4.4956      2.00000
     30      -4.4920      2.00000
     31      -4.4892      2.00000
     32      -4.4480      2.00000
     33      -4.3989      2.00000
     34      -4.3895      2.00000
     35      -4.3573      2.00000
     36      -4.3529      2.00000
     37      -4.3228      2.00000
     38      -4.2960      2.00000
     39      -4.2848      2.00000
     40      -4.2784      2.00000
     41      -4.2587      2.00000
     42      -4.2424      2.00000
     43      -4.1723      2.00000
     44      -4.1465      2.00000
     45      -4.1431      2.00000
     46      -4.1289      2.00000
     47      -4.1201      2.00000
     48      -4.1169      2.00000
     49      -4.1053      2.00000
     50      -4.0974      2.00000
     51      -4.0778      2.00000
     52      -4.0763      2.00000
     53      -4.0108      2.00000
     54      -4.0031      2.00000
     55      -3.9942      2.00000
     56      -3.9875      2.00000
     57      -3.9745      2.00000
     58      -3.9563      2.00000
     59      -3.9233      2.00000
     60      -3.9119      2.00000
[...]
    238       7.2545      0.00000
    239       7.2597      0.00000
    240       7.2680      0.00000
    241       7.3247      0.00000
    242       7.3356      0.00000
    243       7.3911      0.00000
    244       7.4393      0.00000
    245       7.5800      0.00000
    246       7.5957      0.00000
    247       7.6601      0.00000
    248       7.7046      0.00000
    249       7.7755      0.00000
    250       7.9967      0.00000
    251       8.0637      0.00000
    252       8.1718      0.00000

 soft charge-density along one line, spin component           1
         0         1         2         3         4         5         6         7         8         9
 total charge-density along one line

------------------------ aborting loop because EDIFF is reached ----------------------------------------

 total charge

# of ion       s       p       d       tot
    1        0.416   0.202   9.177   9.795
    2        0.418   0.203   9.177   9.798
    3        0.418   0.203   9.177   9.798
    4        0.418   0.203   9.177   9.798
    5        0.414   0.205   9.177   9.796
    6        0.418   0.203   9.177   9.798
    7        0.418   0.203   9.177   9.798
    8        0.418   0.203   9.177   9.798
    9        0.416   0.202   9.179   9.796
   10        0.408   0.269   9.162   9.839
   11        0.409   0.267   9.168   9.844
   12        0.408   0.269   9.162   9.839
   13        0.409   0.267   9.168   9.844
   14        0.409   0.267   9.168   9.844
   15        0.404   0.268   9.167   9.838
   16        0.408   0.269   9.162   9.839
   17        0.404   0.268   9.167   9.838
   18        0.404   0.268   9.167   9.838
   19        0.402   0.266   9.166   9.835
   20        0.420   0.295   9.149   9.864
   21        0.420   0.295   9.149   9.864
   22        0.396   0.272   9.168   9.836
   23        0.420   0.295   9.149   9.864
   24        0.396   0.272   9.168   9.836
   25        0.402   0.266   9.166   9.835
   26        0.402   0.266   9.166   9.835
   27        0.396   0.272   9.168   9.836
   28        0.412   0.198   9.181   9.791
   29        0.422   0.212   9.167   9.801
   30        0.422   0.212   9.167   9.801
   31        0.422   0.212   9.167   9.801
   32        0.422   0.212   9.167   9.801
   33        0.422   0.212   9.167   9.801
   34        0.422   0.212   9.167   9.801
   35        0.403   0.200   9.182   9.785
   36        0.434   0.273   6.582   7.290
tot         14.850   8.678 327.485 351.014

  FORCE on cell =-STRESS in cart. coord.  units (eV):
  Direction    XX          YY          ZZ          XY          YZ          ZX
  Alpha Z   731.67987   731.67987   731.67987
  Ewald  120747.73233120747.73228************    -0.00000    -0.00000    -0.00002
  Hartree130848.93946130848.93944************    -0.00000    -0.00000    -0.00001
  E(xc)   -2066.22676 -2066.22674 -2072.03616    -0.00001     0.00000     0.00000
  Local  ************************263023.47240     0.00023    -0.00003    -0.00004
  n-local  -326.95492  -305.48754  -322.39229    11.49833    -0.28940     0.39104
  augment  3265.82921  3265.82938  3277.11375    -0.00015     0.00002     0.00002
  Kinetic  4853.47859  4864.11389  4890.09037     6.91869     0.57917     0.21596
  Fock        0.00000     0.00000     0.00000     0.00000     0.00000     0.00000
  Total      -9.75019    -9.75019    -0.10289    -0.00000     0.00000     0.00000
  in kB     -10.52339   -10.52339    -0.11105    -0.00000     0.00000     0.00000

 VOLUME and BASIS-vectors are now :
  energy-cutoff  :      500.00
  volume of cell :     1484.46
      direct lattice vectors                 reciprocal lattice vectors
     8.791366577  0.000000000  0.000000000     0.113747958 -0.065672414  0.000000000
     4.395683289  7.613546790  0.000000000     0.000000000  0.131344829  0.000000000
     0.000000000  0.000000000 22.178121567     0.000000000  0.000000000  0.045089481

  length of vectors
     8.791366577  8.791366577 22.178121567     0.131344829  0.131344829  0.045089481

 FORCES acting on ions
    electron-ion (+dipol)            ewald-force                    non-local-force                 convergence-correction
   0.460E-04 -.282E-04 0.249E+04   -.954E-04 0.593E-04 -.249E+04   0.426E-17 -.742E-18 -.218E+01   -.106E-03 -.168E-03 -.145E-01
   0.321E+00 0.383E+00 0.249E+04   -.303E+00 -.331E+00 -.249E+04   0.306E-01 -.669E-02 -.155E+01   -.453E-01 -.329E-01 0.493E-01
   -.321E+00 0.383E+00 0.249E+04   0.304E+00 -.331E+00 -.249E+04   -.306E-01 -.669E-02 -.155E+01   0.447E-01 -.310E-01 0.500E-01
   0.492E+00 0.869E-01 0.249E+04   -.438E+00 -.973E-01 -.249E+04   0.950E-02 0.298E-01 -.155E+01   -.509E-01 -.226E-01 0.494E-01
   -.787E-05 -.199E-04 0.249E+04   0.981E-04 -.198E-05 -.249E+04   0.112E-18 -.891E-18 -.149E+01   0.624E-02 0.381E-02 0.104E+00
   -.492E+00 0.870E-01 0.249E+04   0.438E+00 -.973E-01 -.249E+04   -.950E-02 0.298E-01 -.155E+01   0.495E-01 -.217E-01 0.502E-01
   0.171E+00 -.470E+00 0.249E+04   -.135E+00 0.428E+00 -.249E+04   -.211E-01 -.232E-01 -.155E+01   -.402E-02 0.548E-01 0.500E-01
   -.171E+00 -.470E+00 0.249E+04   0.135E+00 0.428E+00 -.249E+04   0.211E-01 -.232E-01 -.155E+01   0.566E-02 0.538E-01 0.502E-01
   0.363E-04 -.131E-04 0.249E+04   0.792E-04 -.643E-04 -.249E+04   -.154E-17 -.598E-18 -.183E+01   -.666E-02 -.344E-02 0.325E-01
   0.364E+01 0.210E+01 0.818E+03   -.323E+01 -.186E+01 -.817E+03   -.359E+00 -.207E+00 -.851E+00   -.269E-01 -.155E-01 0.166E+00
   -.287E-04 0.359E+01 0.822E+03   0.411E-04 -.371E+01 -.822E+03   0.558E-12 0.849E-01 -.399E+00   0.628E-02 -.125E-01 0.195E+00
   -.364E+01 0.210E+01 0.818E+03   0.323E+01 -.186E+01 -.817E+03   0.359E+00 -.207E+00 -.851E+00   0.253E-01 -.144E-01 0.166E+00
   0.311E+01 -.180E+01 0.822E+03   -.321E+01 0.185E+01 -.822E+03   0.735E-01 -.425E-01 -.399E+00   -.777E-02 0.117E-01 0.195E+00
   -.311E+01 -.180E+01 0.822E+03   0.321E+01 0.185E+01 -.822E+03   -.735E-01 -.425E-01 -.399E+00   0.184E-01 0.109E-01 0.194E+00
   0.160E-04 0.846E+00 0.818E+03   -.108E-03 -.937E+00 -.818E+03   0.462E-12 0.703E-01 -.677E+00   -.164E-02 0.212E-02 0.102E+00
   -.816E-05 -.421E+01 0.818E+03   0.206E-04 0.373E+01 -.817E+03   0.273E-11 0.415E+00 -.851E+00   0.120E-03 0.291E-01 0.166E+00
   0.733E+00 -.423E+00 0.818E+03   -.812E+00 0.469E+00 -.818E+03   0.609E-01 -.352E-01 -.677E+00   0.984E-03 -.249E-02 0.102E+00
   -.733E+00 -.423E+00 0.818E+03   0.812E+00 0.469E+00 -.818E+03   -.609E-01 -.352E-01 -.677E+00   -.987E-03 -.595E-03 0.103E+00
   0.405E-04 -.820E+00 -.879E+03   -.127E-03 0.861E+00 0.878E+03   0.248E-12 0.377E-01 0.530E+00   -.378E-03 -.681E-01 0.146E+00
   0.158E+01 0.910E+00 -.867E+03   -.521E+00 -.301E+00 0.868E+03   -.111E+01 -.642E+00 -.114E+01   0.577E-01 0.333E-01 0.213E+00
   -.158E+01 0.910E+00 -.867E+03   0.521E+00 -.301E+00 0.868E+03   0.111E+01 -.642E+00 -.114E+01   -.578E-01 0.337E-01 0.213E+00
   -.313E+01 0.181E+01 -.874E+03   0.271E+01 -.157E+01 0.873E+03   0.336E+00 -.194E+00 0.445E+00   0.847E-01 -.486E-01 0.183E+00
   -.550E-04 -.182E+01 -.867E+03   0.412E-04 0.601E+00 0.868E+03   0.843E-11 0.128E+01 -.114E+01   0.621E-03 -.662E-01 0.213E+00
   0.313E+01 0.181E+01 -.874E+03   -.271E+01 -.157E+01 0.873E+03   -.336E+00 -.194E+00 0.445E+00   -.847E-01 -.488E-01 0.183E+00
   0.710E+00 0.410E+00 -.879E+03   -.746E+00 -.431E+00 0.878E+03   -.327E-01 -.189E-01 0.530E+00   0.595E-01 0.342E-01 0.146E+00
   -.710E+00 0.410E+00 -.879E+03   0.746E+00 -.431E+00 0.878E+03   0.327E-01 -.189E-01 0.530E+00   -.595E-01 0.336E-01 0.146E+00
   0.200E-04 -.362E+01 -.874E+03   0.110E-03 0.313E+01 0.873E+03   0.255E-11 0.388E+00 0.445E+00   -.402E-03 0.977E-01 0.183E+00
   0.540E-04 -.370E-04 -.251E+04   -.114E-03 0.772E-04 0.251E+04   0.703E-17 0.476E-17 0.195E+01   0.107E-03 -.731E-04 -.104E+00
   -.572E+01 -.935E+01 -.252E+04   0.636E+01 0.103E+02 0.252E+04   -.783E+00 -.113E+01 0.154E+01   0.134E+00 0.144E+00 -.314E-01
   0.572E+01 -.935E+01 -.252E+04   -.636E+01 0.103E+02 0.252E+04   0.783E+00 -.113E+01 0.154E+01   -.135E+00 0.146E+00 -.315E-01
   -.110E+02 -.278E+00 -.252E+04   0.121E+02 0.340E+00 0.252E+04   -.137E+01 -.111E+00 0.154E+01   0.192E+00 0.440E-01 -.314E-01
   0.110E+02 -.278E+00 -.252E+04   -.121E+02 0.340E+00 0.252E+04   0.137E+01 -.111E+00 0.154E+01   -.193E+00 0.449E-01 -.316E-01
   -.524E+01 0.962E+01 -.252E+04   0.577E+01 -.107E+02 0.252E+04   -.590E+00 0.124E+01 0.154E+01   0.592E-01 -.189E+00 -.316E-01
   0.524E+01 0.962E+01 -.252E+04   -.577E+01 -.107E+02 0.252E+04   0.590E+00 0.124E+01 0.154E+01   -.578E-01 -.189E+00 -.316E-01
   0.253E-04 -.135E-04 -.251E+04   0.105E-03 -.652E-04 0.251E+04   0.183E-17 0.155E-18 0.217E+01   -.651E-02 -.333E-02 0.540E-01
   -.240E-04 -.884E-05 -.178E+04   0.767E-04 0.950E-05 0.178E+04   0.101E-16 0.454E-18 0.383E+01   0.175E-02 0.107E-02 0.855E-01
   0.316E-03 -.706E-03 0.627E+00   -.556E-15 0.119E-13 0.455E-12   0.120E-16 0.223E-15 -.385E+01   0.833E-02 0.803E-02 0.328E+01

 POSITION                                       TOTAL-FORCE (eV/Angst)
      0.00000      0.00000      5.28219         0.000000      0.000000      0.021960
      2.93046      0.00000      5.28219         0.003928      0.013139      0.024617
      5.86091      0.00000      5.28219        -0.003928      0.013139      0.024617
      1.46523      2.53785      5.28219         0.013343     -0.003167      0.024617
      4.39568      2.53785      5.28219        -0.000000      0.000000      0.001604
      7.32614      2.53785      5.28219        -0.013343     -0.003167      0.024617
      2.93046      5.07570      5.28219         0.009414     -0.009972      0.024617
      5.86091      5.07570      5.28219        -0.009414     -0.009972      0.024617
      8.79137      5.07570      5.28219         0.000000      0.000000      0.013561
      1.46523      0.84595      7.67490         0.029853      0.017235      0.000717
      4.39568      0.84595      7.67490        -0.000000     -0.046659     -0.083308
      7.32614      0.84595      7.67490        -0.029853      0.017235      0.000717
      2.93046      3.38380      7.67490        -0.040408      0.023330     -0.083308
      5.86091      3.38380      7.67490         0.040408      0.023330     -0.083308
      8.79137      3.38380      7.67490        -0.000000     -0.019245      0.017356
      4.39568      5.92165      7.67490        -0.000000     -0.034471      0.000717
      7.32614      5.92165      7.67490        -0.016667      0.009623      0.017356
     10.25659      5.92165      7.67490         0.016667      0.009623      0.017356
      8.79137      1.69450     10.06282         0.000000      0.010595     -0.014040
      2.93652      1.69540     10.03056         0.000904      0.000522     -0.004976
      5.85484      1.69540     10.03056        -0.000904      0.000522     -0.004976
     10.25378      4.23137     10.05553        -0.000593      0.000342     -0.016310
      4.39568      4.22274     10.03056        -0.000000     -0.001044     -0.004976
      7.32895      4.23137     10.05553         0.000593      0.000342     -0.016310
     11.71957      6.76630     10.06282        -0.009175     -0.005297     -0.014040
      5.86316      6.76630     10.06282         0.009175     -0.005297     -0.014040
      8.79137      6.76435     10.05553        -0.000000     -0.000684     -0.016310
      0.00000      0.00000     12.42400         0.000000      0.000000      0.043470
      2.95387      0.04433     12.43748        -0.006972     -0.001895      0.009474
      5.83749      0.04433     12.43748         0.006972     -0.001895      0.009474
      1.51533      2.53597     12.43748        -0.005127     -0.005091      0.009474
      7.27604      2.53597     12.43748         0.005127     -0.005091      0.009474
      2.95713      5.03325     12.43748         0.001845      0.006986      0.009474
      5.83423      5.03325     12.43748        -0.001845      0.006986      0.009474
      8.79137      5.07570     12.42069         0.000000      0.000000      0.027880
      4.39568      2.53785     12.23056         0.000000      0.000000     -0.011337
    total drift:                                0.008644      0.007319      0.054011

  FREE ENERGIE OF THE ION-ELECTRON SYSTEM (eV)
  free  energy   TOTEN  =       -95.63112440 eV

  energy  without entropy=      -95.63112440  energy(sigma->0) =      -95.63112440

 stress matrix after NEB project (eV)
     -9.75019     -0.00000      0.00000
     -0.00000     -9.75019     -0.00000
      0.00000      0.00000     -0.10289
  FORCES: max atom, RMS     0.043470    0.012307
  FORCE total and by dimension    0.073840    0.043470
  Stress total and by dimension   13.789239    9.750193
|           W    W    AA    RRRRR   N    N  II  N    N   GGGG   !!!           |
|           W    W   A  A   R    R  NN   N  II  NN   N  G    G  !!!           |
|           W    W  A    A  R    R  N N  N  II  N N  N  G       !!!           |
|           W WW W  AAAAAA  RRRRR   N  N N  II  N  N N  G  GGG   !            |
|           WW  WW  A    A  R   R   N   NN  II  N   NN  G    G                |
|           W    W  A    A  R    R  N    N  II  N    N   GGGG   !!!           |
|     Tetrahedron method does not include variations of the Fermi             |
|     occupations, so forces and stress will be inaccurate. We suggest        |
|     using a different smearing scheme ISMEAR = 1 or 2 for metals in         |
|     relaxations.                                                            |

 total charge

# of ion       s       p       d       tot
    1        0.416   0.202   9.177   9.795
    2        0.418   0.203   9.177   9.798
    3        0.418   0.203   9.177   9.798
    4        0.418   0.203   9.177   9.798
    5        0.414   0.205   9.177   9.796
    6        0.418   0.203   9.177   9.798
    7        0.418   0.203   9.177   9.798
    8        0.418   0.203   9.177   9.798
    9        0.416   0.202   9.179   9.796
   10        0.408   0.269   9.162   9.839
   11        0.409   0.267   9.168   9.844
   12        0.408   0.269   9.162   9.839
   13        0.409   0.267   9.168   9.844
   14        0.409   0.267   9.168   9.844
   15        0.404   0.268   9.167   9.838
   16        0.408   0.269   9.162   9.839
   17        0.404   0.268   9.167   9.838
   18        0.404   0.268   9.167   9.838
   19        0.402   0.266   9.166   9.835
   20        0.420   0.295   9.149   9.864
   21        0.420   0.295   9.149   9.864
   22        0.396   0.272   9.168   9.836
   23        0.420   0.295   9.149   9.864
   24        0.396   0.272   9.168   9.836
   25        0.402   0.266   9.166   9.835
   26        0.402   0.266   9.166   9.835
   27        0.396   0.272   9.168   9.836
   28        0.412   0.198   9.181   9.791
   29        0.422   0.212   9.167   9.801
   30        0.422   0.212   9.167   9.801
   31        0.422   0.212   9.167   9.801
   32        0.422   0.212   9.167   9.801
   33        0.422   0.212   9.167   9.801
   34        0.422   0.212   9.167   9.801
   35        0.403   0.200   9.182   9.785
   36        0.434   0.273   6.582   7.290
tot         14.850   8.678 327.485 351.014

 BZINTS: Fermi energy:    0.828149;  393.000000 electrons
         Band energy:-0.124669E+04;  BLOECHL correction:   -0.040575