 vasp.6.2.0 18Jan21 (build Jun 12 2021 23:27:24) complex

 executed on             LinuxIFC date 2022.05.27  06:18:19

 INCAR:
   ISMEAR = -5
   SIGMA = 0.1
   ISPIN = 1
   EDIFF = 1.d-5
   EDIFFG = -0.01
   NSW = 0
   NELM = 150
   ENCUT = 500
   ISIF = 2
   IBRION = 2
   LREAL = Auto
   ALGO = Fast
   ICHARG = 11
   LORBIT = 10
   LCHARG = .F.
   LWAVE = .F.

 POTCAR:    PAW_PBE Cu 22Jun2005
 POTCAR:    PAW_PBE Re 17Jan2003
 POTCAR:    PAW_PBE O 08Apr2002
 POTCAR:    PAW_PBE H 15Jun2001
|           W    W    AA    RRRRR   N    N  II  N    N   GGGG   !!!           |
|           W    W   A  A   R    R  NN   N  II  NN   N  G    G  !!!           |
|           W    W  A    A  R    R  N N  N  II  N N  N  G       !!!           |
|           W WW W  AAAAAA  RRRRR   N  N N  II  N  N N  G  GGG   !            |
|           WW  WW  A    A  R   R   N   NN  II  N   NN  G    G                |
|           W    W  A    A  R    R  N    N  II  N    N   GGGG   !!!           |
|     For optimal performance we recommend to set                             |
|       NCORE = 2 up to number-of-cores-per-socket                            |
|     This setting can greatly improve the performance of VASP for DFT.       |
|     The default, NCORE=1 might be grossly inefficient on modern             |
|     multi-core architectures or massively parallel machines. Do your        |
|     Unfortunately you need to use the default for GW and RPA                |
|     calculations (for HF NCORE is supported but not extensively tested      |
|     yet).                                                                   |

 POTCAR:    PAW_PBE Cu 22Jun2005
   VRHFIN =Cu: d10 p1

   TITEL  = PAW_PBE Cu 22Jun2005
   POMASS =   63.546; ZVAL   =   11.000    mass and valenz
   ENMAX  =  295.446; ENMIN  =  221.585 eV

 POTCAR:    PAW_PBE Re 17Jan2003
   VRHFIN =Re: 5p6s5d

   TITEL  = PAW_PBE Re 17Jan2003
   POMASS =  186.207; ZVAL   =    7.000    mass and valenz
   ENMAX  =  226.216; ENMIN  =  169.662 eV

 POTCAR:    PAW_PBE O 08Apr2002
   VRHFIN =O: s2p4

   TITEL  = PAW_PBE O 08Apr2002
   POMASS =   16.000; ZVAL   =    6.000    mass and valenz
   ENMAX  =  400.000; ENMIN  =  300.000 eV

 POTCAR:    PAW_PBE H 15Jun2001
   VRHFIN =H: ultrasoft test

   TITEL  = PAW_PBE H 15Jun2001
   POMASS =    1.000; ZVAL   =    1.000    mass and valenz
   ENMAX  =  250.000; ENMIN  =  200.000 eV

 Optimization of the real space projectors (new method)

 maximal supplied QI-value         = 16.25
 optimisation between [QCUT,QGAM] = [ 11.38, 22.75] = [ 36.24,144.96] Ry
 Optimized for a Real-space Cutoff    1.52 Angstroem

   l    n(q)    QCUT    max X(q) W(low)/X(q) W(high)/X(q)  e(spline)
   2      9    11.376     4.610    0.21E-03    0.10E-03    0.26E-06
   2      9    11.376     8.522    0.33E-03    0.16E-03    0.37E-06
   0     10    11.376    51.609    0.62E-04    0.20E-04    0.13E-06
   0     10    11.376    27.747    0.54E-04    0.20E-04    0.13E-06
   1     10    11.376    20.408    0.13E-04    0.99E-04    0.19E-06
   1     10    11.376    13.425    0.12E-04    0.87E-04    0.17E-06
 Optimization of the real space projectors (new method)

[...]

   l    n(q)    QCUT    max X(q) W(low)/X(q) W(high)/X(q)  e(spline)
   0      7    11.387    20.381    0.39E-03    0.13E-02    0.15E-06
   0      7    11.387    15.268    0.42E-03    0.14E-02    0.17E-06
   1      6    11.387     5.964    0.41E-03    0.11E-02    0.17E-06
   1      6    11.387     5.382    0.39E-03    0.87E-03    0.15E-06
 Optimization of the real space projectors (new method)

 maximal supplied QI-value         = 34.20
 optimisation between [QCUT,QGAM] = [ 11.29, 22.57] = [ 35.68,142.71] Ry
 Optimized for a Real-space Cutoff    1.16 Angstroem

   l    n(q)    QCUT    max X(q) W(low)/X(q) W(high)/X(q)  e(spline)
   0      8    11.287    19.460    0.40E-03    0.73E-03    0.16E-06
   0      8    11.287    12.209    0.38E-03    0.70E-03    0.15E-06
   1      7    11.287     4.655    0.22E-03    0.25E-04    0.22E-06
  PAW_PBE Cu 22Jun2005                  :
  PAW_PBE Re 17Jan2003                  :
  PAW_PBE O 08Apr2002                   :
  PAW_PBE H 15Jun2001                   :

 POSCAR: Cu-Re-OH
  positions in direct lattice
  velocities in cartesian coordinates
 exchange correlation table for  LEXCH =        8
   RHO(1)=    0.500       N(1)  =     2000
   RHO(2)=  100.500       N(2)  =     4000

 VTST: version 3.2, (02/03/18)

 CHAIN: initializing optimizer

 OPT: Using VASP Conjugate-Gradient optimizer
 CHAIN: Read ICHAIN            0

 POSCAR: Cu-Re-OH
  positions in direct lattice
  velocities in cartesian coordinates

 ion  position               nearest neighbor table
   1  0.000  0.000  0.252-   7 2.57   3 2.57   4 2.57   2 2.57   6 2.57   8 2.57  12 2.57  10 2.57
                            16 2.57
   2  0.333  0.000  0.252-   8 2.57   9 2.57   5 2.57   1 2.57   3 2.57  11 2.57   4 2.57  10 2.57
                            17 2.57
   3  0.667  0.000  0.252-   1 2.57   7 2.57   6 2.57   9 2.57   2 2.57  12 2.57   5 2.57  18 2.57
                            11 2.57
   4  0.000  0.333  0.252-   5 2.57   6 2.57   1 2.57   7 2.57   2 2.57  13 2.57   9 2.57  10 2.57
                            15 2.57
   5  0.333  0.333  0.252-   4 2.57   2 2.57   7 2.57  13 2.57   8 2.57   6 2.57   3 2.57  11 2.57
                            14 2.57
   6  0.667  0.333  0.252-   4 2.57   9 2.57  15 2.57   3 2.57   1 2.57   8 2.57  14 2.57   5 2.57
                            12 2.57
   7  0.000  0.667  0.252-   1 2.57   3 2.57  16 2.57  18 2.57   4 2.57   5 2.57   8 2.57   9 2.57
                            13 2.57
   8  0.333  0.667  0.252-   9 2.57   2 2.57  17 2.57   6 2.57   1 2.57   7 2.57   5 2.57  14 2.57
                            16 2.57
   9  0.667  0.667  0.252-   8 2.57   6 2.57   2 2.57  17 2.57   3 2.57   7 2.57   4 2.57  15 2.57
                            18 2.57
  10  0.111  0.111  0.351-  20 2.53  11 2.57  12 2.57  13 2.57   1 2.57   2 2.57   4 2.57  15 2.57
                            16 2.57  17 2.57  26 2.57  19 2.57
  11  0.444  0.111  0.351-  20 2.55  21 2.55  10 2.57  13 2.57   2 2.57  17 2.57  14 2.57  12 2.57
                             5 2.57   3 2.57  18 2.57  27 2.58
  12  0.778  0.111  0.351-  21 2.53  15 2.57  10 2.57  14 2.57  18 2.57   3 2.57   1 2.57  16 2.57
                            11 2.57   6 2.57  19 2.57  25 2.57
  13  0.111  0.444  0.351-  23 2.55  20 2.55  16 2.57  18 2.57  10 2.57  11 2.57  14 2.57   5 2.57
                             4 2.57   7 2.57  15 2.57  22 2.58
  14  0.444  0.444  0.351-  21 2.55  23 2.55  15 2.57  17 2.57  12 2.57  16 2.57  13 2.57  11 2.57
                             6 2.57   8 2.57   5 2.57  24 2.58
  15  0.778  0.444  0.351-  19 2.57  14 2.57  17 2.57  12 2.57   6 2.57  18 2.57  10 2.57   9 2.57
                            13 2.57   4 2.57  24 2.57  22 2.57
  16  0.111  0.778  0.351-  23 2.53  18 2.57  13 2.57   7 2.57  14 2.57  17 2.57  12 2.57  10 2.57
                             8 2.57   1 2.57  25 2.57  26 2.57
  17  0.444  0.778  0.351-  26 2.57  14 2.57  15 2.57   8 2.57   9 2.57  11 2.57  16 2.57  18 2.57
                            10 2.57   2 2.57  27 2.57  24 2.57
  18  0.778  0.778  0.351-  25 2.57  16 2.57  13 2.57   7 2.57  15 2.57  12 2.57  17 2.57   9 2.57
                             3 2.57  11 2.57  22 2.57  27 2.57
  19  0.889  0.223  0.449-  21 2.55  20 2.55  22 2.56  24 2.56  28 2.56  15 2.57  12 2.57  10 2.57
                            25 2.57  26 2.57  32 2.59  31 2.59
  20  0.221  0.221  0.448-  36 2.53  10 2.53  11 2.55  13 2.55  26 2.55  19 2.55  27 2.57  22 2.57
                            23 2.59  21 2.59  29 2.61  31 2.61
  21  0.558  0.221  0.448-  36 2.53  12 2.53  14 2.55  11 2.55  19 2.55  25 2.55  24 2.57  27 2.57
                            20 2.59  23 2.59  32 2.61  30 2.61
  22  0.888  0.556  0.450-  24 2.55  27 2.55  35 2.55  19 2.56  25 2.56  18 2.57  15 2.57  23 2.57
                            20 2.57  13 2.58  31 2.59  33 2.59
  23  0.221  0.558  0.448-  36 2.53  16 2.53  13 2.55  14 2.55  25 2.55  26 2.55  22 2.57  24 2.57
                            20 2.59  21 2.59  33 2.61  34 2.61
  24  0.556  0.556  0.450-  22 2.55  27 2.55  35 2.55  19 2.56  26 2.56  15 2.57  17 2.57  21 2.57
                            23 2.57  14 2.58  32 2.59  34 2.59
  25  0.889  0.889  0.449-  21 2.55  23 2.55  22 2.56  27 2.56  28 2.56  18 2.57  16 2.57  12 2.57
                            19 2.57  26 2.57  33 2.59  30 2.59
  26  0.223  0.889  0.449-  20 2.55  23 2.55  27 2.56  24 2.56  28 2.56  17 2.57  10 2.57  16 2.57
                            25 2.57  19 2.57  29 2.59  34 2.59
  27  0.556  0.888  0.450-  24 2.55  22 2.55  35 2.55  26 2.56  25 2.56  17 2.57  18 2.57  20 2.57
                            21 2.57  11 2.58  29 2.59  30 2.59
  28  0.000  0.000  0.548-  33 2.56  30 2.56  31 2.56  29 2.56  32 2.56  34 2.56  25 2.56  19 2.56
                            26 2.56
  29  0.333  0.000  0.549-  31 2.56  28 2.56  36 2.57  34 2.57  35 2.57  30 2.57  26 2.59  27 2.59
                            20 2.61
  30  0.667  0.000  0.549-  32 2.56  28 2.56  36 2.57  33 2.57  35 2.57  29 2.57  25 2.59  27 2.59
                            21 2.61
  31  0.000  0.333  0.549-  29 2.56  28 2.56  36 2.57  32 2.57  35 2.57  33 2.57  19 2.59  22 2.59
                            20 2.61
  32  0.667  0.333  0.549-  30 2.56  28 2.56  36 2.57  31 2.57  35 2.57  34 2.57  19 2.59  24 2.59
                            21 2.61
  33  0.000  0.667  0.549-  34 2.56  28 2.56  36 2.57  30 2.57  35 2.57  31 2.57  25 2.59  22 2.59
                            23 2.61
  34  0.333  0.667  0.549-  33 2.56  28 2.56  36 2.57  29 2.57  35 2.57  32 2.57  26 2.59  24 2.59
                            23 2.61
  35  0.667  0.667  0.548-  24 2.55  27 2.55  22 2.55  34 2.57  32 2.57  29 2.57  30 2.57  33 2.57
                            31 2.57
  36  0.333  0.333  0.544-  37 1.90  23 2.53  20 2.53  21 2.53  31 2.57  29 2.57  33 2.57  34 2.57
                            32 2.57  30 2.57
  37  0.333  0.333  0.633-  38 0.97  36 1.90
  38  0.333  0.333  0.678-  37 0.97

  LATTYP: Found a hexagonal cell.
 ALAT       =     7.6967864036
 C/A-ratio  =     2.7653617908

  Lattice vectors:

 A1 = (  -3.8483927580,  -6.6656128093,   0.0000000000)
 A2 = (   7.6967864037,   0.0000000000,   0.0000000000)
 A3 = (   0.0000000000,   0.0000000000,  21.2843990326)

Analysis of symmetry for initial positions (statically):
 Subroutine PRICEL returns:
 Original cell was already a primitive cell.

 Routine SETGRP: Setting up the symmetry group for a
 hexagonal supercell.

 Subroutine GETGRP returns: Found  6 space group operations
 (whereof  6 operations were pure point group operations)
 out of a pool of 24 trial point group operations.

The static configuration has the point symmetry C_3v.

Analysis of symmetry for dynamics (positions and initial velocities):
 Subroutine PRICEL returns:
 Original cell was already a primitive cell.

[...]

The dynamic configuration has the point symmetry C_3v.

Analysis of constrained symmetry for selective dynamics:
 Subroutine PRICEL returns:
 Original cell was already a primitive cell.

[...]
     33      -3.7063      2.00000
     34      -3.6928      2.00000
     35      -3.6918      2.00000
     36      -3.6779      2.00000
     37      -3.6400      2.00000
     38      -3.6083      2.00000
     39      -3.5451      2.00000
     40      -3.5260      2.00000
     41      -3.3974      2.00000
     42      -3.3849      2.00000
     43      -3.3115      2.00000
     44      -3.3031      2.00000
     45      -3.2971      2.00000
     46      -3.2702      2.00000
     47      -3.2610      2.00000
     48      -3.2447      2.00000
     49      -3.2368      2.00000
     50      -3.0771      2.00000
     51      -3.0672      2.00000
     52      -3.0494      2.00000
     53      -3.0233      2.00000
     54      -2.9946      2.00000
     55      -2.9907      2.00000
     56      -2.9630      2.00000
     57      -2.9592      2.00000
     58      -2.9517      2.00000
     59      -2.9383      2.00000
     60      -2.9257      2.00000
[...]
    238       6.4413      0.00000
    239       6.5722      0.00000
    240       6.7085      0.00000
    241       6.7910      0.00000
    242       6.8336      0.00000
    243       7.0185      0.00000
    244       7.0260      0.00000
    245       7.1932      0.00000
    246       7.3822      0.00000
    247       7.5623      0.00000
    248       7.6554      0.00000
    249       7.7362      0.00000
    250       7.8088      0.00000
    251       8.0191      0.00000
    252       8.2401      0.00000

 soft charge-density along one line, spin component           1
         0         1         2         3         4         5         6         7         8         9
 total charge-density along one line

------------------------ aborting loop because EDIFF is reached ----------------------------------------

 total charge

# of ion       s       p       d       tot
    1        0.450   0.284   9.191   9.925
    2        0.448   0.286   9.186   9.921
    3        0.448   0.286   9.186   9.921
    4        0.448   0.286   9.186   9.921
    5        0.450   0.285   9.182   9.917
    6        0.448   0.286   9.186   9.921
    7        0.448   0.286   9.186   9.921
    8        0.448   0.286   9.186   9.921
    9        0.447   0.285   9.187   9.919
   10        0.445   0.372   9.176   9.993
   11        0.442   0.368   9.183   9.992
   12        0.445   0.372   9.176   9.993
   13        0.442   0.368   9.183   9.992
   14        0.442   0.368   9.183   9.992
   15        0.438   0.368   9.181   9.987
   16        0.445   0.372   9.176   9.993
   17        0.438   0.368   9.181   9.987
   18        0.438   0.368   9.181   9.987
   19        0.440   0.365   9.184   9.989
   20        0.471   0.411   9.151  10.032
   21        0.471   0.411   9.151  10.032
   22        0.429   0.369   9.184   9.982
   23        0.471   0.411   9.151  10.032
   24        0.429   0.369   9.184   9.982
   25        0.440   0.365   9.184   9.989
   26        0.440   0.365   9.184   9.989
   27        0.429   0.369   9.184   9.982
   28        0.452   0.291   9.182   9.924
   29        0.458   0.315   9.175   9.948
   30        0.458   0.315   9.175   9.948
   31        0.458   0.315   9.175   9.948
   32        0.458   0.315   9.175   9.948
   33        0.458   0.315   9.175   9.948
   34        0.458   0.315   9.175   9.948
   35        0.441   0.295   9.185   9.920
   36        0.611   0.566   4.732   5.908
   37        1.549   3.545   0.000   5.093
   38        0.600   0.126   0.000   0.727
tot         18.429  16.036 326.003 360.468

  FORCE on cell =-STRESS in cart. coord.  units (eV):
  Direction    XX          YY          ZZ          XY          YZ          ZX
  Alpha Z   909.03402   909.03402   909.03402
  Ewald  171016.93593171016.93552************     0.00039     0.00012     0.00017
  Hartree184204.35940184204.35939************     0.00004     0.00006     0.00006
  E(xc)   -2312.40187 -2312.40142 -2315.37952    -0.00039    -0.00003    -0.00006
  Local  ************************368288.79080     0.01872    -0.00061    -0.00097
  n-local  -806.82640  -790.90203  -808.21585     8.21952     0.06951     0.16068
  augment  3324.50244  3324.52261  3341.46133    -0.01747     0.00029     0.00049
  Kinetic  3376.35792  3380.49373  3361.55390     3.51883     1.29552    -1.06439
  Fock        0.00000     0.00000     0.00000     0.00000     0.00000     0.00000
  Total      -3.90435    -3.90435     1.53382     0.00000    -0.00000    -0.00000
  in kB      -5.72860    -5.72861     2.25048     0.00000    -0.00000    -0.00000

 VOLUME and BASIS-vectors are now :
  energy-cutoff  :      500.00
  volume of cell :     1091.97
      direct lattice vectors                 reciprocal lattice vectors
     7.696786404  0.000000000  0.000000000     0.129924354 -0.075011849  0.000000000
     3.848392758  6.665612809  0.000000000     0.000000000  0.150023716  0.000000000
     0.000000000  0.000000000 21.284399033     0.000000000  0.000000000  0.046982769

  length of vectors
     7.696786404  7.696786404 21.284399033     0.150023716  0.150023716  0.046982769

 FORCES acting on ions
    electron-ion (+dipol)            ewald-force                    non-local-force                 convergence-correction
   -.417E-04 0.106E-06 0.348E+04   0.580E-04 -.434E-05 -.348E+04   0.438E-17 0.375E-17 -.277E+01   -.400E-03 -.198E-03 -.301E+00
   -.521E+00 -.262E+00 0.348E+04   0.202E+00 -.792E-01 -.348E+04   0.110E+00 0.240E+00 -.181E+01   0.205E+00 0.105E+00 -.299E+00
   0.521E+00 -.262E+00 0.348E+04   -.203E+00 -.792E-01 -.348E+04   -.110E+00 0.240E+00 -.181E+01   -.204E+00 0.107E+00 -.298E+00
   -.487E+00 -.320E+00 0.348E+04   0.326E-01 0.215E+00 -.348E+04   0.263E+00 -.250E-01 -.181E+01   0.193E+00 0.125E+00 -.299E+00
   -.654E-04 -.560E-05 0.348E+04   0.116E-03 -.101E-04 -.348E+04   -.391E-17 -.588E-18 -.157E+01   0.121E-01 0.741E-02 -.116E+00
   0.487E+00 -.320E+00 0.348E+04   -.327E-01 0.215E+00 -.348E+04   -.263E+00 -.250E-01 -.181E+01   -.195E+00 0.126E+00 -.298E+00
   0.335E-01 0.582E+00 0.348E+04   -.170E+00 -.136E+00 -.348E+04   0.153E+00 -.215E+00 -.181E+01   -.876E-02 -.230E+00 -.298E+00
   -.334E-01 0.582E+00 0.348E+04   0.170E+00 -.136E+00 -.348E+04   -.153E+00 -.215E+00 -.181E+01   0.121E-01 -.232E+00 -.298E+00
   -.144E-03 -.329E-04 0.348E+04   0.263E-03 0.205E-04 -.348E+04   -.183E-17 0.247E-17 -.228E+01   -.131E-01 -.674E-02 -.334E+00
   0.191E+01 0.110E+01 0.118E+04   -.146E+01 -.840E+00 -.118E+04   -.650E+00 -.375E+00 -.112E+01   0.168E+00 0.967E-01 0.404E+00
   -.914E-04 -.110E+00 0.117E+04   0.190E-03 -.489E+00 -.117E+04   -.186E-07 0.279E+00 -.207E+00   0.123E-01 0.261E+00 0.366E+00
   -.191E+01 0.110E+01 0.118E+04   0.146E+01 -.840E+00 -.118E+04   0.650E+00 -.375E+00 -.112E+01   -.169E+00 0.974E-01 0.404E+00
   -.949E-01 0.549E-01 0.117E+04   -.424E+00 0.244E+00 -.117E+04   0.241E+00 -.139E+00 -.207E+00   0.232E+00 -.119E+00 0.366E+00
   0.951E-01 0.549E-01 0.117E+04   0.423E+00 0.244E+00 -.117E+04   -.241E+00 -.139E+00 -.207E+00   -.209E+00 -.121E+00 0.363E+00
   -.142E-03 -.101E+01 0.117E+04   0.298E-03 0.782E+00 -.117E+04   -.947E-08 0.142E+00 -.913E+00   -.323E-02 0.592E-01 0.268E+00
   -.921E-04 -.221E+01 0.118E+04   0.186E-03 0.168E+01 -.118E+04   -.500E-07 0.751E+00 -.112E+01   -.131E-02 -.197E+00 0.404E+00
   -.879E+00 0.507E+00 0.117E+04   0.678E+00 -.391E+00 -.117E+04   0.123E+00 -.711E-01 -.913E+00   0.503E-01 -.324E-01 0.268E+00
   0.879E+00 0.507E+00 0.117E+04   -.678E+00 -.391E+00 -.117E+04   -.123E+00 -.711E-01 -.913E+00   -.483E-01 -.296E-01 0.271E+00
   -.577E-04 -.306E+01 -.114E+04   0.697E-04 0.298E+01 0.114E+04   -.273E-08 0.411E-01 0.934E+00   -.110E-01 -.100E-01 0.771E+00
   -.318E+02 -.184E+02 -.115E+04   0.330E+02 0.190E+02 0.115E+04   -.153E+01 -.883E+00 -.137E+01   0.375E+00 0.216E+00 0.102E+01
   0.318E+02 -.184E+02 -.115E+04   -.330E+02 0.190E+02 0.115E+04   0.153E+01 -.883E+00 -.137E+01   -.394E+00 0.213E+00 0.102E+01
   -.207E+02 0.119E+02 -.115E+04   0.196E+02 -.113E+02 0.115E+04   0.834E+00 -.482E+00 0.884E+00   0.290E+00 -.152E+00 0.697E+00
   -.882E-04 0.367E+02 -.115E+04   0.146E-03 -.381E+02 0.115E+04   -.118E-06 0.177E+01 -.137E+01   -.138E-01 -.448E+00 0.102E+01
   0.207E+02 0.119E+02 -.115E+04   -.196E+02 -.113E+02 0.115E+04   -.834E+00 -.482E+00 0.884E+00   -.266E+00 -.155E+00 0.697E+00
   0.265E+01 0.153E+01 -.114E+04   -.258E+01 -.149E+01 0.114E+04   -.356E-01 -.205E-01 0.934E+00   -.945E-02 -.544E-02 0.771E+00
   -.265E+01 0.153E+01 -.114E+04   0.258E+01 -.149E+01 0.114E+04   0.356E-01 -.205E-01 0.934E+00   -.138E-01 -.426E-02 0.771E+00
   -.114E-03 -.239E+02 -.115E+04   0.241E-03 0.227E+02 0.115E+04   -.642E-07 0.963E+00 0.884E+00   0.132E-01 0.327E+00 0.697E+00
   -.470E-04 0.106E-04 -.339E+04   0.375E-04 -.329E-04 0.339E+04   -.348E-17 0.268E-17 0.146E+01   -.522E-03 -.251E-03 0.566E+00
   -.141E+02 -.208E+02 -.339E+04   0.138E+02 0.196E+02 0.339E+04   -.101E+00 0.418E+00 0.175E+01   0.236E+00 0.440E+00 0.496E+00
   0.141E+02 -.208E+02 -.339E+04   -.138E+02 0.196E+02 0.339E+04   0.101E+00 0.418E+00 0.175E+01   -.235E+00 0.441E+00 0.495E+00
   -.250E+02 -.182E+01 -.339E+04   0.238E+02 0.215E+01 0.339E+04   0.312E+00 -.296E+00 0.175E+01   0.499E+00 -.155E-01 0.496E+00
   0.250E+02 -.182E+01 -.339E+04   -.238E+02 0.215E+01 0.339E+04   -.312E+00 -.296E+00 0.175E+01   -.499E+00 -.153E-01 0.497E+00
   -.109E+02 0.226E+02 -.339E+04   0.101E+02 -.217E+02 0.339E+04   0.412E+00 -.122E+00 0.175E+01   0.264E+00 -.424E+00 0.495E+00
   0.109E+02 0.226E+02 -.339E+04   -.101E+02 -.217E+02 0.339E+04   -.412E+00 -.122E+00 0.175E+01   -.262E+00 -.425E+00 0.497E+00
   -.155E-03 -.299E-04 -.340E+04   0.253E-03 0.405E-05 0.340E+04   -.351E-18 0.471E-18 0.211E+01   -.122E-01 -.620E-02 0.659E+00
   -.288E-04 -.111E-04 -.197E+04   0.892E-04 0.167E-04 0.197E+04   0.267E-17 -.275E-18 0.320E+01   0.798E-03 0.478E-03 0.340E+00
   0.188E-03 -.799E-04 -.207E+04   0.160E-04 0.763E-05 0.205E+04   0.281E-17 0.804E-18 0.178E+02   0.313E-02 0.191E-02 -.358E+00
   0.483E-05 -.132E-04 -.385E+03   0.618E-06 0.516E-06 0.394E+03   -.177E-18 -.139E-18 -.846E+01   0.171E-03 0.104E-03 -.685E-01
   -.967E-04 -.106E-03 -.159E+02   0.219E-12 0.117E-12 0.364E-11   -.162E-15 0.841E-16 0.370E+01   -.282E-02 -.462E-02 0.122E+02

 POSITION                                       TOTAL-FORCE (eV/Angst)
      0.00000      0.00000      5.37156         0.000000      0.000000     -0.026815
      2.56560      0.00000      5.37156        -0.003443      0.005234      0.071188
      5.13119      0.00000      5.37156         0.003443      0.005234      0.071188
      1.28280      2.22187      5.37156         0.002812     -0.005598      0.071188
      3.84839      2.22187      5.37156         0.000000      0.000000      0.042908
      6.41399      2.22187      5.37156        -0.002812     -0.005598      0.071188
      2.56560      4.44374      5.37156         0.006254      0.000364      0.071188
      5.13119      4.44374      5.37156        -0.006254      0.000364      0.071188
      7.69679      4.44374      5.37156         0.000000      0.000000      0.019680
      1.28280      0.74062      7.46636        -0.023678     -0.013670     -0.070086
      3.84839      0.74062      7.46636         0.000000     -0.065907     -0.095422
      6.41399      0.74062      7.46636         0.023678     -0.013670     -0.070086
      2.56560      2.96249      7.46636        -0.057077      0.032953     -0.095422
      5.13119      2.96249      7.46636         0.057077      0.032953     -0.095422
      7.69679      2.96249      7.46636         0.000000     -0.031717      0.015762
      3.84839      5.18437      7.46636        -0.000000      0.027341     -0.070086
      6.41399      5.18437      7.46636        -0.027467      0.015858      0.015762
      8.97958      5.18437      7.46636         0.027467      0.015858      0.015762
      7.69679      1.48486      9.56345         0.000000     -0.041777     -0.004385
      2.55359      1.47432      9.53212         0.006413      0.003703     -0.117896
      5.14319      1.47432      9.53212        -0.006413      0.003703     -0.117896
      8.97343      3.70667      9.56919         0.067157     -0.038773     -0.003090
      3.84839      3.71698      9.53212         0.000000     -0.007405     -0.117896
      6.42014      3.70667      9.56919        -0.067157     -0.038773     -0.003090
     10.25925      5.92318      9.56345         0.036180      0.020888     -0.004385
      5.13432      5.92318      9.56345        -0.036180      0.020888     -0.004385
      7.69679      5.91789      9.56919        -0.000000      0.077546     -0.003090
      0.00000      0.00000     11.65394         0.000000      0.000000      0.006852
      2.56263      0.00314     11.68588        -0.178675     -0.344895     -0.288025
      5.13415      0.00314     11.68588         0.178675     -0.344895     -0.288025
      1.28404      2.21774     11.68588        -0.388025      0.017711     -0.288025
      6.41275      2.21774     11.68588         0.388025      0.017711     -0.288025
      2.56979      4.44474     11.68588        -0.209351      0.327184     -0.288025
      5.12699      4.44474     11.68588         0.209351      0.327184     -0.288025
      7.69679      4.44374     11.65455         0.000000     -0.000000      0.061669
      3.84839      2.22187     11.57229         0.000000      0.000000      2.084285
      3.84839      2.22187     13.46855         0.000000      0.000000     -0.081644
      3.84839      2.22187     14.43458         0.000000      0.000000      0.019438
    total drift:                               -0.002912     -0.004722     -0.071626

  FREE ENERGIE OF THE ION-ELECTRON SYSTEM (eV)
  free  energy   TOTEN  =      -143.05037219 eV

  energy  without entropy=     -143.05037219  energy(sigma->0) =     -143.05037219

 stress matrix after NEB project (eV)
     -3.90435      0.00000     -0.00000
      0.00000     -3.90435     -0.00000
     -0.00000     -0.00000      1.53382
  FORCES: max atom, RMS     0.081644    0.013615
  FORCE total and by dimension    0.083926    0.081644
  Stress total and by dimension    5.730670    3.904354
|           W    W    AA    RRRRR   N    N  II  N    N   GGGG   !!!           |
|           W    W   A  A   R    R  NN   N  II  NN   N  G    G  !!!           |
|           W    W  A    A  R    R  N N  N  II  N N  N  G       !!!           |
|           W WW W  AAAAAA  RRRRR   N  N N  II  N  N N  G  GGG   !            |
|           WW  WW  A    A  R   R   N   NN  II  N   NN  G    G                |
|           W    W  A    A  R    R  N    N  II  N    N   GGGG   !!!           |
|     Tetrahedron method does not include variations of the Fermi             |
|     occupations, so forces and stress will be inaccurate. We suggest        |
|     using a different smearing scheme ISMEAR = 1 or 2 for metals in         |
|     relaxations.                                                            |

 total charge

# of ion       s       p       d       tot
    1        0.450   0.284   9.191   9.925
    2        0.448   0.286   9.186   9.921
    3        0.448   0.286   9.186   9.921
    4        0.448   0.286   9.186   9.921
    5        0.450   0.285   9.182   9.917
    6        0.448   0.286   9.186   9.921
    7        0.448   0.286   9.186   9.921
    8        0.448   0.286   9.186   9.921
    9        0.447   0.285   9.187   9.919
   10        0.445   0.372   9.176   9.993
   11        0.442   0.368   9.183   9.992
   12        0.445   0.372   9.176   9.993
   13        0.442   0.368   9.183   9.992
   14        0.442   0.368   9.183   9.992
   15        0.438   0.368   9.181   9.987
   16        0.445   0.372   9.176   9.993
   17        0.438   0.368   9.181   9.987
   18        0.438   0.368   9.181   9.987
   19        0.440   0.365   9.184   9.989
   20        0.471   0.411   9.151  10.032
   21        0.471   0.411   9.151  10.032
   22        0.429   0.369   9.184   9.982
   23        0.471   0.411   9.151  10.032
   24        0.429   0.369   9.184   9.982
   25        0.440   0.365   9.184   9.989
   26        0.440   0.365   9.184   9.989
   27        0.429   0.369   9.184   9.982
   28        0.452   0.291   9.182   9.924
   29        0.458   0.315   9.175   9.948
   30        0.458   0.315   9.175   9.948
   31        0.458   0.315   9.175   9.948
   32        0.458   0.315   9.175   9.948
   33        0.458   0.315   9.175   9.948
   34        0.458   0.315   9.175   9.948
   35        0.441   0.295   9.185   9.920
   36        0.611   0.566   4.732   5.908
   37        1.549   3.545   0.000   5.093
   38        0.600   0.126   0.000   0.727
tot         18.429  16.036 326.003 360.468

 BZINTS: Fermi energy:    0.419552;  399.000000 electrons
         Band energy:-0.102102E+04;  BLOECHL correction:   -0.031481