 vasp.6.2.0 18Jan21 (build Jun 12 2021 23:27:24) complex

 executed on             LinuxIFC date 2022.05.27  04:58:56

 INCAR:
   ISMEAR = -5
   SIGMA = 0.1
   ISPIN = 1
   EDIFF = 1.d-5
   EDIFFG = -0.01
   NSW = 0
   NELM = 150
   ENCUT = 500
   ISIF = 2
   IBRION = 2
   LREAL = Auto
   ALGO = Fast
   ICHARG = 11
   LORBIT = 10
   LCHARG = .F.
   LWAVE = .F.

 POTCAR:    PAW_PBE Au 04Oct2007
 POTCAR:    PAW_PBE Ti 08Apr2002
 POTCAR:    PAW_PBE N 08Apr2002
|           W    W    AA    RRRRR   N    N  II  N    N   GGGG   !!!           |
|           W    W   A  A   R    R  NN   N  II  NN   N  G    G  !!!           |
|           W    W  A    A  R    R  N N  N  II  N N  N  G       !!!           |
|           W WW W  AAAAAA  RRRRR   N  N N  II  N  N N  G  GGG   !            |
|           WW  WW  A    A  R   R   N   NN  II  N   NN  G    G                |
|           W    W  A    A  R    R  N    N  II  N    N   GGGG   !!!           |
|     For optimal performance we recommend to set                             |
|       NCORE = 2 up to number-of-cores-per-socket                            |
|     This setting can greatly improve the performance of VASP for DFT.       |
|     The default, NCORE=1 might be grossly inefficient on modern             |
|     multi-core architectures or massively parallel machines. Do your        |
|     Unfortunately you need to use the default for GW and RPA                |
|     calculations (for HF NCORE is supported but not extensively tested      |
|     yet).                                                                   |

 POTCAR:    PAW_PBE Au 04Oct2007
   VRHFIN =Au: s1d10

   TITEL  = PAW_PBE Au 04Oct2007
   POMASS =  196.966; ZVAL   =   11.000    mass and valenz
   ENMAX  =  229.943; ENMIN  =  172.457 eV

 POTCAR:    PAW_PBE Ti 08Apr2002
   VRHFIN =Ti: d3 s1

   TITEL  = PAW_PBE Ti 08Apr2002
   POMASS =   47.880; ZVAL   =    4.000    mass and valenz
   ENMAX  =  178.330; ENMIN  =  133.747 eV

 POTCAR:    PAW_PBE N 08Apr2002
   VRHFIN =N: s2p3

   TITEL  = PAW_PBE N 08Apr2002
   POMASS =   14.001; ZVAL   =    5.000    mass and valenz
   ENMAX  =  400.000; ENMIN  =  300.000 eV

 Optimization of the real space projectors (new method)

 maximal supplied QI-value         = 15.12
 optimisation between [QCUT,QGAM] = [ 11.34, 22.83] = [ 36.00,145.93] Ry
 Optimized for a Real-space Cutoff    1.39 Angstroem

   l    n(q)    QCUT    max X(q) W(low)/X(q) W(high)/X(q)  e(spline)
   2      9    11.338    60.898    0.39E-03    0.42E-03    0.21E-06
   2      9    11.338    58.894    0.40E-03    0.42E-03    0.22E-06
   0      9    11.338   109.617    0.13E-03    0.20E-04    0.13E-06
   0      9    11.338    75.026    0.13E-03    0.20E-04    0.13E-06
   1      9    11.338    16.344    0.33E-04    0.24E-03    0.18E-06
   1      9    11.338    10.160    0.26E-04    0.19E-03    0.15E-06
 Optimization of the real space projectors (new method)

[...]

   l    n(q)    QCUT    max X(q) W(low)/X(q) W(high)/X(q)  e(spline)
   2     10    11.404    49.363    0.27E-03    0.67E-03    0.76E-06
   2     10    11.404    47.669    0.26E-03    0.65E-03    0.73E-06
   0     11    11.404    26.374    0.17E-03    0.20E-03    0.34E-06
   0     11    11.404    11.549    0.14E-03    0.16E-03    0.29E-06
   1     10    11.404     9.492    0.33E-04    0.56E-04    0.16E-06
 Optimization of the real space projectors (new method)

 maximal supplied QI-value         = 25.13
 optimisation between [QCUT,QGAM] = [ 11.31, 22.87] = [ 35.82,146.48] Ry
 Optimized for a Real-space Cutoff    1.27 Angstroem

   l    n(q)    QCUT    max X(q) W(low)/X(q) W(high)/X(q)  e(spline)
   0      9    11.310    79.467    0.75E-04    0.16E-03    0.36E-06
   0      9    11.310    66.151    0.74E-04    0.16E-03    0.36E-06
   1      8    11.310    17.416    0.35E-03    0.12E-03    0.95E-06
   1      8    11.310    12.382    0.37E-03    0.13E-03    0.98E-06
  PAW_PBE Au 04Oct2007                  :
  PAW_PBE Ti 08Apr2002                  :
  PAW_PBE N 08Apr2002                   :

 POSCAR: Au-Ti-N2
  positions in direct lattice
  velocities in cartesian coordinates
 exchange correlation table for  LEXCH =        8
   RHO(1)=    0.500       N(1)  =     2000
   RHO(2)=  100.500       N(2)  =     4000

 VTST: version 3.2, (02/03/18)

 CHAIN: initializing optimizer

 OPT: Using VASP Conjugate-Gradient optimizer
 CHAIN: Read ICHAIN            0

 POSCAR: Au-Ti-N2
  positions in direct lattice
  velocities in cartesian coordinates

 ion  position               nearest neighbor table
   1  0.000  0.000  0.238-  16 2.94  12 2.94   6 2.94   8 2.94   7 2.94   3 2.94  10 2.94   4 2.94
                             2 2.94
   2  0.333  0.000  0.238-   9 2.94  11 2.94  17 2.94  10 2.94   8 2.94   4 2.94   5 2.94   1 2.94
                             3 2.94
   3  0.667  0.000  0.238-   7 2.94  18 2.94  12 2.94   1 2.94  11 2.94   5 2.94   6 2.94   9 2.94
                             2 2.94
   4  0.000  0.333  0.238-  10 2.94   6 2.94   5 2.94  13 2.94   2 2.94  15 2.94   9 2.94   1 2.94
                             7 2.94
   5  0.333  0.333  0.238-  13 2.94   7 2.94  11 2.94   4 2.94   2 2.94  14 2.94   3 2.94   8 2.94
                             6 2.94
   6  0.667  0.333  0.238-  15 2.94  14 2.94   1 2.94  12 2.94   4 2.94   9 2.94   8 2.94   3 2.94
                             5 2.94
   7  0.000  0.667  0.238-  18 2.94   3 2.94  16 2.94   5 2.94   1 2.94  13 2.94   8 2.94   4 2.94
                             9 2.94
   8  0.333  0.667  0.238-   9 2.94  17 2.94   1 2.94   2 2.94  14 2.94  16 2.94   6 2.94   7 2.94
                             5 2.94
   9  0.667  0.667  0.238-   2 2.94   8 2.94  17 2.94   6 2.94  15 2.94   4 2.94   3 2.94  18 2.94
                             7 2.94
  10  0.111  0.111  0.346-  26 2.93  19 2.93  20 2.93  11 2.94  17 2.94   2 2.94   4 2.94   1 2.94
                            12 2.94  16 2.94  13 2.94  15 2.94
  11  0.444  0.111  0.346-  20 2.92  21 2.92  27 2.94  13 2.94   2 2.94  10 2.94  17 2.94   5 2.94
                             3 2.94  18 2.94  14 2.94  12 2.94
  12  0.778  0.111  0.346-  25 2.93  19 2.93  21 2.93  16 2.94  18 2.94   1 2.94  14 2.94  15 2.94
                             3 2.94   6 2.94  10 2.94  11 2.94
  13  0.111  0.444  0.346-  23 2.92  20 2.92  22 2.94   5 2.94  18 2.94  11 2.94   7 2.94   4 2.94
                            16 2.94  10 2.94  14 2.94  15 2.94
  14  0.444  0.444  0.346-  21 2.92  23 2.92  24 2.94  15 2.94   6 2.94  12 2.94   8 2.94  17 2.94
                             5 2.94  16 2.94  13 2.94  11 2.94
  15  0.778  0.444  0.346-  24 2.92  22 2.92  19 2.93  14 2.94   6 2.94  17 2.94  12 2.94   9 2.94
                             4 2.94  10 2.94  13 2.94  18 2.94
  16  0.111  0.778  0.346-  25 2.93  26 2.93  23 2.93  18 2.94  12 2.94   7 2.94   1 2.94   8 2.94
                            13 2.94  10 2.94  14 2.94  17 2.94
  17  0.444  0.778  0.346-  27 2.92  24 2.92  26 2.93   9 2.94  15 2.94   2 2.94  10 2.94  11 2.94
                             8 2.94  14 2.94  16 2.94  18 2.94
  18  0.778  0.778  0.346-  22 2.92  27 2.92  25 2.93  16 2.94   7 2.94  13 2.94  12 2.94   3 2.94
                            11 2.94   9 2.94  15 2.94  17 2.94
  19  0.889  0.222  0.454-  10 2.93  12 2.93  15 2.93  26 2.94  25 2.94  24 2.94  22 2.94  21 2.95
                            20 2.95  28 2.95  32 3.03  31 3.03
  20  0.223  0.223  0.453-  36 2.76  23 2.91  21 2.91  11 2.92  13 2.92  10 2.93  27 2.95  22 2.95
                            26 2.95  19 2.95  29 2.96  31 2.96
  21  0.554  0.223  0.453-  36 2.76  20 2.91  23 2.91  14 2.92  11 2.92  12 2.93  27 2.95  24 2.95
                            25 2.95  19 2.95  30 2.96  32 2.96
  22  0.887  0.556  0.454-  24 2.92  27 2.92  18 2.92  15 2.92  13 2.94  25 2.94  19 2.94  23 2.95
                            20 2.95  35 2.96  33 2.99  31 2.99
  23  0.223  0.554  0.453-  36 2.76  20 2.91  21 2.91  13 2.92  14 2.92  16 2.93  22 2.95  24 2.95
                            25 2.95  26 2.95  33 2.96  34 2.96
  24  0.556  0.556  0.454-  27 2.92  22 2.92  15 2.92  17 2.92  14 2.94  26 2.94  19 2.94  21 2.95
                            23 2.95  35 2.96  32 2.99  34 2.99
  25  0.889  0.889  0.454-  16 2.93  12 2.93  18 2.93  19 2.94  26 2.94  22 2.94  27 2.94  23 2.95
                            21 2.95  28 2.95  33 3.03  30 3.03
  26  0.222  0.889  0.454-  10 2.93  16 2.93  17 2.93  19 2.94  25 2.94  27 2.94  24 2.94  20 2.95
                            23 2.95  28 2.95  29 3.03  34 3.03
  27  0.556  0.887  0.454-  24 2.92  22 2.92  17 2.92  18 2.92  11 2.94  26 2.94  25 2.94  20 2.95
                            21 2.95  35 2.96  29 2.99  30 2.99
  28  0.000  0.000  0.563-  25 2.95  19 2.95  26 2.95  34 2.98  32 2.98  33 2.98  30 2.98  31 2.98
                            29 2.98
  29  0.334  0.009  0.564-  30 2.85  31 2.86  36 2.87  20 2.96  35 2.98  28 2.98  27 2.99  26 3.03
                            34 3.10
  30  0.657  0.009  0.564-  29 2.85  32 2.86  36 2.87  21 2.96  35 2.98  28 2.98  27 2.99  25 3.03
                            33 3.10
  31  0.009  0.334  0.564-  33 2.85  29 2.86  36 2.87  20 2.96  35 2.98  28 2.98  22 2.99  19 3.03
                            32 3.10
  32  0.657  0.334  0.564-  34 2.85  30 2.86  36 2.87  21 2.96  35 2.98  28 2.98  24 2.99  19 3.03
                            31 3.10
  33  0.009  0.657  0.564-  31 2.85  34 2.86  36 2.87  23 2.96  35 2.98  28 2.98  22 2.99  25 3.03
                            30 3.10
  34  0.334  0.657  0.564-  32 2.85  33 2.86  36 2.87  23 2.96  35 2.98  28 2.98  24 2.99  26 3.03
                            29 3.10
  35  0.667  0.667  0.563-  24 2.96  27 2.96  22 2.96  29 2.98  34 2.98  32 2.98  31 2.98  30 2.98
                            33 2.98
  36  0.333  0.333  0.552-  20 2.76  23 2.76  21 2.76  33 2.87  31 2.87  29 2.87  30 2.87  34 2.87
                            32 2.87
  37  0.269  0.335  0.725-  38 1.11
  38  0.396  0.335  0.725-  37 1.11

  LATTYP: Found a hexagonal cell.
 ALAT       =     8.8135128021
 C/A-ratio  =     2.5184286595

  Lattice vectors:

 A1 = (  -4.4067569092,  -7.6327256898,   0.0000000000)
 A2 = (   8.8135128021,   0.0000000000,   0.0000000000)
 A3 = (   0.0000000000,   0.0000000000,  22.1962032318)

Analysis of symmetry for initial positions (statically):
 Subroutine PRICEL returns:
 Original cell was already a primitive cell.

 Routine SETGRP: Setting up the symmetry group for a
 hexagonal supercell.

 Subroutine GETGRP returns: Found  2 space group operations
 (whereof  2 operations were pure point group operations)
 out of a pool of 24 trial point group operations.

The static configuration has the point symmetry C_1h.

Analysis of symmetry for dynamics (positions and initial velocities):
 Subroutine PRICEL returns:
 Original cell was already a primitive cell.

[...]

The dynamic configuration has the point symmetry C_1h.

Analysis of constrained symmetry for selective dynamics:
 Subroutine PRICEL returns:
 Original cell was already a primitive cell.

 Routine SETGRP: Setting up the symmetry group for a
 hexagonal supercell.

 Subroutine GETGRP returns: Found  2 space group operations
 (whereof  2 operations were pure point group operations)
[...]
     33      -4.6616      2.00000
     34      -4.6564      2.00000
     35      -4.6534      2.00000
     36      -4.6227      2.00000
     37      -4.6051      2.00000
     38      -4.5973      2.00000
     39      -4.5306      2.00000
     40      -4.5112      2.00000
     41      -4.4196      2.00000
     42      -4.4101      2.00000
     43      -4.3989      2.00000
     44      -4.3399      2.00000
     45      -4.2797      2.00000
     46      -4.2543      2.00000
     47      -4.2148      2.00000
     48      -4.1925      2.00000
     49      -4.1782      2.00000
     50      -4.1501      2.00000
     51      -4.0573      2.00000
     52      -4.0557      2.00000
     53      -4.0173      2.00000
     54      -3.9895      2.00000
     55      -3.9835      2.00000
     56      -3.9793      2.00000
     57      -3.9550      2.00000
     58      -3.9359      2.00000
     59      -3.8890      2.00000
     60      -3.8664      2.00000
[...]
    238       6.1472      0.00000
    239       6.2508      0.00000
    240       6.3605      0.00000
    241       6.3701      0.00000
    242       6.5265      0.00000
    243       6.5655      0.00000
    244       6.6023      0.00000
    245       6.6736      0.00000
    246       6.8465      0.00000
    247       6.8700      0.00000
    248       6.9320      0.00000
    249       7.0325      0.00000
    250       7.2298      0.00000
    251       7.3262      0.00000
    252       7.3830      0.00000

 soft charge-density along one line, spin component           1
         0         1         2         3         4         5         6         7         8         9
 total charge-density along one line

------------------------ aborting loop because EDIFF is reached ----------------------------------------

 total charge

# of ion       s       p       d       tot
    1        0.549   0.237   8.765   9.551
    2        0.542   0.241   8.765   9.548
    3        0.542   0.241   8.765   9.548
    4        0.542   0.241   8.765   9.548
    5        0.545   0.242   8.762   9.549
    6        0.542   0.241   8.765   9.548
    7        0.542   0.241   8.765   9.548
    8        0.542   0.241   8.765   9.548
    9        0.545   0.240   8.767   9.551
   10        0.524   0.306   8.768   9.597
   11        0.520   0.306   8.779   9.605
   12        0.524   0.306   8.768   9.597
   13        0.519   0.306   8.780   9.605
   14        0.519   0.306   8.780   9.605
   15        0.517   0.308   8.772   9.596
   16        0.524   0.306   8.768   9.597
   17        0.517   0.308   8.772   9.596
   18        0.517   0.308   8.772   9.596
   19        0.520   0.297   8.769   9.587
   20        0.563   0.332   8.733   9.627
   21        0.563   0.332   8.733   9.627
   22        0.511   0.305   8.775   9.592
   23        0.563   0.332   8.733   9.627
   24        0.511   0.305   8.775   9.592
   25        0.520   0.297   8.769   9.587
   26        0.520   0.297   8.769   9.587
   27        0.511   0.305   8.776   9.592
   28        0.541   0.229   8.754   9.525
   29        0.587   0.243   8.732   9.562
   30        0.587   0.243   8.732   9.562
   31        0.586   0.243   8.732   9.561
   32        0.586   0.243   8.732   9.561
   33        0.587   0.243   8.732   9.562
   34        0.587   0.243   8.732   9.562
   35        0.538   0.229   8.757   9.525
   36        0.409   0.455   2.204   3.068
   37        1.373   2.467   0.000   3.840
   38        1.373   2.467   0.000   3.840
tot         22.102  15.036 308.782 345.920

  FORCE on cell =-STRESS in cart. coord.  units (eV):
  Direction    XX          YY          ZZ          XY          YZ          ZX
  Alpha Z  1025.41490  1025.41490  1025.41490
  Ewald  112408.71648112091.30746************    -0.00033    -0.69126    -0.00017
  Hartree121012.51218120902.08961************     0.00000    -0.63856    -0.00005
  E(xc)   -1783.27156 -1784.51050 -1791.70453    -0.00000    -0.00011    -0.00000
  Local  ************************245036.69409     0.00242     1.33984     0.00008
  n-local   -77.04104   -64.44879   -36.09293     4.83759    -0.00401     0.17291
  augment  2370.23530  2369.92365  2388.87890    -0.00141    -0.00043     0.00001
  Kinetic  5539.95719  5558.01047  5619.28923     1.02546    -0.00933    -0.08968
  Fock        0.00000     0.00000     0.00000     0.00000     0.00000     0.00000
  Total     -23.30023   -23.27251     1.79545    -0.00000    -0.00387    -0.00000
  in kB     -25.00134   -24.97161     1.92654    -0.00000    -0.00415    -0.00000

 VOLUME and BASIS-vectors are now :
  energy-cutoff  :      500.00
  volume of cell :     1493.16
      direct lattice vectors                 reciprocal lattice vectors
     8.813512802  0.000000000  0.000000000     0.113462137 -0.065507406  0.000000000
     4.406756909  7.632725690  0.000000000     0.000000000  0.131014796  0.000000000
     0.000000000  0.000000000 22.196203232     0.000000000  0.000000000  0.045052750

  length of vectors
     8.813512802  8.813512802 22.196203232     0.131014796  0.131014796  0.045052750

 FORCES acting on ions
    electron-ion (+dipol)            ewald-force                    non-local-force                 convergence-correction
   -.200E-04 0.643E-02 0.245E+04   0.518E-04 -.387E-02 -.245E+04   -.664E-10 -.997E-03 -.568E+00   -.181E-03 -.185E-02 0.943E-01
   0.167E+00 -.315E+00 0.245E+04   -.846E-01 0.326E+00 -.245E+04   0.124E-01 0.724E-01 -.345E+00   -.961E-01 -.890E-01 0.613E-01
   -.167E+00 -.315E+00 0.245E+04   0.845E-01 0.326E+00 -.245E+04   -.124E-01 0.724E-01 -.345E+00   0.964E-01 -.871E-01 0.619E-01
   -.194E+00 0.301E+00 0.245E+04   0.243E+00 -.239E+00 -.245E+04   0.700E-01 -.260E-01 -.349E+00   -.124E+00 -.348E-01 0.623E-01
   0.724E-05 -.631E-02 0.245E+04   0.951E-04 -.102E-02 -.245E+04   -.419E-10 -.630E-03 -.989E-02   0.424E-02 0.822E-02 0.594E-01
   0.194E+00 0.301E+00 0.245E+04   -.243E+00 -.239E+00 -.245E+04   -.700E-01 -.260E-01 -.349E+00   0.122E+00 -.338E-01 0.631E-01
   -.361E+00 0.133E-01 0.245E+04   0.328E+00 -.868E-01 -.245E+04   0.568E-01 -.461E-01 -.345E+00   -.261E-01 0.123E+00 0.642E-01
   0.361E+00 0.133E-01 0.245E+04   -.328E+00 -.868E-01 -.245E+04   -.568E-01 -.461E-01 -.345E+00   0.280E-01 0.122E+00 0.644E-01
   0.199E-04 0.466E-03 0.245E+04   0.166E-03 0.491E-02 -.245E+04   0.844E-10 0.127E-02 -.313E+00   -.461E-02 -.649E-02 0.840E-01
   -.562E+00 -.302E+00 0.805E+03   0.926E+00 0.511E+00 -.805E+03   -.239E+00 -.137E+00 -.572E+00   -.130E+00 -.751E-01 -.139E+00
   0.138E-04 -.165E+01 0.804E+03   0.148E-03 0.187E+01 -.803E+03   -.209E-08 -.313E-01 -.160E+00   0.363E-02 -.234E+00 -.127E+00
   0.562E+00 -.302E+00 0.805E+03   -.926E+00 0.511E+00 -.805E+03   0.239E+00 -.137E+00 -.572E+00   0.129E+00 -.740E-01 -.140E+00
   -.145E+01 0.815E+00 0.804E+03   0.164E+01 -.936E+00 -.803E+03   -.266E-01 0.165E-01 -.162E+00   -.201E+00 0.127E+00 -.129E+00
   0.145E+01 0.815E+00 0.804E+03   -.164E+01 -.936E+00 -.803E+03   0.266E-01 0.165E-01 -.162E+00   0.208E+00 0.127E+00 -.130E+00
   0.323E-04 0.317E+01 0.809E+03   0.235E-03 -.318E+01 -.809E+03   -.446E-09 -.670E-02 -.456E+00   -.207E-02 -.176E-01 -.999E-01
   -.208E-04 0.644E+00 0.805E+03   0.162E-03 -.106E+01 -.805E+03   0.183E-07 0.275E+00 -.569E+00   0.351E-04 0.144E+00 -.142E+00
   0.276E+01 -.160E+01 0.809E+03   -.277E+01 0.161E+01 -.809E+03   -.472E-02 0.246E-02 -.449E+00   -.196E-01 0.446E-02 -.100E+00
   -.276E+01 -.160E+01 0.809E+03   0.277E+01 0.161E+01 -.809E+03   0.472E-02 0.246E-02 -.449E+00   0.197E-01 0.604E-02 -.100E+00
   -.423E-04 -.455E+01 -.844E+03   0.564E-04 0.459E+01 0.844E+03   -.181E-08 -.272E-01 0.548E+00   0.352E-02 -.931E-02 -.342E+00
   -.217E+02 -.124E+02 -.868E+03   0.229E+02 0.131E+02 0.869E+03   -.103E+01 -.591E+00 -.971E+00   -.173E+00 -.982E-01 -.306E+00
   0.217E+02 -.124E+02 -.868E+03   -.229E+02 0.131E+02 0.869E+03   0.103E+01 -.591E+00 -.971E+00   0.173E+00 -.972E-01 -.306E+00
   -.168E+02 0.954E+01 -.839E+03   0.167E+02 -.946E+01 0.839E+03   0.255E+00 -.150E+00 0.581E+00   -.135E+00 0.744E-01 -.320E+00
   -.822E-05 0.249E+02 -.868E+03   0.137E-03 -.263E+02 0.870E+03   0.789E-07 0.118E+01 -.971E+00   0.139E-03 0.196E+00 -.307E+00
   0.168E+02 0.954E+01 -.839E+03   -.167E+02 -.946E+01 0.839E+03   -.255E+00 -.150E+00 0.581E+00   0.134E+00 0.757E-01 -.320E+00
   0.403E+01 0.235E+01 -.844E+03   -.408E+01 -.238E+01 0.844E+03   0.266E-01 0.167E-01 0.539E+00   0.156E-01 0.106E-01 -.343E+00
   -.403E+01 0.235E+01 -.844E+03   0.408E+01 -.238E+01 0.844E+03   -.266E-01 0.167E-01 0.539E+00   -.846E-02 0.108E-01 -.342E+00
   0.798E-05 -.194E+02 -.839E+03   0.199E-03 0.192E+02 0.839E+03   0.196E-07 0.294E+00 0.579E+00   -.177E-02 -.156E+00 -.319E+00
   -.102E-04 0.790E+00 -.238E+04   0.275E-04 -.791E+00 0.238E+04   -.491E-10 -.737E-03 0.493E+00   0.303E-03 0.587E-03 -.184E+00
   -.109E+02 -.232E+02 -.238E+04   0.120E+02 0.251E+02 0.238E+04   -.114E+01 -.179E+01 -.364E+00   -.135E-01 -.104E+00 -.150E+00
   0.109E+02 -.232E+02 -.238E+04   -.120E+02 0.251E+02 0.238E+04   0.114E+01 -.179E+01 -.364E+00   0.132E-01 -.102E+00 -.149E+00
   -.257E+02 0.313E+01 -.237E+04   0.279E+02 -.307E+01 0.238E+04   -.211E+01 -.934E-01 -.315E+00   -.984E-01 0.426E-01 -.150E+00
   0.257E+02 0.313E+01 -.237E+04   -.279E+02 -.307E+01 0.238E+04   0.211E+01 -.934E-01 -.315E+00   0.981E-01 0.437E-01 -.150E+00
   -.159E+02 0.201E+02 -.238E+04   0.169E+02 -.220E+02 0.238E+04   -.979E+00 0.188E+01 -.364E+00   -.829E-01 0.610E-01 -.149E+00
   0.159E+02 0.201E+02 -.238E+04   -.169E+02 -.220E+02 0.238E+04   0.979E+00 0.188E+01 -.364E+00   0.847E-01 0.610E-01 -.149E+00
   0.326E-04 -.969E+00 -.238E+04   0.144E-03 0.976E+00 0.238E+04   0.734E-10 0.110E-02 0.605E+00   -.454E-02 -.706E-02 -.168E+00
   -.227E-04 0.902E-01 -.822E+03   0.413E-04 -.915E-01 0.820E+03   0.357E-10 0.536E-03 0.184E+01   0.273E-03 0.692E-03 -.450E-01
   0.237E+03 0.988E-01 -.890E+03   -.283E+03 -.101E+00 0.890E+03   0.457E+02 -.567E-04 -.257E+00   -.249E-02 0.234E-02 0.608E-01
   -.237E+03 0.988E-01 -.890E+03   0.283E+03 -.101E+00 0.890E+03   -.457E+02 -.567E-04 -.257E+00   0.464E-02 0.236E-02 0.608E-01
   -.709E-03 -.193E-01 0.109E+02   -.568E-13 0.195E-12 -.307E-11   0.281E-09 0.422E-02 -.573E+01   0.156E-01 0.172E-01 -.457E+01

 POSITION                                       TOTAL-FORCE (eV/Angst)
      0.00000      0.00000      5.28038        -0.000000     -0.000346     -0.150562
      2.93784      0.00000      5.28038        -0.001089     -0.004572     -0.068069
      5.87568      0.00000      5.28038         0.001089     -0.004572     -0.068069
      1.46892      2.54424      5.28038        -0.004251      0.001163     -0.068550
      4.40676      2.54424      5.28038         0.000000      0.000205     -0.062758
      7.34459      2.54424      5.28038         0.004251      0.001163     -0.068550
      2.93784      5.08848      5.28038        -0.003079      0.003200     -0.068558
      5.87568      5.08848      5.28038         0.003079      0.003200     -0.068558
      8.81351      5.08848      5.28038         0.000000      0.000097     -0.086361
      1.46892      0.84808      7.67911        -0.004239     -0.002212      0.080500
      4.40676      0.84808      7.67911        -0.000000     -0.042960      0.015319
      7.34459      0.84808      7.67911         0.004239     -0.002212      0.080500
      2.93784      3.39232      7.67911        -0.037764      0.021793      0.015016
      5.87568      3.39232      7.67911         0.037764      0.021793      0.015016
      8.81351      3.39232      7.67911        -0.000000     -0.036309      0.109814
      4.40676      5.93656      7.67911         0.000000      0.004872      0.080675
      7.34459      5.93656      7.67911        -0.031458      0.017754      0.110193
     10.28243      5.93656      7.67911         0.031458      0.017754      0.110193
      8.81351      1.69614     10.07331         0.000000      0.003241      0.007311
      2.94950      1.70289     10.06400        -0.002892     -0.001683     -0.010030
      5.86402      1.70289     10.06400         0.002892     -0.001683     -0.010030
     10.27143      4.24676     10.06599         0.005972     -0.003274      0.000241
      4.40676      4.22694     10.06400         0.000000      0.003604     -0.011376
      7.35560      4.24676     10.06599        -0.005972     -0.003274      0.000241
     11.75137      6.78466     10.07331        -0.002760     -0.001467      0.005219
      5.87566      6.78466     10.07331         0.002760     -0.001467      0.005219
      8.81351      6.77194     10.06599         0.000000      0.006695     -0.001149
      0.00000      0.00000     12.49013        -0.000000     -0.000572      0.004616
      2.98093      0.06833     12.52966         0.008837      0.004232      0.016363
      5.83259      0.06833     12.52966        -0.008837      0.004232      0.016363
      1.54964      2.54739     12.52966         0.009008      0.005098      0.015840
      7.26387      2.54739     12.52966        -0.009008      0.005098      0.015840
      2.97547      5.01700     12.52966        -0.000122     -0.009743      0.016042
      5.83804      5.01700     12.52966         0.000122     -0.009743      0.016042
      8.81351      5.08848     12.50181         0.000000      0.000348      0.015475
      4.40676      2.54424     12.25739        -0.000000     -0.000130     -0.009380
      3.84958      2.55717     16.08273         0.003239      0.000338     -0.000019
      4.96393      2.55717     16.08273        -0.003239      0.000338     -0.000019
    total drift:                                0.014850      0.002103      0.580894

  FREE ENERGIE OF THE ION-ELECTRON SYSTEM (eV)
  free  energy   TOTEN  =      -131.50589357 eV

  energy  without entropy=     -131.50589357  energy(sigma->0) =     -131.50589357

 stress matrix after NEB project (eV)
    -23.30023     -0.00000     -0.00000
     -0.00000    -23.27251     -0.00387
     -0.00000     -0.00387      1.79545
  FORCES: max atom, RMS     0.003257    0.000747
  FORCE total and by dimension    0.004606    0.003239
  Stress total and by dimension   32.980815   23.300226
|           W    W    AA    RRRRR   N    N  II  N    N   GGGG   !!!           |
|           W    W   A  A   R    R  NN   N  II  NN   N  G    G  !!!           |
|           W    W  A    A  R    R  N N  N  II  N N  N  G       !!!           |
|           W WW W  AAAAAA  RRRRR   N  N N  II  N  N N  G  GGG   !            |
|           WW  WW  A    A  R   R   N   NN  II  N   NN  G    G                |
|           W    W  A    A  R    R  N    N  II  N    N   GGGG   !!!           |
|     Tetrahedron method does not include variations of the Fermi             |
|     occupations, so forces and stress will be inaccurate. We suggest        |
|     using a different smearing scheme ISMEAR = 1 or 2 for metals in         |
|     relaxations.                                                            |

 total charge

# of ion       s       p       d       tot
    1        0.549   0.237   8.765   9.551
    2        0.542   0.241   8.765   9.548
    3        0.542   0.241   8.765   9.548
    4        0.542   0.241   8.765   9.548
    5        0.545   0.242   8.762   9.549
    6        0.542   0.241   8.765   9.548
    7        0.542   0.241   8.765   9.548
    8        0.542   0.241   8.765   9.548
    9        0.545   0.240   8.767   9.551
   10        0.524   0.306   8.768   9.597
   11        0.520   0.306   8.779   9.605
   12        0.524   0.306   8.768   9.597
   13        0.519   0.306   8.780   9.605
   14        0.519   0.306   8.780   9.605
   15        0.517   0.308   8.772   9.596
   16        0.524   0.306   8.768   9.597
   17        0.517   0.308   8.772   9.596
   18        0.517   0.308   8.772   9.596
   19        0.520   0.297   8.769   9.587
   20        0.563   0.332   8.733   9.627
   21        0.563   0.332   8.733   9.627
   22        0.511   0.305   8.775   9.592
   23        0.563   0.332   8.733   9.627
   24        0.511   0.305   8.775   9.592
   25        0.520   0.297   8.769   9.587
   26        0.520   0.297   8.769   9.587
   27        0.511   0.305   8.776   9.592
   28        0.541   0.229   8.754   9.525
   29        0.587   0.243   8.732   9.562
   30        0.587   0.243   8.732   9.562
   31        0.586   0.243   8.732   9.561
   32        0.586   0.243   8.732   9.561
   33        0.587   0.243   8.732   9.562
   34        0.587   0.243   8.732   9.562
   35        0.538   0.229   8.757   9.525
   36        0.409   0.455   2.204   3.068
   37        1.373   2.467   0.000   3.840
   38        1.373   2.467   0.000   3.840
tot         22.102  15.036 308.782 345.920

 BZINTS: Fermi energy:    0.823265;  399.000000 electrons
         Band energy:-0.122955E+04;  BLOECHL correction:   -0.028673