 vasp.6.2.0 18Jan21 (build Jun 12 2021 23:27:24) complex

 executed on             LinuxIFC date 2022.05.27  06:13:14

 INCAR:
   ISMEAR = -5
   SIGMA = 0.1
   ISPIN = 1
   EDIFF = 1.d-5
   EDIFFG = -0.01
   NSW = 0
   NELM = 150
   ENCUT = 500
   ISIF = 2
   IBRION = 2
   LREAL = Auto
   ALGO = Fast
   ICHARG = 11
   LORBIT = 10
   LCHARG = .F.
   LWAVE = .F.

 POTCAR:    PAW_PBE Cu 22Jun2005
 POTCAR:    PAW_PBE Pd 04Jan2005
 POTCAR:    PAW_PBE O 08Apr2002
 POTCAR:    PAW_PBE H 15Jun2001
|           W    W    AA    RRRRR   N    N  II  N    N   GGGG   !!!           |
|           W    W   A  A   R    R  NN   N  II  NN   N  G    G  !!!           |
|           W    W  A    A  R    R  N N  N  II  N N  N  G       !!!           |
|           W WW W  AAAAAA  RRRRR   N  N N  II  N  N N  G  GGG   !            |
|           WW  WW  A    A  R   R   N   NN  II  N   NN  G    G                |
|           W    W  A    A  R    R  N    N  II  N    N   GGGG   !!!           |
|     For optimal performance we recommend to set                             |
|       NCORE = 2 up to number-of-cores-per-socket                            |
|     This setting can greatly improve the performance of VASP for DFT.       |
|     The default, NCORE=1 might be grossly inefficient on modern             |
|     multi-core architectures or massively parallel machines. Do your        |
|     Unfortunately you need to use the default for GW and RPA                |
|     calculations (for HF NCORE is supported but not extensively tested      |
|     yet).                                                                   |

 POTCAR:    PAW_PBE Cu 22Jun2005
   VRHFIN =Cu: d10 p1

   TITEL  = PAW_PBE Cu 22Jun2005
   POMASS =   63.546; ZVAL   =   11.000    mass and valenz
   ENMAX  =  295.446; ENMIN  =  221.585 eV

 POTCAR:    PAW_PBE Pd 04Jan2005
   VRHFIN =Pd : s1 d9

   TITEL  = PAW_PBE Pd 04Jan2005
   POMASS =  106.420; ZVAL   =   10.000    mass and valenz
   ENMAX  =  250.925; ENMIN  =  188.194 eV

 POTCAR:    PAW_PBE O 08Apr2002
   VRHFIN =O: s2p4

   TITEL  = PAW_PBE O 08Apr2002
   POMASS =   16.000; ZVAL   =    6.000    mass and valenz
   ENMAX  =  400.000; ENMIN  =  300.000 eV

 POTCAR:    PAW_PBE H 15Jun2001
   VRHFIN =H: ultrasoft test

   TITEL  = PAW_PBE H 15Jun2001
   POMASS =    1.000; ZVAL   =    1.000    mass and valenz
   ENMAX  =  250.000; ENMIN  =  200.000 eV

 Optimization of the real space projectors (new method)

 maximal supplied QI-value         = 16.25
 optimisation between [QCUT,QGAM] = [ 11.38, 22.75] = [ 36.24,144.96] Ry
 Optimized for a Real-space Cutoff    1.52 Angstroem

   l    n(q)    QCUT    max X(q) W(low)/X(q) W(high)/X(q)  e(spline)
   2      9    11.376     4.610    0.21E-03    0.10E-03    0.26E-06
   2      9    11.376     8.522    0.33E-03    0.16E-03    0.37E-06
   0     10    11.376    51.609    0.62E-04    0.20E-04    0.13E-06
   0     10    11.376    27.747    0.54E-04    0.20E-04    0.13E-06
   1     10    11.376    20.408    0.13E-04    0.99E-04    0.19E-06
   1     10    11.376    13.425    0.12E-04    0.87E-04    0.17E-06
 Optimization of the real space projectors (new method)

[...]

   l    n(q)    QCUT    max X(q) W(low)/X(q) W(high)/X(q)  e(spline)
   0      7    11.387    20.381    0.39E-03    0.13E-02    0.15E-06
   0      7    11.387    15.268    0.42E-03    0.14E-02    0.17E-06
   1      6    11.387     5.964    0.41E-03    0.11E-02    0.17E-06
   1      6    11.387     5.382    0.39E-03    0.87E-03    0.15E-06
 Optimization of the real space projectors (new method)

 maximal supplied QI-value         = 34.20
 optimisation between [QCUT,QGAM] = [ 11.29, 22.57] = [ 35.68,142.71] Ry
 Optimized for a Real-space Cutoff    1.16 Angstroem

   l    n(q)    QCUT    max X(q) W(low)/X(q) W(high)/X(q)  e(spline)
   0      8    11.287    19.460    0.40E-03    0.73E-03    0.16E-06
   0      8    11.287    12.209    0.38E-03    0.70E-03    0.15E-06
   1      7    11.287     4.655    0.22E-03    0.25E-04    0.22E-06
  PAW_PBE Cu 22Jun2005                  :
  PAW_PBE Pd 04Jan2005                  :
  PAW_PBE O 08Apr2002                   :
  PAW_PBE H 15Jun2001                   :

 POSCAR: Cu-Pd-OH
  positions in direct lattice
  velocities in cartesian coordinates
 exchange correlation table for  LEXCH =        8
   RHO(1)=    0.500       N(1)  =     2000
   RHO(2)=  100.500       N(2)  =     4000

 VTST: version 3.2, (02/03/18)

 CHAIN: initializing optimizer

 OPT: Using VASP Conjugate-Gradient optimizer
 CHAIN: Read ICHAIN            0

 POSCAR: Cu-Pd-OH
  positions in direct lattice
  velocities in cartesian coordinates

 ion  position               nearest neighbor table
   1  0.000  0.000  0.252-   7 2.57   3 2.57   4 2.57   2 2.57   6 2.57   8 2.57  12 2.57  10 2.57
                            16 2.57
   2  0.333  0.000  0.252-   8 2.57   9 2.57   5 2.57   1 2.57   3 2.57  11 2.57   4 2.57  10 2.57
                            17 2.57
   3  0.667  0.000  0.252-   1 2.57   7 2.57   6 2.57   9 2.57   2 2.57  12 2.57   5 2.57  18 2.57
                            11 2.57
   4  0.000  0.333  0.252-   5 2.57   6 2.57   1 2.57   7 2.57   2 2.57  13 2.57   9 2.57  10 2.57
                            15 2.57
   5  0.333  0.333  0.252-   4 2.57   2 2.57   7 2.57  13 2.57   8 2.57   6 2.57   3 2.57  11 2.57
                            14 2.57
   6  0.667  0.333  0.252-   4 2.57   9 2.57  15 2.57   3 2.57   1 2.57   8 2.57  14 2.57   5 2.57
                            12 2.57
   7  0.000  0.667  0.252-   1 2.57   3 2.57  16 2.57  18 2.57   4 2.57   5 2.57   8 2.57   9 2.57
                            13 2.57
   8  0.333  0.667  0.252-   9 2.57   2 2.57  17 2.57   6 2.57   1 2.57   7 2.57   5 2.57  14 2.57
                            16 2.57
   9  0.667  0.667  0.252-   8 2.57   6 2.57   2 2.57  17 2.57   3 2.57   7 2.57   4 2.57  15 2.57
                            18 2.57
  10  0.111  0.111  0.351-  20 2.54  26 2.55  19 2.55  11 2.57  12 2.57  13 2.57   1 2.57   2 2.57
                             4 2.57  15 2.57  16 2.57  17 2.57
  11  0.444  0.111  0.351-  20 2.55  21 2.55  27 2.55  10 2.57  13 2.57   2 2.57  17 2.57  14 2.57
                            12 2.57   5 2.57   3 2.57  18 2.57
  12  0.778  0.111  0.351-  21 2.54  19 2.55  25 2.55  15 2.57  10 2.57  14 2.57  18 2.57   3 2.57
                             1 2.57  16 2.57  11 2.57   6 2.57
  13  0.111  0.444  0.351-  23 2.55  20 2.55  22 2.55  16 2.57  18 2.57  10 2.57  11 2.57  14 2.57
                             5 2.57   4 2.57   7 2.57  15 2.57
  14  0.444  0.444  0.351-  21 2.55  23 2.55  24 2.55  15 2.57  17 2.57  12 2.57  16 2.57  13 2.57
                            11 2.57   6 2.57   8 2.57   5 2.57
  15  0.778  0.444  0.351-  19 2.55  24 2.55  22 2.55  14 2.57  17 2.57  12 2.57   6 2.57  18 2.57
                            10 2.57   9 2.57  13 2.57   4 2.57
  16  0.111  0.778  0.351-  23 2.54  25 2.55  26 2.55  18 2.57  13 2.57   7 2.57  14 2.57  17 2.57
                            12 2.57  10 2.57   8 2.57   1 2.57
  17  0.444  0.778  0.351-  26 2.55  27 2.55  24 2.55  14 2.57  15 2.57   8 2.57   9 2.57  11 2.57
                            16 2.57  18 2.57  10 2.57   2 2.57
  18  0.778  0.778  0.351-  25 2.55  22 2.55  27 2.55  16 2.57  13 2.57   7 2.57  15 2.57  12 2.57
                            17 2.57   9 2.57   3 2.57  11 2.57
  19  0.889  0.222  0.448-  32 2.54  31 2.54  28 2.55  15 2.55  12 2.55  10 2.55  21 2.56  20 2.56
                            22 2.56  24 2.56  25 2.57  26 2.57
  20  0.222  0.222  0.448-  10 2.54  11 2.55  13 2.55  26 2.56  19 2.56  27 2.56  22 2.56  29 2.57
                            31 2.57  23 2.58  21 2.58  36 2.62
  21  0.557  0.222  0.448-  12 2.54  14 2.55  11 2.55  19 2.56  25 2.56  24 2.56  27 2.56  32 2.57
                            30 2.57  20 2.58  23 2.58  36 2.62
  22  0.889  0.555  0.449-  35 2.54  31 2.55  33 2.55  13 2.55  18 2.55  15 2.55  23 2.56  20 2.56
                            19 2.56  25 2.56  24 2.57  27 2.57
  23  0.222  0.557  0.448-  16 2.54  13 2.55  14 2.55  25 2.56  26 2.56  22 2.56  24 2.56  33 2.57
                            34 2.57  20 2.58  21 2.58  36 2.62
  24  0.555  0.555  0.449-  35 2.54  32 2.55  34 2.55  14 2.55  15 2.55  17 2.55  21 2.56  23 2.56
                            19 2.56  26 2.56  22 2.57  27 2.57
  25  0.889  0.889  0.448-  33 2.54  30 2.54  28 2.55  18 2.55  16 2.55  12 2.55  21 2.56  23 2.56
                            22 2.56  27 2.56  19 2.57  26 2.57
  26  0.222  0.889  0.448-  29 2.54  34 2.54  28 2.55  17 2.55  10 2.55  16 2.55  20 2.56  23 2.56
                            27 2.56  24 2.56  25 2.57  19 2.57
  27  0.555  0.889  0.449-  35 2.54  29 2.55  30 2.55  11 2.55  17 2.55  18 2.55  20 2.56  21 2.56
                            26 2.56  25 2.56  24 2.57  22 2.57
  28  0.000  0.000  0.545-  25 2.55  19 2.55  26 2.55  33 2.55  30 2.55  31 2.55  29 2.55  32 2.55
                            34 2.55
  29  0.333  0.996  0.546-  34 2.51  26 2.54  28 2.55  27 2.55  35 2.55  20 2.57  31 2.59  36 2.60
                            30 2.60
  30  0.671  0.996  0.546-  33 2.51  25 2.54  28 2.55  27 2.55  35 2.55  21 2.57  32 2.59  36 2.60
                            29 2.60
  31  0.996  0.333  0.546-  32 2.51  19 2.54  28 2.55  22 2.55  35 2.55  20 2.57  29 2.59  36 2.60
                            33 2.60
  32  0.671  0.333  0.546-  31 2.51  19 2.54  28 2.55  24 2.55  35 2.55  21 2.57  30 2.59  36 2.60
                            34 2.60
  33  0.996  0.671  0.546-  30 2.51  25 2.54  28 2.55  22 2.55  35 2.55  23 2.57  34 2.59  36 2.60
                            31 2.60
  34  0.333  0.671  0.546-  29 2.51  26 2.54  28 2.55  24 2.55  35 2.55  23 2.57  33 2.59  36 2.60
                            32 2.60
  35  0.667  0.667  0.546-  24 2.54  27 2.54  22 2.54  34 2.55  32 2.55  29 2.55  30 2.55  33 2.55
                            31 2.55
  36  0.333  0.333  0.549-  37 2.02  31 2.60  29 2.60  33 2.60  34 2.60  32 2.60  30 2.60  23 2.62
                            20 2.62  21 2.62
  37  0.333  0.333  0.644-  38 0.97  36 2.02
  38  0.333  0.333  0.690-  37 0.97

  LATTYP: Found a hexagonal cell.
 ALAT       =     7.6967864036
 C/A-ratio  =     2.7653617908

  Lattice vectors:

 A1 = (  -3.8483927580,  -6.6656128093,   0.0000000000)
 A2 = (   7.6967864037,   0.0000000000,   0.0000000000)
 A3 = (   0.0000000000,   0.0000000000,  21.2843990326)

Analysis of symmetry for initial positions (statically):
 Subroutine PRICEL returns:
 Original cell was already a primitive cell.

 Routine SETGRP: Setting up the symmetry group for a
 hexagonal supercell.

 Subroutine GETGRP returns: Found  6 space group operations
 (whereof  6 operations were pure point group operations)
 out of a pool of 24 trial point group operations.

The static configuration has the point symmetry C_3v.

Analysis of symmetry for dynamics (positions and initial velocities):
 Subroutine PRICEL returns:
 Original cell was already a primitive cell.

[...]

The dynamic configuration has the point symmetry C_3v.

Analysis of constrained symmetry for selective dynamics:
 Subroutine PRICEL returns:
 Original cell was already a primitive cell.

[...]
     33      -3.9296      2.00000
     34      -3.9088      2.00000
     35      -3.8922      2.00000
     36      -3.8336      2.00000
     37      -3.8048      2.00000
     38      -3.7328      2.00000
     39      -3.6233      2.00000
     40      -3.6070      2.00000
     41      -3.5928      2.00000
     42      -3.5685      2.00000
     43      -3.5373      2.00000
     44      -3.5184      2.00000
     45      -3.5005      2.00000
     46      -3.4921      2.00000
     47      -3.4788      2.00000
     48      -3.3162      2.00000
     49      -3.2937      2.00000
     50      -3.2780      2.00000
     51      -3.2665      2.00000
     52      -3.2398      2.00000
     53      -3.2264      2.00000
     54      -3.2041      2.00000
     55      -3.1988      2.00000
     56      -3.1779      2.00000
     57      -3.1711      2.00000
     58      -3.1685      2.00000
     59      -3.1378      2.00000
     60      -3.1266      2.00000
[...]
    238       6.2905      0.00000
    239       6.5334      0.00000
    240       6.6061      0.00000
    241       6.7794      0.00000
    242       6.9525      0.00000
    243       7.0756      0.00000
    244       7.0940      0.00000
    245       7.2665      0.00000
    246       7.3564      0.00000
    247       7.4241      0.00000
    248       7.4589      0.00000
    249       7.5564      0.00000
    250       7.7969      0.00000
    251       7.8918      0.00000
    252       8.0808      0.00000

 soft charge-density along one line, spin component           1
         0         1         2         3         4         5         6         7         8         9
 total charge-density along one line

------------------------ aborting loop because EDIFF is reached ----------------------------------------

 total charge

# of ion       s       p       d       tot
    1        0.445   0.286   9.187   9.918
    2        0.450   0.284   9.187   9.921
    3        0.450   0.284   9.187   9.921
    4        0.450   0.284   9.187   9.921
    5        0.446   0.287   9.187   9.919
    6        0.450   0.284   9.187   9.921
    7        0.450   0.284   9.187   9.921
    8        0.450   0.284   9.187   9.921
    9        0.445   0.286   9.187   9.918
   10        0.441   0.375   9.180   9.996
   11        0.444   0.369   9.183   9.996
   12        0.441   0.375   9.180   9.996
   13        0.444   0.369   9.183   9.996
   14        0.444   0.369   9.183   9.996
   15        0.439   0.372   9.182   9.993
   16        0.441   0.375   9.180   9.996
   17        0.439   0.372   9.182   9.993
   18        0.439   0.372   9.182   9.993
   19        0.443   0.378   9.180  10.002
   20        0.441   0.378   9.178   9.997
   21        0.441   0.378   9.178   9.997
   22        0.440   0.373   9.184   9.997
   23        0.441   0.378   9.178   9.997
   24        0.440   0.373   9.184   9.997
   25        0.443   0.378   9.180  10.002
   26        0.443   0.378   9.180  10.002
   27        0.440   0.373   9.184   9.997
   28        0.457   0.290   9.195   9.942
   29        0.443   0.287   9.200   9.930
   30        0.443   0.287   9.200   9.930
   31        0.443   0.287   9.200   9.930
   32        0.443   0.287   9.200   9.930
   33        0.443   0.287   9.200   9.930
   34        0.443   0.287   9.200   9.930
   35        0.452   0.294   9.191   9.937
   36        0.493   0.525   8.479   9.497
   37        1.544   3.495   0.000   5.039
   38        0.611   0.126   0.000   0.737
tot         18.195  15.748 330.009 363.952

  FORCE on cell =-STRESS in cart. coord.  units (eV):
  Direction    XX          YY          ZZ          XY          YZ          ZX
  Alpha Z   890.06504   890.06504   890.06504
  Ewald  173834.13334173834.13290************     0.00039     0.00012     0.00019
  Hartree187123.50489187123.50486************     0.00004     0.00006     0.00008
  E(xc)   -2333.30095 -2333.30059 -2336.56824    -0.00032    -0.00004    -0.00007
  Local  ************************374172.76125     0.01881    -0.00060    -0.00100
  n-local  -789.34021  -776.29030  -800.56199     7.77530    -0.03494     0.17423
  augment  3389.31472  3389.33483  3402.54852    -0.01741     0.00027     0.00044
  Kinetic  3415.57714  3418.67463  3409.75014     4.43829     1.76028    -1.14643
  Fock        0.00000     0.00000     0.00000     0.00000     0.00000     0.00000
  Total       0.26216     0.26216     5.23313    -0.00000    -0.00000     0.00000
  in kB       0.38465     0.38465     7.67822    -0.00000    -0.00000     0.00000

 VOLUME and BASIS-vectors are now :
  energy-cutoff  :      500.00
  volume of cell :     1091.97
      direct lattice vectors                 reciprocal lattice vectors
     7.696786404  0.000000000  0.000000000     0.129924354 -0.075011849  0.000000000
     3.848392758  6.665612809  0.000000000     0.000000000  0.150023716  0.000000000
     0.000000000  0.000000000 21.284399033     0.000000000  0.000000000  0.046982769

  length of vectors
     7.696786404  7.696786404 21.284399033     0.150023716  0.150023716  0.046982769

 FORCES acting on ions
    electron-ion (+dipol)            ewald-force                    non-local-force                 convergence-correction
   -.412E-04 0.389E-06 0.351E+04   0.579E-04 -.442E-05 -.351E+04   0.394E-17 -.373E-18 -.280E+01   -.259E-03 -.117E-03 -.131E+01
   -.259E+00 -.103E+00 0.351E+04   0.350E+00 0.202E+00 -.351E+04   -.249E-01 -.151E-01 -.201E+01   -.634E-01 -.728E-01 -.113E+01
   0.259E+00 -.103E+00 0.351E+04   -.350E+00 0.202E+00 -.351E+04   0.249E-01 -.151E-01 -.201E+01   0.642E-01 -.702E-01 -.113E+01
   -.219E+00 -.172E+00 0.351E+04   0.350E+00 0.203E+00 -.351E+04   -.255E-01 -.141E-01 -.201E+01   -.947E-01 -.186E-01 -.113E+01
   -.654E-04 -.543E-05 0.351E+04   0.116E-03 -.101E-04 -.351E+04   -.226E-17 0.519E-19 -.197E+01   0.122E-01 0.746E-02 -.990E+00
   0.219E+00 -.172E+00 0.351E+04   -.350E+00 0.202E+00 -.351E+04   0.255E-01 -.141E-01 -.201E+01   0.930E-01 -.173E-01 -.113E+01
   0.397E-01 0.276E+00 0.351E+04   -.474E-03 -.404E+00 -.351E+04   -.592E-03 0.291E-01 -.201E+01   -.287E-01 0.906E-01 -.113E+01
   -.396E-01 0.276E+00 0.351E+04   0.202E-03 -.404E+00 -.351E+04   0.592E-03 0.291E-01 -.201E+01   0.322E-01 0.892E-01 -.113E+01
   -.144E-03 -.328E-04 0.351E+04   0.263E-03 0.206E-04 -.351E+04   0.101E-17 -.879E-18 -.249E+01   -.133E-01 -.687E-02 -.119E+01
   -.169E+01 -.973E+00 0.122E+04   0.197E+01 0.114E+01 -.122E+04   -.257E+00 -.148E+00 -.897E+00   0.860E-02 0.495E-02 -.363E+00
   -.913E-04 -.248E+01 0.121E+04   0.191E-03 0.256E+01 -.121E+04   0.597E-08 -.897E-01 -.775E+00   0.113E-01 -.101E-01 -.116E+00
   0.169E+01 -.973E+00 0.122E+04   -.197E+01 0.114E+01 -.122E+04   0.257E+00 -.148E+00 -.897E+00   -.101E-01 0.691E-02 -.363E+00
   -.215E+01 0.124E+01 0.121E+04   0.222E+01 -.128E+01 -.121E+04   -.776E-01 0.448E-01 -.775E+00   -.264E-02 0.157E-01 -.116E+00
   0.215E+01 0.124E+01 0.121E+04   -.222E+01 -.128E+01 -.121E+04   0.776E-01 0.448E-01 -.775E+00   0.269E-01 0.151E-01 -.116E+00
   -.142E-03 -.162E+01 0.122E+04   0.298E-03 0.151E+01 -.122E+04   -.244E-08 0.367E-01 -.739E+00   -.380E-02 0.705E-01 -.427E+00
   -.918E-04 0.195E+01 0.122E+04   0.186E-03 -.227E+01 -.122E+04   -.197E-07 0.296E+00 -.897E+00   -.154E-04 -.134E-01 -.363E+00
   -.141E+01 0.812E+00 0.122E+04   0.131E+01 -.757E+00 -.122E+04   0.318E-01 -.183E-01 -.739E+00   0.598E-01 -.385E-01 -.427E+00
   0.141E+01 0.812E+00 0.122E+04   -.131E+01 -.757E+00 -.122E+04   -.318E-01 -.183E-01 -.739E+00   -.595E-01 -.360E-01 -.427E+00
   -.574E-04 -.944E+00 -.109E+04   0.678E-04 0.934E+00 0.109E+04   -.654E-08 0.982E-01 0.909E+00   0.953E-02 -.623E-01 0.653E+00
   -.222E+02 -.128E+02 -.112E+04   0.224E+02 0.130E+02 0.112E+04   -.427E+00 -.247E+00 -.346E+00   0.284E+00 0.164E+00 0.763E+00
   0.222E+02 -.128E+02 -.112E+04   -.224E+02 0.130E+02 0.112E+04   0.427E+00 -.247E+00 -.346E+00   -.262E+00 0.167E+00 0.763E+00
   -.913E+01 0.527E+01 -.110E+04   0.887E+01 -.512E+01 0.110E+04   0.186E+00 -.107E+00 0.958E+00   0.101E+00 -.617E-01 0.592E+00
   -.738E-04 0.256E+02 -.112E+04   0.148E-03 -.259E+02 0.112E+04   -.329E-07 0.494E+00 -.346E+00   0.119E-01 -.312E+00 0.763E+00
   0.913E+01 0.527E+01 -.110E+04   -.887E+01 -.512E+01 0.110E+04   -.186E+00 -.107E+00 0.958E+00   -.104E+00 -.610E-01 0.592E+00
   0.818E+00 0.472E+00 -.109E+04   -.809E+00 -.467E+00 0.109E+04   -.851E-01 -.491E-01 0.909E+00   0.718E-01 0.415E-01 0.653E+00
   -.818E+00 0.472E+00 -.109E+04   0.809E+00 -.467E+00 0.109E+04   0.851E-01 -.491E-01 0.909E+00   -.488E-01 0.396E-01 0.653E+00
   -.133E-03 -.105E+02 -.110E+04   0.246E-03 0.102E+02 0.110E+04   -.143E-07 0.214E+00 0.958E+00   -.282E-02 0.118E+00 0.592E+00
   -.191E-04 0.268E-04 -.342E+04   0.381E-04 -.338E-04 0.341E+04   0.280E-16 0.168E-18 0.205E+01   0.762E-04 0.959E-04 0.944E+00
   -.536E+01 -.781E+01 -.340E+04   0.464E+01 0.609E+01 0.339E+04   0.583E+00 0.133E+01 0.307E+01   0.862E-01 0.264E+00 0.866E+00
   0.536E+01 -.781E+01 -.340E+04   -.464E+01 0.609E+01 0.339E+04   -.583E+00 0.133E+01 0.307E+01   -.857E-01 0.267E+00 0.868E+00
   -.944E+01 -.739E+00 -.340E+04   0.759E+01 0.968E+00 0.339E+04   0.144E+01 -.161E+00 0.307E+01   0.272E+00 -.575E-01 0.866E+00
   0.944E+01 -.739E+00 -.340E+04   -.759E+01 0.968E+00 0.339E+04   -.144E+01 -.161E+00 0.307E+01   -.274E+00 -.560E-01 0.866E+00
   -.408E+01 0.854E+01 -.340E+04   0.296E+01 -.706E+01 0.339E+04   0.861E+00 -.117E+01 0.307E+01   0.188E+00 -.208E+00 0.868E+00
   0.408E+01 0.854E+01 -.340E+04   -.296E+01 -.706E+01 0.339E+04   -.861E+00 -.117E+01 0.307E+01   -.185E+00 -.209E+00 0.866E+00
   -.152E-03 -.248E-04 -.342E+04   0.259E-03 0.282E-05 0.341E+04   -.795E-19 0.110E-17 0.218E+01   -.135E-01 -.700E-02 0.959E+00
   -.362E-04 -.379E-04 -.295E+04   0.120E-03 0.255E-04 0.295E+04   0.747E-18 -.207E-17 0.152E+01   0.425E-02 0.257E-02 0.624E+00
   0.188E-03 -.804E-04 -.207E+04   0.108E-04 0.578E-05 0.205E+04   0.804E-18 -.101E-17 0.236E+02   0.326E-02 0.199E-02 -.175E+00
   0.499E-05 -.133E-04 -.376E+03   0.418E-06 0.387E-06 0.385E+03   0.932E-19 -.754E-19 -.824E+01   0.179E-03 0.109E-03 -.114E-01
   -.726E-04 -.129E-03 -.182E+02   0.127E-12 0.230E-12 0.921E-11   0.779E-15 0.442E-15 0.176E+02   0.895E-01 0.488E-01 0.579E+00

 POSITION                                       TOTAL-FORCE (eV/Angst)
      0.00000      0.00000      5.37156        -0.000000     -0.000000      0.098466
      2.56560      0.00000      5.37156         0.004005      0.011627      0.087511
      5.13119      0.00000      5.37156        -0.004005      0.011627      0.087511
      1.28280      2.22187      5.37156         0.012072     -0.002345      0.087511
      3.84839      2.22187      5.37156        -0.000000      0.000000      0.081912
      6.41399      2.22187      5.37156        -0.012072     -0.002345      0.087511
      2.56560      4.44374      5.37156         0.008066     -0.009282      0.087511
      5.13119      4.44374      5.37156        -0.008066     -0.009282      0.087511
      7.69679      4.44374      5.37156        -0.000000     -0.000000      0.077028
      1.28280      0.74062      7.46636         0.038286      0.022104     -0.081162
      3.84839      0.74062      7.46636         0.000000     -0.024761     -0.135051
      6.41399      0.74062      7.46636        -0.038286      0.022104     -0.081162
      2.56560      2.96249      7.46636        -0.021443      0.012380     -0.135051
      5.13119      2.96249      7.46636         0.021443      0.012380     -0.135051
      7.69679      2.96249      7.46636         0.000000     -0.001715     -0.072920
      3.84839      5.18437      7.46636         0.000000     -0.044209     -0.081162
      6.41399      5.18437      7.46636        -0.001486      0.000858     -0.072920
      8.97958      5.18437      7.46636         0.001486      0.000858     -0.072920
      7.69679      1.48223      9.53996        -0.000000      0.018859      0.023049
      2.55948      1.47772      9.53985         0.089200      0.051500     -0.029637
      5.13731      1.47772      9.53985        -0.089200      0.051500     -0.029637
      8.98047      3.70261      9.54732         0.027982     -0.016156     -0.001857
      3.84839      3.71018      9.53985         0.000000     -0.103000     -0.029637
      6.41310      3.70261      9.54732        -0.027982     -0.016156     -0.001857
     10.26153      5.92450      9.53996        -0.016332     -0.009429      0.023049
      5.13204      5.92450      9.53996         0.016332     -0.009429      0.023049
      7.69679      5.92601      9.54732        -0.000000      0.032311     -0.001857
      0.00000      0.00000     11.61018        -0.000000     -0.000000     -0.033148
      6.39795      6.64100     11.62214        -0.054754     -0.115180     -0.020670
      8.99562      6.64100     11.62214         0.054754     -0.115180     -0.020670
      8.95025      2.22029     11.62214        -0.127126      0.010172     -0.020670
      6.44333      2.22029     11.62214         0.127126      0.010172     -0.020670
     10.24908      4.46994     11.62214        -0.072372      0.105008     -0.020670
      5.14449      4.46994     11.62214         0.072372      0.105008     -0.020670
      7.69679      4.44374     11.61116        -0.000000     -0.000000      0.010224
      3.84839      2.22187     11.69545        -0.000000      0.000000      0.335879
      3.84839      2.22187     13.71344        -0.000000      0.000000     -0.085952
      3.84839      2.22187     14.68042        -0.000000      0.000000      0.007282
    total drift:                                0.089474      0.048666     -0.086931

  FREE ENERGIE OF THE ION-ELECTRON SYSTEM (eV)
  free  energy   TOTEN  =      -137.13672667 eV

  energy  without entropy=     -137.13672667  energy(sigma->0) =     -137.13672667

 stress matrix after NEB project (eV)
      0.26216     -0.00000      0.00000
     -0.00000      0.26216      0.00000
     -0.00000     -0.00000      5.23313
  FORCES: max atom, RMS     0.085952    0.013993
  FORCE total and by dimension    0.086259    0.085952
  Stress total and by dimension    5.246242    5.233125
|           W    W    AA    RRRRR   N    N  II  N    N   GGGG   !!!           |
|           W    W   A  A   R    R  NN   N  II  NN   N  G    G  !!!           |
|           W    W  A    A  R    R  N N  N  II  N N  N  G       !!!           |
|           W WW W  AAAAAA  RRRRR   N  N N  II  N  N N  G  GGG   !            |
|           WW  WW  A    A  R   R   N   NN  II  N   NN  G    G                |
|           W    W  A    A  R    R  N    N  II  N    N   GGGG   !!!           |
|     Tetrahedron method does not include variations of the Fermi             |
|     occupations, so forces and stress will be inaccurate. We suggest        |
|     using a different smearing scheme ISMEAR = 1 or 2 for metals in         |
|     relaxations.                                                            |

 total charge

# of ion       s       p       d       tot
    1        0.445   0.286   9.187   9.918
    2        0.450   0.284   9.187   9.921
    3        0.450   0.284   9.187   9.921
    4        0.450   0.284   9.187   9.921
    5        0.446   0.287   9.187   9.919
    6        0.450   0.284   9.187   9.921
    7        0.450   0.284   9.187   9.921
    8        0.450   0.284   9.187   9.921
    9        0.445   0.286   9.187   9.918
   10        0.441   0.375   9.180   9.996
   11        0.444   0.369   9.183   9.996
   12        0.441   0.375   9.180   9.996
   13        0.444   0.369   9.183   9.996
   14        0.444   0.369   9.183   9.996
   15        0.439   0.372   9.182   9.993
   16        0.441   0.375   9.180   9.996
   17        0.439   0.372   9.182   9.993
   18        0.439   0.372   9.182   9.993
   19        0.443   0.378   9.180  10.002
   20        0.441   0.378   9.178   9.997
   21        0.441   0.378   9.178   9.997
   22        0.440   0.373   9.184   9.997
   23        0.441   0.378   9.178   9.997
   24        0.440   0.373   9.184   9.997
   25        0.443   0.378   9.180  10.002
   26        0.443   0.378   9.180  10.002
   27        0.440   0.373   9.184   9.997
   28        0.457   0.290   9.195   9.942
   29        0.443   0.287   9.200   9.930
   30        0.443   0.287   9.200   9.930
   31        0.443   0.287   9.200   9.930
   32        0.443   0.287   9.200   9.930
   33        0.443   0.287   9.200   9.930
   34        0.443   0.287   9.200   9.930
   35        0.452   0.294   9.191   9.937
   36        0.493   0.525   8.479   9.497
   37        1.544   3.495   0.000   5.039
   38        0.611   0.126   0.000   0.737
tot         18.195  15.748 330.009 363.952

 BZINTS: Fermi energy:    0.154234;  402.000000 electrons
         Band energy:-0.109072E+04;  BLOECHL correction:   -0.053817