 vasp.6.2.0 18Jan21 (build Jun 12 2021 23:27:24) complex

 executed on             LinuxIFC date 2022.05.27  05:13:30

 INCAR:
   ISMEAR = -5
   SIGMA = 0.1
   ISPIN = 1
   EDIFF = 1.d-5
   EDIFFG = -0.01
   NSW = 0
   NELM = 150
   ENCUT = 500
   ISIF = 2
   IBRION = 2
   LREAL = Auto
   ALGO = Fast
   ICHARG = 11
   LORBIT = 10
   LCHARG = .F.
   LWAVE = .F.

 POTCAR:    PAW_PBE Au 04Oct2007
 POTCAR:    PAW_PBE Rh 04Feb2005
 POTCAR:    PAW_PBE N 08Apr2002
|           W    W    AA    RRRRR   N    N  II  N    N   GGGG   !!!           |
|           W    W   A  A   R    R  NN   N  II  NN   N  G    G  !!!           |
|           W    W  A    A  R    R  N N  N  II  N N  N  G       !!!           |
|           W WW W  AAAAAA  RRRRR   N  N N  II  N  N N  G  GGG   !            |
|           WW  WW  A    A  R   R   N   NN  II  N   NN  G    G                |
|           W    W  A    A  R    R  N    N  II  N    N   GGGG   !!!           |
|     For optimal performance we recommend to set                             |
|       NCORE = 2 up to number-of-cores-per-socket                            |
|     This setting can greatly improve the performance of VASP for DFT.       |
|     The default, NCORE=1 might be grossly inefficient on modern             |
|     multi-core architectures or massively parallel machines. Do your        |
|     Unfortunately you need to use the default for GW and RPA                |
|     calculations (for HF NCORE is supported but not extensively tested      |
|     yet).                                                                   |

 POTCAR:    PAW_PBE Au 04Oct2007
   VRHFIN =Au: s1d10

   TITEL  = PAW_PBE Au 04Oct2007
   POMASS =  196.966; ZVAL   =   11.000    mass and valenz
   ENMAX  =  229.943; ENMIN  =  172.457 eV

 POTCAR:    PAW_PBE Rh 04Feb2005
   VRHFIN =Rh: s1 d8

   TITEL  = PAW_PBE Rh 04Feb2005
   POMASS =  102.906; ZVAL   =    9.000    mass and valenz
   ENMAX  =  228.996; ENMIN  =  171.747 eV

 POTCAR:    PAW_PBE N 08Apr2002
   VRHFIN =N: s2p3

   TITEL  = PAW_PBE N 08Apr2002
   POMASS =   14.001; ZVAL   =    5.000    mass and valenz
   ENMAX  =  400.000; ENMIN  =  300.000 eV

 Optimization of the real space projectors (new method)

 maximal supplied QI-value         = 15.12
 optimisation between [QCUT,QGAM] = [ 11.34, 22.83] = [ 36.00,145.93] Ry
 Optimized for a Real-space Cutoff    1.39 Angstroem

   l    n(q)    QCUT    max X(q) W(low)/X(q) W(high)/X(q)  e(spline)
   2      9    11.338    60.898    0.39E-03    0.42E-03    0.21E-06
   2      9    11.338    58.894    0.40E-03    0.42E-03    0.22E-06
   0      9    11.338   109.617    0.13E-03    0.20E-04    0.13E-06
   0      9    11.338    75.026    0.13E-03    0.20E-04    0.13E-06
   1      9    11.338    16.344    0.33E-04    0.24E-03    0.18E-06
   1      9    11.338    10.160    0.26E-04    0.19E-03    0.15E-06
 Optimization of the real space projectors (new method)

[...]

   l    n(q)    QCUT    max X(q) W(low)/X(q) W(high)/X(q)  e(spline)
   2      9    11.327    59.645    0.31E-03    0.12E-04    0.28E-06
   2      9    11.327    58.460    0.31E-03    0.12E-04    0.29E-06
   0     10    11.327    97.683    0.32E-04    0.83E-04    0.31E-06
   0     10    11.327    53.223    0.30E-04    0.78E-04    0.29E-06
   1     10    11.327    13.596    0.49E-03    0.95E-03    0.55E-06
   1     10    11.327     7.885    0.36E-03    0.71E-03    0.41E-06
 Optimization of the real space projectors (new method)

 maximal supplied QI-value         = 25.13
 optimisation between [QCUT,QGAM] = [ 11.31, 22.87] = [ 35.82,146.48] Ry
 Optimized for a Real-space Cutoff    1.27 Angstroem

   l    n(q)    QCUT    max X(q) W(low)/X(q) W(high)/X(q)  e(spline)
   0      9    11.310    79.467    0.75E-04    0.16E-03    0.36E-06
   0      9    11.310    66.151    0.74E-04    0.16E-03    0.36E-06
   1      8    11.310    17.416    0.35E-03    0.12E-03    0.95E-06
   1      8    11.310    12.382    0.37E-03    0.13E-03    0.98E-06
  PAW_PBE Au 04Oct2007                  :
  PAW_PBE Rh 04Feb2005                  :
  PAW_PBE N 08Apr2002                   :

 POSCAR: Au-Rh-N2
  positions in direct lattice
  velocities in cartesian coordinates
 exchange correlation table for  LEXCH =        8
   RHO(1)=    0.500       N(1)  =     2000
   RHO(2)=  100.500       N(2)  =     4000

 VTST: version 3.2, (02/03/18)

 CHAIN: initializing optimizer

 OPT: Using VASP Conjugate-Gradient optimizer
 CHAIN: Read ICHAIN            0

 POSCAR: Au-Rh-N2
  positions in direct lattice
  velocities in cartesian coordinates

 ion  position               nearest neighbor table
   1  0.000  0.000  0.205-  16 2.94  12 2.94   6 2.94   8 2.94   7 2.94   3 2.94  10 2.94   4 2.94
                             2 2.94
   2  0.333  0.000  0.205-   9 2.94  11 2.94  17 2.94  10 2.94   8 2.94   4 2.94   5 2.94   1 2.94
                             3 2.94
   3  0.667  0.000  0.205-   7 2.94  18 2.94  12 2.94   1 2.94  11 2.94   5 2.94   6 2.94   9 2.94
                             2 2.94
   4  0.000  0.333  0.205-  10 2.94   6 2.94   5 2.94  13 2.94   2 2.94  15 2.94   9 2.94   1 2.94
                             7 2.94
   5  0.333  0.333  0.205-  13 2.94   7 2.94  11 2.94   4 2.94   2 2.94  14 2.94   3 2.94   8 2.94
                             6 2.94
   6  0.667  0.333  0.205-  15 2.94  14 2.94   1 2.94  12 2.94   4 2.94   9 2.94   8 2.94   3 2.94
                             5 2.94
   7  0.000  0.667  0.205-  18 2.94   3 2.94  16 2.94   5 2.94   1 2.94  13 2.94   8 2.94   4 2.94
                             9 2.94
   8  0.333  0.667  0.205-   9 2.94  17 2.94   1 2.94   2 2.94  14 2.94  16 2.94   6 2.94   7 2.94
                             5 2.94
   9  0.667  0.667  0.205-   2 2.94   8 2.94  17 2.94   6 2.94  15 2.94   4 2.94   3 2.94  18 2.94
                             7 2.94
  10  0.111  0.111  0.298-  20 2.91  26 2.93  19 2.93  11 2.94  17 2.94   2 2.94   4 2.94   1 2.94
                            12 2.94  16 2.94  13 2.94  15 2.94
  11  0.444  0.111  0.298-  20 2.91  21 2.91  27 2.93  13 2.94   2 2.94  10 2.94  17 2.94   5 2.94
                             3 2.94  18 2.94  14 2.94  12 2.94
  12  0.778  0.111  0.298-  21 2.91  25 2.93  19 2.93  16 2.94  18 2.94   1 2.94  14 2.94  15 2.94
                             3 2.94   6 2.94  10 2.94  11 2.94
  13  0.111  0.444  0.298-  23 2.91  20 2.91  22 2.93   5 2.94  18 2.94  11 2.94   7 2.94   4 2.94
                            16 2.94  10 2.94  14 2.94  15 2.94
  14  0.444  0.444  0.298-  21 2.91  23 2.91  24 2.93  15 2.94   6 2.94  12 2.94   8 2.94  17 2.94
                             5 2.94  16 2.94  13 2.94  11 2.94
  15  0.778  0.444  0.298-  24 2.93  22 2.93  19 2.93  14 2.94   6 2.94  17 2.94  12 2.94   9 2.94
                             4 2.94  10 2.94  13 2.94  18 2.94
  16  0.111  0.778  0.298-  23 2.91  25 2.93  26 2.93  18 2.94  12 2.94   7 2.94   1 2.94   8 2.94
                            13 2.94  10 2.94  14 2.94  17 2.94
  17  0.444  0.778  0.298-  27 2.93  24 2.93  26 2.93   9 2.94  15 2.94   2 2.94  10 2.94  11 2.94
                             8 2.94  14 2.94  16 2.94  18 2.94
  18  0.778  0.778  0.298-  22 2.93  27 2.93  25 2.93  16 2.94   7 2.94  13 2.94  12 2.94   3 2.94
                            11 2.94   9 2.94  15 2.94  17 2.94
  19  0.889  0.222  0.391-  15 2.93  10 2.93  12 2.93  21 2.94  20 2.94  24 2.94  22 2.94  26 2.94
                            25 2.94  28 2.96  32 2.96  31 2.96
  20  0.222  0.222  0.390-  36 2.79  10 2.91  11 2.91  13 2.91  26 2.94  19 2.94  23 2.94  21 2.94
                            27 2.94  22 2.94  29 2.95  31 2.95
  21  0.556  0.222  0.390-  36 2.79  12 2.91  14 2.91  11 2.91  25 2.94  19 2.94  20 2.94  23 2.94
                            27 2.94  24 2.94  30 2.95  32 2.95
  22  0.888  0.556  0.390-  24 2.92  27 2.92  18 2.93  15 2.93  13 2.93  25 2.94  19 2.94  23 2.94
                            20 2.94  33 2.95  31 2.95  35 2.96
  23  0.222  0.556  0.390-  36 2.79  16 2.91  13 2.91  14 2.91  25 2.94  26 2.94  20 2.94  21 2.94
                            22 2.94  24 2.94  33 2.95  34 2.95
  24  0.556  0.556  0.390-  27 2.92  22 2.92  15 2.93  17 2.93  14 2.93  26 2.94  19 2.94  21 2.94
                            23 2.94  32 2.95  34 2.95  35 2.96
  25  0.889  0.889  0.391-  18 2.93  16 2.93  12 2.93  23 2.94  21 2.94  22 2.94  27 2.94  19 2.94
                            26 2.94  28 2.96  33 2.96  30 2.96
  26  0.222  0.889  0.391-  17 2.93  10 2.93  16 2.93  20 2.94  23 2.94  27 2.94  24 2.94  19 2.94
                            25 2.94  28 2.96  29 2.96  34 2.96
  27  0.556  0.888  0.390-  24 2.92  22 2.92  17 2.93  18 2.93  11 2.93  26 2.94  25 2.94  20 2.94
                            21 2.94  29 2.95  30 2.95  35 2.96
  28  0.000  0.000  0.485-  34 2.95  32 2.95  33 2.95  30 2.95  31 2.95  29 2.95  25 2.96  19 2.96
                            26 2.96
  29  0.333  0.004  0.484-  31 2.90  30 2.90  36 2.91  20 2.95  27 2.95  28 2.95  35 2.96  26 2.96
                            34 3.01
  30  0.663  0.004  0.484-  32 2.90  29 2.90  36 2.91  21 2.95  27 2.95  28 2.95  35 2.96  25 2.96
                            33 3.01
  31  0.004  0.333  0.484-  29 2.90  33 2.90  36 2.91  20 2.95  22 2.95  28 2.95  35 2.96  19 2.96
                            32 3.01
  32  0.663  0.333  0.484-  30 2.90  34 2.90  36 2.91  21 2.95  24 2.95  28 2.95  35 2.96  19 2.96
                            31 3.01
  33  0.004  0.663  0.484-  34 2.90  31 2.90  36 2.91  23 2.95  22 2.95  28 2.95  35 2.96  25 2.96
                            30 3.01
  34  0.333  0.663  0.484-  33 2.90  32 2.90  36 2.91  23 2.95  24 2.95  28 2.95  35 2.96  26 2.96
                            29 3.01
  35  0.667  0.667  0.485-  29 2.96  34 2.96  32 2.96  31 2.96  30 2.96  33 2.96  24 2.96  27 2.96
                            22 2.96
  36  0.333  0.333  0.476-  20 2.79  23 2.79  21 2.79  33 2.91  31 2.91  29 2.91  30 2.91  34 2.91
                            32 2.91
  37  0.272  0.329  0.640-  38 1.11
  38  0.399  0.329  0.640-  37 1.11

  LATTYP: Found a hexagonal cell.
 ALAT       =     8.8135128021
 C/A-ratio  =     2.9256526968

  Lattice vectors:

 A1 = (  -4.4067569092,  -7.6327256898,   0.0000000000)
 A2 = (   8.8135128021,   0.0000000000,   0.0000000000)
 A3 = (   0.0000000000,   0.0000000000,  25.7852774973)

Analysis of symmetry for initial positions (statically):
 Subroutine PRICEL returns:
 Original cell was already a primitive cell.

 Routine SETGRP: Setting up the symmetry group for a
 hexagonal supercell.

 Subroutine GETGRP returns: Found  2 space group operations
 (whereof  2 operations were pure point group operations)
 out of a pool of 24 trial point group operations.

The static configuration has the point symmetry C_1h.

Analysis of symmetry for dynamics (positions and initial velocities):
 Subroutine PRICEL returns:
 Original cell was already a primitive cell.

[...]

The dynamic configuration has the point symmetry C_1h.

Analysis of constrained symmetry for selective dynamics:
 Subroutine PRICEL returns:
 Original cell was already a primitive cell.

 Routine SETGRP: Setting up the symmetry group for a
 hexagonal supercell.

[...]
     33      -5.4870      2.00000
     34      -5.4863      2.00000
     35      -5.4533      2.00000
     36      -5.4500      2.00000
     37      -5.4380      2.00000
     38      -5.3823      2.00000
     39      -5.2830      2.00000
     40      -5.2786      2.00000
     41      -5.2498      2.00000
     42      -5.2226      2.00000
     43      -5.1744      2.00000
     44      -5.1045      2.00000
     45      -5.0748      2.00000
     46      -5.0273      2.00000
     47      -5.0006      2.00000
     48      -4.9967      2.00000
     49      -4.9950      2.00000
     50      -4.9831      2.00000
     51      -4.8844      2.00000
     52      -4.8529      2.00000
     53      -4.8286      2.00000
     54      -4.8228      2.00000
     55      -4.8143      2.00000
     56      -4.8037      2.00000
     57      -4.7883      2.00000
     58      -4.7500      2.00000
     59      -4.7100      2.00000
     60      -4.6924      2.00000
[...]
    242       5.7313      0.00000
    243       5.7849      0.00000
    244       5.8016      0.00000
    245       5.9178      0.00000
    246       6.0739      0.00000
    247       6.1381      0.00000
    248       6.1546      0.00000
    249       6.2848      0.00000
    250       6.3669      0.00000
    251       6.4063      0.00000
    252       6.4458      0.00000
    253       6.4568      0.00000
    254       6.5208      0.00000
    255       6.5446      0.00000
    256       6.6258      0.00000

 soft charge-density along one line, spin component           1
         0         1         2         3         4         5         6         7         8         9
 total charge-density along one line

------------------------ aborting loop because EDIFF is reached ----------------------------------------

 total charge

# of ion       s       p       d       tot
    1        0.542   0.240   8.765   9.548
    2        0.546   0.240   8.764   9.550
    3        0.546   0.240   8.764   9.550
    4        0.546   0.240   8.764   9.550
    5        0.540   0.242   8.763   9.545
    6        0.546   0.240   8.764   9.550
    7        0.546   0.240   8.764   9.550
    8        0.546   0.240   8.764   9.550
    9        0.542   0.240   8.768   9.550
   10        0.521   0.310   8.767   9.598
   11        0.522   0.306   8.779   9.607
   12        0.521   0.310   8.767   9.598
   13        0.522   0.306   8.779   9.607
   14        0.522   0.306   8.779   9.607
   15        0.516   0.307   8.776   9.600
   16        0.521   0.310   8.767   9.598
   17        0.516   0.307   8.776   9.600
   18        0.516   0.307   8.776   9.600
   19        0.518   0.303   8.776   9.597
   20        0.533   0.322   8.759   9.613
   21        0.533   0.322   8.759   9.613
   22        0.510   0.307   8.776   9.592
   23        0.533   0.322   8.759   9.613
   24        0.510   0.307   8.776   9.592
   25        0.518   0.302   8.776   9.597
   26        0.518   0.302   8.776   9.597
   27        0.510   0.307   8.776   9.593
   28        0.539   0.230   8.768   9.537
   29        0.552   0.238   8.755   9.545
   30        0.552   0.238   8.755   9.545
   31        0.551   0.238   8.755   9.544
   32        0.551   0.238   8.755   9.544
   33        0.552   0.238   8.755   9.545
   34        0.552   0.238   8.755   9.545
   35        0.535   0.231   8.769   9.535
   36        0.332   0.261   7.410   8.003
   37        1.373   2.469   0.000   3.842
   38        1.373   2.469   0.000   3.842
tot         21.717  14.815 314.259 350.791

  FORCE on cell =-STRESS in cart. coord.  units (eV):
  Direction    XX          YY          ZZ          XY          YZ          ZX
  Alpha Z   887.58038   887.58038   887.58038
  Ewald  168946.19482168625.10565************    -0.00033     0.49301    -0.00016
  Hartree177232.34535177118.15225************     0.00000     0.43424    -0.00004
  E(xc)   -1811.07936 -1812.31950 -1819.67466    -0.00002    -0.00013    -0.00000
  Local  ************************358298.19920     0.00246    -0.93293     0.00005
  n-local   -88.04014   -75.50767   -52.20832     4.67019     0.00156     0.38005
  augment  2426.78376  2426.47706  2443.66500    -0.00143     0.00078     0.00004
  Kinetic  5633.96458  5652.04044  5708.40308     1.07613     0.00372     0.22104
  Fock        0.00000     0.00000     0.00000     0.00000     0.00000     0.00000
  Total     -22.52877   -22.52453     3.28819    -0.00000     0.00025     0.00000
  in kB     -20.80882   -20.80491     3.03716    -0.00000     0.00023     0.00000

 VOLUME and BASIS-vectors are now :
  energy-cutoff  :      500.00
  volume of cell :     1734.60
      direct lattice vectors                 reciprocal lattice vectors
     8.813512802  0.000000000  0.000000000     0.113462137 -0.065507406  0.000000000
     4.406756909  7.632725690  0.000000000     0.000000000  0.131014796  0.000000000
     0.000000000  0.000000000 25.785277497     0.000000000  0.000000000  0.038781820

  length of vectors
     8.813512802  8.813512802 25.785277497     0.131014796  0.131014796  0.038781820

 FORCES acting on ions
    electron-ion (+dipol)            ewald-force                    non-local-force                 convergence-correction
   -.200E-04 0.267E-02 0.276E+04   0.519E-04 -.262E-02 -.276E+04   -.261E-10 -.393E-03 -.860E+00   -.203E-03 0.146E-03 -.362E+00
   0.255E+00 0.313E+00 0.276E+04   -.231E+00 -.294E+00 -.276E+04   0.106E-01 -.106E-02 -.318E+00   -.333E-01 -.113E-01 -.369E+00
   -.255E+00 0.313E+00 0.276E+04   0.231E+00 -.294E+00 -.276E+04   -.106E-01 -.106E-02 -.318E+00   0.336E-01 -.931E-02 -.368E+00
   0.396E+00 0.589E-01 0.276E+04   -.368E+00 -.532E-01 -.276E+04   0.476E-02 0.955E-02 -.319E+00   -.267E-01 -.191E-01 -.367E+00
   0.714E-05 -.854E-02 0.276E+04   0.951E-04 0.124E-02 -.276E+04   -.453E-11 -.681E-04 -.312E+00   0.430E-02 0.751E-02 -.345E+00
   -.396E+00 0.589E-01 0.276E+04   0.368E+00 -.533E-01 -.276E+04   -.476E-02 0.955E-02 -.319E+00   0.252E-01 -.181E-01 -.366E+00
   0.142E+00 -.372E+00 0.276E+04   -.137E+00 0.347E+00 -.276E+04   -.608E-02 -.845E-02 -.317E+00   0.821E-02 0.297E-01 -.365E+00
   -.142E+00 -.372E+00 0.276E+04   0.137E+00 0.348E+00 -.276E+04   0.608E-02 -.845E-02 -.317E+00   -.631E-02 0.286E-01 -.364E+00
   0.195E-04 0.574E-02 0.276E+04   0.166E-03 0.141E-02 -.276E+04   0.390E-10 0.586E-03 -.459E+00   -.464E-02 -.774E-02 -.358E+00
   0.315E+01 0.183E+01 0.950E+03   -.282E+01 -.164E+01 -.950E+03   -.221E+00 -.128E+00 -.716E+00   -.630E-01 -.333E-01 0.143E+00
   0.135E-04 0.320E+01 0.953E+03   0.149E-03 -.324E+01 -.953E+03   -.267E-09 -.401E-02 -.427E+00   0.380E-02 0.998E-02 0.277E+00
   -.315E+01 0.183E+01 0.950E+03   0.282E+01 -.164E+01 -.950E+03   0.221E+00 -.128E+00 -.716E+00   0.616E-01 -.318E-01 0.142E+00
   0.276E+01 -.162E+01 0.953E+03   -.280E+01 0.163E+01 -.953E+03   -.357E-02 0.222E-02 -.428E+00   0.645E-02 0.472E-02 0.278E+00
   -.276E+01 -.162E+01 0.953E+03   0.280E+01 0.163E+01 -.953E+03   0.357E-02 0.222E-02 -.428E+00   0.138E-02 0.428E-02 0.278E+00
   0.311E-04 0.793E+00 0.950E+03   0.236E-03 -.827E+00 -.949E+03   0.694E-09 0.104E-01 -.453E+00   -.240E-02 0.844E-02 0.184E+00
   -.216E-04 -.363E+01 0.950E+03   0.162E-03 0.325E+01 -.950E+03   0.170E-07 0.255E+00 -.715E+00   0.294E-03 0.652E-01 0.141E+00
   0.704E+00 -.397E+00 0.950E+03   -.730E+00 0.419E+00 -.949E+03   0.916E-02 -.543E-02 -.450E+00   0.393E-02 -.107E-01 0.182E+00
   -.705E+00 -.397E+00 0.950E+03   0.730E+00 0.419E+00 -.949E+03   -.916E-02 -.543E-02 -.450E+00   -.397E-02 -.878E-02 0.182E+00
   -.407E-04 0.697E+00 -.883E+03   0.539E-04 -.786E+00 0.882E+03   -.128E-09 -.193E-02 0.499E+00   -.506E-03 0.869E-01 0.584E+00
   0.616E+01 0.358E+01 -.861E+03   -.599E+01 -.349E+01 0.860E+03   -.516E+00 -.297E+00 -.525E+00   0.346E+00 0.207E+00 0.112E+01
   -.616E+01 0.358E+01 -.861E+03   0.599E+01 -.349E+01 0.860E+03   0.516E+00 -.297E+00 -.525E+00   -.345E+00 0.209E+00 0.112E+01
   -.295E+00 0.594E-01 -.878E+03   -.210E+00 0.242E+00 0.876E+03   0.273E+00 -.159E+00 0.528E+00   0.200E+00 -.126E+00 0.641E+00
   -.132E-04 -.724E+01 -.861E+03   0.143E-03 0.704E+01 0.860E+03   0.395E-07 0.594E+00 -.525E+00   0.175E-02 -.405E+00 0.112E+01
   0.295E+00 0.594E-01 -.878E+03   0.210E+00 0.242E+00 0.876E+03   -.273E+00 -.159E+00 0.528E+00   -.207E+00 -.125E+00 0.641E+00
   -.591E+00 -.243E+00 -.883E+03   0.659E+00 0.284E+00 0.882E+03   0.359E-02 0.230E-02 0.496E+00   -.670E-01 -.409E-01 0.582E+00
   0.591E+00 -.243E+00 -.883E+03   -.659E+00 0.284E+00 0.882E+03   -.359E-02 0.230E-02 0.496E+00   0.689E-01 -.423E-01 0.583E+00
   0.677E-05 -.247E+00 -.878E+03   0.201E-03 -.331E+00 0.876E+03   0.210E-07 0.315E+00 0.528E+00   -.439E-02 0.230E+00 0.641E+00
   -.964E-05 0.819E+00 -.267E+04   0.272E-04 -.822E+00 0.267E+04   0.372E-13 0.558E-06 0.514E+00   0.159E-03 0.247E-02 0.631E+00
   0.339E+01 0.621E+01 -.266E+04   -.325E+01 -.610E+01 0.266E+04   -.446E+00 -.617E+00 0.283E+00   0.317E+00 0.528E+00 0.588E+00
   -.339E+01 0.621E+01 -.266E+04   0.325E+01 -.610E+01 0.266E+04   0.446E+00 -.617E+00 0.283E+00   -.317E+00 0.530E+00 0.589E+00
   0.658E+01 -.790E-02 -.266E+04   -.642E+01 0.688E-01 0.266E+04   -.755E+00 -.763E-01 0.310E+00   0.613E+00 0.156E-01 0.586E+00
   -.658E+01 -.787E-02 -.266E+04   0.642E+01 0.687E-01 0.266E+04   0.755E+00 -.763E-01 0.310E+00   -.614E+00 0.167E-01 0.585E+00
   0.266E+01 -.613E+01 -.266E+04   -.263E+01 0.596E+01 0.266E+04   -.314E+00 0.693E+00 0.283E+00   0.298E+00 -.544E+00 0.587E+00
   -.266E+01 -.613E+01 -.266E+04   0.263E+01 0.596E+01 0.266E+04   0.314E+00 0.693E+00 0.283E+00   -.296E+00 -.545E+00 0.586E+00
   0.296E-04 -.465E+00 -.267E+04   0.147E-03 0.475E+00 0.267E+04   0.310E-11 0.466E-04 0.613E+00   -.472E-02 -.984E-02 0.625E+00
   -.174E-04 -.362E+00 -.208E+04   0.917E-04 0.357E+00 0.208E+04   -.541E-10 -.812E-03 0.325E+01   0.298E-02 0.529E-02 0.652E+00
   0.240E+03 -.721E-01 -.107E+04   -.286E+03 0.713E-01 0.107E+04   0.456E+02 -.654E-03 -.200E-01   0.208E-01 0.521E-03 -.159E+00
   -.240E+03 -.721E-01 -.107E+04   0.286E+03 0.713E-01 0.107E+04   -.456E+02 -.654E-03 -.200E-01   -.208E-01 0.535E-03 -.159E+00
   -.602E-03 -.209E-02 -.100E+02   -.568E-13 0.534E-13 0.591E-11   -.130E-09 -.195E-02 -.735E+00   0.472E-03 0.195E-02 0.107E+02

 POSITION                                       TOTAL-FORCE (eV/Angst)
      0.00000      0.00000      5.28038        -0.000000     -0.000140     -0.046527
      2.93784      0.00000      5.28038         0.000457      0.007620     -0.084002
      5.87568      0.00000      5.28038        -0.000457      0.007620     -0.084002
      1.46892      2.54424      5.28038         0.006897     -0.003360     -0.084243
      4.40676      2.54424      5.28038         0.000000      0.000200     -0.114445
      7.34459      2.54424      5.28038        -0.006897     -0.003360     -0.084243
      2.93784      5.08848      5.28038         0.006441     -0.004082     -0.084221
      5.87568      5.08848      5.28038        -0.006441     -0.004082     -0.084221
      8.81351      5.08848      5.28038         0.000000      0.000058     -0.082131
      1.46892      0.84808      7.67911         0.054077      0.031501      0.089936
      4.40676      0.84808      7.67911        -0.000000     -0.040505      0.012731
      7.34459      0.84808      7.67911        -0.054077      0.031501      0.089936
      2.93784      3.39232      7.67911        -0.035382      0.020668      0.012543
      5.87568      3.39232      7.67911         0.035382      0.020668      0.012543
      8.81351      3.39232      7.67911        -0.000000     -0.014476      0.094204
      4.40676      5.93656      7.67911        -0.000000     -0.062730      0.089984
      7.34459      5.93656      7.67911        -0.012541      0.007041      0.094494
     10.28243      5.93656      7.67911         0.012541      0.007041      0.094494
      8.81351      1.69621     10.07295        -0.000000     -0.004778      0.032450
      2.93663      1.69546     10.04742         0.003570      0.002038      0.030056
      5.87688      1.69546     10.04742        -0.003570      0.002038      0.030056
     10.27557      4.24437     10.06760        -0.028856      0.016578     -0.034779
      4.40676      4.24180     10.04742        -0.000000     -0.004151      0.029801
      7.35146      4.24437     10.06760         0.028856      0.016578     -0.034779
     11.75131      6.78462     10.07295         0.004175      0.002551      0.031034
      5.87571      6.78462     10.07295        -0.004175      0.002551      0.031034
      8.81351      6.77672     10.06760        -0.000000     -0.033345     -0.035630
      0.00000      0.00000     12.49471        -0.000000     -0.000359      0.003248
      2.95476      0.03042     12.47845         0.012893      0.021006      0.003844
      5.85875      0.03042     12.47845        -0.012893      0.021006      0.003844
      1.50372      2.54369     12.47845         0.025061      0.000756      0.004263
      7.30979      2.54369     12.47845        -0.025061      0.000756      0.004263
      2.95572      5.05862     12.47845         0.012173     -0.021583      0.003963
      5.85780      5.05862     12.47845        -0.012173     -0.021583      0.003963
      8.81351      5.08848     12.49462         0.000000      0.000239      0.001706
      4.40676      2.54424     12.26123         0.000000      0.000347      0.042969
      3.84989      2.51061     16.50520         0.000362     -0.000913      0.002932
      4.96362      2.51061     16.50520        -0.000362     -0.000913      0.002932
    total drift:                               -0.000130     -0.002085     -0.064593

  FREE ENERGIE OF THE ION-ELECTRON SYSTEM (eV)
  free  energy   TOTEN  =      -129.70023507 eV

  energy  without entropy=     -129.70023507  energy(sigma->0) =     -129.70023507

 stress matrix after NEB project (eV)
    -22.52877     -0.00000      0.00000
     -0.00000    -22.52453      0.00025
      0.00000      0.00025      3.28819
  FORCES: max atom, RMS     0.003092    0.000709
  FORCE total and by dimension    0.004373    0.002932
  Stress total and by dimension   32.026737   22.528766
|           W    W    AA    RRRRR   N    N  II  N    N   GGGG   !!!           |
|           W    W   A  A   R    R  NN   N  II  NN   N  G    G  !!!           |
|           W    W  A    A  R    R  N N  N  II  N N  N  G       !!!           |
|           W WW W  AAAAAA  RRRRR   N  N N  II  N  N N  G  GGG   !            |
|           WW  WW  A    A  R   R   N   NN  II  N   NN  G    G                |
|           W    W  A    A  R    R  N    N  II  N    N   GGGG   !!!           |
|     Tetrahedron method does not include variations of the Fermi             |
|     occupations, so forces and stress will be inaccurate. We suggest        |
|     using a different smearing scheme ISMEAR = 1 or 2 for metals in         |
|     relaxations.                                                            |

 total charge

# of ion       s       p       d       tot
    1        0.542   0.240   8.765   9.548
    2        0.546   0.240   8.764   9.550
    3        0.546   0.240   8.764   9.550
    4        0.546   0.240   8.764   9.550
    5        0.540   0.242   8.763   9.545
    6        0.546   0.240   8.764   9.550
    7        0.546   0.240   8.764   9.550
    8        0.546   0.240   8.764   9.550
    9        0.542   0.240   8.768   9.550
   10        0.521   0.310   8.767   9.598
   11        0.522   0.306   8.779   9.607
   12        0.521   0.310   8.767   9.598
   13        0.522   0.306   8.779   9.607
   14        0.522   0.306   8.779   9.607
   15        0.516   0.307   8.776   9.600
   16        0.521   0.310   8.767   9.598
   17        0.516   0.307   8.776   9.600
   18        0.516   0.307   8.776   9.600
   19        0.518   0.303   8.776   9.597
   20        0.533   0.322   8.759   9.613
   21        0.533   0.322   8.759   9.613
   22        0.510   0.307   8.776   9.592
   23        0.533   0.322   8.759   9.613
   24        0.510   0.307   8.776   9.592
   25        0.518   0.302   8.776   9.597
   26        0.518   0.302   8.776   9.597
   27        0.510   0.307   8.776   9.593
   28        0.539   0.230   8.768   9.537
   29        0.552   0.238   8.755   9.545
   30        0.552   0.238   8.755   9.545
   31        0.551   0.238   8.755   9.544
   32        0.551   0.238   8.755   9.544
   33        0.552   0.238   8.755   9.545
   34        0.552   0.238   8.755   9.545
   35        0.535   0.231   8.769   9.535
   36        0.332   0.261   7.410   8.003
   37        1.373   2.469   0.000   3.842
   38        1.373   2.469   0.000   3.842
tot         21.717  14.815 314.259 350.791

 BZINTS: Fermi energy:   -0.050423;  404.000000 electrons
         Band energy:-0.155387E+04;  BLOECHL correction:   -0.095761