 vasp.6.2.0 18Jan21 (build Jun 12 2021 23:27:24) complex

 executed on             LinuxIFC date 2022.05.26  19:51:17

 INCAR:
   ISMEAR = -5
   SIGMA = 0.1
   ISPIN = 1
   EDIFF = 1.d-5
   EDIFFG = -0.01
   NSW = 0
   NELM = 150
   ENCUT = 500
   ISIF = 2
   IBRION = 2
   LREAL = Auto
   ALGO = Fast
   ICHARG = 11
   LORBIT = 10
   LCHARG = .F.
   LWAVE = .F.

 POTCAR:    PAW_PBE Ag 02Apr2005
 POTCAR:    PAW_PBE Ta 17Jan2003
 POTCAR:    PAW_PBE H 15Jun2001
|           W    W    AA    RRRRR   N    N  II  N    N   GGGG   !!!           |
|           W    W   A  A   R    R  NN   N  II  NN   N  G    G  !!!           |
|           W    W  A    A  R    R  N N  N  II  N N  N  G       !!!           |
|           W WW W  AAAAAA  RRRRR   N  N N  II  N  N N  G  GGG   !            |
|           WW  WW  A    A  R   R   N   NN  II  N   NN  G    G                |
|           W    W  A    A  R    R  N    N  II  N    N   GGGG   !!!           |
|     For optimal performance we recommend to set                             |
|       NCORE = 2 up to number-of-cores-per-socket                            |
|     This setting can greatly improve the performance of VASP for DFT.       |
|     The default, NCORE=1 might be grossly inefficient on modern             |
|     multi-core architectures or massively parallel machines. Do your        |
|     Unfortunately you need to use the default for GW and RPA                |
|     calculations (for HF NCORE is supported but not extensively tested      |
|     yet).                                                                   |

 POTCAR:    PAW_PBE Ag 02Apr2005
   VRHFIN =Ag : s1 d10

   TITEL  = PAW_PBE Ag 02Apr2005
   POMASS =  107.868; ZVAL   =   11.000    mass and valenz
   ENMAX  =  249.844; ENMIN  =  187.383 eV

 POTCAR:    PAW_PBE Ta 17Jan2003
   VRHFIN =Ta:  6s5d

   TITEL  = PAW_PBE Ta 17Jan2003
   POMASS =  180.948; ZVAL   =    5.000    mass and valenz
   ENMAX  =  223.667; ENMIN  =  167.750 eV

 POTCAR:    PAW_PBE H 15Jun2001
   VRHFIN =H: ultrasoft test

   TITEL  = PAW_PBE H 15Jun2001
   POMASS =    1.000; ZVAL   =    1.000    mass and valenz
   ENMAX  =  250.000; ENMIN  =  200.000 eV

 Optimization of the real space projectors (new method)

 maximal supplied QI-value         = 15.12
 optimisation between [QCUT,QGAM] = [ 11.34, 22.83] = [ 36.00,145.93] Ry
 Optimized for a Real-space Cutoff    1.43 Angstroem

   l    n(q)    QCUT    max X(q) W(low)/X(q) W(high)/X(q)  e(spline)
   2      9    11.338    53.897    0.16E-03    0.20E-03    0.28E-06
   2      9    11.338    52.416    0.16E-03    0.20E-03    0.29E-06
   0     10    11.338   122.045    0.31E-04    0.76E-04    0.15E-06
   0     10    11.338    73.629    0.30E-04    0.72E-04    0.15E-06
   1      9    11.338    15.255    0.20E-03    0.19E-04    0.17E-06
   1      9    11.338     9.562    0.16E-03    0.15E-04    0.14E-06
 Optimization of the real space projectors (new method)

[...]

   l    n(q)    QCUT    max X(q) W(low)/X(q) W(high)/X(q)  e(spline)
   2     10    11.437    62.315    0.14E-03    0.26E-03    0.80E-06
   2     10    11.437    52.185    0.14E-03    0.26E-03    0.80E-06
   0     11    11.437   103.837    0.25E-04    0.17E-04    0.84E-07
   0     11    11.437    59.728    0.20E-04    0.15E-04    0.73E-07
   1     11    11.437    13.958    0.47E-03    0.12E-03    0.89E-06
   1     11    11.437     8.441    0.33E-03    0.88E-04    0.61E-06
 Optimization of the real space projectors (new method)

 maximal supplied QI-value         = 34.20
 optimisation between [QCUT,QGAM] = [ 11.29, 22.57] = [ 35.68,142.71] Ry
 Optimized for a Real-space Cutoff    1.16 Angstroem

   l    n(q)    QCUT    max X(q) W(low)/X(q) W(high)/X(q)  e(spline)
   0      8    11.287    19.460    0.40E-03    0.73E-03    0.16E-06
   0      8    11.287    12.209    0.38E-03    0.70E-03    0.15E-06
   1      7    11.287     4.655    0.22E-03    0.25E-04    0.22E-06
  PAW_PBE Ag 02Apr2005                  :
  PAW_PBE Ta 17Jan2003                  :
  PAW_PBE H 15Jun2001                   :

 POSCAR: Ag-Ta-H
  positions in direct lattice
  velocities in cartesian coordinates
 exchange correlation table for  LEXCH =        8
   RHO(1)=    0.500       N(1)  =     2000
   RHO(2)=  100.500       N(2)  =     4000

 VTST: version 3.2, (02/03/18)

 CHAIN: initializing optimizer

 OPT: Using VASP Conjugate-Gradient optimizer
 CHAIN: Read ICHAIN            0

 POSCAR: Ag-Ta-H
  positions in direct lattice
  velocities in cartesian coordinates

 ion  position               nearest neighbor table
   1  0.000  0.000  0.238-   2 2.93   8 2.93   7 2.93   6 2.93   4 2.93  12 2.93  16 2.93  10 2.93
                             3 2.93
   2  0.333  0.000  0.238-   1 2.93   8 2.93   9 2.93   3 2.93   4 2.93   5 2.93  10 2.93  17 2.93
                            11 2.93
   3  0.667  0.000  0.238-   9 2.93   2 2.93   5 2.93  11 2.93   7 2.93  18 2.93   1 2.93   6 2.93
                            12 2.93
   4  0.000  0.333  0.238-   5 2.93   6 2.93   2 2.93   1 2.93   7 2.93  13 2.93  15 2.93   9 2.93
                            10 2.93
   5  0.333  0.333  0.238-   4 2.93   3 2.93   7 2.93   2 2.93   8 2.93  14 2.93  13 2.93  11 2.93
                             6 2.93
   6  0.667  0.333  0.238-   4 2.93   9 2.93   1 2.93  15 2.93   8 2.93  12 2.93   3 2.93   5 2.93
                            14 2.93
   7  0.000  0.667  0.238-   8 2.93   1 2.93   5 2.93   3 2.93   4 2.93  16 2.93  18 2.93  13 2.93
                             9 2.93
   8  0.333  0.667  0.238-   7 2.93   1 2.93   2 2.93   9 2.93   5 2.93  16 2.93   6 2.93  17 2.93
                            14 2.93
   9  0.667  0.667  0.238-   3 2.93   2 2.93   8 2.93   6 2.93  17 2.93   4 2.93  15 2.93   7 2.93
                            18 2.93
  10  0.111  0.111  0.346-  20 2.89  12 2.93  16 2.93  15 2.93  17 2.93  13 2.93  11 2.93   2 2.93
                             1 2.93   4 2.93  19 2.93  26 2.93
  11  0.444  0.111  0.346-  21 2.90  20 2.90  14 2.93  17 2.93  18 2.93   3 2.93  12 2.93  13 2.93
                            10 2.93   5 2.93   2 2.93  27 2.93
  12  0.778  0.111  0.346-  21 2.89  10 2.93  16 2.93  18 2.93  15 2.93  11 2.93   1 2.93  14 2.93
                             6 2.93   3 2.93  25 2.93  19 2.93
  13  0.111  0.444  0.346-  20 2.90  23 2.90  15 2.93  14 2.93  18 2.93  10 2.93  11 2.93  16 2.93
                             4 2.93   5 2.93   7 2.93  22 2.93
  14  0.444  0.444  0.346-  23 2.90  21 2.90  13 2.93  11 2.93  16 2.93   5 2.93  12 2.93  17 2.93
                             8 2.93  15 2.93   6 2.93  24 2.93
  15  0.778  0.444  0.346-  19 2.93  24 2.93  22 2.93  13 2.93  10 2.93  12 2.93  17 2.93  18 2.93
                             4 2.93   6 2.93   9 2.93  14 2.93
  16  0.111  0.778  0.346-  23 2.89  18 2.93  12 2.93  10 2.93  14 2.93  17 2.93  13 2.93   7 2.93
                             8 2.93   1 2.93  26 2.93  25 2.93
  17  0.444  0.778  0.346-  26 2.93  27 2.93  24 2.93  11 2.93  10 2.93   9 2.93  18 2.93  15 2.93
                            16 2.93   2 2.93  14 2.93   8 2.93
  18  0.778  0.778  0.346-  25 2.93  22 2.93  27 2.93  16 2.93  12 2.93  13 2.93  11 2.93  17 2.93
                            15 2.93   7 2.93   3 2.93   9 2.93
  19  0.889  0.223  0.454-  20 2.92  21 2.92  24 2.93  22 2.93  28 2.93  15 2.93  10 2.93  12 2.93
                            26 2.94  25 2.94  32 2.99  31 2.99
  20  0.222  0.222  0.452-  36 2.78  10 2.89  13 2.90  11 2.90  19 2.92  26 2.92  27 2.93  22 2.93
                            21 2.95  23 2.95  31 2.97  29 2.97
  21  0.557  0.222  0.452-  36 2.78  12 2.89  11 2.90  14 2.90  25 2.92  19 2.92  27 2.93  24 2.93
                            20 2.95  23 2.95  30 2.97  32 2.97
  22  0.888  0.556  0.454-  24 2.92  27 2.92  25 2.93  19 2.93  18 2.93  15 2.93  13 2.93  23 2.93
                            20 2.93  35 2.94  33 2.96  31 2.96
  23  0.222  0.557  0.452-  36 2.78  16 2.89  14 2.90  13 2.90  26 2.92  25 2.92  22 2.93  24 2.93
                            21 2.95  20 2.95  34 2.97  33 2.97
  24  0.556  0.556  0.454-  27 2.92  22 2.92  19 2.93  26 2.93  15 2.93  17 2.93  14 2.93  23 2.93
                            21 2.93  35 2.94  32 2.96  34 2.96
  25  0.889  0.889  0.454-  23 2.92  21 2.92  22 2.93  27 2.93  28 2.93  18 2.93  16 2.93  12 2.93
                            26 2.94  19 2.94  33 2.99  30 2.99
  26  0.223  0.889  0.454-  23 2.92  20 2.92  27 2.93  24 2.93  28 2.93  17 2.93  16 2.93  10 2.93
                            25 2.94  19 2.94  34 2.99  29 2.99
  27  0.556  0.888  0.454-  24 2.92  22 2.92  26 2.93  25 2.93  17 2.93  18 2.93  11 2.93  20 2.93
                            21 2.93  35 2.94  29 2.96  30 2.96
  28  0.000  0.000  0.562-  26 2.93  25 2.93  19 2.93  29 2.96  34 2.96  33 2.96  32 2.96  31 2.96
                            30 2.96
  29  0.334  0.006  0.564-  30 2.88  31 2.88  36 2.89  35 2.96  28 2.96  27 2.96  20 2.97  26 2.99
                            34 3.03
  30  0.661  0.006  0.564-  29 2.88  32 2.88  36 2.89  35 2.96  28 2.96  27 2.96  21 2.97  25 2.99
                            33 3.03
  31  0.006  0.334  0.564-  33 2.88  29 2.88  36 2.89  35 2.96  28 2.96  22 2.96  20 2.97  19 2.99
                            32 3.03
  32  0.661  0.334  0.564-  34 2.88  30 2.88  36 2.89  35 2.96  28 2.96  24 2.96  21 2.97  19 2.99
                            31 3.03
  33  0.006  0.661  0.564-  31 2.88  34 2.88  36 2.89  35 2.96  28 2.96  22 2.96  23 2.97  25 2.99
                            30 3.03
  34  0.334  0.661  0.564-  32 2.88  33 2.88  36 2.89  35 2.96  28 2.96  24 2.96  23 2.97  26 2.99
                            29 3.03
  35  0.667  0.667  0.562-  24 2.94  27 2.94  22 2.94  30 2.96  32 2.96  29 2.96  34 2.96  31 2.96
                            33 2.96
  36  0.333  0.333  0.551-  37 1.78  21 2.78  20 2.78  23 2.78  31 2.89  33 2.89  30 2.89  29 2.89
                            34 2.89  32 2.89
  37  0.333  0.333  0.631-  36 1.78

  LATTYP: Found a hexagonal cell.
 ALAT       =     8.7913665772
 C/A-ratio  =     2.5227160501

  Lattice vectors:

 A1 = (  -4.3956832886,  -7.6135467898,   0.0000000000)
 A2 = (   8.7913665771,   0.0000000000,   0.0000000000)
 A3 = (   0.0000000000,   0.0000000000,  22.1781215668)

Analysis of symmetry for initial positions (statically):
 Subroutine PRICEL returns:
 Original cell was already a primitive cell.

 Routine SETGRP: Setting up the symmetry group for a
 hexagonal supercell.

 Subroutine GETGRP returns: Found  6 space group operations
 (whereof  6 operations were pure point group operations)
 out of a pool of 24 trial point group operations.

The static configuration has the point symmetry C_3v.

Analysis of symmetry for dynamics (positions and initial velocities):
 Subroutine PRICEL returns:
 Original cell was already a primitive cell.

[...]

The dynamic configuration has the point symmetry C_3v.

Analysis of constrained symmetry for selective dynamics:
 Subroutine PRICEL returns:
 Original cell was already a primitive cell.

 Routine SETGRP: Setting up the symmetry group for a
 hexagonal supercell.

 Subroutine GETGRP returns: Found  6 space group operations
 (whereof  6 operations were pure point group operations)
[...]
     24      -4.7170      2.00000
     25      -4.7042      2.00000
     26      -4.6962      2.00000
     27      -4.6662      2.00000
     28      -4.6595      2.00000
     29      -4.6569      2.00000
     30      -4.6352      2.00000
     31      -4.6178      2.00000
     32      -4.5877      2.00000
     33      -4.5793      2.00000
     34      -4.5504      2.00000
     35      -4.5273      2.00000
     36      -4.5034      2.00000
     37      -4.4670      2.00000
     38      -4.4393      2.00000
     39      -4.4364      2.00000
     40      -4.4206      2.00000
     41      -4.4141      2.00000
     42      -4.3960      2.00000
     43      -4.3211      2.00000
     44      -4.2982      2.00000
     45      -4.2735      2.00000
     46      -4.2715      2.00000
     47      -4.2640      2.00000
     48      -4.2516      2.00000
     49      -4.2497      2.00000
     50      -4.2480      2.00000
     51      -4.2307      2.00000
     52      -4.2282      2.00000
     53      -4.1706      2.00000
     54      -4.1587      2.00000
     55      -4.1487      2.00000
     56      -4.1282      2.00000
     57      -4.1156      2.00000
     58      -4.0965      2.00000
     59      -4.0884      2.00000
     60      -4.0561      2.00000
[...]
    238       7.1595      0.00000
    239       7.2158      0.00000
    240       7.2218      0.00000
    241       7.2767      0.00000
    242       7.2860      0.00000
    243       7.3226      0.00000
    244       7.3791      0.00000
    245       7.4964      0.00000
    246       7.5519      0.00000
    247       7.5929      0.00000
    248       7.6656      0.00000
    249       7.7083      0.00000
    250       7.9000      0.00000
    251       7.9503      0.00000
    252       8.1043      0.00000

 soft charge-density along one line, spin component           1
         0         1         2         3         4         5         6         7         8         9
 total charge-density along one line

------------------------ aborting loop because EDIFF is reached ----------------------------------------

 total charge

# of ion       s       p       d       tot
    1        0.424   0.199   9.179   9.802
    2        0.414   0.204   9.178   9.796
    3        0.414   0.204   9.178   9.796
    4        0.414   0.204   9.178   9.796
    5        0.420   0.201   9.176   9.797
    6        0.414   0.204   9.178   9.796
    7        0.414   0.204   9.178   9.796
    8        0.414   0.204   9.178   9.796
    9        0.418   0.203   9.177   9.797
   10        0.412   0.269   9.162   9.843
   11        0.404   0.270   9.169   9.843
   12        0.412   0.269   9.162   9.843
   13        0.404   0.270   9.169   9.843
   14        0.404   0.270   9.169   9.843
   15        0.404   0.267   9.166   9.837
   16        0.412   0.269   9.162   9.843
   17        0.404   0.267   9.166   9.837
   18        0.404   0.267   9.166   9.837
   19        0.401   0.262   9.167   9.831
   20        0.451   0.305   9.129   9.885
   21        0.451   0.305   9.129   9.885
   22        0.393   0.272   9.165   9.830
   23        0.451   0.305   9.129   9.885
   24        0.393   0.272   9.165   9.830
   25        0.401   0.262   9.167   9.831
   26        0.401   0.262   9.167   9.831
   27        0.393   0.272   9.165   9.830
   28        0.408   0.200   9.173   9.781
   29        0.446   0.219   9.146   9.811
   30        0.446   0.219   9.146   9.811
   31        0.446   0.219   9.146   9.811
   32        0.446   0.219   9.146   9.811
   33        0.446   0.219   9.146   9.811
   34        0.446   0.219   9.146   9.811
   35        0.402   0.201   9.176   9.779
   36        0.685   0.574   2.912   4.170
   37        0.535   0.009   0.000   0.545
tot         15.844   9.062 323.609 348.515

  FORCE on cell =-STRESS in cart. coord.  units (eV):
  Direction    XX          YY          ZZ          XY          YZ          ZX
  Alpha Z   742.70539   742.70539   742.70539
  Ewald  118154.76841118154.76829************    -0.00002    -0.00001    -0.00002
  Hartree128136.70040128136.70034************    -0.00001    -0.00001    -0.00001
  E(xc)   -2052.66970 -2052.66969 -2059.62324    -0.00001     0.00000     0.00000
  Local  ************************257420.95259     0.00023    -0.00002    -0.00004
  n-local  -327.51618  -310.10455  -322.10391    10.40299    -0.58649     0.63158
  augment  3220.76721  3220.76733  3234.79498    -0.00012     0.00004     0.00001
  Kinetic  4822.32183  4823.91394  4861.23711     3.05269     0.57968    -0.16801
  Fock        0.00000     0.00000     0.00000     0.00000     0.00000     0.00000
  Total      -8.59200    -8.59200     0.43879    -0.00000     0.00000     0.00000
  in kB      -9.27335    -9.27335     0.47359    -0.00000     0.00000     0.00000

 VOLUME and BASIS-vectors are now :
  energy-cutoff  :      500.00
  volume of cell :     1484.46
      direct lattice vectors                 reciprocal lattice vectors
     8.791366577  0.000000000  0.000000000     0.113747958 -0.065672414  0.000000000
     4.395683289  7.613546790  0.000000000     0.000000000  0.131344829  0.000000000
     0.000000000  0.000000000 22.178121567     0.000000000  0.000000000  0.045089481

  length of vectors
     8.791366577  8.791366577 22.178121567     0.131344829  0.131344829  0.045089481

 FORCES acting on ions
    electron-ion (+dipol)            ewald-force                    non-local-force                 convergence-correction
   0.460E-04 -.282E-04 0.247E+04   -.953E-04 0.593E-04 -.247E+04   0.707E-17 0.104E-16 -.181E+01   -.115E-03 -.127E-03 -.245E-01
   -.129E+00 -.928E-01 0.247E+04   0.643E-01 -.113E+00 -.247E+04   0.254E-01 0.188E+00 -.166E+01   0.409E-01 0.808E-02 0.613E-01
   0.129E+00 -.928E-01 0.247E+04   -.642E-01 -.113E+00 -.247E+04   -.254E-01 0.188E+00 -.166E+01   -.415E-01 0.998E-02 0.620E-01
   -.145E+00 -.657E-01 0.247E+04   -.656E-01 0.112E+00 -.247E+04   0.176E+00 -.720E-01 -.166E+01   0.276E-01 0.316E-01 0.613E-01
   -.803E-05 -.201E-04 0.247E+04   0.980E-04 -.197E-05 -.247E+04   0.362E-17 0.133E-17 -.126E+01   0.622E-02 0.379E-02 0.588E-01
   0.145E+00 -.656E-01 0.247E+04   0.655E-01 0.112E+00 -.247E+04   -.176E+00 -.720E-01 -.166E+01   -.290E-01 0.325E-01 0.621E-01
   -.157E-01 0.158E+00 0.247E+04   -.130E+00 0.720E-03 -.247E+04   0.150E+00 -.116E+00 -.166E+01   -.117E-01 -.404E-01 0.620E-01
   0.157E-01 0.158E+00 0.247E+04   0.130E+00 0.614E-03 -.247E+04   -.150E+00 -.116E+00 -.166E+01   0.133E-01 -.414E-01 0.621E-01
   0.364E-04 -.131E-04 0.247E+04   0.792E-04 -.643E-04 -.247E+04   -.175E-17 -.117E-18 -.162E+01   -.664E-02 -.344E-02 0.849E-01
   0.199E+01 0.115E+01 0.794E+03   -.170E+01 -.982E+00 -.793E+03   -.379E+00 -.219E+00 -.639E+00   0.377E-01 0.220E-01 0.427E+00
   -.281E-04 0.655E+00 0.790E+03   0.399E-04 -.764E+00 -.790E+03   0.526E-12 0.802E-01 -.184E+00   0.620E-02 -.267E-01 0.392E+00
   -.199E+01 0.115E+01 0.794E+03   0.170E+01 -.981E+00 -.793E+03   0.379E+00 -.219E+00 -.639E+00   -.393E-01 0.229E-01 0.427E+00
   0.567E+00 -.327E+00 0.790E+03   -.661E+00 0.382E+00 -.790E+03   0.694E-01 -.401E-01 -.184E+00   -.202E-01 0.187E-01 0.393E+00
   -.567E+00 -.327E+00 0.790E+03   0.661E+00 0.382E+00 -.790E+03   -.694E-01 -.401E-01 -.184E+00   0.307E-01 0.176E-01 0.391E+00
   0.154E-04 -.257E+00 0.792E+03   -.108E-03 0.112E+00 -.792E+03   0.492E-12 0.749E-01 -.681E+00   -.156E-02 0.524E-01 0.395E+00
   -.825E-05 -.230E+01 0.794E+03   0.204E-04 0.196E+01 -.793E+03   0.287E-11 0.437E+00 -.639E+00   -.175E-03 -.453E-01 0.426E+00
   -.222E+00 0.128E+00 0.792E+03   0.972E-01 -.562E-01 -.792E+03   0.648E-01 -.374E-01 -.681E+00   0.449E-01 -.276E-01 0.394E+00
   0.222E+00 0.128E+00 0.792E+03   -.973E-01 -.561E-01 -.792E+03   -.648E-01 -.374E-01 -.681E+00   -.448E-01 -.258E-01 0.395E+00
   0.384E-04 -.540E+01 -.899E+03   -.125E-03 0.535E+01 0.898E+03   0.303E-12 0.461E-01 0.897E+00   0.431E-02 -.441E-02 0.589E+00
   -.296E+02 -.171E+02 -.912E+03   0.306E+02 0.177E+02 0.912E+03   -.119E+01 -.684E+00 -.980E+00   0.691E-01 0.403E-01 0.788E+00
   0.296E+02 -.171E+02 -.912E+03   -.306E+02 0.177E+02 0.912E+03   0.119E+01 -.684E+00 -.980E+00   -.599E-01 0.400E-01 0.788E+00
   -.153E+02 0.881E+01 -.899E+03   0.151E+02 -.872E+01 0.898E+03   0.203E+00 -.117E+00 0.472E+00   -.732E-02 0.987E-02 0.560E+00
   -.494E-04 0.341E+02 -.912E+03   0.364E-04 -.353E+02 0.912E+03   0.899E-11 0.137E+01 -.980E+00   -.754E-03 -.812E-01 0.787E+00
   0.153E+02 0.881E+01 -.899E+03   -.151E+02 -.872E+01 0.898E+03   -.203E+00 -.117E+00 0.472E+00   0.176E-01 0.960E-02 0.560E+00
   0.468E+01 0.270E+01 -.899E+03   -.463E+01 -.267E+01 0.898E+03   -.399E-01 -.230E-01 0.897E+00   0.102E-01 0.696E-02 0.588E+00
   -.468E+01 0.270E+01 -.899E+03   0.463E+01 -.267E+01 0.898E+03   0.399E-01 -.230E-01 0.897E+00   -.121E-02 0.706E-02 0.589E+00
   0.192E-04 -.176E+02 -.899E+03   0.110E-03 0.174E+02 0.898E+03   0.154E-11 0.235E+00 0.472E+00   0.431E-02 -.114E-01 0.561E+00
   0.534E-04 -.355E-04 -.248E+04   -.113E-03 0.760E-04 0.248E+04   0.823E-18 0.119E-17 0.168E+01   0.324E-04 0.158E-02 0.173E+00
   -.216E+02 -.428E+02 -.249E+04   0.225E+02 0.441E+02 0.249E+04   -.115E+01 -.157E+01 0.121E+01   0.162E+00 0.227E+00 0.318E+00
   0.216E+02 -.428E+02 -.249E+04   -.225E+02 0.441E+02 0.249E+04   0.115E+01 -.157E+01 0.121E+01   -.162E+00 0.229E+00 0.318E+00
   -.479E+02 0.270E+01 -.249E+04   0.494E+02 -.251E+01 0.249E+04   -.193E+01 -.209E+00 0.121E+01   0.272E+00 0.167E-01 0.318E+00
   0.479E+02 0.270E+01 -.249E+04   -.494E+02 -.251E+01 0.249E+04   0.193E+01 -.209E+00 0.121E+01   -.283E+00 0.174E-01 0.318E+00
   -.263E+02 0.401E+02 -.249E+04   0.269E+02 -.416E+02 0.249E+04   -.785E+00 0.178E+01 0.121E+01   0.116E+00 -.253E+00 0.318E+00
   0.263E+02 0.401E+02 -.249E+04   -.269E+02 -.416E+02 0.249E+04   0.785E+00 0.178E+01 0.121E+01   -.115E+00 -.254E+00 0.319E+00
   0.272E-04 -.139E-04 -.249E+04   0.103E-03 -.645E-04 0.248E+04   -.300E-17 -.683E-18 0.192E+01   -.639E-02 -.197E-02 0.233E+00
   -.244E-04 -.228E-05 -.107E+04   0.479E-04 0.590E-05 0.107E+04   -.392E-17 -.414E-18 -.159E+01   0.654E-03 -.168E-03 0.248E+00
   0.517E-05 -.413E-05 -.260E+03   0.482E-05 0.658E-07 0.262E+03   -.580E-19 -.396E-19 -.212E+01   0.120E-03 -.186E-04 -.714E-01
   0.291E-03 -.713E-03 -.150E+01   -.167E-13 0.181E-12 -.779E-11   0.548E-15 -.445E-15 -.108E+02   0.333E-01 0.769E-02 0.124E+02

 POSITION                                       TOTAL-FORCE (eV/Angst)
      0.00000      0.00000      5.28219         0.000000     -0.000000     -0.037316
      2.93046      0.00000      5.28219         0.002010     -0.008576      0.038283
      5.86091      0.00000      5.28219        -0.002010     -0.008576      0.038283
      1.46523      2.53785      5.28219        -0.006422      0.006028      0.038283
      4.39568      2.53785      5.28219        -0.000000     -0.000000      0.020341
      7.32614      2.53785      5.28219         0.006422      0.006028      0.038283
      2.93046      5.07570      5.28219        -0.008432      0.002548      0.038283
      5.86091      5.07570      5.28219         0.008432      0.002548      0.038283
      8.79137      5.07570      5.28219         0.000000     -0.000000      0.001635
      1.46523      0.84595      7.67490        -0.050732     -0.029290     -0.061200
      4.39568      0.84595      7.67490        -0.000000     -0.058174     -0.076367
      7.32614      0.84595      7.67490         0.050732     -0.029290     -0.061200
      2.93046      3.38380      7.67490        -0.050380      0.029087     -0.076367
      5.86091      3.38380      7.67490         0.050380      0.029087     -0.076367
      8.79137      3.38380      7.67490        -0.000000     -0.017401      0.030726
      4.39568      5.92165      7.67490         0.000000      0.058580     -0.061200
      7.32614      5.92165      7.67490        -0.015070      0.008701      0.030726
     10.25659      5.92165      7.67490         0.015070      0.008701      0.030726
      8.79137      1.69476     10.06939        -0.000000     -0.017565      0.000245
      2.92162      1.68680     10.02387        -0.116285     -0.067137     -0.113655
      5.86975      1.68680     10.02387         0.116285     -0.067137     -0.113655
     10.25272      4.23198     10.06895         0.042538     -0.024560      0.026942
      4.39568      4.23995     10.02387         0.000000      0.134274     -0.113655
      7.33001      4.23198     10.06895        -0.042538     -0.024560      0.026942
     11.71935      6.76617     10.06939         0.015212      0.008783      0.000245
      5.86339      6.76617     10.06939        -0.015212      0.008783      0.000245
      8.79137      6.76312     10.06895         0.000000      0.049119      0.026942
      0.00000      0.00000     12.45783         0.000000     -0.000000      0.029627
      2.95723      0.04373     12.49962        -0.028071     -0.071592     -0.078243
      5.83413      0.04373     12.49962         0.028071     -0.071592     -0.078243
      1.51649      2.53918     12.49962        -0.076036      0.011486     -0.078243
      7.27488      2.53918     12.49962         0.076036      0.011486     -0.078243
      2.95494      5.03064     12.49962        -0.047965      0.060106     -0.078243
      5.83643      5.03064     12.49962         0.047965      0.060106     -0.078243
      8.79137      5.07570     12.47105        -0.000000     -0.000000      0.039314
      4.39568      2.53785     12.22632        -0.000000     -0.000000      0.749524
      4.39568      2.53785     14.00309         0.000000     -0.000000      0.016560
    total drift:                                0.033622      0.006976      0.092142

  FREE ENERGIE OF THE ION-ELECTRON SYSTEM (eV)
  free  energy   TOTEN  =      -101.52304902 eV

  energy  without entropy=     -101.52304902  energy(sigma->0) =     -101.52304902

 stress matrix after NEB project (eV)
     -8.59200     -0.00000      0.00000
     -0.00000     -8.59200      0.00000
      0.00000      0.00000      0.43879
  FORCES: max atom, RMS     0.016560    0.002722
  FORCE total and by dimension    0.016560    0.016560
  Stress total and by dimension   12.158845    8.592002
|           W    W    AA    RRRRR   N    N  II  N    N   GGGG   !!!           |
|           W    W   A  A   R    R  NN   N  II  NN   N  G    G  !!!           |
|           W    W  A    A  R    R  N N  N  II  N N  N  G       !!!           |
|           W WW W  AAAAAA  RRRRR   N  N N  II  N  N N  G  GGG   !            |
|           WW  WW  A    A  R   R   N   NN  II  N   NN  G    G                |
|           W    W  A    A  R    R  N    N  II  N    N   GGGG   !!!           |
|     Tetrahedron method does not include variations of the Fermi             |
|     occupations, so forces and stress will be inaccurate. We suggest        |
|     using a different smearing scheme ISMEAR = 1 or 2 for metals in         |
|     relaxations.                                                            |

 total charge

# of ion       s       p       d       tot
    1        0.424   0.199   9.179   9.802
    2        0.414   0.204   9.178   9.796
    3        0.414   0.204   9.178   9.796
    4        0.414   0.204   9.178   9.796
    5        0.420   0.201   9.176   9.797
    6        0.414   0.204   9.178   9.796
    7        0.414   0.204   9.178   9.796
    8        0.414   0.204   9.178   9.796
    9        0.418   0.203   9.177   9.797
   10        0.412   0.269   9.162   9.843
   11        0.404   0.270   9.169   9.843
   12        0.412   0.269   9.162   9.843
   13        0.404   0.270   9.169   9.843
   14        0.404   0.270   9.169   9.843
   15        0.404   0.267   9.166   9.837
   16        0.412   0.269   9.162   9.843
   17        0.404   0.267   9.166   9.837
   18        0.404   0.267   9.166   9.837
   19        0.401   0.262   9.167   9.831
   20        0.451   0.305   9.129   9.885
   21        0.451   0.305   9.129   9.885
   22        0.393   0.272   9.165   9.830
   23        0.451   0.305   9.129   9.885
   24        0.393   0.272   9.165   9.830
   25        0.401   0.262   9.167   9.831
   26        0.401   0.262   9.167   9.831
   27        0.393   0.272   9.165   9.830
   28        0.408   0.200   9.173   9.781
   29        0.446   0.219   9.146   9.811
   30        0.446   0.219   9.146   9.811
   31        0.446   0.219   9.146   9.811
   32        0.446   0.219   9.146   9.811
   33        0.446   0.219   9.146   9.811
   34        0.446   0.219   9.146   9.811
   35        0.402   0.201   9.176   9.779
   36        0.685   0.574   2.912   4.170
   37        0.535   0.009   0.000   0.545
tot         15.844   9.062 323.609 348.515

 BZINTS: Fermi energy:    0.767420;  391.000000 electrons
         Band energy:-0.131066E+04;  BLOECHL correction:   -0.023349