 vasp.6.2.0 18Jan21 (build Jun 12 2021 23:27:24) complex

 executed on             LinuxIFC date 2022.05.30  17:34:01

 INCAR:
   ISMEAR = -5
   SIGMA = 0.1
   ISPIN = 1
   EDIFF = 1.d-5
   EDIFFG = -0.01
   NSW = 0
   NELM = 150
   ENCUT = 500
   ISIF = 2
   IBRION = 2
   LREAL = Auto
   ALGO = Fast
   ICHARG = 11
   LORBIT = 10
   LCHARG = .F.
   LWAVE = .F.

 POTCAR:    PAW_PBE Ag 02Apr2005
 POTCAR:    PAW_PBE Ta 17Jan2003
 POTCAR:    PAW_PBE O 08Apr2002
|           W    W    AA    RRRRR   N    N  II  N    N   GGGG   !!!           |
|           W    W   A  A   R    R  NN   N  II  NN   N  G    G  !!!           |
|           W    W  A    A  R    R  N N  N  II  N N  N  G       !!!           |
|           W WW W  AAAAAA  RRRRR   N  N N  II  N  N N  G  GGG   !            |
|           WW  WW  A    A  R   R   N   NN  II  N   NN  G    G                |
|           W    W  A    A  R    R  N    N  II  N    N   GGGG   !!!           |
|     For optimal performance we recommend to set                             |
|       NCORE = 2 up to number-of-cores-per-socket                            |
|     This setting can greatly improve the performance of VASP for DFT.       |
|     The default, NCORE=1 might be grossly inefficient on modern             |
|     multi-core architectures or massively parallel machines. Do your        |
|     Unfortunately you need to use the default for GW and RPA                |
|     calculations (for HF NCORE is supported but not extensively tested      |
|     yet).                                                                   |

 POTCAR:    PAW_PBE Ag 02Apr2005
   VRHFIN =Ag : s1 d10

   TITEL  = PAW_PBE Ag 02Apr2005
   POMASS =  107.868; ZVAL   =   11.000    mass and valenz
   ENMAX  =  249.844; ENMIN  =  187.383 eV

 POTCAR:    PAW_PBE Ta 17Jan2003
   VRHFIN =Ta:  6s5d

   TITEL  = PAW_PBE Ta 17Jan2003
   POMASS =  180.948; ZVAL   =    5.000    mass and valenz
   ENMAX  =  223.667; ENMIN  =  167.750 eV

 POTCAR:    PAW_PBE O 08Apr2002
   VRHFIN =O: s2p4

   TITEL  = PAW_PBE O 08Apr2002
   POMASS =   16.000; ZVAL   =    6.000    mass and valenz
   ENMAX  =  400.000; ENMIN  =  300.000 eV

 Optimization of the real space projectors (new method)

 maximal supplied QI-value         = 15.12
 optimisation between [QCUT,QGAM] = [ 11.34, 22.83] = [ 36.00,145.93] Ry
 Optimized for a Real-space Cutoff    1.43 Angstroem

   l    n(q)    QCUT    max X(q) W(low)/X(q) W(high)/X(q)  e(spline)
   2      9    11.338    53.897    0.16E-03    0.20E-03    0.28E-06
   2      9    11.338    52.416    0.16E-03    0.20E-03    0.29E-06
   0     10    11.338   122.045    0.31E-04    0.76E-04    0.15E-06
   0     10    11.338    73.629    0.30E-04    0.72E-04    0.15E-06
   1      9    11.338    15.255    0.20E-03    0.19E-04    0.17E-06
   1      9    11.338     9.562    0.16E-03    0.15E-04    0.14E-06
 Optimization of the real space projectors (new method)

[...]

   l    n(q)    QCUT    max X(q) W(low)/X(q) W(high)/X(q)  e(spline)
   2     10    11.437    62.315    0.14E-03    0.26E-03    0.80E-06
   2     10    11.437    52.185    0.14E-03    0.26E-03    0.80E-06
   0     11    11.437   103.837    0.25E-04    0.17E-04    0.84E-07
   0     11    11.437    59.728    0.20E-04    0.15E-04    0.73E-07
   1     11    11.437    13.958    0.47E-03    0.12E-03    0.89E-06
   1     11    11.437     8.441    0.33E-03    0.88E-04    0.61E-06
 Optimization of the real space projectors (new method)

 maximal supplied QI-value         = 24.76
 optimisation between [QCUT,QGAM] = [ 11.39, 22.77] = [ 36.31,145.25] Ry
 Optimized for a Real-space Cutoff    1.00 Angstroem

   l    n(q)    QCUT    max X(q) W(low)/X(q) W(high)/X(q)  e(spline)
   0      7    11.387    20.381    0.39E-03    0.13E-02    0.15E-06
   0      7    11.387    15.268    0.42E-03    0.14E-02    0.17E-06
   1      6    11.387     5.964    0.41E-03    0.11E-02    0.17E-06
   1      6    11.387     5.382    0.39E-03    0.87E-03    0.15E-06
  PAW_PBE Ag 02Apr2005                  :
  PAW_PBE Ta 17Jan2003                  :
  PAW_PBE O 08Apr2002                   :

 POSCAR: Ag-Ta-O2
  positions in direct lattice
  velocities in cartesian coordinates
 exchange correlation table for  LEXCH =        8
   RHO(1)=    0.500       N(1)  =     2000
   RHO(2)=  100.500       N(2)  =     4000

 VTST: version 3.2, (02/03/18)

 CHAIN: initializing optimizer

 OPT: Using VASP Conjugate-Gradient optimizer
 CHAIN: Read ICHAIN            0

 POSCAR: Ag-Ta-O2
  positions in direct lattice
  velocities in cartesian coordinates

 ion  position               nearest neighbor table
   1  0.000  0.000  0.217-   2 2.93   8 2.93   7 2.93   6 2.93   4 2.93  12 2.93  16 2.93  10 2.93
                             3 2.93
   2  0.333  0.000  0.217-   1 2.93   8 2.93   9 2.93   3 2.93   4 2.93   5 2.93  10 2.93  17 2.93
                            11 2.93
   3  0.667  0.000  0.217-   9 2.93   2 2.93   5 2.93  11 2.93   7 2.93  18 2.93   1 2.93   6 2.93
                            12 2.93
   4  0.000  0.333  0.217-   5 2.93   6 2.93   2 2.93   1 2.93   7 2.93  13 2.93  15 2.93   9 2.93
                            10 2.93
   5  0.333  0.333  0.217-   4 2.93   3 2.93   7 2.93   2 2.93   8 2.93  14 2.93  13 2.93  11 2.93
                             6 2.93
   6  0.667  0.333  0.217-   4 2.93   9 2.93   1 2.93  15 2.93   8 2.93  12 2.93   3 2.93   5 2.93
                            14 2.93
   7  0.000  0.667  0.217-   8 2.93   1 2.93   5 2.93   3 2.93   4 2.93  16 2.93  18 2.93  13 2.93
                             9 2.93
   8  0.333  0.667  0.217-   7 2.93   1 2.93   2 2.93   9 2.93   5 2.93  16 2.93   6 2.93  17 2.93
                            14 2.93
   9  0.667  0.667  0.217-   3 2.93   2 2.93   8 2.93   6 2.93  17 2.93   4 2.93  15 2.93   7 2.93
                            18 2.93
  10  0.111  0.111  0.315-  20 2.89  12 2.93  16 2.93  15 2.93  17 2.93  13 2.93  11 2.93   2 2.93
                             1 2.93   4 2.93  19 2.93  26 2.93
  11  0.444  0.111  0.315-  21 2.90  20 2.90  14 2.93  17 2.93  18 2.93   3 2.93  12 2.93  13 2.93
                            10 2.93   5 2.93   2 2.93  27 2.93
  12  0.778  0.111  0.315-  21 2.89  10 2.93  16 2.93  18 2.93  15 2.93  11 2.93   1 2.93  14 2.93
                             6 2.93   3 2.93  25 2.93  19 2.93
  13  0.111  0.444  0.315-  20 2.90  23 2.90  15 2.93  14 2.93  18 2.93  10 2.93  11 2.93  16 2.93
                             4 2.93   5 2.93   7 2.93  22 2.93
  14  0.444  0.444  0.315-  23 2.90  21 2.90  13 2.93  11 2.93  16 2.93   5 2.93  12 2.93  17 2.93
                             8 2.93  15 2.93   6 2.93  24 2.93
  15  0.778  0.444  0.315-  19 2.93  24 2.93  22 2.93  13 2.93  10 2.93  12 2.93  17 2.93  18 2.93
                             4 2.93   6 2.93   9 2.93  14 2.93
  16  0.111  0.778  0.315-  23 2.89  18 2.93  12 2.93  10 2.93  14 2.93  17 2.93  13 2.93   7 2.93
                             8 2.93   1 2.93  26 2.93  25 2.93
  17  0.444  0.778  0.315-  26 2.93  27 2.93  24 2.93  11 2.93  10 2.93   9 2.93  18 2.93  15 2.93
                            16 2.93   2 2.93  14 2.93   8 2.93
  18  0.778  0.778  0.315-  25 2.93  22 2.93  27 2.93  16 2.93  12 2.93  13 2.93  11 2.93  17 2.93
                            15 2.93   7 2.93   3 2.93   9 2.93
  19  0.889  0.223  0.413-  20 2.92  21 2.92  24 2.93  22 2.93  28 2.93  15 2.93  10 2.93  12 2.93
                            26 2.94  25 2.94  32 2.99  31 2.99
  20  0.222  0.222  0.411-  36 2.78  10 2.89  13 2.90  11 2.90  19 2.92  26 2.92  27 2.93  22 2.93
                            21 2.95  23 2.95  31 2.97  29 2.97
  21  0.557  0.222  0.411-  36 2.78  12 2.89  11 2.90  14 2.90  25 2.92  19 2.92  27 2.93  24 2.93
                            20 2.95  23 2.95  30 2.97  32 2.97
  22  0.888  0.556  0.413-  24 2.92  27 2.92  25 2.93  19 2.93  18 2.93  15 2.93  13 2.93  23 2.93
                            20 2.93  35 2.94  33 2.96  31 2.96
  23  0.222  0.557  0.411-  36 2.78  16 2.89  14 2.90  13 2.90  26 2.92  25 2.92  22 2.93  24 2.93
                            21 2.95  20 2.95  34 2.97  33 2.97
  24  0.556  0.556  0.413-  27 2.92  22 2.92  19 2.93  26 2.93  15 2.93  17 2.93  14 2.93  23 2.93
                            21 2.93  35 2.94  32 2.96  34 2.96
  25  0.889  0.889  0.413-  23 2.92  21 2.92  22 2.93  27 2.93  28 2.93  18 2.93  16 2.93  12 2.93
                            26 2.94  19 2.94  33 2.99  30 2.99
  26  0.223  0.889  0.413-  23 2.92  20 2.92  27 2.93  24 2.93  28 2.93  17 2.93  16 2.93  10 2.93
                            25 2.94  19 2.94  34 2.99  29 2.99
  27  0.556  0.888  0.413-  24 2.92  22 2.92  26 2.93  25 2.93  17 2.93  18 2.93  11 2.93  20 2.93
                            21 2.93  35 2.94  29 2.96  30 2.96
  28  0.000  0.000  0.511-  26 2.93  25 2.93  19 2.93  29 2.96  34 2.96  33 2.96  32 2.96  31 2.96
                            30 2.96
  29  0.334  0.006  0.513-  30 2.88  31 2.88  36 2.89  35 2.96  28 2.96  27 2.96  20 2.97  26 2.99
                            34 3.03
  30  0.661  0.006  0.513-  29 2.88  32 2.88  36 2.89  35 2.96  28 2.96  27 2.96  21 2.97  25 2.99
                            33 3.03
  31  0.006  0.334  0.513-  37 2.05  33 2.88  29 2.88  36 2.89  35 2.96  28 2.96  22 2.96  20 2.97
                            19 2.99  32 3.03
  32  0.661  0.334  0.513-  38 2.05  34 2.88  30 2.88  36 2.89  35 2.96  28 2.96  24 2.96  21 2.97
                            19 2.99  31 3.03
  33  0.006  0.661  0.513-  37 2.44  31 2.88  34 2.88  36 2.89  35 2.96  28 2.96  22 2.96  23 2.97
                            25 2.99  30 3.03
  34  0.334  0.661  0.513-  38 2.44  32 2.88  33 2.88  36 2.89  35 2.96  28 2.96  24 2.96  23 2.97
                            26 2.99  29 3.03
  35  0.667  0.667  0.512-  24 2.94  27 2.94  22 2.94  30 2.96  32 2.96  29 2.96  34 2.96  31 2.96
                            33 2.96
  36  0.333  0.333  0.502-  37 1.86  38 1.86  21 2.78  20 2.78  23 2.78  31 2.89  33 2.89  30 2.89
                            29 2.89  34 2.89  32 2.89
  37  0.175  0.378  0.559-  36 1.86  31 2.05  33 2.44
  38  0.447  0.378  0.559-  36 1.86  32 2.05  34 2.44

  LATTYP: Found a hexagonal cell.
 ALAT       =     8.7913665772
 C/A-ratio  =     2.7711238095

  Lattice vectors:

 A1 = (  -4.3956832886,  -7.6135467898,   0.0000000000)
 A2 = (   8.7913665771,   0.0000000000,   0.0000000000)
 A3 = (   0.0000000000,   0.0000000000,  24.3619652401)

Analysis of symmetry for initial positions (statically):
 Subroutine PRICEL returns:
 Original cell was already a primitive cell.

 Routine SETGRP: Setting up the symmetry group for a
 hexagonal supercell.

 Subroutine GETGRP returns: Found  2 space group operations
 (whereof  2 operations were pure point group operations)
 out of a pool of 24 trial point group operations.

The static configuration has the point symmetry C_1h.

Analysis of symmetry for dynamics (positions and initial velocities):
 Subroutine PRICEL returns:
 Original cell was already a primitive cell.

[...]

The dynamic configuration has the point symmetry C_1h.

Analysis of constrained symmetry for selective dynamics:
 Subroutine PRICEL returns:
 Original cell was already a primitive cell.

[...]
     33      -5.0939      2.00000
     34      -5.0552      2.00000
     35      -5.0453      2.00000
     36      -5.0384      2.00000
     37      -5.0357      2.00000
     38      -5.0153      2.00000
     39      -4.9983      2.00000
     40      -4.9794      2.00000
     41      -4.9772      2.00000
     42      -4.9228      2.00000
     43      -4.9010      2.00000
     44      -4.8764      2.00000
     45      -4.8638      2.00000
     46      -4.8181      2.00000
     47      -4.8099      2.00000
     48      -4.7709      2.00000
     49      -4.7492      2.00000
     50      -4.7341      2.00000
     51      -4.7153      2.00000
     52      -4.7060      2.00000
     53      -4.6970      2.00000
     54      -4.6849      2.00000
     55      -4.6643      2.00000
     56      -4.6485      2.00000
     57      -4.6462      2.00000
     58      -4.6210      2.00000
     59      -4.6085      2.00000
     60      -4.5871      2.00000
[...]
    238       5.7075      0.00000
    239       5.7273      0.00000
    240       5.8652      0.00000
    241       5.9599      0.00000
    242       5.9882      0.00000
    243       6.1339      0.00000
    244       6.2788      0.00000
    245       6.4989      0.00000
    246       6.5468      0.00000
    247       6.6436      0.00000
    248       6.7393      0.00000
    249       6.7770      0.00000
    250       6.8406      0.00000
    251       6.9063      0.00000
    252       6.9885      0.00000

 soft charge-density along one line, spin component           1
         0         1         2         3         4         5         6         7         8         9
 total charge-density along one line

------------------------ aborting loop because EDIFF is reached ----------------------------------------

 total charge

# of ion       s       p       d       tot
    1        0.420   0.200   9.178   9.799
    2        0.414   0.205   9.176   9.795
    3        0.414   0.205   9.176   9.795
    4        0.415   0.204   9.177   9.796
    5        0.418   0.201   9.177   9.797
    6        0.415   0.204   9.177   9.796
    7        0.416   0.203   9.178   9.797
    8        0.416   0.203   9.178   9.797
    9        0.414   0.204   9.177   9.795
   10        0.410   0.269   9.164   9.842
   11        0.406   0.270   9.166   9.842
   12        0.410   0.269   9.164   9.842
   13        0.402   0.272   9.166   9.840
   14        0.402   0.272   9.166   9.840
   15        0.405   0.266   9.165   9.836
   16        0.407   0.271   9.162   9.839
   17        0.403   0.268   9.165   9.835
   18        0.403   0.268   9.165   9.835
   19        0.397   0.279   9.151   9.827
   20        0.452   0.305   9.135   9.892
   21        0.452   0.305   9.135   9.892
   22        0.398   0.270   9.164   9.832
   23        0.438   0.324   9.122   9.884
   24        0.398   0.270   9.164   9.832
   25        0.400   0.267   9.164   9.831
   26        0.400   0.267   9.164   9.831
   27        0.392   0.268   9.171   9.831
   28        0.413   0.196   9.182   9.791
   29        0.426   0.220   9.168   9.813
   30        0.426   0.220   9.168   9.813
   31        0.407   0.306   9.166   9.878
   32        0.407   0.306   9.166   9.878
   33        0.391   0.229   9.189   9.808
   34        0.391   0.229   9.189   9.808
   35        0.421   0.189   9.184   9.795
   36        0.753   0.893   3.499   5.146
   37        1.596   3.361   0.000   4.956
   38        1.596   3.361   0.000   4.956
tot         18.341  16.314 324.358 359.013

  FORCE on cell =-STRESS in cart. coord.  units (eV):
  Direction    XX          YY          ZZ          XY          YZ          ZX
  Alpha Z   705.96789   705.96789   705.96789
  Ewald  153244.14658152978.69785************     0.00008   -20.64681     0.00009
  Hartree163139.73542163022.88707************     0.00003   -38.65370     0.00002
  E(xc)   -2111.89320 -2111.73339 -2118.51720    -0.00002    -0.41519     0.00000
  Local  ************************327458.01024     0.00087    61.44911    -0.00018
  n-local  -356.95336  -360.78090  -363.89150     2.17762     1.60689     0.03546
  augment  3234.09764  3235.02598  3245.43638    -0.00014    -0.30047     0.00000
  Kinetic  5077.68468  5087.68669  5108.39554     0.89070    -2.74746    -0.09362
  Fock        0.00000     0.00000     0.00000     0.00000     0.00000     0.00000
  Total       5.23763    -1.79907    -0.05743    -0.00000     0.29237     0.00000
  in kB       5.14623    -1.76768    -0.05643    -0.00000     0.28727     0.00000

 VOLUME and BASIS-vectors are now :
  energy-cutoff  :      500.00
  volume of cell :     1630.63
      direct lattice vectors                 reciprocal lattice vectors
     8.791366577  0.000000000  0.000000000     0.113747958 -0.065672414  0.000000000
     4.395683289  7.613546790  0.000000000     0.000000000  0.131344829  0.000000000
     0.000000000  0.000000000 24.361965240     0.000000000  0.000000000  0.041047592

  length of vectors
     8.791366577  8.791366577 24.361965240     0.131344829  0.131344829  0.041047592

 FORCES acting on ions
    electron-ion (+dipol)            ewald-force                    non-local-force                 convergence-correction
   0.460E-04 0.215E+00 0.269E+04   -.953E-04 -.329E-01 -.269E+04   -.768E-12 -.117E+00 -.192E+01   -.115E-03 -.552E-01 0.138E-01
   -.977E-01 0.243E+00 0.269E+04   -.543E-01 -.453E+00 -.269E+04   0.501E-02 0.181E+00 -.163E+01   0.150E+00 0.219E-01 -.545E-01
   0.978E-01 0.243E+00 0.269E+04   0.544E-01 -.453E+00 -.269E+04   -.501E-02 0.181E+00 -.163E+01   -.151E+00 0.238E-01 -.538E-01
   0.636E-01 -.120E+00 0.269E+04   -.395E+00 0.280E-01 -.269E+04   0.259E+00 -.154E-01 -.166E+01   0.575E-01 0.906E-01 -.430E-02
   -.759E-05 0.143E-01 0.269E+04   0.980E-04 -.136E+00 -.269E+04   0.493E-12 0.750E-01 -.143E+01   0.622E-02 0.338E-01 -.186E-01
   -.636E-01 -.120E+00 0.269E+04   0.395E+00 0.280E-01 -.269E+04   -.259E+00 -.154E-01 -.166E+01   -.589E-01 0.915E-01 -.351E-02
   0.186E+00 -.179E+00 0.269E+04   -.336E+00 0.427E+00 -.269E+04   0.763E-01 -.126E+00 -.167E+01   0.609E-01 -.105E+00 0.589E-01
   -.186E+00 -.178E+00 0.269E+04   0.336E+00 0.427E+00 -.269E+04   -.763E-01 -.126E+00 -.167E+01   -.593E-01 -.106E+00 0.590E-01
   0.362E-04 -.117E+00 0.269E+04   0.792E-04 0.166E+00 -.269E+04   -.263E-12 -.400E-01 -.172E+01   -.664E-02 0.557E-02 0.293E-01
   0.344E+01 0.305E+01 0.931E+03   -.325E+01 -.285E+01 -.931E+03   -.276E+00 -.180E+00 -.630E+00   0.184E-01 -.395E-01 -.764E-01
   -.311E-04 0.450E+01 0.931E+03   0.401E-04 -.448E+01 -.931E+03   -.229E-12 -.349E-01 -.249E+00   0.620E-02 -.437E-01 -.693E-01
   -.344E+01 0.305E+01 0.931E+03   0.325E+01 -.285E+01 -.931E+03   0.276E+00 -.180E+00 -.630E+00   -.200E-01 -.386E-01 -.765E-01
   0.289E+01 -.153E+01 0.933E+03   -.301E+01 0.156E+01 -.933E+03   0.312E-01 -.715E-01 -.247E+00   0.611E-01 0.732E-01 -.573E-01
   -.289E+01 -.153E+01 0.933E+03   0.301E+01 0.156E+01 -.933E+03   -.312E-01 -.715E-01 -.247E+00   -.506E-01 0.721E-01 -.587E-01
   0.158E-04 -.938E+00 0.930E+03   -.108E-03 0.752E+00 -.929E+03   0.399E-12 0.607E-01 -.740E+00   -.156E-02 0.981E-01 -.167E-01
   -.845E-05 -.536E+01 0.932E+03   0.205E-04 0.491E+01 -.931E+03   0.377E-11 0.573E+00 -.849E+00   -.175E-03 -.760E-01 -.593E-01
   -.922E+00 -.645E+00 0.928E+03   0.838E+00 0.701E+00 -.928E+03   0.806E-02 -.416E-01 -.562E+00   0.590E-01 -.181E-01 -.600E-01
   0.922E+00 -.645E+00 0.928E+03   -.838E+00 0.701E+00 -.928E+03   -.806E-02 -.416E-01 -.562E+00   -.589E-01 -.163E-01 -.591E-01
   0.396E-04 0.272E+01 -.851E+03   -.128E-03 -.258E+01 0.851E+03   -.707E-12 -.108E+00 0.351E+00   0.431E-02 0.619E-01 -.504E-01
   -.162E+02 0.197E+01 -.833E+03   0.165E+02 -.177E+01 0.833E+03   -.520E+00 -.389E+00 -.639E+00   -.481E-02 0.252E-01 -.140E+00
   0.162E+02 0.197E+01 -.833E+03   -.165E+02 -.177E+01 0.833E+03   0.520E+00 -.389E+00 -.639E+00   0.140E-01 0.249E-01 -.140E+00
   0.929E-01 -.392E+01 -.842E+03   0.181E+00 0.399E+01 0.842E+03   -.189E+00 -.913E-01 0.415E+00   -.490E-01 0.189E-01 -.111E+00
   -.471E-04 0.986E+01 -.826E+03   0.391E-04 -.112E+02 0.827E+03   0.938E-11 0.143E+01 -.879E+00   -.761E-03 0.367E-01 -.130E+00
   -.930E-01 -.392E+01 -.842E+03   -.181E+00 0.399E+01 0.842E+03   0.189E+00 -.913E-01 0.415E+00   0.593E-01 0.186E-01 -.111E+00
   0.417E+01 -.103E+01 -.857E+03   -.424E+01 0.109E+01 0.857E+03   -.376E-01 -.247E-01 0.767E+00   0.227E-01 -.543E-01 -.639E-01
   -.417E+01 -.103E+01 -.857E+03   0.424E+01 0.109E+01 0.857E+03   0.376E-01 -.247E-01 0.767E+00   -.137E-01 -.542E-01 -.635E-01
   0.192E-04 -.755E+01 -.857E+03   0.110E-03 0.744E+01 0.856E+03   0.153E-11 0.232E+00 0.954E+00   0.431E-02 -.664E-01 -.116E+00
   0.538E-04 0.715E+01 -.260E+04   -.115E-03 -.725E+01 0.260E+04   0.365E-12 0.555E-01 0.159E+01   0.437E-04 -.106E-01 0.636E-01
   -.216E+01 0.354E+02 -.260E+04   0.322E+01 -.357E+02 0.259E+04   -.111E+01 -.197E+00 0.198E+01   -.484E-01 -.113E+00 -.912E-02
   0.216E+01 0.354E+02 -.260E+04   -.322E+01 -.357E+02 0.259E+04   0.111E+01 -.197E+00 0.198E+01   0.479E-01 -.111E+00 -.920E-02
   0.126E+03 0.398E+02 -.251E+04   -.127E+03 -.403E+02 0.251E+04   -.123E+01 -.326E-01 0.502E+00   -.985E-01 0.206E-01 -.689E-02
   -.126E+03 0.398E+02 -.251E+04   0.127E+03 -.403E+02 0.251E+04   0.123E+01 -.326E-01 0.502E+00   0.876E-01 0.213E-01 -.684E-02
   0.174E+02 -.996E+02 -.256E+04   -.170E+02 0.102E+03 0.255E+04   -.632E+00 -.116E+01 0.279E+01   0.324E-01 0.129E-01 -.443E-01
   -.174E+02 -.996E+02 -.256E+04   0.170E+02 0.102E+03 0.255E+04   0.632E+00 -.116E+01 0.279E+01   -.310E-01 0.121E-01 -.438E-01
   0.189E-04 -.271E+02 -.260E+04   0.107E-03 0.272E+02 0.260E+04   0.121E-12 0.185E-01 0.182E+01   -.638E-02 -.782E-02 -.633E-01
   -.298E-04 0.437E+02 -.963E+03   0.479E-04 -.429E+02 0.968E+03   -.369E-11 -.562E+00 -.134E+01   0.630E-03 0.406E-01 -.338E-01
   -.107E+02 0.175E+02 -.172E+04   0.808E+01 -.144E+02 0.175E+04   0.269E+01 -.314E+01 -.274E+02   -.240E-01 0.267E-01 -.406E-02
   0.107E+02 0.175E+02 -.172E+04   -.808E+01 -.144E+02 0.175E+04   -.269E+01 -.314E+01 -.274E+02   0.251E-01 0.264E-01 -.541E-02
   0.627E-03 0.906E+01 0.620E+02   0.284E-13 -.533E-13 -.205E-11   -.591E-10 -.899E+01 -.604E+02   0.344E-01 -.598E-01 -.160E+01

 POSITION                                       TOTAL-FORCE (eV/Angst)
      0.00000      0.00000      5.28219         0.000000      0.009699     -0.051141
      2.93046      0.00000      5.28219         0.003334     -0.006033      0.034054
      5.86091      0.00000      5.28219        -0.003334     -0.006033      0.034054
      1.46523      2.53785      5.28219        -0.013730     -0.016078      0.015153
      4.39568      2.53785      5.28219        -0.000000     -0.013170      0.023593
      7.32614      2.53785      5.28219         0.013730     -0.016078      0.015153
      2.93046      5.07570      5.28219        -0.013414      0.016102      0.022962
      5.86091      5.07570      5.28219         0.013414      0.016102      0.022962
      8.79137      5.07570      5.28219         0.000000      0.014518      0.003292
      1.46523      0.84595      7.67490        -0.063087     -0.016354     -0.040817
      4.39568      0.84595      7.67490        -0.000000     -0.055497     -0.106797
      7.32614      0.84595      7.67490         0.063087     -0.016354     -0.040817
      2.93046      3.38380      7.67490        -0.033787      0.031644     -0.078645
      5.86091      3.38380      7.67490         0.033787      0.031644     -0.078645
      8.79137      3.38380      7.67490        -0.000000     -0.026450     -0.016233
      4.39568      5.92165      7.67490         0.000000      0.048526     -0.024201
      7.32614      5.92165      7.67490        -0.016806     -0.002224      0.024561
     10.25659      5.92165      7.67490         0.016806     -0.002224      0.024561
      8.79137      1.69476     10.06939         0.000000      0.094555      0.307622
      2.92162      1.68680     10.02387        -0.220637     -0.169951     -0.465376
      5.86975      1.68680     10.02387         0.220637     -0.169951     -0.465376
     10.25272      4.23198     10.06895         0.031519     -0.010661      0.023412
      4.39568      4.23995     10.02387         0.000000      0.116916     -0.087829
      7.33001      4.23198     10.06895        -0.031519     -0.010661      0.023412
     11.71935      6.76617     10.06939        -0.082553     -0.021575      0.122526
      5.86339      6.76617     10.06939         0.082553     -0.021575      0.122526
      8.79137      6.76312     10.06895         0.000000      0.061650      0.041650
      0.00000      0.00000     12.45783        -0.000000     -0.056716     -0.105092
      2.95723      0.04373     12.49962        -0.100293     -0.562454     -0.251381
      5.83413      0.04373     12.49962         0.100293     -0.562454     -0.251381
      1.51649      2.53918     12.49962        -2.323965     -0.465092     -0.969458
      7.27488      2.53918     12.49962         2.323965     -0.465092     -0.969458
      2.95494      5.03064     12.49962        -0.236096      0.919289     -0.264334
      5.83643      5.03064     12.49962         0.236096      0.919289     -0.264334
      8.79137      5.07570     12.47105         0.000000      0.121276     -0.101087
      4.39568      2.53785     12.22632         0.000000      0.291768      3.790534
      3.20014      2.87423     13.61175         0.002689     -0.000151     -0.009815
      5.59122      2.87423     13.61175        -0.002689     -0.000151     -0.009815
    total drift:                                0.035011      0.002092     -0.002502

  FREE ENERGIE OF THE ION-ELECTRON SYSTEM (eV)
  free  energy   TOTEN  =      -113.94241481 eV

  energy  without entropy=     -113.94241481  energy(sigma->0) =     -113.94241481

 stress matrix after NEB project (eV)
      5.23763     -0.00000      0.00000
     -0.00000     -1.79907      0.29237
      0.00000      0.29237     -0.05743
  FORCES: max atom, RMS     0.010178    0.002335
  FORCE total and by dimension    0.014394    0.009815
  Stress total and by dimension    5.553708    5.237627
|           W    W    AA    RRRRR   N    N  II  N    N   GGGG   !!!           |
|           W    W   A  A   R    R  NN   N  II  NN   N  G    G  !!!           |
|           W    W  A    A  R    R  N N  N  II  N N  N  G       !!!           |
|           W WW W  AAAAAA  RRRRR   N  N N  II  N  N N  G  GGG   !            |
|           WW  WW  A    A  R   R   N   NN  II  N   NN  G    G                |
|           W    W  A    A  R    R  N    N  II  N    N   GGGG   !!!           |
|     Tetrahedron method does not include variations of the Fermi             |
|     occupations, so forces and stress will be inaccurate. We suggest        |
|     using a different smearing scheme ISMEAR = 1 or 2 for metals in         |
|     relaxations.                                                            |

 total charge

# of ion       s       p       d       tot
    1        0.420   0.200   9.178   9.799
    2        0.414   0.205   9.176   9.795
    3        0.414   0.205   9.176   9.795
    4        0.415   0.204   9.177   9.796
    5        0.418   0.201   9.177   9.797
    6        0.415   0.204   9.177   9.796
    7        0.416   0.203   9.178   9.797
    8        0.416   0.203   9.178   9.797
    9        0.414   0.204   9.177   9.795
   10        0.410   0.269   9.164   9.842
   11        0.406   0.270   9.166   9.842
   12        0.410   0.269   9.164   9.842
   13        0.402   0.272   9.166   9.840
   14        0.402   0.272   9.166   9.840
   15        0.405   0.266   9.165   9.836
   16        0.407   0.271   9.162   9.839
   17        0.403   0.268   9.165   9.835
   18        0.403   0.268   9.165   9.835
   19        0.397   0.279   9.151   9.827
   20        0.452   0.305   9.135   9.892
   21        0.452   0.305   9.135   9.892
   22        0.398   0.270   9.164   9.832
   23        0.438   0.324   9.122   9.884
   24        0.398   0.270   9.164   9.832
   25        0.400   0.267   9.164   9.831
   26        0.400   0.267   9.164   9.831
   27        0.392   0.268   9.171   9.831
   28        0.413   0.196   9.182   9.791
   29        0.426   0.220   9.168   9.813
   30        0.426   0.220   9.168   9.813
   31        0.407   0.306   9.166   9.878
   32        0.407   0.306   9.166   9.878
   33        0.391   0.229   9.189   9.808
   34        0.391   0.229   9.189   9.808
   35        0.421   0.189   9.184   9.795
   36        0.753   0.893   3.499   5.146
   37        1.596   3.361   0.000   4.956
   38        1.596   3.361   0.000   4.956
tot         18.341  16.314 324.358 359.013

 BZINTS: Fermi energy:    0.332430;  402.000000 electrons
         Band energy:-0.159130E+04;  BLOECHL correction:   -0.035061