 vasp.6.2.0 18Jan21 (build Jun 12 2021 23:27:24) complex

 executed on             LinuxIFC date 2022.05.27  05:13:13

 INCAR:
   ISMEAR = -5
   SIGMA = 0.1
   ISPIN = 1
   EDIFF = 1.d-5
   EDIFFG = -0.01
   NSW = 0
   NELM = 150
   ENCUT = 500
   ISIF = 2
   IBRION = 2
   LREAL = Auto
   ALGO = Fast
   ICHARG = 11
   LORBIT = 10
   LCHARG = .F.
   LWAVE = .F.

 POTCAR:    PAW_PBE Au 04Oct2007
 POTCAR:    PAW_PBE Zr_sv 04Jan2005
 POTCAR:    PAW_PBE N 08Apr2002
|           W    W    AA    RRRRR   N    N  II  N    N   GGGG   !!!           |
|           W    W   A  A   R    R  NN   N  II  NN   N  G    G  !!!           |
|           W    W  A    A  R    R  N N  N  II  N N  N  G       !!!           |
|           W WW W  AAAAAA  RRRRR   N  N N  II  N  N N  G  GGG   !            |
|           WW  WW  A    A  R   R   N   NN  II  N   NN  G    G                |
|           W    W  A    A  R    R  N    N  II  N    N   GGGG   !!!           |
|     For optimal performance we recommend to set                             |
|       NCORE = 2 up to number-of-cores-per-socket                            |
|     This setting can greatly improve the performance of VASP for DFT.       |
|     The default, NCORE=1 might be grossly inefficient on modern             |
|     multi-core architectures or massively parallel machines. Do your        |
|     Unfortunately you need to use the default for GW and RPA                |
|     calculations (for HF NCORE is supported but not extensively tested      |
|     yet).                                                                   |

 POTCAR:    PAW_PBE Au 04Oct2007
   VRHFIN =Au: s1d10

   TITEL  = PAW_PBE Au 04Oct2007
   POMASS =  196.966; ZVAL   =   11.000    mass and valenz
   ENMAX  =  229.943; ENMIN  =  172.457 eV

 POTCAR:    PAW_PBE Zr_sv 04Jan2005
   VRHFIN =Zr: 4s4p5s4d

   TITEL  = PAW_PBE Zr_sv 04Jan2005
   POMASS =   91.224; ZVAL   =   12.000    mass and valenz
   ENMAX  =  229.898; ENMIN  =  172.424 eV

 POTCAR:    PAW_PBE N 08Apr2002
   VRHFIN =N: s2p3

   TITEL  = PAW_PBE N 08Apr2002
   POMASS =   14.001; ZVAL   =    5.000    mass and valenz
   ENMAX  =  400.000; ENMIN  =  300.000 eV

 Optimization of the real space projectors (new method)

 maximal supplied QI-value         = 15.12
 optimisation between [QCUT,QGAM] = [ 11.34, 22.83] = [ 36.00,145.93] Ry
 Optimized for a Real-space Cutoff    1.39 Angstroem

   l    n(q)    QCUT    max X(q) W(low)/X(q) W(high)/X(q)  e(spline)
   2      9    11.338    60.898    0.39E-03    0.42E-03    0.21E-06
   2      9    11.338    58.894    0.40E-03    0.42E-03    0.22E-06
   0      9    11.338   109.617    0.13E-03    0.20E-04    0.13E-06
   0      9    11.338    75.026    0.13E-03    0.20E-04    0.13E-06
   1      9    11.338    16.344    0.33E-04    0.24E-03    0.18E-06
   1      9    11.338    10.160    0.26E-04    0.19E-03    0.15E-06
 Optimization of the real space projectors (new method)

[...]

   l    n(q)    QCUT    max X(q) W(low)/X(q) W(high)/X(q)  e(spline)
   0     10    11.338    12.107    0.38E-04    0.13E-04    0.27E-07
   0     10    11.338     9.948    0.69E-04    0.30E-04    0.38E-07
   1     10    11.338     3.563    0.26E-04    0.18E-04    0.40E-07
   1     10    11.338     4.524    0.25E-03    0.39E-04    0.44E-06
   2      9    11.338    87.261    0.26E-03    0.91E-05    0.26E-06
   2      9    11.338    70.950    0.25E-03    0.91E-05    0.25E-06
 Optimization of the real space projectors (new method)

 maximal supplied QI-value         = 25.13
 optimisation between [QCUT,QGAM] = [ 11.31, 22.87] = [ 35.82,146.48] Ry
 Optimized for a Real-space Cutoff    1.27 Angstroem

   l    n(q)    QCUT    max X(q) W(low)/X(q) W(high)/X(q)  e(spline)
   0      9    11.310    79.467    0.75E-04    0.16E-03    0.36E-06
   0      9    11.310    66.151    0.74E-04    0.16E-03    0.36E-06
   1      8    11.310    17.416    0.35E-03    0.12E-03    0.95E-06
   1      8    11.310    12.382    0.37E-03    0.13E-03    0.98E-06
  PAW_PBE Au 04Oct2007                  :
  PAW_PBE Zr_sv 04Jan2005               :
  PAW_PBE N 08Apr2002                   :

 POSCAR: Au-Zr-N2
  positions in direct lattice
  velocities in cartesian coordinates
 exchange correlation table for  LEXCH =        8
   RHO(1)=    0.500       N(1)  =     2000
   RHO(2)=  100.500       N(2)  =     4000

 VTST: version 3.2, (02/03/18)

 CHAIN: initializing optimizer

 OPT: Using VASP Conjugate-Gradient optimizer
 CHAIN: Read ICHAIN            0

 POSCAR: Au-Zr-N2
  positions in direct lattice
  velocities in cartesian coordinates

 ion  position               nearest neighbor table
   1  0.000  0.000  0.208-  16 2.94  12 2.94   6 2.94   8 2.94   7 2.94   3 2.94  10 2.94   4 2.94
                             2 2.94
   2  0.333  0.000  0.208-   9 2.94  11 2.94  17 2.94  10 2.94   8 2.94   4 2.94   5 2.94   1 2.94
                             3 2.94
   3  0.667  0.000  0.208-   7 2.94  18 2.94  12 2.94   1 2.94  11 2.94   5 2.94   6 2.94   9 2.94
                             2 2.94
   4  0.000  0.333  0.208-  10 2.94   6 2.94   5 2.94  13 2.94   2 2.94  15 2.94   9 2.94   1 2.94
                             7 2.94
   5  0.333  0.333  0.208-  13 2.94   7 2.94  11 2.94   4 2.94   2 2.94  14 2.94   3 2.94   8 2.94
                             6 2.94
   6  0.667  0.333  0.208-  15 2.94  14 2.94   1 2.94  12 2.94   4 2.94   9 2.94   8 2.94   3 2.94
                             5 2.94
   7  0.000  0.667  0.208-  18 2.94   3 2.94  16 2.94   5 2.94   1 2.94  13 2.94   8 2.94   4 2.94
                             9 2.94
   8  0.333  0.667  0.208-   9 2.94  17 2.94   1 2.94   2 2.94  14 2.94  16 2.94   6 2.94   7 2.94
                             5 2.94
   9  0.667  0.667  0.208-   2 2.94   8 2.94  17 2.94   6 2.94  15 2.94   4 2.94   3 2.94  18 2.94
                             7 2.94
  10  0.111  0.111  0.303-  20 2.93  26 2.93  19 2.93  11 2.94  17 2.94   2 2.94   4 2.94   1 2.94
                            12 2.94  16 2.94  13 2.94  15 2.94
  11  0.444  0.111  0.303-  20 2.92  21 2.92  27 2.94  13 2.94   2 2.94  10 2.94  17 2.94   5 2.94
                             3 2.94  18 2.94  14 2.94  12 2.94
  12  0.778  0.111  0.303-  21 2.93  25 2.93  19 2.93  16 2.94  18 2.94   1 2.94  14 2.94  15 2.94
                             3 2.94   6 2.94  10 2.94  11 2.94
  13  0.111  0.444  0.303-  23 2.92  20 2.92  22 2.94   5 2.94  18 2.94  11 2.94   7 2.94   4 2.94
                            16 2.94  10 2.94  14 2.94  15 2.94
  14  0.444  0.444  0.303-  21 2.92  23 2.92  24 2.94  15 2.94   6 2.94  12 2.94   8 2.94  17 2.94
                             5 2.94  16 2.94  13 2.94  11 2.94
  15  0.778  0.444  0.303-  24 2.93  22 2.93  19 2.93  14 2.94   6 2.94  17 2.94  12 2.94   9 2.94
                             4 2.94  10 2.94  13 2.94  18 2.94
  16  0.111  0.778  0.303-  23 2.93  25 2.93  26 2.93  18 2.94  12 2.94   7 2.94   1 2.94   8 2.94
                            13 2.94  10 2.94  14 2.94  17 2.94
  17  0.444  0.778  0.303-  27 2.93  24 2.93  26 2.93   9 2.94  15 2.94   2 2.94  10 2.94  11 2.94
                             8 2.94  14 2.94  16 2.94  18 2.94
  18  0.778  0.778  0.303-  22 2.93  27 2.93  25 2.93  16 2.94   7 2.94  13 2.94  12 2.94   3 2.94
                            11 2.94   9 2.94  15 2.94  17 2.94
  19  0.889  0.222  0.397-  10 2.93  12 2.93  15 2.93  26 2.94  25 2.94  24 2.94  22 2.94  21 2.95
                            20 2.95  28 2.96  32 3.04  31 3.04
  20  0.223  0.223  0.397-  36 2.86  23 2.92  21 2.92  11 2.92  13 2.92  10 2.93  27 2.94  22 2.94
                            26 2.95  19 2.95  29 3.00  31 3.00
  21  0.554  0.223  0.397-  36 2.86  20 2.92  23 2.92  14 2.92  11 2.92  12 2.93  27 2.94  24 2.94
                            25 2.95  19 2.95  30 3.00  32 3.00
  22  0.888  0.556  0.397-  24 2.92  27 2.92  18 2.93  15 2.93  13 2.94  25 2.94  19 2.94  23 2.94
                            20 2.94  35 2.96  33 3.01  31 3.01
  23  0.223  0.554  0.397-  36 2.86  20 2.92  21 2.92  13 2.92  14 2.92  16 2.93  22 2.94  24 2.94
                            25 2.95  26 2.95  33 3.00  34 3.00
  24  0.556  0.556  0.397-  27 2.92  22 2.92  15 2.93  17 2.93  14 2.94  26 2.94  19 2.94  21 2.94
                            23 2.94  35 2.96  32 3.01  34 3.01
  25  0.889  0.889  0.397-  16 2.93  12 2.93  18 2.93  19 2.94  26 2.94  22 2.94  27 2.94  23 2.95
                            21 2.95  28 2.96  33 3.04  30 3.04
  26  0.222  0.889  0.397-  10 2.93  16 2.93  17 2.93  19 2.94  25 2.94  27 2.94  24 2.94  20 2.95
                            23 2.95  28 2.96  29 3.04  34 3.04
  27  0.556  0.888  0.397-  24 2.92  22 2.92  17 2.93  18 2.93  11 2.94  26 2.94  25 2.94  20 2.94
                            21 2.94  35 2.96  29 3.01  30 3.01
  28  0.000  0.000  0.493-  25 2.96  19 2.96  26 2.96  34 2.97  32 2.97  33 2.97  30 2.97  31 2.97
                            29 2.97
  29  0.334  0.006  0.495-  30 2.88  31 2.89  36 2.89  35 2.96  28 2.97  20 3.00  27 3.01  26 3.04
                            34 3.04
  30  0.661  0.006  0.495-  29 2.88  32 2.89  36 2.89  35 2.96  28 2.97  21 3.00  27 3.01  25 3.04
                            33 3.04
  31  0.006  0.334  0.495-  33 2.88  29 2.89  36 2.89  35 2.96  28 2.97  20 3.00  22 3.01  19 3.04
                            32 3.04
  32  0.661  0.334  0.495-  34 2.88  30 2.89  36 2.89  35 2.96  28 2.97  21 3.00  24 3.01  19 3.04
                            31 3.04
  33  0.006  0.661  0.495-  31 2.88  34 2.89  36 2.89  35 2.96  28 2.97  23 3.00  22 3.01  25 3.04
                            30 3.04
  34  0.334  0.661  0.495-  32 2.88  33 2.89  36 2.89  35 2.96  28 2.97  23 3.00  24 3.01  26 3.04
                            29 3.04
  35  0.667  0.667  0.493-  24 2.96  27 2.96  22 2.96  29 2.96  34 2.96  32 2.96  31 2.96  30 2.96
                            33 2.96
  36  0.333  0.333  0.488-  20 2.86  23 2.86  21 2.86  33 2.89  31 2.89  29 2.89  30 2.89  34 2.89
                            32 2.89
  37  0.269  0.336  0.646-  38 1.11
  38  0.395  0.336  0.646-  37 1.11

  LATTYP: Found a hexagonal cell.
 ALAT       =     8.8135128021
 C/A-ratio  =     2.8791578817

  Lattice vectors:

 A1 = (  -4.4067569092,  -7.6327256898,   0.0000000000)
 A2 = (   8.8135128021,   0.0000000000,   0.0000000000)
 A3 = (   0.0000000000,   0.0000000000,  25.3754948492)

Analysis of symmetry for initial positions (statically):
 Subroutine PRICEL returns:
 Original cell was already a primitive cell.

 Routine SETGRP: Setting up the symmetry group for a
 hexagonal supercell.

 Subroutine GETGRP returns: Found  2 space group operations
 (whereof  2 operations were pure point group operations)
 out of a pool of 24 trial point group operations.

The static configuration has the point symmetry C_1h.

Analysis of symmetry for dynamics (positions and initial velocities):
 Subroutine PRICEL returns:
 Original cell was already a primitive cell.

[...]

The dynamic configuration has the point symmetry C_1h.

Analysis of constrained symmetry for selective dynamics:
 Subroutine PRICEL returns:
 Original cell was already a primitive cell.

 Routine SETGRP: Setting up the symmetry group for a
 hexagonal supercell.

[...]
     33      -5.4989      2.00000
     34      -5.4802      2.00000
     35      -5.4417      2.00000
     36      -5.4004      2.00000
     37      -5.3558      2.00000
     38      -5.3004      2.00000
     39      -5.2749      2.00000
     40      -5.2342      2.00000
     41      -5.2267      2.00000
     42      -5.1990      2.00000
     43      -5.1961      2.00000
     44      -5.1820      2.00000
     45      -5.1541      2.00000
     46      -5.0191      2.00000
     47      -4.9995      2.00000
     48      -4.9386      2.00000
     49      -4.8954      2.00000
     50      -4.8743      2.00000
     51      -4.8461      2.00000
     52      -4.8253      2.00000
     53      -4.7893      2.00000
     54      -4.7651      2.00000
     55      -4.6866      2.00000
     56      -4.6704      2.00000
     57      -4.6253      2.00000
     58      -4.6085      2.00000
     59      -4.6010      2.00000
     60      -4.5938      2.00000
[...]
    242       5.5269      0.00000
    243       5.6652      0.00000
    244       5.7351      0.00000
    245       5.7506      0.00000
    246       5.8900      0.00000
    247       5.9940      0.00000
    248       6.0388      0.00000
    249       6.0470      0.00000
    250       6.2479      0.00000
    251       6.2784      0.00000
    252       6.3719      0.00000
    253       6.5414      0.00000
    254       6.5555      0.00000
    255       6.6314      0.00000
    256       6.6667      0.00000

 soft charge-density along one line, spin component           1
         0         1         2         3         4         5         6         7         8         9
 total charge-density along one line

------------------------ aborting loop because EDIFF is reached ----------------------------------------

 total charge

# of ion       s       p       d       tot
    1        0.551   0.237   8.767   9.554
    2        0.542   0.241   8.766   9.549
    3        0.542   0.241   8.766   9.549
    4        0.542   0.241   8.766   9.549
    5        0.543   0.242   8.761   9.546
    6        0.542   0.241   8.766   9.549
    7        0.542   0.241   8.766   9.548
    8        0.542   0.241   8.766   9.548
    9        0.545   0.240   8.766   9.551
   10        0.524   0.308   8.769   9.601
   11        0.519   0.306   8.779   9.604
   12        0.524   0.308   8.769   9.601
   13        0.519   0.306   8.779   9.604
   14        0.519   0.306   8.779   9.604
   15        0.516   0.308   8.773   9.597
   16        0.524   0.307   8.769   9.600
   17        0.517   0.308   8.773   9.597
   18        0.517   0.308   8.773   9.597
   19        0.522   0.299   8.767   9.588
   20        0.568   0.333   8.729   9.630
   21        0.568   0.333   8.729   9.630
   22        0.510   0.305   8.774   9.589
   23        0.568   0.333   8.729   9.630
   24        0.510   0.305   8.774   9.589
   25        0.522   0.299   8.767   9.588
   26        0.522   0.299   8.767   9.588
   27        0.510   0.305   8.774   9.589
   28        0.542   0.236   8.751   9.529
   29        0.601   0.250   8.723   9.574
   30        0.601   0.250   8.723   9.574
   31        0.601   0.249   8.723   9.574
   32        0.601   0.249   8.723   9.574
   33        0.601   0.250   8.723   9.574
   34        0.601   0.250   8.723   9.574
   35        0.539   0.237   8.754   9.530
   36        2.194   5.971   1.433   9.598
   37        1.373   2.467   0.000   3.840
   38        1.373   2.467   0.000   3.840
tot         23.997  20.618 307.938 352.553

  FORCE on cell =-STRESS in cart. coord.  units (eV):
  Direction    XX          YY          ZZ          XY          YZ          ZX
  Alpha Z   920.31678   920.31678   920.31678
  Ewald  163264.74912162941.85921************    -0.00033     0.09980    -0.00014
  Hartree171717.57709171602.09934************     0.00001     0.01412    -0.00004
  E(xc)   -1819.31469 -1820.55641 -1828.34511    -0.00001     0.00008    -0.00000
  Local  ************************347211.19721     0.00242    -0.10550     0.00005
  n-local   -81.46171   -68.89834   -37.27232     4.57999    -0.00748     0.00149
  augment  2365.86538  2365.55417  2384.61092    -0.00144     0.00191     0.00002
  Kinetic  5742.46285  5760.49254  5816.67003     1.00465    -0.00762    -0.09483
  Fock        0.00000     0.00000     0.00000     0.00000     0.00000     0.00000
  Total     -22.42067   -22.40593     1.81451    -0.00000    -0.00469    -0.00000
  in kB     -21.04340   -21.02957     1.70305    -0.00000    -0.00441    -0.00000

 VOLUME and BASIS-vectors are now :
  energy-cutoff  :      500.00
  volume of cell :     1707.04
      direct lattice vectors                 reciprocal lattice vectors
     8.813512802  0.000000000  0.000000000     0.113462137 -0.065507406  0.000000000
     4.406756909  7.632725690  0.000000000     0.000000000  0.131014796  0.000000000
     0.000000000  0.000000000 25.375494849     0.000000000  0.000000000  0.039408098

  length of vectors
     8.813512802  8.813512802 25.375494849     0.131014796  0.131014796  0.039408098

 FORCES acting on ions
    electron-ion (+dipol)            ewald-force                    non-local-force                 convergence-correction
   -.201E-04 0.165E-01 0.274E+04   0.519E-04 -.182E-02 -.274E+04   -.156E-09 -.234E-02 -.499E+00   -.146E-03 -.126E-01 -.162E+00
   0.324E+00 0.402E+00 0.274E+04   -.382E+00 -.501E+00 -.274E+04   0.833E-02 0.660E-01 -.348E+00   0.481E-01 0.231E-01 -.148E+00
   -.324E+00 0.402E+00 0.274E+04   0.382E+00 -.501E+00 -.274E+04   -.833E-02 0.660E-01 -.348E+00   -.479E-01 0.251E-01 -.148E+00
   0.501E+00 0.810E-01 0.274E+04   -.623E+00 -.826E-01 -.274E+04   0.614E-01 -.283E-01 -.351E+00   0.521E-01 0.317E-01 -.145E+00
   0.721E-05 -.143E-01 0.274E+04   0.951E-04 -.857E-03 -.274E+04   -.120E-10 -.180E-03 -.455E-01   0.427E-02 0.156E-01 -.155E+00
   -.501E+00 0.810E-01 0.274E+04   0.623E+00 -.827E-01 -.274E+04   -.614E-01 -.283E-01 -.351E+00   -.537E-01 0.327E-01 -.144E+00
   0.171E+00 -.481E+00 0.274E+04   -.241E+00 0.583E+00 -.274E+04   0.534E-01 -.385E-01 -.351E+00   0.105E-01 -.573E-01 -.146E+00
   -.171E+00 -.481E+00 0.274E+04   0.241E+00 0.583E+00 -.274E+04   -.534E-01 -.385E-01 -.351E+00   -.862E-02 -.583E-01 -.145E+00
   0.198E-04 -.840E-02 0.274E+04   0.166E-03 0.270E-02 -.274E+04   0.292E-09 0.439E-02 -.282E+00   -.466E-02 0.123E-02 -.932E-01
   0.338E+01 0.198E+01 0.960E+03   -.326E+01 -.190E+01 -.959E+03   -.217E+00 -.129E+00 -.653E+00   0.859E-01 0.428E-01 0.672E-01
   0.154E-04 0.579E+01 0.967E+03   0.147E-03 -.584E+01 -.966E+03   -.189E-08 -.284E-01 -.213E+00   0.344E-02 0.199E-01 0.673E-01
   -.338E+01 0.198E+01 0.960E+03   0.326E+01 -.190E+01 -.959E+03   0.217E+00 -.129E+00 -.653E+00   -.869E-01 0.442E-01 0.660E-01
   0.500E+01 -.292E+01 0.967E+03   -.504E+01 0.292E+01 -.966E+03   -.241E-01 0.193E-01 -.215E+00   0.209E-01 0.118E-01 0.656E-01
   -.500E+01 -.292E+01 0.967E+03   0.504E+01 0.292E+01 -.966E+03   0.241E-01 0.193E-01 -.215E+00   -.132E-01 0.117E-01 0.653E-01
   0.307E-04 0.513E+00 0.960E+03   0.236E-03 -.607E+00 -.959E+03   0.486E-09 0.730E-02 -.516E+00   -.220E-02 0.515E-01 0.331E-01
   -.214E-04 -.390E+01 0.960E+03   0.163E-03 0.378E+01 -.959E+03   0.168E-07 0.252E+00 -.650E+00   0.402E-03 -.111E+00 0.554E-01
   0.461E+00 -.263E+00 0.960E+03   -.531E+00 0.318E+00 -.959E+03   0.939E-02 -.648E-02 -.510E+00   0.319E-01 -.330E-01 0.257E-01
   -.461E+00 -.263E+00 0.960E+03   0.531E+00 0.318E+00 -.959E+03   -.939E-02 -.648E-02 -.510E+00   -.323E-01 -.315E-01 0.247E-01
   -.426E-04 -.151E+01 -.851E+03   0.525E-04 0.157E+01 0.850E+03   -.425E-08 -.639E-01 0.566E+00   0.350E-02 0.130E-01 0.245E+00
   0.355E+02 0.206E+02 -.803E+03   -.346E+02 -.201E+02 0.803E+03   -.103E+01 -.588E+00 -.105E+01   0.152E+00 0.101E+00 0.392E+00
   -.355E+02 0.206E+02 -.803E+03   0.346E+02 -.201E+02 0.803E+03   0.103E+01 -.588E+00 -.105E+01   -.153E+00 0.104E+00 0.392E+00
   0.812E+01 -.479E+01 -.842E+03   -.845E+01 0.499E+01 0.841E+03   0.215E+00 -.127E+00 0.628E+00   0.817E-01 -.649E-01 0.225E+00
   -.812E-05 -.411E+02 -.803E+03   0.143E-03 0.401E+02 0.803E+03   0.785E-07 0.118E+01 -.105E+01   0.171E-02 -.197E+00 0.388E+00
   -.812E+01 -.479E+01 -.842E+03   0.845E+01 0.499E+01 0.841E+03   -.215E+00 -.127E+00 0.628E+00   -.888E-01 -.629E-01 0.225E+00
   0.139E+01 0.798E+00 -.851E+03   -.146E+01 -.848E+00 0.850E+03   0.583E-01 0.366E-01 0.559E+00   0.303E-02 0.764E-02 0.236E+00
   -.139E+01 0.798E+00 -.851E+03   0.146E+01 -.848E+00 0.850E+03   -.583E-01 0.366E-01 0.559E+00   0.562E-02 0.696E-02 0.237E+00
   0.121E-04 0.938E+01 -.842E+03   0.195E-03 -.975E+01 0.841E+03   0.163E-07 0.245E+00 0.626E+00   -.578E-02 0.910E-01 0.225E+00
   -.149E-04 0.589E+00 -.260E+04   0.294E-04 -.595E+00 0.260E+04   -.460E-11 -.691E-04 0.351E+00   0.431E-03 0.626E-02 0.206E+00
   0.368E+02 0.612E+02 -.262E+04   -.356E+02 -.595E+02 0.262E+04   -.124E+01 -.196E+01 -.698E+00   0.841E-01 0.155E+00 0.162E+00
   -.368E+02 0.612E+02 -.262E+04   0.356E+02 -.595E+02 0.262E+04   0.124E+01 -.196E+01 -.698E+00   -.844E-01 0.157E+00 0.163E+00
   0.713E+02 0.201E+01 -.262E+04   -.692E+02 -.191E+01 0.262E+04   -.231E+01 -.852E-01 -.661E+00   0.170E+00 0.393E-02 0.156E+00
   -.713E+02 0.201E+01 -.262E+04   0.692E+02 -.191E+01 0.262E+04   0.231E+01 -.852E-01 -.661E+00   -.171E+00 0.541E-02 0.156E+00
   0.338E+02 -.633E+02 -.262E+04   -.329E+02 0.614E+02 0.262E+04   -.109E+01 0.205E+01 -.699E+00   0.870E-01 -.158E+00 0.161E+00
   -.338E+02 -.633E+02 -.262E+04   0.329E+02 0.614E+02 0.262E+04   0.109E+01 0.205E+01 -.699E+00   -.848E-01 -.159E+00 0.160E+00
   0.300E-04 -.820E+00 -.261E+04   0.143E-03 0.836E+00 0.260E+04   0.299E-10 0.450E-03 0.552E+00   -.491E-02 -.150E-01 0.180E+00
   0.209E-03 0.360E+00 -.273E+04   0.120E-03 -.371E+00 0.273E+04   -.415E-10 -.624E-03 0.332E+01   0.526E-02 0.104E-01 0.109E+00
   0.241E+03 -.366E-02 -.110E+04   -.287E+03 0.553E-02 0.110E+04   0.457E+02 -.123E-02 -.295E+00   0.299E-02 0.531E-03 -.368E-01
   -.241E+03 -.364E-02 -.110E+04   0.287E+03 0.553E-02 0.110E+04   -.457E+02 -.123E-02 -.295E+00   -.296E-02 0.549E-03 -.369E-01
   -.452E-03 -.169E-01 0.415E+01   0.000E+00 0.980E-13 -.136E-11   0.405E-09 0.608E-02 -.713E+01   0.993E-02 0.146E-01 0.313E+01

 POSITION                                       TOTAL-FORCE (eV/Angst)
      0.00000      0.00000      5.28038        -0.000000     -0.000368     -0.116477
      2.93784      0.00000      5.28038        -0.002580     -0.008499     -0.039340
      5.87568      0.00000      5.28038         0.002580     -0.008499     -0.039340
      1.46892      2.54424      5.28038        -0.008360      0.002125     -0.040105
      4.40676      2.54424      5.28038         0.000000      0.000153     -0.012295
      7.34459      2.54424      5.28038         0.008360      0.002125     -0.040105
      2.93784      5.08848      5.28038        -0.006614      0.005953     -0.039484
      5.87568      5.08848      5.28038         0.006614      0.005953     -0.039484
      8.81351      5.08848      5.28038        -0.000000     -0.000181     -0.056619
      1.46892      0.84808      7.67911        -0.014213     -0.007830     -0.006372
      4.40676      0.84808      7.67911        -0.000000     -0.059257     -0.059977
      7.34459      0.84808      7.67911         0.014213     -0.007830     -0.006372
      2.93784      3.39232      7.67911        -0.052265      0.029689     -0.059972
      5.87568      3.39232      7.67911         0.052265      0.029689     -0.059972
      8.81351      3.39232      7.67911        -0.000000     -0.034713      0.071298
      4.40676      5.93656      7.67911         0.000000      0.017093     -0.005731
      7.34459      5.93656      7.67911        -0.028441      0.016413      0.071991
     10.28243      5.93656      7.67911         0.028441      0.016413      0.071991
      8.81351      1.69571     10.07248         0.000000      0.012062      0.050198
      2.94528      1.70046     10.06340         0.012990      0.007435      0.004377
      5.86824      1.70046     10.06340        -0.012990      0.007435      0.004377
     10.27570      4.24429     10.07162        -0.025822      0.015010      0.028740
      4.40676      4.23182     10.06340        -0.000000     -0.013045      0.003276
      7.35132      4.24429     10.07162         0.025822      0.015010      0.028740
     11.75174      6.78487     10.07248        -0.009663     -0.006163      0.049324
      5.87529      6.78487     10.07248         0.009663     -0.006163      0.049324
      8.81351      6.77688     10.07162        -0.000000     -0.030272      0.027770
      0.00000      0.00000     12.49858        -0.000000     -0.000109     -0.027391
      2.96552      0.04535     12.55994        -0.000217     -0.035971      0.028061
      5.84799      0.04535     12.55994         0.000217     -0.035971      0.028061
      1.52204      2.54555     12.55994        -0.030205      0.017959      0.027844
      7.29148      2.54555     12.55994         0.030205      0.017959      0.027844
      2.96327      5.04183     12.55994        -0.031096      0.017700      0.027678
      5.85025      5.04183     12.55994         0.031096      0.017700      0.027678
      8.81351      5.08848     12.50663         0.000000      0.000436      0.014460
      4.40676      2.54424     12.37417        -0.000000     -0.001627      0.004720
      3.84960      2.56514     16.38303         0.002115      0.001093      0.000640
      4.96391      2.56514     16.38303        -0.002115      0.001093      0.000640
    total drift:                                0.009483      0.003769      0.149814

  FREE ENERGIE OF THE ION-ELECTRON SYSTEM (eV)
  free  energy   TOTEN  =      -133.11012185 eV

  energy  without entropy=     -133.11012185  energy(sigma->0) =     -133.11012185

 stress matrix after NEB project (eV)
    -22.42067     -0.00000     -0.00000
     -0.00000    -22.40593     -0.00469
     -0.00000     -0.00469      1.81451
  FORCES: max atom, RMS     0.002465    0.000566
  FORCE total and by dimension    0.003487    0.002115
  Stress total and by dimension   31.749090   22.420672
|           W    W    AA    RRRRR   N    N  II  N    N   GGGG   !!!           |
|           W    W   A  A   R    R  NN   N  II  NN   N  G    G  !!!           |
|           W    W  A    A  R    R  N N  N  II  N N  N  G       !!!           |
|           W WW W  AAAAAA  RRRRR   N  N N  II  N  N N  G  GGG   !            |
|           WW  WW  A    A  R   R   N   NN  II  N   NN  G    G                |
|           W    W  A    A  R    R  N    N  II  N    N   GGGG   !!!           |
|     Tetrahedron method does not include variations of the Fermi             |
|     occupations, so forces and stress will be inaccurate. We suggest        |
|     using a different smearing scheme ISMEAR = 1 or 2 for metals in         |
|     relaxations.                                                            |

 total charge

# of ion       s       p       d       tot
    1        0.551   0.237   8.767   9.554
    2        0.542   0.241   8.766   9.549
    3        0.542   0.241   8.766   9.549
    4        0.542   0.241   8.766   9.549
    5        0.543   0.242   8.761   9.546
    6        0.542   0.241   8.766   9.549
    7        0.542   0.241   8.766   9.548
    8        0.542   0.241   8.766   9.548
    9        0.545   0.240   8.766   9.551
   10        0.524   0.308   8.769   9.601
   11        0.519   0.306   8.779   9.604
   12        0.524   0.308   8.769   9.601
   13        0.519   0.306   8.779   9.604
   14        0.519   0.306   8.779   9.604
   15        0.516   0.308   8.773   9.597
   16        0.524   0.307   8.769   9.600
   17        0.517   0.308   8.773   9.597
   18        0.517   0.308   8.773   9.597
   19        0.522   0.299   8.767   9.588
   20        0.568   0.333   8.729   9.630
   21        0.568   0.333   8.729   9.630
   22        0.510   0.305   8.774   9.589
   23        0.568   0.333   8.729   9.630
   24        0.510   0.305   8.774   9.589
   25        0.522   0.299   8.767   9.588
   26        0.522   0.299   8.767   9.588
   27        0.510   0.305   8.774   9.589
   28        0.542   0.236   8.751   9.529
   29        0.601   0.250   8.723   9.574
   30        0.601   0.250   8.723   9.574
   31        0.601   0.249   8.723   9.574
   32        0.601   0.249   8.723   9.574
   33        0.601   0.250   8.723   9.574
   34        0.601   0.250   8.723   9.574
   35        0.539   0.237   8.754   9.530
   36        2.194   5.971   1.433   9.598
   37        1.373   2.467   0.000   3.840
   38        1.373   2.467   0.000   3.840
tot         23.997  20.618 307.938 352.553

 BZINTS: Fermi energy:    0.243137;  407.000000 electrons
         Band energy:-0.174754E+04;  BLOECHL correction:   -0.030385