 vasp.6.2.0 18Jan21 (build Jun 12 2021 23:27:24) complex

 executed on             LinuxIFC date 2022.05.30  18:37:16

 INCAR:
   ISMEAR = -5
   SIGMA = 0.1
   ISPIN = 1
   EDIFF = 1.d-5
   EDIFFG = -0.01
   NSW = 0
   NELM = 150
   ENCUT = 500
   ISIF = 2
   IBRION = 2
   LREAL = Auto
   ALGO = Fast
   ICHARG = 11
   LORBIT = 10
   LCHARG = .F.
   LWAVE = .F.

 POTCAR:    PAW_PBE Cu 22Jun2005
 POTCAR:    PAW_PBE W 08Apr2002
 POTCAR:    PAW_PBE C 08Apr2002
|           W    W    AA    RRRRR   N    N  II  N    N   GGGG   !!!           |
|           W    W   A  A   R    R  NN   N  II  NN   N  G    G  !!!           |
|           W    W  A    A  R    R  N N  N  II  N N  N  G       !!!           |
|           W WW W  AAAAAA  RRRRR   N  N N  II  N  N N  G  GGG   !            |
|           WW  WW  A    A  R   R   N   NN  II  N   NN  G    G                |
|           W    W  A    A  R    R  N    N  II  N    N   GGGG   !!!           |
|     For optimal performance we recommend to set                             |
|       NCORE = 2 up to number-of-cores-per-socket                            |
|     This setting can greatly improve the performance of VASP for DFT.       |
|     The default, NCORE=1 might be grossly inefficient on modern             |
|     multi-core architectures or massively parallel machines. Do your        |
|     Unfortunately you need to use the default for GW and RPA                |
|     calculations (for HF NCORE is supported but not extensively tested      |
|     yet).                                                                   |

 POTCAR:    PAW_PBE Cu 22Jun2005
   VRHFIN =Cu: d10 p1

   TITEL  = PAW_PBE Cu 22Jun2005
   POMASS =   63.546; ZVAL   =   11.000    mass and valenz
   ENMAX  =  295.446; ENMIN  =  221.585 eV

 POTCAR:    PAW_PBE W 08Apr2002
   VRHFIN =W : 6s5d

   TITEL  = PAW_PBE W 08Apr2002
   POMASS =  183.850; ZVAL   =    6.000    mass and valenz
   ENMAX  =  223.057; ENMIN  =  167.293 eV

 POTCAR:    PAW_PBE C 08Apr2002
   VRHFIN =C: s2p2

   TITEL  = PAW_PBE C 08Apr2002
   POMASS =   12.011; ZVAL   =    4.000    mass and valenz
   ENMAX  =  400.000; ENMIN  =  300.000 eV

 Optimization of the real space projectors (new method)

 maximal supplied QI-value         = 16.25
 optimisation between [QCUT,QGAM] = [ 11.38, 22.75] = [ 36.24,144.96] Ry
 Optimized for a Real-space Cutoff    1.52 Angstroem

   l    n(q)    QCUT    max X(q) W(low)/X(q) W(high)/X(q)  e(spline)
   2      9    11.376     4.610    0.21E-03    0.10E-03    0.26E-06
   2      9    11.376     8.522    0.33E-03    0.16E-03    0.37E-06
   0     10    11.376    51.609    0.62E-04    0.20E-04    0.13E-06
   0     10    11.376    27.747    0.54E-04    0.20E-04    0.13E-06
   1     10    11.376    20.408    0.13E-04    0.99E-04    0.19E-06
   1     10    11.376    13.425    0.12E-04    0.87E-04    0.17E-06
 Optimization of the real space projectors (new method)

[...]

   l    n(q)    QCUT    max X(q) W(low)/X(q) W(high)/X(q)  e(spline)
   2     10    11.429   130.855    0.22E-03    0.64E-03    0.11E-05
   2     10    11.429   114.007    0.22E-03    0.64E-03    0.11E-05
   0     11    11.429    84.709    0.39E-04    0.67E-04    0.23E-06
   0     11    11.429    49.163    0.35E-04    0.62E-04    0.21E-06
   1     10    11.429    15.765    0.84E-04    0.15E-03    0.24E-06
   1     10    11.429    10.638    0.58E-04    0.12E-03    0.19E-06
 Optimization of the real space projectors (new method)

 maximal supplied QI-value         = 25.13
 optimisation between [QCUT,QGAM] = [ 11.31, 22.87] = [ 35.82,146.48] Ry
 Optimized for a Real-space Cutoff    1.00 Angstroem

   l    n(q)    QCUT    max X(q) W(low)/X(q) W(high)/X(q)  e(spline)
   0      7    11.310   115.676    0.43E-03    0.13E-02    0.19E-06
   0      7    11.310    87.132    0.43E-03    0.13E-02    0.18E-06
   1      6    11.310     4.429    0.42E-03    0.74E-03    0.11E-06
   1      6    11.310     2.733    0.34E-03    0.55E-03    0.92E-07
  PAW_PBE Cu 22Jun2005                  :
  PAW_PBE W 08Apr2002                   :
  PAW_PBE C 08Apr2002                   :

 POSCAR: Cu-W-C
  positions in direct lattice
  velocities in cartesian coordinates
 exchange correlation table for  LEXCH =        8
   RHO(1)=    0.500       N(1)  =     2000
   RHO(2)=  100.500       N(2)  =     4000

 VTST: version 3.2, (02/03/18)

 CHAIN: initializing optimizer

 OPT: Using VASP Conjugate-Gradient optimizer
 CHAIN: Read ICHAIN            0

 POSCAR: Cu-W-C
  positions in direct lattice
  velocities in cartesian coordinates

 ion  position               nearest neighbor table
   1  0.000  0.000  0.226-   7 2.57   3 2.57   4 2.57   2 2.57   6 2.57   8 2.57  12 2.57  10 2.57
                            16 2.57
   2  0.333  0.000  0.226-   8 2.57   9 2.57   5 2.57   1 2.57   3 2.57  11 2.57   4 2.57  10 2.57
                            17 2.57
   3  0.667  0.000  0.226-   1 2.57   7 2.57   6 2.57   9 2.57   2 2.57  12 2.57   5 2.57  18 2.57
                            11 2.57
   4  0.000  0.333  0.226-   5 2.57   6 2.57   1 2.57   7 2.57   2 2.57  13 2.57   9 2.57  10 2.57
                            15 2.57
   5  0.333  0.333  0.226-   4 2.57   2 2.57   7 2.57  13 2.57   8 2.57   6 2.57   3 2.57  11 2.57
                            14 2.57
   6  0.667  0.333  0.226-   4 2.57   9 2.57  15 2.57   3 2.57   1 2.57   8 2.57  14 2.57   5 2.57
                            12 2.57
   7  0.000  0.667  0.226-   1 2.57   3 2.57  16 2.57  18 2.57   4 2.57   5 2.57   8 2.57   9 2.57
                            13 2.57
   8  0.333  0.667  0.226-   9 2.57   2 2.57  17 2.57   6 2.57   1 2.57   7 2.57   5 2.57  14 2.57
                            16 2.57
   9  0.667  0.667  0.226-   8 2.57   6 2.57   2 2.57  17 2.57   3 2.57   7 2.57   4 2.57  15 2.57
                            18 2.57
  10  0.111  0.111  0.314-  20 2.54  11 2.57  12 2.57  13 2.57   1 2.57   2 2.57   4 2.57  15 2.57
                            16 2.57  17 2.57  26 2.57  19 2.57
  11  0.444  0.111  0.314-  20 2.55  21 2.55  10 2.57  13 2.57   2 2.57  17 2.57  14 2.57  12 2.57
                             5 2.57   3 2.57  18 2.57  27 2.58
  12  0.778  0.111  0.314-  21 2.54  15 2.57  10 2.57  14 2.57  18 2.57   3 2.57   1 2.57  16 2.57
                            11 2.57   6 2.57  19 2.57  25 2.57
  13  0.111  0.444  0.314-  23 2.55  20 2.55  16 2.57  18 2.57  10 2.57  11 2.57  14 2.57   5 2.57
                             4 2.57   7 2.57  15 2.57  22 2.58
  14  0.444  0.444  0.314-  21 2.55  23 2.55  15 2.57  17 2.57  12 2.57  16 2.57  13 2.57  11 2.57
                             6 2.57   8 2.57   5 2.57  24 2.58
  15  0.778  0.444  0.314-  19 2.57  14 2.57  17 2.57  12 2.57   6 2.57  18 2.57  10 2.57   9 2.57
                            13 2.57   4 2.57  24 2.57  22 2.57
  16  0.111  0.778  0.314-  23 2.54  18 2.57  13 2.57   7 2.57  14 2.57  17 2.57  12 2.57  10 2.57
                             8 2.57   1 2.57  25 2.57  26 2.57
  17  0.444  0.778  0.314-  26 2.57  14 2.57  15 2.57   8 2.57   9 2.57  11 2.57  16 2.57  18 2.57
                            10 2.57   2 2.57  27 2.57  24 2.57
  18  0.778  0.778  0.314-  25 2.57  16 2.57  13 2.57   7 2.57  15 2.57  12 2.57  17 2.57   9 2.57
                             3 2.57  11 2.57  22 2.57  27 2.57
  19  0.889  0.223  0.402-  21 2.55  20 2.55  22 2.56  24 2.56  15 2.57  12 2.57  10 2.57  25 2.57
                            26 2.57  28 2.57  32 2.60  31 2.60
  20  0.221  0.221  0.401-  10 2.54  36 2.54  11 2.55  13 2.55  26 2.55  19 2.55  27 2.57  22 2.57
                            23 2.59  21 2.59  29 2.62  31 2.62
  21  0.558  0.221  0.401-  12 2.54  36 2.54  14 2.55  11 2.55  19 2.55  25 2.55  24 2.57  27 2.57
                            20 2.59  23 2.59  32 2.62  30 2.62
  22  0.888  0.556  0.402-  24 2.56  27 2.56  19 2.56  25 2.56  35 2.56  23 2.57  20 2.57  18 2.57
                            15 2.57  13 2.58  31 2.59  33 2.59
  23  0.221  0.558  0.401-  16 2.54  36 2.54  13 2.55  14 2.55  25 2.55  26 2.55  22 2.57  24 2.57
                            20 2.59  21 2.59  33 2.62  34 2.62
  24  0.556  0.556  0.402-  22 2.56  27 2.56  19 2.56  26 2.56  35 2.56  21 2.57  23 2.57  15 2.57
                            17 2.57  14 2.58  32 2.59  34 2.59
  25  0.889  0.889  0.402-  21 2.55  23 2.55  22 2.56  27 2.56  18 2.57  16 2.57  12 2.57  19 2.57
                            26 2.57  28 2.57  33 2.60  30 2.60
  26  0.223  0.889  0.402-  20 2.55  23 2.55  27 2.56  24 2.56  17 2.57  10 2.57  16 2.57  25 2.57
                            19 2.57  28 2.57  29 2.60  34 2.60
  27  0.556  0.888  0.402-  24 2.56  22 2.56  26 2.56  25 2.56  35 2.56  20 2.57  21 2.57  17 2.57
                            18 2.57  11 2.58  29 2.59  30 2.59
  28  0.000  0.000  0.490-  33 2.56  30 2.56  31 2.56  29 2.56  32 2.56  34 2.56  25 2.57  19 2.57
                            26 2.57
  29  0.333  1.000  0.492-  34 2.56  28 2.56  35 2.57  31 2.57  36 2.57  30 2.57  27 2.59  26 2.60
                            20 2.62
  30  0.667  1.000  0.492-  33 2.56  28 2.56  35 2.57  32 2.57  36 2.57  29 2.57  27 2.59  25 2.60
                            21 2.62
  31  1.000  0.333  0.492-  32 2.56  28 2.56  35 2.57  29 2.57  36 2.57  33 2.57  22 2.59  19 2.60
                            20 2.62
  32  0.667  0.333  0.492-  31 2.56  28 2.56  35 2.57  30 2.57  36 2.57  34 2.57  24 2.59  19 2.60
                            21 2.62
  33  1.000  0.667  0.492-  30 2.56  28 2.56  35 2.57  34 2.57  36 2.57  31 2.57  22 2.59  25 2.60
                            23 2.62
  34  0.333  0.667  0.492-  29 2.56  28 2.56  35 2.57  33 2.57  36 2.57  32 2.57  24 2.59  26 2.60
                            23 2.62
  35  0.667  0.667  0.491-  24 2.56  27 2.56  22 2.56  34 2.57  32 2.57  29 2.57  30 2.57  33 2.57
                            31 2.57
  36  0.333  0.333  0.487-  37 1.81  23 2.54  20 2.54  21 2.54  31 2.57  29 2.57  33 2.57  34 2.57
                            32 2.57  30 2.57
  37  0.333  0.333  0.563-  36 1.81

  LATTYP: Found a hexagonal cell.
 ALAT       =     7.6967864036
 C/A-ratio  =     3.0908716217

  Lattice vectors:

 A1 = (  -3.8483927580,  -6.6656128093,   0.0000000000)
 A2 = (   7.6967864037,   0.0000000000,   0.0000000000)
 A3 = (   0.0000000000,   0.0000000000,  23.7897786731)

Analysis of symmetry for initial positions (statically):
 Subroutine PRICEL returns:
 Original cell was already a primitive cell.

 Routine SETGRP: Setting up the symmetry group for a
 hexagonal supercell.

 Subroutine GETGRP returns: Found  6 space group operations
 (whereof  6 operations were pure point group operations)
 out of a pool of 24 trial point group operations.

The static configuration has the point symmetry C_3v.

Analysis of symmetry for dynamics (positions and initial velocities):
 Subroutine PRICEL returns:
 Original cell was already a primitive cell.

[...]

The dynamic configuration has the point symmetry C_3v.

Analysis of constrained symmetry for selective dynamics:
 Subroutine PRICEL returns:
 Original cell was already a primitive cell.

 Routine SETGRP: Setting up the symmetry group for a
 hexagonal supercell.

 Subroutine GETGRP returns: Found  6 space group operations
[...]
     24      -4.9658      2.00000
     25      -4.8439      2.00000
     26      -4.8034      2.00000
     27      -4.7604      2.00000
     28      -4.7473      2.00000
     29      -4.7018      2.00000
     30      -4.6861      2.00000
     31      -4.6838      2.00000
     32      -4.6751      2.00000
     33      -4.6619      2.00000
     34      -4.6445      2.00000
     35      -4.6278      2.00000
     36      -4.5635      2.00000
     37      -4.5274      2.00000
     38      -4.3802      2.00000
     39      -4.3696      2.00000
     40      -4.3386      2.00000
     41      -4.2996      2.00000
     42      -4.2906      2.00000
     43      -4.2722      2.00000
     44      -4.2694      2.00000
     45      -4.2482      2.00000
     46      -4.2406      2.00000
     47      -4.0769      2.00000
     48      -4.0502      2.00000
     49      -4.0457      2.00000
     50      -4.0307      2.00000
     51      -3.9885      2.00000
     52      -3.9759      2.00000
     53      -3.9714      2.00000
     54      -3.9577      2.00000
     55      -3.9503      2.00000
     56      -3.9405      2.00000
     57      -3.9195      2.00000
     58      -3.9059      2.00000
     59      -3.8940      2.00000
     60      -3.8898      2.00000
[...]
    238       5.8340      0.00000
    239       5.9024      0.00000
    240       5.9480      0.00000
    241       6.1202      0.00000
    242       6.1673      0.00000
    243       6.2914      0.00000
    244       6.3612      0.00000
    245       6.5817      0.00000
    246       6.6627      0.00000
    247       6.7461      0.00000
    248       6.8154      0.00000
    249       6.9883      0.00000
    250       7.2199      0.00000
    251       7.2909      0.00000
    252       7.4339      0.00000

 soft charge-density along one line, spin component           1
         0         1         2         3         4         5         6         7         8         9
 total charge-density along one line

------------------------ aborting loop because EDIFF is reached ----------------------------------------

 total charge

# of ion       s       p       d       tot
    1        0.448   0.286   9.188   9.921
    2        0.449   0.285   9.185   9.919
    3        0.449   0.285   9.185   9.919
    4        0.449   0.285   9.185   9.919
    5        0.447   0.285   9.184   9.917
    6        0.449   0.285   9.185   9.919
    7        0.449   0.285   9.185   9.919
    8        0.449   0.285   9.185   9.919
    9        0.447   0.285   9.187   9.919
   10        0.441   0.373   9.176   9.989
   11        0.442   0.368   9.181   9.991
   12        0.441   0.373   9.176   9.989
   13        0.442   0.368   9.181   9.991
   14        0.442   0.368   9.181   9.991
   15        0.437   0.369   9.177   9.983
   16        0.441   0.373   9.176   9.989
   17        0.437   0.369   9.177   9.983
   18        0.437   0.369   9.177   9.983
   19        0.439   0.363   9.183   9.986
   20        0.458   0.399   9.172  10.029
   21        0.458   0.399   9.172  10.029
   22        0.428   0.371   9.180   9.979
   23        0.458   0.399   9.172  10.029
   24        0.428   0.371   9.180   9.979
   25        0.439   0.363   9.183   9.986
   26        0.439   0.363   9.183   9.986
   27        0.428   0.371   9.180   9.979
   28        0.449   0.289   9.184   9.922
   29        0.464   0.311   9.170   9.945
   30        0.464   0.311   9.170   9.945
   31        0.464   0.311   9.170   9.945
   32        0.464   0.311   9.170   9.945
   33        0.464   0.311   9.170   9.945
   34        0.464   0.311   9.170   9.945
   35        0.448   0.291   9.182   9.921
   36        0.742   0.630   4.494   5.866
   37        0.996   1.225   0.000   2.221
tot         17.390  13.596 325.754 356.741

  FORCE on cell =-STRESS in cart. coord.  units (eV):
  Direction    XX          YY          ZZ          XY          YZ          ZX
  Alpha Z   799.04552   799.04552   799.04552
  Ewald  220081.15187220081.15149************     0.00037     0.00012     0.00016
  Hartree232604.63628232604.63628************     0.00003     0.00006     0.00006
  E(xc)   -2286.77479 -2286.77429 -2293.63467    -0.00043    -0.00003    -0.00006
  Local  ************************465881.33469     0.01854    -0.00057    -0.00088
  n-local  -770.30778  -757.64389  -781.88522     6.62296    -0.15922     0.33262
  augment  3311.24712  3311.26752  3335.39878    -0.01768     0.00036     0.00065
  Kinetic  3256.91353  3262.15932  3289.83315     3.63466     1.69675    -1.13373
  Fock        0.00000     0.00000     0.00000     0.00000     0.00000     0.00000
  Total      -5.59311    -5.59311    -0.80458     0.00000     0.00000     0.00000
  in kB      -7.34216    -7.34216    -1.05618     0.00000     0.00000     0.00000

 VOLUME and BASIS-vectors are now :
  energy-cutoff  :      500.00
  volume of cell :     1220.51
      direct lattice vectors                 reciprocal lattice vectors
     7.696786404  0.000000000  0.000000000     0.129924354 -0.075011849  0.000000000
     3.848392758  6.665612809  0.000000000     0.000000000  0.150023716  0.000000000
     0.000000000  0.000000000 23.789778673     0.000000000  0.000000000  0.042034859

  length of vectors
     7.696786404  7.696786404 23.789778673     0.150023716  0.150023716  0.042034859

 FORCES acting on ions
    electron-ion (+dipol)            ewald-force                    non-local-force                 convergence-correction
   -.424E-04 -.311E-06 0.370E+04   0.581E-04 -.429E-05 -.369E+04   0.280E-17 0.201E-17 -.234E+01   -.419E-03 -.254E-03 -.149E-01
   -.624E+00 -.728E-01 0.369E+04   0.468E+00 0.136E+00 -.369E+04   0.265E-01 -.180E-01 -.188E+01   0.125E+00 -.424E-01 -.244E-01
   0.624E+00 -.728E-01 0.369E+04   -.468E+00 0.136E+00 -.369E+04   -.265E-01 -.180E-01 -.188E+01   -.124E+00 -.399E-01 -.233E-01
   -.375E+00 -.504E+00 0.369E+04   0.352E+00 0.337E+00 -.369E+04   -.237E-02 0.320E-01 -.188E+01   0.260E-01 0.130E+00 -.244E-01
   -.640E-04 -.469E-05 0.369E+04   0.116E-03 -.101E-04 -.369E+04   -.248E-18 0.195E-17 -.196E+01   0.122E-01 0.748E-02 0.845E-02
   0.375E+00 -.504E+00 0.369E+04   -.352E+00 0.337E+00 -.369E+04   0.237E-02 0.320E-01 -.188E+01   -.277E-01 0.131E+00 -.231E-01
   0.249E+00 0.576E+00 0.369E+04   -.116E+00 -.473E+00 -.369E+04   -.289E-01 -.139E-01 -.188E+01   -.967E-01 -.878E-01 -.231E-01
   -.249E+00 0.576E+00 0.369E+04   0.116E+00 -.473E+00 -.369E+04   0.289E-01 -.139E-01 -.188E+01   0.100E+00 -.893E-01 -.230E-01
   -.144E-03 -.333E-04 0.370E+04   0.263E-03 0.204E-04 -.369E+04   -.104E-17 -.200E-17 -.222E+01   -.132E-01 -.675E-02 -.459E-01
   -.732E+00 -.423E+00 0.122E+04   0.897E+00 0.518E+00 -.122E+04   -.282E+00 -.163E+00 -.835E+00   0.975E-01 0.561E-01 0.555E-01
   -.902E-04 -.199E+01 0.121E+04   0.190E-03 0.173E+01 -.121E+04   -.815E-08 0.122E+00 -.807E+00   0.124E-01 0.101E+00 0.217E-01
   0.732E+00 -.423E+00 0.122E+04   -.897E+00 0.518E+00 -.122E+04   0.282E+00 -.163E+00 -.835E+00   -.998E-01 0.575E-01 0.567E-01
   -.172E+01 0.996E+00 0.121E+04   0.150E+01 -.864E+00 -.121E+04   0.106E+00 -.612E-01 -.807E+00   0.946E-01 -.390E-01 0.217E-01
   0.172E+01 0.996E+00 0.121E+04   -.150E+01 -.864E+00 -.121E+04   -.106E+00 -.612E-01 -.807E+00   -.705E-01 -.407E-01 0.209E-01
   -.140E-03 -.160E+01 0.122E+04   0.297E-03 0.154E+01 -.122E+04   -.487E-08 0.732E-01 -.764E+00   -.379E-02 0.648E-02 -.385E-01
   -.899E-04 0.846E+00 0.122E+04   0.186E-03 -.104E+01 -.122E+04   -.217E-07 0.326E+00 -.835E+00   -.766E-03 -.117E+00 0.569E-01
   -.139E+01 0.800E+00 0.122E+04   0.133E+01 -.767E+00 -.122E+04   0.634E-01 -.366E-01 -.764E+00   0.410E-02 -.661E-02 -.378E-01
   0.139E+01 0.801E+00 0.122E+04   -.133E+01 -.767E+00 -.122E+04   -.634E-01 -.366E-01 -.764E+00   -.267E-02 -.317E-02 -.352E-01
   -.616E-04 -.617E+01 -.126E+04   0.714E-04 0.604E+01 0.126E+04   -.540E-08 0.812E-01 0.124E+01   -.128E-01 0.329E-01 -.870E-01
   -.487E+02 -.281E+02 -.129E+04   0.481E+02 0.278E+02 0.129E+04   0.726E-01 0.419E-01 0.481E+00   0.102E+00 0.586E-01 -.350E-01
   0.487E+02 -.281E+02 -.129E+04   -.481E+02 0.278E+02 0.129E+04   -.726E-01 0.419E-01 0.481E+00   -.985E-01 0.570E-01 -.357E-01
   -.272E+02 0.157E+02 -.127E+04   0.264E+02 -.152E+02 0.127E+04   0.689E+00 -.398E+00 0.110E+01   0.180E+00 -.878E-01 -.502E-01
   -.955E-04 0.562E+02 -.129E+04   0.148E-03 -.556E+02 0.129E+04   0.558E-08 -.838E-01 0.481E+00   -.179E-03 -.114E+00 -.358E-01
   0.272E+02 0.157E+02 -.127E+04   -.264E+02 -.152E+02 0.127E+04   -.689E+00 -.398E+00 0.110E+01   -.180E+00 -.910E-01 -.502E-01
   0.535E+01 0.309E+01 -.126E+04   -.523E+01 -.302E+01 0.126E+04   -.703E-01 -.406E-01 0.124E+01   -.465E-01 -.270E-01 -.875E-01
   -.535E+01 0.309E+01 -.126E+04   0.523E+01 -.302E+01 0.126E+04   0.703E-01 -.406E-01 0.124E+01   0.232E-01 -.288E-01 -.870E-01
   -.116E-03 -.314E+02 -.127E+04   0.239E-03 0.305E+02 0.127E+04   -.530E-07 0.795E+00 0.110E+01   0.130E-01 0.199E+00 -.500E-01
   -.494E-04 0.957E-05 -.365E+04   0.420E-04 -.316E-04 0.365E+04   0.322E-17 0.665E-17 0.199E+01   -.636E-03 -.550E-03 0.173E+00
   -.332E+02 -.579E+02 -.366E+04   0.335E+02 0.582E+02 0.366E+04   -.483E+00 -.574E+00 0.243E+01   0.823E-01 0.139E+00 0.169E+00
   0.332E+02 -.579E+02 -.366E+04   -.335E+02 0.582E+02 0.366E+04   0.483E+00 -.574E+00 0.243E+01   -.809E-01 0.140E+00 0.167E+00
   -.667E+02 0.218E+00 -.366E+04   0.672E+02 -.844E-01 0.366E+04   -.739E+00 -.132E+00 0.243E+01   0.162E+00 0.167E-02 0.169E+00
   0.667E+02 0.218E+00 -.366E+04   -.672E+02 -.845E-01 0.366E+04   0.739E+00 -.132E+00 0.243E+01   -.162E+00 0.205E-02 0.169E+00
   -.336E+02 0.577E+02 -.366E+04   0.337E+02 -.581E+02 0.366E+04   -.255E+00 0.706E+00 0.243E+01   0.811E-01 -.140E+00 0.167E+00
   0.336E+02 0.577E+02 -.366E+04   -.337E+02 -.581E+02 0.366E+04   0.255E+00 0.706E+00 0.243E+01   -.784E-01 -.141E+00 0.168E+00
   -.148E-03 -.277E-04 -.367E+04   0.249E-03 0.214E-05 0.366E+04   -.460E-17 -.402E-17 0.240E+01   -.125E-01 -.601E-02 0.249E+00
   -.318E-04 -.877E-05 -.187E+04   0.757E-04 0.144E-04 0.187E+04   0.731E-17 0.194E-17 -.341E+00   0.783E-03 0.491E-03 0.520E-01
   0.531E-04 -.206E-04 -.156E+04   0.119E-04 0.542E-05 0.156E+04   -.242E-18 -.228E-18 -.645E+01   0.589E-03 0.356E-03 -.531E-01
   -.175E-03 0.368E-05 0.353E+01   -.389E-13 -.243E-12 -.227E-11   -.275E-15 -.231E-17 -.436E+01   0.413E-02 0.108E-01 0.841E+00

 POSITION                                       TOTAL-FORCE (eV/Angst)
      0.00000      0.00000      5.37156        -0.000000      0.000000      0.019828
      2.56560      0.00000      5.37156        -0.003856      0.004026      0.039259
      5.13119      0.00000      5.37156         0.003856      0.004026      0.039259
      1.28280      2.22187      5.37156         0.001559     -0.005353      0.039259
      3.84839      2.22187      5.37156        -0.000000      0.000000      0.006808
      6.41399      2.22187      5.37156        -0.001559     -0.005353      0.039259
      2.56560      4.44374      5.37156         0.005415      0.001326      0.039259
      5.13119      4.44374      5.37156        -0.005415      0.001326      0.039259
      7.69679      4.44374      5.37156        -0.000000      0.000000      0.031833
      1.28280      0.74062      7.46636        -0.017910     -0.010340     -0.049469
      3.84839      0.74062      7.46636         0.000000     -0.046169     -0.079732
      6.41399      0.74062      7.46636         0.017910     -0.010340     -0.049469
      2.56560      2.96249      7.46636        -0.039983      0.023084     -0.079732
      5.13119      2.96249      7.46636         0.039983      0.023084     -0.079732
      7.69679      2.96249      7.46636        -0.000000      0.012872      0.057265
      3.84839      5.18437      7.46636        -0.000000      0.020681     -0.049469
      6.41399      5.18437      7.46636         0.011148     -0.006436      0.057265
      8.97958      5.18437      7.46636        -0.011148     -0.006436      0.057265
      7.69679      1.48345      9.56239         0.000000     -0.011050      0.093099
      2.55319      1.47409      9.53589        -0.366141     -0.211392     -0.405434
      5.14360      1.47409      9.53589         0.366141     -0.211392     -0.405434
      8.97438      3.70612      9.57309         0.054236     -0.031313      0.044137
      3.84839      3.71744      9.53589        -0.000000      0.422784     -0.405434
      6.41919      3.70612      9.57309        -0.054236     -0.031313      0.044137
     10.26047      5.92389      9.56239         0.009569      0.005525      0.093099
      5.13310      5.92389      9.56239        -0.009569      0.005525      0.093099
      7.69679      5.91898      9.57309        -0.000000      0.062626      0.044137
      0.00000      0.00000     11.66245        -0.000000      0.000000     -0.147653
      6.40959      6.66262     11.69844        -0.072946     -0.132680     -0.012345
      8.98399      6.66262     11.69844         0.072946     -0.132680     -0.012345
      8.97479      2.21956     11.69844        -0.151377      0.003166     -0.012345
      6.41878      2.21956     11.69844         0.151377      0.003166     -0.012345
     10.26199      4.44905     11.69844        -0.078431      0.129513     -0.012345
      5.13158      4.44905     11.69844         0.078431      0.129513     -0.012345
      7.69679      4.44374     11.67118        -0.000000     -0.000000     -0.139741
      3.84839      2.22187     11.59207        -0.000000     -0.000000      1.105726
      3.84839      2.22187     13.40225        -0.000000      0.000000     -0.017883
    total drift:                                0.003954      0.010788      0.007776

  FREE ENERGIE OF THE ION-ELECTRON SYSTEM (eV)
  free  energy   TOTEN  =      -139.66247183 eV

  energy  without entropy=     -139.66247183  energy(sigma->0) =     -139.66247183

 stress matrix after NEB project (eV)
     -5.59311      0.00000      0.00000
      0.00000     -5.59311      0.00000
     -0.00000      0.00000     -0.80458
  FORCES: max atom, RMS     0.017883    0.002940
  FORCE total and by dimension    0.017883    0.017883
  Stress total and by dimension    7.950662    5.593107
|           W    W    AA    RRRRR   N    N  II  N    N   GGGG   !!!           |
|           W    W   A  A   R    R  NN   N  II  NN   N  G    G  !!!           |
|           W    W  A    A  R    R  N N  N  II  N N  N  G       !!!           |
|           W WW W  AAAAAA  RRRRR   N  N N  II  N  N N  G  GGG   !            |
|           WW  WW  A    A  R   R   N   NN  II  N   NN  G    G                |
|           W    W  A    A  R    R  N    N  II  N    N   GGGG   !!!           |
|     Tetrahedron method does not include variations of the Fermi             |
|     occupations, so forces and stress will be inaccurate. We suggest        |
|     using a different smearing scheme ISMEAR = 1 or 2 for metals in         |
|     relaxations.                                                            |

 total charge

# of ion       s       p       d       tot
    1        0.448   0.286   9.188   9.921
    2        0.449   0.285   9.185   9.919
    3        0.449   0.285   9.185   9.919
    4        0.449   0.285   9.185   9.919
    5        0.447   0.285   9.184   9.917
    6        0.449   0.285   9.185   9.919
    7        0.449   0.285   9.185   9.919
    8        0.449   0.285   9.185   9.919
    9        0.447   0.285   9.187   9.919
   10        0.441   0.373   9.176   9.989
   11        0.442   0.368   9.181   9.991
   12        0.441   0.373   9.176   9.989
   13        0.442   0.368   9.181   9.991
   14        0.442   0.368   9.181   9.991
   15        0.437   0.369   9.177   9.983
   16        0.441   0.373   9.176   9.989
   17        0.437   0.369   9.177   9.983
   18        0.437   0.369   9.177   9.983
   19        0.439   0.363   9.183   9.986
   20        0.458   0.399   9.172  10.029
   21        0.458   0.399   9.172  10.029
   22        0.428   0.371   9.180   9.979
   23        0.458   0.399   9.172  10.029
   24        0.428   0.371   9.180   9.979
   25        0.439   0.363   9.183   9.986
   26        0.439   0.363   9.183   9.986
   27        0.428   0.371   9.180   9.979
   28        0.449   0.289   9.184   9.922
   29        0.464   0.311   9.170   9.945
   30        0.464   0.311   9.170   9.945
   31        0.464   0.311   9.170   9.945
   32        0.464   0.311   9.170   9.945
   33        0.464   0.311   9.170   9.945
   34        0.464   0.311   9.170   9.945
   35        0.448   0.291   9.182   9.921
   36        0.742   0.630   4.494   5.866
   37        0.996   1.225   0.000   2.221
tot         17.390  13.596 325.754 356.741

 BZINTS: Fermi energy:   -0.552175;  395.000000 electrons
         Band energy:-0.135749E+04;  BLOECHL correction:   -0.048506