 vasp.6.2.0 18Jan21 (build Jun 12 2021 23:27:24) complex

 executed on             LinuxIFC date 2022.05.27  05:59:32

 INCAR:
   ISMEAR = -5
   SIGMA = 0.1
   ISPIN = 1
   EDIFF = 1.d-5
   EDIFFG = -0.01
   NSW = 0
   NELM = 150
   ENCUT = 500
   ISIF = 2
   IBRION = 2
   LREAL = Auto
   ALGO = Fast
   ICHARG = 11
   LORBIT = 10
   LCHARG = .F.
   LWAVE = .F.

 POTCAR:    PAW_PBE Cu 22Jun2005
 POTCAR:    PAW_PBE Cr 06Sep2000
 POTCAR:    PAW_PBE C 08Apr2002
 POTCAR:    PAW_PBE O 08Apr2002
|           W    W    AA    RRRRR   N    N  II  N    N   GGGG   !!!           |
|           W    W   A  A   R    R  NN   N  II  NN   N  G    G  !!!           |
|           W    W  A    A  R    R  N N  N  II  N N  N  G       !!!           |
|           W WW W  AAAAAA  RRRRR   N  N N  II  N  N N  G  GGG   !            |
|           WW  WW  A    A  R   R   N   NN  II  N   NN  G    G                |
|           W    W  A    A  R    R  N    N  II  N    N   GGGG   !!!           |
|     For optimal performance we recommend to set                             |
|       NCORE = 2 up to number-of-cores-per-socket                            |
|     This setting can greatly improve the performance of VASP for DFT.       |
|     The default, NCORE=1 might be grossly inefficient on modern             |
|     multi-core architectures or massively parallel machines. Do your        |
|     Unfortunately you need to use the default for GW and RPA                |
|     calculations (for HF NCORE is supported but not extensively tested      |
|     yet).                                                                   |

 POTCAR:    PAW_PBE Cu 22Jun2005
   VRHFIN =Cu: d10 p1

   TITEL  = PAW_PBE Cu 22Jun2005
   POMASS =   63.546; ZVAL   =   11.000    mass and valenz
   ENMAX  =  295.446; ENMIN  =  221.585 eV

 POTCAR:    PAW_PBE Cr 06Sep2000
   VRHFIN =Cr : d5 s1

   TITEL  = PAW_PBE Cr 06Sep2000
   POMASS =   51.996; ZVAL   =    6.000    mass and valenz
   ENMAX  =  227.080; ENMIN  =  170.310 eV

 POTCAR:    PAW_PBE C 08Apr2002
   VRHFIN =C: s2p2

   TITEL  = PAW_PBE C 08Apr2002
   POMASS =   12.011; ZVAL   =    4.000    mass and valenz
   ENMAX  =  400.000; ENMIN  =  300.000 eV

 POTCAR:    PAW_PBE O 08Apr2002
   VRHFIN =O: s2p4

   TITEL  = PAW_PBE O 08Apr2002
   POMASS =   16.000; ZVAL   =    6.000    mass and valenz
   ENMAX  =  400.000; ENMIN  =  300.000 eV

 Optimization of the real space projectors (new method)

 maximal supplied QI-value         = 16.25
 optimisation between [QCUT,QGAM] = [ 11.38, 22.75] = [ 36.24,144.96] Ry
 Optimized for a Real-space Cutoff    1.52 Angstroem

   l    n(q)    QCUT    max X(q) W(low)/X(q) W(high)/X(q)  e(spline)
   2      9    11.376     4.610    0.21E-03    0.10E-03    0.26E-06
   2      9    11.376     8.522    0.33E-03    0.16E-03    0.37E-06
   0     10    11.376    51.609    0.62E-04    0.20E-04    0.13E-06
   0     10    11.376    27.747    0.54E-04    0.20E-04    0.13E-06
   1     10    11.376    20.408    0.13E-04    0.99E-04    0.19E-06
   1     10    11.376    13.425    0.12E-04    0.87E-04    0.17E-06
 Optimization of the real space projectors (new method)

[...]

   l    n(q)    QCUT    max X(q) W(low)/X(q) W(high)/X(q)  e(spline)
   0      7    11.310   115.676    0.43E-03    0.13E-02    0.19E-06
   0      7    11.310    87.132    0.43E-03    0.13E-02    0.18E-06
   1      6    11.310     4.429    0.42E-03    0.74E-03    0.11E-06
   1      6    11.310     2.733    0.34E-03    0.55E-03    0.92E-07
 Optimization of the real space projectors (new method)

 maximal supplied QI-value         = 24.76
 optimisation between [QCUT,QGAM] = [ 11.39, 22.77] = [ 36.31,145.25] Ry
 Optimized for a Real-space Cutoff    1.00 Angstroem

   l    n(q)    QCUT    max X(q) W(low)/X(q) W(high)/X(q)  e(spline)
   0      7    11.387    20.381    0.39E-03    0.13E-02    0.15E-06
   0      7    11.387    15.268    0.42E-03    0.14E-02    0.17E-06
   1      6    11.387     5.964    0.41E-03    0.11E-02    0.17E-06
   1      6    11.387     5.382    0.39E-03    0.87E-03    0.15E-06
  PAW_PBE Cu 22Jun2005                  :
  PAW_PBE Cr 06Sep2000                  :
  PAW_PBE C 08Apr2002                   :
  PAW_PBE O 08Apr2002                   :

 POSCAR: Cu-Cr-CO
  positions in direct lattice
  velocities in cartesian coordinates
 exchange correlation table for  LEXCH =        8
   RHO(1)=    0.500       N(1)  =     2000
   RHO(2)=  100.500       N(2)  =     4000

 VTST: version 3.2, (02/03/18)

 CHAIN: initializing optimizer

 OPT: Using VASP Conjugate-Gradient optimizer
 CHAIN: Read ICHAIN            0

 POSCAR: Cu-Cr-CO
  positions in direct lattice
  velocities in cartesian coordinates

 ion  position               nearest neighbor table
   1  0.000  0.000  0.252-   7 2.57   3 2.57   4 2.57   2 2.57   6 2.57   8 2.57  12 2.57  10 2.57
                            16 2.57
   2  0.333  0.000  0.252-   8 2.57   9 2.57   5 2.57   1 2.57   3 2.57  11 2.57   4 2.57  10 2.57
                            17 2.57
   3  0.667  0.000  0.252-   1 2.57   7 2.57   6 2.57   9 2.57   2 2.57  12 2.57   5 2.57  18 2.57
                            11 2.57
   4  0.000  0.333  0.252-   5 2.57   6 2.57   1 2.57   7 2.57   2 2.57  13 2.57   9 2.57  10 2.57
                            15 2.57
   5  0.333  0.333  0.252-   4 2.57   2 2.57   7 2.57  13 2.57   8 2.57   6 2.57   3 2.57  11 2.57
                            14 2.57
   6  0.667  0.333  0.252-   4 2.57   9 2.57  15 2.57   3 2.57   1 2.57   8 2.57  14 2.57   5 2.57
                            12 2.57
   7  0.000  0.667  0.252-   1 2.57   3 2.57  16 2.57  18 2.57   4 2.57   5 2.57   8 2.57   9 2.57
                            13 2.57
   8  0.333  0.667  0.252-   9 2.57   2 2.57  17 2.57   6 2.57   1 2.57   7 2.57   5 2.57  14 2.57
                            16 2.57
   9  0.667  0.667  0.252-   8 2.57   6 2.57   2 2.57  17 2.57   3 2.57   7 2.57   4 2.57  15 2.57
                            18 2.57
  10  0.111  0.111  0.351-  20 2.55  26 2.56  19 2.56  11 2.57  12 2.57  13 2.57   1 2.57   2 2.57
                             4 2.57  15 2.57  16 2.57  17 2.57
  11  0.444  0.111  0.351-  20 2.55  21 2.55  10 2.57  13 2.57   2 2.57  17 2.57  14 2.57  12 2.57
                             5 2.57   3 2.57  18 2.57  27 2.57
  12  0.778  0.111  0.351-  21 2.55  19 2.56  25 2.56  15 2.57  10 2.57  14 2.57  18 2.57   3 2.57
                             1 2.57  16 2.57  11 2.57   6 2.57
  13  0.111  0.444  0.351-  23 2.55  20 2.55  16 2.57  18 2.57  10 2.57  11 2.57  14 2.57   5 2.57
                             4 2.57   7 2.57  15 2.57  22 2.57
  14  0.444  0.444  0.351-  21 2.55  23 2.55  15 2.57  17 2.57  12 2.57  16 2.57  13 2.57  11 2.57
                             6 2.57   8 2.57   5 2.57  24 2.57
  15  0.778  0.444  0.351-  19 2.56  24 2.56  22 2.56  14 2.57  17 2.57  12 2.57   6 2.57  18 2.57
                            10 2.57   9 2.57  13 2.57   4 2.57
  16  0.111  0.778  0.351-  23 2.55  25 2.56  26 2.56  18 2.57  13 2.57   7 2.57  14 2.57  17 2.57
                            12 2.57  10 2.57   8 2.57   1 2.57
  17  0.444  0.778  0.351-  26 2.56  27 2.56  24 2.56  14 2.57  15 2.57   8 2.57   9 2.57  11 2.57
                            16 2.57  18 2.57  10 2.57   2 2.57
  18  0.778  0.778  0.351-  25 2.56  22 2.56  27 2.56  16 2.57  13 2.57   7 2.57  15 2.57  12 2.57
                            17 2.57   9 2.57   3 2.57  11 2.57
  19  0.889  0.222  0.449-  12 2.56  10 2.56  15 2.56  28 2.56  25 2.57  26 2.57  22 2.57  24 2.57
                            21 2.57  20 2.57  32 2.58  31 2.58
  20  0.222  0.222  0.448-  36 2.50  11 2.55  13 2.55  10 2.55  23 2.56  21 2.56  26 2.57  19 2.57
                            29 2.57  31 2.57  27 2.57  22 2.57
  21  0.555  0.222  0.448-  36 2.50  14 2.55  11 2.55  12 2.55  20 2.56  23 2.56  19 2.57  25 2.57
                            32 2.57  30 2.57  24 2.57  27 2.57
  22  0.888  0.556  0.449-  35 2.56  24 2.56  27 2.56  18 2.56  15 2.56  31 2.56  33 2.56  19 2.57
                            25 2.57  13 2.57  23 2.57  20 2.57
  23  0.222  0.555  0.448-  36 2.50  13 2.55  14 2.55  16 2.55  20 2.56  21 2.56  25 2.57  26 2.57
                            33 2.57  34 2.57  22 2.57  24 2.57
  24  0.556  0.556  0.449-  35 2.56  22 2.56  27 2.56  15 2.56  17 2.56  32 2.56  34 2.56  19 2.57
                            26 2.57  14 2.57  21 2.57  23 2.57
  25  0.889  0.889  0.449-  12 2.56  16 2.56  18 2.56  28 2.56  19 2.57  26 2.57  22 2.57  27 2.57
                            21 2.57  23 2.57  33 2.58  30 2.58
  26  0.222  0.889  0.449-  10 2.56  16 2.56  17 2.56  28 2.56  25 2.57  19 2.57  27 2.57  24 2.57
                            20 2.57  23 2.57  29 2.58  34 2.58
  27  0.556  0.888  0.449-  35 2.56  24 2.56  22 2.56  17 2.56  18 2.56  29 2.56  30 2.56  26 2.57
                            25 2.57  11 2.57  20 2.57  21 2.57
  28  0.000  0.000  0.547-  25 2.56  19 2.56  26 2.56  33 2.57  30 2.57  31 2.57  29 2.57  32 2.57
                            34 2.57
  29  0.333  0.002  0.547-  31 2.55  30 2.55  36 2.55  27 2.56  20 2.57  28 2.57  35 2.57  26 2.58
                            34 2.60
  30  0.665  0.002  0.547-  32 2.55  29 2.55  36 2.55  27 2.56  21 2.57  28 2.57  35 2.57  25 2.58
                            33 2.60
  31  0.002  0.333  0.547-  29 2.55  33 2.55  36 2.55  22 2.56  20 2.57  28 2.57  35 2.57  19 2.58
                            32 2.60
  32  0.665  0.333  0.547-  30 2.55  34 2.55  36 2.55  24 2.56  21 2.57  28 2.57  35 2.57  19 2.58
                            31 2.60
  33  0.002  0.665  0.547-  34 2.55  31 2.55  36 2.55  22 2.56  23 2.57  28 2.57  35 2.57  25 2.58
                            30 2.60
  34  0.333  0.665  0.547-  33 2.55  32 2.55  36 2.55  24 2.56  23 2.57  28 2.57  35 2.57  26 2.58
                            29 2.60
  35  0.667  0.667  0.547-  24 2.56  27 2.56  22 2.56  34 2.57  32 2.57  29 2.57  30 2.57  33 2.57
                            31 2.57
  36  0.333  0.333  0.543-  37 1.85  23 2.50  20 2.50  21 2.50  31 2.55  29 2.55  33 2.55  34 2.55
                            32 2.55  30 2.55
  37  0.333  0.333  0.630-  38 1.17  36 1.85
  38  0.333  0.333  0.685-  37 1.17

  LATTYP: Found a hexagonal cell.
 ALAT       =     7.6967864036
 C/A-ratio  =     2.7653617908

  Lattice vectors:

 A1 = (  -3.8483927580,  -6.6656128093,   0.0000000000)
 A2 = (   7.6967864037,   0.0000000000,   0.0000000000)
 A3 = (   0.0000000000,   0.0000000000,  21.2843990326)

Analysis of symmetry for initial positions (statically):
 Subroutine PRICEL returns:
 Original cell was already a primitive cell.

 Routine SETGRP: Setting up the symmetry group for a
 hexagonal supercell.

 Subroutine GETGRP returns: Found  6 space group operations
 (whereof  6 operations were pure point group operations)
 out of a pool of 24 trial point group operations.

The static configuration has the point symmetry C_3v.

Analysis of symmetry for dynamics (positions and initial velocities):
 Subroutine PRICEL returns:
 Original cell was already a primitive cell.

[...]

The dynamic configuration has the point symmetry C_3v.

Analysis of constrained symmetry for selective dynamics:
 Subroutine PRICEL returns:
[...]
     33      -4.1106      2.00000
     34      -4.1001      2.00000
     35      -4.0917      2.00000
     36      -4.0689      2.00000
     37      -4.0256      2.00000
     38      -4.0233      2.00000
     39      -3.9841      2.00000
     40      -3.9145      2.00000
     41      -3.8901      2.00000
     42      -3.7946      2.00000
     43      -3.7823      2.00000
     44      -3.7111      2.00000
     45      -3.7021      2.00000
     46      -3.6955      2.00000
     47      -3.6658      2.00000
     48      -3.6598      2.00000
     49      -3.6482      2.00000
     50      -3.6401      2.00000
     51      -3.4599      2.00000
     52      -3.4460      2.00000
     53      -3.4398      2.00000
     54      -3.4279      2.00000
     55      -3.3827      2.00000
     56      -3.3811      2.00000
     57      -3.3629      2.00000
     58      -3.3479      2.00000
     59      -3.3464      2.00000
     60      -3.3226      2.00000
[...]
    238       5.8172      0.00000
    239       6.0936      0.00000
    240       6.1809      0.00000
    241       6.1939      0.00000
    242       6.3001      0.00000
    243       6.4171      0.00000
    244       7.0482      0.00000
    245       7.0497      0.00000
    246       7.1156      0.00000
    247       7.1515      0.00000
    248       7.1897      0.00000
    249       7.2671      0.00000
    250       7.4535      0.00000
    251       7.4766      0.00000
    252       7.5321      0.00000

 soft charge-density along one line, spin component           1
         0         1         2         3         4         5         6         7         8         9
 total charge-density along one line

------------------------ aborting loop because EDIFF is reached ----------------------------------------

 total charge

# of ion       s       p       d       tot
    1        0.450   0.283   9.190   9.923
    2        0.448   0.285   9.187   9.920
    3        0.448   0.285   9.187   9.920
    4        0.448   0.285   9.187   9.920
    5        0.451   0.285   9.181   9.916
    6        0.448   0.285   9.187   9.920
    7        0.448   0.285   9.187   9.920
    8        0.448   0.285   9.187   9.920
    9        0.449   0.282   9.192   9.922
   10        0.443   0.372   9.175   9.991
   11        0.444   0.366   9.185   9.994
   12        0.443   0.372   9.175   9.991
   13        0.444   0.366   9.185   9.994
   14        0.444   0.366   9.185   9.994
   15        0.439   0.371   9.176   9.986
   16        0.443   0.372   9.175   9.991
   17        0.439   0.371   9.176   9.986
   18        0.439   0.371   9.176   9.986
   19        0.441   0.369   9.181   9.991
   20        0.464   0.392   9.162  10.018
   21        0.464   0.392   9.162  10.018
   22        0.432   0.375   9.181   9.987
   23        0.464   0.392   9.162  10.018
   24        0.432   0.375   9.181   9.987
   25        0.441   0.369   9.181   9.991
   26        0.441   0.369   9.181   9.991
   27        0.432   0.375   9.181   9.987
   28        0.445   0.285   9.187   9.917
   29        0.461   0.298   9.171   9.930
   30        0.461   0.298   9.171   9.930
   31        0.461   0.298   9.171   9.930
   32        0.461   0.298   9.171   9.930
   33        0.461   0.298   9.171   9.930
   34        0.461   0.298   9.171   9.930
   35        0.443   0.286   9.186   9.915
   36        0.492   0.620   4.423   5.535
   37        0.963   1.543   0.000   2.506
   38        1.611   3.532   0.000   5.143
tot         18.746  17.350 325.688 361.783

  FORCE on cell =-STRESS in cart. coord.  units (eV):
  Direction    XX          YY          ZZ          XY          YZ          ZX
  Alpha Z   895.85976   895.85976   895.85976
  Ewald  169413.24063169413.24024************     0.00039     0.00013     0.00017
  Hartree182534.75123182534.75122************     0.00004     0.00007     0.00006
  E(xc)   -2316.84643 -2316.84600 -2321.18940    -0.00037    -0.00003    -0.00006
  Local  ************************364656.79056     0.01877    -0.00062    -0.00098
  n-local  -792.04068  -778.12668  -803.68172     7.09806    -0.06462     0.22670
  augment  3339.90103  3339.92120  3363.88777    -0.01747     0.00028     0.00048
  Kinetic  3369.98834  3373.93657  3377.97001     2.86261     1.63189    -1.06272
  Fock        0.00000     0.00000     0.00000     0.00000     0.00000     0.00000
  Total      -7.96559    -7.96559     0.11580     0.00000    -0.00000     0.00000
  in kB     -11.68739   -11.68739     0.16990     0.00000    -0.00000     0.00000

 VOLUME and BASIS-vectors are now :
  energy-cutoff  :      500.00
  volume of cell :     1091.97
      direct lattice vectors                 reciprocal lattice vectors
     7.696786404  0.000000000  0.000000000     0.129924354 -0.075011849  0.000000000
     3.848392758  6.665612809  0.000000000     0.000000000  0.150023716  0.000000000
     0.000000000  0.000000000 21.284399033     0.000000000  0.000000000  0.046982769

  length of vectors
     7.696786404  7.696786404 21.284399033     0.150023716  0.150023716  0.046982769

 FORCES acting on ions
    electron-ion (+dipol)            ewald-force                    non-local-force                 convergence-correction
   -.416E-04 0.141E-06 0.348E+04   0.580E-04 -.435E-05 -.348E+04   -.321E-17 0.466E-17 -.255E+01   -.156E-03 -.570E-04 0.281E+00
   -.606E+00 -.281E+00 0.348E+04   0.273E+00 0.192E+00 -.348E+04   0.147E+00 0.145E+00 -.184E+01   0.188E+00 -.397E-01 0.255E+00
   0.606E+00 -.281E+00 0.348E+04   -.273E+00 0.192E+00 -.348E+04   -.147E+00 0.145E+00 -.184E+01   -.188E+00 -.372E-01 0.256E+00
   -.546E+00 -.385E+00 0.348E+04   0.303E+00 0.140E+00 -.348E+04   0.199E+00 0.547E-01 -.184E+01   0.599E-01 0.183E+00 0.256E+00
   -.650E-04 -.543E-05 0.348E+04   0.116E-03 -.101E-04 -.348E+04   -.155E-17 -.188E-17 -.129E+01   0.121E-01 0.739E-02 0.384E+00
   0.546E+00 -.385E+00 0.348E+04   -.303E+00 0.140E+00 -.348E+04   -.199E+00 0.547E-01 -.184E+01   -.615E-01 0.184E+00 0.257E+00
   0.601E-01 0.665E+00 0.348E+04   0.298E-01 -.333E+00 -.348E+04   0.522E-01 -.200E+00 -.184E+01   -.126E+00 -.144E+00 0.256E+00
   -.600E-01 0.665E+00 0.348E+04   -.301E-01 -.333E+00 -.348E+04   -.522E-01 -.200E+00 -.184E+01   0.130E+00 -.145E+00 0.256E+00
   -.144E-03 -.330E-04 0.348E+04   0.263E-03 0.205E-04 -.348E+04   -.148E-17 0.207E-17 -.228E+01   -.133E-01 -.686E-02 0.211E+00
   -.147E+01 -.851E+00 0.118E+04   0.178E+01 0.103E+01 -.118E+04   -.414E+00 -.239E+00 -.104E+01   0.925E-01 0.534E-01 0.508E+00
   -.905E-04 -.199E+01 0.118E+04   0.189E-03 0.156E+01 -.118E+04   -.213E-07 0.320E+00 -.255E+00   0.108E-01 0.891E-01 0.652E+00
   0.147E+01 -.851E+00 0.118E+04   -.178E+01 0.103E+01 -.118E+04   0.414E+00 -.239E+00 -.104E+01   -.931E-01 0.547E-01 0.505E+00
   -.173E+01 0.997E+00 0.118E+04   0.135E+01 -.781E+00 -.118E+04   0.277E+00 -.160E+00 -.255E+00   0.831E-01 -.344E-01 0.652E+00
   0.173E+01 0.997E+00 0.118E+04   -.135E+01 -.781E+00 -.118E+04   -.277E+00 -.160E+00 -.255E+00   -.594E-01 -.347E-01 0.650E+00
   -.142E-03 -.723E+00 0.118E+04   0.298E-03 0.427E+00 -.118E+04   -.107E-07 0.160E+00 -.986E+00   -.299E-02 0.124E+00 0.566E+00
   -.918E-04 0.170E+01 0.118E+04   0.186E-03 -.206E+01 -.118E+04   -.318E-07 0.478E+00 -.104E+01   -.882E-04 -.109E+00 0.505E+00
   -.626E+00 0.361E+00 0.118E+04   0.370E+00 -.213E+00 -.118E+04   0.139E+00 -.802E-01 -.986E+00   0.107E+00 -.646E-01 0.566E+00
   0.626E+00 0.362E+00 0.118E+04   -.370E+00 -.214E+00 -.118E+04   -.139E+00 -.802E-01 -.986E+00   -.106E+00 -.631E-01 0.565E+00
   -.621E-04 -.416E+01 -.112E+04   0.702E-04 0.383E+01 0.112E+04   -.440E-08 0.661E-01 0.992E+00   0.134E-01 0.272E+00 0.754E+00
   -.307E+02 -.177E+02 -.115E+04   0.314E+02 0.181E+02 0.115E+04   -.125E+01 -.723E+00 -.874E+00   0.411E+00 0.237E+00 0.134E+01
   0.307E+02 -.177E+02 -.115E+04   -.314E+02 0.181E+02 0.115E+04   0.125E+01 -.723E+00 -.874E+00   -.434E+00 0.240E+00 0.134E+01
   -.153E+02 0.881E+01 -.113E+04   0.146E+02 -.845E+01 0.113E+04   0.451E+00 -.260E+00 0.605E+00   0.193E+00 -.128E+00 0.708E+00
   -.815E-04 0.354E+02 -.115E+04   0.147E-03 -.363E+02 0.115E+04   -.963E-07 0.145E+01 -.874E+00   -.104E-01 -.496E+00 0.134E+01
   0.153E+02 0.881E+01 -.113E+04   -.146E+02 -.845E+01 0.113E+04   -.451E+00 -.260E+00 0.605E+00   -.215E+00 -.125E+00 0.708E+00
   0.360E+01 0.208E+01 -.112E+04   -.332E+01 -.192E+01 0.112E+04   -.573E-01 -.331E-01 0.992E+00   -.217E+00 -.125E+00 0.753E+00
   -.360E+01 0.208E+01 -.112E+04   0.332E+01 -.192E+01 0.112E+04   0.573E-01 -.331E-01 0.992E+00   0.242E+00 -.124E+00 0.754E+00
   -.124E-03 -.176E+02 -.113E+04   0.240E-03 0.169E+02 0.113E+04   -.347E-07 0.521E+00 0.605E+00   -.146E-01 0.232E+00 0.708E+00
   -.341E-04 0.173E-04 -.338E+04   0.365E-04 -.337E-04 0.338E+04   0.191E-16 0.849E-18 0.236E+01   0.808E-03 0.517E-03 0.320E+00
   -.103E+02 -.198E+02 -.335E+04   0.104E+02 0.200E+02 0.335E+04   -.665E+00 -.992E+00 0.188E+01   0.561E+00 0.816E+00 0.321E+00
   0.103E+02 -.198E+02 -.335E+04   -.104E+02 0.200E+02 0.335E+04   0.665E+00 -.992E+00 0.188E+01   -.561E+00 0.818E+00 0.323E+00
   -.223E+02 0.964E+00 -.335E+04   0.226E+02 -.957E+00 0.335E+04   -.119E+01 -.805E-01 0.188E+01   0.987E+00 0.780E-01 0.321E+00
   0.223E+02 0.964E+00 -.335E+04   -.226E+02 -.957E+00 0.335E+04   0.119E+01 -.805E-01 0.188E+01   -.987E+00 0.801E-01 0.323E+00
   -.120E+02 0.189E+02 -.335E+04   0.121E+02 -.191E+02 0.335E+04   -.526E+00 0.107E+01 0.188E+01   0.428E+00 -.895E+00 0.323E+00
   0.120E+02 0.189E+02 -.335E+04   -.121E+02 -.191E+02 0.335E+04   0.526E+00 0.107E+01 0.188E+01   -.424E+00 -.895E+00 0.323E+00
   -.130E-03 -.170E-04 -.339E+04   0.254E-03 0.517E-05 0.338E+04   -.979E-18 0.643E-17 0.270E+01   -.134E-01 -.690E-02 0.374E+00
   -.522E-04 -.151E-04 -.169E+04   0.773E-04 0.145E-04 0.169E+04   0.391E-18 0.288E-18 -.174E+01   0.118E-02 0.715E-03 0.227E+00
   -.685E-05 -.771E-04 -.119E+04   0.108E-04 0.524E-05 0.117E+04   0.223E-18 -.289E-19 0.168E+02   0.953E-03 0.577E-03 -.582E+00
   0.223E-03 -.749E-04 -.193E+04   0.251E-05 0.260E-05 0.199E+04   0.519E-18 0.216E-18 -.581E+02   0.320E-02 0.196E-02 -.345E+00
   -.869E-04 -.174E-03 0.305E+02   0.192E-12 0.319E-12 0.100E-10   0.154E-18 0.451E-15 -.484E+02   -.130E-02 -.369E-02 0.179E+02

 POSITION                                       TOTAL-FORCE (eV/Angst)
      0.00000      0.00000      5.37156         0.000000      0.000000     -0.045961
      2.56560      0.00000      5.37156         0.002882      0.018142      0.053058
      5.13119      0.00000      5.37156        -0.002882      0.018142      0.053058
      1.28280      2.22187      5.37156         0.017153     -0.006575      0.053058
      3.84839      2.22187      5.37156         0.000000      0.000000      0.020772
      6.41399      2.22187      5.37156        -0.017153     -0.006575      0.053058
      2.56560      4.44374      5.37156         0.014271     -0.011567      0.053058
      5.13119      4.44374      5.37156        -0.014271     -0.011567      0.053058
      7.69679      4.44374      5.37156         0.000000      0.000000      0.015313
      1.28280      0.74062      7.46636        -0.011243     -0.006491     -0.072467
      3.84839      0.74062      7.46636         0.000000     -0.031125     -0.056858
      6.41399      0.74062      7.46636         0.011243     -0.006491     -0.072467
      2.56560      2.96249      7.46636        -0.026955      0.015562     -0.056858
      5.13119      2.96249      7.46636         0.026955      0.015562     -0.056858
      7.69679      2.96249      7.46636         0.000000     -0.011276     -0.031033
      3.84839      5.18437      7.46636        -0.000000      0.012982     -0.072467
      6.41399      5.18437      7.46636        -0.009766      0.005638     -0.031033
      8.97958      5.18437      7.46636         0.009766      0.005638     -0.031033
      7.69679      1.48113      9.55176        -0.000000      0.002762      0.061705
      2.56610      1.48154      9.54462        -0.108954     -0.062905     -0.163021
      5.13069      1.48154      9.54462         0.108954     -0.062905     -0.163021
      8.97635      3.70498      9.55922         0.030232     -0.017455      0.016516
      3.84839      3.70254      9.54462        -0.000000      0.125810     -0.163021
      6.41722      3.70498      9.55922        -0.030232     -0.017455      0.016516
     10.26248      5.92505      9.55176        -0.002392     -0.001381      0.061705
      5.13109      5.92505      9.55176         0.002392     -0.001381      0.061705
      7.69679      5.92126      9.55922        -0.000000      0.034909      0.016516
      0.00000      0.00000     11.63975         0.000000      0.000000     -0.056707
      2.57267      0.01383     11.65039         0.006241      0.000470      0.032905
      5.12411      0.01383     11.65039        -0.006241      0.000470      0.032905
      1.29831      2.22109     11.65039         0.003527      0.005170      0.032905
      6.39847      2.22109     11.65039        -0.003527      0.005170      0.032905
      2.57403      4.43070     11.65039        -0.002713     -0.005639      0.032905
      5.12275      4.43070     11.65039         0.002713     -0.005639      0.032905
      7.69679      4.44374     11.64501         0.000000      0.000000     -0.055914
      3.84839      2.22187     11.55740         0.000000      0.000000      0.357003
      3.84839      2.22187     13.41060         0.000000      0.000000     -0.004576
      3.84839      2.22187     14.58389         0.000000      0.000000     -0.010232
    total drift:                               -0.001387     -0.003862     -0.025786

  FREE ENERGIE OF THE ION-ELECTRON SYSTEM (eV)
  free  energy   TOTEN  =      -146.25775658 eV

  energy  without entropy=     -146.25775658  energy(sigma->0) =     -146.25775658

 stress matrix after NEB project (eV)
     -7.96559      0.00000      0.00000
      0.00000     -7.96559     -0.00000
      0.00000     -0.00000      0.11580
  FORCES: max atom, RMS     0.010232    0.001818
  FORCE total and by dimension    0.011208    0.010232
  Stress total and by dimension   11.265641    7.965591
|           W    W    AA    RRRRR   N    N  II  N    N   GGGG   !!!           |
|           W    W   A  A   R    R  NN   N  II  NN   N  G    G  !!!           |
|           W    W  A    A  R    R  N N  N  II  N N  N  G       !!!           |
|           W WW W  AAAAAA  RRRRR   N  N N  II  N  N N  G  GGG   !            |
|           WW  WW  A    A  R   R   N   NN  II  N   NN  G    G                |
|           W    W  A    A  R    R  N    N  II  N    N   GGGG   !!!           |
|     Tetrahedron method does not include variations of the Fermi             |
|     occupations, so forces and stress will be inaccurate. We suggest        |
|     using a different smearing scheme ISMEAR = 1 or 2 for metals in         |
|     relaxations.                                                            |

 total charge

# of ion       s       p       d       tot
    1        0.450   0.283   9.190   9.923
    2        0.448   0.285   9.187   9.920
    3        0.448   0.285   9.187   9.920
    4        0.448   0.285   9.187   9.920
    5        0.451   0.285   9.181   9.916
    6        0.448   0.285   9.187   9.920
    7        0.448   0.285   9.187   9.920
    8        0.448   0.285   9.187   9.920
    9        0.449   0.282   9.192   9.922
   10        0.443   0.372   9.175   9.991
   11        0.444   0.366   9.185   9.994
   12        0.443   0.372   9.175   9.991
   13        0.444   0.366   9.185   9.994
   14        0.444   0.366   9.185   9.994
   15        0.439   0.371   9.176   9.986
   16        0.443   0.372   9.175   9.991
   17        0.439   0.371   9.176   9.986
   18        0.439   0.371   9.176   9.986
   19        0.441   0.369   9.181   9.991
   20        0.464   0.392   9.162  10.018
   21        0.464   0.392   9.162  10.018
   22        0.432   0.375   9.181   9.987
   23        0.464   0.392   9.162  10.018
   24        0.432   0.375   9.181   9.987
   25        0.441   0.369   9.181   9.991
   26        0.441   0.369   9.181   9.991
   27        0.432   0.375   9.181   9.987
   28        0.445   0.285   9.187   9.917
   29        0.461   0.298   9.171   9.930
   30        0.461   0.298   9.171   9.930
   31        0.461   0.298   9.171   9.930
   32        0.461   0.298   9.171   9.930
   33        0.461   0.298   9.171   9.930
   34        0.461   0.298   9.171   9.930
   35        0.443   0.286   9.186   9.915
   36        0.492   0.620   4.423   5.535
   37        0.963   1.543   0.000   2.506
   38        1.611   3.532   0.000   5.143
tot         18.746  17.350 325.688 361.783

 BZINTS: Fermi energy:    0.003560;  401.000000 electrons
         Band energy:-0.119116E+04;  BLOECHL correction:   -0.021021