 vasp.6.2.0 18Jan21 (build Jun 12 2021 23:27:24) complex

 executed on             LinuxIFC date 2022.05.26  19:51:17

 INCAR:
   ISMEAR = -5
   SIGMA = 0.1
   ISPIN = 1
   EDIFF = 1.d-5
   EDIFFG = -0.01
   NSW = 0
   NELM = 150
   ENCUT = 500
   ISIF = 2
   IBRION = 2
   LREAL = Auto
   ALGO = Fast
   ICHARG = 11
   LORBIT = 10
   LCHARG = .F.
   LWAVE = .F.

 POTCAR:    PAW_PBE Ag 02Apr2005
 POTCAR:    PAW_PBE Ta 17Jan2003
 POTCAR:    PAW_PBE N 08Apr2002
|           W    W    AA    RRRRR   N    N  II  N    N   GGGG   !!!           |
|           W    W   A  A   R    R  NN   N  II  NN   N  G    G  !!!           |
|           W    W  A    A  R    R  N N  N  II  N N  N  G       !!!           |
|           W WW W  AAAAAA  RRRRR   N  N N  II  N  N N  G  GGG   !            |
|           WW  WW  A    A  R   R   N   NN  II  N   NN  G    G                |
|           W    W  A    A  R    R  N    N  II  N    N   GGGG   !!!           |
|     For optimal performance we recommend to set                             |
|       NCORE = 2 up to number-of-cores-per-socket                            |
|     This setting can greatly improve the performance of VASP for DFT.       |
|     The default, NCORE=1 might be grossly inefficient on modern             |
|     multi-core architectures or massively parallel machines. Do your        |
|     Unfortunately you need to use the default for GW and RPA                |
|     calculations (for HF NCORE is supported but not extensively tested      |
|     yet).                                                                   |

 POTCAR:    PAW_PBE Ag 02Apr2005
   VRHFIN =Ag : s1 d10

   TITEL  = PAW_PBE Ag 02Apr2005
   POMASS =  107.868; ZVAL   =   11.000    mass and valenz
   ENMAX  =  249.844; ENMIN  =  187.383 eV

 POTCAR:    PAW_PBE Ta 17Jan2003
   VRHFIN =Ta:  6s5d

   TITEL  = PAW_PBE Ta 17Jan2003
   POMASS =  180.948; ZVAL   =    5.000    mass and valenz
   ENMAX  =  223.667; ENMIN  =  167.750 eV

 POTCAR:    PAW_PBE N 08Apr2002
   VRHFIN =N: s2p3

   TITEL  = PAW_PBE N 08Apr2002
   POMASS =   14.001; ZVAL   =    5.000    mass and valenz
   ENMAX  =  400.000; ENMIN  =  300.000 eV

 Optimization of the real space projectors (new method)

 maximal supplied QI-value         = 15.12
 optimisation between [QCUT,QGAM] = [ 11.34, 22.83] = [ 36.00,145.93] Ry
 Optimized for a Real-space Cutoff    1.43 Angstroem

   l    n(q)    QCUT    max X(q) W(low)/X(q) W(high)/X(q)  e(spline)
   2      9    11.338    53.897    0.16E-03    0.20E-03    0.28E-06
   2      9    11.338    52.416    0.16E-03    0.20E-03    0.29E-06
   0     10    11.338   122.045    0.31E-04    0.76E-04    0.15E-06
   0     10    11.338    73.629    0.30E-04    0.72E-04    0.15E-06
   1      9    11.338    15.255    0.20E-03    0.19E-04    0.17E-06
   1      9    11.338     9.562    0.16E-03    0.15E-04    0.14E-06
 Optimization of the real space projectors (new method)

[...]

   l    n(q)    QCUT    max X(q) W(low)/X(q) W(high)/X(q)  e(spline)
   2     10    11.437    62.315    0.14E-03    0.26E-03    0.80E-06
   2     10    11.437    52.185    0.14E-03    0.26E-03    0.80E-06
   0     11    11.437   103.837    0.25E-04    0.17E-04    0.84E-07
   0     11    11.437    59.728    0.20E-04    0.15E-04    0.73E-07
   1     11    11.437    13.958    0.47E-03    0.12E-03    0.89E-06
   1     11    11.437     8.441    0.33E-03    0.88E-04    0.61E-06
 Optimization of the real space projectors (new method)

 maximal supplied QI-value         = 25.13
 optimisation between [QCUT,QGAM] = [ 11.31, 22.87] = [ 35.82,146.48] Ry
 Optimized for a Real-space Cutoff    1.27 Angstroem

   l    n(q)    QCUT    max X(q) W(low)/X(q) W(high)/X(q)  e(spline)
   0      9    11.310    79.467    0.75E-04    0.16E-03    0.36E-06
   0      9    11.310    66.151    0.74E-04    0.16E-03    0.36E-06
   1      8    11.310    17.416    0.35E-03    0.12E-03    0.95E-06
   1      8    11.310    12.382    0.37E-03    0.13E-03    0.98E-06
  PAW_PBE Ag 02Apr2005                  :
  PAW_PBE Ta 17Jan2003                  :
  PAW_PBE N 08Apr2002                   :

 POSCAR: Ag-Ta-N
  positions in direct lattice
  velocities in cartesian coordinates
 exchange correlation table for  LEXCH =        8
   RHO(1)=    0.500       N(1)  =     2000
   RHO(2)=  100.500       N(2)  =     4000

 VTST: version 3.2, (02/03/18)

 CHAIN: initializing optimizer

 OPT: Using VASP Conjugate-Gradient optimizer
 CHAIN: Read ICHAIN            0

 POSCAR: Ag-Ta-N
  positions in direct lattice
  velocities in cartesian coordinates

 ion  position               nearest neighbor table
   1  0.000  0.000  0.238-   2 2.93   8 2.93   7 2.93   6 2.93   4 2.93  12 2.93  16 2.93  10 2.93
                             3 2.93
   2  0.333  0.000  0.238-   1 2.93   8 2.93   9 2.93   3 2.93   4 2.93   5 2.93  10 2.93  17 2.93
                            11 2.93
   3  0.667  0.000  0.238-   9 2.93   2 2.93   5 2.93  11 2.93   7 2.93  18 2.93   1 2.93   6 2.93
                            12 2.93
   4  0.000  0.333  0.238-   5 2.93   6 2.93   2 2.93   1 2.93   7 2.93  13 2.93  15 2.93   9 2.93
                            10 2.93
   5  0.333  0.333  0.238-   4 2.93   3 2.93   7 2.93   2 2.93   8 2.93  14 2.93  13 2.93  11 2.93
                             6 2.93
   6  0.667  0.333  0.238-   4 2.93   9 2.93   1 2.93  15 2.93   8 2.93  12 2.93   3 2.93   5 2.93
                            14 2.93
   7  0.000  0.667  0.238-   8 2.93   1 2.93   5 2.93   3 2.93   4 2.93  16 2.93  18 2.93  13 2.93
                             9 2.93
   8  0.333  0.667  0.238-   7 2.93   1 2.93   2 2.93   9 2.93   5 2.93  16 2.93   6 2.93  17 2.93
                            14 2.93
   9  0.667  0.667  0.238-   3 2.93   2 2.93   8 2.93   6 2.93  17 2.93   4 2.93  15 2.93   7 2.93
                            18 2.93
  10  0.111  0.111  0.346-  20 2.89  12 2.93  16 2.93  15 2.93  17 2.93  13 2.93  11 2.93   2 2.93
                             1 2.93   4 2.93  19 2.93  26 2.93
  11  0.444  0.111  0.346-  21 2.90  20 2.90  14 2.93  17 2.93  18 2.93   3 2.93  12 2.93  13 2.93
                            10 2.93   5 2.93   2 2.93  27 2.93
  12  0.778  0.111  0.346-  21 2.89  10 2.93  16 2.93  18 2.93  15 2.93  11 2.93   1 2.93  14 2.93
                             6 2.93   3 2.93  25 2.93  19 2.93
  13  0.111  0.444  0.346-  20 2.90  23 2.90  15 2.93  14 2.93  18 2.93  10 2.93  11 2.93  16 2.93
                             4 2.93   5 2.93   7 2.93  22 2.93
  14  0.444  0.444  0.346-  23 2.90  21 2.90  13 2.93  11 2.93  16 2.93   5 2.93  12 2.93  17 2.93
                             8 2.93  15 2.93   6 2.93  24 2.93
  15  0.778  0.444  0.346-  19 2.93  24 2.93  22 2.93  13 2.93  10 2.93  12 2.93  17 2.93  18 2.93
                             4 2.93   6 2.93   9 2.93  14 2.93
  16  0.111  0.778  0.346-  23 2.89  18 2.93  12 2.93  10 2.93  14 2.93  17 2.93  13 2.93   7 2.93
                             8 2.93   1 2.93  26 2.93  25 2.93
  17  0.444  0.778  0.346-  26 2.93  27 2.93  24 2.93  11 2.93  10 2.93   9 2.93  18 2.93  15 2.93
                            16 2.93   2 2.93  14 2.93   8 2.93
  18  0.778  0.778  0.346-  25 2.93  22 2.93  27 2.93  16 2.93  12 2.93  13 2.93  11 2.93  17 2.93
                            15 2.93   7 2.93   3 2.93   9 2.93
  19  0.889  0.223  0.454-  20 2.92  21 2.92  24 2.93  22 2.93  28 2.93  15 2.93  10 2.93  12 2.93
                            26 2.94  25 2.94  32 2.99  31 2.99
  20  0.222  0.222  0.452-  36 2.78  10 2.89  13 2.90  11 2.90  19 2.92  26 2.92  27 2.93  22 2.93
                            21 2.95  23 2.95  31 2.97  29 2.97
  21  0.557  0.222  0.452-  36 2.78  12 2.89  11 2.90  14 2.90  25 2.92  19 2.92  27 2.93  24 2.93
                            20 2.95  23 2.95  30 2.97  32 2.97
  22  0.888  0.556  0.454-  24 2.92  27 2.92  25 2.93  19 2.93  18 2.93  15 2.93  13 2.93  23 2.93
                            20 2.93  35 2.94  33 2.96  31 2.96
  23  0.222  0.557  0.452-  36 2.78  16 2.89  14 2.90  13 2.90  26 2.92  25 2.92  22 2.93  24 2.93
                            21 2.95  20 2.95  34 2.97  33 2.97
  24  0.556  0.556  0.454-  27 2.92  22 2.92  19 2.93  26 2.93  15 2.93  17 2.93  14 2.93  23 2.93
                            21 2.93  35 2.94  32 2.96  34 2.96
  25  0.889  0.889  0.454-  23 2.92  21 2.92  22 2.93  27 2.93  28 2.93  18 2.93  16 2.93  12 2.93
                            26 2.94  19 2.94  33 2.99  30 2.99
  26  0.223  0.889  0.454-  23 2.92  20 2.92  27 2.93  24 2.93  28 2.93  17 2.93  16 2.93  10 2.93
                            25 2.94  19 2.94  34 2.99  29 2.99
  27  0.556  0.888  0.454-  24 2.92  22 2.92  26 2.93  25 2.93  17 2.93  18 2.93  11 2.93  20 2.93
                            21 2.93  35 2.94  29 2.96  30 2.96
  28  0.000  0.000  0.562-  26 2.93  25 2.93  19 2.93  29 2.96  34 2.96  33 2.96  32 2.96  31 2.96
                            30 2.96
  29  0.334  0.006  0.564-  30 2.88  31 2.88  36 2.89  35 2.96  28 2.96  27 2.96  20 2.97  26 2.99
                            34 3.03
  30  0.661  0.006  0.564-  29 2.88  32 2.88  36 2.89  35 2.96  28 2.96  27 2.96  21 2.97  25 2.99
                            33 3.03
  31  0.006  0.334  0.564-  33 2.88  29 2.88  36 2.89  35 2.96  28 2.96  22 2.96  20 2.97  19 2.99
                            32 3.03
  32  0.661  0.334  0.564-  34 2.88  30 2.88  36 2.89  35 2.96  28 2.96  24 2.96  21 2.97  19 2.99
                            31 3.03
  33  0.006  0.661  0.564-  31 2.88  34 2.88  36 2.89  35 2.96  28 2.96  22 2.96  23 2.97  25 2.99
                            30 3.03
  34  0.334  0.661  0.564-  32 2.88  33 2.88  36 2.89  35 2.96  28 2.96  24 2.96  23 2.97  26 2.99
                            29 3.03
  35  0.667  0.667  0.562-  24 2.94  27 2.94  22 2.94  30 2.96  32 2.96  29 2.96  34 2.96  31 2.96
                            33 2.96
  36  0.333  0.333  0.551-  37 1.76  21 2.78  20 2.78  23 2.78  31 2.89  33 2.89  30 2.89  29 2.89
                            34 2.89  32 2.89
  37  0.333  0.333  0.631-  36 1.76

  LATTYP: Found a hexagonal cell.
 ALAT       =     8.7913665772
 C/A-ratio  =     2.5227160501

  Lattice vectors:

 A1 = (  -4.3956832886,  -7.6135467898,   0.0000000000)
 A2 = (   8.7913665771,   0.0000000000,   0.0000000000)
 A3 = (   0.0000000000,   0.0000000000,  22.1781215668)

Analysis of symmetry for initial positions (statically):
 Subroutine PRICEL returns:
 Original cell was already a primitive cell.

 Routine SETGRP: Setting up the symmetry group for a
 hexagonal supercell.

 Subroutine GETGRP returns: Found  6 space group operations
 (whereof  6 operations were pure point group operations)
 out of a pool of 24 trial point group operations.

The static configuration has the point symmetry C_3v.

Analysis of symmetry for dynamics (positions and initial velocities):
 Subroutine PRICEL returns:
 Original cell was already a primitive cell.

[...]

The dynamic configuration has the point symmetry C_3v.

Analysis of constrained symmetry for selective dynamics:
 Subroutine PRICEL returns:
 Original cell was already a primitive cell.

 Routine SETGRP: Setting up the symmetry group for a
 hexagonal supercell.

 Subroutine GETGRP returns: Found  6 space group operations
[...]
     24      -4.7761      2.00000
     25      -4.7575      2.00000
     26      -4.7450      2.00000
     27      -4.7375      2.00000
     28      -4.7037      2.00000
     29      -4.6952      2.00000
     30      -4.6930      2.00000
     31      -4.6686      2.00000
     32      -4.6565      2.00000
     33      -4.6227      2.00000
     34      -4.6200      2.00000
     35      -4.5874      2.00000
     36      -4.5673      2.00000
     37      -4.5434      2.00000
     38      -4.5149      2.00000
     39      -4.4823      2.00000
     40      -4.4809      2.00000
     41      -4.4657      2.00000
     42      -4.4510      2.00000
     43      -4.4320      2.00000
     44      -4.3644      2.00000
     45      -4.3410      2.00000
     46      -4.3136      2.00000
     47      -4.3073      2.00000
     48      -4.3060      2.00000
     49      -4.2934      2.00000
     50      -4.2900      2.00000
     51      -4.2852      2.00000
     52      -4.2696      2.00000
     53      -4.2643      2.00000
     54      -4.2142      2.00000
     55      -4.2046      2.00000
     56      -4.1906      2.00000
     57      -4.1699      2.00000
     58      -4.1554      2.00000
     59      -4.1383      2.00000
     60      -4.1296      2.00000
[...]
    238       6.3004      0.00000
    239       6.3444      0.00000
    240       6.5745      0.00000
    241       7.1375      0.00000
    242       7.2042      0.00000
    243       7.2273      0.00000
    244       7.3443      0.00000
    245       7.3640      0.00000
    246       7.3828      0.00000
    247       7.4371      0.00000
    248       7.5332      0.00000
    249       7.6202      0.00000
    250       7.6408      0.00000
    251       7.7108      0.00000
    252       7.7766      0.00000

 soft charge-density along one line, spin component           1
         0         1         2         3         4         5         6         7         8         9
 total charge-density along one line

------------------------ aborting loop because EDIFF is reached ----------------------------------------

 total charge

# of ion       s       p       d       tot
    1        0.417   0.203   9.177   9.797
    2        0.416   0.204   9.176   9.795
    3        0.416   0.204   9.176   9.795
    4        0.416   0.204   9.176   9.795
    5        0.416   0.202   9.177   9.795
    6        0.416   0.204   9.176   9.795
    7        0.416   0.204   9.176   9.795
    8        0.416   0.204   9.176   9.795
    9        0.413   0.203   9.177   9.793
   10        0.406   0.272   9.163   9.841
   11        0.405   0.271   9.165   9.841
   12        0.406   0.272   9.163   9.841
   13        0.405   0.271   9.165   9.841
   14        0.405   0.271   9.165   9.841
   15        0.402   0.270   9.164   9.835
   16        0.406   0.272   9.163   9.841
   17        0.402   0.270   9.164   9.835
   18        0.402   0.270   9.164   9.835
   19        0.400   0.263   9.168   9.831
   20        0.432   0.303   9.145   9.880
   21        0.432   0.303   9.145   9.880
   22        0.393   0.274   9.164   9.831
   23        0.432   0.303   9.145   9.880
   24        0.393   0.274   9.164   9.831
   25        0.400   0.263   9.168   9.831
   26        0.400   0.263   9.168   9.831
   27        0.393   0.274   9.164   9.831
   28        0.412   0.199   9.174   9.785
   29        0.431   0.215   9.161   9.807
   30        0.431   0.215   9.161   9.807
   31        0.431   0.215   9.161   9.807
   32        0.431   0.215   9.161   9.807
   33        0.431   0.215   9.161   9.807
   34        0.431   0.215   9.161   9.807
   35        0.412   0.200   9.173   9.785
   36        0.740   0.702   3.620   5.062
   37        1.330   2.237   0.000   3.567
tot         16.532  11.414 324.429 352.375

  FORCE on cell =-STRESS in cart. coord.  units (eV):
  Direction    XX          YY          ZZ          XY          YZ          ZX
  Alpha Z   755.38918   755.38918   755.38918
  Ewald  118287.83598118287.83592************     0.00000    -0.00001     0.00002
  Hartree128367.95158128367.95155************     0.00000    -0.00000     0.00000
  E(xc)   -2071.14941 -2071.14940 -2080.62529    -0.00000     0.00000     0.00000
  Local  ************************257834.92482     0.00040    -0.00004    -0.00012
  n-local  -337.30495  -321.86826  -337.58539     9.41655    -0.45037     0.48665
  augment  3221.60123  3221.60137  3235.98533    -0.00014     0.00002    -0.00000
  Kinetic  4911.80598  4914.13902  4947.27576     3.53096     0.93459    -0.39155
  Fock        0.00000     0.00000     0.00000     0.00000     0.00000     0.00000
  Total      -6.71476    -6.71476     0.18653    -0.00000    -0.00000    -0.00000
  in kB      -7.24725    -7.24725     0.20133    -0.00000    -0.00000    -0.00000

 VOLUME and BASIS-vectors are now :
  energy-cutoff  :      500.00
  volume of cell :     1484.46
      direct lattice vectors                 reciprocal lattice vectors
     8.791366577  0.000000000  0.000000000     0.113747958 -0.065672414  0.000000000
     4.395683289  7.613546790  0.000000000     0.000000000  0.131344829  0.000000000
     0.000000000  0.000000000 22.178121567     0.000000000  0.000000000  0.045089481

  length of vectors
     8.791366577  8.791366577 22.178121567     0.131344829  0.131344829  0.045089481

 FORCES acting on ions
    electron-ion (+dipol)            ewald-force                    non-local-force                 convergence-correction
   0.461E-04 -.281E-04 0.249E+04   -.953E-04 0.593E-04 -.248E+04   -.464E-18 -.130E-17 -.181E+01   -.115E-03 -.127E-03 -.241E+00
   -.180E+00 0.265E+00 0.248E+04   -.485E-02 -.233E+00 -.248E+04   0.376E-01 0.354E-01 -.164E+01   0.139E+00 -.672E-01 -.176E+00
   0.180E+00 0.265E+00 0.248E+04   0.498E-02 -.233E+00 -.248E+04   -.376E-01 0.354E-01 -.164E+01   -.139E+00 -.653E-01 -.175E+00
   0.139E+00 -.288E+00 0.248E+04   -.204E+00 0.112E+00 -.248E+04   0.494E-01 0.149E-01 -.164E+01   0.113E-01 0.154E+00 -.176E+00
   -.635E-05 -.191E-04 0.249E+04   0.980E-04 -.197E-05 -.248E+04   -.201E-17 -.944E-18 -.160E+01   0.622E-02 0.379E-02 -.122E-01
   -.139E+00 -.288E+00 0.248E+04   0.204E+00 0.112E+00 -.248E+04   -.494E-01 0.149E-01 -.164E+01   -.127E-01 0.155E+00 -.175E+00
   0.319E+00 0.234E-01 0.248E+04   -.199E+00 0.121E+00 -.248E+04   0.118E-01 -.502E-01 -.164E+01   -.126E+00 -.874E-01 -.175E+00
   -.319E+00 0.234E-01 0.248E+04   0.199E+00 0.120E+00 -.248E+04   -.118E-01 -.502E-01 -.164E+01   0.127E+00 -.884E-01 -.175E+00
   0.364E-04 -.130E-04 0.248E+04   0.792E-04 -.643E-04 -.248E+04   -.697E-18 0.875E-18 -.175E+01   -.664E-02 -.344E-02 -.225E+00
   0.249E+01 0.144E+01 0.819E+03   -.243E+01 -.140E+01 -.819E+03   -.218E+00 -.126E+00 -.549E+00   0.124E+00 0.719E-01 -.889E-01
   -.283E-04 0.149E+01 0.818E+03   0.400E-04 -.185E+01 -.817E+03   0.799E-12 0.122E+00 -.581E+00   0.620E-02 0.185E+00 -.166E+00
   -.249E+01 0.144E+01 0.819E+03   0.243E+01 -.140E+01 -.819E+03   0.218E+00 -.126E+00 -.549E+00   -.126E+00 0.729E-01 -.890E-01
   0.129E+01 -.746E+00 0.818E+03   -.160E+01 0.926E+00 -.817E+03   0.105E+00 -.608E-01 -.581E+00   0.164E+00 -.874E-01 -.166E+00
   -.129E+01 -.746E+00 0.818E+03   0.160E+01 0.926E+00 -.817E+03   -.105E+00 -.608E-01 -.581E+00   -.153E+00 -.885E-01 -.167E+00
   0.154E-04 -.406E+00 0.817E+03   -.108E-03 0.293E+00 -.816E+03   0.362E-12 0.552E-01 -.576E+00   -.156E-02 0.519E-01 -.221E+00
   -.813E-05 -.287E+01 0.819E+03   0.205E-04 0.281E+01 -.819E+03   0.165E-11 0.252E+00 -.549E+00   -.174E-03 -.145E+00 -.897E-01
   -.352E+00 0.203E+00 0.817E+03   0.253E+00 -.146E+00 -.816E+03   0.478E-01 -.276E-01 -.576E+00   0.444E-01 -.273E-01 -.221E+00
   0.352E+00 0.203E+00 0.817E+03   -.254E+00 -.146E+00 -.816E+03   -.478E-01 -.276E-01 -.576E+00   -.443E-01 -.256E-01 -.220E+00
   0.383E-04 -.447E+01 -.865E+03   -.126E-03 0.431E+01 0.864E+03   0.975E-12 0.148E+00 0.102E+01   0.429E-02 -.207E-02 0.899E-01
   -.235E+02 -.135E+02 -.866E+03   0.234E+02 0.135E+02 0.866E+03   -.384E+00 -.222E+00 -.343E-01   0.756E-01 0.440E-01 0.311E-01
   0.235E+02 -.135E+02 -.866E+03   -.234E+02 0.135E+02 0.866E+03   0.384E+00 -.222E+00 -.343E-01   -.664E-01 0.437E-01 0.310E-01
   -.108E+02 0.621E+01 -.863E+03   0.103E+02 -.596E+01 0.862E+03   0.363E+00 -.210E+00 0.670E+00   0.102E+00 -.530E-01 0.231E-01
   -.503E-04 0.271E+02 -.866E+03   0.376E-04 -.271E+02 0.866E+03   0.291E-11 0.444E+00 -.343E-01   -.734E-03 -.887E-01 0.302E-01
   0.108E+02 0.621E+01 -.863E+03   -.103E+02 -.596E+01 0.862E+03   -.363E+00 -.210E+00 0.670E+00   -.914E-01 -.533E-01 0.233E-01
   0.387E+01 0.223E+01 -.865E+03   -.373E+01 -.215E+01 0.864E+03   -.129E+00 -.742E-01 0.102E+01   0.822E-02 0.579E-02 0.892E-01
   -.387E+01 0.223E+01 -.865E+03   0.373E+01 -.215E+01 0.864E+03   0.129E+00 -.742E-01 0.102E+01   0.806E-03 0.587E-02 0.895E-01
   0.196E-04 -.124E+02 -.863E+03   0.109E-03 0.119E+02 0.862E+03   0.275E-11 0.419E+00 0.670E+00   0.432E-02 0.114E+00 0.240E-01
   0.536E-04 -.356E-04 -.246E+04   -.114E-03 0.766E-04 0.246E+04   0.312E-17 0.138E-17 0.166E+01   -.241E-05 0.156E-02 0.343E+00
   -.254E+01 -.965E+01 -.246E+04   0.320E+01 0.105E+02 0.245E+04   -.733E+00 -.106E+01 0.224E+01   -.370E-01 0.146E-01 0.260E+00
   0.254E+01 -.965E+01 -.246E+04   -.320E+01 0.105E+02 0.245E+04   0.733E+00 -.106E+01 0.224E+01   0.366E-01 0.165E-01 0.260E+00
   -.963E+01 0.263E+01 -.246E+04   0.107E+02 -.249E+01 0.245E+04   -.128E+01 -.106E+00 0.224E+01   -.114E-01 -.491E-01 0.260E+00
   0.963E+01 0.263E+01 -.246E+04   -.107E+02 -.249E+01 0.245E+04   0.128E+01 -.106E+00 0.224E+01   0.169E-03 -.484E-01 0.260E+00
   -.709E+01 0.702E+01 -.246E+04   0.750E+01 -.802E+01 0.245E+04   -.550E+00 0.116E+01 0.224E+01   0.320E-01 0.251E-01 0.260E+00
   0.709E+01 0.702E+01 -.246E+04   -.750E+01 -.802E+01 0.245E+04   0.550E+00 0.116E+01 0.224E+01   -.305E-01 0.241E-01 0.261E+00
   0.254E-04 -.127E-04 -.246E+04   0.104E-03 -.651E-04 0.246E+04   -.177E-17 0.104E-17 0.172E+01   -.642E-02 -.199E-02 0.372E+00
   -.106E-04 -.267E-05 -.968E+03   0.479E-04 0.590E-05 0.971E+03   -.284E-17 -.448E-17 -.193E+01   0.787E-03 -.862E-04 0.919E-01
   0.104E-03 -.576E-04 -.130E+04   0.244E-04 0.338E-06 0.132E+04   -.292E-18 -.573E-18 -.170E+02   0.182E-02 0.644E-03 0.174E-01
   0.447E-03 -.741E-03 0.174E+02   -.202E-13 0.190E-12 -.705E-11   -.338E-15 0.218E-15 -.172E+02   0.349E-01 0.826E-02 -.144E+00

 POSITION                                       TOTAL-FORCE (eV/Angst)
      0.00000      0.00000      5.28219         0.000000     -0.000000      0.004171
      2.93046      0.00000      5.28219        -0.007868      0.001375      0.029471
      5.86091      0.00000      5.28219         0.007868      0.001375      0.029471
      1.46523      2.53785      5.28219        -0.002743     -0.007502      0.029471
      4.39568      2.53785      5.28219         0.000000     -0.000000     -0.013947
      7.32614      2.53785      5.28219         0.002743     -0.007502      0.029471
      2.93046      5.07570      5.28219         0.005125      0.006127      0.029471
      5.86091      5.07570      5.28219        -0.005125      0.006127      0.029471
      8.79137      5.07570      5.28219         0.000000     -0.000000      0.026512
      1.46523      0.84595      7.67490        -0.035704     -0.020614     -0.031775
      4.39568      0.84595      7.67490        -0.000000     -0.056208     -0.063425
      7.32614      0.84595      7.67490         0.035704     -0.020614     -0.031775
      2.93046      3.38380      7.67490        -0.048678      0.028104     -0.063425
      5.86091      3.38380      7.67490         0.048678      0.028104     -0.063425
      8.79137      3.38380      7.67490        -0.000000     -0.006858      0.056020
      4.39568      5.92165      7.67490         0.000000      0.041228     -0.031775
      7.32614      5.92165      7.67490        -0.005940      0.003429      0.056020
     10.25659      5.92165      7.67490         0.005940      0.003429      0.056020
      8.79137      1.69476     10.06939        -0.000000     -0.017979      0.046782
      2.92162      1.68680     10.02387        -0.341364     -0.197087     -0.262920
      5.86975      1.68680     10.02387         0.341364     -0.197087     -0.262920
     10.25272      4.23198     10.06895         0.026562     -0.015335      0.037474
      4.39568      4.23995     10.02387         0.000000      0.394173     -0.262920
      7.33001      4.23198     10.06895        -0.026562     -0.015335      0.037474
     11.71935      6.76617     10.06939         0.015570      0.008989      0.046782
      5.86339      6.76617     10.06939        -0.015570      0.008989      0.046782
      8.79137      6.76312     10.06895         0.000000      0.030671      0.037474
      0.00000      0.00000     12.45783         0.000000     -0.000000     -0.054254
      2.95723      0.04373     12.49962        -0.111967     -0.185974     -0.110719
      5.83413      0.04373     12.49962         0.111967     -0.185974     -0.110719
      1.51649      2.53918     12.49962        -0.217041     -0.003979     -0.110719
      7.27488      2.53918     12.49962         0.217041     -0.003979     -0.110719
      2.95494      5.03064     12.49962        -0.105075      0.189953     -0.110719
      5.83643      5.03064     12.49962         0.105075      0.189953     -0.110719
      8.79137      5.07570     12.47105         0.000000     -0.000000     -0.062967
      4.39568      2.53785     12.22632         0.000000     -0.000000      1.259830
      4.39568      2.53785     13.98681         0.000000     -0.000000     -0.018332
    total drift:                                0.035325      0.007516      0.084698

  FREE ENERGIE OF THE ION-ELECTRON SYSTEM (eV)
  free  energy   TOTEN  =      -106.94199549 eV

  energy  without entropy=     -106.94199549  energy(sigma->0) =     -106.94199549

 stress matrix after NEB project (eV)
     -6.71476     -0.00000     -0.00000
     -0.00000     -6.71476      0.00000
     -0.00000     -0.00000      0.18653
  FORCES: max atom, RMS     0.018332    0.003014
  FORCE total and by dimension    0.018332    0.018332
  Stress total and by dimension    9.497938    6.714761
|           W    W    AA    RRRRR   N    N  II  N    N   GGGG   !!!           |
|           W    W   A  A   R    R  NN   N  II  NN   N  G    G  !!!           |
|           W    W  A    A  R    R  N N  N  II  N N  N  G       !!!           |
|           W WW W  AAAAAA  RRRRR   N  N N  II  N  N N  G  GGG   !            |
|           WW  WW  A    A  R   R   N   NN  II  N   NN  G    G                |
|           W    W  A    A  R    R  N    N  II  N    N   GGGG   !!!           |
|     Tetrahedron method does not include variations of the Fermi             |
|     occupations, so forces and stress will be inaccurate. We suggest        |
|     using a different smearing scheme ISMEAR = 1 or 2 for metals in         |
|     relaxations.                                                            |

 total charge

# of ion       s       p       d       tot
    1        0.417   0.203   9.177   9.797
    2        0.416   0.204   9.176   9.795
    3        0.416   0.204   9.176   9.795
    4        0.416   0.204   9.176   9.795
    5        0.416   0.202   9.177   9.795
    6        0.416   0.204   9.176   9.795
    7        0.416   0.204   9.176   9.795
    8        0.416   0.204   9.176   9.795
    9        0.413   0.203   9.177   9.793
   10        0.406   0.272   9.163   9.841
   11        0.405   0.271   9.165   9.841
   12        0.406   0.272   9.163   9.841
   13        0.405   0.271   9.165   9.841
   14        0.405   0.271   9.165   9.841
   15        0.402   0.270   9.164   9.835
   16        0.406   0.272   9.163   9.841
   17        0.402   0.270   9.164   9.835
   18        0.402   0.270   9.164   9.835
   19        0.400   0.263   9.168   9.831
   20        0.432   0.303   9.145   9.880
   21        0.432   0.303   9.145   9.880
   22        0.393   0.274   9.164   9.831
   23        0.432   0.303   9.145   9.880
   24        0.393   0.274   9.164   9.831
   25        0.400   0.263   9.168   9.831
   26        0.400   0.263   9.168   9.831
   27        0.393   0.274   9.164   9.831
   28        0.412   0.199   9.174   9.785
   29        0.431   0.215   9.161   9.807
   30        0.431   0.215   9.161   9.807
   31        0.431   0.215   9.161   9.807
   32        0.431   0.215   9.161   9.807
   33        0.431   0.215   9.161   9.807
   34        0.431   0.215   9.161   9.807
   35        0.412   0.200   9.173   9.785
   36        0.740   0.702   3.620   5.062
   37        1.330   2.237   0.000   3.567
tot         16.532  11.414 324.429 352.375

 BZINTS: Fermi energy:    0.739744;  395.000000 electrons
         Band energy:-0.135233E+04;  BLOECHL correction:   -0.057881