 vasp.6.2.0 18Jan21 (build Jun 12 2021 23:27:24) complex

 executed on             LinuxIFC date 2022.05.26  19:23:01

 INCAR:
   ISMEAR = -5
   SIGMA = 0.1
   ISPIN = 1
   EDIFF = 1.d-5
   EDIFFG = -0.01
   NSW = 0
   NELM = 150
   ENCUT = 500
   ISIF = 2
   IBRION = 2
   LREAL = Auto
   ALGO = Fast
   ICHARG = 11
   LORBIT = 10
   LCHARG = .F.
   LWAVE = .F.

 POTCAR:    PAW_PBE Au 04Oct2007
 POTCAR:    PAW_PBE Ni 02Aug2007
 POTCAR:    PAW_PBE O 08Apr2002
|           W    W    AA    RRRRR   N    N  II  N    N   GGGG   !!!           |
|           W    W   A  A   R    R  NN   N  II  NN   N  G    G  !!!           |
|           W    W  A    A  R    R  N N  N  II  N N  N  G       !!!           |
|           W WW W  AAAAAA  RRRRR   N  N N  II  N  N N  G  GGG   !            |
|           WW  WW  A    A  R   R   N   NN  II  N   NN  G    G                |
|           W    W  A    A  R    R  N    N  II  N    N   GGGG   !!!           |
|     For optimal performance we recommend to set                             |
|       NCORE = 2 up to number-of-cores-per-socket                            |
|     This setting can greatly improve the performance of VASP for DFT.       |
|     The default, NCORE=1 might be grossly inefficient on modern             |
|     multi-core architectures or massively parallel machines. Do your        |
|     Unfortunately you need to use the default for GW and RPA                |
|     calculations (for HF NCORE is supported but not extensively tested      |
|     yet).                                                                   |

 POTCAR:    PAW_PBE Au 04Oct2007
   VRHFIN =Au: s1d10

   TITEL  = PAW_PBE Au 04Oct2007
   POMASS =  196.966; ZVAL   =   11.000    mass and valenz
   ENMAX  =  229.943; ENMIN  =  172.457 eV

 POTCAR:    PAW_PBE Ni 02Aug2007
   VRHFIN =Ni:

   TITEL  = PAW_PBE Ni 02Aug2007
   POMASS =   58.690; ZVAL   =   10.000    mass and valenz
   ENMAX  =  269.532; ENMIN  =  202.149 eV

 POTCAR:    PAW_PBE O 08Apr2002
   VRHFIN =O: s2p4

   TITEL  = PAW_PBE O 08Apr2002
   POMASS =   16.000; ZVAL   =    6.000    mass and valenz
   ENMAX  =  400.000; ENMIN  =  300.000 eV

 Optimization of the real space projectors (new method)

 maximal supplied QI-value         = 15.12
 optimisation between [QCUT,QGAM] = [ 11.34, 22.83] = [ 36.00,145.93] Ry
 Optimized for a Real-space Cutoff    1.39 Angstroem

   l    n(q)    QCUT    max X(q) W(low)/X(q) W(high)/X(q)  e(spline)
   2      9    11.338    60.898    0.39E-03    0.42E-03    0.21E-06
   2      9    11.338    58.894    0.40E-03    0.42E-03    0.22E-06
   0      9    11.338   109.617    0.13E-03    0.20E-04    0.13E-06
   0      9    11.338    75.026    0.13E-03    0.20E-04    0.13E-06
   1      9    11.338    16.344    0.33E-04    0.24E-03    0.18E-06
   1      9    11.338    10.160    0.26E-04    0.19E-03    0.15E-06
 Optimization of the real space projectors (new method)

[...]

   l    n(q)    QCUT    max X(q) W(low)/X(q) W(high)/X(q)  e(spline)
   2      8    11.376    60.317    0.19E-03    0.33E-04    0.13E-06
   2      8    11.376    55.921    0.20E-03    0.34E-04    0.14E-06
   0      9    11.376    51.690    0.82E-04    0.12E-03    0.20E-06
   0      9    11.376    30.015    0.74E-04    0.11E-03    0.18E-06
   1      9    11.376    18.849    0.39E-03    0.12E-03    0.13E-06
   1      9    11.376    14.624    0.33E-03    0.10E-03    0.11E-06
 Optimization of the real space projectors (new method)

 maximal supplied QI-value         = 24.76
 optimisation between [QCUT,QGAM] = [ 11.39, 22.77] = [ 36.31,145.25] Ry
 Optimized for a Real-space Cutoff    1.00 Angstroem

   l    n(q)    QCUT    max X(q) W(low)/X(q) W(high)/X(q)  e(spline)
   0      7    11.387    20.381    0.39E-03    0.13E-02    0.15E-06
   0      7    11.387    15.268    0.42E-03    0.14E-02    0.17E-06
   1      6    11.387     5.964    0.41E-03    0.11E-02    0.17E-06
   1      6    11.387     5.382    0.39E-03    0.87E-03    0.15E-06
  PAW_PBE Au 04Oct2007                  :
  PAW_PBE Ni 02Aug2007                  :
  PAW_PBE O 08Apr2002                   :

 POSCAR: Au-Ni-O
  positions in direct lattice
  velocities in cartesian coordinates
 exchange correlation table for  LEXCH =        8
   RHO(1)=    0.500       N(1)  =     2000
   RHO(2)=  100.500       N(2)  =     4000

 VTST: version 3.2, (02/03/18)

 CHAIN: initializing optimizer

 OPT: Using VASP Conjugate-Gradient optimizer
 CHAIN: Read ICHAIN            0

 POSCAR: Au-Ni-O
  positions in direct lattice
  velocities in cartesian coordinates

 ion  position               nearest neighbor table
   1  0.000  0.000  0.238-  16 2.94  12 2.94   6 2.94   8 2.94   7 2.94   3 2.94  10 2.94   4 2.94
                             2 2.94
   2  0.333  0.000  0.238-   9 2.94  11 2.94  17 2.94  10 2.94   8 2.94   4 2.94   5 2.94   1 2.94
                             3 2.94
   3  0.667  0.000  0.238-   7 2.94  18 2.94  12 2.94   1 2.94  11 2.94   5 2.94   6 2.94   9 2.94
                             2 2.94
   4  0.000  0.333  0.238-  10 2.94   6 2.94   5 2.94  13 2.94   2 2.94  15 2.94   9 2.94   1 2.94
                             7 2.94
   5  0.333  0.333  0.238-  13 2.94   7 2.94  11 2.94   4 2.94   2 2.94  14 2.94   3 2.94   8 2.94
                             6 2.94
   6  0.667  0.333  0.238-  15 2.94  14 2.94   1 2.94  12 2.94   4 2.94   9 2.94   8 2.94   3 2.94
                             5 2.94
   7  0.000  0.667  0.238-  18 2.94   3 2.94  16 2.94   5 2.94   1 2.94  13 2.94   8 2.94   4 2.94
                             9 2.94
   8  0.333  0.667  0.238-   9 2.94  17 2.94   1 2.94   2 2.94  14 2.94  16 2.94   6 2.94   7 2.94
                             5 2.94
   9  0.667  0.667  0.238-   2 2.94   8 2.94  17 2.94   6 2.94  15 2.94   4 2.94   3 2.94  18 2.94
                             7 2.94
  10  0.111  0.111  0.346-  20 2.93  26 2.93  19 2.93  11 2.94  17 2.94   2 2.94   4 2.94   1 2.94
                            12 2.94  16 2.94  13 2.94  15 2.94
  11  0.444  0.111  0.346-  20 2.92  21 2.92  27 2.93  13 2.94   2 2.94  10 2.94  17 2.94   5 2.94
                             3 2.94  18 2.94  14 2.94  12 2.94
  12  0.778  0.111  0.346-  21 2.93  25 2.93  19 2.93  16 2.94  18 2.94   1 2.94  14 2.94  15 2.94
                             3 2.94   6 2.94  10 2.94  11 2.94
  13  0.111  0.444  0.346-  23 2.92  20 2.92  22 2.93   5 2.94  18 2.94  11 2.94   7 2.94   4 2.94
                            16 2.94  10 2.94  14 2.94  15 2.94
  14  0.444  0.444  0.346-  21 2.92  23 2.92  24 2.93  15 2.94   6 2.94  12 2.94   8 2.94  17 2.94
                             5 2.94  16 2.94  13 2.94  11 2.94
  15  0.778  0.444  0.346-  24 2.92  22 2.92  19 2.93  14 2.94   6 2.94  17 2.94  12 2.94   9 2.94
                             4 2.94  10 2.94  13 2.94  18 2.94
  16  0.111  0.778  0.346-  23 2.93  25 2.93  26 2.93  18 2.94  12 2.94   7 2.94   1 2.94   8 2.94
                            13 2.94  10 2.94  14 2.94  17 2.94
  17  0.444  0.778  0.346-  27 2.92  24 2.92  26 2.93   9 2.94  15 2.94   2 2.94  10 2.94  11 2.94
                             8 2.94  14 2.94  16 2.94  18 2.94
  18  0.778  0.778  0.346-  22 2.92  27 2.92  25 2.93  16 2.94   7 2.94  13 2.94  12 2.94   3 2.94
                            11 2.94   9 2.94  15 2.94  17 2.94
  19  0.889  0.222  0.454-  10 2.93  12 2.93  15 2.93  26 2.93  25 2.93  24 2.94  22 2.94  21 2.95
                            20 2.95  28 2.95  32 2.96  31 2.96
  20  0.223  0.223  0.453-  36 2.70  29 2.91  31 2.91  11 2.92  13 2.92  23 2.92  21 2.92  10 2.93
                            27 2.95  22 2.95  26 2.95  19 2.95
  21  0.554  0.223  0.453-  36 2.70  30 2.91  32 2.91  14 2.92  11 2.92  20 2.92  23 2.92  12 2.93
                            27 2.95  24 2.95  25 2.95  19 2.95
  22  0.888  0.556  0.453-  18 2.92  15 2.92  24 2.92  27 2.92  13 2.93  25 2.94  19 2.94  33 2.94
                            31 2.94  23 2.95  20 2.95  35 2.96
  23  0.223  0.554  0.453-  36 2.70  33 2.91  34 2.91  13 2.92  14 2.92  20 2.92  21 2.92  16 2.93
                            22 2.95  24 2.95  25 2.95  26 2.95
  24  0.556  0.556  0.453-  15 2.92  17 2.92  27 2.92  22 2.92  14 2.93  26 2.94  19 2.94  32 2.94
                            34 2.94  21 2.95  23 2.95  35 2.96
  25  0.889  0.889  0.454-  16 2.93  12 2.93  18 2.93  19 2.93  26 2.93  22 2.94  27 2.94  23 2.95
                            21 2.95  28 2.95  33 2.96  30 2.96
  26  0.222  0.889  0.454-  10 2.93  16 2.93  17 2.93  19 2.93  25 2.93  27 2.94  24 2.94  20 2.95
                            23 2.95  28 2.95  29 2.96  34 2.96
  27  0.556  0.888  0.453-  17 2.92  18 2.92  24 2.92  22 2.92  11 2.93  26 2.94  25 2.94  29 2.94
                            30 2.94  20 2.95  21 2.95  35 2.96
  28  0.000  0.000  0.563-  25 2.95  19 2.95  26 2.95  34 2.97  32 2.97  33 2.97  30 2.97  31 2.97
                            29 2.97
  29  0.334  0.007  0.561-  30 2.87  31 2.88  36 2.89  20 2.91  27 2.94  26 2.96  35 2.97  28 2.97
                            34 3.06
  30  0.660  0.007  0.561-  29 2.87  32 2.88  36 2.89  21 2.91  27 2.94  25 2.96  35 2.97  28 2.97
                            33 3.06
  31  0.007  0.334  0.561-  33 2.87  29 2.88  36 2.89  20 2.91  22 2.94  19 2.96  35 2.97  28 2.97
                            32 3.06
  32  0.660  0.334  0.561-  34 2.87  30 2.88  36 2.89  21 2.91  24 2.94  19 2.96  35 2.97  28 2.97
                            31 3.06
  33  0.007  0.660  0.561-  31 2.87  34 2.88  36 2.89  23 2.91  22 2.94  25 2.96  35 2.97  28 2.97
                            30 3.06
  34  0.334  0.660  0.561-  32 2.87  33 2.88  36 2.89  23 2.91  24 2.94  26 2.96  35 2.97  28 2.97
                            29 3.06
  35  0.667  0.667  0.563-  24 2.96  27 2.96  22 2.96  29 2.97  34 2.97  32 2.97  31 2.97  30 2.97
                            33 2.97
  36  0.333  0.333  0.548-  37 1.68  20 2.70  23 2.70  21 2.70  33 2.89  31 2.89  29 2.89  30 2.89
                            34 2.89  32 2.89
  37  0.333  0.333  0.623-  36 1.68

  LATTYP: Found a hexagonal cell.
 ALAT       =     8.8135128021
 C/A-ratio  =     2.5184286595

  Lattice vectors:

 A1 = (  -4.4067569092,  -7.6327256898,   0.0000000000)
 A2 = (   8.8135128021,   0.0000000000,   0.0000000000)
 A3 = (   0.0000000000,   0.0000000000,  22.1962032318)

Analysis of symmetry for initial positions (statically):
 Subroutine PRICEL returns:
 Original cell was already a primitive cell.

 Routine SETGRP: Setting up the symmetry group for a
 hexagonal supercell.

 Subroutine GETGRP returns: Found  6 space group operations
 (whereof  6 operations were pure point group operations)
 out of a pool of 24 trial point group operations.

The static configuration has the point symmetry C_3v.

Analysis of symmetry for dynamics (positions and initial velocities):
 Subroutine PRICEL returns:
 Original cell was already a primitive cell.

[...]

The dynamic configuration has the point symmetry C_3v.

Analysis of constrained symmetry for selective dynamics:
 Subroutine PRICEL returns:
 Original cell was already a primitive cell.

 Routine SETGRP: Setting up the symmetry group for a
 hexagonal supercell.

 Subroutine GETGRP returns: Found  6 space group operations
[...]
     24      -5.1582      2.00000
     25      -5.1468      2.00000
     26      -5.1341      2.00000
     27      -5.0913      2.00000
     28      -5.0133      2.00000
     29      -4.9590      2.00000
     30      -4.8622      2.00000
     31      -4.8565      2.00000
     32      -4.8436      2.00000
     33      -4.8426      2.00000
     34      -4.8302      2.00000
     35      -4.7531      2.00000
     36      -4.6703      2.00000
     37      -4.6465      2.00000
     38      -4.6394      2.00000
     39      -4.6339      2.00000
     40      -4.5800      2.00000
     41      -4.4907      2.00000
     42      -4.4635      2.00000
     43      -4.4083      2.00000
     44      -4.3844      2.00000
     45      -4.3834      2.00000
     46      -4.3676      2.00000
     47      -4.2624      2.00000
     48      -4.2598      2.00000
     49      -4.2179      2.00000
     50      -4.2064      2.00000
     51      -4.1988      2.00000
     52      -4.1862      2.00000
     53      -4.1699      2.00000
     54      -4.1357      2.00000
     55      -4.0995      2.00000
     56      -4.0837      2.00000
     57      -4.0494      2.00000
     58      -4.0374      2.00000
     59      -4.0229      2.00000
     60      -4.0134      2.00000
[...]
    238       6.3781      0.00000
    239       6.4525      0.00000
    240       6.5222      0.00000
    241       6.5922      0.00000
    242       6.7128      0.00000
    243       6.7622      0.00000
    244       6.7856      0.00000
    245       6.8730      0.00000
    246       7.0782      0.00000
    247       7.0961      0.00000
    248       7.2338      0.00000
    249       7.3906      0.00000
    250       7.6596      0.00000
    251       7.7268      0.00000
    252       7.8222      0.00000

 soft charge-density along one line, spin component           1
         0         1         2         3         4         5         6         7         8         9
 total charge-density along one line

------------------------ aborting loop because EDIFF is reached ----------------------------------------

 total charge

# of ion       s       p       d       tot
    1        0.544   0.239   8.770   9.553
    2        0.544   0.241   8.765   9.550
    3        0.544   0.241   8.765   9.550
    4        0.544   0.241   8.765   9.550
    5        0.543   0.241   8.766   9.550
    6        0.544   0.241   8.765   9.550
    7        0.544   0.241   8.765   9.550
    8        0.544   0.241   8.765   9.550
    9        0.542   0.241   8.764   9.546
   10        0.520   0.308   8.774   9.601
   11        0.518   0.309   8.773   9.600
   12        0.520   0.308   8.774   9.601
   13        0.518   0.309   8.773   9.600
   14        0.518   0.309   8.773   9.600
   15        0.516   0.308   8.776   9.600
   16        0.520   0.308   8.774   9.601
   17        0.516   0.308   8.776   9.600
   18        0.516   0.308   8.776   9.600
   19        0.514   0.306   8.769   9.589
   20        0.537   0.325   8.760   9.622
   21        0.537   0.325   8.760   9.622
   22        0.517   0.307   8.777   9.601
   23        0.537   0.325   8.760   9.622
   24        0.517   0.307   8.777   9.601
   25        0.514   0.306   8.769   9.589
   26        0.514   0.306   8.769   9.589
   27        0.517   0.307   8.777   9.601
   28        0.541   0.223   8.774   9.537
   29        0.526   0.229   8.779   9.535
   30        0.526   0.229   8.779   9.535
   31        0.526   0.229   8.779   9.535
   32        0.526   0.229   8.779   9.535
   33        0.526   0.229   8.779   9.535
   34        0.526   0.229   8.779   9.535
   35        0.540   0.226   8.766   9.532
   36        0.448   0.500   8.316   9.264
   37        1.606   3.191   0.000   4.797
tot         20.553  13.267 315.310 349.130

  FORCE on cell =-STRESS in cart. coord.  units (eV):
  Direction    XX          YY          ZZ          XY          YZ          ZX
  Alpha Z  1015.23466  1015.23466  1015.23466
  Ewald  121135.56800121135.56846************    -0.00031    -0.00008    -0.00012
  Hartree130047.75172130047.75174************     0.00001    -0.00003    -0.00002
  E(xc)   -1812.12574 -1812.12573 -1818.33261    -0.00000     0.00000     0.00000
  Local  ************************263472.10183     0.00223     0.00001    -0.00004
  n-local  -115.00846   -66.81302   -66.46701    22.07688    -1.21533     1.27842
  augment  2554.83166  2554.83340  2554.37859    -0.00150     0.00003     0.00008
  Kinetic  5553.99922  5563.94993  5591.89498     4.76865     0.57155     0.31790
  Fock        0.00000     0.00000     0.00000     0.00000     0.00000     0.00000
  Total     -21.27549   -21.27549     0.73544    -0.00000     0.00000     0.00000
  in kB     -22.82879   -22.82878     0.78913    -0.00000     0.00000     0.00000

 VOLUME and BASIS-vectors are now :
  energy-cutoff  :      500.00
  volume of cell :     1493.16
      direct lattice vectors                 reciprocal lattice vectors
     8.813512802  0.000000000  0.000000000     0.113462137 -0.065507406  0.000000000
     4.406756909  7.632725690  0.000000000     0.000000000  0.131014796  0.000000000
     0.000000000  0.000000000 22.196203232     0.000000000  0.000000000  0.045052750

  length of vectors
     8.813512802  8.813512802 22.196203232     0.131014796  0.131014796  0.045052750

 FORCES acting on ions
    electron-ion (+dipol)            ewald-force                    non-local-force                 convergence-correction
   -.196E-04 -.162E-04 0.251E+04   0.519E-04 0.434E-04 -.250E+04   -.483E-18 -.891E-18 -.747E+00   -.261E-03 -.164E-03 -.284E+00
   0.440E+00 0.549E+00 0.251E+04   -.598E+00 -.598E+00 -.251E+04   0.454E-01 0.716E-01 -.352E+00   0.109E+00 -.204E-01 -.237E+00
   -.440E+00 0.549E+00 0.251E+04   0.598E+00 -.598E+00 -.251E+04   -.454E-01 0.716E-01 -.352E+00   -.109E+00 -.185E-01 -.236E+00
   0.696E+00 0.106E+00 0.251E+04   -.817E+00 -.219E+00 -.251E+04   0.847E-01 0.356E-02 -.352E+00   0.368E-01 0.105E+00 -.237E+00
   0.979E-05 -.226E-04 0.251E+04   0.951E-04 0.172E-05 -.251E+04   0.958E-18 -.732E-18 -.260E+00   0.434E-02 0.264E-02 -.183E+00
   -.696E+00 0.106E+00 0.251E+04   0.817E+00 -.219E+00 -.251E+04   -.847E-01 0.356E-02 -.352E+00   -.384E-01 0.105E+00 -.236E+00
   0.256E+00 -.656E+00 0.251E+04   -.219E+00 0.817E+00 -.251E+04   0.393E-01 -.751E-01 -.352E+00   -.702E-01 -.849E-01 -.236E+00
   -.256E+00 -.656E+00 0.251E+04   0.219E+00 0.817E+00 -.251E+04   -.393E-01 -.751E-01 -.352E+00   0.721E-01 -.860E-01 -.236E+00
   0.193E-04 -.416E-04 0.251E+04   0.166E-03 -.201E-04 -.251E+04   0.695E-17 0.256E-17 -.499E+00   -.462E-02 -.239E-02 -.230E+00
   0.485E+01 0.280E+01 0.866E+03   -.476E+01 -.275E+01 -.866E+03   -.183E+00 -.106E+00 -.555E+00   0.102E+00 0.590E-01 0.986E-01
   0.151E-04 0.682E+01 0.876E+03   0.147E-03 -.689E+01 -.876E+03   0.248E-08 0.372E-01 -.239E+00   0.417E-02 -.298E-02 0.762E-01
   -.485E+01 0.280E+01 0.866E+03   0.476E+01 -.275E+01 -.866E+03   0.183E+00 -.106E+00 -.555E+00   -.104E+00 0.605E-01 0.992E-01
   0.591E+01 -.341E+01 0.876E+03   -.596E+01 0.344E+01 -.876E+03   0.322E-01 -.186E-01 -.239E+00   -.206E-03 0.537E-02 0.762E-01
   -.591E+01 -.341E+01 0.876E+03   0.596E+01 0.344E+01 -.876E+03   -.322E-01 -.186E-01 -.239E+00   0.821E-02 0.460E-02 0.763E-01
   0.307E-04 0.169E+01 0.867E+03   0.237E-03 -.171E+01 -.867E+03   -.120E-08 -.180E-01 -.489E+00   -.262E-02 0.277E-01 0.252E-01
   -.217E-04 -.560E+01 0.866E+03   0.163E-03 0.550E+01 -.866E+03   0.141E-07 0.211E+00 -.555E+00   0.190E-03 -.120E+00 0.992E-01
   0.146E+01 -.844E+00 0.867E+03   -.148E+01 0.857E+00 -.867E+03   -.155E-01 0.898E-02 -.489E+00   0.230E-01 -.157E-01 0.252E-01
   -.146E+01 -.844E+00 0.867E+03   0.148E+01 0.857E+00 -.867E+03   0.155E-01 0.898E-02 -.489E+00   -.227E-01 -.134E-01 0.256E-01
   -.393E-04 0.332E+01 -.812E+03   0.526E-04 -.349E+01 0.811E+03   0.105E-07 0.157E+00 0.658E+00   -.460E-02 0.460E-01 0.286E+00
   0.447E+02 0.258E+02 -.749E+03   -.441E+02 -.255E+02 0.749E+03   -.735E+00 -.424E+00 -.522E+00   0.187E+00 0.108E+00 0.583E+00
   -.447E+02 0.258E+02 -.749E+03   0.441E+02 -.255E+02 0.749E+03   0.735E+00 -.424E+00 -.522E+00   -.184E+00 0.109E+00 0.583E+00
   0.166E+02 -.959E+01 -.797E+03   -.168E+02 0.973E+01 0.796E+03   0.145E+00 -.840E-01 0.561E+00   0.126E+00 -.753E-01 0.309E+00
   -.142E-04 -.516E+02 -.749E+03   0.145E-03 0.509E+02 0.749E+03   0.565E-07 0.848E+00 -.522E+00   0.193E-02 -.214E+00 0.583E+00
   -.166E+02 -.959E+01 -.797E+03   0.168E+02 0.972E+01 0.796E+03   -.145E+00 -.840E-01 0.561E+00   -.132E+00 -.764E-01 0.309E+00
   -.288E+01 -.166E+01 -.812E+03   0.303E+01 0.175E+01 0.811E+03   -.136E+00 -.786E-01 0.658E+00   -.427E-01 -.247E-01 0.285E+00
   0.288E+01 -.166E+01 -.812E+03   -.303E+01 0.175E+01 0.811E+03   0.136E+00 -.786E-01 0.658E+00   0.379E-01 -.270E-01 0.286E+00
   0.110E-04 0.192E+02 -.797E+03   0.196E-03 -.195E+02 0.796E+03   0.112E-07 0.168E+00 0.561E+00   -.297E-02 0.146E+00 0.309E+00
   -.124E-04 -.143E-04 -.248E+04   0.299E-04 0.355E-04 0.248E+04   0.373E-17 0.344E-18 0.532E+00   -.217E-03 -.144E-03 0.473E+00
   0.445E+02 0.742E+02 -.245E+04   -.448E+02 -.749E+02 0.245E+04   0.756E-02 0.168E+00 0.107E+01   0.173E+00 0.346E+00 0.401E+00
   -.445E+02 0.742E+02 -.245E+04   0.448E+02 -.749E+02 0.245E+04   -.756E-02 0.168E+00 0.107E+01   -.172E+00 0.348E+00 0.401E+00
   0.865E+02 0.143E+01 -.245E+04   -.873E+02 -.132E+01 0.245E+04   0.150E+00 -.777E-01 0.107E+01   0.386E+00 -.237E-01 0.402E+00
   -.865E+02 0.143E+01 -.245E+04   0.873E+02 -.132E+01 0.245E+04   -.150E+00 -.777E-01 0.107E+01   -.388E+00 -.230E-01 0.401E+00
   0.420E+02 -.756E+02 -.245E+04   -.425E+02 0.763E+02 0.245E+04   0.142E+00 -.908E-01 0.107E+01   0.216E+00 -.323E+00 0.401E+00
   -.420E+02 -.756E+02 -.245E+04   0.425E+02 0.763E+02 0.245E+04   -.142E+00 -.908E-01 0.107E+01   -.214E+00 -.324E+00 0.401E+00
   0.335E-04 -.270E-04 -.248E+04   0.143E-03 -.509E-04 0.248E+04   -.136E-17 -.400E-17 0.413E+00   -.462E-02 -.238E-02 0.388E+00
   -.412E-04 -.242E-04 -.187E+04   0.105E-03 0.985E-05 0.187E+04   -.203E-17 0.388E-17 -.324E+01   0.106E-01 0.646E-02 0.945E+00
   0.178E-03 -.968E-04 -.174E+04   0.266E-04 0.172E-05 0.176E+04   -.360E-17 -.179E-17 -.248E+02   0.389E-02 0.238E-02 -.313E+00
   -.552E-03 -.859E-03 0.208E+02   0.107E-12 -.121E-12 -.364E-11   -.174E-15 -.297E-16 -.261E+02   0.382E-02 0.320E-02 0.592E+01

 POSITION                                       TOTAL-FORCE (eV/Angst)
      0.00000      0.00000      5.28038         0.000000      0.000000     -0.091156
      2.93784      0.00000      5.28038        -0.003352      0.003806     -0.053499
      5.87568      0.00000      5.28038         0.003352      0.003806     -0.053499
      1.46892      2.54424      5.28038         0.001620     -0.004806     -0.053499
      4.40676      2.54424      5.28038         0.000000      0.000000     -0.043886
      7.34459      2.54424      5.28038        -0.001620     -0.004806     -0.053499
      2.93784      5.08848      5.28038         0.004972      0.001000     -0.053499
      5.87568      5.08848      5.28038        -0.004972      0.001000     -0.053499
      8.81351      5.08848      5.28038         0.000000      0.000000     -0.078108
      1.46892      0.84808      7.67911         0.007500      0.004330      0.122262
      4.40676      0.84808      7.67911        -0.000000     -0.031614      0.056961
      7.34459      0.84808      7.67911        -0.007500      0.004330      0.122262
      2.93784      3.39232      7.67911        -0.027379      0.015807      0.056961
      5.87568      3.39232      7.67911         0.027379      0.015807      0.056961
      8.81351      3.39232      7.67911        -0.000000     -0.016698      0.081601
      4.40676      5.93656      7.67911        -0.000000     -0.008661      0.122262
      7.34459      5.93656      7.67911        -0.014461      0.008349      0.081601
     10.28243      5.93656      7.67911         0.014461      0.008349      0.081601
      8.81351      1.69394     10.07055         0.000000      0.032926      0.037133
      2.94670      1.70128     10.05847         0.035180      0.020311     -0.123848
      5.86681      1.70128     10.05847        -0.035180      0.020311     -0.123848
     10.27376      4.24541     10.05945         0.038992     -0.022512     -0.013968
      4.40676      4.23017     10.05847        -0.000000     -0.040622     -0.123848
      7.35327      4.24541     10.05945        -0.038992     -0.022512     -0.013968
     11.75328      6.78576     10.07055        -0.028515     -0.016463      0.037133
      5.87375      6.78576     10.07055         0.028515     -0.016463      0.037133
      8.81351      6.77463     10.05945         0.000000      0.045024     -0.013968
      0.00000      0.00000     12.48855         0.000000      0.000000     -0.036556
      2.97006      0.05170     12.45862        -0.134135     -0.239152     -0.070427
      5.84345      0.05170     12.45862         0.134135     -0.239152     -0.070427
      1.52981      2.54630     12.45862        -0.274179      0.003411     -0.070427
      7.28371      2.54630     12.45862         0.274179      0.003411     -0.070427
      2.96650      5.03473     12.45862        -0.140044      0.235741     -0.070427
      5.84701      5.03473     12.45862         0.140044      0.235741     -0.070427
      8.81351      5.08848     12.49203         0.000000      0.000000     -0.019179
      4.40676      2.54424     12.16149         0.000000      0.000000      0.592404
      4.40676      2.54424     13.83655         0.000000      0.000000     -0.060387
    total drift:                                0.003271      0.002336      0.648924

  FREE ENERGIE OF THE ION-ELECTRON SYSTEM (eV)
  free  energy   TOTEN  =      -116.51493007 eV

  energy  without entropy=     -116.51493007  energy(sigma->0) =     -116.51493007

 stress matrix after NEB project (eV)
    -21.27549     -0.00000      0.00000
     -0.00000    -21.27549      0.00000
     -0.00000      0.00000      0.73544
  FORCES: max atom, RMS     0.060387    0.009927
  FORCE total and by dimension    0.060387    0.060387
  Stress total and by dimension   30.097075   21.275492
|           W    W    AA    RRRRR   N    N  II  N    N   GGGG   !!!           |
|           W    W   A  A   R    R  NN   N  II  NN   N  G    G  !!!           |
|           W    W  A    A  R    R  N N  N  II  N N  N  G       !!!           |
|           W WW W  AAAAAA  RRRRR   N  N N  II  N  N N  G  GGG   !            |
|           WW  WW  A    A  R   R   N   NN  II  N   NN  G    G                |
|           W    W  A    A  R    R  N    N  II  N    N   GGGG   !!!           |
|     Tetrahedron method does not include variations of the Fermi             |
|     occupations, so forces and stress will be inaccurate. We suggest        |
|     using a different smearing scheme ISMEAR = 1 or 2 for metals in         |
|     relaxations.                                                            |

 total charge

# of ion       s       p       d       tot
    1        0.544   0.239   8.770   9.553
    2        0.544   0.241   8.765   9.550
    3        0.544   0.241   8.765   9.550
    4        0.544   0.241   8.765   9.550
    5        0.543   0.241   8.766   9.550
    6        0.544   0.241   8.765   9.550
    7        0.544   0.241   8.765   9.550
    8        0.544   0.241   8.765   9.550
    9        0.542   0.241   8.764   9.546
   10        0.520   0.308   8.774   9.601
   11        0.518   0.309   8.773   9.600
   12        0.520   0.308   8.774   9.601
   13        0.518   0.309   8.773   9.600
   14        0.518   0.309   8.773   9.600
   15        0.516   0.308   8.776   9.600
   16        0.520   0.308   8.774   9.601
   17        0.516   0.308   8.776   9.600
   18        0.516   0.308   8.776   9.600
   19        0.514   0.306   8.769   9.589
   20        0.537   0.325   8.760   9.622
   21        0.537   0.325   8.760   9.622
   22        0.517   0.307   8.777   9.601
   23        0.537   0.325   8.760   9.622
   24        0.517   0.307   8.777   9.601
   25        0.514   0.306   8.769   9.589
   26        0.514   0.306   8.769   9.589
   27        0.517   0.307   8.777   9.601
   28        0.541   0.223   8.774   9.537
   29        0.526   0.229   8.779   9.535
   30        0.526   0.229   8.779   9.535
   31        0.526   0.229   8.779   9.535
   32        0.526   0.229   8.779   9.535
   33        0.526   0.229   8.779   9.535
   34        0.526   0.229   8.779   9.535
   35        0.540   0.226   8.766   9.532
   36        0.448   0.500   8.316   9.264
   37        1.606   3.191   0.000   4.797
tot         20.553  13.267 315.310 349.130

 BZINTS: Fermi energy:    0.566061;  401.000000 electrons
         Band energy:-0.125953E+04;  BLOECHL correction:   -0.041023