 vasp.6.2.0 18Jan21 (build Jun 12 2021 23:27:24) complex

 executed on             LinuxIFC date 2022.05.27  05:24:09

 INCAR:
   ISMEAR = -5
   SIGMA = 0.1
   ISPIN = 1
   EDIFF = 1.d-5
   EDIFFG = -0.01
   NSW = 0
   NELM = 150
   ENCUT = 500
   ISIF = 2
   IBRION = 2
   LREAL = Auto
   ALGO = Fast
   ICHARG = 11
   LORBIT = 10
   LCHARG = .F.
   LWAVE = .F.

 POTCAR:    PAW_PBE Au 04Oct2007
 POTCAR:    PAW_PBE Ir 06Sep2000
 POTCAR:    PAW_PBE N 08Apr2002
|           W    W    AA    RRRRR   N    N  II  N    N   GGGG   !!!           |
|           W    W   A  A   R    R  NN   N  II  NN   N  G    G  !!!           |
|           W    W  A    A  R    R  N N  N  II  N N  N  G       !!!           |
|           W WW W  AAAAAA  RRRRR   N  N N  II  N  N N  G  GGG   !            |
|           WW  WW  A    A  R   R   N   NN  II  N   NN  G    G                |
|           W    W  A    A  R    R  N    N  II  N    N   GGGG   !!!           |
|     For optimal performance we recommend to set                             |
|       NCORE = 2 up to number-of-cores-per-socket                            |
|     This setting can greatly improve the performance of VASP for DFT.       |
|     The default, NCORE=1 might be grossly inefficient on modern             |
|     multi-core architectures or massively parallel machines. Do your        |
|     Unfortunately you need to use the default for GW and RPA                |
|     calculations (for HF NCORE is supported but not extensively tested      |
|     yet).                                                                   |

 POTCAR:    PAW_PBE Au 04Oct2007
   VRHFIN =Au: s1d10

   TITEL  = PAW_PBE Au 04Oct2007
   POMASS =  196.966; ZVAL   =   11.000    mass and valenz
   ENMAX  =  229.943; ENMIN  =  172.457 eV

 POTCAR:    PAW_PBE Ir 06Sep2000
   VRHFIN =Ir: s1d8

   TITEL  = PAW_PBE Ir 06Sep2000
   POMASS =  192.220; ZVAL   =    9.000    mass and valenz
   ENMAX  =  210.864; ENMIN  =  158.148 eV

 POTCAR:    PAW_PBE N 08Apr2002
   VRHFIN =N: s2p3

   TITEL  = PAW_PBE N 08Apr2002
   POMASS =   14.001; ZVAL   =    5.000    mass and valenz
   ENMAX  =  400.000; ENMIN  =  300.000 eV

 Optimization of the real space projectors (new method)

 maximal supplied QI-value         = 15.12
 optimisation between [QCUT,QGAM] = [ 11.34, 22.83] = [ 36.00,145.93] Ry
 Optimized for a Real-space Cutoff    1.39 Angstroem

   l    n(q)    QCUT    max X(q) W(low)/X(q) W(high)/X(q)  e(spline)
   2      9    11.338    60.898    0.39E-03    0.42E-03    0.21E-06
   2      9    11.338    58.894    0.40E-03    0.42E-03    0.22E-06
   0      9    11.338   109.617    0.13E-03    0.20E-04    0.13E-06
   0      9    11.338    75.026    0.13E-03    0.20E-04    0.13E-06
   1      9    11.338    16.344    0.33E-04    0.24E-03    0.18E-06
   1      9    11.338    10.160    0.26E-04    0.19E-03    0.15E-06
 Optimization of the real space projectors (new method)

[...]

   l    n(q)    QCUT    max X(q) W(low)/X(q) W(high)/X(q)  e(spline)
   2      9    11.346   134.116    0.47E-03    0.13E-03    0.92E-06
   2      9    11.346   130.192    0.47E-03    0.13E-03    0.92E-06
   0     10    11.346    60.310    0.74E-04    0.13E-03    0.69E-06
   0     10    11.346    39.218    0.68E-04    0.12E-03    0.65E-06
   1     10    11.346    18.439    0.15E-03    0.34E-04    0.20E-06
   1     10    11.346    12.760    0.12E-03    0.31E-04    0.16E-06
 Optimization of the real space projectors (new method)

 maximal supplied QI-value         = 25.13
 optimisation between [QCUT,QGAM] = [ 11.31, 22.87] = [ 35.82,146.48] Ry
 Optimized for a Real-space Cutoff    1.27 Angstroem

   l    n(q)    QCUT    max X(q) W(low)/X(q) W(high)/X(q)  e(spline)
   0      9    11.310    79.467    0.75E-04    0.16E-03    0.36E-06
   0      9    11.310    66.151    0.74E-04    0.16E-03    0.36E-06
   1      8    11.310    17.416    0.35E-03    0.12E-03    0.95E-06
   1      8    11.310    12.382    0.37E-03    0.13E-03    0.98E-06
  PAW_PBE Au 04Oct2007                  :
  PAW_PBE Ir 06Sep2000                  :
  PAW_PBE N 08Apr2002                   :

 POSCAR: Au-Ir-N2
  positions in direct lattice
  velocities in cartesian coordinates
 exchange correlation table for  LEXCH =        8
   RHO(1)=    0.500       N(1)  =     2000
   RHO(2)=  100.500       N(2)  =     4000

 VTST: version 3.2, (02/03/18)

 CHAIN: initializing optimizer

 OPT: Using VASP Conjugate-Gradient optimizer
 CHAIN: Read ICHAIN            0

 POSCAR: Au-Ir-N2
  positions in direct lattice
  velocities in cartesian coordinates

 ion  position               nearest neighbor table
   1  0.000  0.000  0.206-  16 2.94  12 2.94   6 2.94   8 2.94   7 2.94   3 2.94  10 2.94   4 2.94
                             2 2.94
   2  0.333  0.000  0.206-   9 2.94  11 2.94  17 2.94  10 2.94   8 2.94   4 2.94   5 2.94   1 2.94
                             3 2.94
   3  0.667  0.000  0.206-   7 2.94  18 2.94  12 2.94   1 2.94  11 2.94   5 2.94   6 2.94   9 2.94
                             2 2.94
   4  0.000  0.333  0.206-  10 2.94   6 2.94   5 2.94  13 2.94   2 2.94  15 2.94   9 2.94   1 2.94
                             7 2.94
   5  0.333  0.333  0.206-  13 2.94   7 2.94  11 2.94   4 2.94   2 2.94  14 2.94   3 2.94   8 2.94
                             6 2.94
   6  0.667  0.333  0.206-  15 2.94  14 2.94   1 2.94  12 2.94   4 2.94   9 2.94   8 2.94   3 2.94
                             5 2.94
   7  0.000  0.667  0.206-  18 2.94   3 2.94  16 2.94   5 2.94   1 2.94  13 2.94   8 2.94   4 2.94
                             9 2.94
   8  0.333  0.667  0.206-   9 2.94  17 2.94   1 2.94   2 2.94  14 2.94  16 2.94   6 2.94   7 2.94
                             5 2.94
   9  0.667  0.667  0.206-   2 2.94   8 2.94  17 2.94   6 2.94  15 2.94   4 2.94   3 2.94  18 2.94
                             7 2.94
  10  0.111  0.111  0.300-  20 2.90  11 2.94  17 2.94   2 2.94   4 2.94   1 2.94  12 2.94  16 2.94
                            13 2.94  15 2.94  26 2.94  19 2.94
  11  0.444  0.111  0.300-  20 2.91  21 2.91  27 2.93  13 2.94   2 2.94  10 2.94  17 2.94   5 2.94
                             3 2.94  18 2.94  14 2.94  12 2.94
  12  0.778  0.111  0.300-  21 2.90  16 2.94  18 2.94   1 2.94  14 2.94  15 2.94   3 2.94   6 2.94
                            10 2.94  11 2.94  25 2.94  19 2.94
  13  0.111  0.444  0.300-  23 2.91  20 2.91  22 2.93   5 2.94  18 2.94  11 2.94   7 2.94   4 2.94
                            16 2.94  10 2.94  14 2.94  15 2.94
  14  0.444  0.444  0.300-  21 2.91  23 2.91  24 2.93  15 2.94   6 2.94  12 2.94   8 2.94  17 2.94
                             5 2.94  16 2.94  13 2.94  11 2.94
  15  0.778  0.444  0.300-  24 2.92  22 2.92  14 2.94   6 2.94  17 2.94  12 2.94   9 2.94   4 2.94
                            10 2.94  13 2.94  18 2.94  19 2.94
  16  0.111  0.778  0.300-  23 2.90  18 2.94  12 2.94   7 2.94   1 2.94   8 2.94  13 2.94  10 2.94
                            14 2.94  17 2.94  25 2.94  26 2.94
  17  0.444  0.778  0.300-  27 2.92  24 2.92   9 2.94  15 2.94   2 2.94  10 2.94  11 2.94   8 2.94
                            14 2.94  16 2.94  18 2.94  26 2.94
  18  0.778  0.778  0.300-  22 2.92  27 2.92  16 2.94   7 2.94  13 2.94  12 2.94   3 2.94  11 2.94
                             9 2.94  15 2.94  17 2.94  25 2.94
  19  0.889  0.223  0.394-  21 2.93  20 2.93  24 2.93  22 2.93  15 2.94  10 2.94  12 2.94  26 2.95
                            25 2.95  28 2.95  32 2.96  31 2.96
  20  0.222  0.222  0.392-  36 2.78  10 2.90  11 2.91  13 2.91  26 2.93  19 2.93  29 2.95  31 2.95
                            27 2.95  22 2.95  23 2.95  21 2.95
  21  0.557  0.222  0.392-  36 2.78  12 2.90  14 2.91  11 2.91  25 2.93  19 2.93  30 2.95  32 2.95
                            24 2.95  27 2.95  20 2.95  23 2.95
  22  0.887  0.557  0.393-  24 2.91  27 2.91  18 2.92  15 2.92  13 2.93  25 2.93  19 2.93  23 2.95
                            20 2.95  35 2.95  33 2.96  31 2.96
  23  0.222  0.557  0.392-  36 2.78  16 2.90  13 2.91  14 2.91  25 2.93  26 2.93  33 2.95  34 2.95
                            22 2.95  24 2.95  20 2.95  21 2.95
  24  0.557  0.557  0.393-  27 2.91  22 2.91  15 2.92  17 2.92  14 2.93  26 2.93  19 2.93  21 2.95
                            23 2.95  35 2.95  32 2.96  34 2.96
  25  0.889  0.889  0.394-  23 2.93  21 2.93  22 2.93  27 2.93  18 2.94  16 2.94  12 2.94  19 2.95
                            26 2.95  28 2.95  33 2.96  30 2.96
  26  0.223  0.889  0.394-  20 2.93  23 2.93  27 2.93  24 2.93  17 2.94  10 2.94  16 2.94  19 2.95
                            25 2.95  28 2.95  29 2.96  34 2.96
  27  0.557  0.887  0.393-  24 2.91  22 2.91  17 2.92  18 2.92  11 2.93  26 2.93  25 2.93  20 2.95
                            21 2.95  35 2.95  29 2.96  30 2.96
  28  0.000  0.000  0.489-  25 2.95  19 2.95  26 2.95  34 2.96  32 2.96  33 2.96  30 2.96  31 2.96
                            29 2.96
  29  0.333  0.005  0.488-  31 2.89  30 2.89  36 2.90  20 2.95  28 2.96  35 2.96  27 2.96  26 2.96
                            34 3.03
  30  0.661  0.005  0.488-  32 2.89  29 2.89  36 2.90  21 2.95  28 2.96  35 2.96  27 2.96  25 2.96
                            33 3.03
  31  0.005  0.333  0.488-  29 2.89  33 2.89  36 2.90  20 2.95  28 2.96  35 2.96  22 2.96  19 2.96
                            32 3.03
  32  0.661  0.333  0.488-  30 2.89  34 2.89  36 2.90  21 2.95  28 2.96  35 2.96  24 2.96  19 2.96
                            31 3.03
  33  0.005  0.661  0.488-  34 2.89  31 2.89  36 2.90  23 2.95  28 2.96  35 2.96  22 2.96  25 2.96
                            30 3.03
  34  0.333  0.661  0.488-  33 2.89  32 2.89  36 2.90  23 2.95  28 2.96  35 2.96  24 2.96  26 2.96
                            29 3.03
  35  0.667  0.667  0.488-  24 2.95  27 2.95  22 2.95  29 2.96  34 2.96  32 2.96  31 2.96  30 2.96
                            33 2.96
  36  0.333  0.333  0.478-  20 2.78  23 2.78  21 2.78  33 2.90  31 2.90  29 2.90  30 2.90  34 2.90
                            32 2.90
  37  0.272  0.330  0.642-  38 1.11
  38  0.398  0.330  0.642-  37 1.11

  LATTYP: Found a hexagonal cell.
 ALAT       =     8.8135128021
 C/A-ratio  =     2.9018880887

  Lattice vectors:

 A1 = (  -4.4067569092,  -7.6327256898,   0.0000000000)
 A2 = (   8.8135128021,   0.0000000000,   0.0000000000)
 A3 = (   0.0000000000,   0.0000000000,  25.5758278199)

Analysis of symmetry for initial positions (statically):
 Subroutine PRICEL returns:
 Original cell was already a primitive cell.

 Routine SETGRP: Setting up the symmetry group for a
 hexagonal supercell.

 Subroutine GETGRP returns: Found  2 space group operations
 (whereof  2 operations were pure point group operations)
 out of a pool of 24 trial point group operations.

The static configuration has the point symmetry C_1h.

Analysis of symmetry for dynamics (positions and initial velocities):
 Subroutine PRICEL returns:
 Original cell was already a primitive cell.

[...]

The dynamic configuration has the point symmetry C_1h.

Analysis of constrained symmetry for selective dynamics:
 Subroutine PRICEL returns:
 Original cell was already a primitive cell.

 Routine SETGRP: Setting up the symmetry group for a
 hexagonal supercell.

[...]
     33      -5.4903      2.00000
     34      -5.4784      2.00000
     35      -5.4710      2.00000
     36      -5.4475      2.00000
     37      -5.4399      2.00000
     38      -5.4344      2.00000
     39      -5.3355      2.00000
     40      -5.3042      2.00000
     41      -5.2431      2.00000
     42      -5.2319      2.00000
     43      -5.1789      2.00000
     44      -5.0984      2.00000
     45      -5.0711      2.00000
     46      -5.0250      2.00000
     47      -5.0065      2.00000
     48      -4.9875      2.00000
     49      -4.9837      2.00000
     50      -4.9280      2.00000
     51      -4.8820      2.00000
     52      -4.8496      2.00000
     53      -4.8221      2.00000
     54      -4.8115      2.00000
     55      -4.8061      2.00000
     56      -4.8002      2.00000
     57      -4.7898      2.00000
     58      -4.7450      2.00000
     59      -4.7043      2.00000
     60      -4.6890      2.00000
[...]
    242       5.7429      0.00000
    243       5.7895      0.00000
    244       5.8345      0.00000
    245       5.9241      0.00000
    246       6.0852      0.00000
    247       6.1544      0.00000
    248       6.1849      0.00000
    249       6.3066      0.00000
    250       6.3900      0.00000
    251       6.4456      0.00000
    252       6.4586      0.00000
    253       6.4627      0.00000
    254       6.5217      0.00000
    255       6.5472      0.00000
    256       6.6500      0.00000

 soft charge-density along one line, spin component           1
         0         1         2         3         4         5         6         7         8         9
 total charge-density along one line

------------------------ aborting loop because EDIFF is reached ----------------------------------------

 total charge

# of ion       s       p       d       tot
    1        0.542   0.240   8.765   9.547
    2        0.545   0.240   8.765   9.550
    3        0.545   0.240   8.765   9.550
    4        0.545   0.240   8.765   9.550
    5        0.540   0.243   8.763   9.546
    6        0.545   0.240   8.765   9.550
    7        0.545   0.240   8.765   9.550
    8        0.545   0.240   8.765   9.550
    9        0.542   0.239   8.768   9.550
   10        0.522   0.310   8.766   9.598
   11        0.522   0.307   8.779   9.608
   12        0.522   0.310   8.766   9.598
   13        0.522   0.307   8.779   9.608
   14        0.522   0.307   8.779   9.608
   15        0.517   0.308   8.777   9.602
   16        0.522   0.310   8.766   9.598
   17        0.517   0.308   8.777   9.602
   18        0.517   0.308   8.777   9.602
   19        0.517   0.303   8.776   9.595
   20        0.534   0.329   8.756   9.618
   21        0.534   0.329   8.756   9.618
   22        0.510   0.308   8.779   9.596
   23        0.534   0.329   8.756   9.618
   24        0.510   0.308   8.779   9.596
   25        0.517   0.302   8.776   9.595
   26        0.517   0.302   8.776   9.595
   27        0.510   0.308   8.779   9.596
   28        0.537   0.229   8.769   9.535
   29        0.550   0.245   8.749   9.544
   30        0.550   0.245   8.749   9.544
   31        0.549   0.245   8.749   9.543
   32        0.549   0.245   8.749   9.543
   33        0.550   0.245   8.749   9.544
   34        0.550   0.245   8.749   9.544
   35        0.533   0.230   8.770   9.532
   36        0.532   0.306   6.974   7.813
   37        1.373   2.469   0.000   3.842
   38        1.373   2.469   0.000   3.842
tot         21.904  14.929 313.789 350.623

  FORCE on cell =-STRESS in cart. coord.  units (eV):
  Direction    XX          YY          ZZ          XY          YZ          ZX
  Alpha Z   910.12750   910.12750   910.12750
  Ewald  165883.57198165562.60257************    -0.00033     0.40136    -0.00016
  Hartree174160.05446174046.02101************     0.00000     0.36236    -0.00004
  E(xc)   -1809.12278 -1810.36409 -1817.87476    -0.00001    -0.00029    -0.00000
  Local  ************************352183.87674     0.00244    -0.77015     0.00006
  n-local   -99.33957   -86.78631   -61.68825     4.82611    -0.00117     0.37582
  augment  2407.66586  2407.35501  2424.69416    -0.00142     0.00222     0.00004
  Kinetic  5637.82430  5655.90935  5713.99147     1.16235     0.00579     0.24672
  Fock        0.00000     0.00000     0.00000     0.00000     0.00000     0.00000
  Total     -23.17782   -23.17191     3.37704    -0.00000     0.00012     0.00000
  in kB     -21.58365   -21.57814     3.14477    -0.00000     0.00011     0.00000

 VOLUME and BASIS-vectors are now :
  energy-cutoff  :      500.00
  volume of cell :     1720.51
      direct lattice vectors                 reciprocal lattice vectors
     8.813512802  0.000000000  0.000000000     0.113462137 -0.065507406  0.000000000
     4.406756909  7.632725690  0.000000000     0.000000000  0.131014796  0.000000000
     0.000000000  0.000000000 25.575827820     0.000000000  0.000000000  0.039099419

  length of vectors
     8.813512802  8.813512802 25.575827820     0.131014796  0.131014796  0.039099419

 FORCES acting on ions
    electron-ion (+dipol)            ewald-force                    non-local-force                 convergence-correction
   -.200E-04 0.221E-02 0.274E+04   0.519E-04 -.267E-02 -.274E+04   -.284E-10 -.426E-03 -.913E+00   -.296E-03 0.611E-03 -.337E+00
   0.499E+00 0.285E+00 0.274E+04   -.471E+00 -.233E+00 -.274E+04   0.129E-01 -.341E-02 -.329E+00   -.381E-01 -.407E-01 -.310E+00
   -.499E+00 0.285E+00 0.274E+04   0.471E+00 -.233E+00 -.274E+04   -.129E-01 -.341E-02 -.329E+00   0.385E-01 -.387E-01 -.309E+00
   0.494E+00 0.285E+00 0.274E+04   -.435E+00 -.291E+00 -.274E+04   0.415E-02 0.126E-01 -.331E+00   -.546E-01 -.855E-02 -.309E+00
   0.712E-05 -.784E-02 0.274E+04   0.952E-04 0.102E-02 -.274E+04   -.105E-10 -.158E-03 -.282E+00   0.432E-02 0.713E-02 -.275E+00
   -.494E+00 0.285E+00 0.274E+04   0.435E+00 -.291E+00 -.274E+04   -.415E-02 0.126E-01 -.331E+00   0.530E-01 -.769E-02 -.308E+00
   -.414E-02 -.570E+00 0.274E+04   0.356E-01 0.525E+00 -.274E+04   -.924E-02 -.939E-02 -.329E+00   -.154E-01 0.486E-01 -.306E+00
   0.411E-02 -.570E+00 0.274E+04   -.357E-01 0.525E+00 -.274E+04   0.924E-02 -.939E-02 -.329E+00   0.172E-01 0.474E-01 -.305E+00
   0.198E-04 0.586E-02 0.274E+04   0.166E-03 0.168E-02 -.274E+04   0.269E-10 0.404E-03 -.473E+00   -.456E-02 -.791E-02 -.340E+00
   0.533E+01 0.309E+01 0.945E+03   -.496E+01 -.288E+01 -.944E+03   -.260E+00 -.150E+00 -.751E+00   -.548E-01 -.299E-01 0.237E+00
   0.137E-04 0.301E+01 0.949E+03   0.149E-03 -.307E+01 -.949E+03   -.128E-08 -.192E-01 -.418E+00   0.436E-02 0.391E-01 0.401E+00
   -.533E+01 0.309E+01 0.945E+03   0.496E+01 -.288E+01 -.944E+03   0.260E+00 -.150E+00 -.751E+00   0.530E-01 -.287E-01 0.238E+00
   0.259E+01 -.152E+01 0.949E+03   -.264E+01 0.154E+01 -.949E+03   -.166E-01 0.971E-02 -.419E+00   0.335E-01 -.891E-02 0.402E+00
   -.259E+01 -.152E+01 0.949E+03   0.264E+01 0.154E+01 -.949E+03   0.166E-01 0.971E-02 -.419E+00   -.258E-01 -.101E-01 0.401E+00
   0.317E-04 0.329E+01 0.947E+03   0.236E-03 -.331E+01 -.947E+03   -.237E-09 -.356E-02 -.473E+00   -.249E-02 -.118E-01 0.257E+00
   -.213E-04 -.614E+01 0.945E+03   0.163E-03 0.573E+01 -.944E+03   0.199E-07 0.300E+00 -.750E+00   -.176E-03 0.553E-01 0.239E+00
   0.287E+01 -.165E+01 0.947E+03   -.288E+01 0.166E+01 -.947E+03   -.320E-02 0.170E-02 -.469E+00   -.151E-01 0.287E-03 0.258E+00
   -.287E+01 -.165E+01 0.947E+03   0.288E+01 0.166E+01 -.947E+03   0.320E-02 0.170E-02 -.469E+00   0.157E-01 0.268E-02 0.260E+00
   -.416E-04 0.358E+01 -.886E+03   0.538E-04 -.355E+01 0.884E+03   -.575E-08 -.864E-01 0.405E+00   -.464E-02 0.346E-01 0.719E+00
   0.534E+01 0.312E+01 -.851E+03   -.542E+01 -.318E+01 0.850E+03   -.386E+00 -.221E+00 -.479E+00   0.460E+00 0.271E+00 0.129E+01
   -.534E+01 0.312E+01 -.851E+03   0.542E+01 -.318E+01 0.850E+03   0.386E+00 -.221E+00 -.479E+00   -.458E+00 0.271E+00 0.129E+01
   -.478E+01 0.263E+01 -.873E+03   0.418E+01 -.229E+01 0.872E+03   0.374E+00 -.218E+00 0.587E+00   0.231E+00 -.131E+00 0.764E+00
   -.136E-04 -.629E+01 -.851E+03   0.143E-03 0.639E+01 0.850E+03   0.295E-07 0.444E+00 -.478E+00   0.446E-03 -.529E+00 0.129E+01
   0.478E+01 0.263E+01 -.873E+03   -.418E+01 -.229E+01 0.872E+03   -.374E+00 -.218E+00 0.587E+00   -.231E+00 -.133E+00 0.764E+00
   -.307E+01 -.167E+01 -.886E+03   0.304E+01 0.167E+01 0.885E+03   0.768E-01 0.444E-01 0.402E+00   -.310E-01 -.243E-01 0.717E+00
   0.307E+01 -.167E+01 -.886E+03   -.304E+01 0.167E+01 0.885E+03   -.768E-01 0.444E-01 0.402E+00   0.246E-01 -.257E-01 0.718E+00
   0.887E-05 -.543E+01 -.873E+03   0.201E-03 0.475E+01 0.872E+03   0.288E-07 0.432E+00 0.586E+00   0.106E-02 0.260E+00 0.763E+00
   -.103E-04 0.832E+00 -.266E+04   0.276E-04 -.834E+00 0.266E+04   0.154E-10 0.231E-03 0.571E+00   -.362E-03 0.774E-03 0.627E+00
   0.608E+01 0.116E+02 -.265E+04   -.595E+01 -.116E+02 0.265E+04   -.481E+00 -.623E+00 0.240E+00   0.365E+00 0.617E+00 0.621E+00
   -.608E+01 0.116E+02 -.265E+04   0.595E+01 -.116E+02 0.265E+04   0.481E+00 -.623E+00 0.240E+00   -.364E+00 0.618E+00 0.620E+00
   0.126E+02 -.272E+00 -.264E+04   -.125E+02 0.363E+00 0.264E+04   -.778E+00 -.103E+00 0.270E+00   0.716E+00 0.128E-01 0.621E+00
   -.126E+02 -.272E+00 -.264E+04   0.125E+02 0.363E+00 0.264E+04   0.778E+00 -.103E+00 0.270E+00   -.717E+00 0.132E-01 0.620E+00
   0.593E+01 -.113E+02 -.265E+04   -.596E+01 0.111E+02 0.265E+04   -.302E+00 0.727E+00 0.240E+00   0.352E+00 -.629E+00 0.618E+00
   -.593E+01 -.113E+02 -.265E+04   0.596E+01 0.111E+02 0.265E+04   0.302E+00 0.727E+00 0.240E+00   -.351E+00 -.630E+00 0.618E+00
   0.302E-04 -.541E+00 -.266E+04   0.146E-03 0.550E+00 0.266E+04   0.393E-11 0.591E-04 0.576E+00   -.427E-02 -.868E-02 0.635E+00
   -.201E-04 -.295E+00 -.205E+04   0.926E-04 0.290E+00 0.205E+04   -.292E-10 -.439E-03 0.180E+01   0.219E-02 0.584E-02 0.754E+00
   0.240E+03 -.639E-01 -.108E+04   -.286E+03 0.604E-01 0.108E+04   0.456E+02 -.738E-03 -.293E-02   0.293E-01 0.337E-02 -.204E+00
   -.240E+03 -.638E-01 -.108E+04   0.286E+03 0.604E-01 0.108E+04   -.456E+02 -.738E-03 -.293E-02   -.271E-01 0.338E-02 -.204E+00
   -.613E-03 -.650E-02 -.110E+02   0.568E-13 -.585E-13 -.182E-11   -.138E-09 -.208E-02 -.259E+01   0.180E-02 0.691E-02 0.135E+02

 POSITION                                       TOTAL-FORCE (eV/Angst)
      0.00000      0.00000      5.28038        -0.000000     -0.000236     -0.056775
      2.93784      0.00000      5.28038         0.003168      0.008518     -0.103435
      5.87568      0.00000      5.28038        -0.003168      0.008518     -0.103435
      1.46892      2.54424      5.28038         0.009092     -0.001508     -0.103699
      4.40676      2.54424      5.28038         0.000000      0.000199     -0.137851
      7.34459      2.54424      5.28038        -0.009092     -0.001508     -0.103699
      2.93784      5.08848      5.28038         0.005922     -0.006871     -0.103784
      5.87568      5.08848      5.28038        -0.005922     -0.006871     -0.103784
      8.81351      5.08848      5.28038         0.000000      0.000082     -0.097660
      1.46892      0.84808      7.67911         0.048751      0.028474      0.118284
      4.40676      0.84808      7.67911        -0.000000     -0.043901      0.000507
      7.34459      0.84808      7.67911        -0.048751      0.028474      0.118284
      2.93784      3.39232      7.67911        -0.038366      0.022385      0.000332
      5.87568      3.39232      7.67911         0.038366      0.022385      0.000332
      8.81351      3.39232      7.67911        -0.000000     -0.033368      0.075770
      4.40676      5.93656      7.67911        -0.000000     -0.056610      0.118370
      7.34459      5.93656      7.67911        -0.028977      0.016506      0.076111
     10.28243      5.93656      7.67911         0.028977      0.016506      0.076111
      8.81351      1.70038     10.08128        -0.000000     -0.026994      0.008923
      2.93047      1.69191     10.03818        -0.009829     -0.005803     -0.001079
      5.88304      1.69191     10.03818         0.009829     -0.005803     -0.001079
     10.26792      4.24878     10.06124         0.003163     -0.001685     -0.010921
      4.40676      4.24891     10.03818         0.000000      0.011376     -0.001146
      7.35911      4.24878     10.06124        -0.003163     -0.001685     -0.010921
     11.74770      6.78254     10.08128         0.023253      0.013339      0.007423
      5.87933      6.78254     10.08128        -0.023253      0.013339      0.007423
      8.81351      6.76789     10.06124         0.000000      0.003748     -0.011826
      0.00000      0.00000     12.49619        -0.000000     -0.000455      0.025618
      2.96082      0.04010     12.48308         0.014180      0.023029      0.055294
      5.85269      0.04010     12.48308        -0.014180      0.023029      0.055294
      1.51514      2.54410     12.48308         0.027410      0.000849      0.056041
      7.29838      2.54410     12.48308        -0.027410      0.000849      0.056041
      2.96107      5.04853     12.48308         0.013296     -0.023671      0.055434
      5.85244      5.04853     12.48308        -0.013296     -0.023671      0.055434
      8.81351      5.08848     12.49171         0.000000      0.000298     -0.048233
      4.40676      2.54424     12.23647         0.000000      0.000380      0.022873
      3.84989      2.51856     16.41786         0.000969     -0.000822      0.004715
      4.96362      2.51856     16.41786        -0.000969     -0.000822      0.004715
    total drift:                                0.001187     -0.001663     -0.073890

  FREE ENERGIE OF THE ION-ELECTRON SYSTEM (eV)
  free  energy   TOTEN  =      -130.47974895 eV

  energy  without entropy=     -130.47974895  energy(sigma->0) =     -130.47974895

 stress matrix after NEB project (eV)
    -23.17782     -0.00000      0.00000
     -0.00000    -23.17191      0.00012
      0.00000      0.00012      3.37704
  FORCES: max atom, RMS     0.004883    0.001120
  FORCE total and by dimension    0.006906    0.004715
  Stress total and by dimension   32.947734   23.177822
|           W    W    AA    RRRRR   N    N  II  N    N   GGGG   !!!           |
|           W    W   A  A   R    R  NN   N  II  NN   N  G    G  !!!           |
|           W    W  A    A  R    R  N N  N  II  N N  N  G       !!!           |
|           W WW W  AAAAAA  RRRRR   N  N N  II  N  N N  G  GGG   !            |
|           WW  WW  A    A  R   R   N   NN  II  N   NN  G    G                |
|           W    W  A    A  R    R  N    N  II  N    N   GGGG   !!!           |
|     Tetrahedron method does not include variations of the Fermi             |
|     occupations, so forces and stress will be inaccurate. We suggest        |
|     using a different smearing scheme ISMEAR = 1 or 2 for metals in         |
|     relaxations.                                                            |

 total charge

# of ion       s       p       d       tot
    1        0.542   0.240   8.765   9.547
    2        0.545   0.240   8.765   9.550
    3        0.545   0.240   8.765   9.550
    4        0.545   0.240   8.765   9.550
    5        0.540   0.243   8.763   9.546
    6        0.545   0.240   8.765   9.550
    7        0.545   0.240   8.765   9.550
    8        0.545   0.240   8.765   9.550
    9        0.542   0.239   8.768   9.550
   10        0.522   0.310   8.766   9.598
   11        0.522   0.307   8.779   9.608
   12        0.522   0.310   8.766   9.598
   13        0.522   0.307   8.779   9.608
   14        0.522   0.307   8.779   9.608
   15        0.517   0.308   8.777   9.602
   16        0.522   0.310   8.766   9.598
   17        0.517   0.308   8.777   9.602
   18        0.517   0.308   8.777   9.602
   19        0.517   0.303   8.776   9.595
   20        0.534   0.329   8.756   9.618
   21        0.534   0.329   8.756   9.618
   22        0.510   0.308   8.779   9.596
   23        0.534   0.329   8.756   9.618
   24        0.510   0.308   8.779   9.596
   25        0.517   0.302   8.776   9.595
   26        0.517   0.302   8.776   9.595
   27        0.510   0.308   8.779   9.596
   28        0.537   0.229   8.769   9.535
   29        0.550   0.245   8.749   9.544
   30        0.550   0.245   8.749   9.544
   31        0.549   0.245   8.749   9.543
   32        0.549   0.245   8.749   9.543
   33        0.550   0.245   8.749   9.544
   34        0.550   0.245   8.749   9.544
   35        0.533   0.230   8.770   9.532
   36        0.532   0.306   6.974   7.813
   37        1.373   2.469   0.000   3.842
   38        1.373   2.469   0.000   3.842
tot         21.904  14.929 313.789 350.623

 BZINTS: Fermi energy:   -0.030039;  404.000000 electrons
         Band energy:-0.155227E+04;  BLOECHL correction:   -0.096729