 vasp.6.2.0 18Jan21 (build Jun 12 2021 23:27:24) complex

 executed on             LinuxIFC date 2022.05.28  02:37:02

 INCAR:
   ISMEAR = -5
   SIGMA = 0.1
   ISPIN = 1
   EDIFF = 1.d-5
   EDIFFG = -0.01
   NSW = 0
   NELM = 150
   ENCUT = 500
   ISIF = 2
   IBRION = 2
   LREAL = Auto
   ALGO = Fast
   ICHARG = 11
   LORBIT = 10
   LCHARG = .F.
   LWAVE = .F.

 POTCAR:    PAW_PBE Cu 22Jun2005
 POTCAR:    PAW_PBE Ru 04Feb2005
 POTCAR:    PAW_PBE O 08Apr2002
 POTCAR:    PAW_PBE H 15Jun2001
|           W    W    AA    RRRRR   N    N  II  N    N   GGGG   !!!           |
|           W    W   A  A   R    R  NN   N  II  NN   N  G    G  !!!           |
|           W    W  A    A  R    R  N N  N  II  N N  N  G       !!!           |
|           W WW W  AAAAAA  RRRRR   N  N N  II  N  N N  G  GGG   !            |
|           WW  WW  A    A  R   R   N   NN  II  N   NN  G    G                |
|           W    W  A    A  R    R  N    N  II  N    N   GGGG   !!!           |
|     For optimal performance we recommend to set                             |
|       NCORE = 2 up to number-of-cores-per-socket                            |
|     This setting can greatly improve the performance of VASP for DFT.       |
|     The default, NCORE=1 might be grossly inefficient on modern             |
|     multi-core architectures or massively parallel machines. Do your        |
|     Unfortunately you need to use the default for GW and RPA                |
|     calculations (for HF NCORE is supported but not extensively tested      |
|     yet).                                                                   |

 POTCAR:    PAW_PBE Cu 22Jun2005
   VRHFIN =Cu: d10 p1

   TITEL  = PAW_PBE Cu 22Jun2005
   POMASS =   63.546; ZVAL   =   11.000    mass and valenz
   ENMAX  =  295.446; ENMIN  =  221.585 eV

 POTCAR:    PAW_PBE Ru 04Feb2005
   VRHFIN =Ru: s1 d7

   TITEL  = PAW_PBE Ru 04Feb2005
   POMASS =  101.070; ZVAL   =    8.000    mass and valenz
   ENMAX  =  213.271; ENMIN  =  159.953 eV

 POTCAR:    PAW_PBE O 08Apr2002
   VRHFIN =O: s2p4

   TITEL  = PAW_PBE O 08Apr2002
   POMASS =   16.000; ZVAL   =    6.000    mass and valenz
   ENMAX  =  400.000; ENMIN  =  300.000 eV

 POTCAR:    PAW_PBE H 15Jun2001
   VRHFIN =H: ultrasoft test

   TITEL  = PAW_PBE H 15Jun2001
   POMASS =    1.000; ZVAL   =    1.000    mass and valenz
   ENMAX  =  250.000; ENMIN  =  200.000 eV

 Optimization of the real space projectors (new method)

 maximal supplied QI-value         = 16.25
 optimisation between [QCUT,QGAM] = [ 11.38, 22.75] = [ 36.24,144.96] Ry
 Optimized for a Real-space Cutoff    1.52 Angstroem

   l    n(q)    QCUT    max X(q) W(low)/X(q) W(high)/X(q)  e(spline)
   2      9    11.376     4.610    0.21E-03    0.10E-03    0.26E-06
   2      9    11.376     8.522    0.33E-03    0.16E-03    0.37E-06
   0     10    11.376    51.609    0.62E-04    0.20E-04    0.13E-06
   0     10    11.376    27.747    0.54E-04    0.20E-04    0.13E-06
   1     10    11.376    20.408    0.13E-04    0.99E-04    0.19E-06
   1     10    11.376    13.425    0.12E-04    0.87E-04    0.17E-06
 Optimization of the real space projectors (new method)

[...]

   l    n(q)    QCUT    max X(q) W(low)/X(q) W(high)/X(q)  e(spline)
   0      7    11.387    20.381    0.39E-03    0.13E-02    0.15E-06
   0      7    11.387    15.268    0.42E-03    0.14E-02    0.17E-06
   1      6    11.387     5.964    0.41E-03    0.11E-02    0.17E-06
   1      6    11.387     5.382    0.39E-03    0.87E-03    0.15E-06
 Optimization of the real space projectors (new method)

 maximal supplied QI-value         = 34.20
 optimisation between [QCUT,QGAM] = [ 11.29, 22.57] = [ 35.68,142.71] Ry
 Optimized for a Real-space Cutoff    1.16 Angstroem

   l    n(q)    QCUT    max X(q) W(low)/X(q) W(high)/X(q)  e(spline)
   0      8    11.287    19.460    0.40E-03    0.73E-03    0.16E-06
   0      8    11.287    12.209    0.38E-03    0.70E-03    0.15E-06
   1      7    11.287     4.655    0.22E-03    0.25E-04    0.22E-06
  PAW_PBE Cu 22Jun2005                  :
  PAW_PBE Ru 04Feb2005                  :
  PAW_PBE O 08Apr2002                   :
  PAW_PBE H 15Jun2001                   :

 POSCAR: Cu-Ru-OOH
  positions in direct lattice
  velocities in cartesian coordinates
 exchange correlation table for  LEXCH =        8
   RHO(1)=    0.500       N(1)  =     2000
   RHO(2)=  100.500       N(2)  =     4000

 VTST: version 3.2, (02/03/18)

 CHAIN: initializing optimizer

 OPT: Using VASP Conjugate-Gradient optimizer
 CHAIN: Read ICHAIN            0

 POSCAR: Cu-Ru-OOH
  positions in direct lattice
  velocities in cartesian coordinates

 ion  position               nearest neighbor table
   1  0.000  0.000  0.212-   7 2.57   3 2.57   4 2.57   2 2.57   6 2.57   8 2.57  12 2.57  10 2.57
                            16 2.57
   2  0.333  0.000  0.212-   8 2.57   9 2.57   5 2.57   1 2.57   3 2.57  11 2.57   4 2.57  10 2.57
                            17 2.57
   3  0.667  0.000  0.212-   1 2.57   7 2.57   6 2.57   9 2.57   2 2.57  12 2.57   5 2.57  18 2.57
                            11 2.57
   4  0.000  0.333  0.212-   5 2.57   6 2.57   1 2.57   7 2.57   2 2.57  13 2.57   9 2.57  10 2.57
                            15 2.57
   5  0.333  0.333  0.212-   4 2.57   2 2.57   7 2.57  13 2.57   8 2.57   6 2.57   3 2.57  11 2.57
                            14 2.57
   6  0.667  0.333  0.212-   4 2.57   9 2.57  15 2.57   3 2.57   1 2.57   8 2.57  14 2.57   5 2.57
                            12 2.57
   7  0.000  0.667  0.212-   1 2.57   3 2.57  16 2.57  18 2.57   4 2.57   5 2.57   8 2.57   9 2.57
                            13 2.57
   8  0.333  0.667  0.212-   9 2.57   2 2.57  17 2.57   6 2.57   1 2.57   7 2.57   5 2.57  14 2.57
                            16 2.57
   9  0.667  0.667  0.212-   8 2.57   6 2.57   2 2.57  17 2.57   3 2.57   7 2.57   4 2.57  15 2.57
                            18 2.57
  10  0.111  0.111  0.294-  20 2.55  26 2.56  19 2.56  11 2.57  12 2.57  13 2.57   1 2.57   2 2.57
                             4 2.57  15 2.57  16 2.57  17 2.57
  11  0.444  0.111  0.294-  20 2.55  21 2.55  10 2.57  13 2.57   2 2.57  17 2.57  14 2.57  12 2.57
                             5 2.57   3 2.57  18 2.57  27 2.57
  12  0.778  0.111  0.294-  21 2.55  19 2.56  25 2.56  15 2.57  10 2.57  14 2.57  18 2.57   3 2.57
                             1 2.57  16 2.57  11 2.57   6 2.57
  13  0.111  0.444  0.294-  23 2.55  20 2.55  16 2.57  18 2.57  10 2.57  11 2.57  14 2.57   5 2.57
                             4 2.57   7 2.57  15 2.57  22 2.57
  14  0.444  0.444  0.294-  21 2.55  23 2.55  15 2.57  17 2.57  12 2.57  16 2.57  13 2.57  11 2.57
                             6 2.57   8 2.57   5 2.57  24 2.57
  15  0.778  0.444  0.294-  19 2.56  14 2.57  17 2.57  12 2.57   6 2.57  18 2.57  10 2.57   9 2.57
                            13 2.57   4 2.57  24 2.57  22 2.57
  16  0.111  0.778  0.294-  23 2.55  25 2.56  26 2.56  18 2.57  13 2.57   7 2.57  14 2.57  17 2.57
                            12 2.57  10 2.57   8 2.57   1 2.57
  17  0.444  0.778  0.294-  26 2.56  14 2.57  15 2.57   8 2.57   9 2.57  11 2.57  16 2.57  18 2.57
                            10 2.57   2 2.57  27 2.57  24 2.57
  18  0.778  0.778  0.294-  25 2.56  16 2.57  13 2.57   7 2.57  15 2.57  12 2.57  17 2.57   9 2.57
                             3 2.57  11 2.57  22 2.57  27 2.57
  19  0.889  0.223  0.377-  28 2.55  15 2.56  21 2.56  20 2.56  12 2.56  10 2.56  22 2.56  24 2.56
                            32 2.56  31 2.56  25 2.57  26 2.57
  20  0.222  0.222  0.376-  10 2.55  11 2.55  13 2.55  36 2.55  26 2.56  19 2.56  27 2.57  22 2.57
                            23 2.57  21 2.57  29 2.58  31 2.58
  21  0.556  0.222  0.376-  12 2.55  14 2.55  11 2.55  36 2.55  19 2.56  25 2.56  24 2.57  27 2.57
                            20 2.57  23 2.57  32 2.58  30 2.58
  22  0.888  0.556  0.377-  35 2.55  24 2.56  27 2.56  19 2.56  25 2.56  18 2.57  15 2.57  31 2.57
                            33 2.57  23 2.57  20 2.57  13 2.57
  23  0.222  0.556  0.376-  16 2.55  13 2.55  14 2.55  36 2.55  25 2.56  26 2.56  22 2.57  24 2.57
                            20 2.57  21 2.57  33 2.58  34 2.58
  24  0.556  0.556  0.377-  35 2.55  22 2.56  27 2.56  19 2.56  26 2.56  15 2.57  17 2.57  32 2.57
                            34 2.57  21 2.57  23 2.57  14 2.57
  25  0.889  0.889  0.377-  28 2.55  18 2.56  21 2.56  23 2.56  16 2.56  12 2.56  22 2.56  27 2.56
                            33 2.56  30 2.56  19 2.57  26 2.57
  26  0.223  0.889  0.377-  28 2.55  17 2.56  20 2.56  23 2.56  10 2.56  16 2.56  27 2.56  24 2.56
                            29 2.56  34 2.56  25 2.57  19 2.57
  27  0.556  0.888  0.377-  35 2.55  24 2.56  22 2.56  26 2.56  25 2.56  17 2.57  18 2.57  29 2.57
                            30 2.57  20 2.57  21 2.57  11 2.57
  28  0.000  0.000  0.458-  25 2.55  19 2.55  26 2.55  33 2.56  30 2.56  31 2.56  29 2.56  32 2.56
                            34 2.56
  29  0.333  0.999  0.459-  34 2.55  28 2.56  26 2.56  35 2.56  27 2.57  31 2.57  36 2.57  30 2.58
                            20 2.58
  30  0.668  0.999  0.459-  33 2.55  28 2.56  25 2.56  35 2.56  27 2.57  32 2.57  36 2.57  29 2.58
                            21 2.58
  31  0.999  0.333  0.459-  32 2.55  28 2.56  19 2.56  35 2.56  22 2.57  29 2.57  36 2.57  33 2.58
                            20 2.58
  32  0.668  0.333  0.459-  31 2.55  28 2.56  19 2.56  35 2.56  24 2.57  30 2.57  36 2.57  34 2.58
                            21 2.58
  33  0.999  0.668  0.459-  30 2.55  28 2.56  25 2.56  35 2.56  22 2.57  34 2.57  36 2.57  31 2.58
                            23 2.58
  34  0.333  0.668  0.459-  29 2.55  28 2.56  26 2.56  35 2.56  24 2.57  33 2.57  36 2.57  32 2.58
                            23 2.58
  35  0.667  0.667  0.458-  24 2.55  27 2.55  22 2.55  34 2.56  32 2.56  29 2.56  30 2.56  33 2.56
                            31 2.56
  36  0.333  0.333  0.458-  37 1.88  23 2.55  20 2.55  21 2.55  31 2.57  29 2.57  33 2.57  34 2.57
                            32 2.57  30 2.57
  37  0.352  0.336  0.531-  38 1.54  36 1.88
  38  0.283  0.212  0.563-  39 0.98  37 1.54
  39  0.324  0.231  0.599-  38 0.98

  LATTYP: Found a hexagonal cell.
 ALAT       =     7.6967864036
 C/A-ratio  =     3.2973366172

  Lattice vectors:

 A1 = (  -3.8483927580,  -6.6656128093,   0.0000000000)
 A2 = (   7.6967864037,   0.0000000000,   0.0000000000)
 A3 = (   0.0000000000,   0.0000000000,  25.3788956434)

Analysis of symmetry for initial positions (statically):
 Subroutine PRICEL returns:
 Original cell was already a primitive cell.

 Routine SETGRP: Setting up the symmetry group for a
 hexagonal supercell.

 Subroutine GETGRP returns: Found  1 space group operations
 (whereof  1 operations were pure point group operations)
 out of a pool of 24 trial point group operations.

The static configuration has the point symmetry C_1 .

Analysis of symmetry for dynamics (positions and initial velocities):
 Subroutine PRICEL returns:
 Original cell was already a primitive cell.

[...]

The dynamic configuration has the point symmetry C_1 .

Analysis of constrained symmetry for selective dynamics:
 Subroutine PRICEL returns:
[...]
     41      -4.3438      2.00000
     42      -4.3220      2.00000
     43      -4.2252      2.00000
     44      -4.2047      2.00000
     45      -4.1457      2.00000
     46      -4.1433      2.00000
     47      -4.1181      2.00000
     48      -4.1036      2.00000
     49      -4.1013      2.00000
     50      -4.0946      2.00000
     51      -4.0399      2.00000
     52      -3.8911      2.00000
     53      -3.8835      2.00000
     54      -3.8739      2.00000
     55      -3.8588      2.00000
     56      -3.8152      2.00000
     57      -3.8072      2.00000
     58      -3.7908      2.00000
     59      -3.7849      2.00000
     60      -3.7774      2.00000
[...]
    238       5.2212      0.00000
    239       5.2793      0.00000
    240       5.3721      0.00000
    241       5.5039      0.00000
    242       5.5926      0.00000
    243       5.6399      0.00000
    244       5.6926      0.00000
    245       5.8625      0.00000
    246       5.9324      0.00000
    247       5.9581      0.00000
    248       5.9850      0.00000
    249       6.0218      0.00000
    250       6.3142      0.00000
    251       6.7741      0.00000
    252       6.8897      0.00000

 soft charge-density along one line, spin component           1
         0         1         2         3         4         5         6         7         8         9
 total charge-density along one line

------------------------ aborting loop because EDIFF is reached ----------------------------------------

 total charge

# of ion       s       p       d       tot
    1        0.450   0.283   9.189   9.922
    2        0.449   0.285   9.186   9.920
    3        0.448   0.285   9.187   9.920
    4        0.449   0.286   9.186   9.920
    5        0.449   0.286   9.182   9.917
    6        0.449   0.284   9.187   9.921
    7        0.448   0.286   9.186   9.920
    8        0.449   0.285   9.187   9.921
    9        0.447   0.283   9.190   9.920
   10        0.442   0.371   9.179   9.992
   11        0.442   0.367   9.185   9.994
   12        0.443   0.372   9.175   9.991
   13        0.443   0.367   9.184   9.994
   14        0.442   0.367   9.185   9.994
   15        0.439   0.368   9.181   9.988
   16        0.443   0.371   9.177   9.991
   17        0.439   0.368   9.181   9.988
   18        0.438   0.370   9.180   9.988
   19        0.441   0.370   9.183   9.994
   20        0.455   0.392   9.169  10.015
   21        0.461   0.391   9.164  10.017
   22        0.433   0.371   9.185   9.989
   23        0.461   0.390   9.167  10.017
   24        0.431   0.372   9.183   9.987
   25        0.442   0.368   9.187   9.996
   26        0.441   0.370   9.182   9.993
   27        0.432   0.372   9.184   9.988
   28        0.453   0.288   9.192   9.933
   29        0.452   0.299   9.183   9.934
   30        0.450   0.301   9.186   9.937
   31        0.454   0.300   9.182   9.936
   32        0.453   0.299   9.187   9.938
   33        0.450   0.303   9.183   9.936
   34        0.455   0.298   9.185   9.939
   35        0.444   0.291   9.193   9.928
   36        0.613   0.689   6.676   7.978
   37        1.605   3.210   0.000   4.815
   38        1.598   3.359   0.000   4.957
   39        0.619   0.112   0.000   0.731
tot         20.054  19.030 328.077 367.160

  FORCE on cell =-STRESS in cart. coord.  units (eV):
  Direction    XX          YY          ZZ          XY          YZ          ZX
  Alpha Z   758.67631   758.67631   758.67631
  Ewald  256215.36698256160.29593************   121.90467   -73.10659   -68.76743
  Hartree269139.27339269111.75840************    67.76422   -36.36320   -47.50733
  E(xc)   -2347.27187 -2347.31172 -2350.70151     0.04900    -0.12556     0.00755
  Local  ************************538236.82069  -177.70390   101.12535   112.99953
  n-local  -790.32792  -790.99641  -802.17546     2.30222    -2.09010    -2.05958
  augment  3366.55418  3366.69798  3380.16455    -0.43834     1.03717     0.36022
  Kinetic  3498.49401  3506.03459  3495.82650   -13.73889     9.33137     4.82464
  Fock        0.00000     0.00000     0.00000     0.00000     0.00000     0.00000
  Total      -2.19123    -2.13524     3.86641     0.13897    -0.19154    -0.14239
  in kB      -2.69635    -2.62745     4.75769     0.17100    -0.23570    -0.17522

 VOLUME and BASIS-vectors are now :
  energy-cutoff  :      500.00
  volume of cell :     1302.03
      direct lattice vectors                 reciprocal lattice vectors
     7.696786404  0.000000000  0.000000000     0.129924354 -0.075011849  0.000000000
     3.848392758  6.665612809  0.000000000     0.000000000  0.150023716  0.000000000
     0.000000000  0.000000000 25.378895643     0.000000000  0.000000000  0.039402818

  length of vectors
     7.696786404  7.696786404 25.378895643     0.150023716  0.150023716  0.039402818

 FORCES acting on ions
    electron-ion (+dipol)            ewald-force                    non-local-force                 convergence-correction
   0.751E-01 0.458E-01 0.390E+04   -.352E-01 -.262E-01 -.390E+04   0.177E-01 0.133E-01 -.270E+01   -.528E-01 -.323E-01 -.558E+00
   -.474E+00 0.139E+00 0.390E+04   0.166E+00 -.701E-01 -.390E+04   0.111E+00 0.420E-01 -.188E+01   0.192E+00 -.791E-01 -.574E+00
   0.392E+00 -.162E+00 0.390E+04   -.131E+00 -.539E-01 -.390E+04   -.133E+00 0.149E+00 -.185E+01   -.129E+00 0.677E-01 -.660E+00
   -.145E+00 -.516E+00 0.390E+04   0.274E-01 0.208E+00 -.390E+04   0.986E-01 0.988E-01 -.186E+01   0.391E-01 0.192E+00 -.621E+00
   -.178E+00 -.832E-01 0.390E+04   0.316E-01 0.507E-01 -.390E+04   0.854E-01 0.290E-01 -.166E+01   0.681E-01 0.110E-01 -.505E+00
   0.245E+00 -.215E+00 0.390E+04   -.590E-01 0.185E+00 -.390E+04   -.122E+00 -.696E-01 -.178E+01   -.833E-01 0.977E-01 -.570E+00
   0.112E+00 0.441E+00 0.390E+04   -.107E+00 -.116E+00 -.390E+04   0.204E-01 -.199E+00 -.180E+01   -.212E-01 -.129E+00 -.668E+00
   -.927E-01 0.303E+00 0.390E+04   0.103E+00 -.154E+00 -.390E+04   -.105E+00 -.668E-01 -.174E+01   0.722E-01 -.102E+00 -.524E+00
   0.181E+00 0.669E-01 0.390E+04   0.394E-02 -.242E-01 -.390E+04   -.754E-01 -.157E-01 -.227E+01   -.112E+00 -.282E-01 -.594E+00
   0.912E+00 0.448E+00 0.138E+04   -.591E+00 -.215E+00 -.137E+04   -.376E+00 -.237E+00 -.110E+01   0.659E-01 0.445E-02 -.116E+00
   -.208E+00 -.109E+00 0.137E+04   0.281E+00 -.356E+00 -.137E+04   -.585E-01 0.300E+00 -.333E+00   -.102E-01 0.120E+00 -.905E-01
   -.839E+00 0.462E+00 0.138E+04   0.311E+00 -.192E+00 -.137E+04   0.575E+00 -.311E+00 -.109E+01   -.385E-01 0.499E-01 -.158E+00
   -.891E-01 -.336E+00 0.137E+04   -.273E+00 0.605E+00 -.137E+04   0.198E+00 -.169E+00 -.239E+00   0.120E+00 -.713E-01 -.688E-01
   0.420E-01 -.132E+00 0.137E+04   0.429E+00 0.374E+00 -.137E+04   -.371E+00 -.193E+00 -.304E+00   -.766E-01 -.351E-01 -.111E+00
   0.288E+00 -.138E+01 0.137E+04   -.156E+00 0.113E+01 -.137E+04   -.529E-01 0.144E+00 -.826E+00   -.873E-01 0.831E-01 -.191E+00
   0.446E-01 -.731E+00 0.137E+04   -.117E+00 0.178E+00 -.137E+04   0.402E-01 0.615E+00 -.105E+01   0.522E-01 -.575E-01 -.121E+00
   -.102E+01 0.108E+01 0.137E+04   0.797E+00 -.888E+00 -.137E+04   0.154E+00 -.101E+00 -.845E+00   0.478E-01 -.871E-01 -.209E+00
   0.866E+00 0.684E+00 0.137E+04   -.680E+00 -.637E+00 -.137E+04   -.140E+00 -.491E-01 -.859E+00   -.379E-01 0.998E-02 -.190E+00
   0.182E+01 -.170E+01 -.117E+04   -.194E+01 0.160E+01 0.117E+04   0.153E+00 0.475E-01 0.910E+00   -.444E-02 0.382E-01 0.669E+00
   -.209E+02 -.137E+02 -.117E+04   0.216E+02 0.143E+02 0.117E+04   -.105E+01 -.722E+00 -.386E+00   0.367E+00 0.205E+00 0.114E+01
   0.185E+02 -.129E+02 -.118E+04   -.197E+02 0.135E+02 0.118E+04   0.160E+01 -.829E+00 -.920E+00   -.350E+00 0.178E+00 0.109E+01
   -.130E+02 0.624E+01 -.118E+04   0.122E+02 -.572E+01 0.118E+04   0.582E+00 -.393E+00 0.827E+00   0.267E+00 -.150E+00 0.740E+00
   -.557E+00 0.222E+02 -.118E+04   0.412E+00 -.235E+02 0.118E+04   0.173E+00 0.175E+01 -.848E+00   -.196E-01 -.371E+00 0.110E+01
   0.134E+02 0.795E+01 -.118E+04   -.126E+02 -.754E+01 0.118E+04   -.592E+00 -.337E+00 0.866E+00   -.183E+00 -.920E-01 0.696E+00
   0.511E+00 0.160E+01 -.117E+04   -.457E+00 -.151E+01 0.117E+04   -.386E-01 -.514E-01 0.989E+00   -.690E-02 -.333E-01 0.682E+00
   0.850E+00 0.300E+01 -.117E+04   -.953E+00 -.302E+01 0.116E+04   0.840E-01 0.895E-01 0.883E+00   0.190E-01 -.380E-01 0.659E+00
   -.136E+01 -.127E+02 -.117E+04   0.142E+01 0.118E+02 0.117E+04   -.512E-01 0.697E+00 0.850E+00   -.169E-01 0.294E+00 0.730E+00
   0.108E+02 0.707E+01 -.369E+04   -.111E+02 -.714E+01 0.369E+04   0.247E+00 0.852E-01 0.212E+01   0.903E-02 -.219E-01 0.914E+00
   0.264E+01 0.196E+02 -.364E+04   -.295E+01 -.202E+02 0.363E+04   -.137E+00 0.173E-01 0.265E+01   0.354E+00 0.461E+00 0.104E+01
   -.131E+02 0.478E+01 -.367E+04   0.136E+02 -.637E+01 0.367E+04   -.511E-01 0.734E+00 0.246E+01   -.344E+00 0.601E+00 0.108E+01
   0.113E+02 -.171E+02 -.366E+04   -.121E+02 0.172E+02 0.365E+04   0.257E-01 -.106E+00 0.229E+01   0.610E+00 0.697E-01 0.103E+01
   0.179E+01 -.493E+01 -.368E+04   -.490E+00 0.538E+01 0.368E+04   -.411E+00 -.424E+00 0.245E+01   -.623E+00 0.160E-01 0.106E+01
   -.488E+01 -.111E-01 -.368E+04   0.397E+01 0.116E+01 0.368E+04   0.438E+00 -.354E+00 0.215E+01   0.342E+00 -.589E+00 0.105E+01
   0.487E+01 0.829E+01 -.368E+04   -.415E+01 -.768E+01 0.368E+04   -.317E+00 0.787E-01 0.226E+01   -.271E+00 -.500E+00 0.103E+01
   -.501E+00 0.658E+01 -.370E+04   0.635E+00 -.654E+01 0.370E+04   -.104E+00 -.510E-01 0.244E+01   -.333E-01 0.231E-03 0.106E+01
   -.401E+01 -.165E+02 -.245E+04   0.397E+01 0.163E+02 0.245E+04   -.125E+00 0.178E+00 -.150E+01   0.211E-01 0.110E-02 0.877E+00
   -.124E+03 -.105E+03 -.234E+04   0.145E+03 0.121E+03 0.235E+04   -.203E+02 -.160E+02 -.888E+01   -.796E-01 -.507E-01 -.114E+00
   0.134E+03 0.996E+02 -.230E+04   -.165E+03 -.117E+03 0.228E+04   0.307E+02 0.172E+02 0.230E+02   0.303E+00 0.244E+00 -.190E+00
   -.255E+02 -.332E+01 -.423E+03   0.287E+02 0.432E+01 0.430E+03   -.315E+01 -.101E+01 -.741E+01   0.300E-02 0.127E-01 -.656E-01
   -.787E+01 -.859E+00 -.129E+02   -.139E-12 0.464E-12 0.455E-12   0.754E+01 0.600E+00 0.305E+01   0.373E+00 0.288E+00 0.974E+01

 POSITION                                       TOTAL-FORCE (eV/Angst)
      0.00000      0.00000      5.37156         0.003659     -0.000126     -0.012663
      2.56560      0.00000      5.37156        -0.007218      0.030908      0.066816
      5.13119      0.00000      5.37156        -0.001893     -0.000167      0.080499
      1.28280      2.22187      5.37156         0.019114     -0.018450      0.076105
      3.84839      2.22187      5.37156         0.005934      0.006886      0.033502
      6.41399      2.22187      5.37156        -0.020747     -0.002374      0.068966
      2.56560      4.44374      5.37156         0.003650     -0.003001      0.087378
      5.13119      4.44374      5.37156        -0.023513     -0.020529      0.065316
      7.69679      4.44374      5.37156        -0.003803     -0.001974      0.027839
      1.28280      0.74062      7.46636         0.009544     -0.000548     -0.072731
      3.84839      0.74062      7.46636         0.003313     -0.045669     -0.063412
      6.41399      0.74062      7.46636         0.006750      0.008026     -0.052592
      2.56560      2.96249      7.46636        -0.046105      0.027524     -0.058166
      5.13119      2.96249      7.46636         0.022838      0.013185     -0.045934
      7.69679      2.96249      7.46636        -0.009513     -0.019928     -0.011937
      3.84839      5.18437      7.46636         0.018558      0.003911     -0.060906
      6.41399      5.18437      7.46636        -0.020763      0.003517     -0.010898
      8.97958      5.18437      7.46636         0.007212      0.006584     -0.008144
      7.69679      1.48414      9.55535         0.019736     -0.017324      0.005338
      2.56128      1.47875      9.53998        -0.022727     -0.015435     -0.193812
      5.13551      1.47875      9.53998         0.047005     -0.020400     -0.135109
      8.97644      3.70493      9.56275         0.051503     -0.029232     -0.011259
      3.84839      3.70811      9.53998         0.007978      0.072921     -0.178708
      6.41713      3.70493      9.56275        -0.040402     -0.022010     -0.007360
     10.25987      5.92354      9.55535         0.007486      0.006533     -0.004542
      5.13370      5.92354      9.55535        -0.000739      0.027567      0.007472
      7.69679      5.92136      9.56275        -0.003378      0.043873     -0.002778
      0.00000      0.00000     11.63109         0.001861     -0.000996     -0.001426
      6.40750      6.66078     11.65531        -0.100005     -0.163364     -0.023426
      8.98608      6.66078     11.65531         0.117211     -0.258104     -0.189303
      8.97216      2.21866     11.65531        -0.188809     -0.007722     -0.093628
      6.42142      2.21866     11.65531         0.264503      0.039608     -0.134935
     10.26144      4.45178     11.65531        -0.130565      0.205360     -0.178562
      5.13213      4.45178     11.65531         0.131607      0.185028     -0.120968
      7.69679      4.44374     11.63516        -0.004856     -0.006971      0.012111
      3.84839      2.22187     11.61289        -0.150532     -0.032211      1.215899
      4.00272      2.24296     13.48533        -0.019880     -0.020047     -0.028851
      2.99325      1.41079     14.29687         0.033966      0.028724     -0.057657
      3.38259      1.53827     15.18995         0.012021     -0.003575      0.012465
    total drift:                                0.045708      0.029529     -0.093362

  FREE ENERGIE OF THE ION-ELECTRON SYSTEM (eV)
  free  energy   TOTEN  =      -145.17490270 eV

  energy  without entropy=     -145.17490270  energy(sigma->0) =     -145.17490270

 stress matrix after NEB project (eV)
     -2.19123      0.13897     -0.14239
      0.13897     -2.13524     -0.19154
     -0.14239     -0.19154      3.86641
  FORCES: max atom, RMS     0.072822    0.013630
  FORCE total and by dimension    0.085119    0.057657
  Stress total and by dimension    4.945945    3.866408
|           W    W    AA    RRRRR   N    N  II  N    N   GGGG   !!!           |
|           W    W   A  A   R    R  NN   N  II  NN   N  G    G  !!!           |
|           W    W  A    A  R    R  N N  N  II  N N  N  G       !!!           |
|           W WW W  AAAAAA  RRRRR   N  N N  II  N  N N  G  GGG   !            |
|           WW  WW  A    A  R   R   N   NN  II  N   NN  G    G                |
|           W    W  A    A  R    R  N    N  II  N    N   GGGG   !!!           |
|     Tetrahedron method does not include variations of the Fermi             |
|     occupations, so forces and stress will be inaccurate. We suggest        |
|     using a different smearing scheme ISMEAR = 1 or 2 for metals in         |
|     relaxations.                                                            |

 total charge

# of ion       s       p       d       tot
    1        0.450   0.283   9.189   9.922
    2        0.449   0.285   9.186   9.920
    3        0.448   0.285   9.187   9.920
    4        0.449   0.286   9.186   9.920
    5        0.449   0.286   9.182   9.917
    6        0.449   0.284   9.187   9.921
    7        0.448   0.286   9.186   9.920
    8        0.449   0.285   9.187   9.921
    9        0.447   0.283   9.190   9.920
   10        0.442   0.371   9.179   9.992
   11        0.442   0.367   9.185   9.994
   12        0.443   0.372   9.175   9.991
   13        0.443   0.367   9.184   9.994
   14        0.442   0.367   9.185   9.994
   15        0.439   0.368   9.181   9.988
   16        0.443   0.371   9.177   9.991
   17        0.439   0.368   9.181   9.988
   18        0.438   0.370   9.180   9.988
   19        0.441   0.370   9.183   9.994
   20        0.455   0.392   9.169  10.015
   21        0.461   0.391   9.164  10.017
   22        0.433   0.371   9.185   9.989
   23        0.461   0.390   9.167  10.017
   24        0.431   0.372   9.183   9.987
   25        0.442   0.368   9.187   9.996
   26        0.441   0.370   9.182   9.993
   27        0.432   0.372   9.184   9.988
   28        0.453   0.288   9.192   9.933
   29        0.452   0.299   9.183   9.934
   30        0.450   0.301   9.186   9.937
   31        0.454   0.300   9.182   9.936
   32        0.453   0.299   9.187   9.938
   33        0.450   0.303   9.183   9.936
   34        0.455   0.298   9.185   9.939
   35        0.444   0.291   9.193   9.928
   36        0.613   0.689   6.676   7.978
   37        1.605   3.210   0.000   4.815
   38        1.598   3.359   0.000   4.957
   39        0.619   0.112   0.000   0.731
tot         20.054  19.030 328.077 367.160

 BZINTS: Fermi energy:   -0.450277;  406.000000 electrons
         Band energy:-0.140510E+04;  BLOECHL correction:   -0.045352