 vasp.6.2.0 18Jan21 (build Jun 12 2021 23:27:24) complex

 executed on             LinuxIFC date 2022.05.30  17:09:42

 INCAR:
   ISMEAR = -5
   SIGMA = 0.1
   ISPIN = 1
   EDIFF = 1.d-5
   EDIFFG = -0.01
   NSW = 0
   NELM = 150
   ENCUT = 500
   ISIF = 2
   IBRION = 2
   LREAL = Auto
   ALGO = Fast
   ICHARG = 11
   LORBIT = 10
   LCHARG = .F.
   LWAVE = .F.

 POTCAR:    PAW_PBE Ag 02Apr2005
 POTCAR:    PAW_PBE Mo 08Apr2002
 POTCAR:    PAW_PBE C 08Apr2002
|           W    W    AA    RRRRR   N    N  II  N    N   GGGG   !!!           |
|           W    W   A  A   R    R  NN   N  II  NN   N  G    G  !!!           |
|           W    W  A    A  R    R  N N  N  II  N N  N  G       !!!           |
|           W WW W  AAAAAA  RRRRR   N  N N  II  N  N N  G  GGG   !            |
|           WW  WW  A    A  R   R   N   NN  II  N   NN  G    G                |
|           W    W  A    A  R    R  N    N  II  N    N   GGGG   !!!           |
|     For optimal performance we recommend to set                             |
|       NCORE = 2 up to number-of-cores-per-socket                            |
|     This setting can greatly improve the performance of VASP for DFT.       |
|     The default, NCORE=1 might be grossly inefficient on modern             |
|     multi-core architectures or massively parallel machines. Do your        |
|     Unfortunately you need to use the default for GW and RPA                |
|     calculations (for HF NCORE is supported but not extensively tested      |
|     yet).                                                                   |

 POTCAR:    PAW_PBE Ag 02Apr2005
   VRHFIN =Ag : s1 d10

   TITEL  = PAW_PBE Ag 02Apr2005
   POMASS =  107.868; ZVAL   =   11.000    mass and valenz
   ENMAX  =  249.844; ENMIN  =  187.383 eV

 POTCAR:    PAW_PBE Mo 08Apr2002
   VRHFIN =Mo: 4p5s4d

[...]

 POTCAR:    PAW_PBE C 08Apr2002
   VRHFIN =C: s2p2

   TITEL  = PAW_PBE C 08Apr2002
   POMASS =   12.011; ZVAL   =    4.000    mass and valenz
   ENMAX  =  400.000; ENMIN  =  300.000 eV

 Optimization of the real space projectors (new method)

 maximal supplied QI-value         = 15.12
 optimisation between [QCUT,QGAM] = [ 11.34, 22.83] = [ 36.00,145.93] Ry
 Optimized for a Real-space Cutoff    1.43 Angstroem

   l    n(q)    QCUT    max X(q) W(low)/X(q) W(high)/X(q)  e(spline)
   2      9    11.338    53.897    0.16E-03    0.20E-03    0.28E-06
   2      9    11.338    52.416    0.16E-03    0.20E-03    0.29E-06
   0     10    11.338   122.045    0.31E-04    0.76E-04    0.15E-06
   0     10    11.338    73.629    0.30E-04    0.72E-04    0.15E-06
   1      9    11.338    15.255    0.20E-03    0.19E-04    0.17E-06
   1      9    11.338     9.562    0.16E-03    0.15E-04    0.14E-06
 Optimization of the real space projectors (new method)

[...]

   l    n(q)    QCUT    max X(q) W(low)/X(q) W(high)/X(q)  e(spline)
   2     10    11.429    80.908    0.27E-03    0.78E-03    0.13E-05
   2     10    11.429    79.000    0.27E-03    0.78E-03    0.13E-05
   0     11    11.429    52.066    0.33E-04    0.97E-04    0.72E-06
   0     11    11.429    24.514    0.27E-04    0.80E-04    0.60E-06
   1     10    11.429    16.033    0.31E-04    0.17E-03    0.36E-06
   1     10    11.429    11.179    0.22E-04    0.13E-03    0.29E-06
 Optimization of the real space projectors (new method)

 maximal supplied QI-value         = 25.13
 optimisation between [QCUT,QGAM] = [ 11.31, 22.87] = [ 35.82,146.48] Ry
 Optimized for a Real-space Cutoff    1.00 Angstroem

   l    n(q)    QCUT    max X(q) W(low)/X(q) W(high)/X(q)  e(spline)
   0      7    11.310   115.676    0.43E-03    0.13E-02    0.19E-06
   0      7    11.310    87.132    0.43E-03    0.13E-02    0.18E-06
   1      6    11.310     4.429    0.42E-03    0.74E-03    0.11E-06
   1      6    11.310     2.733    0.34E-03    0.55E-03    0.92E-07
  PAW_PBE Ag 02Apr2005                  :
  PAW_PBE Mo 08Apr2002                  :
  PAW_PBE C 08Apr2002                   :

 POSCAR: Ag-Mo-C
  positions in direct lattice
  velocities in cartesian coordinates
 exchange correlation table for  LEXCH =        8
   RHO(1)=    0.500       N(1)  =     2000
   RHO(2)=  100.500       N(2)  =     4000

 VTST: version 3.2, (02/03/18)

 CHAIN: initializing optimizer

 OPT: Using VASP Conjugate-Gradient optimizer
 CHAIN: Read ICHAIN            0

 POSCAR: Ag-Mo-C
  positions in direct lattice
  velocities in cartesian coordinates

 ion  position               nearest neighbor table
   1  0.000  0.000  0.217-   2 2.93   8 2.93   7 2.93   6 2.93   4 2.93  12 2.93  16 2.93  10 2.93
                             3 2.93
   2  0.333  0.000  0.217-   1 2.93   8 2.93   9 2.93   3 2.93   4 2.93   5 2.93  10 2.93  17 2.93
                            11 2.93
   3  0.667  0.000  0.217-   9 2.93   2 2.93   5 2.93  11 2.93   7 2.93  18 2.93   1 2.93   6 2.93
                            12 2.93
   4  0.000  0.333  0.217-   5 2.93   6 2.93   2 2.93   1 2.93   7 2.93  13 2.93  15 2.93   9 2.93
                            10 2.93
   5  0.333  0.333  0.217-   4 2.93   3 2.93   7 2.93   2 2.93   8 2.93  14 2.93  13 2.93  11 2.93
                             6 2.93
   6  0.667  0.333  0.217-   4 2.93   9 2.93   1 2.93  15 2.93   8 2.93  12 2.93   3 2.93   5 2.93
                            14 2.93
   7  0.000  0.667  0.217-   8 2.93   1 2.93   5 2.93   3 2.93   4 2.93  16 2.93  18 2.93  13 2.93
                             9 2.93
   8  0.333  0.667  0.217-   7 2.93   1 2.93   2 2.93   9 2.93   5 2.93  16 2.93   6 2.93  17 2.93
                            14 2.93
   9  0.667  0.667  0.217-   3 2.93   2 2.93   8 2.93   6 2.93  17 2.93   4 2.93  15 2.93   7 2.93
                            18 2.93
  10  0.111  0.111  0.315-  20 2.90  19 2.93  26 2.93  12 2.93  16 2.93  15 2.93  17 2.93  13 2.93
                            11 2.93   2 2.93   1 2.93   4 2.93
  11  0.444  0.111  0.315-  21 2.90  20 2.90  27 2.93  14 2.93  17 2.93  18 2.93   3 2.93  12 2.93
                            13 2.93  10 2.93   5 2.93   2 2.93
  12  0.778  0.111  0.315-  21 2.90  25 2.93  19 2.93  10 2.93  16 2.93  18 2.93  15 2.93  11 2.93
                             1 2.93  14 2.93   6 2.93   3 2.93
  13  0.111  0.444  0.315-  20 2.90  23 2.90  22 2.93  15 2.93  14 2.93  18 2.93  10 2.93  11 2.93
                            16 2.93   4 2.93   5 2.93   7 2.93
  14  0.444  0.444  0.315-  23 2.90  21 2.90  24 2.93  13 2.93  11 2.93  16 2.93   5 2.93  12 2.93
                            17 2.93   8 2.93  15 2.93   6 2.93
  15  0.778  0.444  0.315-  24 2.92  22 2.92  19 2.92  13 2.93  10 2.93  12 2.93  17 2.93  18 2.93
                             4 2.93   6 2.93   9 2.93  14 2.93
  16  0.111  0.778  0.315-  23 2.90  26 2.93  25 2.93  18 2.93  12 2.93  10 2.93  14 2.93  17 2.93
                            13 2.93   7 2.93   8 2.93   1 2.93
  17  0.444  0.778  0.315-  27 2.92  24 2.92  26 2.92  11 2.93  10 2.93   9 2.93  18 2.93  15 2.93
                            16 2.93   2 2.93  14 2.93   8 2.93
  18  0.778  0.778  0.315-  22 2.92  27 2.92  25 2.92  16 2.93  12 2.93  13 2.93  11 2.93  17 2.93
                            15 2.93   7 2.93   3 2.93   9 2.93
  19  0.889  0.222  0.413-  28 2.92  15 2.92  10 2.93  12 2.93  24 2.93  22 2.93  26 2.93  25 2.93
                            20 2.93  21 2.93  32 2.96  31 2.96
  20  0.222  0.222  0.412-  36 2.79  13 2.90  11 2.90  10 2.90  21 2.93  23 2.93  19 2.93  26 2.93
                            27 2.93  22 2.93  31 2.94  29 2.94
  21  0.555  0.222  0.412-  36 2.79  11 2.90  14 2.90  12 2.90  20 2.93  23 2.93  25 2.93  19 2.93
                            27 2.93  24 2.93  30 2.94  32 2.94
  22  0.888  0.556  0.413-  35 2.91  24 2.92  27 2.92  18 2.92  15 2.92  13 2.93  25 2.93  19 2.93
                            23 2.93  20 2.93  33 2.94  31 2.94
  23  0.222  0.555  0.412-  36 2.79  14 2.90  13 2.90  16 2.90  21 2.93  20 2.93  26 2.93  25 2.93
                            22 2.93  24 2.93  34 2.94  33 2.94
  24  0.556  0.556  0.413-  35 2.91  27 2.92  22 2.92  15 2.92  17 2.92  14 2.93  19 2.93  26 2.93
                            23 2.93  21 2.93  32 2.94  34 2.94
  25  0.889  0.889  0.413-  28 2.92  18 2.92  16 2.93  12 2.93  22 2.93  27 2.93  26 2.93  19 2.93
                            23 2.93  21 2.93  33 2.96  30 2.96
  26  0.222  0.889  0.413-  28 2.92  17 2.92  16 2.93  10 2.93  27 2.93  24 2.93  25 2.93  19 2.93
                            23 2.93  20 2.93  34 2.96  29 2.96
  27  0.556  0.888  0.413-  35 2.91  24 2.92  22 2.92  17 2.92  18 2.92  11 2.93  26 2.93  25 2.93
                            20 2.93  21 2.93  29 2.94  30 2.94
  28  0.000  0.000  0.510-  26 2.92  25 2.92  19 2.92  29 2.95  34 2.95  33 2.95  32 2.95  31 2.95
                            30 2.95
  29  0.333  0.005  0.512-  31 2.88  30 2.89  36 2.89  27 2.94  20 2.94  28 2.95  35 2.96  26 2.96
                            34 3.02
  30  0.662  0.005  0.512-  32 2.88  29 2.89  36 2.89  27 2.94  21 2.94  28 2.95  35 2.96  25 2.96
                            33 3.02
  31  0.005  0.333  0.512-  29 2.88  33 2.89  36 2.89  22 2.94  20 2.94  28 2.95  35 2.96  19 2.96
                            32 3.02
  32  0.662  0.333  0.512-  30 2.88  34 2.89  36 2.89  24 2.94  21 2.94  28 2.95  35 2.96  19 2.96
                            31 3.02
  33  0.005  0.662  0.512-  34 2.88  31 2.89  36 2.89  22 2.94  23 2.94  28 2.95  35 2.96  25 2.96
                            30 3.02
  34  0.333  0.662  0.512-  33 2.88  32 2.89  36 2.89  24 2.94  23 2.94  28 2.95  35 2.96  26 2.96
                            29 3.02
  35  0.667  0.667  0.510-  24 2.91  27 2.91  22 2.91  30 2.96  32 2.96  29 2.96  34 2.96  31 2.96
                            33 2.96
  36  0.333  0.333  0.503-  37 1.75  21 2.79  20 2.79  23 2.79  31 2.89  30 2.89  33 2.89  29 2.89
                            34 2.89  32 2.89
  37  0.333  0.333  0.575-  36 1.75

  LATTYP: Found a hexagonal cell.
 ALAT       =     8.7913665772
 C/A-ratio  =     2.7711238095

  Lattice vectors:

 A1 = (  -4.3956832886,  -7.6135467898,   0.0000000000)
 A2 = (   8.7913665771,   0.0000000000,   0.0000000000)
 A3 = (   0.0000000000,   0.0000000000,  24.3619652401)

Analysis of symmetry for initial positions (statically):
 Subroutine PRICEL returns:
 Original cell was already a primitive cell.

 Routine SETGRP: Setting up the symmetry group for a
 hexagonal supercell.

 Subroutine GETGRP returns: Found  6 space group operations
 (whereof  6 operations were pure point group operations)
 out of a pool of 24 trial point group operations.

The static configuration has the point symmetry C_3v.

Analysis of symmetry for dynamics (positions and initial velocities):
 Subroutine PRICEL returns:
 Original cell was already a primitive cell.

[...]

The dynamic configuration has the point symmetry C_3v.

Analysis of constrained symmetry for selective dynamics:
 Subroutine PRICEL returns:
 Original cell was already a primitive cell.

 Routine SETGRP: Setting up the symmetry group for a
 hexagonal supercell.

 Subroutine GETGRP returns: Found  6 space group operations
 (whereof  6 operations were pure point group operations)
 out of a pool of 24 trial point group operations.

[...]
     24      -5.2073      2.00000
     25      -5.1862      2.00000
     26      -5.1776      2.00000
     27      -5.1651      2.00000
     28      -5.1370      2.00000
     29      -5.1347      2.00000
     30      -5.1202      2.00000
     31      -5.0988      2.00000
     32      -5.0937      2.00000
     33      -5.0661      2.00000
     34      -5.0436      2.00000
     35      -5.0088      2.00000
     36      -4.9852      2.00000
     37      -4.9796      2.00000
     38      -4.9477      2.00000
     39      -4.9180      2.00000
     40      -4.9122      2.00000
     41      -4.9005      2.00000
     42      -4.8953      2.00000
     43      -4.8770      2.00000
     44      -4.7831      2.00000
     45      -4.7590      2.00000
     46      -4.7464      2.00000
     47      -4.7413      2.00000
     48      -4.7387      2.00000
     49      -4.7349      2.00000
     50      -4.7235      2.00000
     51      -4.7169      2.00000
     52      -4.7108      2.00000
     53      -4.7011      2.00000
     54      -4.6331      2.00000
     55      -4.6228      2.00000
     56      -4.6143      2.00000
     57      -4.6070      2.00000
     58      -4.5963      2.00000
     59      -4.5777      2.00000
     60      -4.5526      2.00000
[...]
    238       5.8129      0.00000
    239       5.8819      0.00000
    240       6.0374      0.00000
    241       6.4736      0.00000
    242       6.4906      0.00000
    243       6.6103      0.00000
    244       6.6412      0.00000
    245       6.6804      0.00000
    246       6.7625      0.00000
    247       6.7817      0.00000
    248       6.8578      0.00000
    249       6.9452      0.00000
    250       7.0534      0.00000
    251       7.1637      0.00000
    252       7.2270      0.00000

 soft charge-density along one line, spin component           1
         0         1         2         3         4         5         6         7         8         9
 total charge-density along one line

------------------------ aborting loop because EDIFF is reached ----------------------------------------

 total charge

# of ion       s       p       d       tot
    1        0.413   0.205   9.177   9.795
    2        0.419   0.203   9.176   9.798
    3        0.419   0.203   9.176   9.798
    4        0.419   0.203   9.176   9.798
    5        0.414   0.204   9.178   9.796
    6        0.419   0.203   9.176   9.798
    7        0.419   0.203   9.176   9.798
    8        0.419   0.203   9.176   9.798
    9        0.412   0.204   9.177   9.793
   10        0.405   0.271   9.163   9.839
   11        0.408   0.269   9.166   9.844
   12        0.405   0.271   9.163   9.839
   13        0.408   0.269   9.166   9.844
   14        0.408   0.269   9.166   9.844
   15        0.401   0.270   9.165   9.836
   16        0.405   0.271   9.163   9.839
   17        0.401   0.270   9.165   9.836
   18        0.401   0.270   9.165   9.836
   19        0.401   0.263   9.169   9.834
   20        0.425   0.297   9.150   9.873
   21        0.425   0.297   9.150   9.873
   22        0.393   0.276   9.163   9.832
   23        0.425   0.297   9.150   9.873
   24        0.393   0.276   9.163   9.832
   25        0.401   0.263   9.169   9.834
   26        0.401   0.263   9.169   9.834
   27        0.393   0.276   9.163   9.832
   28        0.415   0.198   9.177   9.790
   29        0.424   0.213   9.167   9.803
   30        0.424   0.213   9.167   9.803
   31        0.424   0.213   9.167   9.803
   32        0.424   0.213   9.167   9.803
   33        0.424   0.213   9.167   9.803
   34        0.424   0.213   9.167   9.803
   35        0.412   0.202   9.176   9.790
   36        0.454   0.418   4.619   5.492
   37        0.997   1.245   0.000   2.242
tot         15.874  10.110 325.492 351.476

  FORCE on cell =-STRESS in cart. coord.  units (eV):
  Direction    XX          YY          ZZ          XY          YZ          ZX
  Alpha Z   688.27533   688.27533   688.27533
  Ewald  151570.66532151570.66527************     0.00001    -0.00001     0.00001
  Hartree161387.10554161387.10552************     0.00000    -0.00000     0.00000
  E(xc)   -2070.01136 -2070.01135 -2078.40827    -0.00001     0.00000     0.00000
  Local  ************************324323.72492     0.00029    -0.00003    -0.00009
  n-local  -344.17618  -328.03162  -344.02240     9.38534    -0.44688     0.50605
  augment  3227.93877  3227.93893  3240.18765    -0.00014    -0.00001     0.00001
  Kinetic  4895.89319  4901.23765  4924.78481     4.78846     0.67138    -0.11327
  Fock        0.00000     0.00000     0.00000     0.00000     0.00000     0.00000
  Total      -7.18061    -7.18061     0.65891    -0.00000     0.00000     0.00000
  in kB      -7.05531    -7.05531     0.64741    -0.00000     0.00000     0.00000

 VOLUME and BASIS-vectors are now :
  energy-cutoff  :      500.00
  volume of cell :     1630.63
      direct lattice vectors                 reciprocal lattice vectors
     8.791366577  0.000000000  0.000000000     0.113747958 -0.065672414  0.000000000
     4.395683289  7.613546790  0.000000000     0.000000000  0.131344829  0.000000000
     0.000000000  0.000000000 24.361965240     0.000000000  0.000000000  0.041047592

  length of vectors
     8.791366577  8.791366577 24.361965240     0.131344829  0.131344829  0.041047592

 FORCES acting on ions
    electron-ion (+dipol)            ewald-force                    non-local-force                 convergence-correction
   0.463E-04 -.280E-04 0.266E+04   -.953E-04 0.593E-04 -.266E+04   0.349E-17 0.668E-17 -.211E+01   -.835E-04 -.155E-03 -.155E+00
   0.659E-02 0.474E+00 0.266E+04   -.678E-01 -.218E+00 -.266E+04   0.149E-01 -.671E-01 -.163E+01   0.442E-01 -.175E+00 -.593E-01
   -.650E-02 0.474E+00 0.266E+04   0.680E-01 -.218E+00 -.266E+04   -.149E-01 -.671E-01 -.163E+01   -.448E-01 -.173E+00 -.587E-01
   0.414E+00 -.231E+00 0.266E+04   -.223E+00 0.505E-01 -.266E+04   -.507E-01 0.464E-01 -.163E+01   -.129E+00 0.126E+00 -.593E-01
   -.716E-05 -.195E-04 0.266E+04   0.980E-04 -.198E-05 -.266E+04   0.186E-17 0.144E-17 -.167E+01   0.618E-02 0.378E-02 0.242E-01
   -.414E+00 -.231E+00 0.266E+04   0.223E+00 0.504E-01 -.266E+04   0.507E-01 0.464E-01 -.163E+01   0.127E+00 0.127E+00 -.586E-01
   0.407E+00 -.243E+00 0.266E+04   -.155E+00 0.168E+00 -.266E+04   -.656E-01 0.207E-01 -.163E+01   -.171E+00 0.480E-01 -.587E-01
   -.407E+00 -.243E+00 0.266E+04   0.155E+00 0.168E+00 -.266E+04   0.656E-01 0.207E-01 -.163E+01   0.173E+00 0.471E-01 -.586E-01
   0.362E-04 -.130E-04 0.266E+04   0.792E-04 -.643E-04 -.266E+04   -.605E-18 0.500E-18 -.195E+01   -.663E-02 -.341E-02 -.177E+00
   0.198E+01 0.114E+01 0.881E+03   -.176E+01 -.101E+01 -.881E+03   -.234E+00 -.135E+00 -.659E+00   0.153E-01 0.883E-02 0.679E-01
   -.281E-04 0.218E+01 0.882E+03   0.406E-04 -.231E+01 -.881E+03   0.324E-12 0.494E-01 -.756E+00   0.618E-02 0.292E-01 0.587E-01
   -.198E+01 0.114E+01 0.881E+03   0.176E+01 -.101E+01 -.881E+03   0.234E+00 -.135E+00 -.659E+00   -.165E-01 0.948E-02 0.670E-01
   0.189E+01 -.109E+01 0.882E+03   -.200E+01 0.116E+01 -.881E+03   0.428E-01 -.247E-01 -.756E+00   0.283E-01 -.923E-02 0.587E-01
   -.189E+01 -.109E+01 0.882E+03   0.200E+01 0.116E+01 -.881E+03   -.428E-01 -.247E-01 -.756E+00   -.180E-01 -.101E-01 0.570E-01
   0.158E-04 -.464E-01 0.880E+03   -.108E-03 -.216E-01 -.880E+03   0.274E-12 0.417E-01 -.610E+00   -.127E-02 0.221E-01 -.645E-02
   -.794E-05 -.228E+01 0.881E+03   0.206E-04 0.203E+01 -.881E+03   0.177E-11 0.270E+00 -.659E+00   -.933E-04 -.191E-01 0.670E-01
   -.402E-01 0.232E-01 0.880E+03   -.188E-01 0.107E-01 -.880E+03   0.361E-01 -.209E-01 -.610E+00   0.185E-01 -.121E-01 -.645E-02
   0.402E-01 0.232E-01 0.880E+03   0.187E-01 0.108E-01 -.880E+03   -.361E-01 -.209E-01 -.610E+00   -.183E-01 -.106E-01 -.564E-02
   0.385E-04 -.365E+01 -.917E+03   -.126E-03 0.360E+01 0.916E+03   0.635E-12 0.967E-01 0.948E+00   0.106E-02 -.481E-01 0.139E+00
   -.134E+02 -.771E+01 -.917E+03   0.136E+02 0.785E+01 0.918E+03   -.575E+00 -.332E+00 -.528E+00   0.326E-01 0.189E-01 0.115E+00
   0.134E+02 -.771E+01 -.917E+03   -.136E+02 0.785E+01 0.918E+03   0.575E+00 -.332E+00 -.528E+00   -.435E-01 0.184E-01 0.115E+00
   -.805E+01 0.465E+01 -.916E+03   0.765E+01 -.442E+01 0.915E+03   0.390E+00 -.225E+00 0.712E+00   0.514E-01 -.293E-01 0.380E-01
   -.518E-04 0.154E+02 -.917E+03   0.390E-04 -.157E+02 0.918E+03   0.436E-11 0.663E+00 -.528E+00   -.549E-02 -.462E-01 0.115E+00
   0.805E+01 0.465E+01 -.916E+03   -.765E+01 -.442E+01 0.915E+03   -.390E+00 -.225E+00 0.712E+00   -.498E-01 -.286E-01 0.381E-01
   0.316E+01 0.182E+01 -.917E+03   -.312E+01 -.180E+01 0.916E+03   -.837E-01 -.484E-01 0.948E+00   0.416E-01 0.239E-01 0.138E+00
   -.316E+01 0.182E+01 -.917E+03   0.312E+01 -.180E+01 0.916E+03   0.837E-01 -.484E-01 0.948E+00   -.415E-01 0.249E-01 0.139E+00
   0.196E-04 -.930E+01 -.916E+03   0.110E-03 0.883E+01 0.915E+03   0.296E-11 0.450E+00 0.712E+00   -.315E-03 0.591E-01 0.381E-01
   0.536E-04 -.363E-04 -.265E+04   -.115E-03 0.772E-04 0.264E+04   -.244E-17 -.168E-17 0.189E+01   0.258E-03 0.137E-04 0.464E-01
   -.279E+01 -.579E+01 -.265E+04   0.357E+01 0.674E+01 0.264E+04   -.765E+00 -.113E+01 0.229E+01   -.532E-01 0.942E-01 -.195E-01
   0.279E+01 -.579E+01 -.265E+04   -.357E+01 0.674E+01 0.264E+04   0.765E+00 -.113E+01 0.229E+01   0.523E-01 0.953E-01 -.193E-01
   -.641E+01 0.475E+00 -.265E+04   0.762E+01 -.276E+00 0.264E+04   -.136E+01 -.973E-01 0.229E+01   0.552E-01 -.930E-01 -.195E-01
   0.641E+01 0.475E+00 -.265E+04   -.762E+01 -.276E+00 0.264E+04   0.136E+01 -.973E-01 0.229E+01   -.554E-01 -.921E-01 -.186E-01
   -.361E+01 0.531E+01 -.265E+04   0.405E+01 -.646E+01 0.264E+04   -.596E+00 0.123E+01 0.229E+01   0.109E+00 -.176E-02 -.193E-01
   0.361E+01 0.531E+01 -.265E+04   -.405E+01 -.646E+01 0.264E+04   0.596E+00 0.123E+01 0.229E+01   -.108E+00 -.187E-02 -.186E-01
   0.249E-04 -.125E-04 -.265E+04   0.104E-03 -.654E-04 0.265E+04   0.453E-17 -.114E-17 0.202E+01   -.633E-02 -.322E-02 0.675E-01
   -.154E-04 -.740E-05 -.130E+04   0.573E-04 0.696E-05 0.130E+04   -.249E-17 -.226E-17 0.108E+01   0.600E-03 0.369E-03 0.722E-02
   0.467E-04 -.267E-04 -.116E+04   0.189E-04 0.271E-06 0.116E+04   0.181E-17 0.711E-18 -.669E+01   0.612E-03 0.376E-03 -.611E-02
   0.376E-03 -.722E-03 0.543E+01   0.767E-13 -.329E-12 0.159E-11   0.115E-15 -.269E-17 -.611E+01   -.528E-02 0.161E-03 0.572E+00

 POSITION                                       TOTAL-FORCE (eV/Angst)
      0.00000      0.00000      5.28219         0.000000      0.000000      0.036166
      2.93046      0.00000      5.28219        -0.001499      0.014707      0.015386
      5.86091      0.00000      5.28219         0.001499      0.014707      0.015386
      1.46523      2.53785      5.28219         0.011987     -0.008651      0.015386
      4.39568      2.53785      5.28219         0.000000      0.000000     -0.026073
      7.32614      2.53785      5.28219        -0.011987     -0.008651      0.015386
      2.93046      5.07570      5.28219         0.013486     -0.006056      0.015386
      5.86091      5.07570      5.28219        -0.013486     -0.006056      0.015386
      8.79137      5.07570      5.28219         0.000000      0.000000      0.042803
      1.46523      0.84595      7.67490         0.003338      0.001927     -0.019996
      4.39568      0.84595      7.67490        -0.000000     -0.052828     -0.070732
      7.32614      0.84595      7.67490        -0.003338      0.001927     -0.019996
      2.93046      3.38380      7.67490        -0.045751      0.026414     -0.070732
      5.86091      3.38380      7.67490         0.045751      0.026414     -0.070732
      8.79137      3.38380      7.67490        -0.000000     -0.004571      0.046432
      4.39568      5.92165      7.67490        -0.000000     -0.003854     -0.019996
      7.32614      5.92165      7.67490        -0.003959      0.002286      0.046432
     10.25659      5.92165      7.67490         0.003959      0.002286      0.046432
      8.79137      1.69286     10.06155         0.000000      0.006369      0.035353
      2.93202      1.69280     10.03008        -0.299418     -0.172869     -0.251132
      5.85935      1.69280     10.03008         0.299418     -0.172869     -0.251132
     10.25345      4.23157     10.06207         0.040072     -0.023135      0.027648
      4.39568      4.22795     10.03008         0.000000      0.345738     -0.251132
      7.32929      4.23157     10.06207        -0.040072     -0.023135      0.027648
     11.72099      6.76712     10.06155        -0.005516     -0.003185      0.035353
      5.86174      6.76712     10.06155         0.005516     -0.003185      0.035353
      8.79137      6.76396     10.06207         0.000000      0.046271      0.027648
      0.00000      0.00000     12.43674         0.000000      0.000000     -0.024186
      2.95191      0.04038     12.46589        -0.036564     -0.080949     -0.017077
      5.83946      0.04038     12.46589         0.036564     -0.080949     -0.017077
      1.51092      2.53624     12.46589        -0.088386      0.008809     -0.017077
      7.28044      2.53624     12.46589         0.088386      0.008809     -0.017077
      2.95470      5.03693     12.46589        -0.051822      0.072140     -0.017077
      5.83667      5.03693     12.46589         0.051822      0.072140     -0.017077
      8.79137      5.07570     12.43630        -0.000000      0.000000     -0.015466
      4.39568      2.53785     12.24527         0.000000      0.000000      0.716077
      4.39568      2.53785     13.99737         0.000000      0.000000     -0.021898
    total drift:                               -0.004907     -0.000562     -0.103936

  FREE ENERGIE OF THE ION-ELECTRON SYSTEM (eV)
  free  energy   TOTEN  =      -104.24400071 eV

  energy  without entropy=     -104.24400071  energy(sigma->0) =     -104.24400071

 stress matrix after NEB project (eV)
     -7.18061     -0.00000      0.00000
     -0.00000     -7.18061     -0.00000
      0.00000      0.00000      0.65891
  FORCES: max atom, RMS     0.021898    0.003600
  FORCE total and by dimension    0.021898    0.021898
  Stress total and by dimension   10.176269    7.180609
|           W    W    AA    RRRRR   N    N  II  N    N   GGGG   !!!           |
|           W    W   A  A   R    R  NN   N  II  NN   N  G    G  !!!           |
|           W    W  A    A  R    R  N N  N  II  N N  N  G       !!!           |
|           W WW W  AAAAAA  RRRRR   N  N N  II  N  N N  G  GGG   !            |
|           WW  WW  A    A  R   R   N   NN  II  N   NN  G    G                |
|           W    W  A    A  R    R  N    N  II  N    N   GGGG   !!!           |
|     Tetrahedron method does not include variations of the Fermi             |
|     occupations, so forces and stress will be inaccurate. We suggest        |
|     using a different smearing scheme ISMEAR = 1 or 2 for metals in         |
|     relaxations.                                                            |

 total charge

# of ion       s       p       d       tot
    1        0.413   0.205   9.177   9.795
    2        0.419   0.203   9.176   9.798
    3        0.419   0.203   9.176   9.798
    4        0.419   0.203   9.176   9.798
    5        0.414   0.204   9.178   9.796
    6        0.419   0.203   9.176   9.798
    7        0.419   0.203   9.176   9.798
    8        0.419   0.203   9.176   9.798
    9        0.412   0.204   9.177   9.793
   10        0.405   0.271   9.163   9.839
   11        0.408   0.269   9.166   9.844
   12        0.405   0.271   9.163   9.839
   13        0.408   0.269   9.166   9.844
   14        0.408   0.269   9.166   9.844
   15        0.401   0.270   9.165   9.836
   16        0.405   0.271   9.163   9.839
   17        0.401   0.270   9.165   9.836
   18        0.401   0.270   9.165   9.836
   19        0.401   0.263   9.169   9.834
   20        0.425   0.297   9.150   9.873
   21        0.425   0.297   9.150   9.873
   22        0.393   0.276   9.163   9.832
   23        0.425   0.297   9.150   9.873
   24        0.393   0.276   9.163   9.832
   25        0.401   0.263   9.169   9.834
   26        0.401   0.263   9.169   9.834
   27        0.393   0.276   9.163   9.832
   28        0.415   0.198   9.177   9.790
   29        0.424   0.213   9.167   9.803
   30        0.424   0.213   9.167   9.803
   31        0.424   0.213   9.167   9.803
   32        0.424   0.213   9.167   9.803
   33        0.424   0.213   9.167   9.803
   34        0.424   0.213   9.167   9.803
   35        0.412   0.202   9.176   9.790
   36        0.454   0.418   4.619   5.492
   37        0.997   1.245   0.000   2.242
tot         15.874  10.110 325.492 351.476

 BZINTS: Fermi energy:    0.264456;  395.000000 electrons
         Band energy:-0.151224E+04;  BLOECHL correction:   -0.033207