 vasp.6.2.0 18Jan21 (build Jun 12 2021 23:27:24) complex

 executed on             LinuxIFC date 2022.05.28  01:13:04

 INCAR:
   ISMEAR = -5
   SIGMA = 0.1
   ISPIN = 1
   EDIFF = 1.d-5
   EDIFFG = -0.01
   NSW = 0
   NELM = 150
   ENCUT = 500
   ISIF = 2
   IBRION = 2
   LREAL = Auto
   ALGO = Fast
   ICHARG = 11
   LORBIT = 10
   LCHARG = .F.
   LWAVE = .F.

 POTCAR:    PAW_PBE Au 04Oct2007
 POTCAR:    PAW_PBE Re 17Jan2003
 POTCAR:    PAW_PBE O 08Apr2002
 POTCAR:    PAW_PBE H 15Jun2001
|           W    W    AA    RRRRR   N    N  II  N    N   GGGG   !!!           |
|           W    W   A  A   R    R  NN   N  II  NN   N  G    G  !!!           |
|           W    W  A    A  R    R  N N  N  II  N N  N  G       !!!           |
|           W WW W  AAAAAA  RRRRR   N  N N  II  N  N N  G  GGG   !            |
|           WW  WW  A    A  R   R   N   NN  II  N   NN  G    G                |
|           W    W  A    A  R    R  N    N  II  N    N   GGGG   !!!           |
|     For optimal performance we recommend to set                             |
|       NCORE = 2 up to number-of-cores-per-socket                            |
|     This setting can greatly improve the performance of VASP for DFT.       |
|     The default, NCORE=1 might be grossly inefficient on modern             |
|     multi-core architectures or massively parallel machines. Do your        |
|     Unfortunately you need to use the default for GW and RPA                |
|     calculations (for HF NCORE is supported but not extensively tested      |
|     yet).                                                                   |

 POTCAR:    PAW_PBE Au 04Oct2007
   VRHFIN =Au: s1d10

   TITEL  = PAW_PBE Au 04Oct2007
   POMASS =  196.966; ZVAL   =   11.000    mass and valenz
   ENMAX  =  229.943; ENMIN  =  172.457 eV

 POTCAR:    PAW_PBE Re 17Jan2003
   VRHFIN =Re: 5p6s5d

   TITEL  = PAW_PBE Re 17Jan2003
   POMASS =  186.207; ZVAL   =    7.000    mass and valenz
   ENMAX  =  226.216; ENMIN  =  169.662 eV

 POTCAR:    PAW_PBE O 08Apr2002
   VRHFIN =O: s2p4

   TITEL  = PAW_PBE O 08Apr2002
   POMASS =   16.000; ZVAL   =    6.000    mass and valenz
   ENMAX  =  400.000; ENMIN  =  300.000 eV

 POTCAR:    PAW_PBE H 15Jun2001
   VRHFIN =H: ultrasoft test

   TITEL  = PAW_PBE H 15Jun2001
   POMASS =    1.000; ZVAL   =    1.000    mass and valenz
   ENMAX  =  250.000; ENMIN  =  200.000 eV

 Optimization of the real space projectors (new method)

 maximal supplied QI-value         = 15.12
 optimisation between [QCUT,QGAM] = [ 11.34, 22.83] = [ 36.00,145.93] Ry
 Optimized for a Real-space Cutoff    1.39 Angstroem

   l    n(q)    QCUT    max X(q) W(low)/X(q) W(high)/X(q)  e(spline)
   2      9    11.338    60.898    0.39E-03    0.42E-03    0.21E-06
   2      9    11.338    58.894    0.40E-03    0.42E-03    0.22E-06
   0      9    11.338   109.617    0.13E-03    0.20E-04    0.13E-06
   0      9    11.338    75.026    0.13E-03    0.20E-04    0.13E-06
   1      9    11.338    16.344    0.33E-04    0.24E-03    0.18E-06
   1      9    11.338    10.160    0.26E-04    0.19E-03    0.15E-06
 Optimization of the real space projectors (new method)

[...]

   l    n(q)    QCUT    max X(q) W(low)/X(q) W(high)/X(q)  e(spline)
   0      7    11.387    20.381    0.39E-03    0.13E-02    0.15E-06
   0      7    11.387    15.268    0.42E-03    0.14E-02    0.17E-06
   1      6    11.387     5.964    0.41E-03    0.11E-02    0.17E-06
   1      6    11.387     5.382    0.39E-03    0.87E-03    0.15E-06
 Optimization of the real space projectors (new method)

 maximal supplied QI-value         = 34.20
 optimisation between [QCUT,QGAM] = [ 11.29, 22.57] = [ 35.68,142.71] Ry
 Optimized for a Real-space Cutoff    1.16 Angstroem

   l    n(q)    QCUT    max X(q) W(low)/X(q) W(high)/X(q)  e(spline)
   0      8    11.287    19.460    0.40E-03    0.73E-03    0.16E-06
   0      8    11.287    12.209    0.38E-03    0.70E-03    0.15E-06
   1      7    11.287     4.655    0.22E-03    0.25E-04    0.22E-06
  PAW_PBE Au 04Oct2007                  :
  PAW_PBE Re 17Jan2003                  :
  PAW_PBE O 08Apr2002                   :
  PAW_PBE H 15Jun2001                   :

 POSCAR: Au-Re-OOH
  positions in direct lattice
  velocities in cartesian coordinates
 exchange correlation table for  LEXCH =        8
   RHO(1)=    0.500       N(1)  =     2000
   RHO(2)=  100.500       N(2)  =     4000

 VTST: version 3.2, (02/03/18)

 CHAIN: initializing optimizer

 OPT: Using VASP Conjugate-Gradient optimizer
 CHAIN: Read ICHAIN            0

 POSCAR: Au-Re-OOH
  positions in direct lattice
  velocities in cartesian coordinates

 ion  position               nearest neighbor table
   1  0.000  0.000  0.204-  16 2.94  12 2.94   6 2.94   8 2.94   7 2.94   3 2.94  10 2.94   4 2.94
                             2 2.94
   2  0.333  0.000  0.204-   9 2.94  11 2.94  17 2.94  10 2.94   8 2.94   4 2.94   5 2.94   1 2.94
                             3 2.94
   3  0.667  0.000  0.204-   7 2.94  18 2.94  12 2.94   1 2.94  11 2.94   5 2.94   6 2.94   9 2.94
                             2 2.94
   4  0.000  0.333  0.204-  10 2.94   6 2.94   5 2.94  13 2.94   2 2.94  15 2.94   9 2.94   1 2.94
                             7 2.94
   5  0.333  0.333  0.204-  13 2.94   7 2.94  11 2.94   4 2.94   2 2.94  14 2.94   3 2.94   8 2.94
                             6 2.94
   6  0.667  0.333  0.204-  15 2.94  14 2.94   1 2.94  12 2.94   4 2.94   9 2.94   8 2.94   3 2.94
                             5 2.94
   7  0.000  0.667  0.204-  18 2.94   3 2.94  16 2.94   5 2.94   1 2.94  13 2.94   8 2.94   4 2.94
                             9 2.94
   8  0.333  0.667  0.204-   9 2.94  17 2.94   1 2.94   2 2.94  14 2.94  16 2.94   6 2.94   7 2.94
                             5 2.94
   9  0.667  0.667  0.204-   2 2.94   8 2.94  17 2.94   6 2.94  15 2.94   4 2.94   3 2.94  18 2.94
                             7 2.94
  10  0.111  0.111  0.296-  20 2.90  11 2.94  17 2.94   2 2.94   4 2.94   1 2.94  12 2.94  16 2.94
                            13 2.94  15 2.94  26 2.96  19 2.96
  11  0.444  0.111  0.296-  20 2.91  21 2.91  13 2.94   2 2.94  10 2.94  17 2.94   5 2.94   3 2.94
                            18 2.94  14 2.94  12 2.94  27 2.94
  12  0.778  0.111  0.296-  21 2.90  16 2.94  18 2.94   1 2.94  14 2.94  15 2.94   3 2.94   6 2.94
                            10 2.94  11 2.94  25 2.96  19 2.96
  13  0.111  0.444  0.296-  23 2.91  20 2.91   5 2.94  18 2.94  11 2.94   7 2.94   4 2.94  16 2.94
                            10 2.94  14 2.94  15 2.94  22 2.94
  14  0.444  0.444  0.296-  21 2.91  23 2.91  15 2.94   6 2.94  12 2.94   8 2.94  17 2.94   5 2.94
                            16 2.94  13 2.94  11 2.94  24 2.94
  15  0.778  0.444  0.296-  24 2.92  22 2.92  14 2.94   6 2.94  17 2.94  12 2.94   9 2.94   4 2.94
                            10 2.94  13 2.94  18 2.94  19 2.95
  16  0.111  0.778  0.296-  23 2.90  18 2.94  12 2.94   7 2.94   1 2.94   8 2.94  13 2.94  10 2.94
                            14 2.94  17 2.94  25 2.96  26 2.96
  17  0.444  0.778  0.296-  27 2.92  24 2.92   9 2.94  15 2.94   2 2.94  10 2.94  11 2.94   8 2.94
                            14 2.94  16 2.94  18 2.94  26 2.95
  18  0.778  0.778  0.296-  22 2.92  27 2.92  16 2.94   7 2.94  13 2.94  12 2.94   3 2.94  11 2.94
                             9 2.94  15 2.94  17 2.94  25 2.95
  19  0.888  0.224  0.390-  24 2.93  22 2.93  21 2.93  20 2.93  28 2.94  15 2.95  26 2.96  25 2.96
                            10 2.96  12 2.96  32 3.02  31 3.02
  20  0.222  0.222  0.387-  36 2.75  10 2.90  11 2.91  13 2.91  26 2.93  19 2.93  23 2.95  21 2.95
                            27 2.96  22 2.96  29 2.97  31 2.97
  21  0.556  0.222  0.387-  36 2.75  12 2.90  14 2.91  11 2.91  25 2.93  19 2.93  20 2.95  23 2.95
                            27 2.96  24 2.96  30 2.97  32 2.97
  22  0.886  0.557  0.388-  24 2.90  27 2.90  18 2.92  15 2.92  25 2.93  19 2.93  13 2.94  35 2.95
                            23 2.96  20 2.96  33 3.00  31 3.00
  23  0.222  0.556  0.387-  36 2.75  16 2.90  13 2.91  14 2.91  25 2.93  26 2.93  20 2.95  21 2.95
                            22 2.96  24 2.96  33 2.97  34 2.97
  24  0.557  0.557  0.388-  27 2.90  22 2.90  15 2.92  17 2.92  26 2.93  19 2.93  14 2.94  35 2.95
                            21 2.96  23 2.96  32 3.00  34 3.00
  25  0.888  0.888  0.390-  22 2.93  27 2.93  23 2.93  21 2.93  28 2.94  18 2.95  19 2.96  26 2.96
                            16 2.96  12 2.96  33 3.02  30 3.02
  26  0.224  0.888  0.390-  27 2.93  24 2.93  20 2.93  23 2.93  28 2.94  17 2.95  19 2.96  25 2.96
                            10 2.96  16 2.96  29 3.02  34 3.02
  27  0.557  0.886  0.388-  24 2.90  22 2.90  17 2.92  18 2.92  26 2.93  25 2.93  11 2.94  35 2.95
                            20 2.96  21 2.96  29 3.00  30 3.00
  28  0.000  0.000  0.482-  25 2.94  19 2.94  26 2.94  34 2.99  32 2.99  33 2.99  30 2.99  31 2.99
                            29 2.99
  29  0.333  0.011  0.484-  38 2.28  30 2.84  31 2.84  36 2.86  20 2.97  35 2.99  28 2.99  27 3.00
                            26 3.02  34 3.14
  30  0.655  0.011  0.484-  29 2.84  32 2.84  36 2.86  21 2.97  35 2.99  28 2.99  27 3.00  25 3.02
                            33 3.14
  31  0.011  0.333  0.484-  38 2.32  33 2.84  29 2.84  36 2.86  20 2.97  35 2.99  28 2.99  22 3.00
                            19 3.02  32 3.14
  32  0.655  0.333  0.484-  34 2.84  30 2.84  36 2.86  21 2.97  35 2.99  28 2.99  24 3.00  19 3.02
                            31 3.14
  33  0.011  0.655  0.484-  31 2.84  34 2.84  36 2.86  23 2.97  35 2.99  28 2.99  22 3.00  25 3.02
                            30 3.14
  34  0.333  0.655  0.484-  32 2.84  33 2.84  36 2.86  23 2.97  35 2.99  28 2.99  24 3.00  26 3.02
                            29 3.14
  35  0.667  0.667  0.482-  24 2.95  27 2.95  22 2.95  29 2.99  34 2.99  32 2.99  31 2.99  30 2.99
                            33 2.99
  36  0.333  0.333  0.471-  37 1.72  20 2.75  23 2.75  21 2.75  33 2.86  31 2.86  29 2.86  30 2.86
                            34 2.86  32 2.86
  37  0.336  0.333  0.537-  36 1.72
  38  0.151  0.144  0.552-  39 0.98  29 2.28  31 2.32
  39  0.206  0.201  0.570-  38 0.98

  LATTYP: Found a hexagonal cell.
 ALAT       =     8.8135128021
 C/A-ratio  =     2.9412617888

  Lattice vectors:

 A1 = (  -4.4067569092,  -7.6327256898,   0.0000000000)
 A2 = (   8.8135128021,   0.0000000000,   0.0000000000)
 A3 = (   0.0000000000,   0.0000000000,  25.9228484302)

Analysis of symmetry for initial positions (statically):
 Subroutine PRICEL returns:
 Original cell was already a primitive cell.

 Routine SETGRP: Setting up the symmetry group for a
 hexagonal supercell.

 Subroutine GETGRP returns: Found  1 space group operations
 (whereof  1 operations were pure point group operations)
 out of a pool of 24 trial point group operations.

The static configuration has the point symmetry C_1 .

Analysis of symmetry for dynamics (positions and initial velocities):
 Subroutine PRICEL returns:
 Original cell was already a primitive cell.

[...]

The dynamic configuration has the point symmetry C_1 .

Analysis of constrained symmetry for selective dynamics:
 Subroutine PRICEL returns:
[...]
     41      -5.4815      2.00000
     42      -5.4171      2.00000
     43      -5.3573      2.00000
     44      -5.3300      2.00000
     45      -5.2676      2.00000
     46      -5.2419      2.00000
     47      -5.1604      2.00000
     48      -5.1393      2.00000
     49      -5.1128      2.00000
     50      -5.0767      2.00000
     51      -5.0520      2.00000
     52      -5.0231      2.00000
     53      -5.0092      2.00000
     54      -4.9931      2.00000
     55      -4.9630      2.00000
     56      -4.9374      2.00000
     57      -4.9143      2.00000
     58      -4.8965      2.00000
     59      -4.8738      2.00000
     60      -4.8550      2.00000
[...]
    238       5.2809      0.00000
    239       5.4095      0.00000
    240       5.5576      0.00000
    241       5.6435      0.00000
    242       5.6765      0.00000
    243       5.7029      0.00000
    244       5.7370      0.00000
    245       5.9361      0.00000
    246       5.9691      0.00000
    247       6.0061      0.00000
    248       6.0538      0.00000
    249       6.1317      0.00000
    250       6.3653      0.00000
    251       6.4188      0.00000
    252       6.4729      0.00000

 soft charge-density along one line, spin component           1
         0         1         2         3         4         5         6         7         8         9
 total charge-density along one line

------------------------ aborting loop because EDIFF is reached ----------------------------------------

 total charge

# of ion       s       p       d       tot
    1        0.550   0.237   8.765   9.552
    2        0.542   0.241   8.765   9.548
    3        0.542   0.241   8.763   9.547
    4        0.542   0.241   8.765   9.548
    5        0.546   0.240   8.762   9.549
    6        0.542   0.241   8.764   9.547
    7        0.542   0.242   8.763   9.547
    8        0.542   0.241   8.764   9.547
    9        0.543   0.240   8.766   9.548
   10        0.523   0.305   8.772   9.600
   11        0.520   0.310   8.778   9.607
   12        0.523   0.307   8.769   9.599
   13        0.520   0.310   8.777   9.607
   14        0.515   0.312   8.778   9.604
   15        0.516   0.308   8.772   9.596
   16        0.524   0.306   8.769   9.599
   17        0.516   0.308   8.772   9.596
   18        0.514   0.312   8.768   9.593
   19        0.515   0.296   8.774   9.585
   20        0.563   0.346   8.728   9.638
   21        0.567   0.343   8.731   9.640
   22        0.506   0.314   8.767   9.587
   23        0.567   0.342   8.731   9.641
   24        0.506   0.306   8.779   9.591
   25        0.516   0.293   8.780   9.589
   26        0.515   0.296   8.774   9.586
   27        0.506   0.315   8.766   9.587
   28        0.528   0.212   8.786   9.526
   29        0.520   0.300   8.731   9.552
   30        0.551   0.246   8.763   9.561
   31        0.518   0.294   8.737   9.549
   32        0.552   0.246   8.761   9.560
   33        0.552   0.247   8.762   9.561
   34        0.553   0.246   8.761   9.560
   35        0.530   0.223   8.772   9.525
   36        0.589   0.590   4.758   5.936
   37        1.609   3.305   0.000   4.914
   38        1.580   3.414   0.000   4.993
   39        0.614   0.118   0.000   0.731
tot         23.019  17.235 311.495 351.749

  FORCE on cell =-STRESS in cart. coord.  units (eV):
  Direction    XX          YY          ZZ          XY          YZ          ZX
  Alpha Z   903.47163   903.47163   903.47163
  Ewald  175371.31935175305.54693************    56.81380     5.14811     3.17391
  Hartree183744.66479183696.57510************    41.82567    -3.02435    -8.24154
  E(xc)   -1822.58833 -1822.67223 -1828.82229     0.07575     0.03262     0.04011
  Local  ************************371345.88246   -93.50993     2.27694    12.08121
  n-local  -121.02044  -121.58646   -91.86024     0.47173     0.02300     0.29815
  augment  2388.50162  2388.97798  2400.86678    -0.42647    -0.20757    -0.27861
  Kinetic  5719.53806  5724.71280  5738.69358    -4.55797    -4.23392    -7.13185
  Fock        0.00000     0.00000     0.00000     0.00000     0.00000     0.00000
  Total     -17.57246   -18.42128    -0.75562     0.69257     0.01483    -0.05862
  in kB     -16.14477   -16.92463    -0.69423     0.63630     0.01363    -0.05385

 VOLUME and BASIS-vectors are now :
  energy-cutoff  :      500.00
  volume of cell :     1743.86
      direct lattice vectors                 reciprocal lattice vectors
     8.813512802  0.000000000  0.000000000     0.113462137 -0.065507406  0.000000000
     4.406756909  7.632725690  0.000000000     0.000000000  0.131014796  0.000000000
     0.000000000  0.000000000 25.922848430     0.000000000  0.000000000  0.038576008

  length of vectors
     8.813512802  8.813512802 25.922848430     0.131014796  0.131014796  0.038576008

 FORCES acting on ions
    electron-ion (+dipol)            ewald-force                    non-local-force                 convergence-correction
   0.179E+00 0.103E+00 0.279E+04   -.176E+00 -.100E+00 -.279E+04   -.640E-02 -.379E-02 -.627E+00   0.687E-02 0.277E-02 -.239E+00
   0.677E+00 0.524E+00 0.279E+04   -.717E+00 -.505E+00 -.279E+04   0.107E-01 0.414E-01 -.310E+00   0.307E-01 -.559E-01 -.223E+00
   -.904E+00 0.312E+00 0.279E+04   0.893E+00 -.416E+00 -.279E+04   0.296E-01 0.902E-01 -.411E+00   -.182E-01 0.305E-02 -.255E+00
   0.792E+00 0.320E+00 0.279E+04   -.797E+00 -.363E+00 -.279E+04   0.422E-01 -.113E-01 -.310E+00   -.321E-01 0.547E-01 -.227E+00
   -.203E+00 -.124E+00 0.279E+04   0.164E+00 0.989E-01 -.279E+04   0.124E-01 0.842E-02 -.217E+00   0.326E-01 0.200E-01 -.259E+00
   -.545E+00 0.480E+00 0.279E+04   0.634E+00 -.473E+00 -.279E+04   -.947E-01 -.590E-01 -.342E+00   -.102E-01 0.623E-01 -.283E+00
   -.186E+00 -.931E+00 0.279E+04   0.846E-01 0.976E+00 -.279E+04   0.966E-01 -.220E-01 -.423E+00   -.452E-02 -.183E-01 -.261E+00
   0.150E+00 -.707E+00 0.279E+04   -.968E-01 0.782E+00 -.279E+04   -.101E+00 -.538E-01 -.329E+00   0.478E-01 -.393E-01 -.282E+00
   0.416E-01 0.275E-01 0.279E+04   0.122E-01 0.126E-02 -.279E+04   0.236E-02 0.221E-02 -.488E+00   -.483E-01 -.268E-01 -.193E+00
   0.872E+01 0.500E+01 0.978E+03   -.847E+01 -.486E+01 -.977E+03   -.381E+00 -.221E+00 -.629E+00   0.673E-01 0.351E-01 -.215E+00
   -.140E+01 0.504E+01 0.985E+03   0.141E+01 -.512E+01 -.984E+03   0.178E-01 0.691E-01 -.386E+00   -.330E-01 -.532E-01 -.172E+00
   -.723E+01 0.484E+01 0.975E+03   0.706E+01 -.468E+01 -.974E+03   0.283E+00 -.237E+00 -.526E+00   -.503E-01 0.752E-01 -.281E+00
   0.370E+01 -.376E+01 0.985E+03   -.376E+01 0.380E+01 -.984E+03   0.611E-01 -.135E-01 -.377E+00   -.616E-01 0.688E-03 -.173E+00
   -.457E+01 -.264E+01 0.983E+03   0.459E+01 0.265E+01 -.983E+03   -.422E-01 -.290E-01 -.194E+00   0.930E-01 0.518E-01 -.207E+00
   0.884E+00 0.408E+01 0.980E+03   -.829E+00 -.434E+01 -.979E+03   -.366E-01 0.703E-01 -.501E+00   -.257E-01 0.129E+00 -.247E+00
   0.613E+00 -.865E+01 0.975E+03   -.555E+00 0.843E+01 -.974E+03   -.669E-01 0.358E+00 -.521E+00   0.394E-01 -.827E-01 -.281E+00
   0.398E+01 -.124E+01 0.980E+03   -.418E+01 0.142E+01 -.979E+03   0.395E-01 -.682E-01 -.501E+00   0.992E-01 -.823E-01 -.247E+00
   -.471E+01 -.267E+01 0.979E+03   0.474E+01 0.270E+01 -.978E+03   0.108E+00 0.548E-01 -.512E+00   -.112E+00 -.649E-01 -.241E+00
   0.107E+02 0.973E+00 -.865E+03   -.106E+02 -.120E+01 0.864E+03   -.735E-01 -.586E-01 0.416E+00   0.355E-01 0.201E+00 0.111E+00
   0.430E+01 0.214E+01 -.800E+03   -.345E+01 -.165E+01 0.801E+03   -.103E+01 -.596E+00 -.111E+01   0.153E+00 0.817E-01 0.238E+00
   -.145E+02 0.532E+01 -.820E+03   0.136E+02 -.481E+01 0.821E+03   0.108E+01 -.618E+00 -.821E+00   -.190E+00 0.117E+00 0.228E+00
   -.327E+01 -.545E+01 -.849E+03   0.286E+01 0.556E+01 0.849E+03   0.518E+00 -.296E+00 0.514E+00   -.163E-01 -.271E-01 0.716E-01
   -.239E+01 -.151E+02 -.820E+03   0.238E+01 0.141E+02 0.821E+03   0.136E-01 0.124E+01 -.830E+00   0.109E-01 -.221E+00 0.223E+00
   0.565E+01 0.340E+01 -.855E+03   -.535E+01 -.323E+01 0.854E+03   -.386E+00 -.218E+00 0.858E+00   0.134E-01 0.785E-02 0.531E-01
   0.932E-01 0.162E+00 -.878E+03   0.220E-01 -.105E+00 0.877E+03   0.151E+00 0.903E-01 0.811E+00   -.160E+00 -.877E-01 0.119E+00
   0.646E+01 0.880E+01 -.864E+03   -.662E+01 -.862E+01 0.864E+03   -.878E-01 -.420E-01 0.404E+00   0.201E+00 -.677E-01 0.112E+00
   -.655E+01 0.133E+00 -.849E+03   0.641E+01 -.556E+00 0.849E+03   0.231E-01 0.602E+00 0.467E+00   -.337E-01 0.432E-02 0.716E-01
   0.668E+02 0.377E+02 -.261E+04   -.683E+02 -.385E+02 0.261E+04   0.886E+00 0.497E+00 0.160E+01   0.579E-01 0.320E-01 0.264E+00
   -.430E+02 0.138E+03 -.253E+04   0.445E+02 -.139E+03 0.253E+04   -.148E+01 -.304E+00 0.713E+00   0.819E-01 0.168E+00 0.174E+00
   -.502E+02 0.651E+02 -.265E+04   0.500E+02 -.647E+02 0.265E+04   0.796E+00 -.105E+01 0.318E+00   -.162E+00 0.115E+00 0.201E+00
   0.983E+02 -.105E+03 -.254E+04   -.983E+02 0.107E+03 0.254E+04   -.981E+00 -.125E+01 0.904E+00   0.189E+00 -.161E-01 0.177E+00
   -.457E+02 -.102E+02 -.265E+04   0.452E+02 0.104E+02 0.265E+04   0.126E+01 -.166E+00 0.390E+00   -.180E+00 0.681E-01 0.212E+00
   0.311E+02 -.741E+02 -.266E+04   -.309E+02 0.737E+02 0.265E+04   -.529E+00 0.126E+01 0.282E+00   0.204E-01 -.195E+00 0.205E+00
   -.305E+02 -.332E+02 -.265E+04   0.304E+02 0.326E+02 0.265E+04   0.502E+00 0.121E+01 0.389E+00   -.312E-01 -.187E+00 0.213E+00
   -.196E+01 0.362E-01 -.266E+04   0.196E+01 -.464E-01 0.266E+04   -.106E-01 -.106E-01 0.643E+00   0.429E-03 0.271E-02 0.224E+00
   -.246E+02 -.161E+02 -.140E+04   0.249E+02 0.163E+02 0.140E+04   0.109E-01 0.713E-04 0.100E+01   -.175E-01 -.125E-01 0.131E+00
   -.552E+02 -.325E+02 -.180E+04   0.564E+02 0.329E+02 0.184E+04   -.115E+01 -.438E+00 -.334E+02   -.961E-02 -.538E-02 -.177E+00
   0.806E+02 0.456E+02 -.179E+04   -.112E+03 -.636E+02 0.179E+04   0.315E+02 0.180E+02 0.240E+01   0.770E-01 0.437E-01 -.149E-01
   -.511E+02 -.300E+02 -.332E+03   0.572E+02 0.336E+02 0.336E+03   -.605E+01 -.355E+01 -.396E+01   0.188E-02 0.106E-02 -.537E-02
   -.250E+02 -.143E+02 0.373E+02   -.782E-13 -.711E-13 0.654E-11   0.250E+02 0.142E+02 -.356E+02   0.630E-01 0.349E-01 -.146E+01

 POSITION                                       TOTAL-FORCE (eV/Angst)
      0.00000      0.00000      5.28038         0.002221      0.002438     -0.147901
      2.93784      0.00000      5.28038         0.001016      0.004774     -0.073283
      5.87568      0.00000      5.28038        -0.001039     -0.010625     -0.035645
      1.46892      2.54424      5.28038         0.003784      0.001155     -0.071694
      4.40676      2.54424      5.28038         0.004431      0.004166     -0.084488
      7.34459      2.54424      5.28038        -0.017010      0.010626     -0.049754
      2.93784      5.08848      5.28038        -0.010563      0.006017     -0.033087
      5.87568      5.08848      5.28038        -0.000892     -0.017889     -0.050582
      8.81351      5.08848      5.28038         0.006866      0.004999     -0.097972
      1.46892      0.84808      7.67911        -0.067063     -0.036965      0.097999
      4.40676      0.84808      7.67911         0.000940     -0.064723     -0.016694
      7.34459      0.84808      7.67911         0.063252     -0.003205      0.138753
      2.93784      3.39232      7.67911        -0.056759      0.033047     -0.015466
      5.87568      3.39232      7.67911         0.064376      0.039130      0.025036
      8.81351      3.39232      7.67911        -0.008783     -0.063613      0.100019
      4.40676      5.93656      7.67911         0.029926      0.058969      0.136081
      7.34459      5.93656      7.67911        -0.060490      0.025842      0.097924
     10.28243      5.93656      7.67911         0.023675      0.018358      0.209646
      8.81351      1.70659     10.09931         0.039105     -0.080688      0.041211
      2.93410      1.69400     10.03753        -0.029703     -0.016809      0.025982
      5.87941      1.69400     10.03753         0.028861      0.006213     -0.050042
     10.26439      4.25082     10.06692         0.083546     -0.212759      0.187368
      4.40676      4.24472     10.03753         0.017143      0.025923     -0.053553
      7.36264      4.25082     10.06692        -0.070605     -0.038424      0.001477
     11.74232      6.77943     10.09931         0.105029      0.060189     -0.043433
      5.88471      6.77943     10.09931        -0.050498      0.073565      0.039598
      8.81351      6.76381     10.06692        -0.151980      0.184418      0.199683
      0.00000      0.00000     12.49835        -0.470256     -0.259608     -0.306354
      2.98825      0.08685     12.53577         0.008378     -0.927424     -0.199187
      5.82526      0.08685     12.53577         0.380937     -0.567109     -0.310691
      1.56934      2.54447     12.53577        -0.790405      0.447604     -0.167803
      7.24417      2.54447     12.53577         0.554223      0.088070     -0.340570
      2.98785      5.00140     12.53577        -0.297550      0.591535     -0.303460
      5.82567      5.00140     12.53577         0.341048      0.422741     -0.339892
      8.81351      5.08848     12.49628        -0.016808     -0.017257     -0.066110
      4.40676      2.54424     12.20474         0.338834      0.209363      1.622254
      4.42666      2.54158     13.92833         0.003851      0.004037     -0.052436
      1.96339      1.10180     14.30373        -0.011922     -0.011591     -0.005746
      2.70631      1.53646     14.77312         0.010884      0.005510     -0.007187
    total drift:                                0.037475     -0.032339      0.274613

  FREE ENERGIE OF THE ION-ELECTRON SYSTEM (eV)
  free  energy   TOTEN  =      -133.11509997 eV

  energy  without entropy=     -133.11509997  energy(sigma->0) =     -133.11509997

 stress matrix after NEB project (eV)
    -17.57246      0.69257     -0.05862
      0.69257    -18.42128      0.01483
     -0.05862      0.01483     -0.75562
  FORCES: max atom, RMS     0.052732    0.009186
  FORCE total and by dimension    0.057364    0.052436
  Stress total and by dimension   25.488679   18.421285
|           W    W    AA    RRRRR   N    N  II  N    N   GGGG   !!!           |
|           W    W   A  A   R    R  NN   N  II  NN   N  G    G  !!!           |
|           W    W  A    A  R    R  N N  N  II  N N  N  G       !!!           |
|           W WW W  AAAAAA  RRRRR   N  N N  II  N  N N  G  GGG   !            |
|           WW  WW  A    A  R   R   N   NN  II  N   NN  G    G                |
|           W    W  A    A  R    R  N    N  II  N    N   GGGG   !!!           |
|     Tetrahedron method does not include variations of the Fermi             |
|     occupations, so forces and stress will be inaccurate. We suggest        |
|     using a different smearing scheme ISMEAR = 1 or 2 for metals in         |
|     relaxations.                                                            |

 total charge

# of ion       s       p       d       tot
    1        0.550   0.237   8.765   9.552
    2        0.542   0.241   8.765   9.548
    3        0.542   0.241   8.763   9.547
    4        0.542   0.241   8.765   9.548
    5        0.546   0.240   8.762   9.549
    6        0.542   0.241   8.764   9.547
    7        0.542   0.242   8.763   9.547
    8        0.542   0.241   8.764   9.547
    9        0.543   0.240   8.766   9.548
   10        0.523   0.305   8.772   9.600
   11        0.520   0.310   8.778   9.607
   12        0.523   0.307   8.769   9.599
   13        0.520   0.310   8.777   9.607
   14        0.515   0.312   8.778   9.604
   15        0.516   0.308   8.772   9.596
   16        0.524   0.306   8.769   9.599
   17        0.516   0.308   8.772   9.596
   18        0.514   0.312   8.768   9.593
   19        0.515   0.296   8.774   9.585
   20        0.563   0.346   8.728   9.638
   21        0.567   0.343   8.731   9.640
   22        0.506   0.314   8.767   9.587
   23        0.567   0.342   8.731   9.641
   24        0.506   0.306   8.779   9.591
   25        0.516   0.293   8.780   9.589
   26        0.515   0.296   8.774   9.586
   27        0.506   0.315   8.766   9.587
   28        0.528   0.212   8.786   9.526
   29        0.520   0.300   8.731   9.552
   30        0.551   0.246   8.763   9.561
   31        0.518   0.294   8.737   9.549
   32        0.552   0.246   8.761   9.560
   33        0.552   0.247   8.762   9.561
   34        0.553   0.246   8.761   9.560
   35        0.530   0.223   8.772   9.525
   36        0.589   0.590   4.758   5.936
   37        1.609   3.305   0.000   4.914
   38        1.580   3.414   0.000   4.993
   39        0.614   0.118   0.000   0.731
tot         23.019  17.235 311.495 351.749

 BZINTS: Fermi energy:   -0.150731;  405.000000 electrons
         Band energy:-0.163999E+04;  BLOECHL correction:   -0.044966