 vasp.6.2.0 18Jan21 (build Jun 12 2021 23:27:24) complex

 executed on             LinuxIFC date 2022.05.26  19:26:06

 INCAR:
   ISMEAR = -5
   SIGMA = 0.1
   ISPIN = 1
   EDIFF = 1.d-5
   EDIFFG = -0.01
   NSW = 0
   NELM = 150
   ENCUT = 500
   ISIF = 2
   IBRION = 2
   LREAL = Auto
   ALGO = Fast
   ICHARG = 11
   LORBIT = 10
   LCHARG = .F.
   LWAVE = .F.

 POTCAR:    PAW_PBE Au 04Oct2007
 POTCAR:    PAW_PBE Nb_sv 25May2007
 POTCAR:    PAW_PBE O 08Apr2002
|           W    W    AA    RRRRR   N    N  II  N    N   GGGG   !!!           |
|           W    W   A  A   R    R  NN   N  II  NN   N  G    G  !!!           |
|           W    W  A    A  R    R  N N  N  II  N N  N  G       !!!           |
|           W WW W  AAAAAA  RRRRR   N  N N  II  N  N N  G  GGG   !            |
|           WW  WW  A    A  R   R   N   NN  II  N   NN  G    G                |
|           W    W  A    A  R    R  N    N  II  N    N   GGGG   !!!           |
|     For optimal performance we recommend to set                             |
|       NCORE = 2 up to number-of-cores-per-socket                            |
|     This setting can greatly improve the performance of VASP for DFT.       |
|     The default, NCORE=1 might be grossly inefficient on modern             |
|     multi-core architectures or massively parallel machines. Do your        |
|     Unfortunately you need to use the default for GW and RPA                |
|     calculations (for HF NCORE is supported but not extensively tested      |
|     yet).                                                                   |

 POTCAR:    PAW_PBE Au 04Oct2007
   VRHFIN =Au: s1d10

   TITEL  = PAW_PBE Au 04Oct2007
   POMASS =  196.966; ZVAL   =   11.000    mass and valenz
   ENMAX  =  229.943; ENMIN  =  172.457 eV

 POTCAR:    PAW_PBE Nb_sv 25May2007
   VRHFIN =Nb: 4p5s4d

   TITEL  = PAW_PBE Nb_sv 25May2007
   POMASS =   92.910; ZVAL   =   13.000    mass and valenz
   ENMAX  =  293.235; ENMIN  =  219.927 eV

 POTCAR:    PAW_PBE O 08Apr2002
   VRHFIN =O: s2p4

   TITEL  = PAW_PBE O 08Apr2002
   POMASS =   16.000; ZVAL   =    6.000    mass and valenz
   ENMAX  =  400.000; ENMIN  =  300.000 eV

 Optimization of the real space projectors (new method)

 maximal supplied QI-value         = 15.12
 optimisation between [QCUT,QGAM] = [ 11.34, 22.83] = [ 36.00,145.93] Ry
 Optimized for a Real-space Cutoff    1.39 Angstroem

   l    n(q)    QCUT    max X(q) W(low)/X(q) W(high)/X(q)  e(spline)
   2      9    11.338    60.898    0.39E-03    0.42E-03    0.21E-06
   2      9    11.338    58.894    0.40E-03    0.42E-03    0.22E-06
   0      9    11.338   109.617    0.13E-03    0.20E-04    0.13E-06
   0      9    11.338    75.026    0.13E-03    0.20E-04    0.13E-06
   1      9    11.338    16.344    0.33E-04    0.24E-03    0.18E-06
   1      9    11.338    10.160    0.26E-04    0.19E-03    0.15E-06
 Optimization of the real space projectors (new method)

[...]

   l    n(q)    QCUT    max X(q) W(low)/X(q) W(high)/X(q)  e(spline)
   0     11    11.450    10.201    0.21E-04    0.96E-05    0.78E-07
   0     11    11.450     8.174    0.31E-04    0.18E-04    0.14E-06
   1     10    11.450     3.488    0.27E-04    0.12E-04    0.96E-07
   1     10    11.450     4.917    0.11E-03    0.11E-03    0.37E-06
   2     10    11.450   153.744    0.37E-03    0.81E-03    0.10E-05
   2     10    11.450   126.342    0.37E-03    0.81E-03    0.10E-05
 Optimization of the real space projectors (new method)

 maximal supplied QI-value         = 24.76
 optimisation between [QCUT,QGAM] = [ 11.39, 22.77] = [ 36.31,145.25] Ry
 Optimized for a Real-space Cutoff    1.00 Angstroem

   l    n(q)    QCUT    max X(q) W(low)/X(q) W(high)/X(q)  e(spline)
   0      7    11.387    20.381    0.39E-03    0.13E-02    0.15E-06
   0      7    11.387    15.268    0.42E-03    0.14E-02    0.17E-06
   1      6    11.387     5.964    0.41E-03    0.11E-02    0.17E-06
   1      6    11.387     5.382    0.39E-03    0.87E-03    0.15E-06
  PAW_PBE Au 04Oct2007                  :
  PAW_PBE Nb_sv 25May2007               :
  PAW_PBE O 08Apr2002                   :

 POSCAR: Au-Nb-O
  positions in direct lattice
  velocities in cartesian coordinates
 exchange correlation table for  LEXCH =        8
   RHO(1)=    0.500       N(1)  =     2000
   RHO(2)=  100.500       N(2)  =     4000

 VTST: version 3.2, (02/03/18)

 CHAIN: initializing optimizer

 OPT: Using VASP Conjugate-Gradient optimizer
 CHAIN: Read ICHAIN            0

 POSCAR: Au-Nb-O
  positions in direct lattice
  velocities in cartesian coordinates

 ion  position               nearest neighbor table
   1  0.000  0.000  0.238-  16 2.94  12 2.94   6 2.94   8 2.94   7 2.94   3 2.94  10 2.94   4 2.94
                             2 2.94
   2  0.333  0.000  0.238-   9 2.94  11 2.94  17 2.94  10 2.94   8 2.94   4 2.94   5 2.94   1 2.94
                             3 2.94
   3  0.667  0.000  0.238-   7 2.94  18 2.94  12 2.94   1 2.94  11 2.94   5 2.94   6 2.94   9 2.94
                             2 2.94
   4  0.000  0.333  0.238-  10 2.94   6 2.94   5 2.94  13 2.94   2 2.94  15 2.94   9 2.94   1 2.94
                             7 2.94
   5  0.333  0.333  0.238-  13 2.94   7 2.94  11 2.94   4 2.94   2 2.94  14 2.94   3 2.94   8 2.94
                             6 2.94
   6  0.667  0.333  0.238-  15 2.94  14 2.94   1 2.94  12 2.94   4 2.94   9 2.94   8 2.94   3 2.94
                             5 2.94
   7  0.000  0.667  0.238-  18 2.94   3 2.94  16 2.94   5 2.94   1 2.94  13 2.94   8 2.94   4 2.94
                             9 2.94
   8  0.333  0.667  0.238-   9 2.94  17 2.94   1 2.94   2 2.94  14 2.94  16 2.94   6 2.94   7 2.94
                             5 2.94
   9  0.667  0.667  0.238-   2 2.94   8 2.94  17 2.94   6 2.94  15 2.94   4 2.94   3 2.94  18 2.94
                             7 2.94
  10  0.111  0.111  0.346-  20 2.91  11 2.94  17 2.94   2 2.94   4 2.94   1 2.94  12 2.94  16 2.94
                            13 2.94  15 2.94  26 2.95  19 2.95
  11  0.444  0.111  0.346-  20 2.91  21 2.91  13 2.94   2 2.94  10 2.94  17 2.94   5 2.94   3 2.94
                            18 2.94  14 2.94  12 2.94  27 2.94
  12  0.778  0.111  0.346-  21 2.91  16 2.94  18 2.94   1 2.94  14 2.94  15 2.94   3 2.94   6 2.94
                            10 2.94  11 2.94  25 2.95  19 2.95
  13  0.111  0.444  0.346-  23 2.91  20 2.91   5 2.94  18 2.94  11 2.94   7 2.94   4 2.94  16 2.94
                            10 2.94  14 2.94  15 2.94  22 2.94
  14  0.444  0.444  0.346-  21 2.91  23 2.91  15 2.94   6 2.94  12 2.94   8 2.94  17 2.94   5 2.94
                            16 2.94  13 2.94  11 2.94  24 2.94
  15  0.778  0.444  0.346-  24 2.93  22 2.93  14 2.94   6 2.94  17 2.94  12 2.94   9 2.94   4 2.94
                            10 2.94  13 2.94  18 2.94  19 2.94
  16  0.111  0.778  0.346-  23 2.91  18 2.94  12 2.94   7 2.94   1 2.94   8 2.94  13 2.94  10 2.94
                            14 2.94  17 2.94  25 2.95  26 2.95
  17  0.444  0.778  0.346-  27 2.93  24 2.93   9 2.94  15 2.94   2 2.94  10 2.94  11 2.94   8 2.94
                            14 2.94  16 2.94  18 2.94  26 2.94
  18  0.778  0.778  0.346-  22 2.93  27 2.93  16 2.94   7 2.94  13 2.94  12 2.94   3 2.94  11 2.94
                             9 2.94  15 2.94  17 2.94  25 2.94
  19  0.889  0.223  0.454-  24 2.93  22 2.93  21 2.94  20 2.94  15 2.94  26 2.94  25 2.94  10 2.95
                            12 2.95  28 2.95  32 3.04  31 3.04
  20  0.222  0.222  0.453-  36 2.78  10 2.91  11 2.91  13 2.91  26 2.94  19 2.94  23 2.94  21 2.94
                            27 2.95  22 2.95  29 2.99  31 2.99
  21  0.556  0.222  0.453-  36 2.78  12 2.91  14 2.91  11 2.91  25 2.94  19 2.94  20 2.94  23 2.94
                            27 2.95  24 2.95  30 2.99  32 2.99
  22  0.887  0.557  0.454-  24 2.91  27 2.91  18 2.93  15 2.93  25 2.93  19 2.93  13 2.94  23 2.95
                            20 2.95  35 2.96  33 3.02  31 3.02
  23  0.222  0.556  0.453-  36 2.78  16 2.91  13 2.91  14 2.91  25 2.94  26 2.94  20 2.94  21 2.94
                            22 2.95  24 2.95  33 2.99  34 2.99
  24  0.557  0.557  0.454-  27 2.91  22 2.91  15 2.93  17 2.93  26 2.93  19 2.93  14 2.94  21 2.95
                            23 2.95  35 2.96  32 3.02  34 3.02
  25  0.889  0.889  0.454-  22 2.93  27 2.93  23 2.94  21 2.94  18 2.94  19 2.94  26 2.94  16 2.95
                            12 2.95  28 2.95  33 3.04  30 3.04
  26  0.223  0.889  0.454-  27 2.93  24 2.93  20 2.94  23 2.94  17 2.94  19 2.94  25 2.94  10 2.95
                            16 2.95  28 2.95  29 3.04  34 3.04
  27  0.557  0.887  0.454-  24 2.91  22 2.91  17 2.93  18 2.93  26 2.93  25 2.93  11 2.94  20 2.95
                            21 2.95  35 2.96  29 3.02  30 3.02
  28  0.000  0.000  0.563-  25 2.95  19 2.95  26 2.95  34 2.98  32 2.98  33 2.98  30 2.98  31 2.98
                            29 2.98
  29  0.334  0.009  0.566-  30 2.85  31 2.86  36 2.87  35 2.98  28 2.98  20 2.99  27 3.02  26 3.04
                            34 3.10
  30  0.657  0.009  0.566-  29 2.85  32 2.86  36 2.87  35 2.98  28 2.98  21 2.99  27 3.02  25 3.04
                            33 3.10
  31  0.009  0.334  0.566-  33 2.85  29 2.86  36 2.87  35 2.98  28 2.98  20 2.99  22 3.02  19 3.04
                            32 3.10
  32  0.657  0.334  0.566-  34 2.85  30 2.86  36 2.87  35 2.98  28 2.98  21 2.99  24 3.02  19 3.04
                            31 3.10
  33  0.009  0.657  0.566-  31 2.85  34 2.86  36 2.87  35 2.98  28 2.98  23 2.99  22 3.02  25 3.04
                            30 3.10
  34  0.334  0.657  0.566-  32 2.85  33 2.86  36 2.87  35 2.98  28 2.98  23 2.99  24 3.02  26 3.04
                            29 3.10
  35  0.667  0.667  0.563-  24 2.96  27 2.96  22 2.96  29 2.98  34 2.98  32 2.98  31 2.98  30 2.98
                            33 2.98
  36  0.333  0.333  0.552-  37 1.73  20 2.78  23 2.78  21 2.78  33 2.87  31 2.87  29 2.87  30 2.87
                            34 2.87  32 2.87
  37  0.333  0.333  0.630-  36 1.73

  LATTYP: Found a hexagonal cell.
 ALAT       =     8.8135128021
 C/A-ratio  =     2.5184286595

  Lattice vectors:

 A1 = (  -4.4067569092,  -7.6327256898,   0.0000000000)
 A2 = (   8.8135128021,   0.0000000000,   0.0000000000)
 A3 = (   0.0000000000,   0.0000000000,  22.1962032318)

Analysis of symmetry for initial positions (statically):
 Subroutine PRICEL returns:
 Original cell was already a primitive cell.

 Routine SETGRP: Setting up the symmetry group for a
 hexagonal supercell.

 Subroutine GETGRP returns: Found  6 space group operations
 (whereof  6 operations were pure point group operations)
 out of a pool of 24 trial point group operations.

The static configuration has the point symmetry C_3v.

Analysis of symmetry for dynamics (positions and initial velocities):
 Subroutine PRICEL returns:
 Original cell was already a primitive cell.

[...]

The dynamic configuration has the point symmetry C_3v.

Analysis of constrained symmetry for selective dynamics:
 Subroutine PRICEL returns:
 Original cell was already a primitive cell.

 Routine SETGRP: Setting up the symmetry group for a
 hexagonal supercell.

 Subroutine GETGRP returns: Found  6 space group operations
[...]
     24      -5.1552      2.00000
     25      -5.1327      2.00000
     26      -5.1168      2.00000
     27      -5.0992      2.00000
     28      -5.0345      2.00000
     29      -5.0068      2.00000
     30      -4.9830      2.00000
     31      -4.9629      2.00000
     32      -4.9005      2.00000
     33      -4.8781      2.00000
     34      -4.8079      2.00000
     35      -4.7871      2.00000
     36      -4.7592      2.00000
     37      -4.7045      2.00000
     38      -4.6993      2.00000
     39      -4.6766      2.00000
     40      -4.6508      2.00000
     41      -4.6413      2.00000
     42      -4.5361      2.00000
     43      -4.4775      2.00000
     44      -4.4459      2.00000
     45      -4.4197      2.00000
     46      -4.3707      2.00000
     47      -4.3652      2.00000
     48      -4.3332      2.00000
     49      -4.2749      2.00000
     50      -4.2358      2.00000
     51      -4.1640      2.00000
     52      -4.1503      2.00000
     53      -4.1176      2.00000
     54      -4.1111      2.00000
     55      -4.0897      2.00000
     56      -4.0846      2.00000
     57      -4.0601      2.00000
     58      -4.0414      2.00000
     59      -4.0189      2.00000
     60      -3.9728      2.00000
[...]
    238       6.1018      0.00000
    239       6.3199      0.00000
    240       6.4422      0.00000
    241       6.4880      0.00000
    242       6.5685      0.00000
    243       6.6248      0.00000
    244       6.6537      0.00000
    245       6.7889      0.00000
    246       6.8317      0.00000
    247       6.9010      0.00000
    248       6.9319      0.00000
    249       7.0645      0.00000
    250       7.2623      0.00000
    251       7.3407      0.00000
    252       7.4460      0.00000

 soft charge-density along one line, spin component           1
         0         1         2         3         4         5         6         7         8         9
 total charge-density along one line

------------------------ aborting loop because EDIFF is reached ----------------------------------------

 total charge

# of ion       s       p       d       tot
    1        0.548   0.238   8.765   9.551
    2        0.543   0.241   8.765   9.548
    3        0.543   0.241   8.765   9.548
    4        0.543   0.241   8.765   9.548
    5        0.542   0.242   8.764   9.548
    6        0.543   0.241   8.765   9.548
    7        0.543   0.241   8.765   9.548
    8        0.543   0.241   8.765   9.548
    9        0.540   0.240   8.766   9.546
   10        0.522   0.308   8.772   9.602
   11        0.519   0.310   8.778   9.607
   12        0.522   0.308   8.772   9.602
   13        0.519   0.310   8.778   9.607
   14        0.519   0.310   8.778   9.607
   15        0.514   0.309   8.772   9.595
   16        0.522   0.308   8.772   9.602
   17        0.514   0.309   8.772   9.595
   18        0.514   0.309   8.772   9.595
   19        0.519   0.295   8.775   9.589
   20        0.564   0.336   8.742   9.642
   21        0.564   0.336   8.742   9.642
   22        0.511   0.307   8.772   9.589
   23        0.564   0.336   8.742   9.642
   24        0.511   0.307   8.772   9.589
   25        0.519   0.295   8.775   9.589
   26        0.519   0.295   8.775   9.589
   27        0.511   0.307   8.772   9.589
   28        0.542   0.229   8.754   9.525
   29        0.579   0.240   8.746   9.564
   30        0.579   0.240   8.746   9.564
   31        0.579   0.240   8.746   9.564
   32        0.579   0.240   8.746   9.564
   33        0.579   0.240   8.746   9.564
   34        0.579   0.240   8.746   9.564
   35        0.539   0.233   8.753   9.524
   36        2.209   6.052   2.398  10.659
   37        1.616   3.318   0.000   4.934
tot         22.709  19.033 309.095 350.837

  FORCE on cell =-STRESS in cart. coord.  units (eV):
  Direction    XX          YY          ZZ          XY          YZ          ZX
  Alpha Z  1040.05376  1040.05376  1040.05376
  Ewald  120650.50141120650.50191************    -0.00031    -0.00008    -0.00011
  Hartree129648.00677129648.00679************     0.00001    -0.00002    -0.00003
  E(xc)   -1816.91997 -1816.91996 -1823.40614    -0.00000     0.00000     0.00000
  Local  ************************262701.96057     0.00190     0.00001    -0.00002
  n-local   -95.65754   -52.28194   -58.49128    22.01764    -1.82323     1.49996
  augment  2386.91396  2386.91546  2408.11604    -0.00130    -0.00001     0.00003
  Kinetic  5715.31390  5723.83020  5782.68901     4.96828     0.65735    -0.13643
  Fock        0.00000     0.00000     0.00000     0.00000     0.00000     0.00000
  Total     -18.75145   -18.75144     2.64162    -0.00000     0.00000     0.00000
  in kB     -20.12046   -20.12046     2.83449    -0.00000     0.00000     0.00000

 VOLUME and BASIS-vectors are now :
  energy-cutoff  :      500.00
  volume of cell :     1493.16
      direct lattice vectors                 reciprocal lattice vectors
     8.813512802  0.000000000  0.000000000     0.113462137 -0.065507406  0.000000000
     4.406756909  7.632725690  0.000000000     0.000000000  0.131014796  0.000000000
     0.000000000  0.000000000 22.196203232     0.000000000  0.000000000  0.045052750

  length of vectors
     8.813512802  8.813512802 22.196203232     0.131014796  0.131014796  0.045052750

 FORCES acting on ions
    electron-ion (+dipol)            ewald-force                    non-local-force                 convergence-correction
   -.196E-04 -.162E-04 0.251E+04   0.520E-04 0.435E-04 -.251E+04   0.360E-17 -.106E-17 -.531E+00   -.240E-03 -.152E-03 -.176E+00
   0.918E+00 0.105E+01 0.251E+04   -.914E+00 -.977E+00 -.251E+04   -.304E-01 0.409E-01 -.319E+00   0.236E-01 -.114E+00 -.211E+00
   -.918E+00 0.105E+01 0.251E+04   0.914E+00 -.977E+00 -.251E+04   0.304E-01 0.409E-01 -.319E+00   -.233E-01 -.112E+00 -.211E+00
   0.137E+01 0.269E+00 0.251E+04   -.130E+01 -.303E+00 -.251E+04   0.202E-01 -.468E-01 -.319E+00   -.871E-01 0.775E-01 -.211E+00
   0.943E-05 -.229E-04 0.251E+04   0.951E-04 0.173E-05 -.251E+04   0.381E-17 -.665E-18 -.288E+00   0.428E-02 0.261E-02 -.228E+00
   -.137E+01 0.269E+00 0.251E+04   0.130E+01 -.303E+00 -.251E+04   -.202E-01 -.468E-01 -.319E+00   0.856E-01 0.784E-01 -.211E+00
   0.452E+00 -.132E+01 0.251E+04   -.389E+00 0.128E+01 -.251E+04   0.506E-01 0.594E-02 -.319E+00   -.109E+00 0.360E-01 -.211E+00
   -.452E+00 -.132E+01 0.251E+04   0.389E+00 0.128E+01 -.251E+04   -.506E-01 0.594E-02 -.319E+00   0.111E+00 0.349E-01 -.211E+00
   0.195E-04 -.414E-04 0.251E+04   0.166E-03 -.202E-04 -.251E+04   -.454E-17 -.885E-18 -.470E+00   -.459E-02 -.237E-02 -.217E+00
   0.932E+01 0.538E+01 0.879E+03   -.905E+01 -.523E+01 -.879E+03   -.262E+00 -.151E+00 -.428E+00   -.418E-01 -.242E-01 0.621E-01
   0.159E-04 0.107E+02 0.894E+03   0.147E-03 -.106E+02 -.893E+03   0.701E-09 0.105E-01 -.313E+00   0.402E-02 -.175E+00 0.158E+00
   -.932E+01 0.538E+01 0.879E+03   0.905E+01 -.523E+01 -.879E+03   0.262E+00 -.151E+00 -.428E+00   0.403E-01 -.231E-01 0.619E-01
   0.925E+01 -.534E+01 0.894E+03   -.917E+01 0.529E+01 -.893E+03   0.912E-02 -.526E-02 -.313E+00   -.150E+00 0.915E-01 0.158E+00
   -.925E+01 -.534E+01 0.894E+03   0.917E+01 0.529E+01 -.893E+03   -.912E-02 -.526E-02 -.313E+00   0.157E+00 0.906E-01 0.157E+00
   0.296E-04 0.221E+01 0.880E+03   0.236E-03 -.244E+01 -.880E+03   0.133E-08 0.200E-01 -.334E+00   -.231E-02 0.157E+00 0.127E+00
   -.217E-04 -.108E+02 0.879E+03   0.163E-03 0.105E+02 -.879E+03   0.202E-07 0.303E+00 -.428E+00   -.664E-04 0.464E-01 0.619E-01
   0.191E+01 -.111E+01 0.880E+03   -.211E+01 0.122E+01 -.880E+03   0.173E-01 -.100E-01 -.334E+00   0.135E+00 -.802E-01 0.127E+00
   -.191E+01 -.111E+01 0.880E+03   0.211E+01 0.122E+01 -.880E+03   -.173E-01 -.100E-01 -.334E+00   -.135E+00 -.781E-01 0.127E+00
   -.427E-04 0.335E+01 -.801E+03   0.511E-04 -.363E+01 0.800E+03   0.224E-08 0.336E-01 0.705E+00   -.682E-03 0.178E+00 0.404E+00
   0.627E+02 0.362E+02 -.697E+03   -.621E+02 -.358E+02 0.697E+03   -.101E+01 -.585E+00 -.767E+00   0.104E+00 0.599E-01 0.641E+00
   -.627E+02 0.362E+02 -.697E+03   0.621E+02 -.358E+02 0.697E+03   0.101E+01 -.585E+00 -.767E+00   -.103E+00 0.604E-01 0.641E+00
   0.179E+02 -.103E+02 -.779E+03   -.182E+02 0.105E+02 0.778E+03   0.449E+00 -.259E+00 0.785E+00   -.355E-01 0.207E-01 0.361E+00
   -.999E-05 -.724E+02 -.697E+03   0.145E-03 0.717E+02 0.697E+03   0.779E-07 0.117E+01 -.767E+00   0.484E-03 -.120E+00 0.641E+00
   -.179E+02 -.103E+02 -.779E+03   0.182E+02 0.105E+02 0.778E+03   -.449E+00 -.259E+00 0.785E+00   0.352E-01 0.204E-01 0.361E+00
   -.290E+01 -.167E+01 -.801E+03   0.314E+01 0.181E+01 0.800E+03   -.291E-01 -.168E-01 0.705E+00   -.154E+00 -.888E-01 0.403E+00
   0.290E+01 -.167E+01 -.801E+03   -.314E+01 0.181E+01 0.800E+03   0.291E-01 -.168E-01 0.705E+00   0.154E+00 -.895E-01 0.404E+00
   0.158E-04 0.206E+02 -.779E+03   0.193E-03 -.210E+02 0.778E+03   0.345E-07 0.518E+00 0.785E+00   -.323E-03 -.411E-01 0.361E+00
   -.178E-04 -.154E-04 -.243E+04   0.317E-04 0.376E-04 0.243E+04   0.241E-17 -.531E-18 0.352E+00   -.131E-03 -.956E-04 0.331E+00
   0.745E+02 0.124E+03 -.244E+04   -.738E+02 -.123E+03 0.244E+04   -.107E+01 -.149E+01 0.346E+00   0.132E+00 0.186E+00 0.218E+00
   -.746E+02 0.124E+03 -.244E+04   0.738E+02 -.123E+03 0.244E+04   0.107E+01 -.149E+01 0.346E+00   -.132E+00 0.188E+00 0.218E+00
   0.145E+03 0.260E+01 -.244E+04   -.143E+03 -.242E+01 0.244E+04   -.182E+01 -.179E+00 0.346E+00   0.227E+00 0.211E-01 0.218E+00
   -.145E+03 0.260E+01 -.244E+04   0.143E+03 -.242E+01 0.244E+04   0.182E+01 -.179E+00 0.346E+00   -.229E+00 0.218E-01 0.218E+00
   0.700E+02 -.127E+03 -.244E+04   -.696E+02 0.125E+03 0.244E+04   -.756E+00 0.167E+01 0.346E+00   0.973E-01 -.208E+00 0.218E+00
   -.700E+02 -.127E+03 -.244E+04   0.696E+02 0.125E+03 0.244E+04   0.756E+00 0.167E+01 0.346E+00   -.956E-01 -.209E+00 0.218E+00
   0.330E-04 -.240E-04 -.243E+04   0.139E-03 -.532E-04 0.243E+04   -.802E-17 0.172E-17 0.470E+00   -.450E-02 -.231E-02 0.240E+00
   0.279E-03 -.154E-03 -.240E+04   0.135E-03 0.122E-04 0.240E+04   0.368E-19 -.115E-17 -.511E+01   0.767E-02 0.469E-02 0.354E+00
   0.201E-03 -.104E-03 -.179E+04   0.255E-04 0.160E-05 0.182E+04   -.151E-17 0.501E-18 -.294E+02   0.390E-02 0.238E-02 -.273E+00
   -.250E-03 -.993E-03 0.307E+02   0.904E-13 0.120E-12 0.909E-12   0.213E-15 0.107E-17 -.358E+02   0.156E-01 0.988E-02 0.533E+01

 POSITION                                       TOTAL-FORCE (eV/Angst)
      0.00000      0.00000      5.28038        -0.000000      0.000000     -0.122468
      2.93784      0.00000      5.28038        -0.001824      0.002507     -0.052899
      5.87568      0.00000      5.28038         0.001824      0.002507     -0.052899
      1.46892      2.54424      5.28038         0.001260     -0.002833     -0.052899
      4.40676      2.54424      5.28038         0.000000      0.000000     -0.060119
      7.34459      2.54424      5.28038        -0.001260     -0.002833     -0.052899
      2.93784      5.08848      5.28038         0.003083      0.000326     -0.052899
      5.87568      5.08848      5.28038        -0.003083      0.000326     -0.052899
      8.81351      5.08848      5.28038        -0.000000      0.000000     -0.057210
      1.46892      0.84808      7.67911        -0.036530     -0.021091      0.069654
      4.40676      0.84808      7.67911        -0.000000     -0.077519      0.028799
      7.34459      0.84808      7.67911         0.036530     -0.021091      0.069654
      2.93784      3.39232      7.67911        -0.067133      0.038759      0.028799
      5.87568      3.39232      7.67911         0.067133      0.038759      0.028799
      8.81351      3.39232      7.67911        -0.000000     -0.048064      0.142368
      4.40676      5.93656      7.67911         0.000000      0.042181      0.069654
      7.34459      5.93656      7.67911        -0.041625      0.024032      0.142368
     10.28243      5.93656      7.67911         0.041625      0.024032      0.142368
      8.81351      1.70030     10.08698        -0.000000     -0.068560     -0.043081
      2.93503      1.69454     10.04736        -0.280445     -0.161915     -0.291603
      5.87848      1.69454     10.04736         0.280444     -0.161915     -0.291603
     10.26776      4.24887     10.06889         0.071158     -0.041083      0.029538
      4.40676      4.24365     10.04736         0.000000      0.323829     -0.291603
      7.35926      4.24887     10.06889        -0.071158     -0.041083      0.029538
     11.74777      6.78258     10.08698         0.059374      0.034280     -0.043081
      5.87926      6.78258     10.08698        -0.059374      0.034280     -0.043081
      8.81351      6.76771     10.06889         0.000000      0.082166      0.029538
      0.00000      0.00000     12.49943         0.000000      0.000000     -0.024977
      2.98194      0.07009     12.55649        -0.186575     -0.364844     -0.286194
      5.83157      0.07009     12.55649         0.186575     -0.364844     -0.286194
      1.55167      2.54739     12.55649        -0.409252      0.020844     -0.286194
      7.26184      2.54739     12.55649         0.409252      0.020844     -0.286194
      2.97649      5.01524     12.55649        -0.222677      0.344000     -0.286194
      5.83702      5.01524     12.55649         0.222677      0.344000     -0.286194
      8.81351      5.08848     12.50498        -0.000000      0.000000      0.055414
      4.40676      2.54424     12.24418         0.000000      0.000000      2.418693
      4.40676      2.54424     13.97632         0.000000      0.000000      0.018208
    total drift:                                0.015328      0.008891      0.252756

  FREE ENERGIE OF THE ION-ELECTRON SYSTEM (eV)
  free  energy   TOTEN  =      -124.37255081 eV

  energy  without entropy=     -124.37255081  energy(sigma->0) =     -124.37255081

 stress matrix after NEB project (eV)
    -18.75145     -0.00000      0.00000
     -0.00000    -18.75144      0.00000
     -0.00000      0.00000      2.64162
  FORCES: max atom, RMS     0.018208    0.002993
  FORCE total and by dimension    0.018208    0.018208
  Stress total and by dimension   26.649794   18.751445
|           W    W    AA    RRRRR   N    N  II  N    N   GGGG   !!!           |
|           W    W   A  A   R    R  NN   N  II  NN   N  G    G  !!!           |
|           W    W  A    A  R    R  N N  N  II  N N  N  G       !!!           |
|           W WW W  AAAAAA  RRRRR   N  N N  II  N  N N  G  GGG   !            |
|           WW  WW  A    A  R   R   N   NN  II  N   NN  G    G                |
|           W    W  A    A  R    R  N    N  II  N    N   GGGG   !!!           |
|     Tetrahedron method does not include variations of the Fermi             |
|     occupations, so forces and stress will be inaccurate. We suggest        |
|     using a different smearing scheme ISMEAR = 1 or 2 for metals in         |
|     relaxations.                                                            |

 total charge

# of ion       s       p       d       tot
    1        0.548   0.238   8.765   9.551
    2        0.543   0.241   8.765   9.548
    3        0.543   0.241   8.765   9.548
    4        0.543   0.241   8.765   9.548
    5        0.542   0.242   8.764   9.548
    6        0.543   0.241   8.765   9.548
    7        0.543   0.241   8.765   9.548
    8        0.543   0.241   8.765   9.548
    9        0.540   0.240   8.766   9.546
   10        0.522   0.308   8.772   9.602
   11        0.519   0.310   8.778   9.607
   12        0.522   0.308   8.772   9.602
   13        0.519   0.310   8.778   9.607
   14        0.519   0.310   8.778   9.607
   15        0.514   0.309   8.772   9.595
   16        0.522   0.308   8.772   9.602
   17        0.514   0.309   8.772   9.595
   18        0.514   0.309   8.772   9.595
   19        0.519   0.295   8.775   9.589
   20        0.564   0.336   8.742   9.642
   21        0.564   0.336   8.742   9.642
   22        0.511   0.307   8.772   9.589
   23        0.564   0.336   8.742   9.642
   24        0.511   0.307   8.772   9.589
   25        0.519   0.295   8.775   9.589
   26        0.519   0.295   8.775   9.589
   27        0.511   0.307   8.772   9.589
   28        0.542   0.229   8.754   9.525
   29        0.579   0.240   8.746   9.564
   30        0.579   0.240   8.746   9.564
   31        0.579   0.240   8.746   9.564
   32        0.579   0.240   8.746   9.564
   33        0.579   0.240   8.746   9.564
   34        0.579   0.240   8.746   9.564
   35        0.539   0.233   8.753   9.524
   36        2.209   6.052   2.398  10.659
   37        1.616   3.318   0.000   4.934
tot         22.709  19.033 309.095 350.837

 BZINTS: Fermi energy:    0.747866;  404.000000 electrons
         Band energy:-0.152219E+04;  BLOECHL correction:   -0.052980