 vasp.6.2.0 18Jan21 (build Jun 12 2021 23:27:24) complex

 executed on             LinuxIFC date 2022.05.28  00:37:14

 INCAR:
   ISMEAR = -5
   SIGMA = 0.1
   ISPIN = 1
   EDIFF = 1.d-5
   EDIFFG = -0.01
   NSW = 0
   NELM = 150
   ENCUT = 500
   ISIF = 2
   IBRION = 2
   LREAL = Auto
   ALGO = Fast
   ICHARG = 11
   LORBIT = 10
   LCHARG = .F.
   LWAVE = .F.

 POTCAR:    PAW_PBE Au 04Oct2007
 POTCAR:    PAW_PBE Ti 08Apr2002
 POTCAR:    PAW_PBE C 08Apr2002
 POTCAR:    PAW_PBE O 08Apr2002
|           W    W    AA    RRRRR   N    N  II  N    N   GGGG   !!!           |
|           W    W   A  A   R    R  NN   N  II  NN   N  G    G  !!!           |
|           W    W  A    A  R    R  N N  N  II  N N  N  G       !!!           |
|           W WW W  AAAAAA  RRRRR   N  N N  II  N  N N  G  GGG   !            |
|           WW  WW  A    A  R   R   N   NN  II  N   NN  G    G                |
|           W    W  A    A  R    R  N    N  II  N    N   GGGG   !!!           |
|     For optimal performance we recommend to set                             |
|       NCORE = 2 up to number-of-cores-per-socket                            |
|     This setting can greatly improve the performance of VASP for DFT.       |
|     The default, NCORE=1 might be grossly inefficient on modern             |
|     multi-core architectures or massively parallel machines. Do your        |
|     Unfortunately you need to use the default for GW and RPA                |
|     calculations (for HF NCORE is supported but not extensively tested      |
|     yet).                                                                   |

 POTCAR:    PAW_PBE Au 04Oct2007
   VRHFIN =Au: s1d10

   TITEL  = PAW_PBE Au 04Oct2007
   POMASS =  196.966; ZVAL   =   11.000    mass and valenz
   ENMAX  =  229.943; ENMIN  =  172.457 eV

 POTCAR:    PAW_PBE Ti 08Apr2002
   VRHFIN =Ti: d3 s1

   TITEL  = PAW_PBE Ti 08Apr2002
   POMASS =   47.880; ZVAL   =    4.000    mass and valenz
   ENMAX  =  178.330; ENMIN  =  133.747 eV

 POTCAR:    PAW_PBE C 08Apr2002
   VRHFIN =C: s2p2

[...]

 POTCAR:    PAW_PBE O 08Apr2002
   VRHFIN =O: s2p4

   TITEL  = PAW_PBE O 08Apr2002
   POMASS =   16.000; ZVAL   =    6.000    mass and valenz
   ENMAX  =  400.000; ENMIN  =  300.000 eV

 Optimization of the real space projectors (new method)

 maximal supplied QI-value         = 15.12
 optimisation between [QCUT,QGAM] = [ 11.34, 22.83] = [ 36.00,145.93] Ry
 Optimized for a Real-space Cutoff    1.39 Angstroem

   l    n(q)    QCUT    max X(q) W(low)/X(q) W(high)/X(q)  e(spline)
   2      9    11.338    60.898    0.39E-03    0.42E-03    0.21E-06
   2      9    11.338    58.894    0.40E-03    0.42E-03    0.22E-06
   0      9    11.338   109.617    0.13E-03    0.20E-04    0.13E-06
   0      9    11.338    75.026    0.13E-03    0.20E-04    0.13E-06
   1      9    11.338    16.344    0.33E-04    0.24E-03    0.18E-06
   1      9    11.338    10.160    0.26E-04    0.19E-03    0.15E-06
 Optimization of the real space projectors (new method)

[...]

   l    n(q)    QCUT    max X(q) W(low)/X(q) W(high)/X(q)  e(spline)
   0      7    11.310   115.676    0.43E-03    0.13E-02    0.19E-06
   0      7    11.310    87.132    0.43E-03    0.13E-02    0.18E-06
   1      6    11.310     4.429    0.42E-03    0.74E-03    0.11E-06
   1      6    11.310     2.733    0.34E-03    0.55E-03    0.92E-07
 Optimization of the real space projectors (new method)

 maximal supplied QI-value         = 24.76
 optimisation between [QCUT,QGAM] = [ 11.39, 22.77] = [ 36.31,145.25] Ry
 Optimized for a Real-space Cutoff    1.00 Angstroem

   l    n(q)    QCUT    max X(q) W(low)/X(q) W(high)/X(q)  e(spline)
   0      7    11.387    20.381    0.39E-03    0.13E-02    0.15E-06
   0      7    11.387    15.268    0.42E-03    0.14E-02    0.17E-06
   1      6    11.387     5.964    0.41E-03    0.11E-02    0.17E-06
   1      6    11.387     5.382    0.39E-03    0.87E-03    0.15E-06
  PAW_PBE Au 04Oct2007                  :
  PAW_PBE Ti 08Apr2002                  :
  PAW_PBE C 08Apr2002                   :
  PAW_PBE O 08Apr2002                   :

 POSCAR: Au-Ti-CO2
  positions in direct lattice
  velocities in cartesian coordinates
 exchange correlation table for  LEXCH =        8
   RHO(1)=    0.500       N(1)  =     2000
   RHO(2)=  100.500       N(2)  =     4000

 VTST: version 3.2, (02/03/18)

 CHAIN: initializing optimizer

 OPT: Using VASP Conjugate-Gradient optimizer
 CHAIN: Read ICHAIN            0

 POSCAR: Au-Ti-CO2
  positions in direct lattice
  velocities in cartesian coordinates

 ion  position               nearest neighbor table
   1  0.000  0.000  0.217-  16 2.94  12 2.94   6 2.94   8 2.94   7 2.94   3 2.94  10 2.94   4 2.94
                             2 2.94
   2  0.333  0.000  0.217-   9 2.94  11 2.94  17 2.94  10 2.94   8 2.94   4 2.94   5 2.94   1 2.94
                             3 2.94
   3  0.667  0.000  0.217-   7 2.94  18 2.94  12 2.94   1 2.94  11 2.94   5 2.94   6 2.94   9 2.94
                             2 2.94
   4  0.000  0.333  0.217-  10 2.94   6 2.94   5 2.94  13 2.94   2 2.94  15 2.94   9 2.94   1 2.94
                             7 2.94
   5  0.333  0.333  0.217-  13 2.94   7 2.94  11 2.94   4 2.94   2 2.94  14 2.94   3 2.94   8 2.94
                             6 2.94
   6  0.667  0.333  0.217-  15 2.94  14 2.94   1 2.94  12 2.94   4 2.94   9 2.94   8 2.94   3 2.94
                             5 2.94
   7  0.000  0.667  0.217-  18 2.94   3 2.94  16 2.94   5 2.94   1 2.94  13 2.94   8 2.94   4 2.94
                             9 2.94
   8  0.333  0.667  0.217-   9 2.94  17 2.94   1 2.94   2 2.94  14 2.94  16 2.94   6 2.94   7 2.94
                             5 2.94
   9  0.667  0.667  0.217-   2 2.94   8 2.94  17 2.94   6 2.94  15 2.94   4 2.94   3 2.94  18 2.94
                             7 2.94
  10  0.111  0.111  0.315-  26 2.93  19 2.93  20 2.93  11 2.94  17 2.94   2 2.94   4 2.94   1 2.94
                            12 2.94  16 2.94  13 2.94  15 2.94
  11  0.444  0.111  0.315-  20 2.92  21 2.92  27 2.94  13 2.94   2 2.94  10 2.94  17 2.94   5 2.94
                             3 2.94  18 2.94  14 2.94  12 2.94
  12  0.778  0.111  0.315-  25 2.93  19 2.93  21 2.93  16 2.94  18 2.94   1 2.94  14 2.94  15 2.94
                             3 2.94   6 2.94  10 2.94  11 2.94
  13  0.111  0.444  0.315-  23 2.92  20 2.92  22 2.94   5 2.94  18 2.94  11 2.94   7 2.94   4 2.94
                            16 2.94  10 2.94  14 2.94  15 2.94
  14  0.444  0.444  0.315-  21 2.92  23 2.92  24 2.94  15 2.94   6 2.94  12 2.94   8 2.94  17 2.94
                             5 2.94  16 2.94  13 2.94  11 2.94
  15  0.778  0.444  0.315-  24 2.92  22 2.92  19 2.93  14 2.94   6 2.94  17 2.94  12 2.94   9 2.94
                             4 2.94  10 2.94  13 2.94  18 2.94
  16  0.111  0.778  0.315-  25 2.93  26 2.93  23 2.93  18 2.94  12 2.94   7 2.94   1 2.94   8 2.94
                            13 2.94  10 2.94  14 2.94  17 2.94
  17  0.444  0.778  0.315-  27 2.92  24 2.92  26 2.93   9 2.94  15 2.94   2 2.94  10 2.94  11 2.94
                             8 2.94  14 2.94  16 2.94  18 2.94
  18  0.778  0.778  0.315-  22 2.92  27 2.92  25 2.93  16 2.94   7 2.94  13 2.94  12 2.94   3 2.94
                            11 2.94   9 2.94  15 2.94  17 2.94
  19  0.889  0.222  0.413-  10 2.93  12 2.93  15 2.93  26 2.94  25 2.94  24 2.94  22 2.94  21 2.95
                            20 2.95  28 2.95  32 3.03  31 3.03
  20  0.223  0.223  0.413-  36 2.76  23 2.91  21 2.91  11 2.92  13 2.92  10 2.93  27 2.95  22 2.95
                            26 2.95  19 2.95  29 2.96  31 2.96
  21  0.554  0.223  0.413-  36 2.76  20 2.91  23 2.91  14 2.92  11 2.92  12 2.93  27 2.95  24 2.95
                            25 2.95  19 2.95  30 2.96  32 2.96
  22  0.887  0.556  0.413-  24 2.92  27 2.92  18 2.92  15 2.92  13 2.94  25 2.94  19 2.94  23 2.95
                            20 2.95  35 2.96  33 2.99  31 2.99
  23  0.223  0.554  0.413-  36 2.76  20 2.91  21 2.91  13 2.92  14 2.92  16 2.93  22 2.95  24 2.95
                            25 2.95  26 2.95  33 2.96  34 2.96
  24  0.556  0.556  0.413-  27 2.92  22 2.92  15 2.92  17 2.92  14 2.94  26 2.94  19 2.94  21 2.95
                            23 2.95  35 2.96  32 2.99  34 2.99
  25  0.889  0.889  0.413-  16 2.93  12 2.93  18 2.93  19 2.94  26 2.94  22 2.94  27 2.94  23 2.95
                            21 2.95  28 2.95  33 3.03  30 3.03
  26  0.222  0.889  0.413-  10 2.93  16 2.93  17 2.93  19 2.94  25 2.94  27 2.94  24 2.94  20 2.95
                            23 2.95  28 2.95  29 3.03  34 3.03
  27  0.556  0.887  0.413-  24 2.92  22 2.92  17 2.92  18 2.92  11 2.94  26 2.94  25 2.94  20 2.95
                            21 2.95  35 2.96  29 2.99  30 2.99
  28  0.000  0.000  0.513-  25 2.95  19 2.95  26 2.95  34 2.98  32 2.98  33 2.98  30 2.98  31 2.98
                            29 2.98
  29  0.334  0.009  0.514-  30 2.85  31 2.86  36 2.87  20 2.96  35 2.98  28 2.98  27 2.99  26 3.03
                            34 3.10
  30  0.657  0.009  0.514-  29 2.85  32 2.86  36 2.87  21 2.96  35 2.98  28 2.98  27 2.99  25 3.03
                            33 3.10
  31  0.009  0.334  0.514-  33 2.85  29 2.86  36 2.87  20 2.96  35 2.98  28 2.98  22 2.99  19 3.03
                            32 3.10
  32  0.657  0.334  0.514-  34 2.85  30 2.86  36 2.87  21 2.96  35 2.98  28 2.98  24 2.99  19 3.03
                            31 3.10
  33  0.009  0.657  0.514-  31 2.85  34 2.86  36 2.87  23 2.96  35 2.98  28 2.98  22 2.99  25 3.03
                            30 3.10
  34  0.334  0.657  0.514-  32 2.85  33 2.86  36 2.87  23 2.96  35 2.98  28 2.98  24 2.99  26 3.03
                            29 3.10
  35  0.667  0.667  0.513-  24 2.96  27 2.96  22 2.96  29 2.98  34 2.98  32 2.98  31 2.98  30 2.98
                            33 2.98
  36  0.333  0.333  0.503-  20 2.76  23 2.76  21 2.76  33 2.87  31 2.87  29 2.87  30 2.87  34 2.87
                            32 2.87
  37  0.339  0.333  0.668-  38 1.18  39 1.18
  38  0.205  0.333  0.667-  37 1.18
  39  0.472  0.334  0.669-  37 1.18

  LATTYP: Found a hexagonal cell.
 ALAT       =     8.8135128021
 C/A-ratio  =     2.7649717827

  Lattice vectors:

 A1 = (  -4.4067569092,  -7.6327256898,   0.0000000000)
 A2 = (   8.8135128021,   0.0000000000,   0.0000000000)
 A3 = (   0.0000000000,   0.0000000000,  24.3691142040)

Analysis of symmetry for initial positions (statically):
 Subroutine PRICEL returns:
 Original cell was already a primitive cell.

 Routine SETGRP: Setting up the symmetry group for a
 hexagonal supercell.

 Subroutine GETGRP returns: Found  1 space group operations
 (whereof  1 operations were pure point group operations)
 out of a pool of 24 trial point group operations.

The static configuration has the point symmetry C_1 .

Analysis of symmetry for dynamics (positions and initial velocities):
 Subroutine PRICEL returns:
 Original cell was already a primitive cell.

[...]

The dynamic configuration has the point symmetry C_1 .

Analysis of constrained symmetry for selective dynamics:
 Subroutine PRICEL returns:
 Original cell was already a primitive cell.

 Routine SETGRP: Setting up the symmetry group for a
 hexagonal supercell.

[...]
     41      -5.0263      2.00000
     42      -5.0070      2.00000
     43      -4.9121      2.00000
     44      -4.8939      2.00000
     45      -4.8349      2.00000
     46      -4.7747      2.00000
     47      -4.7491      2.00000
     48      -4.7100      2.00000
     49      -4.6876      2.00000
     50      -4.6731      2.00000
     51      -4.6450      2.00000
     52      -4.5537      2.00000
     53      -4.5510      2.00000
     54      -4.5125      2.00000
     55      -4.4845      2.00000
     56      -4.4787      2.00000
     57      -4.4745      2.00000
     58      -4.4500      2.00000
     59      -4.4308      2.00000
     60      -4.3842      2.00000
[...]
    238       5.0319      0.00000
    239       5.2938      0.00000
    240       5.3004      0.00000
    241       5.5161      0.00000
    242       5.7019      0.00000
    243       5.7717      0.00000
    244       5.8833      0.00000
    245       6.0313      0.00000
    246       6.0626      0.00000
    247       6.0946      0.00000
    248       6.1607      0.00000
    249       6.3574      0.00000
    250       6.3902      0.00000
    251       6.4376      0.00000
    252       6.5242      0.00000

 soft charge-density along one line, spin component           1
         0         1         2         3         4         5         6         7         8         9
 total charge-density along one line

------------------------ aborting loop because EDIFF is reached ----------------------------------------

 total charge

# of ion       s       p       d       tot
    1        0.549   0.237   8.765   9.551
    2        0.542   0.241   8.765   9.547
    3        0.542   0.241   8.765   9.547
    4        0.542   0.241   8.765   9.547
    5        0.545   0.242   8.761   9.548
    6        0.542   0.241   8.765   9.547
    7        0.542   0.241   8.765   9.547
    8        0.542   0.241   8.765   9.547
    9        0.544   0.239   8.766   9.550
   10        0.523   0.306   8.767   9.597
   11        0.519   0.306   8.779   9.605
   12        0.523   0.306   8.767   9.597
   13        0.519   0.306   8.779   9.605
   14        0.519   0.306   8.779   9.605
   15        0.517   0.308   8.772   9.596
   16        0.523   0.306   8.767   9.597
   17        0.517   0.308   8.772   9.596
   18        0.517   0.308   8.772   9.596
   19        0.519   0.297   8.769   9.586
   20        0.563   0.332   8.733   9.627
   21        0.563   0.332   8.733   9.627
   22        0.511   0.305   8.775   9.592
   23        0.563   0.332   8.733   9.628
   24        0.511   0.305   8.775   9.591
   25        0.520   0.298   8.769   9.587
   26        0.520   0.298   8.769   9.587
   27        0.511   0.305   8.776   9.592
   28        0.541   0.229   8.755   9.525
   29        0.586   0.244   8.732   9.562
   30        0.586   0.244   8.731   9.562
   31        0.585   0.243   8.732   9.560
   32        0.585   0.243   8.732   9.560
   33        0.587   0.244   8.731   9.562
   34        0.587   0.244   8.731   9.562
   35        0.538   0.229   8.757   9.525
   36        0.411   0.456   2.208   3.075
   37        0.933   1.801   0.000   2.733
   38        1.607   3.528   0.000   5.135
   39        1.607   3.527   0.000   5.134
tot         23.501  18.957 308.778 351.235

  FORCE on cell =-STRESS in cart. coord.  units (eV):
  Direction    XX          YY          ZZ          XY          YZ          ZX
  Alpha Z   953.89603   953.89603   953.89603
  Ewald  141740.52878140956.91412************     0.35802    -0.38157    11.74161
  Hartree150097.09721149733.05143************     0.17658    -0.35780     4.77185
  E(xc)   -1815.13243 -1817.25814 -1824.46474     0.00108     0.00055     0.03384
  Local  ************************302812.67313    -0.50118     0.73533   -15.30102
  n-local  -103.29597   -97.34090   -69.51462    -0.00062     0.02167    -0.08734
  augment  2379.18713  2381.93309  2400.88674    -0.00305    -0.00319    -0.04181
  Kinetic  5641.04024  5706.51741  5767.91161    -0.02756    -0.00722    -1.08716
  Fock        0.00000     0.00000     0.00000     0.00000     0.00000     0.00000
  Total     -23.88703   -23.87118     0.77238     0.00326     0.00776     0.02997
  in kB     -23.34556   -23.33007     0.75487     0.00319     0.00758     0.02929

 VOLUME and BASIS-vectors are now :
  energy-cutoff  :      500.00
  volume of cell :     1639.34
      direct lattice vectors                 reciprocal lattice vectors
     8.813512802  0.000000000  0.000000000     0.113462137 -0.065507406  0.000000000
     4.406756909  7.632725690  0.000000000     0.000000000  0.131014796  0.000000000
     0.000000000  0.000000000 24.369114204     0.000000000  0.000000000  0.041035550

  length of vectors
     8.813512802  8.813512802 24.369114204     0.131014796  0.131014796  0.041035550

 FORCES acting on ions
    electron-ion (+dipol)            ewald-force                    non-local-force                 convergence-correction
   0.203E-03 0.150E-01 0.263E+04   0.112E-02 -.136E-01 -.263E+04   -.411E-04 0.433E-03 -.580E+00   -.134E-02 -.230E-02 0.186E+00
   0.161E+00 -.314E+00 0.263E+04   -.760E-01 0.334E+00 -.263E+04   0.121E-01 0.722E-01 -.356E+00   -.983E-01 -.958E-01 0.149E+00
   -.161E+00 -.323E+00 0.263E+04   0.749E-01 0.332E+00 -.263E+04   -.120E-01 0.722E-01 -.356E+00   0.996E-01 -.853E-01 0.151E+00
   -.205E+00 0.302E+00 0.263E+04   0.263E+00 -.239E+00 -.263E+04   0.688E-01 -.261E-01 -.363E+00   -.131E+00 -.357E-01 0.152E+00
   -.113E-01 -.124E-01 0.263E+04   -.207E-02 -.693E-04 -.263E+04   -.119E-03 0.707E-03 -.155E-01   0.139E-01 0.119E-01 0.150E+00
   0.211E+00 0.297E+00 0.263E+04   -.261E+00 -.239E+00 -.263E+04   -.687E-01 -.261E-01 -.361E+00   0.122E+00 -.310E-01 0.157E+00
   -.378E+00 0.178E-01 0.263E+04   0.337E+00 -.951E-01 -.263E+04   0.585E-01 -.465E-01 -.358E+00   -.210E-01 0.127E+00 0.152E+00
   0.370E+00 0.214E-01 0.263E+04   -.338E+00 -.932E-01 -.263E+04   -.586E-01 -.461E-01 -.358E+00   0.302E-01 0.121E+00 0.154E+00
   0.122E-01 -.453E-02 0.263E+04   0.126E-02 0.137E-01 -.263E+04   0.254E-03 -.687E-04 -.325E+00   -.140E-01 -.894E-02 0.177E+00
   -.517E+00 -.209E+00 0.892E+03   0.898E+00 0.422E+00 -.891E+03   -.241E+00 -.135E+00 -.633E+00   -.144E+00 -.809E-01 -.346E+00
   -.362E-03 -.153E+01 0.890E+03   -.909E-02 0.175E+01 -.890E+03   0.229E-04 -.309E-01 -.214E+00   0.969E-02 -.239E+00 -.347E+00
   0.513E+00 -.208E+00 0.892E+03   -.889E+00 0.414E+00 -.891E+03   0.241E+00 -.136E+00 -.632E+00   0.139E+00 -.736E-01 -.352E+00
   -.140E+01 0.739E+00 0.890E+03   0.160E+01 -.865E+00 -.890E+03   -.292E-01 0.169E-01 -.220E+00   -.204E+00 0.130E+00 -.349E+00
   0.140E+01 0.735E+00 0.890E+03   -.161E+01 -.861E+00 -.890E+03   0.290E-01 0.172E-01 -.220E+00   0.224E+00 0.129E+00 -.354E+00
   -.115E-02 0.311E+01 0.896E+03   0.117E-01 -.312E+01 -.895E+03   0.268E-03 -.532E-02 -.518E+00   -.109E-01 -.118E-01 -.303E+00
   -.106E-02 0.575E+00 0.892E+03   -.201E-02 -.999E+00 -.891E+03   0.665E-04 0.273E+00 -.630E+00   0.302E-02 0.155E+00 -.356E+00
   0.275E+01 -.161E+01 0.896E+03   -.276E+01 0.163E+01 -.895E+03   -.388E-02 0.611E-03 -.513E+00   -.160E-01 -.453E-02 -.306E+00
   -.275E+01 -.161E+01 0.896E+03   0.276E+01 0.162E+01 -.895E+03   0.350E-02 0.232E-03 -.513E+00   0.126E-01 0.427E-02 -.306E+00
   -.904E-01 -.415E+01 -.853E+03   0.827E-01 0.418E+01 0.854E+03   0.636E-03 -.252E-01 0.589E+00   0.702E-02 0.549E-02 -.597E+00
   -.214E+02 -.119E+02 -.876E+03   0.226E+02 0.126E+02 0.878E+03   -.104E+01 -.591E+00 -.954E+00   -.223E+00 -.126E+00 -.593E+00
   0.215E+02 -.119E+02 -.876E+03   -.227E+02 0.126E+02 0.878E+03   0.104E+01 -.590E+00 -.955E+00   0.220E+00 -.118E+00 -.597E+00
   -.165E+02 0.888E+01 -.848E+03   0.164E+02 -.881E+01 0.848E+03   0.249E+00 -.150E+00 0.599E+00   -.169E+00 0.852E-01 -.558E+00
   0.626E-01 0.240E+02 -.877E+03   -.656E-01 -.254E+02 0.878E+03   -.982E-03 0.119E+01 -.966E+00   0.399E-02 0.249E+00 -.604E+00
   0.164E+02 0.881E+01 -.848E+03   -.164E+02 -.876E+01 0.848E+03   -.249E+00 -.150E+00 0.596E+00   0.164E+00 0.912E-01 -.559E+00
   0.395E+01 0.257E+01 -.855E+03   -.399E+01 -.260E+01 0.855E+03   0.249E-01 0.166E-01 0.565E+00   0.974E-02 0.748E-02 -.600E+00
   -.398E+01 0.249E+01 -.855E+03   0.400E+01 -.252E+01 0.855E+03   -.239E-01 0.177E-01 0.565E+00   0.878E-02 0.581E-02 -.598E+00
   0.227E-01 -.188E+02 -.849E+03   -.131E-01 0.188E+02 0.849E+03   -.660E-03 0.287E+00 0.587E+00   -.893E-02 -.189E+00 -.558E+00
   -.300E+00 0.397E+01 -.249E+04   0.297E+00 -.397E+01 0.249E+04   -.718E-04 -.290E-02 0.479E+00   0.330E-02 0.424E-02 -.238E+00
   -.982E+01 -.175E+02 -.249E+04   0.110E+02 0.195E+02 0.249E+04   -.113E+01 -.178E+01 -.410E+00   -.471E-01 -.168E+00 -.239E+00
   0.102E+02 -.170E+02 -.249E+04   -.114E+02 0.189E+02 0.249E+04   0.114E+01 -.179E+01 -.419E+00   0.438E-01 -.162E+00 -.235E+00
   -.221E+02 0.300E+01 -.248E+04   0.244E+02 -.294E+01 0.248E+04   -.210E+01 -.894E-01 -.304E+00   -.168E+00 0.459E-01 -.238E+00
   0.215E+02 0.299E+01 -.248E+04   -.238E+02 -.295E+01 0.248E+04   0.210E+01 -.893E-01 -.310E+00   0.167E+00 0.527E-01 -.237E+00
   -.150E+02 0.145E+02 -.249E+04   0.161E+02 -.165E+02 0.249E+04   -.979E+00 0.188E+01 -.414E+00   -.121E+00 0.116E+00 -.233E+00
   0.153E+02 0.139E+02 -.249E+04   -.165E+02 -.159E+02 0.249E+04   0.981E+00 0.188E+01 -.423E+00   0.130E+00 0.117E+00 -.235E+00
   -.293E+00 -.402E+01 -.250E+04   0.307E+00 0.402E+01 0.250E+04   -.326E-04 0.433E-02 0.614E+00   -.135E-01 -.984E-02 -.281E+00
   0.182E+00 0.912E-02 -.855E+03   -.181E+00 -.843E-02 0.853E+03   -.454E-02 0.426E-02 0.178E+01   0.659E-03 0.472E-03 -.814E-01
   0.272E+00 -.863E-01 -.804E+03   -.235E+00 0.865E-01 0.804E+03   -.328E-01 -.509E-02 -.161E+00   0.210E-02 -.688E-03 0.717E-01
   0.258E+03 0.198E+00 -.121E+04   -.322E+03 -.234E+00 0.120E+04   0.639E+02 0.308E-01 0.138E+01   -.137E-01 -.268E-02 0.103E+00
   -.258E+03 -.189E-01 -.121E+04   0.322E+03 0.373E-01 0.121E+04   -.639E+02 -.164E-01 -.729E+00   0.633E-02 -.267E-02 0.102E+00
   -.148E-02 -.447E-01 0.139E+02   0.114E-12 0.191E-13 -.978E-11   -.203E-01 0.244E-01 -.546E+01   0.159E-01 0.853E-02 -.860E+01

 POSITION                                       TOTAL-FORCE (eV/Angst)
      0.00000      0.00000      5.28038         0.000104     -0.000139     -0.139364
      2.93784      0.00000      5.28038        -0.000789     -0.003788     -0.056486
      5.87568      0.00000      5.28038         0.001164     -0.003667     -0.056561
      1.46892      2.54424      5.28038        -0.003228      0.001486     -0.056982
      4.40676      2.54424      5.28038         0.000522      0.000449     -0.049979
      7.34459      2.54424      5.28038         0.003391      0.001584     -0.057022
      2.93784      5.08848      5.28038        -0.002843      0.003311     -0.056795
      5.87568      5.08848      5.28038         0.003277      0.003185     -0.056851
      8.81351      5.08848      5.28038        -0.000159      0.000418     -0.075501
      1.46892      0.84808      7.67911        -0.003671     -0.002315      0.042880
      4.40676      0.84808      7.67911         0.000415     -0.042913     -0.022036
      7.34459      0.84808      7.67911         0.003883     -0.002176      0.042733
      2.93784      3.39232      7.67911        -0.037751      0.021723     -0.022218
      5.87568      3.39232      7.67911         0.038571      0.021616     -0.022279
      8.81351      3.39232      7.67911         0.000081     -0.035507      0.072555
      4.40676      5.93656      7.67911         0.000174      0.004881      0.043309
      7.34459      5.93656      7.67911        -0.031175      0.018430      0.071775
     10.28243      5.93656      7.67911         0.031436      0.018374      0.071827
      8.81351      1.69614     10.07331         0.000153      0.003515      0.059888
      2.94950      1.70289     10.06400        -0.013329     -0.008560      0.023764
      5.86402      1.70289     10.06400         0.013539     -0.008290      0.023980
     10.27143      4.24676     10.06599         0.008071     -0.002914      0.038203
      4.40676      4.22694     10.06400         0.000186      0.014684      0.020559
      7.35560      4.24676     10.06599        -0.007714     -0.002955      0.037813
     11.75137      6.78466     10.07331        -0.004197     -0.001717      0.058739
      5.87566      6.78466     10.07331         0.004917     -0.001900      0.058841
      8.81351      6.77194     10.06599         0.000149      0.006765      0.033690
      0.00000      0.00000     12.49013         0.000363      0.000685      0.002778
      2.98093      0.06833     12.52966         0.017488      0.006133      0.001338
      5.83259      0.06833     12.52966        -0.017508      0.007268      0.002657
      1.54964      2.54739     12.52966         0.007372      0.010883     -0.006920
      7.26387      2.54739     12.52966        -0.008789      0.010695     -0.004623
      2.97547      5.01700     12.52966         0.000510     -0.015288      0.001832
      5.83804      5.01700     12.52966        -0.000734     -0.016349      0.002945
      8.81351      5.08848     12.50181         0.000160     -0.000527      0.030970
      4.40676      2.54424     12.25739        -0.003362      0.005722     -0.060150
      4.45661      2.54540     16.28690         0.006308     -0.005261      0.004461
      3.28002      2.54468     16.25851        -0.001874     -0.007258     -0.004976
      5.63361      2.54569     16.29852        -0.005111     -0.000283      0.001206
    total drift:                               -0.005943     -0.011749     -0.192003

  FREE ENERGIE OF THE ION-ELECTRON SYSTEM (eV)
  free  energy   TOTEN  =      -137.79106010 eV

  energy  without entropy=     -137.79106010  energy(sigma->0) =     -137.79106010

 stress matrix after NEB project (eV)
    -23.88703      0.00326      0.02997
      0.00326    -23.87118      0.00776
      0.02997      0.00776      0.77238
  FORCES: max atom, RMS     0.009347    0.002242
  FORCE total and by dimension    0.013999    0.007258
  Stress total and by dimension   33.779018   23.887033
|           W    W    AA    RRRRR   N    N  II  N    N   GGGG   !!!           |
|           W    W   A  A   R    R  NN   N  II  NN   N  G    G  !!!           |
|           W    W  A    A  R    R  N N  N  II  N N  N  G       !!!           |
|           W WW W  AAAAAA  RRRRR   N  N N  II  N  N N  G  GGG   !            |
|           WW  WW  A    A  R   R   N   NN  II  N   NN  G    G                |
|           W    W  A    A  R    R  N    N  II  N    N   GGGG   !!!           |
|     Tetrahedron method does not include variations of the Fermi             |
|     occupations, so forces and stress will be inaccurate. We suggest        |
|     using a different smearing scheme ISMEAR = 1 or 2 for metals in         |
|     relaxations.                                                            |

 total charge

# of ion       s       p       d       tot
    1        0.549   0.237   8.765   9.551
    2        0.542   0.241   8.765   9.547
    3        0.542   0.241   8.765   9.547
    4        0.542   0.241   8.765   9.547
    5        0.545   0.242   8.761   9.548
    6        0.542   0.241   8.765   9.547
    7        0.542   0.241   8.765   9.547
    8        0.542   0.241   8.765   9.547
    9        0.544   0.239   8.766   9.550
   10        0.523   0.306   8.767   9.597
   11        0.519   0.306   8.779   9.605
   12        0.523   0.306   8.767   9.597
   13        0.519   0.306   8.779   9.605
   14        0.519   0.306   8.779   9.605
   15        0.517   0.308   8.772   9.596
   16        0.523   0.306   8.767   9.597
   17        0.517   0.308   8.772   9.596
   18        0.517   0.308   8.772   9.596
   19        0.519   0.297   8.769   9.586
   20        0.563   0.332   8.733   9.627
   21        0.563   0.332   8.733   9.627
   22        0.511   0.305   8.775   9.592
   23        0.563   0.332   8.733   9.628
   24        0.511   0.305   8.775   9.591
   25        0.520   0.298   8.769   9.587
   26        0.520   0.298   8.769   9.587
   27        0.511   0.305   8.776   9.592
   28        0.541   0.229   8.755   9.525
   29        0.586   0.244   8.732   9.562
   30        0.586   0.244   8.731   9.562
   31        0.585   0.243   8.732   9.560
   32        0.585   0.243   8.732   9.560
   33        0.587   0.244   8.731   9.562
   34        0.587   0.244   8.731   9.562
   35        0.538   0.229   8.757   9.525
   36        0.411   0.456   2.208   3.075
   37        0.933   1.801   0.000   2.733
   38        1.607   3.528   0.000   5.135
   39        1.607   3.527   0.000   5.134
tot         23.501  18.957 308.778 351.235

 BZINTS: Fermi energy:    0.328276;  405.000000 electrons
         Band energy:-0.149799E+04;  BLOECHL correction:   -0.028452