 vasp.6.2.0 18Jan21 (build Jun 12 2021 23:27:24) complex

 executed on             LinuxIFC date 2022.05.26  19:38:34

 INCAR:
   ISMEAR = -5
   SIGMA = 0.1
   ISPIN = 1
   EDIFF = 1.d-5
   EDIFFG = -0.01
   NSW = 0
   NELM = 150
   ENCUT = 500
   ISIF = 2
   IBRION = 2
   LREAL = Auto
   ALGO = Fast
   ICHARG = 11
   LORBIT = 10
   LCHARG = .F.
   LWAVE = .F.

 POTCAR:    PAW_PBE Ag 02Apr2005
 POTCAR:    PAW_PBE V 08Apr2002
 POTCAR:    PAW_PBE O 08Apr2002
|           W    W    AA    RRRRR   N    N  II  N    N   GGGG   !!!           |
|           W    W   A  A   R    R  NN   N  II  NN   N  G    G  !!!           |
|           W    W  A    A  R    R  N N  N  II  N N  N  G       !!!           |
|           W WW W  AAAAAA  RRRRR   N  N N  II  N  N N  G  GGG   !            |
|           WW  WW  A    A  R   R   N   NN  II  N   NN  G    G                |
|           W    W  A    A  R    R  N    N  II  N    N   GGGG   !!!           |
|     For optimal performance we recommend to set                             |
|       NCORE = 2 up to number-of-cores-per-socket                            |
|     This setting can greatly improve the performance of VASP for DFT.       |
|     The default, NCORE=1 might be grossly inefficient on modern             |
|     multi-core architectures or massively parallel machines. Do your        |
|     Unfortunately you need to use the default for GW and RPA                |
|     calculations (for HF NCORE is supported but not extensively tested      |
|     yet).                                                                   |

 POTCAR:    PAW_PBE Ag 02Apr2005
   VRHFIN =Ag : s1 d10

   TITEL  = PAW_PBE Ag 02Apr2005
   POMASS =  107.868; ZVAL   =   11.000    mass and valenz
   ENMAX  =  249.844; ENMIN  =  187.383 eV

 POTCAR:    PAW_PBE V 08Apr2002
   VRHFIN =V: p6 d4 s1

[...]

 POTCAR:    PAW_PBE O 08Apr2002
   VRHFIN =O: s2p4

   TITEL  = PAW_PBE O 08Apr2002
   POMASS =   16.000; ZVAL   =    6.000    mass and valenz
   ENMAX  =  400.000; ENMIN  =  300.000 eV

 Optimization of the real space projectors (new method)

 maximal supplied QI-value         = 15.12
 optimisation between [QCUT,QGAM] = [ 11.34, 22.83] = [ 36.00,145.93] Ry
 Optimized for a Real-space Cutoff    1.43 Angstroem

   l    n(q)    QCUT    max X(q) W(low)/X(q) W(high)/X(q)  e(spline)
   2      9    11.338    53.897    0.16E-03    0.20E-03    0.28E-06
   2      9    11.338    52.416    0.16E-03    0.20E-03    0.29E-06
   0     10    11.338   122.045    0.31E-04    0.76E-04    0.15E-06
   0     10    11.338    73.629    0.30E-04    0.72E-04    0.15E-06
   1      9    11.338    15.255    0.20E-03    0.19E-04    0.17E-06
   1      9    11.338     9.562    0.16E-03    0.15E-04    0.14E-06
 Optimization of the real space projectors (new method)

[...]

   l    n(q)    QCUT    max X(q) W(low)/X(q) W(high)/X(q)  e(spline)
   2     10    11.327    96.114    0.36E-03    0.35E-03    0.42E-06
   2     10    11.327    88.986    0.37E-03    0.35E-03    0.42E-06
   0     11    11.327    20.919    0.40E-04    0.56E-04    0.79E-06
   0     11    11.327     9.593    0.30E-04    0.41E-04    0.60E-06
   1     10    11.327    11.615    0.15E-03    0.10E-03    0.19E-06
   1     10    11.327     7.031    0.11E-03    0.73E-04    0.14E-06
 Optimization of the real space projectors (new method)

 maximal supplied QI-value         = 24.76
 optimisation between [QCUT,QGAM] = [ 11.39, 22.77] = [ 36.31,145.25] Ry
 Optimized for a Real-space Cutoff    1.00 Angstroem

   l    n(q)    QCUT    max X(q) W(low)/X(q) W(high)/X(q)  e(spline)
   0      7    11.387    20.381    0.39E-03    0.13E-02    0.15E-06
   0      7    11.387    15.268    0.42E-03    0.14E-02    0.17E-06
   1      6    11.387     5.964    0.41E-03    0.11E-02    0.17E-06
   1      6    11.387     5.382    0.39E-03    0.87E-03    0.15E-06
  PAW_PBE Ag 02Apr2005                  :
  PAW_PBE V 08Apr2002                   :
  PAW_PBE O 08Apr2002                   :

 POSCAR: Ag-V-O
  positions in direct lattice
  velocities in cartesian coordinates
 exchange correlation table for  LEXCH =        8
   RHO(1)=    0.500       N(1)  =     2000
   RHO(2)=  100.500       N(2)  =     4000

 VTST: version 3.2, (02/03/18)

 CHAIN: initializing optimizer

 OPT: Using VASP Conjugate-Gradient optimizer
 CHAIN: Read ICHAIN            0

 POSCAR: Ag-V-O
  positions in direct lattice
  velocities in cartesian coordinates

 ion  position               nearest neighbor table
   1  0.000  0.000  0.238-   2 2.93   8 2.93   7 2.93   6 2.93   4 2.93  12 2.93  16 2.93  10 2.93
                             3 2.93
   2  0.333  0.000  0.238-   1 2.93   8 2.93   9 2.93   3 2.93   4 2.93   5 2.93  10 2.93  17 2.93
                            11 2.93
   3  0.667  0.000  0.238-   9 2.93   2 2.93   5 2.93  11 2.93   7 2.93  18 2.93   1 2.93   6 2.93
                            12 2.93
   4  0.000  0.333  0.238-   5 2.93   6 2.93   2 2.93   1 2.93   7 2.93  13 2.93  15 2.93   9 2.93
                            10 2.93
   5  0.333  0.333  0.238-   4 2.93   3 2.93   7 2.93   2 2.93   8 2.93  14 2.93  13 2.93  11 2.93
                             6 2.93
   6  0.667  0.333  0.238-   4 2.93   9 2.93   1 2.93  15 2.93   8 2.93  12 2.93   3 2.93   5 2.93
                            14 2.93
   7  0.000  0.667  0.238-   8 2.93   1 2.93   5 2.93   3 2.93   4 2.93  16 2.93  18 2.93  13 2.93
                             9 2.93
   8  0.333  0.667  0.238-   7 2.93   1 2.93   2 2.93   9 2.93   5 2.93  16 2.93   6 2.93  17 2.93
                            14 2.93
   9  0.667  0.667  0.238-   3 2.93   2 2.93   8 2.93   6 2.93  17 2.93   4 2.93  15 2.93   7 2.93
                            18 2.93
  10  0.111  0.111  0.346-  20 2.91  19 2.92  26 2.92  12 2.93  16 2.93  15 2.93  17 2.93  13 2.93
                            11 2.93   2 2.93   1 2.93   4 2.93
  11  0.444  0.111  0.346-  21 2.90  20 2.90  27 2.92  14 2.93  17 2.93  18 2.93   3 2.93  12 2.93
                            13 2.93  10 2.93   5 2.93   2 2.93
  12  0.778  0.111  0.346-  21 2.91  25 2.92  19 2.92  10 2.93  16 2.93  18 2.93  15 2.93  11 2.93
                             1 2.93  14 2.93   6 2.93   3 2.93
  13  0.111  0.444  0.346-  20 2.90  23 2.90  22 2.92  15 2.93  14 2.93  18 2.93  10 2.93  11 2.93
                            16 2.93   4 2.93   5 2.93   7 2.93
  14  0.444  0.444  0.346-  23 2.90  21 2.90  24 2.92  13 2.93  11 2.93  16 2.93   5 2.93  12 2.93
                            17 2.93   8 2.93  15 2.93   6 2.93
  15  0.778  0.444  0.346-  24 2.92  22 2.92  19 2.92  13 2.93  10 2.93  12 2.93  17 2.93  18 2.93
                             4 2.93   6 2.93   9 2.93  14 2.93
  16  0.111  0.778  0.346-  23 2.91  26 2.92  25 2.92  18 2.93  12 2.93  10 2.93  14 2.93  17 2.93
                            13 2.93   7 2.93   8 2.93   1 2.93
  17  0.444  0.778  0.346-  27 2.92  24 2.92  26 2.92  11 2.93  10 2.93   9 2.93  18 2.93  15 2.93
                            16 2.93   2 2.93  14 2.93   8 2.93
  18  0.778  0.778  0.346-  22 2.92  27 2.92  25 2.92  16 2.93  12 2.93  13 2.93  11 2.93  17 2.93
                            15 2.93   7 2.93   3 2.93   9 2.93
  19  0.889  0.222  0.453-  28 2.91  15 2.92  10 2.92  12 2.92  24 2.93  22 2.93  26 2.93  25 2.93
                            20 2.94  21 2.94  32 2.96  31 2.96
  20  0.223  0.223  0.453-  36 2.75  13 2.90  11 2.90  10 2.91  21 2.92  23 2.92  31 2.92  29 2.92
                            27 2.93  22 2.93  19 2.94  26 2.94
  21  0.555  0.223  0.453-  36 2.75  11 2.90  14 2.90  12 2.91  20 2.92  23 2.92  30 2.92  32 2.92
                            27 2.93  24 2.93  25 2.94  19 2.94
  22  0.889  0.556  0.453-  18 2.92  15 2.92  35 2.92  13 2.92  24 2.93  27 2.93  25 2.93  19 2.93
                            23 2.93  20 2.93  33 2.94  31 2.94
  23  0.223  0.555  0.453-  36 2.75  14 2.90  13 2.90  16 2.91  21 2.92  20 2.92  34 2.92  33 2.92
                            22 2.93  24 2.93  26 2.94  25 2.94
  24  0.556  0.556  0.453-  15 2.92  17 2.92  35 2.92  14 2.92  27 2.93  22 2.93  19 2.93  26 2.93
                            23 2.93  21 2.93  32 2.94  34 2.94
  25  0.889  0.889  0.453-  28 2.91  18 2.92  16 2.92  12 2.92  22 2.93  27 2.93  26 2.93  19 2.93
                            23 2.94  21 2.94  33 2.96  30 2.96
  26  0.222  0.889  0.453-  28 2.91  17 2.92  16 2.92  10 2.92  27 2.93  24 2.93  25 2.93  19 2.93
                            23 2.94  20 2.94  34 2.96  29 2.96
  27  0.556  0.889  0.453-  17 2.92  18 2.92  35 2.92  11 2.92  24 2.93  22 2.93  26 2.93  25 2.93
                            20 2.93  21 2.93  29 2.94  30 2.94
  28  0.000  0.000  0.560-  26 2.91  25 2.91  19 2.91  29 2.96  34 2.96  33 2.96  32 2.96  31 2.96
                            30 2.96
  29  0.334  0.006  0.562-  30 2.87  31 2.88  36 2.89  20 2.92  27 2.94  35 2.96  28 2.96  26 2.96
                            34 3.04
  30  0.660  0.006  0.562-  29 2.87  32 2.88  36 2.89  21 2.92  27 2.94  35 2.96  28 2.96  25 2.96
                            33 3.04
  31  0.006  0.334  0.562-  33 2.87  29 2.88  36 2.89  20 2.92  22 2.94  35 2.96  28 2.96  19 2.96
                            32 3.04
  32  0.660  0.334  0.562-  34 2.87  30 2.88  36 2.89  21 2.92  24 2.94  35 2.96  28 2.96  19 2.96
                            31 3.04
  33  0.006  0.660  0.562-  31 2.87  34 2.88  36 2.89  23 2.92  22 2.94  35 2.96  28 2.96  25 2.96
                            30 3.04
  34  0.334  0.660  0.562-  32 2.87  33 2.88  36 2.89  23 2.92  24 2.94  35 2.96  28 2.96  26 2.96
                            29 3.04
  35  0.667  0.667  0.561-  24 2.92  27 2.92  22 2.92  30 2.96  32 2.96  29 2.96  34 2.96  31 2.96
                            33 2.96
  36  0.333  0.333  0.551-  37 1.63  21 2.75  20 2.75  23 2.75  31 2.89  33 2.89  30 2.89  29 2.89
                            34 2.89  32 2.89
  37  0.333  0.333  0.624-  36 1.63

  LATTYP: Found a hexagonal cell.
 ALAT       =     8.7913665772
 C/A-ratio  =     2.5227160501

  Lattice vectors:

 A1 = (  -4.3956832886,  -7.6135467898,   0.0000000000)
 A2 = (   8.7913665771,   0.0000000000,   0.0000000000)
 A3 = (   0.0000000000,   0.0000000000,  22.1781215668)

Analysis of symmetry for initial positions (statically):
 Subroutine PRICEL returns:
 Original cell was already a primitive cell.

 Routine SETGRP: Setting up the symmetry group for a
 hexagonal supercell.

 Subroutine GETGRP returns: Found  6 space group operations
 (whereof  6 operations were pure point group operations)
 out of a pool of 24 trial point group operations.

The static configuration has the point symmetry C_3v.

Analysis of symmetry for dynamics (positions and initial velocities):
 Subroutine PRICEL returns:
 Original cell was already a primitive cell.

[...]

The dynamic configuration has the point symmetry C_3v.

Analysis of constrained symmetry for selective dynamics:
 Subroutine PRICEL returns:
 Original cell was already a primitive cell.

 Routine SETGRP: Setting up the symmetry group for a
 hexagonal supercell.

 Subroutine GETGRP returns: Found  6 space group operations
 (whereof  6 operations were pure point group operations)
 out of a pool of 24 trial point group operations.

[...]
     24      -4.7009      2.00000
     25      -4.6807      2.00000
     26      -4.6588      2.00000
     27      -4.6416      2.00000
     28      -4.6222      2.00000
     29      -4.6195      2.00000
     30      -4.6022      2.00000
     31      -4.5963      2.00000
     32      -4.5813      2.00000
     33      -4.5572      2.00000
     34      -4.5243      2.00000
     35      -4.4916      2.00000
     36      -4.4682      2.00000
     37      -4.4632      2.00000
     38      -4.4345      2.00000
     39      -4.4094      2.00000
     40      -4.3952      2.00000
     41      -4.3801      2.00000
     42      -4.3770      2.00000
     43      -4.3572      2.00000
     44      -4.2889      2.00000
     45      -4.2562      2.00000
     46      -4.2387      2.00000
     47      -4.2298      2.00000
     48      -4.2258      2.00000
     49      -4.2182      2.00000
     50      -4.2099      2.00000
     51      -4.2002      2.00000
     52      -4.1927      2.00000
     53      -4.1836      2.00000
     54      -4.1277      2.00000
     55      -4.1111      2.00000
     56      -4.1091      2.00000
     57      -4.0953      2.00000
     58      -4.0858      2.00000
     59      -4.0628      2.00000
     60      -4.0580      2.00000
[...]
    238       6.1914      0.00000
    239       6.3031      0.00000
    240       6.3318      0.00000
    241       7.0332      0.00000
    242       7.1397      0.00000
    243       7.1747      0.00000
    244       7.2093      0.00000
    245       7.2602      0.00000
    246       7.2820      0.00000
    247       7.3149      0.00000
    248       7.4348      0.00000
    249       7.5299      0.00000
    250       7.5623      0.00000
    251       7.5825      0.00000
    252       7.6885      0.00000

 soft charge-density along one line, spin component           1
         0         1         2         3         4         5         6         7         8         9
 total charge-density along one line

------------------------ aborting loop because EDIFF is reached ----------------------------------------

 total charge

# of ion       s       p       d       tot
    1        0.421   0.202   9.178   9.800
    2        0.416   0.204   9.177   9.797
    3        0.416   0.204   9.177   9.797
    4        0.416   0.204   9.177   9.797
    5        0.417   0.202   9.177   9.796
    6        0.416   0.204   9.177   9.797
    7        0.416   0.204   9.177   9.797
    8        0.416   0.204   9.177   9.797
    9        0.415   0.204   9.177   9.796
   10        0.407   0.270   9.165   9.841
   11        0.404   0.272   9.166   9.841
   12        0.407   0.270   9.165   9.841
   13        0.404   0.272   9.166   9.841
   14        0.404   0.272   9.166   9.841
   15        0.403   0.271   9.165   9.839
   16        0.407   0.270   9.165   9.841
   17        0.403   0.271   9.165   9.839
   18        0.403   0.271   9.165   9.839
   19        0.402   0.264   9.168   9.835
   20        0.431   0.296   9.141   9.868
   21        0.431   0.296   9.141   9.868
   22        0.396   0.276   9.163   9.836
   23        0.431   0.296   9.141   9.868
   24        0.396   0.276   9.163   9.836
   25        0.402   0.264   9.168   9.835
   26        0.402   0.264   9.168   9.835
   27        0.396   0.276   9.163   9.836
   28        0.417   0.197   9.175   9.790
   29        0.422   0.208   9.171   9.801
   30        0.422   0.208   9.171   9.801
   31        0.422   0.208   9.171   9.801
   32        0.422   0.208   9.171   9.801
   33        0.422   0.208   9.171   9.801
   34        0.422   0.208   9.171   9.801
   35        0.416   0.202   9.173   9.790
   36        0.538   0.689   3.680   4.908
   37        1.609   3.288   0.000   4.897
tot         16.594  12.402 324.551 353.547

  FORCE on cell =-STRESS in cart. coord.  units (eV):
  Direction    XX          YY          ZZ          XY          YZ          ZX
  Alpha Z   744.68143   744.68143   744.68143
  Ewald  119431.41197119431.41194************     0.00001    -0.00001     0.00003
  Hartree129612.29187129612.29186************     0.00001    -0.00000     0.00001
  E(xc)   -2080.41004 -2080.41004 -2086.98001     0.00000     0.00000     0.00000
  Local  ************************260227.26210     0.00046    -0.00004    -0.00015
  n-local  -348.50875  -331.30077  -340.56626     9.78388    -0.47558     0.52259
  augment  3245.70274  3245.70290  3253.63328    -0.00014    -0.00001     0.00002
  Kinetic  4931.84118  4933.90239  4948.79382     3.00599     0.96630    -0.41228
  Fock        0.00000     0.00000     0.00000     0.00000     0.00000     0.00000
  Total      -7.79663    -7.79663    -0.95186    -0.00000     0.00000    -0.00000
  in kB      -8.41491    -8.41491    -1.02734    -0.00000     0.00000    -0.00000

 VOLUME and BASIS-vectors are now :
  energy-cutoff  :      500.00
  volume of cell :     1484.46
      direct lattice vectors                 reciprocal lattice vectors
     8.791366577  0.000000000  0.000000000     0.113747958 -0.065672414  0.000000000
     4.395683289  7.613546790  0.000000000     0.000000000  0.131344829  0.000000000
     0.000000000  0.000000000 22.178121567     0.000000000  0.000000000  0.045089481

  length of vectors
     8.791366577  8.791366577 22.178121567     0.131344829  0.131344829  0.045089481

 FORCES acting on ions
    electron-ion (+dipol)            ewald-force                    non-local-force                 convergence-correction
   0.461E-04 -.281E-04 0.249E+04   -.953E-04 0.593E-04 -.249E+04   0.303E-17 0.566E-17 -.180E+01   -.141E-03 -.188E-03 -.116E-01
   -.506E-01 0.364E-01 0.249E+04   -.710E-01 -.694E-01 -.249E+04   0.164E-01 0.382E-01 -.165E+01   0.102E+00 -.151E-02 -.214E-02
   0.506E-01 0.364E-01 0.249E+04   0.711E-01 -.694E-01 -.249E+04   -.164E-01 0.382E-01 -.165E+01   -.102E+00 0.372E-03 -.137E-02
   0.626E-02 -.621E-01 0.249E+04   -.957E-01 -.267E-01 -.249E+04   0.412E-01 -.492E-02 -.165E+01   0.498E-01 0.891E-01 -.213E-02
   -.585E-05 -.187E-04 0.249E+04   0.981E-04 -.200E-05 -.249E+04   0.112E-17 0.166E-17 -.162E+01   0.622E-02 0.380E-02 0.884E-01
   -.627E-02 -.620E-01 0.249E+04   0.955E-01 -.268E-01 -.249E+04   -.412E-01 -.492E-02 -.165E+01   -.512E-01 0.899E-01 -.133E-02
   0.569E-01 0.256E-01 0.249E+04   -.247E-01 0.962E-01 -.249E+04   0.249E-01 -.332E-01 -.165E+01   -.504E-01 -.882E-01 -.135E-02
   -.568E-01 0.256E-01 0.249E+04   0.246E-01 0.961E-01 -.249E+04   -.249E-01 -.332E-01 -.165E+01   0.519E-01 -.892E-01 -.132E-02
   0.364E-04 -.131E-04 0.249E+04   0.792E-04 -.642E-04 -.249E+04   -.365E-17 -.222E-17 -.169E+01   -.661E-02 -.340E-02 0.190E-01
   0.940E+00 0.543E+00 0.830E+03   -.822E+00 -.474E+00 -.830E+03   -.262E+00 -.151E+00 -.594E+00   0.135E+00 0.780E-01 0.483E+00
   -.287E-04 0.558E+00 0.831E+03   0.409E-04 -.100E+01 -.831E+03   0.121E-11 0.184E+00 -.523E+00   0.654E-02 0.211E+00 0.446E+00
   -.940E+00 0.543E+00 0.830E+03   0.822E+00 -.474E+00 -.830E+03   0.262E+00 -.151E+00 -.594E+00   -.137E+00 0.788E-01 0.483E+00
   0.483E+00 -.279E+00 0.831E+03   -.868E+00 0.501E+00 -.831E+03   0.159E+00 -.921E-01 -.523E+00   0.186E+00 -.100E+00 0.446E+00
   -.483E+00 -.279E+00 0.831E+03   0.868E+00 0.501E+00 -.831E+03   -.159E+00 -.921E-01 -.523E+00   -.176E+00 -.101E+00 0.444E+00
   0.154E-04 0.507E+00 0.831E+03   -.108E-03 -.549E+00 -.831E+03   0.325E-12 0.495E-01 -.619E+00   -.148E-02 -.170E-01 0.427E+00
   -.810E-05 -.109E+01 0.830E+03   0.207E-04 0.949E+00 -.830E+03   0.199E-11 0.302E+00 -.594E+00   -.196E-03 -.158E+00 0.483E+00
   0.439E+00 -.254E+00 0.831E+03   -.475E+00 0.274E+00 -.831E+03   0.429E-01 -.248E-01 -.619E+00   -.155E-01 0.723E-02 0.427E+00
   -.439E+00 -.254E+00 0.831E+03   0.475E+00 0.274E+00 -.831E+03   -.429E-01 -.248E-01 -.619E+00   0.160E-01 0.920E-02 0.428E+00
   0.392E-04 -.321E+01 -.852E+03   -.126E-03 0.299E+01 0.850E+03   0.752E-12 0.115E+00 0.898E+00   -.502E-02 0.932E-01 0.538E+00
   -.129E+02 -.745E+01 -.857E+03   0.132E+02 0.764E+01 0.856E+03   -.793E+00 -.458E+00 -.340E+00   0.314E+00 0.181E+00 0.841E+00
   0.129E+02 -.745E+01 -.857E+03   -.132E+02 0.764E+01 0.856E+03   0.793E+00 -.458E+00 -.340E+00   -.324E+00 0.180E+00 0.841E+00
   -.565E+01 0.326E+01 -.847E+03   0.525E+01 -.303E+01 0.846E+03   0.243E+00 -.140E+00 0.636E+00   0.192E+00 -.109E+00 0.469E+00
   -.531E-04 0.149E+02 -.857E+03   0.387E-04 -.153E+02 0.856E+03   0.601E-11 0.916E+00 -.340E+00   -.540E-02 -.370E+00 0.841E+00
   0.565E+01 0.326E+01 -.847E+03   -.525E+01 -.303E+01 0.846E+03   -.243E+00 -.140E+00 0.636E+00   -.190E+00 -.109E+00 0.469E+00
   0.278E+01 0.161E+01 -.852E+03   -.259E+01 -.149E+01 0.850E+03   -.992E-01 -.573E-01 0.898E+00   -.885E-01 -.513E-01 0.538E+00
   -.278E+01 0.161E+01 -.852E+03   0.259E+01 -.149E+01 0.850E+03   0.992E-01 -.573E-01 0.898E+00   0.779E-01 -.511E-01 0.538E+00
   0.203E-04 -.653E+01 -.847E+03   0.110E-03 0.606E+01 0.846E+03   0.184E-11 0.280E+00 0.636E+00   0.111E-02 0.220E+00 0.469E+00
   0.538E-04 -.365E-04 -.247E+04   -.114E-03 0.772E-04 0.247E+04   0.308E-17 -.280E-17 0.174E+01   -.597E-04 -.169E-03 0.949E-01
   0.676E+01 0.646E+01 -.246E+04   -.641E+01 -.638E+01 0.246E+04   -.582E+00 -.731E+00 0.225E+01   0.131E+00 0.477E+00 -.157E-01
   -.676E+01 0.646E+01 -.246E+04   0.641E+01 -.638E+01 0.246E+04   0.582E+00 -.731E+00 0.225E+01   -.132E+00 0.478E+00 -.163E-01
   0.898E+01 0.262E+01 -.246E+04   -.874E+01 -.236E+01 0.246E+04   -.924E+00 -.138E+00 0.225E+01   0.479E+00 -.124E+00 -.156E-01
   -.898E+01 0.262E+01 -.246E+04   0.874E+01 -.236E+01 0.246E+04   0.924E+00 -.138E+00 0.225E+01   -.479E+00 -.124E+00 -.153E-01
   0.222E+01 -.909E+01 -.246E+04   -.232E+01 0.874E+01 0.246E+04   -.343E+00 0.870E+00 0.225E+01   0.348E+00 -.353E+00 -.163E-01
   -.222E+01 -.909E+01 -.246E+04   0.232E+01 0.874E+01 0.246E+04   0.343E+00 0.870E+00 0.225E+01   -.347E+00 -.353E+00 -.154E-01
   0.242E-04 -.128E-04 -.247E+04   0.105E-03 -.656E-04 0.247E+04   0.337E-17 -.546E-17 0.181E+01   -.617E-02 -.313E-02 0.490E-01
   -.151E-04 -.470E-05 -.938E+03   0.479E-04 0.613E-05 0.940E+03   0.845E-18 0.366E-19 -.102E+01   0.953E-03 0.581E-03 0.633E-02
   0.177E-03 -.961E-04 -.159E+04   0.315E-04 0.513E-06 0.162E+04   -.303E-19 -.731E-19 -.267E+02   0.341E-02 0.209E-02 -.829E+00
   0.536E-03 -.778E-03 0.183E+02   -.428E-14 -.155E-12 -.568E-11   -.162E-15 0.328E-15 -.273E+02   -.157E-01 -.575E-02 0.892E+01

 POSITION                                       TOTAL-FORCE (eV/Angst)
      0.00000      0.00000      5.28219        -0.000000     -0.000000     -0.010654
      2.93046      0.00000      5.28219        -0.002836      0.004685      0.037160
      5.86091      0.00000      5.28219         0.002836      0.004685      0.037160
      1.46523      2.53785      5.28219         0.002639     -0.004798      0.037160
      4.39568      2.53785      5.28219        -0.000000     -0.000000      0.004866
      7.32614      2.53785      5.28219        -0.002639     -0.004798      0.037160
      2.93046      5.07570      5.28219         0.005475      0.000113      0.037160
      5.86091      5.07570      5.28219        -0.005475      0.000113      0.037160
      8.79137      5.07570      5.28219        -0.000000     -0.000000      0.026938
      1.46523      0.84595      7.67490        -0.007578     -0.004375     -0.033436
      4.39568      0.84595      7.67490        -0.000000     -0.051404     -0.046497
      7.32614      0.84595      7.67490         0.007578     -0.004375     -0.033436
      2.93046      3.38380      7.67490        -0.044517      0.025702     -0.046497
      5.86091      3.38380      7.67490         0.044517      0.025702     -0.046497
      8.79137      3.38380      7.67490        -0.000000     -0.009488      0.020741
      4.39568      5.92165      7.67490         0.000000      0.008751     -0.033436
      7.32614      5.92165      7.67490        -0.008217      0.004744      0.020741
     10.25659      5.92165      7.67490         0.008217      0.004744      0.020741
      8.79137      1.69254     10.05636        -0.000000     -0.016083      0.011316
      2.93602      1.69511     10.03837        -0.150599     -0.086948     -0.113301
      5.85534      1.69511     10.03837         0.150599     -0.086948     -0.113301
     10.25423      4.23112     10.05516         0.027684     -0.015983      0.020316
      4.39568      4.22332     10.03837         0.000000      0.173897     -0.113301
      7.32851      4.23112     10.05516        -0.027684     -0.015983      0.020316
     11.72126      6.76728     10.05636         0.013928      0.008041      0.011316
      5.86147      6.76728     10.05636        -0.013928      0.008041      0.011316
      8.79137      6.76486     10.05516         0.000000      0.031966      0.020316
      0.00000      0.00000     12.42937        -0.000000     -0.000000     -0.006574
      2.95945      0.04653     12.45339        -0.100603     -0.175996     -0.150112
      5.83191      0.04653     12.45339         0.100603     -0.175996     -0.150112
      1.52003      2.53970     12.45339        -0.202718      0.000873     -0.150112
      7.27134      2.53970     12.45339         0.202718      0.000873     -0.150112
      2.95626      5.02732     12.45339        -0.102115      0.175122     -0.150112
      5.83511      5.02732     12.45339         0.102115      0.175122     -0.150112
      8.79137      5.07570     12.43676        -0.000000     -0.000000      0.002149
      4.39568      2.53785     12.21669        -0.000000     -0.000000      1.067051
      4.39568      2.53785     13.84765        -0.000000     -0.000000      0.016518
    total drift:                               -0.015171     -0.006531      0.016060

  FREE ENERGIE OF THE ION-ELECTRON SYSTEM (eV)
  free  energy   TOTEN  =      -104.17565375 eV

  energy  without entropy=     -104.17565375  energy(sigma->0) =     -104.17565375

 stress matrix after NEB project (eV)
     -7.79663     -0.00000     -0.00000
     -0.00000     -7.79663     -0.00000
     -0.00000      0.00000     -0.95186
  FORCES: max atom, RMS     0.016518    0.002716
  FORCE total and by dimension    0.016518    0.016518
  Stress total and by dimension   11.067110    7.796630
|           W    W    AA    RRRRR   N    N  II  N    N   GGGG   !!!           |
|           W    W   A  A   R    R  NN   N  II  NN   N  G    G  !!!           |
|           W    W  A    A  R    R  N N  N  II  N N  N  G       !!!           |
|           W WW W  AAAAAA  RRRRR   N  N N  II  N  N N  G  GGG   !            |
|           WW  WW  A    A  R   R   N   NN  II  N   NN  G    G                |
|           W    W  A    A  R    R  N    N  II  N    N   GGGG   !!!           |
|     Tetrahedron method does not include variations of the Fermi             |
|     occupations, so forces and stress will be inaccurate. We suggest        |
|     using a different smearing scheme ISMEAR = 1 or 2 for metals in         |
|     relaxations.                                                            |

 total charge

# of ion       s       p       d       tot
    1        0.421   0.202   9.178   9.800
    2        0.416   0.204   9.177   9.797
    3        0.416   0.204   9.177   9.797
    4        0.416   0.204   9.177   9.797
    5        0.417   0.202   9.177   9.796
    6        0.416   0.204   9.177   9.797
    7        0.416   0.204   9.177   9.797
    8        0.416   0.204   9.177   9.797
    9        0.415   0.204   9.177   9.796
   10        0.407   0.270   9.165   9.841
   11        0.404   0.272   9.166   9.841
   12        0.407   0.270   9.165   9.841
   13        0.404   0.272   9.166   9.841
   14        0.404   0.272   9.166   9.841
   15        0.403   0.271   9.165   9.839
   16        0.407   0.270   9.165   9.841
   17        0.403   0.271   9.165   9.839
   18        0.403   0.271   9.165   9.839
   19        0.402   0.264   9.168   9.835
   20        0.431   0.296   9.141   9.868
   21        0.431   0.296   9.141   9.868
   22        0.396   0.276   9.163   9.836
   23        0.431   0.296   9.141   9.868
   24        0.396   0.276   9.163   9.836
   25        0.402   0.264   9.168   9.835
   26        0.402   0.264   9.168   9.835
   27        0.396   0.276   9.163   9.836
   28        0.417   0.197   9.175   9.790
   29        0.422   0.208   9.171   9.801
   30        0.422   0.208   9.171   9.801
   31        0.422   0.208   9.171   9.801
   32        0.422   0.208   9.171   9.801
   33        0.422   0.208   9.171   9.801
   34        0.422   0.208   9.171   9.801
   35        0.416   0.202   9.173   9.790
   36        0.538   0.689   3.680   4.908
   37        1.609   3.288   0.000   4.897
tot         16.594  12.402 324.551 353.547

 BZINTS: Fermi energy:    0.770829;  396.000000 electrons
         Band energy:-0.134045E+04;  BLOECHL correction:   -0.029102