 vasp.6.2.0 18Jan21 (build Jun 12 2021 23:27:24) complex

 executed on             LinuxIFC date 2022.05.30  17:51:24

 INCAR:
   ISMEAR = -5
   SIGMA = 0.1
   ISPIN = 1
   EDIFF = 1.d-5
   EDIFFG = -0.01
   NSW = 0
   NELM = 150
   ENCUT = 500
   ISIF = 2
   IBRION = 2
   LREAL = Auto
   ALGO = Fast
   ICHARG = 11
   LORBIT = 10
   LCHARG = .F.
   LWAVE = .F.

 POTCAR:    PAW_PBE Cu 22Jun2005
 POTCAR:    PAW_PBE Ti 08Apr2002
 POTCAR:    PAW_PBE C 08Apr2002
|           W    W    AA    RRRRR   N    N  II  N    N   GGGG   !!!           |
|           W    W   A  A   R    R  NN   N  II  NN   N  G    G  !!!           |
|           W    W  A    A  R    R  N N  N  II  N N  N  G       !!!           |
|           W WW W  AAAAAA  RRRRR   N  N N  II  N  N N  G  GGG   !            |
|           WW  WW  A    A  R   R   N   NN  II  N   NN  G    G                |
|           W    W  A    A  R    R  N    N  II  N    N   GGGG   !!!           |
|     For optimal performance we recommend to set                             |
|       NCORE = 2 up to number-of-cores-per-socket                            |
|     This setting can greatly improve the performance of VASP for DFT.       |
|     The default, NCORE=1 might be grossly inefficient on modern             |
|     multi-core architectures or massively parallel machines. Do your        |
|     Unfortunately you need to use the default for GW and RPA                |
|     calculations (for HF NCORE is supported but not extensively tested      |
|     yet).                                                                   |

 POTCAR:    PAW_PBE Cu 22Jun2005
   VRHFIN =Cu: d10 p1

   TITEL  = PAW_PBE Cu 22Jun2005
   POMASS =   63.546; ZVAL   =   11.000    mass and valenz
   ENMAX  =  295.446; ENMIN  =  221.585 eV

 POTCAR:    PAW_PBE Ti 08Apr2002
   VRHFIN =Ti: d3 s1

   TITEL  = PAW_PBE Ti 08Apr2002
   POMASS =   47.880; ZVAL   =    4.000    mass and valenz
   ENMAX  =  178.330; ENMIN  =  133.747 eV

 POTCAR:    PAW_PBE C 08Apr2002
   VRHFIN =C: s2p2

   TITEL  = PAW_PBE C 08Apr2002
   POMASS =   12.011; ZVAL   =    4.000    mass and valenz
   ENMAX  =  400.000; ENMIN  =  300.000 eV

 Optimization of the real space projectors (new method)

 maximal supplied QI-value         = 16.25
 optimisation between [QCUT,QGAM] = [ 11.38, 22.75] = [ 36.24,144.96] Ry
 Optimized for a Real-space Cutoff    1.52 Angstroem

   l    n(q)    QCUT    max X(q) W(low)/X(q) W(high)/X(q)  e(spline)
   2      9    11.376     4.610    0.21E-03    0.10E-03    0.26E-06
   2      9    11.376     8.522    0.33E-03    0.16E-03    0.37E-06
   0     10    11.376    51.609    0.62E-04    0.20E-04    0.13E-06
   0     10    11.376    27.747    0.54E-04    0.20E-04    0.13E-06
   1     10    11.376    20.408    0.13E-04    0.99E-04    0.19E-06
   1     10    11.376    13.425    0.12E-04    0.87E-04    0.17E-06
 Optimization of the real space projectors (new method)

[...]

   l    n(q)    QCUT    max X(q) W(low)/X(q) W(high)/X(q)  e(spline)
   2     10    11.404    49.363    0.27E-03    0.67E-03    0.76E-06
   2     10    11.404    47.669    0.26E-03    0.65E-03    0.73E-06
   0     11    11.404    26.374    0.17E-03    0.20E-03    0.34E-06
   0     11    11.404    11.549    0.14E-03    0.16E-03    0.29E-06
   1     10    11.404     9.492    0.33E-04    0.56E-04    0.16E-06
 Optimization of the real space projectors (new method)

 maximal supplied QI-value         = 25.13
 optimisation between [QCUT,QGAM] = [ 11.31, 22.87] = [ 35.82,146.48] Ry
 Optimized for a Real-space Cutoff    1.00 Angstroem

   l    n(q)    QCUT    max X(q) W(low)/X(q) W(high)/X(q)  e(spline)
   0      7    11.310   115.676    0.43E-03    0.13E-02    0.19E-06
   0      7    11.310    87.132    0.43E-03    0.13E-02    0.18E-06
   1      6    11.310     4.429    0.42E-03    0.74E-03    0.11E-06
   1      6    11.310     2.733    0.34E-03    0.55E-03    0.92E-07
  PAW_PBE Cu 22Jun2005                  :
  PAW_PBE Ti 08Apr2002                  :
  PAW_PBE C 08Apr2002                   :

 POSCAR: Cu-Ti-C
  positions in direct lattice
  velocities in cartesian coordinates
 exchange correlation table for  LEXCH =        8
   RHO(1)=    0.500       N(1)  =     2000
   RHO(2)=  100.500       N(2)  =     4000

 VTST: version 3.2, (02/03/18)

 CHAIN: initializing optimizer

 OPT: Using VASP Conjugate-Gradient optimizer
 CHAIN: Read ICHAIN            0

 POSCAR: Cu-Ti-C
  positions in direct lattice
  velocities in cartesian coordinates

 ion  position               nearest neighbor table
   1  0.000  0.000  0.226-   7 2.57   3 2.57   4 2.57   2 2.57   6 2.57   8 2.57  12 2.57  10 2.57
                            16 2.57
   2  0.333  0.000  0.226-   8 2.57   9 2.57   5 2.57   1 2.57   3 2.57  11 2.57   4 2.57  10 2.57
                            17 2.57
   3  0.667  0.000  0.226-   1 2.57   7 2.57   6 2.57   9 2.57   2 2.57  12 2.57   5 2.57  18 2.57
                            11 2.57
   4  0.000  0.333  0.226-   5 2.57   6 2.57   1 2.57   7 2.57   2 2.57  13 2.57   9 2.57  10 2.57
                            15 2.57
   5  0.333  0.333  0.226-   4 2.57   2 2.57   7 2.57  13 2.57   8 2.57   6 2.57   3 2.57  11 2.57
                            14 2.57
   6  0.667  0.333  0.226-   4 2.57   9 2.57  15 2.57   3 2.57   1 2.57   8 2.57  14 2.57   5 2.57
                            12 2.57
   7  0.000  0.667  0.226-   1 2.57   3 2.57  16 2.57  18 2.57   4 2.57   5 2.57   8 2.57   9 2.57
                            13 2.57
   8  0.333  0.667  0.226-   9 2.57   2 2.57  17 2.57   6 2.57   1 2.57   7 2.57   5 2.57  14 2.57
                            16 2.57
   9  0.667  0.667  0.226-   8 2.57   6 2.57   2 2.57  17 2.57   3 2.57   7 2.57   4 2.57  15 2.57
                            18 2.57
  10  0.111  0.111  0.314-  26 2.55  19 2.55  11 2.57  12 2.57  13 2.57   1 2.57   2 2.57   4 2.57
                            15 2.57  16 2.57  17 2.57  20 2.57
  11  0.444  0.111  0.314-  27 2.56  20 2.56  21 2.56  10 2.57  13 2.57   2 2.57  17 2.57  14 2.57
                            12 2.57   5 2.57   3 2.57  18 2.57
  12  0.778  0.111  0.314-  19 2.55  25 2.55  15 2.57  10 2.57  14 2.57  18 2.57   3 2.57   1 2.57
                            16 2.57  11 2.57   6 2.57  21 2.57
  13  0.111  0.444  0.314-  22 2.56  23 2.56  20 2.56  16 2.57  18 2.57  10 2.57  11 2.57  14 2.57
                             5 2.57   4 2.57   7 2.57  15 2.57
  14  0.444  0.444  0.314-  24 2.56  21 2.56  23 2.56  15 2.57  17 2.57  12 2.57  16 2.57  13 2.57
                            11 2.57   6 2.57   8 2.57   5 2.57
  15  0.778  0.444  0.314-  19 2.55  24 2.56  22 2.56  14 2.57  17 2.57  12 2.57   6 2.57  18 2.57
                            10 2.57   9 2.57  13 2.57   4 2.57
  16  0.111  0.778  0.314-  25 2.55  26 2.55  18 2.57  13 2.57   7 2.57  14 2.57  17 2.57  12 2.57
                            10 2.57   8 2.57   1 2.57  23 2.57
  17  0.444  0.778  0.314-  26 2.55  27 2.56  24 2.56  14 2.57  15 2.57   8 2.57   9 2.57  11 2.57
                            16 2.57  18 2.57  10 2.57   2 2.57
  18  0.778  0.778  0.314-  25 2.55  22 2.56  27 2.56  16 2.57  13 2.57   7 2.57  15 2.57  12 2.57
                            17 2.57   9 2.57   3 2.57  11 2.57
  19  0.889  0.222  0.401-  12 2.55  10 2.55  15 2.55  25 2.56  26 2.56  28 2.56  22 2.57  24 2.57
                            21 2.57  20 2.57  32 2.57  31 2.57
  20  0.223  0.223  0.402-  23 2.55  21 2.55  11 2.56  13 2.56  27 2.57  22 2.57  29 2.57  31 2.57
                            10 2.57  26 2.57  19 2.57  36 2.66
  21  0.555  0.223  0.402-  20 2.55  23 2.55  14 2.56  11 2.56  24 2.57  27 2.57  32 2.57  30 2.57
                            12 2.57  19 2.57  25 2.57  36 2.66
  22  0.889  0.556  0.402-  18 2.56  15 2.56  13 2.56  31 2.56  33 2.56  24 2.56  27 2.56  23 2.57
                            20 2.57  19 2.57  25 2.57  35 2.57
  23  0.223  0.555  0.402-  20 2.55  21 2.55  13 2.56  14 2.56  22 2.57  24 2.57  33 2.57  34 2.57
                            16 2.57  25 2.57  26 2.57  36 2.66
  24  0.556  0.556  0.402-  15 2.56  17 2.56  14 2.56  32 2.56  34 2.56  22 2.56  27 2.56  21 2.57
                            23 2.57  19 2.57  26 2.57  35 2.57
  25  0.889  0.889  0.401-  12 2.55  16 2.55  18 2.55  19 2.56  26 2.56  28 2.56  22 2.57  27 2.57
                            21 2.57  23 2.57  33 2.57  30 2.57
  26  0.222  0.889  0.401-  10 2.55  16 2.55  17 2.55  25 2.56  19 2.56  28 2.56  27 2.57  24 2.57
                            20 2.57  23 2.57  29 2.57  34 2.57
  27  0.556  0.889  0.402-  17 2.56  18 2.56  11 2.56  29 2.56  30 2.56  24 2.56  22 2.56  20 2.57
                            21 2.57  26 2.57  25 2.57  35 2.57
  28  0.000  0.000  0.489-  33 2.56  30 2.56  31 2.56  29 2.56  32 2.56  34 2.56  25 2.56  19 2.56
                            26 2.56
  29  0.334  0.998  0.490-  34 2.53  35 2.55  28 2.56  27 2.56  20 2.57  26 2.57  30 2.58  36 2.59
                            31 2.59
  30  0.669  0.998  0.490-  33 2.53  35 2.55  28 2.56  27 2.56  21 2.57  25 2.57  29 2.58  36 2.59
                            32 2.59
  31  0.998  0.334  0.490-  32 2.53  35 2.55  28 2.56  22 2.56  20 2.57  19 2.57  33 2.58  36 2.59
                            29 2.59
  32  0.669  0.334  0.490-  31 2.53  35 2.55  28 2.56  24 2.56  21 2.57  19 2.57  34 2.58  36 2.59
                            30 2.59
  33  0.998  0.669  0.490-  30 2.53  35 2.55  28 2.56  22 2.56  23 2.57  25 2.57  31 2.58  36 2.59
                            34 2.59
  34  0.334  0.669  0.490-  29 2.53  35 2.55  28 2.56  24 2.56  23 2.57  26 2.57  32 2.58  36 2.59
                            33 2.59
  35  0.667  0.667  0.490-  34 2.55  32 2.55  29 2.55  30 2.55  33 2.55  31 2.55  24 2.57  27 2.57
                            22 2.57
  36  0.333  0.333  0.495-  37 1.81  31 2.59  29 2.59  33 2.59  32 2.59  34 2.59  30 2.59  23 2.66
                            20 2.66  21 2.66
  37  0.333  0.333  0.571-  36 1.81

  LATTYP: Found a hexagonal cell.
 ALAT       =     7.6967864036
 C/A-ratio  =     3.0908716217

  Lattice vectors:

 A1 = (  -3.8483927580,  -6.6656128093,   0.0000000000)
 A2 = (   7.6967864037,   0.0000000000,   0.0000000000)
 A3 = (   0.0000000000,   0.0000000000,  23.7897786731)

Analysis of symmetry for initial positions (statically):
 Subroutine PRICEL returns:
 Original cell was already a primitive cell.

 Routine SETGRP: Setting up the symmetry group for a
 hexagonal supercell.

 Subroutine GETGRP returns: Found  6 space group operations
 (whereof  6 operations were pure point group operations)
 out of a pool of 24 trial point group operations.

The static configuration has the point symmetry C_3v.

Analysis of symmetry for dynamics (positions and initial velocities):
 Subroutine PRICEL returns:
 Original cell was already a primitive cell.

[...]

The dynamic configuration has the point symmetry C_3v.

Analysis of constrained symmetry for selective dynamics:
 Subroutine PRICEL returns:
 Original cell was already a primitive cell.

 Routine SETGRP: Setting up the symmetry group for a
 hexagonal supercell.

 Subroutine GETGRP returns: Found  6 space group operations
 (whereof  6 operations were pure point group operations)
[...]
     24      -5.0234      2.00000
     25      -4.8775      2.00000
     26      -4.8709      2.00000
     27      -4.8189      2.00000
     28      -4.8119      2.00000
     29      -4.8082      2.00000
     30      -4.8016      2.00000
     31      -4.7954      2.00000
     32      -4.7750      2.00000
     33      -4.7397      2.00000
     34      -4.7354      2.00000
     35      -4.6781      2.00000
     36      -4.6334      2.00000
     37      -4.5916      2.00000
     38      -4.4896      2.00000
     39      -4.4757      2.00000
     40      -4.4090      2.00000
     41      -4.4063      2.00000
     42      -4.3964      2.00000
     43      -4.3658      2.00000
     44      -4.3585      2.00000
     45      -4.3554      2.00000
     46      -4.3497      2.00000
     47      -4.1673      2.00000
     48      -4.1613      2.00000
     49      -4.1469      2.00000
     50      -4.1245      2.00000
     51      -4.0859      2.00000
     52      -4.0814      2.00000
     53      -4.0655      2.00000
     54      -4.0612      2.00000
     55      -4.0484      2.00000
     56      -4.0269      2.00000
     57      -4.0084      2.00000
     58      -3.9972      2.00000
     59      -3.9928      2.00000
     60      -3.9800      2.00000
[...]
    238       5.7605      0.00000
    239       5.8049      0.00000
    240       5.8258      0.00000
    241       6.1045      0.00000
    242       6.1592      0.00000
    243       6.2643      0.00000
    244       6.2926      0.00000
    245       6.5163      0.00000
    246       6.5849      0.00000
    247       6.6435      0.00000
    248       6.6880      0.00000
    249       6.8025      0.00000
    250       7.0688      0.00000
    251       7.1038      0.00000
    252       7.2840      0.00000

 soft charge-density along one line, spin component           1
         0         1         2         3         4         5         6         7         8         9
 total charge-density along one line

------------------------ aborting loop because EDIFF is reached ----------------------------------------

 total charge

# of ion       s       p       d       tot
    1        0.449   0.284   9.188   9.921
    2        0.447   0.285   9.187   9.919
    3        0.447   0.285   9.187   9.919
    4        0.447   0.285   9.187   9.919
    5        0.452   0.283   9.185   9.920
    6        0.447   0.285   9.187   9.919
    7        0.447   0.285   9.187   9.919
    8        0.447   0.285   9.187   9.919
    9        0.448   0.284   9.188   9.920
   10        0.441   0.372   9.178   9.991
   11        0.443   0.366   9.180   9.989
   12        0.441   0.372   9.178   9.991
   13        0.443   0.366   9.180   9.989
   14        0.443   0.366   9.180   9.989
   15        0.440   0.372   9.176   9.988
   16        0.441   0.372   9.178   9.991
   17        0.440   0.372   9.176   9.988
   18        0.440   0.372   9.176   9.988
   19        0.441   0.372   9.178   9.991
   20        0.451   0.379   9.171  10.000
   21        0.451   0.379   9.171  10.000
   22        0.433   0.374   9.179   9.987
   23        0.451   0.379   9.171  10.000
   24        0.433   0.374   9.179   9.987
   25        0.441   0.372   9.178   9.991
   26        0.441   0.372   9.178   9.991
   27        0.433   0.374   9.179   9.987
   28        0.447   0.286   9.189   9.921
   29        0.467   0.295   9.176   9.938
   30        0.467   0.295   9.176   9.938
   31        0.467   0.295   9.176   9.938
   32        0.467   0.295   9.176   9.938
   33        0.467   0.295   9.176   9.938
   34        0.467   0.295   9.176   9.938
   35        0.446   0.288   9.188   9.922
   36        0.561   0.686   2.865   4.111
   37        1.007   1.159   0.000   2.166
tot         17.243  13.456 324.166 354.865

  FORCE on cell =-STRESS in cart. coord.  units (eV):
  Direction    XX          YY          ZZ          XY          YZ          ZX
  Alpha Z   784.25598   784.25598   784.25598
  Ewald  219042.11504219042.11472************     0.00035     0.00013     0.00016
  Hartree231518.32770231518.32773************     0.00002     0.00006     0.00006
  E(xc)   -2275.32077 -2275.32029 -2282.08160    -0.00041    -0.00004    -0.00006
  Local  ************************463560.13055     0.01860    -0.00059    -0.00089
  n-local  -760.75983  -749.50247  -773.36021     6.37453    -0.02640     0.18635
  augment  3311.92880  3311.94912  3334.37587    -0.01761     0.00033     0.00061
  Kinetic  3206.92957  3208.25012  3235.71628     2.72891     1.53497    -1.23697
  Fock        0.00000     0.00000     0.00000     0.00000     0.00000     0.00000
  Total      -5.85909    -5.85909    -3.00139     0.00000     0.00000    -0.00000
  in kB      -7.69131    -7.69132    -3.93997     0.00000     0.00000    -0.00000

 VOLUME and BASIS-vectors are now :
  energy-cutoff  :      500.00
  volume of cell :     1220.51
      direct lattice vectors                 reciprocal lattice vectors
     7.696786404  0.000000000  0.000000000     0.129924354 -0.075011849  0.000000000
     3.848392758  6.665612809  0.000000000     0.000000000  0.150023716  0.000000000
     0.000000000  0.000000000 23.789778673     0.000000000  0.000000000  0.042034859

  length of vectors
     7.696786404  7.696786404 23.789778673     0.150023716  0.150023716  0.042034859

 FORCES acting on ions
    electron-ion (+dipol)            ewald-force                    non-local-force                 convergence-correction
   -.424E-04 -.298E-06 0.368E+04   0.581E-04 -.427E-05 -.368E+04   0.104E-16 0.829E-18 -.226E+01   -.261E-03 -.127E-03 -.134E+00
   -.109E+01 -.133E+01 0.368E+04   0.949E+00 0.110E+01 -.368E+04   0.606E-01 0.185E+00 -.203E+01   0.783E-01 0.282E-01 -.126E+00
   0.109E+01 -.133E+01 0.368E+04   -.949E+00 0.110E+01 -.368E+04   -.606E-01 0.185E+00 -.203E+01   -.775E-01 0.307E-01 -.126E+00
   -.169E+01 -.282E+00 0.368E+04   0.143E+01 0.271E+00 -.368E+04   0.190E+00 -.399E-01 -.203E+01   0.636E-01 0.536E-01 -.126E+00
   -.638E-04 -.468E-05 0.368E+04   0.116E-03 -.101E-04 -.368E+04   0.185E-17 -.333E-17 -.158E+01   0.122E-01 0.740E-02 -.108E+00
   0.169E+01 -.281E+00 0.368E+04   -.143E+01 0.271E+00 -.368E+04   -.190E+00 -.399E-01 -.203E+01   -.652E-01 0.549E-01 -.125E+00
   -.603E+00 0.161E+01 0.368E+04   0.479E+00 -.137E+01 -.368E+04   0.130E+00 -.145E+00 -.203E+01   -.121E-01 -.825E-01 -.126E+00
   0.603E+00 0.161E+01 0.368E+04   -.479E+00 -.137E+01 -.368E+04   -.130E+00 -.145E+00 -.203E+01   0.156E-01 -.839E-01 -.125E+00
   -.144E-03 -.332E-04 0.368E+04   0.263E-03 0.204E-04 -.368E+04   -.217E-17 0.252E-17 -.220E+01   -.133E-01 -.680E-02 -.582E-01
   -.981E+01 -.566E+01 0.120E+04   0.988E+01 0.571E+01 -.120E+04   -.130E+00 -.748E-01 -.790E+00   0.498E-01 0.286E-01 0.149E+00
   -.876E-04 -.101E+02 0.118E+04   0.189E-03 0.101E+02 -.118E+04   -.380E-08 0.570E-01 -.581E+00   0.116E-01 -.522E-01 0.727E-01
   0.981E+01 -.566E+01 0.120E+04   -.988E+01 0.571E+01 -.120E+04   0.130E+00 -.748E-01 -.790E+00   -.511E-01 0.300E-01 0.148E+00
   -.873E+01 0.504E+01 0.118E+04   0.875E+01 -.505E+01 -.118E+04   0.494E-01 -.285E-01 -.581E+00   -.389E-01 0.366E-01 0.719E-01
   0.873E+01 0.504E+01 0.118E+04   -.875E+01 -.505E+01 -.118E+04   -.494E-01 -.285E-01 -.581E+00   0.626E-01 0.361E-01 0.714E-01
   -.137E-03 -.104E+01 0.120E+04   0.296E-03 0.866E+00 -.120E+04   -.532E-08 0.799E-01 -.101E+01   -.351E-02 0.906E-01 0.980E-01
   -.907E-04 0.113E+02 0.120E+04   0.187E-03 -.114E+02 -.120E+04   -.996E-08 0.150E+00 -.790E+00   -.630E-04 -.603E-01 0.148E+00
   -.899E+00 0.519E+00 0.120E+04   0.750E+00 -.433E+00 -.120E+04   0.692E-01 -.400E-01 -.101E+01   0.773E-01 -.482E-01 0.982E-01
   0.899E+00 0.519E+00 0.120E+04   -.751E+00 -.433E+00 -.120E+04   -.692E-01 -.400E-01 -.101E+01   -.767E-01 -.456E-01 0.987E-01
   -.709E-04 -.945E+01 -.126E+04   0.737E-04 0.952E+01 0.126E+04   -.936E-09 0.141E-01 0.113E+01   0.931E-03 -.202E-01 0.284E-01
   -.686E+02 -.396E+02 -.137E+04   0.690E+02 0.398E+02 0.137E+04   -.432E+00 -.250E+00 -.132E+00   -.618E-01 -.368E-01 -.279E-02
   0.686E+02 -.396E+02 -.137E+04   -.690E+02 0.398E+02 0.137E+04   0.432E+00 -.250E+00 -.132E+00   0.411E-01 -.355E-01 -.371E-02
   -.317E+02 0.183E+02 -.129E+04   0.315E+02 -.182E+02 0.128E+04   0.156E+00 -.902E-01 0.595E+00   0.184E-01 -.124E-01 -.371E-01
   -.714E-04 0.792E+02 -.137E+04   0.155E-03 -.796E+02 0.137E+04   -.332E-07 0.499E+00 -.132E+00   0.118E-01 0.526E-01 -.381E-02
   0.317E+02 0.183E+02 -.129E+04   -.315E+02 -.182E+02 0.128E+04   -.156E+00 -.902E-01 0.595E+00   -.204E-01 -.117E-01 -.372E-01
   0.819E+01 0.473E+01 -.126E+04   -.824E+01 -.476E+01 0.126E+04   -.122E-01 -.703E-02 0.113E+01   0.177E-01 0.112E-01 0.280E-01
   -.819E+01 0.473E+01 -.126E+04   0.824E+01 -.476E+01 0.126E+04   0.122E-01 -.703E-02 0.113E+01   -.164E-01 0.104E-01 0.285E-01
   -.131E-03 -.366E+02 -.129E+04   0.239E-03 0.364E+02 0.128E+04   -.120E-07 0.180E+00 0.595E+00   -.110E-02 0.236E-01 -.370E-01
   -.311E-04 0.208E-04 -.367E+04   0.469E-04 -.314E-04 0.367E+04   0.301E-17 -.445E-18 0.256E+01   0.323E-03 0.178E-03 -.991E-01
   -.510E+02 -.986E+02 -.366E+04   0.513E+02 0.990E+02 0.366E+04   -.320E+00 -.357E+00 0.217E+01   -.626E-01 -.605E-01 -.233E+00
   0.510E+02 -.986E+02 -.366E+04   -.513E+02 0.990E+02 0.366E+04   0.320E+00 -.357E+00 0.217E+01   0.628E-01 -.590E-01 -.232E+00
   -.111E+03 0.515E+01 -.366E+04   0.111E+03 -.505E+01 0.366E+04   -.469E+00 -.983E-01 0.217E+01   -.837E-01 -.243E-01 -.232E+00
   0.111E+03 0.515E+01 -.366E+04   -.111E+03 -.505E+01 0.366E+04   0.469E+00 -.983E-01 0.217E+01   0.837E-01 -.227E-01 -.232E+00
   -.599E+02 0.935E+02 -.366E+04   0.601E+02 -.939E+02 0.366E+04   -.149E+00 0.455E+00 0.217E+01   -.197E-01 0.844E-01 -.232E+00
   0.599E+02 0.935E+02 -.366E+04   -.601E+02 -.939E+02 0.366E+04   0.149E+00 0.455E+00 0.217E+01   0.230E-01 0.838E-01 -.232E+00
   -.120E-03 -.122E-04 -.369E+04   0.248E-03 0.318E-06 0.368E+04   0.454E-18 0.176E-17 0.272E+01   -.131E-01 -.651E-02 -.987E-01
   -.338E-04 -.836E-05 -.130E+04   0.467E-04 0.108E-04 0.130E+04   0.195E-19 0.150E-17 0.510E+00   0.429E-03 0.144E-03 -.201E+00
   0.507E-04 -.200E-04 -.151E+04   0.860E-05 0.441E-05 0.151E+04   0.394E-17 -.332E-18 -.249E+01   0.510E-03 0.286E-03 -.145E+00
   -.178E-03 -.643E-06 0.625E+01   0.250E-13 -.136E-12 -.227E-11   0.441E-17 -.219E-15 -.425E+01   0.142E-01 -.614E-02 -.207E+01

 POSITION                                       TOTAL-FORCE (eV/Angst)
      0.00000      0.00000      5.37156         0.000000     -0.000000      0.034305
      2.56560      0.00000      5.37156        -0.001510     -0.009916      0.057023
      5.13119      0.00000      5.37156         0.001510     -0.009916      0.057023
      1.28280      2.22187      5.37156        -0.009342      0.003650      0.057023
      3.84839      2.22187      5.37156         0.000000     -0.000000      0.058020
      6.41399      2.22187      5.37156         0.009342      0.003650      0.057023
      2.56560      4.44374      5.37156        -0.007832      0.006266      0.057023
      5.13119      4.44374      5.37156         0.007832      0.006266      0.057023
      7.69679      4.44374      5.37156         0.000000     -0.000000      0.039902
      1.28280      0.74062      7.46636         0.000388      0.000224     -0.079571
      3.84839      0.74062      7.46636        -0.000000      0.016929     -0.058330
      6.41399      0.74062      7.46636        -0.000388      0.000224     -0.079571
      2.56560      2.96249      7.46636         0.014661     -0.008465     -0.058330
      5.13119      2.96249      7.46636        -0.014661     -0.008465     -0.058330
      7.69679      2.96249      7.46636         0.000000     -0.001567     -0.047955
      3.84839      5.18437      7.46636         0.000000     -0.000447     -0.079571
      6.41399      5.18437      7.46636        -0.001357      0.000783     -0.047955
      8.97958      5.18437      7.46636         0.001357      0.000783     -0.047955
      7.69679      1.47704      9.53921        -0.000000      0.058370      0.140100
      2.57092      1.48432      9.56248        -0.114484     -0.066097     -0.125960
      5.12587      1.48432      9.56248         0.114484     -0.066097     -0.125960
      8.97870      3.70363      9.55579         0.018539     -0.010703      0.072958
      3.84839      3.69697      9.56248        -0.000000      0.132195     -0.125960
      6.41487      3.70363      9.55579        -0.018539     -0.010703      0.072958
     10.26602      5.92709      9.53921        -0.050550     -0.029185      0.140100
      5.12755      5.92709      9.53921         0.050550     -0.029185      0.140100
      7.69679      5.92397      9.55579        -0.000000      0.021407      0.072958
      0.00000      0.00000     11.63511         0.000000     -0.000000     -0.089070
      6.40848      6.64966     11.64831        -0.072901     -0.081528      0.130824
      8.98509      6.64966     11.64831         0.072901     -0.081528      0.130824
      8.96302      2.22507     11.64831        -0.107056     -0.022370      0.130824
      6.43055      2.22507     11.64831         0.107056     -0.022370      0.130824
     10.25132      4.45649     11.64831        -0.034155      0.103898      0.130824
      5.14225      4.45649     11.64831         0.034155      0.103898      0.130824
      7.69679      4.44374     11.65790         0.000000     -0.000000     -0.119794
      3.84839      2.22187     11.77538         0.000000     -0.000000     -0.721202
      3.84839      2.22187     13.58903         0.000000     -0.000000     -0.032968
    total drift:                                0.014026     -0.006139     -0.065271

  FREE ENERGIE OF THE ION-ELECTRON SYSTEM (eV)
  free  energy   TOTEN  =      -134.50788567 eV

  energy  without entropy=     -134.50788567  energy(sigma->0) =     -134.50788567

 stress matrix after NEB project (eV)
     -5.85909      0.00000     -0.00000
      0.00000     -5.85909      0.00000
     -0.00000      0.00000     -3.00139
  FORCES: max atom, RMS     0.032968    0.005420
  FORCE total and by dimension    0.032968    0.032968
  Stress total and by dimension    8.812839    5.859087
|           W    W    AA    RRRRR   N    N  II  N    N   GGGG   !!!           |
|           W    W   A  A   R    R  NN   N  II  NN   N  G    G  !!!           |
|           W    W  A    A  R    R  N N  N  II  N N  N  G       !!!           |
|           W WW W  AAAAAA  RRRRR   N  N N  II  N  N N  G  GGG   !            |
|           WW  WW  A    A  R   R   N   NN  II  N   NN  G    G                |
|           W    W  A    A  R    R  N    N  II  N    N   GGGG   !!!           |
|     Tetrahedron method does not include variations of the Fermi             |
|     occupations, so forces and stress will be inaccurate. We suggest        |
|     using a different smearing scheme ISMEAR = 1 or 2 for metals in         |
|     relaxations.                                                            |

 total charge

# of ion       s       p       d       tot
    1        0.449   0.284   9.188   9.921
    2        0.447   0.285   9.187   9.919
    3        0.447   0.285   9.187   9.919
    4        0.447   0.285   9.187   9.919
    5        0.452   0.283   9.185   9.920
    6        0.447   0.285   9.187   9.919
    7        0.447   0.285   9.187   9.919
    8        0.447   0.285   9.187   9.919
    9        0.448   0.284   9.188   9.920
   10        0.441   0.372   9.178   9.991
   11        0.443   0.366   9.180   9.989
   12        0.441   0.372   9.178   9.991
   13        0.443   0.366   9.180   9.989
   14        0.443   0.366   9.180   9.989
   15        0.440   0.372   9.176   9.988
   16        0.441   0.372   9.178   9.991
   17        0.440   0.372   9.176   9.988
   18        0.440   0.372   9.176   9.988
   19        0.441   0.372   9.178   9.991
   20        0.451   0.379   9.171  10.000
   21        0.451   0.379   9.171  10.000
   22        0.433   0.374   9.179   9.987
   23        0.451   0.379   9.171  10.000
   24        0.433   0.374   9.179   9.987
   25        0.441   0.372   9.178   9.991
   26        0.441   0.372   9.178   9.991
   27        0.433   0.374   9.179   9.987
   28        0.447   0.286   9.189   9.921
   29        0.467   0.295   9.176   9.938
   30        0.467   0.295   9.176   9.938
   31        0.467   0.295   9.176   9.938
   32        0.467   0.295   9.176   9.938
   33        0.467   0.295   9.176   9.938
   34        0.467   0.295   9.176   9.938
   35        0.446   0.288   9.188   9.922
   36        0.561   0.686   2.865   4.111
   37        1.007   1.159   0.000   2.166
tot         17.243  13.456 324.166 354.865

 BZINTS: Fermi energy:   -0.690217;  393.000000 electrons
         Band energy:-0.138850E+04;  BLOECHL correction:   -0.043968