 vasp.6.2.0 18Jan21 (build Jun 12 2021 23:27:24) complex

 executed on             LinuxIFC date 2022.05.27  05:01:53

 INCAR:
   ISMEAR = -5
   SIGMA = 0.1
   ISPIN = 1
   EDIFF = 1.d-5
   EDIFFG = -0.01
   NSW = 0
   NELM = 150
   ENCUT = 500
   ISIF = 2
   IBRION = 2
   LREAL = Auto
   ALGO = Fast
   ICHARG = 11
   LORBIT = 10
   LCHARG = .F.
   LWAVE = .F.

 POTCAR:    PAW_PBE Au 04Oct2007
 POTCAR:    PAW_PBE Mn 06Sep2000
 POTCAR:    PAW_PBE H 15Jun2001
|           W    W    AA    RRRRR   N    N  II  N    N   GGGG   !!!           |
|           W    W   A  A   R    R  NN   N  II  NN   N  G    G  !!!           |
|           W    W  A    A  R    R  N N  N  II  N N  N  G       !!!           |
|           W WW W  AAAAAA  RRRRR   N  N N  II  N  N N  G  GGG   !            |
|           WW  WW  A    A  R   R   N   NN  II  N   NN  G    G                |
|           W    W  A    A  R    R  N    N  II  N    N   GGGG   !!!           |
|     For optimal performance we recommend to set                             |
|       NCORE = 2 up to number-of-cores-per-socket                            |
|     This setting can greatly improve the performance of VASP for DFT.       |
|     The default, NCORE=1 might be grossly inefficient on modern             |
|     multi-core architectures or massively parallel machines. Do your        |
|     Unfortunately you need to use the default for GW and RPA                |
|     calculations (for HF NCORE is supported but not extensively tested      |
|     yet).                                                                   |

 POTCAR:    PAW_PBE Au 04Oct2007
   VRHFIN =Au: s1d10

   TITEL  = PAW_PBE Au 04Oct2007
   POMASS =  196.966; ZVAL   =   11.000    mass and valenz
   ENMAX  =  229.943; ENMIN  =  172.457 eV

 POTCAR:    PAW_PBE Mn 06Sep2000
   VRHFIN =Mn: d6 s1

   TITEL  = PAW_PBE Mn 06Sep2000
   POMASS =   54.938; ZVAL   =    7.000    mass and valenz
   ENMAX  =  269.864; ENMIN  =  202.398 eV

 POTCAR:    PAW_PBE H 15Jun2001
   VRHFIN =H: ultrasoft test

   TITEL  = PAW_PBE H 15Jun2001
   POMASS =    1.000; ZVAL   =    1.000    mass and valenz
   ENMAX  =  250.000; ENMIN  =  200.000 eV

 Optimization of the real space projectors (new method)

 maximal supplied QI-value         = 15.12
 optimisation between [QCUT,QGAM] = [ 11.34, 22.83] = [ 36.00,145.93] Ry
 Optimized for a Real-space Cutoff    1.39 Angstroem

   l    n(q)    QCUT    max X(q) W(low)/X(q) W(high)/X(q)  e(spline)
   2      9    11.338    60.898    0.39E-03    0.42E-03    0.21E-06
   2      9    11.338    58.894    0.40E-03    0.42E-03    0.22E-06
   0      9    11.338   109.617    0.13E-03    0.20E-04    0.13E-06
   0      9    11.338    75.026    0.13E-03    0.20E-04    0.13E-06
   1      9    11.338    16.344    0.33E-04    0.24E-03    0.18E-06
   1      9    11.338    10.160    0.26E-04    0.19E-03    0.15E-06
 Optimization of the real space projectors (new method)

[...]

   l    n(q)    QCUT    max X(q) W(low)/X(q) W(high)/X(q)  e(spline)
   2      8    11.376   110.144    0.49E-03    0.27E-04    0.26E-06
   2      8    11.376   103.200    0.49E-03    0.28E-04    0.27E-06
   0      9    11.376    68.437    0.57E-04    0.92E-04    0.15E-06
   0      9    11.376    33.971    0.51E-04    0.83E-04    0.14E-06
   1      9    11.376    17.065    0.34E-03    0.68E-04    0.14E-06
   1      9    11.376    12.540    0.27E-03    0.59E-04    0.11E-06
 Optimization of the real space projectors (new method)

 maximal supplied QI-value         = 34.20
 optimisation between [QCUT,QGAM] = [ 11.29, 22.57] = [ 35.68,142.71] Ry
 Optimized for a Real-space Cutoff    1.16 Angstroem

   l    n(q)    QCUT    max X(q) W(low)/X(q) W(high)/X(q)  e(spline)
   0      8    11.287    19.460    0.40E-03    0.73E-03    0.16E-06
   0      8    11.287    12.209    0.38E-03    0.70E-03    0.15E-06
   1      7    11.287     4.655    0.22E-03    0.25E-04    0.22E-06
  PAW_PBE Au 04Oct2007                  :
  PAW_PBE Mn 06Sep2000                  :
  PAW_PBE H 15Jun2001                   :

 POSCAR: Au-Mn-H2
  positions in direct lattice
  velocities in cartesian coordinates
 exchange correlation table for  LEXCH =        8
   RHO(1)=    0.500       N(1)  =     2000
   RHO(2)=  100.500       N(2)  =     4000

 VTST: version 3.2, (02/03/18)

 CHAIN: initializing optimizer

 OPT: Using VASP Conjugate-Gradient optimizer
 CHAIN: Read ICHAIN            0

 POSCAR: Au-Mn-H2
  positions in direct lattice
  velocities in cartesian coordinates

 ion  position               nearest neighbor table
   1  0.000  0.000  0.238-  16 2.94  12 2.94   6 2.94   8 2.94   7 2.94   3 2.94  10 2.94   4 2.94
                             2 2.94
   2  0.333  0.000  0.238-   9 2.94  11 2.94  17 2.94  10 2.94   8 2.94   4 2.94   5 2.94   1 2.94
                             3 2.94
   3  0.667  0.000  0.238-   7 2.94  18 2.94  12 2.94   1 2.94  11 2.94   5 2.94   6 2.94   9 2.94
                             2 2.94
   4  0.000  0.333  0.238-  10 2.94   6 2.94   5 2.94  13 2.94   2 2.94  15 2.94   9 2.94   1 2.94
                             7 2.94
   5  0.333  0.333  0.238-  13 2.94   7 2.94  11 2.94   4 2.94   2 2.94  14 2.94   3 2.94   8 2.94
                             6 2.94
   6  0.667  0.333  0.238-  15 2.94  14 2.94   1 2.94  12 2.94   4 2.94   9 2.94   8 2.94   3 2.94
                             5 2.94
   7  0.000  0.667  0.238-  18 2.94   3 2.94  16 2.94   5 2.94   1 2.94  13 2.94   8 2.94   4 2.94
                             9 2.94
   8  0.333  0.667  0.238-   9 2.94  17 2.94   1 2.94   2 2.94  14 2.94  16 2.94   6 2.94   7 2.94
                             5 2.94
   9  0.667  0.667  0.238-   2 2.94   8 2.94  17 2.94   6 2.94  15 2.94   4 2.94   3 2.94  18 2.94
                             7 2.94
  10  0.111  0.111  0.346-  20 2.93  26 2.94  19 2.94  11 2.94  17 2.94   2 2.94   4 2.94   1 2.94
                            12 2.94  16 2.94  13 2.94  15 2.94
  11  0.444  0.111  0.346-  20 2.91  21 2.91  27 2.93  13 2.94   2 2.94  10 2.94  17 2.94   5 2.94
                             3 2.94  18 2.94  14 2.94  12 2.94
  12  0.778  0.111  0.346-  21 2.93  25 2.94  19 2.94  16 2.94  18 2.94   1 2.94  14 2.94  15 2.94
                             3 2.94   6 2.94  10 2.94  11 2.94
  13  0.111  0.444  0.346-  23 2.91  20 2.91  22 2.93   5 2.94  18 2.94  11 2.94   7 2.94   4 2.94
                            16 2.94  10 2.94  14 2.94  15 2.94
  14  0.444  0.444  0.346-  21 2.91  23 2.91  24 2.93  15 2.94   6 2.94  12 2.94   8 2.94  17 2.94
                             5 2.94  16 2.94  13 2.94  11 2.94
  15  0.778  0.444  0.346-  24 2.92  22 2.92  19 2.94  14 2.94   6 2.94  17 2.94  12 2.94   9 2.94
                             4 2.94  10 2.94  13 2.94  18 2.94
  16  0.111  0.778  0.346-  23 2.93  25 2.94  26 2.94  18 2.94  12 2.94   7 2.94   1 2.94   8 2.94
                            13 2.94  10 2.94  14 2.94  17 2.94
  17  0.444  0.778  0.346-  27 2.92  24 2.92  26 2.94   9 2.94  15 2.94   2 2.94  10 2.94  11 2.94
                             8 2.94  14 2.94  16 2.94  18 2.94
  18  0.778  0.778  0.346-  22 2.92  27 2.92  25 2.94  16 2.94   7 2.94  13 2.94  12 2.94   3 2.94
                            11 2.94   9 2.94  15 2.94  17 2.94
  19  0.889  0.222  0.454-  10 2.94  12 2.94  15 2.94  26 2.94  25 2.94  24 2.94  22 2.94  28 2.95
                            21 2.95  20 2.95  32 2.99  31 2.99
  20  0.223  0.223  0.453-  36 2.70  23 2.91  21 2.91  11 2.91  13 2.91  29 2.92  31 2.92  10 2.93
                            26 2.95  19 2.95  27 2.95  22 2.95
  21  0.553  0.223  0.453-  36 2.70  20 2.91  23 2.91  14 2.91  11 2.91  30 2.92  32 2.92  12 2.93
                            25 2.95  19 2.95  27 2.95  24 2.95
  22  0.886  0.557  0.453-  24 2.91  27 2.91  18 2.92  15 2.92  13 2.93  25 2.94  19 2.94  23 2.95
                            20 2.95  33 2.96  31 2.96  35 2.96
  23  0.223  0.553  0.453-  36 2.70  20 2.91  21 2.91  13 2.91  14 2.91  33 2.92  34 2.92  16 2.93
                            25 2.95  26 2.95  22 2.95  24 2.95
  24  0.557  0.557  0.453-  27 2.91  22 2.91  15 2.92  17 2.92  14 2.93  26 2.94  19 2.94  21 2.95
                            23 2.95  32 2.96  34 2.96  35 2.96
  25  0.889  0.889  0.454-  16 2.94  12 2.94  18 2.94  19 2.94  26 2.94  22 2.94  27 2.94  28 2.95
                            23 2.95  21 2.95  33 2.99  30 2.99
  26  0.222  0.889  0.454-  10 2.94  16 2.94  17 2.94  19 2.94  25 2.94  27 2.94  24 2.94  28 2.95
                            20 2.95  23 2.95  29 2.99  34 2.99
  27  0.557  0.886  0.453-  24 2.91  22 2.91  17 2.92  18 2.92  11 2.93  26 2.94  25 2.94  20 2.95
                            21 2.95  29 2.96  30 2.96  35 2.96
  28  0.000  0.000  0.563-  25 2.95  19 2.95  26 2.95  34 2.99  32 2.99  33 2.99  30 2.99  31 2.99
                            29 2.99
  29  0.334  0.010  0.562-  30 2.84  31 2.85  36 2.86  20 2.92  27 2.96  35 2.98  26 2.99  28 2.99
                            34 3.12
  30  0.656  0.010  0.562-  29 2.84  32 2.85  36 2.86  21 2.92  27 2.96  35 2.98  25 2.99  28 2.99
                            33 3.12
  31  0.010  0.334  0.562-  33 2.84  29 2.85  36 2.86  20 2.92  22 2.96  35 2.98  19 2.99  28 2.99
                            32 3.12
  32  0.656  0.334  0.562-  34 2.84  30 2.85  36 2.86  21 2.92  24 2.96  35 2.98  19 2.99  28 2.99
                            31 3.12
  33  0.010  0.656  0.562-  31 2.84  34 2.85  36 2.86  23 2.92  22 2.96  35 2.98  25 2.99  28 2.99
                            30 3.12
  34  0.334  0.656  0.562-  32 2.84  33 2.85  36 2.86  23 2.92  24 2.96  35 2.98  26 2.99  28 2.99
                            29 3.12
  35  0.667  0.667  0.563-  24 2.96  27 2.96  22 2.96  29 2.98  34 2.98  32 2.98  31 2.98  30 2.98
                            33 2.98
  36  0.333  0.333  0.548-  38 1.65  37 1.65  20 2.70  23 2.70  21 2.70  33 2.86  31 2.86  29 2.86
                            30 2.86  34 2.86  32 2.86
  37  0.283  0.333  0.620-  38 0.89  36 1.65
  38  0.384  0.333  0.620-  37 0.89  36 1.65

  LATTYP: Found a hexagonal cell.
 ALAT       =     8.8135128021
 C/A-ratio  =     2.5184286595

  Lattice vectors:

 A1 = (  -4.4067569092,  -7.6327256898,   0.0000000000)
 A2 = (   8.8135128021,   0.0000000000,   0.0000000000)
 A3 = (   0.0000000000,   0.0000000000,  22.1962032318)

Analysis of symmetry for initial positions (statically):
 Subroutine PRICEL returns:
 Original cell was already a primitive cell.

 Routine SETGRP: Setting up the symmetry group for a
 hexagonal supercell.

 Subroutine GETGRP returns: Found  2 space group operations
 (whereof  2 operations were pure point group operations)
 out of a pool of 24 trial point group operations.

The static configuration has the point symmetry C_1h.

Analysis of symmetry for dynamics (positions and initial velocities):
 Subroutine PRICEL returns:
 Original cell was already a primitive cell.

[...]

The dynamic configuration has the point symmetry C_1h.

Analysis of constrained symmetry for selective dynamics:
 Subroutine PRICEL returns:
 Original cell was already a primitive cell.

 Routine SETGRP: Setting up the symmetry group for a
 hexagonal supercell.

 Subroutine GETGRP returns: Found  2 space group operations
[...]
     33      -4.7023      2.00000
     34      -4.6868      2.00000
     35      -4.6042      2.00000
     36      -4.5274      2.00000
     37      -4.5187      2.00000
     38      -4.4979      2.00000
     39      -4.4852      2.00000
     40      -4.4318      2.00000
     41      -4.3631      2.00000
     42      -4.3311      2.00000
     43      -4.2728      2.00000
     44      -4.2543      2.00000
     45      -4.2507      2.00000
     46      -4.2385      2.00000
     47      -4.1333      2.00000
     48      -4.1174      2.00000
     49      -4.0856      2.00000
     50      -4.0674      2.00000
     51      -4.0614      2.00000
     52      -4.0573      2.00000
     53      -4.0366      2.00000
     54      -4.0081      2.00000
     55      -3.9642      2.00000
     56      -3.9365      2.00000
     57      -3.9188      2.00000
     58      -3.9151      2.00000
     59      -3.8906      2.00000
     60      -3.8844      2.00000
[...]
    238       6.5748      0.00000
    239       6.6473      0.00000
    240       6.7164      0.00000
    241       6.8188      0.00000
    242       6.8473      0.00000
    243       7.0405      0.00000
    244       7.1401      0.00000
    245       7.2832      0.00000
    246       7.4612      0.00000
    247       7.5309      0.00000
    248       7.5543      0.00000
    249       7.6462      0.00000
    250       7.7181      0.00000
    251       7.7784      0.00000
    252       7.9115      0.00000

 soft charge-density along one line, spin component           1
         0         1         2         3         4         5         6         7         8         9
 total charge-density along one line

------------------------ aborting loop because EDIFF is reached ----------------------------------------

 total charge

# of ion       s       p       d       tot
    1        0.546   0.238   8.768   9.552
    2        0.544   0.241   8.764   9.550
    3        0.544   0.241   8.764   9.550
    4        0.545   0.241   8.765   9.551
    5        0.545   0.242   8.759   9.545
    6        0.545   0.241   8.765   9.551
    7        0.544   0.241   8.765   9.551
    8        0.544   0.241   8.765   9.551
    9        0.543   0.239   8.770   9.552
   10        0.522   0.308   8.768   9.599
   11        0.525   0.307   8.782   9.613
   12        0.522   0.308   8.768   9.599
   13        0.524   0.307   8.781   9.612
   14        0.524   0.307   8.781   9.612
   15        0.516   0.310   8.776   9.602
   16        0.524   0.309   8.767   9.599
   17        0.516   0.310   8.776   9.602
   18        0.516   0.310   8.776   9.602
   19        0.517   0.300   8.774   9.590
   20        0.551   0.332   8.749   9.633
   21        0.551   0.332   8.749   9.633
   22        0.509   0.311   8.776   9.596
   23        0.553   0.333   8.747   9.634
   24        0.509   0.311   8.776   9.596
   25        0.517   0.299   8.775   9.592
   26        0.517   0.299   8.775   9.592
   27        0.509   0.310   8.776   9.596
   28        0.539   0.223   8.764   9.526
   29        0.561   0.241   8.752   9.553
   30        0.561   0.241   8.752   9.553
   31        0.558   0.245   8.749   9.551
   32        0.558   0.245   8.749   9.551
   33        0.561   0.241   8.752   9.554
   34        0.561   0.241   8.752   9.554
   35        0.536   0.223   8.765   9.524
   36        0.272   0.295   5.068   5.635
   37        0.546   0.032   0.000   0.578
   38        0.546   0.032   0.000   0.578
tot         20.124  10.025 311.860 342.009

  FORCE on cell =-STRESS in cart. coord.  units (eV):
  Direction    XX          YY          ZZ          XY          YZ          ZX
  Alpha Z  1000.04063  1000.04063  1000.04063
  Ewald  119164.35572119143.08879************    -0.00032    -0.01923    -0.00015
  Hartree127767.87351127763.67326************     0.00000    -0.00940    -0.00004
  E(xc)   -1765.40460 -1765.66471 -1773.27788    -0.00000     0.00419    -0.00000
  Local  ************************259430.52047     0.00184     0.05732     0.00011
  n-local   -83.23753   -82.56363   -56.90767     4.83296     0.18720     0.16580
  augment  2393.72293  2393.79921  2411.74739    -0.00135    -0.06795     0.00003
  Kinetic  5428.30541  5433.53397  5486.24587     1.88080    -0.08364     0.20890
  Fock        0.00000     0.00000     0.00000     0.00000     0.00000     0.00000
  Total     -22.93019   -22.85075     2.50624    -0.00000     0.06848     0.00000
  in kB     -24.60429   -24.51905     2.68922    -0.00000     0.07348     0.00000

 VOLUME and BASIS-vectors are now :
  energy-cutoff  :      500.00
  volume of cell :     1493.16
      direct lattice vectors                 reciprocal lattice vectors
     8.813512802  0.000000000  0.000000000     0.113462137 -0.065507406  0.000000000
     4.406756909  7.632725690  0.000000000     0.000000000  0.131014796  0.000000000
     0.000000000  0.000000000 22.196203232     0.000000000  0.000000000  0.045052750

  length of vectors
     8.813512802  8.813512802 22.196203232     0.131014796  0.131014796  0.045052750

 FORCES acting on ions
    electron-ion (+dipol)            ewald-force                    non-local-force                 convergence-correction
   -.199E-04 -.249E-01 0.247E+04   0.519E-04 -.249E-02 -.247E+04   0.747E-09 0.112E-01 -.849E+00   -.296E-03 0.141E-01 -.195E+00
   0.493E+00 0.960E-01 0.247E+04   -.559E+00 -.202E+00 -.247E+04   0.619E-01 0.750E-01 -.266E+00   0.322E-02 0.413E-01 -.259E+00
   -.493E+00 0.960E-01 0.247E+04   0.559E+00 -.202E+00 -.247E+04   -.619E-01 0.750E-01 -.266E+00   -.284E-02 0.432E-01 -.259E+00
   0.353E+00 0.405E+00 0.247E+04   -.453E+00 -.384E+00 -.247E+04   0.809E-01 0.218E-02 -.274E+00   0.315E-01 -.272E-01 -.257E+00
   0.742E-05 -.843E-02 0.248E+04   0.951E-04 0.303E-03 -.248E+04   0.957E-09 0.144E-01 -.811E-01   0.432E-02 -.515E-02 -.261E+00
   -.353E+00 0.405E+00 0.247E+04   0.453E+00 -.384E+00 -.247E+04   -.809E-01 0.218E-02 -.274E+00   -.331E-01 -.263E-01 -.256E+00
   -.167E+00 -.493E+00 0.247E+04   0.106E+00 0.586E+00 -.247E+04   0.461E-01 -.810E-01 -.256E+00   0.196E-01 -.166E-01 -.266E+00
   0.167E+00 -.493E+00 0.247E+04   -.107E+00 0.586E+00 -.247E+04   -.461E-01 -.810E-01 -.256E+00   -.178E-01 -.178E-01 -.266E+00
   0.197E-04 0.107E-01 0.248E+04   0.166E-03 0.222E-02 -.247E+04   -.799E-09 -.120E-01 -.553E+00   -.456E-02 -.145E-02 -.279E+00
   0.392E+01 0.227E+01 0.812E+03   -.359E+01 -.209E+01 -.812E+03   -.292E+00 -.155E+00 -.684E+00   -.240E-01 -.629E-02 0.415E+00
   0.153E-04 0.397E+01 0.819E+03   0.147E-03 -.409E+01 -.819E+03   0.479E-08 0.719E-01 -.267E+00   0.436E-02 0.185E-03 0.449E+00
   -.392E+01 0.227E+01 0.812E+03   0.359E+01 -.209E+01 -.812E+03   0.292E+00 -.155E+00 -.684E+00   0.221E-01 -.505E-02 0.416E+00
   0.343E+01 -.192E+01 0.819E+03   -.353E+01 0.205E+01 -.819E+03   0.765E-01 -.621E-01 -.283E+00   -.119E-01 -.379E-01 0.436E+00
   -.343E+01 -.192E+01 0.819E+03   0.353E+01 0.205E+01 -.819E+03   -.765E-01 -.621E-01 -.283E+00   0.196E-01 -.390E-01 0.436E+00
   0.315E-04 0.401E+01 0.816E+03   0.236E-03 -.407E+01 -.816E+03   0.217E-08 0.327E-01 -.538E+00   -.249E-02 -.317E-01 0.459E+00
   -.214E-04 -.466E+01 0.812E+03   0.162E-03 0.415E+01 -.812E+03   0.260E-07 0.390E+00 -.697E+00   -.179E-03 0.858E-01 0.395E+00
   0.347E+01 -.202E+01 0.816E+03   -.353E+01 0.204E+01 -.816E+03   0.222E-01 -.223E-01 -.537E+00   -.701E-02 0.230E-01 0.456E+00
   -.347E+01 -.202E+01 0.816E+03   0.353E+01 0.204E+01 -.816E+03   -.222E-01 -.223E-01 -.537E+00   0.760E-02 0.254E-01 0.457E+00
   -.408E-04 0.101E+01 -.876E+03   0.548E-04 -.117E+01 0.875E+03   0.407E-08 0.612E-01 0.602E+00   -.460E-02 0.957E-01 0.108E+01
   0.137E+02 0.805E+01 -.849E+03   -.131E+02 -.769E+01 0.848E+03   -.107E+01 -.616E+00 -.103E+01   0.430E+00 0.228E+00 0.186E+01
   -.137E+02 0.805E+01 -.849E+03   0.131E+02 -.769E+01 0.848E+03   0.107E+01 -.616E+00 -.103E+01   -.428E+00 0.228E+00 0.186E+01
   -.241E+01 0.129E+01 -.863E+03   0.190E+01 -.973E+00 0.861E+03   0.373E+00 -.220E+00 0.560E+00   0.154E+00 -.106E+00 0.119E+01
   -.783E-05 -.161E+02 -.850E+03   0.140E-03 0.153E+02 0.849E+03   0.865E-07 0.130E+01 -.110E+01   0.407E-03 -.519E+00 0.186E+01
   0.241E+01 0.129E+01 -.863E+03   -.190E+01 -.973E+00 0.861E+03   -.373E+00 -.220E+00 0.560E+00   -.154E+00 -.108E+00 0.119E+01
   -.814E+00 -.436E+00 -.877E+03   0.965E+00 0.492E+00 0.875E+03   -.503E-01 -.313E-01 0.599E+00   -.104E+00 -.223E-01 0.108E+01
   0.814E+00 -.436E+00 -.877E+03   -.965E+00 0.492E+00 0.875E+03   0.503E-01 -.313E-01 0.599E+00   0.972E-01 -.236E-01 0.108E+01
   0.115E-04 -.287E+01 -.863E+03   0.197E-03 0.219E+01 0.861E+03   0.318E-07 0.477E+00 0.557E+00   0.105E-02 0.224E+00 0.120E+01
   -.109E-04 0.426E+00 -.249E+04   0.285E-04 -.420E+00 0.248E+04   -.248E-08 -.373E-01 0.647E+00   -.318E-03 0.165E-01 0.726E+00
   0.122E+02 0.191E+02 -.248E+04   -.118E+02 -.187E+02 0.248E+04   -.840E+00 -.119E+01 0.256E+00   0.428E+00 0.722E+00 0.605E+00
   -.122E+02 0.191E+02 -.248E+04   0.118E+02 -.187E+02 0.248E+04   0.840E+00 -.119E+01 0.256E+00   -.427E+00 0.724E+00 0.604E+00
   0.239E+02 0.158E+01 -.248E+04   -.234E+02 -.151E+01 0.248E+04   -.140E+01 -.691E-01 0.324E+00   0.870E+00 0.364E-02 0.585E+00
   -.239E+02 0.158E+01 -.248E+04   0.234E+02 -.151E+01 0.248E+04   0.140E+01 -.691E-01 0.324E+00   -.871E+00 0.402E-02 0.584E+00
   0.928E+01 -.206E+02 -.248E+04   -.900E+01 0.202E+02 0.248E+04   -.706E+00 0.126E+01 0.254E+00   0.373E+00 -.728E+00 0.614E+00
   -.928E+01 -.206E+02 -.248E+04   0.900E+01 0.202E+02 0.248E+04   0.706E+00 0.126E+01 0.254E+00   -.371E+00 -.729E+00 0.614E+00
   0.345E-04 -.422E+00 -.249E+04   0.142E-03 0.382E+00 0.249E+04   0.320E-08 0.481E-01 0.625E+00   -.422E-02 0.423E-03 0.615E+00
   -.248E-04 -.191E+00 -.145E+04   0.740E-04 0.191E+00 0.145E+04   0.566E-08 0.850E-01 0.219E+00   0.284E-02 -.208E-01 0.523E+00
   0.157E+02 -.836E-02 -.279E+03   -.189E+02 -.257E-02 0.280E+03   0.322E+01 0.354E-02 -.137E+01   0.317E-01 -.227E-02 -.192E+00
   -.157E+02 -.836E-02 -.279E+03   0.189E+02 -.257E-02 0.280E+03   -.322E+01 0.354E-02 -.137E+01   -.316E-01 -.227E-02 -.192E+00
   -.785E-03 -.223E+00 -.119E+02   0.355E-14 0.190E-12 0.767E-11   0.144E-07 0.217E+00 -.684E+01   0.790E-03 0.451E-02 0.191E+02

 POSITION                                       TOTAL-FORCE (eV/Angst)
      0.00000      0.00000      5.28038        -0.000000     -0.002073     -0.143530
      2.93784      0.00000      5.28038        -0.000709      0.010919     -0.067030
      5.87568      0.00000      5.28038         0.000709      0.010919     -0.067030
      1.46892      2.54424      5.28038         0.013256     -0.003204     -0.069059
      4.40676      2.54424      5.28038         0.000000      0.001129     -0.116081
      7.34459      2.54424      5.28038        -0.013256     -0.003204     -0.069059
      2.93784      5.08848      5.28038         0.004095     -0.004829     -0.067963
      5.87568      5.08848      5.28038        -0.004095     -0.004829     -0.067963
      8.81351      5.08848      5.28038        -0.000000     -0.000504     -0.092169
      1.46892      0.84808      7.67911         0.018738      0.015206      0.129669
      4.40676      0.84808      7.67911        -0.000000     -0.054225      0.035650
      7.34459      0.84808      7.67911        -0.018738      0.015206      0.129669
      2.93784      3.39232      7.67911        -0.037633      0.027211      0.045483
      5.87568      3.39232      7.67911         0.037633      0.027211      0.045483
      8.81351      3.39232      7.67911        -0.000000     -0.049787      0.089726
      4.40676      5.93656      7.67911        -0.000000     -0.033940      0.134003
      7.34459      5.93656      7.67911        -0.043096      0.023558      0.094012
     10.28243      5.93656      7.67911         0.043096      0.023558      0.094012
      8.81351      1.69603     10.07479        -0.000000     -0.003271      0.028162
      2.95306      1.70495     10.04990        -0.005452     -0.025236     -0.117701
      5.86045      1.70495     10.04990         0.005452     -0.025236     -0.117701
     10.26640      4.24966     10.05812         0.018207     -0.008653      0.000196
      4.40676      4.22282     10.04990         0.000000      0.003269     -0.092524
      7.36062      4.24966     10.05812        -0.018207     -0.008653      0.000196
     11.75147      6.78471     10.07479        -0.000319      0.001810      0.014781
      5.87556      6.78471     10.07479         0.000319      0.001810      0.014781
      8.81351      6.76613     10.05812         0.000000      0.024123      0.003544
      0.00000      0.00000     12.48774        -0.000000     -0.014223     -0.043859
      2.98478      0.07843     12.47445        -0.043384     -0.100044     -0.051977
      5.82873      0.07843     12.47445         0.043384     -0.100044     -0.051977
      1.56032      2.54568     12.47445        -0.059786      0.003116     -0.018512
      7.25320      2.54568     12.47445         0.059786      0.003116     -0.018512
      2.98229      5.00861     12.47445        -0.051316      0.098412     -0.049351
      5.83122      5.00861     12.47445         0.051316      0.098412     -0.049351
      8.81351      5.08848     12.49541         0.000000      0.008234     -0.024783
      4.40676      2.54424     12.16834         0.000000      0.063980      0.526135
      3.96402      2.53986     13.75551         0.056512     -0.009622      0.005315
      4.84949      2.53986     13.75551        -0.056512     -0.009622      0.005315
    total drift:                                0.000004     -0.001218      0.335453

  FREE ENERGIE OF THE ION-ELECTRON SYSTEM (eV)
  free  energy   TOTEN  =      -120.82697550 eV

  energy  without entropy=     -120.82697550  energy(sigma->0) =     -120.82697550

 stress matrix after NEB project (eV)
    -22.93019     -0.00000      0.00000
     -0.00000    -22.85075      0.06848
      0.00000      0.06848      2.50624
  FORCES: max atom, RMS     0.057571    0.013208
  FORCE total and by dimension    0.081418    0.056512
  Stress total and by dimension   32.469077   22.930192
|           W    W    AA    RRRRR   N    N  II  N    N   GGGG   !!!           |
|           W    W   A  A   R    R  NN   N  II  NN   N  G    G  !!!           |
|           W    W  A    A  R    R  N N  N  II  N N  N  G       !!!           |
|           W WW W  AAAAAA  RRRRR   N  N N  II  N  N N  G  GGG   !            |
|           WW  WW  A    A  R   R   N   NN  II  N   NN  G    G                |
|           W    W  A    A  R    R  N    N  II  N    N   GGGG   !!!           |
|     Tetrahedron method does not include variations of the Fermi             |
|     occupations, so forces and stress will be inaccurate. We suggest        |
|     using a different smearing scheme ISMEAR = 1 or 2 for metals in         |
|     relaxations.                                                            |

 total charge

# of ion       s       p       d       tot
    1        0.546   0.238   8.768   9.552
    2        0.544   0.241   8.764   9.550
    3        0.544   0.241   8.764   9.550
    4        0.545   0.241   8.765   9.551
    5        0.545   0.242   8.759   9.545
    6        0.545   0.241   8.765   9.551
    7        0.544   0.241   8.765   9.551
    8        0.544   0.241   8.765   9.551
    9        0.543   0.239   8.770   9.552
   10        0.522   0.308   8.768   9.599
   11        0.525   0.307   8.782   9.613
   12        0.522   0.308   8.768   9.599
   13        0.524   0.307   8.781   9.612
   14        0.524   0.307   8.781   9.612
   15        0.516   0.310   8.776   9.602
   16        0.524   0.309   8.767   9.599
   17        0.516   0.310   8.776   9.602
   18        0.516   0.310   8.776   9.602
   19        0.517   0.300   8.774   9.590
   20        0.551   0.332   8.749   9.633
   21        0.551   0.332   8.749   9.633
   22        0.509   0.311   8.776   9.596
   23        0.553   0.333   8.747   9.634
   24        0.509   0.311   8.776   9.596
   25        0.517   0.299   8.775   9.592
   26        0.517   0.299   8.775   9.592
   27        0.509   0.310   8.776   9.596
   28        0.539   0.223   8.764   9.526
   29        0.561   0.241   8.752   9.553
   30        0.561   0.241   8.752   9.553
   31        0.558   0.245   8.749   9.551
   32        0.558   0.245   8.749   9.551
   33        0.561   0.241   8.752   9.554
   34        0.561   0.241   8.752   9.554
   35        0.536   0.223   8.765   9.524
   36        0.272   0.295   5.068   5.635
   37        0.546   0.032   0.000   0.578
   38        0.546   0.032   0.000   0.578
tot         20.124  10.025 311.860 342.009

 BZINTS: Fermi energy:    0.725447;  394.000000 electrons
         Band energy:-0.117411E+04;  BLOECHL correction:   -0.046798