 vasp.6.2.0 18Jan21 (build Jun 12 2021 23:27:24) complex

 executed on             LinuxIFC date 2022.05.30  15:44:13

 INCAR:
   ISMEAR = -5
   SIGMA = 0.1
   ISPIN = 1
   EDIFF = 1.d-5
   EDIFFG = -0.01
   NSW = 0
   NELM = 150
   ENCUT = 500
   ISIF = 2
   IBRION = 2
   LREAL = Auto
   ALGO = Fast
   ICHARG = 11
   LORBIT = 10
   LCHARG = .F.
   LWAVE = .F.

 POTCAR:    PAW_PBE Au 04Oct2007
 POTCAR:    PAW_PBE Ti 08Apr2002
 POTCAR:    PAW_PBE O 08Apr2002
|           W    W    AA    RRRRR   N    N  II  N    N   GGGG   !!!           |
|           W    W   A  A   R    R  NN   N  II  NN   N  G    G  !!!           |
|           W    W  A    A  R    R  N N  N  II  N N  N  G       !!!           |
|           W WW W  AAAAAA  RRRRR   N  N N  II  N  N N  G  GGG   !            |
|           WW  WW  A    A  R   R   N   NN  II  N   NN  G    G                |
|           W    W  A    A  R    R  N    N  II  N    N   GGGG   !!!           |
|     For optimal performance we recommend to set                             |
|       NCORE = 2 up to number-of-cores-per-socket                            |
|     This setting can greatly improve the performance of VASP for DFT.       |
|     The default, NCORE=1 might be grossly inefficient on modern             |
|     multi-core architectures or massively parallel machines. Do your        |
|     Unfortunately you need to use the default for GW and RPA                |
|     calculations (for HF NCORE is supported but not extensively tested      |
|     yet).                                                                   |

 POTCAR:    PAW_PBE Au 04Oct2007
   VRHFIN =Au: s1d10

   TITEL  = PAW_PBE Au 04Oct2007
   POMASS =  196.966; ZVAL   =   11.000    mass and valenz
   ENMAX  =  229.943; ENMIN  =  172.457 eV

 POTCAR:    PAW_PBE Ti 08Apr2002
   VRHFIN =Ti: d3 s1

   TITEL  = PAW_PBE Ti 08Apr2002
   POMASS =   47.880; ZVAL   =    4.000    mass and valenz
   ENMAX  =  178.330; ENMIN  =  133.747 eV

 POTCAR:    PAW_PBE O 08Apr2002
   VRHFIN =O: s2p4

   TITEL  = PAW_PBE O 08Apr2002
   POMASS =   16.000; ZVAL   =    6.000    mass and valenz
   ENMAX  =  400.000; ENMIN  =  300.000 eV

 Optimization of the real space projectors (new method)

 maximal supplied QI-value         = 15.12
 optimisation between [QCUT,QGAM] = [ 11.34, 22.83] = [ 36.00,145.93] Ry
 Optimized for a Real-space Cutoff    1.39 Angstroem

   l    n(q)    QCUT    max X(q) W(low)/X(q) W(high)/X(q)  e(spline)
   2      9    11.338    60.898    0.39E-03    0.42E-03    0.21E-06
   2      9    11.338    58.894    0.40E-03    0.42E-03    0.22E-06
   0      9    11.338   109.617    0.13E-03    0.20E-04    0.13E-06
   0      9    11.338    75.026    0.13E-03    0.20E-04    0.13E-06
   1      9    11.338    16.344    0.33E-04    0.24E-03    0.18E-06
   1      9    11.338    10.160    0.26E-04    0.19E-03    0.15E-06
 Optimization of the real space projectors (new method)

[...]

   l    n(q)    QCUT    max X(q) W(low)/X(q) W(high)/X(q)  e(spline)
   2     10    11.404    49.363    0.27E-03    0.67E-03    0.76E-06
   2     10    11.404    47.669    0.26E-03    0.65E-03    0.73E-06
   0     11    11.404    26.374    0.17E-03    0.20E-03    0.34E-06
   0     11    11.404    11.549    0.14E-03    0.16E-03    0.29E-06
   1     10    11.404     9.492    0.33E-04    0.56E-04    0.16E-06
 Optimization of the real space projectors (new method)

 maximal supplied QI-value         = 24.76
 optimisation between [QCUT,QGAM] = [ 11.39, 22.77] = [ 36.31,145.25] Ry
 Optimized for a Real-space Cutoff    1.00 Angstroem

   l    n(q)    QCUT    max X(q) W(low)/X(q) W(high)/X(q)  e(spline)
   0      7    11.387    20.381    0.39E-03    0.13E-02    0.15E-06
   0      7    11.387    15.268    0.42E-03    0.14E-02    0.17E-06
   1      6    11.387     5.964    0.41E-03    0.11E-02    0.17E-06
   1      6    11.387     5.382    0.39E-03    0.87E-03    0.15E-06
  PAW_PBE Au 04Oct2007                  :
  PAW_PBE Ti 08Apr2002                  :
  PAW_PBE O 08Apr2002                   :

 POSCAR: Au-Ti-O2
  positions in direct lattice
  velocities in cartesian coordinates
 exchange correlation table for  LEXCH =        8
   RHO(1)=    0.500       N(1)  =     2000
   RHO(2)=  100.500       N(2)  =     4000

 VTST: version 3.2, (02/03/18)

 CHAIN: initializing optimizer

 OPT: Using VASP Conjugate-Gradient optimizer
 CHAIN: Read ICHAIN            0

 POSCAR: Au-Ti-O2
  positions in direct lattice
  velocities in cartesian coordinates

 ion  position               nearest neighbor table
   1  0.000  0.000  0.217-  16 2.94  12 2.94   6 2.94   8 2.94   7 2.94   3 2.94  10 2.94   4 2.94
                             2 2.94
   2  0.333  0.000  0.217-   9 2.94  11 2.94  17 2.94  10 2.94   8 2.94   4 2.94   5 2.94   1 2.94
                             3 2.94
   3  0.667  0.000  0.217-   7 2.94  18 2.94  12 2.94   1 2.94  11 2.94   5 2.94   6 2.94   9 2.94
                             2 2.94
   4  0.000  0.333  0.217-  10 2.94   6 2.94   5 2.94  13 2.94   2 2.94  15 2.94   9 2.94   1 2.94
                             7 2.94
   5  0.333  0.333  0.217-  13 2.94   7 2.94  11 2.94   4 2.94   2 2.94  14 2.94   3 2.94   8 2.94
                             6 2.94
   6  0.667  0.333  0.217-  15 2.94  14 2.94   1 2.94  12 2.94   4 2.94   9 2.94   8 2.94   3 2.94
                             5 2.94
   7  0.000  0.667  0.217-  18 2.94   3 2.94  16 2.94   5 2.94   1 2.94  13 2.94   8 2.94   4 2.94
                             9 2.94
   8  0.333  0.667  0.217-   9 2.94  17 2.94   1 2.94   2 2.94  14 2.94  16 2.94   6 2.94   7 2.94
                             5 2.94
   9  0.667  0.667  0.217-   2 2.94   8 2.94  17 2.94   6 2.94  15 2.94   4 2.94   3 2.94  18 2.94
                             7 2.94
  10  0.111  0.111  0.316-  26 2.93  19 2.93  20 2.93  11 2.94  17 2.94   2 2.94   4 2.94   1 2.94
                            12 2.94  16 2.94  13 2.94  15 2.94
  11  0.444  0.111  0.316-  20 2.92  21 2.92  27 2.94  13 2.94   2 2.94  10 2.94  17 2.94   5 2.94
                             3 2.94  18 2.94  14 2.94  12 2.94
  12  0.778  0.111  0.316-  25 2.93  19 2.93  21 2.93  16 2.94  18 2.94   1 2.94  14 2.94  15 2.94
                             3 2.94   6 2.94  10 2.94  11 2.94
  13  0.111  0.444  0.316-  23 2.92  20 2.92  22 2.94   5 2.94  18 2.94  11 2.94   7 2.94   4 2.94
                            16 2.94  10 2.94  14 2.94  15 2.94
  14  0.444  0.444  0.316-  21 2.92  23 2.92  24 2.94  15 2.94   6 2.94  12 2.94   8 2.94  17 2.94
                             5 2.94  16 2.94  13 2.94  11 2.94
  15  0.778  0.444  0.316-  24 2.92  22 2.92  19 2.93  14 2.94   6 2.94  17 2.94  12 2.94   9 2.94
                             4 2.94  10 2.94  13 2.94  18 2.94
  16  0.111  0.778  0.316-  25 2.93  26 2.93  23 2.93  18 2.94  12 2.94   7 2.94   1 2.94   8 2.94
                            13 2.94  10 2.94  14 2.94  17 2.94
  17  0.444  0.778  0.316-  27 2.92  24 2.92  26 2.93   9 2.94  15 2.94   2 2.94  10 2.94  11 2.94
                             8 2.94  14 2.94  16 2.94  18 2.94
  18  0.778  0.778  0.316-  22 2.92  27 2.92  25 2.93  16 2.94   7 2.94  13 2.94  12 2.94   3 2.94
                            11 2.94   9 2.94  15 2.94  17 2.94
  19  0.889  0.222  0.414-  10 2.93  12 2.93  15 2.93  26 2.94  25 2.94  24 2.94  22 2.94  21 2.95
                            20 2.95  28 2.95  32 3.03  31 3.03
  20  0.223  0.223  0.414-  36 2.76  23 2.91  21 2.91  11 2.92  13 2.92  10 2.93  27 2.95  22 2.95
                            26 2.95  19 2.95  29 2.96  31 2.96
  21  0.554  0.223  0.414-  36 2.76  20 2.91  23 2.91  14 2.92  11 2.92  12 2.93  27 2.95  24 2.95
                            25 2.95  19 2.95  30 2.96  32 2.96
  22  0.887  0.556  0.414-  24 2.92  27 2.92  18 2.92  15 2.92  13 2.94  25 2.94  19 2.94  23 2.95
                            20 2.95  35 2.96  33 2.99  31 2.99
  23  0.223  0.554  0.414-  36 2.76  20 2.91  21 2.91  13 2.92  14 2.92  16 2.93  22 2.95  24 2.95
                            25 2.95  26 2.95  33 2.96  34 2.96
  24  0.556  0.556  0.414-  27 2.92  22 2.92  15 2.92  17 2.92  14 2.94  26 2.94  19 2.94  21 2.95
                            23 2.95  35 2.96  32 2.99  34 2.99
  25  0.889  0.889  0.414-  16 2.93  12 2.93  18 2.93  19 2.94  26 2.94  22 2.94  27 2.94  23 2.95
                            21 2.95  28 2.95  33 3.03  30 3.03
  26  0.222  0.889  0.414-  10 2.93  16 2.93  17 2.93  19 2.94  25 2.94  27 2.94  24 2.94  20 2.95
                            23 2.95  28 2.95  29 3.03  34 3.03
  27  0.556  0.887  0.414-  24 2.92  22 2.92  17 2.92  18 2.92  11 2.94  26 2.94  25 2.94  20 2.95
                            21 2.95  35 2.96  29 2.99  30 2.99
  28  0.000  0.000  0.514-  25 2.95  19 2.95  26 2.95  34 2.98  32 2.98  33 2.98  30 2.98  31 2.98
                            29 2.98
  29  0.334  0.009  0.515-  30 2.85  31 2.86  36 2.87  20 2.96  35 2.98  28 2.98  27 2.99  26 3.03
                            34 3.10
  30  0.657  0.009  0.515-  29 2.85  32 2.86  36 2.87  21 2.96  35 2.98  28 2.98  27 2.99  25 3.03
                            33 3.10
  31  0.009  0.334  0.515-  37 2.61  33 2.85  29 2.86  36 2.87  20 2.96  35 2.98  28 2.98  22 2.99
                            19 3.03  32 3.10
  32  0.657  0.334  0.515-  38 2.61  34 2.85  30 2.86  36 2.87  21 2.96  35 2.98  28 2.98  24 2.99
                            19 3.03  31 3.10
  33  0.009  0.657  0.515-  31 2.85  34 2.86  36 2.87  23 2.96  35 2.98  28 2.98  22 2.99  25 3.03
                            30 3.10
  34  0.334  0.657  0.515-  32 2.85  33 2.86  36 2.87  23 2.96  35 2.98  28 2.98  24 2.99  26 3.03
                            29 3.10
  35  0.667  0.667  0.514-  24 2.96  27 2.96  22 2.96  29 2.98  34 2.98  32 2.98  31 2.98  30 2.98
                            33 2.98
  36  0.333  0.333  0.504-  37 1.92  38 1.92  20 2.76  23 2.76  21 2.76  33 2.87  31 2.87  29 2.87
                            30 2.87  34 2.87  32 2.87
  37  0.250  0.335  0.577-  38 1.45  36 1.92  31 2.61
  38  0.415  0.335  0.577-  37 1.45  36 1.92  32 2.61

  LATTYP: Found a hexagonal cell.
 ALAT       =     8.8135128021
 C/A-ratio  =     2.7586513333

  Lattice vectors:

 A1 = (  -4.4067569092,  -7.6327256898,   0.0000000000)
 A2 = (   8.8135128021,   0.0000000000,   0.0000000000)
 A3 = (   0.0000000000,   0.0000000000,  24.3134088421)

Analysis of symmetry for initial positions (statically):
 Subroutine PRICEL returns:
 Original cell was already a primitive cell.

 Routine SETGRP: Setting up the symmetry group for a
 hexagonal supercell.

 Subroutine GETGRP returns: Found  2 space group operations
 (whereof  2 operations were pure point group operations)
 out of a pool of 24 trial point group operations.

The static configuration has the point symmetry C_1h.

Analysis of symmetry for dynamics (positions and initial velocities):
 Subroutine PRICEL returns:
 Original cell was already a primitive cell.

[...]

The dynamic configuration has the point symmetry C_1h.

Analysis of constrained symmetry for selective dynamics:
 Subroutine PRICEL returns:
 Original cell was already a primitive cell.

 Routine SETGRP: Setting up the symmetry group for a
 hexagonal supercell.

[...]
     33      -5.4394      2.00000
     34      -5.3333      2.00000
     35      -5.3248      2.00000
     36      -5.2836      2.00000
     37      -5.2749      2.00000
     38      -5.2543      2.00000
     39      -5.1936      2.00000
     40      -5.1515      2.00000
     41      -5.1416      2.00000
     42      -5.0715      2.00000
     43      -5.0361      2.00000
     44      -4.9911      2.00000
     45      -4.9389      2.00000
     46      -4.9149      2.00000
     47      -4.8554      2.00000
     48      -4.8457      2.00000
     49      -4.8405      2.00000
     50      -4.8062      2.00000
     51      -4.7322      2.00000
     52      -4.7004      2.00000
     53      -4.6834      2.00000
     54      -4.6562      2.00000
     55      -4.6511      2.00000
     56      -4.6399      2.00000
     57      -4.6130      2.00000
     58      -4.5964      2.00000
     59      -4.5617      2.00000
     60      -4.5209      2.00000
[...]
    238       5.5857      0.00000
    239       5.6343      0.00000
    240       5.8549      0.00000
    241       5.9377      0.00000
    242       5.9907      0.00000
    243       6.0286      0.00000
    244       6.0869      0.00000
    245       6.1800      0.00000
    246       6.2171      0.00000
    247       6.2621      0.00000
    248       6.3187      0.00000
    249       6.4016      0.00000
    250       6.6454      0.00000
    251       6.7164      0.00000
    252       6.8541      0.00000

 soft charge-density along one line, spin component           1
         0         1         2         3         4         5         6         7         8         9
 total charge-density along one line

------------------------ aborting loop because EDIFF is reached ----------------------------------------

 total charge

# of ion       s       p       d       tot
    1        0.547   0.239   8.764   9.551
    2        0.542   0.241   8.764   9.547
    3        0.542   0.241   8.764   9.547
    4        0.542   0.241   8.765   9.548
    5        0.542   0.240   8.764   9.546
    6        0.542   0.241   8.765   9.548
    7        0.542   0.241   8.765   9.548
    8        0.542   0.241   8.765   9.548
    9        0.541   0.240   8.766   9.547
   10        0.521   0.306   8.773   9.601
   11        0.518   0.308   8.776   9.602
   12        0.521   0.306   8.773   9.601
   13        0.518   0.308   8.776   9.602
   14        0.518   0.308   8.776   9.602
   15        0.516   0.309   8.772   9.597
   16        0.523   0.307   8.770   9.601
   17        0.515   0.310   8.772   9.597
   18        0.515   0.310   8.772   9.597
   19        0.514   0.297   8.775   9.587
   20        0.555   0.332   8.741   9.628
   21        0.555   0.332   8.741   9.628
   22        0.511   0.307   8.772   9.590
   23        0.557   0.331   8.740   9.628
   24        0.511   0.307   8.772   9.590
   25        0.519   0.297   8.774   9.589
   26        0.519   0.297   8.774   9.589
   27        0.511   0.306   8.773   9.591
   28        0.544   0.227   8.759   9.529
   29        0.566   0.235   8.756   9.557
   30        0.566   0.235   8.756   9.557
   31        0.564   0.229   8.769   9.562
   32        0.564   0.229   8.769   9.562
   33        0.563   0.235   8.759   9.557
   34        0.563   0.235   8.759   9.557
   35        0.541   0.228   8.759   9.527
   36        0.479   0.732   2.553   3.764
   37        1.617   3.243   0.000   4.861
   38        1.617   3.243   0.000   4.861
tot         22.484  16.814 309.345 348.643

  FORCE on cell =-STRESS in cart. coord.  units (eV):
  Direction    XX          YY          ZZ          XY          YZ          ZX
  Alpha Z   941.60375   941.60375   941.60375
  Ewald  148827.09496148473.09223************    -0.00031    -1.61282    -0.00011
  Hartree157190.62113157022.10095************     0.00001    -1.65639    -0.00003
  E(xc)   -1802.06940 -1802.38917 -1810.58626     0.00000     0.03275     0.00000
  Local  ************************317968.03835     0.00258     3.39219    -0.00000
  n-local   -94.89956   -97.04945   -75.92091     4.51419    -0.16335     0.07016
  augment  2379.91550  2384.15230  2400.29357    -0.00137     0.04747    -0.00000
  Kinetic  5607.10263  5650.10623  5689.20884     0.97436    -0.04193     0.06176
  Fock        0.00000     0.00000     0.00000     0.00000     0.00000     0.00000
  Total     -16.75511   -17.79599     0.37397    -0.00000    -0.00208    -0.00000
  in kB     -16.41283   -17.43244     0.36633    -0.00000    -0.00204    -0.00000

 VOLUME and BASIS-vectors are now :
  energy-cutoff  :      500.00
  volume of cell :     1635.59
      direct lattice vectors                 reciprocal lattice vectors
     8.813512802  0.000000000  0.000000000     0.113462137 -0.065507406  0.000000000
     4.406756909  7.632725690  0.000000000     0.000000000  0.131014796  0.000000000
     0.000000000  0.000000000 24.313408842     0.000000000  0.000000000  0.041129568

  length of vectors
     8.813512802  8.813512802 24.313408842     0.131014796  0.131014796  0.041129568

 FORCES acting on ions
    electron-ion (+dipol)            ewald-force                    non-local-force                 convergence-correction
   -.198E-04 0.429E-01 0.265E+04   0.518E-04 -.275E-01 -.265E+04   0.443E-09 0.665E-02 -.502E+00   -.181E-03 -.304E-01 -.149E+00
   0.800E-01 -.128E+00 0.265E+04   -.210E+00 0.811E-01 -.265E+04   0.335E-02 0.429E-01 -.292E+00   0.113E+00 0.152E-02 -.207E+00
   -.800E-01 -.128E+00 0.265E+04   0.210E+00 0.811E-01 -.265E+04   -.335E-02 0.429E-01 -.292E+00   -.112E+00 0.345E-02 -.207E+00
   -.145E+00 0.214E+00 0.265E+04   -.117E-01 -.241E+00 -.265E+04   0.420E-01 -.426E-01 -.303E+00   0.105E+00 0.623E-01 -.213E+00
   0.783E-05 0.330E-01 0.265E+04   0.951E-04 -.442E-02 -.265E+04   -.709E-09 -.106E-01 -.399E+00   0.424E-02 -.185E-01 -.225E+00
   0.144E+00 0.214E+00 0.265E+04   0.116E-01 -.241E+00 -.265E+04   -.420E-01 -.426E-01 -.303E+00   -.106E+00 0.632E-01 -.213E+00
   -.170E+00 -.643E-01 0.265E+04   0.200E+00 0.160E+00 -.265E+04   0.184E-01 -.116E-01 -.306E+00   -.440E-01 -.662E-01 -.206E+00
   0.170E+00 -.643E-01 0.265E+04   -.200E+00 0.160E+00 -.265E+04   -.184E-01 -.116E-01 -.306E+00   0.459E-01 -.672E-01 -.206E+00
   0.196E-04 -.115E+00 0.265E+04   0.166E-03 0.319E-01 -.265E+04   0.118E-08 0.178E-01 -.461E+00   -.461E-02 0.615E-01 -.195E+00
   0.752E+00 0.727E+00 0.905E+03   -.614E+00 -.598E+00 -.904E+03   -.241E+00 -.127E+00 -.451E+00   0.924E-01 -.534E-02 -.272E+00
   0.174E-04 0.565E+00 0.907E+03   0.148E-03 -.657E+00 -.906E+03   0.305E-08 0.458E-01 -.309E+00   0.363E-02 -.150E-01 -.265E+00
   -.752E+00 0.727E+00 0.905E+03   0.614E+00 -.598E+00 -.904E+03   0.241E+00 -.127E+00 -.451E+00   -.935E-01 -.426E-02 -.273E+00
   0.167E+00 -.260E+00 0.907E+03   -.341E+00 0.343E+00 -.906E+03   0.104E+00 -.456E-01 -.357E+00   0.183E-01 -.157E-02 -.256E+00
   -.167E+00 -.260E+00 0.907E+03   0.340E+00 0.343E+00 -.906E+03   -.104E+00 -.456E-01 -.357E+00   -.110E-01 -.208E-02 -.257E+00
   0.319E-04 0.249E+01 0.908E+03   0.235E-03 -.267E+01 -.908E+03   0.216E-08 0.325E-01 -.474E+00   -.208E-02 0.121E+00 -.239E+00
   -.211E-04 -.104E+01 0.905E+03   0.162E-03 0.806E+00 -.904E+03   0.189E-07 0.285E+00 -.520E+00   0.364E-04 -.451E-01 -.276E+00
   0.231E+01 -.149E+01 0.908E+03   -.242E+01 0.151E+01 -.907E+03   0.160E-01 -.808E-02 -.368E+00   0.673E-01 -.138E-01 -.249E+00
   -.231E+01 -.149E+01 0.908E+03   0.242E+01 0.151E+01 -.907E+03   -.160E-01 -.808E-02 -.368E+00   -.672E-01 -.122E-01 -.249E+00
   -.420E-04 -.188E+01 -.859E+03   0.550E-04 0.146E+01 0.859E+03   0.118E-07 0.177E+00 0.944E+00   0.347E-02 0.170E+00 -.909E-01
   -.707E+01 -.230E+01 -.855E+03   0.791E+01 0.274E+01 0.856E+03   -.107E+01 -.536E+00 -.726E+00   0.671E-01 0.235E-01 -.910E-01
   0.707E+01 -.230E+01 -.855E+03   -.791E+01 0.274E+01 0.856E+03   0.107E+01 -.536E+00 -.726E+00   -.678E-01 0.246E-01 -.916E-01
   -.668E+01 0.234E+01 -.850E+03   0.638E+01 -.213E+01 0.849E+03   0.342E+00 -.247E+00 0.687E+00   0.205E-01 0.211E-01 -.889E-01
   -.309E-05 0.576E+01 -.857E+03   0.139E-03 -.691E+01 0.857E+03   0.880E-07 0.132E+01 -.756E+00   0.181E-03 -.490E-01 -.558E-01
   0.668E+01 0.234E+01 -.850E+03   -.638E+01 -.213E+01 0.849E+03   -.342E+00 -.247E+00 0.687E+00   -.208E-01 0.224E-01 -.889E-01
   0.242E+01 0.200E+01 -.861E+03   -.218E+01 -.173E+01 0.861E+03   -.813E-01 -.115E+00 0.754E+00   -.140E+00 -.115E+00 -.807E-01
   -.242E+01 0.200E+01 -.861E+03   0.218E+01 -.173E+01 0.861E+03   0.813E-01 -.115E+00 0.754E+00   0.147E+00 -.115E+00 -.803E-01
   0.101E-04 -.799E+01 -.852E+03   0.197E-03 0.757E+01 0.852E+03   0.315E-07 0.474E+00 0.834E+00   -.176E-02 0.586E-02 -.101E+00
   -.143E-04 0.550E+01 -.256E+04   0.297E-04 -.547E+01 0.256E+04   0.104E-09 0.156E-02 0.297E+00   0.228E-03 -.543E-01 0.181E+00
   0.248E+02 0.553E+02 -.253E+04   -.240E+02 -.548E+02 0.253E+04   -.102E+01 -.940E+00 0.584E+00   0.633E-01 0.109E-01 0.148E+00
   -.248E+02 0.553E+02 -.253E+04   0.240E+02 -.548E+02 0.253E+04   0.102E+01 -.940E+00 0.584E+00   -.635E-01 0.125E-01 0.149E+00
   0.764E+02 0.361E+01 -.251E+04   -.765E+02 -.360E+01 0.251E+04   -.963E+00 -.829E-01 0.109E+01   0.117E+00 0.651E-01 0.173E+00
   -.764E+02 0.361E+01 -.251E+04   0.765E+02 -.360E+01 0.251E+04   0.963E+00 -.829E-01 0.109E+01   -.118E+00 0.662E-01 0.174E+00
   0.210E+02 -.600E+02 -.253E+04   -.205E+02 0.595E+02 0.253E+04   -.785E+00 0.978E+00 0.694E+00   -.267E-02 -.799E-01 0.170E+00
   -.210E+02 -.600E+02 -.253E+04   0.205E+02 0.595E+02 0.253E+04   0.785E+00 0.978E+00 0.694E+00   0.457E-02 -.802E-01 0.170E+00
   0.328E-04 -.620E+01 -.256E+04   0.142E-03 0.618E+01 0.256E+04   0.215E-08 0.323E-01 0.385E+00   -.461E-02 0.205E-01 0.142E+00
   -.169E-04 0.126E+01 -.742E+03   0.413E-04 -.130E+01 0.743E+03   0.109E-08 0.164E-01 0.177E+01   0.436E-03 0.778E-02 0.828E-01
   0.171E+03 0.835E+00 -.165E+04   -.203E+03 -.768E+00 0.167E+04   0.315E+02 -.721E-01 -.169E+02   0.478E-01 0.107E-01 0.603E-01
   -.171E+03 0.835E+00 -.165E+04   0.203E+03 -.768E+00 0.167E+04   -.315E+02 -.721E-01 -.169E+02   -.430E-01 0.108E-01 0.600E-01
   -.511E-03 -.663E-02 0.346E+02   -.568E-13 0.225E-12 0.614E-11   -.853E-09 -.128E-01 -.309E+02   0.177E-01 0.101E-01 -.342E+01

 POSITION                                       TOTAL-FORCE (eV/Angst)
      0.00000      0.00000      5.28038        -0.000000     -0.008133     -0.117040
      2.93784      0.00000      5.28038        -0.014355     -0.001699     -0.012871
      5.87568      0.00000      5.28038         0.014355     -0.001699     -0.012871
      1.46892      2.54424      5.28038        -0.008560     -0.006664     -0.024215
      4.40676      2.54424      5.28038        -0.000000     -0.000261     -0.050088
      7.34459      2.54424      5.28038         0.008560     -0.006664     -0.024215
      2.93784      5.08848      5.28038         0.003504      0.017553     -0.015772
      5.87568      5.08848      5.28038        -0.003504      0.017553     -0.015772
      8.81351      5.08848      5.28038        -0.000000     -0.003488     -0.036426
      1.46892      0.84808      7.67911        -0.009375     -0.001717      0.039273
      4.40676      0.84808      7.67911        -0.000000     -0.060654     -0.008401
      7.34459      0.84808      7.67911         0.009375     -0.001717      0.039273
      2.93784      3.39232      7.67911        -0.054832      0.035735     -0.010403
      5.87568      3.39232      7.67911         0.054832      0.035735     -0.010403
      8.81351      3.39232      7.67911        -0.000000     -0.023036      0.073845
      4.40676      5.93656      7.67911         0.000000      0.009919      0.046608
      7.34459      5.93656      7.67911        -0.023563      0.007480      0.079264
     10.28243      5.93656      7.67911         0.023563      0.007480      0.079264
      8.81351      1.69614     10.07331        -0.000000     -0.066140      0.064017
      2.94950      1.70289     10.06400        -0.156408     -0.074388     -0.105443
      5.86402      1.70289     10.06400         0.156408     -0.074388     -0.105443
     10.27143      4.24676     10.06599         0.062139     -0.017266      0.069234
      4.40676      4.22694     10.06400         0.000000      0.127453     -0.041004
      7.35560      4.24676     10.06599        -0.062139     -0.017266      0.069234
     11.75137      6.78466     10.07331         0.010925      0.034961      0.053334
      5.87566      6.78466     10.07331        -0.010925      0.034961      0.053334
      8.81351      6.77194     10.06599         0.000000      0.058591      0.070499
      0.00000      0.00000     12.49013        -0.000000     -0.019831     -0.073482
      2.98093      0.06833     12.52966        -0.215870     -0.430251     -0.308533
      5.83259      0.06833     12.52966         0.215870     -0.430251     -0.308533
      1.54964      2.54739     12.52966        -0.881488     -0.009339     -0.560940
      7.26387      2.54739     12.52966         0.881488     -0.009339     -0.560940
      2.97547      5.01700     12.52966        -0.218622      0.425931     -0.319885
      5.83804      5.01700     12.52966         0.218622      0.425931     -0.319885
      8.81351      5.08848     12.50181         0.000000      0.031878      0.030336
      4.40676      2.54424     12.25739        -0.000000     -0.017733      2.250203
      3.68251      2.55828     14.03510         0.034181      0.005381      0.012423
      5.13100      2.55828     14.03510        -0.034181      0.005381      0.012423
    total drift:                                0.017207     -0.009381      0.300993

  FREE ENERGIE OF THE ION-ELECTRON SYSTEM (eV)
  free  energy   TOTEN  =      -126.78081161 eV

  energy  without entropy=     -126.78081161  energy(sigma->0) =     -126.78081161

 stress matrix after NEB project (eV)
    -16.75511     -0.00000     -0.00000
     -0.00000    -17.79599     -0.00208
     -0.00000     -0.00208      0.37397
  FORCES: max atom, RMS     0.036764    0.008434
  FORCE total and by dimension    0.051992    0.034181
  Stress total and by dimension   24.445267   17.795993
|           W    W    AA    RRRRR   N    N  II  N    N   GGGG   !!!           |
|           W    W   A  A   R    R  NN   N  II  NN   N  G    G  !!!           |
|           W    W  A    A  R    R  N N  N  II  N N  N  G       !!!           |
|           W WW W  AAAAAA  RRRRR   N  N N  II  N  N N  G  GGG   !            |
|           WW  WW  A    A  R   R   N   NN  II  N   NN  G    G                |
|           W    W  A    A  R    R  N    N  II  N    N   GGGG   !!!           |
|     Tetrahedron method does not include variations of the Fermi             |
|     occupations, so forces and stress will be inaccurate. We suggest        |
|     using a different smearing scheme ISMEAR = 1 or 2 for metals in         |
|     relaxations.                                                            |

 total charge

# of ion       s       p       d       tot
    1        0.547   0.239   8.764   9.551
    2        0.542   0.241   8.764   9.547
    3        0.542   0.241   8.764   9.547
    4        0.542   0.241   8.765   9.548
    5        0.542   0.240   8.764   9.546
    6        0.542   0.241   8.765   9.548
    7        0.542   0.241   8.765   9.548
    8        0.542   0.241   8.765   9.548
    9        0.541   0.240   8.766   9.547
   10        0.521   0.306   8.773   9.601
   11        0.518   0.308   8.776   9.602
   12        0.521   0.306   8.773   9.601
   13        0.518   0.308   8.776   9.602
   14        0.518   0.308   8.776   9.602
   15        0.516   0.309   8.772   9.597
   16        0.523   0.307   8.770   9.601
   17        0.515   0.310   8.772   9.597
   18        0.515   0.310   8.772   9.597
   19        0.514   0.297   8.775   9.587
   20        0.555   0.332   8.741   9.628
   21        0.555   0.332   8.741   9.628
   22        0.511   0.307   8.772   9.590
   23        0.557   0.331   8.740   9.628
   24        0.511   0.307   8.772   9.590
   25        0.519   0.297   8.774   9.589
   26        0.519   0.297   8.774   9.589
   27        0.511   0.306   8.773   9.591
   28        0.544   0.227   8.759   9.529
   29        0.566   0.235   8.756   9.557
   30        0.566   0.235   8.756   9.557
   31        0.564   0.229   8.769   9.562
   32        0.564   0.229   8.769   9.562
   33        0.563   0.235   8.759   9.557
   34        0.563   0.235   8.759   9.557
   35        0.541   0.228   8.759   9.527
   36        0.479   0.732   2.553   3.764
   37        1.617   3.243   0.000   4.861
   38        1.617   3.243   0.000   4.861
tot         22.484  16.814 309.345 348.643

 BZINTS: Fermi energy:    0.141226;  401.000000 electrons
         Band energy:-0.151252E+04;  BLOECHL correction:   -0.072354