 vasp.6.2.0 18Jan21 (build Jun 12 2021 23:27:24) complex

 executed on             LinuxIFC date 2022.05.26  20:26:10

 INCAR:
   ISMEAR = -5
   SIGMA = 0.1
   ISPIN = 1
   EDIFF = 1.d-5
   EDIFFG = -0.01
   NSW = 0
   NELM = 150
   ENCUT = 500
   ISIF = 2
   IBRION = 2
   LREAL = Auto
   ALGO = Fast
   ICHARG = 11
   LORBIT = 10
   LCHARG = .F.
   LWAVE = .F.

 POTCAR:    PAW_PBE Cu 22Jun2005
 POTCAR:    PAW_PBE Ni 02Aug2007
|           W    W    AA    RRRRR   N    N  II  N    N   GGGG   !!!           |
|           W    W   A  A   R    R  NN   N  II  NN   N  G    G  !!!           |
|           W    W  A    A  R    R  N N  N  II  N N  N  G       !!!           |
|           W WW W  AAAAAA  RRRRR   N  N N  II  N  N N  G  GGG   !            |
|           WW  WW  A    A  R   R   N   NN  II  N   NN  G    G                |
|           W    W  A    A  R    R  N    N  II  N    N   GGGG   !!!           |
|     For optimal performance we recommend to set                             |
|       NCORE = 2 up to number-of-cores-per-socket                            |
|     This setting can greatly improve the performance of VASP for DFT.       |
|     The default, NCORE=1 might be grossly inefficient on modern             |
|     multi-core architectures or massively parallel machines. Do your        |
|     Unfortunately you need to use the default for GW and RPA                |
|     calculations (for HF NCORE is supported but not extensively tested      |
|     yet).                                                                   |

 POTCAR:    PAW_PBE Cu 22Jun2005
   VRHFIN =Cu: d10 p1

   TITEL  = PAW_PBE Cu 22Jun2005
   POMASS =   63.546; ZVAL   =   11.000    mass and valenz
   ENMAX  =  295.446; ENMIN  =  221.585 eV

 POTCAR:    PAW_PBE Ni 02Aug2007
   VRHFIN =Ni:

   TITEL  = PAW_PBE Ni 02Aug2007
   POMASS =   58.690; ZVAL   =   10.000    mass and valenz
   ENMAX  =  269.532; ENMIN  =  202.149 eV

 Optimization of the real space projectors (new method)

 maximal supplied QI-value         = 16.25
 optimisation between [QCUT,QGAM] = [ 11.38, 22.75] = [ 36.24,144.96] Ry
 Optimized for a Real-space Cutoff    1.52 Angstroem

   l    n(q)    QCUT    max X(q) W(low)/X(q) W(high)/X(q)  e(spline)
   2      9    11.376     4.610    0.21E-03    0.10E-03    0.26E-06
   2      9    11.376     8.522    0.33E-03    0.16E-03    0.37E-06
   0     10    11.376    51.609    0.62E-04    0.20E-04    0.13E-06
   0     10    11.376    27.747    0.54E-04    0.20E-04    0.13E-06
   1     10    11.376    20.408    0.13E-04    0.99E-04    0.19E-06
   1     10    11.376    13.425    0.12E-04    0.87E-04    0.17E-06
 Optimization of the real space projectors (new method)

 maximal supplied QI-value         = 16.25
 optimisation between [QCUT,QGAM] = [ 11.38, 22.75] = [ 36.24,144.96] Ry
 Optimized for a Real-space Cutoff    1.39 Angstroem

   l    n(q)    QCUT    max X(q) W(low)/X(q) W(high)/X(q)  e(spline)
   2      8    11.376    60.317    0.19E-03    0.33E-04    0.13E-06
   2      8    11.376    55.921    0.20E-03    0.34E-04    0.14E-06
   0      9    11.376    51.690    0.82E-04    0.12E-03    0.20E-06
   0      9    11.376    30.015    0.74E-04    0.11E-03    0.18E-06
   1      9    11.376    18.849    0.39E-03    0.12E-03    0.13E-06
   1      9    11.376    14.624    0.33E-03    0.10E-03    0.11E-06
  PAW_PBE Cu 22Jun2005                  :
  PAW_PBE Ni 02Aug2007                  :

 POSCAR: Cu-Ni
  positions in direct lattice
  velocities in cartesian coordinates
 exchange correlation table for  LEXCH =        8
   RHO(1)=    0.500       N(1)  =     2000
   RHO(2)=  100.500       N(2)  =     4000

 VTST: version 3.2, (02/03/18)

 CHAIN: initializing optimizer

 OPT: Using VASP Conjugate-Gradient optimizer
 CHAIN: Read ICHAIN            0

 POSCAR: Cu-Ni
  positions in direct lattice
  velocities in cartesian coordinates

 ion  position               nearest neighbor table
   1  0.000  0.000  0.252-   7 2.57   3 2.57   4 2.57   2 2.57   6 2.57   8 2.57  12 2.57  10 2.57
                            16 2.57
   2  0.333  0.000  0.252-   8 2.57   9 2.57   5 2.57   1 2.57   3 2.57  11 2.57   4 2.57  10 2.57
                            17 2.57
   3  0.667  0.000  0.252-   1 2.57   7 2.57   6 2.57   9 2.57   2 2.57  12 2.57   5 2.57  18 2.57
                            11 2.57
   4  0.000  0.333  0.252-   5 2.57   6 2.57   1 2.57   7 2.57   2 2.57  13 2.57   9 2.57  10 2.57
                            15 2.57
   5  0.333  0.333  0.252-   4 2.57   2 2.57   7 2.57  13 2.57   8 2.57   6 2.57   3 2.57  11 2.57
                            14 2.57
   6  0.667  0.333  0.252-   4 2.57   9 2.57  15 2.57   3 2.57   1 2.57   8 2.57  14 2.57   5 2.57
                            12 2.57
   7  0.000  0.667  0.252-   1 2.57   3 2.57  16 2.57  18 2.57   4 2.57   5 2.57   8 2.57   9 2.57
                            13 2.57
   8  0.333  0.667  0.252-   9 2.57   2 2.57  17 2.57   6 2.57   1 2.57   7 2.57   5 2.57  14 2.57
                            16 2.57
   9  0.667  0.667  0.252-   8 2.57   6 2.57   2 2.57  17 2.57   3 2.57   7 2.57   4 2.57  15 2.57
                            18 2.57
  10  0.111  0.111  0.351-  20 2.55  26 2.56  19 2.56  11 2.57  12 2.57  13 2.57   1 2.57   2 2.57
                             4 2.57  15 2.57  16 2.57  17 2.57
  11  0.444  0.111  0.351-  20 2.55  21 2.55  27 2.56  10 2.57  13 2.57   2 2.57  17 2.57  14 2.57
                            12 2.57   5 2.57   3 2.57  18 2.57
  12  0.778  0.111  0.351-  21 2.55  19 2.56  25 2.56  15 2.57  10 2.57  14 2.57  18 2.57   3 2.57
                             1 2.57  16 2.57  11 2.57   6 2.57
  13  0.111  0.444  0.351-  23 2.55  20 2.55  22 2.56  16 2.57  18 2.57  10 2.57  11 2.57  14 2.57
                             5 2.57   4 2.57   7 2.57  15 2.57
  14  0.444  0.444  0.351-  21 2.55  23 2.55  24 2.56  15 2.57  17 2.57  12 2.57  16 2.57  13 2.57
                            11 2.57   6 2.57   8 2.57   5 2.57
  15  0.778  0.444  0.351-  24 2.55  22 2.55  19 2.56  14 2.57  17 2.57  12 2.57   6 2.57  18 2.57
                            10 2.57   9 2.57  13 2.57   4 2.57
  16  0.111  0.778  0.351-  23 2.55  25 2.56  26 2.56  18 2.57  13 2.57   7 2.57  14 2.57  17 2.57
                            12 2.57  10 2.57   8 2.57   1 2.57
  17  0.444  0.778  0.351-  27 2.55  24 2.55  26 2.56  14 2.57  15 2.57   8 2.57   9 2.57  11 2.57
                            16 2.57  18 2.57  10 2.57   2 2.57
  18  0.778  0.778  0.351-  22 2.55  27 2.55  25 2.56  16 2.57  13 2.57   7 2.57  15 2.57  12 2.57
                            17 2.57   9 2.57   3 2.57  11 2.57
  19  0.889  0.223  0.449-  28 2.54  32 2.55  31 2.55  15 2.56  12 2.56  10 2.56  22 2.56  24 2.56
                            21 2.57  20 2.57  25 2.57  26 2.57
  20  0.222  0.222  0.448-  36 2.48  29 2.54  31 2.54  10 2.55  11 2.55  13 2.55  26 2.57  19 2.57
                            27 2.57  22 2.57  23 2.57  21 2.57
  21  0.556  0.222  0.448-  36 2.48  32 2.54  30 2.54  12 2.55  14 2.55  11 2.55  19 2.57  25 2.57
                            24 2.57  27 2.57  20 2.57  23 2.57
  22  0.889  0.556  0.449-  35 2.54  31 2.55  33 2.55  18 2.55  15 2.55  13 2.56  19 2.56  25 2.56
                            24 2.57  27 2.57  23 2.57  20 2.57
  23  0.222  0.556  0.448-  36 2.48  33 2.54  34 2.54  16 2.55  13 2.55  14 2.55  25 2.57  26 2.57
                            22 2.57  24 2.57  20 2.57  21 2.57
  24  0.556  0.556  0.449-  35 2.54  32 2.55  34 2.55  15 2.55  17 2.55  14 2.56  19 2.56  26 2.56
                            22 2.57  27 2.57  21 2.57  23 2.57
  25  0.889  0.889  0.449-  28 2.54  33 2.55  30 2.55  18 2.56  16 2.56  12 2.56  22 2.56  27 2.56
                            21 2.57  23 2.57  19 2.57  26 2.57
  26  0.223  0.889  0.449-  28 2.54  29 2.55  34 2.55  17 2.56  10 2.56  16 2.56  27 2.56  24 2.56
                            20 2.57  23 2.57  25 2.57  19 2.57
  27  0.556  0.889  0.449-  35 2.54  29 2.55  30 2.55  17 2.55  18 2.55  11 2.56  26 2.56  25 2.56
                            24 2.57  22 2.57  20 2.57  21 2.57
  28  0.000  0.000  0.546-  25 2.54  19 2.54  26 2.54  33 2.57  30 2.57  31 2.57  29 2.57  32 2.57
                            34 2.57
  29  0.333  0.002  0.546-  20 2.54  27 2.55  31 2.55  36 2.55  30 2.55  26 2.55  28 2.57  35 2.57
                            34 2.60
  30  0.665  0.002  0.546-  21 2.54  27 2.55  32 2.55  36 2.55  29 2.55  25 2.55  28 2.57  35 2.57
                            33 2.60
  31  0.002  0.333  0.546-  20 2.54  22 2.55  29 2.55  36 2.55  33 2.55  19 2.55  28 2.57  35 2.57
                            32 2.60
  32  0.665  0.333  0.546-  21 2.54  24 2.55  30 2.55  36 2.55  34 2.55  19 2.55  28 2.57  35 2.57
                            31 2.60
  33  0.002  0.665  0.546-  23 2.54  22 2.55  34 2.55  36 2.55  31 2.55  25 2.55  28 2.57  35 2.57
                            30 2.60
  34  0.333  0.665  0.546-  23 2.54  24 2.55  33 2.55  36 2.55  32 2.55  26 2.55  28 2.57  35 2.57
                            29 2.60
  35  0.667  0.667  0.546-  24 2.54  27 2.54  22 2.54  34 2.57  32 2.57  29 2.57  30 2.57  33 2.57
                            31 2.57
  36  0.333  0.333  0.542-  23 2.48  20 2.48  21 2.48  31 2.55  29 2.55  33 2.55  34 2.55  32 2.55
                            30 2.55

  LATTYP: Found a hexagonal cell.
 ALAT       =     7.6967864036
 C/A-ratio  =     2.7653617908

  Lattice vectors:

 A1 = (  -3.8483927580,  -6.6656128093,   0.0000000000)
 A2 = (   7.6967864037,   0.0000000000,   0.0000000000)
 A3 = (   0.0000000000,   0.0000000000,  21.2843990326)

Analysis of symmetry for initial positions (statically):
 Subroutine PRICEL returns:
 Original cell was already a primitive cell.

 Routine SETGRP: Setting up the symmetry group for a
 hexagonal supercell.

 Subroutine GETGRP returns: Found  6 space group operations
 (whereof  6 operations were pure point group operations)
 out of a pool of 24 trial point group operations.

The static configuration has the point symmetry C_3v.

Analysis of symmetry for dynamics (positions and initial velocities):
 Subroutine PRICEL returns:
 Original cell was already a primitive cell.

[...]

The dynamic configuration has the point symmetry C_3v.

Analysis of constrained symmetry for selective dynamics:
 Subroutine PRICEL returns:
 Original cell was already a primitive cell.

 Routine SETGRP: Setting up the symmetry group for a
 hexagonal supercell.

 Subroutine GETGRP returns: Found  6 space group operations
 (whereof  6 operations were pure point group operations)
 out of a pool of 24 trial point group operations.

The constrained configuration has the point symmetry C_3v.

 Subroutine INISYM returns: Found  6 space group operations
 (whereof  6 operations are pure point group operations),
 and found     1 'primitive' translations

                                     Primitive cell

  volume of cell :    1091.9705

  direct lattice vectors                    reciprocal lattice vectors
     7.696786404  0.000000000  0.000000000     0.129924354 -0.075011849  0.000000000
     3.848392758  6.665612809  0.000000000     0.000000000  0.150023716  0.000000000
[...]
     15      -4.4731      2.00000
     16      -4.4675      2.00000
     17      -4.4654      2.00000
     18      -4.3856      2.00000
     19      -4.3805      2.00000
     20      -4.3076      2.00000
     21      -4.3013      2.00000
     22      -4.2947      2.00000
     23      -4.2763      2.00000
     24      -4.0888      2.00000
     25      -4.0763      2.00000
     26      -4.0275      2.00000
     27      -4.0200      2.00000
     28      -4.0149      2.00000
     29      -4.0012      2.00000
     30      -3.9990      2.00000
     31      -3.9729      2.00000
     32      -3.9148      2.00000
     33      -3.9043      2.00000
     34      -3.8856      2.00000
     35      -3.7912      2.00000
     36      -3.7780      2.00000
     37      -3.6960      2.00000
     38      -3.6933      2.00000
     39      -3.6117      2.00000
     40      -3.6067      2.00000
     41      -3.5833      2.00000
     42      -3.5675      2.00000
     43      -3.5622      2.00000
     44      -3.5348      2.00000
     45      -3.5209      2.00000
     46      -3.3593      2.00000
     47      -3.3387      2.00000
     48      -3.3338      2.00000
     49      -3.3277      2.00000
     50      -3.2765      2.00000
     51      -3.2715      2.00000
     52      -3.2604      2.00000
     53      -3.2318      2.00000
     54      -3.2242      2.00000
     55      -3.1989      2.00000
     56      -3.1960      2.00000
     57      -3.1906      2.00000
     58      -3.1836      2.00000
     59      -3.1727      2.00000
     60      -3.1624      2.00000
[...]
    238       6.8375      0.00000
    239       6.8447      0.00000
    240       7.0200      0.00000
    241       7.0519      0.00000
    242       7.2588      0.00000
    243       7.2932      0.00000
    244       7.3197      0.00000
    245       7.4114      0.00000
    246       7.5961      0.00000
    247       7.6893      0.00000
    248       7.9139      0.00000
    249       7.9475      0.00000
    250       8.1730      0.00000
    251       8.2054      0.00000
    252       8.4181      0.00000

 soft charge-density along one line, spin component           1
         0         1         2         3         4         5         6         7         8         9
 total charge-density along one line

------------------------ aborting loop because EDIFF is reached ----------------------------------------

 total charge

# of ion       s       p       d       tot
    1        0.446   0.286   9.190   9.922
    2        0.449   0.284   9.188   9.922
    3        0.449   0.284   9.188   9.922
    4        0.449   0.284   9.188   9.922
    5        0.446   0.286   9.185   9.917
    6        0.449   0.284   9.188   9.922
    7        0.449   0.284   9.188   9.922
    8        0.449   0.284   9.188   9.922
    9        0.449   0.283   9.188   9.920
   10        0.441   0.373   9.176   9.990
   11        0.443   0.368   9.182   9.992
   12        0.441   0.373   9.176   9.990
   13        0.443   0.368   9.182   9.992
   14        0.443   0.368   9.182   9.992
   15        0.439   0.370   9.180   9.989
   16        0.441   0.373   9.176   9.990
   17        0.439   0.370   9.180   9.989
   18        0.439   0.370   9.180   9.989
   19        0.442   0.373   9.183   9.998
   20        0.446   0.381   9.177  10.004
   21        0.446   0.381   9.177  10.004
   22        0.440   0.376   9.179   9.995
   23        0.446   0.381   9.177  10.004
   24        0.440   0.376   9.179   9.995
   25        0.442   0.373   9.183   9.998
   26        0.442   0.373   9.183   9.998
   27        0.440   0.376   9.179   9.995
   28        0.449   0.284   9.193   9.926
   29        0.451   0.289   9.187   9.928
   30        0.451   0.289   9.187   9.928
   31        0.451   0.289   9.187   9.928
   32        0.451   0.289   9.187   9.928
   33        0.451   0.289   9.187   9.928
   34        0.451   0.289   9.187   9.928
   35        0.447   0.286   9.193   9.926
   36        0.451   0.316   8.384   9.152
tot         16.042  11.905 329.819 357.766

  FORCE on cell =-STRESS in cart. coord.  units (eV):
  Direction    XX          YY          ZZ          XY          YZ          ZX
  Alpha Z   860.17995   860.17995   860.17995
  Ewald  175247.03633175247.03589************     0.00039     0.00010     0.00017
  Hartree188360.49933188360.49928************     0.00004     0.00004     0.00007
  E(xc)   -2301.73832 -2301.73784 -2306.40613    -0.00042    -0.00003    -0.00006
  Local  ************************377022.90481     0.01869    -0.00054    -0.00093
  n-local  -773.11544  -758.40368  -781.01782     7.54510    -0.03735     0.19488
  augment  3484.57346  3484.59392  3501.02599    -0.01772     0.00025     0.00044
  Kinetic  3205.32775  3209.30736  3231.12702     3.31364     1.69671    -1.27343
  Fock        0.00000     0.00000     0.00000     0.00000     0.00000     0.00000
  Total      -3.34664    -3.34664     4.61697     0.00000    -0.00000    -0.00000
  in kB      -4.91031    -4.91031     6.77418     0.00000    -0.00000    -0.00000

 VOLUME and BASIS-vectors are now :
  energy-cutoff  :      500.00
  volume of cell :     1091.97
      direct lattice vectors                 reciprocal lattice vectors
     7.696786404  0.000000000  0.000000000     0.129924354 -0.075011849  0.000000000
     3.848392758  6.665612809  0.000000000     0.000000000  0.150023716  0.000000000
     0.000000000  0.000000000 21.284399033     0.000000000  0.000000000  0.046982769

  length of vectors
     7.696786404  7.696786404 21.284399033     0.150023716  0.150023716  0.046982769

 FORCES acting on ions
    electron-ion (+dipol)            ewald-force                    non-local-force                 convergence-correction
   -.415E-04 0.198E-06 0.348E+04   0.579E-04 -.443E-05 -.348E+04   -.192E-18 -.228E-18 -.243E+01   -.307E-03 -.144E-03 -.819E+00
   -.560E-01 0.296E+00 0.348E+04   -.149E+00 -.132E+00 -.348E+04   0.236E-01 -.608E-01 -.201E+01   0.177E+00 -.100E+00 -.615E+00
   0.561E-01 0.297E+00 0.348E+04   0.148E+00 -.132E+00 -.348E+04   -.236E-01 -.608E-01 -.201E+01   -.176E+00 -.979E-01 -.614E+00
   0.229E+00 -.197E+00 0.348E+04   -.189E+00 -.625E-01 -.348E+04   -.408E-01 0.508E-01 -.201E+01   0.167E-02 0.204E+00 -.615E+00
   -.628E-04 -.394E-05 0.348E+04   0.116E-03 -.101E-04 -.348E+04   0.190E-17 -.698E-19 -.203E+01   0.122E-01 0.744E-02 -.630E+00
   -.229E+00 -.197E+00 0.348E+04   0.189E+00 -.627E-01 -.348E+04   0.408E-01 0.508E-01 -.201E+01   -.328E-02 0.205E+00 -.614E+00
   0.285E+00 -.997E-01 0.348E+04   -.403E-01 0.195E+00 -.348E+04   -.644E-01 0.993E-02 -.201E+01   -.173E+00 -.104E+00 -.614E+00
   -.285E+00 -.997E-01 0.348E+04   0.400E-01 0.195E+00 -.348E+04   0.644E-01 0.993E-02 -.201E+01   0.176E+00 -.105E+00 -.614E+00
   -.144E-03 -.330E-04 0.348E+04   0.263E-03 0.206E-04 -.348E+04   0.131E-18 -.311E-17 -.218E+01   -.132E-01 -.683E-02 -.557E+00
   0.166E+01 0.957E+00 0.116E+04   -.167E+01 -.962E+00 -.116E+04   -.888E-01 -.513E-01 -.832E+00   0.119E+00 0.690E-01 -.185E+00
   -.904E-04 0.115E+01 0.116E+04   0.190E-03 -.132E+01 -.116E+04   -.132E-08 0.198E-01 -.682E+00   0.117E-01 0.139E+00 -.934E-01
   -.166E+01 0.957E+00 0.116E+04   0.167E+01 -.962E+00 -.116E+04   0.888E-01 -.513E-01 -.832E+00   -.121E+00 0.705E-01 -.185E+00
   0.998E+00 -.576E+00 0.116E+04   -.115E+01 0.662E+00 -.116E+04   0.171E-01 -.989E-02 -.682E+00   0.127E+00 -.588E-01 -.933E-01
   -.998E+00 -.576E+00 0.116E+04   0.115E+01 0.662E+00 -.116E+04   -.171E-01 -.989E-02 -.682E+00   -.103E+00 -.598E-01 -.943E-01
   -.143E-03 0.127E+00 0.116E+04   0.299E-03 -.369E+00 -.116E+04   -.428E-08 0.643E-01 -.756E+00   -.353E-02 0.169E+00 -.273E+00
   -.911E-04 -.191E+01 0.116E+04   0.186E-03 0.192E+01 -.116E+04   -.683E-08 0.103E+00 -.832E+00   -.355E-03 -.141E+00 -.185E+00
   0.110E+00 -.637E-01 0.116E+04   -.319E+00 0.185E+00 -.116E+04   0.557E-01 -.321E-01 -.756E+00   0.145E+00 -.875E-01 -.273E+00
   -.110E+00 -.636E-01 0.116E+04   0.319E+00 0.185E+00 -.116E+04   -.557E-01 -.321E-01 -.756E+00   -.144E+00 -.849E-01 -.272E+00
   -.560E-04 0.602E+00 -.118E+04   0.674E-04 -.711E+00 0.118E+04   0.275E-08 -.412E-01 0.593E+00   -.108E-01 0.141E+00 -.143E+00
   0.250E+01 0.145E+01 -.118E+04   -.261E+01 -.151E+01 0.118E+04   -.300E+00 -.173E+00 -.166E+00   0.384E+00 0.221E+00 -.675E-01
   -.250E+01 0.145E+01 -.118E+04   0.261E+01 -.151E+01 0.118E+04   0.300E+00 -.173E+00 -.166E+00   -.402E+00 0.222E+00 -.679E-01
   -.784E-01 0.452E-01 -.118E+04   -.333E+00 0.193E+00 0.118E+04   0.240E+00 -.139E+00 0.634E+00   0.148E+00 -.980E-01 -.212E+00
   -.739E-04 -.289E+01 -.118E+04   0.143E-03 0.301E+01 0.118E+04   -.230E-07 0.346E+00 -.166E+00   -.101E-01 -.460E+00 -.680E-01
   0.785E-01 0.452E-01 -.118E+04   0.333E+00 0.193E+00 0.118E+04   -.240E+00 -.139E+00 0.634E+00   -.169E+00 -.984E-01 -.212E+00
   -.521E+00 -.301E+00 -.118E+04   0.616E+00 0.355E+00 0.118E+04   0.357E-01 0.206E-01 0.593E+00   -.136E+00 -.786E-01 -.143E+00
   0.521E+00 -.301E+00 -.118E+04   -.616E+00 0.355E+00 0.118E+04   -.357E-01 0.206E-01 0.593E+00   0.117E+00 -.795E-01 -.143E+00
   -.132E-03 -.905E-01 -.118E+04   0.244E-03 -.385E+00 0.118E+04   -.185E-07 0.278E+00 0.634E+00   -.110E-01 0.177E+00 -.212E+00
   -.287E-04 0.191E-04 -.350E+04   0.378E-04 -.340E-04 0.350E+04   0.971E-17 -.535E-19 0.241E+01   0.103E-04 0.580E-04 0.710E+00
   -.163E+01 -.170E+01 -.351E+04   0.192E+01 0.208E+01 0.351E+04   -.392E+00 -.503E+00 0.216E+01   0.935E-01 0.122E+00 0.595E+00
   0.163E+01 -.170E+01 -.351E+04   -.192E+01 0.208E+01 0.351E+04   0.392E+00 -.503E+00 0.216E+01   -.927E-01 0.124E+00 0.595E+00
   -.229E+01 -.557E+00 -.351E+04   0.276E+01 0.624E+00 0.351E+04   -.632E+00 -.879E-01 0.216E+01   0.152E+00 0.199E-01 0.595E+00
   0.229E+01 -.557E+00 -.351E+04   -.276E+01 0.624E+00 0.351E+04   0.632E+00 -.879E-01 0.216E+01   -.153E+00 0.210E-01 0.595E+00
   -.661E+00 0.226E+01 -.351E+04   0.840E+00 -.270E+01 0.351E+04   -.240E+00 0.591E+00 0.216E+01   0.610E-01 -.142E+00 0.595E+00
   0.661E+00 0.226E+01 -.351E+04   -.840E+00 -.270E+01 0.351E+04   0.240E+00 0.591E+00 0.216E+01   -.577E-01 -.143E+00 0.595E+00
   -.127E-03 -.175E-04 -.350E+04   0.254E-03 0.550E-05 0.350E+04   0.242E-17 -.158E-17 0.249E+01   -.129E-01 -.665E-02 0.556E+00
   -.609E-04 -.204E-05 -.314E+04   0.130E-03 0.238E-04 0.314E+04   -.288E-17 -.134E-17 0.180E+01   0.843E-02 0.514E-02 0.593E+00
   -.155E-03 0.503E-04 0.585E+01   0.863E-13 0.122E-13 0.196E-10   0.273E-16 -.336E-15 -.269E+01   -.589E-01 -.369E-01 -.319E+01

 POSITION                                       TOTAL-FORCE (eV/Angst)
      0.00000      0.00000      5.37156         0.000000      0.000000      0.100159
      2.56560      0.00000      5.37156        -0.003415      0.004188      0.078563
      5.13119      0.00000      5.37156         0.003415      0.004188      0.078563
      1.28280      2.22187      5.37156         0.001919     -0.005052      0.078563
      3.84839      2.22187      5.37156         0.000000     -0.000000      0.071415
      6.41399      2.22187      5.37156        -0.001919     -0.005052      0.078563
      2.56560      4.44374      5.37156         0.005334      0.000864      0.078563
      5.13119      4.44374      5.37156        -0.005334      0.000864      0.078563
      7.69679      4.44374      5.37156         0.000000      0.000000      0.063103
      1.28280      0.74062      7.46636         0.024608      0.014208     -0.079221
      3.84839      0.74062      7.46636         0.000000     -0.019016     -0.112068
      6.41399      0.74062      7.46636        -0.024608      0.014208     -0.079221
      2.56560      2.96249      7.46636        -0.016468      0.009508     -0.112068
      5.13119      2.96249      7.46636         0.016468      0.009508     -0.112068
      7.69679      2.96249      7.46636         0.000000     -0.008946     -0.059337
      3.84839      5.18437      7.46636         0.000000     -0.028415     -0.079221
      6.41399      5.18437      7.46636        -0.007748      0.004473     -0.059337
      8.97958      5.18437      7.46636         0.007748      0.004473     -0.059337
      7.69679      1.48353      9.55071         0.000000     -0.004049      0.000578
      2.56540      1.48114      9.54275        -0.012714     -0.007340     -0.002565
      5.13138      1.48114      9.54275         0.012714     -0.007340     -0.002565
      8.97935      3.70325      9.54809        -0.012539      0.007239      0.005650
      3.84839      3.70334      9.54275        -0.000000      0.014681     -0.002565
      6.41422      3.70325      9.54809         0.012539      0.007239      0.005650
     10.26040      5.92385      9.55071         0.003506      0.002024      0.000578
      5.13317      5.92385      9.55071        -0.003506      0.002024      0.000578
      7.69679      5.92472      9.54809         0.000000     -0.014479      0.005650
      0.00000      0.00000     11.61525         0.000000      0.000000      0.011929
      2.57297      0.01446     11.62005        -0.004165     -0.004366      0.001389
      5.12381      0.01446     11.62005         0.004165     -0.004366      0.001389
      1.29901      2.22103     11.62005        -0.005863     -0.001424      0.001389
      6.39777      2.22103     11.62005         0.005863     -0.001424      0.001389
      2.57443      4.43012     11.62005        -0.001698      0.005790      0.001389
      5.12235      4.43012     11.62005         0.001698      0.005790      0.001389
      7.69679      4.44374     11.61370         0.000000      0.000000     -0.000369
      3.84839      2.22187     11.53520        -0.000000     -0.000000      0.014938
    total drift:                               -0.059066     -0.036816     -0.025419

  FREE ENERGIE OF THE ION-ELECTRON SYSTEM (eV)
  free  energy   TOTEN  =      -127.39604451 eV

  energy  without entropy=     -127.39604451  energy(sigma->0) =     -127.39604451

 stress matrix after NEB project (eV)
     -3.34664      0.00000     -0.00000
      0.00000     -3.34664      0.00000
      0.00000     -0.00000      4.61697
  FORCES: max atom, RMS     0.015542    0.007522
  FORCE total and by dimension    0.045131    0.014938
  Stress total and by dimension    6.611839    4.616972
|           W    W    AA    RRRRR   N    N  II  N    N   GGGG   !!!           |
|           W    W   A  A   R    R  NN   N  II  NN   N  G    G  !!!           |
|           W    W  A    A  R    R  N N  N  II  N N  N  G       !!!           |
|           W WW W  AAAAAA  RRRRR   N  N N  II  N  N N  G  GGG   !            |
|           WW  WW  A    A  R   R   N   NN  II  N   NN  G    G                |
|           W    W  A    A  R    R  N    N  II  N    N   GGGG   !!!           |
|     Tetrahedron method does not include variations of the Fermi             |
|     occupations, so forces and stress will be inaccurate. We suggest        |
|     using a different smearing scheme ISMEAR = 1 or 2 for metals in         |
|     relaxations.                                                            |

 total charge

# of ion       s       p       d       tot
    1        0.446   0.286   9.190   9.922
    2        0.449   0.284   9.188   9.922
    3        0.449   0.284   9.188   9.922
    4        0.449   0.284   9.188   9.922
    5        0.446   0.286   9.185   9.917
    6        0.449   0.284   9.188   9.922
    7        0.449   0.284   9.188   9.922
    8        0.449   0.284   9.188   9.922
    9        0.449   0.283   9.188   9.920
   10        0.441   0.373   9.176   9.990
   11        0.443   0.368   9.182   9.992
   12        0.441   0.373   9.176   9.990
   13        0.443   0.368   9.182   9.992
   14        0.443   0.368   9.182   9.992
   15        0.439   0.370   9.180   9.989
   16        0.441   0.373   9.176   9.990
   17        0.439   0.370   9.180   9.989
   18        0.439   0.370   9.180   9.989
   19        0.442   0.373   9.183   9.998
   20        0.446   0.381   9.177  10.004
   21        0.446   0.381   9.177  10.004
   22        0.440   0.376   9.179   9.995
   23        0.446   0.381   9.177  10.004
   24        0.440   0.376   9.179   9.995
   25        0.442   0.373   9.183   9.998
   26        0.442   0.373   9.183   9.998
   27        0.440   0.376   9.179   9.995
   28        0.449   0.284   9.193   9.926
   29        0.451   0.289   9.187   9.928
   30        0.451   0.289   9.187   9.928
   31        0.451   0.289   9.187   9.928
   32        0.451   0.289   9.187   9.928
   33        0.451   0.289   9.187   9.928
   34        0.451   0.289   9.187   9.928
   35        0.447   0.286   9.193   9.926
   36        0.451   0.316   8.384   9.152
tot         16.042  11.905 329.819 357.766

 BZINTS: Fermi energy:    0.048113;  395.000000 electrons
         Band energy:-0.105764E+04;  BLOECHL correction:   -0.070389