 vasp.6.2.0 18Jan21 (build Jun 12 2021 23:27:24) complex

 executed on             LinuxIFC date 2022.05.30  17:14:02

 INCAR:
   ISMEAR = -5
   SIGMA = 0.1
   ISPIN = 1
   EDIFF = 1.d-5
   EDIFFG = -0.01
   NSW = 0
   NELM = 150
   ENCUT = 500
   ISIF = 2
   IBRION = 2
   LREAL = Auto
   ALGO = Fast
   ICHARG = 11
   LORBIT = 10
   LCHARG = .F.
   LWAVE = .F.

 POTCAR:    PAW_PBE Ag 02Apr2005
 POTCAR:    PAW_PBE Zr_sv 04Jan2005
 POTCAR:    PAW_PBE O 08Apr2002
|           W    W    AA    RRRRR   N    N  II  N    N   GGGG   !!!           |
|           W    W   A  A   R    R  NN   N  II  NN   N  G    G  !!!           |
|           W    W  A    A  R    R  N N  N  II  N N  N  G       !!!           |
|           W WW W  AAAAAA  RRRRR   N  N N  II  N  N N  G  GGG   !            |
|           WW  WW  A    A  R   R   N   NN  II  N   NN  G    G                |
|           W    W  A    A  R    R  N    N  II  N    N   GGGG   !!!           |
|     For optimal performance we recommend to set                             |
|       NCORE = 2 up to number-of-cores-per-socket                            |
|     This setting can greatly improve the performance of VASP for DFT.       |
|     The default, NCORE=1 might be grossly inefficient on modern             |
|     multi-core architectures or massively parallel machines. Do your        |
|     Unfortunately you need to use the default for GW and RPA                |
|     calculations (for HF NCORE is supported but not extensively tested      |
|     yet).                                                                   |

 POTCAR:    PAW_PBE Ag 02Apr2005
   VRHFIN =Ag : s1 d10

   TITEL  = PAW_PBE Ag 02Apr2005
   POMASS =  107.868; ZVAL   =   11.000    mass and valenz
   ENMAX  =  249.844; ENMIN  =  187.383 eV

 POTCAR:    PAW_PBE Zr_sv 04Jan2005
   VRHFIN =Zr: 4s4p5s4d

   TITEL  = PAW_PBE Zr_sv 04Jan2005
   POMASS =   91.224; ZVAL   =   12.000    mass and valenz
   ENMAX  =  229.898; ENMIN  =  172.424 eV

 POTCAR:    PAW_PBE O 08Apr2002
   VRHFIN =O: s2p4

   TITEL  = PAW_PBE O 08Apr2002
   POMASS =   16.000; ZVAL   =    6.000    mass and valenz
   ENMAX  =  400.000; ENMIN  =  300.000 eV

 Optimization of the real space projectors (new method)

 maximal supplied QI-value         = 15.12
 optimisation between [QCUT,QGAM] = [ 11.34, 22.83] = [ 36.00,145.93] Ry
 Optimized for a Real-space Cutoff    1.43 Angstroem

   l    n(q)    QCUT    max X(q) W(low)/X(q) W(high)/X(q)  e(spline)
   2      9    11.338    53.897    0.16E-03    0.20E-03    0.28E-06
   2      9    11.338    52.416    0.16E-03    0.20E-03    0.29E-06
   0     10    11.338   122.045    0.31E-04    0.76E-04    0.15E-06
   0     10    11.338    73.629    0.30E-04    0.72E-04    0.15E-06
   1      9    11.338    15.255    0.20E-03    0.19E-04    0.17E-06
   1      9    11.338     9.562    0.16E-03    0.15E-04    0.14E-06
 Optimization of the real space projectors (new method)

[...]

   l    n(q)    QCUT    max X(q) W(low)/X(q) W(high)/X(q)  e(spline)
   0     10    11.338    12.107    0.38E-04    0.13E-04    0.27E-07
   0     10    11.338     9.948    0.69E-04    0.30E-04    0.38E-07
   1     10    11.338     3.563    0.26E-04    0.18E-04    0.40E-07
   1     10    11.338     4.524    0.25E-03    0.39E-04    0.44E-06
   2      9    11.338    87.261    0.26E-03    0.91E-05    0.26E-06
   2      9    11.338    70.950    0.25E-03    0.91E-05    0.25E-06
 Optimization of the real space projectors (new method)

 maximal supplied QI-value         = 24.76
 optimisation between [QCUT,QGAM] = [ 11.39, 22.77] = [ 36.31,145.25] Ry
 Optimized for a Real-space Cutoff    1.00 Angstroem

   l    n(q)    QCUT    max X(q) W(low)/X(q) W(high)/X(q)  e(spline)
   0      7    11.387    20.381    0.39E-03    0.13E-02    0.15E-06
   0      7    11.387    15.268    0.42E-03    0.14E-02    0.17E-06
   1      6    11.387     5.964    0.41E-03    0.11E-02    0.17E-06
   1      6    11.387     5.382    0.39E-03    0.87E-03    0.15E-06
  PAW_PBE Ag 02Apr2005                  :
  PAW_PBE Zr_sv 04Jan2005               :
  PAW_PBE O 08Apr2002                   :

 POSCAR: Ag-Zr-O2
  positions in direct lattice
  velocities in cartesian coordinates
 exchange correlation table for  LEXCH =        8
   RHO(1)=    0.500       N(1)  =     2000
   RHO(2)=  100.500       N(2)  =     4000

 VTST: version 3.2, (02/03/18)

 CHAIN: initializing optimizer

 OPT: Using VASP Conjugate-Gradient optimizer
 CHAIN: Read ICHAIN            0

 POSCAR: Ag-Zr-O2
  positions in direct lattice
  velocities in cartesian coordinates

 ion  position               nearest neighbor table
   1  0.000  0.000  0.217-   2 2.93   8 2.93   7 2.93   6 2.93   4 2.93  12 2.93  16 2.93  10 2.93
                             3 2.93
   2  0.333  0.000  0.217-   1 2.93   8 2.93   9 2.93   3 2.93   4 2.93   5 2.93  10 2.93  17 2.93
                            11 2.93
   3  0.667  0.000  0.217-   9 2.93   2 2.93   5 2.93  11 2.93   7 2.93  18 2.93   1 2.93   6 2.93
                            12 2.93
   4  0.000  0.333  0.217-   5 2.93   6 2.93   2 2.93   1 2.93   7 2.93  13 2.93  15 2.93   9 2.93
                            10 2.93
   5  0.333  0.333  0.217-   4 2.93   3 2.93   7 2.93   2 2.93   8 2.93  14 2.93  13 2.93  11 2.93
                             6 2.93
   6  0.667  0.333  0.217-   4 2.93   9 2.93   1 2.93  15 2.93   8 2.93  12 2.93   3 2.93   5 2.93
                            14 2.93
   7  0.000  0.667  0.217-   8 2.93   1 2.93   5 2.93   3 2.93   4 2.93  16 2.93  18 2.93  13 2.93
                             9 2.93
   8  0.333  0.667  0.217-   7 2.93   1 2.93   2 2.93   9 2.93   5 2.93  16 2.93   6 2.93  17 2.93
                            14 2.93
   9  0.667  0.667  0.217-   3 2.93   2 2.93   8 2.93   6 2.93  17 2.93   4 2.93  15 2.93   7 2.93
                            18 2.93
  10  0.111  0.111  0.315-  20 2.91  19 2.92  26 2.92  12 2.93  16 2.93  15 2.93  17 2.93  13 2.93
                            11 2.93   2 2.93   1 2.93   4 2.93
  11  0.444  0.111  0.315-  21 2.91  20 2.91  14 2.93  17 2.93  18 2.93   3 2.93  12 2.93  13 2.93
                            10 2.93   5 2.93   2 2.93  27 2.93
  12  0.778  0.111  0.315-  21 2.91  25 2.92  19 2.92  10 2.93  16 2.93  18 2.93  15 2.93  11 2.93
                             1 2.93  14 2.93   6 2.93   3 2.93
  13  0.111  0.444  0.315-  20 2.91  23 2.91  15 2.93  14 2.93  18 2.93  10 2.93  11 2.93  16 2.93
                             4 2.93   5 2.93   7 2.93  22 2.93
  14  0.444  0.444  0.315-  23 2.91  21 2.91  13 2.93  11 2.93  16 2.93   5 2.93  12 2.93  17 2.93
                             8 2.93  15 2.93   6 2.93  24 2.93
  15  0.778  0.444  0.315-  19 2.92  13 2.93  10 2.93  12 2.93  17 2.93  18 2.93   4 2.93   6 2.93
                             9 2.93  14 2.93  24 2.93  22 2.93
  16  0.111  0.778  0.315-  23 2.91  26 2.92  25 2.92  18 2.93  12 2.93  10 2.93  14 2.93  17 2.93
                            13 2.93   7 2.93   8 2.93   1 2.93
  17  0.444  0.778  0.315-  26 2.92  11 2.93  10 2.93   9 2.93  18 2.93  15 2.93  16 2.93   2 2.93
                            14 2.93   8 2.93  27 2.93  24 2.93
  18  0.778  0.778  0.315-  25 2.92  16 2.93  12 2.93  13 2.93  11 2.93  17 2.93  15 2.93   7 2.93
                             3 2.93   9 2.93  22 2.93  27 2.93
  19  0.889  0.222  0.412-  10 2.92  12 2.92  15 2.92  26 2.93  25 2.93  20 2.93  21 2.93  24 2.93
                            22 2.93  28 2.93  32 2.97  31 2.97
  20  0.222  0.222  0.412-  13 2.91  11 2.91  10 2.91  36 2.92  21 2.93  23 2.93  27 2.93  22 2.93
                            19 2.93  26 2.93  31 2.97  29 2.97
  21  0.555  0.222  0.412-  11 2.91  14 2.91  12 2.91  36 2.92  20 2.93  23 2.93  27 2.93  24 2.93
                            25 2.93  19 2.93  30 2.97  32 2.97
  22  0.889  0.556  0.413-  24 2.93  27 2.93  23 2.93  20 2.93  18 2.93  15 2.93  13 2.93  25 2.93
                            19 2.93  35 2.94  33 2.95  31 2.95
  23  0.222  0.555  0.412-  14 2.91  13 2.91  16 2.91  36 2.92  21 2.93  20 2.93  22 2.93  24 2.93
                            26 2.93  25 2.93  34 2.97  33 2.97
  24  0.556  0.556  0.413-  27 2.93  22 2.93  23 2.93  21 2.93  15 2.93  17 2.93  14 2.93  19 2.93
                            26 2.93  35 2.94  32 2.95  34 2.95
  25  0.889  0.889  0.412-  16 2.92  12 2.92  18 2.92  26 2.93  19 2.93  23 2.93  21 2.93  22 2.93
                            27 2.93  28 2.93  33 2.97  30 2.97
  26  0.222  0.889  0.412-  16 2.92  10 2.92  17 2.92  25 2.93  19 2.93  23 2.93  20 2.93  27 2.93
                            24 2.93  28 2.93  34 2.97  29 2.97
  27  0.556  0.889  0.413-  24 2.93  22 2.93  20 2.93  21 2.93  17 2.93  18 2.93  11 2.93  26 2.93
                            25 2.93  35 2.94  29 2.95  30 2.95
  28  0.000  0.000  0.511-  29 2.93  34 2.93  33 2.93  32 2.93  31 2.93  30 2.93  26 2.93  25 2.93
                            19 2.93
  29  0.334  0.000  0.512-  30 2.93  36 2.93  35 2.93  31 2.93  28 2.93  34 2.94  27 2.95  26 2.97
                            20 2.97
  30  0.666  0.000  0.512-  29 2.93  36 2.93  35 2.93  32 2.93  28 2.93  33 2.94  27 2.95  25 2.97
                            21 2.97
  31  0.000  0.334  0.512-  33 2.93  36 2.93  35 2.93  29 2.93  28 2.93  32 2.94  22 2.95  19 2.97
                            20 2.97
  32  0.666  0.334  0.512-  34 2.93  36 2.93  35 2.93  30 2.93  28 2.93  31 2.94  24 2.95  19 2.97
                            21 2.97
  33  0.000  0.666  0.512-  31 2.93  36 2.93  35 2.93  34 2.93  28 2.93  30 2.94  22 2.95  25 2.97
                            23 2.97
  34  0.334  0.666  0.512-  32 2.93  36 2.93  35 2.93  33 2.93  28 2.93  29 2.94  24 2.95  26 2.97
                            23 2.97
  35  0.667  0.667  0.512-  30 2.93  29 2.93  32 2.93  34 2.93  31 2.93  33 2.93  24 2.94  27 2.94
                            22 2.94
  36  0.333  0.333  0.510-  37 1.99  38 1.99  21 2.92  20 2.92  23 2.92  31 2.93  33 2.93  30 2.93
                            29 2.93  34 2.93  32 2.93
  37  0.248  0.335  0.586-  38 1.49  36 1.99
  38  0.417  0.335  0.586-  37 1.49  36 1.99

  LATTYP: Found a hexagonal cell.
 ALAT       =     8.7913665772
 C/A-ratio  =     2.7711238095

  Lattice vectors:

 A1 = (  -4.3956832886,  -7.6135467898,   0.0000000000)
 A2 = (   8.7913665771,   0.0000000000,   0.0000000000)
 A3 = (   0.0000000000,   0.0000000000,  24.3619652401)

Analysis of symmetry for initial positions (statically):
 Subroutine PRICEL returns:
 Original cell was already a primitive cell.

 Routine SETGRP: Setting up the symmetry group for a
 hexagonal supercell.

 Subroutine GETGRP returns: Found  2 space group operations
 (whereof  2 operations were pure point group operations)
 out of a pool of 24 trial point group operations.

The static configuration has the point symmetry C_1h.

Analysis of symmetry for dynamics (positions and initial velocities):
 Subroutine PRICEL returns:
 Original cell was already a primitive cell.

[...]

The dynamic configuration has the point symmetry C_1h.

Analysis of constrained symmetry for selective dynamics:
 Subroutine PRICEL returns:
 Original cell was already a primitive cell.

 Routine SETGRP: Setting up the symmetry group for a
 hexagonal supercell.

[...]
     33      -5.1463      2.00000
     34      -5.1294      2.00000
     35      -5.1028      2.00000
     36      -5.0852      2.00000
     37      -5.0818      2.00000
     38      -5.0697      2.00000
     39      -5.0436      2.00000
     40      -5.0161      2.00000
     41      -5.0107      2.00000
     42      -4.9818      2.00000
     43      -4.9740      2.00000
     44      -4.9327      2.00000
     45      -4.8934      2.00000
     46      -4.8691      2.00000
     47      -4.8671      2.00000
     48      -4.8528      2.00000
     49      -4.8371      2.00000
     50      -4.8163      2.00000
     51      -4.8068      2.00000
     52      -4.7371      2.00000
     53      -4.7193      2.00000
     54      -4.7069      2.00000
     55      -4.6936      2.00000
     56      -4.6879      2.00000
     57      -4.6836      2.00000
     58      -4.6718      2.00000
     59      -4.6666      2.00000
     60      -4.6585      2.00000
[...]
    238       5.3182      0.00000
    239       5.4149      0.00000
    240       5.4709      0.00000
    241       5.5356      0.00000
    242       5.6935      0.00000
    243       5.7973      0.00000
    244       5.8461      0.00000
    245       5.8697      0.00000
    246       5.9612      0.00000
    247       6.0247      0.00000
    248       6.1457      0.00000
    249       6.6078      0.00000
    250       6.6256      0.00000
    251       6.7327      0.00000
    252       6.7845      0.00000

 soft charge-density along one line, spin component           1
         0         1         2         3         4         5         6         7         8         9
 total charge-density along one line

------------------------ aborting loop because EDIFF is reached ----------------------------------------

 total charge

# of ion       s       p       d       tot
    1        0.419   0.202   9.176   9.797
    2        0.415   0.204   9.176   9.795
    3        0.415   0.204   9.176   9.795
    4        0.414   0.203   9.177   9.795
    5        0.416   0.202   9.176   9.795
    6        0.414   0.203   9.177   9.795
    7        0.414   0.204   9.177   9.794
    8        0.414   0.204   9.177   9.794
    9        0.414   0.203   9.177   9.794
   10        0.408   0.269   9.164   9.841
   11        0.403   0.270   9.166   9.839
   12        0.408   0.269   9.164   9.841
   13        0.404   0.269   9.167   9.840
   14        0.404   0.269   9.167   9.840
   15        0.402   0.270   9.164   9.835
   16        0.408   0.270   9.162   9.840
   17        0.402   0.270   9.163   9.835
   18        0.402   0.270   9.163   9.835
   19        0.401   0.267   9.167   9.835
   20        0.433   0.294   9.141   9.868
   21        0.433   0.294   9.141   9.868
   22        0.396   0.273   9.162   9.831
   23        0.436   0.292   9.141   9.869
   24        0.396   0.273   9.162   9.831
   25        0.406   0.266   9.166   9.838
   26        0.406   0.266   9.166   9.838
   27        0.396   0.273   9.164   9.832
   28        0.417   0.206   9.173   9.795
   29        0.440   0.217   9.161   9.818
   30        0.440   0.217   9.161   9.818
   31        0.445   0.204   9.169   9.818
   32        0.445   0.204   9.169   9.818
   33        0.439   0.217   9.162   9.817
   34        0.439   0.217   9.162   9.817
   35        0.417   0.206   9.172   9.795
   36        2.213   6.011   1.617   9.840
   37        1.612   3.257   0.000   4.869
   38        1.612   3.257   0.000   4.869
tot         19.998  20.964 322.423 363.386

  FORCE on cell =-STRESS in cart. coord.  units (eV):
  Direction    XX          YY          ZZ          XY          YZ          ZX
  Alpha Z   718.21320   718.21320   718.21320
  Ewald  155288.99372154852.30799************     0.00006     2.45906     0.00009
  Hartree165482.85727165242.70509************     0.00003     0.89352     0.00003
  E(xc)   -2139.40824 -2140.22026 -2145.00507    -0.00002     0.00262    -0.00000
  Local  ************************331509.06363     0.00103    -3.25278    -0.00022
  n-local  -364.30279  -371.56895  -377.91293     2.22139    -0.07523     0.08483
  augment  3228.93754  3233.58274  3247.65403    -0.00022     0.03980    -0.00001
  Kinetic  5226.04196  5270.37936  5294.62499     0.67450    -0.09263    -0.02918
  Fock        0.00000     0.00000     0.00000     0.00000     0.00000     0.00000
  Total      -3.99609    -4.20929    -0.25604    -0.00000    -0.02564    -0.00000
  in kB      -3.92636    -4.13584    -0.25157    -0.00000    -0.02519    -0.00000

 VOLUME and BASIS-vectors are now :
  energy-cutoff  :      500.00
  volume of cell :     1630.63
      direct lattice vectors                 reciprocal lattice vectors
     8.791366577  0.000000000  0.000000000     0.113747958 -0.065672414  0.000000000
     4.395683289  7.613546790  0.000000000     0.000000000  0.131344829  0.000000000
     0.000000000  0.000000000 24.361965240     0.000000000  0.000000000  0.041047592

  length of vectors
     8.791366577  8.791366577 24.361965240     0.131344829  0.131344829  0.041047592

 FORCES acting on ions
    electron-ion (+dipol)            ewald-force                    non-local-force                 convergence-correction
   0.461E-04 0.237E-01 0.272E+04   -.953E-04 -.239E-01 -.272E+04   0.242E-13 0.369E-02 -.170E+01   -.911E-04 -.766E-02 0.175E+00
   -.331E-01 0.590E+00 0.272E+04   -.453E-01 -.721E+00 -.272E+04   0.326E-01 0.100E+00 -.159E+01   0.366E-01 0.271E-01 0.101E+00
   0.332E-01 0.590E+00 0.272E+04   0.454E-01 -.721E+00 -.272E+04   -.326E-01 0.100E+00 -.159E+01   -.372E-01 0.290E-01 0.101E+00
   0.437E+00 -.319E+00 0.272E+04   -.626E+00 0.306E+00 -.272E+04   0.108E+00 -.240E-01 -.161E+01   0.733E-01 0.287E-01 0.807E-01
   -.780E-05 0.140E-01 0.273E+04   0.981E-04 -.341E-02 -.272E+04   -.504E-13 -.767E-02 -.162E+01   0.616E-02 -.354E-02 0.892E-01
   -.437E+00 -.319E+00 0.272E+04   0.626E+00 0.305E+00 -.272E+04   -.108E+00 -.240E-01 -.161E+01   -.746E-01 0.296E-01 0.813E-01
   0.582E+00 -.283E+00 0.272E+04   -.580E+00 0.415E+00 -.272E+04   0.260E-01 -.731E-01 -.163E+01   -.235E-01 -.455E-01 0.102E+00
   -.582E+00 -.283E+00 0.272E+04   0.580E+00 0.415E+00 -.272E+04   -.260E-01 -.731E-01 -.163E+01   0.251E-01 -.464E-01 0.102E+00
   0.365E-04 -.483E-01 0.272E+04   0.792E-04 0.273E-01 -.272E+04   0.835E-13 0.127E-01 -.175E+01   -.660E-02 0.110E-01 0.786E-01
   0.249E+01 0.165E+01 0.985E+03   -.225E+01 -.151E+01 -.985E+03   -.246E+00 -.116E+00 -.552E+00   -.161E-01 -.319E-01 -.181E+00
   -.257E-04 0.662E+01 0.989E+03   0.411E-04 -.680E+01 -.989E+03   0.949E-12 0.145E+00 -.323E+00   0.618E-02 -.170E-01 -.233E+00
   -.249E+01 0.165E+01 0.985E+03   0.225E+01 -.151E+01 -.985E+03   0.246E+00 -.116E+00 -.552E+00   0.149E-01 -.314E-01 -.182E+00
   0.544E+01 -.340E+01 0.989E+03   -.569E+01 0.341E+01 -.989E+03   0.195E+00 -.673E-01 -.367E+00   0.162E-01 0.736E-01 -.212E+00
   -.544E+01 -.340E+01 0.989E+03   0.569E+01 0.341E+01 -.989E+03   -.195E+00 -.673E-01 -.367E+00   -.610E-02 0.725E-01 -.214E+00
   0.157E-04 -.334E+01 0.981E+03   -.109E-03 0.333E+01 -.980E+03   -.340E-14 -.518E-03 -.622E+00   -.121E-02 0.230E-01 -.178E+00
   -.822E-05 -.289E+01 0.985E+03   0.208E-04 0.268E+01 -.985E+03   0.172E-11 0.261E+00 -.607E+00   -.387E-03 -.203E-01 -.186E+00
   -.276E+01 0.154E+01 0.980E+03   0.279E+01 -.151E+01 -.980E+03   0.180E-01 -.127E-01 -.528E+00   -.326E-01 -.210E-01 -.168E+00
   0.276E+01 0.154E+01 0.980E+03   -.279E+01 -.151E+01 -.980E+03   -.180E-01 -.127E-01 -.528E+00   0.328E-01 -.196E-01 -.167E+00
   0.404E-04 -.216E+00 -.784E+03   -.131E-03 -.242E-01 0.783E+03   0.128E-11 0.194E+00 0.111E+01   0.951E-03 0.135E-01 -.311E+00
   0.270E+02 0.169E+02 -.741E+03   -.262E+02 -.166E+02 0.741E+03   -.841E+00 -.403E+00 -.867E-01   -.123E+00 -.493E-01 -.370E+00
   -.270E+02 0.169E+02 -.741E+03   0.262E+02 -.166E+02 0.741E+03   0.841E+00 -.403E+00 -.867E-01   0.112E+00 -.505E-01 -.370E+00
   0.149E+02 -.988E+01 -.786E+03   -.149E+02 0.994E+01 0.786E+03   0.111E+00 -.132E+00 0.548E+00   -.969E-01 0.571E-01 -.339E+00
   -.510E-04 -.331E+02 -.742E+03   0.470E-04 0.321E+02 0.743E+03   0.700E-11 0.107E+01 -.225E+00   -.679E-02 0.111E+00 -.408E+00
   -.149E+02 -.988E+01 -.786E+03   0.148E+02 0.994E+01 0.786E+03   -.111E+00 -.132E+00 0.548E+00   0.109E+00 0.576E-01 -.339E+00
   0.827E+00 0.993E+00 -.785E+03   -.771E+00 -.864E+00 0.785E+03   -.696E-01 -.104E+00 0.844E+00   0.138E-01 -.123E-01 -.387E+00
   -.827E+00 0.993E+00 -.785E+03   0.771E+00 -.864E+00 0.785E+03   0.696E-01 -.104E+00 0.844E+00   -.436E-02 -.106E-01 -.387E+00
   0.207E-04 0.170E+02 -.788E+03   0.109E-03 -.171E+02 0.788E+03   0.133E-11 0.203E+00 0.738E+00   0.449E-02 -.135E+00 -.363E+00
   0.557E-04 0.508E+01 -.257E+04   -.120E-03 -.519E+01 0.257E+04   0.319E-12 0.486E-01 0.146E+01   0.963E-04 0.417E-01 -.116E+00
   0.482E+02 0.905E+02 -.255E+04   -.476E+02 -.904E+02 0.255E+04   -.695E+00 -.424E+00 0.182E+01   -.264E-01 0.808E-01 -.434E-01
   -.482E+02 0.905E+02 -.255E+04   0.476E+02 -.904E+02 0.255E+04   0.695E+00 -.424E+00 0.182E+01   0.254E-01 0.819E-01 -.433E-01
   0.113E+03 0.404E+01 -.254E+04   -.113E+03 -.397E+01 0.253E+04   -.565E+00 -.823E-01 0.229E+01   0.740E-01 -.444E-02 -.593E-01
   -.113E+03 0.404E+01 -.254E+04   0.113E+03 -.397E+01 0.253E+04   0.565E+00 -.823E-01 0.229E+01   -.743E-01 -.367E-02 -.584E-01
   0.431E+02 -.953E+02 -.255E+04   -.427E+02 0.951E+02 0.255E+04   -.517E+00 0.516E+00 0.191E+01   -.243E-01 -.639E-01 -.698E-01
   -.431E+02 -.953E+02 -.255E+04   0.427E+02 0.951E+02 0.255E+04   0.517E+00 0.516E+00 0.191E+01   0.255E-01 -.640E-01 -.685E-01
   0.165E-04 -.565E+01 -.259E+04   0.107E-03 0.585E+01 0.259E+04   -.529E-12 -.806E-01 0.158E+01   -.626E-02 -.875E-01 -.121E+00
   0.225E-03 0.330E+01 -.236E+04   0.112E-03 -.329E+01 0.237E+04   -.351E-12 -.535E-01 -.360E+01   0.471E-02 -.562E-02 0.114E+00
   0.231E+03 -.460E+00 -.180E+04   -.261E+03 0.558E+00 0.182E+04   0.299E+02 -.985E-01 -.181E+02   0.188E-01 -.537E-02 -.266E-01
   -.231E+03 -.460E+00 -.180E+04   0.261E+03 0.558E+00 0.182E+04   -.299E+02 -.985E-01 -.181E+02   -.184E-01 -.532E-02 -.274E-01
   0.887E-03 0.178E-01 0.442E+02   -.114E-12 -.359E-12 -.432E-11   -.327E-12 -.499E-01 -.397E+02   0.206E-01 -.353E-02 -.460E+01

 POSITION                                       TOTAL-FORCE (eV/Angst)
      0.00000      0.00000      5.28219        -0.000000     -0.003268     -0.034210
      2.93046      0.00000      5.28219        -0.008960     -0.001551      0.025674
      5.86091      0.00000      5.28219         0.008960     -0.001551      0.025674
      1.46523      2.53785      5.28219        -0.006883     -0.007590      0.019981
      4.39568      2.53785      5.28219         0.000000      0.000318      0.009252
      7.32614      2.53785      5.28219         0.006883     -0.007590      0.019981
      2.93046      5.07570      5.28219         0.003818      0.014239      0.023251
      5.86091      5.07570      5.28219        -0.003818      0.014239      0.023251
      8.79137      5.07570      5.28219         0.000000      0.003636      0.008127
      1.46523      0.84595      7.67490        -0.014615     -0.005677     -0.059778
      4.39568      0.84595      7.67490        -0.000000     -0.048050     -0.042841
      7.32614      0.84595      7.67490         0.014615     -0.005677     -0.059778
      2.93046      3.38380      7.67490        -0.045540      0.023039     -0.046260
      5.86091      3.38380      7.67490         0.045540      0.023039     -0.046260
      8.79137      3.38380      7.67490         0.000000      0.009334      0.034126
      4.39568      5.92165      7.67490         0.000000      0.025921     -0.056000
      7.32614      5.92165      7.67490         0.009753     -0.005632      0.038579
     10.25659      5.92165      7.67490        -0.009753     -0.005632      0.038579
      8.79137      1.69022     10.04930        -0.000000     -0.031683      0.037824
      2.93117      1.69231     10.04246        -0.170091     -0.082108     -0.163501
      5.86019      1.69231     10.04246         0.170091     -0.082108     -0.163501
     10.25641      4.22985     10.06824         0.038145     -0.007081      0.046946
      4.39568      4.22892     10.04246         0.000000      0.183050     -0.144061
      7.32632      4.22985     10.06824        -0.038145     -0.007081      0.046946
     11.72328      6.76844     10.04930        -0.005128      0.014149      0.036434
      5.85946      6.76844     10.04930         0.005128      0.014149      0.036434
      8.79137      6.76739     10.06824         0.000000      0.035858      0.056720
      0.00000      0.00000     12.44689        -0.000000     -0.017273     -0.006855
      2.93311      0.00118     12.48352        -0.136357     -0.253067     -0.174475
      5.85826      0.00118     12.48352         0.136357     -0.253067     -0.174475
      1.46758      2.53956     12.48352        -0.456930     -0.018342     -0.245264
      7.32379      2.53956     12.48352         0.456930     -0.018342     -0.245264
      2.93015      5.07281     12.48352        -0.119504      0.263960     -0.177424
      5.86121      5.07281     12.48352         0.119504      0.263960     -0.177424
      8.79137      5.07570     12.47551         0.000000      0.032727     -0.020872
      4.39568      2.53785     12.42634        -0.000000     -0.050156      1.487892
      3.65021      2.55121     14.27635         0.013490     -0.004545      0.011284
      5.14116      2.55121     14.27635        -0.013490     -0.004545      0.011284
    total drift:                                0.021481     -0.035663     -0.137206

  FREE ENERGIE OF THE ION-ELECTRON SYSTEM (eV)
  free  energy   TOTEN  =      -109.84650418 eV

  energy  without entropy=     -109.84650418  energy(sigma->0) =     -109.84650418

 stress matrix after NEB project (eV)
     -3.99609     -0.00000     -0.00000
     -0.00000     -4.20929     -0.02564
     -0.00000     -0.02564     -0.25604
  FORCES: max atom, RMS     0.018165    0.004167
  FORCE total and by dimension    0.025689    0.013490
  Stress total and by dimension    5.809797    4.209292
|           W    W    AA    RRRRR   N    N  II  N    N   GGGG   !!!           |
|           W    W   A  A   R    R  NN   N  II  NN   N  G    G  !!!           |
|           W    W  A    A  R    R  N N  N  II  N N  N  G       !!!           |
|           W WW W  AAAAAA  RRRRR   N  N N  II  N  N N  G  GGG   !            |
|           WW  WW  A    A  R   R   N   NN  II  N   NN  G    G                |
|           W    W  A    A  R    R  N    N  II  N    N   GGGG   !!!           |
|     Tetrahedron method does not include variations of the Fermi             |
|     occupations, so forces and stress will be inaccurate. We suggest        |
|     using a different smearing scheme ISMEAR = 1 or 2 for metals in         |
|     relaxations.                                                            |

 total charge

# of ion       s       p       d       tot
    1        0.419   0.202   9.176   9.797
    2        0.415   0.204   9.176   9.795
    3        0.415   0.204   9.176   9.795
    4        0.414   0.203   9.177   9.795
    5        0.416   0.202   9.176   9.795
    6        0.414   0.203   9.177   9.795
    7        0.414   0.204   9.177   9.794
    8        0.414   0.204   9.177   9.794
    9        0.414   0.203   9.177   9.794
   10        0.408   0.269   9.164   9.841
   11        0.403   0.270   9.166   9.839
   12        0.408   0.269   9.164   9.841
   13        0.404   0.269   9.167   9.840
   14        0.404   0.269   9.167   9.840
   15        0.402   0.270   9.164   9.835
   16        0.408   0.270   9.162   9.840
   17        0.402   0.270   9.163   9.835
   18        0.402   0.270   9.163   9.835
   19        0.401   0.267   9.167   9.835
   20        0.433   0.294   9.141   9.868
   21        0.433   0.294   9.141   9.868
   22        0.396   0.273   9.162   9.831
   23        0.436   0.292   9.141   9.869
   24        0.396   0.273   9.162   9.831
   25        0.406   0.266   9.166   9.838
   26        0.406   0.266   9.166   9.838
   27        0.396   0.273   9.164   9.832
   28        0.417   0.206   9.173   9.795
   29        0.440   0.217   9.161   9.818
   30        0.440   0.217   9.161   9.818
   31        0.445   0.204   9.169   9.818
   32        0.445   0.204   9.169   9.818
   33        0.439   0.217   9.162   9.817
   34        0.439   0.217   9.162   9.817
   35        0.417   0.206   9.172   9.795
   36        2.213   6.011   1.617   9.840
   37        1.612   3.257   0.000   4.869
   38        1.612   3.257   0.000   4.869
tot         19.998  20.964 322.423 363.386

 BZINTS: Fermi energy:    0.356519;  409.000000 electrons
         Band energy:-0.184875E+04;  BLOECHL correction:   -0.061313