 vasp.6.2.0 18Jan21 (build Jun 12 2021 23:27:24) complex

 executed on             LinuxIFC date 2022.05.30  15:50:24

 INCAR:
   ISMEAR = -5
   SIGMA = 0.1
   ISPIN = 1
   EDIFF = 1.d-5
   EDIFFG = -0.01
   NSW = 0
   NELM = 150
   ENCUT = 500
   ISIF = 2
   IBRION = 2
   LREAL = Auto
   ALGO = Fast
   ICHARG = 11
   LORBIT = 10
   LCHARG = .F.
   LWAVE = .F.

 POTCAR:    PAW_PBE Au 04Oct2007
 POTCAR:    PAW_PBE Cr 06Sep2000
 POTCAR:    PAW_PBE O 08Apr2002
|           W    W    AA    RRRRR   N    N  II  N    N   GGGG   !!!           |
|           W    W   A  A   R    R  NN   N  II  NN   N  G    G  !!!           |
|           W    W  A    A  R    R  N N  N  II  N N  N  G       !!!           |
|           W WW W  AAAAAA  RRRRR   N  N N  II  N  N N  G  GGG   !            |
|           WW  WW  A    A  R   R   N   NN  II  N   NN  G    G                |
|           W    W  A    A  R    R  N    N  II  N    N   GGGG   !!!           |
|     For optimal performance we recommend to set                             |
|       NCORE = 2 up to number-of-cores-per-socket                            |
|     This setting can greatly improve the performance of VASP for DFT.       |
|     The default, NCORE=1 might be grossly inefficient on modern             |
|     multi-core architectures or massively parallel machines. Do your        |
|     Unfortunately you need to use the default for GW and RPA                |
|     calculations (for HF NCORE is supported but not extensively tested      |
|     yet).                                                                   |

 POTCAR:    PAW_PBE Au 04Oct2007
   VRHFIN =Au: s1d10

   TITEL  = PAW_PBE Au 04Oct2007
   POMASS =  196.966; ZVAL   =   11.000    mass and valenz
   ENMAX  =  229.943; ENMIN  =  172.457 eV

 POTCAR:    PAW_PBE Cr 06Sep2000
   VRHFIN =Cr : d5 s1

   TITEL  = PAW_PBE Cr 06Sep2000
   POMASS =   51.996; ZVAL   =    6.000    mass and valenz
   ENMAX  =  227.080; ENMIN  =  170.310 eV

 POTCAR:    PAW_PBE O 08Apr2002
   VRHFIN =O: s2p4

   TITEL  = PAW_PBE O 08Apr2002
   POMASS =   16.000; ZVAL   =    6.000    mass and valenz
   ENMAX  =  400.000; ENMIN  =  300.000 eV

 Optimization of the real space projectors (new method)

 maximal supplied QI-value         = 15.12
 optimisation between [QCUT,QGAM] = [ 11.34, 22.83] = [ 36.00,145.93] Ry
 Optimized for a Real-space Cutoff    1.39 Angstroem

   l    n(q)    QCUT    max X(q) W(low)/X(q) W(high)/X(q)  e(spline)
   2      9    11.338    60.898    0.39E-03    0.42E-03    0.21E-06
   2      9    11.338    58.894    0.40E-03    0.42E-03    0.22E-06
   0      9    11.338   109.617    0.13E-03    0.20E-04    0.13E-06
   0      9    11.338    75.026    0.13E-03    0.20E-04    0.13E-06
   1      9    11.338    16.344    0.33E-04    0.24E-03    0.18E-06
   1      9    11.338    10.160    0.26E-04    0.19E-03    0.15E-06
 Optimization of the real space projectors (new method)

[...]

   l    n(q)    QCUT    max X(q) W(low)/X(q) W(high)/X(q)  e(spline)
   2      9    11.338    94.395    0.18E-03    0.10E-02    0.64E-06
   2      9    11.338    88.078    0.18E-03    0.10E-02    0.65E-06
   0     10    11.338    50.173    0.13E-03    0.16E-03    0.96E-07
   0     10    11.338    24.906    0.12E-03    0.14E-03    0.88E-07
   1      9    11.338    12.133    0.13E-03    0.15E-03    0.24E-06
   1      9    11.338     7.290    0.10E-03    0.10E-03    0.18E-06
 Optimization of the real space projectors (new method)

 maximal supplied QI-value         = 24.76
 optimisation between [QCUT,QGAM] = [ 11.39, 22.77] = [ 36.31,145.25] Ry
 Optimized for a Real-space Cutoff    1.00 Angstroem

   l    n(q)    QCUT    max X(q) W(low)/X(q) W(high)/X(q)  e(spline)
   0      7    11.387    20.381    0.39E-03    0.13E-02    0.15E-06
   0      7    11.387    15.268    0.42E-03    0.14E-02    0.17E-06
   1      6    11.387     5.964    0.41E-03    0.11E-02    0.17E-06
   1      6    11.387     5.382    0.39E-03    0.87E-03    0.15E-06
  PAW_PBE Au 04Oct2007                  :
  PAW_PBE Cr 06Sep2000                  :
  PAW_PBE O 08Apr2002                   :

 POSCAR: Au-Cr-O2
  positions in direct lattice
  velocities in cartesian coordinates
 exchange correlation table for  LEXCH =        8
   RHO(1)=    0.500       N(1)  =     2000
   RHO(2)=  100.500       N(2)  =     4000

 VTST: version 3.2, (02/03/18)

 CHAIN: initializing optimizer

 OPT: Using VASP Conjugate-Gradient optimizer
 CHAIN: Read ICHAIN            0

 POSCAR: Au-Cr-O2
  positions in direct lattice
  velocities in cartesian coordinates

 ion  position               nearest neighbor table
   1  0.000  0.000  0.217-  16 2.94  12 2.94   6 2.94   8 2.94   7 2.94   3 2.94  10 2.94   4 2.94
                             2 2.94
   2  0.333  0.000  0.217-   9 2.94  11 2.94  17 2.94  10 2.94   8 2.94   4 2.94   5 2.94   1 2.94
                             3 2.94
   3  0.667  0.000  0.217-   7 2.94  18 2.94  12 2.94   1 2.94  11 2.94   5 2.94   6 2.94   9 2.94
                             2 2.94
   4  0.000  0.333  0.217-  10 2.94   6 2.94   5 2.94  13 2.94   2 2.94  15 2.94   9 2.94   1 2.94
                             7 2.94
   5  0.333  0.333  0.217-  13 2.94   7 2.94  11 2.94   4 2.94   2 2.94  14 2.94   3 2.94   8 2.94
                             6 2.94
   6  0.667  0.333  0.217-  15 2.94  14 2.94   1 2.94  12 2.94   4 2.94   9 2.94   8 2.94   3 2.94
                             5 2.94
   7  0.000  0.667  0.217-  18 2.94   3 2.94  16 2.94   5 2.94   1 2.94  13 2.94   8 2.94   4 2.94
                             9 2.94
   8  0.333  0.667  0.217-   9 2.94  17 2.94   1 2.94   2 2.94  14 2.94  16 2.94   6 2.94   7 2.94
                             5 2.94
   9  0.667  0.667  0.217-   2 2.94   8 2.94  17 2.94   6 2.94  15 2.94   4 2.94   3 2.94  18 2.94
                             7 2.94
  10  0.111  0.111  0.316-  20 2.92  26 2.94  19 2.94  11 2.94  17 2.94   2 2.94   4 2.94   1 2.94
                            12 2.94  16 2.94  13 2.94  15 2.94
  11  0.444  0.111  0.316-  20 2.91  21 2.91  27 2.93  13 2.94   2 2.94  10 2.94  17 2.94   5 2.94
                             3 2.94  18 2.94  14 2.94  12 2.94
  12  0.778  0.111  0.316-  21 2.92  25 2.94  19 2.94  16 2.94  18 2.94   1 2.94  14 2.94  15 2.94
                             3 2.94   6 2.94  10 2.94  11 2.94
  13  0.111  0.444  0.316-  23 2.91  20 2.91  22 2.93   5 2.94  18 2.94  11 2.94   7 2.94   4 2.94
                            16 2.94  10 2.94  14 2.94  15 2.94
  14  0.444  0.444  0.316-  21 2.91  23 2.91  24 2.93  15 2.94   6 2.94  12 2.94   8 2.94  17 2.94
                             5 2.94  16 2.94  13 2.94  11 2.94
  15  0.778  0.444  0.316-  24 2.92  22 2.92  19 2.94  14 2.94   6 2.94  17 2.94  12 2.94   9 2.94
                             4 2.94  10 2.94  13 2.94  18 2.94
  16  0.111  0.778  0.316-  23 2.92  25 2.94  26 2.94  18 2.94  12 2.94   7 2.94   1 2.94   8 2.94
                            13 2.94  10 2.94  14 2.94  17 2.94
  17  0.444  0.778  0.316-  27 2.92  24 2.92  26 2.94   9 2.94  15 2.94   2 2.94  10 2.94  11 2.94
                             8 2.94  14 2.94  16 2.94  18 2.94
  18  0.778  0.778  0.316-  22 2.92  27 2.92  25 2.94  16 2.94   7 2.94  13 2.94  12 2.94   3 2.94
                            11 2.94   9 2.94  15 2.94  17 2.94
  19  0.889  0.222  0.414-  10 2.94  12 2.94  15 2.94  26 2.94  25 2.94  24 2.94  22 2.94  28 2.95
                            21 2.95  20 2.95  32 3.00  31 3.00
  20  0.223  0.223  0.413-  36 2.71  11 2.91  13 2.91  23 2.91  21 2.91  29 2.92  31 2.92  10 2.92
                            26 2.95  19 2.95  27 2.96  22 2.96
  21  0.553  0.223  0.413-  36 2.71  14 2.91  11 2.91  20 2.91  23 2.91  30 2.92  32 2.92  12 2.92
                            25 2.95  19 2.95  27 2.96  24 2.96
  22  0.886  0.557  0.414-  24 2.90  27 2.90  18 2.92  15 2.92  13 2.93  25 2.94  19 2.94  23 2.96
                            20 2.96  35 2.96  33 2.96  31 2.96
  23  0.223  0.553  0.413-  36 2.71  13 2.91  14 2.91  20 2.91  21 2.91  33 2.92  34 2.92  16 2.92
                            25 2.95  26 2.95  22 2.96  24 2.96
  24  0.557  0.557  0.414-  27 2.90  22 2.90  15 2.92  17 2.92  14 2.93  26 2.94  19 2.94  21 2.96
                            23 2.96  35 2.96  32 2.96  34 2.96
  25  0.889  0.889  0.414-  16 2.94  12 2.94  18 2.94  19 2.94  26 2.94  22 2.94  27 2.94  28 2.95
                            23 2.95  21 2.95  33 3.00  30 3.00
  26  0.222  0.889  0.414-  10 2.94  16 2.94  17 2.94  19 2.94  25 2.94  27 2.94  24 2.94  28 2.95
                            20 2.95  23 2.95  29 3.00  34 3.00
  27  0.557  0.886  0.414-  24 2.90  22 2.90  17 2.92  18 2.92  11 2.93  26 2.94  25 2.94  20 2.96
                            21 2.96  35 2.96  29 2.96  30 2.96
  28  0.000  0.000  0.514-  25 2.95  19 2.95  26 2.95  34 2.99  32 2.99  33 2.99  30 2.99  31 2.99
                            29 2.99
  29  0.334  0.011  0.513-  30 2.84  31 2.84  36 2.86  20 2.92  27 2.96  35 2.99  28 2.99  26 3.00
                            34 3.13
  30  0.655  0.011  0.513-  29 2.84  32 2.84  36 2.86  21 2.92  27 2.96  35 2.99  28 2.99  25 3.00
                            33 3.13
  31  0.011  0.334  0.513-  37 2.58  33 2.84  29 2.84  36 2.86  20 2.92  22 2.96  35 2.99  28 2.99
                            19 3.00  32 3.13
  32  0.655  0.334  0.513-  38 2.58  34 2.84  30 2.84  36 2.86  21 2.92  24 2.96  35 2.99  28 2.99
                            19 3.00  31 3.13
  33  0.011  0.655  0.513-  31 2.84  34 2.84  36 2.86  23 2.92  22 2.96  35 2.99  28 2.99  25 3.00
                            30 3.13
  34  0.334  0.655  0.513-  32 2.84  33 2.84  36 2.86  23 2.92  24 2.96  35 2.99  28 2.99  26 3.00
                            29 3.13
  35  0.667  0.667  0.514-  24 2.96  27 2.96  22 2.96  29 2.99  34 2.99  32 2.99  31 2.99  30 2.99
                            33 2.99
  36  0.333  0.333  0.501-  38 1.89  37 1.89  20 2.71  23 2.71  21 2.71  33 2.86  31 2.86  29 2.86
                            30 2.86  34 2.86  32 2.86
  37  0.254  0.333  0.573-  38 1.41  36 1.89  31 2.58
  38  0.413  0.333  0.573-  37 1.41  36 1.89  32 2.58

  LATTYP: Found a hexagonal cell.
 ALAT       =     8.8135128021
 C/A-ratio  =     2.7586513333

  Lattice vectors:

 A1 = (  -4.4067569092,  -7.6327256898,   0.0000000000)
 A2 = (   8.8135128021,   0.0000000000,   0.0000000000)
 A3 = (   0.0000000000,   0.0000000000,  24.3134088421)

Analysis of symmetry for initial positions (statically):
 Subroutine PRICEL returns:
 Original cell was already a primitive cell.

 Routine SETGRP: Setting up the symmetry group for a
 hexagonal supercell.

 Subroutine GETGRP returns: Found  2 space group operations
 (whereof  2 operations were pure point group operations)
 out of a pool of 24 trial point group operations.

The static configuration has the point symmetry C_1h.

Analysis of symmetry for dynamics (positions and initial velocities):
 Subroutine PRICEL returns:
 Original cell was already a primitive cell.

[...]

The dynamic configuration has the point symmetry C_1h.

Analysis of constrained symmetry for selective dynamics:
 Subroutine PRICEL returns:
 Original cell was already a primitive cell.

 Routine SETGRP: Setting up the symmetry group for a
[...]
     33      -5.3911      2.00000
     34      -5.2920      2.00000
     35      -5.2841      2.00000
     36      -5.2565      2.00000
     37      -5.2491      2.00000
     38      -5.2325      2.00000
     39      -5.1208      2.00000
     40      -5.0955      2.00000
     41      -5.0865      2.00000
     42      -5.0421      2.00000
     43      -5.0283      2.00000
     44      -4.9764      2.00000
     45      -4.9130      2.00000
     46      -4.8826      2.00000
     47      -4.8172      2.00000
     48      -4.8097      2.00000
     49      -4.7997      2.00000
     50      -4.7779      2.00000
     51      -4.6937      2.00000
     52      -4.6679      2.00000
     53      -4.6442      2.00000
     54      -4.6190      2.00000
     55      -4.6161      2.00000
     56      -4.6072      2.00000
     57      -4.5774      2.00000
     58      -4.5604      2.00000
     59      -4.5189      2.00000
     60      -4.4863      2.00000
[...]
    238       5.6237      0.00000
    239       5.6793      0.00000
    240       5.9284      0.00000
    241       5.9804      0.00000
    242       6.0008      0.00000
    243       6.0175      0.00000
    244       6.0655      0.00000
    245       6.2433      0.00000
    246       6.2921      0.00000
    247       6.3514      0.00000
    248       6.3637      0.00000
    249       6.3959      0.00000
    250       6.6890      0.00000
    251       6.7665      0.00000
    252       6.8455      0.00000

 soft charge-density along one line, spin component           1
         0         1         2         3         4         5         6         7         8         9
 total charge-density along one line

------------------------ aborting loop because EDIFF is reached ----------------------------------------

 total charge

# of ion       s       p       d       tot
    1        0.547   0.238   8.766   9.551
    2        0.542   0.242   8.763   9.547
    3        0.542   0.242   8.763   9.547
    4        0.543   0.241   8.764   9.548
    5        0.544   0.241   8.761   9.546
    6        0.543   0.241   8.764   9.548
    7        0.542   0.241   8.765   9.548
    8        0.542   0.241   8.765   9.548
    9        0.541   0.240   8.766   9.547
   10        0.522   0.307   8.771   9.600
   11        0.518   0.309   8.779   9.606
   12        0.522   0.307   8.771   9.600
   13        0.519   0.310   8.775   9.604
   14        0.519   0.310   8.775   9.604
   15        0.516   0.309   8.775   9.600
   16        0.524   0.309   8.765   9.597
   17        0.514   0.310   8.774   9.599
   18        0.514   0.310   8.774   9.599
   19        0.512   0.299   8.776   9.588
   20        0.553   0.336   8.744   9.633
   21        0.553   0.336   8.744   9.633
   22        0.510   0.311   8.772   9.594
   23        0.556   0.341   8.735   9.632
   24        0.510   0.311   8.772   9.594
   25        0.516   0.299   8.774   9.589
   26        0.516   0.299   8.774   9.589
   27        0.510   0.309   8.777   9.596
   28        0.541   0.221   8.767   9.529
   29        0.554   0.237   8.765   9.556
   30        0.554   0.237   8.765   9.556
   31        0.549   0.240   8.771   9.560
   32        0.549   0.240   8.771   9.560
   33        0.552   0.237   8.768   9.557
   34        0.552   0.237   8.768   9.557
   35        0.537   0.222   8.767   9.526
   36        0.399   0.559   4.356   5.314
   37        1.615   3.250   0.000   4.865
   38        1.615   3.250   0.000   4.865
tot         22.309  16.717 311.205 350.231

  FORCE on cell =-STRESS in cart. coord.  units (eV):
  Direction    XX          YY          ZZ          XY          YZ          ZX
  Alpha Z   941.56370   941.56370   941.56370
  Ewald  151397.57535151006.81160************    -0.00030     0.33901    -0.00010
  Hartree159816.05615159625.08791************     0.00001     0.32337    -0.00003
  E(xc)   -1812.37708 -1812.98911 -1819.78073    -0.00001     0.00942     0.00000
  Local  ************************323179.56669     0.00259    -0.69725    -0.00002
  n-local  -104.83218  -108.35167   -83.87203     4.88508     0.29539     0.18094
  augment  2405.05149  2408.47545  2420.74315    -0.00133    -0.04163     0.00000
  Kinetic  5635.72319  5677.27631  5706.55087     1.09117    -0.07325     0.01875
  Fock        0.00000     0.00000     0.00000     0.00000     0.00000     0.00000
  Total     -16.24879   -18.00241     1.24188    -0.00000     0.15505     0.00000
  in kB     -15.91684   -17.63464     1.21651    -0.00000     0.15189     0.00000

 VOLUME and BASIS-vectors are now :
  energy-cutoff  :      500.00
  volume of cell :     1635.59
      direct lattice vectors                 reciprocal lattice vectors
     8.813512802  0.000000000  0.000000000     0.113462137 -0.065507406  0.000000000
     4.406756909  7.632725690  0.000000000     0.000000000  0.131014796  0.000000000
     0.000000000  0.000000000 24.313408842     0.000000000  0.000000000  0.041129568

  length of vectors
     8.813512802  8.813512802 24.313408842     0.131014796  0.131014796  0.041129568

 FORCES acting on ions
    electron-ion (+dipol)            ewald-force                    non-local-force                 convergence-correction
   -.198E-04 0.441E-01 0.267E+04   0.519E-04 -.306E-01 -.267E+04   0.260E-08 0.390E-01 -.744E+00   -.217E-03 -.591E-01 -.287E+00
   0.571E+00 0.274E+00 0.267E+04   -.640E+00 -.356E+00 -.267E+04   0.225E-01 0.724E-01 -.297E+00   0.410E-01 0.142E-01 -.323E+00
   -.571E+00 0.274E+00 0.267E+04   0.640E+00 -.356E+00 -.267E+04   -.225E-01 0.724E-01 -.297E+00   -.407E-01 0.161E-01 -.323E+00
   0.450E+00 0.376E+00 0.267E+04   -.603E+00 -.391E+00 -.267E+04   0.789E-01 -.305E-01 -.301E+00   0.719E-01 0.390E-01 -.326E+00
   0.810E-05 -.747E-01 0.267E+04   0.951E-04 0.225E-03 -.267E+04   0.223E-08 0.335E-01 -.251E+00   0.422E-02 0.433E-01 -.274E+00
   -.450E+00 0.376E+00 0.267E+04   0.603E+00 -.391E+00 -.267E+04   -.789E-01 -.305E-01 -.301E+00   -.734E-01 0.399E-01 -.325E+00
   -.124E+00 -.641E+00 0.267E+04   0.385E-01 0.748E+00 -.267E+04   0.424E-01 -.568E-01 -.297E+00   0.506E-01 -.427E-01 -.327E+00
   0.124E+00 -.641E+00 0.267E+04   -.386E-01 0.748E+00 -.267E+04   -.424E-01 -.568E-01 -.297E+00   -.488E-01 -.438E-01 -.327E+00
   0.196E-04 -.326E-01 0.267E+04   0.166E-03 0.304E-01 -.267E+04   -.742E-09 -.111E-01 -.478E+00   -.455E-02 0.920E-02 -.286E+00
   0.484E+01 0.309E+01 0.928E+03   -.455E+01 -.287E+01 -.927E+03   -.312E+00 -.148E+00 -.581E+00   0.200E-01 -.557E-01 -.365E+00
   0.179E-04 0.538E+01 0.936E+03   0.147E-03 -.546E+01 -.936E+03   0.287E-08 0.432E-01 -.323E+00   0.389E-02 -.437E-01 -.354E+00
   -.484E+01 0.309E+01 0.928E+03   0.455E+01 -.287E+01 -.927E+03   0.312E+00 -.148E+00 -.581E+00   -.212E-01 -.550E-01 -.366E+00
   0.432E+01 -.274E+01 0.937E+03   -.449E+01 0.277E+01 -.936E+03   0.981E-01 -.515E-01 -.344E+00   0.180E-01 0.470E-01 -.409E+00
   -.432E+01 -.274E+01 0.937E+03   0.449E+01 0.277E+01 -.936E+03   -.981E-01 -.515E-01 -.344E+00   -.108E-01 0.461E-01 -.411E+00
   0.313E-04 0.372E+01 0.932E+03   0.236E-03 -.387E+01 -.931E+03   0.543E-09 0.816E-02 -.559E+00   -.192E-02 0.999E-01 -.349E+00
   -.217E-04 -.578E+01 0.928E+03   0.163E-03 0.532E+01 -.927E+03   0.294E-07 0.441E+00 -.685E+00   -.277E-03 0.576E-02 -.373E+00
   0.345E+01 -.203E+01 0.931E+03   -.349E+01 0.210E+01 -.930E+03   -.132E-01 -.417E-01 -.454E+00   0.184E-01 -.100E-01 -.347E+00
   -.345E+01 -.203E+01 0.931E+03   0.349E+01 0.210E+01 -.930E+03   0.132E-01 -.417E-01 -.454E+00   -.179E-01 -.834E-02 -.347E+00
   -.409E-04 0.299E+01 -.850E+03   0.540E-04 -.324E+01 0.849E+03   0.911E-08 0.137E+00 0.822E+00   0.788E-03 0.519E-01 -.234E+00
   0.193E+02 0.128E+02 -.802E+03   -.183E+02 -.123E+02 0.803E+03   -.107E+01 -.510E+00 -.836E+00   0.272E-01 -.107E+00 -.234E+00
   -.193E+02 0.128E+02 -.802E+03   0.183E+02 -.123E+02 0.803E+03   0.107E+01 -.510E+00 -.836E+00   -.331E-01 -.108E+00 -.234E+00
   0.394E+01 -.382E+01 -.832E+03   -.413E+01 0.400E+01 0.831E+03   0.344E+00 -.270E+00 0.681E+00   -.582E-01 0.674E-01 -.231E+00
   -.404E-05 -.249E+02 -.804E+03   0.141E-03 0.234E+02 0.805E+03   0.923E-07 0.139E+01 -.893E+00   -.371E-02 0.708E-01 -.194E+00
   -.394E+01 -.382E+01 -.832E+03   0.413E+01 0.400E+01 0.831E+03   -.344E+00 -.270E+00 0.681E+00   0.595E-01 0.679E-01 -.231E+00
   -.188E+01 -.301E+00 -.852E+03   0.201E+01 0.469E+00 0.852E+03   -.886E-01 -.776E-01 0.718E+00   -.530E-01 -.612E-01 -.174E+00
   0.188E+01 -.301E+00 -.852E+03   -.201E+01 0.469E+00 0.852E+03   0.886E-01 -.776E-01 0.718E+00   0.536E-01 -.603E-01 -.174E+00
   0.135E-04 0.420E+01 -.834E+03   0.195E-03 -.477E+01 0.833E+03   0.426E-07 0.640E+00 0.794E+00   -.266E-03 0.139E-01 -.176E+00
   -.159E-04 0.589E+01 -.259E+04   0.313E-04 -.572E+01 0.259E+04   -.954E-09 -.143E-01 0.455E+00   0.518E-04 -.162E+00 0.236E+00
   0.469E+02 0.950E+02 -.254E+04   -.464E+02 -.947E+02 0.254E+04   -.774E+00 -.683E+00 0.725E+00   0.903E-01 -.105E+00 0.252E+00
   -.469E+02 0.950E+02 -.254E+04   0.464E+02 -.947E+02 0.254E+04   0.774E+00 -.683E+00 0.725E+00   -.902E-01 -.104E+00 0.252E+00
   0.121E+03 0.223E+01 -.253E+04   -.122E+03 -.211E+01 0.252E+04   -.578E+00 -.119E+00 0.111E+01   0.332E-01 0.182E-02 0.218E+00
   -.121E+03 0.223E+01 -.253E+04   0.122E+03 -.211E+01 0.252E+04   0.578E+00 -.119E+00 0.111E+01   -.342E-01 0.267E-02 0.220E+00
   0.428E+02 -.971E+02 -.255E+04   -.426E+02 0.968E+02 0.254E+04   -.565E+00 0.727E+00 0.758E+00   0.469E-01 0.753E-01 0.273E+00
   -.428E+02 -.971E+02 -.255E+04   0.426E+02 0.968E+02 0.254E+04   0.565E+00 0.727E+00 0.758E+00   -.453E-01 0.749E-01 0.274E+00
   0.352E-04 -.596E+01 -.260E+04   0.139E-03 0.570E+01 0.259E+04   0.513E-08 0.771E-01 0.552E+00   -.429E-02 0.182E+00 0.193E+00
   -.251E-04 -.157E+00 -.110E+04   0.635E-04 0.944E-01 0.110E+04   0.959E-08 0.144E+00 0.154E+01   0.151E-02 -.550E-02 0.220E+00
   0.199E+03 0.902E-01 -.172E+04   -.234E+03 -.875E-02 0.173E+04   0.348E+02 -.789E-01 -.171E+02   0.202E+00 0.391E-02 0.379E+00
   -.199E+03 0.902E-01 -.172E+04   0.234E+03 -.875E-02 0.173E+04   -.348E+02 -.789E-01 -.171E+02   -.198E+00 0.397E-02 0.379E+00
   -.480E-03 -.342E+00 0.377E+02   -.568E-13 0.318E-12 0.909E-12   0.260E-07 0.390E+00 -.323E+02   0.385E-02 -.546E-01 -.511E+01

 POSITION                                       TOTAL-FORCE (eV/Angst)
      0.00000      0.00000      5.28038        -0.000000     -0.006480     -0.110303
      2.93784      0.00000      5.28038        -0.005964      0.005843     -0.013252
      5.87568      0.00000      5.28038         0.005964      0.005843     -0.013252
      1.46892      2.54424      5.28038        -0.000988     -0.006118     -0.023633
      4.40676      2.54424      5.28038         0.000000      0.002489     -0.060078
      7.34459      2.54424      5.28038         0.000988     -0.006118     -0.023633
      2.93784      5.08848      5.28038         0.006876      0.007290     -0.021096
      5.87568      5.08848      5.28038        -0.006876      0.007290     -0.021096
      8.81351      5.08848      5.28038        -0.000000     -0.003960     -0.049231
      1.46892      0.84808      7.67911         0.002626      0.014290      0.059964
      4.40676      0.84808      7.67911        -0.000000     -0.071329     -0.043413
      7.34459      0.84808      7.67911        -0.002626      0.014290      0.059964
      2.93784      3.39232      7.67911        -0.058127      0.029111     -0.016168
      5.87568      3.39232      7.67911         0.058127      0.029111     -0.016168
      8.81351      3.39232      7.67911        -0.000000     -0.050181      0.050254
      4.40676      5.93656      7.67911        -0.000000     -0.021750      0.093057
      7.34459      5.93656      7.67911        -0.034867      0.018780      0.049012
     10.28243      5.93656      7.67911         0.034867      0.018780      0.049012
      8.81351      1.69581     10.07501        -0.000000     -0.059625      0.016693
      2.95207      1.70438     10.04871        -0.053878     -0.053645     -0.071884
      5.86144      1.70438     10.04871         0.053878     -0.053645     -0.071884
     10.26527      4.25031     10.05786         0.090119     -0.022251      0.071554
      4.40676      4.22397     10.04871         0.000000      0.020094      0.039073
      7.36176      4.25031     10.05786        -0.090119     -0.022251      0.071554
     11.75166      6.78482     10.07501        -0.013207      0.030004      0.043222
      5.87537      6.78482     10.07501         0.013207      0.030004      0.043222
      8.81351      6.76483     10.05786         0.000000      0.085891      0.077024
      0.00000      0.00000     12.48798        -0.000000     -0.006519     -0.065896
      2.98892      0.08359     12.48152        -0.211640     -0.509976     -0.287615
      5.82460      0.08359     12.48152         0.211640     -0.509976     -0.287615
      1.56685      2.54668     12.48152        -1.008869      0.009370     -0.589083
      7.24666      2.54668     12.48152         1.008869      0.009370     -0.589083
      2.98469      5.00245     12.48152        -0.236465      0.488452     -0.281835
      5.82882      5.00245     12.48152         0.236465      0.488452     -0.281835
      8.81351      5.08848     12.49580        -0.000000     -0.000642      0.015470
      4.40676      2.54424     12.17616         0.000000      0.076295      2.287830
      3.70350      2.54359     13.93332         0.029006      0.006709     -0.044426
      5.11001      2.54359     13.93332        -0.029006      0.006709     -0.044426
    total drift:                                0.003367     -0.006091      0.262851

  FREE ENERGIE OF THE ION-ELECTRON SYSTEM (eV)
  free  energy   TOTEN  =      -125.27960667 eV

  energy  without entropy=     -125.27960667  energy(sigma->0) =     -125.27960667

 stress matrix after NEB project (eV)
    -16.24879     -0.00000      0.00000
     -0.00000    -18.00241      0.15505
      0.00000      0.15505      1.24188
  FORCES: max atom, RMS     0.053479    0.012269
  FORCE total and by dimension    0.075630    0.044426
  Stress total and by dimension   24.283742   18.002409
|           W    W    AA    RRRRR   N    N  II  N    N   GGGG   !!!           |
|           W    W   A  A   R    R  NN   N  II  NN   N  G    G  !!!           |
|           W    W  A    A  R    R  N N  N  II  N N  N  G       !!!           |
|           W WW W  AAAAAA  RRRRR   N  N N  II  N  N N  G  GGG   !            |
|           WW  WW  A    A  R   R   N   NN  II  N   NN  G    G                |
|           W    W  A    A  R    R  N    N  II  N    N   GGGG   !!!           |
|     Tetrahedron method does not include variations of the Fermi             |
|     occupations, so forces and stress will be inaccurate. We suggest        |
|     using a different smearing scheme ISMEAR = 1 or 2 for metals in         |
|     relaxations.                                                            |

 total charge

# of ion       s       p       d       tot
    1        0.547   0.238   8.766   9.551
    2        0.542   0.242   8.763   9.547
    3        0.542   0.242   8.763   9.547
    4        0.543   0.241   8.764   9.548
    5        0.544   0.241   8.761   9.546
    6        0.543   0.241   8.764   9.548
    7        0.542   0.241   8.765   9.548
    8        0.542   0.241   8.765   9.548
    9        0.541   0.240   8.766   9.547
   10        0.522   0.307   8.771   9.600
   11        0.518   0.309   8.779   9.606
   12        0.522   0.307   8.771   9.600
   13        0.519   0.310   8.775   9.604
   14        0.519   0.310   8.775   9.604
   15        0.516   0.309   8.775   9.600
   16        0.524   0.309   8.765   9.597
   17        0.514   0.310   8.774   9.599
   18        0.514   0.310   8.774   9.599
   19        0.512   0.299   8.776   9.588
   20        0.553   0.336   8.744   9.633
   21        0.553   0.336   8.744   9.633
   22        0.510   0.311   8.772   9.594
   23        0.556   0.341   8.735   9.632
   24        0.510   0.311   8.772   9.594
   25        0.516   0.299   8.774   9.589
   26        0.516   0.299   8.774   9.589
   27        0.510   0.309   8.777   9.596
   28        0.541   0.221   8.767   9.529
   29        0.554   0.237   8.765   9.556
   30        0.554   0.237   8.765   9.556
   31        0.549   0.240   8.771   9.560
   32        0.549   0.240   8.771   9.560
   33        0.552   0.237   8.768   9.557
   34        0.552   0.237   8.768   9.557
   35        0.537   0.222   8.767   9.526
   36        0.399   0.559   4.356   5.314
   37        1.615   3.250   0.000   4.865
   38        1.615   3.250   0.000   4.865
tot         22.309  16.717 311.205 350.231

 BZINTS: Fermi energy:    0.163789;  403.000000 electrons
         Band energy:-0.149874E+04;  BLOECHL correction:   -0.037108