 vasp.6.2.0 18Jan21 (build Jun 12 2021 23:27:24) complex

 executed on             LinuxIFC date 2022.05.26  20:19:02

 INCAR:
   ISMEAR = -5
   SIGMA = 0.1
   ISPIN = 1
   EDIFF = 1.d-5
   EDIFFG = -0.01
   NSW = 0
   NELM = 150
   ENCUT = 500
   ISIF = 2
   IBRION = 2
   LREAL = Auto
   ALGO = Fast
   ICHARG = 11
   LORBIT = 10
   LCHARG = .F.
   LWAVE = .F.

 POTCAR:    PAW_PBE Ag 02Apr2005
 POTCAR:    PAW_PBE Co 02Aug2007
|           W    W    AA    RRRRR   N    N  II  N    N   GGGG   !!!           |
|           W    W   A  A   R    R  NN   N  II  NN   N  G    G  !!!           |
|           W    W  A    A  R    R  N N  N  II  N N  N  G       !!!           |
|           W WW W  AAAAAA  RRRRR   N  N N  II  N  N N  G  GGG   !            |
|           WW  WW  A    A  R   R   N   NN  II  N   NN  G    G                |
|           W    W  A    A  R    R  N    N  II  N    N   GGGG   !!!           |
|     For optimal performance we recommend to set                             |
|       NCORE = 2 up to number-of-cores-per-socket                            |
|     This setting can greatly improve the performance of VASP for DFT.       |
|     The default, NCORE=1 might be grossly inefficient on modern             |
|     multi-core architectures or massively parallel machines. Do your        |
|     Unfortunately you need to use the default for GW and RPA                |
|     calculations (for HF NCORE is supported but not extensively tested      |
|     yet).                                                                   |

 POTCAR:    PAW_PBE Ag 02Apr2005
   VRHFIN =Ag : s1 d10

   TITEL  = PAW_PBE Ag 02Apr2005
   POMASS =  107.868; ZVAL   =   11.000    mass and valenz
   ENMAX  =  249.844; ENMIN  =  187.383 eV

 POTCAR:    PAW_PBE Co 02Aug2007
   VRHFIN =Co: d8 s1

   TITEL  = PAW_PBE Co 02Aug2007
   POMASS =   58.933; ZVAL   =    9.000    mass and valenz
   ENMAX  =  267.968; ENMIN  =  200.976 eV

 Optimization of the real space projectors (new method)

 maximal supplied QI-value         = 15.12
 optimisation between [QCUT,QGAM] = [ 11.34, 22.83] = [ 36.00,145.93] Ry
 Optimized for a Real-space Cutoff    1.43 Angstroem

   l    n(q)    QCUT    max X(q) W(low)/X(q) W(high)/X(q)  e(spline)
   2      9    11.338    53.897    0.16E-03    0.20E-03    0.28E-06
   2      9    11.338    52.416    0.16E-03    0.20E-03    0.29E-06
   0     10    11.338   122.045    0.31E-04    0.76E-04    0.15E-06
   0     10    11.338    73.629    0.30E-04    0.72E-04    0.15E-06
   1      9    11.338    15.255    0.20E-03    0.19E-04    0.17E-06
   1      9    11.338     9.562    0.16E-03    0.15E-04    0.14E-06
 Optimization of the real space projectors (new method)

 maximal supplied QI-value         = 16.25
 optimisation between [QCUT,QGAM] = [ 11.38, 22.75] = [ 36.24,144.96] Ry
 Optimized for a Real-space Cutoff    1.39 Angstroem

   l    n(q)    QCUT    max X(q) W(low)/X(q) W(high)/X(q)  e(spline)
   2      8    11.376    65.824    0.20E-03    0.32E-04    0.13E-06
   2      8    11.376    61.429    0.20E-03    0.33E-04    0.14E-06
   0      9    11.376    56.174    0.76E-04    0.11E-03    0.19E-06
   0      9    11.376    31.263    0.69E-04    0.99E-04    0.17E-06
   1      9    11.376    19.828    0.35E-03    0.11E-03    0.12E-06
   1      9    11.376    15.139    0.29E-03    0.94E-04    0.10E-06
  PAW_PBE Ag 02Apr2005                  :
  PAW_PBE Co 02Aug2007                  :

 POSCAR: Ag-Co
  positions in direct lattice
  velocities in cartesian coordinates
 exchange correlation table for  LEXCH =        8
   RHO(1)=    0.500       N(1)  =     2000
   RHO(2)=  100.500       N(2)  =     4000

 VTST: version 3.2, (02/03/18)

 CHAIN: initializing optimizer

 OPT: Using VASP Conjugate-Gradient optimizer
 CHAIN: Read ICHAIN            0

 POSCAR: Ag-Co
  positions in direct lattice
  velocities in cartesian coordinates

 ion  position               nearest neighbor table
   1  0.000  0.000  0.238-   2 2.93   8 2.93   7 2.93   6 2.93   4 2.93  12 2.93  16 2.93  10 2.93
                             3 2.93
   2  0.333  0.000  0.238-   1 2.93   8 2.93   9 2.93   3 2.93   4 2.93   5 2.93  10 2.93  17 2.93
                            11 2.93
   3  0.667  0.000  0.238-   9 2.93   2 2.93   5 2.93  11 2.93   7 2.93  18 2.93   1 2.93   6 2.93
                            12 2.93
   4  0.000  0.333  0.238-   5 2.93   6 2.93   2 2.93   1 2.93   7 2.93  13 2.93  15 2.93   9 2.93
                            10 2.93
   5  0.333  0.333  0.238-   4 2.93   3 2.93   7 2.93   2 2.93   8 2.93  14 2.93  13 2.93  11 2.93
                             6 2.93
   6  0.667  0.333  0.238-   4 2.93   9 2.93   1 2.93  15 2.93   8 2.93  12 2.93   3 2.93   5 2.93
                            14 2.93
   7  0.000  0.667  0.238-   8 2.93   1 2.93   5 2.93   3 2.93   4 2.93  16 2.93  18 2.93  13 2.93
                             9 2.93
   8  0.333  0.667  0.238-   7 2.93   1 2.93   2 2.93   9 2.93   5 2.93  16 2.93   6 2.93  17 2.93
                            14 2.93
   9  0.667  0.667  0.238-   3 2.93   2 2.93   8 2.93   6 2.93  17 2.93   4 2.93  15 2.93   7 2.93
                            18 2.93
  10  0.111  0.111  0.346-  20 2.92  19 2.93  26 2.93  12 2.93  16 2.93  15 2.93  17 2.93  13 2.93
                            11 2.93   2 2.93   1 2.93   4 2.93
  11  0.444  0.111  0.346-  21 2.90  20 2.90  27 2.92  14 2.93  17 2.93  18 2.93   3 2.93  12 2.93
                            13 2.93  10 2.93   5 2.93   2 2.93
  12  0.778  0.111  0.346-  21 2.92  25 2.93  19 2.93  10 2.93  16 2.93  18 2.93  15 2.93  11 2.93
                             1 2.93  14 2.93   6 2.93   3 2.93
  13  0.111  0.444  0.346-  20 2.90  23 2.90  22 2.92  15 2.93  14 2.93  18 2.93  10 2.93  11 2.93
                            16 2.93   4 2.93   5 2.93   7 2.93
  14  0.444  0.444  0.346-  23 2.90  21 2.90  24 2.92  13 2.93  11 2.93  16 2.93   5 2.93  12 2.93
                            17 2.93   8 2.93  15 2.93   6 2.93
  15  0.778  0.444  0.346-  24 2.91  22 2.91  19 2.92  13 2.93  10 2.93  12 2.93  17 2.93  18 2.93
                             4 2.93   6 2.93   9 2.93  14 2.93
  16  0.111  0.778  0.346-  23 2.92  26 2.93  25 2.93  18 2.93  12 2.93  10 2.93  14 2.93  17 2.93
                            13 2.93   7 2.93   8 2.93   1 2.93
  17  0.444  0.778  0.346-  27 2.91  24 2.91  26 2.92  11 2.93  10 2.93   9 2.93  18 2.93  15 2.93
                            16 2.93   2 2.93  14 2.93   8 2.93
  18  0.778  0.778  0.346-  22 2.91  27 2.91  25 2.92  16 2.93  12 2.93  13 2.93  11 2.93  17 2.93
                            15 2.93   7 2.93   3 2.93   9 2.93
  19  0.889  0.222  0.454-  28 2.91  15 2.92  10 2.93  12 2.93  24 2.93  22 2.93  26 2.93  25 2.93
                            32 2.94  31 2.94  20 2.94  21 2.94
  20  0.223  0.223  0.453-  36 2.69  31 2.89  29 2.89  13 2.90  11 2.90  21 2.91  23 2.91  10 2.92
                            27 2.93  22 2.93  19 2.94  26 2.94
  21  0.554  0.223  0.453-  36 2.69  30 2.89  32 2.89  11 2.90  14 2.90  20 2.91  23 2.91  12 2.92
                            27 2.93  24 2.93  25 2.94  19 2.94
  22  0.888  0.556  0.453-  35 2.91  33 2.91  31 2.91  18 2.91  15 2.91  13 2.92  24 2.92  27 2.92
                            25 2.93  19 2.93  23 2.93  20 2.93
  23  0.223  0.554  0.453-  36 2.69  34 2.89  33 2.89  14 2.90  13 2.90  21 2.91  20 2.91  16 2.92
                            22 2.93  24 2.93  26 2.94  25 2.94
  24  0.556  0.556  0.453-  35 2.91  32 2.91  34 2.91  15 2.91  17 2.91  14 2.92  27 2.92  22 2.92
                            19 2.93  26 2.93  23 2.93  21 2.93
  25  0.889  0.889  0.454-  28 2.91  18 2.92  16 2.93  12 2.93  22 2.93  27 2.93  26 2.93  19 2.93
                            33 2.94  30 2.94  23 2.94  21 2.94
  26  0.222  0.889  0.454-  28 2.91  17 2.92  16 2.93  10 2.93  27 2.93  24 2.93  25 2.93  19 2.93
                            34 2.94  29 2.94  23 2.94  20 2.94
  27  0.556  0.888  0.453-  35 2.91  29 2.91  30 2.91  17 2.91  18 2.91  11 2.92  24 2.92  22 2.92
                            26 2.93  25 2.93  20 2.93  21 2.93
  28  0.000  0.000  0.560-  26 2.91  25 2.91  19 2.91  29 2.97  34 2.97  33 2.97  32 2.97  31 2.97
                            30 2.97
  29  0.333  0.008  0.560-  31 2.86  30 2.86  36 2.87  20 2.89  27 2.91  26 2.94  28 2.97  35 2.97
                            34 3.07
  30  0.659  0.008  0.560-  32 2.86  29 2.86  36 2.87  21 2.89  27 2.91  25 2.94  28 2.97  35 2.97
                            33 3.07
  31  0.008  0.333  0.560-  29 2.86  33 2.86  36 2.87  20 2.89  22 2.91  19 2.94  28 2.97  35 2.97
                            32 3.07
  32  0.659  0.333  0.560-  30 2.86  34 2.86  36 2.87  21 2.89  24 2.91  19 2.94  28 2.97  35 2.97
                            31 3.07
  33  0.008  0.659  0.560-  34 2.86  31 2.86  36 2.87  23 2.89  22 2.91  25 2.94  28 2.97  35 2.97
                            30 3.07
  34  0.333  0.659  0.560-  33 2.86  32 2.86  36 2.87  23 2.89  24 2.91  26 2.94  28 2.97  35 2.97
                            29 3.07
  35  0.667  0.667  0.560-  24 2.91  27 2.91  22 2.91  32 2.97  30 2.97  29 2.97  34 2.97  31 2.97
                            33 2.97
  36  0.333  0.333  0.547-  21 2.69  20 2.69  23 2.69  31 2.87  30 2.87  33 2.87  29 2.87  34 2.87
                            32 2.87

  LATTYP: Found a hexagonal cell.
 ALAT       =     8.7913665772
 C/A-ratio  =     2.5227160501

  Lattice vectors:

 A1 = (  -4.3956832886,  -7.6135467898,   0.0000000000)
 A2 = (   8.7913665771,   0.0000000000,   0.0000000000)
 A3 = (   0.0000000000,   0.0000000000,  22.1781215668)

Analysis of symmetry for initial positions (statically):
 Subroutine PRICEL returns:
 Original cell was already a primitive cell.

 Routine SETGRP: Setting up the symmetry group for a
 hexagonal supercell.

 Subroutine GETGRP returns: Found  6 space group operations
 (whereof  6 operations were pure point group operations)
 out of a pool of 24 trial point group operations.

The static configuration has the point symmetry C_3v.

Analysis of symmetry for dynamics (positions and initial velocities):
 Subroutine PRICEL returns:
 Original cell was already a primitive cell.

[...]

The dynamic configuration has the point symmetry C_3v.

Analysis of constrained symmetry for selective dynamics:
 Subroutine PRICEL returns:
 Original cell was already a primitive cell.

 Routine SETGRP: Setting up the symmetry group for a
 hexagonal supercell.

 Subroutine GETGRP returns: Found  6 space group operations
 (whereof  6 operations were pure point group operations)
 out of a pool of 24 trial point group operations.

The constrained configuration has the point symmetry C_3v.

 Subroutine INISYM returns: Found  6 space group operations
 (whereof  6 operations are pure point group operations),
 and found     1 'primitive' translations

                                     Primitive cell

  volume of cell :    1484.4589

  direct lattice vectors                    reciprocal lattice vectors
     8.791366577  0.000000000  0.000000000     0.113747958 -0.065672414  0.000000000
     4.395683289  7.613546790  0.000000000     0.000000000  0.131344829  0.000000000
[...]
     15      -4.7378      2.00000
     16      -4.7332      2.00000
     17      -4.7009      2.00000
     18      -4.6981      2.00000
     19      -4.6930      2.00000
     20      -4.6897      2.00000
     21      -4.6771      2.00000
     22      -4.6492      2.00000
     23      -4.6301      2.00000
     24      -4.6295      2.00000
     25      -4.5964      2.00000
     26      -4.5722      2.00000
     27      -4.5588      2.00000
     28      -4.5509      2.00000
     29      -4.5368      2.00000
     30      -4.5230      2.00000
     31      -4.5166      2.00000
     32      -4.4811      2.00000
     33      -4.4438      2.00000
     34      -4.4151      2.00000
     35      -4.3906      2.00000
     36      -4.3739      2.00000
     37      -4.3535      2.00000
     38      -4.3237      2.00000
     39      -4.3154      2.00000
     40      -4.2978      2.00000
     41      -4.2897      2.00000
     42      -4.2683      2.00000
     43      -4.2101      2.00000
     44      -4.1802      2.00000
     45      -4.1749      2.00000
     46      -4.1644      2.00000
     47      -4.1559      2.00000
     48      -4.1513      2.00000
     49      -4.1380      2.00000
     50      -4.1303      2.00000
     51      -4.1080      2.00000
     52      -4.1044      2.00000
     53      -4.0426      2.00000
     54      -4.0356      2.00000
     55      -4.0229      2.00000
     56      -4.0186      2.00000
     57      -4.0021      2.00000
     58      -3.9883      2.00000
     59      -3.9484      2.00000
     60      -3.9402      2.00000
[...]
    238       7.1962      0.00000
    239       7.2022      0.00000
    240       7.2073      0.00000
    241       7.2173      0.00000
    242       7.2989      0.00000
    243       7.3294      0.00000
    244       7.3681      0.00000
    245       7.5239      0.00000
    246       7.5457      0.00000
    247       7.6038      0.00000
    248       7.6405      0.00000
    249       7.6639      0.00000
    250       7.9178      0.00000
    251       7.9517      0.00000
    252       8.1093      0.00000

 soft charge-density along one line, spin component           1
         0         1         2         3         4         5         6         7         8         9
 total charge-density along one line

------------------------ aborting loop because EDIFF is reached ----------------------------------------

 total charge

# of ion       s       p       d       tot
    1        0.416   0.204   9.177   9.797
    2        0.418   0.203   9.178   9.798
    3        0.418   0.203   9.178   9.798
    4        0.418   0.203   9.178   9.798
    5        0.414   0.204   9.178   9.796
    6        0.418   0.203   9.178   9.798
    7        0.418   0.203   9.178   9.798
    8        0.418   0.203   9.178   9.798
    9        0.417   0.203   9.178   9.797
   10        0.407   0.269   9.164   9.839
   11        0.407   0.268   9.167   9.842
   12        0.407   0.269   9.164   9.839
   13        0.407   0.268   9.167   9.842
   14        0.407   0.268   9.167   9.842
   15        0.404   0.269   9.166   9.839
   16        0.407   0.269   9.164   9.839
   17        0.404   0.269   9.166   9.839
   18        0.404   0.269   9.166   9.839
   19        0.403   0.266   9.167   9.836
   20        0.418   0.292   9.153   9.862
   21        0.418   0.292   9.153   9.862
   22        0.400   0.274   9.166   9.841
   23        0.418   0.292   9.153   9.862
   24        0.400   0.274   9.166   9.841
   25        0.403   0.266   9.167   9.836
   26        0.403   0.266   9.167   9.836
   27        0.400   0.274   9.166   9.841
   28        0.413   0.194   9.180   9.787
   29        0.419   0.206   9.172   9.797
   30        0.419   0.206   9.172   9.797
   31        0.419   0.206   9.172   9.797
   32        0.419   0.206   9.172   9.797
   33        0.419   0.206   9.172   9.797
   34        0.419   0.206   9.172   9.797
   35        0.408   0.195   9.182   9.785
   36        0.351   0.192   7.354   7.897
tot         14.756   8.554 328.298 351.608

  FORCE on cell =-STRESS in cart. coord.  units (eV):
  Direction    XX          YY          ZZ          XY          YZ          ZX
  Alpha Z   730.81099   730.81099   730.81099
  Ewald  121678.42971121678.42971************     0.00001     0.00000    -0.00002
  Hartree131903.37382131903.37383************     0.00001     0.00000    -0.00001
  E(xc)   -2074.68650 -2074.68647 -2080.15989    -0.00003     0.00000     0.00000
  Local  ************************264969.35750     0.00027    -0.00004    -0.00004
  n-local  -340.06828  -321.03940  -335.96046    10.99249    -0.41330     0.51467
  augment  3377.48700  3377.48719  3385.99094    -0.00017     0.00001     0.00002
  Kinetic  4837.61377  4845.23583  4867.74908     5.64545     0.67227    -0.00623
  Fock        0.00000     0.00000     0.00000     0.00000     0.00000     0.00000
  Total      -9.36674    -9.36674     0.60094    -0.00000     0.00000     0.00000
  in kB     -10.10953   -10.10953     0.64859    -0.00000     0.00000     0.00000

 VOLUME and BASIS-vectors are now :
  energy-cutoff  :      500.00
  volume of cell :     1484.46
      direct lattice vectors                 reciprocal lattice vectors
     8.791366577  0.000000000  0.000000000     0.113747958 -0.065672414  0.000000000
     4.395683289  7.613546790  0.000000000     0.000000000  0.131344829  0.000000000
     0.000000000  0.000000000 22.178121567     0.000000000  0.000000000  0.045089481

  length of vectors
     8.791366577  8.791366577 22.178121567     0.131344829  0.131344829  0.045089481

 FORCES acting on ions
    electron-ion (+dipol)            ewald-force                    non-local-force                 convergence-correction
   0.459E-04 -.283E-04 0.250E+04   -.954E-04 0.593E-04 -.250E+04   -.412E-17 -.923E-19 -.202E+01   -.200E-03 -.223E-03 -.245E+00
   0.417E+00 0.433E+00 0.250E+04   -.538E+00 -.474E+00 -.250E+04   0.438E-01 0.640E-02 -.163E+01   0.734E-01 0.374E-01 -.172E+00
   -.417E+00 0.433E+00 0.250E+04   0.538E+00 -.474E+00 -.250E+04   -.438E-01 0.640E-02 -.163E+01   -.739E-01 0.393E-01 -.172E+00
   0.583E+00 0.145E+00 0.250E+04   -.680E+00 -.229E+00 -.250E+04   0.274E-01 0.347E-01 -.163E+01   0.693E-01 0.450E-01 -.172E+00
   -.764E-05 -.198E-04 0.250E+04   0.981E-04 -.199E-05 -.250E+04   0.402E-18 0.840E-18 -.162E+01   0.626E-02 0.382E-02 -.235E+00
   -.583E+00 0.145E+00 0.250E+04   0.680E+00 -.229E+00 -.250E+04   -.274E-01 0.347E-01 -.163E+01   -.708E-01 0.459E-01 -.172E+00
   0.166E+00 -.577E+00 0.250E+04   -.142E+00 0.703E+00 -.250E+04   -.164E-01 -.411E-01 -.163E+01   -.243E-02 -.831E-01 -.172E+00
   -.166E+00 -.577E+00 0.250E+04   0.142E+00 0.703E+00 -.250E+04   0.164E-01 -.411E-01 -.163E+01   0.398E-02 -.842E-01 -.172E+00
   0.365E-04 -.130E-04 0.250E+04   0.792E-04 -.643E-04 -.250E+04   -.131E-17 -.135E-17 -.177E+01   -.658E-02 -.339E-02 -.205E+00
   0.453E+01 0.261E+01 0.827E+03   -.437E+01 -.252E+01 -.827E+03   -.198E+00 -.114E+00 -.707E+00   0.578E-01 0.334E-01 0.131E+00
   -.292E-04 0.547E+01 0.836E+03   0.417E-04 -.557E+01 -.836E+03   0.267E-12 0.406E-01 -.469E+00   0.686E-02 0.275E-01 0.936E-01
   -.452E+01 0.261E+01 0.827E+03   0.437E+01 -.252E+01 -.827E+03   0.198E+00 -.114E+00 -.707E+00   -.598E-01 0.342E-01 0.132E+00
   0.474E+01 -.274E+01 0.836E+03   -.482E+01 0.278E+01 -.836E+03   0.352E-01 -.203E-01 -.469E+00   0.271E-01 -.778E-02 0.936E-01
   -.474E+01 -.274E+01 0.836E+03   0.482E+01 0.278E+01 -.836E+03   -.352E-01 -.203E-01 -.469E+00   -.166E-01 -.933E-02 0.923E-01
   0.164E-04 0.172E+01 0.829E+03   -.108E-03 -.170E+01 -.828E+03   0.886E-13 0.135E-01 -.652E+00   -.175E-02 -.453E-01 0.589E-01
   -.813E-05 -.523E+01 0.827E+03   0.208E-04 0.505E+01 -.827E+03   0.150E-11 0.228E+00 -.707E+00   -.349E-03 -.690E-01 0.132E+00
   0.149E+01 -.858E+00 0.829E+03   -.147E+01 0.850E+00 -.828E+03   0.117E-01 -.675E-02 -.652E+00   -.401E-01 0.211E-01 0.589E-01
   -.149E+01 -.858E+00 0.829E+03   0.147E+01 0.850E+00 -.828E+03   -.117E-01 -.675E-02 -.652E+00   0.407E-01 0.235E-01 0.611E-01
   0.421E-04 0.158E+01 -.875E+03   -.128E-03 -.154E+01 0.875E+03   0.724E-13 0.110E-01 0.527E+00   -.656E-02 -.491E-01 0.261E+00
   0.246E+02 0.142E+02 -.840E+03   -.238E+02 -.137E+02 0.840E+03   -.808E+00 -.466E+00 -.721E+00   -.187E-02 -.104E-02 0.186E+00
   -.246E+02 0.142E+02 -.840E+03   0.238E+02 -.137E+02 0.840E+03   0.808E+00 -.466E+00 -.721E+00   0.309E-02 -.292E-02 0.186E+00
   0.666E+01 -.384E+01 -.863E+03   -.699E+01 0.404E+01 0.863E+03   0.230E+00 -.133E+00 0.424E+00   0.100E+00 -.489E-01 0.195E+00
   -.602E-04 -.284E+02 -.840E+03   0.449E-04 0.274E+02 0.840E+03   0.613E-11 0.933E+00 -.721E+00   -.648E-03 0.479E-02 0.186E+00
   -.666E+01 -.384E+01 -.863E+03   0.699E+01 0.404E+01 0.863E+03   -.230E+00 -.133E+00 0.424E+00   -.893E-01 -.514E-01 0.195E+00
   -.137E+01 -.789E+00 -.875E+03   0.133E+01 0.769E+00 0.875E+03   -.954E-02 -.551E-02 0.527E+00   0.337E-01 0.193E-01 0.261E+00
   0.137E+01 -.789E+00 -.875E+03   -.133E+01 0.769E+00 0.875E+03   0.954E-02 -.551E-02 0.527E+00   -.461E-01 0.187E-01 0.261E+00
   0.208E-04 0.769E+01 -.863E+03   0.110E-03 -.807E+01 0.863E+03   0.174E-11 0.266E+00 0.424E+00   0.710E-02 0.111E+00 0.195E+00
   0.544E-04 -.372E-04 -.253E+04   -.113E-03 0.771E-04 0.252E+04   -.131E-17 -.286E-17 0.203E+01   -.413E-03 -.373E-03 0.238E+00
   0.977E+01 0.170E+02 -.253E+04   -.913E+01 -.160E+02 0.253E+04   -.618E+00 -.961E+00 0.179E+01   -.280E-01 -.595E-01 0.321E+00
   -.977E+01 0.170E+02 -.253E+04   0.913E+01 -.160E+02 0.253E+04   0.618E+00 -.961E+00 0.179E+01   0.280E-01 -.586E-01 0.319E+00
   0.196E+02 -.459E-01 -.253E+04   -.184E+02 0.945E-01 0.253E+04   -.114E+01 -.551E-01 0.179E+01   -.653E-01 0.564E-02 0.321E+00
   -.196E+02 -.459E-01 -.253E+04   0.184E+02 0.944E-01 0.253E+04   0.114E+01 -.551E-01 0.179E+01   0.647E-01 0.574E-02 0.320E+00
   0.985E+01 -.170E+02 -.253E+04   -.929E+01 0.159E+02 0.253E+04   -.523E+00 0.102E+01 0.179E+01   -.363E-01 0.541E-01 0.319E+00
   -.985E+01 -.170E+02 -.253E+04   0.929E+01 0.159E+02 0.253E+04   0.523E+00 0.102E+01 0.179E+01   0.370E-01 0.533E-01 0.320E+00
   0.247E-04 -.145E-04 -.253E+04   0.105E-03 -.652E-04 0.252E+04   0.203E-18 -.471E-18 0.214E+01   -.604E-02 -.306E-02 0.427E+00
   -.479E-04 -.598E-05 -.199E+04   0.866E-04 0.126E-04 0.199E+04   -.660E-18 0.139E-17 0.267E+01   0.585E-02 0.358E-02 0.492E+00
   0.303E-03 -.707E-03 -.173E+01   0.105E-12 0.189E-12 -.182E-11   0.111E-15 0.919E-18 -.238E+01   0.123E-01 0.104E-01 0.414E+01

 POSITION                                       TOTAL-FORCE (eV/Angst)
      0.00000      0.00000      5.28219        -0.000000     -0.000000      0.033291
      2.93046      0.00000      5.28219        -0.003440      0.003381      0.033283
      5.86091      0.00000      5.28219         0.003440      0.003381      0.033283
      1.46523      2.53785      5.28219         0.001209     -0.004670      0.033283
      4.39568      2.53785      5.28219         0.000000     -0.000000      0.022639
      7.32614      2.53785      5.28219        -0.001209     -0.004670      0.033283
      2.93046      5.07570      5.28219         0.004648      0.001288      0.033283
      5.86091      5.07570      5.28219        -0.004648      0.001288      0.033283
      8.79137      5.07570      5.28219        -0.000000     -0.000000      0.028312
      1.46523      0.84595      7.67490         0.014113      0.008148     -0.005378
      4.39568      0.84595      7.67490        -0.000000     -0.026719     -0.070999
      7.32614      0.84595      7.67490        -0.014113      0.008148     -0.005378
      2.93046      3.38380      7.67490        -0.023139      0.013359     -0.070999
      5.86091      3.38380      7.67490         0.023139      0.013359     -0.070999
      8.79137      3.38380      7.67490        -0.000000     -0.014885     -0.003781
      4.39568      5.92165      7.67490        -0.000000     -0.016297     -0.005378
      7.32614      5.92165      7.67490        -0.012890      0.007442     -0.003781
     10.25659      5.92165      7.67490         0.012890      0.007442     -0.003781
      8.79137      1.69398     10.06180         0.000000      0.003761     -0.005431
      2.94231      1.69874     10.03918        -0.002311     -0.001334     -0.002711
      5.84906      1.69874     10.03918         0.002311     -0.001334     -0.002711
     10.25255      4.23208     10.04993        -0.006667      0.003849     -0.005342
      4.39568      4.21606     10.03918         0.000000      0.002668     -0.002711
      7.33018      4.23208     10.04993         0.006667      0.003849     -0.005342
     11.72002      6.76656     10.06180        -0.003257     -0.001880     -0.005431
      5.86271      6.76656     10.06180         0.003257     -0.001880     -0.005431
      8.79137      6.76293     10.04993        -0.000000     -0.007699     -0.005342
      0.00000      0.00000     12.42562        -0.000000     -0.000000     -0.001555
      2.96563      0.06260     12.41952        -0.002936     -0.002660     -0.004229
      5.82574      0.06260     12.41952         0.002936     -0.002660     -0.004229
      1.53702      2.53701     12.41952        -0.003772     -0.001213     -0.004229
      7.25434      2.53701     12.41952         0.003772     -0.001213     -0.004229
      2.96708      5.01394     12.41952        -0.000836      0.003873     -0.004229
      5.82429      5.01394     12.41952         0.000836      0.003873     -0.004229
      8.79137      5.07570     12.42127        -0.000000     -0.000000     -0.006394
      4.39568      2.53785     12.13550        -0.000000     -0.000000      0.030304
    total drift:                                0.012557      0.009721      0.026730

  FREE ENERGIE OF THE ION-ELECTRON SYSTEM (eV)
  free  energy   TOTEN  =       -93.95159142 eV

  energy  without entropy=      -93.95159142  energy(sigma->0) =      -93.95159142

 stress matrix after NEB project (eV)
     -9.36674     -0.00000      0.00000
     -0.00000     -9.36674      0.00000
      0.00000      0.00000      0.60094
  FORCES: max atom, RMS     0.030304    0.006668
  FORCE total and by dimension    0.040011    0.030304
  Stress total and by dimension   13.260198    9.366742
|           W    W    AA    RRRRR   N    N  II  N    N   GGGG   !!!           |
|           W    W   A  A   R    R  NN   N  II  NN   N  G    G  !!!           |
|           W    W  A    A  R    R  N N  N  II  N N  N  G       !!!           |
|           W WW W  AAAAAA  RRRRR   N  N N  II  N  N N  G  GGG   !            |
|           WW  WW  A    A  R   R   N   NN  II  N   NN  G    G                |
|           W    W  A    A  R    R  N    N  II  N    N   GGGG   !!!           |
|     Tetrahedron method does not include variations of the Fermi             |
|     occupations, so forces and stress will be inaccurate. We suggest        |
|     using a different smearing scheme ISMEAR = 1 or 2 for metals in         |
|     relaxations.                                                            |

 total charge

# of ion       s       p       d       tot
    1        0.416   0.204   9.177   9.797
    2        0.418   0.203   9.178   9.798
    3        0.418   0.203   9.178   9.798
    4        0.418   0.203   9.178   9.798
    5        0.414   0.204   9.178   9.796
    6        0.418   0.203   9.178   9.798
    7        0.418   0.203   9.178   9.798
    8        0.418   0.203   9.178   9.798
    9        0.417   0.203   9.178   9.797
   10        0.407   0.269   9.164   9.839
   11        0.407   0.268   9.167   9.842
   12        0.407   0.269   9.164   9.839
   13        0.407   0.268   9.167   9.842
   14        0.407   0.268   9.167   9.842
   15        0.404   0.269   9.166   9.839
   16        0.407   0.269   9.164   9.839
   17        0.404   0.269   9.166   9.839
   18        0.404   0.269   9.166   9.839
   19        0.403   0.266   9.167   9.836
   20        0.418   0.292   9.153   9.862
   21        0.418   0.292   9.153   9.862
   22        0.400   0.274   9.166   9.841
   23        0.418   0.292   9.153   9.862
   24        0.400   0.274   9.166   9.841
   25        0.403   0.266   9.167   9.836
   26        0.403   0.266   9.167   9.836
   27        0.400   0.274   9.166   9.841
   28        0.413   0.194   9.180   9.787
   29        0.419   0.206   9.172   9.797
   30        0.419   0.206   9.172   9.797
   31        0.419   0.206   9.172   9.797
   32        0.419   0.206   9.172   9.797
   33        0.419   0.206   9.172   9.797
   34        0.419   0.206   9.172   9.797
   35        0.408   0.195   9.182   9.785
   36        0.351   0.192   7.354   7.897
tot         14.756   8.554 328.298 351.608

 BZINTS: Fermi energy:    0.799267;  394.000000 electrons
         Band energy:-0.125594E+04;  BLOECHL correction:   -0.041308