 vasp.6.2.0 18Jan21 (build Jun 12 2021 23:27:24) complex

 executed on             LinuxIFC date 2022.05.28  01:14:44

 INCAR:
   ISMEAR = -5
   SIGMA = 0.1
   ISPIN = 1
   EDIFF = 1.d-5
   EDIFFG = -0.01
   NSW = 0
   NELM = 150
   ENCUT = 500
   ISIF = 2
   IBRION = 2
   LREAL = Auto
   ALGO = Fast
   ICHARG = 11
   LORBIT = 10
   LCHARG = .F.
   LWAVE = .F.

 POTCAR:    PAW_PBE Au 04Oct2007
 POTCAR:    PAW_PBE Os 17Jan2003
 POTCAR:    PAW_PBE C 08Apr2002
 POTCAR:    PAW_PBE O 08Apr2002
|           W    W    AA    RRRRR   N    N  II  N    N   GGGG   !!!           |
|           W    W   A  A   R    R  NN   N  II  NN   N  G    G  !!!           |
|           W    W  A    A  R    R  N N  N  II  N N  N  G       !!!           |
|           W WW W  AAAAAA  RRRRR   N  N N  II  N  N N  G  GGG   !            |
|           WW  WW  A    A  R   R   N   NN  II  N   NN  G    G                |
|           W    W  A    A  R    R  N    N  II  N    N   GGGG   !!!           |
|     For optimal performance we recommend to set                             |
|       NCORE = 2 up to number-of-cores-per-socket                            |
|     This setting can greatly improve the performance of VASP for DFT.       |
|     The default, NCORE=1 might be grossly inefficient on modern             |
|     multi-core architectures or massively parallel machines. Do your        |
|     Unfortunately you need to use the default for GW and RPA                |
|     calculations (for HF NCORE is supported but not extensively tested      |
|     yet).                                                                   |

 POTCAR:    PAW_PBE Au 04Oct2007
   VRHFIN =Au: s1d10

   TITEL  = PAW_PBE Au 04Oct2007
   POMASS =  196.966; ZVAL   =   11.000    mass and valenz
   ENMAX  =  229.943; ENMIN  =  172.457 eV

 POTCAR:    PAW_PBE Os 17Jan2003
   VRHFIN =Os: 6s5d

   TITEL  = PAW_PBE Os 17Jan2003
   POMASS =  190.200; ZVAL   =    8.000    mass and valenz
   ENMAX  =  228.022; ENMIN  =  171.017 eV

 POTCAR:    PAW_PBE C 08Apr2002
   VRHFIN =C: s2p2

   TITEL  = PAW_PBE C 08Apr2002
   POMASS =   12.011; ZVAL   =    4.000    mass and valenz
   ENMAX  =  400.000; ENMIN  =  300.000 eV

 POTCAR:    PAW_PBE O 08Apr2002
   VRHFIN =O: s2p4

   TITEL  = PAW_PBE O 08Apr2002
   POMASS =   16.000; ZVAL   =    6.000    mass and valenz
   ENMAX  =  400.000; ENMIN  =  300.000 eV

 Optimization of the real space projectors (new method)

 maximal supplied QI-value         = 15.12
 optimisation between [QCUT,QGAM] = [ 11.34, 22.83] = [ 36.00,145.93] Ry
 Optimized for a Real-space Cutoff    1.39 Angstroem

   l    n(q)    QCUT    max X(q) W(low)/X(q) W(high)/X(q)  e(spline)
   2      9    11.338    60.898    0.39E-03    0.42E-03    0.21E-06
   2      9    11.338    58.894    0.40E-03    0.42E-03    0.22E-06
   0      9    11.338   109.617    0.13E-03    0.20E-04    0.13E-06
   0      9    11.338    75.026    0.13E-03    0.20E-04    0.13E-06
   1      9    11.338    16.344    0.33E-04    0.24E-03    0.18E-06
   1      9    11.338    10.160    0.26E-04    0.19E-03    0.15E-06
 Optimization of the real space projectors (new method)

[...]

   l    n(q)    QCUT    max X(q) W(low)/X(q) W(high)/X(q)  e(spline)
   0      7    11.310   115.676    0.43E-03    0.13E-02    0.19E-06
   0      7    11.310    87.132    0.43E-03    0.13E-02    0.18E-06
   1      6    11.310     4.429    0.42E-03    0.74E-03    0.11E-06
   1      6    11.310     2.733    0.34E-03    0.55E-03    0.92E-07
 Optimization of the real space projectors (new method)

 maximal supplied QI-value         = 24.76
 optimisation between [QCUT,QGAM] = [ 11.39, 22.77] = [ 36.31,145.25] Ry
 Optimized for a Real-space Cutoff    1.00 Angstroem

   l    n(q)    QCUT    max X(q) W(low)/X(q) W(high)/X(q)  e(spline)
   0      7    11.387    20.381    0.39E-03    0.13E-02    0.15E-06
   0      7    11.387    15.268    0.42E-03    0.14E-02    0.17E-06
   1      6    11.387     5.964    0.41E-03    0.11E-02    0.17E-06
   1      6    11.387     5.382    0.39E-03    0.87E-03    0.15E-06
  PAW_PBE Au 04Oct2007                  :
  PAW_PBE Os 17Jan2003                  :
  PAW_PBE C 08Apr2002                   :
  PAW_PBE O 08Apr2002                   :

 POSCAR: Au-Os-CO2
  positions in direct lattice
  velocities in cartesian coordinates
 exchange correlation table for  LEXCH =        8
   RHO(1)=    0.500       N(1)  =     2000
   RHO(2)=  100.500       N(2)  =     4000

 VTST: version 3.2, (02/03/18)

 CHAIN: initializing optimizer

 OPT: Using VASP Conjugate-Gradient optimizer
 CHAIN: Read ICHAIN            0

 POSCAR: Au-Os-CO2
  positions in direct lattice
  velocities in cartesian coordinates

 ion  position               nearest neighbor table
   1  0.000  0.000  0.217-  16 2.94  12 2.94   6 2.94   8 2.94   7 2.94   3 2.94  10 2.94   4 2.94
                             2 2.94
   2  0.333  0.000  0.217-   9 2.94  11 2.94  17 2.94  10 2.94   8 2.94   4 2.94   5 2.94   1 2.94
                             3 2.94
   3  0.667  0.000  0.217-   7 2.94  18 2.94  12 2.94   1 2.94  11 2.94   5 2.94   6 2.94   9 2.94
                             2 2.94
   4  0.000  0.333  0.217-  10 2.94   6 2.94   5 2.94  13 2.94   2 2.94  15 2.94   9 2.94   1 2.94
                             7 2.94
   5  0.333  0.333  0.217-  13 2.94   7 2.94  11 2.94   4 2.94   2 2.94  14 2.94   3 2.94   8 2.94
                             6 2.94
   6  0.667  0.333  0.217-  15 2.94  14 2.94   1 2.94  12 2.94   4 2.94   9 2.94   8 2.94   3 2.94
                             5 2.94
   7  0.000  0.667  0.217-  18 2.94   3 2.94  16 2.94   5 2.94   1 2.94  13 2.94   8 2.94   4 2.94
                             9 2.94
   8  0.333  0.667  0.217-   9 2.94  17 2.94   1 2.94   2 2.94  14 2.94  16 2.94   6 2.94   7 2.94
                             5 2.94
   9  0.667  0.667  0.217-   2 2.94   8 2.94  17 2.94   6 2.94  15 2.94   4 2.94   3 2.94  18 2.94
                             7 2.94
  10  0.111  0.111  0.315-  20 2.90  11 2.94  17 2.94   2 2.94   4 2.94   1 2.94  12 2.94  16 2.94
                            13 2.94  15 2.94  26 2.95  19 2.95
  11  0.444  0.111  0.315-  20 2.91  21 2.91  27 2.94  13 2.94   2 2.94  10 2.94  17 2.94   5 2.94
                             3 2.94  18 2.94  14 2.94  12 2.94
  12  0.778  0.111  0.315-  21 2.90  16 2.94  18 2.94   1 2.94  14 2.94  15 2.94   3 2.94   6 2.94
                            10 2.94  11 2.94  25 2.95  19 2.95
  13  0.111  0.444  0.315-  23 2.91  20 2.91  22 2.94   5 2.94  18 2.94  11 2.94   7 2.94   4 2.94
                            16 2.94  10 2.94  14 2.94  15 2.94
  14  0.444  0.444  0.315-  21 2.91  23 2.91  24 2.94  15 2.94   6 2.94  12 2.94   8 2.94  17 2.94
                             5 2.94  16 2.94  13 2.94  11 2.94
  15  0.778  0.444  0.315-  24 2.92  22 2.92  14 2.94   6 2.94  17 2.94  12 2.94   9 2.94   4 2.94
                            10 2.94  13 2.94  18 2.94  19 2.95
  16  0.111  0.778  0.315-  23 2.90  18 2.94  12 2.94   7 2.94   1 2.94   8 2.94  13 2.94  10 2.94
                            14 2.94  17 2.94  25 2.95  26 2.95
  17  0.444  0.778  0.315-  27 2.92  24 2.92   9 2.94  15 2.94   2 2.94  10 2.94  11 2.94   8 2.94
                            14 2.94  16 2.94  18 2.94  26 2.95
  18  0.778  0.778  0.315-  22 2.92  27 2.92  16 2.94   7 2.94  13 2.94  12 2.94   3 2.94  11 2.94
                             9 2.94  15 2.94  17 2.94  25 2.95
  19  0.888  0.223  0.414-  24 2.93  22 2.93  21 2.93  20 2.93  28 2.95  15 2.95  26 2.95  25 2.95
                            10 2.95  12 2.95  32 2.98  31 2.98
  20  0.222  0.222  0.412-  36 2.77  10 2.90  11 2.91  13 2.91  26 2.93  19 2.93  23 2.95  21 2.95
                            27 2.96  22 2.96  29 2.96  31 2.96
  21  0.556  0.222  0.412-  36 2.77  12 2.90  14 2.91  11 2.91  25 2.93  19 2.93  20 2.95  23 2.95
                            27 2.96  24 2.96  30 2.96  32 2.96
  22  0.886  0.557  0.413-  24 2.90  27 2.90  18 2.92  15 2.92  25 2.93  19 2.93  13 2.94  35 2.95
                            23 2.96  20 2.96  33 2.98  31 2.98
  23  0.222  0.556  0.412-  36 2.77  16 2.90  13 2.91  14 2.91  25 2.93  26 2.93  20 2.95  21 2.95
                            22 2.96  24 2.96  33 2.96  34 2.96
  24  0.557  0.557  0.413-  27 2.90  22 2.90  15 2.92  17 2.92  26 2.93  19 2.93  14 2.94  35 2.95
                            21 2.96  23 2.96  32 2.98  34 2.98
  25  0.888  0.888  0.414-  22 2.93  27 2.93  23 2.93  21 2.93  28 2.95  18 2.95  19 2.95  26 2.95
                            16 2.95  12 2.95  33 2.98  30 2.98
  26  0.223  0.888  0.414-  27 2.93  24 2.93  20 2.93  23 2.93  28 2.95  17 2.95  19 2.95  25 2.95
                            10 2.95  16 2.95  29 2.98  34 2.98
  27  0.557  0.886  0.413-  24 2.90  22 2.90  17 2.92  18 2.92  26 2.93  25 2.93  11 2.94  35 2.95
                            20 2.96  21 2.96  29 2.98  30 2.98
  28  0.000  0.000  0.513-  25 2.95  19 2.95  26 2.95  34 2.98  32 2.98  33 2.98  30 2.98  31 2.98
                            29 2.98
  29  0.333  0.009  0.513-  31 2.86  30 2.86  36 2.88  20 2.96  28 2.98  35 2.98  27 2.98  26 2.98
                            34 3.09
  30  0.658  0.009  0.513-  32 2.86  29 2.86  36 2.88  21 2.96  28 2.98  35 2.98  27 2.98  25 2.98
                            33 3.09
  31  0.009  0.333  0.513-  29 2.86  33 2.86  36 2.88  20 2.96  28 2.98  35 2.98  22 2.98  19 2.98
                            32 3.09
  32  0.658  0.333  0.513-  30 2.86  34 2.86  36 2.88  21 2.96  28 2.98  35 2.98  24 2.98  19 2.98
                            31 3.09
  33  0.009  0.658  0.513-  34 2.86  31 2.86  36 2.88  23 2.96  28 2.98  35 2.98  22 2.98  25 2.98
                            30 3.09
  34  0.333  0.658  0.513-  33 2.86  32 2.86  36 2.88  23 2.96  28 2.98  35 2.98  24 2.98  26 2.98
                            29 3.09
  35  0.667  0.667  0.513-  24 2.95  27 2.95  22 2.95  29 2.98  34 2.98  32 2.98  31 2.98  30 2.98
                            33 2.98
  36  0.333  0.333  0.501-  37 2.34  20 2.77  23 2.77  21 2.77  33 2.88  31 2.88  29 2.88  30 2.88
                            34 2.88  32 2.88
  37  0.333  0.334  0.597-  38 1.22  39 1.22  36 2.34
  38  0.201  0.333  0.612-  37 1.22
  39  0.466  0.333  0.612-  37 1.22

  LATTYP: Found a hexagonal cell.
 ALAT       =     8.8135128021
 C/A-ratio  =     2.7649717827

  Lattice vectors:

 A1 = (  -4.4067569092,  -7.6327256898,   0.0000000000)
 A2 = (   8.8135128021,   0.0000000000,   0.0000000000)
 A3 = (   0.0000000000,   0.0000000000,  24.3691142040)

Analysis of symmetry for initial positions (statically):
 Subroutine PRICEL returns:
 Original cell was already a primitive cell.

 Routine SETGRP: Setting up the symmetry group for a
 hexagonal supercell.

 Subroutine GETGRP returns: Found  1 space group operations
 (whereof  1 operations were pure point group operations)
 out of a pool of 24 trial point group operations.

The static configuration has the point symmetry C_1 .

Analysis of symmetry for dynamics (positions and initial velocities):
 Subroutine PRICEL returns:
 Original cell was already a primitive cell.

[...]

The dynamic configuration has the point symmetry C_1 .

Analysis of constrained symmetry for selective dynamics:
[...]
     41      -5.2304      2.00000
     42      -5.2076      2.00000
     43      -5.1220      2.00000
     44      -5.1055      2.00000
     45      -5.0528      2.00000
     46      -4.9806      2.00000
     47      -4.9515      2.00000
     48      -4.9118      2.00000
     49      -4.8997      2.00000
     50      -4.8709      2.00000
     51      -4.8650      2.00000
     52      -4.7645      2.00000
     53      -4.7317      2.00000
     54      -4.7059      2.00000
     55      -4.6930      2.00000
     56      -4.6859      2.00000
     57      -4.6840      2.00000
     58      -4.6725      2.00000
     59      -4.6341      2.00000
     60      -4.5861      2.00000
[...]
    238       5.3227      0.00000
    239       5.4414      0.00000
    240       5.5096      0.00000
    241       5.6371      0.00000
    242       5.8678      0.00000
    243       5.9095      0.00000
    244       5.9785      0.00000
    245       6.1042      0.00000
    246       6.1130      0.00000
    247       6.1789      0.00000
    248       6.2210      0.00000
    249       6.2907      0.00000
    250       6.3661      0.00000
    251       6.4418      0.00000
    252       6.6637      0.00000

 soft charge-density along one line, spin component           1
         0         1         2         3         4         5         6         7         8         9
 total charge-density along one line

------------------------ aborting loop because EDIFF is reached ----------------------------------------

 total charge

# of ion       s       p       d       tot
    1        0.545   0.239   8.765   9.549
    2        0.544   0.241   8.764   9.549
    3        0.544   0.241   8.764   9.549
    4        0.544   0.240   8.764   9.549
    5        0.543   0.241   8.762   9.545
    6        0.544   0.240   8.764   9.548
    7        0.545   0.241   8.763   9.548
    8        0.544   0.241   8.763   9.548
    9        0.543   0.239   8.767   9.550
   10        0.524   0.310   8.765   9.598
   11        0.522   0.308   8.779   9.609
   12        0.524   0.310   8.765   9.598
   13        0.522   0.307   8.780   9.610
   14        0.522   0.307   8.780   9.609
   15        0.516   0.308   8.776   9.600
   16        0.523   0.308   8.767   9.598
   17        0.517   0.307   8.777   9.602
   18        0.517   0.307   8.777   9.602
   19        0.511   0.298   8.779   9.589
   20        0.546   0.337   8.747   9.630
   21        0.546   0.337   8.747   9.630
   22        0.506   0.307   8.779   9.591
   23        0.543   0.334   8.752   9.629
   24        0.506   0.307   8.779   9.591
   25        0.514   0.299   8.776   9.589
   26        0.514   0.299   8.776   9.589
   27        0.507   0.306   8.780   9.593
   28        0.537   0.227   8.762   9.526
   29        0.556   0.246   8.744   9.546
   30        0.556   0.246   8.744   9.546
   31        0.542   0.243   8.752   9.538
   32        0.542   0.243   8.752   9.538
   33        0.557   0.246   8.744   9.547
   34        0.557   0.246   8.744   9.547
   35        0.531   0.226   8.764   9.521
   36        0.519   0.356   5.954   6.829
   37        0.895   1.714   0.000   2.609
   38        1.603   3.493   0.000   5.096
   39        1.603   3.493   0.000   5.096
tot         23.276  18.738 312.718 354.732

  FORCE on cell =-STRESS in cart. coord.  units (eV):
  Direction    XX          YY          ZZ          XY          YZ          ZX
  Alpha Z   975.09262   975.09262   975.09262
  Ewald  150264.93925149540.76744************     0.47968    -0.56214     0.00300
  Hartree158680.20192158327.56096************     0.22628    -0.36037     0.02432
  E(xc)   -1836.93395 -1838.78748 -1845.88106     0.00120    -0.00023     0.00114
  Local  ************************320375.04492    -0.66355     0.93606    -0.02351
  n-local  -137.87266  -130.72338  -109.02078    -0.00492     0.04388    -0.01338
  augment  2393.13109  2394.75152  2414.41163    -0.00285     0.00263    -0.00094
  Kinetic  5750.28945  5800.33723  5858.06140    -0.03334    -0.10435    -0.00221
  Fock        0.00000     0.00000     0.00000     0.00000     0.00000     0.00000
  Total     -22.97678   -22.81641     1.92872     0.00250    -0.04453    -0.01157
  in kB     -22.45595   -22.29921     1.88500     0.00245    -0.04352    -0.01131

 VOLUME and BASIS-vectors are now :
  energy-cutoff  :      500.00
  volume of cell :     1639.34
      direct lattice vectors                 reciprocal lattice vectors
     8.813512802  0.000000000  0.000000000     0.113462137 -0.065507406  0.000000000
     4.406756909  7.632725690  0.000000000     0.000000000  0.131014796  0.000000000
     0.000000000  0.000000000 24.369114204     0.000000000  0.000000000  0.041035550

  length of vectors
     8.813512802  8.813512802 24.369114204     0.131014796  0.131014796  0.041035550

 FORCES acting on ions
    electron-ion (+dipol)            ewald-force                    non-local-force                 convergence-correction
   0.272E-02 0.651E-01 0.269E+04   -.977E-04 -.366E-01 -.269E+04   -.295E-03 -.284E-01 -.853E+00   -.222E-02 -.390E-02 -.288E+00
   0.798E+00 0.397E+00 0.269E+04   -.786E+00 -.446E+00 -.269E+04   -.663E-02 0.164E-01 -.337E+00   -.425E-02 0.266E-01 -.349E+00
   -.801E+00 0.385E+00 0.269E+04   0.786E+00 -.446E+00 -.269E+04   0.693E-02 0.164E-01 -.338E+00   0.656E-02 0.382E-01 -.347E+00
   0.651E+00 0.495E+00 0.269E+04   -.748E+00 -.477E+00 -.269E+04   0.642E-01 0.326E-02 -.355E+00   0.278E-01 -.183E-01 -.306E+00
   -.142E-01 -.474E-01 0.269E+04   0.300E-03 -.387E-03 -.269E+04   -.540E-03 0.146E-01 -.211E+00   0.147E-01 0.259E-01 -.306E+00
   -.641E+00 0.491E+00 0.269E+04   0.748E+00 -.477E+00 -.269E+04   -.641E-01 0.295E-02 -.356E+00   -.379E-01 -.141E-01 -.300E+00
   -.135E+00 -.862E+00 0.269E+04   0.387E-01 0.923E+00 -.269E+04   0.332E-01 -.285E-01 -.301E+00   0.592E-01 -.248E-01 -.312E+00
   0.125E+00 -.855E+00 0.269E+04   -.388E-01 0.923E+00 -.269E+04   -.331E-01 -.283E-01 -.302E+00   -.495E-01 -.317E-01 -.309E+00
   0.142E-01 -.690E-01 0.269E+04   0.112E-03 0.370E-01 -.269E+04   0.679E-04 0.304E-01 -.461E+00   -.145E-01 0.244E-03 -.275E+00
   0.816E+01 0.500E+01 0.957E+03   -.766E+01 -.472E+01 -.956E+03   -.377E+00 -.209E+00 -.779E+00   -.917E-01 -.538E-01 0.129E+00
   -.126E-01 0.536E+01 0.965E+03   0.153E-02 -.539E+01 -.965E+03   0.389E-04 -.653E-02 -.522E+00   0.113E-01 -.105E-01 0.190E+00
   -.815E+01 0.499E+01 0.957E+03   0.766E+01 -.472E+01 -.956E+03   0.377E+00 -.209E+00 -.777E+00   0.845E-01 -.435E-01 0.127E+00
   0.437E+01 -.278E+01 0.965E+03   -.440E+01 0.274E+01 -.965E+03   -.150E-01 0.209E-01 -.440E+00   -.454E-02 0.405E-01 0.205E+00
   -.439E+01 -.278E+01 0.965E+03   0.440E+01 0.274E+01 -.965E+03   0.154E-01 0.209E-01 -.441E+00   0.279E-01 0.393E-01 0.204E+00
   0.149E-01 0.453E+01 0.960E+03   -.981E-03 -.465E+01 -.960E+03   -.757E-04 0.319E-01 -.584E+00   -.139E-01 0.344E-01 0.208E+00
   -.437E-02 -.935E+01 0.956E+03   0.309E-04 0.894E+01 -.956E+03   0.480E-04 0.332E+00 -.713E+00   0.430E-02 0.502E-01 0.134E+00
   0.410E+01 -.248E+01 0.960E+03   -.419E+01 0.253E+01 -.959E+03   0.323E-01 0.360E-02 -.483E+00   0.805E-02 -.316E-01 0.215E+00
   -.409E+01 -.249E+01 0.960E+03   0.419E+01 0.253E+01 -.959E+03   -.325E-01 0.371E-02 -.483E+00   -.120E-01 -.199E-01 0.213E+00
   0.150E-01 0.614E+01 -.809E+03   -.108E-01 -.640E+01 0.808E+03   0.121E-03 0.462E-01 0.635E+00   -.424E-02 0.172E+00 0.968E+00
   0.128E+02 0.912E+01 -.753E+03   -.124E+02 -.879E+01 0.752E+03   -.727E+00 -.451E+00 -.926E+00   0.178E+00 0.959E-01 0.129E+01
   -.128E+02 0.910E+01 -.753E+03   0.124E+02 -.878E+01 0.752E+03   0.724E+00 -.450E+00 -.924E+00   -.172E+00 0.106E+00 0.128E+01
   -.833E+00 -.145E+01 -.789E+03   0.349E+00 0.182E+01 0.787E+03   0.472E+00 -.344E+00 0.687E+00   0.525E-01 -.493E-01 0.102E+01
   -.168E-01 -.171E+02 -.755E+03   0.578E-02 0.167E+02 0.754E+03   0.994E-04 0.705E+00 -.744E+00   0.108E-01 -.188E+00 0.128E+01
   0.858E+00 -.144E+01 -.789E+03   -.355E+00 0.182E+01 0.787E+03   -.471E+00 -.344E+00 0.688E+00   -.725E-01 -.472E-01 0.102E+01
   -.429E+01 -.169E+01 -.813E+03   0.444E+01 0.179E+01 0.811E+03   0.555E-02 0.218E-02 0.440E+00   -.133E+00 -.857E-01 0.950E+00
   0.428E+01 -.167E+01 -.813E+03   -.445E+01 0.178E+01 0.811E+03   -.532E-02 0.204E-02 0.440E+00   0.142E+00 -.950E-01 0.952E+00
   0.868E-02 -.628E+00 -.791E+03   0.444E-02 0.686E-01 0.790E+03   -.556E-04 0.526E+00 0.672E+00   -.133E-01 0.616E-01 0.104E+01
   0.365E-01 0.984E+01 -.253E+04   -.387E-01 -.975E+01 0.253E+04   0.147E-03 -.867E-01 0.582E+00   0.199E-02 0.342E-02 0.750E+00
   0.326E+02 0.774E+02 -.249E+04   -.320E+02 -.769E+02 0.249E+04   -.772E+00 -.985E+00 0.269E+00   0.234E+00 0.305E+00 0.624E+00
   -.326E+02 0.774E+02 -.249E+04   0.321E+02 -.768E+02 0.249E+04   0.772E+00 -.985E+00 0.268E+00   -.235E+00 0.315E+00 0.627E+00
   0.881E+02 -.279E+00 -.246E+04   -.879E+02 0.387E+00 0.246E+04   -.805E+00 -.116E+00 0.100E+01   0.340E+00 0.439E-01 0.641E+00
   -.880E+02 -.245E+00 -.246E+04   0.878E+02 0.346E+00 0.246E+04   0.805E+00 -.115E+00 0.998E+00   -.345E+00 0.508E-01 0.637E+00
   0.333E+02 -.772E+02 -.249E+04   -.329E+02 0.766E+02 0.249E+04   -.539E+00 0.110E+01 0.252E+00   0.166E+00 -.347E+00 0.625E+00
   -.333E+02 -.772E+02 -.249E+04   0.330E+02 0.766E+02 0.249E+04   0.539E+00 0.110E+01 0.253E+00   -.156E+00 -.349E+00 0.620E+00
   0.264E-01 -.987E+01 -.253E+04   -.117E-01 0.981E+01 0.253E+04   0.886E-04 0.807E-01 0.722E+00   -.150E-01 -.150E-01 0.584E+00
   -.665E-01 0.233E+00 -.158E+04   0.582E-01 -.174E+00 0.158E+04   0.405E-02 -.124E+00 0.124E+01   0.485E-02 -.535E-02 0.706E+00
   -.965E-02 -.174E+01 -.965E+03   0.460E-02 0.181E+01 0.962E+03   0.719E-02 -.643E-01 0.339E+01   0.108E-02 -.171E-02 -.187E+00
   0.236E+03 0.853E+00 -.162E+04   -.289E+03 -.110E+01 0.164E+04   0.528E+02 0.249E+00 -.172E+02   0.151E+00 -.530E-03 -.218E+00
   -.236E+03 0.517E+00 -.162E+04   0.289E+03 -.693E+00 0.164E+04   -.528E+02 0.169E+00 -.172E+02   -.152E+00 0.186E-02 -.214E+00
   -.215E-03 0.120E+00 0.189E+02   0.000E+00 0.201E-12 -.455E-12   0.153E-01 -.986E-01 -.332E+02   -.181E-02 -.254E-01 0.138E+02

 POSITION                                       TOTAL-FORCE (eV/Angst)
      0.00000      0.00000      5.28038        -0.000234     -0.003712     -0.064104
      2.93784      0.00000      5.28038         0.000915     -0.006088     -0.057557
      5.87568      0.00000      5.28038        -0.001669     -0.006083     -0.057499
      1.46892      2.54424      5.28038        -0.005792      0.003033     -0.068383
      4.40676      2.54424      5.28038        -0.000054     -0.007159     -0.125071
      7.34459      2.54424      5.28038         0.004988      0.003144     -0.068287
      2.93784      5.08848      5.28038        -0.004116      0.008234     -0.060254
      5.87568      5.08848      5.28038         0.003435      0.008121     -0.060223
      8.81351      5.08848      5.28038        -0.000510     -0.001230     -0.077181
      1.46892      0.84808      7.67911         0.027340      0.015486      0.152228
      4.40676      0.84808      7.67911        -0.000150     -0.041190     -0.003576
      7.34459      0.84808      7.67911        -0.027963      0.015492      0.152103
      2.93784      3.39232      7.67911        -0.050381      0.021858     -0.011094
      5.87568      3.39232      7.67911         0.050210      0.021889     -0.011092
      8.81351      3.39232      7.67911        -0.000356     -0.049703      0.085648
      4.40676      5.93656      7.67911        -0.000331     -0.022174      0.135654
      7.34459      5.93656      7.67911        -0.047952      0.020058      0.082590
     10.28243      5.93656      7.67911         0.047309      0.020064      0.082563
      8.81351      1.70311     10.09495        -0.000317     -0.039939      0.030758
      2.93286      1.69329     10.03570        -0.087158     -0.022048     -0.044911
      5.88065      1.69329     10.03570         0.087570     -0.022652     -0.046039
     10.26497      4.25049     10.06286         0.040140     -0.018400      0.040351
      4.40676      4.24615     10.03570        -0.000539      0.101835     -0.103875
      7.36206      4.25049     10.06286        -0.041394     -0.018453      0.040291
     11.74534      6.78117     10.09495         0.029283      0.017087     -0.009266
      5.88169      6.78117     10.09495        -0.029968      0.016993     -0.009259
      8.81351      6.76448     10.06286        -0.000532      0.028015      0.005267
      0.00000      0.00000     12.49897        -0.000347      0.007575     -0.023352
      2.97514      0.06495     12.50272        -0.002736     -0.150546     -0.103301
      5.83837      0.06495     12.50272         0.002053     -0.150216     -0.103217
      1.54382      2.54408     12.50272        -0.218922      0.036224     -0.129287
      7.26969      2.54408     12.50272         0.217902      0.036183     -0.129779
      2.97543      5.02370     12.50272        -0.028470      0.124331     -0.093500
      5.83808      5.02370     12.50272         0.028009      0.124393     -0.093879
      8.81351      5.08848     12.49601        -0.000558     -0.000384      0.025771
      4.40676      2.54424     12.21487         0.000231     -0.070216      0.717536
      4.40549      2.54932     14.55694         0.002885      0.003853      0.027187
      3.23879      2.54360     14.90581        -0.018657      0.001073     -0.010031
      5.57230      2.54523     14.90554         0.026834     -0.004745     -0.013931
    total drift:                                0.013258     -0.004239     -0.427159

  FREE ENERGIE OF THE ION-ELECTRON SYSTEM (eV)
  free  energy   TOTEN  =      -137.24539778 eV

  energy  without entropy=     -137.24539778  energy(sigma->0) =     -137.24539778

 stress matrix after NEB project (eV)
    -22.97678      0.00250     -0.01157
      0.00250    -22.81641     -0.04453
     -0.01157     -0.04453      1.92872
  FORCES: max atom, RMS     0.030605    0.007423
  FORCE total and by dimension    0.046355    0.027187
  Stress total and by dimension   32.438332   22.976783
|           W    W    AA    RRRRR   N    N  II  N    N   GGGG   !!!           |
|           W    W   A  A   R    R  NN   N  II  NN   N  G    G  !!!           |
|           W    W  A    A  R    R  N N  N  II  N N  N  G       !!!           |
|           W WW W  AAAAAA  RRRRR   N  N N  II  N  N N  G  GGG   !            |
|           WW  WW  A    A  R   R   N   NN  II  N   NN  G    G                |
|           W    W  A    A  R    R  N    N  II  N    N   GGGG   !!!           |
|     Tetrahedron method does not include variations of the Fermi             |
|     occupations, so forces and stress will be inaccurate. We suggest        |
|     using a different smearing scheme ISMEAR = 1 or 2 for metals in         |
|     relaxations.                                                            |

 total charge

# of ion       s       p       d       tot
    1        0.545   0.239   8.765   9.549
    2        0.544   0.241   8.764   9.549
    3        0.544   0.241   8.764   9.549
    4        0.544   0.240   8.764   9.549
    5        0.543   0.241   8.762   9.545
    6        0.544   0.240   8.764   9.548
    7        0.545   0.241   8.763   9.548
    8        0.544   0.241   8.763   9.548
    9        0.543   0.239   8.767   9.550
   10        0.524   0.310   8.765   9.598
   11        0.522   0.308   8.779   9.609
   12        0.524   0.310   8.765   9.598
   13        0.522   0.307   8.780   9.610
   14        0.522   0.307   8.780   9.609
   15        0.516   0.308   8.776   9.600
   16        0.523   0.308   8.767   9.598
   17        0.517   0.307   8.777   9.602
   18        0.517   0.307   8.777   9.602
   19        0.511   0.298   8.779   9.589
   20        0.546   0.337   8.747   9.630
   21        0.546   0.337   8.747   9.630
   22        0.506   0.307   8.779   9.591
   23        0.543   0.334   8.752   9.629
   24        0.506   0.307   8.779   9.591
   25        0.514   0.299   8.776   9.589
   26        0.514   0.299   8.776   9.589
   27        0.507   0.306   8.780   9.593
   28        0.537   0.227   8.762   9.526
   29        0.556   0.246   8.744   9.546
   30        0.556   0.246   8.744   9.546
   31        0.542   0.243   8.752   9.538
   32        0.542   0.243   8.752   9.538
   33        0.557   0.246   8.744   9.547
   34        0.557   0.246   8.744   9.547
   35        0.531   0.226   8.764   9.521
   36        0.519   0.356   5.954   6.829
   37        0.895   1.714   0.000   2.609
   38        1.603   3.493   0.000   5.096
   39        1.603   3.493   0.000   5.096
tot         23.276  18.738 312.718 354.732

 BZINTS: Fermi energy:    0.098660;  409.000000 electrons
         Band energy:-0.155925E+04;  BLOECHL correction:   -0.075979