 vasp.6.2.0 18Jan21 (build Jun 12 2021 23:27:24) complex

 executed on             LinuxIFC date 2022.05.28  02:28:08

 INCAR:
   ISMEAR = -5
   SIGMA = 0.1
   ISPIN = 1
   EDIFF = 1.d-5
   EDIFFG = -0.01
   NSW = 0
   NELM = 150
   ENCUT = 500
   ISIF = 2
   IBRION = 2
   LREAL = Auto
   ALGO = Fast
   ICHARG = 11
   LORBIT = 10
   LCHARG = .F.
   LWAVE = .F.

 POTCAR:    PAW_PBE Cu 22Jun2005
 POTCAR:    PAW_PBE Mo 08Apr2002
 POTCAR:    PAW_PBE H 15Jun2001
 POTCAR:    PAW_PBE O 08Apr2002
|           W    W    AA    RRRRR   N    N  II  N    N   GGGG   !!!           |
|           W    W   A  A   R    R  NN   N  II  NN   N  G    G  !!!           |
|           W    W  A    A  R    R  N N  N  II  N N  N  G       !!!           |
|           W WW W  AAAAAA  RRRRR   N  N N  II  N  N N  G  GGG   !            |
|           WW  WW  A    A  R   R   N   NN  II  N   NN  G    G                |
|           W    W  A    A  R    R  N    N  II  N    N   GGGG   !!!           |
|     For optimal performance we recommend to set                             |
|       NCORE = 2 up to number-of-cores-per-socket                            |
|     This setting can greatly improve the performance of VASP for DFT.       |
|     The default, NCORE=1 might be grossly inefficient on modern             |
|     multi-core architectures or massively parallel machines. Do your        |
|     Unfortunately you need to use the default for GW and RPA                |
|     calculations (for HF NCORE is supported but not extensively tested      |
|     yet).                                                                   |

 POTCAR:    PAW_PBE Cu 22Jun2005
   VRHFIN =Cu: d10 p1

   TITEL  = PAW_PBE Cu 22Jun2005
   POMASS =   63.546; ZVAL   =   11.000    mass and valenz
   ENMAX  =  295.446; ENMIN  =  221.585 eV

 POTCAR:    PAW_PBE Mo 08Apr2002
   VRHFIN =Mo: 4p5s4d

   TITEL  = PAW_PBE Mo 08Apr2002
   POMASS =   95.940; ZVAL   =    6.000    mass and valenz
   ENMAX  =  224.584; ENMIN  =  168.438 eV

 POTCAR:    PAW_PBE H 15Jun2001
   VRHFIN =H: ultrasoft test

   TITEL  = PAW_PBE H 15Jun2001
   POMASS =    1.000; ZVAL   =    1.000    mass and valenz
   ENMAX  =  250.000; ENMIN  =  200.000 eV

 POTCAR:    PAW_PBE O 08Apr2002
   VRHFIN =O: s2p4

   TITEL  = PAW_PBE O 08Apr2002
   POMASS =   16.000; ZVAL   =    6.000    mass and valenz
   ENMAX  =  400.000; ENMIN  =  300.000 eV

 Optimization of the real space projectors (new method)

 maximal supplied QI-value         = 16.25
 optimisation between [QCUT,QGAM] = [ 11.38, 22.75] = [ 36.24,144.96] Ry
 Optimized for a Real-space Cutoff    1.52 Angstroem

   l    n(q)    QCUT    max X(q) W(low)/X(q) W(high)/X(q)  e(spline)
   2      9    11.376     4.610    0.21E-03    0.10E-03    0.26E-06
   2      9    11.376     8.522    0.33E-03    0.16E-03    0.37E-06
   0     10    11.376    51.609    0.62E-04    0.20E-04    0.13E-06
   0     10    11.376    27.747    0.54E-04    0.20E-04    0.13E-06
   1     10    11.376    20.408    0.13E-04    0.99E-04    0.19E-06
   1     10    11.376    13.425    0.12E-04    0.87E-04    0.17E-06
 Optimization of the real space projectors (new method)

[...]

   l    n(q)    QCUT    max X(q) W(low)/X(q) W(high)/X(q)  e(spline)
   0      8    11.287    19.460    0.40E-03    0.73E-03    0.16E-06
   0      8    11.287    12.209    0.38E-03    0.70E-03    0.15E-06
   1      7    11.287     4.655    0.22E-03    0.25E-04    0.22E-06
 Optimization of the real space projectors (new method)

 maximal supplied QI-value         = 24.76
 optimisation between [QCUT,QGAM] = [ 11.39, 22.77] = [ 36.31,145.25] Ry
 Optimized for a Real-space Cutoff    1.00 Angstroem

   l    n(q)    QCUT    max X(q) W(low)/X(q) W(high)/X(q)  e(spline)
   0      7    11.387    20.381    0.39E-03    0.13E-02    0.15E-06
   0      7    11.387    15.268    0.42E-03    0.14E-02    0.17E-06
   1      6    11.387     5.964    0.41E-03    0.11E-02    0.17E-06
   1      6    11.387     5.382    0.39E-03    0.87E-03    0.15E-06
  PAW_PBE Cu 22Jun2005                  :
  PAW_PBE Mo 08Apr2002                  :
  PAW_PBE H 15Jun2001                   :
  PAW_PBE O 08Apr2002                   :

 POSCAR: Cu-Mo-H2O
  positions in direct lattice
  velocities in cartesian coordinates
 exchange correlation table for  LEXCH =        8
   RHO(1)=    0.500       N(1)  =     2000
   RHO(2)=  100.500       N(2)  =     4000

 VTST: version 3.2, (02/03/18)

 CHAIN: initializing optimizer

 OPT: Using VASP Conjugate-Gradient optimizer
 CHAIN: Read ICHAIN            0

 POSCAR: Cu-Mo-H2O
  positions in direct lattice
  velocities in cartesian coordinates

 ion  position               nearest neighbor table
   1  0.000  0.000  0.221-   7 2.57   3 2.57   4 2.57   2 2.57   6 2.57   8 2.57  12 2.57  10 2.57
                            16 2.57
   2  0.333  0.000  0.221-   8 2.57   9 2.57   5 2.57   1 2.57   3 2.57  11 2.57   4 2.57  10 2.57
                            17 2.57
   3  0.667  0.000  0.221-   1 2.57   7 2.57   6 2.57   9 2.57   2 2.57  12 2.57   5 2.57  18 2.57
                            11 2.57
   4  0.000  0.333  0.221-   5 2.57   6 2.57   1 2.57   7 2.57   2 2.57  13 2.57   9 2.57  10 2.57
                            15 2.57
   5  0.333  0.333  0.221-   4 2.57   2 2.57   7 2.57  13 2.57   8 2.57   6 2.57   3 2.57  11 2.57
                            14 2.57
   6  0.667  0.333  0.221-   4 2.57   9 2.57  15 2.57   3 2.57   1 2.57   8 2.57  14 2.57   5 2.57
                            12 2.57
   7  0.000  0.667  0.221-   1 2.57   3 2.57  16 2.57  18 2.57   4 2.57   5 2.57   8 2.57   9 2.57
                            13 2.57
   8  0.333  0.667  0.221-   9 2.57   2 2.57  17 2.57   6 2.57   1 2.57   7 2.57   5 2.57  14 2.57
                            16 2.57
   9  0.667  0.667  0.221-   8 2.57   6 2.57   2 2.57  17 2.57   3 2.57   7 2.57   4 2.57  15 2.57
                            18 2.57
  10  0.111  0.111  0.308-  20 2.55  26 2.56  19 2.56  11 2.57  12 2.57  13 2.57   1 2.57   2 2.57
                             4 2.57  15 2.57  16 2.57  17 2.57
  11  0.444  0.111  0.308-  20 2.56  21 2.56  10 2.57  13 2.57   2 2.57  17 2.57  14 2.57  12 2.57
                             5 2.57   3 2.57  18 2.57  27 2.57
  12  0.778  0.111  0.308-  21 2.55  19 2.56  25 2.56  15 2.57  10 2.57  14 2.57  18 2.57   3 2.57
                             1 2.57  16 2.57  11 2.57   6 2.57
  13  0.111  0.444  0.308-  23 2.56  20 2.56  16 2.57  18 2.57  10 2.57  11 2.57  14 2.57   5 2.57
                             4 2.57   7 2.57  15 2.57  22 2.57
  14  0.444  0.444  0.308-  21 2.56  23 2.56  15 2.57  17 2.57  12 2.57  16 2.57  13 2.57  11 2.57
                             6 2.57   8 2.57   5 2.57  24 2.57
  15  0.778  0.444  0.308-  19 2.56  14 2.57  17 2.57  12 2.57   6 2.57  18 2.57  10 2.57   9 2.57
                            13 2.57   4 2.57  24 2.57  22 2.57
  16  0.111  0.778  0.308-  23 2.55  25 2.56  26 2.56  18 2.57  13 2.57   7 2.57  14 2.57  17 2.57
                            12 2.57  10 2.57   8 2.57   1 2.57
  17  0.444  0.778  0.308-  26 2.56  14 2.57  15 2.57   8 2.57   9 2.57  11 2.57  16 2.57  18 2.57
                            10 2.57   2 2.57  27 2.57  24 2.57
  18  0.778  0.778  0.308-  25 2.56  16 2.57  13 2.57   7 2.57  15 2.57  12 2.57  17 2.57   9 2.57
                             3 2.57  11 2.57  22 2.57  27 2.57
  19  0.889  0.222  0.394-  15 2.56  12 2.56  10 2.56  21 2.56  20 2.56  22 2.57  24 2.57  25 2.57
                            26 2.57  28 2.57  32 2.58  31 2.58
  20  0.222  0.222  0.393-  10 2.55  11 2.56  13 2.56  26 2.56  19 2.56  27 2.57  22 2.57  23 2.57
                            21 2.57  36 2.58  29 2.60  31 2.60
  21  0.556  0.222  0.393-  12 2.55  14 2.56  11 2.56  19 2.56  25 2.56  24 2.57  27 2.57  20 2.57
                            23 2.57  36 2.58  32 2.60  30 2.60
  22  0.888  0.556  0.394-  24 2.56  27 2.56  35 2.56  19 2.57  25 2.57  23 2.57  20 2.57  18 2.57
                            15 2.57  13 2.57  31 2.58  33 2.58
  23  0.222  0.556  0.393-  16 2.55  13 2.56  14 2.56  25 2.56  26 2.56  22 2.57  24 2.57  20 2.57
                            21 2.57  36 2.58  33 2.60  34 2.60
  24  0.556  0.556  0.394-  22 2.56  27 2.56  35 2.56  19 2.57  26 2.57  21 2.57  23 2.57  15 2.57
                            17 2.57  14 2.57  32 2.58  34 2.58
  25  0.889  0.889  0.394-  18 2.56  12 2.56  16 2.56  21 2.56  23 2.56  22 2.57  27 2.57  19 2.57
                            26 2.57  28 2.57  33 2.58  30 2.58
  26  0.222  0.889  0.394-  17 2.56  10 2.56  16 2.56  20 2.56  23 2.56  27 2.57  24 2.57  25 2.57
                            19 2.57  28 2.57  29 2.58  34 2.58
  27  0.556  0.888  0.394-  24 2.56  22 2.56  35 2.56  26 2.57  25 2.57  20 2.57  21 2.57  17 2.57
                            18 2.57  11 2.57  29 2.58  30 2.58
  28  0.000  0.000  0.480-  33 2.56  30 2.56  31 2.56  29 2.56  32 2.56  34 2.56  25 2.57  19 2.57
                            26 2.57
  29  0.333  0.998  0.481-  34 2.54  28 2.56  35 2.56  27 2.58  31 2.58  26 2.58  36 2.58  30 2.58
                            20 2.60
  30  0.669  0.998  0.481-  33 2.54  28 2.56  35 2.56  27 2.58  32 2.58  25 2.58  36 2.58  29 2.58
                            21 2.60
  31  0.998  0.333  0.481-  32 2.54  28 2.56  35 2.56  22 2.58  29 2.58  19 2.58  36 2.58  33 2.58
                            20 2.60
  32  0.669  0.333  0.481-  31 2.54  28 2.56  35 2.56  24 2.58  30 2.58  19 2.58  36 2.58  34 2.58
                            21 2.60
  33  0.998  0.669  0.481-  30 2.54  28 2.56  35 2.56  22 2.58  34 2.58  25 2.58  36 2.58  31 2.58
                            23 2.60
  34  0.333  0.669  0.481-  29 2.54  28 2.56  35 2.56  24 2.58  33 2.58  26 2.58  36 2.58  32 2.58
                            23 2.60
  35  0.667  0.667  0.480-  34 2.56  32 2.56  29 2.56  30 2.56  33 2.56  31 2.56  24 2.56  27 2.56
                            22 2.56
  36  0.333  0.333  0.480-  39 2.31  23 2.58  20 2.58  21 2.58  31 2.58  29 2.58  33 2.58  34 2.58
                            32 2.58  30 2.58
  37  0.274  0.251  0.584-  39 0.98
  38  0.479  0.247  0.584-  39 0.98
  39  0.337  0.330  0.575-  37 0.98  38 0.98  36 2.31

  LATTYP: Found a hexagonal cell.
 ALAT       =     7.6967864036
 C/A-ratio  =     3.1535378041

  Lattice vectors:

 A1 = (  -3.8483927580,  -6.6656128093,   0.0000000000)
 A2 = (   7.6967864037,   0.0000000000,   0.0000000000)
 A3 = (   0.0000000000,   0.0000000000,  24.2721068937)

Analysis of symmetry for initial positions (statically):
 Subroutine PRICEL returns:
 Original cell was already a primitive cell.

 Routine SETGRP: Setting up the symmetry group for a
 hexagonal supercell.

 Subroutine GETGRP returns: Found  1 space group operations
 (whereof  1 operations were pure point group operations)
 out of a pool of 24 trial point group operations.

The static configuration has the point symmetry C_1 .

Analysis of symmetry for dynamics (positions and initial velocities):
 Subroutine PRICEL returns:
 Original cell was already a primitive cell.

[...]

The dynamic configuration has the point symmetry C_1 .

Analysis of constrained symmetry for selective dynamics:
 Subroutine PRICEL returns:
[...]
     41      -3.9253      2.00000
     42      -3.9192      2.00000
     43      -3.8633      2.00000
     44      -3.8457      2.00000
     45      -3.8367      2.00000
     46      -3.8179      2.00000
     47      -3.8074      2.00000
     48      -3.8039      2.00000
     49      -3.7972      2.00000
     50      -3.6210      2.00000
     51      -3.5980      2.00000
     52      -3.5917      2.00000
     53      -3.5809      2.00000
     54      -3.5275      2.00000
     55      -3.5222      2.00000
     56      -3.5101      2.00000
     57      -3.5032      2.00000
     58      -3.4952      2.00000
     59      -3.4912      2.00000
     60      -3.4534      2.00000
[...]
    238       5.7457      0.00000
    239       5.7828      0.00000
    240       5.8203      0.00000
    241       5.9121      0.00000
    242       6.0348      0.00000
    243       6.0808      0.00000
    244       6.1436      0.00000
    245       6.2009      0.00000
    246       6.3756      0.00000
    247       6.6978      0.00000
    248       6.8521      0.00000
    249       7.0186      0.00000
    250       7.1286      0.00000
    251       7.2398      0.00000
    252       7.4502      0.00000

 soft charge-density along one line, spin component           1
         0         1         2         3         4         5         6         7         8         9
 total charge-density along one line

------------------------ aborting loop because EDIFF is reached ----------------------------------------

 total charge

# of ion       s       p       d       tot
    1        0.449   0.284   9.189   9.922
    2        0.448   0.286   9.185   9.918
    3        0.448   0.286   9.185   9.918
    4        0.448   0.286   9.185   9.919
    5        0.448   0.285   9.180   9.913
    6        0.448   0.286   9.185   9.919
    7        0.447   0.286   9.185   9.918
    8        0.447   0.285   9.185   9.918
    9        0.447   0.283   9.189   9.919
   10        0.444   0.372   9.174   9.990
   11        0.443   0.365   9.184   9.991
   12        0.444   0.372   9.174   9.990
   13        0.442   0.365   9.184   9.991
   14        0.442   0.365   9.184   9.991
   15        0.438   0.369   9.177   9.984
   16        0.445   0.372   9.173   9.990
   17        0.438   0.369   9.177   9.984
   18        0.438   0.369   9.177   9.984
   19        0.442   0.369   9.181   9.992
   20        0.467   0.399   9.153  10.019
   21        0.467   0.399   9.153  10.019
   22        0.429   0.372   9.181   9.982
   23        0.468   0.398   9.154  10.020
   24        0.429   0.372   9.181   9.982
   25        0.442   0.368   9.182   9.992
   26        0.442   0.368   9.182   9.992
   27        0.430   0.372   9.181   9.982
   28        0.447   0.296   9.177   9.921
   29        0.474   0.319   9.163   9.956
   30        0.474   0.319   9.163   9.956
   31        0.474   0.318   9.162   9.954
   32        0.474   0.318   9.163   9.954
   33        0.473   0.313   9.165   9.951
   34        0.472   0.313   9.165   9.951
   35        0.439   0.298   9.183   9.919
   36        0.461   0.399   4.248   5.107
   37        0.605   0.118   0.000   0.723
   38        0.604   0.118   0.000   0.722
   39        1.566   3.612   0.000   5.178
tot         18.982  16.044 325.405 360.431

  FORCE on cell =-STRESS in cart. coord.  units (eV):
  Direction    XX          YY          ZZ          XY          YZ          ZX
  Alpha Z   791.23431   791.23431   791.23431
  Ewald  229654.19897229589.03542************    -1.25572   -12.47133    -2.27322
  Hartree242408.02396242396.37785************    -0.19005     5.70609    -1.21844
  E(xc)   -2310.08384 -2310.26539 -2314.24098    -0.00484    -0.03871    -0.00431
  Local  ************************485030.37590     1.09985    -0.31822     3.09652
  n-local  -801.88346  -802.38980  -814.33323    -0.01780    -0.05670     0.01792
  augment  3322.59556  3323.68103  3347.25456     0.00142     0.41141     0.02223
  Kinetic  3337.94794  3355.91172  3392.28756     0.36754     6.64563     0.35549
  Fock        0.00000     0.00000     0.00000     0.00000     0.00000     0.00000
  Total      -7.48399    -7.56603    -0.75990     0.00040    -0.12184    -0.00381
  in kB      -9.62912    -9.73468    -0.97771     0.00052    -0.15676    -0.00491

 VOLUME and BASIS-vectors are now :
  energy-cutoff  :      500.00
  volume of cell :     1245.25
      direct lattice vectors                 reciprocal lattice vectors
     7.696786404  0.000000000  0.000000000     0.129924354 -0.075011849  0.000000000
     3.848392758  6.665612809  0.000000000     0.000000000  0.150023716  0.000000000
     0.000000000  0.000000000 24.272106894     0.000000000  0.000000000  0.041199555

  length of vectors
     7.696786404  7.696786404 24.272106894     0.150023716  0.150023716  0.041199555

 FORCES acting on ions
    electron-ion (+dipol)            ewald-force                    non-local-force                 convergence-correction
   0.345E-03 0.125E-01 0.376E+04   0.104E-02 -.929E-02 -.376E+04   0.474E-03 0.668E-02 -.264E+01   -.206E-02 -.728E-02 -.404E-01
   -.106E+01 -.595E+00 0.376E+04   0.650E+00 0.377E+00 -.375E+04   0.195E+00 0.214E+00 -.176E+01   0.211E+00 0.161E-01 -.124E+00
   0.106E+01 -.607E+00 0.376E+04   -.651E+00 0.375E+00 -.375E+04   -.196E+00 0.213E+00 -.176E+01   -.208E+00 0.297E-01 -.119E+00
   -.104E+01 -.602E+00 0.376E+04   0.660E+00 0.387E+00 -.375E+04   0.265E+00 0.316E-01 -.177E+01   0.126E+00 0.173E+00 -.123E+00
   -.172E-01 -.679E-01 0.375E+04   -.151E-02 0.158E-01 -.375E+04   -.672E-02 0.718E-02 -.140E+01   0.256E-01 0.410E-01 -.354E-01
   0.105E+01 -.608E+00 0.376E+04   -.658E+00 0.387E+00 -.375E+04   -.267E+00 0.323E-01 -.177E+01   -.138E+00 0.178E+00 -.115E+00
   -.747E-01 0.122E+01 0.376E+04   0.787E-02 -.763E+00 -.375E+04   0.126E+00 -.256E+00 -.182E+01   -.521E-01 -.203E+00 -.139E+00
   0.643E-01 0.123E+01 0.376E+04   -.877E-02 -.762E+00 -.375E+04   -.127E+00 -.257E+00 -.182E+01   0.643E-01 -.211E+00 -.138E+00
   0.149E-01 0.274E-01 0.376E+04   0.885E-03 -.636E-02 -.375E+04   0.890E-02 -.547E-02 -.232E+01   -.250E-01 -.167E-01 -.202E+00
   -.360E+01 -.210E+01 0.127E+04   0.414E+01 0.240E+01 -.127E+04   -.544E+00 -.319E+00 -.114E+01   0.114E-01 0.206E-01 -.527E+00
   -.745E-02 -.418E+01 0.126E+04   -.987E-02 0.376E+01 -.126E+04   -.877E-02 0.270E+00 -.288E-01   0.262E-01 0.106E+00 -.544E+00
   0.360E+01 -.210E+01 0.127E+04   -.413E+01 0.239E+01 -.127E+04   0.545E+00 -.319E+00 -.114E+01   -.243E-01 0.273E-01 -.525E+00
   -.363E+01 0.201E+01 0.126E+04   0.324E+01 -.178E+01 -.126E+04   0.260E+00 -.158E+00 -.519E-01   0.877E-01 -.448E-01 -.563E+00
   0.362E+01 0.201E+01 0.126E+04   -.325E+01 -.178E+01 -.126E+04   -.278E+00 -.158E+00 -.492E-01   -.479E-01 -.546E-01 -.571E+00
   0.221E-02 -.256E+01 0.127E+04   0.106E-01 0.219E+01 -.127E+04   0.990E-03 0.200E+00 -.971E+00   -.139E-01 0.155E+00 -.563E+00
   0.246E-02 0.425E+01 0.127E+04   -.439E-03 -.488E+01 -.127E+04   0.963E-03 0.635E+00 -.112E+01   -.265E-02 -.160E-01 -.554E+00
   -.211E+01 0.133E+01 0.127E+04   0.181E+01 -.114E+01 -.127E+04   0.147E+00 -.877E-01 -.974E+00   0.126E+00 -.937E-01 -.576E+00
   0.210E+01 0.133E+01 0.127E+04   -.181E+01 -.115E+01 -.127E+04   -.147E+00 -.873E-01 -.976E+00   -.122E+00 -.789E-01 -.567E+00
   -.650E-01 -.666E+01 -.122E+04   0.772E-01 0.660E+01 0.122E+04   0.782E-02 0.149E-01 0.824E+00   -.210E-01 0.339E-01 -.392E+00
   -.472E+02 -.279E+02 -.127E+04   0.488E+02 0.288E+02 0.127E+04   -.155E+01 -.863E+00 -.131E+01   -.535E-01 -.206E-01 -.487E+00
   0.473E+02 -.279E+02 -.127E+04   -.489E+02 0.288E+02 0.127E+04   0.156E+01 -.860E+00 -.131E+01   0.358E-01 -.265E-01 -.489E+00
   -.256E+02 0.146E+02 -.124E+04   0.251E+02 -.143E+02 0.124E+04   0.583E+00 -.330E+00 0.619E+00   0.729E-02 -.284E-01 -.506E+00
   0.631E-01 0.544E+02 -.127E+04   -.591E-01 -.562E+02 0.127E+04   0.113E-01 0.185E+01 -.125E+01   -.160E-01 0.145E-01 -.542E+00
   0.256E+02 0.145E+02 -.124E+04   -.250E+02 -.142E+02 0.124E+04   -.584E+00 -.330E+00 0.624E+00   -.463E-02 -.370E-01 -.506E+00
   0.530E+01 0.387E+01 -.122E+04   -.524E+01 -.383E+01 0.122E+04   0.116E-01 -.321E-01 0.950E+00   -.609E-01 0.102E-03 -.414E+00
   -.532E+01 0.380E+01 -.122E+04   0.527E+01 -.376E+01 0.122E+04   0.586E-02 -.325E-01 0.955E+00   0.276E-01 -.388E-02 -.411E+00
   0.195E-01 -.288E+02 -.124E+04   -.261E-01 0.281E+02 0.124E+04   -.874E-03 0.696E+00 0.592E+00   0.742E-02 0.366E-01 -.508E+00
   -.228E+00 0.225E+01 -.365E+04   0.234E+00 -.238E+01 0.365E+04   -.172E-02 0.849E-01 0.163E+01   -.439E-02 0.592E-01 -.518E-01
   -.299E+02 -.546E+02 -.364E+04   0.304E+02 0.553E+02 0.364E+04   -.617E+00 -.689E+00 0.439E+00   0.241E-01 0.512E-02 -.647E-01
   0.301E+02 -.540E+02 -.364E+04   -.306E+02 0.546E+02 0.364E+04   0.616E+00 -.692E+00 0.428E+00   -.189E-01 0.144E-01 -.696E-01
   -.657E+02 -.200E+01 -.364E+04   0.666E+02 0.220E+01 0.364E+04   -.101E+01 -.225E+00 0.417E+00   -.300E-01 0.212E-01 -.757E-01
   0.648E+02 -.212E+01 -.364E+04   -.658E+02 0.232E+01 0.364E+04   0.101E+01 -.225E+00 0.433E+00   0.241E-01 0.210E-01 -.760E-01
   -.363E+02 0.589E+02 -.365E+04   0.365E+02 -.597E+02 0.365E+04   -.218E+00 0.834E+00 0.869E+00   -.608E-01 -.138E-01 -.731E-01
   0.364E+02 0.584E+02 -.365E+04   -.366E+02 -.591E+02 0.364E+04   0.213E+00 0.829E+00 0.890E+00   0.690E-01 -.189E-01 -.684E-01
   -.122E+00 0.158E+01 -.367E+04   0.131E+00 -.152E+01 0.366E+04   0.120E-01 -.114E-01 0.246E+01   -.208E-01 -.467E-01 0.140E+00
   0.566E+00 -.477E+01 -.190E+04   -.571E+00 0.473E+01 0.190E+04   0.573E-02 0.330E-01 0.238E+01   0.371E-02 -.189E-01 -.136E-01
   0.685E+02 0.425E+02 -.379E+03   -.753E+02 -.468E+02 0.381E+03   0.684E+01 0.431E+01 -.185E+01   -.507E-02 -.364E-02 0.147E-01
   -.673E+02 0.448E+02 -.379E+03   0.740E+02 -.493E+02 0.380E+03   -.673E+01 0.453E+01 -.170E+01   0.541E-02 -.343E-02 0.142E-01
   -.338E+00 -.564E+02 -.219E+04   0.999E+00 0.997E+02 0.218E+04   -.677E+00 -.434E+02 0.754E+01   0.727E-02 -.539E-02 0.944E-01
   0.574E+00 0.345E+02 0.194E+02   -.111E-15 0.000E+00 0.136E-10   -.532E+00 -.345E+02 -.886E+01   -.425E-01 0.313E-03 -.105E+02

 POSITION                                       TOTAL-FORCE (eV/Angst)
      0.00000      0.00000      5.37156        -0.000161      0.002475     -0.060029
      2.56560      0.00000      5.37156        -0.002803      0.011588      0.053808
      5.13119      0.00000      5.37156         0.003075      0.011380      0.053873
      1.28280      2.22187      5.37156         0.009799     -0.010369      0.055104
      3.84839      2.22187      5.37156         0.000255     -0.004071      0.044701
      6.41399      2.22187      5.37156        -0.009468     -0.010691      0.055144
      2.56560      4.44374      5.37156         0.006821     -0.001444      0.059493
      5.13119      4.44374      5.37156        -0.006889     -0.001350      0.059445
      7.69679      4.44374      5.37156        -0.000283     -0.001318      0.008393
      1.28280      0.74062      7.46636         0.005157      0.003557     -0.085465
      3.84839      0.74062      7.46636         0.000100     -0.048450     -0.047595
      6.41399      0.74062      7.46636        -0.004905      0.003805     -0.085167
      2.56560      2.96249      7.46636        -0.034636      0.022596     -0.046553
      5.13119      2.96249      7.46636         0.035716      0.023197     -0.046610
      7.69679      2.96249      7.46636        -0.000045     -0.019575     -0.013752
      3.84839      5.18437      7.46636         0.000371     -0.004185     -0.087804
      6.41399      5.18437      7.46636        -0.017962      0.009040     -0.005408
      8.97958      5.18437      7.46636         0.017902      0.009151     -0.005930
      7.69679      1.48128      9.55134        -0.000942     -0.011279     -0.002068
      2.56091      1.47854      9.54628        -0.027948     -0.008961     -0.077209
      5.13587      1.47854      9.54628         0.024714     -0.008041     -0.077963
      8.97673      3.70477      9.56818         0.022643     -0.018223     -0.011016
      3.84839      3.70853      9.54628        -0.000581      0.054743     -0.073114
      6.41684      3.70477      9.56818        -0.022022     -0.018102     -0.010329
     10.26235      5.92497      9.55134         0.011015      0.007748      0.005103
      5.13122      5.92497      9.55134        -0.012056      0.007501      0.005281
      7.69679      5.92169      9.56818         0.000057      0.031830     -0.017799
      0.00000      0.00000     11.64671        -0.000050      0.005288      0.029761
      6.40484      6.65345     11.67351        -0.043982     -0.059131     -0.069111
      8.98873      6.65345     11.67351         0.044858     -0.062001     -0.070248
      8.96447      2.22003     11.67351        -0.061480     -0.005218     -0.052686
      6.42910      2.22003     11.67351         0.066440     -0.005538     -0.055550
     10.25642      4.45775     11.67351        -0.055469      0.061563     -0.079578
      5.13715      4.45775     11.67351         0.056059      0.064615     -0.081248
      7.69679      4.44374     11.65978        -0.000068     -0.000732      0.020027
      3.84839      2.22187     11.64991         0.004219     -0.021079      0.716050
      3.07207      1.67052     14.18618         0.010075     -0.002022     -0.002102
      4.63824      1.64423     14.16986        -0.009257     -0.000504      0.001377
      3.86197      2.20291     13.96126        -0.008269     -0.007794     -0.003226
    total drift:                               -0.001395      0.006868      0.047234

  FREE ENERGIE OF THE ION-ELECTRON SYSTEM (eV)
  free  energy   TOTEN  =      -145.72274730 eV

  energy  without entropy=     -145.72274730  energy(sigma->0) =     -145.72274730

 stress matrix after NEB project (eV)
     -7.48399      0.00040     -0.00381
      0.00040     -7.56603     -0.12184
     -0.00381     -0.12184     -0.75990
  FORCES: max atom, RMS     0.011813    0.002941
  FORCE total and by dimension    0.018369    0.010075
  Stress total and by dimension   10.670617    7.566034
|           W    W    AA    RRRRR   N    N  II  N    N   GGGG   !!!           |
|           W    W   A  A   R    R  NN   N  II  NN   N  G    G  !!!           |
|           W    W  A    A  R    R  N N  N  II  N N  N  G       !!!           |
|           W WW W  AAAAAA  RRRRR   N  N N  II  N  N N  G  GGG   !            |
|           WW  WW  A    A  R   R   N   NN  II  N   NN  G    G                |
|           W    W  A    A  R    R  N    N  II  N    N   GGGG   !!!           |
|     Tetrahedron method does not include variations of the Fermi             |
|     occupations, so forces and stress will be inaccurate. We suggest        |
|     using a different smearing scheme ISMEAR = 1 or 2 for metals in         |
|     relaxations.                                                            |

 total charge

# of ion       s       p       d       tot
    1        0.449   0.284   9.189   9.922
    2        0.448   0.286   9.185   9.918
    3        0.448   0.286   9.185   9.918
    4        0.448   0.286   9.185   9.919
    5        0.448   0.285   9.180   9.913
    6        0.448   0.286   9.185   9.919
    7        0.447   0.286   9.185   9.918
    8        0.447   0.285   9.185   9.918
    9        0.447   0.283   9.189   9.919
   10        0.444   0.372   9.174   9.990
   11        0.443   0.365   9.184   9.991
   12        0.444   0.372   9.174   9.990
   13        0.442   0.365   9.184   9.991
   14        0.442   0.365   9.184   9.991
   15        0.438   0.369   9.177   9.984
   16        0.445   0.372   9.173   9.990
   17        0.438   0.369   9.177   9.984
   18        0.438   0.369   9.177   9.984
   19        0.442   0.369   9.181   9.992
   20        0.467   0.399   9.153  10.019
   21        0.467   0.399   9.153  10.019
   22        0.429   0.372   9.181   9.982
   23        0.468   0.398   9.154  10.020
   24        0.429   0.372   9.181   9.982
   25        0.442   0.368   9.182   9.992
   26        0.442   0.368   9.182   9.992
   27        0.430   0.372   9.181   9.982
   28        0.447   0.296   9.177   9.921
   29        0.474   0.319   9.163   9.956
   30        0.474   0.319   9.163   9.956
   31        0.474   0.318   9.162   9.954
   32        0.474   0.318   9.163   9.954
   33        0.473   0.313   9.165   9.951
   34        0.472   0.313   9.165   9.951
   35        0.439   0.298   9.183   9.919
   36        0.461   0.399   4.248   5.107
   37        0.605   0.118   0.000   0.723
   38        0.604   0.118   0.000   0.722
   39        1.566   3.612   0.000   5.178
tot         18.982  16.044 325.405 360.431

 BZINTS: Fermi energy:   -0.130018;  399.000000 electrons
         Band energy:-0.124859E+04;  BLOECHL correction:   -0.022365