 vasp.6.2.0 18Jan21 (build Jun 12 2021 23:27:24) complex

 executed on             LinuxIFC date 2022.05.27  04:58:54

 INCAR:
   ISMEAR = -5
   SIGMA = 0.1
   ISPIN = 1
   EDIFF = 1.d-5
   EDIFFG = -0.01
   NSW = 0
   NELM = 150
   ENCUT = 500
   ISIF = 2
   IBRION = 2
   LREAL = Auto
   ALGO = Fast
   ICHARG = 11
   LORBIT = 10
   LCHARG = .F.
   LWAVE = .F.

 POTCAR:    PAW_PBE Au 04Oct2007
 POTCAR:    PAW_PBE Ti 08Apr2002
 POTCAR:    PAW_PBE C 08Apr2002
 POTCAR:    PAW_PBE O 08Apr2002
|           W    W    AA    RRRRR   N    N  II  N    N   GGGG   !!!           |
|           W    W   A  A   R    R  NN   N  II  NN   N  G    G  !!!           |
|           W    W  A    A  R    R  N N  N  II  N N  N  G       !!!           |
|           W WW W  AAAAAA  RRRRR   N  N N  II  N  N N  G  GGG   !            |
|           WW  WW  A    A  R   R   N   NN  II  N   NN  G    G                |
|           W    W  A    A  R    R  N    N  II  N    N   GGGG   !!!           |
|     For optimal performance we recommend to set                             |
|       NCORE = 2 up to number-of-cores-per-socket                            |
|     This setting can greatly improve the performance of VASP for DFT.       |
|     The default, NCORE=1 might be grossly inefficient on modern             |
|     multi-core architectures or massively parallel machines. Do your        |
|     Unfortunately you need to use the default for GW and RPA                |
|     calculations (for HF NCORE is supported but not extensively tested      |
|     yet).                                                                   |

 POTCAR:    PAW_PBE Au 04Oct2007
   VRHFIN =Au: s1d10

   TITEL  = PAW_PBE Au 04Oct2007
   POMASS =  196.966; ZVAL   =   11.000    mass and valenz
   ENMAX  =  229.943; ENMIN  =  172.457 eV

 POTCAR:    PAW_PBE Ti 08Apr2002
   VRHFIN =Ti: d3 s1

   TITEL  = PAW_PBE Ti 08Apr2002
   POMASS =   47.880; ZVAL   =    4.000    mass and valenz
   ENMAX  =  178.330; ENMIN  =  133.747 eV

 POTCAR:    PAW_PBE C 08Apr2002
   VRHFIN =C: s2p2

[...]

 POTCAR:    PAW_PBE O 08Apr2002
   VRHFIN =O: s2p4

   TITEL  = PAW_PBE O 08Apr2002
   POMASS =   16.000; ZVAL   =    6.000    mass and valenz
   ENMAX  =  400.000; ENMIN  =  300.000 eV

 Optimization of the real space projectors (new method)

 maximal supplied QI-value         = 15.12
 optimisation between [QCUT,QGAM] = [ 11.34, 22.83] = [ 36.00,145.93] Ry
 Optimized for a Real-space Cutoff    1.39 Angstroem

   l    n(q)    QCUT    max X(q) W(low)/X(q) W(high)/X(q)  e(spline)
   2      9    11.338    60.898    0.39E-03    0.42E-03    0.21E-06
   2      9    11.338    58.894    0.40E-03    0.42E-03    0.22E-06
   0      9    11.338   109.617    0.13E-03    0.20E-04    0.13E-06
   0      9    11.338    75.026    0.13E-03    0.20E-04    0.13E-06
   1      9    11.338    16.344    0.33E-04    0.24E-03    0.18E-06
   1      9    11.338    10.160    0.26E-04    0.19E-03    0.15E-06
 Optimization of the real space projectors (new method)

[...]

   l    n(q)    QCUT    max X(q) W(low)/X(q) W(high)/X(q)  e(spline)
   0      7    11.310   115.676    0.43E-03    0.13E-02    0.19E-06
   0      7    11.310    87.132    0.43E-03    0.13E-02    0.18E-06
   1      6    11.310     4.429    0.42E-03    0.74E-03    0.11E-06
   1      6    11.310     2.733    0.34E-03    0.55E-03    0.92E-07
 Optimization of the real space projectors (new method)

 maximal supplied QI-value         = 24.76
 optimisation between [QCUT,QGAM] = [ 11.39, 22.77] = [ 36.31,145.25] Ry
 Optimized for a Real-space Cutoff    1.00 Angstroem

   l    n(q)    QCUT    max X(q) W(low)/X(q) W(high)/X(q)  e(spline)
   0      7    11.387    20.381    0.39E-03    0.13E-02    0.15E-06
   0      7    11.387    15.268    0.42E-03    0.14E-02    0.17E-06
   1      6    11.387     5.964    0.41E-03    0.11E-02    0.17E-06
   1      6    11.387     5.382    0.39E-03    0.87E-03    0.15E-06
  PAW_PBE Au 04Oct2007                  :
  PAW_PBE Ti 08Apr2002                  :
  PAW_PBE C 08Apr2002                   :
  PAW_PBE O 08Apr2002                   :

 POSCAR: Au-Ti-CO
  positions in direct lattice
  velocities in cartesian coordinates
 exchange correlation table for  LEXCH =        8
   RHO(1)=    0.500       N(1)  =     2000
   RHO(2)=  100.500       N(2)  =     4000

 VTST: version 3.2, (02/03/18)

 CHAIN: initializing optimizer

 OPT: Using VASP Conjugate-Gradient optimizer
 CHAIN: Read ICHAIN            0

 POSCAR: Au-Ti-CO
  positions in direct lattice
  velocities in cartesian coordinates

 ion  position               nearest neighbor table
   1  0.000  0.000  0.209-  16 2.94  12 2.94   6 2.94   8 2.94   7 2.94   3 2.94  10 2.94   4 2.94
                             2 2.94
   2  0.333  0.000  0.209-   9 2.94  11 2.94  17 2.94  10 2.94   8 2.94   4 2.94   5 2.94   1 2.94
                             3 2.94
   3  0.667  0.000  0.209-   7 2.94  18 2.94  12 2.94   1 2.94  11 2.94   5 2.94   6 2.94   9 2.94
                             2 2.94
   4  0.000  0.333  0.209-  10 2.94   6 2.94   5 2.94  13 2.94   2 2.94  15 2.94   9 2.94   1 2.94
                             7 2.94
   5  0.333  0.333  0.209-  13 2.94   7 2.94  11 2.94   4 2.94   2 2.94  14 2.94   3 2.94   8 2.94
                             6 2.94
   6  0.667  0.333  0.209-  15 2.94  14 2.94   1 2.94  12 2.94   4 2.94   9 2.94   8 2.94   3 2.94
                             5 2.94
   7  0.000  0.667  0.209-  18 2.94   3 2.94  16 2.94   5 2.94   1 2.94  13 2.94   8 2.94   4 2.94
                             9 2.94
   8  0.333  0.667  0.209-   9 2.94  17 2.94   1 2.94   2 2.94  14 2.94  16 2.94   6 2.94   7 2.94
                             5 2.94
   9  0.667  0.667  0.209-   2 2.94   8 2.94  17 2.94   6 2.94  15 2.94   4 2.94   3 2.94  18 2.94
                             7 2.94
  10  0.111  0.111  0.304-  26 2.93  19 2.93  20 2.93  11 2.94  17 2.94   2 2.94   4 2.94   1 2.94
                            12 2.94  16 2.94  13 2.94  15 2.94
  11  0.444  0.111  0.304-  20 2.92  21 2.92  27 2.94  13 2.94   2 2.94  10 2.94  17 2.94   5 2.94
                             3 2.94  18 2.94  14 2.94  12 2.94
  12  0.778  0.111  0.304-  25 2.93  19 2.93  21 2.93  16 2.94  18 2.94   1 2.94  14 2.94  15 2.94
                             3 2.94   6 2.94  10 2.94  11 2.94
  13  0.111  0.444  0.304-  23 2.92  20 2.92  22 2.94   5 2.94  18 2.94  11 2.94   7 2.94   4 2.94
                            16 2.94  10 2.94  14 2.94  15 2.94
  14  0.444  0.444  0.304-  21 2.92  23 2.92  24 2.94  15 2.94   6 2.94  12 2.94   8 2.94  17 2.94
                             5 2.94  16 2.94  13 2.94  11 2.94
  15  0.778  0.444  0.304-  24 2.92  22 2.92  19 2.93  14 2.94   6 2.94  17 2.94  12 2.94   9 2.94
                             4 2.94  10 2.94  13 2.94  18 2.94
  16  0.111  0.778  0.304-  25 2.93  26 2.93  23 2.93  18 2.94  12 2.94   7 2.94   1 2.94   8 2.94
                            13 2.94  10 2.94  14 2.94  17 2.94
  17  0.444  0.778  0.304-  27 2.92  24 2.92  26 2.93   9 2.94  15 2.94   2 2.94  10 2.94  11 2.94
                             8 2.94  14 2.94  16 2.94  18 2.94
  18  0.778  0.778  0.304-  22 2.92  27 2.92  25 2.93  16 2.94   7 2.94  13 2.94  12 2.94   3 2.94
                            11 2.94   9 2.94  15 2.94  17 2.94
  19  0.889  0.222  0.399-  10 2.93  12 2.93  15 2.93  26 2.94  25 2.94  24 2.94  22 2.94  21 2.95
                            20 2.95  28 2.95  32 3.03  31 3.03
  20  0.223  0.223  0.399-  36 2.76  23 2.91  21 2.91  11 2.92  13 2.92  10 2.93  27 2.95  22 2.95
                            26 2.95  19 2.95  29 2.96  31 2.96
  21  0.554  0.223  0.399-  36 2.76  20 2.91  23 2.91  14 2.92  11 2.92  12 2.93  27 2.95  24 2.95
                            25 2.95  19 2.95  30 2.96  32 2.96
  22  0.887  0.556  0.399-  24 2.92  27 2.92  18 2.92  15 2.92  13 2.94  25 2.94  19 2.94  23 2.95
                            20 2.95  35 2.96  33 2.99  31 2.99
  23  0.223  0.554  0.399-  36 2.76  20 2.91  21 2.91  13 2.92  14 2.92  16 2.93  22 2.95  24 2.95
                            25 2.95  26 2.95  33 2.96  34 2.96
  24  0.556  0.556  0.399-  27 2.92  22 2.92  15 2.92  17 2.92  14 2.94  26 2.94  19 2.94  21 2.95
                            23 2.95  35 2.96  32 2.99  34 2.99
  25  0.889  0.889  0.399-  16 2.93  12 2.93  18 2.93  19 2.94  26 2.94  22 2.94  27 2.94  23 2.95
                            21 2.95  28 2.95  33 3.03  30 3.03
  26  0.222  0.889  0.399-  10 2.93  16 2.93  17 2.93  19 2.94  25 2.94  27 2.94  24 2.94  20 2.95
                            23 2.95  28 2.95  29 3.03  34 3.03
  27  0.556  0.887  0.399-  24 2.92  22 2.92  17 2.92  18 2.92  11 2.94  26 2.94  25 2.94  20 2.95
                            21 2.95  35 2.96  29 2.99  30 2.99
  28  0.000  0.000  0.495-  25 2.95  19 2.95  26 2.95  34 2.98  32 2.98  33 2.98  30 2.98  31 2.98
                            29 2.98
  29  0.334  0.009  0.497-  30 2.85  31 2.86  36 2.87  20 2.96  35 2.98  28 2.98  27 2.99  26 3.03
                            34 3.10
  30  0.657  0.009  0.497-  29 2.85  32 2.86  36 2.87  21 2.96  35 2.98  28 2.98  27 2.99  25 3.03
                            33 3.10
  31  0.009  0.334  0.497-  33 2.85  29 2.86  36 2.87  20 2.96  35 2.98  28 2.98  22 2.99  19 3.03
                            32 3.10
  32  0.657  0.334  0.497-  34 2.85  30 2.86  36 2.87  21 2.96  35 2.98  28 2.98  24 2.99  19 3.03
                            31 3.10
  33  0.009  0.657  0.497-  31 2.85  34 2.86  36 2.87  23 2.96  35 2.98  28 2.98  22 2.99  25 3.03
                            30 3.10
  34  0.334  0.657  0.497-  32 2.85  33 2.86  36 2.87  23 2.96  35 2.98  28 2.98  24 2.99  26 3.03
                            29 3.10
  35  0.667  0.667  0.496-  24 2.96  27 2.96  22 2.96  29 2.98  34 2.98  32 2.98  31 2.98  30 2.98
                            33 2.98
  36  0.333  0.333  0.486-  37 2.10  20 2.76  23 2.76  21 2.76  33 2.87  31 2.87  29 2.87  30 2.87
                            34 2.87  32 2.87
  37  0.333  0.333  0.569-  38 1.16  36 2.10
  38  0.333  0.333  0.615-  37 1.16

  LATTYP: Found a hexagonal cell.
 ALAT       =     8.8135128021
 C/A-ratio  =     2.8619900254

  Lattice vectors:

 A1 = (  -4.4067569092,  -7.6327256898,   0.0000000000)
 A2 = (   8.8135128021,   0.0000000000,   0.0000000000)
 A3 = (   0.0000000000,   0.0000000000,  25.2241857282)

Analysis of symmetry for initial positions (statically):
 Subroutine PRICEL returns:
 Original cell was already a primitive cell.

 Routine SETGRP: Setting up the symmetry group for a
 hexagonal supercell.

 Subroutine GETGRP returns: Found  6 space group operations
 (whereof  6 operations were pure point group operations)
 out of a pool of 24 trial point group operations.

The static configuration has the point symmetry C_3v.

Analysis of symmetry for dynamics (positions and initial velocities):
 Subroutine PRICEL returns:
 Original cell was already a primitive cell.

[...]

The dynamic configuration has the point symmetry C_3v.

Analysis of constrained symmetry for selective dynamics:
 Subroutine PRICEL returns:
 Original cell was already a primitive cell.

 Routine SETGRP: Setting up the symmetry group for a
 hexagonal supercell.

[...]
     33      -5.5590      2.00000
     34      -5.4541      2.00000
     35      -5.4483      2.00000
     36      -5.4194      2.00000
     37      -5.4022      2.00000
     38      -5.3990      2.00000
     39      -5.3788      2.00000
     40      -5.2892      2.00000
     41      -5.2677      2.00000
     42      -5.2006      2.00000
     43      -5.1771      2.00000
     44      -5.1255      2.00000
     45      -5.0729      2.00000
     46      -5.0455      2.00000
     47      -4.9993      2.00000
     48      -4.9799      2.00000
     49      -4.9674      2.00000
     50      -4.9459      2.00000
     51      -4.8521      2.00000
     52      -4.8223      2.00000
     53      -4.8071      2.00000
     54      -4.7792      2.00000
     55      -4.7745      2.00000
     56      -4.7709      2.00000
     57      -4.7495      2.00000
     58      -4.7286      2.00000
     59      -4.6851      2.00000
     60      -4.6576      2.00000
[...]
    226       3.4144      0.00000
    227       3.6352      0.00000
    228       3.7042      0.00000
    229       3.7113      0.00000
    230       3.9787      0.00000
    231       4.1647      0.00000
    232       4.4953      0.00000
    233       4.7037      0.00000
    234       4.7453      0.00000
    235       5.0988      0.00000
    236       5.1020      0.00000
    237       5.3322      0.00000
    238       5.4218      0.00000
    239       5.7305      0.00000
    240       5.7835      0.00000

 soft charge-density along one line, spin component           1
         0         1         2         3         4         5         6         7         8         9
 total charge-density along one line

------------------------ aborting loop because EDIFF is reached ----------------------------------------

 total charge

# of ion       s       p       d       tot
    1        0.549   0.236   8.767   9.552
    2        0.541   0.241   8.765   9.547
    3        0.541   0.241   8.765   9.547
    4        0.541   0.241   8.765   9.547
    5        0.548   0.241   8.759   9.549
    6        0.541   0.241   8.765   9.547
    7        0.541   0.241   8.765   9.547
    8        0.541   0.241   8.765   9.547
    9        0.544   0.239   8.767   9.551
   10        0.523   0.306   8.769   9.599
   11        0.521   0.306   8.779   9.606
   12        0.523   0.306   8.769   9.599
   13        0.521   0.306   8.779   9.606
   14        0.521   0.306   8.779   9.606
   15        0.517   0.309   8.773   9.599
   16        0.523   0.306   8.769   9.599
   17        0.517   0.309   8.773   9.599
   18        0.517   0.309   8.773   9.599
   19        0.520   0.297   8.770   9.587
   20        0.564   0.328   8.738   9.630
   21        0.564   0.328   8.738   9.630
   22        0.510   0.306   8.776   9.593
   23        0.564   0.328   8.738   9.630
   24        0.510   0.306   8.776   9.593
   25        0.520   0.297   8.770   9.587
   26        0.520   0.297   8.770   9.587
   27        0.510   0.306   8.776   9.593
   28        0.540   0.228   8.757   9.525
   29        0.581   0.241   8.738   9.560
   30        0.581   0.241   8.738   9.560
   31        0.581   0.241   8.738   9.560
   32        0.581   0.241   8.738   9.560
   33        0.581   0.241   8.738   9.560
   34        0.581   0.241   8.738   9.560
   35        0.540   0.227   8.759   9.526
   36        0.428   0.603   2.328   3.359
   37        0.986   1.515   0.000   2.502
   38        1.620   3.524   0.000   5.144
tot         21.951  15.264 308.972 346.187

  FORCE on cell =-STRESS in cart. coord.  units (eV):
  Direction    XX          YY          ZZ          XY          YZ          ZX
  Alpha Z   902.46166   902.46166   902.46166
  Ewald  159144.40819159144.40858************    -0.00032    -0.00009    -0.00014
  Hartree167532.04881167532.04881************     0.00001    -0.00002    -0.00004
  E(xc)   -1786.79986 -1786.79991 -1793.79896     0.00004    -0.00000    -0.00000
  Local  ************************338610.74169     0.00206     0.00002     0.00002
  n-local   -93.18552   -47.49712   -51.31270    22.36652    -1.61156     1.48751
  augment  2374.98913  2374.99068  2393.97223    -0.00135     0.00001     0.00002
  Kinetic  5557.71800  5562.85588  5597.27524     3.07646     0.33094    -0.02543
  Fock        0.00000     0.00000     0.00000     0.00000     0.00000     0.00000
  Total     -22.57557   -22.57557     1.93034    -0.00000     0.00000    -0.00000
  in kB     -21.31589   -21.31589     1.82263    -0.00000     0.00000    -0.00000

 VOLUME and BASIS-vectors are now :
  energy-cutoff  :      500.00
  volume of cell :     1696.86
      direct lattice vectors                 reciprocal lattice vectors
     8.813512802  0.000000000  0.000000000     0.113462137 -0.065507406  0.000000000
     4.406756909  7.632725690  0.000000000     0.000000000  0.131014796  0.000000000
     0.000000000  0.000000000 25.224185728     0.000000000  0.000000000  0.039644491

  length of vectors
     8.813512802  8.813512802 25.224185728     0.131014796  0.131014796  0.039644491

 FORCES acting on ions
    electron-ion (+dipol)            ewald-force                    non-local-force                 convergence-correction
   -.203E-04 -.166E-04 0.270E+04   0.518E-04 0.432E-04 -.270E+04   0.555E-18 0.204E-17 -.583E+00   -.181E-03 -.118E-03 -.128E+00
   0.111E+00 -.322E+00 0.270E+04   -.120E+00 0.269E+00 -.270E+04   0.330E-01 0.892E-01 -.369E+00   -.231E-01 -.425E-01 -.164E+00
   -.111E+00 -.322E+00 0.270E+04   0.120E+00 0.269E+00 -.270E+04   -.330E-01 0.892E-01 -.369E+00   0.233E-01 -.406E-01 -.163E+00
   -.223E+00 0.257E+00 0.270E+04   0.173E+00 -.239E+00 -.270E+04   0.937E-01 -.161E-01 -.369E+00   -.483E-01 0.121E-02 -.164E+00
   0.938E-05 -.229E-04 0.270E+04   0.951E-04 0.172E-05 -.270E+04   0.292E-18 0.935E-18 0.855E-01   0.424E-02 0.258E-02 -.111E+00
   0.223E+00 0.257E+00 0.270E+04   -.173E+00 -.239E+00 -.270E+04   -.937E-01 -.161E-01 -.369E+00   0.468E-01 0.217E-02 -.163E+00
   -.335E+00 0.649E-01 0.270E+04   0.293E+00 -.304E-01 -.270E+04   0.608E-01 -.731E-01 -.369E+00   -.234E-01 0.405E-01 -.163E+00
   0.334E+00 0.649E-01 0.270E+04   -.293E+00 -.304E-01 -.270E+04   -.608E-01 -.731E-01 -.369E+00   0.253E-01 0.395E-01 -.163E+00
   0.202E-04 -.414E-04 0.270E+04   0.166E-03 -.200E-04 -.270E+04   0.181E-17 0.682E-18 -.359E+00   -.461E-02 -.238E-02 -.182E+00
   -.173E+00 -.100E+00 0.902E+03   0.375E+00 0.216E+00 -.901E+03   -.228E+00 -.132E+00 -.543E+00   -.423E-02 -.256E-02 -.193E+00
   0.145E-04 -.105E+01 0.901E+03   0.148E-03 0.108E+01 -.901E+03   -.556E-09 -.836E-02 -.151E+00   0.363E-02 -.570E-01 -.186E+00
   0.173E+00 -.100E+00 0.902E+03   -.375E+00 0.216E+00 -.901E+03   0.228E+00 -.132E+00 -.543E+00   0.313E-02 -.149E-02 -.194E+00
   -.908E+00 0.524E+00 0.901E+03   0.936E+00 -.541E+00 -.901E+03   -.724E-02 0.418E-02 -.151E+00   -.473E-01 0.319E-01 -.186E+00
   0.908E+00 0.524E+00 0.901E+03   -.936E+00 -.541E+00 -.901E+03   0.724E-02 0.418E-02 -.151E+00   0.546E-01 0.314E-01 -.187E+00
   0.321E-04 0.308E+01 0.905E+03   0.235E-03 -.306E+01 -.905E+03   0.336E-10 0.504E-03 -.479E+00   -.207E-02 -.564E-01 -.222E+00
   -.202E-04 0.200E+00 0.902E+03   0.162E-03 -.433E+00 -.901E+03   0.175E-07 0.263E+00 -.543E+00   0.356E-04 0.342E-02 -.194E+00
   0.266E+01 -.154E+01 0.905E+03   -.265E+01 0.153E+01 -.905E+03   0.437E-03 -.252E-03 -.479E+00   -.496E-01 0.268E-01 -.222E+00
   -.266E+01 -.154E+01 0.905E+03   0.265E+01 0.153E+01 -.905E+03   -.437E-03 -.252E-03 -.479E+00   0.496E-01 0.284E-01 -.222E+00
   -.430E-04 -.381E+01 -.905E+03   0.559E-04 0.389E+01 0.904E+03   -.136E-08 -.204E-01 0.618E+00   0.350E-02 -.358E-01 0.423E-01
   -.164E+02 -.949E+01 -.919E+03   0.175E+02 0.101E+02 0.919E+03   -.114E+01 -.659E+00 -.111E+01   0.518E-01 0.298E-01 0.226E+00
   0.164E+02 -.949E+01 -.919E+03   -.175E+02 0.101E+02 0.919E+03   0.114E+01 -.659E+00 -.111E+01   -.525E-01 0.308E-01 0.225E+00
   -.134E+02 0.772E+01 -.898E+03   0.130E+02 -.753E+01 0.897E+03   0.287E+00 -.166E+00 0.564E+00   0.583E-01 -.351E-01 0.913E-01
   -.811E-05 0.190E+02 -.919E+03   0.138E-03 -.202E+02 0.919E+03   0.877E-07 0.132E+01 -.111E+01   0.155E-03 -.608E-01 0.225E+00
   0.134E+02 0.772E+01 -.898E+03   -.130E+02 -.753E+01 0.897E+03   -.287E+00 -.166E+00 0.564E+00   -.586E-01 -.338E-01 0.912E-01
   0.330E+01 0.190E+01 -.905E+03   -.337E+01 -.194E+01 0.904E+03   0.177E-01 0.102E-01 0.618E+00   0.361E-01 0.208E-01 0.420E-01
   -.330E+01 0.190E+01 -.905E+03   0.336E+01 -.194E+01 0.904E+03   -.177E-01 0.102E-01 0.618E+00   -.289E-01 0.210E-01 0.423E-01
   0.728E-05 -.154E+02 -.898E+03   0.198E-03 0.151E+02 0.897E+03   0.221E-07 0.331E+00 0.564E+00   -.176E-02 0.680E-01 0.913E-01
   -.124E-04 -.122E-04 -.261E+04   0.285E-04 0.323E-04 0.261E+04   -.106E-17 0.785E-18 0.600E+00   0.276E-03 0.142E-03 0.144E+00
   0.534E+01 0.338E+01 -.260E+04   -.447E+01 -.192E+01 0.260E+04   -.102E+01 -.169E+01 -.139E+00   0.128E+00 0.146E+00 0.131E+00
   -.534E+01 0.338E+01 -.260E+04   0.447E+01 -.192E+01 0.260E+04   0.102E+01 -.169E+01 -.139E+00   -.129E+00 0.147E+00 0.132E+00
   0.560E+01 0.293E+01 -.260E+04   -.390E+01 -.291E+01 0.260E+04   -.197E+01 -.442E-01 -.139E+00   0.191E+00 0.380E-01 0.131E+00
   -.560E+01 0.293E+01 -.260E+04   0.390E+01 -.291E+01 0.260E+04   0.197E+01 -.442E-01 -.139E+00   -.191E+00 0.392E-01 0.131E+00
   0.261E+00 -.631E+01 -.260E+04   0.573E+00 0.483E+01 0.260E+04   -.948E+00 0.173E+01 -.139E+00   0.635E-01 -.185E+00 0.131E+00
   -.261E+00 -.631E+01 -.260E+04   -.573E+00 0.483E+01 0.260E+04   0.948E+00 0.173E+01 -.139E+00   -.616E-01 -.185E+00 0.131E+00
   0.335E-04 -.305E-04 -.262E+04   0.143E-03 -.476E-04 0.262E+04   -.470E-17 -.109E-17 0.580E+00   -.456E-02 -.234E-02 0.182E+00
   -.144E-04 0.428E-05 -.850E+03   0.413E-04 0.374E-05 0.851E+03   -.515E-19 -.947E-18 -.746E+00   0.348E-03 0.212E-03 0.667E-01
   -.494E-05 -.837E-04 -.868E+03   0.111E-04 0.777E-06 0.848E+03   -.213E-18 -.245E-18 0.203E+02   0.103E-02 0.632E-03 -.786E-01
   0.242E-03 -.921E-04 -.164E+04   0.387E-05 0.446E-06 0.170E+04   -.364E-18 -.763E-20 -.602E+02   0.366E-02 0.224E-02 -.440E-01
   -.563E-03 -.942E-03 0.483E+02   -.104E-12 0.294E-13 -.136E-11   0.439E-15 -.229E-17 -.467E+02   0.180E-01 0.111E-01 -.107E+01

 POSITION                                       TOTAL-FORCE (eV/Angst)
      0.00000      0.00000      5.28038         0.000000     -0.000000     -0.140862
      2.93784      0.00000      5.28038         0.001123     -0.005460     -0.048007
      5.87568      0.00000      5.28038        -0.001123     -0.005460     -0.048007
      1.46892      2.54424      5.28038        -0.004167      0.003703     -0.048007
      4.40676      2.54424      5.28038         0.000000     -0.000000     -0.069659
      7.34459      2.54424      5.28038         0.004167      0.003703     -0.048007
      2.93784      5.08848      5.28038        -0.005290      0.001757     -0.048007
      5.87568      5.08848      5.28038         0.005290      0.001757     -0.048007
      8.81351      5.08848      5.28038         0.000000     -0.000000     -0.058006
      1.46892      0.84808      7.67911        -0.029955     -0.017294      0.074911
      4.40676      0.84808      7.67911        -0.000000     -0.035045      0.027885
      7.34459      0.84808      7.67911         0.029955     -0.017294      0.074911
      2.93784      3.39232      7.67911        -0.030350      0.017523      0.027885
      5.87568      3.39232      7.67911         0.030350      0.017523      0.027885
      8.81351      3.39232      7.67911        -0.000000     -0.038301      0.109652
      4.40676      5.93656      7.67911         0.000000      0.034589      0.074911
      7.34459      5.93656      7.67911        -0.033170      0.019150      0.109652
     10.28243      5.93656      7.67911         0.033170      0.019150      0.109652
      8.81351      1.69614     10.07331         0.000000      0.018258      0.028542
      2.94950      1.70289     10.06400        -0.050020     -0.028879     -0.093793
      5.86402      1.70289     10.06400         0.050020     -0.028879     -0.093793
     10.27143      4.24676     10.06599         0.018289     -0.010559      0.007879
      4.40676      4.22694     10.06400         0.000000      0.057758     -0.093793
      7.35560      4.24676     10.06599        -0.018289     -0.010559      0.007879
     11.75137      6.78466     10.07331        -0.015812     -0.009129      0.028542
      5.87566      6.78466     10.07331         0.015812     -0.009129      0.028542
      8.81351      6.77194     10.06599         0.000000      0.021118      0.007879
      0.00000      0.00000     12.49013         0.000000     -0.000000     -0.038029
      2.98093      0.06833     12.52966        -0.030472     -0.076580     -0.031799
      5.83259      0.06833     12.52966         0.030472     -0.076580     -0.031799
      1.54964      2.54739     12.52966        -0.081556      0.011900     -0.031799
      7.26387      2.54739     12.52966         0.081556      0.011900     -0.031799
      2.97547      5.01700     12.52966        -0.051084      0.064679     -0.031799
      5.83804      5.01700     12.52966         0.051084      0.064679     -0.031799
      8.81351      5.08848     12.50181         0.000000     -0.000000     -0.044786
      4.40676      2.54424     12.25739         0.000000     -0.000000      0.359276
      4.40676      2.54424     14.36098         0.000000     -0.000000     -0.004604
      4.40676      2.54424     15.51762         0.000000     -0.000000      0.010278
    total drift:                                0.017399      0.010149      0.595332

  FREE ENERGIE OF THE ION-ELECTRON SYSTEM (eV)
  free  energy   TOTEN  =      -130.87452231 eV

  energy  without entropy=     -130.87452231  energy(sigma->0) =     -130.87452231

 stress matrix after NEB project (eV)
    -22.57557     -0.00000     -0.00000
     -0.00000    -22.57557      0.00000
      0.00000      0.00000      1.93034
  FORCES: max atom, RMS     0.010278    0.001827
  FORCE total and by dimension    0.011262    0.010278
  Stress total and by dimension   31.984982   22.575573
|           W    W    AA    RRRRR   N    N  II  N    N   GGGG   !!!           |
|           W    W   A  A   R    R  NN   N  II  NN   N  G    G  !!!           |
|           W    W  A    A  R    R  N N  N  II  N N  N  G       !!!           |
|           W WW W  AAAAAA  RRRRR   N  N N  II  N  N N  G  GGG   !            |
|           WW  WW  A    A  R   R   N   NN  II  N   NN  G    G                |
|           W    W  A    A  R    R  N    N  II  N    N   GGGG   !!!           |
|     Tetrahedron method does not include variations of the Fermi             |
|     occupations, so forces and stress will be inaccurate. We suggest        |
|     using a different smearing scheme ISMEAR = 1 or 2 for metals in         |
|     relaxations.                                                            |

 total charge

# of ion       s       p       d       tot
    1        0.549   0.236   8.767   9.552
    2        0.541   0.241   8.765   9.547
    3        0.541   0.241   8.765   9.547
    4        0.541   0.241   8.765   9.547
    5        0.548   0.241   8.759   9.549
    6        0.541   0.241   8.765   9.547
    7        0.541   0.241   8.765   9.547
    8        0.541   0.241   8.765   9.547
    9        0.544   0.239   8.767   9.551
   10        0.523   0.306   8.769   9.599
   11        0.521   0.306   8.779   9.606
   12        0.523   0.306   8.769   9.599
   13        0.521   0.306   8.779   9.606
   14        0.521   0.306   8.779   9.606
   15        0.517   0.309   8.773   9.599
   16        0.523   0.306   8.769   9.599
   17        0.517   0.309   8.773   9.599
   18        0.517   0.309   8.773   9.599
   19        0.520   0.297   8.770   9.587
   20        0.564   0.328   8.738   9.630
   21        0.564   0.328   8.738   9.630
   22        0.510   0.306   8.776   9.593
   23        0.564   0.328   8.738   9.630
   24        0.510   0.306   8.776   9.593
   25        0.520   0.297   8.770   9.587
   26        0.520   0.297   8.770   9.587
   27        0.510   0.306   8.776   9.593
   28        0.540   0.228   8.757   9.525
   29        0.581   0.241   8.738   9.560
   30        0.581   0.241   8.738   9.560
   31        0.581   0.241   8.738   9.560
   32        0.581   0.241   8.738   9.560
   33        0.581   0.241   8.738   9.560
   34        0.581   0.241   8.738   9.560
   35        0.540   0.227   8.759   9.526
   36        0.428   0.603   2.328   3.359
   37        0.986   1.515   0.000   2.502
   38        1.620   3.524   0.000   5.144
tot         21.951  15.264 308.972 346.187

 BZINTS: Fermi energy:    0.011691;  399.000000 electrons
         Band energy:-0.154736E+04;  BLOECHL correction:   -0.037195