 vasp.6.2.0 18Jan21 (build Jun 12 2021 23:27:24) complex

 executed on             LinuxIFC date 2022.05.28  02:13:40

 INCAR:
   ISMEAR = -5
   SIGMA = 0.1
   ISPIN = 1
   EDIFF = 1.d-5
   EDIFFG = -0.01
   NSW = 0
   NELM = 150
   ENCUT = 500
   ISIF = 2
   IBRION = 2
   LREAL = Auto
   ALGO = Fast
   ICHARG = 11
   LORBIT = 10
   LCHARG = .F.
   LWAVE = .F.

 POTCAR:    PAW_PBE Cu 22Jun2005
 POTCAR:    PAW_PBE Ti 08Apr2002
 POTCAR:    PAW_PBE C 08Apr2002
 POTCAR:    PAW_PBE O 08Apr2002
|           W    W    AA    RRRRR   N    N  II  N    N   GGGG   !!!           |
|           W    W   A  A   R    R  NN   N  II  NN   N  G    G  !!!           |
|           W    W  A    A  R    R  N N  N  II  N N  N  G       !!!           |
|           W WW W  AAAAAA  RRRRR   N  N N  II  N  N N  G  GGG   !            |
|           WW  WW  A    A  R   R   N   NN  II  N   NN  G    G                |
|           W    W  A    A  R    R  N    N  II  N    N   GGGG   !!!           |
|     For optimal performance we recommend to set                             |
|       NCORE = 2 up to number-of-cores-per-socket                            |
|     This setting can greatly improve the performance of VASP for DFT.       |
|     The default, NCORE=1 might be grossly inefficient on modern             |
|     multi-core architectures or massively parallel machines. Do your        |
|     Unfortunately you need to use the default for GW and RPA                |
|     calculations (for HF NCORE is supported but not extensively tested      |
|     yet).                                                                   |

 POTCAR:    PAW_PBE Cu 22Jun2005
   VRHFIN =Cu: d10 p1

   TITEL  = PAW_PBE Cu 22Jun2005
   POMASS =   63.546; ZVAL   =   11.000    mass and valenz
   ENMAX  =  295.446; ENMIN  =  221.585 eV

 POTCAR:    PAW_PBE Ti 08Apr2002
   VRHFIN =Ti: d3 s1

   TITEL  = PAW_PBE Ti 08Apr2002
   POMASS =   47.880; ZVAL   =    4.000    mass and valenz
   ENMAX  =  178.330; ENMIN  =  133.747 eV

 POTCAR:    PAW_PBE C 08Apr2002
   VRHFIN =C: s2p2

[...]

 POTCAR:    PAW_PBE O 08Apr2002
   VRHFIN =O: s2p4

   TITEL  = PAW_PBE O 08Apr2002
   POMASS =   16.000; ZVAL   =    6.000    mass and valenz
   ENMAX  =  400.000; ENMIN  =  300.000 eV

 Optimization of the real space projectors (new method)

 maximal supplied QI-value         = 16.25
 optimisation between [QCUT,QGAM] = [ 11.38, 22.75] = [ 36.24,144.96] Ry
 Optimized for a Real-space Cutoff    1.52 Angstroem

   l    n(q)    QCUT    max X(q) W(low)/X(q) W(high)/X(q)  e(spline)
   2      9    11.376     4.610    0.21E-03    0.10E-03    0.26E-06
   2      9    11.376     8.522    0.33E-03    0.16E-03    0.37E-06
   0     10    11.376    51.609    0.62E-04    0.20E-04    0.13E-06
   0     10    11.376    27.747    0.54E-04    0.20E-04    0.13E-06
   1     10    11.376    20.408    0.13E-04    0.99E-04    0.19E-06
   1     10    11.376    13.425    0.12E-04    0.87E-04    0.17E-06
 Optimization of the real space projectors (new method)

[...]

   l    n(q)    QCUT    max X(q) W(low)/X(q) W(high)/X(q)  e(spline)
   0      7    11.310   115.676    0.43E-03    0.13E-02    0.19E-06
   0      7    11.310    87.132    0.43E-03    0.13E-02    0.18E-06
   1      6    11.310     4.429    0.42E-03    0.74E-03    0.11E-06
   1      6    11.310     2.733    0.34E-03    0.55E-03    0.92E-07
 Optimization of the real space projectors (new method)

 maximal supplied QI-value         = 24.76
 optimisation between [QCUT,QGAM] = [ 11.39, 22.77] = [ 36.31,145.25] Ry
 Optimized for a Real-space Cutoff    1.00 Angstroem

   l    n(q)    QCUT    max X(q) W(low)/X(q) W(high)/X(q)  e(spline)
   0      7    11.387    20.381    0.39E-03    0.13E-02    0.15E-06
   0      7    11.387    15.268    0.42E-03    0.14E-02    0.17E-06
   1      6    11.387     5.964    0.41E-03    0.11E-02    0.17E-06
   1      6    11.387     5.382    0.39E-03    0.87E-03    0.15E-06
  PAW_PBE Cu 22Jun2005                  :
  PAW_PBE Ti 08Apr2002                  :
  PAW_PBE C 08Apr2002                   :
  PAW_PBE O 08Apr2002                   :

 POSCAR: Cu-Ti-CO2
  positions in direct lattice
  velocities in cartesian coordinates
 exchange correlation table for  LEXCH =        8
   RHO(1)=    0.500       N(1)  =     2000
   RHO(2)=  100.500       N(2)  =     4000

 VTST: version 3.2, (02/03/18)

 CHAIN: initializing optimizer

 OPT: Using VASP Conjugate-Gradient optimizer
 CHAIN: Read ICHAIN            0

 POSCAR: Cu-Ti-CO2
  positions in direct lattice
  velocities in cartesian coordinates

 ion  position               nearest neighbor table
   1  0.000  0.000  0.229-   7 2.57   3 2.57   4 2.57   2 2.57   6 2.57   8 2.57  12 2.57  10 2.57
                            16 2.57
   2  0.333  0.000  0.229-   8 2.57   9 2.57   5 2.57   1 2.57   3 2.57  11 2.57   4 2.57  10 2.57
                            17 2.57
   3  0.667  0.000  0.229-   1 2.57   7 2.57   6 2.57   9 2.57   2 2.57  12 2.57   5 2.57  18 2.57
                            11 2.57
   4  0.000  0.333  0.229-   5 2.57   6 2.57   1 2.57   7 2.57   2 2.57  13 2.57   9 2.57  10 2.57
                            15 2.57
   5  0.333  0.333  0.229-   4 2.57   2 2.57   7 2.57  13 2.57   8 2.57   6 2.57   3 2.57  11 2.57
                            14 2.57
   6  0.667  0.333  0.229-   4 2.57   9 2.57  15 2.57   3 2.57   1 2.57   8 2.57  14 2.57   5 2.57
                            12 2.57
   7  0.000  0.667  0.229-   1 2.57   3 2.57  16 2.57  18 2.57   4 2.57   5 2.57   8 2.57   9 2.57
                            13 2.57
   8  0.333  0.667  0.229-   9 2.57   2 2.57  17 2.57   6 2.57   1 2.57   7 2.57   5 2.57  14 2.57
                            16 2.57
   9  0.667  0.667  0.229-   8 2.57   6 2.57   2 2.57  17 2.57   3 2.57   7 2.57   4 2.57  15 2.57
                            18 2.57
  10  0.111  0.111  0.318-  26 2.55  19 2.55  11 2.57  12 2.57  13 2.57   1 2.57   2 2.57   4 2.57
                            15 2.57  16 2.57  17 2.57  20 2.57
  11  0.444  0.111  0.318-  27 2.56  20 2.56  21 2.56  10 2.57  13 2.57   2 2.57  17 2.57  14 2.57
                            12 2.57   5 2.57   3 2.57  18 2.57
  12  0.778  0.111  0.318-  19 2.55  25 2.55  15 2.57  10 2.57  14 2.57  18 2.57   3 2.57   1 2.57
                            16 2.57  11 2.57   6 2.57  21 2.57
  13  0.111  0.444  0.318-  22 2.56  23 2.56  20 2.56  16 2.57  18 2.57  10 2.57  11 2.57  14 2.57
                             5 2.57   4 2.57   7 2.57  15 2.57
  14  0.444  0.444  0.318-  24 2.56  21 2.56  23 2.56  15 2.57  17 2.57  12 2.57  16 2.57  13 2.57
                            11 2.57   6 2.57   8 2.57   5 2.57
  15  0.778  0.444  0.318-  19 2.55  24 2.56  22 2.56  14 2.57  17 2.57  12 2.57   6 2.57  18 2.57
                            10 2.57   9 2.57  13 2.57   4 2.57
  16  0.111  0.778  0.318-  25 2.55  26 2.55  18 2.57  13 2.57   7 2.57  14 2.57  17 2.57  12 2.57
                            10 2.57   8 2.57   1 2.57  23 2.57
  17  0.444  0.778  0.318-  26 2.55  27 2.56  24 2.56  14 2.57  15 2.57   8 2.57   9 2.57  11 2.57
                            16 2.57  18 2.57  10 2.57   2 2.57
  18  0.778  0.778  0.318-  25 2.55  22 2.56  27 2.56  16 2.57  13 2.57   7 2.57  15 2.57  12 2.57
                            17 2.57   9 2.57   3 2.57  11 2.57
  19  0.889  0.222  0.407-  12 2.55  10 2.55  15 2.55  25 2.56  26 2.56  28 2.56  22 2.57  24 2.57
                            21 2.57  20 2.57  32 2.57  31 2.57
  20  0.223  0.223  0.408-  23 2.55  21 2.55  11 2.56  13 2.56  27 2.57  22 2.57  29 2.57  31 2.57
                            10 2.57  26 2.57  19 2.57  36 2.66
  21  0.555  0.223  0.408-  20 2.55  23 2.55  14 2.56  11 2.56  24 2.57  27 2.57  32 2.57  30 2.57
                            12 2.57  19 2.57  25 2.57  36 2.66
  22  0.889  0.556  0.407-  18 2.56  15 2.56  13 2.56  31 2.56  33 2.56  24 2.56  27 2.56  23 2.57
                            20 2.57  19 2.57  25 2.57  35 2.57
  23  0.223  0.555  0.408-  20 2.55  21 2.55  13 2.56  14 2.56  22 2.57  24 2.57  33 2.57  34 2.57
                            16 2.57  25 2.57  26 2.57  36 2.66
  24  0.556  0.556  0.407-  15 2.56  17 2.56  14 2.56  32 2.56  34 2.56  22 2.56  27 2.56  21 2.57
                            23 2.57  19 2.57  26 2.57  35 2.57
  25  0.889  0.889  0.407-  12 2.55  16 2.55  18 2.55  19 2.56  26 2.56  28 2.56  22 2.57  27 2.57
                            21 2.57  23 2.57  33 2.57  30 2.57
  26  0.222  0.889  0.407-  10 2.55  16 2.55  17 2.55  25 2.56  19 2.56  28 2.56  27 2.57  24 2.57
                            20 2.57  23 2.57  29 2.57  34 2.57
  27  0.556  0.889  0.407-  17 2.56  18 2.56  11 2.56  29 2.56  30 2.56  24 2.56  22 2.56  20 2.57
                            21 2.57  26 2.57  25 2.57  35 2.57
  28  0.000  0.000  0.496-  33 2.56  30 2.56  31 2.56  29 2.56  32 2.56  34 2.56  25 2.56  19 2.56
                            26 2.56
  29  0.334  0.998  0.496-  34 2.53  35 2.55  28 2.56  27 2.56  20 2.57  26 2.57  30 2.58  36 2.59
                            31 2.59
  30  0.669  0.998  0.496-  33 2.53  35 2.55  28 2.56  27 2.56  21 2.57  25 2.57  29 2.58  36 2.59
                            32 2.59
  31  0.998  0.334  0.496-  32 2.53  35 2.55  28 2.56  22 2.56  20 2.57  19 2.57  33 2.58  36 2.59
                            29 2.59
  32  0.669  0.334  0.496-  31 2.53  35 2.55  28 2.56  24 2.56  21 2.57  19 2.57  34 2.58  36 2.59
                            30 2.59
  33  0.998  0.669  0.496-  30 2.53  35 2.55  28 2.56  22 2.56  23 2.57  25 2.57  31 2.58  36 2.59
                            34 2.59
  34  0.334  0.669  0.496-  29 2.53  35 2.55  28 2.56  24 2.56  23 2.57  26 2.57  32 2.58  36 2.59
                            33 2.59
  35  0.667  0.667  0.497-  34 2.55  32 2.55  29 2.55  30 2.55  33 2.55  31 2.55  24 2.57  27 2.57
                            22 2.57
  36  0.333  0.333  0.502-  31 2.59  29 2.59  33 2.59  32 2.59  34 2.59  30 2.59  23 2.66  20 2.66
                            21 2.66
  37  0.333  0.333  0.673-  38 1.18  39 1.18
  38  0.181  0.333  0.673-  37 1.18
  39  0.486  0.333  0.673-  37 1.18

  LATTYP: Found a hexagonal cell.
 ALAT       =     7.6967864036
 C/A-ratio  =     3.0484540560

  Lattice vectors:

 A1 = (  -3.8483927580,  -6.6656128093,   0.0000000000)
 A2 = (   7.6967864037,   0.0000000000,   0.0000000000)
 A3 = (   0.0000000000,   0.0000000000,  23.4632997305)

Analysis of symmetry for initial positions (statically):
 Subroutine PRICEL returns:
 Original cell was already a primitive cell.

 Routine SETGRP: Setting up the symmetry group for a
 hexagonal supercell.

 Subroutine GETGRP returns: Found  2 space group operations
 (whereof  2 operations were pure point group operations)
 out of a pool of 24 trial point group operations.

The static configuration has the point symmetry C_1h.

Analysis of symmetry for dynamics (positions and initial velocities):
 Subroutine PRICEL returns:
 Original cell was already a primitive cell.

[...]

The dynamic configuration has the point symmetry C_1h.

Analysis of constrained symmetry for selective dynamics:
 Subroutine PRICEL returns:
 Original cell was already a primitive cell.

 Routine SETGRP: Setting up the symmetry group for a
 hexagonal supercell.

[...]
     41      -4.2153      2.00000
     42      -4.1887      2.00000
     43      -4.1174      2.00000
     44      -4.0987      2.00000
     45      -3.9626      2.00000
     46      -3.9545      2.00000
     47      -3.8923      2.00000
     48      -3.8830      2.00000
     49      -3.8710      2.00000
     50      -3.8474      2.00000
     51      -3.8416      2.00000
     52      -3.8357      2.00000
     53      -3.8320      2.00000
     54      -3.6642      2.00000
     55      -3.6498      2.00000
     56      -3.6328      2.00000
     57      -3.6146      2.00000
     58      -3.5713      2.00000
     59      -3.5609      2.00000
     60      -3.5470      2.00000
[...]
    238       5.1658      0.00000
    239       5.2963      0.00000
    240       5.4580      0.00000
    241       5.5048      0.00000
    242       5.5827      0.00000
    243       5.7900      0.00000
    244       5.8110      0.00000
    245       5.9582      0.00000
    246       6.0367      0.00000
    247       6.1443      0.00000
    248       6.1881      0.00000
    249       6.2165      0.00000
    250       6.2458      0.00000
    251       6.3818      0.00000
    252       6.4998      0.00000

 soft charge-density along one line, spin component           1
         0         1         2         3         4         5         6         7         8         9
 total charge-density along one line

------------------------ aborting loop because EDIFF is reached ----------------------------------------

 total charge

# of ion       s       p       d       tot
    1        0.451   0.283   9.188   9.921
    2        0.447   0.286   9.186   9.919
    3        0.447   0.286   9.186   9.919
    4        0.447   0.286   9.186   9.919
    5        0.448   0.286   9.181   9.916
    6        0.447   0.286   9.186   9.919
    7        0.447   0.286   9.186   9.919
    8        0.447   0.286   9.186   9.919
    9        0.450   0.284   9.187   9.921
   10        0.443   0.372   9.176   9.990
   11        0.441   0.366   9.182   9.989
   12        0.443   0.372   9.176   9.990
   13        0.441   0.366   9.182   9.988
   14        0.441   0.366   9.182   9.988
   15        0.440   0.371   9.177   9.988
   16        0.443   0.372   9.176   9.990
   17        0.440   0.371   9.177   9.989
   18        0.440   0.371   9.177   9.989
   19        0.444   0.372   9.179   9.994
   20        0.458   0.386   9.158  10.002
   21        0.458   0.386   9.158  10.002
   22        0.435   0.375   9.179   9.988
   23        0.458   0.386   9.158  10.002
   24        0.435   0.375   9.179   9.988
   25        0.444   0.372   9.179   9.995
   26        0.444   0.372   9.179   9.995
   27        0.435   0.375   9.179   9.988
   28        0.445   0.294   9.180   9.918
   29        0.478   0.310   9.159   9.948
   30        0.478   0.310   9.159   9.948
   31        0.478   0.309   9.160   9.947
   32        0.478   0.309   9.160   9.947
   33        0.478   0.310   9.159   9.948
   34        0.478   0.310   9.159   9.948
   35        0.442   0.298   9.179   9.918
   36        0.504   0.510   2.310   3.324
   37        0.933   1.802   0.000   2.735
   38        1.608   3.528   0.000   5.135
   39        1.608   3.528   0.000   5.135
tot         20.423  21.110 323.448 364.981

  FORCE on cell =-STRESS in cart. coord.  units (eV):
  Direction    XX          YY          ZZ          XY          YZ          ZX
  Alpha Z   835.03202   835.03202   835.03202
  Ewald  203426.40237202637.00099************     0.00035    -0.31340     0.00014
  Hartree216166.47168215798.75211************     0.00002    -0.28497     0.00005
  E(xc)   -2334.50475 -2336.62440 -2340.34031    -0.00030     0.00115    -0.00003
  Local  ************************431259.52316     0.02035     0.59858    -0.00069
  n-local  -808.44163  -802.47105  -815.62123     1.66886     0.02295     0.01107
  augment  3324.27983  3327.03867  3348.28855    -0.01856    -0.00138     0.00044
  Kinetic  3427.34973  3492.70318  3522.93685     0.64211    -0.00544    -0.23784
  Fock        0.00000     0.00000     0.00000     0.00000     0.00000     0.00000
  Total      -8.87978    -8.98828    -2.04742     0.00000     0.01749    -0.00000
  in kB     -11.81882   -11.96324    -2.72507     0.00000     0.02328    -0.00000

 VOLUME and BASIS-vectors are now :
  energy-cutoff  :      500.00
  volume of cell :     1203.76
      direct lattice vectors                 reciprocal lattice vectors
     7.696786404  0.000000000  0.000000000     0.129924354 -0.075011849  0.000000000
     3.848392758  6.665612809  0.000000000     0.000000000  0.150023716  0.000000000
     0.000000000  0.000000000 23.463299730     0.000000000  0.000000000  0.042619751

  length of vectors
     7.696786404  7.696786404 23.463299730     0.150023716  0.150023716  0.042619751

 FORCES acting on ions
    electron-ion (+dipol)            ewald-force                    non-local-force                 convergence-correction
   -.421E-04 0.134E-01 0.367E+04   0.581E-04 -.102E-01 -.366E+04   -.310E-10 0.466E-03 -.215E+01   -.261E-03 -.356E-02 -.431E-01
   -.104E+01 -.124E+01 0.366E+04   0.981E+00 0.115E+01 -.366E+04   0.299E-01 0.650E-01 -.192E+01   0.343E-01 0.281E-01 0.349E-01
   0.104E+01 -.124E+01 0.366E+04   -.981E+00 0.115E+01 -.366E+04   -.299E-01 0.650E-01 -.192E+01   -.336E-01 0.307E-01 0.357E-01
   -.160E+01 -.282E+00 0.366E+04   0.149E+01 0.272E+00 -.366E+04   0.703E-01 -.663E-02 -.192E+01   0.403E-01 0.203E-01 0.415E-01
   -.628E-04 -.126E-01 0.366E+04   0.116E-03 0.909E-04 -.366E+04   0.236E-09 -.355E-02 -.172E+01   0.122E-01 0.162E-01 0.137E+00
   0.160E+01 -.282E+00 0.366E+04   -.149E+01 0.271E+00 -.366E+04   -.703E-01 -.663E-02 -.192E+01   -.419E-01 0.216E-01 0.427E-01
   -.568E+00 0.152E+01 0.366E+04   0.511E+00 -.142E+01 -.366E+04   0.439E-01 -.588E-01 -.192E+01   0.156E-01 -.481E-01 0.384E-01
   0.568E+00 0.152E+01 0.366E+04   -.511E+00 -.142E+01 -.366E+04   -.439E-01 -.588E-01 -.192E+01   -.120E-01 -.495E-01 0.387E-01
   -.144E-03 0.118E-03 0.367E+04   0.263E-03 0.101E-01 -.366E+04   -.258E-09 0.387E-02 -.190E+01   -.133E-01 -.141E-01 0.275E-01
   -.101E+02 -.577E+01 0.125E+04   0.102E+02 0.584E+01 -.124E+04   -.215E+00 -.119E+00 -.957E+00   0.981E-01 0.608E-01 0.359E-01
   -.892E-04 -.110E+02 0.123E+04   0.189E-03 0.106E+02 -.123E+04   -.164E-07 0.246E+00 -.354E+00   0.116E-01 0.119E+00 0.211E-01
   0.101E+02 -.577E+01 0.125E+04   -.102E+02 0.584E+01 -.124E+04   0.215E+00 -.119E+00 -.957E+00   -.995E-01 0.622E-01 0.348E-01
   -.955E+01 0.546E+01 0.123E+04   0.921E+01 -.527E+01 -.123E+04   0.216E+00 -.130E+00 -.358E+00   0.103E+00 -.429E-01 0.134E-01
   0.955E+01 0.546E+01 0.123E+04   -.921E+01 -.527E+01 -.123E+04   -.216E+00 -.130E+00 -.358E+00   -.792E-01 -.434E-01 0.130E-01
   -.137E-03 -.912E+00 0.125E+04   0.296E-03 0.828E+00 -.125E+04   -.449E-08 0.675E-01 -.916E+00   -.351E-02 0.204E-01 0.282E-01
   -.885E-04 0.117E+02 0.124E+04   0.187E-03 -.118E+02 -.124E+04   -.162E-07 0.244E+00 -.956E+00   -.635E-04 -.121E+00 0.286E-01
   -.747E+00 0.414E+00 0.125E+04   0.674E+00 -.363E+00 -.124E+04   0.621E-01 -.359E-01 -.914E+00   0.141E-01 -.189E-01 0.254E-01
   0.747E+00 0.414E+00 0.125E+04   -.674E+00 -.363E+00 -.124E+04   -.621E-01 -.359E-01 -.914E+00   -.135E-01 -.163E-01 0.260E-01
   -.663E-04 -.958E+01 -.116E+04   0.743E-04 0.967E+01 0.116E+04   0.452E-08 -.679E-01 0.874E+00   0.946E-03 -.202E-01 -.943E-02
   -.717E+02 -.410E+02 -.127E+04   0.726E+02 0.415E+02 0.127E+04   -.953E+00 -.542E+00 -.454E+00   0.651E-01 0.352E-01 0.971E-01
   0.717E+02 -.410E+02 -.127E+04   -.726E+02 0.415E+02 0.127E+04   0.953E+00 -.542E+00 -.454E+00   -.858E-01 0.365E-01 0.961E-01
   -.341E+02 0.192E+02 -.118E+04   0.338E+02 -.190E+02 0.118E+04   0.211E+00 -.128E+00 0.585E+00   0.393E-01 -.302E-01 0.505E-01
   -.764E-04 0.822E+02 -.127E+04   0.156E-03 -.832E+02 0.127E+04   -.732E-07 0.110E+01 -.464E+00   0.117E-01 -.999E-01 0.898E-01
   0.341E+02 0.192E+02 -.118E+04   -.338E+02 -.190E+02 0.118E+04   -.211E+00 -.128E+00 0.585E+00   -.412E-01 -.294E-01 0.504E-01
   0.858E+01 0.514E+01 -.116E+04   -.867E+01 -.520E+01 0.116E+04   0.624E-01 0.389E-01 0.849E+00   0.188E-01 0.160E-01 -.693E-02
   -.858E+01 0.514E+01 -.116E+04   0.867E+01 -.520E+01 0.116E+04   -.624E-01 0.389E-01 0.849E+00   -.176E-01 0.152E-01 -.642E-02
   -.132E-03 -.392E+02 -.118E+04   0.239E-03 0.389E+02 0.118E+04   -.164E-07 0.246E+00 0.574E+00   -.110E-02 0.539E-01 0.532E-01
   -.313E-04 0.324E+01 -.349E+04   0.480E-04 -.324E+01 0.349E+04   0.262E-09 -.394E-02 0.178E+01   0.357E-03 0.398E-02 0.230E-01
   -.602E+02 -.111E+03 -.349E+04   0.607E+02 0.111E+03 0.349E+04   -.615E+00 -.712E+00 0.625E+00   0.102E+00 0.104E+00 -.246E-01
   0.602E+02 -.111E+03 -.349E+04   -.607E+02 0.111E+03 0.349E+04   0.615E+00 -.712E+00 0.625E+00   -.102E+00 0.106E+00 -.243E-01
   -.128E+03 0.517E+01 -.348E+04   0.129E+03 -.504E+01 0.348E+04   -.913E+00 -.176E+00 0.716E+00   0.138E+00 0.420E-01 -.230E-01
   0.128E+03 0.517E+01 -.348E+04   -.129E+03 -.504E+01 0.348E+04   0.913E+00 -.176E+00 0.716E+00   -.138E+00 0.436E-01 -.225E-01
   -.693E+02 0.106E+03 -.349E+04   0.695E+02 -.106E+03 0.349E+04   -.311E+00 0.887E+00 0.622E+00   0.345E-01 -.145E+00 -.170E-01
   0.693E+02 0.106E+03 -.349E+04   -.695E+02 -.106E+03 0.349E+04   0.311E+00 0.887E+00 0.622E+00   -.313E-01 -.145E+00 -.178E-01
   -.122E-03 -.328E+01 -.351E+04   0.247E-03 0.328E+01 0.351E+04   -.872E-09 0.131E-01 0.218E+01   -.131E-01 -.157E-01 -.112E-01
   -.322E-04 -.162E-01 -.128E+04   0.467E-04 0.158E-01 0.128E+04   -.175E-09 0.262E-02 0.292E+01   0.347E-03 0.345E-03 -.410E-02
   -.195E-04 -.317E+00 -.102E+04   0.242E-06 0.316E+00 0.102E+04   -.136E-09 0.203E-02 -.162E+00   0.172E-04 0.576E-03 -.200E-01
   0.254E+03 0.159E+00 -.153E+04   -.318E+03 -.204E+00 0.153E+04   0.640E+02 0.486E-01 0.170E+00   0.116E-01 0.286E-02 -.290E-01
   -.254E+03 0.159E+00 -.153E+04   0.318E+03 -.204E+00 0.153E+04   -.640E+02 0.486E-01 0.170E+00   -.117E-01 0.289E-02 -.291E-01
   -.108E-04 -.980E-01 0.913E+01   0.568E-13 -.208E-12 -.409E-11   -.751E-08 0.113E+00 -.100E+02   0.137E-01 0.271E-03 0.794E+00

 POSITION                                       TOTAL-FORCE (eV/Angst)
      0.00000      0.00000      5.37156         0.000000     -0.000263      0.011698
      2.56560      0.00000      5.37156         0.007003      0.004753      0.054367
      5.13119      0.00000      5.37156        -0.007003      0.004753      0.054367
      1.28280      2.22187      5.37156         0.008343      0.003182      0.054116
      3.84839      2.22187      5.37156         0.000000     -0.000249      0.060585
      6.41399      2.22187      5.37156        -0.008343      0.003182      0.054116
      2.56560      4.44374      5.37156         0.000623     -0.009130      0.054652
      5.13119      4.44374      5.37156        -0.000623     -0.009130      0.054652
      7.69679      4.44374      5.37156         0.000000     -0.000434      0.029743
      1.28280      0.74062      7.46636         0.009745      0.005159     -0.097804
      3.84839      0.74062      7.46636         0.000000     -0.038111     -0.050915
      6.41399      0.74062      7.46636        -0.009745      0.005159     -0.097804
      2.56560      2.96249      7.46636        -0.033393      0.018788     -0.051080
      5.13119      2.96249      7.46636         0.033393      0.018788     -0.051080
      7.69679      2.96249      7.46636        -0.000000      0.003371     -0.025321
      3.84839      5.18437      7.46636         0.000000     -0.011475     -0.097290
      6.41399      5.18437      7.46636         0.003114     -0.002270     -0.026013
      8.97958      5.18437      7.46636        -0.003114     -0.002270     -0.026013
      7.69679      1.47704      9.53921        -0.000000      0.003310      0.002506
      2.57092      1.48432      9.56248         0.011244      0.004822     -0.002010
      5.12587      1.48432      9.56248        -0.011244      0.004822     -0.002010
      8.97870      3.70363      9.55579         0.002873     -0.000968      0.004062
      3.84839      3.69697      9.56248         0.000000     -0.013886     -0.003654
      6.41487      3.70363      9.55579        -0.002873     -0.000968      0.004062
     10.26602      5.92709      9.53921        -0.004591     -0.002746     -0.000133
      5.12755      5.92709      9.53921         0.004591     -0.002746     -0.000133
      7.69679      5.92397      9.55579        -0.000000      0.001368      0.001274
      0.00000      0.00000     11.63511         0.000000     -0.002727      0.039841
      6.40848      6.64966     11.64831        -0.007465     -0.003075      0.014879
      8.98509      6.64966     11.64831         0.007465     -0.003075      0.014879
      8.96302      2.22507     11.64831        -0.008456     -0.008266      0.011174
      6.43055      2.22507     11.64831         0.008456     -0.008266      0.011174
     10.25132      4.45649     11.64831         0.006654      0.010511      0.014316
      5.14225      4.45649     11.64831        -0.006654      0.010511      0.014316
      7.69679      4.44374     11.65790        -0.000000      0.002018      0.016672
      3.84839      2.22187     11.77538        -0.000000      0.002222     -0.061755
      3.84839      2.22022     15.79838        -0.000000      0.001899      0.003190
      2.67188      2.21947     15.79227        -0.001655      0.005719      0.006185
      5.02491      2.21947     15.79227         0.001655      0.005719      0.006185
    total drift:                                0.013706      0.015003     -0.126615

  FREE ENERGIE OF THE ION-ELECTRON SYSTEM (eV)
  free  energy   TOTEN  =      -152.44124518 eV

  energy  without entropy=     -152.44124518  energy(sigma->0) =     -152.44124518

 stress matrix after NEB project (eV)
     -8.87978      0.00000     -0.00000
      0.00000     -8.98828      0.01749
     -0.00000      0.01749     -2.04742
  FORCES: max atom, RMS     0.008585    0.002033
  FORCE total and by dimension    0.012696    0.006185
  Stress total and by dimension   12.799693    8.988282
|           W    W    AA    RRRRR   N    N  II  N    N   GGGG   !!!           |
|           W    W   A  A   R    R  NN   N  II  NN   N  G    G  !!!           |
|           W    W  A    A  R    R  N N  N  II  N N  N  G       !!!           |
|           W WW W  AAAAAA  RRRRR   N  N N  II  N  N N  G  GGG   !            |
|           WW  WW  A    A  R   R   N   NN  II  N   NN  G    G                |
|           W    W  A    A  R    R  N    N  II  N    N   GGGG   !!!           |
|     Tetrahedron method does not include variations of the Fermi             |
|     occupations, so forces and stress will be inaccurate. We suggest        |
|     using a different smearing scheme ISMEAR = 1 or 2 for metals in         |
|     relaxations.                                                            |

 total charge

# of ion       s       p       d       tot
    1        0.451   0.283   9.188   9.921
    2        0.447   0.286   9.186   9.919
    3        0.447   0.286   9.186   9.919
    4        0.447   0.286   9.186   9.919
    5        0.448   0.286   9.181   9.916
    6        0.447   0.286   9.186   9.919
    7        0.447   0.286   9.186   9.919
    8        0.447   0.286   9.186   9.919
    9        0.450   0.284   9.187   9.921
   10        0.443   0.372   9.176   9.990
   11        0.441   0.366   9.182   9.989
   12        0.443   0.372   9.176   9.990
   13        0.441   0.366   9.182   9.988
   14        0.441   0.366   9.182   9.988
   15        0.440   0.371   9.177   9.988
   16        0.443   0.372   9.176   9.990
   17        0.440   0.371   9.177   9.989
   18        0.440   0.371   9.177   9.989
   19        0.444   0.372   9.179   9.994
   20        0.458   0.386   9.158  10.002
   21        0.458   0.386   9.158  10.002
   22        0.435   0.375   9.179   9.988
   23        0.458   0.386   9.158  10.002
   24        0.435   0.375   9.179   9.988
   25        0.444   0.372   9.179   9.995
   26        0.444   0.372   9.179   9.995
   27        0.435   0.375   9.179   9.988
   28        0.445   0.294   9.180   9.918
   29        0.478   0.310   9.159   9.948
   30        0.478   0.310   9.159   9.948
   31        0.478   0.309   9.160   9.947
   32        0.478   0.309   9.160   9.947
   33        0.478   0.310   9.159   9.948
   34        0.478   0.310   9.159   9.948
   35        0.442   0.298   9.179   9.918
   36        0.504   0.510   2.310   3.324
   37        0.933   1.802   0.000   2.735
   38        1.608   3.528   0.000   5.135
   39        1.608   3.528   0.000   5.135
tot         20.423  21.110 323.448 364.981

 BZINTS: Fermi energy:   -0.109199;  405.000000 electrons
         Band energy:-0.135087E+04;  BLOECHL correction:   -0.030361