 vasp.6.2.0 18Jan21 (build Jun 12 2021 23:27:24) complex

 executed on             LinuxIFC date 2022.05.26  19:45:09

 INCAR:
   ISMEAR = -5
   SIGMA = 0.1
   ISPIN = 1
   EDIFF = 1.d-5
   EDIFFG = -0.01
   NSW = 0
   NELM = 150
   ENCUT = 500
   ISIF = 2
   IBRION = 2
   LREAL = Auto
   ALGO = Fast
   ICHARG = 11
   LORBIT = 10
   LCHARG = .F.
   LWAVE = .F.

 POTCAR:    PAW_PBE Ag 02Apr2005
 POTCAR:    PAW_PBE Zr_sv 04Jan2005
 POTCAR:    PAW_PBE N 08Apr2002
|           W    W    AA    RRRRR   N    N  II  N    N   GGGG   !!!           |
|           W    W   A  A   R    R  NN   N  II  NN   N  G    G  !!!           |
|           W    W  A    A  R    R  N N  N  II  N N  N  G       !!!           |
|           W WW W  AAAAAA  RRRRR   N  N N  II  N  N N  G  GGG   !            |
|           WW  WW  A    A  R   R   N   NN  II  N   NN  G    G                |
|           W    W  A    A  R    R  N    N  II  N    N   GGGG   !!!           |
|     For optimal performance we recommend to set                             |
|       NCORE = 2 up to number-of-cores-per-socket                            |
|     This setting can greatly improve the performance of VASP for DFT.       |
|     The default, NCORE=1 might be grossly inefficient on modern             |
|     multi-core architectures or massively parallel machines. Do your        |
|     Unfortunately you need to use the default for GW and RPA                |
|     calculations (for HF NCORE is supported but not extensively tested      |
|     yet).                                                                   |

 POTCAR:    PAW_PBE Ag 02Apr2005
   VRHFIN =Ag : s1 d10

   TITEL  = PAW_PBE Ag 02Apr2005
   POMASS =  107.868; ZVAL   =   11.000    mass and valenz
   ENMAX  =  249.844; ENMIN  =  187.383 eV

 POTCAR:    PAW_PBE Zr_sv 04Jan2005
   VRHFIN =Zr: 4s4p5s4d

   TITEL  = PAW_PBE Zr_sv 04Jan2005
   POMASS =   91.224; ZVAL   =   12.000    mass and valenz
   ENMAX  =  229.898; ENMIN  =  172.424 eV

 POTCAR:    PAW_PBE N 08Apr2002
   VRHFIN =N: s2p3

   TITEL  = PAW_PBE N 08Apr2002
   POMASS =   14.001; ZVAL   =    5.000    mass and valenz
   ENMAX  =  400.000; ENMIN  =  300.000 eV

 Optimization of the real space projectors (new method)

 maximal supplied QI-value         = 15.12
 optimisation between [QCUT,QGAM] = [ 11.34, 22.83] = [ 36.00,145.93] Ry
 Optimized for a Real-space Cutoff    1.43 Angstroem

   l    n(q)    QCUT    max X(q) W(low)/X(q) W(high)/X(q)  e(spline)
   2      9    11.338    53.897    0.16E-03    0.20E-03    0.28E-06
   2      9    11.338    52.416    0.16E-03    0.20E-03    0.29E-06
   0     10    11.338   122.045    0.31E-04    0.76E-04    0.15E-06
   0     10    11.338    73.629    0.30E-04    0.72E-04    0.15E-06
   1      9    11.338    15.255    0.20E-03    0.19E-04    0.17E-06
   1      9    11.338     9.562    0.16E-03    0.15E-04    0.14E-06
 Optimization of the real space projectors (new method)

[...]

   l    n(q)    QCUT    max X(q) W(low)/X(q) W(high)/X(q)  e(spline)
   0     10    11.338    12.107    0.38E-04    0.13E-04    0.27E-07
   0     10    11.338     9.948    0.69E-04    0.30E-04    0.38E-07
   1     10    11.338     3.563    0.26E-04    0.18E-04    0.40E-07
   1     10    11.338     4.524    0.25E-03    0.39E-04    0.44E-06
   2      9    11.338    87.261    0.26E-03    0.91E-05    0.26E-06
   2      9    11.338    70.950    0.25E-03    0.91E-05    0.25E-06
 Optimization of the real space projectors (new method)

 maximal supplied QI-value         = 25.13
 optimisation between [QCUT,QGAM] = [ 11.31, 22.87] = [ 35.82,146.48] Ry
 Optimized for a Real-space Cutoff    1.27 Angstroem

   l    n(q)    QCUT    max X(q) W(low)/X(q) W(high)/X(q)  e(spline)
   0      9    11.310    79.467    0.75E-04    0.16E-03    0.36E-06
   0      9    11.310    66.151    0.74E-04    0.16E-03    0.36E-06
   1      8    11.310    17.416    0.35E-03    0.12E-03    0.95E-06
   1      8    11.310    12.382    0.37E-03    0.13E-03    0.98E-06
  PAW_PBE Ag 02Apr2005                  :
  PAW_PBE Zr_sv 04Jan2005               :
  PAW_PBE N 08Apr2002                   :

 POSCAR: Ag-Zr-N
  positions in direct lattice
  velocities in cartesian coordinates
 exchange correlation table for  LEXCH =        8
   RHO(1)=    0.500       N(1)  =     2000
   RHO(2)=  100.500       N(2)  =     4000

 VTST: version 3.2, (02/03/18)

 CHAIN: initializing optimizer

 OPT: Using VASP Conjugate-Gradient optimizer
 CHAIN: Read ICHAIN            0

 POSCAR: Ag-Zr-N
  positions in direct lattice
  velocities in cartesian coordinates

 ion  position               nearest neighbor table
   1  0.000  0.000  0.238-   2 2.93   8 2.93   7 2.93   6 2.93   4 2.93  12 2.93  16 2.93  10 2.93
                             3 2.93
   2  0.333  0.000  0.238-   1 2.93   8 2.93   9 2.93   3 2.93   4 2.93   5 2.93  10 2.93  17 2.93
                            11 2.93
   3  0.667  0.000  0.238-   9 2.93   2 2.93   5 2.93  11 2.93   7 2.93  18 2.93   1 2.93   6 2.93
                            12 2.93
   4  0.000  0.333  0.238-   5 2.93   6 2.93   2 2.93   1 2.93   7 2.93  13 2.93  15 2.93   9 2.93
                            10 2.93
   5  0.333  0.333  0.238-   4 2.93   3 2.93   7 2.93   2 2.93   8 2.93  14 2.93  13 2.93  11 2.93
                             6 2.93
   6  0.667  0.333  0.238-   4 2.93   9 2.93   1 2.93  15 2.93   8 2.93  12 2.93   3 2.93   5 2.93
                            14 2.93
   7  0.000  0.667  0.238-   8 2.93   1 2.93   5 2.93   3 2.93   4 2.93  16 2.93  18 2.93  13 2.93
                             9 2.93
   8  0.333  0.667  0.238-   7 2.93   1 2.93   2 2.93   9 2.93   5 2.93  16 2.93   6 2.93  17 2.93
                            14 2.93
   9  0.667  0.667  0.238-   3 2.93   2 2.93   8 2.93   6 2.93  17 2.93   4 2.93  15 2.93   7 2.93
                            18 2.93
  10  0.111  0.111  0.346-  20 2.91  19 2.92  26 2.92  12 2.93  16 2.93  15 2.93  17 2.93  13 2.93
                            11 2.93   2 2.93   1 2.93   4 2.93
  11  0.444  0.111  0.346-  21 2.91  20 2.91  14 2.93  17 2.93  18 2.93   3 2.93  12 2.93  13 2.93
                            10 2.93   5 2.93   2 2.93  27 2.93
  12  0.778  0.111  0.346-  21 2.91  25 2.92  19 2.92  10 2.93  16 2.93  18 2.93  15 2.93  11 2.93
                             1 2.93  14 2.93   6 2.93   3 2.93
  13  0.111  0.444  0.346-  20 2.91  23 2.91  15 2.93  14 2.93  18 2.93  10 2.93  11 2.93  16 2.93
                             4 2.93   5 2.93   7 2.93  22 2.93
  14  0.444  0.444  0.346-  23 2.91  21 2.91  13 2.93  11 2.93  16 2.93   5 2.93  12 2.93  17 2.93
                             8 2.93  15 2.93   6 2.93  24 2.93
  15  0.778  0.444  0.346-  19 2.92  13 2.93  10 2.93  12 2.93  17 2.93  18 2.93   4 2.93   6 2.93
                             9 2.93  14 2.93  24 2.93  22 2.93
  16  0.111  0.778  0.346-  23 2.91  26 2.92  25 2.92  18 2.93  12 2.93  10 2.93  14 2.93  17 2.93
                            13 2.93   7 2.93   8 2.93   1 2.93
  17  0.444  0.778  0.346-  26 2.92  11 2.93  10 2.93   9 2.93  18 2.93  15 2.93  16 2.93   2 2.93
                            14 2.93   8 2.93  27 2.93  24 2.93
  18  0.778  0.778  0.346-  25 2.92  16 2.93  12 2.93  13 2.93  11 2.93  17 2.93  15 2.93   7 2.93
                             3 2.93   9 2.93  22 2.93  27 2.93
  19  0.889  0.222  0.453-  10 2.92  12 2.92  15 2.92  26 2.93  25 2.93  20 2.93  21 2.93  24 2.93
                            22 2.93  28 2.93  32 2.97  31 2.97
  20  0.222  0.222  0.453-  13 2.91  11 2.91  10 2.91  36 2.92  21 2.93  23 2.93  27 2.93  22 2.93
                            19 2.93  26 2.93  31 2.97  29 2.97
  21  0.555  0.222  0.453-  11 2.91  14 2.91  12 2.91  36 2.92  20 2.93  23 2.93  27 2.93  24 2.93
                            25 2.93  19 2.93  30 2.97  32 2.97
  22  0.889  0.556  0.454-  24 2.93  27 2.93  23 2.93  20 2.93  18 2.93  15 2.93  13 2.93  25 2.93
                            19 2.93  35 2.94  33 2.95  31 2.95
  23  0.222  0.555  0.453-  14 2.91  13 2.91  16 2.91  36 2.92  21 2.93  20 2.93  22 2.93  24 2.93
                            26 2.93  25 2.93  34 2.97  33 2.97
  24  0.556  0.556  0.454-  27 2.93  22 2.93  23 2.93  21 2.93  15 2.93  17 2.93  14 2.93  19 2.93
                            26 2.93  35 2.94  32 2.95  34 2.95
  25  0.889  0.889  0.453-  16 2.92  12 2.92  18 2.92  26 2.93  19 2.93  23 2.93  21 2.93  22 2.93
                            27 2.93  28 2.93  33 2.97  30 2.97
  26  0.222  0.889  0.453-  16 2.92  10 2.92  17 2.92  25 2.93  19 2.93  23 2.93  20 2.93  27 2.93
                            24 2.93  28 2.93  34 2.97  29 2.97
  27  0.556  0.889  0.454-  24 2.93  22 2.93  20 2.93  21 2.93  17 2.93  18 2.93  11 2.93  26 2.93
                            25 2.93  35 2.94  29 2.95  30 2.95
  28  0.000  0.000  0.561-  29 2.93  34 2.93  33 2.93  32 2.93  31 2.93  30 2.93  26 2.93  25 2.93
                            19 2.93
  29  0.334  0.000  0.563-  30 2.93  36 2.93  35 2.93  31 2.93  28 2.93  34 2.94  27 2.95  26 2.97
                            20 2.97
  30  0.666  0.000  0.563-  29 2.93  36 2.93  35 2.93  32 2.93  28 2.93  33 2.94  27 2.95  25 2.97
                            21 2.97
  31  0.000  0.334  0.563-  33 2.93  36 2.93  35 2.93  29 2.93  28 2.93  32 2.94  22 2.95  19 2.97
                            20 2.97
  32  0.666  0.334  0.563-  34 2.93  36 2.93  35 2.93  30 2.93  28 2.93  31 2.94  24 2.95  19 2.97
                            21 2.97
  33  0.000  0.666  0.563-  31 2.93  36 2.93  35 2.93  34 2.93  28 2.93  30 2.94  22 2.95  25 2.97
                            23 2.97
  34  0.334  0.666  0.563-  32 2.93  36 2.93  35 2.93  33 2.93  28 2.93  29 2.94  24 2.95  26 2.97
                            23 2.97
  35  0.667  0.667  0.563-  30 2.93  29 2.93  32 2.93  34 2.93  31 2.93  33 2.93  24 2.94  27 2.94
                            22 2.94
  36  0.333  0.333  0.560-  37 1.78  21 2.92  20 2.92  23 2.92  31 2.93  33 2.93  30 2.93  29 2.93
                            34 2.93  32 2.93
  37  0.333  0.333  0.641-  36 1.78

  LATTYP: Found a hexagonal cell.
 ALAT       =     8.7913665772
 C/A-ratio  =     2.5227160501

  Lattice vectors:

 A1 = (  -4.3956832886,  -7.6135467898,   0.0000000000)
 A2 = (   8.7913665771,   0.0000000000,   0.0000000000)
 A3 = (   0.0000000000,   0.0000000000,  22.1781215668)

Analysis of symmetry for initial positions (statically):
 Subroutine PRICEL returns:
 Original cell was already a primitive cell.

 Routine SETGRP: Setting up the symmetry group for a
 hexagonal supercell.

 Subroutine GETGRP returns: Found  6 space group operations
 (whereof  6 operations were pure point group operations)
 out of a pool of 24 trial point group operations.

The static configuration has the point symmetry C_3v.

Analysis of symmetry for dynamics (positions and initial velocities):
 Subroutine PRICEL returns:
 Original cell was already a primitive cell.

[...]

The dynamic configuration has the point symmetry C_3v.

Analysis of constrained symmetry for selective dynamics:
 Subroutine PRICEL returns:
 Original cell was already a primitive cell.

 Routine SETGRP: Setting up the symmetry group for a
 hexagonal supercell.

 Subroutine GETGRP returns: Found  6 space group operations
[...]
     24      -4.8171      2.00000
     25      -4.8058      2.00000
     26      -4.7950      2.00000
     27      -4.7762      2.00000
     28      -4.7686      2.00000
     29      -4.7444      2.00000
     30      -4.7343      2.00000
     31      -4.7317      2.00000
     32      -4.6986      2.00000
     33      -4.6891      2.00000
     34      -4.6865      2.00000
     35      -4.6497      2.00000
     36      -4.6481      2.00000
     37      -4.6291      2.00000
     38      -4.6034      2.00000
     39      -4.5828      2.00000
     40      -4.5768      2.00000
     41      -4.5337      2.00000
     42      -4.5036      2.00000
     43      -4.4726      2.00000
     44      -4.4679      2.00000
     45      -4.4570      2.00000
     46      -4.4552      2.00000
     47      -4.4365      2.00000
     48      -4.3360      2.00000
     49      -4.3248      2.00000
     50      -4.3161      2.00000
     51      -4.2966      2.00000
     52      -4.2947      2.00000
     53      -4.2872      2.00000
     54      -4.2856      2.00000
     55      -4.2771      2.00000
     56      -4.2662      2.00000
     57      -4.2555      2.00000
     58      -4.1939      2.00000
     59      -4.1853      2.00000
     60      -4.1806      2.00000
[...]
    238       6.2059      0.00000
    239       6.2345      0.00000
    240       6.2668      0.00000
    241       6.3395      0.00000
    242       6.4066      0.00000
    243       6.4258      0.00000
    244       6.7115      0.00000
    245       7.1564      0.00000
    246       7.2295      0.00000
    247       7.2790      0.00000
    248       7.4124      0.00000
    249       7.4426      0.00000
    250       7.4811      0.00000
    251       7.5078      0.00000
    252       7.5645      0.00000

 soft charge-density along one line, spin component           1
         0         1         2         3         4         5         6         7         8         9
 total charge-density along one line

------------------------ aborting loop because EDIFF is reached ----------------------------------------

 total charge

# of ion       s       p       d       tot
    1        0.414   0.204   9.177   9.795
    2        0.417   0.203   9.177   9.796
    3        0.417   0.203   9.177   9.796
    4        0.417   0.203   9.177   9.796
    5        0.417   0.202   9.177   9.796
    6        0.417   0.203   9.177   9.796
    7        0.417   0.203   9.177   9.796
    8        0.417   0.203   9.177   9.796
    9        0.414   0.203   9.177   9.794
   10        0.405   0.271   9.164   9.841
   11        0.407   0.268   9.166   9.841
   12        0.405   0.271   9.164   9.841
   13        0.407   0.268   9.166   9.841
   14        0.407   0.268   9.166   9.841
   15        0.402   0.270   9.163   9.836
   16        0.405   0.271   9.164   9.841
   17        0.402   0.270   9.163   9.836
   18        0.402   0.270   9.163   9.836
   19        0.402   0.266   9.168   9.835
   20        0.422   0.287   9.153   9.862
   21        0.422   0.287   9.153   9.862
   22        0.395   0.271   9.164   9.830
   23        0.422   0.287   9.153   9.862
   24        0.395   0.271   9.164   9.830
   25        0.402   0.266   9.168   9.835
   26        0.402   0.266   9.168   9.835
   27        0.395   0.271   9.164   9.830
   28        0.414   0.205   9.174   9.793
   29        0.438   0.207   9.166   9.812
   30        0.438   0.207   9.166   9.812
   31        0.438   0.207   9.166   9.812
   32        0.438   0.207   9.166   9.812
   33        0.438   0.207   9.166   9.812
   34        0.438   0.207   9.166   9.812
   35        0.414   0.204   9.174   9.792
   36        2.207   5.976   2.015  10.198
   37        1.338   2.235   0.000   3.573
tot         18.047  16.594 322.884 357.525

  FORCE on cell =-STRESS in cart. coord.  units (eV):
  Direction    XX          YY          ZZ          XY          YZ          ZX
  Alpha Z   768.72437   768.72437   768.72437
  Ewald  121101.36885121101.36895************     0.00003     0.00000     0.00004
  Hartree131443.40376131443.40379************     0.00001     0.00000     0.00001
  E(xc)   -2101.89772 -2101.89772 -2106.65882     0.00000     0.00000     0.00000
  Local  ************************263967.51610     0.00044    -0.00006    -0.00016
  n-local  -340.37097  -323.34661  -352.82556    10.64569    -0.55692     0.56281
  augment  3220.03913  3220.03936  3238.98569    -0.00021    -0.00003    -0.00002
  Kinetic  5080.45470  5081.51694  5136.49882     3.43594     0.92032    -0.31653
  Fock        0.00000     0.00000     0.00000     0.00000     0.00000     0.00000
  Total      -4.57313    -4.57313    -0.39213    -0.00000     0.00000     0.00000
  in kB      -4.93579    -4.93579    -0.42323    -0.00000     0.00000     0.00000

 VOLUME and BASIS-vectors are now :
  energy-cutoff  :      500.00
  volume of cell :     1484.46
      direct lattice vectors                 reciprocal lattice vectors
     8.791366577  0.000000000  0.000000000     0.113747958 -0.065672414  0.000000000
     4.395683289  7.613546790  0.000000000     0.000000000  0.131344829  0.000000000
     0.000000000  0.000000000 22.178121567     0.000000000  0.000000000  0.045089481

  length of vectors
     8.791366577  8.791366577 22.178121567     0.131344829  0.131344829  0.045089481

 FORCES acting on ions
    electron-ion (+dipol)            ewald-force                    non-local-force                 convergence-correction
   0.461E-04 -.281E-04 0.252E+04   -.953E-04 0.593E-04 -.252E+04   -.194E-17 -.422E-17 -.186E+01   -.913E-04 -.161E-03 -.630E-01
   -.921E-01 0.607E+00 0.252E+04   0.191E-01 -.581E+00 -.252E+04   0.310E-01 0.387E-01 -.163E+01   0.356E-01 -.665E-01 0.138E-01
   0.922E-01 0.607E+00 0.252E+04   -.190E-01 -.581E+00 -.252E+04   -.310E-01 0.387E-01 -.163E+01   -.362E-01 -.647E-01 0.145E-01
   0.480E+00 -.383E+00 0.252E+04   -.494E+00 0.307E+00 -.252E+04   0.490E-01 0.756E-02 -.163E+01   -.396E-01 0.643E-01 0.137E-01
   -.622E-05 -.191E-04 0.252E+04   0.981E-04 -.201E-05 -.252E+04   -.991E-18 0.359E-18 -.159E+01   0.616E-02 0.374E-02 0.478E-01
   -.480E+00 -.383E+00 0.252E+04   0.494E+00 0.307E+00 -.252E+04   -.490E-01 0.756E-02 -.163E+01   0.383E-01 0.652E-01 0.144E-01
   0.572E+00 -.224E+00 0.252E+04   -.513E+00 0.274E+00 -.252E+04   0.180E-01 -.462E-01 -.163E+01   -.737E-01 0.154E-02 0.144E-01
   -.572E+00 -.224E+00 0.252E+04   0.513E+00 0.274E+00 -.252E+04   -.180E-01 -.462E-01 -.163E+01   0.752E-01 0.603E-03 0.144E-01
   0.364E-04 -.129E-04 0.252E+04   0.792E-04 -.643E-04 -.252E+04   -.137E-17 0.190E-17 -.181E+01   -.660E-02 -.336E-02 -.417E-02
   0.169E+01 0.976E+00 0.877E+03   -.152E+01 -.875E+00 -.876E+03   -.148E+00 -.852E-01 -.569E+00   -.362E-01 -.212E-01 0.170E+00
   -.286E-04 0.542E+01 0.879E+03   0.410E-04 -.551E+01 -.879E+03   0.439E-12 0.668E-01 -.587E+00   0.619E-02 -.673E-02 0.178E+00
   -.169E+01 0.976E+00 0.877E+03   0.152E+01 -.875E+00 -.876E+03   0.148E+00 -.852E-01 -.569E+00   0.351E-01 -.207E-01 0.169E+00
   0.469E+01 -.271E+01 0.879E+03   -.477E+01 0.275E+01 -.879E+03   0.579E-01 -.334E-01 -.587E+00   -.264E-02 0.868E-02 0.178E+00
   -.469E+01 -.271E+01 0.879E+03   0.477E+01 0.275E+01 -.879E+03   -.579E-01 -.334E-01 -.587E+00   0.127E-01 0.754E-02 0.176E+00
   0.156E-04 -.310E+01 0.872E+03   -.109E-03 0.302E+01 -.872E+03   0.244E-12 0.371E-01 -.599E+00   -.122E-02 0.552E-01 0.156E+00
   -.803E-05 -.195E+01 0.877E+03   0.208E-04 0.175E+01 -.876E+03   0.112E-11 0.170E+00 -.569E+00   -.387E-03 0.407E-01 0.168E+00
   -.269E+01 0.155E+01 0.872E+03   0.261E+01 -.151E+01 -.872E+03   0.321E-01 -.186E-01 -.599E+00   0.472E-01 -.283E-01 0.157E+00
   0.269E+01 0.155E+01 0.872E+03   -.261E+01 -.151E+01 -.872E+03   -.321E-01 -.186E-01 -.599E+00   -.469E-01 -.269E-01 0.158E+00
   0.398E-04 -.221E+01 -.794E+03   -.130E-03 0.202E+01 0.793E+03   0.101E-11 0.154E+00 0.104E+01   0.928E-03 0.373E-01 0.823E-01
   0.197E+02 0.114E+02 -.765E+03   -.196E+02 -.113E+02 0.765E+03   -.361E+00 -.208E+00 0.298E-02   0.107E-01 0.545E-02 0.851E-01
   -.197E+02 0.114E+02 -.765E+03   0.196E+02 -.113E+02 0.765E+03   0.361E+00 -.208E+00 0.298E-02   -.220E-01 0.430E-02 0.849E-01
   0.949E+01 -.548E+01 -.797E+03   -.962E+01 0.555E+01 0.797E+03   0.160E+00 -.926E-01 0.580E+00   -.211E-02 0.852E-02 0.487E-01
   -.550E-04 -.228E+02 -.765E+03   0.458E-04 0.226E+02 0.765E+03   0.273E-11 0.416E+00 0.298E-02   -.676E-02 -.211E-01 0.849E-01
   -.949E+01 -.548E+01 -.797E+03   0.962E+01 0.555E+01 0.797E+03   -.160E+00 -.926E-01 0.580E+00   0.142E-01 0.904E-02 0.489E-01
   0.192E+01 0.111E+01 -.794E+03   -.175E+01 -.101E+01 0.793E+03   -.134E+00 -.772E-01 0.104E+01   -.344E-01 -.193E-01 0.819E-01
   -.192E+01 0.111E+01 -.794E+03   0.175E+01 -.101E+01 0.793E+03   0.134E+00 -.772E-01 0.104E+01   0.438E-01 -.176E-01 0.823E-01
   0.208E-04 0.110E+02 -.797E+03   0.109E-03 -.111E+02 0.797E+03   0.122E-11 0.185E+00 0.580E+00   0.449E-02 -.589E-02 0.487E-01
   0.558E-04 -.353E-04 -.245E+04   -.119E-03 0.786E-04 0.245E+04   -.207E-17 0.129E-17 0.164E+01   0.536E-04 0.983E-04 0.785E-01
   0.310E+02 0.468E+02 -.245E+04   -.307E+02 -.463E+02 0.245E+04   -.412E+00 -.583E+00 0.213E+01   -.111E-03 -.519E-01 0.245E-01
   -.310E+02 0.468E+02 -.245E+04   0.307E+02 -.463E+02 0.245E+04   0.412E+00 -.583E+00 0.213E+01   -.845E-03 -.506E-01 0.247E-01
   0.560E+02 0.345E+01 -.245E+04   -.555E+02 -.343E+01 0.245E+04   -.711E+00 -.651E-01 0.213E+01   -.445E-01 0.259E-01 0.252E-01
   -.560E+02 0.345E+01 -.245E+04   0.555E+02 -.343E+01 0.245E+04   0.711E+00 -.651E-01 0.213E+01   0.439E-01 0.266E-01 0.263E-01
   0.250E+02 -.502E+02 -.245E+04   -.248E+02 0.497E+02 0.245E+04   -.299E+00 0.648E+00 0.213E+01   -.438E-01 0.252E-01 0.249E-01
   -.250E+02 -.502E+02 -.245E+04   0.248E+02 0.497E+02 0.245E+04   0.299E+00 0.648E+00 0.213E+01   0.450E-01 0.249E-01 0.262E-01
   0.194E-04 -.954E-05 -.247E+04   0.106E-03 -.673E-04 0.246E+04   -.715E-17 -.636E-17 0.171E+01   -.630E-02 -.293E-02 0.118E+00
   0.243E-03 -.147E-03 -.241E+04   0.112E-03 0.106E-04 0.242E+04   0.507E-18 0.691E-18 -.338E+01   0.521E-02 0.306E-02 -.598E-01
   0.118E-03 -.642E-04 -.144E+04   0.199E-04 0.248E-06 0.146E+04   -.248E-18 -.408E-18 -.130E+02   0.177E-02 0.107E-02 -.463E-01
   0.749E-03 -.865E-03 0.133E+02   -.506E-13 0.763E-13 -.159E-11   0.160E-15 0.216E-15 -.157E+02   0.222E-01 0.110E-01 0.247E+01

 POSITION                                       TOTAL-FORCE (eV/Angst)
      0.00000      0.00000      5.28219         0.000000      0.000000      0.018006
      2.93046      0.00000      5.28219        -0.005743     -0.001375      0.024144
      5.86091      0.00000      5.28219         0.005743     -0.001375      0.024144
      1.46523      2.53785      5.28219        -0.004062     -0.004286      0.024144
      4.39568      2.53785      5.28219         0.000000      0.000000     -0.012488
      7.32614      2.53785      5.28219         0.004062     -0.004286      0.024144
      2.93046      5.07570      5.28219         0.001681      0.005661      0.024144
      5.86091      5.07570      5.28219        -0.001681      0.005661      0.024144
      8.79137      5.07570      5.28219         0.000000      0.000000      0.028988
      1.46523      0.84595      7.67490        -0.007659     -0.004422     -0.041857
      4.39568      0.84595      7.67490        -0.000000     -0.030842     -0.043024
      7.32614      0.84595      7.67490         0.007659     -0.004422     -0.041857
      2.93046      3.38380      7.67490        -0.026710      0.015421     -0.043024
      5.86091      3.38380      7.67490         0.026710      0.015421     -0.043024
      8.79137      3.38380      7.67490         0.000000      0.009928      0.035621
      4.39568      5.92165      7.67490         0.000000      0.008844     -0.041857
      7.32614      5.92165      7.67490         0.008598     -0.004964      0.035621
     10.25659      5.92165      7.67490        -0.008598     -0.004964      0.035621
      8.79137      1.69022     10.04930         0.000000      0.003752      0.077189
      2.93117      1.69231     10.04246        -0.243223     -0.140425     -0.187874
      5.86019      1.69231     10.04246         0.243223     -0.140425     -0.187874
     10.25641      4.22985     10.06824         0.029539     -0.017054      0.050092
      4.39568      4.22892     10.04246         0.000000      0.280849     -0.187874
      7.32632      4.22985     10.06824        -0.029539     -0.017054      0.050092
     11.72328      6.76844     10.04930        -0.003249     -0.001876      0.077189
      5.85946      6.76844     10.04930         0.003249     -0.001876      0.077189
      8.79137      6.76739     10.06824         0.000000      0.034109      0.050092
      0.00000      0.00000     12.44689         0.000000      0.000000     -0.053961
      2.93311      0.00118     12.48352        -0.123291     -0.183329     -0.036064
      5.85826      0.00118     12.48352         0.123291     -0.183329     -0.036064
      1.46758      2.53956     12.48352        -0.220413     -0.015109     -0.036064
      7.32379      2.53956     12.48352         0.220413     -0.015109     -0.036064
      2.93015      5.07281     12.48352        -0.097122      0.198438     -0.036064
      5.86121      5.07281     12.48352         0.097122      0.198438     -0.036064
      8.79137      5.07570     12.47551         0.000000      0.000000     -0.083664
      4.39568      2.53785     12.42634         0.000000      0.000000      0.516929
      4.39568      2.53785     14.20989         0.000000      0.000000     -0.012735
    total drift:                                0.022938      0.010174      0.059337

  FREE ENERGIE OF THE ION-ELECTRON SYSTEM (eV)
  free  energy   TOTEN  =      -104.29227518 eV

  energy  without entropy=     -104.29227518  energy(sigma->0) =     -104.29227518

 stress matrix after NEB project (eV)
     -4.57313     -0.00000      0.00000
     -0.00000     -4.57313      0.00000
     -0.00000      0.00000     -0.39213
  FORCES: max atom, RMS     0.012735    0.002094
  FORCE total and by dimension    0.012735    0.012735
  Stress total and by dimension    6.479265    4.573134
|           W    W    AA    RRRRR   N    N  II  N    N   GGGG   !!!           |
|           W    W   A  A   R    R  NN   N  II  NN   N  G    G  !!!           |
|           W    W  A    A  R    R  N N  N  II  N N  N  G       !!!           |
|           W WW W  AAAAAA  RRRRR   N  N N  II  N  N N  G  GGG   !            |
|           WW  WW  A    A  R   R   N   NN  II  N   NN  G    G                |
|           W    W  A    A  R    R  N    N  II  N    N   GGGG   !!!           |
|     Tetrahedron method does not include variations of the Fermi             |
|     occupations, so forces and stress will be inaccurate. We suggest        |
|     using a different smearing scheme ISMEAR = 1 or 2 for metals in         |
|     relaxations.                                                            |

 total charge

# of ion       s       p       d       tot
    1        0.414   0.204   9.177   9.795
    2        0.417   0.203   9.177   9.796
    3        0.417   0.203   9.177   9.796
    4        0.417   0.203   9.177   9.796
    5        0.417   0.202   9.177   9.796
    6        0.417   0.203   9.177   9.796
    7        0.417   0.203   9.177   9.796
    8        0.417   0.203   9.177   9.796
    9        0.414   0.203   9.177   9.794
   10        0.405   0.271   9.164   9.841
   11        0.407   0.268   9.166   9.841
   12        0.405   0.271   9.164   9.841
   13        0.407   0.268   9.166   9.841
   14        0.407   0.268   9.166   9.841
   15        0.402   0.270   9.163   9.836
   16        0.405   0.271   9.164   9.841
   17        0.402   0.270   9.163   9.836
   18        0.402   0.270   9.163   9.836
   19        0.402   0.266   9.168   9.835
   20        0.422   0.287   9.153   9.862
   21        0.422   0.287   9.153   9.862
   22        0.395   0.271   9.164   9.830
   23        0.422   0.287   9.153   9.862
   24        0.395   0.271   9.164   9.830
   25        0.402   0.266   9.168   9.835
   26        0.402   0.266   9.168   9.835
   27        0.395   0.271   9.164   9.830
   28        0.414   0.205   9.174   9.793
   29        0.438   0.207   9.166   9.812
   30        0.438   0.207   9.166   9.812
   31        0.438   0.207   9.166   9.812
   32        0.438   0.207   9.166   9.812
   33        0.438   0.207   9.166   9.812
   34        0.438   0.207   9.166   9.812
   35        0.414   0.204   9.174   9.792
   36        2.207   5.976   2.015  10.198
   37        1.338   2.235   0.000   3.573
tot         18.047  16.594 322.884 357.525

 BZINTS: Fermi energy:    0.742539;  402.000000 electrons
         Band energy:-0.159083E+04;  BLOECHL correction:   -0.084991