 vasp.6.2.0 18Jan21 (build Jun 12 2021 23:27:24) complex

 executed on             LinuxIFC date 2022.05.30  16:32:02

 INCAR:
   ISMEAR = -5
   SIGMA = 0.1
   ISPIN = 1
   EDIFF = 1.d-5
   EDIFFG = -0.01
   NSW = 0
   NELM = 150
   ENCUT = 500
   ISIF = 2
   IBRION = 2
   LREAL = Auto
   ALGO = Fast
   ICHARG = 11
   LORBIT = 10
   LCHARG = .F.
   LWAVE = .F.

 POTCAR:    PAW_PBE Au 04Oct2007
 POTCAR:    PAW_PBE W 08Apr2002
 POTCAR:    PAW_PBE C 08Apr2002
|           W    W    AA    RRRRR   N    N  II  N    N   GGGG   !!!           |
|           W    W   A  A   R    R  NN   N  II  NN   N  G    G  !!!           |
|           W    W  A    A  R    R  N N  N  II  N N  N  G       !!!           |
|           W WW W  AAAAAA  RRRRR   N  N N  II  N  N N  G  GGG   !            |
|           WW  WW  A    A  R   R   N   NN  II  N   NN  G    G                |
|           W    W  A    A  R    R  N    N  II  N    N   GGGG   !!!           |
|     For optimal performance we recommend to set                             |
|       NCORE = 2 up to number-of-cores-per-socket                            |
|     This setting can greatly improve the performance of VASP for DFT.       |
|     The default, NCORE=1 might be grossly inefficient on modern             |
|     multi-core architectures or massively parallel machines. Do your        |
|     Unfortunately you need to use the default for GW and RPA                |
|     calculations (for HF NCORE is supported but not extensively tested      |
|     yet).                                                                   |

 POTCAR:    PAW_PBE Au 04Oct2007
   VRHFIN =Au: s1d10

   TITEL  = PAW_PBE Au 04Oct2007
   POMASS =  196.966; ZVAL   =   11.000    mass and valenz
   ENMAX  =  229.943; ENMIN  =  172.457 eV

 POTCAR:    PAW_PBE W 08Apr2002
   VRHFIN =W : 6s5d

   TITEL  = PAW_PBE W 08Apr2002
   POMASS =  183.850; ZVAL   =    6.000    mass and valenz
   ENMAX  =  223.057; ENMIN  =  167.293 eV

 POTCAR:    PAW_PBE C 08Apr2002
   VRHFIN =C: s2p2

   TITEL  = PAW_PBE C 08Apr2002
   POMASS =   12.011; ZVAL   =    4.000    mass and valenz
   ENMAX  =  400.000; ENMIN  =  300.000 eV

 Optimization of the real space projectors (new method)

 maximal supplied QI-value         = 15.12
 optimisation between [QCUT,QGAM] = [ 11.34, 22.83] = [ 36.00,145.93] Ry
 Optimized for a Real-space Cutoff    1.39 Angstroem

   l    n(q)    QCUT    max X(q) W(low)/X(q) W(high)/X(q)  e(spline)
   2      9    11.338    60.898    0.39E-03    0.42E-03    0.21E-06
   2      9    11.338    58.894    0.40E-03    0.42E-03    0.22E-06
   0      9    11.338   109.617    0.13E-03    0.20E-04    0.13E-06
   0      9    11.338    75.026    0.13E-03    0.20E-04    0.13E-06
   1      9    11.338    16.344    0.33E-04    0.24E-03    0.18E-06
   1      9    11.338    10.160    0.26E-04    0.19E-03    0.15E-06
 Optimization of the real space projectors (new method)

[...]

   l    n(q)    QCUT    max X(q) W(low)/X(q) W(high)/X(q)  e(spline)
   2     10    11.429   130.855    0.22E-03    0.64E-03    0.11E-05
   2     10    11.429   114.007    0.22E-03    0.64E-03    0.11E-05
   0     11    11.429    84.709    0.39E-04    0.67E-04    0.23E-06
   0     11    11.429    49.163    0.35E-04    0.62E-04    0.21E-06
   1     10    11.429    15.765    0.84E-04    0.15E-03    0.24E-06
   1     10    11.429    10.638    0.58E-04    0.12E-03    0.19E-06
 Optimization of the real space projectors (new method)

 maximal supplied QI-value         = 25.13
 optimisation between [QCUT,QGAM] = [ 11.31, 22.87] = [ 35.82,146.48] Ry
 Optimized for a Real-space Cutoff    1.00 Angstroem

   l    n(q)    QCUT    max X(q) W(low)/X(q) W(high)/X(q)  e(spline)
   0      7    11.310   115.676    0.43E-03    0.13E-02    0.19E-06
   0      7    11.310    87.132    0.43E-03    0.13E-02    0.18E-06
   1      6    11.310     4.429    0.42E-03    0.74E-03    0.11E-06
   1      6    11.310     2.733    0.34E-03    0.55E-03    0.92E-07
  PAW_PBE Au 04Oct2007                  :
  PAW_PBE W 08Apr2002                   :
  PAW_PBE C 08Apr2002                   :

 POSCAR: Au-W-C
  positions in direct lattice
  velocities in cartesian coordinates
 exchange correlation table for  LEXCH =        8
   RHO(1)=    0.500       N(1)  =     2000
   RHO(2)=  100.500       N(2)  =     4000

 VTST: version 3.2, (02/03/18)

 CHAIN: initializing optimizer

 OPT: Using VASP Conjugate-Gradient optimizer
 CHAIN: Read ICHAIN            0

 POSCAR: Au-W-C
  positions in direct lattice
  velocities in cartesian coordinates

 ion  position               nearest neighbor table
   1  0.000  0.000  0.217-  16 2.94  12 2.94   6 2.94   8 2.94   7 2.94   3 2.94  10 2.94   4 2.94
                             2 2.94
   2  0.333  0.000  0.217-   9 2.94  11 2.94  17 2.94  10 2.94   8 2.94   4 2.94   5 2.94   1 2.94
                             3 2.94
   3  0.667  0.000  0.217-   7 2.94  18 2.94  12 2.94   1 2.94  11 2.94   5 2.94   6 2.94   9 2.94
                             2 2.94
   4  0.000  0.333  0.217-  10 2.94   6 2.94   5 2.94  13 2.94   2 2.94  15 2.94   9 2.94   1 2.94
                             7 2.94
   5  0.333  0.333  0.217-  13 2.94   7 2.94  11 2.94   4 2.94   2 2.94  14 2.94   3 2.94   8 2.94
                             6 2.94
   6  0.667  0.333  0.217-  15 2.94  14 2.94   1 2.94  12 2.94   4 2.94   9 2.94   8 2.94   3 2.94
                             5 2.94
   7  0.000  0.667  0.217-  18 2.94   3 2.94  16 2.94   5 2.94   1 2.94  13 2.94   8 2.94   4 2.94
                             9 2.94
   8  0.333  0.667  0.217-   9 2.94  17 2.94   1 2.94   2 2.94  14 2.94  16 2.94   6 2.94   7 2.94
                             5 2.94
   9  0.667  0.667  0.217-   2 2.94   8 2.94  17 2.94   6 2.94  15 2.94   4 2.94   3 2.94  18 2.94
                             7 2.94
  10  0.111  0.111  0.316-  20 2.90  11 2.94  17 2.94   2 2.94   4 2.94   1 2.94  12 2.94  16 2.94
                            13 2.94  15 2.94  26 2.96  19 2.96
  11  0.444  0.111  0.316-  20 2.91  21 2.91  13 2.94   2 2.94  10 2.94  17 2.94   5 2.94   3 2.94
                            18 2.94  14 2.94  12 2.94  27 2.94
  12  0.778  0.111  0.316-  21 2.90  16 2.94  18 2.94   1 2.94  14 2.94  15 2.94   3 2.94   6 2.94
                            10 2.94  11 2.94  25 2.96  19 2.96
  13  0.111  0.444  0.316-  23 2.91  20 2.91   5 2.94  18 2.94  11 2.94   7 2.94   4 2.94  16 2.94
                            10 2.94  14 2.94  15 2.94  22 2.94
  14  0.444  0.444  0.316-  21 2.91  23 2.91  15 2.94   6 2.94  12 2.94   8 2.94  17 2.94   5 2.94
                            16 2.94  13 2.94  11 2.94  24 2.94
  15  0.778  0.444  0.316-  24 2.92  22 2.92  14 2.94   6 2.94  17 2.94  12 2.94   9 2.94   4 2.94
                            10 2.94  13 2.94  18 2.94  19 2.95
  16  0.111  0.778  0.316-  23 2.90  18 2.94  12 2.94   7 2.94   1 2.94   8 2.94  13 2.94  10 2.94
                            14 2.94  17 2.94  25 2.96  26 2.96
  17  0.444  0.778  0.316-  27 2.92  24 2.92   9 2.94  15 2.94   2 2.94  10 2.94  11 2.94   8 2.94
                            14 2.94  16 2.94  18 2.94  26 2.95
  18  0.778  0.778  0.316-  22 2.92  27 2.92  16 2.94   7 2.94  13 2.94  12 2.94   3 2.94  11 2.94
                             9 2.94  15 2.94  17 2.94  25 2.95
  19  0.888  0.224  0.415-  24 2.93  22 2.93  21 2.93  20 2.93  28 2.94  15 2.95  26 2.96  25 2.96
                            10 2.96  12 2.96  32 3.04  31 3.04
  20  0.222  0.222  0.413-  36 2.74  10 2.90  11 2.91  13 2.91  26 2.93  19 2.93  23 2.95  21 2.95
                            27 2.96  22 2.96  29 2.98  31 2.98
  21  0.557  0.222  0.413-  36 2.74  12 2.90  14 2.91  11 2.91  25 2.93  19 2.93  20 2.95  23 2.95
                            27 2.96  24 2.96  30 2.98  32 2.98
  22  0.886  0.557  0.414-  24 2.90  27 2.90  18 2.92  15 2.92  25 2.93  19 2.93  13 2.94  35 2.95
                            23 2.96  20 2.96  33 3.02  31 3.02
  23  0.222  0.557  0.413-  36 2.74  16 2.90  13 2.91  14 2.91  25 2.93  26 2.93  20 2.95  21 2.95
                            22 2.96  24 2.96  33 2.98  34 2.98
  24  0.557  0.557  0.414-  27 2.90  22 2.90  15 2.92  17 2.92  26 2.93  19 2.93  14 2.94  35 2.95
                            21 2.96  23 2.96  32 3.02  34 3.02
  25  0.888  0.888  0.415-  22 2.93  27 2.93  23 2.93  21 2.93  28 2.94  18 2.95  19 2.96  26 2.96
                            16 2.96  12 2.96  33 3.04  30 3.04
  26  0.224  0.888  0.415-  27 2.93  24 2.93  20 2.93  23 2.93  28 2.94  17 2.95  19 2.96  25 2.96
                            10 2.96  16 2.96  29 3.04  34 3.04
  27  0.557  0.886  0.414-  24 2.90  22 2.90  17 2.92  18 2.92  26 2.93  25 2.93  11 2.94  35 2.95
                            20 2.96  21 2.96  29 3.02  30 3.02
  28  0.000  0.000  0.514-  25 2.94  19 2.94  26 2.94  34 3.00  32 3.00  33 3.00  30 3.00  31 3.00
                            29 3.00
  29  0.334  0.013  0.516-  30 2.82  31 2.82  36 2.84  20 2.98  35 3.00  28 3.00  27 3.02  26 3.04
                            34 3.17
  30  0.653  0.013  0.516-  29 2.82  32 2.82  36 2.84  21 2.98  35 3.00  28 3.00  27 3.02  25 3.04
                            33 3.17
  31  0.013  0.334  0.516-  33 2.82  29 2.82  36 2.84  20 2.98  35 3.00  28 3.00  22 3.02  19 3.04
                            32 3.17
  32  0.653  0.334  0.516-  34 2.82  30 2.82  36 2.84  21 2.98  35 3.00  28 3.00  24 3.02  19 3.04
                            31 3.17
  33  0.013  0.653  0.516-  31 2.82  34 2.82  36 2.84  23 2.98  35 3.00  28 3.00  22 3.02  25 3.04
                            30 3.17
  34  0.334  0.653  0.516-  32 2.82  33 2.82  36 2.84  23 2.98  35 3.00  28 3.00  24 3.02  26 3.04
                            29 3.17
  35  0.667  0.667  0.514-  24 2.95  27 2.95  22 2.95  29 3.00  34 3.00  32 3.00  31 3.00  30 3.00
                            33 3.00
  36  0.333  0.333  0.501-  37 1.81  20 2.74  23 2.74  21 2.74  33 2.84  31 2.84  29 2.84  30 2.84
                            34 2.84  32 2.84
  37  0.333  0.333  0.576-  36 1.81

  LATTYP: Found a hexagonal cell.
 ALAT       =     8.8135128021
 C/A-ratio  =     2.7586513333

  Lattice vectors:

 A1 = (  -4.4067569092,  -7.6327256898,   0.0000000000)
 A2 = (   8.8135128021,   0.0000000000,   0.0000000000)
 A3 = (   0.0000000000,   0.0000000000,  24.3134088421)

Analysis of symmetry for initial positions (statically):
 Subroutine PRICEL returns:
 Original cell was already a primitive cell.

 Routine SETGRP: Setting up the symmetry group for a
 hexagonal supercell.

 Subroutine GETGRP returns: Found  6 space group operations
 (whereof  6 operations were pure point group operations)
 out of a pool of 24 trial point group operations.

The static configuration has the point symmetry C_3v.

Analysis of symmetry for dynamics (positions and initial velocities):
 Subroutine PRICEL returns:
 Original cell was already a primitive cell.

[...]

The dynamic configuration has the point symmetry C_3v.

Analysis of constrained symmetry for selective dynamics:
 Subroutine PRICEL returns:
 Original cell was already a primitive cell.

 Routine SETGRP: Setting up the symmetry group for a
 hexagonal supercell.

 Subroutine GETGRP returns: Found  6 space group operations
[...]
     24      -5.6509      2.00000
     25      -5.6151      2.00000
     26      -5.6041      2.00000
     27      -5.5676      2.00000
     28      -5.5191      2.00000
     29      -5.4978      2.00000
     30      -5.4394      2.00000
     31      -5.4188      2.00000
     32      -5.3953      2.00000
     33      -5.3155      2.00000
     34      -5.3078      2.00000
     35      -5.2902      2.00000
     36      -5.2572      2.00000
     37      -5.2485      2.00000
     38      -5.1257      2.00000
     39      -5.0866      2.00000
     40      -5.0329      2.00000
     41      -4.9986      2.00000
     42      -4.9696      2.00000
     43      -4.9381      2.00000
     44      -4.9245      2.00000
     45      -4.8821      2.00000
     46      -4.8570      2.00000
     47      -4.7686      2.00000
     48      -4.7519      2.00000
     49      -4.7300      2.00000
     50      -4.7078      2.00000
     51      -4.6923      2.00000
     52      -4.6791      2.00000
     53      -4.6606      2.00000
     54      -4.6473      2.00000
     55      -4.6156      2.00000
     56      -4.5836      2.00000
     57      -4.5678      2.00000
     58      -4.5448      2.00000
     59      -4.5354      2.00000
     60      -4.5139      2.00000
[...]
    238       5.9850      0.00000
    239       6.0514      0.00000
    240       6.0919      0.00000
    241       6.1928      0.00000
    242       6.2493      0.00000
    243       6.3250      0.00000
    244       6.3892      0.00000
    245       6.5066      0.00000
    246       6.6795      0.00000
    247       6.7310      0.00000
    248       6.8179      0.00000
    249       6.8879      0.00000
    250       6.9210      0.00000
    251       7.0339      0.00000
    252       7.1056      0.00000

 soft charge-density along one line, spin component           1
         0         1         2         3         4         5         6         7         8         9
 total charge-density along one line

------------------------ aborting loop because EDIFF is reached ----------------------------------------

 total charge

# of ion       s       p       d       tot
    1        0.543   0.240   8.763   9.547
    2        0.545   0.241   8.763   9.549
    3        0.545   0.241   8.763   9.549
    4        0.545   0.241   8.763   9.549
    5        0.542   0.241   8.764   9.546
    6        0.545   0.241   8.763   9.549
    7        0.545   0.241   8.763   9.549
    8        0.545   0.241   8.763   9.549
    9        0.541   0.241   8.767   9.549
   10        0.520   0.308   8.769   9.597
   11        0.523   0.308   8.776   9.606
   12        0.520   0.308   8.769   9.597
   13        0.523   0.308   8.776   9.606
   14        0.523   0.308   8.776   9.606
   15        0.514   0.309   8.773   9.597
   16        0.520   0.308   8.769   9.597
   17        0.514   0.309   8.773   9.597
   18        0.514   0.309   8.773   9.597
   19        0.515   0.293   8.774   9.582
   20        0.554   0.341   8.748   9.643
   21        0.554   0.341   8.748   9.643
   22        0.507   0.307   8.776   9.590
   23        0.554   0.341   8.748   9.643
   24        0.507   0.307   8.776   9.590
   25        0.515   0.293   8.774   9.582
   26        0.515   0.293   8.774   9.582
   27        0.507   0.307   8.776   9.590
   28        0.540   0.224   8.760   9.524
   29        0.565   0.250   8.745   9.560
   30        0.565   0.250   8.745   9.560
   31        0.565   0.250   8.745   9.560
   32        0.565   0.250   8.745   9.560
   33        0.565   0.250   8.745   9.560
   34        0.565   0.250   8.745   9.560
   35        0.540   0.225   8.755   9.521
   36        0.638   0.582   4.297   5.518
   37        1.001   1.222   0.000   2.223
tot         20.400  11.515 311.004 342.919

  FORCE on cell =-STRESS in cart. coord.  units (eV):
  Direction    XX          YY          ZZ          XY          YZ          ZX
  Alpha Z   929.34658   929.34658   929.34658
  Ewald  148213.36872148213.36913************    -0.00032    -0.00009    -0.00015
  Hartree156441.73228156441.73228************     0.00000    -0.00002    -0.00004
  E(xc)   -1766.94441 -1766.94440 -1777.14553    -0.00001    -0.00000    -0.00000
  Local  ************************317146.66804     0.00173     0.00004     0.00007
  n-local   -82.52475   -37.36473   -40.23675    22.45876    -1.66248     1.61581
  augment  2368.74183  2368.74326  2389.25518    -0.00125     0.00002     0.00008
  Kinetic  5466.12035  5477.32177  5537.78676     6.63004     0.14391     0.42739
  Fock        0.00000     0.00000     0.00000     0.00000     0.00000     0.00000
  Total     -20.75645   -20.75645     1.91963    -0.00000     0.00000     0.00000
  in kB     -20.33242   -20.33242     1.88042    -0.00000     0.00000     0.00000

 VOLUME and BASIS-vectors are now :
  energy-cutoff  :      500.00
  volume of cell :     1635.59
      direct lattice vectors                 reciprocal lattice vectors
     8.813512802  0.000000000  0.000000000     0.113462137 -0.065507406  0.000000000
     4.406756909  7.632725690  0.000000000     0.000000000  0.131014796  0.000000000
     0.000000000  0.000000000 24.313408842     0.000000000  0.000000000  0.041129568

  length of vectors
     8.813512802  8.813512802 24.313408842     0.131014796  0.131014796  0.041129568

 FORCES acting on ions
    electron-ion (+dipol)            ewald-force                    non-local-force                 convergence-correction
   -.197E-04 -.163E-04 0.263E+04   0.520E-04 0.433E-04 -.263E+04   0.186E-16 -.156E-18 -.715E+00   -.201E-03 -.130E-03 -.230E-01
   0.763E+00 0.105E+00 0.263E+04   -.747E+00 -.155E+00 -.263E+04   -.112E-01 0.108E-01 -.264E+00   -.111E-02 0.370E-01 0.106E-01
   -.763E+00 0.105E+00 0.263E+04   0.746E+00 -.155E+00 -.263E+04   0.112E-01 0.108E-01 -.264E+00   0.139E-02 0.390E-01 0.112E-01
   0.472E+00 0.608E+00 0.263E+04   -.508E+00 -.569E+00 -.263E+04   0.377E-02 -.152E-01 -.264E+00   0.315E-01 -.195E-01 0.106E-01
   0.784E-05 -.237E-04 0.263E+04   0.951E-04 0.175E-05 -.263E+04   0.147E-17 0.352E-18 -.318E+00   0.430E-02 0.262E-02 0.411E-01
   -.472E+00 0.608E+00 0.263E+04   0.508E+00 -.569E+00 -.263E+04   -.377E-02 -.152E-01 -.264E+00   -.331E-01 -.185E-01 0.116E-01
   -.290E+00 -.713E+00 0.263E+04   0.239E+00 0.724E+00 -.263E+04   0.150E-01 0.432E-02 -.264E+00   0.345E-01 -.183E-01 0.113E-01
   0.290E+00 -.713E+00 0.263E+04   -.239E+00 0.724E+00 -.263E+04   -.150E-01 0.432E-02 -.264E+00   -.326E-01 -.194E-01 0.115E-01
   0.197E-04 -.416E-04 0.263E+04   0.166E-03 -.200E-04 -.263E+04   0.227E-17 0.443E-19 -.516E+00   -.464E-02 -.240E-02 -.560E-01
   0.720E+01 0.416E+01 0.863E+03   -.703E+01 -.406E+01 -.862E+03   -.262E+00 -.151E+00 -.533E+00   0.604E-01 0.347E-01 0.812E-02
   0.145E-04 0.267E+01 0.870E+03   0.148E-03 -.279E+01 -.869E+03   0.265E-09 0.398E-02 -.536E+00   0.379E-02 0.645E-01 0.628E-01
   -.720E+01 0.416E+01 0.863E+03   0.703E+01 -.406E+01 -.862E+03   0.262E+00 -.151E+00 -.533E+00   -.617E-01 0.362E-01 0.776E-02
   0.231E+01 -.133E+01 0.870E+03   -.242E+01 0.140E+01 -.869E+03   0.344E-02 -.199E-02 -.536E+00   0.580E-01 -.287E-01 0.628E-01
   -.231E+01 -.133E+01 0.870E+03   0.242E+01 0.140E+01 -.869E+03   -.344E-02 -.199E-02 -.536E+00   -.502E-01 -.291E-01 0.627E-01
   0.316E-04 0.580E+01 0.868E+03   0.236E-03 -.579E+01 -.868E+03   0.536E-09 0.805E-02 -.422E+00   -.239E-02 -.693E-01 0.322E-01
   -.213E-04 -.831E+01 0.863E+03   0.163E-03 0.812E+01 -.862E+03   0.202E-07 0.303E+00 -.533E+00   0.297E-03 -.715E-01 0.775E-02
   0.502E+01 -.290E+01 0.868E+03   -.501E+01 0.289E+01 -.868E+03   0.697E-02 -.403E-02 -.422E+00   -.610E-01 0.330E-01 0.323E-01
   -.502E+01 -.290E+01 0.868E+03   0.501E+01 0.289E+01 -.868E+03   -.697E-02 -.403E-02 -.422E+00   0.609E-01 0.349E-01 0.320E-01
   -.433E-04 0.272E+01 -.934E+03   0.554E-04 -.288E+01 0.934E+03   0.650E-09 0.977E-02 0.707E+00   -.247E-03 0.916E-01 -.584E-02
   -.831E+00 -.480E+00 -.892E+03   0.109E+01 0.630E+00 0.893E+03   -.733E+00 -.423E+00 -.889E+00   0.122E+00 0.706E-01 0.573E-01
   0.831E+00 -.480E+00 -.892E+03   -.109E+01 0.630E+00 0.893E+03   0.733E+00 -.423E+00 -.889E+00   -.122E+00 0.726E-01 0.571E-01
   -.104E+02 0.603E+01 -.911E+03   0.983E+01 -.568E+01 0.910E+03   0.564E+00 -.326E+00 0.836E+00   0.903E-01 -.565E-01 0.416E-01
   -.106E-04 0.960E+00 -.892E+03   0.139E-03 -.126E+01 0.893E+03   0.564E-07 0.847E+00 -.889E+00   0.180E-02 -.142E+00 0.571E-01
   0.104E+02 0.603E+01 -.911E+03   -.983E+01 -.568E+01 0.910E+03   -.564E+00 -.326E+00 0.836E+00   -.972E-01 -.561E-01 0.411E-01
   -.235E+01 -.136E+01 -.934E+03   0.249E+01 0.144E+01 0.934E+03   -.846E-02 -.489E-02 0.707E+00   -.777E-01 -.449E-01 -.654E-02
   0.235E+01 -.136E+01 -.934E+03   -.249E+01 0.144E+01 0.934E+03   0.846E-02 -.489E-02 0.707E+00   0.796E-01 -.460E-01 -.582E-02
   0.106E-04 -.121E+02 -.911E+03   0.198E-03 0.114E+02 0.910E+03   0.434E-07 0.651E+00 0.836E+00   -.429E-02 0.106E+00 0.416E-01
   -.131E-04 -.122E-04 -.260E+04   0.296E-04 0.326E-04 0.260E+04   -.702E-18 0.104E-18 0.447E+00   0.132E-02 0.746E-03 0.116E-01
   0.213E+02 0.329E+02 -.261E+04   -.205E+02 -.318E+02 0.261E+04   -.100E+01 -.145E+01 0.669E+00   0.700E-01 0.111E+00 -.129E+00
   -.213E+02 0.329E+02 -.261E+04   0.205E+02 -.318E+02 0.261E+04   0.100E+01 -.145E+01 0.669E+00   -.761E-01 0.113E+00 -.128E+00
   0.392E+02 0.197E+01 -.261E+04   -.378E+02 -.182E+01 0.261E+04   -.176E+01 -.141E+00 0.669E+00   0.131E+00 0.523E-02 -.129E+00
   -.392E+02 0.197E+01 -.261E+04   0.378E+02 -.182E+01 0.261E+04   0.176E+01 -.141E+00 0.669E+00   -.138E+00 0.635E-02 -.129E+00
   0.179E+02 -.349E+02 -.261E+04   -.173E+02 0.337E+02 0.261E+04   -.757E+00 0.159E+01 0.669E+00   0.595E-01 -.122E+00 -.128E+00
   -.179E+02 -.349E+02 -.261E+04   0.173E+02 0.337E+02 0.261E+04   0.757E+00 0.159E+01 0.669E+00   -.636E-01 -.123E+00 -.129E+00
   0.350E-04 -.305E-04 -.260E+04   0.140E-03 -.484E-04 0.260E+04   0.524E-17 0.687E-17 0.441E+00   -.356E-02 -.176E-02 -.916E-01
   -.133E-04 -.280E-05 -.125E+04   0.638E-04 0.589E-05 0.125E+04   0.131E-17 0.293E-17 -.243E+00   0.130E-02 0.766E-03 -.111E+00
   0.460E-04 -.276E-04 -.114E+04   0.166E-04 0.105E-05 0.115E+04   0.150E-19 0.443E-18 -.746E+01   0.872E-03 0.523E-03 -.125E+00
   -.757E-03 -.801E-03 0.901E+01   -.215E-13 0.334E-12 0.455E-11   0.562E-15 0.232E-15 -.845E+01   -.164E-01 -.888E-02 -.474E+00

 POSITION                                       TOTAL-FORCE (eV/Angst)
      0.00000      0.00000      5.28038        -0.000000     -0.000000     -0.038990
      2.93784      0.00000      5.28038         0.004206     -0.001408     -0.053350
      5.87568      0.00000      5.28038        -0.004206     -0.001408     -0.053350
      1.46892      2.54424      5.28038         0.000884      0.004346     -0.053350
      4.40676      2.54424      5.28038        -0.000000      0.000000     -0.103572
      7.34459      2.54424      5.28038        -0.000884      0.004346     -0.053350
      2.93784      5.08848      5.28038        -0.003322     -0.002938     -0.053350
      5.87568      5.08848      5.28038         0.003322     -0.002938     -0.053350
      8.81351      5.08848      5.28038        -0.000000      0.000000     -0.031720
      1.46892      0.84808      7.67911        -0.030624     -0.017681      0.115065
      4.40676      0.84808      7.67911        -0.000000     -0.058097     -0.013275
      7.34459      0.84808      7.67911         0.030624     -0.017681      0.115065
      2.93784      3.39232      7.67911        -0.050314      0.029049     -0.013275
      5.87568      3.39232      7.67911         0.050314      0.029049     -0.013275
      8.81351      3.39232      7.67911        -0.000000     -0.048431      0.103926
      4.40676      5.93656      7.67911         0.000000      0.035362      0.115065
      7.34459      5.93656      7.67911        -0.041942      0.024215      0.103926
     10.28243      5.93656      7.67911         0.041942      0.024215      0.103926
      8.81351      1.70807     10.10081        -0.000000     -0.057481      0.040555
      2.93151      1.69251     10.04012        -0.351017     -0.202660     -0.340755
      5.88200      1.69251     10.04012         0.351017     -0.202660     -0.340755
     10.26425      4.25090     10.06644         0.049015     -0.028299      0.068634
      4.40676      4.24770     10.04012         0.000000      0.405319     -0.340755
      7.36277      4.25090     10.06644        -0.049015     -0.028299      0.068634
     11.74104      6.77869     10.10081         0.049780      0.028740      0.040555
      5.88599      6.77869     10.10081        -0.049780      0.028740      0.040555
      8.81351      6.76365     10.06644         0.000000      0.056597      0.068634
      0.00000      0.00000     12.49922        -0.000000     -0.000000     -0.096221
      2.99894      0.10048     12.55446        -0.120044     -0.239243     -0.155379
      5.81457      0.10048     12.55446         0.120044     -0.239243     -0.155379
      1.58649      2.54692     12.55446        -0.267213      0.015661     -0.155379
      7.22703      2.54692     12.55446         0.267213      0.015661     -0.155379
      2.99430      4.98533     12.55446        -0.147169      0.223583     -0.155379
      5.81921      4.98533     12.55446         0.147169      0.223583     -0.155379
      8.81351      5.08848     12.49869        -0.000000     -0.000000     -0.006296
      4.40676      2.54424     12.18560        -0.000000     -0.000000      1.624990
      4.40676      2.54424     14.00019        -0.000000      0.000000     -0.018270
    total drift:                               -0.017142     -0.009686      0.087170

  FREE ENERGIE OF THE ION-ELECTRON SYSTEM (eV)
  free  energy   TOTEN  =      -123.97169343 eV

  energy  without entropy=     -123.97169343  energy(sigma->0) =     -123.97169343

 stress matrix after NEB project (eV)
    -20.75645     -0.00000      0.00000
     -0.00000    -20.75645      0.00000
      0.00000      0.00000      1.91963
  FORCES: max atom, RMS     0.018270    0.003004
  FORCE total and by dimension    0.018270    0.018270
  Stress total and by dimension   29.416755   20.756451
|           W    W    AA    RRRRR   N    N  II  N    N   GGGG   !!!           |
|           W    W   A  A   R    R  NN   N  II  NN   N  G    G  !!!           |
|           W    W  A    A  R    R  N N  N  II  N N  N  G       !!!           |
|           W WW W  AAAAAA  RRRRR   N  N N  II  N  N N  G  GGG   !            |
|           WW  WW  A    A  R   R   N   NN  II  N   NN  G    G                |
|           W    W  A    A  R    R  N    N  II  N    N   GGGG   !!!           |
|     Tetrahedron method does not include variations of the Fermi             |
|     occupations, so forces and stress will be inaccurate. We suggest        |
|     using a different smearing scheme ISMEAR = 1 or 2 for metals in         |
|     relaxations.                                                            |

 total charge

# of ion       s       p       d       tot
    1        0.543   0.240   8.763   9.547
    2        0.545   0.241   8.763   9.549
    3        0.545   0.241   8.763   9.549
    4        0.545   0.241   8.763   9.549
    5        0.542   0.241   8.764   9.546
    6        0.545   0.241   8.763   9.549
    7        0.545   0.241   8.763   9.549
    8        0.545   0.241   8.763   9.549
    9        0.541   0.241   8.767   9.549
   10        0.520   0.308   8.769   9.597
   11        0.523   0.308   8.776   9.606
   12        0.520   0.308   8.769   9.597
   13        0.523   0.308   8.776   9.606
   14        0.523   0.308   8.776   9.606
   15        0.514   0.309   8.773   9.597
   16        0.520   0.308   8.769   9.597
   17        0.514   0.309   8.773   9.597
   18        0.514   0.309   8.773   9.597
   19        0.515   0.293   8.774   9.582
   20        0.554   0.341   8.748   9.643
   21        0.554   0.341   8.748   9.643
   22        0.507   0.307   8.776   9.590
   23        0.554   0.341   8.748   9.643
   24        0.507   0.307   8.776   9.590
   25        0.515   0.293   8.774   9.582
   26        0.515   0.293   8.774   9.582
   27        0.507   0.307   8.776   9.590
   28        0.540   0.224   8.760   9.524
   29        0.565   0.250   8.745   9.560
   30        0.565   0.250   8.745   9.560
   31        0.565   0.250   8.745   9.560
   32        0.565   0.250   8.745   9.560
   33        0.565   0.250   8.745   9.560
   34        0.565   0.250   8.745   9.560
   35        0.540   0.225   8.755   9.521
   36        0.638   0.582   4.297   5.518
   37        1.001   1.222   0.000   2.223
tot         20.400  11.515 311.004 342.919

 BZINTS: Fermi energy:    0.133529;  395.000000 electrons
         Band energy:-0.143494E+04;  BLOECHL correction:   -0.069475