 vasp.6.2.0 18Jan21 (build Jun 12 2021 23:27:24) complex

 executed on             LinuxIFC date 2022.05.30  16:39:56

 INCAR:
   ISMEAR = -5
   SIGMA = 0.1
   ISPIN = 1
   EDIFF = 1.d-5
   EDIFFG = -0.01
   NSW = 0
   NELM = 150
   ENCUT = 500
   ISIF = 2
   IBRION = 2
   LREAL = Auto
   ALGO = Fast
   ICHARG = 11
   LORBIT = 10
   LCHARG = .F.
   LWAVE = .F.

 POTCAR:    PAW_PBE Au 04Oct2007
 POTCAR:    PAW_PBE Os 17Jan2003
 POTCAR:    PAW_PBE O 08Apr2002
|           W    W    AA    RRRRR   N    N  II  N    N   GGGG   !!!           |
|           W    W   A  A   R    R  NN   N  II  NN   N  G    G  !!!           |
|           W    W  A    A  R    R  N N  N  II  N N  N  G       !!!           |
|           W WW W  AAAAAA  RRRRR   N  N N  II  N  N N  G  GGG   !            |
|           WW  WW  A    A  R   R   N   NN  II  N   NN  G    G                |
|           W    W  A    A  R    R  N    N  II  N    N   GGGG   !!!           |
|     For optimal performance we recommend to set                             |
|       NCORE = 2 up to number-of-cores-per-socket                            |
|     This setting can greatly improve the performance of VASP for DFT.       |
|     The default, NCORE=1 might be grossly inefficient on modern             |
|     multi-core architectures or massively parallel machines. Do your        |
|     Unfortunately you need to use the default for GW and RPA                |
|     calculations (for HF NCORE is supported but not extensively tested      |
|     yet).                                                                   |

 POTCAR:    PAW_PBE Au 04Oct2007
   VRHFIN =Au: s1d10

   TITEL  = PAW_PBE Au 04Oct2007
   POMASS =  196.966; ZVAL   =   11.000    mass and valenz
   ENMAX  =  229.943; ENMIN  =  172.457 eV

 POTCAR:    PAW_PBE Os 17Jan2003
   VRHFIN =Os: 6s5d

   TITEL  = PAW_PBE Os 17Jan2003
   POMASS =  190.200; ZVAL   =    8.000    mass and valenz
   ENMAX  =  228.022; ENMIN  =  171.017 eV

 POTCAR:    PAW_PBE O 08Apr2002
   VRHFIN =O: s2p4

   TITEL  = PAW_PBE O 08Apr2002
   POMASS =   16.000; ZVAL   =    6.000    mass and valenz
   ENMAX  =  400.000; ENMIN  =  300.000 eV

 Optimization of the real space projectors (new method)

 maximal supplied QI-value         = 15.12
 optimisation between [QCUT,QGAM] = [ 11.34, 22.83] = [ 36.00,145.93] Ry
 Optimized for a Real-space Cutoff    1.39 Angstroem

   l    n(q)    QCUT    max X(q) W(low)/X(q) W(high)/X(q)  e(spline)
   2      9    11.338    60.898    0.39E-03    0.42E-03    0.21E-06
   2      9    11.338    58.894    0.40E-03    0.42E-03    0.22E-06
   0      9    11.338   109.617    0.13E-03    0.20E-04    0.13E-06
   0      9    11.338    75.026    0.13E-03    0.20E-04    0.13E-06
   1      9    11.338    16.344    0.33E-04    0.24E-03    0.18E-06
   1      9    11.338    10.160    0.26E-04    0.19E-03    0.15E-06
 Optimization of the real space projectors (new method)

[...]

   l    n(q)    QCUT    max X(q) W(low)/X(q) W(high)/X(q)  e(spline)
   2     10    11.327   152.873    0.32E-03    0.72E-03    0.11E-05
   2     10    11.327   151.010    0.32E-03    0.72E-03    0.11E-05
   0     11    11.327    72.114    0.43E-04    0.61E-04    0.13E-06
   0     11    11.327    44.596    0.40E-04    0.57E-04    0.12E-06
   1     10    11.327    13.742    0.16E-03    0.10E-03    0.19E-06
   1     10    11.327     8.461    0.12E-03    0.78E-04    0.15E-06
 Optimization of the real space projectors (new method)

 maximal supplied QI-value         = 24.76
 optimisation between [QCUT,QGAM] = [ 11.39, 22.77] = [ 36.31,145.25] Ry
 Optimized for a Real-space Cutoff    1.00 Angstroem

   l    n(q)    QCUT    max X(q) W(low)/X(q) W(high)/X(q)  e(spline)
   0      7    11.387    20.381    0.39E-03    0.13E-02    0.15E-06
   0      7    11.387    15.268    0.42E-03    0.14E-02    0.17E-06
   1      6    11.387     5.964    0.41E-03    0.11E-02    0.17E-06
   1      6    11.387     5.382    0.39E-03    0.87E-03    0.15E-06
  PAW_PBE Au 04Oct2007                  :
  PAW_PBE Os 17Jan2003                  :
  PAW_PBE O 08Apr2002                   :

 POSCAR: Au-Os-O2
  positions in direct lattice
  velocities in cartesian coordinates
 exchange correlation table for  LEXCH =        8
   RHO(1)=    0.500       N(1)  =     2000
   RHO(2)=  100.500       N(2)  =     4000

 VTST: version 3.2, (02/03/18)

 CHAIN: initializing optimizer

 OPT: Using VASP Conjugate-Gradient optimizer
 CHAIN: Read ICHAIN            0

 POSCAR: Au-Os-O2
  positions in direct lattice
  velocities in cartesian coordinates

 ion  position               nearest neighbor table
   1  0.000  0.000  0.217-  16 2.94  12 2.94   6 2.94   8 2.94   7 2.94   3 2.94  10 2.94   4 2.94
                             2 2.94
   2  0.333  0.000  0.217-   9 2.94  11 2.94  17 2.94  10 2.94   8 2.94   4 2.94   5 2.94   1 2.94
                             3 2.94
   3  0.667  0.000  0.217-   7 2.94  18 2.94  12 2.94   1 2.94  11 2.94   5 2.94   6 2.94   9 2.94
                             2 2.94
   4  0.000  0.333  0.217-  10 2.94   6 2.94   5 2.94  13 2.94   2 2.94  15 2.94   9 2.94   1 2.94
                             7 2.94
   5  0.333  0.333  0.217-  13 2.94   7 2.94  11 2.94   4 2.94   2 2.94  14 2.94   3 2.94   8 2.94
                             6 2.94
   6  0.667  0.333  0.217-  15 2.94  14 2.94   1 2.94  12 2.94   4 2.94   9 2.94   8 2.94   3 2.94
                             5 2.94
   7  0.000  0.667  0.217-  18 2.94   3 2.94  16 2.94   5 2.94   1 2.94  13 2.94   8 2.94   4 2.94
                             9 2.94
   8  0.333  0.667  0.217-   9 2.94  17 2.94   1 2.94   2 2.94  14 2.94  16 2.94   6 2.94   7 2.94
                             5 2.94
   9  0.667  0.667  0.217-   2 2.94   8 2.94  17 2.94   6 2.94  15 2.94   4 2.94   3 2.94  18 2.94
                             7 2.94
  10  0.111  0.111  0.316-  20 2.90  11 2.94  17 2.94   2 2.94   4 2.94   1 2.94  12 2.94  16 2.94
                            13 2.94  15 2.94  26 2.95  19 2.95
  11  0.444  0.111  0.316-  20 2.91  21 2.91  27 2.94  13 2.94   2 2.94  10 2.94  17 2.94   5 2.94
                             3 2.94  18 2.94  14 2.94  12 2.94
  12  0.778  0.111  0.316-  21 2.90  16 2.94  18 2.94   1 2.94  14 2.94  15 2.94   3 2.94   6 2.94
                            10 2.94  11 2.94  25 2.95  19 2.95
  13  0.111  0.444  0.316-  23 2.91  20 2.91  22 2.94   5 2.94  18 2.94  11 2.94   7 2.94   4 2.94
                            16 2.94  10 2.94  14 2.94  15 2.94
  14  0.444  0.444  0.316-  21 2.91  23 2.91  24 2.94  15 2.94   6 2.94  12 2.94   8 2.94  17 2.94
                             5 2.94  16 2.94  13 2.94  11 2.94
  15  0.778  0.444  0.316-  24 2.92  22 2.92  14 2.94   6 2.94  17 2.94  12 2.94   9 2.94   4 2.94
                            10 2.94  13 2.94  18 2.94  19 2.95
  16  0.111  0.778  0.316-  23 2.90  18 2.94  12 2.94   7 2.94   1 2.94   8 2.94  13 2.94  10 2.94
                            14 2.94  17 2.94  25 2.95  26 2.95
  17  0.444  0.778  0.316-  27 2.92  24 2.92   9 2.94  15 2.94   2 2.94  10 2.94  11 2.94   8 2.94
                            14 2.94  16 2.94  18 2.94  26 2.95
  18  0.778  0.778  0.316-  22 2.92  27 2.92  16 2.94   7 2.94  13 2.94  12 2.94   3 2.94  11 2.94
                             9 2.94  15 2.94  17 2.94  25 2.95
  19  0.888  0.223  0.415-  24 2.93  22 2.93  21 2.93  20 2.93  28 2.95  15 2.95  26 2.95  25 2.95
                            10 2.95  12 2.95  32 2.98  31 2.98
  20  0.222  0.222  0.413-  36 2.77  10 2.90  11 2.91  13 2.91  26 2.93  19 2.93  23 2.95  21 2.95
                            27 2.96  22 2.96  29 2.96  31 2.96
  21  0.556  0.222  0.413-  36 2.77  12 2.90  14 2.91  11 2.91  25 2.93  19 2.93  20 2.95  23 2.95
                            27 2.96  24 2.96  30 2.96  32 2.96
  22  0.886  0.557  0.414-  24 2.90  27 2.90  18 2.92  15 2.92  25 2.93  19 2.93  13 2.94  35 2.95
                            23 2.96  20 2.96  33 2.98  31 2.98
  23  0.222  0.556  0.413-  36 2.77  16 2.90  13 2.91  14 2.91  25 2.93  26 2.93  20 2.95  21 2.95
                            22 2.96  24 2.96  33 2.96  34 2.96
  24  0.557  0.557  0.414-  27 2.90  22 2.90  15 2.92  17 2.92  26 2.93  19 2.93  14 2.94  35 2.95
                            21 2.96  23 2.96  32 2.98  34 2.98
  25  0.888  0.888  0.415-  22 2.93  27 2.93  23 2.93  21 2.93  28 2.95  18 2.95  19 2.95  26 2.95
                            16 2.95  12 2.95  33 2.98  30 2.98
  26  0.223  0.888  0.415-  27 2.93  24 2.93  20 2.93  23 2.93  28 2.95  17 2.95  19 2.95  25 2.95
                            10 2.95  16 2.95  29 2.98  34 2.98
  27  0.557  0.886  0.414-  24 2.90  22 2.90  17 2.92  18 2.92  26 2.93  25 2.93  11 2.94  35 2.95
                            20 2.96  21 2.96  29 2.98  30 2.98
  28  0.000  0.000  0.514-  25 2.95  19 2.95  26 2.95  34 2.98  32 2.98  33 2.98  30 2.98  31 2.98
                            29 2.98
  29  0.333  0.009  0.514-  31 2.86  30 2.86  36 2.88  20 2.96  28 2.98  35 2.98  27 2.98  26 2.98
                            34 3.09
  30  0.658  0.009  0.514-  32 2.86  29 2.86  36 2.88  21 2.96  28 2.98  35 2.98  27 2.98  25 2.98
                            33 3.09
  31  0.009  0.333  0.514-  37 2.73  29 2.86  33 2.86  36 2.88  20 2.96  28 2.98  35 2.98  22 2.98
                            19 2.98  32 3.09
  32  0.658  0.333  0.514-  38 2.73  30 2.86  34 2.86  36 2.88  21 2.96  28 2.98  35 2.98  24 2.98
                            19 2.98  31 3.09
  33  0.009  0.658  0.514-  34 2.86  31 2.86  36 2.88  23 2.96  28 2.98  35 2.98  22 2.98  25 2.98
                            30 3.09
  34  0.333  0.658  0.514-  33 2.86  32 2.86  36 2.88  23 2.96  28 2.98  35 2.98  24 2.98  26 2.98
                            29 3.09
  35  0.667  0.667  0.514-  24 2.95  27 2.95  22 2.95  29 2.98  34 2.98  32 2.98  31 2.98  30 2.98
                            33 2.98
  36  0.333  0.333  0.502-  38 2.06  37 2.06  20 2.77  23 2.77  21 2.77  33 2.88  31 2.88  29 2.88
                            30 2.88  34 2.88  32 2.88
  37  0.258  0.326  0.582-  38 1.39  36 2.06  31 2.73
  38  0.415  0.326  0.582-  37 1.39  36 2.06  32 2.73

  LATTYP: Found a hexagonal cell.
 ALAT       =     8.8135128021
 C/A-ratio  =     2.7586513333

  Lattice vectors:

 A1 = (  -4.4067569092,  -7.6327256898,   0.0000000000)
 A2 = (   8.8135128021,   0.0000000000,   0.0000000000)
 A3 = (   0.0000000000,   0.0000000000,  24.3134088421)

Analysis of symmetry for initial positions (statically):
 Subroutine PRICEL returns:
 Original cell was already a primitive cell.

 Routine SETGRP: Setting up the symmetry group for a
 hexagonal supercell.

 Subroutine GETGRP returns: Found  2 space group operations
 (whereof  2 operations were pure point group operations)
 out of a pool of 24 trial point group operations.

The static configuration has the point symmetry C_1h.

Analysis of symmetry for dynamics (positions and initial velocities):
 Subroutine PRICEL returns:
 Original cell was already a primitive cell.

[...]

The dynamic configuration has the point symmetry C_1h.

Analysis of constrained symmetry for selective dynamics:
 Subroutine PRICEL returns:
 Original cell was already a primitive cell.

 Routine SETGRP: Setting up the symmetry group for a
[...]
     33      -5.3988      2.00000
     34      -5.3168      2.00000
     35      -5.3022      2.00000
     36      -5.2713      2.00000
     37      -5.2501      2.00000
     38      -5.2389      2.00000
     39      -5.2065      2.00000
     40      -5.1613      2.00000
     41      -5.1542      2.00000
     42      -5.0466      2.00000
     43      -5.0310      2.00000
     44      -4.9756      2.00000
     45      -4.9087      2.00000
     46      -4.8728      2.00000
     47      -4.8540      2.00000
     48      -4.8122      2.00000
     49      -4.8025      2.00000
     50      -4.7827      2.00000
     51      -4.6903      2.00000
     52      -4.6637      2.00000
     53      -4.6396      2.00000
     54      -4.6267      2.00000
     55      -4.6118      2.00000
     56      -4.6045      2.00000
     57      -4.5925      2.00000
     58      -4.5672      2.00000
     59      -4.5154      2.00000
     60      -4.4811      2.00000
[...]
    238       5.5544      0.00000
    239       5.7097      0.00000
    240       5.9286      0.00000
    241       6.0175      0.00000
    242       6.0554      0.00000
    243       6.0653      0.00000
    244       6.1166      0.00000
    245       6.2565      0.00000
    246       6.2922      0.00000
    247       6.3700      0.00000
    248       6.4122      0.00000
    249       6.4718      0.00000
    250       6.7060      0.00000
    251       6.7387      0.00000
    252       6.9035      0.00000

 soft charge-density along one line, spin component           1
         0         1         2         3         4         5         6         7         8         9
 total charge-density along one line

------------------------ aborting loop because EDIFF is reached ----------------------------------------

 total charge

# of ion       s       p       d       tot
    1        0.547   0.238   8.767   9.552
    2        0.543   0.241   8.766   9.550
    3        0.543   0.241   8.766   9.550
    4        0.545   0.241   8.764   9.549
    5        0.542   0.242   8.761   9.545
    6        0.545   0.241   8.764   9.549
    7        0.545   0.241   8.764   9.550
    8        0.545   0.241   8.764   9.550
    9        0.541   0.240   8.768   9.549
   10        0.524   0.307   8.768   9.600
   11        0.521   0.308   8.781   9.610
   12        0.524   0.307   8.768   9.600
   13        0.521   0.309   8.779   9.608
   14        0.521   0.309   8.779   9.608
   15        0.514   0.308   8.776   9.598
   16        0.523   0.310   8.766   9.599
   17        0.514   0.309   8.777   9.600
   18        0.514   0.309   8.777   9.600
   19        0.513   0.298   8.779   9.591
   20        0.552   0.338   8.744   9.634
   21        0.552   0.338   8.744   9.634
   22        0.507   0.309   8.776   9.593
   23        0.550   0.347   8.735   9.632
   24        0.507   0.309   8.776   9.593
   25        0.516   0.300   8.775   9.590
   26        0.516   0.300   8.775   9.590
   27        0.508   0.307   8.780   9.594
   28        0.540   0.226   8.767   9.534
   29        0.548   0.243   8.759   9.549
   30        0.548   0.243   8.759   9.549
   31        0.540   0.247   8.766   9.552
   32        0.540   0.247   8.766   9.552
   33        0.548   0.243   8.759   9.550
   34        0.548   0.243   8.759   9.550
   35        0.534   0.225   8.768   9.527
   36        0.528   0.515   5.885   6.928
   37        1.612   3.242   0.000   4.854
   38        1.612   3.242   0.000   4.854
tot         22.388  16.701 312.726 351.815

  FORCE on cell =-STRESS in cart. coord.  units (eV):
  Direction    XX          YY          ZZ          XY          YZ          ZX
  Alpha Z   962.68325   962.68325   962.68325
  Ewald  151504.72279151105.94161************    -0.00031     0.23751    -0.00010
  Hartree159984.29599159793.69068************     0.00001     2.46013    -0.00003
  E(xc)   -1822.62441 -1823.85651 -1829.94326     0.00000    -0.10608    -0.00000
  Local  ************************323483.26799     0.00269    -4.01968    -0.00002
  n-local  -121.39922  -129.24979   -99.01926     4.76527     0.34220     0.16065
  augment  2392.65811  2398.27453  2410.14965    -0.00134     0.14444     0.00003
  Kinetic  5700.24611  5752.97688  5766.90793     1.48759     1.45698     0.07912
  Fock        0.00000     0.00000     0.00000     0.00000     0.00000     0.00000
  Total     -18.07577   -20.64183     0.95464    -0.00000     0.51551     0.00000
  in kB     -17.70650   -20.22015     0.93513    -0.00000     0.50498     0.00000

 VOLUME and BASIS-vectors are now :
  energy-cutoff  :      500.00
  volume of cell :     1635.59
      direct lattice vectors                 reciprocal lattice vectors
     8.813512802  0.000000000  0.000000000     0.113462137 -0.065507406  0.000000000
     4.406756909  7.632725690  0.000000000     0.000000000  0.131014796  0.000000000
     0.000000000  0.000000000 24.313408842     0.000000000  0.000000000  0.041129568

  length of vectors
     8.813512802  8.813512802 24.313408842     0.131014796  0.131014796  0.041129568

 FORCES acting on ions
    electron-ion (+dipol)            ewald-force                    non-local-force                 convergence-correction
   -.200E-04 0.138E-02 0.268E+04   0.520E-04 -.320E-01 -.268E+04   0.138E-08 0.208E-01 -.967E+00   -.202E-03 0.619E-02 -.361E+00
   0.839E+00 0.450E+00 0.268E+04   -.842E+00 -.524E+00 -.268E+04   -.389E-02 0.577E-01 -.265E+00   0.127E-01 0.330E-01 -.458E+00
   -.839E+00 0.450E+00 0.268E+04   0.842E+00 -.524E+00 -.268E+04   0.389E-02 0.577E-01 -.265E+00   -.124E-01 0.349E-01 -.457E+00
   0.662E+00 0.414E+00 0.268E+04   -.847E+00 -.468E+00 -.268E+04   0.118E+00 -.174E-01 -.272E+00   0.603E-01 0.621E-01 -.379E+00
   0.784E-05 -.131E+00 0.268E+04   0.951E-04 0.150E-01 -.268E+04   0.275E-08 0.412E-01 -.182E+00   0.430E-02 0.781E-01 -.377E+00
   -.662E+00 0.414E+00 0.268E+04   0.847E+00 -.468E+00 -.268E+04   -.118E+00 -.174E-01 -.272E+00   -.619E-01 0.630E-01 -.378E+00
   0.403E-02 -.821E+00 0.268E+04   -.470E-02 0.992E+00 -.268E+04   0.163E-01 -.689E-01 -.258E+00   0.115E-01 -.104E+00 -.425E+00
   -.406E-02 -.821E+00 0.268E+04   0.456E-02 0.992E+00 -.268E+04   -.163E-01 -.689E-01 -.258E+00   -.963E-02 -.105E+00 -.424E+00
   0.196E-04 0.620E-01 0.268E+04   0.166E-03 0.173E-01 -.268E+04   -.148E-08 -.223E-01 -.538E+00   -.464E-02 -.670E-01 -.369E+00
   0.874E+01 0.503E+01 0.940E+03   -.823E+01 -.493E+01 -.939E+03   -.460E+00 -.175E+00 -.709E+00   -.354E-01 0.814E-01 0.167E+00
   0.157E-04 0.587E+01 0.949E+03   0.148E-03 -.607E+01 -.949E+03   0.221E-08 0.333E-01 -.335E+00   0.380E-02 0.599E-01 0.256E+00
   -.874E+01 0.503E+01 0.940E+03   0.823E+01 -.493E+01 -.939E+03   0.460E+00 -.175E+00 -.709E+00   0.341E-01 0.829E-01 0.167E+00
   0.496E+01 -.308E+01 0.950E+03   -.508E+01 0.316E+01 -.949E+03   0.633E-01 -.594E-01 -.281E+00   -.944E-02 0.604E-02 0.183E+00
   -.496E+01 -.308E+01 0.950E+03   0.508E+01 0.316E+01 -.949E+03   -.633E-01 -.594E-01 -.281E+00   0.173E-01 0.560E-02 0.183E+00
   0.309E-04 0.447E+01 0.944E+03   0.236E-03 -.456E+01 -.943E+03   -.609E-09 -.914E-02 -.557E+00   -.240E-02 0.519E-01 0.135E+00
   -.219E-04 -.996E+01 0.940E+03   0.163E-03 0.946E+01 -.939E+03   0.354E-07 0.532E+00 -.842E+00   0.296E-03 -.587E-01 0.127E+00
   0.409E+01 -.218E+01 0.943E+03   -.412E+01 0.236E+01 -.943E+03   -.342E-01 -.372E-01 -.445E+00   0.265E-01 -.106E+00 0.190E+00
   -.409E+01 -.218E+01 0.943E+03   0.412E+01 0.236E+01 -.943E+03   0.342E-01 -.372E-01 -.445E+00   -.266E-01 -.104E+00 0.190E+00
   -.424E-04 0.612E+01 -.839E+03   0.529E-04 -.642E+01 0.837E+03   0.192E-08 0.288E-01 0.642E+00   -.498E-03 0.189E+00 0.850E+00
   0.186E+02 0.115E+02 -.772E+03   -.180E+02 -.111E+02 0.772E+03   -.927E+00 -.621E+00 -.101E+01   0.333E+00 0.156E+00 0.134E+01
   -.186E+02 0.115E+02 -.772E+03   0.180E+02 -.111E+02 0.772E+03   0.927E+00 -.621E+00 -.101E+01   -.332E+00 0.157E+00 0.134E+01
   0.229E+01 -.273E+01 -.817E+03   -.268E+01 0.301E+01 0.815E+03   0.393E+00 -.253E+00 0.717E+00   0.594E-01 -.519E-01 0.978E+00
   -.678E-05 -.234E+02 -.775E+03   0.142E-03 0.225E+02 0.775E+03   0.749E-07 0.112E+01 -.898E+00   0.172E-02 -.394E+00 0.140E+01
   -.229E+01 -.273E+01 -.817E+03   0.268E+01 0.301E+01 0.815E+03   -.393E+00 -.253E+00 0.717E+00   -.663E-01 -.514E-01 0.978E+00
   -.507E+01 -.174E+01 -.841E+03   0.533E+01 0.187E+01 0.839E+03   -.312E-01 -.828E-02 0.523E+00   -.200E+00 -.892E-01 0.921E+00
   0.507E+01 -.174E+01 -.841E+03   -.533E+01 0.187E+01 0.839E+03   0.312E-01 -.828E-02 0.523E+00   0.202E+00 -.906E-01 0.921E+00
   0.126E-04 0.315E+01 -.818E+03   0.197E-03 -.391E+01 0.816E+03   0.447E-07 0.671E+00 0.775E+00   -.440E-02 0.133E+00 0.104E+01
   -.160E-04 0.643E+01 -.258E+04   0.306E-04 -.628E+01 0.258E+04   -.532E-08 -.798E-01 0.487E+00   0.172E-03 -.730E-01 0.885E+00
   0.462E+02 0.944E+02 -.254E+04   -.461E+02 -.949E+02 0.254E+04   -.628E+00 -.476E+00 0.601E+00   0.379E+00 0.436E+00 0.817E+00
   -.462E+02 0.944E+02 -.254E+04   0.461E+02 -.949E+02 0.254E+04   0.628E+00 -.476E+00 0.601E+00   -.379E+00 0.437E+00 0.818E+00
   0.112E+03 -.297E+01 -.252E+04   -.113E+03 0.308E+01 0.252E+04   -.412E+00 -.126E+00 0.830E+00   0.734E+00 0.690E-01 0.771E+00
   -.112E+03 -.297E+01 -.252E+04   0.113E+03 0.308E+01 0.252E+04   0.412E+00 -.126E+00 0.830E+00   -.735E+00 0.701E-01 0.770E+00
   0.422E+02 -.883E+02 -.254E+04   -.422E+02 0.885E+02 0.254E+04   -.444E+00 0.660E+00 0.494E+00   0.235E+00 -.532E+00 0.792E+00
   -.422E+02 -.883E+02 -.254E+04   0.422E+02 0.885E+02 0.254E+04   0.444E+00 0.660E+00 0.494E+00   -.233E+00 -.533E+00 0.791E+00
   0.325E-04 -.407E+01 -.258E+04   0.141E-03 0.383E+01 0.258E+04   0.870E-08 0.131E+00 0.623E+00   -.471E-02 0.104E+00 0.694E+00
   -.771E-05 -.773E+01 -.152E+04   0.838E-04 0.778E+01 0.152E+04   0.116E-07 0.174E+00 0.247E+01   0.147E-02 0.125E-01 0.935E+00
   0.217E+03 -.865E+00 -.171E+04   -.255E+03 0.656E+00 0.173E+04   0.371E+02 0.163E+00 -.178E+02   0.459E+00 0.488E-01 -.215E+00
   -.217E+03 -.865E+00 -.171E+04   0.255E+03 0.656E+00 0.173E+04   -.371E+02 0.163E+00 -.178E+02   -.458E+00 0.489E-01 -.215E+00
   -.436E-03 -.784E+00 0.206E+02   0.568E-13 0.109E-12 -.887E-11   0.480E-07 0.721E+00 -.350E+02   -.483E-03 0.671E-01 0.146E+02

 POSITION                                       TOTAL-FORCE (eV/Angst)
      0.00000      0.00000      5.28038        -0.000000     -0.003756     -0.088622
      2.93784      0.00000      5.28038         0.006120      0.017814     -0.017701
      5.87568      0.00000      5.28038        -0.006120      0.017814     -0.017701
      1.46892      2.54424      5.28038        -0.006323     -0.009521     -0.031931
      4.40676      2.54424      5.28038         0.000000      0.003709     -0.057516
      7.34459      2.54424      5.28038         0.006323     -0.009521     -0.031931
      2.93784      5.08848      5.28038         0.026252     -0.002076     -0.028680
      5.87568      5.08848      5.28038        -0.026252     -0.002076     -0.028680
      8.81351      5.08848      5.28038        -0.000000     -0.010094     -0.049793
      1.46892      0.84808      7.67911         0.013163      0.006230      0.116813
      4.40676      0.84808      7.67911        -0.000000     -0.104082     -0.054632
      7.34459      0.84808      7.67911        -0.013163      0.006230      0.116813
      2.93784      3.39232      7.67911        -0.070139      0.024030     -0.015976
      5.87568      3.39232      7.67911         0.070139      0.024030     -0.015976
      8.81351      3.39232      7.67911        -0.000000     -0.041223      0.091577
      4.40676      5.93656      7.67911        -0.000000     -0.030456      0.160107
      7.34459      5.93656      7.67911        -0.041042      0.036915      0.073736
     10.28243      5.93656      7.67911         0.041042      0.036915      0.073736
      8.81351      1.70311     10.09495        -0.000000     -0.078269     -0.083433
      2.93286      1.69329     10.03570         0.026897      0.005225     -0.080156
      5.88065      1.69329     10.03570        -0.026897      0.005225     -0.080156
     10.26497      4.25049     10.06286         0.067412     -0.029794      0.041769
      4.40676      4.24615     10.03570        -0.000000     -0.134510     -0.043131
      7.36206      4.25049     10.06286        -0.067412     -0.029794      0.041769
     11.74534      6.78117     10.09495         0.026476      0.028319     -0.049773
      5.88169      6.78117     10.09495        -0.026476      0.028319     -0.049773
      8.81351      6.76448     10.06286         0.000000      0.039965      0.042824
      0.00000      0.00000     12.49897        -0.000000     -0.004220     -0.049392
      2.97514      0.06495     12.50272        -0.177231     -0.443018     -0.262275
      5.83837      0.06495     12.50272         0.177231     -0.443018     -0.262275
      1.54382      2.54408     12.50272        -0.907538      0.050694     -0.500597
      7.26969      2.54408     12.50272         0.907538      0.050694     -0.500597
      2.97543      5.02370     12.50272        -0.201912      0.382274     -0.183467
      5.83808      5.02370     12.50272         0.201912      0.382274     -0.183467
      8.81351      5.08848     12.49601        -0.000000     -0.008538      0.023541
      4.40676      2.54424     12.21487         0.000000      0.231836      2.009757
      3.71367      2.49200     14.15124         0.031373      0.002726     -0.012404
      5.09984      2.49200     14.15124        -0.031373      0.002726     -0.012404
    total drift:                               -0.000919      0.003890      0.129960

  FREE ENERGIE OF THE ION-ELECTRON SYSTEM (eV)
  free  energy   TOTEN  =      -125.60198376 eV

  energy  without entropy=     -125.60198376  energy(sigma->0) =     -125.60198376

 stress matrix after NEB project (eV)
    -18.07577     -0.00000      0.00000
     -0.00000    -20.64183      0.51551
      0.00000      0.51551      0.95464
  FORCES: max atom, RMS     0.033846    0.007765
  FORCE total and by dimension    0.047866    0.031373
  Stress total and by dimension   27.463821   20.641833
|           W    W    AA    RRRRR   N    N  II  N    N   GGGG   !!!           |
|           W    W   A  A   R    R  NN   N  II  NN   N  G    G  !!!           |
|           W    W  A    A  R    R  N N  N  II  N N  N  G       !!!           |
|           W WW W  AAAAAA  RRRRR   N  N N  II  N  N N  G  GGG   !            |
|           WW  WW  A    A  R   R   N   NN  II  N   NN  G    G                |
|           W    W  A    A  R    R  N    N  II  N    N   GGGG   !!!           |
|     Tetrahedron method does not include variations of the Fermi             |
|     occupations, so forces and stress will be inaccurate. We suggest        |
|     using a different smearing scheme ISMEAR = 1 or 2 for metals in         |
|     relaxations.                                                            |

 total charge

# of ion       s       p       d       tot
    1        0.547   0.238   8.767   9.552
    2        0.543   0.241   8.766   9.550
    3        0.543   0.241   8.766   9.550
    4        0.545   0.241   8.764   9.549
    5        0.542   0.242   8.761   9.545
    6        0.545   0.241   8.764   9.549
    7        0.545   0.241   8.764   9.550
    8        0.545   0.241   8.764   9.550
    9        0.541   0.240   8.768   9.549
   10        0.524   0.307   8.768   9.600
   11        0.521   0.308   8.781   9.610
   12        0.524   0.307   8.768   9.600
   13        0.521   0.309   8.779   9.608
   14        0.521   0.309   8.779   9.608
   15        0.514   0.308   8.776   9.598
   16        0.523   0.310   8.766   9.599
   17        0.514   0.309   8.777   9.600
   18        0.514   0.309   8.777   9.600
   19        0.513   0.298   8.779   9.591
   20        0.552   0.338   8.744   9.634
   21        0.552   0.338   8.744   9.634
   22        0.507   0.309   8.776   9.593
   23        0.550   0.347   8.735   9.632
   24        0.507   0.309   8.776   9.593
   25        0.516   0.300   8.775   9.590
   26        0.516   0.300   8.775   9.590
   27        0.508   0.307   8.780   9.594
   28        0.540   0.226   8.767   9.534
   29        0.548   0.243   8.759   9.549
   30        0.548   0.243   8.759   9.549
   31        0.540   0.247   8.766   9.552
   32        0.540   0.247   8.766   9.552
   33        0.548   0.243   8.759   9.550
   34        0.548   0.243   8.759   9.550
   35        0.534   0.225   8.768   9.527
   36        0.528   0.515   5.885   6.928
   37        1.612   3.242   0.000   4.854
   38        1.612   3.242   0.000   4.854
tot         22.388  16.701 312.726 351.815

 BZINTS: Fermi energy:    0.175624;  405.000000 electrons
         Band energy:-0.150230E+04;  BLOECHL correction:   -0.057731