 vasp.6.2.0 18Jan21 (build Jun 12 2021 23:27:24) complex

 executed on             LinuxIFC date 2022.05.30  18:30:07

 INCAR:
   ISMEAR = -5
   SIGMA = 0.1
   ISPIN = 1
   EDIFF = 1.d-5
   EDIFFG = -0.01
   NSW = 0
   NELM = 150
   ENCUT = 500
   ISIF = 2
   IBRION = 2
   LREAL = Auto
   ALGO = Fast
   ICHARG = 11
   LORBIT = 10
   LCHARG = .F.
   LWAVE = .F.

 POTCAR:    PAW_PBE Cu 22Jun2005
 POTCAR:    PAW_PBE Hf 20Jan2003
 POTCAR:    PAW_PBE C 08Apr2002
 POTCAR:    PAW_PBE O 08Apr2002
 POTCAR:    PAW_PBE H 15Jun2001
|           W    W    AA    RRRRR   N    N  II  N    N   GGGG   !!!           |
|           W    W   A  A   R    R  NN   N  II  NN   N  G    G  !!!           |
|           W    W  A    A  R    R  N N  N  II  N N  N  G       !!!           |
|           W WW W  AAAAAA  RRRRR   N  N N  II  N  N N  G  GGG   !            |
|           WW  WW  A    A  R   R   N   NN  II  N   NN  G    G                |
|           W    W  A    A  R    R  N    N  II  N    N   GGGG   !!!           |
|     For optimal performance we recommend to set                             |
|       NCORE = 2 up to number-of-cores-per-socket                            |
|     This setting can greatly improve the performance of VASP for DFT.       |
|     The default, NCORE=1 might be grossly inefficient on modern             |
|     multi-core architectures or massively parallel machines. Do your        |
|     Unfortunately you need to use the default for GW and RPA                |
|     calculations (for HF NCORE is supported but not extensively tested      |
|     yet).                                                                   |

 POTCAR:    PAW_PBE Cu 22Jun2005
   VRHFIN =Cu: d10 p1

   TITEL  = PAW_PBE Cu 22Jun2005
   POMASS =   63.546; ZVAL   =   11.000    mass and valenz
   ENMAX  =  295.446; ENMIN  =  221.585 eV

 POTCAR:    PAW_PBE Hf 20Jan2003
   VRHFIN =Hf: 6s5d

   TITEL  = PAW_PBE Hf 20Jan2003
   POMASS =  178.490; ZVAL   =    4.000    mass and valenz
   ENMAX  =  220.334; ENMIN  =  165.250 eV

 POTCAR:    PAW_PBE C 08Apr2002
   VRHFIN =C: s2p2

   TITEL  = PAW_PBE C 08Apr2002
   POMASS =   12.011; ZVAL   =    4.000    mass and valenz
   ENMAX  =  400.000; ENMIN  =  300.000 eV

 POTCAR:    PAW_PBE O 08Apr2002
   VRHFIN =O: s2p4

   TITEL  = PAW_PBE O 08Apr2002
   POMASS =   16.000; ZVAL   =    6.000    mass and valenz
   ENMAX  =  400.000; ENMIN  =  300.000 eV

 POTCAR:    PAW_PBE H 15Jun2001
   VRHFIN =H: ultrasoft test

   TITEL  = PAW_PBE H 15Jun2001
   POMASS =    1.000; ZVAL   =    1.000    mass and valenz
   ENMAX  =  250.000; ENMIN  =  200.000 eV

 Optimization of the real space projectors (new method)

 maximal supplied QI-value         = 16.25
 optimisation between [QCUT,QGAM] = [ 11.38, 22.75] = [ 36.24,144.96] Ry
 Optimized for a Real-space Cutoff    1.52 Angstroem

   l    n(q)    QCUT    max X(q) W(low)/X(q) W(high)/X(q)  e(spline)
   2      9    11.376     4.610    0.21E-03    0.10E-03    0.26E-06
   2      9    11.376     8.522    0.33E-03    0.16E-03    0.37E-06
   0     10    11.376    51.609    0.62E-04    0.20E-04    0.13E-06
   0     10    11.376    27.747    0.54E-04    0.20E-04    0.13E-06
   1     10    11.376    20.408    0.13E-04    0.99E-04    0.19E-06
   1     10    11.376    13.425    0.12E-04    0.87E-04    0.17E-06
 Optimization of the real space projectors (new method)

[...]

   l    n(q)    QCUT    max X(q) W(low)/X(q) W(high)/X(q)  e(spline)
   0      7    11.387    20.381    0.39E-03    0.13E-02    0.15E-06
   0      7    11.387    15.268    0.42E-03    0.14E-02    0.17E-06
   1      6    11.387     5.964    0.41E-03    0.11E-02    0.17E-06
   1      6    11.387     5.382    0.39E-03    0.87E-03    0.15E-06
 Optimization of the real space projectors (new method)

 maximal supplied QI-value         = 34.20
 optimisation between [QCUT,QGAM] = [ 11.29, 22.57] = [ 35.68,142.71] Ry
 Optimized for a Real-space Cutoff    1.16 Angstroem

   l    n(q)    QCUT    max X(q) W(low)/X(q) W(high)/X(q)  e(spline)
   0      8    11.287    19.460    0.40E-03    0.73E-03    0.16E-06
   0      8    11.287    12.209    0.38E-03    0.70E-03    0.15E-06
   1      7    11.287     4.655    0.22E-03    0.25E-04    0.22E-06
  PAW_PBE Cu 22Jun2005                  :
  PAW_PBE Hf 20Jan2003                  :
  PAW_PBE C 08Apr2002                   :
  PAW_PBE O 08Apr2002                   :
  PAW_PBE H 15Jun2001                   :

 POSCAR: Cu-Hf-COH
  positions in direct lattice
  velocities in cartesian coordinates
 exchange correlation table for  LEXCH =        8
   RHO(1)=    0.500       N(1)  =     2000
   RHO(2)=  100.500       N(2)  =     4000

 VTST: version 3.2, (02/03/18)

 CHAIN: initializing optimizer

 OPT: Using VASP Conjugate-Gradient optimizer
 CHAIN: Read ICHAIN            0

 POSCAR: Cu-Hf-COH
  positions in direct lattice
  velocities in cartesian coordinates

 ion  position               nearest neighbor table
   1  0.000  0.000  0.206-   7 2.57   3 2.57   4 2.57   2 2.57   6 2.57   8 2.57  12 2.57  10 2.57
                            16 2.57
   2  0.333  0.000  0.206-   8 2.57   9 2.57   5 2.57   1 2.57   3 2.57  11 2.57   4 2.57  10 2.57
                            17 2.57
   3  0.667  0.000  0.206-   1 2.57   7 2.57   6 2.57   9 2.57   2 2.57  12 2.57   5 2.57  18 2.57
                            11 2.57
   4  0.000  0.333  0.206-   5 2.57   6 2.57   1 2.57   7 2.57   2 2.57  13 2.57   9 2.57  10 2.57
                            15 2.57
   5  0.333  0.333  0.206-   4 2.57   2 2.57   7 2.57  13 2.57   8 2.57   6 2.57   3 2.57  11 2.57
                            14 2.57
   6  0.667  0.333  0.206-   4 2.57   9 2.57  15 2.57   3 2.57   1 2.57   8 2.57  14 2.57   5 2.57
                            12 2.57
   7  0.000  0.667  0.206-   1 2.57   3 2.57  16 2.57  18 2.57   4 2.57   5 2.57   8 2.57   9 2.57
                            13 2.57
   8  0.333  0.667  0.206-   9 2.57   2 2.57  17 2.57   6 2.57   1 2.57   7 2.57   5 2.57  14 2.57
                            16 2.57
   9  0.667  0.667  0.206-   8 2.57   6 2.57   2 2.57  17 2.57   3 2.57   7 2.57   4 2.57  15 2.57
                            18 2.57
  10  0.111  0.111  0.286-  26 2.54  19 2.54  11 2.57  12 2.57  13 2.57   1 2.57   2 2.57   4 2.57
                            15 2.57  16 2.57  17 2.57  20 2.58
  11  0.444  0.111  0.286-  27 2.56  10 2.57  13 2.57   2 2.57  17 2.57  14 2.57  12 2.57   5 2.57
                             3 2.57  18 2.57  20 2.57  21 2.57
  12  0.778  0.111  0.286-  19 2.54  25 2.54  15 2.57  10 2.57  14 2.57  18 2.57   3 2.57   1 2.57
                            16 2.57  11 2.57   6 2.57  21 2.58
  13  0.111  0.444  0.286-  22 2.56  16 2.57  18 2.57  10 2.57  11 2.57  14 2.57   5 2.57   4 2.57
                             7 2.57  15 2.57  23 2.57  20 2.57
  14  0.444  0.444  0.286-  24 2.56  15 2.57  17 2.57  12 2.57  16 2.57  13 2.57  11 2.57   6 2.57
                             8 2.57   5 2.57  21 2.57  23 2.57
  15  0.778  0.444  0.286-  19 2.55  24 2.56  22 2.56  14 2.57  17 2.57  12 2.57   6 2.57  18 2.57
                            10 2.57   9 2.57  13 2.57   4 2.57
  16  0.111  0.778  0.286-  25 2.54  26 2.54  18 2.57  13 2.57   7 2.57  14 2.57  17 2.57  12 2.57
                            10 2.57   8 2.57   1 2.57  23 2.58
  17  0.444  0.778  0.286-  26 2.55  27 2.56  24 2.56  14 2.57  15 2.57   8 2.57   9 2.57  11 2.57
                            16 2.57  18 2.57  10 2.57   2 2.57
  18  0.778  0.778  0.286-  25 2.55  22 2.56  27 2.56  16 2.57  13 2.57   7 2.57  15 2.57  12 2.57
                            17 2.57   9 2.57   3 2.57  11 2.57
  19  0.889  0.221  0.365-  12 2.54  10 2.54  15 2.55  25 2.56  26 2.56  32 2.57  31 2.57  22 2.57
                            24 2.57  21 2.57  20 2.57  28 2.57
  20  0.223  0.223  0.366-  23 2.55  21 2.55  27 2.57  22 2.57  26 2.57  19 2.57  11 2.57  13 2.57
                            10 2.58  29 2.58  31 2.58  36 2.77
  21  0.555  0.223  0.366-  20 2.55  23 2.55  24 2.57  27 2.57  19 2.57  25 2.57  14 2.57  11 2.57
                            12 2.58  32 2.58  30 2.58  36 2.77
  22  0.889  0.556  0.366-  18 2.56  15 2.56  13 2.56  24 2.56  27 2.56  23 2.57  20 2.57  31 2.57
                            33 2.57  19 2.57  25 2.57  35 2.58
  23  0.223  0.555  0.366-  20 2.55  21 2.55  22 2.57  24 2.57  25 2.57  26 2.57  13 2.57  14 2.57
                            16 2.58  33 2.58  34 2.58  36 2.77
  24  0.556  0.556  0.366-  15 2.56  17 2.56  14 2.56  22 2.56  27 2.56  21 2.57  23 2.57  32 2.57
                            34 2.57  19 2.57  26 2.57  35 2.58
  25  0.889  0.889  0.365-  12 2.54  16 2.54  18 2.55  19 2.56  26 2.56  33 2.57  30 2.57  22 2.57
                            27 2.57  21 2.57  23 2.57  28 2.57
  26  0.221  0.889  0.365-  10 2.54  16 2.54  17 2.55  25 2.56  19 2.56  29 2.57  34 2.57  27 2.57
                            24 2.57  20 2.57  23 2.57  28 2.57
  27  0.556  0.889  0.366-  17 2.56  18 2.56  11 2.56  24 2.56  22 2.56  20 2.57  21 2.57  29 2.57
                            30 2.57  26 2.57  25 2.57  35 2.58
  28  0.000  0.000  0.446-  33 2.55  30 2.55  31 2.55  29 2.55  32 2.55  34 2.55  25 2.57  19 2.57
                            26 2.57
  29  0.334  0.994  0.446-  34 2.48  35 2.54  28 2.55  26 2.57  27 2.57  20 2.58  30 2.60  31 2.61
                            36 2.62
  30  0.672  0.994  0.446-  33 2.48  35 2.54  28 2.55  25 2.57  27 2.57  21 2.58  29 2.60  32 2.61
                            36 2.62
  31  0.994  0.334  0.446-  32 2.48  35 2.54  28 2.55  19 2.57  22 2.57  20 2.58  33 2.60  29 2.61
                            36 2.62
  32  0.672  0.334  0.446-  31 2.48  35 2.54  28 2.55  19 2.57  24 2.57  21 2.58  34 2.60  30 2.61
                            36 2.62
  33  0.994  0.672  0.446-  30 2.48  35 2.54  28 2.55  25 2.57  22 2.57  23 2.58  31 2.60  34 2.61
                            36 2.62
  34  0.334  0.672  0.446-  29 2.48  35 2.54  28 2.55  26 2.57  24 2.57  23 2.58  32 2.60  33 2.61
                            36 2.62
  35  0.667  0.667  0.447-  34 2.54  32 2.54  29 2.54  30 2.54  33 2.54  31 2.54  24 2.58  27 2.58
                            22 2.58
  36  0.333  0.333  0.456-  37 2.07  31 2.62  29 2.62  33 2.62  32 2.62  34 2.62  30 2.62  23 2.77
                            20 2.77  21 2.77
  37  0.333  0.333  0.535-  38 1.27  36 2.07
  38  0.333  0.333  0.584-  39 0.96  37 1.27
  39  0.333  0.333  0.620-  38 0.96

  LATTYP: Found a hexagonal cell.
 ALAT       =     7.6967864036
 C/A-ratio  =     3.3950614187

  Lattice vectors:

 A1 = (  -3.8483927580,  -6.6656128093,   0.0000000000)
 A2 = (   7.6967864037,   0.0000000000,   0.0000000000)
 A3 = (   0.0000000000,   0.0000000000,  26.1310625667)

Analysis of symmetry for initial positions (statically):
 Subroutine PRICEL returns:
 Original cell was already a primitive cell.

 Routine SETGRP: Setting up the symmetry group for a
 hexagonal supercell.

 Subroutine GETGRP returns: Found  6 space group operations
 (whereof  6 operations were pure point group operations)
 out of a pool of 24 trial point group operations.

The static configuration has the point symmetry C_3v.

Analysis of symmetry for dynamics (positions and initial velocities):
[...]
     41      -4.0902      2.00000
     42      -3.9473      2.00000
     43      -3.9319      2.00000
     44      -3.8831      2.00000
     45      -3.8728      2.00000
     46      -3.8501      2.00000
     47      -3.8359      2.00000
     48      -3.8300      2.00000
     49      -3.8224      2.00000
     50      -3.8103      2.00000
     51      -3.6676      2.00000
     52      -3.6381      2.00000
     53      -3.6176      2.00000
     54      -3.6041      2.00000
     55      -3.5568      2.00000
     56      -3.5469      2.00000
     57      -3.5338      2.00000
     58      -3.5246      2.00000
     59      -3.5136      2.00000
     60      -3.5080      2.00000
[...]
    238       5.3041      0.00000
    239       5.4768      0.00000
    240       5.5298      0.00000
    241       5.5687      0.00000
    242       5.5948      0.00000
    243       5.7378      0.00000
    244       5.8372      0.00000
    245       5.9239      0.00000
    246       5.9368      0.00000
    247       6.0329      0.00000
    248       6.2141      0.00000
    249       6.6545      0.00000
    250       6.7921      0.00000
    251       6.8804      0.00000
    252       6.9180      0.00000

 soft charge-density along one line, spin component           1
         0         1         2         3         4         5         6         7         8         9
 total charge-density along one line

------------------------ aborting loop because EDIFF is reached ----------------------------------------

 total charge

# of ion       s       p       d       tot
    1        0.449   0.282   9.190   9.921
    2        0.446   0.286   9.187   9.919
    3        0.446   0.286   9.187   9.919
    4        0.446   0.286   9.187   9.919
    5        0.451   0.286   9.181   9.919
    6        0.446   0.286   9.187   9.919
    7        0.446   0.286   9.187   9.919
    8        0.446   0.286   9.187   9.919
    9        0.448   0.283   9.190   9.921
   10        0.443   0.372   9.176   9.990
   11        0.443   0.364   9.182   9.989
   12        0.443   0.372   9.176   9.990
   13        0.443   0.364   9.182   9.989
   14        0.443   0.364   9.182   9.989
   15        0.440   0.372   9.175   9.988
   16        0.443   0.372   9.176   9.990
   17        0.440   0.372   9.175   9.988
   18        0.440   0.372   9.175   9.988
   19        0.443   0.372   9.177   9.993
   20        0.458   0.381   9.166  10.005
   21        0.458   0.381   9.166  10.005
   22        0.433   0.374   9.178   9.985
   23        0.458   0.381   9.166  10.005
   24        0.433   0.374   9.178   9.985
   25        0.443   0.372   9.177   9.993
   26        0.443   0.372   9.177   9.993
   27        0.433   0.374   9.178   9.985
   28        0.444   0.296   9.183   9.924
   29        0.480   0.315   9.169   9.964
   30        0.480   0.315   9.169   9.964
   31        0.480   0.315   9.169   9.964
   32        0.480   0.315   9.169   9.964
   33        0.480   0.315   9.169   9.964
   34        0.480   0.315   9.169   9.964
   35        0.444   0.298   9.185   9.926
   36        0.601   0.625   2.247   3.473
   37        0.943   1.386   0.000   2.329
   38        1.526   3.748   0.000   5.274
   39        0.566   0.137   0.000   0.703
tot         19.413  17.652 323.471 360.536

  FORCE on cell =-STRESS in cart. coord.  units (eV):
  Direction    XX          YY          ZZ          XY          YZ          ZX
  Alpha Z   732.68045   732.68045   732.68045
  Ewald  263001.89423263001.89392************     0.00035     0.00014     0.00016
  Hartree275820.67225275820.67229************     0.00001     0.00007     0.00005
  E(xc)   -2310.76560 -2310.76516 -2314.43474    -0.00038    -0.00003    -0.00005
  Local  ************************551264.27043     0.01875    -0.00062    -0.00093
  n-local  -781.43078  -769.85100  -789.03024     6.35722    -0.05803     0.12985
  augment  3315.97693  3315.99688  3336.49064    -0.01729     0.00026     0.00046
  Kinetic  3378.32647  3379.26352  3355.04848     2.47572     1.87468    -1.29992
  Fock        0.00000     0.00000     0.00000     0.00000     0.00000     0.00000
  Total      -4.41521    -4.41521    -2.20262     0.00000    -0.00000    -0.00000
  in kB      -5.27661    -5.27661    -2.63235     0.00000    -0.00000    -0.00000

 VOLUME and BASIS-vectors are now :
  energy-cutoff  :      500.00
  volume of cell :     1340.62
      direct lattice vectors                 reciprocal lattice vectors
     7.696786404  0.000000000  0.000000000     0.129924354 -0.075011849  0.000000000
     3.848392758  6.665612809  0.000000000     0.000000000  0.150023716  0.000000000
     0.000000000  0.000000000 26.131062567     0.000000000  0.000000000  0.038268631

  length of vectors
     7.696786404  7.696786404 26.131062567     0.150023716  0.150023716  0.038268631

 FORCES acting on ions
    electron-ion (+dipol)            ewald-force                    non-local-force                 convergence-correction
   -.435E-04 -.956E-06 0.389E+04   0.581E-04 -.423E-05 -.389E+04   -.106E-16 0.444E-19 -.229E+01   -.222E-03 -.146E-03 0.173E+00
   -.123E+01 -.164E+01 0.389E+04   0.116E+01 0.146E+01 -.389E+04   0.851E-01 0.220E+00 -.190E+01   -.372E-02 -.336E-01 0.192E+00
   0.123E+01 -.164E+01 0.389E+04   -.116E+01 0.146E+01 -.389E+04   -.851E-01 0.220E+00 -.190E+01   0.444E-02 -.311E-01 0.193E+00
   -.203E+01 -.242E+00 0.389E+04   0.185E+01 0.273E+00 -.389E+04   0.233E+00 -.360E-01 -.190E+01   -.309E-01 0.135E-01 0.192E+00
   -.676E-04 -.687E-05 0.388E+04   0.116E-03 -.101E-04 -.388E+04   0.516E-17 -.280E-17 -.114E+01   0.122E-01 0.744E-02 0.305E+00
   0.203E+01 -.242E+00 0.389E+04   -.185E+01 0.273E+00 -.389E+04   -.233E+00 -.360E-01 -.190E+01   0.293E-01 0.149E-01 0.194E+00
   -.806E+00 0.188E+01 0.389E+04   0.686E+00 -.173E+01 -.389E+04   0.148E+00 -.183E+00 -.190E+01   -.246E-01 0.194E-01 0.193E+00
   0.806E+00 0.188E+01 0.389E+04   -.687E+00 -.173E+01 -.389E+04   -.148E+00 -.183E+00 -.190E+01   0.282E-01 0.180E-01 0.194E+00
   -.145E-03 -.336E-04 0.389E+04   0.263E-03 0.204E-04 -.389E+04   -.374E-17 0.348E-17 -.216E+01   -.133E-01 -.683E-02 0.178E+00
   -.124E+02 -.717E+01 0.131E+04   0.127E+02 0.731E+01 -.131E+04   -.214E+00 -.124E+00 -.863E+00   -.265E-01 -.155E-01 0.833E-01
   -.898E-04 -.135E+02 0.129E+04   0.189E-03 0.134E+02 -.129E+04   -.138E-07 0.207E+00 -.151E+00   0.113E-01 -.965E-01 0.932E-01
   0.124E+02 -.717E+01 0.131E+04   -.127E+02 0.731E+01 -.131E+04   0.214E+00 -.124E+00 -.863E+00   0.254E-01 -.139E-01 0.821E-01
   -.117E+02 0.675E+01 0.129E+04   0.116E+02 -.670E+01 -.129E+04   0.179E+00 -.104E+00 -.151E+00   -.774E-01 0.588E-01 0.927E-01
   0.117E+02 0.675E+01 0.129E+04   -.116E+02 -.670E+01 -.129E+04   -.179E+00 -.104E+00 -.151E+00   0.101E+00 0.585E-01 0.922E-01
   -.138E-03 -.832E+00 0.131E+04   0.295E-03 0.666E+00 -.131E+04   -.676E-08 0.102E+00 -.107E+01   -.345E-02 0.588E-01 0.810E-01
   -.915E-04 0.143E+02 0.131E+04   0.187E-03 -.146E+02 -.131E+04   -.164E-07 0.247E+00 -.863E+00   0.849E-04 0.275E-01 0.828E-01
   -.720E+00 0.416E+00 0.131E+04   0.577E+00 -.333E+00 -.131E+04   0.880E-01 -.508E-01 -.107E+01   0.496E-01 -.323E-01 0.812E-01
   0.720E+00 0.416E+00 0.131E+04   -.577E+00 -.333E+00 -.131E+04   -.880E-01 -.508E-01 -.107E+01   -.492E-01 -.300E-01 0.808E-01
   -.715E-04 -.969E+01 -.124E+04   0.738E-04 0.978E+01 0.124E+04   0.337E-08 -.506E-01 0.104E+01   0.104E-02 -.206E-01 -.205E+00
   -.766E+02 -.442E+02 -.138E+04   0.777E+02 0.448E+02 0.138E+04   -.102E+01 -.591E+00 -.497E+00   -.139E+00 -.815E-01 -.287E+00
   0.766E+02 -.442E+02 -.138E+04   -.777E+02 0.448E+02 0.138E+04   0.102E+01 -.591E+00 -.497E+00   0.119E+00 -.795E-01 -.288E+00
   -.372E+02 0.215E+02 -.127E+04   0.371E+02 -.214E+02 0.127E+04   0.219E+00 -.127E+00 0.562E+00   -.594E-01 0.194E-01 -.332E+00
   -.743E-04 0.885E+02 -.138E+04   0.157E-03 -.897E+02 0.138E+04   -.786E-07 0.118E+01 -.497E+00   0.131E-02 0.161E+00 -.288E+00
   0.372E+02 0.215E+02 -.127E+04   -.371E+02 -.214E+02 0.127E+04   -.219E+00 -.127E+00 0.562E+00   0.369E-01 0.215E-01 -.332E+00
   0.840E+01 0.485E+01 -.124E+04   -.847E+01 -.489E+01 0.124E+04   0.438E-01 0.253E-01 0.104E+01   0.207E-01 0.110E-01 -.205E+00
   -.840E+01 0.485E+01 -.124E+04   0.847E+01 -.489E+01 0.124E+04   -.438E-01 0.253E-01 0.104E+01   -.174E-01 0.996E-02 -.205E+00
   -.139E-03 -.430E+02 -.127E+04   0.239E-03 0.428E+02 0.127E+04   -.169E-07 0.253E+00 0.562E+00   -.132E-01 -.605E-01 -.332E+00
   -.305E-04 0.221E-04 -.375E+04   0.485E-04 -.309E-04 0.375E+04   -.583E-19 0.159E-17 0.207E+01   -.107E-02 -.937E-03 -.234E+00
   -.608E+02 -.115E+03 -.373E+04   0.610E+02 0.115E+03 0.373E+04   -.208E+00 -.173E+00 0.932E+00   -.673E-01 -.897E-01 -.348E+00
   0.608E+02 -.115E+03 -.373E+04   -.610E+02 0.115E+03 0.373E+04   0.208E+00 -.173E+00 0.932E+00   0.893E-01 -.877E-01 -.347E+00
   -.130E+03 0.463E+01 -.373E+04   0.130E+03 -.452E+01 0.373E+04   -.254E+00 -.938E-01 0.932E+00   -.111E+00 -.136E-01 -.348E+00
   0.130E+03 0.463E+01 -.373E+04   -.130E+03 -.452E+01 0.373E+04   0.254E+00 -.938E-01 0.932E+00   0.133E+00 -.118E-01 -.347E+00
   -.688E+02 0.110E+03 -.373E+04   0.689E+02 -.110E+03 0.373E+04   -.456E-01 0.266E+00 0.932E+00   -.310E-01 0.122E+00 -.347E+00
   0.688E+02 0.110E+03 -.373E+04   -.689E+02 -.110E+03 0.373E+04   0.456E-01 0.266E+00 0.932E+00   0.566E-01 0.121E+00 -.348E+00
   -.124E-03 -.117E-04 -.377E+04   0.248E-03 -.188E-05 0.377E+04   0.426E-17 -.479E-17 0.233E+01   -.149E-01 -.760E-02 -.267E+00
   -.226E-04 -.363E-05 -.136E+04   0.434E-04 0.109E-04 0.136E+04   -.872E-19 0.111E-17 -.201E+01   -.940E-04 -.908E-04 -.161E+00
   -.829E-05 -.739E-04 -.134E+04   0.509E-05 0.306E-05 0.131E+04   -.212E-17 -.757E-18 0.229E+02   0.779E-03 0.475E-03 -.337E-01
   0.227E-03 -.722E-04 -.208E+04   0.103E-05 0.137E-05 0.208E+04   0.648E-18 0.125E-17 -.291E+01   0.327E-02 0.200E-02 0.161E+00
   0.322E-05 -.141E-04 -.378E+03   0.319E-07 0.908E-07 0.387E+03   0.519E-20 -.165E-19 -.869E+01   0.170E-03 0.104E-03 0.310E-01
   -.851E-04 -.179E-03 0.311E+01   -.479E-13 0.202E-12 0.104E-10   -.178E-15 -.320E-17 -.590E+00   0.394E-01 0.315E-01 -.248E+01

 POSITION                                       TOTAL-FORCE (eV/Angst)
      0.00000      0.00000      5.37156         0.000000     -0.000000     -0.005595
      2.56560      0.00000      5.37156         0.015305      0.010688      0.054511
      5.13119      0.00000      5.37156        -0.015305      0.010688      0.054511
      1.28280      2.22187      5.37156         0.016909      0.007911      0.054511
      3.84839      2.22187      5.37156         0.000000     -0.000000      0.057197
      6.41399      2.22187      5.37156        -0.016909      0.007911      0.054511
      2.56560      4.44374      5.37156         0.001603     -0.018599      0.054511
      5.13119      4.44374      5.37156        -0.001603     -0.018599      0.054511
      7.69679      4.44374      5.37156         0.000000     -0.000000      0.020663
      1.28280      0.74062      7.46636        -0.001095     -0.000632     -0.110701
      3.84839      0.74062      7.46636        -0.000000      0.015145     -0.023905
      6.41399      0.74062      7.46636         0.001095     -0.000632     -0.110701
      2.56560      2.96249      7.46636         0.013116     -0.007573     -0.023905
      5.13119      2.96249      7.46636        -0.013116     -0.007573     -0.023905
      7.69679      2.96249      7.46636         0.000000     -0.005552     -0.069277
      3.84839      5.18437      7.46636        -0.000000      0.001264     -0.110701
      6.41399      5.18437      7.46636        -0.004808      0.002776     -0.069277
      8.97958      5.18437      7.46636         0.004808      0.002776     -0.069277
      7.69679      1.47625      9.53578        -0.000000      0.018345      0.068728
      2.57143      1.48462      9.57247        -0.119309     -0.068883     -0.135078
      5.12535      1.48462      9.57247         0.119309     -0.068883     -0.135078
      8.97869      3.70363      9.55450         0.010422     -0.006017      0.057132
      3.84839      3.69638      9.57247        -0.000000      0.137766     -0.135078
      6.41488      3.70363      9.55450        -0.010422     -0.006017      0.057132
     10.26671      5.92749      9.53578        -0.015887     -0.009173      0.068728
      5.12686      5.92749      9.53578         0.015887     -0.009173      0.068728
      7.69679      5.92396      9.55450        -0.000000      0.012034      0.057132
      0.00000      0.00000     11.64309         0.000000     -0.000000     -0.023386
      6.39641      6.62889     11.65568        -0.067340     -0.098084      0.051981
      8.99717      6.62889     11.65568         0.067340     -0.098084      0.051981
      8.93899      2.22500     11.65568        -0.118613     -0.009276      0.051981
      6.45458      2.22500     11.65568         0.118613     -0.009276      0.051981
     10.23937      4.47733     11.65568        -0.051273      0.107360      0.051981
      5.15420      4.47733     11.65568         0.051273      0.107360      0.051981
      7.69679      4.44374     11.66757         0.000000     -0.000000     -0.039263
      3.84839      2.22187     11.91603         0.000000     -0.000000      0.059854
      3.84839      2.22187     13.98885         0.000000     -0.000000     -0.090216
      3.84839      2.22187     15.25582         0.000000     -0.000000      0.042448
      3.84839      2.22187     16.21325         0.000000     -0.000000     -0.021353
    total drift:                                0.039360      0.031342      0.041587

  FREE ENERGIE OF THE ION-ELECTRON SYSTEM (eV)
  free  energy   TOTEN  =      -148.78831309 eV

  energy  without entropy=     -148.78831309  energy(sigma->0) =     -148.78831309

 stress matrix after NEB project (eV)
     -4.41521      0.00000     -0.00000
      0.00000     -4.41521     -0.00000
     -0.00000     -0.00000     -2.20262
  FORCES: max atom, RMS     0.090216    0.016327
  FORCE total and by dimension    0.101964    0.090216
  Stress total and by dimension    6.621154    4.415210
|           W    W    AA    RRRRR   N    N  II  N    N   GGGG   !!!           |
|           W    W   A  A   R    R  NN   N  II  NN   N  G    G  !!!           |
|           W    W  A    A  R    R  N N  N  II  N N  N  G       !!!           |
|           W WW W  AAAAAA  RRRRR   N  N N  II  N  N N  G  GGG   !            |
|           WW  WW  A    A  R   R   N   NN  II  N   NN  G    G                |
|           W    W  A    A  R    R  N    N  II  N    N   GGGG   !!!           |
|     Tetrahedron method does not include variations of the Fermi             |
|     occupations, so forces and stress will be inaccurate. We suggest        |
|     using a different smearing scheme ISMEAR = 1 or 2 for metals in         |
|     relaxations.                                                            |

 total charge

# of ion       s       p       d       tot
    1        0.449   0.282   9.190   9.921
    2        0.446   0.286   9.187   9.919
    3        0.446   0.286   9.187   9.919
    4        0.446   0.286   9.187   9.919
    5        0.451   0.286   9.181   9.919
    6        0.446   0.286   9.187   9.919
    7        0.446   0.286   9.187   9.919
    8        0.446   0.286   9.187   9.919
    9        0.448   0.283   9.190   9.921
   10        0.443   0.372   9.176   9.990
   11        0.443   0.364   9.182   9.989
   12        0.443   0.372   9.176   9.990
   13        0.443   0.364   9.182   9.989
   14        0.443   0.364   9.182   9.989
   15        0.440   0.372   9.175   9.988
   16        0.443   0.372   9.176   9.990
   17        0.440   0.372   9.175   9.988
   18        0.440   0.372   9.175   9.988
   19        0.443   0.372   9.177   9.993
   20        0.458   0.381   9.166  10.005
   21        0.458   0.381   9.166  10.005
   22        0.433   0.374   9.178   9.985
   23        0.458   0.381   9.166  10.005
   24        0.433   0.374   9.178   9.985
   25        0.443   0.372   9.177   9.993
   26        0.443   0.372   9.177   9.993
   27        0.433   0.374   9.178   9.985
   28        0.444   0.296   9.183   9.924
   29        0.480   0.315   9.169   9.964
   30        0.480   0.315   9.169   9.964
   31        0.480   0.315   9.169   9.964
   32        0.480   0.315   9.169   9.964
   33        0.480   0.315   9.169   9.964
   34        0.480   0.315   9.169   9.964
   35        0.444   0.298   9.185   9.926
   36        0.601   0.625   2.247   3.473
   37        0.943   1.386   0.000   2.329
   38        1.526   3.748   0.000   5.274
   39        0.566   0.137   0.000   0.703
tot         19.413  17.652 323.471 360.536

 BZINTS: Fermi energy:   -0.142352;  400.000000 electrons
         Band energy:-0.128361E+04;  BLOECHL correction:   -0.036982