 vasp.6.2.0 18Jan21 (build Jun 12 2021 23:27:24) complex

 executed on             LinuxIFC date 2022.05.30  18:38:15

 INCAR:
   ISMEAR = -5
   SIGMA = 0.1
   ISPIN = 1
   EDIFF = 1.d-5
   NSW = 0
   NELM = 150
   ENCUT = 500
   ISIF = 2
   IBRION = 2
   LREAL = Auto
   ALGO = Fast
   ICHARG = 11
   LORBIT = 10
   LCHARG = .F.
   LWAVE = .F.

 POTCAR:    PAW_PBE Cu 22Jun2005
 POTCAR:    PAW_PBE W 08Apr2002
 POTCAR:    PAW_PBE O 08Apr2002
|           W    W    AA    RRRRR   N    N  II  N    N   GGGG   !!!           |
|           W    W   A  A   R    R  NN   N  II  NN   N  G    G  !!!           |
|           W    W  A    A  R    R  N N  N  II  N N  N  G       !!!           |
|           W WW W  AAAAAA  RRRRR   N  N N  II  N  N N  G  GGG   !            |
|           WW  WW  A    A  R   R   N   NN  II  N   NN  G    G                |
|           W    W  A    A  R    R  N    N  II  N    N   GGGG   !!!           |
|     For optimal performance we recommend to set                             |
|       NCORE = 2 up to number-of-cores-per-socket                            |
|     This setting can greatly improve the performance of VASP for DFT.       |
|     The default, NCORE=1 might be grossly inefficient on modern             |
|     multi-core architectures or massively parallel machines. Do your        |
|     Unfortunately you need to use the default for GW and RPA                |
|     calculations (for HF NCORE is supported but not extensively tested      |
|     yet).                                                                   |

 POTCAR:    PAW_PBE Cu 22Jun2005
   VRHFIN =Cu: d10 p1

   TITEL  = PAW_PBE Cu 22Jun2005
   POMASS =   63.546; ZVAL   =   11.000    mass and valenz
   ENMAX  =  295.446; ENMIN  =  221.585 eV

 POTCAR:    PAW_PBE W 08Apr2002
   VRHFIN =W : 6s5d

   TITEL  = PAW_PBE W 08Apr2002
   POMASS =  183.850; ZVAL   =    6.000    mass and valenz
   ENMAX  =  223.057; ENMIN  =  167.293 eV

 POTCAR:    PAW_PBE O 08Apr2002
   VRHFIN =O: s2p4

   TITEL  = PAW_PBE O 08Apr2002
   POMASS =   16.000; ZVAL   =    6.000    mass and valenz
   ENMAX  =  400.000; ENMIN  =  300.000 eV

 Optimization of the real space projectors (new method)

 maximal supplied QI-value         = 16.25
 optimisation between [QCUT,QGAM] = [ 11.38, 22.75] = [ 36.24,144.96] Ry
 Optimized for a Real-space Cutoff    1.52 Angstroem

   l    n(q)    QCUT    max X(q) W(low)/X(q) W(high)/X(q)  e(spline)
   2      9    11.376     4.610    0.21E-03    0.10E-03    0.26E-06
   2      9    11.376     8.522    0.33E-03    0.16E-03    0.37E-06
   0     10    11.376    51.609    0.62E-04    0.20E-04    0.13E-06
   0     10    11.376    27.747    0.54E-04    0.20E-04    0.13E-06
   1     10    11.376    20.408    0.13E-04    0.99E-04    0.19E-06
   1     10    11.376    13.425    0.12E-04    0.87E-04    0.17E-06
 Optimization of the real space projectors (new method)

[...]

   l    n(q)    QCUT    max X(q) W(low)/X(q) W(high)/X(q)  e(spline)
   2     10    11.429   130.855    0.22E-03    0.64E-03    0.11E-05
   2     10    11.429   114.007    0.22E-03    0.64E-03    0.11E-05
   0     11    11.429    84.709    0.39E-04    0.67E-04    0.23E-06
   0     11    11.429    49.163    0.35E-04    0.62E-04    0.21E-06
   1     10    11.429    15.765    0.84E-04    0.15E-03    0.24E-06
   1     10    11.429    10.638    0.58E-04    0.12E-03    0.19E-06
 Optimization of the real space projectors (new method)

 maximal supplied QI-value         = 24.76
 optimisation between [QCUT,QGAM] = [ 11.39, 22.77] = [ 36.31,145.25] Ry
 Optimized for a Real-space Cutoff    1.00 Angstroem

   l    n(q)    QCUT    max X(q) W(low)/X(q) W(high)/X(q)  e(spline)
   0      7    11.387    20.381    0.39E-03    0.13E-02    0.15E-06
   0      7    11.387    15.268    0.42E-03    0.14E-02    0.17E-06
   1      6    11.387     5.964    0.41E-03    0.11E-02    0.17E-06
   1      6    11.387     5.382    0.39E-03    0.87E-03    0.15E-06
  PAW_PBE Cu 22Jun2005                  :
  PAW_PBE W 08Apr2002                   :
  PAW_PBE O 08Apr2002                   :

 POSCAR: Cu-W-O2
  positions in direct lattice
  velocities in cartesian coordinates
 exchange correlation table for  LEXCH =        8
   RHO(1)=    0.500       N(1)  =     2000
   RHO(2)=  100.500       N(2)  =     4000

 VTST: version 3.2, (02/03/18)

 CHAIN: initializing optimizer

 OPT: Using VASP Conjugate-Gradient optimizer
 CHAIN: Read ICHAIN            0

 POSCAR: Cu-W-O2
  positions in direct lattice
  velocities in cartesian coordinates

 ion  position               nearest neighbor table
   1  0.000  0.000  0.226-   7 2.57   3 2.57   4 2.57   2 2.57   6 2.57   8 2.57  12 2.57  10 2.57
                            16 2.57
   2  0.333  0.000  0.226-   8 2.57   9 2.57   5 2.57   1 2.57   3 2.57  11 2.57   4 2.57  10 2.57
                            17 2.57
   3  0.667  0.000  0.226-   1 2.57   7 2.57   6 2.57   9 2.57   2 2.57  12 2.57   5 2.57  18 2.57
                            11 2.57
   4  0.000  0.333  0.226-   5 2.57   6 2.57   1 2.57   7 2.57   2 2.57  13 2.57   9 2.57  10 2.57
                            15 2.57
   5  0.333  0.333  0.226-   4 2.57   2 2.57   7 2.57  13 2.57   8 2.57   6 2.57   3 2.57  11 2.57
                            14 2.57
   6  0.667  0.333  0.226-   4 2.57   9 2.57  15 2.57   3 2.57   1 2.57   8 2.57  14 2.57   5 2.57
                            12 2.57
   7  0.000  0.667  0.226-   1 2.57   3 2.57  16 2.57  18 2.57   4 2.57   5 2.57   8 2.57   9 2.57
                            13 2.57
   8  0.333  0.667  0.226-   9 2.57   2 2.57  17 2.57   6 2.57   1 2.57   7 2.57   5 2.57  14 2.57
                            16 2.57
   9  0.667  0.667  0.226-   8 2.57   6 2.57   2 2.57  17 2.57   3 2.57   7 2.57   4 2.57  15 2.57
                            18 2.57
  10  0.111  0.111  0.314-  20 2.54  11 2.57  12 2.57  13 2.57   1 2.57   2 2.57   4 2.57  15 2.57
                            16 2.57  17 2.57  26 2.57  19 2.57
  11  0.444  0.111  0.314-  20 2.55  21 2.55  10 2.57  13 2.57   2 2.57  17 2.57  14 2.57  12 2.57
                             5 2.57   3 2.57  18 2.57  27 2.58
  12  0.778  0.111  0.314-  21 2.54  15 2.57  10 2.57  14 2.57  18 2.57   3 2.57   1 2.57  16 2.57
                            11 2.57   6 2.57  19 2.57  25 2.57
  13  0.111  0.444  0.314-  23 2.55  20 2.55  16 2.57  18 2.57  10 2.57  11 2.57  14 2.57   5 2.57
                             4 2.57   7 2.57  15 2.57  22 2.58
  14  0.444  0.444  0.314-  21 2.55  23 2.55  15 2.57  17 2.57  12 2.57  16 2.57  13 2.57  11 2.57
                             6 2.57   8 2.57   5 2.57  24 2.58
  15  0.778  0.444  0.314-  19 2.57  14 2.57  17 2.57  12 2.57   6 2.57  18 2.57  10 2.57   9 2.57
                            13 2.57   4 2.57  24 2.57  22 2.57
  16  0.111  0.778  0.314-  23 2.54  18 2.57  13 2.57   7 2.57  14 2.57  17 2.57  12 2.57  10 2.57
                             8 2.57   1 2.57  25 2.57  26 2.57
  17  0.444  0.778  0.314-  26 2.57  14 2.57  15 2.57   8 2.57   9 2.57  11 2.57  16 2.57  18 2.57
                            10 2.57   2 2.57  27 2.57  24 2.57
  18  0.778  0.778  0.314-  25 2.57  16 2.57  13 2.57   7 2.57  15 2.57  12 2.57  17 2.57   9 2.57
                             3 2.57  11 2.57  22 2.57  27 2.57
  19  0.889  0.223  0.402-  21 2.55  20 2.55  22 2.56  24 2.56  15 2.57  12 2.57  10 2.57  25 2.57
                            26 2.57  28 2.57  32 2.60  31 2.60
  20  0.221  0.221  0.401-  10 2.54  36 2.54  11 2.55  13 2.55  26 2.55  19 2.55  27 2.57  22 2.57
                            23 2.59  21 2.59  29 2.62  31 2.62
  21  0.558  0.221  0.401-  12 2.54  36 2.54  14 2.55  11 2.55  19 2.55  25 2.55  24 2.57  27 2.57
                            20 2.59  23 2.59  32 2.62  30 2.62
  22  0.888  0.556  0.402-  24 2.56  27 2.56  19 2.56  25 2.56  35 2.56  23 2.57  20 2.57  18 2.57
                            15 2.57  13 2.58  31 2.59  33 2.59
  23  0.221  0.558  0.401-  16 2.54  36 2.54  13 2.55  14 2.55  25 2.55  26 2.55  22 2.57  24 2.57
                            20 2.59  21 2.59  33 2.62  34 2.62
  24  0.556  0.556  0.402-  22 2.56  27 2.56  19 2.56  26 2.56  35 2.56  21 2.57  23 2.57  15 2.57
                            17 2.57  14 2.58  32 2.59  34 2.59
  25  0.889  0.889  0.402-  21 2.55  23 2.55  22 2.56  27 2.56  18 2.57  16 2.57  12 2.57  19 2.57
                            26 2.57  28 2.57  33 2.60  30 2.60
  26  0.223  0.889  0.402-  20 2.55  23 2.55  27 2.56  24 2.56  17 2.57  10 2.57  16 2.57  25 2.57
                            19 2.57  28 2.57  29 2.60  34 2.60
  27  0.556  0.888  0.402-  24 2.56  22 2.56  26 2.56  25 2.56  35 2.56  20 2.57  21 2.57  17 2.57
                            18 2.57  11 2.58  29 2.59  30 2.59
  28  0.000  0.000  0.490-  33 2.56  30 2.56  31 2.56  29 2.56  32 2.56  34 2.56  25 2.57  19 2.57
                            26 2.57
  29  0.333  1.000  0.492-  34 2.56  28 2.56  35 2.57  31 2.57  36 2.57  30 2.57  27 2.59  26 2.60
                            20 2.62
  30  0.667  1.000  0.492-  33 2.56  28 2.56  35 2.57  32 2.57  36 2.57  29 2.57  27 2.59  25 2.60
                            21 2.62
  31  1.000  0.333  0.492-  32 2.56  28 2.56  35 2.57  29 2.57  36 2.57  33 2.57  22 2.59  19 2.60
                            20 2.62
  32  0.667  0.333  0.492-  31 2.56  28 2.56  35 2.57  30 2.57  36 2.57  34 2.57  24 2.59  19 2.60
                            21 2.62
  33  1.000  0.667  0.492-  30 2.56  28 2.56  35 2.57  34 2.57  36 2.57  31 2.57  22 2.59  25 2.60
                            23 2.62
  34  0.333  0.667  0.492-  29 2.56  28 2.56  35 2.57  33 2.57  36 2.57  32 2.57  24 2.59  26 2.60
                            23 2.62
  35  0.667  0.667  0.491-  24 2.56  27 2.56  22 2.56  34 2.57  32 2.57  29 2.57  30 2.57  33 2.57
                            31 2.57
  36  0.333  0.333  0.487-  37 2.00  38 2.00  23 2.54  20 2.54  21 2.54  31 2.57  29 2.57  33 2.57
                            34 2.57  32 2.57  30 2.57
  37  0.237  0.333  0.565-  38 1.49  36 2.00
  38  0.430  0.333  0.565-  37 1.49  36 2.00

  LATTYP: Found a hexagonal cell.
 ALAT       =     7.6967864036
 C/A-ratio  =     3.0908716217

  Lattice vectors:

 A1 = (  -3.8483927580,  -6.6656128093,   0.0000000000)
 A2 = (   7.6967864037,   0.0000000000,   0.0000000000)
 A3 = (   0.0000000000,   0.0000000000,  23.7897786731)

Analysis of symmetry for initial positions (statically):
 Subroutine PRICEL returns:
 Original cell was already a primitive cell.

 Routine SETGRP: Setting up the symmetry group for a
 hexagonal supercell.

 Subroutine GETGRP returns: Found  2 space group operations
 (whereof  2 operations were pure point group operations)
 out of a pool of 24 trial point group operations.

The static configuration has the point symmetry C_1h.

Analysis of symmetry for dynamics (positions and initial velocities):
 Subroutine PRICEL returns:
 Original cell was already a primitive cell.

[...]

The dynamic configuration has the point symmetry C_1h.

Analysis of constrained symmetry for selective dynamics:
 Subroutine PRICEL returns:
 Original cell was already a primitive cell.

 Routine SETGRP: Setting up the symmetry group for a
 hexagonal supercell.

[...]
     33      -4.6235      2.00000
     34      -4.6051      2.00000
     35      -4.5845      2.00000
     36      -4.5815      2.00000
     37      -4.5591      2.00000
     38      -4.5478      2.00000
     39      -4.5165      2.00000
     40      -4.5028      2.00000
     41      -4.4199      2.00000
     42      -4.3106      2.00000
     43      -4.2824      2.00000
     44      -4.2691      2.00000
     45      -4.2018      2.00000
     46      -4.1954      2.00000
     47      -4.1778      2.00000
     48      -4.1606      2.00000
     49      -4.1461      2.00000
     50      -4.1344      2.00000
     51      -4.0383      2.00000
     52      -3.9804      2.00000
     53      -3.9634      2.00000
     54      -3.9575      2.00000
     55      -3.9194      2.00000
     56      -3.8980      2.00000
     57      -3.8799      2.00000
     58      -3.8573      2.00000
     59      -3.8476      2.00000
     60      -3.8430      2.00000
[...]
    238       5.3787      0.00000
    239       5.5046      0.00000
    240       5.6900      0.00000
    241       5.7775      0.00000
    242       5.8836      0.00000
    243       6.0389      0.00000
    244       6.0727      0.00000
    245       6.1368      0.00000
    246       6.1875      0.00000
    247       6.3570      0.00000
    248       6.4477      0.00000
    249       6.6008      0.00000
    250       6.7548      0.00000
    251       6.8587      0.00000
    252       6.9265      0.00000

 soft charge-density along one line, spin component           1
         0         1         2         3         4         5         6         7         8         9
 total charge-density along one line

------------------------ aborting loop because EDIFF is reached ----------------------------------------

 total charge

# of ion       s       p       d       tot
    1        0.451   0.282   9.188   9.922
    2        0.448   0.286   9.186   9.920
    3        0.448   0.286   9.186   9.920
    4        0.448   0.285   9.186   9.919
    5        0.449   0.285   9.183   9.916
    6        0.448   0.285   9.186   9.919
    7        0.448   0.285   9.186   9.920
    8        0.448   0.285   9.186   9.920
    9        0.448   0.284   9.188   9.920
   10        0.444   0.370   9.178   9.991
   11        0.440   0.367   9.184   9.991
   12        0.444   0.370   9.178   9.991
   13        0.441   0.367   9.183   9.991
   14        0.441   0.367   9.183   9.991
   15        0.437   0.368   9.178   9.983
   16        0.444   0.370   9.176   9.991
   17        0.437   0.367   9.179   9.984
   18        0.437   0.367   9.179   9.984
   19        0.440   0.362   9.184   9.987
   20        0.471   0.408   9.155  10.033
   21        0.471   0.408   9.155  10.033
   22        0.429   0.371   9.178   9.978
   23        0.474   0.412   9.150  10.036
   24        0.429   0.371   9.178   9.978
   25        0.440   0.364   9.183   9.987
   26        0.440   0.364   9.183   9.987
   27        0.430   0.367   9.183   9.980
   28        0.455   0.288   9.182   9.924
   29        0.462   0.313   9.175   9.950
   30        0.462   0.313   9.175   9.950
   31        0.462   0.314   9.177   9.954
   32        0.462   0.314   9.177   9.954
   33        0.462   0.313   9.176   9.951
   34        0.462   0.313   9.176   9.951
   35        0.446   0.292   9.182   9.920
   36        0.697   0.698   4.151   5.546
   37        1.614   3.238   0.000   4.853
   38        1.614   3.238   0.000   4.853
tot         19.621  18.936 325.416 363.972

  FORCE on cell =-STRESS in cart. coord.  units (eV):
  Direction    XX          YY          ZZ          XY          YZ          ZX
  Alpha Z   823.74153   823.74153   823.74153
  Ewald  222067.58033221721.65840************     0.00039     0.98596     0.00018
  Hartree234775.71930234609.01566************     0.00004     1.46288     0.00006
  E(xc)   -2332.60861 -2332.82837 -2337.23534    -0.00033     0.11394    -0.00004
  Local  ************************469598.70112     0.02040    -1.95367    -0.00074
  n-local  -803.25880  -809.62216  -820.22192     1.76553     0.46706     0.10075
  augment  3322.12170  3325.99432  3346.06603    -0.01857    -0.06495     0.00042
  Kinetic  3444.13003  3487.27144  3488.21805     0.78630    -1.01442    -0.30079
  Fock        0.00000     0.00000     0.00000     0.00000     0.00000     0.00000
  Total      -2.18737    -3.22750    -0.16539     0.00000    -0.00320     0.00000
  in kB      -2.87139    -4.23678    -0.21711     0.00000    -0.00420     0.00000

 VOLUME and BASIS-vectors are now :
  energy-cutoff  :      500.00
  volume of cell :     1220.51
      direct lattice vectors                 reciprocal lattice vectors
     7.696786404  0.000000000  0.000000000     0.129924354 -0.075011849  0.000000000
     3.848392758  6.665612809  0.000000000     0.000000000  0.150023716  0.000000000
     0.000000000  0.000000000 23.789778673     0.000000000  0.000000000  0.042034859

  length of vectors
     7.696786404  7.696786404 23.789778673     0.150023716  0.150023716  0.042034859

 FORCES acting on ions
    electron-ion (+dipol)            ewald-force                    non-local-force                 convergence-correction
   -.416E-04 -.961E-01 0.375E+04   0.580E-04 -.364E-01 -.374E+04   -.448E-08 0.672E-01 -.249E+01   -.419E-03 0.595E-01 -.218E+00
   -.405E+00 -.848E-01 0.374E+04   0.385E+00 -.421E-01 -.374E+04   0.119E-01 0.114E+00 -.186E+01   0.103E-01 0.226E-01 -.160E+00
   0.405E+00 -.848E-01 0.374E+04   -.385E+00 -.421E-01 -.374E+04   -.119E-01 0.114E+00 -.186E+01   -.934E-02 0.251E-01 -.159E+00
   -.289E+00 -.345E+00 0.374E+04   0.187E+00 0.338E+00 -.374E+04   0.103E+00 -.621E-01 -.195E+01   0.112E-01 0.645E-01 -.206E+00
   -.638E-04 -.135E+00 0.374E+04   0.116E-03 0.155E-02 -.374E+04   -.332E-08 0.498E-01 -.178E+01   0.122E-01 0.818E-01 -.904E-01
   0.289E+00 -.345E+00 0.374E+04   -.187E+00 0.338E+00 -.374E+04   -.103E+00 -.621E-01 -.195E+01   -.129E-01 0.656E-01 -.204E+00
   0.128E+00 0.505E+00 0.374E+04   -.197E+00 -.296E+00 -.374E+04   0.105E+00 -.981E-01 -.180E+01   -.194E-01 -.111E+00 -.173E+00
   -.127E+00 0.505E+00 0.374E+04   0.197E+00 -.296E+00 -.374E+04   -.105E+00 -.981E-01 -.180E+01   0.229E-01 -.113E+00 -.172E+00
   -.144E-03 0.563E-01 0.374E+04   0.263E-03 0.349E-01 -.374E+04   -.118E-09 0.177E-02 -.218E+01   -.132E-01 -.925E-01 -.217E+00
   0.473E+00 0.420E+00 0.130E+04   -.629E-02 -.289E+00 -.130E+04   -.544E+00 -.229E+00 -.916E+00   0.322E-01 0.779E-01 -.103E+00
   -.847E-04 -.622E+00 0.129E+04   0.190E-03 0.137E+00 -.129E+04   -.209E-07 0.314E+00 -.205E+00   0.124E-01 0.866E-01 -.134E+00
   -.473E+00 0.420E+00 0.130E+04   0.613E-02 -.289E+00 -.130E+04   0.544E+00 -.229E+00 -.916E+00   -.345E-01 0.793E-01 -.102E+00
   -.823E+00 0.284E+00 0.129E+04   0.382E+00 -.113E-01 -.129E+04   0.324E+00 -.182E+00 -.275E+00   0.582E-01 -.503E-01 -.167E+00
   0.823E+00 0.284E+00 0.129E+04   -.382E+00 -.113E-01 -.129E+04   -.324E+00 -.182E+00 -.275E+00   -.340E-01 -.520E-01 -.168E+00
   -.140E-03 -.202E+01 0.129E+04   0.298E-03 0.195E+01 -.129E+04   -.216E-08 0.324E-01 -.870E+00   -.379E-02 0.183E-01 -.156E+00
   -.901E-04 -.625E+00 0.130E+04   0.186E-03 0.830E-01 -.130E+04   -.442E-07 0.664E+00 -.986E+00   -.767E-03 -.636E-01 -.652E-01
   -.166E+01 0.939E+00 0.129E+04   0.152E+01 -.785E+00 -.129E+04   0.840E-01 -.113E+00 -.752E+00   0.496E-01 -.416E-01 -.833E-01
   0.166E+01 0.939E+00 0.129E+04   -.153E+01 -.785E+00 -.129E+04   -.840E-01 -.113E+00 -.752E+00   -.482E-01 -.382E-01 -.808E-01
   -.636E-04 -.345E+01 -.116E+04   0.695E-04 0.338E+01 0.116E+04   0.226E-09 -.339E-02 0.138E+01   -.128E-01 0.176E-01 -.148E+00
   -.391E+02 -.212E+02 -.118E+04   0.401E+02 0.215E+02 0.118E+04   -.110E+01 -.331E+00 -.369E+00   -.487E-01 -.570E-01 -.225E+00
   0.391E+02 -.212E+02 -.118E+04   -.401E+02 0.215E+02 0.118E+04   0.110E+01 -.331E+00 -.369E+00   0.523E-01 -.586E-01 -.226E+00
   -.203E+02 0.988E+01 -.117E+04   0.200E+02 -.954E+01 0.117E+04   0.500E+00 -.426E+00 0.983E+00   -.968E-01 0.495E-01 -.963E-01
   -.886E-04 0.423E+02 -.118E+04   0.147E-03 -.439E+02 0.118E+04   -.107E-06 0.160E+01 -.768E+00   -.198E-03 0.107E+00 -.332E+00
   0.203E+02 0.988E+01 -.117E+04   -.200E+02 -.954E+01 0.117E+04   -.500E+00 -.426E+00 0.983E+00   0.965E-01 0.462E-01 -.963E-01
   0.408E+01 0.311E+01 -.116E+04   -.388E+01 -.310E+01 0.116E+04   -.139E+00 0.399E-01 0.114E+01   -.603E-01 -.134E-01 -.134E+00
   -.408E+01 0.311E+01 -.116E+04   0.388E+01 -.310E+01 0.116E+04   0.139E+00 0.399E-01 0.114E+01   0.371E-01 -.151E-01 -.134E+00
   -.115E-03 -.236E+02 -.118E+04   0.240E-03 0.228E+02 0.117E+04   -.649E-07 0.975E+00 0.111E+01   0.130E-01 -.602E-01 -.799E-01
   -.446E-04 0.847E+01 -.357E+04   0.352E-04 -.853E+01 0.357E+04   -.396E-08 0.594E-01 0.153E+01   -.595E-03 -.972E-02 0.242E+00
   -.110E+02 -.272E+00 -.355E+04   0.112E+02 -.630E+00 0.355E+04   -.359E+00 0.674E+00 0.242E+01   -.234E-01 -.148E+00 0.230E+00
   0.110E+02 -.272E+00 -.355E+04   -.112E+02 -.630E+00 0.355E+04   0.359E+00 0.674E+00 0.242E+01   0.248E-01 -.147E+00 0.228E+00
   0.502E+01 0.103E+00 -.353E+04   -.597E+01 0.118E+00 0.352E+04   0.500E+00 -.320E+00 0.340E+01   -.175E+00 0.858E-01 0.294E+00
   -.502E+01 0.103E+00 -.353E+04   0.597E+01 0.118E+00 0.352E+04   -.500E+00 -.320E+00 0.340E+01   0.175E+00 0.862E-01 0.293E+00
   -.121E+02 0.580E+00 -.355E+04   0.119E+02 0.954E-01 0.355E+04   0.190E+00 -.408E+00 0.251E+01   -.167E+00 0.111E+00 0.306E+00
   0.121E+02 0.580E+00 -.355E+04   -.119E+02 0.954E-01 0.355E+04   -.190E+00 -.408E+00 0.251E+01   0.169E+00 0.110E+00 0.306E+00
   -.156E-03 -.829E+01 -.359E+04   0.256E-03 0.827E+01 0.358E+04   -.506E-08 0.760E-01 0.212E+01   -.124E-01 -.425E-01 0.326E+00
   -.333E-04 -.645E+00 -.172E+04   0.757E-04 0.605E+00 0.172E+04   -.174E-08 0.262E-01 0.209E+01   0.651E-03 -.321E-01 0.132E+00
   0.168E+03 -.137E+00 -.231E+04   -.199E+03 0.251E+00 0.233E+04   0.301E+02 -.115E+00 -.203E+02   0.647E-02 0.191E-01 0.183E+00
   -.168E+03 -.137E+00 -.231E+04   0.199E+03 0.251E+00 0.233E+04   -.301E+02 -.115E+00 -.203E+02   -.618E-02 0.192E-01 0.182E+00
   0.757E-04 -.102E+01 0.379E+02   -.284E-13 -.262E-12 -.455E-12   -.630E-07 0.947E+00 -.366E+02   0.396E-02 0.872E-01 -.141E+01

 POSITION                                       TOTAL-FORCE (eV/Angst)
      0.00000      0.00000      5.37156         0.000000     -0.006059     -0.024097
      2.56560      0.00000      5.37156         0.002249      0.010586      0.067730
      5.13119      0.00000      5.37156        -0.002249      0.010586      0.067730
      1.28280      2.22187      5.37156         0.012340     -0.005104      0.061196
      3.84839      2.22187      5.37156         0.000000     -0.002254      0.041198
      6.41399      2.22187      5.37156        -0.012340     -0.005104      0.061196
      2.56560      4.44374      5.37156         0.014083     -0.001158      0.064813
      5.13119      4.44374      5.37156        -0.014083     -0.001158      0.064813
      7.69679      4.44374      5.37156        -0.000000      0.000066      0.016000
      1.28280      0.74062      7.46636        -0.044471     -0.019316     -0.091634
      3.84839      0.74062      7.46636         0.000000     -0.084584     -0.094609
      6.41399      0.74062      7.46636         0.044471     -0.019316     -0.091634
      2.56560      2.96249      7.46636        -0.070355      0.038705     -0.078976
      5.13119      2.96249      7.46636         0.070355      0.038705     -0.078976
      7.69679      2.96249      7.46636         0.000000     -0.018476      0.050359
      3.84839      5.18437      7.46636        -0.000000      0.058177     -0.066515
      6.41399      5.18437      7.46636        -0.005622     -0.000053      0.040828
      8.97958      5.18437      7.46636         0.005622     -0.000053      0.040828
      7.69679      1.48345      9.56239         0.000000     -0.060443      0.029657
      2.55319      1.47409      9.53589        -0.109840     -0.084477     -0.250949
      5.14360      1.47409      9.53589         0.109840     -0.084477     -0.250949
      8.97438      3.70612      9.57309         0.082869     -0.036652      0.063045
      3.84839      3.71744      9.53589        -0.000000      0.146206     -0.191588
      6.41919      3.70612      9.57309        -0.082869     -0.036652      0.063045
     10.26047      5.92389      9.56239         0.008025      0.036339      0.032119
      5.13310      5.92389      9.56239        -0.008025      0.036339      0.032119
      7.69679      5.91898      9.57309        -0.000000      0.113448      0.033881
      0.00000      0.00000     11.66245         0.000000     -0.004999     -0.050660
      6.40959      6.66262     11.69844        -0.162519     -0.374707     -0.315777
      8.98399      6.66262     11.69844         0.162519     -0.374707     -0.315777
      8.97479      2.21956     11.69844        -0.618807     -0.013020     -0.457576
      6.41878      2.21956     11.69844         0.618807     -0.013020     -0.457576
     10.26199      4.44905     11.69844        -0.150142      0.376819     -0.337874
      5.13158      4.44905     11.69844         0.150142      0.376819     -0.337874
      7.69679      4.44374     11.67118        -0.000000      0.014201     -0.004355
      3.84839      2.22187     11.59207         0.000000     -0.046899      2.661365
      3.10521      2.21681     13.44520         0.020056      0.017847      0.002738
      4.59158      2.21681     13.44520        -0.020056      0.017847      0.002738
    total drift:                                0.004039      0.010609     -0.039638

  FREE ENERGIE OF THE ION-ELECTRON SYSTEM (eV)
  free  energy   TOTEN  =      -144.72751470 eV

  energy  without entropy=     -144.72751470  energy(sigma->0) =     -144.72751470

 stress matrix after NEB project (eV)
     -2.18737      0.00000      0.00000
      0.00000     -3.22750     -0.00320
      0.00000     -0.00320     -0.16539
  FORCES: max atom, RMS     0.026986    0.006191
  FORCE total and by dimension    0.038164    0.020056
  Stress total and by dimension    3.902395    3.227496
|           W    W    AA    RRRRR   N    N  II  N    N   GGGG   !!!           |
|           W    W   A  A   R    R  NN   N  II  NN   N  G    G  !!!           |
|           W    W  A    A  R    R  N N  N  II  N N  N  G       !!!           |
|           W WW W  AAAAAA  RRRRR   N  N N  II  N  N N  G  GGG   !            |
|           WW  WW  A    A  R   R   N   NN  II  N   NN  G    G                |
|           W    W  A    A  R    R  N    N  II  N    N   GGGG   !!!           |
|     Tetrahedron method does not include variations of the Fermi             |
|     occupations, so forces and stress will be inaccurate. We suggest        |
|     using a different smearing scheme ISMEAR = 1 or 2 for metals in         |
|     relaxations.                                                            |

 total charge

# of ion       s       p       d       tot
    1        0.451   0.282   9.188   9.922
    2        0.448   0.286   9.186   9.920
    3        0.448   0.286   9.186   9.920
    4        0.448   0.285   9.186   9.919
    5        0.449   0.285   9.183   9.916
    6        0.448   0.285   9.186   9.919
    7        0.448   0.285   9.186   9.920
    8        0.448   0.285   9.186   9.920
    9        0.448   0.284   9.188   9.920
   10        0.444   0.370   9.178   9.991
   11        0.440   0.367   9.184   9.991
   12        0.444   0.370   9.178   9.991
   13        0.441   0.367   9.183   9.991
   14        0.441   0.367   9.183   9.991
   15        0.437   0.368   9.178   9.983
   16        0.444   0.370   9.176   9.991
   17        0.437   0.367   9.179   9.984
   18        0.437   0.367   9.179   9.984
   19        0.440   0.362   9.184   9.987
   20        0.471   0.408   9.155  10.033
   21        0.471   0.408   9.155  10.033
   22        0.429   0.371   9.178   9.978
   23        0.474   0.412   9.150  10.036
   24        0.429   0.371   9.178   9.978
   25        0.440   0.364   9.183   9.987
   26        0.440   0.364   9.183   9.987
   27        0.430   0.367   9.183   9.980
   28        0.455   0.288   9.182   9.924
   29        0.462   0.313   9.175   9.950
   30        0.462   0.313   9.175   9.950
   31        0.462   0.314   9.177   9.954
   32        0.462   0.314   9.177   9.954
   33        0.462   0.313   9.176   9.951
   34        0.462   0.313   9.176   9.951
   35        0.446   0.292   9.182   9.920
   36        0.697   0.698   4.151   5.546
   37        1.614   3.238   0.000   4.853
   38        1.614   3.238   0.000   4.853
tot         19.621  18.936 325.416 363.972

 BZINTS: Fermi energy:   -0.432501;  403.000000 electrons
         Band energy:-0.142344E+04;  BLOECHL correction:   -0.027030