 vasp.6.2.0 18Jan21 (build Jun 12 2021 23:27:24) complex

 executed on             LinuxIFC date 2022.05.30  16:19:56

 INCAR:
   ISMEAR = -5
   SIGMA = 0.1
   ISPIN = 1
   EDIFF = 1.d-5
   EDIFFG = -0.01
   NSW = 0
   NELM = 150
   ENCUT = 500
   ISIF = 2
   IBRION = 2
   LREAL = Auto
   ALGO = Fast
   ICHARG = 11
   LORBIT = 10
   LCHARG = .F.
   LWAVE = .F.

 POTCAR:    PAW_PBE Au 04Oct2007
 POTCAR:    PAW_PBE Rh 04Feb2005
 POTCAR:    PAW_PBE C 08Apr2002
|           W    W    AA    RRRRR   N    N  II  N    N   GGGG   !!!           |
|           W    W   A  A   R    R  NN   N  II  NN   N  G    G  !!!           |
|           W    W  A    A  R    R  N N  N  II  N N  N  G       !!!           |
|           W WW W  AAAAAA  RRRRR   N  N N  II  N  N N  G  GGG   !            |
|           WW  WW  A    A  R   R   N   NN  II  N   NN  G    G                |
|           W    W  A    A  R    R  N    N  II  N    N   GGGG   !!!           |
|     For optimal performance we recommend to set                             |
|       NCORE = 2 up to number-of-cores-per-socket                            |
|     This setting can greatly improve the performance of VASP for DFT.       |
|     The default, NCORE=1 might be grossly inefficient on modern             |
|     multi-core architectures or massively parallel machines. Do your        |
|     Unfortunately you need to use the default for GW and RPA                |
|     calculations (for HF NCORE is supported but not extensively tested      |
|     yet).                                                                   |

 POTCAR:    PAW_PBE Au 04Oct2007
   VRHFIN =Au: s1d10

   TITEL  = PAW_PBE Au 04Oct2007
   POMASS =  196.966; ZVAL   =   11.000    mass and valenz
   ENMAX  =  229.943; ENMIN  =  172.457 eV

 POTCAR:    PAW_PBE Rh 04Feb2005
   VRHFIN =Rh: s1 d8

   TITEL  = PAW_PBE Rh 04Feb2005
   POMASS =  102.906; ZVAL   =    9.000    mass and valenz
   ENMAX  =  228.996; ENMIN  =  171.747 eV

 POTCAR:    PAW_PBE C 08Apr2002
   VRHFIN =C: s2p2

   TITEL  = PAW_PBE C 08Apr2002
   POMASS =   12.011; ZVAL   =    4.000    mass and valenz
   ENMAX  =  400.000; ENMIN  =  300.000 eV

 Optimization of the real space projectors (new method)

 maximal supplied QI-value         = 15.12
 optimisation between [QCUT,QGAM] = [ 11.34, 22.83] = [ 36.00,145.93] Ry
 Optimized for a Real-space Cutoff    1.39 Angstroem

   l    n(q)    QCUT    max X(q) W(low)/X(q) W(high)/X(q)  e(spline)
   2      9    11.338    60.898    0.39E-03    0.42E-03    0.21E-06
   2      9    11.338    58.894    0.40E-03    0.42E-03    0.22E-06
   0      9    11.338   109.617    0.13E-03    0.20E-04    0.13E-06
   0      9    11.338    75.026    0.13E-03    0.20E-04    0.13E-06
   1      9    11.338    16.344    0.33E-04    0.24E-03    0.18E-06
   1      9    11.338    10.160    0.26E-04    0.19E-03    0.15E-06
 Optimization of the real space projectors (new method)

[...]

   l    n(q)    QCUT    max X(q) W(low)/X(q) W(high)/X(q)  e(spline)
   2      9    11.327    59.645    0.31E-03    0.12E-04    0.28E-06
   2      9    11.327    58.460    0.31E-03    0.12E-04    0.29E-06
   0     10    11.327    97.683    0.32E-04    0.83E-04    0.31E-06
   0     10    11.327    53.223    0.30E-04    0.78E-04    0.29E-06
   1     10    11.327    13.596    0.49E-03    0.95E-03    0.55E-06
   1     10    11.327     7.885    0.36E-03    0.71E-03    0.41E-06
 Optimization of the real space projectors (new method)

 maximal supplied QI-value         = 25.13
 optimisation between [QCUT,QGAM] = [ 11.31, 22.87] = [ 35.82,146.48] Ry
 Optimized for a Real-space Cutoff    1.00 Angstroem

   l    n(q)    QCUT    max X(q) W(low)/X(q) W(high)/X(q)  e(spline)
   0      7    11.310   115.676    0.43E-03    0.13E-02    0.19E-06
   0      7    11.310    87.132    0.43E-03    0.13E-02    0.18E-06
   1      6    11.310     4.429    0.42E-03    0.74E-03    0.11E-06
   1      6    11.310     2.733    0.34E-03    0.55E-03    0.92E-07
  PAW_PBE Au 04Oct2007                  :
  PAW_PBE Rh 04Feb2005                  :
  PAW_PBE C 08Apr2002                   :

 POSCAR: Au-Rh-C
  positions in direct lattice
  velocities in cartesian coordinates
 exchange correlation table for  LEXCH =        8
   RHO(1)=    0.500       N(1)  =     2000
   RHO(2)=  100.500       N(2)  =     4000

 VTST: version 3.2, (02/03/18)

 CHAIN: initializing optimizer

 OPT: Using VASP Conjugate-Gradient optimizer
 CHAIN: Read ICHAIN            0

 POSCAR: Au-Rh-C
  positions in direct lattice
  velocities in cartesian coordinates

 ion  position               nearest neighbor table
   1  0.000  0.000  0.217-  16 2.94  12 2.94   6 2.94   8 2.94   7 2.94   3 2.94  10 2.94   4 2.94
                             2 2.94
   2  0.333  0.000  0.217-   9 2.94  11 2.94  17 2.94  10 2.94   8 2.94   4 2.94   5 2.94   1 2.94
                             3 2.94
   3  0.667  0.000  0.217-   7 2.94  18 2.94  12 2.94   1 2.94  11 2.94   5 2.94   6 2.94   9 2.94
                             2 2.94
   4  0.000  0.333  0.217-  10 2.94   6 2.94   5 2.94  13 2.94   2 2.94  15 2.94   9 2.94   1 2.94
                             7 2.94
   5  0.333  0.333  0.217-  13 2.94   7 2.94  11 2.94   4 2.94   2 2.94  14 2.94   3 2.94   8 2.94
                             6 2.94
   6  0.667  0.333  0.217-  15 2.94  14 2.94   1 2.94  12 2.94   4 2.94   9 2.94   8 2.94   3 2.94
                             5 2.94
   7  0.000  0.667  0.217-  18 2.94   3 2.94  16 2.94   5 2.94   1 2.94  13 2.94   8 2.94   4 2.94
                             9 2.94
   8  0.333  0.667  0.217-   9 2.94  17 2.94   1 2.94   2 2.94  14 2.94  16 2.94   6 2.94   7 2.94
                             5 2.94
   9  0.667  0.667  0.217-   2 2.94   8 2.94  17 2.94   6 2.94  15 2.94   4 2.94   3 2.94  18 2.94
                             7 2.94
  10  0.111  0.111  0.316-  20 2.91  26 2.93  19 2.93  11 2.94  17 2.94   2 2.94   4 2.94   1 2.94
                            12 2.94  16 2.94  13 2.94  15 2.94
  11  0.444  0.111  0.316-  20 2.91  21 2.91  27 2.93  13 2.94   2 2.94  10 2.94  17 2.94   5 2.94
                             3 2.94  18 2.94  14 2.94  12 2.94
  12  0.778  0.111  0.316-  21 2.91  25 2.93  19 2.93  16 2.94  18 2.94   1 2.94  14 2.94  15 2.94
                             3 2.94   6 2.94  10 2.94  11 2.94
  13  0.111  0.444  0.316-  23 2.91  20 2.91  22 2.93   5 2.94  18 2.94  11 2.94   7 2.94   4 2.94
                            16 2.94  10 2.94  14 2.94  15 2.94
  14  0.444  0.444  0.316-  21 2.91  23 2.91  24 2.93  15 2.94   6 2.94  12 2.94   8 2.94  17 2.94
                             5 2.94  16 2.94  13 2.94  11 2.94
  15  0.778  0.444  0.316-  24 2.93  22 2.93  19 2.93  14 2.94   6 2.94  17 2.94  12 2.94   9 2.94
                             4 2.94  10 2.94  13 2.94  18 2.94
  16  0.111  0.778  0.316-  23 2.91  25 2.93  26 2.93  18 2.94  12 2.94   7 2.94   1 2.94   8 2.94
                            13 2.94  10 2.94  14 2.94  17 2.94
  17  0.444  0.778  0.316-  27 2.93  24 2.93  26 2.93   9 2.94  15 2.94   2 2.94  10 2.94  11 2.94
                             8 2.94  14 2.94  16 2.94  18 2.94
  18  0.778  0.778  0.316-  22 2.93  27 2.93  25 2.93  16 2.94   7 2.94  13 2.94  12 2.94   3 2.94
                            11 2.94   9 2.94  15 2.94  17 2.94
  19  0.889  0.222  0.414-  15 2.93  10 2.93  12 2.93  21 2.94  20 2.94  24 2.94  22 2.94  26 2.94
                            25 2.94  28 2.96  32 2.96  31 2.96
  20  0.222  0.222  0.413-  36 2.79  10 2.91  11 2.91  13 2.91  26 2.94  19 2.94  23 2.94  21 2.94
                            27 2.94  22 2.94  29 2.95  31 2.95
  21  0.556  0.222  0.413-  36 2.79  12 2.91  14 2.91  11 2.91  25 2.94  19 2.94  20 2.94  23 2.94
                            27 2.94  24 2.94  30 2.95  32 2.95
  22  0.888  0.556  0.414-  24 2.92  27 2.92  18 2.93  15 2.93  13 2.93  25 2.94  19 2.94  23 2.94
                            20 2.94  33 2.95  31 2.95  35 2.96
  23  0.222  0.556  0.413-  36 2.79  16 2.91  13 2.91  14 2.91  25 2.94  26 2.94  20 2.94  21 2.94
                            22 2.94  24 2.94  33 2.95  34 2.95
  24  0.556  0.556  0.414-  27 2.92  22 2.92  15 2.93  17 2.93  14 2.93  26 2.94  19 2.94  21 2.94
                            23 2.94  32 2.95  34 2.95  35 2.96
  25  0.889  0.889  0.414-  18 2.93  16 2.93  12 2.93  23 2.94  21 2.94  22 2.94  27 2.94  19 2.94
                            26 2.94  28 2.96  33 2.96  30 2.96
  26  0.222  0.889  0.414-  17 2.93  10 2.93  16 2.93  20 2.94  23 2.94  27 2.94  24 2.94  19 2.94
                            25 2.94  28 2.96  29 2.96  34 2.96
  27  0.556  0.888  0.414-  24 2.92  22 2.92  17 2.93  18 2.93  11 2.93  26 2.94  25 2.94  20 2.94
                            21 2.94  29 2.95  30 2.95  35 2.96
  28  0.000  0.000  0.514-  34 2.95  32 2.95  33 2.95  30 2.95  31 2.95  29 2.95  25 2.96  19 2.96
                            26 2.96
  29  0.333  0.004  0.513-  31 2.90  30 2.90  36 2.91  20 2.95  27 2.95  28 2.95  35 2.96  26 2.96
                            34 3.01
  30  0.663  0.004  0.513-  32 2.90  29 2.90  36 2.91  21 2.95  27 2.95  28 2.95  35 2.96  25 2.96
                            33 3.01
  31  0.004  0.333  0.513-  29 2.90  33 2.90  36 2.91  20 2.95  22 2.95  28 2.95  35 2.96  19 2.96
                            32 3.01
  32  0.663  0.333  0.513-  30 2.90  34 2.90  36 2.91  21 2.95  24 2.95  28 2.95  35 2.96  19 2.96
                            31 3.01
  33  0.004  0.663  0.513-  34 2.90  31 2.90  36 2.91  23 2.95  22 2.95  28 2.95  35 2.96  25 2.96
                            30 3.01
  34  0.333  0.663  0.513-  33 2.90  32 2.90  36 2.91  23 2.95  24 2.95  28 2.95  35 2.96  26 2.96
                            29 3.01
  35  0.667  0.667  0.514-  29 2.96  34 2.96  32 2.96  31 2.96  30 2.96  33 2.96  24 2.96  27 2.96
                            22 2.96
  36  0.333  0.333  0.504-  37 1.68  20 2.79  23 2.79  21 2.79  33 2.91  31 2.91  29 2.91  30 2.91
                            34 2.91  32 2.91
  37  0.333  0.333  0.574-  36 1.68

  LATTYP: Found a hexagonal cell.
 ALAT       =     8.8135128021
 C/A-ratio  =     2.7586513333

  Lattice vectors:

 A1 = (  -4.4067569092,  -7.6327256898,   0.0000000000)
 A2 = (   8.8135128021,   0.0000000000,   0.0000000000)
 A3 = (   0.0000000000,   0.0000000000,  24.3134088421)

Analysis of symmetry for initial positions (statically):
 Subroutine PRICEL returns:
 Original cell was already a primitive cell.

 Routine SETGRP: Setting up the symmetry group for a
 hexagonal supercell.

 Subroutine GETGRP returns: Found  6 space group operations
 (whereof  6 operations were pure point group operations)
 out of a pool of 24 trial point group operations.

The static configuration has the point symmetry C_3v.

Analysis of symmetry for dynamics (positions and initial velocities):
 Subroutine PRICEL returns:
 Original cell was already a primitive cell.

[...]

The dynamic configuration has the point symmetry C_3v.

Analysis of constrained symmetry for selective dynamics:
 Subroutine PRICEL returns:
 Original cell was already a primitive cell.

 Routine SETGRP: Setting up the symmetry group for a
 hexagonal supercell.

 Subroutine GETGRP returns: Found  6 space group operations
[...]
     24      -5.5366      2.00000
     25      -5.5106      2.00000
     26      -5.4883      2.00000
     27      -5.4506      2.00000
     28      -5.3737      2.00000
     29      -5.3461      2.00000
     30      -5.2370      2.00000
     31      -5.2249      2.00000
     32      -5.2127      2.00000
     33      -5.2047      2.00000
     34      -5.1942      2.00000
     35      -5.1781      2.00000
     36      -5.0748      2.00000
     37      -5.0712      2.00000
     38      -4.9907      2.00000
     39      -4.9841      2.00000
     40      -4.9317      2.00000
     41      -4.9106      2.00000
     42      -4.8560      2.00000
     43      -4.8377      2.00000
     44      -4.8154      2.00000
     45      -4.7443      2.00000
     46      -4.7310      2.00000
     47      -4.6347      2.00000
     48      -4.6257      2.00000
     49      -4.5924      2.00000
     50      -4.5760      2.00000
     51      -4.5733      2.00000
     52      -4.5691      2.00000
     53      -4.5531      2.00000
     54      -4.5082      2.00000
     55      -4.4961      2.00000
     56      -4.4331      2.00000
     57      -4.4229      2.00000
     58      -4.4138      2.00000
     59      -4.4012      2.00000
     60      -4.3963      2.00000
[...]
    238       6.0062      0.00000
    239       6.0678      0.00000
    240       6.0884      0.00000
    241       6.2171      0.00000
    242       6.3339      0.00000
    243       6.3764      0.00000
    244       6.4007      0.00000
    245       6.4093      0.00000
    246       6.7432      0.00000
    247       6.7843      0.00000
    248       6.8621      0.00000
    249       6.8897      0.00000
    250       6.9339      0.00000
    251       6.9659      0.00000
    252       7.0730      0.00000

 soft charge-density along one line, spin component           1
         0         1         2         3         4         5         6         7         8         9
 total charge-density along one line

------------------------ aborting loop because EDIFF is reached ----------------------------------------

 total charge

# of ion       s       p       d       tot
    1        0.543   0.240   8.764   9.547
    2        0.543   0.241   8.765   9.548
    3        0.543   0.241   8.765   9.548
    4        0.543   0.241   8.765   9.548
    5        0.543   0.240   8.765   9.548
    6        0.543   0.241   8.765   9.548
    7        0.543   0.241   8.765   9.548
    8        0.543   0.241   8.765   9.548
    9        0.542   0.241   8.765   9.548
   10        0.520   0.308   8.773   9.601
   11        0.517   0.310   8.776   9.603
   12        0.520   0.308   8.773   9.601
   13        0.517   0.310   8.776   9.603
   14        0.517   0.310   8.776   9.603
   15        0.516   0.309   8.772   9.597
   16        0.520   0.308   8.773   9.601
   17        0.516   0.309   8.772   9.597
   18        0.516   0.309   8.772   9.597
   19        0.519   0.301   8.778   9.597
   20        0.539   0.325   8.760   9.624
   21        0.539   0.325   8.760   9.624
   22        0.512   0.309   8.772   9.593
   23        0.539   0.325   8.760   9.624
   24        0.512   0.309   8.772   9.593
   25        0.519   0.301   8.778   9.597
   26        0.519   0.301   8.778   9.597
   27        0.512   0.309   8.772   9.593
   28        0.544   0.229   8.767   9.540
   29        0.540   0.239   8.770   9.549
   30        0.540   0.239   8.770   9.549
   31        0.540   0.239   8.770   9.549
   32        0.540   0.239   8.770   9.549
   33        0.540   0.239   8.770   9.549
   34        0.540   0.239   8.770   9.549
   35        0.542   0.228   8.771   9.541
   36        0.479   0.572   7.646   8.697
   37        1.040   1.166   0.000   2.207
tot         20.103  11.382 314.577 346.063

  FORCE on cell =-STRESS in cart. coord.  units (eV):
  Direction    XX          YY          ZZ          XY          YZ          ZX
  Alpha Z   921.84214   921.84214   921.84214
  Ewald  151324.42009151324.42051************    -0.00033    -0.00009    -0.00014
  Hartree159749.71212159749.71212************     0.00000    -0.00002    -0.00003
  E(xc)   -1784.70551 -1784.70549 -1791.53126    -0.00002    -0.00000    -0.00000
  Local  ************************323753.99609     0.00180     0.00004     0.00003
  n-local   -75.32733   -26.87273   -20.17095    23.64548    -1.42452     1.65045
  augment  2429.60776  2429.60929  2432.55013    -0.00133     0.00000     0.00007
  Kinetic  5517.45055  5526.92938  5546.59611     5.22120     0.27594     0.35326
  Fock        0.00000     0.00000     0.00000     0.00000     0.00000     0.00000
  Total     -17.79253   -17.79253     1.89970    -0.00000     0.00000    -0.00000
  in kB     -17.42905   -17.42905     1.86089    -0.00000     0.00000    -0.00000

 VOLUME and BASIS-vectors are now :
  energy-cutoff  :      500.00
  volume of cell :     1635.59
      direct lattice vectors                 reciprocal lattice vectors
     8.813512802  0.000000000  0.000000000     0.113462137 -0.065507406  0.000000000
     4.406756909  7.632725690  0.000000000     0.000000000  0.131014796  0.000000000
     0.000000000  0.000000000 24.313408842     0.000000000  0.000000000  0.041129568

  length of vectors
     8.813512802  8.813512802 24.313408842     0.131014796  0.131014796  0.041129568

 FORCES acting on ions
    electron-ion (+dipol)            ewald-force                    non-local-force                 convergence-correction
   -.198E-04 -.163E-04 0.266E+04   0.519E-04 0.433E-04 -.266E+04   -.111E-17 -.439E-19 -.518E+00   -.203E-03 -.131E-03 -.441E+00
   0.270E+00 0.436E+00 0.266E+04   -.281E+00 -.378E+00 -.266E+04   0.348E-02 -.578E-02 -.353E+00   0.844E-02 -.499E-01 -.431E+00
   -.270E+00 0.436E+00 0.266E+04   0.281E+00 -.378E+00 -.266E+04   -.348E-02 -.578E-02 -.353E+00   -.815E-02 -.479E-01 -.430E+00
   0.513E+00 0.157E-01 0.266E+04   -.468E+00 -.539E-01 -.266E+04   -.327E-02 0.590E-02 -.353E+00   -.389E-01 0.322E-01 -.431E+00
   0.753E-05 -.238E-04 0.266E+04   0.951E-04 0.171E-05 -.266E+04   -.220E-17 -.228E-18 -.458E+00   0.430E-02 0.262E-02 -.408E+00
   -.513E+00 0.158E-01 0.266E+04   0.468E+00 -.540E-01 -.266E+04   0.327E-02 0.590E-02 -.353E+00   0.374E-01 0.332E-01 -.430E+00
   0.243E+00 -.452E+00 0.266E+04   -.187E+00 0.432E+00 -.266E+04   -.674E-02 -.120E-03 -.353E+00   -.455E-01 0.169E-01 -.430E+00
   -.243E+00 -.452E+00 0.266E+04   0.187E+00 0.432E+00 -.266E+04   0.674E-02 -.120E-03 -.353E+00   0.474E-01 0.158E-01 -.430E+00
   0.195E-04 -.415E-04 0.266E+04   0.166E-03 -.201E-04 -.266E+04   -.246E-17 -.110E-17 -.410E+00   -.464E-02 -.240E-02 -.409E+00
   0.353E+01 0.204E+01 0.900E+03   -.336E+01 -.194E+01 -.899E+03   -.141E+00 -.815E-01 -.527E+00   -.454E-01 -.263E-01 -.373E+00
   0.142E-04 0.398E+01 0.904E+03   0.148E-03 -.405E+01 -.903E+03   0.381E-08 0.572E-01 -.485E+00   0.380E-02 -.287E-01 -.390E+00
   -.353E+01 0.204E+01 0.900E+03   0.336E+01 -.194E+01 -.899E+03   0.141E+00 -.815E-01 -.527E+00   0.440E-01 -.248E-01 -.373E+00
   0.345E+01 -.199E+01 0.904E+03   -.351E+01 0.203E+01 -.903E+03   0.496E-01 -.286E-01 -.485E+00   -.226E-01 0.179E-01 -.390E+00
   -.345E+01 -.199E+01 0.904E+03   0.351E+01 0.203E+01 -.903E+03   -.496E-01 -.286E-01 -.485E+00   0.305E-01 0.175E-01 -.390E+00
   0.310E-04 0.621E+00 0.900E+03   0.236E-03 -.708E+00 -.899E+03   -.277E-09 -.415E-02 -.379E+00   -.240E-02 0.653E-01 -.345E+00
   -.213E-04 -.408E+01 0.900E+03   0.163E-03 0.388E+01 -.899E+03   0.108E-07 0.163E+00 -.527E+00   0.294E-03 0.505E-01 -.373E+00
   0.538E+00 -.311E+00 0.900E+03   -.613E+00 0.354E+00 -.899E+03   -.360E-02 0.208E-02 -.379E+00   0.556E-01 -.343E-01 -.345E+00
   -.538E+00 -.311E+00 0.900E+03   0.613E+00 0.354E+00 -.899E+03   0.360E-02 0.208E-02 -.379E+00   -.557E-01 -.324E-01 -.345E+00
   -.406E-04 0.140E+01 -.886E+03   0.534E-04 -.142E+01 0.886E+03   -.420E-09 -.631E-02 0.575E+00   -.527E-03 0.807E-02 0.995E-01
   0.122E+02 0.707E+01 -.855E+03   -.116E+02 -.670E+01 0.855E+03   -.654E+00 -.378E+00 -.277E+00   -.708E-01 -.410E-01 0.855E-01
   -.122E+02 0.707E+01 -.855E+03   0.116E+02 -.670E+01 0.855E+03   0.654E+00 -.378E+00 -.277E+00   0.717E-01 -.391E-01 0.852E-01
   0.344E+01 -.199E+01 -.880E+03   -.362E+01 0.209E+01 0.879E+03   0.259E+00 -.149E+00 0.625E+00   -.849E-01 0.446E-01 0.953E-01
   -.136E-04 -.141E+02 -.855E+03   0.144E-03 0.134E+02 0.855E+03   0.503E-07 0.755E+00 -.277E+00   0.177E-02 0.816E-01 0.852E-01
   -.345E+01 -.199E+01 -.880E+03   0.362E+01 0.209E+01 0.879E+03   -.259E+00 -.149E+00 0.625E+00   0.779E-01 0.451E-01 0.953E-01
   -.121E+01 -.699E+00 -.886E+03   0.123E+01 0.710E+00 0.886E+03   0.547E-02 0.316E-02 0.575E+00   -.515E-02 -.304E-02 0.991E-01
   0.121E+01 -.699E+00 -.886E+03   -.123E+01 0.710E+00 0.886E+03   -.547E-02 0.316E-02 0.575E+00   0.705E-02 -.446E-02 0.995E-01
   0.697E-05 0.398E+01 -.880E+03   0.200E-03 -.418E+01 0.879E+03   0.199E-07 0.299E+00 0.625E+00   -.438E-02 -.959E-01 0.953E-01
   -.104E-04 -.119E-04 -.264E+04   0.275E-04 0.331E-04 0.264E+04   -.218E-17 0.285E-18 0.492E+00   0.122E-03 0.527E-04 0.405E+00
   0.152E+02 0.260E+02 -.262E+04   -.151E+02 -.259E+02 0.262E+04   -.215E+00 -.359E+00 0.608E+00   -.166E-01 -.836E-01 0.376E+00
   -.152E+02 0.260E+02 -.262E+04   0.151E+02 -.259E+02 0.262E+04   0.215E+00 -.359E+00 0.608E+00   0.167E-01 -.816E-01 0.377E+00
   0.301E+02 0.146E+00 -.262E+04   -.300E+02 -.152E+00 0.262E+04   -.418E+00 -.691E-02 0.608E+00   -.806E-01 0.274E-01 0.376E+00
   -.301E+02 0.146E+00 -.262E+04   0.300E+02 -.152E+00 0.262E+04   0.418E+00 -.691E-02 0.608E+00   0.793E-01 0.285E-01 0.376E+00
   0.149E+02 -.262E+02 -.262E+04   -.148E+02 0.260E+02 0.262E+04   -.203E+00 0.366E+00 0.608E+00   -.622E-01 0.553E-01 0.377E+00
   -.149E+02 -.262E+02 -.262E+04   0.148E+02 0.260E+02 0.262E+04   0.203E+00 0.366E+00 0.608E+00   0.643E-01 0.544E-01 0.376E+00
   0.297E-04 -.296E-04 -.264E+04   0.147E-03 -.483E-04 0.264E+04   0.185E-17 -.140E-17 0.523E+00   -.476E-02 -.245E-02 0.389E+00
   -.119E-05 -.158E-04 -.191E+04   0.917E-04 0.821E-05 0.192E+04   0.123E-17 -.134E-18 -.441E+01   0.330E-02 0.201E-02 0.318E+00
   0.453E-04 -.299E-04 -.121E+04   0.163E-04 0.103E-05 0.123E+04   -.500E-18 -.164E-18 -.124E+02   0.820E-03 0.498E-03 0.952E-01
   -.698E-03 -.798E-03 0.202E+02   -.102E-12 0.235E-12 0.773E-11   -.219E-15 -.169E-17 -.170E+02   0.133E-02 0.141E-02 -.286E+01

 POSITION                                       TOTAL-FORCE (eV/Angst)
      0.00000      0.00000      5.28038        -0.000000     -0.000000     -0.042114
      2.93784      0.00000      5.28038         0.001805      0.003346     -0.016867
      5.87568      0.00000      5.28038        -0.001805      0.003346     -0.016867
      1.46892      2.54424      5.28038         0.003800     -0.000109     -0.016867
      4.40676      2.54424      5.28038        -0.000000     -0.000000     -0.053791
      7.34459      2.54424      5.28038        -0.003800     -0.000109     -0.016867
      2.93784      5.08848      5.28038         0.001995     -0.003236     -0.016867
      5.87568      5.08848      5.28038        -0.001995     -0.003236     -0.016867
      8.81351      5.08848      5.28038        -0.000000     -0.000000     -0.014463
      1.46892      0.84808      7.67911        -0.010364     -0.005984      0.045852
      4.40676      0.84808      7.67911        -0.000000     -0.044079      0.016370
      7.34459      0.84808      7.67911         0.010364     -0.005984      0.045852
      2.93784      3.39232      7.67911        -0.038174      0.022040      0.016370
      5.87568      3.39232      7.67911         0.038174      0.022040      0.016370
      8.81351      3.39232      7.67911        -0.000000     -0.025172      0.070666
      4.40676      5.93656      7.67911         0.000000      0.011967      0.045852
      7.34459      5.93656      7.67911        -0.021800      0.012586      0.070666
     10.28243      5.93656      7.67911         0.021800      0.012586      0.070666
      8.81351      1.69621     10.07295        -0.000000     -0.020261     -0.029362
      2.93663      1.69546     10.04742        -0.093847     -0.054182     -0.130250
      5.87688      1.69546     10.04742         0.093847     -0.054182     -0.130250
     10.27557      4.24437     10.06760         0.005103     -0.002946     -0.025595
      4.40676      4.24180     10.04742         0.000000      0.108365     -0.130250
      7.35146      4.24437     10.06760        -0.005103     -0.002946     -0.025595
     11.75131      6.78462     10.07295         0.017546      0.010130     -0.029362
      5.87571      6.78462     10.07295        -0.017546      0.010130     -0.029362
      8.81351      6.77672     10.06760         0.000000      0.005893     -0.025595
      0.00000      0.00000     12.49471        -0.000000     -0.000000     -0.051940
      2.95476      0.03042     12.47845        -0.151234     -0.290105     -0.108680
      5.85875      0.03042     12.47845         0.151233     -0.290105     -0.108680
      1.50372      2.54369     12.47845        -0.326855      0.014081     -0.108680
      7.30979      2.54369     12.47845         0.326855      0.014081     -0.108680
      2.95572      5.05862     12.47845        -0.175622      0.276025     -0.108680
      5.85780      5.05862     12.47845         0.175622      0.276025     -0.108680
      8.81351      5.08848     12.49462        -0.000000     -0.000000     -0.032277
      4.40676      2.54424     12.26123        -0.000000     -0.000000      1.142439
      4.40676      2.54424     13.94537        -0.000000     -0.000000     -0.037613
    total drift:                                0.000629      0.000612      0.292320

  FREE ENERGIE OF THE ION-ELECTRON SYSTEM (eV)
  free  energy   TOTEN  =      -119.86104649 eV

  energy  without entropy=     -119.86104649  energy(sigma->0) =     -119.86104649

 stress matrix after NEB project (eV)
    -17.79253     -0.00000     -0.00000
     -0.00000    -17.79253      0.00000
     -0.00000      0.00000      1.89970
  FORCES: max atom, RMS     0.037613    0.006184
  FORCE total and by dimension    0.037613    0.037613
  Stress total and by dimension   25.234051   17.792534
|           W    W    AA    RRRRR   N    N  II  N    N   GGGG   !!!           |
|           W    W   A  A   R    R  NN   N  II  NN   N  G    G  !!!           |
|           W    W  A    A  R    R  N N  N  II  N N  N  G       !!!           |
|           W WW W  AAAAAA  RRRRR   N  N N  II  N  N N  G  GGG   !            |
|           WW  WW  A    A  R   R   N   NN  II  N   NN  G    G                |
|           W    W  A    A  R    R  N    N  II  N    N   GGGG   !!!           |
|     Tetrahedron method does not include variations of the Fermi             |
|     occupations, so forces and stress will be inaccurate. We suggest        |
|     using a different smearing scheme ISMEAR = 1 or 2 for metals in         |
|     relaxations.                                                            |

 total charge

# of ion       s       p       d       tot
    1        0.543   0.240   8.764   9.547
    2        0.543   0.241   8.765   9.548
    3        0.543   0.241   8.765   9.548
    4        0.543   0.241   8.765   9.548
    5        0.543   0.240   8.765   9.548
    6        0.543   0.241   8.765   9.548
    7        0.543   0.241   8.765   9.548
    8        0.543   0.241   8.765   9.548
    9        0.542   0.241   8.765   9.548
   10        0.520   0.308   8.773   9.601
   11        0.517   0.310   8.776   9.603
   12        0.520   0.308   8.773   9.601
   13        0.517   0.310   8.776   9.603
   14        0.517   0.310   8.776   9.603
   15        0.516   0.309   8.772   9.597
   16        0.520   0.308   8.773   9.601
   17        0.516   0.309   8.772   9.597
   18        0.516   0.309   8.772   9.597
   19        0.519   0.301   8.778   9.597
   20        0.539   0.325   8.760   9.624
   21        0.539   0.325   8.760   9.624
   22        0.512   0.309   8.772   9.593
   23        0.539   0.325   8.760   9.624
   24        0.512   0.309   8.772   9.593
   25        0.519   0.301   8.778   9.597
   26        0.519   0.301   8.778   9.597
   27        0.512   0.309   8.772   9.593
   28        0.544   0.229   8.767   9.540
   29        0.540   0.239   8.770   9.549
   30        0.540   0.239   8.770   9.549
   31        0.540   0.239   8.770   9.549
   32        0.540   0.239   8.770   9.549
   33        0.540   0.239   8.770   9.549
   34        0.540   0.239   8.770   9.549
   35        0.542   0.228   8.771   9.541
   36        0.479   0.572   7.646   8.697
   37        1.040   1.166   0.000   2.207
tot         20.103  11.382 314.577 346.063

 BZINTS: Fermi energy:    0.220438;  398.000000 electrons
         Band energy:-0.139422E+04;  BLOECHL correction:   -0.109483