 vasp.6.2.0 18Jan21 (build Jun 12 2021 23:27:24) complex

 executed on             LinuxIFC date 2022.05.26  20:11:03

 INCAR:
   ISMEAR = -5
   SIGMA = 0.1
   ISPIN = 1
   EDIFF = 1.d-5
   EDIFFG = -0.01
   NSW = 0
   NELM = 150
   ENCUT = 500
   ISIF = 2
   IBRION = 2
   LREAL = Auto
   ALGO = Fast
   ICHARG = 11
   LORBIT = 10
   LCHARG = .F.
   LWAVE = .F.

 POTCAR:    PAW_PBE Au 04Oct2007
 POTCAR:    PAW_PBE Cr 06Sep2000
|           W    W    AA    RRRRR   N    N  II  N    N   GGGG   !!!           |
|           W    W   A  A   R    R  NN   N  II  NN   N  G    G  !!!           |
|           W    W  A    A  R    R  N N  N  II  N N  N  G       !!!           |
|           W WW W  AAAAAA  RRRRR   N  N N  II  N  N N  G  GGG   !            |
|           WW  WW  A    A  R   R   N   NN  II  N   NN  G    G                |
|           W    W  A    A  R    R  N    N  II  N    N   GGGG   !!!           |
|     For optimal performance we recommend to set                             |
|       NCORE = 2 up to number-of-cores-per-socket                            |
|     This setting can greatly improve the performance of VASP for DFT.       |
|     The default, NCORE=1 might be grossly inefficient on modern             |
|     multi-core architectures or massively parallel machines. Do your        |
|     Unfortunately you need to use the default for GW and RPA                |
|     calculations (for HF NCORE is supported but not extensively tested      |
|     yet).                                                                   |

 POTCAR:    PAW_PBE Au 04Oct2007
   VRHFIN =Au: s1d10

   TITEL  = PAW_PBE Au 04Oct2007
   POMASS =  196.966; ZVAL   =   11.000    mass and valenz
   ENMAX  =  229.943; ENMIN  =  172.457 eV

 POTCAR:    PAW_PBE Cr 06Sep2000
   VRHFIN =Cr : d5 s1

   TITEL  = PAW_PBE Cr 06Sep2000
   POMASS =   51.996; ZVAL   =    6.000    mass and valenz
   ENMAX  =  227.080; ENMIN  =  170.310 eV

 Optimization of the real space projectors (new method)

 maximal supplied QI-value         = 15.12
 optimisation between [QCUT,QGAM] = [ 11.34, 22.83] = [ 36.00,145.93] Ry
 Optimized for a Real-space Cutoff    1.39 Angstroem

   l    n(q)    QCUT    max X(q) W(low)/X(q) W(high)/X(q)  e(spline)
   2      9    11.338    60.898    0.39E-03    0.42E-03    0.21E-06
   2      9    11.338    58.894    0.40E-03    0.42E-03    0.22E-06
   0      9    11.338   109.617    0.13E-03    0.20E-04    0.13E-06
   0      9    11.338    75.026    0.13E-03    0.20E-04    0.13E-06
   1      9    11.338    16.344    0.33E-04    0.24E-03    0.18E-06
   1      9    11.338    10.160    0.26E-04    0.19E-03    0.15E-06
 Optimization of the real space projectors (new method)

 maximal supplied QI-value         = 15.12
 optimisation between [QCUT,QGAM] = [ 11.34, 22.83] = [ 36.00,145.93] Ry
 Optimized for a Real-space Cutoff    1.43 Angstroem

   l    n(q)    QCUT    max X(q) W(low)/X(q) W(high)/X(q)  e(spline)
   2      9    11.338    94.395    0.18E-03    0.10E-02    0.64E-06
   2      9    11.338    88.078    0.18E-03    0.10E-02    0.65E-06
   0     10    11.338    50.173    0.13E-03    0.16E-03    0.96E-07
   0     10    11.338    24.906    0.12E-03    0.14E-03    0.88E-07
   1      9    11.338    12.133    0.13E-03    0.15E-03    0.24E-06
   1      9    11.338     7.290    0.10E-03    0.10E-03    0.18E-06
  PAW_PBE Au 04Oct2007                  :
  PAW_PBE Cr 06Sep2000                  :

 POSCAR: Au-Cr
  positions in direct lattice
  velocities in cartesian coordinates
 exchange correlation table for  LEXCH =        8
   RHO(1)=    0.500       N(1)  =     2000
   RHO(2)=  100.500       N(2)  =     4000

 VTST: version 3.2, (02/03/18)

 CHAIN: initializing optimizer

 OPT: Using VASP Conjugate-Gradient optimizer
 CHAIN: Read ICHAIN            0

 POSCAR: Au-Cr
  positions in direct lattice
  velocities in cartesian coordinates

 ion  position               nearest neighbor table
   1  0.000  0.000  0.238-  16 2.94  12 2.94   6 2.94   8 2.94   7 2.94   3 2.94  10 2.94   4 2.94
                             2 2.94
   2  0.333  0.000  0.238-   9 2.94  11 2.94  17 2.94  10 2.94   8 2.94   4 2.94   5 2.94   1 2.94
                             3 2.94
   3  0.667  0.000  0.238-   7 2.94  18 2.94  12 2.94   1 2.94  11 2.94   5 2.94   6 2.94   9 2.94
                             2 2.94
   4  0.000  0.333  0.238-  10 2.94   6 2.94   5 2.94  13 2.94   2 2.94  15 2.94   9 2.94   1 2.94
                             7 2.94
   5  0.333  0.333  0.238-  13 2.94   7 2.94  11 2.94   4 2.94   2 2.94  14 2.94   3 2.94   8 2.94
                             6 2.94
   6  0.667  0.333  0.238-  15 2.94  14 2.94   1 2.94  12 2.94   4 2.94   9 2.94   8 2.94   3 2.94
                             5 2.94
   7  0.000  0.667  0.238-  18 2.94   3 2.94  16 2.94   5 2.94   1 2.94  13 2.94   8 2.94   4 2.94
                             9 2.94
   8  0.333  0.667  0.238-   9 2.94  17 2.94   1 2.94   2 2.94  14 2.94  16 2.94   6 2.94   7 2.94
                             5 2.94
   9  0.667  0.667  0.238-   2 2.94   8 2.94  17 2.94   6 2.94  15 2.94   4 2.94   3 2.94  18 2.94
                             7 2.94
  10  0.111  0.111  0.346-  20 2.92  26 2.94  19 2.94  11 2.94  17 2.94   2 2.94   4 2.94   1 2.94
                            12 2.94  16 2.94  13 2.94  15 2.94
  11  0.444  0.111  0.346-  20 2.91  21 2.91  27 2.93  13 2.94   2 2.94  10 2.94  17 2.94   5 2.94
                             3 2.94  18 2.94  14 2.94  12 2.94
  12  0.778  0.111  0.346-  21 2.92  25 2.94  19 2.94  16 2.94  18 2.94   1 2.94  14 2.94  15 2.94
                             3 2.94   6 2.94  10 2.94  11 2.94
  13  0.111  0.444  0.346-  23 2.91  20 2.91  22 2.93   5 2.94  18 2.94  11 2.94   7 2.94   4 2.94
                            16 2.94  10 2.94  14 2.94  15 2.94
  14  0.444  0.444  0.346-  21 2.91  23 2.91  24 2.93  15 2.94   6 2.94  12 2.94   8 2.94  17 2.94
                             5 2.94  16 2.94  13 2.94  11 2.94
  15  0.778  0.444  0.346-  24 2.92  22 2.92  19 2.94  14 2.94   6 2.94  17 2.94  12 2.94   9 2.94
                             4 2.94  10 2.94  13 2.94  18 2.94
  16  0.111  0.778  0.346-  23 2.92  25 2.94  26 2.94  18 2.94  12 2.94   7 2.94   1 2.94   8 2.94
                            13 2.94  10 2.94  14 2.94  17 2.94
  17  0.444  0.778  0.346-  27 2.92  24 2.92  26 2.94   9 2.94  15 2.94   2 2.94  10 2.94  11 2.94
                             8 2.94  14 2.94  16 2.94  18 2.94
  18  0.778  0.778  0.346-  22 2.92  27 2.92  25 2.94  16 2.94   7 2.94  13 2.94  12 2.94   3 2.94
                            11 2.94   9 2.94  15 2.94  17 2.94
  19  0.889  0.222  0.454-  10 2.94  12 2.94  15 2.94  26 2.94  25 2.94  24 2.94  22 2.94  28 2.95
                            21 2.95  20 2.95  32 3.00  31 3.00
  20  0.223  0.223  0.453-  36 2.71  11 2.91  13 2.91  23 2.91  21 2.91  29 2.92  31 2.92  10 2.92
                            26 2.95  19 2.95  27 2.96  22 2.96
  21  0.553  0.223  0.453-  36 2.71  14 2.91  11 2.91  20 2.91  23 2.91  30 2.92  32 2.92  12 2.92
                            25 2.95  19 2.95  27 2.96  24 2.96
  22  0.886  0.557  0.453-  24 2.90  27 2.90  18 2.92  15 2.92  13 2.93  25 2.94  19 2.94  23 2.96
                            20 2.96  35 2.96  33 2.96  31 2.96
  23  0.223  0.553  0.453-  36 2.71  13 2.91  14 2.91  20 2.91  21 2.91  33 2.92  34 2.92  16 2.92
                            25 2.95  26 2.95  22 2.96  24 2.96
  24  0.557  0.557  0.453-  27 2.90  22 2.90  15 2.92  17 2.92  14 2.93  26 2.94  19 2.94  21 2.96
                            23 2.96  35 2.96  32 2.96  34 2.96
  25  0.889  0.889  0.454-  16 2.94  12 2.94  18 2.94  19 2.94  26 2.94  22 2.94  27 2.94  28 2.95
                            23 2.95  21 2.95  33 3.00  30 3.00
  26  0.222  0.889  0.454-  10 2.94  16 2.94  17 2.94  19 2.94  25 2.94  27 2.94  24 2.94  28 2.95
                            20 2.95  23 2.95  29 3.00  34 3.00
  27  0.557  0.886  0.453-  24 2.90  22 2.90  17 2.92  18 2.92  11 2.93  26 2.94  25 2.94  20 2.96
                            21 2.96  35 2.96  29 2.96  30 2.96
  28  0.000  0.000  0.563-  25 2.95  19 2.95  26 2.95  34 2.99  32 2.99  33 2.99  30 2.99  31 2.99
                            29 2.99
  29  0.334  0.011  0.562-  30 2.84  31 2.84  36 2.86  20 2.92  27 2.96  35 2.99  28 2.99  26 3.00
                            34 3.13
  30  0.655  0.011  0.562-  29 2.84  32 2.84  36 2.86  21 2.92  27 2.96  35 2.99  28 2.99  25 3.00
                            33 3.13
  31  0.011  0.334  0.562-  33 2.84  29 2.84  36 2.86  20 2.92  22 2.96  35 2.99  28 2.99  19 3.00
                            32 3.13
  32  0.655  0.334  0.562-  34 2.84  30 2.84  36 2.86  21 2.92  24 2.96  35 2.99  28 2.99  19 3.00
                            31 3.13
  33  0.011  0.655  0.562-  31 2.84  34 2.84  36 2.86  23 2.92  22 2.96  35 2.99  28 2.99  25 3.00
                            30 3.13
  34  0.334  0.655  0.562-  32 2.84  33 2.84  36 2.86  23 2.92  24 2.96  35 2.99  28 2.99  26 3.00
                            29 3.13
  35  0.667  0.667  0.563-  24 2.96  27 2.96  22 2.96  29 2.99  34 2.99  32 2.99  31 2.99  30 2.99
                            33 2.99
  36  0.333  0.333  0.549-  20 2.71  23 2.71  21 2.71  33 2.86  31 2.86  29 2.86  30 2.86  34 2.86
                            32 2.86

  LATTYP: Found a hexagonal cell.
 ALAT       =     8.8135128021
 C/A-ratio  =     2.5184286595

  Lattice vectors:

 A1 = (  -4.4067569092,  -7.6327256898,   0.0000000000)
 A2 = (   8.8135128021,   0.0000000000,   0.0000000000)
 A3 = (   0.0000000000,   0.0000000000,  22.1962032318)

Analysis of symmetry for initial positions (statically):
 Subroutine PRICEL returns:
 Original cell was already a primitive cell.

 Routine SETGRP: Setting up the symmetry group for a
 hexagonal supercell.

 Subroutine GETGRP returns: Found  6 space group operations
 (whereof  6 operations were pure point group operations)
 out of a pool of 24 trial point group operations.

The static configuration has the point symmetry C_3v.

Analysis of symmetry for dynamics (positions and initial velocities):
 Subroutine PRICEL returns:
 Original cell was already a primitive cell.

[...]

The dynamic configuration has the point symmetry C_3v.

Analysis of constrained symmetry for selective dynamics:
 Subroutine PRICEL returns:
 Original cell was already a primitive cell.

 Routine SETGRP: Setting up the symmetry group for a
 hexagonal supercell.

 Subroutine GETGRP returns: Found  6 space group operations
 (whereof  6 operations were pure point group operations)
 out of a pool of 24 trial point group operations.

The constrained configuration has the point symmetry C_3v.

 Subroutine INISYM returns: Found  6 space group operations
 (whereof  6 operations are pure point group operations),
 and found     1 'primitive' translations

                                     Primitive cell

  volume of cell :    1493.1636

  direct lattice vectors                    reciprocal lattice vectors
     8.813512802  0.000000000  0.000000000     0.113462137 -0.065507406  0.000000000
     4.406756909  7.632725690  0.000000000     0.000000000  0.131014796  0.000000000
[...]
     15      -5.2558      2.00000
     16      -5.2505      2.00000
     17      -5.2406      2.00000
     18      -5.2277      2.00000
     19      -5.1706      2.00000
     20      -5.1670      2.00000
     21      -5.1382      2.00000
     22      -5.1253      2.00000
     23      -5.0955      2.00000
     24      -5.0573      2.00000
     25      -5.0456      2.00000
     26      -5.0041      2.00000
     27      -4.9312      2.00000
     28      -4.8980      2.00000
     29      -4.7907      2.00000
     30      -4.7802      2.00000
     31      -4.7662      2.00000
     32      -4.7535      2.00000
     33      -4.7413      2.00000
     34      -4.7228      2.00000
     35      -4.6261      2.00000
     36      -4.5968      2.00000
     37      -4.5551      2.00000
     38      -4.5402      2.00000
     39      -4.4838      2.00000
     40      -4.4135      2.00000
     41      -4.3854      2.00000
     42      -4.3328      2.00000
     43      -4.3135      2.00000
     44      -4.3076      2.00000
     45      -4.2875      2.00000
     46      -4.1853      2.00000
     47      -4.1836      2.00000
     48      -4.1491      2.00000
     49      -4.1182      2.00000
     50      -4.1152      2.00000
     51      -4.1115      2.00000
     52      -4.0859      2.00000
     53      -4.0621      2.00000
     54      -4.0142      2.00000
     55      -3.9991      2.00000
     56      -3.9803      2.00000
     57      -3.9716      2.00000
     58      -3.9541      2.00000
     59      -3.9436      2.00000
     60      -3.9330      2.00000
[...]
    238       6.7037      0.00000
    239       6.7594      0.00000
    240       6.7912      0.00000
    241       6.8200      0.00000
    242       6.9158      0.00000
    243       7.1109      0.00000
    244       7.1933      0.00000
    245       7.2898      0.00000
    246       7.5606      0.00000
    247       7.5941      0.00000
    248       7.6728      0.00000
    249       7.6891      0.00000
    250       7.8723      0.00000
    251       7.9854      0.00000
    252       7.9958      0.00000

 soft charge-density along one line, spin component           1
         0         1         2         3         4         5         6         7         8         9
 total charge-density along one line

------------------------ aborting loop because EDIFF is reached ----------------------------------------

 total charge

# of ion       s       p       d       tot
    1        0.548   0.239   8.765   9.552
    2        0.543   0.241   8.766   9.550
    3        0.543   0.241   8.766   9.550
    4        0.543   0.241   8.766   9.550
    5        0.545   0.241   8.762   9.548
    6        0.543   0.241   8.766   9.550
    7        0.543   0.241   8.766   9.550
    8        0.543   0.241   8.766   9.550
    9        0.544   0.239   8.768   9.551
   10        0.526   0.308   8.768   9.602
   11        0.521   0.308   8.781   9.610
   12        0.526   0.308   8.768   9.602
   13        0.521   0.308   8.781   9.610
   14        0.521   0.308   8.781   9.610
   15        0.517   0.309   8.776   9.602
   16        0.526   0.308   8.768   9.602
   17        0.517   0.309   8.776   9.602
   18        0.517   0.309   8.776   9.602
   19        0.517   0.299   8.774   9.591
   20        0.557   0.338   8.741   9.635
   21        0.557   0.338   8.741   9.635
   22        0.509   0.309   8.778   9.596
   23        0.557   0.338   8.741   9.635
   24        0.509   0.309   8.778   9.596
   25        0.517   0.299   8.774   9.591
   26        0.517   0.299   8.774   9.591
   27        0.509   0.309   8.778   9.596
   28        0.539   0.224   8.758   9.521
   29        0.571   0.244   8.740   9.555
   30        0.571   0.244   8.740   9.555
   31        0.571   0.244   8.740   9.555
   32        0.571   0.244   8.740   9.555
   33        0.571   0.244   8.740   9.555
   34        0.571   0.244   8.740   9.555
   35        0.535   0.223   8.761   9.520
   36        0.348   0.317   4.137   4.802
tot         19.189  10.009 310.837 340.034

  FORCE on cell =-STRESS in cart. coord.  units (eV):
  Direction    XX          YY          ZZ          XY          YZ          ZX
  Alpha Z   988.53583   988.53583   988.53583
  Ewald  118349.98620118349.98658************    -0.00033    -0.00009    -0.00017
  Hartree126878.83489126878.83489************     0.00000    -0.00002    -0.00005
  E(xc)   -1752.49066 -1752.49064 -1760.07654    -0.00002    -0.00000    -0.00000
  Local  ************************257630.22567     0.00171     0.00005     0.00011
  n-local   -83.94256   -34.83874   -33.34228    23.70464    -1.31047     1.39458
  augment  2391.77858  2391.78007  2411.20223    -0.00129     0.00003     0.00003
  Kinetic  5382.60530  5393.94657  5449.62359     6.69423    -0.22537     0.72493
  Fock        0.00000     0.00000     0.00000     0.00000     0.00000     0.00000
  Total     -23.14278   -23.14278     2.77325    -0.00000     0.00000    -0.00000
  in kB     -24.83240   -24.83240     2.97572    -0.00000     0.00000    -0.00000

 VOLUME and BASIS-vectors are now :
  energy-cutoff  :      500.00
  volume of cell :     1493.16
      direct lattice vectors                 reciprocal lattice vectors
     8.813512802  0.000000000  0.000000000     0.113462137 -0.065507406  0.000000000
     4.406756909  7.632725690  0.000000000     0.000000000  0.131014796  0.000000000
     0.000000000  0.000000000 22.196203232     0.000000000  0.000000000  0.045052750

  length of vectors
     8.813512802  8.813512802 22.196203232     0.131014796  0.131014796  0.045052750

 FORCES acting on ions
    electron-ion (+dipol)            ewald-force                    non-local-force                 convergence-correction
   -.198E-04 -.163E-04 0.246E+04   0.519E-04 0.433E-04 -.246E+04   0.290E-17 0.579E-17 -.732E+00   -.216E-03 -.138E-03 -.171E+00
   0.303E+00 -.705E-01 0.246E+04   -.451E+00 0.183E-02 -.246E+04   0.566E-01 0.853E-01 -.290E+00   0.787E-01 -.208E-01 -.216E+00
   -.303E+00 -.705E-01 0.246E+04   0.451E+00 0.182E-02 -.246E+04   -.566E-01 0.853E-01 -.290E+00   -.784E-01 -.190E-01 -.216E+00
   0.903E-01 0.297E+00 0.246E+04   -.224E+00 -.392E+00 -.246E+04   0.102E+00 0.642E-02 -.290E+00   0.214E-01 0.785E-01 -.216E+00
   0.735E-05 -.240E-04 0.246E+04   0.951E-04 0.174E-05 -.246E+04   -.122E-17 -.167E-17 -.821E-01   0.422E-02 0.257E-02 -.182E+00
   -.904E-01 0.297E+00 0.246E+04   0.224E+00 -.392E+00 -.246E+04   -.102E+00 0.642E-02 -.290E+00   -.228E-01 0.794E-01 -.215E+00
   -.212E+00 -.227E+00 0.246E+04   0.227E+00 0.390E+00 -.246E+04   0.455E-01 -.917E-01 -.290E+00   -.555E-01 -.584E-01 -.216E+00
   0.212E+00 -.227E+00 0.246E+04   -.227E+00 0.390E+00 -.246E+04   -.455E-01 -.917E-01 -.290E+00   0.573E-01 -.594E-01 -.215E+00
   0.198E-04 -.416E-04 0.246E+04   0.166E-03 -.200E-04 -.246E+04   -.182E-17 -.134E-18 -.436E+00   -.455E-02 -.235E-02 -.220E+00
   0.294E+01 0.170E+01 0.790E+03   -.251E+01 -.145E+01 -.790E+03   -.312E+00 -.180E+00 -.705E+00   -.857E-01 -.496E-01 0.355E+00
   0.145E-04 0.221E+01 0.794E+03   0.148E-03 -.219E+01 -.794E+03   0.172E-08 0.259E-01 -.205E+00   0.388E-02 -.901E-01 0.441E+00
   -.294E+01 0.170E+01 0.790E+03   0.251E+01 -.145E+01 -.790E+03   0.312E+00 -.180E+00 -.705E+00   0.845E-01 -.488E-01 0.354E+00
   0.191E+01 -.110E+01 0.794E+03   -.190E+01 0.109E+01 -.794E+03   0.224E-01 -.129E-01 -.205E+00   -.758E-01 0.487E-01 0.441E+00
   -.191E+01 -.110E+01 0.794E+03   0.190E+01 0.109E+01 -.794E+03   -.224E-01 -.129E-01 -.205E+00   0.830E-01 0.478E-01 0.439E+00
   0.319E-04 0.434E+01 0.795E+03   0.236E-03 -.453E+01 -.794E+03   0.140E-08 0.210E-01 -.530E+00   -.191E-02 0.121E+00 0.434E+00
   -.211E-04 -.339E+01 0.790E+03   0.162E-03 0.290E+01 -.790E+03   0.240E-07 0.360E+00 -.705E+00   -.279E-03 0.976E-01 0.354E+00
   0.376E+01 -.217E+01 0.795E+03   -.393E+01 0.227E+01 -.794E+03   0.182E-01 -.105E-01 -.530E+00   0.104E+00 -.618E-01 0.434E+00
   -.376E+01 -.217E+01 0.795E+03   0.393E+01 0.227E+01 -.794E+03   -.182E-01 -.105E-01 -.530E+00   -.104E+00 -.602E-01 0.435E+00
   -.410E-04 -.907E+00 -.903E+03   0.558E-04 0.715E+00 0.901E+03   0.302E-08 0.454E-01 0.481E+00   0.847E-03 0.151E+00 0.109E+01
   -.420E+00 -.243E+00 -.893E+03   0.111E+01 0.642E+00 0.892E+03   -.984E+00 -.568E+00 -.905E+00   0.274E+00 0.158E+00 0.166E+01
   0.420E+00 -.243E+00 -.893E+03   -.111E+01 0.642E+00 0.892E+03   0.984E+00 -.568E+00 -.905E+00   -.280E+00 0.158E+00 0.166E+01
   -.954E+01 0.551E+01 -.890E+03   0.915E+01 -.528E+01 0.888E+03   0.358E+00 -.207E+00 0.530E+00   0.288E-01 -.163E-01 0.113E+01
   -.816E-05 0.485E+00 -.893E+03   0.139E-03 -.128E+01 0.892E+03   0.757E-07 0.114E+01 -.905E+00   -.376E-02 -.322E+00 0.166E+01
   0.954E+01 0.551E+01 -.890E+03   -.915E+01 -.528E+01 0.888E+03   -.358E+00 -.207E+00 0.530E+00   -.275E-01 -.158E-01 0.113E+01
   0.785E+00 0.453E+00 -.903E+03   -.619E+00 -.358E+00 0.901E+03   -.393E-01 -.227E-01 0.481E+00   -.131E+00 -.756E-01 0.109E+01
   -.785E+00 0.453E+00 -.903E+03   0.619E+00 -.358E+00 0.901E+03   0.393E-01 -.227E-01 0.481E+00   0.131E+00 -.747E-01 0.109E+01
   0.981E-05 -.110E+02 -.890E+03   0.198E-03 0.106E+02 0.888E+03   0.275E-07 0.414E+00 0.530E+00   -.277E-03 0.331E-01 0.113E+01
   -.946E-05 -.110E-04 -.249E+04   0.276E-04 0.305E-04 0.249E+04   0.464E-17 -.793E-18 0.554E+00   0.160E-03 0.770E-04 0.604E+00
   -.290E+01 -.963E+01 -.249E+04   0.347E+01 0.106E+02 0.249E+04   -.990E+00 -.153E+01 -.680E-01   0.417E+00 0.576E+00 0.564E+00
   0.290E+01 -.963E+01 -.249E+04   -.347E+01 0.106E+02 0.249E+04   0.990E+00 -.153E+01 -.680E-01   -.417E+00 0.577E+00 0.564E+00
   -.979E+01 0.230E+01 -.249E+04   0.109E+02 -.229E+01 0.249E+04   -.182E+01 -.912E-01 -.680E-01   0.707E+00 0.736E-01 0.564E+00
   0.979E+01 0.230E+01 -.249E+04   -.109E+02 -.229E+01 0.249E+04   0.182E+01 -.912E-01 -.680E-01   -.707E+00 0.744E-01 0.565E+00
   -.689E+01 0.733E+01 -.249E+04   0.744E+01 -.830E+01 0.249E+04   -.832E+00 0.162E+01 -.680E-01   0.291E+00 -.650E+00 0.564E+00
   0.689E+01 0.733E+01 -.249E+04   -.744E+01 -.830E+01 0.249E+04   0.832E+00 0.162E+01 -.680E-01   -.289E+00 -.650E+00 0.565E+00
   0.348E-04 -.333E-04 -.250E+04   0.143E-03 -.458E-04 0.249E+04   -.266E-17 -.347E-17 0.674E+00   -.418E-02 -.212E-02 0.576E+00
   -.325E-04 0.252E-05 -.131E+04   0.635E-04 0.589E-05 0.130E+04   0.114E-17 0.154E-17 0.270E+01   0.119E-02 0.728E-03 0.547E+00
   -.810E-03 -.773E-03 -.149E+02   -.258E-13 0.211E-12 -.159E-11   0.665E-15 -.446E-15 -.347E+01   -.558E-03 0.267E-03 0.186E+02

 POSITION                                       TOTAL-FORCE (eV/Angst)
      0.00000      0.00000      5.28038        -0.000000     -0.000000     -0.151335
      2.93784      0.00000      5.28038        -0.012585     -0.003271     -0.063590
      5.87568      0.00000      5.28038         0.012585     -0.003271     -0.063590
      1.46892      2.54424      5.28038        -0.009125     -0.009263     -0.063590
      4.40676      2.54424      5.28038         0.000000     -0.000000     -0.094055
      7.34459      2.54424      5.28038         0.009125     -0.009263     -0.063590
      2.93784      5.08848      5.28038         0.003459      0.012534     -0.063590
      5.87568      5.08848      5.28038        -0.003459      0.012534     -0.063590
      8.81351      5.08848      5.28038        -0.000000     -0.000000     -0.085619
      1.46892      0.84808      7.67911         0.033402      0.019285      0.127139
      4.40676      0.84808      7.67911        -0.000000     -0.049316      0.017711
      7.34459      0.84808      7.67911        -0.033402      0.019285      0.127139
      2.93784      3.39232      7.67911        -0.042709      0.024658      0.017711
      5.87568      3.39232      7.67911         0.042709      0.024658      0.017711
      8.81351      3.39232      7.67911        -0.000000     -0.054988      0.083237
      4.40676      5.93656      7.67911        -0.000000     -0.038570      0.127139
      7.34459      5.93656      7.67911        -0.047621      0.027494      0.083237
     10.28243      5.93656      7.67911         0.047621      0.027494      0.083237
      8.81351      1.69581     10.07501         0.000000      0.004882     -0.001710
      2.95207      1.70438     10.04871        -0.015256     -0.008808     -0.006298
      5.86144      1.70438     10.04871         0.015256     -0.008808     -0.006298
     10.26527      4.25031     10.05786         0.004139     -0.002390     -0.001284
      4.40676      4.22397     10.04871         0.000000      0.017616     -0.006298
      7.36176      4.25031     10.05786        -0.004139     -0.002390     -0.001284
     11.75166      6.78482     10.07501        -0.004228     -0.002441     -0.001710
      5.87537      6.78482     10.07501         0.004228     -0.002441     -0.001710
      8.81351      6.76483     10.05786         0.000000      0.004780     -0.001284
      0.00000      0.00000     12.48798        -0.000000     -0.000000     -0.007646
      2.98892      0.08359     12.48152        -0.004023      0.002607      0.012874
      5.82460      0.08359     12.48152         0.004023      0.002607      0.012874
      1.56685      2.54668     12.48152         0.000246     -0.004787      0.012874
      7.24666      2.54668     12.48152        -0.000246     -0.004787      0.012874
      2.98469      5.00245     12.48152         0.004269      0.002180      0.012874
      5.82882      5.00245     12.48152        -0.004269      0.002180      0.012874
      8.81351      5.08848     12.49580         0.000000     -0.000000      0.004209
      4.40676      2.54424     12.17616        -0.000000     -0.000000     -0.017636
    total drift:                               -0.001368     -0.000507      0.209498

  FREE ENERGIE OF THE ION-ELECTRON SYSTEM (eV)
  free  energy   TOTEN  =      -113.77880780 eV

  energy  without entropy=     -113.77880780  energy(sigma->0) =     -113.77880780

 stress matrix after NEB project (eV)
    -23.14278     -0.00000     -0.00000
     -0.00000    -23.14278      0.00000
      0.00000      0.00000      2.77325
  FORCES: max atom, RMS     0.018708    0.008697
  FORCE total and by dimension    0.052184    0.017636
  Stress total and by dimension   32.846117   23.142781
|           W    W    AA    RRRRR   N    N  II  N    N   GGGG   !!!           |
|           W    W   A  A   R    R  NN   N  II  NN   N  G    G  !!!           |
|           W    W  A    A  R    R  N N  N  II  N N  N  G       !!!           |
|           W WW W  AAAAAA  RRRRR   N  N N  II  N  N N  G  GGG   !            |
|           WW  WW  A    A  R   R   N   NN  II  N   NN  G    G                |
|           W    W  A    A  R    R  N    N  II  N    N   GGGG   !!!           |
|     Tetrahedron method does not include variations of the Fermi             |
|     occupations, so forces and stress will be inaccurate. We suggest        |
|     using a different smearing scheme ISMEAR = 1 or 2 for metals in         |
|     relaxations.                                                            |

 total charge

# of ion       s       p       d       tot
    1        0.548   0.239   8.765   9.552
    2        0.543   0.241   8.766   9.550
    3        0.543   0.241   8.766   9.550
    4        0.543   0.241   8.766   9.550
    5        0.545   0.241   8.762   9.548
    6        0.543   0.241   8.766   9.550
    7        0.543   0.241   8.766   9.550
    8        0.543   0.241   8.766   9.550
    9        0.544   0.239   8.768   9.551
   10        0.526   0.308   8.768   9.602
   11        0.521   0.308   8.781   9.610
   12        0.526   0.308   8.768   9.602
   13        0.521   0.308   8.781   9.610
   14        0.521   0.308   8.781   9.610
   15        0.517   0.309   8.776   9.602
   16        0.526   0.308   8.768   9.602
   17        0.517   0.309   8.776   9.602
   18        0.517   0.309   8.776   9.602
   19        0.517   0.299   8.774   9.591
   20        0.557   0.338   8.741   9.635
   21        0.557   0.338   8.741   9.635
   22        0.509   0.309   8.778   9.596
   23        0.557   0.338   8.741   9.635
   24        0.509   0.309   8.778   9.596
   25        0.517   0.299   8.774   9.591
   26        0.517   0.299   8.774   9.591
   27        0.509   0.309   8.778   9.596
   28        0.539   0.224   8.758   9.521
   29        0.571   0.244   8.740   9.555
   30        0.571   0.244   8.740   9.555
   31        0.571   0.244   8.740   9.555
   32        0.571   0.244   8.740   9.555
   33        0.571   0.244   8.740   9.555
   34        0.571   0.244   8.740   9.555
   35        0.535   0.223   8.761   9.520
   36        0.348   0.317   4.137   4.802
tot         19.189  10.009 310.837 340.034

 BZINTS: Fermi energy:    0.681982;  391.000000 electrons
         Band energy:-0.118198E+04;  BLOECHL correction:   -0.028263