 vasp.6.2.0 18Jan21 (build Jun 12 2021 23:27:24) complex

 executed on             LinuxIFC date 2022.05.26  19:26:00

 INCAR:
   ISMEAR = -5
   SIGMA = 0.1
   ISPIN = 1
   EDIFF = 1.d-5
   EDIFFG = -0.01
   NSW = 0
   NELM = 150
   ENCUT = 500
   ISIF = 2
   IBRION = 2
   LREAL = Auto
   ALGO = Fast
   ICHARG = 11
   LORBIT = 10
   LCHARG = .F.
   LWAVE = .F.

 POTCAR:    PAW_PBE Au 04Oct2007
 POTCAR:    PAW_PBE Nb_sv 25May2007
 POTCAR:    PAW_PBE N 08Apr2002
|           W    W    AA    RRRRR   N    N  II  N    N   GGGG   !!!           |
|           W    W   A  A   R    R  NN   N  II  NN   N  G    G  !!!           |
|           W    W  A    A  R    R  N N  N  II  N N  N  G       !!!           |
|           W WW W  AAAAAA  RRRRR   N  N N  II  N  N N  G  GGG   !            |
|           WW  WW  A    A  R   R   N   NN  II  N   NN  G    G                |
|           W    W  A    A  R    R  N    N  II  N    N   GGGG   !!!           |
|     For optimal performance we recommend to set                             |
|       NCORE = 2 up to number-of-cores-per-socket                            |
|     This setting can greatly improve the performance of VASP for DFT.       |
|     The default, NCORE=1 might be grossly inefficient on modern             |
|     multi-core architectures or massively parallel machines. Do your        |
|     Unfortunately you need to use the default for GW and RPA                |
|     calculations (for HF NCORE is supported but not extensively tested      |
|     yet).                                                                   |

 POTCAR:    PAW_PBE Au 04Oct2007
   VRHFIN =Au: s1d10

   TITEL  = PAW_PBE Au 04Oct2007
   POMASS =  196.966; ZVAL   =   11.000    mass and valenz
   ENMAX  =  229.943; ENMIN  =  172.457 eV

 POTCAR:    PAW_PBE Nb_sv 25May2007
   VRHFIN =Nb: 4p5s4d

   TITEL  = PAW_PBE Nb_sv 25May2007
   POMASS =   92.910; ZVAL   =   13.000    mass and valenz
   ENMAX  =  293.235; ENMIN  =  219.927 eV

 POTCAR:    PAW_PBE N 08Apr2002
   VRHFIN =N: s2p3

   TITEL  = PAW_PBE N 08Apr2002
   POMASS =   14.001; ZVAL   =    5.000    mass and valenz
   ENMAX  =  400.000; ENMIN  =  300.000 eV

 Optimization of the real space projectors (new method)

 maximal supplied QI-value         = 15.12
 optimisation between [QCUT,QGAM] = [ 11.34, 22.83] = [ 36.00,145.93] Ry
 Optimized for a Real-space Cutoff    1.39 Angstroem

   l    n(q)    QCUT    max X(q) W(low)/X(q) W(high)/X(q)  e(spline)
   2      9    11.338    60.898    0.39E-03    0.42E-03    0.21E-06
   2      9    11.338    58.894    0.40E-03    0.42E-03    0.22E-06
   0      9    11.338   109.617    0.13E-03    0.20E-04    0.13E-06
   0      9    11.338    75.026    0.13E-03    0.20E-04    0.13E-06
   1      9    11.338    16.344    0.33E-04    0.24E-03    0.18E-06
   1      9    11.338    10.160    0.26E-04    0.19E-03    0.15E-06
 Optimization of the real space projectors (new method)

[...]

   l    n(q)    QCUT    max X(q) W(low)/X(q) W(high)/X(q)  e(spline)
   0     11    11.450    10.201    0.21E-04    0.96E-05    0.78E-07
   0     11    11.450     8.174    0.31E-04    0.18E-04    0.14E-06
   1     10    11.450     3.488    0.27E-04    0.12E-04    0.96E-07
   1     10    11.450     4.917    0.11E-03    0.11E-03    0.37E-06
   2     10    11.450   153.744    0.37E-03    0.81E-03    0.10E-05
   2     10    11.450   126.342    0.37E-03    0.81E-03    0.10E-05
 Optimization of the real space projectors (new method)

 maximal supplied QI-value         = 25.13
 optimisation between [QCUT,QGAM] = [ 11.31, 22.87] = [ 35.82,146.48] Ry
 Optimized for a Real-space Cutoff    1.27 Angstroem

   l    n(q)    QCUT    max X(q) W(low)/X(q) W(high)/X(q)  e(spline)
   0      9    11.310    79.467    0.75E-04    0.16E-03    0.36E-06
   0      9    11.310    66.151    0.74E-04    0.16E-03    0.36E-06
   1      8    11.310    17.416    0.35E-03    0.12E-03    0.95E-06
   1      8    11.310    12.382    0.37E-03    0.13E-03    0.98E-06
  PAW_PBE Au 04Oct2007                  :
  PAW_PBE Nb_sv 25May2007               :
  PAW_PBE N 08Apr2002                   :

 POSCAR: Au-Nb-N
  positions in direct lattice
  velocities in cartesian coordinates
 exchange correlation table for  LEXCH =        8
   RHO(1)=    0.500       N(1)  =     2000
   RHO(2)=  100.500       N(2)  =     4000

 VTST: version 3.2, (02/03/18)

 CHAIN: initializing optimizer

 OPT: Using VASP Conjugate-Gradient optimizer
 CHAIN: Read ICHAIN            0

 POSCAR: Au-Nb-N
  positions in direct lattice
  velocities in cartesian coordinates

 ion  position               nearest neighbor table
   1  0.000  0.000  0.238-  16 2.94  12 2.94   6 2.94   8 2.94   7 2.94   3 2.94  10 2.94   4 2.94
                             2 2.94
   2  0.333  0.000  0.238-   9 2.94  11 2.94  17 2.94  10 2.94   8 2.94   4 2.94   5 2.94   1 2.94
                             3 2.94
   3  0.667  0.000  0.238-   7 2.94  18 2.94  12 2.94   1 2.94  11 2.94   5 2.94   6 2.94   9 2.94
                             2 2.94
   4  0.000  0.333  0.238-  10 2.94   6 2.94   5 2.94  13 2.94   2 2.94  15 2.94   9 2.94   1 2.94
                             7 2.94
   5  0.333  0.333  0.238-  13 2.94   7 2.94  11 2.94   4 2.94   2 2.94  14 2.94   3 2.94   8 2.94
                             6 2.94
   6  0.667  0.333  0.238-  15 2.94  14 2.94   1 2.94  12 2.94   4 2.94   9 2.94   8 2.94   3 2.94
                             5 2.94
   7  0.000  0.667  0.238-  18 2.94   3 2.94  16 2.94   5 2.94   1 2.94  13 2.94   8 2.94   4 2.94
                             9 2.94
   8  0.333  0.667  0.238-   9 2.94  17 2.94   1 2.94   2 2.94  14 2.94  16 2.94   6 2.94   7 2.94
                             5 2.94
   9  0.667  0.667  0.238-   2 2.94   8 2.94  17 2.94   6 2.94  15 2.94   4 2.94   3 2.94  18 2.94
                             7 2.94
  10  0.111  0.111  0.346-  20 2.91  11 2.94  17 2.94   2 2.94   4 2.94   1 2.94  12 2.94  16 2.94
                            13 2.94  15 2.94  26 2.95  19 2.95
  11  0.444  0.111  0.346-  20 2.91  21 2.91  13 2.94   2 2.94  10 2.94  17 2.94   5 2.94   3 2.94
                            18 2.94  14 2.94  12 2.94  27 2.94
  12  0.778  0.111  0.346-  21 2.91  16 2.94  18 2.94   1 2.94  14 2.94  15 2.94   3 2.94   6 2.94
                            10 2.94  11 2.94  25 2.95  19 2.95
  13  0.111  0.444  0.346-  23 2.91  20 2.91   5 2.94  18 2.94  11 2.94   7 2.94   4 2.94  16 2.94
                            10 2.94  14 2.94  15 2.94  22 2.94
  14  0.444  0.444  0.346-  21 2.91  23 2.91  15 2.94   6 2.94  12 2.94   8 2.94  17 2.94   5 2.94
                            16 2.94  13 2.94  11 2.94  24 2.94
  15  0.778  0.444  0.346-  24 2.93  22 2.93  14 2.94   6 2.94  17 2.94  12 2.94   9 2.94   4 2.94
                            10 2.94  13 2.94  18 2.94  19 2.94
  16  0.111  0.778  0.346-  23 2.91  18 2.94  12 2.94   7 2.94   1 2.94   8 2.94  13 2.94  10 2.94
                            14 2.94  17 2.94  25 2.95  26 2.95
  17  0.444  0.778  0.346-  27 2.93  24 2.93   9 2.94  15 2.94   2 2.94  10 2.94  11 2.94   8 2.94
                            14 2.94  16 2.94  18 2.94  26 2.94
  18  0.778  0.778  0.346-  22 2.93  27 2.93  16 2.94   7 2.94  13 2.94  12 2.94   3 2.94  11 2.94
                             9 2.94  15 2.94  17 2.94  25 2.94
  19  0.889  0.223  0.454-  24 2.93  22 2.93  21 2.94  20 2.94  15 2.94  26 2.94  25 2.94  10 2.95
                            12 2.95  28 2.95  32 3.04  31 3.04
  20  0.222  0.222  0.453-  36 2.78  10 2.91  11 2.91  13 2.91  26 2.94  19 2.94  23 2.94  21 2.94
                            27 2.95  22 2.95  29 2.99  31 2.99
  21  0.556  0.222  0.453-  36 2.78  12 2.91  14 2.91  11 2.91  25 2.94  19 2.94  20 2.94  23 2.94
                            27 2.95  24 2.95  30 2.99  32 2.99
  22  0.887  0.557  0.454-  24 2.91  27 2.91  18 2.93  15 2.93  25 2.93  19 2.93  13 2.94  23 2.95
                            20 2.95  35 2.96  33 3.02  31 3.02
  23  0.222  0.556  0.453-  36 2.78  16 2.91  13 2.91  14 2.91  25 2.94  26 2.94  20 2.94  21 2.94
                            22 2.95  24 2.95  33 2.99  34 2.99
  24  0.557  0.557  0.454-  27 2.91  22 2.91  15 2.93  17 2.93  26 2.93  19 2.93  14 2.94  21 2.95
                            23 2.95  35 2.96  32 3.02  34 3.02
  25  0.889  0.889  0.454-  22 2.93  27 2.93  23 2.94  21 2.94  18 2.94  19 2.94  26 2.94  16 2.95
                            12 2.95  28 2.95  33 3.04  30 3.04
  26  0.223  0.889  0.454-  27 2.93  24 2.93  20 2.94  23 2.94  17 2.94  19 2.94  25 2.94  10 2.95
                            16 2.95  28 2.95  29 3.04  34 3.04
  27  0.557  0.887  0.454-  24 2.91  22 2.91  17 2.93  18 2.93  26 2.93  25 2.93  11 2.94  20 2.95
                            21 2.95  35 2.96  29 3.02  30 3.02
  28  0.000  0.000  0.563-  25 2.95  19 2.95  26 2.95  34 2.98  32 2.98  33 2.98  30 2.98  31 2.98
                            29 2.98
  29  0.334  0.009  0.566-  30 2.85  31 2.86  36 2.87  35 2.98  28 2.98  20 2.99  27 3.02  26 3.04
                            34 3.10
  30  0.657  0.009  0.566-  29 2.85  32 2.86  36 2.87  35 2.98  28 2.98  21 2.99  27 3.02  25 3.04
                            33 3.10
  31  0.009  0.334  0.566-  33 2.85  29 2.86  36 2.87  35 2.98  28 2.98  20 2.99  22 3.02  19 3.04
                            32 3.10
  32  0.657  0.334  0.566-  34 2.85  30 2.86  36 2.87  35 2.98  28 2.98  21 2.99  24 3.02  19 3.04
                            31 3.10
  33  0.009  0.657  0.566-  31 2.85  34 2.86  36 2.87  35 2.98  28 2.98  23 2.99  22 3.02  25 3.04
                            30 3.10
  34  0.334  0.657  0.566-  32 2.85  33 2.86  36 2.87  35 2.98  28 2.98  23 2.99  24 3.02  26 3.04
                            29 3.10
  35  0.667  0.667  0.563-  24 2.96  27 2.96  22 2.96  29 2.98  34 2.98  32 2.98  31 2.98  30 2.98
                            33 2.98
  36  0.333  0.333  0.552-  37 1.73  20 2.78  23 2.78  21 2.78  33 2.87  31 2.87  29 2.87  30 2.87
                            34 2.87  32 2.87
  37  0.333  0.333  0.630-  36 1.73

  LATTYP: Found a hexagonal cell.
 ALAT       =     8.8135128021
 C/A-ratio  =     2.5184286595

  Lattice vectors:

 A1 = (  -4.4067569092,  -7.6327256898,   0.0000000000)
 A2 = (   8.8135128021,   0.0000000000,   0.0000000000)
 A3 = (   0.0000000000,   0.0000000000,  22.1962032318)

Analysis of symmetry for initial positions (statically):
 Subroutine PRICEL returns:
 Original cell was already a primitive cell.

 Routine SETGRP: Setting up the symmetry group for a
 hexagonal supercell.

 Subroutine GETGRP returns: Found  6 space group operations
 (whereof  6 operations were pure point group operations)
 out of a pool of 24 trial point group operations.

The static configuration has the point symmetry C_3v.

Analysis of symmetry for dynamics (positions and initial velocities):
 Subroutine PRICEL returns:
 Original cell was already a primitive cell.

[...]

The dynamic configuration has the point symmetry C_3v.

Analysis of constrained symmetry for selective dynamics:
 Subroutine PRICEL returns:
 Original cell was already a primitive cell.

 Routine SETGRP: Setting up the symmetry group for a
 hexagonal supercell.

 Subroutine GETGRP returns: Found  6 space group operations
[...]
     24      -5.1750      2.00000
     25      -5.1530      2.00000
     26      -5.1477      2.00000
     27      -5.1183      2.00000
     28      -5.0644      2.00000
     29      -5.0343      2.00000
     30      -5.0037      2.00000
     31      -4.9875      2.00000
     32      -4.9252      2.00000
     33      -4.9030      2.00000
     34      -4.8193      2.00000
     35      -4.7986      2.00000
     36      -4.7810      2.00000
     37      -4.7312      2.00000
     38      -4.7191      2.00000
     39      -4.7107      2.00000
     40      -4.6585      2.00000
     41      -4.6529      2.00000
     42      -4.5299      2.00000
     43      -4.5082      2.00000
     44      -4.4525      2.00000
     45      -4.4090      2.00000
     46      -4.3816      2.00000
     47      -4.3530      2.00000
     48      -4.3316      2.00000
     49      -4.2957      2.00000
     50      -4.2661      2.00000
     51      -4.1824      2.00000
     52      -4.1642      2.00000
     53      -4.1432      2.00000
     54      -4.1101      2.00000
     55      -4.1022      2.00000
     56      -4.0985      2.00000
     57      -4.0777      2.00000
     58      -4.0623      2.00000
     59      -4.0252      2.00000
     60      -3.9912      2.00000
[...]
    238       6.1163      0.00000
    239       6.3296      0.00000
    240       6.4209      0.00000
    241       6.5031      0.00000
    242       6.5494      0.00000
    243       6.6364      0.00000
    244       6.6675      0.00000
    245       6.7673      0.00000
    246       6.8218      0.00000
    247       6.9043      0.00000
    248       6.9671      0.00000
    249       7.1223      0.00000
    250       7.2557      0.00000
    251       7.3548      0.00000
    252       7.4441      0.00000

 soft charge-density along one line, spin component           1
         0         1         2         3         4         5         6         7         8         9
 total charge-density along one line

------------------------ aborting loop because EDIFF is reached ----------------------------------------

 total charge

# of ion       s       p       d       tot
    1        0.543   0.240   8.765   9.548
    2        0.544   0.241   8.764   9.550
    3        0.544   0.241   8.764   9.550
    4        0.544   0.241   8.764   9.550
    5        0.541   0.241   8.764   9.546
    6        0.544   0.241   8.764   9.550
    7        0.544   0.241   8.764   9.550
    8        0.544   0.241   8.764   9.550
    9        0.541   0.241   8.767   9.549
   10        0.519   0.307   8.772   9.598
   11        0.521   0.308   8.776   9.605
   12        0.519   0.307   8.772   9.598
   13        0.521   0.308   8.776   9.605
   14        0.521   0.308   8.776   9.605
   15        0.514   0.309   8.773   9.597
   16        0.519   0.307   8.772   9.598
   17        0.514   0.309   8.773   9.597
   18        0.514   0.309   8.773   9.597
   19        0.517   0.294   8.775   9.586
   20        0.554   0.331   8.755   9.639
   21        0.554   0.331   8.755   9.639
   22        0.509   0.306   8.773   9.589
   23        0.554   0.331   8.755   9.639
   24        0.509   0.306   8.773   9.589
   25        0.517   0.294   8.775   9.586
   26        0.517   0.294   8.775   9.586
   27        0.509   0.306   8.773   9.589
   28        0.540   0.228   8.758   9.526
   29        0.573   0.237   8.751   9.562
   30        0.573   0.237   8.751   9.562
   31        0.573   0.237   8.751   9.562
   32        0.573   0.237   8.751   9.562
   33        0.573   0.237   8.751   9.562
   34        0.573   0.237   8.751   9.562
   35        0.540   0.231   8.754   9.525
   36        2.198   6.034   2.626  10.858
   37        1.350   2.233   0.000   3.583
tot         22.361  17.883 309.401 349.645

  FORCE on cell =-STRESS in cart. coord.  units (eV):
  Direction    XX          YY          ZZ          XY          YZ          ZX
  Alpha Z  1037.04487  1037.04487  1037.04487
  Ewald  120594.53185120594.53233************    -0.00031    -0.00008    -0.00012
  Hartree129513.51161129513.51163************     0.00001    -0.00002    -0.00003
  E(xc)   -1808.35085 -1808.35084 -1814.66892    -0.00001    -0.00000    -0.00000
  Local  ************************262614.63700     0.00186     0.00001    -0.00000
  n-local   -83.18364   -38.39703   -53.96808    22.93832    -1.81956     1.64689
  augment  2382.18188  2382.18338  2404.87145    -0.00130    -0.00001     0.00003
  Kinetic  5675.65619  5684.38670  5761.76161     5.28598     0.30460     0.28034
  Fock        0.00000     0.00000     0.00000     0.00000     0.00000     0.00000
  Total     -18.00033   -18.00033     3.10505    -0.00000     0.00000     0.00000
  in kB     -19.31451   -19.31451     3.33174    -0.00000     0.00000     0.00000

 VOLUME and BASIS-vectors are now :
  energy-cutoff  :      500.00
  volume of cell :     1493.16
      direct lattice vectors                 reciprocal lattice vectors
     8.813512802  0.000000000  0.000000000     0.113462137 -0.065507406  0.000000000
     4.406756909  7.632725690  0.000000000     0.000000000  0.131014796  0.000000000
     0.000000000  0.000000000 22.196203232     0.000000000  0.000000000  0.045052750

  length of vectors
     8.813512802  8.813512802 22.196203232     0.131014796  0.131014796  0.045052750

 FORCES acting on ions
    electron-ion (+dipol)            ewald-force                    non-local-force                 convergence-correction
   -.196E-04 -.162E-04 0.251E+04   0.520E-04 0.434E-04 -.251E+04   -.919E-17 -.194E-17 -.636E+00   -.240E-03 -.152E-03 -.761E-01
   0.964E+00 0.910E+00 0.251E+04   -.896E+00 -.947E+00 -.251E+04   -.228E-01 0.111E-01 -.307E+00   -.429E-01 0.266E-01 -.517E-01
   -.964E+00 0.910E+00 0.251E+04   0.896E+00 -.947E+00 -.251E+04   0.228E-01 0.111E-01 -.307E+00   0.432E-01 0.286E-01 -.510E-01
   0.127E+01 0.380E+00 0.251E+04   -.127E+01 -.303E+00 -.251E+04   -.181E-02 -.253E-01 -.307E+00   0.170E-02 -.505E-01 -.517E-01
   0.896E-05 -.231E-04 0.251E+04   0.951E-04 0.173E-05 -.251E+04   -.154E-17 0.206E-18 -.402E+00   0.428E-02 0.261E-02 -.620E-01
   -.127E+01 0.380E+00 0.251E+04   0.127E+01 -.303E+00 -.251E+04   0.181E-02 -.253E-01 -.307E+00   -.325E-02 -.496E-01 -.508E-01
   0.306E+00 -.129E+01 0.251E+04   -.372E+00 0.125E+01 -.251E+04   0.210E-01 0.142E-01 -.307E+00   0.464E-01 0.231E-01 -.509E-01
   -.306E+00 -.129E+01 0.251E+04   0.372E+00 0.125E+01 -.251E+04   -.210E-01 0.142E-01 -.307E+00   -.446E-01 0.220E-01 -.508E-01
   0.195E-04 -.415E-04 0.251E+04   0.166E-03 -.202E-04 -.251E+04   0.189E-17 0.158E-17 -.514E+00   -.459E-02 -.237E-02 -.105E+00
   0.906E+01 0.523E+01 0.873E+03   -.887E+01 -.512E+01 -.873E+03   -.210E+00 -.121E+00 -.420E+00   -.243E-01 -.141E-01 0.826E-01
   0.158E-04 0.102E+02 0.887E+03   0.147E-03 -.103E+02 -.887E+03   0.173E-08 0.261E-01 -.439E+00   0.402E-02 0.454E-01 0.992E-01
   -.906E+01 0.523E+01 0.873E+03   0.887E+01 -.512E+01 -.873E+03   0.210E+00 -.121E+00 -.420E+00   0.228E-01 -.130E-01 0.825E-01
   0.881E+01 -.509E+01 0.887E+03   -.893E+01 0.516E+01 -.887E+03   0.226E-01 -.130E-01 -.439E+00   0.416E-01 -.189E-01 0.992E-01
   -.881E+01 -.509E+01 0.887E+03   0.893E+01 0.516E+01 -.887E+03   -.226E-01 -.130E-01 -.439E+00   -.340E-01 -.198E-01 0.984E-01
   0.298E-04 0.250E+01 0.874E+03   0.236E-03 -.248E+01 -.873E+03   0.953E-09 0.143E-01 -.353E+00   -.230E-02 -.651E-01 0.111E+00
   -.220E-04 -.105E+02 0.873E+03   0.163E-03 0.102E+02 -.873E+03   0.161E-07 0.242E+00 -.420E+00   -.666E-04 0.262E-01 0.825E-01
   0.217E+01 -.125E+01 0.874E+03   -.215E+01 0.124E+01 -.873E+03   0.124E-01 -.716E-02 -.353E+00   -.573E-01 0.310E-01 0.111E+00
   -.217E+01 -.125E+01 0.874E+03   0.215E+01 0.124E+01 -.873E+03   -.124E-01 -.716E-02 -.353E+00   0.576E-01 0.330E-01 0.112E+00
   -.426E-04 0.321E+01 -.809E+03   0.512E-04 -.336E+01 0.809E+03   0.526E-08 0.790E-01 0.796E+00   -.677E-03 0.209E-01 0.944E-01
   0.606E+02 0.350E+02 -.708E+03   -.602E+02 -.348E+02 0.709E+03   -.823E+00 -.475E+00 -.663E+00   0.159E-01 0.903E-02 0.119E+00
   -.606E+02 0.350E+02 -.708E+03   0.602E+02 -.348E+02 0.709E+03   0.823E+00 -.475E+00 -.663E+00   -.151E-01 0.955E-02 0.119E+00
   0.165E+02 -.954E+01 -.788E+03   -.170E+02 0.982E+01 0.787E+03   0.500E+00 -.289E+00 0.810E+00   0.567E-01 -.324E-01 0.113E+00
   -.100E-04 -.700E+02 -.708E+03   0.145E-03 0.695E+02 0.709E+03   0.633E-07 0.951E+00 -.663E+00   0.479E-03 -.178E-01 0.119E+00
   -.165E+02 -.954E+01 -.788E+03   0.170E+02 0.982E+01 0.787E+03   -.500E+00 -.289E+00 0.810E+00   -.570E-01 -.328E-01 0.113E+00
   -.278E+01 -.160E+01 -.809E+03   0.291E+01 0.168E+01 0.809E+03   -.684E-01 -.395E-01 0.796E+00   -.177E-01 -.103E-01 0.941E-01
   0.278E+01 -.160E+01 -.809E+03   -.291E+01 0.168E+01 0.809E+03   0.684E-01 -.395E-01 0.796E+00   0.181E-01 -.110E-01 0.944E-01
   0.156E-04 0.191E+02 -.788E+03   0.193E-03 -.196E+02 0.787E+03   0.384E-07 0.577E+00 0.810E+00   -.324E-03 0.652E-01 0.113E+00
   -.175E-04 -.151E-04 -.243E+04   0.314E-04 0.370E-04 0.243E+04   -.152E-17 -.246E-17 0.401E+00   -.122E-03 -.902E-04 0.136E+00
   0.695E+02 0.115E+03 -.245E+04   -.687E+02 -.114E+03 0.245E+04   -.947E+00 -.137E+01 0.700E+00   -.344E-01 0.825E-02 0.627E-01
   -.695E+02 0.115E+03 -.245E+04   0.687E+02 -.114E+03 0.245E+04   0.947E+00 -.137E+01 0.700E+00   0.347E-01 0.102E-01 0.627E-01
   0.134E+03 0.262E+01 -.245E+04   -.133E+03 -.243E+01 0.245E+04   -.166E+01 -.135E+00 0.700E+00   -.998E-02 -.340E-01 0.627E-01
   -.134E+03 0.262E+01 -.245E+04   0.133E+03 -.243E+01 0.245E+04   0.166E+01 -.135E+00 0.700E+00   0.833E-02 -.332E-01 0.626E-01
   0.650E+02 -.118E+03 -.245E+04   -.645E+02 0.117E+03 0.245E+04   -.714E+00 0.151E+01 0.700E+00   0.262E-01 0.249E-01 0.626E-01
   -.650E+02 -.118E+03 -.245E+04   0.645E+02 0.117E+03 0.245E+04   0.714E+00 0.151E+01 0.700E+00   -.246E-01 0.239E-01 0.626E-01
   0.330E-04 -.246E-04 -.244E+04   0.140E-03 -.527E-04 0.244E+04   0.293E-17 -.174E-17 0.379E+00   -.450E-02 -.230E-02 0.127E+00
   0.273E-03 -.156E-03 -.246E+04   0.135E-03 0.122E-04 0.247E+04   -.175E-17 0.254E-17 -.401E+01   0.753E-02 0.460E-02 0.156E-01
   0.121E-03 -.636E-04 -.150E+04   0.212E-04 0.133E-05 0.151E+04   -.358E-18 0.749E-18 -.176E+02   0.194E-02 0.119E-02 0.192E-01
   -.341E-03 -.958E-03 0.191E+02   0.729E-13 0.914E-13 0.227E-12   -.110E-15 -.220E-15 -.208E+02   0.136E-01 0.865E-02 0.198E+01

 POSITION                                       TOTAL-FORCE (eV/Angst)
      0.00000      0.00000      5.28038         0.000000     -0.000000     -0.078210
      2.93784      0.00000      5.28038         0.002983      0.001582     -0.058313
      5.87568      0.00000      5.28038        -0.002983      0.001582     -0.058313
      1.46892      2.54424      5.28038         0.002861      0.001792     -0.058313
      4.40676      2.54424      5.28038         0.000000     -0.000000     -0.092732
      7.34459      2.54424      5.28038        -0.002861      0.001792     -0.058313
      2.93784      5.08848      5.28038        -0.000121     -0.003374     -0.058313
      5.87568      5.08848      5.28038         0.000121     -0.003374     -0.058313
      8.81351      5.08848      5.28038         0.000000     -0.000000     -0.052273
      1.46892      0.84808      7.67911        -0.038608     -0.022291      0.086640
      4.40676      0.84808      7.67911        -0.000000     -0.064351      0.036390
      7.34459      0.84808      7.67911         0.038608     -0.022291      0.086640
      2.93784      3.39232      7.67911        -0.055729      0.032175      0.036390
      5.87568      3.39232      7.67911         0.055729      0.032175      0.036390
      8.81351      3.39232      7.67911        -0.000000     -0.031965      0.145988
      4.40676      5.93656      7.67911         0.000000      0.044581      0.086640
      7.34459      5.93656      7.67911        -0.027683      0.015983      0.145988
     10.28243      5.93656      7.67911         0.027683      0.015983      0.145988
      8.81351      1.70030     10.08698        -0.000000     -0.054235      0.019305
      2.93503      1.69454     10.04736        -0.400225     -0.231070     -0.382469
      5.87848      1.69454     10.04736         0.400225     -0.231070     -0.382469
     10.26776      4.24887     10.06889         0.077483     -0.044735      0.051260
      4.40676      4.24365     10.04736         0.000000      0.462140     -0.382469
      7.35926      4.24887     10.06889        -0.077483     -0.044735      0.051260
     11.74777      6.78258     10.08698         0.046969      0.027117      0.019305
      5.87926      6.78258     10.08698        -0.046969      0.027117      0.019305
      8.81351      6.76771     10.06889         0.000000      0.089470      0.051260
      0.00000      0.00000     12.49943         0.000000     -0.000000     -0.049474
      2.98194      0.07009     12.55649        -0.181597     -0.346680     -0.227196
      5.83157      0.07009     12.55649         0.181597     -0.346680     -0.227196
      1.55167      2.54739     12.55649        -0.391032      0.016073     -0.227196
      7.26184      2.54739     12.55649         0.391032      0.016073     -0.227196
      2.97649      5.01524     12.55649        -0.209435      0.330607     -0.227196
      5.83702      5.01524     12.55649         0.209435      0.330607     -0.227196
      8.81351      5.08848     12.50498         0.000000     -0.000000      0.014771
      4.40676      2.54424     12.24418         0.000000     -0.000000      2.126521
      4.40676      2.54424     13.97658         0.000000     -0.000000     -0.026892
    total drift:                                0.013218      0.007690      0.261539

  FREE ENERGIE OF THE ION-ELECTRON SYSTEM (eV)
  free  energy   TOTEN  =      -124.21533507 eV

  energy  without entropy=     -124.21533507  energy(sigma->0) =     -124.21533507

 stress matrix after NEB project (eV)
    -18.00033     -0.00000      0.00000
     -0.00000    -18.00033      0.00000
      0.00000      0.00000      3.10505
  FORCES: max atom, RMS     0.026892    0.004421
  FORCE total and by dimension    0.026892    0.026892
  Stress total and by dimension   25.644979   18.000329
|           W    W    AA    RRRRR   N    N  II  N    N   GGGG   !!!           |
|           W    W   A  A   R    R  NN   N  II  NN   N  G    G  !!!           |
|           W    W  A    A  R    R  N N  N  II  N N  N  G       !!!           |
|           W WW W  AAAAAA  RRRRR   N  N N  II  N  N N  G  GGG   !            |
|           WW  WW  A    A  R   R   N   NN  II  N   NN  G    G                |
|           W    W  A    A  R    R  N    N  II  N    N   GGGG   !!!           |
|     Tetrahedron method does not include variations of the Fermi             |
|     occupations, so forces and stress will be inaccurate. We suggest        |
|     using a different smearing scheme ISMEAR = 1 or 2 for metals in         |
|     relaxations.                                                            |

 total charge

# of ion       s       p       d       tot
    1        0.543   0.240   8.765   9.548
    2        0.544   0.241   8.764   9.550
    3        0.544   0.241   8.764   9.550
    4        0.544   0.241   8.764   9.550
    5        0.541   0.241   8.764   9.546
    6        0.544   0.241   8.764   9.550
    7        0.544   0.241   8.764   9.550
    8        0.544   0.241   8.764   9.550
    9        0.541   0.241   8.767   9.549
   10        0.519   0.307   8.772   9.598
   11        0.521   0.308   8.776   9.605
   12        0.519   0.307   8.772   9.598
   13        0.521   0.308   8.776   9.605
   14        0.521   0.308   8.776   9.605
   15        0.514   0.309   8.773   9.597
   16        0.519   0.307   8.772   9.598
   17        0.514   0.309   8.773   9.597
   18        0.514   0.309   8.773   9.597
   19        0.517   0.294   8.775   9.586
   20        0.554   0.331   8.755   9.639
   21        0.554   0.331   8.755   9.639
   22        0.509   0.306   8.773   9.589
   23        0.554   0.331   8.755   9.639
   24        0.509   0.306   8.773   9.589
   25        0.517   0.294   8.775   9.586
   26        0.517   0.294   8.775   9.586
   27        0.509   0.306   8.773   9.589
   28        0.540   0.228   8.758   9.526
   29        0.573   0.237   8.751   9.562
   30        0.573   0.237   8.751   9.562
   31        0.573   0.237   8.751   9.562
   32        0.573   0.237   8.751   9.562
   33        0.573   0.237   8.751   9.562
   34        0.573   0.237   8.751   9.562
   35        0.540   0.231   8.754   9.525
   36        2.198   6.034   2.626  10.858
   37        1.350   2.233   0.000   3.583
tot         22.361  17.883 309.401 349.645

 BZINTS: Fermi energy:    0.713514;  403.000000 electrons
         Band energy:-0.150613E+04;  BLOECHL correction:   -0.079403