 vasp.6.2.0 18Jan21 (build Jun 12 2021 23:27:24) complex

 executed on             LinuxIFC date 2022.05.26  19:56:16

 INCAR:
   ISMEAR = -5
   SIGMA = 0.1
   ISPIN = 1
   EDIFF = 1.d-5
   EDIFFG = -0.01
   NSW = 0
   NELM = 150
   ENCUT = 500
   ISIF = 2
   IBRION = 2
   LREAL = Auto
   ALGO = Fast
   ICHARG = 11
   LORBIT = 10
   LCHARG = .F.
   LWAVE = .F.

 POTCAR:    PAW_PBE Cu 22Jun2005
 POTCAR:    PAW_PBE Ti 08Apr2002
 POTCAR:    PAW_PBE H 15Jun2001
|           W    W    AA    RRRRR   N    N  II  N    N   GGGG   !!!           |
|           W    W   A  A   R    R  NN   N  II  NN   N  G    G  !!!           |
|           W    W  A    A  R    R  N N  N  II  N N  N  G       !!!           |
|           W WW W  AAAAAA  RRRRR   N  N N  II  N  N N  G  GGG   !            |
|           WW  WW  A    A  R   R   N   NN  II  N   NN  G    G                |
|           W    W  A    A  R    R  N    N  II  N    N   GGGG   !!!           |
|     For optimal performance we recommend to set                             |
|       NCORE = 2 up to number-of-cores-per-socket                            |
|     This setting can greatly improve the performance of VASP for DFT.       |
|     The default, NCORE=1 might be grossly inefficient on modern             |
|     multi-core architectures or massively parallel machines. Do your        |
|     Unfortunately you need to use the default for GW and RPA                |
|     calculations (for HF NCORE is supported but not extensively tested      |
|     yet).                                                                   |

 POTCAR:    PAW_PBE Cu 22Jun2005
   VRHFIN =Cu: d10 p1

   TITEL  = PAW_PBE Cu 22Jun2005
   POMASS =   63.546; ZVAL   =   11.000    mass and valenz
   ENMAX  =  295.446; ENMIN  =  221.585 eV

 POTCAR:    PAW_PBE Ti 08Apr2002
   VRHFIN =Ti: d3 s1

   TITEL  = PAW_PBE Ti 08Apr2002
   POMASS =   47.880; ZVAL   =    4.000    mass and valenz
   ENMAX  =  178.330; ENMIN  =  133.747 eV

 POTCAR:    PAW_PBE H 15Jun2001
   VRHFIN =H: ultrasoft test

   TITEL  = PAW_PBE H 15Jun2001
   POMASS =    1.000; ZVAL   =    1.000    mass and valenz
   ENMAX  =  250.000; ENMIN  =  200.000 eV

 Optimization of the real space projectors (new method)

 maximal supplied QI-value         = 16.25
 optimisation between [QCUT,QGAM] = [ 11.38, 22.75] = [ 36.24,144.96] Ry
 Optimized for a Real-space Cutoff    1.52 Angstroem

   l    n(q)    QCUT    max X(q) W(low)/X(q) W(high)/X(q)  e(spline)
   2      9    11.376     4.610    0.21E-03    0.10E-03    0.26E-06
   2      9    11.376     8.522    0.33E-03    0.16E-03    0.37E-06
   0     10    11.376    51.609    0.62E-04    0.20E-04    0.13E-06
   0     10    11.376    27.747    0.54E-04    0.20E-04    0.13E-06
   1     10    11.376    20.408    0.13E-04    0.99E-04    0.19E-06
   1     10    11.376    13.425    0.12E-04    0.87E-04    0.17E-06
 Optimization of the real space projectors (new method)

[...]

   l    n(q)    QCUT    max X(q) W(low)/X(q) W(high)/X(q)  e(spline)
   2     10    11.404    49.363    0.27E-03    0.67E-03    0.76E-06
   2     10    11.404    47.669    0.26E-03    0.65E-03    0.73E-06
   0     11    11.404    26.374    0.17E-03    0.20E-03    0.34E-06
   0     11    11.404    11.549    0.14E-03    0.16E-03    0.29E-06
   1     10    11.404     9.492    0.33E-04    0.56E-04    0.16E-06
 Optimization of the real space projectors (new method)

 maximal supplied QI-value         = 34.20
 optimisation between [QCUT,QGAM] = [ 11.29, 22.57] = [ 35.68,142.71] Ry
 Optimized for a Real-space Cutoff    1.16 Angstroem

   l    n(q)    QCUT    max X(q) W(low)/X(q) W(high)/X(q)  e(spline)
   0      8    11.287    19.460    0.40E-03    0.73E-03    0.16E-06
   0      8    11.287    12.209    0.38E-03    0.70E-03    0.15E-06
   1      7    11.287     4.655    0.22E-03    0.25E-04    0.22E-06
  PAW_PBE Cu 22Jun2005                  :
  PAW_PBE Ti 08Apr2002                  :
  PAW_PBE H 15Jun2001                   :

 POSCAR: Cu-Ti-H
  positions in direct lattice
  velocities in cartesian coordinates
 exchange correlation table for  LEXCH =        8
   RHO(1)=    0.500       N(1)  =     2000
   RHO(2)=  100.500       N(2)  =     4000

 VTST: version 3.2, (02/03/18)

 CHAIN: initializing optimizer

 OPT: Using VASP Conjugate-Gradient optimizer
 CHAIN: Read ICHAIN            0

 POSCAR: Cu-Ti-H
  positions in direct lattice
  velocities in cartesian coordinates

 ion  position               nearest neighbor table
   1  0.000  0.000  0.252-   7 2.57   3 2.57   4 2.57   2 2.57   6 2.57   8 2.57  12 2.57  10 2.57
                            16 2.57
   2  0.333  0.000  0.252-   8 2.57   9 2.57   5 2.57   1 2.57   3 2.57  11 2.57   4 2.57  10 2.57
                            17 2.57
   3  0.667  0.000  0.252-   1 2.57   7 2.57   6 2.57   9 2.57   2 2.57  12 2.57   5 2.57  18 2.57
                            11 2.57
   4  0.000  0.333  0.252-   5 2.57   6 2.57   1 2.57   7 2.57   2 2.57  13 2.57   9 2.57  10 2.57
                            15 2.57
   5  0.333  0.333  0.252-   4 2.57   2 2.57   7 2.57  13 2.57   8 2.57   6 2.57   3 2.57  11 2.57
                            14 2.57
   6  0.667  0.333  0.252-   4 2.57   9 2.57  15 2.57   3 2.57   1 2.57   8 2.57  14 2.57   5 2.57
                            12 2.57
   7  0.000  0.667  0.252-   1 2.57   3 2.57  16 2.57  18 2.57   4 2.57   5 2.57   8 2.57   9 2.57
                            13 2.57
   8  0.333  0.667  0.252-   9 2.57   2 2.57  17 2.57   6 2.57   1 2.57   7 2.57   5 2.57  14 2.57
                            16 2.57
   9  0.667  0.667  0.252-   8 2.57   6 2.57   2 2.57  17 2.57   3 2.57   7 2.57   4 2.57  15 2.57
                            18 2.57
  10  0.111  0.111  0.351-  26 2.55  19 2.55  11 2.57  12 2.57  13 2.57   1 2.57   2 2.57   4 2.57
                            15 2.57  16 2.57  17 2.57  20 2.57
  11  0.444  0.111  0.351-  27 2.56  20 2.56  21 2.56  10 2.57  13 2.57   2 2.57  17 2.57  14 2.57
                            12 2.57   5 2.57   3 2.57  18 2.57
  12  0.778  0.111  0.351-  19 2.55  25 2.55  15 2.57  10 2.57  14 2.57  18 2.57   3 2.57   1 2.57
                            16 2.57  11 2.57   6 2.57  21 2.57
  13  0.111  0.444  0.351-  22 2.56  23 2.56  20 2.56  16 2.57  18 2.57  10 2.57  11 2.57  14 2.57
                             5 2.57   4 2.57   7 2.57  15 2.57
  14  0.444  0.444  0.351-  24 2.56  21 2.56  23 2.56  15 2.57  17 2.57  12 2.57  16 2.57  13 2.57
                            11 2.57   6 2.57   8 2.57   5 2.57
  15  0.778  0.444  0.351-  19 2.55  24 2.56  22 2.56  14 2.57  17 2.57  12 2.57   6 2.57  18 2.57
                            10 2.57   9 2.57  13 2.57   4 2.57
  16  0.111  0.778  0.351-  25 2.55  26 2.55  18 2.57  13 2.57   7 2.57  14 2.57  17 2.57  12 2.57
                            10 2.57   8 2.57   1 2.57  23 2.57
  17  0.444  0.778  0.351-  26 2.55  27 2.56  24 2.56  14 2.57  15 2.57   8 2.57   9 2.57  11 2.57
                            16 2.57  18 2.57  10 2.57   2 2.57
  18  0.778  0.778  0.351-  25 2.55  22 2.56  27 2.56  16 2.57  13 2.57   7 2.57  15 2.57  12 2.57
                            17 2.57   9 2.57   3 2.57  11 2.57
  19  0.889  0.222  0.448-  12 2.55  10 2.55  15 2.55  25 2.56  26 2.56  28 2.56  22 2.57  24 2.57
                            21 2.57  20 2.57  32 2.57  31 2.57
  20  0.223  0.223  0.449-  23 2.55  21 2.55  11 2.56  13 2.56  27 2.57  22 2.57  29 2.57  31 2.57
                            10 2.57  26 2.57  19 2.57  36 2.66
  21  0.555  0.223  0.449-  20 2.55  23 2.55  14 2.56  11 2.56  24 2.57  27 2.57  32 2.57  30 2.57
                            12 2.57  19 2.57  25 2.57  36 2.66
  22  0.889  0.556  0.449-  18 2.56  15 2.56  13 2.56  31 2.56  33 2.56  24 2.56  27 2.56  23 2.57
                            20 2.57  19 2.57  25 2.57  35 2.57
  23  0.223  0.555  0.449-  20 2.55  21 2.55  13 2.56  14 2.56  22 2.57  24 2.57  33 2.57  34 2.57
                            16 2.57  25 2.57  26 2.57  36 2.66
  24  0.556  0.556  0.449-  15 2.56  17 2.56  14 2.56  32 2.56  34 2.56  22 2.56  27 2.56  21 2.57
                            23 2.57  19 2.57  26 2.57  35 2.57
  25  0.889  0.889  0.448-  12 2.55  16 2.55  18 2.55  19 2.56  26 2.56  28 2.56  22 2.57  27 2.57
                            21 2.57  23 2.57  33 2.57  30 2.57
  26  0.222  0.889  0.448-  10 2.55  16 2.55  17 2.55  25 2.56  19 2.56  28 2.56  27 2.57  24 2.57
                            20 2.57  23 2.57  29 2.57  34 2.57
  27  0.556  0.889  0.449-  17 2.56  18 2.56  11 2.56  29 2.56  30 2.56  24 2.56  22 2.56  20 2.57
                            21 2.57  26 2.57  25 2.57  35 2.57
  28  0.000  0.000  0.547-  33 2.56  30 2.56  31 2.56  29 2.56  32 2.56  34 2.56  25 2.56  19 2.56
                            26 2.56
  29  0.334  0.998  0.547-  34 2.53  35 2.55  28 2.56  27 2.56  20 2.57  26 2.57  30 2.58  36 2.59
                            31 2.59
  30  0.669  0.998  0.547-  33 2.53  35 2.55  28 2.56  27 2.56  21 2.57  25 2.57  29 2.58  36 2.59
                            32 2.59
  31  0.998  0.334  0.547-  32 2.53  35 2.55  28 2.56  22 2.56  20 2.57  19 2.57  33 2.58  36 2.59
                            29 2.59
  32  0.669  0.334  0.547-  31 2.53  35 2.55  28 2.56  24 2.56  21 2.57  19 2.57  34 2.58  36 2.59
                            30 2.59
  33  0.998  0.669  0.547-  30 2.53  35 2.55  28 2.56  22 2.56  23 2.57  25 2.57  31 2.58  36 2.59
                            34 2.59
  34  0.334  0.669  0.547-  29 2.53  35 2.55  28 2.56  24 2.56  23 2.57  26 2.57  32 2.58  36 2.59
                            33 2.59
  35  0.667  0.667  0.548-  34 2.55  32 2.55  29 2.55  30 2.55  33 2.55  31 2.55  24 2.57  27 2.57
                            22 2.57
  36  0.333  0.333  0.553-  37 1.73  31 2.59  29 2.59  33 2.59  32 2.59  34 2.59  30 2.59  23 2.66
                            20 2.66  21 2.66
  37  0.333  0.333  0.635-  36 1.73

  LATTYP: Found a hexagonal cell.
 ALAT       =     7.6967864036
 C/A-ratio  =     2.7653617908

  Lattice vectors:

 A1 = (  -3.8483927580,  -6.6656128093,   0.0000000000)
 A2 = (   7.6967864037,   0.0000000000,   0.0000000000)
 A3 = (   0.0000000000,   0.0000000000,  21.2843990326)

Analysis of symmetry for initial positions (statically):
 Subroutine PRICEL returns:
 Original cell was already a primitive cell.

 Routine SETGRP: Setting up the symmetry group for a
 hexagonal supercell.

 Subroutine GETGRP returns: Found  6 space group operations
 (whereof  6 operations were pure point group operations)
 out of a pool of 24 trial point group operations.

The static configuration has the point symmetry C_3v.

Analysis of symmetry for dynamics (positions and initial velocities):
 Subroutine PRICEL returns:
 Original cell was already a primitive cell.

[...]

The dynamic configuration has the point symmetry C_3v.

Analysis of constrained symmetry for selective dynamics:
 Subroutine PRICEL returns:
 Original cell was already a primitive cell.

 Routine SETGRP: Setting up the symmetry group for a
 hexagonal supercell.

 Subroutine GETGRP returns: Found  6 space group operations
 (whereof  6 operations were pure point group operations)
 out of a pool of 24 trial point group operations.

[...]
     24      -4.2820      2.00000
     25      -4.2751      2.00000
     26      -4.2445      2.00000
     27      -4.2188      2.00000
     28      -4.2056      2.00000
     29      -4.2013      2.00000
     30      -4.1989      2.00000
     31      -4.1890      2.00000
     32      -4.1692      2.00000
     33      -4.1418      2.00000
     34      -4.1204      2.00000
     35      -4.0412      2.00000
     36      -4.0258      2.00000
     37      -3.8897      2.00000
     38      -3.8847      2.00000
     39      -3.8162      2.00000
     40      -3.8109      2.00000
     41      -3.7995      2.00000
     42      -3.7746      2.00000
     43      -3.7664      2.00000
     44      -3.7623      2.00000
     45      -3.7603      2.00000
     46      -3.5907      2.00000
     47      -3.5758      2.00000
     48      -3.5588      2.00000
     49      -3.5398      2.00000
     50      -3.4970      2.00000
     51      -3.4884      2.00000
     52      -3.4814      2.00000
     53      -3.4680      2.00000
     54      -3.4532      2.00000
     55      -3.4484      2.00000
     56      -3.4156      2.00000
     57      -3.4057      2.00000
     58      -3.3978      2.00000
     59      -3.3909      2.00000
     60      -3.3777      2.00000
[...]
    238       6.8842      0.00000
    239       6.8912      0.00000
    240       7.0056      0.00000
    241       7.0124      0.00000
    242       7.0889      0.00000
    243       7.1712      0.00000
    244       7.2800      0.00000
    245       7.3327      0.00000
    246       7.3983      0.00000
    247       7.4954      0.00000
    248       7.6588      0.00000
    249       7.7466      0.00000
    250       7.9477      0.00000
    251       8.0523      0.00000
    252       8.3477      0.00000

 soft charge-density along one line, spin component           1
         0         1         2         3         4         5         6         7         8         9
 total charge-density along one line

------------------------ aborting loop because EDIFF is reached ----------------------------------------

 total charge

# of ion       s       p       d       tot
    1        0.450   0.282   9.188   9.920
    2        0.448   0.285   9.186   9.919
    3        0.448   0.285   9.186   9.919
    4        0.448   0.285   9.186   9.919
    5        0.449   0.285   9.185   9.918
    6        0.448   0.285   9.186   9.919
    7        0.448   0.285   9.186   9.919
    8        0.448   0.285   9.186   9.919
    9        0.450   0.284   9.188   9.921
   10        0.443   0.370   9.178   9.991
   11        0.441   0.366   9.182   9.989
   12        0.443   0.370   9.178   9.991
   13        0.441   0.366   9.182   9.989
   14        0.441   0.366   9.182   9.989
   15        0.440   0.371   9.178   9.988
   16        0.443   0.370   9.178   9.991
   17        0.440   0.371   9.178   9.988
   18        0.440   0.371   9.178   9.988
   19        0.444   0.370   9.181   9.995
   20        0.459   0.381   9.166  10.005
   21        0.459   0.381   9.166  10.005
   22        0.435   0.375   9.178   9.988
   23        0.459   0.381   9.166  10.005
   24        0.435   0.375   9.178   9.988
   25        0.444   0.370   9.181   9.995
   26        0.444   0.370   9.181   9.995
   27        0.435   0.375   9.178   9.988
   28        0.446   0.292   9.181   9.920
   29        0.478   0.303   9.165   9.946
   30        0.478   0.303   9.165   9.946
   31        0.478   0.303   9.165   9.946
   32        0.478   0.303   9.165   9.946
   33        0.478   0.303   9.165   9.946
   34        0.478   0.303   9.165   9.946
   35        0.445   0.296   9.180   9.921
   36        0.544   0.651   2.367   3.562
   37        0.519   0.005   0.000   0.524
tot         16.838  12.324 323.582 352.745

  FORCE on cell =-STRESS in cart. coord.  units (eV):
  Direction    XX          YY          ZZ          XY          YZ          ZX
  Alpha Z   863.41447   863.41447   863.41447
  Ewald  169916.66383169916.66352************     0.00034     0.00013     0.00015
  Hartree182675.69741182675.69745************     0.00002     0.00006     0.00006
  E(xc)   -2264.43950 -2264.43901 -2269.40767    -0.00043    -0.00003    -0.00006
  Local  ************************365445.30943     0.01853    -0.00057    -0.00088
  n-local  -761.64377  -748.78843  -767.68062     6.78989    -0.20000     0.22994
  augment  3313.31650  3313.33675  3335.11260    -0.01755     0.00024     0.00044
  Kinetic  3158.96790  3160.00349  3189.29151     1.27503     1.94073    -1.37211
  Fock        0.00000     0.00000     0.00000     0.00000     0.00000     0.00000
  Total      -4.74179    -4.74179     1.04963     0.00000     0.00000    -0.00000
  in kB      -6.95732    -6.95732     1.54006     0.00000     0.00000    -0.00000

 VOLUME and BASIS-vectors are now :
  energy-cutoff  :      500.00
  volume of cell :     1091.97
      direct lattice vectors                 reciprocal lattice vectors
     7.696786404  0.000000000  0.000000000     0.129924354 -0.075011849  0.000000000
     3.848392758  6.665612809  0.000000000     0.000000000  0.150023716  0.000000000
     0.000000000  0.000000000 21.284399033     0.000000000  0.000000000  0.046982769

  length of vectors
     7.696786404  7.696786404 21.284399033     0.150023716  0.150023716  0.046982769

 FORCES acting on ions
    electron-ion (+dipol)            ewald-force                    non-local-force                 convergence-correction
   -.415E-04 0.192E-06 0.343E+04   0.581E-04 -.426E-05 -.343E+04   0.962E-17 0.106E-17 -.215E+01   -.261E-03 -.127E-03 -.320E+00
   -.985E+00 -.125E+01 0.343E+04   0.986E+00 0.117E+01 -.343E+04   0.283E-01 0.760E-01 -.200E+01   -.266E-01 0.416E-02 -.266E+00
   0.985E+00 -.125E+01 0.343E+04   -.986E+00 0.117E+01 -.343E+04   -.283E-01 0.760E-01 -.200E+01   0.273E-01 0.672E-02 -.265E+00
   -.157E+01 -.230E+00 0.343E+04   0.150E+01 0.271E+00 -.343E+04   0.800E-01 -.135E-01 -.200E+01   -.961E-02 -.252E-01 -.266E+00
   -.618E-04 -.336E-05 0.343E+04   0.116E-03 -.101E-04 -.343E+04   -.131E-17 -.122E-17 -.190E+01   0.122E-01 0.740E-02 -.242E+00
   0.157E+01 -.230E+00 0.343E+04   -.150E+01 0.271E+00 -.343E+04   -.800E-01 -.135E-01 -.200E+01   0.800E-02 -.239E-01 -.265E+00
   -.587E+00 0.148E+01 0.343E+04   0.516E+00 -.144E+01 -.343E+04   0.516E-01 -.625E-01 -.200E+01   0.195E-01 0.203E-01 -.265E+00
   0.587E+00 0.148E+01 0.343E+04   -.516E+00 -.144E+01 -.343E+04   -.516E-01 -.625E-01 -.200E+01   -.160E-01 0.189E-01 -.265E+00
   -.143E-03 -.329E-04 0.343E+04   0.263E-03 0.204E-04 -.343E+04   0.915E-18 -.187E-17 -.195E+01   -.133E-01 -.680E-02 -.238E+00
   -.101E+02 -.584E+01 0.110E+04   0.103E+02 0.594E+01 -.110E+04   -.196E+00 -.113E+00 -.828E+00   0.220E-01 0.125E-01 -.369E+00
   -.907E-04 -.110E+02 0.108E+04   0.189E-03 0.107E+02 -.108E+04   -.197E-07 0.296E+00 -.455E+00   0.116E-01 -.332E-04 -.354E+00
   0.101E+02 -.584E+01 0.110E+04   -.103E+02 0.594E+01 -.110E+04   0.196E+00 -.113E+00 -.828E+00   -.234E-01 0.139E-01 -.370E+00
   -.953E+01 0.550E+01 0.108E+04   0.926E+01 -.534E+01 -.108E+04   0.256E+00 -.148E+00 -.455E+00   0.627E-02 0.105E-01 -.355E+00
   0.953E+01 0.550E+01 0.108E+04   -.926E+01 -.534E+01 -.108E+04   -.256E+00 -.148E+00 -.455E+00   0.174E-01 0.995E-02 -.355E+00
   -.139E-03 -.801E+00 0.110E+04   0.295E-03 0.766E+00 -.110E+04   -.447E-08 0.671E-01 -.854E+00   -.351E-02 -.242E-01 -.349E+00
   -.927E-04 0.117E+02 0.110E+04   0.187E-03 -.119E+02 -.110E+04   -.150E-07 0.226E+00 -.828E+00   -.634E-04 -.283E-01 -.371E+00
   -.694E+00 0.400E+00 0.110E+04   0.664E+00 -.383E+00 -.110E+04   0.581E-01 -.336E-01 -.854E+00   -.221E-01 0.917E-02 -.348E+00
   0.694E+00 0.401E+00 0.110E+04   -.664E+00 -.383E+00 -.110E+04   -.581E-01 -.336E-01 -.854E+00   0.227E-01 0.118E-01 -.348E+00
   -.710E-04 -.102E+02 -.122E+04   0.744E-04 0.101E+02 0.122E+04   -.837E-09 0.126E-01 0.112E+01   0.942E-03 0.130E-01 -.398E+00
   -.720E+02 -.416E+02 -.133E+04   0.728E+02 0.420E+02 0.134E+04   -.860E+00 -.497E+00 -.186E+00   -.812E-01 -.480E-01 -.510E+00
   0.720E+02 -.416E+02 -.133E+04   -.728E+02 0.420E+02 0.134E+04   0.860E+00 -.497E+00 -.186E+00   0.605E-01 -.467E-01 -.511E+00
   -.343E+02 0.198E+02 -.124E+04   0.342E+02 -.197E+02 0.124E+04   0.238E+00 -.137E+00 0.708E+00   -.750E-01 0.415E-01 -.295E+00
   -.745E-04 0.831E+02 -.133E+04   0.156E-03 -.841E+02 0.134E+04   -.662E-07 0.994E+00 -.186E+00   0.117E-01 0.750E-01 -.511E+00
   0.343E+02 0.198E+02 -.124E+04   -.342E+02 -.197E+02 0.124E+04   -.238E+00 -.137E+00 0.708E+00   0.731E-01 0.423E-01 -.296E+00
   0.881E+01 0.509E+01 -.122E+04   -.877E+01 -.507E+01 0.122E+04   -.109E-01 -.628E-02 0.112E+01   -.111E-01 -.542E-02 -.398E+00
   -.881E+01 0.509E+01 -.122E+04   0.877E+01 -.507E+01 0.122E+04   0.109E-01 -.628E-02 0.112E+01   0.123E-01 -.617E-02 -.398E+00
   -.133E-03 -.396E+02 -.124E+04   0.238E-03 0.395E+02 0.124E+04   -.183E-07 0.274E+00 0.708E+00   -.110E-02 -.843E-01 -.295E+00
   -.324E-04 0.200E-04 -.346E+04   0.495E-04 -.308E-04 0.346E+04   0.253E-17 -.113E-17 0.190E+01   0.348E-03 0.193E-03 0.245E+00
   -.620E+02 -.118E+03 -.346E+04   0.625E+02 0.118E+03 0.346E+04   -.512E+00 -.497E+00 0.147E+01   -.991E-01 -.147E+00 0.986E-01
   0.620E+02 -.118E+03 -.346E+04   -.625E+02 0.118E+03 0.346E+04   0.512E+00 -.497E+00 0.147E+01   0.994E-01 -.146E+00 0.989E-01
   -.133E+03 0.530E+01 -.346E+04   0.134E+03 -.508E+01 0.346E+04   -.686E+00 -.195E+00 0.147E+01   -.177E+00 -.126E-01 0.988E-01
   0.133E+03 0.530E+01 -.346E+04   -.134E+03 -.509E+01 0.346E+04   0.686E+00 -.195E+00 0.147E+01   0.177E+00 -.110E-01 0.993E-01
   -.711E+02 0.113E+03 -.346E+04   0.714E+02 -.113E+03 0.346E+04   -.174E+00 0.692E+00 0.147E+01   -.765E-01 0.159E+00 0.997E-01
   0.711E+02 0.113E+03 -.346E+04   -.714E+02 -.113E+03 0.346E+04   0.174E+00 0.692E+00 0.147E+01   0.798E-01 0.159E+00 0.989E-01
   -.118E-03 -.129E-04 -.348E+04   0.245E-03 -.281E-06 0.347E+04   -.856E-17 0.326E-17 0.204E+01   -.131E-01 -.649E-02 0.116E+00
   -.354E-04 -.587E-05 -.127E+04   0.467E-04 0.108E-04 0.127E+04   -.155E-18 -.333E-18 -.906E+00   0.368E-03 0.107E-03 0.782E-01
   0.426E-05 -.466E-05 -.345E+03   0.240E-05 0.118E-05 0.347E+03   0.551E-20 0.161E-19 -.175E+01   0.513E-04 0.244E-04 0.574E-01
   -.232E-03 0.985E-05 0.175E+02   0.138E-12 0.397E-13 -.102E-10   -.231E-15 -.108E-15 -.938E+01   0.138E-01 -.635E-02 -.813E+01

 POSITION                                       TOTAL-FORCE (eV/Angst)
      0.00000      0.00000      5.37156        -0.000000     -0.000000      0.012191
      2.56560      0.00000      5.37156         0.003114      0.000324      0.063093
      5.13119      0.00000      5.37156        -0.003114      0.000324      0.063093
      1.28280      2.22187      5.37156         0.001837      0.002535      0.063093
      3.84839      2.22187      5.37156        -0.000000     -0.000000      0.057377
      6.41399      2.22187      5.37156        -0.001837      0.002535      0.063093
      2.56560      4.44374      5.37156        -0.001276     -0.002858      0.063093
      5.13119      4.44374      5.37156         0.001276     -0.002858      0.063093
      7.69679      4.44374      5.37156        -0.000000      0.000000      0.033940
      1.28280      0.74062      7.46636        -0.004711     -0.002720     -0.107387
      3.84839      0.74062      7.46636         0.000000     -0.029081     -0.049461
      6.41399      0.74062      7.46636         0.004711     -0.002720     -0.107387
      2.56560      2.96249      7.46636        -0.025185      0.014541     -0.049461
      5.13119      2.96249      7.46636         0.025185      0.014541     -0.049461
      7.69679      2.96249      7.46636        -0.000000      0.007546     -0.020970
      3.84839      5.18437      7.46636        -0.000000      0.005440     -0.107387
      6.41399      5.18437      7.46636         0.006535     -0.003773     -0.020970
      8.97958      5.18437      7.46636        -0.006535     -0.003773     -0.020970
      7.69679      1.47704      9.53921         0.000000     -0.022515      0.010179
      2.57092      1.48432      9.56248        -0.105880     -0.061130     -0.136608
      5.12587      1.48432      9.56248         0.105880     -0.061130     -0.136608
      8.97870      3.70363      9.55579         0.036964     -0.021341      0.034445
      3.84839      3.69697      9.56248        -0.000000      0.122260     -0.136608
      6.41487      3.70363      9.55579        -0.036964     -0.021341      0.034445
     10.26602      5.92709      9.53921         0.019498      0.011257      0.010179
      5.12755      5.92709      9.53921        -0.019498      0.011257      0.010179
      7.69679      5.92397      9.55579        -0.000000      0.042682      0.034445
      0.00000      0.00000     11.63511        -0.000000     -0.000000      0.017168
      6.40848      6.64966     11.64831        -0.030187     -0.060768     -0.061980
      8.98509      6.64966     11.64831         0.030187     -0.060768     -0.061980
      8.96302      2.22507     11.64831        -0.067720      0.004241     -0.061980
      6.43055      2.22507     11.64831         0.067720      0.004241     -0.061980
     10.25132      4.45649     11.64831        -0.037533      0.056527     -0.061980
      5.14225      4.45649     11.64831         0.037533      0.056527     -0.061980
      7.69679      4.44374     11.65790        -0.000000     -0.000000      0.017185
      3.84839      2.22187     11.77538        -0.000000     -0.000000      0.704463
      3.84839      2.22187     13.50863        -0.000000     -0.000000     -0.039606
    total drift:                                0.013599     -0.006338      0.017800

  FREE ENERGIE OF THE ION-ELECTRON SYSTEM (eV)
  free  energy   TOTEN  =      -132.61426753 eV

  energy  without entropy=     -132.61426753  energy(sigma->0) =     -132.61426753

 stress matrix after NEB project (eV)
     -4.74179      0.00000     -0.00000
      0.00000     -4.74179     -0.00000
     -0.00000      0.00000      1.04963
  FORCES: max atom, RMS     0.039606    0.006511
  FORCE total and by dimension    0.039606    0.039606
  Stress total and by dimension    6.787549    4.741787
|           W    W    AA    RRRRR   N    N  II  N    N   GGGG   !!!           |
|           W    W   A  A   R    R  NN   N  II  NN   N  G    G  !!!           |
|           W    W  A    A  R    R  N N  N  II  N N  N  G       !!!           |
|           W WW W  AAAAAA  RRRRR   N  N N  II  N  N N  G  GGG   !            |
|           WW  WW  A    A  R   R   N   NN  II  N   NN  G    G                |
|           W    W  A    A  R    R  N    N  II  N    N   GGGG   !!!           |
|     Tetrahedron method does not include variations of the Fermi             |
|     occupations, so forces and stress will be inaccurate. We suggest        |
|     using a different smearing scheme ISMEAR = 1 or 2 for metals in         |
|     relaxations.                                                            |

 total charge

# of ion       s       p       d       tot
    1        0.450   0.282   9.188   9.920
    2        0.448   0.285   9.186   9.919
    3        0.448   0.285   9.186   9.919
    4        0.448   0.285   9.186   9.919
    5        0.449   0.285   9.185   9.918
    6        0.448   0.285   9.186   9.919
    7        0.448   0.285   9.186   9.919
    8        0.448   0.285   9.186   9.919
    9        0.450   0.284   9.188   9.921
   10        0.443   0.370   9.178   9.991
   11        0.441   0.366   9.182   9.989
   12        0.443   0.370   9.178   9.991
   13        0.441   0.366   9.182   9.989
   14        0.441   0.366   9.182   9.989
   15        0.440   0.371   9.178   9.988
   16        0.443   0.370   9.178   9.991
   17        0.440   0.371   9.178   9.988
   18        0.440   0.371   9.178   9.988
   19        0.444   0.370   9.181   9.995
   20        0.459   0.381   9.166  10.005
   21        0.459   0.381   9.166  10.005
   22        0.435   0.375   9.178   9.988
   23        0.459   0.381   9.166  10.005
   24        0.435   0.375   9.178   9.988
   25        0.444   0.370   9.181   9.995
   26        0.444   0.370   9.181   9.995
   27        0.435   0.375   9.178   9.988
   28        0.446   0.292   9.181   9.920
   29        0.478   0.303   9.165   9.946
   30        0.478   0.303   9.165   9.946
   31        0.478   0.303   9.165   9.946
   32        0.478   0.303   9.165   9.946
   33        0.478   0.303   9.165   9.946
   34        0.478   0.303   9.165   9.946
   35        0.445   0.296   9.180   9.921
   36        0.544   0.651   2.367   3.562
   37        0.519   0.005   0.000   0.524
tot         16.838  12.324 323.582 352.745

 BZINTS: Fermi energy:   -0.060795;  390.000000 electrons
         Band energy:-0.114198E+04;  BLOECHL correction:   -0.049146