 vasp.6.2.0 18Jan21 (build Jun 12 2021 23:27:24) complex

 executed on             LinuxIFC date 2022.05.27  05:01:35

 INCAR:
   ISMEAR = -5
   SIGMA = 0.1
   ISPIN = 1
   EDIFF = 1.d-5
   EDIFFG = -0.01
   NSW = 0
   NELM = 150
   ENCUT = 500
   ISIF = 2
   IBRION = 2
   LREAL = Auto
   ALGO = Fast
   ICHARG = 11
   LORBIT = 10
   LCHARG = .F.
   LWAVE = .F.

 POTCAR:    PAW_PBE Au 04Oct2007
 POTCAR:    PAW_PBE Cr 06Sep2000
 POTCAR:    PAW_PBE N 08Apr2002
|           W    W    AA    RRRRR   N    N  II  N    N   GGGG   !!!           |
|           W    W   A  A   R    R  NN   N  II  NN   N  G    G  !!!           |
|           W    W  A    A  R    R  N N  N  II  N N  N  G       !!!           |
|           W WW W  AAAAAA  RRRRR   N  N N  II  N  N N  G  GGG   !            |
|           WW  WW  A    A  R   R   N   NN  II  N   NN  G    G                |
|           W    W  A    A  R    R  N    N  II  N    N   GGGG   !!!           |
|     For optimal performance we recommend to set                             |
|       NCORE = 2 up to number-of-cores-per-socket                            |
|     This setting can greatly improve the performance of VASP for DFT.       |
|     The default, NCORE=1 might be grossly inefficient on modern             |
|     multi-core architectures or massively parallel machines. Do your        |
|     Unfortunately you need to use the default for GW and RPA                |
|     calculations (for HF NCORE is supported but not extensively tested      |
|     yet).                                                                   |

 POTCAR:    PAW_PBE Au 04Oct2007
   VRHFIN =Au: s1d10

   TITEL  = PAW_PBE Au 04Oct2007
   POMASS =  196.966; ZVAL   =   11.000    mass and valenz
   ENMAX  =  229.943; ENMIN  =  172.457 eV

 POTCAR:    PAW_PBE Cr 06Sep2000
   VRHFIN =Cr : d5 s1

   TITEL  = PAW_PBE Cr 06Sep2000
   POMASS =   51.996; ZVAL   =    6.000    mass and valenz
   ENMAX  =  227.080; ENMIN  =  170.310 eV

 POTCAR:    PAW_PBE N 08Apr2002
   VRHFIN =N: s2p3

   TITEL  = PAW_PBE N 08Apr2002
   POMASS =   14.001; ZVAL   =    5.000    mass and valenz
   ENMAX  =  400.000; ENMIN  =  300.000 eV

 Optimization of the real space projectors (new method)

 maximal supplied QI-value         = 15.12
 optimisation between [QCUT,QGAM] = [ 11.34, 22.83] = [ 36.00,145.93] Ry
 Optimized for a Real-space Cutoff    1.39 Angstroem

   l    n(q)    QCUT    max X(q) W(low)/X(q) W(high)/X(q)  e(spline)
   2      9    11.338    60.898    0.39E-03    0.42E-03    0.21E-06
   2      9    11.338    58.894    0.40E-03    0.42E-03    0.22E-06
   0      9    11.338   109.617    0.13E-03    0.20E-04    0.13E-06
   0      9    11.338    75.026    0.13E-03    0.20E-04    0.13E-06
   1      9    11.338    16.344    0.33E-04    0.24E-03    0.18E-06
   1      9    11.338    10.160    0.26E-04    0.19E-03    0.15E-06
 Optimization of the real space projectors (new method)

[...]

   l    n(q)    QCUT    max X(q) W(low)/X(q) W(high)/X(q)  e(spline)
   2      9    11.338    94.395    0.18E-03    0.10E-02    0.64E-06
   2      9    11.338    88.078    0.18E-03    0.10E-02    0.65E-06
   0     10    11.338    50.173    0.13E-03    0.16E-03    0.96E-07
   0     10    11.338    24.906    0.12E-03    0.14E-03    0.88E-07
   1      9    11.338    12.133    0.13E-03    0.15E-03    0.24E-06
   1      9    11.338     7.290    0.10E-03    0.10E-03    0.18E-06
 Optimization of the real space projectors (new method)

 maximal supplied QI-value         = 25.13
 optimisation between [QCUT,QGAM] = [ 11.31, 22.87] = [ 35.82,146.48] Ry
 Optimized for a Real-space Cutoff    1.27 Angstroem

   l    n(q)    QCUT    max X(q) W(low)/X(q) W(high)/X(q)  e(spline)
   0      9    11.310    79.467    0.75E-04    0.16E-03    0.36E-06
   0      9    11.310    66.151    0.74E-04    0.16E-03    0.36E-06
   1      8    11.310    17.416    0.35E-03    0.12E-03    0.95E-06
   1      8    11.310    12.382    0.37E-03    0.13E-03    0.98E-06
  PAW_PBE Au 04Oct2007                  :
  PAW_PBE Cr 06Sep2000                  :
  PAW_PBE N 08Apr2002                   :

 POSCAR: Au-Cr-N2
  positions in direct lattice
  velocities in cartesian coordinates
 exchange correlation table for  LEXCH =        8
   RHO(1)=    0.500       N(1)  =     2000
   RHO(2)=  100.500       N(2)  =     4000

 VTST: version 3.2, (02/03/18)

 CHAIN: initializing optimizer

 OPT: Using VASP Conjugate-Gradient optimizer
 CHAIN: Read ICHAIN            0

 POSCAR: Au-Cr-N2
  positions in direct lattice
  velocities in cartesian coordinates

 ion  position               nearest neighbor table
   1  0.000  0.000  0.238-  16 2.94  12 2.94   6 2.94   8 2.94   7 2.94   3 2.94  10 2.94   4 2.94
                             2 2.94
   2  0.333  0.000  0.238-   9 2.94  11 2.94  17 2.94  10 2.94   8 2.94   4 2.94   5 2.94   1 2.94
                             3 2.94
   3  0.667  0.000  0.238-   7 2.94  18 2.94  12 2.94   1 2.94  11 2.94   5 2.94   6 2.94   9 2.94
                             2 2.94
   4  0.000  0.333  0.238-  10 2.94   6 2.94   5 2.94  13 2.94   2 2.94  15 2.94   9 2.94   1 2.94
                             7 2.94
   5  0.333  0.333  0.238-  13 2.94   7 2.94  11 2.94   4 2.94   2 2.94  14 2.94   3 2.94   8 2.94
                             6 2.94
   6  0.667  0.333  0.238-  15 2.94  14 2.94   1 2.94  12 2.94   4 2.94   9 2.94   8 2.94   3 2.94
                             5 2.94
   7  0.000  0.667  0.238-  18 2.94   3 2.94  16 2.94   5 2.94   1 2.94  13 2.94   8 2.94   4 2.94
                             9 2.94
   8  0.333  0.667  0.238-   9 2.94  17 2.94   1 2.94   2 2.94  14 2.94  16 2.94   6 2.94   7 2.94
                             5 2.94
   9  0.667  0.667  0.238-   2 2.94   8 2.94  17 2.94   6 2.94  15 2.94   4 2.94   3 2.94  18 2.94
                             7 2.94
  10  0.111  0.111  0.346-  20 2.92  26 2.94  19 2.94  11 2.94  17 2.94   2 2.94   4 2.94   1 2.94
                            12 2.94  16 2.94  13 2.94  15 2.94
  11  0.444  0.111  0.346-  20 2.91  21 2.91  27 2.93  13 2.94   2 2.94  10 2.94  17 2.94   5 2.94
                             3 2.94  18 2.94  14 2.94  12 2.94
  12  0.778  0.111  0.346-  21 2.92  25 2.94  19 2.94  16 2.94  18 2.94   1 2.94  14 2.94  15 2.94
                             3 2.94   6 2.94  10 2.94  11 2.94
  13  0.111  0.444  0.346-  23 2.91  20 2.91  22 2.93   5 2.94  18 2.94  11 2.94   7 2.94   4 2.94
                            16 2.94  10 2.94  14 2.94  15 2.94
  14  0.444  0.444  0.346-  21 2.91  23 2.91  24 2.93  15 2.94   6 2.94  12 2.94   8 2.94  17 2.94
                             5 2.94  16 2.94  13 2.94  11 2.94
  15  0.778  0.444  0.346-  24 2.92  22 2.92  19 2.94  14 2.94   6 2.94  17 2.94  12 2.94   9 2.94
                             4 2.94  10 2.94  13 2.94  18 2.94
  16  0.111  0.778  0.346-  23 2.92  25 2.94  26 2.94  18 2.94  12 2.94   7 2.94   1 2.94   8 2.94
                            13 2.94  10 2.94  14 2.94  17 2.94
  17  0.444  0.778  0.346-  27 2.92  24 2.92  26 2.94   9 2.94  15 2.94   2 2.94  10 2.94  11 2.94
                             8 2.94  14 2.94  16 2.94  18 2.94
  18  0.778  0.778  0.346-  22 2.92  27 2.92  25 2.94  16 2.94   7 2.94  13 2.94  12 2.94   3 2.94
                            11 2.94   9 2.94  15 2.94  17 2.94
  19  0.889  0.222  0.454-  10 2.94  12 2.94  15 2.94  26 2.94  25 2.94  24 2.94  22 2.94  28 2.95
                            21 2.95  20 2.95  32 3.00  31 3.00
  20  0.223  0.223  0.453-  36 2.71  11 2.91  13 2.91  23 2.91  21 2.91  29 2.92  31 2.92  10 2.92
                            26 2.95  19 2.95  27 2.96  22 2.96
  21  0.553  0.223  0.453-  36 2.71  14 2.91  11 2.91  20 2.91  23 2.91  30 2.92  32 2.92  12 2.92
                            25 2.95  19 2.95  27 2.96  24 2.96
  22  0.886  0.557  0.453-  24 2.90  27 2.90  18 2.92  15 2.92  13 2.93  25 2.94  19 2.94  23 2.96
                            20 2.96  35 2.96  33 2.96  31 2.96
  23  0.223  0.553  0.453-  36 2.71  13 2.91  14 2.91  20 2.91  21 2.91  33 2.92  34 2.92  16 2.92
                            25 2.95  26 2.95  22 2.96  24 2.96
  24  0.557  0.557  0.453-  27 2.90  22 2.90  15 2.92  17 2.92  14 2.93  26 2.94  19 2.94  21 2.96
                            23 2.96  35 2.96  32 2.96  34 2.96
  25  0.889  0.889  0.454-  16 2.94  12 2.94  18 2.94  19 2.94  26 2.94  22 2.94  27 2.94  28 2.95
                            23 2.95  21 2.95  33 3.00  30 3.00
  26  0.222  0.889  0.454-  10 2.94  16 2.94  17 2.94  19 2.94  25 2.94  27 2.94  24 2.94  28 2.95
                            20 2.95  23 2.95  29 3.00  34 3.00
  27  0.557  0.886  0.453-  24 2.90  22 2.90  17 2.92  18 2.92  11 2.93  26 2.94  25 2.94  20 2.96
                            21 2.96  35 2.96  29 2.96  30 2.96
  28  0.000  0.000  0.563-  25 2.95  19 2.95  26 2.95  34 2.99  32 2.99  33 2.99  30 2.99  31 2.99
                            29 2.99
  29  0.334  0.011  0.562-  30 2.84  31 2.84  36 2.86  20 2.92  27 2.96  35 2.99  28 2.99  26 3.00
                            34 3.13
  30  0.655  0.011  0.562-  29 2.84  32 2.84  36 2.86  21 2.92  27 2.96  35 2.99  28 2.99  25 3.00
                            33 3.13
  31  0.011  0.334  0.562-  33 2.84  29 2.84  36 2.86  20 2.92  22 2.96  35 2.99  28 2.99  19 3.00
                            32 3.13
  32  0.655  0.334  0.562-  34 2.84  30 2.84  36 2.86  21 2.92  24 2.96  35 2.99  28 2.99  19 3.00
                            31 3.13
  33  0.011  0.655  0.562-  31 2.84  34 2.84  36 2.86  23 2.92  22 2.96  35 2.99  28 2.99  25 3.00
                            30 3.13
  34  0.334  0.655  0.562-  32 2.84  33 2.84  36 2.86  23 2.92  24 2.96  35 2.99  28 2.99  26 3.00
                            29 3.13
  35  0.667  0.667  0.563-  24 2.96  27 2.96  22 2.96  29 2.99  34 2.99  32 2.99  31 2.99  30 2.99
                            33 2.99
  36  0.333  0.333  0.549-  20 2.71  23 2.71  21 2.71  33 2.86  31 2.86  29 2.86  30 2.86  34 2.86
                            32 2.86
  37  0.270  0.333  0.730-  38 1.11
  38  0.397  0.333  0.730-  37 1.11

  LATTYP: Found a hexagonal cell.
 ALAT       =     8.8135128021
 C/A-ratio  =     2.5184286595

  Lattice vectors:

 A1 = (  -4.4067569092,  -7.6327256898,   0.0000000000)
 A2 = (   8.8135128021,   0.0000000000,   0.0000000000)
 A3 = (   0.0000000000,   0.0000000000,  22.1962032318)

Analysis of symmetry for initial positions (statically):
 Subroutine PRICEL returns:
 Original cell was already a primitive cell.

 Routine SETGRP: Setting up the symmetry group for a
 hexagonal supercell.

 Subroutine GETGRP returns: Found  2 space group operations
 (whereof  2 operations were pure point group operations)
 out of a pool of 24 trial point group operations.

The static configuration has the point symmetry C_1h.

Analysis of symmetry for dynamics (positions and initial velocities):
 Subroutine PRICEL returns:
 Original cell was already a primitive cell.

[...]

The dynamic configuration has the point symmetry C_1h.

Analysis of constrained symmetry for selective dynamics:
 Subroutine PRICEL returns:
 Original cell was already a primitive cell.

 Routine SETGRP: Setting up the symmetry group for a
 hexagonal supercell.

[...]
     33      -4.6819      2.00000
     34      -4.6713      2.00000
     35      -4.6574      2.00000
     36      -4.6446      2.00000
     37      -4.6324      2.00000
     38      -4.6144      2.00000
     39      -4.5177      2.00000
     40      -4.4881      2.00000
     41      -4.4463      2.00000
     42      -4.4313      2.00000
     43      -4.3749      2.00000
     44      -4.3047      2.00000
     45      -4.2893      2.00000
     46      -4.2764      2.00000
     47      -4.2241      2.00000
     48      -4.2045      2.00000
     49      -4.1988      2.00000
     50      -4.1786      2.00000
     51      -4.0764      2.00000
     52      -4.0739      2.00000
     53      -4.0401      2.00000
     54      -4.0093      2.00000
     55      -4.0064      2.00000
     56      -4.0026      2.00000
     57      -3.9769      2.00000
     58      -3.9532      2.00000
     59      -3.9054      2.00000
     60      -3.8896      2.00000
[...]
    238       6.1701      0.00000
    239       6.2568      0.00000
    240       6.3813      0.00000
    241       6.3867      0.00000
    242       6.5338      0.00000
    243       6.5674      0.00000
    244       6.5885      0.00000
    245       6.6864      0.00000
    246       6.8693      0.00000
    247       6.8997      0.00000
    248       6.9291      0.00000
    249       7.0345      0.00000
    250       7.2226      0.00000
    251       7.3139      0.00000
    252       7.3711      0.00000

 soft charge-density along one line, spin component           1
         0         1         2         3         4         5         6         7         8         9
 total charge-density along one line

------------------------ aborting loop because EDIFF is reached ----------------------------------------

 total charge

# of ion       s       p       d       tot
    1        0.548   0.239   8.765   9.552
    2        0.543   0.241   8.765   9.550
    3        0.543   0.241   8.765   9.550
    4        0.543   0.241   8.766   9.550
    5        0.545   0.241   8.762   9.548
    6        0.543   0.241   8.766   9.550
    7        0.543   0.241   8.765   9.550
    8        0.543   0.241   8.765   9.550
    9        0.544   0.239   8.768   9.550
   10        0.526   0.308   8.767   9.601
   11        0.521   0.308   8.781   9.610
   12        0.526   0.308   8.767   9.601
   13        0.521   0.308   8.781   9.610
   14        0.521   0.308   8.781   9.610
   15        0.517   0.309   8.775   9.601
   16        0.526   0.308   8.767   9.601
   17        0.517   0.309   8.775   9.602
   18        0.517   0.309   8.775   9.602
   19        0.517   0.299   8.774   9.590
   20        0.556   0.338   8.741   9.635
   21        0.556   0.338   8.741   9.635
   22        0.509   0.309   8.778   9.596
   23        0.557   0.338   8.741   9.635
   24        0.509   0.309   8.778   9.596
   25        0.517   0.299   8.774   9.591
   26        0.517   0.299   8.774   9.591
   27        0.509   0.309   8.778   9.596
   28        0.539   0.224   8.758   9.521
   29        0.571   0.245   8.740   9.556
   30        0.571   0.245   8.740   9.556
   31        0.571   0.244   8.740   9.555
   32        0.571   0.244   8.740   9.555
   33        0.571   0.245   8.740   9.556
   34        0.571   0.245   8.740   9.556
   35        0.535   0.223   8.762   9.520
   36        0.348   0.317   4.146   4.811
   37        1.373   2.468   0.000   3.841
   38        1.373   2.468   0.000   3.841
tot         21.933  14.944 310.843 347.720

  FORCE on cell =-STRESS in cart. coord.  units (eV):
  Direction    XX          YY          ZZ          XY          YZ          ZX
  Alpha Z  1025.39246  1025.39246  1025.39246
  Ewald  114010.36070113691.09721************    -0.00032    -0.04819    -0.00016
  Hartree122675.84738122563.49296************     0.00001    -0.04526    -0.00005
  E(xc)   -1793.56798 -1794.80807 -1802.35567    -0.00002    -0.00108    -0.00000
  Local  ************************248467.19075     0.00240     0.08746     0.00007
  n-local   -88.12258   -75.56297   -49.59926     4.71694    -0.00166     0.08954
  augment  2393.41950  2393.10578  2412.53510    -0.00139     0.00362     0.00003
  Kinetic  5565.11616  5583.17669  5644.17427     1.64569     0.00495     0.22994
  Fock        0.00000     0.00000     0.00000     0.00000     0.00000     0.00000
  Total     -23.18623   -23.18724     2.83731    -0.00000    -0.00016    -0.00000
  in kB     -24.87903   -24.88011     3.04446    -0.00000    -0.00017    -0.00000

 VOLUME and BASIS-vectors are now :
  energy-cutoff  :      500.00
  volume of cell :     1493.16
      direct lattice vectors                 reciprocal lattice vectors
     8.813512802  0.000000000  0.000000000     0.113462137 -0.065507406  0.000000000
     4.406756909  7.632725690  0.000000000     0.000000000  0.131014796  0.000000000
     0.000000000  0.000000000 22.196203232     0.000000000  0.000000000  0.045052750

  length of vectors
     8.813512802  8.813512802 22.196203232     0.131014796  0.131014796  0.045052750

 FORCES acting on ions
    electron-ion (+dipol)            ewald-force                    non-local-force                 convergence-correction
   -.201E-04 0.641E-02 0.246E+04   0.519E-04 -.430E-02 -.246E+04   -.300E-10 -.450E-03 -.731E+00   -.216E-03 -.190E-02 -.174E+00
   0.353E+00 0.104E-01 0.246E+04   -.496E+00 -.797E-01 -.246E+04   0.566E-01 0.840E-01 -.290E+00   0.738E-01 -.191E-01 -.227E+00
   -.353E+00 0.104E-01 0.246E+04   0.496E+00 -.797E-01 -.246E+04   -.566E-01 0.840E-01 -.290E+00   -.735E-01 -.173E-01 -.227E+00
   0.181E+00 0.300E+00 0.246E+04   -.313E+00 -.392E+00 -.246E+04   0.101E+00 0.636E-02 -.292E+00   0.208E-01 0.757E-01 -.226E+00
   0.732E-05 -.695E-02 0.246E+04   0.951E-04 0.103E-04 -.246E+04   -.149E-10 -.224E-03 -.871E-01   0.422E-02 0.734E-02 -.195E+00
   -.181E+00 0.300E+00 0.246E+04   0.313E+00 -.392E+00 -.246E+04   -.101E+00 0.636E-02 -.292E+00   -.223E-01 0.766E-01 -.225E+00
   -.174E+00 -.311E+00 0.246E+04   0.182E+00 0.471E+00 -.246E+04   0.452E-01 -.904E-01 -.289E+00   -.492E-01 -.571E-01 -.224E+00
   0.174E+00 -.311E+00 0.246E+04   -.183E+00 0.471E+00 -.246E+04   -.452E-01 -.904E-01 -.289E+00   0.510E-01 -.582E-01 -.224E+00
   0.199E-04 0.861E-04 0.246E+04   0.166E-03 0.432E-02 -.246E+04   0.595E-10 0.894E-03 -.435E+00   -.455E-02 -.532E-02 -.226E+00
   0.323E+01 0.189E+01 0.824E+03   -.279E+01 -.163E+01 -.824E+03   -.312E+00 -.180E+00 -.705E+00   -.960E-01 -.564E-01 0.267E+00
   0.142E-04 0.263E+01 0.829E+03   0.148E-03 -.262E+01 -.829E+03   0.197E-08 0.296E-01 -.206E+00   0.388E-02 -.946E-01 0.336E+00
   -.323E+01 0.189E+01 0.824E+03   0.279E+01 -.163E+01 -.824E+03   0.312E+00 -.180E+00 -.705E+00   0.948E-01 -.557E-01 0.266E+00
   0.226E+01 -.133E+01 0.829E+03   -.225E+01 0.131E+01 -.829E+03   0.256E-01 -.145E-01 -.208E+00   -.796E-01 0.565E-01 0.333E+00
   -.226E+01 -.133E+01 0.829E+03   0.225E+01 0.131E+01 -.829E+03   -.256E-01 -.145E-01 -.208E+00   0.867E-01 0.556E-01 0.332E+00
   0.318E-04 0.425E+01 0.829E+03   0.236E-03 -.445E+01 -.829E+03   0.145E-08 0.218E-01 -.530E+00   -.191E-02 0.122E+00 0.352E+00
   -.214E-04 -.374E+01 0.824E+03   0.162E-03 0.323E+01 -.824E+03   0.240E-07 0.360E+00 -.703E+00   -.279E-03 0.106E+00 0.264E+00
   0.369E+01 -.214E+01 0.829E+03   -.386E+01 0.224E+01 -.829E+03   0.192E-01 -.112E-01 -.526E+00   0.101E+00 -.635E-01 0.352E+00
   -.369E+01 -.214E+01 0.829E+03   0.386E+01 0.224E+01 -.829E+03   -.192E-01 -.112E-01 -.526E+00   -.101E+00 -.618E-01 0.353E+00
   -.413E-04 -.327E+00 -.838E+03   0.556E-04 0.136E+00 0.836E+03   0.323E-08 0.485E-01 0.487E+00   0.847E-03 0.146E+00 0.973E+00
   0.216E+01 0.135E+01 -.823E+03   -.137E+01 -.894E+00 0.823E+03   -.986E+00 -.567E+00 -.900E+00   0.185E+00 0.106E+00 0.145E+01
   -.216E+01 0.135E+01 -.823E+03   0.137E+01 -.894E+00 0.823E+03   0.986E+00 -.567E+00 -.900E+00   -.191E+00 0.105E+00 0.145E+01
   -.757E+01 0.423E+01 -.825E+03   0.722E+01 -.403E+01 0.823E+03   0.361E+00 -.211E+00 0.535E+00   -.631E-02 0.422E-02 0.101E+01
   -.846E-05 -.264E+01 -.823E+03   0.139E-03 0.174E+01 0.823E+03   0.757E-07 0.114E+01 -.901E+00   -.376E-02 -.220E+00 0.145E+01
   0.757E+01 0.423E+01 -.825E+03   -.722E+01 -.403E+01 0.823E+03   -.361E+00 -.211E+00 0.535E+00   0.767E-02 0.474E-02 0.101E+01
   0.357E+00 0.260E+00 -.838E+03   -.195E+00 -.166E+00 0.837E+03   -.395E-01 -.222E-01 0.481E+00   -.127E+00 -.735E-01 0.971E+00
   -.357E+00 0.260E+00 -.838E+03   0.195E+00 -.167E+00 0.837E+03   0.395E-01 -.222E-01 0.481E+00   0.127E+00 -.726E-01 0.971E+00
   0.113E-04 -.871E+01 -.825E+03   0.198E-03 0.830E+01 0.824E+03   0.277E-07 0.416E+00 0.534E+00   -.277E-03 -.759E-02 0.101E+01
   -.116E-04 0.809E+00 -.241E+04   0.289E-04 -.810E+00 0.241E+04   -.189E-10 -.284E-03 0.560E+00   0.161E-03 0.843E-03 0.558E+00
   0.657E+01 0.812E+01 -.239E+04   -.594E+01 -.705E+01 0.239E+04   -.994E+00 -.154E+01 -.724E-01   0.352E+00 0.462E+00 0.531E+00
   -.657E+01 0.812E+01 -.239E+04   0.594E+01 -.705E+01 0.239E+04   0.994E+00 -.154E+01 -.724E-01   -.352E+00 0.463E+00 0.531E+00
   0.100E+02 0.228E+01 -.239E+04   -.879E+01 -.227E+01 0.239E+04   -.182E+01 -.903E-01 -.314E-01   0.573E+00 0.754E-01 0.532E+00
   -.100E+02 0.228E+01 -.239E+04   0.879E+01 -.227E+01 0.239E+04   0.182E+01 -.903E-01 -.314E-01   -.573E+00 0.763E-01 0.533E+00
   0.262E+01 -.104E+02 -.239E+04   -.200E+01 0.932E+01 0.239E+04   -.837E+00 0.163E+01 -.717E-01   0.224E+00 -.537E+00 0.530E+00
   -.262E+01 -.104E+02 -.239E+04   0.200E+01 0.932E+01 0.239E+04   0.837E+00 0.163E+01 -.717E-01   -.223E+00 -.537E+00 0.531E+00
   0.351E-04 -.808E+00 -.241E+04   0.142E-03 0.813E+00 0.241E+04   0.597E-10 0.897E-03 0.679E+00   -.418E-02 -.615E-02 0.529E+00
   -.312E-04 -.213E-02 -.124E+04   0.635E-04 0.967E-03 0.123E+04   -.175E-10 -.263E-03 0.273E+01   0.118E-02 0.183E-02 0.516E+00
   0.239E+03 0.622E-02 -.874E+03   -.284E+03 -.659E-02 0.874E+03   0.456E+02 0.227E-03 -.123E+00   0.193E-01 0.146E-03 -.220E+00
   -.239E+03 0.624E-02 -.874E+03   0.284E+03 -.659E-02 0.874E+03   -.456E+02 0.227E-03 -.123E+00   -.194E-01 0.158E-03 -.220E+00
   -.677E-03 -.357E-02 -.117E+02   -.568E-13 0.210E-12 0.227E-12   0.215E-09 0.322E-02 -.358E+01   -.576E-03 0.613E-03 0.155E+02

 POSITION                                       TOTAL-FORCE (eV/Angst)
      0.00000      0.00000      5.28038        -0.000000     -0.000252     -0.150446
      2.93784      0.00000      5.28038        -0.012658     -0.003561     -0.062723
      5.87568      0.00000      5.28038         0.012658     -0.003561     -0.062723
      1.46892      2.54424      5.28038        -0.009136     -0.009147     -0.063253
      4.40676      2.54424      5.28038         0.000000      0.000160     -0.095240
      7.34459      2.54424      5.28038         0.009136     -0.009147     -0.063253
      2.93784      5.08848      5.28038         0.003348      0.012736     -0.063112
      5.87568      5.08848      5.28038        -0.003348      0.012736     -0.063112
      8.81351      5.08848      5.28038        -0.000000     -0.000030     -0.085588
      1.46892      0.84808      7.67911         0.033407      0.019537      0.127499
      4.40676      0.84808      7.67911        -0.000000     -0.049874      0.018066
      7.34459      0.84808      7.67911        -0.033407      0.019537      0.127499
      2.93784      3.39232      7.67911        -0.043595      0.025301      0.017753
      5.87568      3.39232      7.67911         0.043595      0.025301      0.017753
      8.81351      3.39232      7.67911        -0.000000     -0.055307      0.083458
      4.40676      5.93656      7.67911        -0.000000     -0.038747      0.127588
      7.34459      5.93656      7.67911        -0.047950      0.027429      0.083758
     10.28243      5.93656      7.67911         0.047950      0.027429      0.083758
      8.81351      1.69581     10.07501         0.000000      0.004229     -0.000669
      2.95207      1.70438     10.04871        -0.013881     -0.008111     -0.005321
      5.86144      1.70438     10.04871         0.013881     -0.008111     -0.005321
     10.26527      4.25031     10.05786         0.003854     -0.002032     -0.000406
      4.40676      4.22397     10.04871         0.000000      0.015879     -0.006239
      7.36176      4.25031     10.05786        -0.003854     -0.002032     -0.000406
     11.75166      6.78482     10.07501        -0.003853     -0.002220     -0.002370
      5.87537      6.78482     10.07501         0.003853     -0.002220     -0.002370
      8.81351      6.76483     10.05786         0.000000      0.004225     -0.001689
      0.00000      0.00000     12.48798        -0.000000     -0.000690     -0.009258
      2.98892      0.08359     12.48152        -0.004788      0.002286      0.010473
      5.82460      0.08359     12.48152         0.004788      0.002286      0.010473
      1.56685      2.54668     12.48152         0.000647     -0.005163      0.011196
      7.24666      2.54668     12.48152        -0.000647     -0.005163      0.011196
      2.98469      5.00245     12.48152         0.004737      0.002690      0.010802
      5.82882      5.00245     12.48152        -0.004737      0.002690      0.010802
      8.81351      5.08848     12.49580         0.000000      0.000491      0.001936
      4.40676      2.54424     12.17616         0.000000      0.000398     -0.015025
      3.84979      2.54413     16.19690        -0.008353      0.000014      0.002259
      4.96373      2.54413     16.19690         0.008353      0.000014      0.002259
    total drift:                               -0.001253      0.000263      0.215775

  FREE ENERGIE OF THE ION-ELECTRON SYSTEM (eV)
  free  energy   TOTEN  =      -130.41643468 eV

  energy  without entropy=     -130.41643468  energy(sigma->0) =     -130.41643468

 stress matrix after NEB project (eV)
    -23.18623     -0.00000     -0.00000
     -0.00000    -23.18724     -0.00016
     -0.00000     -0.00016      2.83731
  FORCES: max atom, RMS     0.008653    0.001985
  FORCE total and by dimension    0.012237    0.008353
  Stress total and by dimension   32.913519   23.187238
|           W    W    AA    RRRRR   N    N  II  N    N   GGGG   !!!           |
|           W    W   A  A   R    R  NN   N  II  NN   N  G    G  !!!           |
|           W    W  A    A  R    R  N N  N  II  N N  N  G       !!!           |
|           W WW W  AAAAAA  RRRRR   N  N N  II  N  N N  G  GGG   !            |
|           WW  WW  A    A  R   R   N   NN  II  N   NN  G    G                |
|           W    W  A    A  R    R  N    N  II  N    N   GGGG   !!!           |
|     Tetrahedron method does not include variations of the Fermi             |
|     occupations, so forces and stress will be inaccurate. We suggest        |
|     using a different smearing scheme ISMEAR = 1 or 2 for metals in         |
|     relaxations.                                                            |

 total charge

# of ion       s       p       d       tot
    1        0.548   0.239   8.765   9.552
    2        0.543   0.241   8.765   9.550
    3        0.543   0.241   8.765   9.550
    4        0.543   0.241   8.766   9.550
    5        0.545   0.241   8.762   9.548
    6        0.543   0.241   8.766   9.550
    7        0.543   0.241   8.765   9.550
    8        0.543   0.241   8.765   9.550
    9        0.544   0.239   8.768   9.550
   10        0.526   0.308   8.767   9.601
   11        0.521   0.308   8.781   9.610
   12        0.526   0.308   8.767   9.601
   13        0.521   0.308   8.781   9.610
   14        0.521   0.308   8.781   9.610
   15        0.517   0.309   8.775   9.601
   16        0.526   0.308   8.767   9.601
   17        0.517   0.309   8.775   9.602
   18        0.517   0.309   8.775   9.602
   19        0.517   0.299   8.774   9.590
   20        0.556   0.338   8.741   9.635
   21        0.556   0.338   8.741   9.635
   22        0.509   0.309   8.778   9.596
   23        0.557   0.338   8.741   9.635
   24        0.509   0.309   8.778   9.596
   25        0.517   0.299   8.774   9.591
   26        0.517   0.299   8.774   9.591
   27        0.509   0.309   8.778   9.596
   28        0.539   0.224   8.758   9.521
   29        0.571   0.245   8.740   9.556
   30        0.571   0.245   8.740   9.556
   31        0.571   0.244   8.740   9.555
   32        0.571   0.244   8.740   9.555
   33        0.571   0.245   8.740   9.556
   34        0.571   0.245   8.740   9.556
   35        0.535   0.223   8.762   9.520
   36        0.348   0.317   4.146   4.811
   37        1.373   2.468   0.000   3.841
   38        1.373   2.468   0.000   3.841
tot         21.933  14.944 310.843 347.720

 BZINTS: Fermi energy:    0.790301;  401.000000 electrons
         Band energy:-0.123061E+04;  BLOECHL correction:   -0.028479