 vasp.6.2.0 18Jan21 (build Jun 12 2021 23:27:24) complex

 executed on             LinuxIFC date 2022.05.27  04:58:56

 INCAR:
   ISMEAR = -5
   SIGMA = 0.1
   ISPIN = 1
   EDIFF = 1.d-5
   EDIFFG = -0.01
   NSW = 0
   NELM = 150
   ENCUT = 500
   ISIF = 2
   IBRION = 2
   LREAL = Auto
   ALGO = Fast
   ICHARG = 11
   LORBIT = 10
   LCHARG = .F.
   LWAVE = .F.

 POTCAR:    PAW_PBE Au 04Oct2007
 POTCAR:    PAW_PBE Ti 08Apr2002
 POTCAR:    PAW_PBE H 15Jun2001
|           W    W    AA    RRRRR   N    N  II  N    N   GGGG   !!!           |
|           W    W   A  A   R    R  NN   N  II  NN   N  G    G  !!!           |
|           W    W  A    A  R    R  N N  N  II  N N  N  G       !!!           |
|           W WW W  AAAAAA  RRRRR   N  N N  II  N  N N  G  GGG   !            |
|           WW  WW  A    A  R   R   N   NN  II  N   NN  G    G                |
|           W    W  A    A  R    R  N    N  II  N    N   GGGG   !!!           |
|     For optimal performance we recommend to set                             |
|       NCORE = 2 up to number-of-cores-per-socket                            |
|     This setting can greatly improve the performance of VASP for DFT.       |
|     The default, NCORE=1 might be grossly inefficient on modern             |
|     multi-core architectures or massively parallel machines. Do your        |
|     Unfortunately you need to use the default for GW and RPA                |
|     calculations (for HF NCORE is supported but not extensively tested      |
|     yet).                                                                   |

 POTCAR:    PAW_PBE Au 04Oct2007
   VRHFIN =Au: s1d10

   TITEL  = PAW_PBE Au 04Oct2007
   POMASS =  196.966; ZVAL   =   11.000    mass and valenz
   ENMAX  =  229.943; ENMIN  =  172.457 eV

 POTCAR:    PAW_PBE Ti 08Apr2002
   VRHFIN =Ti: d3 s1

   TITEL  = PAW_PBE Ti 08Apr2002
   POMASS =   47.880; ZVAL   =    4.000    mass and valenz
   ENMAX  =  178.330; ENMIN  =  133.747 eV

 POTCAR:    PAW_PBE H 15Jun2001
   VRHFIN =H: ultrasoft test

   TITEL  = PAW_PBE H 15Jun2001
   POMASS =    1.000; ZVAL   =    1.000    mass and valenz
   ENMAX  =  250.000; ENMIN  =  200.000 eV

 Optimization of the real space projectors (new method)

 maximal supplied QI-value         = 15.12
 optimisation between [QCUT,QGAM] = [ 11.34, 22.83] = [ 36.00,145.93] Ry
 Optimized for a Real-space Cutoff    1.39 Angstroem

   l    n(q)    QCUT    max X(q) W(low)/X(q) W(high)/X(q)  e(spline)
   2      9    11.338    60.898    0.39E-03    0.42E-03    0.21E-06
   2      9    11.338    58.894    0.40E-03    0.42E-03    0.22E-06
   0      9    11.338   109.617    0.13E-03    0.20E-04    0.13E-06
   0      9    11.338    75.026    0.13E-03    0.20E-04    0.13E-06
   1      9    11.338    16.344    0.33E-04    0.24E-03    0.18E-06
   1      9    11.338    10.160    0.26E-04    0.19E-03    0.15E-06
 Optimization of the real space projectors (new method)

[...]

   l    n(q)    QCUT    max X(q) W(low)/X(q) W(high)/X(q)  e(spline)
   2     10    11.404    49.363    0.27E-03    0.67E-03    0.76E-06
   2     10    11.404    47.669    0.26E-03    0.65E-03    0.73E-06
   0     11    11.404    26.374    0.17E-03    0.20E-03    0.34E-06
   0     11    11.404    11.549    0.14E-03    0.16E-03    0.29E-06
   1     10    11.404     9.492    0.33E-04    0.56E-04    0.16E-06
 Optimization of the real space projectors (new method)

 maximal supplied QI-value         = 34.20
 optimisation between [QCUT,QGAM] = [ 11.29, 22.57] = [ 35.68,142.71] Ry
 Optimized for a Real-space Cutoff    1.16 Angstroem

   l    n(q)    QCUT    max X(q) W(low)/X(q) W(high)/X(q)  e(spline)
   0      8    11.287    19.460    0.40E-03    0.73E-03    0.16E-06
   0      8    11.287    12.209    0.38E-03    0.70E-03    0.15E-06
   1      7    11.287     4.655    0.22E-03    0.25E-04    0.22E-06
  PAW_PBE Au 04Oct2007                  :
  PAW_PBE Ti 08Apr2002                  :
  PAW_PBE H 15Jun2001                   :

 POSCAR: Au-Ti-H2
  positions in direct lattice
  velocities in cartesian coordinates
 exchange correlation table for  LEXCH =        8
   RHO(1)=    0.500       N(1)  =     2000
   RHO(2)=  100.500       N(2)  =     4000

 VTST: version 3.2, (02/03/18)

 CHAIN: initializing optimizer

 OPT: Using VASP Conjugate-Gradient optimizer
 CHAIN: Read ICHAIN            0

 POSCAR: Au-Ti-H2
  positions in direct lattice
  velocities in cartesian coordinates

 ion  position               nearest neighbor table
   1  0.000  0.000  0.238-  16 2.94  12 2.94   6 2.94   8 2.94   7 2.94   3 2.94  10 2.94   4 2.94
                             2 2.94
   2  0.333  0.000  0.238-   9 2.94  11 2.94  17 2.94  10 2.94   8 2.94   4 2.94   5 2.94   1 2.94
                             3 2.94
   3  0.667  0.000  0.238-   7 2.94  18 2.94  12 2.94   1 2.94  11 2.94   5 2.94   6 2.94   9 2.94
                             2 2.94
   4  0.000  0.333  0.238-  10 2.94   6 2.94   5 2.94  13 2.94   2 2.94  15 2.94   9 2.94   1 2.94
                             7 2.94
   5  0.333  0.333  0.238-  13 2.94   7 2.94  11 2.94   4 2.94   2 2.94  14 2.94   3 2.94   8 2.94
                             6 2.94
   6  0.667  0.333  0.238-  15 2.94  14 2.94   1 2.94  12 2.94   4 2.94   9 2.94   8 2.94   3 2.94
                             5 2.94
   7  0.000  0.667  0.238-  18 2.94   3 2.94  16 2.94   5 2.94   1 2.94  13 2.94   8 2.94   4 2.94
                             9 2.94
   8  0.333  0.667  0.238-   9 2.94  17 2.94   1 2.94   2 2.94  14 2.94  16 2.94   6 2.94   7 2.94
                             5 2.94
   9  0.667  0.667  0.238-   2 2.94   8 2.94  17 2.94   6 2.94  15 2.94   4 2.94   3 2.94  18 2.94
                             7 2.94
  10  0.111  0.111  0.346-  26 2.93  19 2.93  20 2.93  11 2.94  17 2.94   2 2.94   4 2.94   1 2.94
                            12 2.94  16 2.94  13 2.94  15 2.94
  11  0.444  0.111  0.346-  20 2.92  21 2.92  27 2.94  13 2.94   2 2.94  10 2.94  17 2.94   5 2.94
                             3 2.94  18 2.94  14 2.94  12 2.94
  12  0.778  0.111  0.346-  25 2.93  19 2.93  21 2.93  16 2.94  18 2.94   1 2.94  14 2.94  15 2.94
                             3 2.94   6 2.94  10 2.94  11 2.94
  13  0.111  0.444  0.346-  23 2.92  20 2.92  22 2.94   5 2.94  18 2.94  11 2.94   7 2.94   4 2.94
                            16 2.94  10 2.94  14 2.94  15 2.94
  14  0.444  0.444  0.346-  21 2.92  23 2.92  24 2.94  15 2.94   6 2.94  12 2.94   8 2.94  17 2.94
                             5 2.94  16 2.94  13 2.94  11 2.94
  15  0.778  0.444  0.346-  24 2.92  22 2.92  19 2.93  14 2.94   6 2.94  17 2.94  12 2.94   9 2.94
                             4 2.94  10 2.94  13 2.94  18 2.94
  16  0.111  0.778  0.346-  25 2.93  26 2.93  23 2.93  18 2.94  12 2.94   7 2.94   1 2.94   8 2.94
                            13 2.94  10 2.94  14 2.94  17 2.94
  17  0.444  0.778  0.346-  27 2.92  24 2.92  26 2.93   9 2.94  15 2.94   2 2.94  10 2.94  11 2.94
                             8 2.94  14 2.94  16 2.94  18 2.94
  18  0.778  0.778  0.346-  22 2.92  27 2.92  25 2.93  16 2.94   7 2.94  13 2.94  12 2.94   3 2.94
                            11 2.94   9 2.94  15 2.94  17 2.94
  19  0.889  0.222  0.454-  10 2.93  12 2.93  15 2.93  26 2.94  25 2.94  24 2.94  22 2.94  21 2.95
                            20 2.95  28 2.95  32 3.03  31 3.03
  20  0.223  0.223  0.453-  36 2.76  23 2.91  21 2.91  11 2.92  13 2.92  10 2.93  27 2.95  22 2.95
                            26 2.95  19 2.95  29 2.96  31 2.96
  21  0.554  0.223  0.453-  36 2.76  20 2.91  23 2.91  14 2.92  11 2.92  12 2.93  27 2.95  24 2.95
                            25 2.95  19 2.95  30 2.96  32 2.96
  22  0.887  0.556  0.454-  24 2.92  27 2.92  18 2.92  15 2.92  13 2.94  25 2.94  19 2.94  23 2.95
                            20 2.95  35 2.96  33 2.99  31 2.99
  23  0.223  0.554  0.453-  36 2.76  20 2.91  21 2.91  13 2.92  14 2.92  16 2.93  22 2.95  24 2.95
                            25 2.95  26 2.95  33 2.96  34 2.96
  24  0.556  0.556  0.454-  27 2.92  22 2.92  15 2.92  17 2.92  14 2.94  26 2.94  19 2.94  21 2.95
                            23 2.95  35 2.96  32 2.99  34 2.99
  25  0.889  0.889  0.454-  16 2.93  12 2.93  18 2.93  19 2.94  26 2.94  22 2.94  27 2.94  23 2.95
                            21 2.95  28 2.95  33 3.03  30 3.03
  26  0.222  0.889  0.454-  10 2.93  16 2.93  17 2.93  19 2.94  25 2.94  27 2.94  24 2.94  20 2.95
                            23 2.95  28 2.95  29 3.03  34 3.03
  27  0.556  0.887  0.454-  24 2.92  22 2.92  17 2.92  18 2.92  11 2.94  26 2.94  25 2.94  20 2.95
                            21 2.95  35 2.96  29 2.99  30 2.99
  28  0.000  0.000  0.563-  25 2.95  19 2.95  26 2.95  34 2.98  32 2.98  33 2.98  30 2.98  31 2.98
                            29 2.98
  29  0.334  0.009  0.564-  30 2.85  31 2.86  36 2.87  20 2.96  35 2.98  28 2.98  27 2.99  26 3.03
                            34 3.10
  30  0.657  0.009  0.564-  29 2.85  32 2.86  36 2.87  21 2.96  35 2.98  28 2.98  27 2.99  25 3.03
                            33 3.10
  31  0.009  0.334  0.564-  33 2.85  29 2.86  36 2.87  20 2.96  35 2.98  28 2.98  22 2.99  19 3.03
                            32 3.10
  32  0.657  0.334  0.564-  34 2.85  30 2.86  36 2.87  21 2.96  35 2.98  28 2.98  24 2.99  19 3.03
                            31 3.10
  33  0.009  0.657  0.564-  31 2.85  34 2.86  36 2.87  23 2.96  35 2.98  28 2.98  22 2.99  25 3.03
                            30 3.10
  34  0.334  0.657  0.564-  32 2.85  33 2.86  36 2.87  23 2.96  35 2.98  28 2.98  24 2.99  26 3.03
                            29 3.10
  35  0.667  0.667  0.563-  24 2.96  27 2.96  22 2.96  29 2.98  34 2.98  32 2.98  31 2.98  30 2.98
                            33 2.98
  36  0.333  0.333  0.552-  37 2.01  38 2.01  20 2.76  23 2.76  21 2.76  33 2.87  31 2.87  29 2.87
                            30 2.87  34 2.87  32 2.87
  37  0.288  0.334  0.641-  38 0.80  36 2.01
  38  0.378  0.334  0.641-  37 0.80  36 2.01

  LATTYP: Found a hexagonal cell.
 ALAT       =     8.8135128021
 C/A-ratio  =     2.5184286595

  Lattice vectors:

 A1 = (  -4.4067569092,  -7.6327256898,   0.0000000000)
 A2 = (   8.8135128021,   0.0000000000,   0.0000000000)
 A3 = (   0.0000000000,   0.0000000000,  22.1962032318)

Analysis of symmetry for initial positions (statically):
 Subroutine PRICEL returns:
 Original cell was already a primitive cell.

 Routine SETGRP: Setting up the symmetry group for a
 hexagonal supercell.

 Subroutine GETGRP returns: Found  2 space group operations
 (whereof  2 operations were pure point group operations)
 out of a pool of 24 trial point group operations.

The static configuration has the point symmetry C_1h.

Analysis of symmetry for dynamics (positions and initial velocities):
 Subroutine PRICEL returns:
 Original cell was already a primitive cell.

[...]

The dynamic configuration has the point symmetry C_1h.

Analysis of constrained symmetry for selective dynamics:
 Subroutine PRICEL returns:
 Original cell was already a primitive cell.

 Routine SETGRP: Setting up the symmetry group for a
 hexagonal supercell.

 Subroutine GETGRP returns: Found  2 space group operations
 (whereof  2 operations were pure point group operations)
[...]
     33      -4.6729      2.00000
     34      -4.6567      2.00000
     35      -4.6485      2.00000
     36      -4.5633      2.00000
     37      -4.5548      2.00000
     38      -4.4627      2.00000
     39      -4.4513      2.00000
     40      -4.3915      2.00000
     41      -4.3311      2.00000
     42      -4.3050      2.00000
     43      -4.2642      2.00000
     44      -4.2422      2.00000
     45      -4.2279      2.00000
     46      -4.2025      2.00000
     47      -4.1082      2.00000
     48      -4.0940      2.00000
     49      -4.0682      2.00000
     50      -4.0396      2.00000
     51      -4.0341      2.00000
     52      -4.0293      2.00000
     53      -4.0064      2.00000
     54      -3.9872      2.00000
     55      -3.9408      2.00000
     56      -3.9166      2.00000
     57      -3.9014      2.00000
     58      -3.8942      2.00000
     59      -3.8747      2.00000
     60      -3.8697      2.00000
[...]
    238       6.5665      0.00000
    239       6.6281      0.00000
    240       6.7431      0.00000
    241       6.7994      0.00000
    242       6.8473      0.00000
    243       6.9603      0.00000
    244       7.1508      0.00000
    245       7.3179      0.00000
    246       7.3808      0.00000
    247       7.4799      0.00000
    248       7.5313      0.00000
    249       7.6283      0.00000
    250       7.6411      0.00000
    251       7.7574      0.00000
    252       7.8339      0.00000

 soft charge-density along one line, spin component           1
         0         1         2         3         4         5         6         7         8         9
 total charge-density along one line

------------------------ aborting loop because EDIFF is reached ----------------------------------------

 total charge

# of ion       s       p       d       tot
    1        0.549   0.237   8.766   9.552
    2        0.542   0.241   8.765   9.548
    3        0.542   0.241   8.765   9.548
    4        0.541   0.241   8.766   9.548
    5        0.547   0.242   8.761   9.550
    6        0.541   0.241   8.766   9.548
    7        0.541   0.241   8.766   9.548
    8        0.541   0.241   8.766   9.548
    9        0.544   0.239   8.768   9.551
   10        0.524   0.306   8.768   9.598
   11        0.522   0.306   8.779   9.606
   12        0.524   0.306   8.768   9.598
   13        0.521   0.306   8.780   9.606
   14        0.521   0.306   8.780   9.606
   15        0.517   0.308   8.773   9.598
   16        0.523   0.306   8.768   9.598
   17        0.517   0.308   8.773   9.598
   18        0.517   0.308   8.773   9.598
   19        0.521   0.298   8.768   9.587
   20        0.564   0.330   8.735   9.629
   21        0.564   0.330   8.735   9.629
   22        0.510   0.306   8.775   9.592
   23        0.563   0.329   8.736   9.628
   24        0.510   0.306   8.775   9.592
   25        0.521   0.297   8.770   9.587
   26        0.521   0.297   8.770   9.587
   27        0.511   0.306   8.775   9.593
   28        0.541   0.229   8.756   9.525
   29        0.586   0.242   8.735   9.564
   30        0.586   0.242   8.735   9.564
   31        0.584   0.245   8.734   9.563
   32        0.584   0.245   8.734   9.563
   33        0.586   0.242   8.736   9.563
   34        0.586   0.242   8.736   9.563
   35        0.539   0.229   8.759   9.526
   36        0.403   0.525   2.271   3.200
   37        0.577   0.029   0.000   0.606
   38        0.577   0.029   0.000   0.606
tot         20.506  10.222 308.888 339.616

  FORCE on cell =-STRESS in cart. coord.  units (eV):
  Direction    XX          YY          ZZ          XY          YZ          ZX
  Alpha Z   994.84532   994.84532   994.84532
  Ewald  116462.32872116444.81139************    -0.00033    -0.11775    -0.00017
  Hartree124966.41127124965.01773************    -0.00000    -0.12591    -0.00005
  E(xc)   -1748.26525 -1748.27625 -1755.99011     0.00000    -0.00175    -0.00000
  Local  ************************253661.35025     0.00185     0.33731     0.00013
  n-local   -54.54727   -53.09669   -25.58115     4.66389    -0.23776     0.12470
  augment  2368.94829  2368.64953  2388.24711    -0.00136     0.03345     0.00002
  Kinetic  5379.56039  5385.09670  5444.58152     0.95371     0.00184    -0.06397
  Fock        0.00000     0.00000     0.00000     0.00000     0.00000     0.00000
  Total     -22.34356   -22.13681     2.59356    -0.00000    -0.11056    -0.00000
  in kB     -23.97483   -23.75299     2.78292    -0.00000    -0.11863    -0.00000

 VOLUME and BASIS-vectors are now :
  energy-cutoff  :      500.00
  volume of cell :     1493.16
      direct lattice vectors                 reciprocal lattice vectors
     8.813512802  0.000000000  0.000000000     0.113462137 -0.065507406  0.000000000
     4.406756909  7.632725690  0.000000000     0.000000000  0.131014796  0.000000000
     0.000000000  0.000000000 22.196203232     0.000000000  0.000000000  0.045052750

  length of vectors
     8.813512802  8.813512802 22.196203232     0.131014796  0.131014796  0.045052750

 FORCES acting on ions
    electron-ion (+dipol)            ewald-force                    non-local-force                 convergence-correction
   -.197E-04 0.243E-01 0.245E+04   0.518E-04 -.115E-02 -.245E+04   -.134E-08 -.202E-01 -.587E+00   -.180E-03 -.478E-02 -.392E-01
   0.894E-01 -.372E+00 0.245E+04   -.671E-01 0.360E+00 -.245E+04   0.309E-01 0.793E-01 -.339E+00   -.532E-01 -.733E-01 -.643E-01
   -.895E-01 -.372E+00 0.245E+04   0.670E-01 0.360E+00 -.245E+04   -.309E-01 0.793E-01 -.339E+00   0.535E-01 -.713E-01 -.638E-01
   -.281E+00 0.269E+00 0.245E+04   0.279E+00 -.239E+00 -.245E+04   0.951E-01 -.196E-01 -.367E+00   -.959E-01 -.938E-02 -.846E-01
   0.742E-05 0.103E-01 0.245E+04   0.951E-04 -.256E-03 -.245E+04   -.580E-09 -.872E-02 0.651E-01   0.424E-02 -.131E-02 -.415E-01
   0.281E+00 0.269E+00 0.245E+04   -.279E+00 -.239E+00 -.245E+04   -.951E-01 -.196E-01 -.367E+00   0.944E-01 -.842E-02 -.837E-01
   -.362E+00 0.932E-01 0.245E+04   0.346E+00 -.121E+00 -.245E+04   0.517E-01 -.573E-01 -.346E+00   -.380E-01 0.881E-01 -.669E-01
   0.362E+00 0.932E-01 0.245E+04   -.346E+00 -.121E+00 -.245E+04   -.517E-01 -.573E-01 -.346E+00   0.399E-01 0.871E-01 -.667E-01
   0.197E-04 -.138E-01 0.245E+04   0.166E-03 0.143E-02 -.245E+04   0.122E-08 0.184E-01 -.340E+00   -.461E-02 -.291E-02 -.922E-01
   -.680E+00 -.341E+00 0.782E+03   0.947E+00 0.536E+00 -.781E+03   -.230E+00 -.148E+00 -.576E+00   -.554E-01 -.544E-01 -.221E-01
   0.143E-04 -.176E+01 0.780E+03   0.148E-03 0.190E+01 -.780E+03   -.203E-08 -.306E-01 -.164E+00   0.363E-02 -.154E+00 -.994E-02
   0.680E+00 -.341E+00 0.782E+03   -.947E+00 0.536E+00 -.781E+03   0.230E+00 -.148E+00 -.576E+00   0.543E-01 -.533E-01 -.231E-01
   -.158E+01 0.864E+00 0.780E+03   0.166E+01 -.952E+00 -.780E+03   -.849E-03 0.169E-01 -.152E+00   -.106E+00 0.950E-01 -.111E-01
   0.158E+01 0.864E+00 0.780E+03   -.166E+01 -.952E+00 -.780E+03   0.849E-03 0.169E-01 -.152E+00   0.113E+00 0.945E-01 -.121E-01
   0.325E-04 0.321E+01 0.786E+03   0.235E-03 -.320E+01 -.785E+03   -.599E-09 -.899E-02 -.498E+00   -.207E-02 -.465E-01 -.371E-01
   -.206E-04 0.771E+00 0.782E+03   0.162E-03 -.109E+01 -.781E+03   0.186E-07 0.279E+00 -.541E+00   0.348E-04 0.618E-01 -.160E-01
   0.279E+01 -.163E+01 0.786E+03   -.277E+01 0.161E+01 -.785E+03   0.212E-02 0.666E-02 -.449E+00   -.510E-01 0.298E-01 -.244E-01
   -.279E+01 -.163E+01 0.786E+03   0.277E+01 0.161E+01 -.785E+03   -.212E-02 0.666E-02 -.449E+00   0.510E-01 0.314E-01 -.245E-01
   -.421E-04 -.467E+01 -.894E+03   0.564E-04 0.475E+01 0.893E+03   -.978E-09 -.147E-01 0.556E+00   0.353E-02 -.479E-01 -.152E-01
   -.217E+02 -.124E+02 -.918E+03   0.229E+02 0.131E+02 0.919E+03   -.111E+01 -.652E+00 -.113E+01   -.492E-01 -.409E-01 0.111E+00
   0.217E+02 -.124E+02 -.918E+03   -.229E+02 0.131E+02 0.919E+03   0.111E+01 -.652E+00 -.113E+01   0.485E-01 -.399E-01 0.110E+00
   -.172E+02 0.983E+01 -.889E+03   0.169E+02 -.968E+01 0.888E+03   0.283E+00 -.166E+00 0.573E+00   -.210E-02 0.174E-01 0.158E-01
   -.678E-05 0.250E+02 -.918E+03   0.137E-03 -.263E+02 0.919E+03   0.854E-07 0.128E+01 -.104E+01   0.131E-03 0.651E-01 0.149E+00
   0.172E+02 0.983E+01 -.889E+03   -.169E+02 -.968E+01 0.888E+03   -.283E+00 -.166E+00 0.573E+00   0.184E-02 0.187E-01 0.157E-01
   0.406E+01 0.238E+01 -.894E+03   -.415E+01 -.242E+01 0.893E+03   0.364E-01 0.218E-01 0.586E+00   0.588E-01 0.182E-01 -.103E-01
   -.406E+01 0.238E+01 -.894E+03   0.415E+01 -.242E+01 0.893E+03   -.364E-01 0.218E-01 0.586E+00   -.516E-01 0.184E-01 -.995E-02
   0.795E-05 -.198E+02 -.889E+03   0.199E-03 0.195E+02 0.888E+03   0.220E-07 0.331E+00 0.598E+00   -.177E-02 -.198E-01 0.898E-02
   -.911E-05 0.255E+00 -.245E+04   0.267E-04 -.248E+00 0.245E+04   -.191E-10 -.287E-03 0.575E+00   0.331E-03 -.193E-01 0.440E-01
   -.133E+02 -.282E+02 -.246E+04   0.143E+02 0.299E+02 0.246E+04   -.115E+01 -.179E+01 -.325E+00   0.831E-01 0.527E-01 0.865E-01
   0.133E+02 -.282E+02 -.246E+04   -.143E+02 0.299E+02 0.246E+04   0.115E+01 -.179E+01 -.325E+00   -.834E-01 0.538E-01 0.872E-01
   -.304E+02 0.303E+01 -.246E+04   0.324E+02 -.299E+01 0.246E+04   -.211E+01 -.689E-01 -.351E+00   0.876E-01 0.380E-01 0.862E-01
   0.304E+02 0.303E+01 -.246E+04   -.324E+02 -.299E+01 0.246E+04   0.211E+01 -.689E-01 -.351E+00   -.878E-01 0.392E-01 0.866E-01
   -.184E+02 0.251E+02 -.246E+04   0.194E+02 -.268E+02 0.246E+04   -.103E+01 0.184E+01 -.298E+00   0.224E-01 -.884E-01 0.712E-01
   0.184E+02 0.251E+02 -.246E+04   -.194E+02 -.268E+02 0.246E+04   0.103E+01 0.184E+01 -.298E+00   -.206E-01 -.883E-01 0.710E-01
   0.322E-04 -.293E+00 -.245E+04   0.145E-03 0.290E+00 0.245E+04   0.602E-09 0.904E-02 0.617E+00   -.451E-02 0.709E-02 0.116E+00
   -.229E-04 0.510E-01 -.841E+03   0.413E-04 -.725E-01 0.840E+03   -.199E-08 -.300E-01 0.950E+00   0.245E-03 0.376E-02 0.408E-01
   0.153E+02 0.512E-01 -.250E+03   -.197E+02 -.439E-01 0.251E+03   0.442E+01 -.226E-02 -.754E+00   0.314E-02 -.930E-03 -.162E-01
   -.153E+02 0.512E-01 -.250E+03   0.197E+02 -.439E-01 0.251E+03   -.442E+01 -.226E-02 -.754E+00   -.310E-02 -.921E-03 -.162E-01
   -.812E-03 0.721E-01 0.802E+01   -.853E-13 0.202E-12 -.321E-11   -.439E-08 -.660E-01 -.768E+01   0.135E-01 -.607E-02 0.249E+00

 POSITION                                       TOTAL-FORCE (eV/Angst)
      0.00000      0.00000      5.28038        -0.000000     -0.001772     -0.152749
      2.93784      0.00000      5.28038        -0.000023     -0.004965     -0.063158
      5.87568      0.00000      5.28038         0.000023     -0.004965     -0.063158
      1.46892      2.54424      5.28038        -0.002522      0.001645     -0.066254
      4.40676      2.54424      5.28038         0.000000      0.000057     -0.077818
      7.34459      2.54424      5.28038         0.002522      0.001645     -0.066254
      2.93784      5.08848      5.28038        -0.003412      0.002543     -0.066015
      5.87568      5.08848      5.28038         0.003412      0.002543     -0.066015
      8.81351      5.08848      5.28038         0.000000      0.003163     -0.076855
      1.46892      0.84808      7.67911        -0.018505     -0.006229      0.073275
      4.40676      0.84808      7.67911        -0.000000     -0.036315      0.018546
      7.34459      0.84808      7.67911         0.018505     -0.006229      0.073275
      2.93784      3.39232      7.67911        -0.034166      0.023942      0.014013
      5.87568      3.39232      7.67911         0.034166      0.023942      0.014013
      8.81351      3.39232      7.67911        -0.000000     -0.040814      0.098499
      4.40676      5.93656      7.67911         0.000000      0.022842      0.072237
      7.34459      5.93656      7.67911        -0.033942      0.013943      0.108079
     10.28243      5.93656      7.67911         0.033942      0.013943      0.108079
      8.81351      1.69614     10.07331         0.000000      0.015885      0.036738
      2.94950      1.70289     10.06400        -0.005078      0.003669     -0.062038
      5.86402      1.70289     10.06400         0.005078      0.003669     -0.062038
     10.27143      4.24676     10.06599         0.003376     -0.005524      0.011813
      4.40676      4.22694     10.06400         0.000000      0.015702     -0.050485
      7.35560      4.24676     10.06599        -0.003376     -0.005524      0.011813
     11.75137      6.78466     10.07331        -0.005051     -0.001289      0.005358
      5.87566      6.78466     10.07331         0.005051     -0.001289      0.005358
      8.81351      6.77194     10.06599         0.000000      0.016895      0.016056
      0.00000      0.00000     12.49013        -0.000000     -0.011841      0.002804
      2.98093      0.06833     12.52966        -0.030970     -0.059985     -0.019211
      5.83259      0.06833     12.52966         0.030970     -0.059985     -0.019211
      1.54964      2.54739     12.52966        -0.006359      0.004549      0.029529
      7.26387      2.54739     12.52966         0.006359      0.004549      0.029529
      2.97547      5.01700     12.52966        -0.045790      0.048964     -0.027713
      5.83804      5.01700     12.52966         0.045790      0.048964     -0.027713
      8.81351      5.08848     12.50181         0.000000      0.013171      0.008935
      4.40676      2.54424     12.25739        -0.000000     -0.047755      0.233592
      4.00925      2.54970     14.23215         0.004231      0.004129     -0.002427
      4.80426      2.54970     14.23215        -0.004231      0.004129     -0.002427
    total drift:                                0.012696      0.000019      0.587394

  FREE ENERGIE OF THE ION-ELECTRON SYSTEM (eV)
  free  energy   TOTEN  =      -121.97627187 eV

  energy  without entropy=     -121.97627187  energy(sigma->0) =     -121.97627187

 stress matrix after NEB project (eV)
    -22.34356     -0.00000     -0.00000
     -0.00000    -22.13681     -0.11056
     -0.00000     -0.11056      2.59356
  FORCES: max atom, RMS     0.006391    0.001466
  FORCE total and by dimension    0.009038    0.004231
  Stress total and by dimension   31.559853   22.343562
|           W    W    AA    RRRRR   N    N  II  N    N   GGGG   !!!           |
|           W    W   A  A   R    R  NN   N  II  NN   N  G    G  !!!           |
|           W    W  A    A  R    R  N N  N  II  N N  N  G       !!!           |
|           W WW W  AAAAAA  RRRRR   N  N N  II  N  N N  G  GGG   !            |
|           WW  WW  A    A  R   R   N   NN  II  N   NN  G    G                |
|           W    W  A    A  R    R  N    N  II  N    N   GGGG   !!!           |
|     Tetrahedron method does not include variations of the Fermi             |
|     occupations, so forces and stress will be inaccurate. We suggest        |
|     using a different smearing scheme ISMEAR = 1 or 2 for metals in         |
|     relaxations.                                                            |

 total charge

# of ion       s       p       d       tot
    1        0.549   0.237   8.766   9.552
    2        0.542   0.241   8.765   9.548
    3        0.542   0.241   8.765   9.548
    4        0.541   0.241   8.766   9.548
    5        0.547   0.242   8.761   9.550
    6        0.541   0.241   8.766   9.548
    7        0.541   0.241   8.766   9.548
    8        0.541   0.241   8.766   9.548
    9        0.544   0.239   8.768   9.551
   10        0.524   0.306   8.768   9.598
   11        0.522   0.306   8.779   9.606
   12        0.524   0.306   8.768   9.598
   13        0.521   0.306   8.780   9.606
   14        0.521   0.306   8.780   9.606
   15        0.517   0.308   8.773   9.598
   16        0.523   0.306   8.768   9.598
   17        0.517   0.308   8.773   9.598
   18        0.517   0.308   8.773   9.598
   19        0.521   0.298   8.768   9.587
   20        0.564   0.330   8.735   9.629
   21        0.564   0.330   8.735   9.629
   22        0.510   0.306   8.775   9.592
   23        0.563   0.329   8.736   9.628
   24        0.510   0.306   8.775   9.592
   25        0.521   0.297   8.770   9.587
   26        0.521   0.297   8.770   9.587
   27        0.511   0.306   8.775   9.593
   28        0.541   0.229   8.756   9.525
   29        0.586   0.242   8.735   9.564
   30        0.586   0.242   8.735   9.564
   31        0.584   0.245   8.734   9.563
   32        0.584   0.245   8.734   9.563
   33        0.586   0.242   8.736   9.563
   34        0.586   0.242   8.736   9.563
   35        0.539   0.229   8.759   9.526
   36        0.403   0.525   2.271   3.200
   37        0.577   0.029   0.000   0.606
   38        0.577   0.029   0.000   0.606
tot         20.506  10.222 308.888 339.616

 BZINTS: Fermi energy:    0.760399;  391.000000 electrons
         Band energy:-0.117040E+04;  BLOECHL correction:   -0.033565