 vasp.6.2.0 18Jan21 (build Jun 12 2021 23:27:24) complex

 executed on             LinuxIFC date 2022.05.26  19:58:30

 INCAR:
   ISMEAR = -5
   SIGMA = 0.1
   ISPIN = 1
   EDIFF = 1.d-5
   EDIFFG = -0.01
   NSW = 0
   NELM = 150
   ENCUT = 500
   ISIF = 2
   IBRION = 2
   LREAL = Auto
   ALGO = Fast
   ICHARG = 11
   LORBIT = 10
   LCHARG = .F.
   LWAVE = .F.

 POTCAR:    PAW_PBE Cu 22Jun2005
 POTCAR:    PAW_PBE Mn 06Sep2000
 POTCAR:    PAW_PBE H 15Jun2001
|           W    W    AA    RRRRR   N    N  II  N    N   GGGG   !!!           |
|           W    W   A  A   R    R  NN   N  II  NN   N  G    G  !!!           |
|           W    W  A    A  R    R  N N  N  II  N N  N  G       !!!           |
|           W WW W  AAAAAA  RRRRR   N  N N  II  N  N N  G  GGG   !            |
|           WW  WW  A    A  R   R   N   NN  II  N   NN  G    G                |
|           W    W  A    A  R    R  N    N  II  N    N   GGGG   !!!           |
|     For optimal performance we recommend to set                             |
|       NCORE = 2 up to number-of-cores-per-socket                            |
|     This setting can greatly improve the performance of VASP for DFT.       |
|     The default, NCORE=1 might be grossly inefficient on modern             |
|     multi-core architectures or massively parallel machines. Do your        |
|     Unfortunately you need to use the default for GW and RPA                |
|     calculations (for HF NCORE is supported but not extensively tested      |
|     yet).                                                                   |

 POTCAR:    PAW_PBE Cu 22Jun2005
   VRHFIN =Cu: d10 p1

   TITEL  = PAW_PBE Cu 22Jun2005
   POMASS =   63.546; ZVAL   =   11.000    mass and valenz
   ENMAX  =  295.446; ENMIN  =  221.585 eV

 POTCAR:    PAW_PBE Mn 06Sep2000
   VRHFIN =Mn: d6 s1

   TITEL  = PAW_PBE Mn 06Sep2000
   POMASS =   54.938; ZVAL   =    7.000    mass and valenz
   ENMAX  =  269.864; ENMIN  =  202.398 eV

 POTCAR:    PAW_PBE H 15Jun2001
   VRHFIN =H: ultrasoft test

   TITEL  = PAW_PBE H 15Jun2001
   POMASS =    1.000; ZVAL   =    1.000    mass and valenz
   ENMAX  =  250.000; ENMIN  =  200.000 eV

 Optimization of the real space projectors (new method)

 maximal supplied QI-value         = 16.25
 optimisation between [QCUT,QGAM] = [ 11.38, 22.75] = [ 36.24,144.96] Ry
 Optimized for a Real-space Cutoff    1.52 Angstroem

   l    n(q)    QCUT    max X(q) W(low)/X(q) W(high)/X(q)  e(spline)
   2      9    11.376     4.610    0.21E-03    0.10E-03    0.26E-06
   2      9    11.376     8.522    0.33E-03    0.16E-03    0.37E-06
   0     10    11.376    51.609    0.62E-04    0.20E-04    0.13E-06
   0     10    11.376    27.747    0.54E-04    0.20E-04    0.13E-06
   1     10    11.376    20.408    0.13E-04    0.99E-04    0.19E-06
   1     10    11.376    13.425    0.12E-04    0.87E-04    0.17E-06
 Optimization of the real space projectors (new method)

[...]

   l    n(q)    QCUT    max X(q) W(low)/X(q) W(high)/X(q)  e(spline)
   2      8    11.376   110.144    0.49E-03    0.27E-04    0.26E-06
   2      8    11.376   103.200    0.49E-03    0.28E-04    0.27E-06
   0      9    11.376    68.437    0.57E-04    0.92E-04    0.15E-06
   0      9    11.376    33.971    0.51E-04    0.83E-04    0.14E-06
   1      9    11.376    17.065    0.34E-03    0.68E-04    0.14E-06
   1      9    11.376    12.540    0.27E-03    0.59E-04    0.11E-06
 Optimization of the real space projectors (new method)

 maximal supplied QI-value         = 34.20
 optimisation between [QCUT,QGAM] = [ 11.29, 22.57] = [ 35.68,142.71] Ry
 Optimized for a Real-space Cutoff    1.16 Angstroem

   l    n(q)    QCUT    max X(q) W(low)/X(q) W(high)/X(q)  e(spline)
   0      8    11.287    19.460    0.40E-03    0.73E-03    0.16E-06
   0      8    11.287    12.209    0.38E-03    0.70E-03    0.15E-06
   1      7    11.287     4.655    0.22E-03    0.25E-04    0.22E-06
  PAW_PBE Cu 22Jun2005                  :
  PAW_PBE Mn 06Sep2000                  :
  PAW_PBE H 15Jun2001                   :

 POSCAR: Cu-Mn-H
  positions in direct lattice
  velocities in cartesian coordinates
 exchange correlation table for  LEXCH =        8
   RHO(1)=    0.500       N(1)  =     2000
   RHO(2)=  100.500       N(2)  =     4000

 VTST: version 3.2, (02/03/18)

 CHAIN: initializing optimizer

 OPT: Using VASP Conjugate-Gradient optimizer
 CHAIN: Read ICHAIN            0

 POSCAR: Cu-Mn-H
  positions in direct lattice
  velocities in cartesian coordinates

 ion  position               nearest neighbor table
   1  0.000  0.000  0.252-   7 2.57   3 2.57   4 2.57   2 2.57   6 2.57   8 2.57  12 2.57  10 2.57
                            16 2.57
   2  0.333  0.000  0.252-   8 2.57   9 2.57   5 2.57   1 2.57   3 2.57  11 2.57   4 2.57  10 2.57
                            17 2.57
   3  0.667  0.000  0.252-   1 2.57   7 2.57   6 2.57   9 2.57   2 2.57  12 2.57   5 2.57  18 2.57
                            11 2.57
   4  0.000  0.333  0.252-   5 2.57   6 2.57   1 2.57   7 2.57   2 2.57  13 2.57   9 2.57  10 2.57
                            15 2.57
   5  0.333  0.333  0.252-   4 2.57   2 2.57   7 2.57  13 2.57   8 2.57   6 2.57   3 2.57  11 2.57
                            14 2.57
   6  0.667  0.333  0.252-   4 2.57   9 2.57  15 2.57   3 2.57   1 2.57   8 2.57  14 2.57   5 2.57
                            12 2.57
   7  0.000  0.667  0.252-   1 2.57   3 2.57  16 2.57  18 2.57   4 2.57   5 2.57   8 2.57   9 2.57
                            13 2.57
   8  0.333  0.667  0.252-   9 2.57   2 2.57  17 2.57   6 2.57   1 2.57   7 2.57   5 2.57  14 2.57
                            16 2.57
   9  0.667  0.667  0.252-   8 2.57   6 2.57   2 2.57  17 2.57   3 2.57   7 2.57   4 2.57  15 2.57
                            18 2.57
  10  0.111  0.111  0.351-  20 2.55  26 2.56  19 2.56  11 2.57  12 2.57  13 2.57   1 2.57   2 2.57
                             4 2.57  15 2.57  16 2.57  17 2.57
  11  0.444  0.111  0.351-  20 2.55  21 2.55  27 2.56  10 2.57  13 2.57   2 2.57  17 2.57  14 2.57
                            12 2.57   5 2.57   3 2.57  18 2.57
  12  0.778  0.111  0.351-  21 2.55  19 2.56  25 2.56  15 2.57  10 2.57  14 2.57  18 2.57   3 2.57
                             1 2.57  16 2.57  11 2.57   6 2.57
  13  0.111  0.444  0.351-  23 2.55  20 2.55  22 2.56  16 2.57  18 2.57  10 2.57  11 2.57  14 2.57
                             5 2.57   4 2.57   7 2.57  15 2.57
  14  0.444  0.444  0.351-  21 2.55  23 2.55  24 2.56  15 2.57  17 2.57  12 2.57  16 2.57  13 2.57
                            11 2.57   6 2.57   8 2.57   5 2.57
  15  0.778  0.444  0.351-  19 2.56  24 2.56  22 2.56  14 2.57  17 2.57  12 2.57   6 2.57  18 2.57
                            10 2.57   9 2.57  13 2.57   4 2.57
  16  0.111  0.778  0.351-  23 2.55  25 2.56  26 2.56  18 2.57  13 2.57   7 2.57  14 2.57  17 2.57
                            12 2.57  10 2.57   8 2.57   1 2.57
  17  0.444  0.778  0.351-  26 2.56  27 2.56  24 2.56  14 2.57  15 2.57   8 2.57   9 2.57  11 2.57
                            16 2.57  18 2.57  10 2.57   2 2.57
  18  0.778  0.778  0.351-  25 2.56  22 2.56  27 2.56  16 2.57  13 2.57   7 2.57  15 2.57  12 2.57
                            17 2.57   9 2.57   3 2.57  11 2.57
  19  0.889  0.222  0.449-  28 2.55  15 2.56  12 2.56  10 2.56  22 2.56  24 2.56  21 2.57  20 2.57
                            25 2.57  26 2.57  32 2.57  31 2.57
  20  0.222  0.222  0.448-  36 2.48  11 2.55  13 2.55  10 2.55  29 2.56  31 2.56  23 2.56  21 2.56
                            26 2.57  19 2.57  27 2.57  22 2.57
  21  0.555  0.222  0.448-  36 2.48  14 2.55  11 2.55  12 2.55  32 2.56  30 2.56  20 2.56  23 2.56
                            19 2.57  25 2.57  24 2.57  27 2.57
  22  0.888  0.556  0.449-  35 2.55  24 2.56  27 2.56  31 2.56  33 2.56  18 2.56  15 2.56  13 2.56
                            19 2.56  25 2.56  23 2.57  20 2.57
  23  0.222  0.555  0.448-  36 2.48  13 2.55  14 2.55  16 2.55  33 2.56  34 2.56  20 2.56  21 2.56
                            25 2.57  26 2.57  22 2.57  24 2.57
  24  0.556  0.556  0.449-  35 2.55  22 2.56  27 2.56  32 2.56  34 2.56  15 2.56  17 2.56  14 2.56
                            19 2.56  26 2.56  21 2.57  23 2.57
  25  0.889  0.889  0.449-  28 2.55  18 2.56  16 2.56  12 2.56  22 2.56  27 2.56  21 2.57  23 2.57
                            19 2.57  26 2.57  33 2.57  30 2.57
  26  0.222  0.889  0.449-  28 2.55  17 2.56  10 2.56  16 2.56  27 2.56  24 2.56  20 2.57  23 2.57
                            25 2.57  19 2.57  29 2.57  34 2.57
  27  0.556  0.888  0.449-  35 2.55  24 2.56  22 2.56  29 2.56  30 2.56  17 2.56  18 2.56  11 2.56
                            26 2.56  25 2.56  20 2.57  21 2.57
  28  0.000  0.000  0.547-  25 2.55  19 2.55  26 2.55  33 2.58  30 2.58  31 2.58  29 2.58  32 2.58
                            34 2.58
  29  0.333  0.003  0.547-  31 2.54  36 2.55  30 2.55  20 2.56  27 2.56  26 2.57  28 2.58  35 2.58
                            34 2.61
  30  0.664  0.003  0.547-  32 2.54  36 2.55  29 2.55  21 2.56  27 2.56  25 2.57  28 2.58  35 2.58
                            33 2.61
  31  0.003  0.333  0.547-  29 2.54  36 2.55  33 2.55  20 2.56  22 2.56  19 2.57  28 2.58  35 2.58
                            32 2.61
  32  0.664  0.333  0.547-  30 2.54  36 2.55  34 2.55  21 2.56  24 2.56  19 2.57  28 2.58  35 2.58
                            31 2.61
  33  0.003  0.664  0.547-  34 2.54  36 2.55  31 2.55  23 2.56  22 2.56  25 2.57  28 2.58  35 2.58
                            30 2.61
  34  0.333  0.664  0.547-  33 2.54  36 2.55  32 2.55  23 2.56  24 2.56  26 2.57  28 2.58  35 2.58
                            29 2.61
  35  0.667  0.667  0.547-  24 2.55  27 2.55  22 2.55  34 2.58  32 2.58  29 2.58  30 2.58  33 2.58
                            31 2.58
  36  0.333  0.333  0.542-  37 1.56  23 2.48  20 2.48  21 2.48  31 2.55  29 2.55  33 2.55  34 2.55
                            32 2.55  30 2.55
  37  0.333  0.333  0.615-  36 1.56

  LATTYP: Found a hexagonal cell.
 ALAT       =     7.6967864036
 C/A-ratio  =     2.7653617908

  Lattice vectors:

 A1 = (  -3.8483927580,  -6.6656128093,   0.0000000000)
 A2 = (   7.6967864037,   0.0000000000,   0.0000000000)
 A3 = (   0.0000000000,   0.0000000000,  21.2843990326)

Analysis of symmetry for initial positions (statically):
 Subroutine PRICEL returns:
 Original cell was already a primitive cell.

 Routine SETGRP: Setting up the symmetry group for a
 hexagonal supercell.

 Subroutine GETGRP returns: Found  6 space group operations
 (whereof  6 operations were pure point group operations)
 out of a pool of 24 trial point group operations.

The static configuration has the point symmetry C_3v.

Analysis of symmetry for dynamics (positions and initial velocities):
 Subroutine PRICEL returns:
 Original cell was already a primitive cell.

[...]

The dynamic configuration has the point symmetry C_3v.

Analysis of constrained symmetry for selective dynamics:
 Subroutine PRICEL returns:
 Original cell was already a primitive cell.

 Routine SETGRP: Setting up the symmetry group for a
 hexagonal supercell.

 Subroutine GETGRP returns: Found  6 space group operations
 (whereof  6 operations were pure point group operations)
[...]
     24      -4.2280      2.00000
     25      -4.2152      2.00000
     26      -4.1671      2.00000
     27      -4.1565      2.00000
     28      -4.1494      2.00000
     29      -4.1398      2.00000
     30      -4.1342      2.00000
     31      -4.1158      2.00000
     32      -4.0574      2.00000
     33      -4.0504      2.00000
     34      -4.0416      2.00000
     35      -3.9470      2.00000
     36      -3.9322      2.00000
     37      -3.8405      2.00000
     38      -3.8297      2.00000
     39      -3.7522      2.00000
     40      -3.7449      2.00000
     41      -3.7258      2.00000
     42      -3.7138      2.00000
     43      -3.6969      2.00000
     44      -3.6774      2.00000
     45      -3.6667      2.00000
     46      -3.5223      2.00000
     47      -3.4849      2.00000
     48      -3.4720      2.00000
     49      -3.4638      2.00000
     50      -3.4281      2.00000
     51      -3.4102      2.00000
     52      -3.4037      2.00000
     53      -3.3806      2.00000
     54      -3.3728      2.00000
     55      -3.3534      2.00000
     56      -3.3459      2.00000
     57      -3.3356      2.00000
     58      -3.3203      2.00000
     59      -3.3163      2.00000
     60      -3.2972      2.00000
[...]
    238       6.8399      0.00000
    239       6.8661      0.00000
    240       7.0008      0.00000
    241       7.0166      0.00000
    242       7.1435      0.00000
    243       7.2009      0.00000
    244       7.2698      0.00000
    245       7.3668      0.00000
    246       7.4185      0.00000
    247       7.5684      0.00000
    248       7.7075      0.00000
    249       7.8152      0.00000
    250       8.0172      0.00000
    251       8.1025      0.00000
    252       8.4091      0.00000

 soft charge-density along one line, spin component           1
         0         1         2         3         4         5         6         7         8         9
 total charge-density along one line

------------------------ aborting loop because EDIFF is reached ----------------------------------------

 total charge

# of ion       s       p       d       tot
    1        0.450   0.283   9.191   9.924
    2        0.447   0.286   9.188   9.921
    3        0.447   0.286   9.188   9.921
    4        0.447   0.286   9.188   9.921
    5        0.451   0.285   9.181   9.917
    6        0.447   0.286   9.188   9.921
    7        0.447   0.286   9.188   9.921
    8        0.447   0.286   9.188   9.921
    9        0.448   0.282   9.191   9.922
   10        0.443   0.372   9.175   9.991
   11        0.443   0.367   9.186   9.996
   12        0.443   0.372   9.175   9.991
   13        0.443   0.367   9.186   9.996
   14        0.443   0.367   9.186   9.996
   15        0.440   0.370   9.178   9.989
   16        0.443   0.372   9.175   9.991
   17        0.440   0.370   9.178   9.989
   18        0.440   0.370   9.178   9.989
   19        0.440   0.368   9.183   9.991
   20        0.464   0.391   9.165  10.021
   21        0.464   0.391   9.165  10.021
   22        0.433   0.375   9.181   9.989
   23        0.464   0.391   9.165  10.021
   24        0.433   0.375   9.181   9.989
   25        0.440   0.368   9.183   9.991
   26        0.440   0.368   9.183   9.991
   27        0.433   0.375   9.181   9.989
   28        0.446   0.284   9.183   9.913
   29        0.458   0.294   9.173   9.925
   30        0.458   0.294   9.173   9.925
   31        0.458   0.294   9.173   9.925
   32        0.458   0.294   9.173   9.925
   33        0.458   0.294   9.173   9.925
   34        0.458   0.294   9.173   9.925
   35        0.440   0.286   9.187   9.913
   36        0.367   0.337   5.062   5.766
   37        0.509   0.013   0.000   0.521
tot         16.534  11.975 326.368 354.877

  FORCE on cell =-STRESS in cart. coord.  units (eV):
  Direction    XX          YY          ZZ          XY          YZ          ZX
  Alpha Z   866.73117   866.73117   866.73117
  Ewald  172654.42688172654.42649************     0.00038     0.00011     0.00016
  Hartree185533.59464185533.59463************     0.00004     0.00005     0.00006
  E(xc)   -2281.34145 -2281.34097 -2286.46932    -0.00041    -0.00004    -0.00006
  Local  ************************371441.23014     0.01835    -0.00056    -0.00091
  n-local  -787.96846  -773.63099  -792.35144     7.62201     0.22141     0.01736
  augment  3335.77058  3335.79057  3358.13830    -0.01731     0.00024     0.00036
  Kinetic  3199.84950  3205.58088  3233.85375     3.48669     1.08620    -0.61407
  Fock        0.00000     0.00000     0.00000     0.00000     0.00000     0.00000
  Total      -6.58008    -6.58008     2.05521     0.00000     0.00000     0.00000
  in kB      -9.65453    -9.65453     3.01548     0.00000     0.00000     0.00000

 VOLUME and BASIS-vectors are now :
  energy-cutoff  :      500.00
  volume of cell :     1091.97
      direct lattice vectors                 reciprocal lattice vectors
     7.696786404  0.000000000  0.000000000     0.129924354 -0.075011849  0.000000000
     3.848392758  6.665612809  0.000000000     0.000000000  0.150023716  0.000000000
     0.000000000  0.000000000 21.284399033     0.000000000  0.000000000  0.046982769

  length of vectors
     7.696786404  7.696786404 21.284399033     0.150023716  0.150023716  0.046982769

 FORCES acting on ions
    electron-ion (+dipol)            ewald-force                    non-local-force                 convergence-correction
   -.415E-04 0.181E-06 0.346E+04   0.580E-04 -.437E-05 -.346E+04   -.610E-17 -.271E-18 -.252E+01   -.251E-03 -.112E-03 0.154E-01
   -.396E+00 -.224E+00 0.346E+04   0.109E+00 0.112E+00 -.346E+04   0.134E+00 0.181E+00 -.187E+01   0.155E+00 -.552E-01 0.248E-01
   0.396E+00 -.224E+00 0.346E+04   -.109E+00 0.112E+00 -.346E+04   -.134E+00 0.181E+00 -.187E+01   -.154E+00 -.528E-01 0.255E-01
   -.392E+00 -.231E+00 0.346E+04   0.151E+00 0.387E-01 -.346E+04   0.224E+00 0.258E-01 -.187E+01   0.296E-01 0.161E+00 0.248E-01
   -.615E-04 -.338E-05 0.346E+04   0.116E-03 -.101E-04 -.346E+04   -.708E-18 0.292E-17 -.129E+01   0.120E-01 0.735E-02 0.206E+00
   0.392E+00 -.231E+00 0.346E+04   -.151E+00 0.386E-01 -.346E+04   -.224E+00 0.258E-01 -.187E+01   -.311E-01 0.163E+00 0.257E-01
   0.388E-02 0.455E+00 0.346E+04   0.421E-01 -.150E+00 -.346E+04   0.897E-01 -.207E+00 -.187E+01   -.123E+00 -.107E+00 0.257E-01
   -.378E-02 0.455E+00 0.346E+04   -.423E-01 -.150E+00 -.346E+04   -.897E-01 -.207E+00 -.187E+01   0.126E+00 -.108E+00 0.257E-01
   -.144E-03 -.329E-04 0.346E+04   0.263E-03 0.205E-04 -.346E+04   -.465E-17 -.270E-17 -.221E+01   -.131E-01 -.677E-02 -.101E+00
   -.711E-01 -.410E-01 0.113E+04   0.493E+00 0.284E+00 -.113E+04   -.408E+00 -.236E+00 -.102E+01   -.305E-01 -.176E-01 0.648E+00
   -.906E-04 -.986E+00 0.113E+04   0.189E-03 0.565E+00 -.113E+04   -.214E-07 0.321E+00 -.226E+00   0.113E-01 0.737E-01 0.730E+00
   0.712E-01 -.410E-01 0.113E+04   -.493E+00 0.284E+00 -.113E+04   0.408E+00 -.236E+00 -.102E+01   0.295E-01 -.172E-01 0.646E+00
   -.854E+00 0.493E+00 0.113E+04   0.490E+00 -.283E+00 -.113E+04   0.278E+00 -.161E+00 -.226E+00   0.700E-01 -.263E-01 0.730E+00
   0.854E+00 0.493E+00 0.113E+04   -.490E+00 -.283E+00 -.113E+04   -.278E+00 -.161E+00 -.226E+00   -.470E-01 -.275E-01 0.727E+00
   -.143E-03 -.107E+00 0.113E+04   0.298E-03 -.246E+00 -.113E+04   -.126E-07 0.189E+00 -.100E+01   -.271E-02 0.144E+00 0.694E+00
   -.919E-04 0.820E-01 0.113E+04   0.186E-03 -.569E+00 -.113E+04   -.314E-07 0.472E+00 -.102E+01   -.104E-02 0.329E-01 0.646E+00
   -.928E-01 0.534E-01 0.113E+04   -.213E+00 0.123E+00 -.113E+04   0.163E+00 -.944E-01 -.100E+01   0.124E+00 -.745E-01 0.694E+00
   0.929E-01 0.535E-01 0.113E+04   0.213E+00 0.123E+00 -.113E+04   -.163E+00 -.944E-01 -.100E+01   -.123E+00 -.728E-01 0.695E+00
   -.619E-04 -.288E+01 -.121E+04   0.704E-04 0.264E+01 0.121E+04   -.413E-08 0.620E-01 0.102E+01   0.129E-01 0.169E+00 0.126E+01
   -.226E+02 -.130E+02 -.123E+04   0.235E+02 0.136E+02 0.123E+04   -.128E+01 -.737E+00 -.998E+00   0.213E+00 0.123E+00 0.178E+01
   0.226E+02 -.130E+02 -.123E+04   -.235E+02 0.136E+02 0.123E+04   0.128E+01 -.737E+00 -.998E+00   -.236E+00 0.121E+00 0.177E+01
   -.141E+02 0.816E+01 -.121E+04   0.136E+02 -.787E+01 0.121E+04   0.434E+00 -.251E+00 0.497E+00   0.112E+00 -.541E-01 0.124E+01
   -.816E-04 0.261E+02 -.123E+04   0.146E-03 -.272E+02 0.123E+04   -.981E-07 0.147E+01 -.998E+00   -.143E-01 -.266E+00 0.177E+01
   0.141E+02 0.816E+01 -.121E+04   -.136E+02 -.787E+01 0.121E+04   -.434E+00 -.251E+00 0.497E+00   -.887E-01 -.521E-01 0.124E+01
   0.250E+01 0.144E+01 -.121E+04   -.229E+01 -.132E+01 0.121E+04   -.537E-01 -.310E-01 0.102E+01   -.132E+00 -.760E-01 0.126E+01
   -.249E+01 0.144E+01 -.121E+04   0.229E+01 -.132E+01 0.121E+04   0.537E-01 -.310E-01 0.102E+01   0.153E+00 -.732E-01 0.126E+01
   -.124E-03 -.163E+02 -.121E+04   0.240E-03 0.157E+02 0.121E+04   -.334E-07 0.501E+00 0.497E+00   0.925E-02 0.124E+00 0.124E+01
   -.377E-04 0.150E-04 -.348E+04   0.402E-04 -.330E-04 0.348E+04   -.106E-16 -.247E-17 0.237E+01   -.123E-02 -.655E-03 0.661E+00
   -.216E+02 -.374E+02 -.349E+04   0.218E+02 0.375E+02 0.348E+04   -.602E+00 -.765E+00 0.188E+01   0.484E+00 0.740E+00 0.649E+00
   0.216E+02 -.374E+02 -.349E+04   -.218E+02 0.375E+02 0.348E+04   0.602E+00 -.765E+00 0.188E+01   -.463E+00 0.741E+00 0.650E+00
   -.432E+02 -.299E-01 -.349E+04   0.434E+02 0.132E+00 0.348E+04   -.964E+00 -.139E+00 0.188E+01   0.883E+00 0.495E-01 0.649E+00
   0.432E+02 -.296E-01 -.349E+04   -.434E+02 0.132E+00 0.348E+04   0.964E+00 -.139E+00 0.188E+01   -.861E+00 0.507E-01 0.651E+00
   -.216E+02 0.375E+02 -.349E+04   0.216E+02 -.376E+02 0.348E+04   -.362E+00 0.904E+00 0.188E+01   0.410E+00 -.771E+00 0.650E+00
   0.216E+02 0.375E+02 -.349E+04   -.216E+02 -.376E+02 0.348E+04   0.362E+00 0.904E+00 0.188E+01   -.386E+00 -.771E+00 0.651E+00
   -.125E-03 -.176E-04 -.348E+04   0.250E-03 0.499E-05 0.348E+04   -.208E-18 -.862E-19 0.268E+01   -.141E-01 -.731E-02 0.780E+00
   -.507E-04 -.105E-04 -.214E+04   0.914E-04 0.167E-04 0.214E+04   0.324E-18 0.736E-19 -.289E+01   0.952E-03 0.619E-03 0.644E+00
   0.272E-05 -.534E-05 -.380E+03   0.404E-05 0.171E-05 0.382E+03   0.588E-19 -.122E-18 -.209E+01   0.119E-04 0.747E-05 -.193E+00
   -.222E-03 0.798E-05 -.140E+02   0.620E-13 0.372E-13 -.637E-11   0.222E-15 -.111E-15 -.111E+02   0.116E+00 0.641E-01 0.251E+02

 POSITION                                       TOTAL-FORCE (eV/Angst)
      0.00000      0.00000      5.37156        -0.000000      0.000000     -0.039972
      2.56560      0.00000      5.37156         0.002294      0.014351      0.060620
      5.13119      0.00000      5.37156        -0.002294      0.014351      0.060620
      1.28280      2.22187      5.37156         0.013575     -0.005189      0.060620
      3.84839      2.22187      5.37156        -0.000000     -0.000000      0.020574
      6.41399      2.22187      5.37156        -0.013575     -0.005189      0.060620
      2.56560      4.44374      5.37156         0.011282     -0.009162      0.060620
      5.13119      4.44374      5.37156        -0.011282     -0.009162      0.060620
      7.69679      4.44374      5.37156        -0.000000      0.000000      0.019973
      1.28280      0.74062      7.46636        -0.016316     -0.009420     -0.071561
      3.84839      0.74062      7.46636         0.000000     -0.031697     -0.052684
      6.41399      0.74062      7.46636         0.016316     -0.009420     -0.071561
      2.56560      2.96249      7.46636        -0.027450      0.015848     -0.052684
      5.13119      2.96249      7.46636         0.027450      0.015848     -0.052684
      7.69679      2.96249      7.46636         0.000000     -0.020603     -0.043291
      3.84839      5.18437      7.46636        -0.000000      0.018840     -0.071561
      6.41399      5.18437      7.46636        -0.017843      0.010302     -0.043291
      8.97958      5.18437      7.46636         0.017843      0.010302     -0.043291
      7.69679      1.48275      9.55327         0.000000     -0.015987      0.024274
      2.56715      1.48214      9.54261        -0.084612     -0.048851     -0.099574
      5.12964      1.48214      9.54261         0.084612     -0.048851     -0.099574
      8.97640      3.70496      9.55687         0.044739     -0.025830     -0.001779
      3.84839      3.70133      9.54261        -0.000000      0.097701     -0.099574
      6.41717      3.70496      9.55687        -0.044739     -0.025830     -0.001779
     10.26108      5.92424      9.55327         0.013845      0.007993      0.024274
      5.13249      5.92424      9.55327        -0.013845      0.007993      0.024274
      7.69679      5.92131      9.55687        -0.000000      0.051661     -0.001779
      0.00000      0.00000     11.63217        -0.000000      0.000000      0.022339
      2.57513      0.01976     11.64308         0.017177      0.015829      0.040293
      5.12165      0.01976     11.64308        -0.017177      0.015829      0.040293
      1.30468      2.22025     11.64308         0.022297      0.006961      0.040293
      6.39211      2.22025     11.64308        -0.022297      0.006961      0.040293
      2.57794      4.42560     11.64308         0.005120     -0.022791      0.040293
      5.11885      4.42560     11.64308        -0.005120     -0.022791      0.040293
      7.69679      4.44374     11.63403        -0.000000      0.000000      0.026728
      3.84839      2.22187     11.52902        -0.000000      0.000000      0.055794
      3.84839      2.22187     13.09126        -0.000000      0.000000      0.022930
    total drift:                                0.116118      0.064140     -0.015752

  FREE ENERGIE OF THE ION-ELECTRON SYSTEM (eV)
  free  energy   TOTEN  =      -132.51409574 eV

  energy  without entropy=     -132.51409574  energy(sigma->0) =     -132.51409574

 stress matrix after NEB project (eV)
     -6.58008      0.00000      0.00000
      0.00000     -6.58008     -0.00000
     -0.00000      0.00000      2.05521
  FORCES: max atom, RMS     0.022930    0.003770
  FORCE total and by dimension    0.022930    0.022930
  Stress total and by dimension    9.529892    6.580082
|           W    W    AA    RRRRR   N    N  II  N    N   GGGG   !!!           |
|           W    W   A  A   R    R  NN   N  II  NN   N  G    G  !!!           |
|           W    W  A    A  R    R  N N  N  II  N N  N  G       !!!           |
|           W WW W  AAAAAA  RRRRR   N  N N  II  N  N N  G  GGG   !            |
|           WW  WW  A    A  R   R   N   NN  II  N   NN  G    G                |
|           W    W  A    A  R    R  N    N  II  N    N   GGGG   !!!           |
|     Tetrahedron method does not include variations of the Fermi             |
|     occupations, so forces and stress will be inaccurate. We suggest        |
|     using a different smearing scheme ISMEAR = 1 or 2 for metals in         |
|     relaxations.                                                            |

 total charge

# of ion       s       p       d       tot
    1        0.450   0.283   9.191   9.924
    2        0.447   0.286   9.188   9.921
    3        0.447   0.286   9.188   9.921
    4        0.447   0.286   9.188   9.921
    5        0.451   0.285   9.181   9.917
    6        0.447   0.286   9.188   9.921
    7        0.447   0.286   9.188   9.921
    8        0.447   0.286   9.188   9.921
    9        0.448   0.282   9.191   9.922
   10        0.443   0.372   9.175   9.991
   11        0.443   0.367   9.186   9.996
   12        0.443   0.372   9.175   9.991
   13        0.443   0.367   9.186   9.996
   14        0.443   0.367   9.186   9.996
   15        0.440   0.370   9.178   9.989
   16        0.443   0.372   9.175   9.991
   17        0.440   0.370   9.178   9.989
   18        0.440   0.370   9.178   9.989
   19        0.440   0.368   9.183   9.991
   20        0.464   0.391   9.165  10.021
   21        0.464   0.391   9.165  10.021
   22        0.433   0.375   9.181   9.989
   23        0.464   0.391   9.165  10.021
   24        0.433   0.375   9.181   9.989
   25        0.440   0.368   9.183   9.991
   26        0.440   0.368   9.183   9.991
   27        0.433   0.375   9.181   9.989
   28        0.446   0.284   9.183   9.913
   29        0.458   0.294   9.173   9.925
   30        0.458   0.294   9.173   9.925
   31        0.458   0.294   9.173   9.925
   32        0.458   0.294   9.173   9.925
   33        0.458   0.294   9.173   9.925
   34        0.458   0.294   9.173   9.925
   35        0.440   0.286   9.187   9.913
   36        0.367   0.337   5.062   5.766
   37        0.509   0.013   0.000   0.521
tot         16.534  11.975 326.368 354.877

 BZINTS: Fermi energy:   -0.040087;  393.000000 electrons
         Band energy:-0.111283E+04;  BLOECHL correction:   -0.018704