 vasp.6.2.0 18Jan21 (build Jun 12 2021 23:27:24) complex

 executed on             LinuxIFC date 2022.05.27  06:09:10

 INCAR:
   ISMEAR = -5
   SIGMA = 0.1
   ISPIN = 1
   EDIFF = 1.d-5
   EDIFFG = -0.01
   NSW = 0
   NELM = 150
   ENCUT = 500
   ISIF = 2
   IBRION = 2
   LREAL = Auto
   ALGO = Fast
   ICHARG = 11
   LORBIT = 10
   LCHARG = .F.
   LWAVE = .F.

 POTCAR:    PAW_PBE Cu 22Jun2005
 POTCAR:    PAW_PBE Nb_sv 25May2007
 POTCAR:    PAW_PBE N 08Apr2002
|           W    W    AA    RRRRR   N    N  II  N    N   GGGG   !!!           |
|           W    W   A  A   R    R  NN   N  II  NN   N  G    G  !!!           |
|           W    W  A    A  R    R  N N  N  II  N N  N  G       !!!           |
|           W WW W  AAAAAA  RRRRR   N  N N  II  N  N N  G  GGG   !            |
|           WW  WW  A    A  R   R   N   NN  II  N   NN  G    G                |
|           W    W  A    A  R    R  N    N  II  N    N   GGGG   !!!           |
|     For optimal performance we recommend to set                             |
|       NCORE = 2 up to number-of-cores-per-socket                            |
|     This setting can greatly improve the performance of VASP for DFT.       |
|     The default, NCORE=1 might be grossly inefficient on modern             |
|     multi-core architectures or massively parallel machines. Do your        |
|     Unfortunately you need to use the default for GW and RPA                |
|     calculations (for HF NCORE is supported but not extensively tested      |
|     yet).                                                                   |

 POTCAR:    PAW_PBE Cu 22Jun2005
   VRHFIN =Cu: d10 p1

   TITEL  = PAW_PBE Cu 22Jun2005
   POMASS =   63.546; ZVAL   =   11.000    mass and valenz
   ENMAX  =  295.446; ENMIN  =  221.585 eV

 POTCAR:    PAW_PBE Nb_sv 25May2007
   VRHFIN =Nb: 4p5s4d

   TITEL  = PAW_PBE Nb_sv 25May2007
   POMASS =   92.910; ZVAL   =   13.000    mass and valenz
   ENMAX  =  293.235; ENMIN  =  219.927 eV

 POTCAR:    PAW_PBE N 08Apr2002
   VRHFIN =N: s2p3

   TITEL  = PAW_PBE N 08Apr2002
   POMASS =   14.001; ZVAL   =    5.000    mass and valenz
   ENMAX  =  400.000; ENMIN  =  300.000 eV

 Optimization of the real space projectors (new method)

 maximal supplied QI-value         = 16.25
 optimisation between [QCUT,QGAM] = [ 11.38, 22.75] = [ 36.24,144.96] Ry
 Optimized for a Real-space Cutoff    1.52 Angstroem

   l    n(q)    QCUT    max X(q) W(low)/X(q) W(high)/X(q)  e(spline)
   2      9    11.376     4.610    0.21E-03    0.10E-03    0.26E-06
   2      9    11.376     8.522    0.33E-03    0.16E-03    0.37E-06
   0     10    11.376    51.609    0.62E-04    0.20E-04    0.13E-06
   0     10    11.376    27.747    0.54E-04    0.20E-04    0.13E-06
   1     10    11.376    20.408    0.13E-04    0.99E-04    0.19E-06
   1     10    11.376    13.425    0.12E-04    0.87E-04    0.17E-06
 Optimization of the real space projectors (new method)

[...]

   l    n(q)    QCUT    max X(q) W(low)/X(q) W(high)/X(q)  e(spline)
   0     11    11.450    10.201    0.21E-04    0.96E-05    0.78E-07
   0     11    11.450     8.174    0.31E-04    0.18E-04    0.14E-06
   1     10    11.450     3.488    0.27E-04    0.12E-04    0.96E-07
   1     10    11.450     4.917    0.11E-03    0.11E-03    0.37E-06
   2     10    11.450   153.744    0.37E-03    0.81E-03    0.10E-05
   2     10    11.450   126.342    0.37E-03    0.81E-03    0.10E-05
 Optimization of the real space projectors (new method)

 maximal supplied QI-value         = 25.13
 optimisation between [QCUT,QGAM] = [ 11.31, 22.87] = [ 35.82,146.48] Ry
 Optimized for a Real-space Cutoff    1.27 Angstroem

   l    n(q)    QCUT    max X(q) W(low)/X(q) W(high)/X(q)  e(spline)
   0      9    11.310    79.467    0.75E-04    0.16E-03    0.36E-06
   0      9    11.310    66.151    0.74E-04    0.16E-03    0.36E-06
   1      8    11.310    17.416    0.35E-03    0.12E-03    0.95E-06
   1      8    11.310    12.382    0.37E-03    0.13E-03    0.98E-06
  PAW_PBE Cu 22Jun2005                  :
  PAW_PBE Nb_sv 25May2007               :
  PAW_PBE N 08Apr2002                   :

 POSCAR: Cu-Nb-N2
  positions in direct lattice
  velocities in cartesian coordinates
 exchange correlation table for  LEXCH =        8
   RHO(1)=    0.500       N(1)  =     2000
   RHO(2)=  100.500       N(2)  =     4000

 VTST: version 3.2, (02/03/18)

 CHAIN: initializing optimizer

 OPT: Using VASP Conjugate-Gradient optimizer
 CHAIN: Read ICHAIN            0

 POSCAR: Cu-Nb-N2
  positions in direct lattice
  velocities in cartesian coordinates

 ion  position               nearest neighbor table
   1  0.000  0.000  0.252-   7 2.57   3 2.57   4 2.57   2 2.57   6 2.57   8 2.57  12 2.57  10 2.57
                            16 2.57
   2  0.333  0.000  0.252-   8 2.57   9 2.57   5 2.57   1 2.57   3 2.57  11 2.57   4 2.57  10 2.57
                            17 2.57
   3  0.667  0.000  0.252-   1 2.57   7 2.57   6 2.57   9 2.57   2 2.57  12 2.57   5 2.57  18 2.57
                            11 2.57
   4  0.000  0.333  0.252-   5 2.57   6 2.57   1 2.57   7 2.57   2 2.57  13 2.57   9 2.57  10 2.57
                            15 2.57
   5  0.333  0.333  0.252-   4 2.57   2 2.57   7 2.57  13 2.57   8 2.57   6 2.57   3 2.57  11 2.57
                            14 2.57
   6  0.667  0.333  0.252-   4 2.57   9 2.57  15 2.57   3 2.57   1 2.57   8 2.57  14 2.57   5 2.57
                            12 2.57
   7  0.000  0.667  0.252-   1 2.57   3 2.57  16 2.57  18 2.57   4 2.57   5 2.57   8 2.57   9 2.57
                            13 2.57
   8  0.333  0.667  0.252-   9 2.57   2 2.57  17 2.57   6 2.57   1 2.57   7 2.57   5 2.57  14 2.57
                            16 2.57
   9  0.667  0.667  0.252-   8 2.57   6 2.57   2 2.57  17 2.57   3 2.57   7 2.57   4 2.57  15 2.57
                            18 2.57
  10  0.111  0.111  0.351-  26 2.55  19 2.55  11 2.57  12 2.57  13 2.57   1 2.57   2 2.57   4 2.57
                            15 2.57  16 2.57  17 2.57  20 2.57
  11  0.444  0.111  0.351-  20 2.57  21 2.57  10 2.57  13 2.57   2 2.57  17 2.57  14 2.57  12 2.57
                             5 2.57   3 2.57  18 2.57  27 2.57
  12  0.778  0.111  0.351-  19 2.55  25 2.55  15 2.57  10 2.57  14 2.57  18 2.57   3 2.57   1 2.57
                            16 2.57  11 2.57   6 2.57  21 2.57
  13  0.111  0.444  0.351-  23 2.57  20 2.57  16 2.57  18 2.57  10 2.57  11 2.57  14 2.57   5 2.57
                             4 2.57   7 2.57  15 2.57  22 2.57
  14  0.444  0.444  0.351-  21 2.57  23 2.57  15 2.57  17 2.57  12 2.57  16 2.57  13 2.57  11 2.57
                             6 2.57   8 2.57   5 2.57  24 2.57
  15  0.778  0.444  0.351-  19 2.55  14 2.57  17 2.57  12 2.57   6 2.57  18 2.57  10 2.57   9 2.57
                            13 2.57   4 2.57  24 2.57  22 2.57
  16  0.111  0.778  0.351-  25 2.55  26 2.55  18 2.57  13 2.57   7 2.57  14 2.57  17 2.57  12 2.57
                            10 2.57   8 2.57   1 2.57  23 2.57
  17  0.444  0.778  0.351-  26 2.55  14 2.57  15 2.57   8 2.57   9 2.57  11 2.57  16 2.57  18 2.57
                            10 2.57   2 2.57  27 2.57  24 2.57
  18  0.778  0.778  0.351-  25 2.55  16 2.57  13 2.57   7 2.57  15 2.57  12 2.57  17 2.57   9 2.57
                             3 2.57  11 2.57  22 2.57  27 2.57
  19  0.889  0.222  0.448-  12 2.55  10 2.55  15 2.55  25 2.56  26 2.56  21 2.57  20 2.57  22 2.57
                            24 2.57  28 2.57  32 2.58  31 2.58
  20  0.222  0.222  0.449-  23 2.56  21 2.56  11 2.57  13 2.57  10 2.57  26 2.57  19 2.57  27 2.57
                            22 2.57  29 2.59  31 2.59  36 2.66
  21  0.555  0.222  0.449-  20 2.56  23 2.56  14 2.57  11 2.57  12 2.57  19 2.57  25 2.57  24 2.57
                            27 2.57  32 2.59  30 2.59  36 2.66
  22  0.889  0.556  0.449-  24 2.56  27 2.56  18 2.57  15 2.57  23 2.57  20 2.57  19 2.57  25 2.57
                            13 2.57  35 2.57  31 2.57  33 2.57
  23  0.222  0.555  0.449-  20 2.56  21 2.56  13 2.57  14 2.57  16 2.57  25 2.57  26 2.57  22 2.57
                            24 2.57  33 2.59  34 2.59  36 2.66
  24  0.556  0.556  0.449-  22 2.56  27 2.56  15 2.57  17 2.57  21 2.57  23 2.57  19 2.57  26 2.57
                            14 2.57  35 2.57  32 2.57  34 2.57
  25  0.889  0.889  0.448-  12 2.55  16 2.55  18 2.55  19 2.56  26 2.56  21 2.57  23 2.57  22 2.57
                            27 2.57  28 2.57  33 2.58  30 2.58
  26  0.222  0.889  0.448-  10 2.55  16 2.55  17 2.55  25 2.56  19 2.56  20 2.57  23 2.57  27 2.57
                            24 2.57  28 2.57  29 2.58  34 2.58
  27  0.556  0.889  0.449-  24 2.56  22 2.56  17 2.57  18 2.57  20 2.57  21 2.57  26 2.57  25 2.57
                            11 2.57  35 2.57  29 2.57  30 2.57
  28  0.000  0.000  0.547-  33 2.55  30 2.55  31 2.55  29 2.55  32 2.55  34 2.55  25 2.57  19 2.57
                            26 2.57
  29  0.334  0.996  0.548-  34 2.51  35 2.55  28 2.55  27 2.57  26 2.58  20 2.59  30 2.59  36 2.60
                            31 2.60
  30  0.670  0.996  0.548-  33 2.51  35 2.55  28 2.55  27 2.57  25 2.58  21 2.59  29 2.59  36 2.60
                            32 2.60
  31  0.996  0.334  0.548-  32 2.51  35 2.55  28 2.55  22 2.57  19 2.58  20 2.59  33 2.59  36 2.60
                            29 2.60
  32  0.670  0.334  0.548-  31 2.51  35 2.55  28 2.55  24 2.57  19 2.58  21 2.59  34 2.59  36 2.60
                            30 2.60
  33  0.996  0.670  0.548-  30 2.51  35 2.55  28 2.55  22 2.57  25 2.58  23 2.59  31 2.59  36 2.60
                            34 2.60
  34  0.334  0.670  0.548-  29 2.51  35 2.55  28 2.55  24 2.57  26 2.58  23 2.59  32 2.59  36 2.60
                            33 2.60
  35  0.667  0.667  0.548-  34 2.55  32 2.55  29 2.55  30 2.55  33 2.55  31 2.55  24 2.57  27 2.57
                            22 2.57
  36  0.333  0.333  0.553-  38 2.39  37 2.39  31 2.60  29 2.60  33 2.60  32 2.60  34 2.60  30 2.60
                            23 2.66  20 2.66  21 2.66
  37  0.258  0.335  0.662-  38 1.15  36 2.39
  38  0.408  0.335  0.662-  37 1.15  36 2.39

  LATTYP: Found a hexagonal cell.
 ALAT       =     7.6967864036
 C/A-ratio  =     2.7653617908

  Lattice vectors:

 A1 = (  -3.8483927580,  -6.6656128093,   0.0000000000)
 A2 = (   7.6967864037,   0.0000000000,   0.0000000000)
 A3 = (   0.0000000000,   0.0000000000,  21.2843990326)

Analysis of symmetry for initial positions (statically):
 Subroutine PRICEL returns:
 Original cell was already a primitive cell.

 Routine SETGRP: Setting up the symmetry group for a
 hexagonal supercell.

 Subroutine GETGRP returns: Found  2 space group operations
 (whereof  2 operations were pure point group operations)
 out of a pool of 24 trial point group operations.

The static configuration has the point symmetry C_1h.

Analysis of symmetry for dynamics (positions and initial velocities):
 Subroutine PRICEL returns:
 Original cell was already a primitive cell.

[...]

The dynamic configuration has the point symmetry C_1h.

Analysis of constrained symmetry for selective dynamics:
 Subroutine PRICEL returns:
 Original cell was already a primitive cell.

 Routine SETGRP: Setting up the symmetry group for a
 hexagonal supercell.

[...]
     33      -3.9536      2.00000
     34      -3.8981      2.00000
     35      -3.8738      2.00000
     36      -3.8727      2.00000
     37      -3.8270      2.00000
     38      -3.8120      2.00000
     39      -3.8097      2.00000
     40      -3.8035      2.00000
     41      -3.7936      2.00000
     42      -3.7603      2.00000
     43      -3.7078      2.00000
     44      -3.6723      2.00000
     45      -3.6424      2.00000
     46      -3.4984      2.00000
     47      -3.4904      2.00000
     48      -3.4420      2.00000
     49      -3.4236      2.00000
     50      -3.4050      2.00000
     51      -3.3920      2.00000
     52      -3.3856      2.00000
     53      -3.3793      2.00000
     54      -3.3723      2.00000
     55      -3.2163      2.00000
     56      -3.1859      2.00000
     57      -3.1768      2.00000
     58      -3.1614      2.00000
     59      -3.1085      2.00000
     60      -3.0989      2.00000
[...]
    238       5.8146      0.00000
    239       5.9263      0.00000
    240       5.9914      0.00000
    241       6.0970      0.00000
    242       6.2074      0.00000
    243       6.2573      0.00000
    244       6.4441      0.00000
    245       6.4552      0.00000
    246       6.8223      0.00000
    247       6.8839      0.00000
    248       7.1380      0.00000
    249       7.1398      0.00000
    250       7.2081      0.00000
    251       7.3469      0.00000
    252       7.5726      0.00000

 soft charge-density along one line, spin component           1
         0         1         2         3         4         5         6         7         8         9
 total charge-density along one line

------------------------ aborting loop because EDIFF is reached ----------------------------------------

 total charge

# of ion       s       p       d       tot
    1        0.450   0.282   9.189   9.921
    2        0.448   0.286   9.185   9.919
    3        0.448   0.286   9.185   9.919
    4        0.447   0.285   9.187   9.919
    5        0.448   0.286   9.182   9.916
    6        0.447   0.285   9.187   9.919
    7        0.447   0.285   9.186   9.919
    8        0.447   0.285   9.186   9.919
    9        0.449   0.283   9.189   9.921
   10        0.443   0.371   9.175   9.990
   11        0.442   0.365   9.183   9.989
   12        0.443   0.371   9.175   9.990
   13        0.442   0.364   9.183   9.989
   14        0.442   0.364   9.183   9.989
   15        0.438   0.371   9.176   9.986
   16        0.443   0.371   9.175   9.990
   17        0.438   0.371   9.177   9.986
   18        0.438   0.371   9.177   9.986
   19        0.443   0.370   9.180   9.992
   20        0.462   0.392   9.157  10.012
   21        0.462   0.392   9.157  10.012
   22        0.430   0.374   9.179   9.983
   23        0.467   0.388   9.160  10.015
   24        0.430   0.374   9.179   9.983
   25        0.445   0.369   9.181   9.994
   26        0.445   0.369   9.181   9.994
   27        0.432   0.372   9.182   9.986
   28        0.446   0.295   9.182   9.923
   29        0.482   0.318   9.162   9.962
   30        0.482   0.318   9.162   9.962
   31        0.480   0.310   9.167   9.957
   32        0.480   0.310   9.167   9.957
   33        0.482   0.317   9.163   9.962
   34        0.482   0.317   9.163   9.962
   35        0.441   0.300   9.182   9.923
   36        2.197   5.995   2.434  10.625
   37        1.355   2.448   0.000   3.803
   38        1.355   2.448   0.000   3.803
tot         20.701  22.659 323.617 366.977

  FORCE on cell =-STRESS in cart. coord.  units (eV):
  Direction    XX          YY          ZZ          XY          YZ          ZX
  Alpha Z   928.37790   928.37790   928.37790
  Ewald  173288.29966172957.61527************     0.00043     0.60457     0.00021
  Hartree186564.64722186431.68086************     0.00005     0.29061     0.00007
  E(xc)   -2347.10001 -2348.35782 -2352.51495    -0.00028     0.00026    -0.00005
  Local  ************************372879.65502     0.02005    -0.80577    -0.00079
  n-local  -789.74993  -779.48360  -784.42696     1.38462    -0.01739     0.01315
  augment  3328.37736  3327.16926  3350.28456    -0.01815     0.00451     0.00038
  Kinetic  3563.04711  3571.20705  3594.62165     0.83587    -0.27390    -0.26829
  Fock        0.00000     0.00000     0.00000     0.00000     0.00000     0.00000
  Total      -5.80465    -5.62544    -1.41801     0.00000    -0.19712     0.00000
  in kB      -8.51679    -8.25384    -2.08056     0.00000    -0.28922     0.00000

 VOLUME and BASIS-vectors are now :
  energy-cutoff  :      500.00
  volume of cell :     1091.97
      direct lattice vectors                 reciprocal lattice vectors
     7.696786404  0.000000000  0.000000000     0.129924354 -0.075011849  0.000000000
     3.848392758  6.665612809  0.000000000     0.000000000  0.150023716  0.000000000
     0.000000000  0.000000000 21.284399033     0.000000000  0.000000000  0.046982769

  length of vectors
     7.696786404  7.696786404 21.284399033     0.150023716  0.150023716  0.046982769

 FORCES acting on ions
    electron-ion (+dipol)            ewald-force                    non-local-force                 convergence-correction
   -.403E-04 0.443E-01 0.353E+04   0.578E-04 -.950E-02 -.353E+04   0.260E-08 -.391E-01 -.248E+01   -.335E-03 -.499E-02 0.214E-01
   -.586E+00 -.549E-01 0.353E+04   0.406E+00 -.487E-01 -.353E+04   0.161E+00 0.140E+00 -.177E+01   0.239E-01 -.305E-01 0.148E-01
   0.586E+00 -.549E-01 0.353E+04   -.407E+00 -.488E-01 -.353E+04   -.161E+00 0.140E+00 -.177E+01   -.230E-01 -.279E-01 0.157E-01
   -.278E+00 -.445E+00 0.353E+04   0.169E+00 0.370E+00 -.353E+04   0.143E+00 -.713E-02 -.192E+01   -.115E-01 0.781E-01 0.326E-01
   -.622E-04 -.503E-01 0.353E+04   0.116E-03 -.129E-02 -.353E+04   0.112E-08 -.169E-01 -.156E+01   0.122E-01 0.636E-01 0.106E+00
   0.278E+00 -.445E+00 0.353E+04   -.169E+00 0.370E+00 -.353E+04   -.143E+00 -.713E-02 -.192E+01   0.984E-02 0.793E-01 0.340E-01
   0.129E+00 0.511E+00 0.353E+04   -.237E+00 -.322E+00 -.353E+04   0.132E+00 -.139E+00 -.187E+01   -.236E-01 -.559E-01 0.162E-02
   -.129E+00 0.511E+00 0.353E+04   0.237E+00 -.322E+00 -.353E+04   -.132E+00 -.139E+00 -.187E+01   0.271E-01 -.574E-01 0.193E-02
   -.143E-03 -.638E-02 0.353E+04   0.263E-03 0.108E-01 -.353E+04   -.323E-08 0.485E-01 -.219E+01   -.133E-01 -.397E-01 -.259E-01
   -.275E+01 -.151E+01 0.126E+04   0.317E+01 0.175E+01 -.126E+04   -.429E+00 -.271E+00 -.109E+01   0.142E-01 0.386E-01 -.642E-01
   -.907E-04 0.338E+00 0.126E+04   0.190E-03 -.792E+00 -.126E+04   -.209E-07 0.314E+00 -.119E+00   0.118E-01 0.105E+00 -.465E-01
   0.275E+01 -.151E+01 0.126E+04   -.317E+01 0.175E+01 -.126E+04   0.429E+00 -.271E+00 -.109E+01   -.162E-01 0.407E-01 -.635E-01
   0.192E+00 -.253E+00 0.126E+04   -.612E+00 0.401E+00 -.126E+04   0.332E+00 -.129E+00 -.267E+00   0.672E-01 0.405E-02 -.844E-01
   -.192E+00 -.253E+00 0.126E+04   0.612E+00 0.401E+00 -.126E+04   -.332E+00 -.129E+00 -.267E+00   -.427E-01 0.306E-02 -.842E-01
   -.143E-03 -.342E+01 0.126E+04   0.298E-03 0.326E+01 -.126E+04   -.780E-08 0.117E+00 -.106E+01   -.407E-02 0.284E-01 -.122E+00
   -.915E-04 0.322E+01 0.126E+04   0.185E-03 -.363E+01 -.126E+04   -.325E-07 0.488E+00 -.884E+00   -.152E-03 -.866E-01 -.728E-01
   -.294E+01 0.169E+01 0.126E+04   0.279E+01 -.157E+01 -.126E+04   0.145E+00 -.667E-01 -.906E+00   0.995E-02 -.594E-01 -.101E+00
   0.294E+01 0.169E+01 0.126E+04   -.279E+01 -.157E+01 -.126E+04   -.145E+00 -.667E-01 -.906E+00   -.920E-02 -.564E-01 -.100E+00
   -.646E-04 -.162E+01 -.102E+04   0.637E-04 0.161E+01 0.102E+04   -.114E-08 0.171E-01 0.113E+01   -.234E-02 -.411E-02 -.780E-01
   0.901E+01 0.546E+01 -.102E+04   -.754E+01 -.486E+01 0.103E+04   -.152E+01 -.649E+00 -.966E+00   -.197E-02 0.315E-01 0.372E-02
   -.901E+01 0.546E+01 -.102E+04   0.754E+01 -.486E+01 0.103E+04   0.152E+01 -.649E+00 -.966E+00   0.260E-01 0.334E-01 0.394E-02
   0.201E+01 -.163E+01 -.104E+04   -.249E+01 0.198E+01 0.104E+04   0.480E+00 -.335E+00 0.790E+00   0.232E-01 -.367E-01 -.567E-01
   -.585E-04 -.108E+02 -.102E+04   0.141E-03 0.937E+01 0.103E+04   -.109E-06 0.164E+01 -.949E+00   0.123E-01 -.710E-01 -.116E-01
   -.201E+01 -.163E+01 -.104E+04   0.249E+01 0.198E+01 0.104E+04   -.480E+00 -.335E+00 0.790E+00   -.260E-01 -.384E-01 -.571E-01
   0.173E+01 0.107E+01 -.102E+04   -.172E+01 -.115E+01 0.102E+04   0.152E-01 0.503E-01 0.103E+01   -.196E-01 0.356E-01 -.320E-01
   -.173E+01 0.107E+01 -.102E+04   0.172E+01 -.115E+01 0.102E+04   -.152E-01 0.503E-01 0.103E+01   0.201E-01 0.330E-01 -.309E-01
   -.133E-03 0.245E+01 -.104E+04   0.244E-03 -.292E+01 0.104E+04   -.322E-07 0.483E+00 0.770E+00   -.711E-03 0.264E-01 -.270E-01
   -.263E-04 0.240E+01 -.334E+04   0.322E-04 -.260E+01 0.334E+04   -.117E-07 0.176E+00 0.178E+01   0.126E-02 0.144E-01 0.779E-01
   0.285E+02 0.457E+02 -.332E+04   -.280E+02 -.454E+02 0.332E+04   -.601E+00 -.486E+00 0.681E+00   0.130E-01 0.841E-01 0.550E-01
   -.285E+02 0.457E+02 -.332E+04   0.280E+02 -.454E+02 0.332E+04   0.601E+00 -.486E+00 0.681E+00   -.338E-01 0.867E-01 0.548E-01
   0.550E+02 0.463E+01 -.331E+04   -.545E+02 -.443E+01 0.331E+04   -.654E+00 -.194E+00 0.134E+01   0.966E-01 -.494E-02 0.591E-01
   -.550E+02 0.463E+01 -.331E+04   0.545E+02 -.443E+01 0.331E+04   0.654E+00 -.194E+00 0.134E+01   -.120E+00 -.396E-02 0.579E-01
   0.212E+02 -.506E+02 -.332E+04   -.211E+02 0.500E+02 0.332E+04   -.197E+00 0.720E+00 0.827E+00   0.124E-01 -.115E+00 0.885E-01
   -.212E+02 -.506E+02 -.332E+04   0.211E+02 0.500E+02 0.332E+04   0.197E+00 0.720E+00 0.827E+00   -.308E-01 -.116E+00 0.876E-01
   -.152E-03 -.277E+01 -.336E+04   0.263E-03 0.293E+01 0.336E+04   0.967E-08 -.145E+00 0.227E+01   -.117E-01 -.370E-02 0.143E+00
   0.132E-03 0.915E+00 -.379E+04   0.151E-03 -.105E+01 0.379E+04   0.332E-09 -.499E-02 0.318E+01   0.824E-02 0.188E-01 0.131E-01
   0.235E+03 -.161E+00 -.169E+04   -.277E+03 0.136E+00 0.170E+04   0.421E+02 0.240E-01 -.682E+01   -.811E-02 0.479E-02 -.772E-01
   -.235E+03 -.161E+00 -.169E+04   0.277E+03 0.136E+00 0.170E+04   -.421E+02 0.240E-01 -.682E+01   0.864E-02 0.483E-02 -.777E-01
   0.666E-04 -.396E+00 0.223E+02   0.171E-12 0.820E-13 -.659E-11   -.263E-07 0.396E+00 -.220E+02   -.142E-02 0.233E-02 -.341E+00

 POSITION                                       TOTAL-FORCE (eV/Angst)
      0.00000      0.00000      5.37156         0.000000     -0.009366     -0.028526
      2.56560      0.00000      5.37156         0.004937      0.007609      0.063396
      5.13119      0.00000      5.37156        -0.004937      0.007609      0.063396
      1.28280      2.22187      5.37156         0.023529     -0.003284      0.048131
      3.84839      2.22187      5.37156         0.000000     -0.004905      0.050671
      6.41399      2.22187      5.37156        -0.023529     -0.003284      0.048131
      2.56560      4.44374      5.37156        -0.001287     -0.006830      0.061685
      5.13119      4.44374      5.37156         0.001287     -0.006830      0.061685
      7.69679      4.44374      5.37156        -0.000000      0.013166      0.012294
      1.28280      0.74062      7.46636         0.014670      0.011536     -0.097556
      3.84839      0.74062      7.46636         0.000000     -0.034843     -0.026202
      6.41399      0.74062      7.46636        -0.014670      0.011536     -0.097556
      2.56560      2.96249      7.46636        -0.033417      0.023085     -0.041752
      5.13119      2.96249      7.46636         0.033417      0.023085     -0.041752
      7.69679      2.96249      7.46636         0.000000     -0.011002     -0.019354
      3.84839      5.18437      7.46636         0.000000     -0.009059     -0.084698
      6.41399      5.18437      7.46636        -0.001397     -0.005027     -0.000878
      8.97958      5.18437      7.46636         0.001397     -0.005027     -0.000878
      7.69679      1.47855      9.54201         0.000000     -0.000106      0.045006
      2.56706      1.48209      9.56134        -0.071466     -0.010993     -0.121317
      5.12972      1.48209      9.56134         0.071466     -0.010993     -0.121317
      8.97774      3.70418      9.56312         0.026523     -0.021157      0.018442
      3.84839      3.70142      9.56134        -0.000000      0.110994     -0.150917
      6.41583      3.70418      9.56312        -0.026523     -0.021157      0.018442
     10.26471      5.92634      9.54201         0.008569      0.005238      0.005205
      5.12886      5.92634      9.54201        -0.008569      0.005238      0.005205
      7.69679      5.92286      9.56312        -0.000000      0.045619      0.007474
      0.00000      0.00000     11.64396         0.000000     -0.001881     -0.019101
      6.40056      6.63873     11.66709        -0.049621     -0.090559     -0.124911
      8.99302      6.63873     11.66709         0.049621     -0.090559     -0.124911
      8.94959      2.22368     11.66709        -0.077860      0.004850     -0.046932
      6.44399      2.22368     11.66709         0.077860      0.004850     -0.046932
     10.24582      4.46882     11.66709        -0.059652      0.083756     -0.151439
      5.14776      4.46882     11.66709         0.059652      0.083756     -0.151439
      7.69679      4.44374     11.66626        -0.000000      0.015697     -0.022986
      3.84839      2.22187     11.77465         0.000000     -0.118127      1.027382
      3.27139      2.23059     14.08887        -0.006085      0.003682     -0.007596
      4.42540      2.23059     14.08887         0.006085      0.003682     -0.007596
    total drift:                               -0.001353      0.001638     -0.020666

  FREE ENERGIE OF THE ION-ELECTRON SYSTEM (eV)
  free  energy   TOTEN  =      -147.68673023 eV

  energy  without entropy=     -147.68673023  energy(sigma->0) =     -147.68673023

 stress matrix after NEB project (eV)
     -5.80465      0.00000      0.00000
      0.00000     -5.62544     -0.19712
      0.00000     -0.19712     -1.41801
  FORCES: max atom, RMS     0.010406    0.002387
  FORCE total and by dimension    0.014716    0.007596
  Stress total and by dimension    8.211454    5.804650
|           W    W    AA    RRRRR   N    N  II  N    N   GGGG   !!!           |
|           W    W   A  A   R    R  NN   N  II  NN   N  G    G  !!!           |
|           W    W  A    A  R    R  N N  N  II  N N  N  G       !!!           |
|           W WW W  AAAAAA  RRRRR   N  N N  II  N  N N  G  GGG   !            |
|           WW  WW  A    A  R   R   N   NN  II  N   NN  G    G                |
|           W    W  A    A  R    R  N    N  II  N    N   GGGG   !!!           |
|     Tetrahedron method does not include variations of the Fermi             |
|     occupations, so forces and stress will be inaccurate. We suggest        |
|     using a different smearing scheme ISMEAR = 1 or 2 for metals in         |
|     relaxations.                                                            |

 total charge

# of ion       s       p       d       tot
    1        0.450   0.282   9.189   9.921
    2        0.448   0.286   9.185   9.919
    3        0.448   0.286   9.185   9.919
    4        0.447   0.285   9.187   9.919
    5        0.448   0.286   9.182   9.916
    6        0.447   0.285   9.187   9.919
    7        0.447   0.285   9.186   9.919
    8        0.447   0.285   9.186   9.919
    9        0.449   0.283   9.189   9.921
   10        0.443   0.371   9.175   9.990
   11        0.442   0.365   9.183   9.989
   12        0.443   0.371   9.175   9.990
   13        0.442   0.364   9.183   9.989
   14        0.442   0.364   9.183   9.989
   15        0.438   0.371   9.176   9.986
   16        0.443   0.371   9.175   9.990
   17        0.438   0.371   9.177   9.986
   18        0.438   0.371   9.177   9.986
   19        0.443   0.370   9.180   9.992
   20        0.462   0.392   9.157  10.012
   21        0.462   0.392   9.157  10.012
   22        0.430   0.374   9.179   9.983
   23        0.467   0.388   9.160  10.015
   24        0.430   0.374   9.179   9.983
   25        0.445   0.369   9.181   9.994
   26        0.445   0.369   9.181   9.994
   27        0.432   0.372   9.182   9.986
   28        0.446   0.295   9.182   9.923
   29        0.482   0.318   9.162   9.962
   30        0.482   0.318   9.162   9.962
   31        0.480   0.310   9.167   9.957
   32        0.480   0.310   9.167   9.957
   33        0.482   0.317   9.163   9.962
   34        0.482   0.317   9.163   9.962
   35        0.441   0.300   9.182   9.923
   36        2.197   5.995   2.434  10.625
   37        1.355   2.448   0.000   3.803
   38        1.355   2.448   0.000   3.803
tot         20.701  22.659 323.617 366.977

 BZINTS: Fermi energy:    0.332328;  408.000000 electrons
         Band energy:-0.138578E+04;  BLOECHL correction:   -0.024854