 vasp.6.2.0 18Jan21 (build Jun 12 2021 23:27:24) complex

 executed on             LinuxIFC date 2022.05.27  06:15:11

 INCAR:
   ISMEAR = -5
   SIGMA = 0.1
   ISPIN = 1
   EDIFF = 1.d-5
   EDIFFG = -0.01
   NSW = 0
   NELM = 150
   ENCUT = 500
   ISIF = 2
   IBRION = 2
   LREAL = Auto
   ALGO = Fast
   ICHARG = 11
   LORBIT = 10
   LCHARG = .F.
   LWAVE = .F.

 POTCAR:    PAW_PBE Cu 22Jun2005
 POTCAR:    PAW_PBE Hf 20Jan2003
 POTCAR:    PAW_PBE H 15Jun2001
|           W    W    AA    RRRRR   N    N  II  N    N   GGGG   !!!           |
|           W    W   A  A   R    R  NN   N  II  NN   N  G    G  !!!           |
|           W    W  A    A  R    R  N N  N  II  N N  N  G       !!!           |
|           W WW W  AAAAAA  RRRRR   N  N N  II  N  N N  G  GGG   !            |
|           WW  WW  A    A  R   R   N   NN  II  N   NN  G    G                |
|           W    W  A    A  R    R  N    N  II  N    N   GGGG   !!!           |
|     For optimal performance we recommend to set                             |
|       NCORE = 2 up to number-of-cores-per-socket                            |
|     This setting can greatly improve the performance of VASP for DFT.       |
|     The default, NCORE=1 might be grossly inefficient on modern             |
|     multi-core architectures or massively parallel machines. Do your        |
|     Unfortunately you need to use the default for GW and RPA                |
|     calculations (for HF NCORE is supported but not extensively tested      |
|     yet).                                                                   |

 POTCAR:    PAW_PBE Cu 22Jun2005
   VRHFIN =Cu: d10 p1

   TITEL  = PAW_PBE Cu 22Jun2005
   POMASS =   63.546; ZVAL   =   11.000    mass and valenz
   ENMAX  =  295.446; ENMIN  =  221.585 eV

 POTCAR:    PAW_PBE Hf 20Jan2003
   VRHFIN =Hf: 6s5d

   TITEL  = PAW_PBE Hf 20Jan2003
   POMASS =  178.490; ZVAL   =    4.000    mass and valenz
   ENMAX  =  220.334; ENMIN  =  165.250 eV

 POTCAR:    PAW_PBE H 15Jun2001
   VRHFIN =H: ultrasoft test

   TITEL  = PAW_PBE H 15Jun2001
   POMASS =    1.000; ZVAL   =    1.000    mass and valenz
   ENMAX  =  250.000; ENMIN  =  200.000 eV

 Optimization of the real space projectors (new method)

 maximal supplied QI-value         = 16.25
 optimisation between [QCUT,QGAM] = [ 11.38, 22.75] = [ 36.24,144.96] Ry
 Optimized for a Real-space Cutoff    1.52 Angstroem

   l    n(q)    QCUT    max X(q) W(low)/X(q) W(high)/X(q)  e(spline)
   2      9    11.376     4.610    0.21E-03    0.10E-03    0.26E-06
   2      9    11.376     8.522    0.33E-03    0.16E-03    0.37E-06
   0     10    11.376    51.609    0.62E-04    0.20E-04    0.13E-06
   0     10    11.376    27.747    0.54E-04    0.20E-04    0.13E-06
   1     10    11.376    20.408    0.13E-04    0.99E-04    0.19E-06
   1     10    11.376    13.425    0.12E-04    0.87E-04    0.17E-06
 Optimization of the real space projectors (new method)

[...]

   l    n(q)    QCUT    max X(q) W(low)/X(q) W(high)/X(q)  e(spline)
   2     10    11.350    48.111    0.20E-03    0.11E-03    0.41E-06
   2     10    11.350    40.545    0.19E-03    0.10E-03    0.39E-06
   0     11    11.350   121.658    0.22E-04    0.19E-04    0.24E-06
   0     11    11.350    71.177    0.17E-04    0.17E-04    0.23E-06
   1     11    11.350    14.183    0.25E-03    0.43E-03    0.12E-05
   1     11    11.350     8.257    0.17E-03    0.29E-03    0.81E-06
 Optimization of the real space projectors (new method)

 maximal supplied QI-value         = 34.20
 optimisation between [QCUT,QGAM] = [ 11.29, 22.57] = [ 35.68,142.71] Ry
 Optimized for a Real-space Cutoff    1.16 Angstroem

   l    n(q)    QCUT    max X(q) W(low)/X(q) W(high)/X(q)  e(spline)
   0      8    11.287    19.460    0.40E-03    0.73E-03    0.16E-06
   0      8    11.287    12.209    0.38E-03    0.70E-03    0.15E-06
   1      7    11.287     4.655    0.22E-03    0.25E-04    0.22E-06
  PAW_PBE Cu 22Jun2005                  :
  PAW_PBE Hf 20Jan2003                  :
  PAW_PBE H 15Jun2001                   :

 POSCAR: Cu-Hf-H2
  positions in direct lattice
  velocities in cartesian coordinates
 exchange correlation table for  LEXCH =        8
   RHO(1)=    0.500       N(1)  =     2000
   RHO(2)=  100.500       N(2)  =     4000

 VTST: version 3.2, (02/03/18)

 CHAIN: initializing optimizer

 OPT: Using VASP Conjugate-Gradient optimizer
 CHAIN: Read ICHAIN            0

 POSCAR: Cu-Hf-H2
  positions in direct lattice
  velocities in cartesian coordinates

 ion  position               nearest neighbor table
   1  0.000  0.000  0.252-   7 2.57   3 2.57   4 2.57   2 2.57   6 2.57   8 2.57  12 2.57  10 2.57
                            16 2.57
   2  0.333  0.000  0.252-   8 2.57   9 2.57   5 2.57   1 2.57   3 2.57  11 2.57   4 2.57  10 2.57
                            17 2.57
   3  0.667  0.000  0.252-   1 2.57   7 2.57   6 2.57   9 2.57   2 2.57  12 2.57   5 2.57  18 2.57
                            11 2.57
   4  0.000  0.333  0.252-   5 2.57   6 2.57   1 2.57   7 2.57   2 2.57  13 2.57   9 2.57  10 2.57
                            15 2.57
   5  0.333  0.333  0.252-   4 2.57   2 2.57   7 2.57  13 2.57   8 2.57   6 2.57   3 2.57  11 2.57
                            14 2.57
   6  0.667  0.333  0.252-   4 2.57   9 2.57  15 2.57   3 2.57   1 2.57   8 2.57  14 2.57   5 2.57
                            12 2.57
   7  0.000  0.667  0.252-   1 2.57   3 2.57  16 2.57  18 2.57   4 2.57   5 2.57   8 2.57   9 2.57
                            13 2.57
   8  0.333  0.667  0.252-   9 2.57   2 2.57  17 2.57   6 2.57   1 2.57   7 2.57   5 2.57  14 2.57
                            16 2.57
   9  0.667  0.667  0.252-   8 2.57   6 2.57   2 2.57  17 2.57   3 2.57   7 2.57   4 2.57  15 2.57
                            18 2.57
  10  0.111  0.111  0.351-  26 2.54  19 2.54  11 2.57  12 2.57  13 2.57   1 2.57   2 2.57   4 2.57
                            15 2.57  16 2.57  17 2.57  20 2.58
  11  0.444  0.111  0.351-  27 2.56  10 2.57  13 2.57   2 2.57  17 2.57  14 2.57  12 2.57   5 2.57
                             3 2.57  18 2.57  20 2.57  21 2.57
  12  0.778  0.111  0.351-  19 2.54  25 2.54  15 2.57  10 2.57  14 2.57  18 2.57   3 2.57   1 2.57
                            16 2.57  11 2.57   6 2.57  21 2.58
  13  0.111  0.444  0.351-  22 2.56  16 2.57  18 2.57  10 2.57  11 2.57  14 2.57   5 2.57   4 2.57
                             7 2.57  15 2.57  23 2.57  20 2.57
  14  0.444  0.444  0.351-  24 2.56  15 2.57  17 2.57  12 2.57  16 2.57  13 2.57  11 2.57   6 2.57
                             8 2.57   5 2.57  21 2.57  23 2.57
  15  0.778  0.444  0.351-  19 2.55  24 2.56  22 2.56  14 2.57  17 2.57  12 2.57   6 2.57  18 2.57
                            10 2.57   9 2.57  13 2.57   4 2.57
  16  0.111  0.778  0.351-  25 2.54  26 2.54  18 2.57  13 2.57   7 2.57  14 2.57  17 2.57  12 2.57
                            10 2.57   8 2.57   1 2.57  23 2.58
  17  0.444  0.778  0.351-  26 2.55  27 2.56  24 2.56  14 2.57  15 2.57   8 2.57   9 2.57  11 2.57
                            16 2.57  18 2.57  10 2.57   2 2.57
  18  0.778  0.778  0.351-  25 2.55  22 2.56  27 2.56  16 2.57  13 2.57   7 2.57  15 2.57  12 2.57
                            17 2.57   9 2.57   3 2.57  11 2.57
  19  0.889  0.221  0.448-  12 2.54  10 2.54  15 2.55  25 2.56  26 2.56  32 2.57  31 2.57  22 2.57
                            24 2.57  21 2.57  20 2.57  28 2.57
  20  0.223  0.223  0.450-  23 2.55  21 2.55  27 2.57  22 2.57  26 2.57  19 2.57  11 2.57  13 2.57
                            10 2.58  29 2.58  31 2.58  36 2.77
  21  0.555  0.223  0.450-  20 2.55  23 2.55  24 2.57  27 2.57  19 2.57  25 2.57  14 2.57  11 2.57
                            12 2.58  32 2.58  30 2.58  36 2.77
  22  0.889  0.556  0.449-  18 2.56  15 2.56  13 2.56  24 2.56  27 2.56  23 2.57  20 2.57  31 2.57
                            33 2.57  19 2.57  25 2.57  35 2.58
  23  0.223  0.555  0.450-  20 2.55  21 2.55  22 2.57  24 2.57  25 2.57  26 2.57  13 2.57  14 2.57
                            16 2.58  33 2.58  34 2.58  36 2.77
  24  0.556  0.556  0.449-  15 2.56  17 2.56  14 2.56  22 2.56  27 2.56  21 2.57  23 2.57  32 2.57
                            34 2.57  19 2.57  26 2.57  35 2.58
  25  0.889  0.889  0.448-  12 2.54  16 2.54  18 2.55  19 2.56  26 2.56  33 2.57  30 2.57  22 2.57
                            27 2.57  21 2.57  23 2.57  28 2.57
  26  0.221  0.889  0.448-  10 2.54  16 2.54  17 2.55  25 2.56  19 2.56  29 2.57  34 2.57  27 2.57
                            24 2.57  20 2.57  23 2.57  28 2.57
  27  0.556  0.889  0.449-  17 2.56  18 2.56  11 2.56  24 2.56  22 2.56  20 2.57  21 2.57  29 2.57
                            30 2.57  26 2.57  25 2.57  35 2.58
  28  0.000  0.000  0.547-  33 2.55  30 2.55  31 2.55  29 2.55  32 2.55  34 2.55  25 2.57  19 2.57
                            26 2.57
  29  0.334  0.994  0.548-  34 2.48  35 2.54  28 2.55  26 2.57  27 2.57  20 2.58  30 2.60  31 2.61
                            36 2.62
  30  0.672  0.994  0.548-  33 2.48  35 2.54  28 2.55  25 2.57  27 2.57  21 2.58  29 2.60  32 2.61
                            36 2.62
  31  0.994  0.334  0.548-  32 2.48  35 2.54  28 2.55  19 2.57  22 2.57  20 2.58  33 2.60  29 2.61
                            36 2.62
  32  0.672  0.334  0.548-  31 2.48  35 2.54  28 2.55  19 2.57  24 2.57  21 2.58  34 2.60  30 2.61
                            36 2.62
  33  0.994  0.672  0.548-  30 2.48  35 2.54  28 2.55  25 2.57  22 2.57  23 2.58  31 2.60  34 2.61
                            36 2.62
  34  0.334  0.672  0.548-  29 2.48  35 2.54  28 2.55  26 2.57  24 2.57  23 2.58  32 2.60  33 2.61
                            36 2.62
  35  0.667  0.667  0.548-  34 2.54  32 2.54  29 2.54  30 2.54  33 2.54  31 2.54  24 2.58  27 2.58
                            22 2.58
  36  0.333  0.333  0.560-  38 2.27  37 2.27  31 2.62  29 2.62  33 2.62  32 2.62  34 2.62  30 2.62
                            23 2.77  20 2.77  21 2.77
  37  0.282  0.335  0.665-  38 0.78  36 2.27
  38  0.383  0.335  0.665-  37 0.78  36 2.27

  LATTYP: Found a hexagonal cell.
 ALAT       =     7.6967864036
 C/A-ratio  =     2.7653617908

  Lattice vectors:

 A1 = (  -3.8483927580,  -6.6656128093,   0.0000000000)
 A2 = (   7.6967864037,   0.0000000000,   0.0000000000)
 A3 = (   0.0000000000,   0.0000000000,  21.2843990326)

Analysis of symmetry for initial positions (statically):
 Subroutine PRICEL returns:
 Original cell was already a primitive cell.

 Routine SETGRP: Setting up the symmetry group for a
 hexagonal supercell.

 Subroutine GETGRP returns: Found  2 space group operations
 (whereof  2 operations were pure point group operations)
 out of a pool of 24 trial point group operations.

The static configuration has the point symmetry C_1h.

Analysis of symmetry for dynamics (positions and initial velocities):
 Subroutine PRICEL returns:
 Original cell was already a primitive cell.

[...]

The dynamic configuration has the point symmetry C_1h.

Analysis of constrained symmetry for selective dynamics:
 Subroutine PRICEL returns:
 Original cell was already a primitive cell.

 Routine SETGRP: Setting up the symmetry group for a
 hexagonal supercell.

 Subroutine GETGRP returns: Found  2 space group operations
[...]
     33      -3.7902      2.00000
     34      -3.7718      2.00000
     35      -3.7447      2.00000
     36      -3.6649      2.00000
     37      -3.6478      2.00000
     38      -3.4989      2.00000
     39      -3.4863      2.00000
     40      -3.4431      2.00000
     41      -3.4283      2.00000
     42      -3.4038      2.00000
     43      -3.3930      2.00000
     44      -3.3860      2.00000
     45      -3.3771      2.00000
     46      -3.3715      2.00000
     47      -3.2338      2.00000
     48      -3.2082      2.00000
     49      -3.1913      2.00000
     50      -3.1686      2.00000
     51      -3.1182      2.00000
     52      -3.1008      2.00000
     53      -3.0969      2.00000
     54      -3.0808      2.00000
     55      -3.0680      2.00000
     56      -3.0638      2.00000
     57      -3.0413      2.00000
     58      -3.0238      2.00000
     59      -3.0137      2.00000
     60      -3.0033      2.00000
[...]
    238       6.8141      0.00000
    239       6.9802      0.00000
    240       7.0016      0.00000
    241       7.0389      0.00000
    242       7.0530      0.00000
    243       7.1228      0.00000
    244       7.4229      0.00000
    245       7.4737      0.00000
    246       7.6108      0.00000
    247       7.6697      0.00000
    248       7.8465      0.00000
    249       8.0196      0.00000
    250       8.0959      0.00000
    251       8.1791      0.00000
    252       8.2394      0.00000

 soft charge-density along one line, spin component           1
         0         1         2         3         4         5         6         7         8         9
 total charge-density along one line

------------------------ aborting loop because EDIFF is reached ----------------------------------------

 total charge

# of ion       s       p       d       tot
    1        0.451   0.282   9.188   9.921
    2        0.447   0.286   9.186   9.918
    3        0.447   0.286   9.186   9.918
    4        0.446   0.286   9.186   9.918
    5        0.449   0.286   9.181   9.916
    6        0.446   0.286   9.186   9.918
    7        0.447   0.286   9.186   9.919
    8        0.447   0.286   9.186   9.919
    9        0.450   0.283   9.187   9.921
   10        0.443   0.372   9.176   9.990
   11        0.441   0.365   9.181   9.987
   12        0.443   0.372   9.176   9.990
   13        0.441   0.364   9.182   9.987
   14        0.441   0.364   9.182   9.987
   15        0.440   0.372   9.177   9.989
   16        0.442   0.372   9.175   9.989
   17        0.440   0.372   9.175   9.987
   18        0.440   0.372   9.175   9.987
   19        0.444   0.374   9.177   9.995
   20        0.459   0.386   9.159  10.003
   21        0.459   0.386   9.159  10.003
   22        0.434   0.374   9.178   9.986
   23        0.459   0.386   9.159  10.003
   24        0.434   0.374   9.178   9.986
   25        0.445   0.373   9.178   9.996
   26        0.445   0.373   9.178   9.996
   27        0.434   0.374   9.178   9.987
   28        0.442   0.300   9.179   9.921
   29        0.488   0.325   9.157   9.970
   30        0.488   0.325   9.157   9.970
   31        0.487   0.326   9.155   9.968
   32        0.487   0.326   9.155   9.968
   33        0.488   0.325   9.157   9.970
   34        0.488   0.325   9.157   9.970
   35        0.441   0.304   9.179   9.924
   36        0.615   0.501   1.983   3.099
   37        0.585   0.029   0.000   0.614
   38        0.585   0.029   0.000   0.614
tot         17.608  12.404 323.094 353.107

  FORCE on cell =-STRESS in cart. coord.  units (eV):
  Direction    XX          YY          ZZ          XY          YZ          ZX
  Alpha Z   864.50595   864.50595   864.50595
  Ewald  169058.18511169040.38520************     0.00033    -0.21828     0.00015
  Hartree181899.74910181898.98101************     0.00001    -0.35962     0.00005
  E(xc)   -2268.68506 -2268.80805 -2272.04351    -0.00031    -0.00691    -0.00003
  Local  ************************363726.05783     0.01943     0.60682    -0.00064
  n-local  -752.29149  -750.94719  -765.85214     1.64282    -0.06075     0.00888
  augment  3308.99594  3309.07942  3332.18660    -0.01798     0.00234     0.00025
  Kinetic  3176.23353  3182.23078  3211.17071     0.54580     0.01774    -0.25100
  Fock        0.00000     0.00000     0.00000     0.00000     0.00000     0.00000
  Total      -7.46512    -7.34400    -2.58715     0.00000    -0.01865     0.00000
  in kB     -10.95308   -10.77537    -3.79595     0.00000    -0.02737     0.00000

 VOLUME and BASIS-vectors are now :
  energy-cutoff  :      500.00
  volume of cell :     1091.97
      direct lattice vectors                 reciprocal lattice vectors
     7.696786404  0.000000000  0.000000000     0.129924354 -0.075011849  0.000000000
     3.848392758  6.665612809  0.000000000     0.000000000  0.150023716  0.000000000
     0.000000000  0.000000000 21.284399033     0.000000000  0.000000000  0.046982769

  length of vectors
     7.696786404  7.696786404 21.284399033     0.150023716  0.150023716  0.046982769

 FORCES acting on ions
    electron-ion (+dipol)            ewald-force                    non-local-force                 convergence-correction
   -.405E-04 -.203E-01 0.343E+04   0.582E-04 -.727E-03 -.343E+04   0.101E-08 -.152E-01 -.211E+01   -.222E-03 0.299E-01 0.405E-01
   -.122E+01 -.161E+01 0.343E+04   0.120E+01 0.152E+01 -.343E+04   0.297E-01 0.920E-01 -.192E+01   0.947E-02 -.510E-02 0.172E+00
   0.122E+01 -.161E+01 0.343E+04   -.120E+01 0.152E+01 -.343E+04   -.297E-01 0.920E-01 -.192E+01   -.875E-02 -.252E-02 0.173E+00
   -.201E+01 -.241E+00 0.343E+04   0.192E+01 0.273E+00 -.343E+04   0.112E+00 -.184E-01 -.197E+01   -.975E-02 -.780E-02 0.159E+00
   -.610E-04 0.683E-01 0.343E+04   0.116E-03 -.324E-03 -.343E+04   0.193E-08 -.289E-01 -.155E+01   0.122E-01 -.354E-01 0.330E+00
   0.201E+01 -.240E+00 0.343E+04   -.192E+01 0.272E+00 -.343E+04   -.112E+00 -.184E-01 -.197E+01   0.815E-02 -.649E-02 0.160E+00
   -.690E+00 0.183E+01 0.343E+04   0.723E+00 -.180E+01 -.343E+04   0.339E-01 -.624E-01 -.192E+01   -.595E-01 0.150E-01 0.196E+00
   0.690E+00 0.183E+01 0.343E+04   -.723E+00 -.180E+01 -.343E+04   -.339E-01 -.624E-01 -.192E+01   0.631E-01 0.137E-01 0.197E+00
   -.142E-03 -.319E-01 0.343E+04   0.263E-03 0.105E-02 -.343E+04   -.139E-08 0.208E-01 -.188E+01   -.133E-01 0.134E-01 0.162E+00
   -.130E+02 -.744E+01 0.110E+04   0.131E+02 0.754E+01 -.110E+04   -.169E+00 -.115E+00 -.921E+00   0.667E-01 0.268E-01 -.203E+00
   -.904E-04 -.143E+02 0.108E+04   0.189E-03 0.140E+02 -.108E+04   -.157E-07 0.236E+00 -.280E+00   0.113E-01 0.367E-01 -.190E+00
   0.130E+02 -.744E+01 0.110E+04   -.131E+02 0.754E+01 -.110E+04   0.169E+00 -.115E+00 -.921E+00   -.677E-01 0.284E-01 -.205E+00
   -.124E+02 0.713E+01 0.108E+04   0.121E+02 -.699E+01 -.108E+04   0.211E+00 -.129E+00 -.281E+00   0.534E-01 0.194E-02 -.170E+00
   0.124E+02 0.713E+01 0.108E+04   -.121E+02 -.699E+01 -.108E+04   -.211E+00 -.129E+00 -.281E+00   -.294E-01 0.163E-02 -.170E+00
   -.138E-03 -.681E+00 0.110E+04   0.294E-03 0.566E+00 -.110E+04   -.361E-08 0.542E-01 -.983E+00   -.345E-02 0.663E-01 -.189E+00
   -.933E-04 0.149E+02 0.110E+04   0.187E-03 -.151E+02 -.110E+04   -.142E-07 0.213E+00 -.884E+00   0.842E-04 -.880E-01 -.160E+00
   -.582E+00 0.325E+00 0.110E+04   0.488E+00 -.277E+00 -.110E+04   0.488E-01 -.185E-01 -.909E+00   0.519E-01 -.340E-01 -.179E+00
   0.582E+00 0.325E+00 0.110E+04   -.488E+00 -.277E+00 -.110E+04   -.488E-01 -.185E-01 -.909E+00   -.515E-01 -.317E-01 -.179E+00
   -.673E-04 -.103E+02 -.120E+04   0.747E-04 0.104E+02 0.120E+04   0.624E-08 -.937E-01 0.825E+00   0.106E-02 -.294E-01 -.325E+00
   -.805E+02 -.464E+02 -.134E+04   0.815E+02 0.470E+02 0.134E+04   -.103E+01 -.586E+00 -.564E+00   -.240E-01 -.479E-01 -.451E+00
   0.805E+02 -.464E+02 -.134E+04   -.815E+02 0.470E+02 0.134E+04   0.103E+01 -.586E+00 -.564E+00   0.360E-02 -.460E-01 -.452E+00
   -.401E+02 0.231E+02 -.123E+04   0.399E+02 -.230E+02 0.123E+04   0.240E+00 -.129E+00 0.602E+00   -.171E-01 0.267E-01 -.444E+00
   -.681E-04 0.928E+02 -.134E+04   0.158E-03 -.941E+02 0.134E+04   -.775E-07 0.116E+01 -.499E+00   0.130E-02 0.718E-01 -.491E+00
   0.401E+02 0.231E+02 -.123E+04   -.399E+02 -.230E+02 0.123E+04   -.240E+00 -.129E+00 0.602E+00   -.536E-02 0.288E-01 -.443E+00
   0.895E+01 0.520E+01 -.120E+04   -.906E+01 -.523E+01 0.120E+04   0.964E-01 0.526E-01 0.863E+00   0.218E-01 -.767E-02 -.328E+00
   -.895E+01 0.520E+01 -.120E+04   0.906E+01 -.523E+01 0.120E+04   -.964E-01 0.526E-01 0.863E+00   -.186E-01 -.869E-02 -.328E+00
   -.139E-03 -.463E+02 -.123E+04   0.239E-03 0.461E+02 0.123E+04   -.176E-07 0.265E+00 0.658E+00   -.132E-01 -.263E-01 -.419E+00
   -.316E-04 0.167E+00 -.344E+04   0.522E-04 -.203E+00 0.344E+04   -.318E-08 0.477E-01 0.176E+01   -.102E-02 -.103E-01 -.184E+00
   -.731E+02 -.135E+03 -.344E+04   0.735E+02 0.136E+03 0.344E+04   -.388E+00 -.395E+00 0.106E+00   0.229E-01 -.724E-01 -.227E+00
   0.731E+02 -.135E+03 -.344E+04   -.735E+02 0.136E+03 0.344E+04   0.388E+00 -.395E+00 0.106E+00   -.842E-03 -.706E-01 -.226E+00
   -.154E+03 0.476E+01 -.344E+04   0.154E+03 -.460E+01 0.344E+04   -.584E+00 -.153E+00 0.963E-02   -.391E-01 -.480E-02 -.248E+00
   0.154E+03 0.476E+01 -.344E+04   -.154E+03 -.460E+01 0.344E+04   0.584E+00 -.153E+00 0.963E-02   0.609E-01 -.300E-02 -.248E+00
   -.811E+02 0.131E+03 -.344E+04   0.813E+02 -.131E+03 0.344E+04   -.133E+00 0.543E+00 0.105E+00   -.331E-01 0.109E+00 -.290E+00
   0.811E+02 0.131E+03 -.344E+04   -.813E+02 -.131E+03 0.344E+04   0.133E+00 0.543E+00 0.105E+00   0.587E-01 0.108E+00 -.291E+00
   -.121E-03 -.267E+00 -.346E+04   0.245E-03 0.279E+00 0.345E+04   0.402E-08 -.604E-01 0.205E+01   -.148E-01 0.441E-01 -.213E+00
   -.343E-04 0.123E+00 -.128E+04   0.434E-04 -.965E-01 0.128E+04   0.171E-08 -.256E-01 0.345E+01   -.172E-03 -.145E-01 -.800E-01
   0.177E+02 0.510E-01 -.311E+03   -.224E+02 -.402E-01 0.312E+03   0.469E+01 -.498E-02 -.641E+00   -.236E-02 -.309E-02 0.138E-01
   -.177E+02 0.510E-01 -.311E+03   0.224E+02 -.402E-01 0.312E+03   -.469E+01 -.498E-02 -.641E+00   0.236E-02 -.308E-02 0.139E-01
   -.237E-03 0.827E-02 0.200E+02   0.114E-12 0.261E-12 0.149E-10   0.469E-08 -.705E-01 -.143E+02   0.353E-01 0.637E-01 -.572E+01

 POSITION                                       TOTAL-FORCE (eV/Angst)
      0.00000      0.00000      5.37156         0.000000     -0.006351      0.001967
      2.56560      0.00000      5.37156         0.014692      0.006867      0.046113
      5.13119      0.00000      5.37156        -0.014692      0.006867      0.046113
      1.28280      2.22187      5.37156         0.012351      0.006412      0.042872
      3.84839      2.22187      5.37156        -0.000000      0.003598      0.052903
      6.41399      2.22187      5.37156        -0.012351      0.006412      0.042872
      2.56560      4.44374      5.37156         0.005782     -0.013286      0.039758
      5.13119      4.44374      5.37156        -0.005782     -0.013286      0.039758
      7.69679      4.44374      5.37156        -0.000000      0.003412      0.020865
      1.28280      0.74062      7.46636         0.010941      0.007391     -0.104461
      3.84839      0.74062      7.46636         0.000000     -0.020466     -0.029594
      6.41399      0.74062      7.46636        -0.010941      0.007391     -0.104461
      2.56560      2.96249      7.46636        -0.015267      0.011298     -0.033340
      5.13119      2.96249      7.46636         0.015267      0.011298     -0.033340
      7.69679      2.96249      7.46636        -0.000000      0.005751     -0.046611
      3.84839      5.18437      7.46636         0.000000     -0.015180     -0.101696
      6.41399      5.18437      7.46636         0.006397     -0.003149     -0.033784
      8.97958      5.18437      7.46636        -0.006397     -0.003149     -0.033784
      7.69679      1.47625      9.53578         0.000000     -0.004282      0.012171
      2.57143      1.48462      9.57247        -0.007019      0.000968     -0.035469
      5.12535      1.48462      9.57247         0.007019      0.000968     -0.035469
      8.97869      3.70363      9.55450        -0.005982     -0.003090      0.018908
      3.84839      3.69638      9.57247        -0.000000      0.005153     -0.036186
      6.41488      3.70363      9.55450         0.005982     -0.003090      0.018908
     10.26671      5.92749      9.53578         0.012937      0.008191      0.006047
      5.12686      5.92749      9.53578        -0.012937      0.008191      0.006047
      7.69679      5.92396      9.55450         0.000000     -0.000190      0.025128
      0.00000      0.00000     11.64309        -0.000000      0.000877      0.037171
      6.39641      6.62889     11.65568        -0.026504     -0.015106     -0.009839
      8.99717      6.62889     11.65568         0.026504     -0.015106     -0.009839
      8.93899      2.22500     11.65568         0.013099     -0.000307      0.046233
      6.45458      2.22500     11.65568        -0.013099     -0.000307      0.046233
     10.23937      4.47733     11.65568        -0.022114      0.013537     -0.006520
      5.15420      4.47733     11.65568         0.022114      0.013537     -0.006520
      7.69679      4.44374     11.66757         0.000000     -0.003818      0.024003
      3.84839      2.22187     11.91603         0.000000     -0.013267      0.115471
      3.45921      2.23294     14.15325        -0.018580      0.002658     -0.014314
      4.23758      2.23294     14.15325         0.018580      0.002658     -0.014314
    total drift:                                0.035107      0.001465      0.007308

  FREE ENERGIE OF THE ION-ELECTRON SYSTEM (eV)
  free  energy   TOTEN  =      -138.92034056 eV

  energy  without entropy=     -138.92034056  energy(sigma->0) =     -138.92034056

 stress matrix after NEB project (eV)
     -7.46512      0.00000      0.00000
      0.00000     -7.34400     -0.01865
      0.00000     -0.01865     -2.58715
  FORCES: max atom, RMS     0.023605    0.005415
  FORCE total and by dimension    0.033382    0.018580
  Stress total and by dimension   10.786859    7.465118
|           W    W    AA    RRRRR   N    N  II  N    N   GGGG   !!!           |
|           W    W   A  A   R    R  NN   N  II  NN   N  G    G  !!!           |
|           W    W  A    A  R    R  N N  N  II  N N  N  G       !!!           |
|           W WW W  AAAAAA  RRRRR   N  N N  II  N  N N  G  GGG   !            |
|           WW  WW  A    A  R   R   N   NN  II  N   NN  G    G                |
|           W    W  A    A  R    R  N    N  II  N    N   GGGG   !!!           |
|     Tetrahedron method does not include variations of the Fermi             |
|     occupations, so forces and stress will be inaccurate. We suggest        |
|     using a different smearing scheme ISMEAR = 1 or 2 for metals in         |
|     relaxations.                                                            |

 total charge

# of ion       s       p       d       tot
    1        0.451   0.282   9.188   9.921
    2        0.447   0.286   9.186   9.918
    3        0.447   0.286   9.186   9.918
    4        0.446   0.286   9.186   9.918
    5        0.449   0.286   9.181   9.916
    6        0.446   0.286   9.186   9.918
    7        0.447   0.286   9.186   9.919
    8        0.447   0.286   9.186   9.919
    9        0.450   0.283   9.187   9.921
   10        0.443   0.372   9.176   9.990
   11        0.441   0.365   9.181   9.987
   12        0.443   0.372   9.176   9.990
   13        0.441   0.364   9.182   9.987
   14        0.441   0.364   9.182   9.987
   15        0.440   0.372   9.177   9.989
   16        0.442   0.372   9.175   9.989
   17        0.440   0.372   9.175   9.987
   18        0.440   0.372   9.175   9.987
   19        0.444   0.374   9.177   9.995
   20        0.459   0.386   9.159  10.003
   21        0.459   0.386   9.159  10.003
   22        0.434   0.374   9.178   9.986
   23        0.459   0.386   9.159  10.003
   24        0.434   0.374   9.178   9.986
   25        0.445   0.373   9.178   9.996
   26        0.445   0.373   9.178   9.996
   27        0.434   0.374   9.178   9.987
   28        0.442   0.300   9.179   9.921
   29        0.488   0.325   9.157   9.970
   30        0.488   0.325   9.157   9.970
   31        0.487   0.326   9.155   9.968
   32        0.487   0.326   9.155   9.968
   33        0.488   0.325   9.157   9.970
   34        0.488   0.325   9.157   9.970
   35        0.441   0.304   9.179   9.924
   36        0.615   0.501   1.983   3.099
   37        0.585   0.029   0.000   0.614
   38        0.585   0.029   0.000   0.614
tot         17.608  12.404 323.094 353.107

 BZINTS: Fermi energy:    0.383866;  391.000000 electrons
         Band energy:-0.100653E+04;  BLOECHL correction:   -0.039203