 vasp.6.2.0 18Jan21 (build Jun 12 2021 23:27:24) complex

 executed on             LinuxIFC date 2022.05.30  17:11:07

 INCAR:
   ISMEAR = -5
   SIGMA = 0.1
   ISPIN = 1
   EDIFF = 1.d-5
   EDIFFG = -0.01
   NSW = 0
   NELM = 150
   ENCUT = 500
   ISIF = 2
   IBRION = 2
   LREAL = Auto
   ALGO = Fast
   ICHARG = 11
   LORBIT = 10
   LCHARG = .F.
   LWAVE = .F.

 POTCAR:    PAW_PBE Ag 02Apr2005
 POTCAR:    PAW_PBE Zr_sv 04Jan2005
 POTCAR:    PAW_PBE C 08Apr2002
 POTCAR:    PAW_PBE O 08Apr2002
 POTCAR:    PAW_PBE H 15Jun2001
|           W    W    AA    RRRRR   N    N  II  N    N   GGGG   !!!           |
|           W    W   A  A   R    R  NN   N  II  NN   N  G    G  !!!           |
|           W    W  A    A  R    R  N N  N  II  N N  N  G       !!!           |
|           W WW W  AAAAAA  RRRRR   N  N N  II  N  N N  G  GGG   !            |
|           WW  WW  A    A  R   R   N   NN  II  N   NN  G    G                |
|           W    W  A    A  R    R  N    N  II  N    N   GGGG   !!!           |
|     For optimal performance we recommend to set                             |
|       NCORE = 2 up to number-of-cores-per-socket                            |
|     This setting can greatly improve the performance of VASP for DFT.       |
|     The default, NCORE=1 might be grossly inefficient on modern             |
|     multi-core architectures or massively parallel machines. Do your        |
|     Unfortunately you need to use the default for GW and RPA                |
|     calculations (for HF NCORE is supported but not extensively tested      |
|     yet).                                                                   |

 POTCAR:    PAW_PBE Ag 02Apr2005
   VRHFIN =Ag : s1 d10

   TITEL  = PAW_PBE Ag 02Apr2005
   POMASS =  107.868; ZVAL   =   11.000    mass and valenz
   ENMAX  =  249.844; ENMIN  =  187.383 eV

 POTCAR:    PAW_PBE Zr_sv 04Jan2005
   VRHFIN =Zr: 4s4p5s4d

   TITEL  = PAW_PBE Zr_sv 04Jan2005
   POMASS =   91.224; ZVAL   =   12.000    mass and valenz
   ENMAX  =  229.898; ENMIN  =  172.424 eV

 POTCAR:    PAW_PBE C 08Apr2002
   VRHFIN =C: s2p2

[...]

 POTCAR:    PAW_PBE O 08Apr2002
   VRHFIN =O: s2p4

   TITEL  = PAW_PBE O 08Apr2002
   POMASS =   16.000; ZVAL   =    6.000    mass and valenz
   ENMAX  =  400.000; ENMIN  =  300.000 eV

 POTCAR:    PAW_PBE H 15Jun2001
   VRHFIN =H: ultrasoft test

   TITEL  = PAW_PBE H 15Jun2001
   POMASS =    1.000; ZVAL   =    1.000    mass and valenz
   ENMAX  =  250.000; ENMIN  =  200.000 eV

 Optimization of the real space projectors (new method)

 maximal supplied QI-value         = 15.12
 optimisation between [QCUT,QGAM] = [ 11.34, 22.83] = [ 36.00,145.93] Ry
 Optimized for a Real-space Cutoff    1.43 Angstroem

   l    n(q)    QCUT    max X(q) W(low)/X(q) W(high)/X(q)  e(spline)
   2      9    11.338    53.897    0.16E-03    0.20E-03    0.28E-06
   2      9    11.338    52.416    0.16E-03    0.20E-03    0.29E-06
   0     10    11.338   122.045    0.31E-04    0.76E-04    0.15E-06
   0     10    11.338    73.629    0.30E-04    0.72E-04    0.15E-06
   1      9    11.338    15.255    0.20E-03    0.19E-04    0.17E-06
   1      9    11.338     9.562    0.16E-03    0.15E-04    0.14E-06
 Optimization of the real space projectors (new method)

[...]

   l    n(q)    QCUT    max X(q) W(low)/X(q) W(high)/X(q)  e(spline)
   0      7    11.387    20.381    0.39E-03    0.13E-02    0.15E-06
   0      7    11.387    15.268    0.42E-03    0.14E-02    0.17E-06
   1      6    11.387     5.964    0.41E-03    0.11E-02    0.17E-06
   1      6    11.387     5.382    0.39E-03    0.87E-03    0.15E-06
 Optimization of the real space projectors (new method)

 maximal supplied QI-value         = 34.20
 optimisation between [QCUT,QGAM] = [ 11.29, 22.57] = [ 35.68,142.71] Ry
 Optimized for a Real-space Cutoff    1.16 Angstroem

   l    n(q)    QCUT    max X(q) W(low)/X(q) W(high)/X(q)  e(spline)
   0      8    11.287    19.460    0.40E-03    0.73E-03    0.16E-06
   0      8    11.287    12.209    0.38E-03    0.70E-03    0.15E-06
   1      7    11.287     4.655    0.22E-03    0.25E-04    0.22E-06
  PAW_PBE Ag 02Apr2005                  :
  PAW_PBE Zr_sv 04Jan2005               :
  PAW_PBE C 08Apr2002                   :
  PAW_PBE O 08Apr2002                   :
  PAW_PBE H 15Jun2001                   :

 POSCAR: Ag-Zr-COH
  positions in direct lattice
  velocities in cartesian coordinates
 exchange correlation table for  LEXCH =        8
   RHO(1)=    0.500       N(1)  =     2000
   RHO(2)=  100.500       N(2)  =     4000

 VTST: version 3.2, (02/03/18)

 CHAIN: initializing optimizer

 OPT: Using VASP Conjugate-Gradient optimizer
 CHAIN: Read ICHAIN            0

 POSCAR: Ag-Zr-COH
  positions in direct lattice
  velocities in cartesian coordinates

 ion  position               nearest neighbor table
   1  0.000  0.000  0.199-   2 2.93   8 2.93   7 2.93   6 2.93   4 2.93  12 2.93  16 2.93  10 2.93
                             3 2.93
   2  0.333  0.000  0.199-   1 2.93   8 2.93   9 2.93   3 2.93   4 2.93   5 2.93  10 2.93  17 2.93
                            11 2.93
   3  0.667  0.000  0.199-   9 2.93   2 2.93   5 2.93  11 2.93   7 2.93  18 2.93   1 2.93   6 2.93
                            12 2.93
   4  0.000  0.333  0.199-   5 2.93   6 2.93   2 2.93   1 2.93   7 2.93  13 2.93  15 2.93   9 2.93
                            10 2.93
   5  0.333  0.333  0.199-   4 2.93   3 2.93   7 2.93   2 2.93   8 2.93  14 2.93  13 2.93  11 2.93
                             6 2.93
   6  0.667  0.333  0.199-   4 2.93   9 2.93   1 2.93  15 2.93   8 2.93  12 2.93   3 2.93   5 2.93
                            14 2.93
   7  0.000  0.667  0.199-   8 2.93   1 2.93   5 2.93   3 2.93   4 2.93  16 2.93  18 2.93  13 2.93
                             9 2.93
   8  0.333  0.667  0.199-   7 2.93   1 2.93   2 2.93   9 2.93   5 2.93  16 2.93   6 2.93  17 2.93
                            14 2.93
   9  0.667  0.667  0.199-   3 2.93   2 2.93   8 2.93   6 2.93  17 2.93   4 2.93  15 2.93   7 2.93
                            18 2.93
  10  0.111  0.111  0.289-  20 2.91  19 2.92  26 2.92  12 2.93  16 2.93  15 2.93  17 2.93  13 2.93
                            11 2.93   2 2.93   1 2.93   4 2.93
  11  0.444  0.111  0.289-  21 2.91  20 2.91  14 2.93  17 2.93  18 2.93   3 2.93  12 2.93  13 2.93
                            10 2.93   5 2.93   2 2.93  27 2.93
  12  0.778  0.111  0.289-  21 2.91  25 2.92  19 2.92  10 2.93  16 2.93  18 2.93  15 2.93  11 2.93
                             1 2.93  14 2.93   6 2.93   3 2.93
  13  0.111  0.444  0.289-  20 2.91  23 2.91  15 2.93  14 2.93  18 2.93  10 2.93  11 2.93  16 2.93
                             4 2.93   5 2.93   7 2.93  22 2.93
  14  0.444  0.444  0.289-  23 2.91  21 2.91  13 2.93  11 2.93  16 2.93   5 2.93  12 2.93  17 2.93
                             8 2.93  15 2.93   6 2.93  24 2.93
  15  0.778  0.444  0.289-  19 2.92  13 2.93  10 2.93  12 2.93  17 2.93  18 2.93   4 2.93   6 2.93
                             9 2.93  14 2.93  24 2.93  22 2.93
  16  0.111  0.778  0.289-  23 2.91  26 2.92  25 2.92  18 2.93  12 2.93  10 2.93  14 2.93  17 2.93
                            13 2.93   7 2.93   8 2.93   1 2.93
  17  0.444  0.778  0.289-  26 2.92  11 2.93  10 2.93   9 2.93  18 2.93  15 2.93  16 2.93   2 2.93
                            14 2.93   8 2.93  27 2.93  24 2.93
  18  0.778  0.778  0.289-  25 2.92  16 2.93  12 2.93  13 2.93  11 2.93  17 2.93  15 2.93   7 2.93
                             3 2.93   9 2.93  22 2.93  27 2.93
  19  0.889  0.222  0.378-  10 2.92  12 2.92  15 2.92  26 2.93  25 2.93  20 2.93  21 2.93  24 2.93
                            22 2.93  28 2.93  32 2.97  31 2.97
  20  0.222  0.222  0.378-  13 2.91  11 2.91  10 2.91  36 2.92  21 2.93  23 2.93  27 2.93  22 2.93
                            19 2.93  26 2.93  31 2.97  29 2.97
  21  0.555  0.222  0.378-  11 2.91  14 2.91  12 2.91  36 2.92  20 2.93  23 2.93  27 2.93  24 2.93
                            25 2.93  19 2.93  30 2.97  32 2.97
  22  0.889  0.556  0.379-  24 2.93  27 2.93  23 2.93  20 2.93  18 2.93  15 2.93  13 2.93  25 2.93
                            19 2.93  35 2.94  33 2.95  31 2.95
  23  0.222  0.555  0.378-  14 2.91  13 2.91  16 2.91  36 2.92  21 2.93  20 2.93  22 2.93  24 2.93
                            26 2.93  25 2.93  34 2.97  33 2.97
  24  0.556  0.556  0.379-  27 2.93  22 2.93  23 2.93  21 2.93  15 2.93  17 2.93  14 2.93  19 2.93
                            26 2.93  35 2.94  32 2.95  34 2.95
  25  0.889  0.889  0.378-  16 2.92  12 2.92  18 2.92  26 2.93  19 2.93  23 2.93  21 2.93  22 2.93
                            27 2.93  28 2.93  33 2.97  30 2.97
  26  0.222  0.889  0.378-  16 2.92  10 2.92  17 2.92  25 2.93  19 2.93  23 2.93  20 2.93  27 2.93
                            24 2.93  28 2.93  34 2.97  29 2.97
  27  0.556  0.889  0.379-  24 2.93  22 2.93  20 2.93  21 2.93  17 2.93  18 2.93  11 2.93  26 2.93
                            25 2.93  35 2.94  29 2.95  30 2.95
  28  0.000  0.000  0.468-  29 2.93  34 2.93  33 2.93  32 2.93  31 2.93  30 2.93  26 2.93  25 2.93
                            19 2.93
  29  0.334  0.000  0.470-  30 2.93  36 2.93  35 2.93  31 2.93  28 2.93  34 2.94  27 2.95  26 2.97
                            20 2.97
  30  0.666  0.000  0.470-  29 2.93  36 2.93  35 2.93  32 2.93  28 2.93  33 2.94  27 2.95  25 2.97
                            21 2.97
  31  0.000  0.334  0.470-  33 2.93  36 2.93  35 2.93  29 2.93  28 2.93  32 2.94  22 2.95  19 2.97
                            20 2.97
  32  0.666  0.334  0.470-  34 2.93  36 2.93  35 2.93  30 2.93  28 2.93  31 2.94  24 2.95  19 2.97
                            21 2.97
  33  0.000  0.666  0.470-  31 2.93  36 2.93  35 2.93  34 2.93  28 2.93  30 2.94  22 2.95  25 2.97
                            23 2.97
  34  0.334  0.666  0.470-  32 2.93  36 2.93  35 2.93  33 2.93  28 2.93  29 2.94  24 2.95  26 2.97
                            23 2.97
  35  0.667  0.667  0.469-  30 2.93  29 2.93  32 2.93  34 2.93  31 2.93  33 2.93  24 2.94  27 2.94
                            22 2.94
  36  0.333  0.333  0.468-  37 2.03  21 2.92  20 2.92  23 2.92  31 2.93  33 2.93  30 2.93  29 2.93
                            34 2.93  32 2.93
  37  0.333  0.333  0.544-  38 1.27  36 2.03
  38  0.333  0.333  0.592-  39 0.96  37 1.27
  39  0.333  0.333  0.628-  38 0.96

  LATTYP: Found a hexagonal cell.
 ALAT       =     8.7913665772
 C/A-ratio  =     3.0233954145

  Lattice vectors:

 A1 = (  -4.3956832886,  -7.6135467898,   0.0000000000)
 A2 = (   8.7913665771,   0.0000000000,   0.0000000000)
 A3 = (   0.0000000000,   0.0000000000,  26.5797773968)

Analysis of symmetry for initial positions (statically):
 Subroutine PRICEL returns:
 Original cell was already a primitive cell.

 Routine SETGRP: Setting up the symmetry group for a
 hexagonal supercell.

 Subroutine GETGRP returns: Found  6 space group operations
 (whereof  6 operations were pure point group operations)
 out of a pool of 24 trial point group operations.

The static configuration has the point symmetry C_3v.

Analysis of symmetry for dynamics (positions and initial velocities):
 Subroutine PRICEL returns:
 Original cell was already a primitive cell.

[...]

[...]
     41      -4.9115      2.00000
     42      -4.8802      2.00000
     43      -4.8600      2.00000
     44      -4.8419      2.00000
     45      -4.8147      2.00000
     46      -4.7806      2.00000
     47      -4.7524      2.00000
     48      -4.7463      2.00000
     49      -4.7390      2.00000
     50      -4.7378      2.00000
     51      -4.7199      2.00000
     52      -4.6180      2.00000
     53      -4.6053      2.00000
     54      -4.5944      2.00000
     55      -4.5802      2.00000
     56      -4.5753      2.00000
     57      -4.5671      2.00000
     58      -4.5640      2.00000
     59      -4.5576      2.00000
     60      -4.5503      2.00000
[...]
    238       5.0277      0.00000
    239       5.2738      0.00000
    240       5.2986      0.00000
    241       5.3264      0.00000
    242       5.4899      0.00000
    243       5.5087      0.00000
    244       5.5470      0.00000
    245       5.7023      0.00000
    246       5.7890      0.00000
    247       5.8558      0.00000
    248       5.8888      0.00000
    249       5.9428      0.00000
    250       5.9533      0.00000
    251       5.9944      0.00000
    252       6.0293      0.00000

 soft charge-density along one line, spin component           1
         0         1         2         3         4         5         6         7         8         9
 total charge-density along one line

------------------------ aborting loop because EDIFF is reached ----------------------------------------

 total charge

# of ion       s       p       d       tot
    1        0.418   0.201   9.179   9.797
    2        0.415   0.204   9.177   9.796
    3        0.415   0.204   9.177   9.796
    4        0.415   0.204   9.177   9.796
    5        0.423   0.202   9.174   9.799
    6        0.415   0.204   9.177   9.796
    7        0.415   0.204   9.177   9.796
    8        0.415   0.204   9.177   9.796
    9        0.415   0.202   9.179   9.796
   10        0.409   0.270   9.162   9.841
   11        0.410   0.265   9.168   9.843
   12        0.409   0.270   9.162   9.841
   13        0.410   0.265   9.168   9.843
   14        0.410   0.265   9.168   9.843
   15        0.403   0.269   9.163   9.836
   16        0.409   0.270   9.162   9.841
   17        0.403   0.269   9.163   9.836
   18        0.403   0.269   9.163   9.836
   19        0.403   0.267   9.164   9.834
   20        0.438   0.288   9.143   9.868
   21        0.438   0.288   9.143   9.868
   22        0.395   0.271   9.165   9.831
   23        0.438   0.288   9.143   9.868
   24        0.395   0.271   9.165   9.831
   25        0.403   0.267   9.164   9.834
   26        0.403   0.267   9.164   9.834
   27        0.395   0.271   9.165   9.831
   28        0.409   0.206   9.176   9.790
   29        0.444   0.216   9.156   9.816
   30        0.444   0.216   9.156   9.816
   31        0.444   0.216   9.156   9.816
   32        0.444   0.216   9.156   9.816
   33        0.444   0.216   9.156   9.816
   34        0.444   0.216   9.156   9.816
   35        0.409   0.205   9.177   9.792
   36        2.194   5.985   1.685   9.864
   37        0.940   1.391   0.000   2.331
   38        1.523   3.751   0.000   5.275
   39        0.569   0.138   0.000   0.707
tot         19.826  19.690 322.466 361.982

  FORCE on cell =-STRESS in cart. coord.  units (eV):
  Direction    XX          YY          ZZ          XY          YZ          ZX
  Alpha Z   656.63341   656.63341   656.63341
  Ewald  187003.50879187003.50890************     0.00004     0.00000     0.00006
  Hartree197287.69589197287.69593************     0.00002     0.00000     0.00001
  E(xc)   -2128.07559 -2128.07565 -2131.87466     0.00006     0.00000     0.00001
  Local  ************************395305.42387     0.00065    -0.00008    -0.00020
  n-local  -359.00490  -342.74491  -355.58952     9.98191    -0.45614     0.57094
  augment  3228.17954  3228.17984  3241.71691    -0.00027    -0.00003    -0.00004
  Kinetic  5201.16459  5202.11420  5191.26705     3.87598     0.73145    -0.14900
  Fock        0.00000     0.00000     0.00000     0.00000     0.00000     0.00000
  Total      -6.65114    -6.65114     0.45058    -0.00000     0.00000    -0.00000
  in kB      -5.98980    -5.98980     0.40577    -0.00000     0.00000    -0.00000

 VOLUME and BASIS-vectors are now :
  energy-cutoff  :      500.00
  volume of cell :     1779.08
      direct lattice vectors                 reciprocal lattice vectors
     8.791366577  0.000000000  0.000000000     0.113747958 -0.065672414  0.000000000
     4.395683289  7.613546790  0.000000000     0.000000000  0.131344829  0.000000000
     0.000000000  0.000000000 26.579777397     0.000000000  0.000000000  0.037622587

  length of vectors
     8.791366577  8.791366577 26.579777397     0.131344829  0.131344829  0.037622587

 FORCES acting on ions
    electron-ion (+dipol)            ewald-force                    non-local-force                 convergence-correction
   0.456E-04 -.284E-04 0.286E+04   -.953E-04 0.593E-04 -.286E+04   -.323E-17 -.375E-18 -.192E+01   -.914E-04 -.161E-03 0.734E-02
   -.101E+00 0.469E+00 0.286E+04   0.192E-01 -.581E+00 -.286E+04   0.108E+00 0.193E+00 -.150E+01   -.226E-01 -.754E-01 0.441E-01
   0.101E+00 0.469E+00 0.286E+04   -.191E-01 -.581E+00 -.286E+04   -.108E+00 0.193E+00 -.150E+01   0.220E-01 -.735E-01 0.448E-01
   0.356E+00 -.322E+00 0.286E+04   -.494E+00 0.307E+00 -.286E+04   0.221E+00 -.326E-02 -.150E+01   -.763E-01 0.183E-01 0.440E-01
   -.447E-05 -.183E-04 0.286E+04   0.981E-04 -.201E-05 -.286E+04   0.328E-17 0.158E-18 -.910E+00   0.616E-02 0.374E-02 0.193E+00
   -.356E+00 -.322E+00 0.286E+04   0.494E+00 0.307E+00 -.286E+04   -.221E+00 -.326E-02 -.150E+01   0.750E-01 0.192E-01 0.447E-01
   0.456E+00 -.147E+00 0.286E+04   -.513E+00 0.274E+00 -.286E+04   0.113E+00 -.190E+00 -.150E+01   -.522E-01 0.564E-01 0.447E-01
   -.456E+00 -.147E+00 0.286E+04   0.513E+00 0.274E+00 -.286E+04   -.113E+00 -.190E+00 -.150E+01   0.538E-01 0.554E-01 0.447E-01
   0.371E-04 -.126E-04 0.286E+04   0.792E-04 -.643E-04 -.286E+04   -.170E-17 0.132E-17 -.182E+01   -.660E-02 -.336E-02 0.637E-02
   0.184E+01 0.106E+01 0.102E+04   -.154E+01 -.888E+00 -.102E+04   -.259E+00 -.150E+00 -.685E+00   -.653E-01 -.380E-01 0.157E+00
   -.282E-04 0.553E+01 0.102E+04   0.410E-04 -.553E+01 -.102E+04   0.734E-12 0.112E+00 -.140E+00   0.619E-02 -.128E+00 0.131E+00
   -.184E+01 0.106E+01 0.102E+04   0.154E+01 -.888E+00 -.102E+04   0.259E+00 -.150E+00 -.685E+00   0.642E-01 -.375E-01 0.156E+00
   0.479E+01 -.276E+01 0.102E+04   -.479E+01 0.276E+01 -.102E+04   0.968E-01 -.559E-01 -.140E+00   -.108E+00 0.694E-01 0.131E+00
   -.479E+01 -.276E+01 0.102E+04   0.479E+01 0.276E+01 -.102E+04   -.968E-01 -.559E-01 -.140E+00   0.118E+00 0.682E-01 0.129E+00
   0.149E-04 -.315E+01 0.102E+04   -.109E-03 0.303E+01 -.102E+04   0.572E-12 0.871E-01 -.776E+00   -.122E-02 0.265E-01 0.120E+00
   -.708E-05 -.212E+01 0.102E+04   0.208E-04 0.178E+01 -.102E+04   0.196E-11 0.299E+00 -.685E+00   -.387E-03 0.743E-01 0.155E+00
   -.273E+01 0.157E+01 0.102E+04   0.262E+01 -.151E+01 -.102E+04   0.755E-01 -.436E-01 -.776E+00   0.223E-01 -.140E-01 0.120E+00
   0.273E+01 0.157E+01 0.102E+04   -.262E+01 -.151E+01 -.102E+04   -.755E-01 -.436E-01 -.776E+00   -.220E-01 -.125E-01 0.121E+00
   0.401E-04 -.183E+01 -.845E+03   -.130E-03 0.190E+01 0.845E+03   0.392E-12 0.597E-01 0.889E+00   0.927E-03 -.107E+00 -.882E-01
   0.207E+02 0.119E+02 -.815E+03   -.196E+02 -.113E+02 0.815E+03   -.101E+01 -.583E+00 -.776E+00   -.239E+00 -.139E+00 -.128E+00
   -.207E+02 0.119E+02 -.815E+03   0.196E+02 -.113E+02 0.815E+03   0.101E+01 -.583E+00 -.776E+00   0.228E+00 -.140E+00 -.128E+00
   0.985E+01 -.568E+01 -.850E+03   -.991E+01 0.572E+01 0.850E+03   0.138E+00 -.796E-01 0.316E+00   -.596E-01 0.417E-01 -.120E+00
   -.552E-04 -.239E+02 -.815E+03   0.458E-04 0.226E+02 0.815E+03   0.766E-11 0.117E+01 -.776E+00   -.676E-02 0.267E+00 -.128E+00
   -.985E+01 -.568E+01 -.850E+03   0.991E+01 0.572E+01 0.850E+03   -.138E+00 -.796E-01 0.316E+00   0.717E-01 0.422E-01 -.120E+00
   0.159E+01 0.916E+00 -.845E+03   -.165E+01 -.952E+00 0.845E+03   -.517E-01 -.298E-01 0.889E+00   0.909E-01 0.530E-01 -.886E-01
   -.159E+01 0.916E+00 -.845E+03   0.165E+01 -.952E+00 0.845E+03   0.517E-01 -.298E-01 0.889E+00   -.815E-01 0.547E-01 -.882E-01
   0.199E-04 0.114E+02 -.850E+03   0.109E-03 -.114E+02 0.850E+03   0.105E-11 0.159E+00 0.316E+00   0.449E-02 -.722E-01 -.120E+00
   0.553E-04 -.356E-04 -.271E+04   -.119E-03 0.788E-04 0.271E+04   0.245E-17 -.294E-17 0.173E+01   0.412E-04 0.907E-04 -.196E-01
   0.343E+02 0.524E+02 -.270E+04   -.336E+02 -.514E+02 0.270E+04   -.636E+00 -.988E+00 0.115E+01   -.101E+00 -.960E-01 -.100E+00
   -.343E+02 0.524E+02 -.270E+04   0.336E+02 -.514E+02 0.270E+04   0.636E+00 -.988E+00 0.115E+01   0.100E+00 -.947E-01 -.100E+00
   0.626E+02 0.350E+01 -.270E+04   -.613E+02 -.342E+01 0.270E+04   -.117E+01 -.573E-01 0.115E+01   -.133E+00 -.394E-01 -.995E-01
   -.626E+02 0.350E+01 -.270E+04   0.613E+02 -.342E+01 0.270E+04   0.117E+01 -.573E-01 0.115E+01   0.133E+00 -.386E-01 -.983E-01
   0.283E+02 -.559E+02 -.270E+04   -.277E+02 0.548E+02 0.270E+04   -.537E+00 0.105E+01 0.115E+01   -.316E-01 0.135E+00 -.998E-01
   -.283E+02 -.559E+02 -.270E+04   0.277E+02 0.548E+02 0.270E+04   0.537E+00 0.105E+01 0.115E+01   0.328E-01 0.134E+00 -.984E-01
   0.189E-04 -.891E-05 -.272E+04   0.106E-03 -.676E-04 0.272E+04   -.709E-18 0.152E-17 0.183E+01   -.631E-02 -.294E-02 -.489E-01
   0.238E-03 -.140E-03 -.272E+04   0.112E-03 0.106E-04 0.273E+04   -.146E-17 0.477E-18 -.308E+01   0.509E-02 0.299E-02 -.255E-01
   0.853E-05 -.769E-04 -.107E+04   0.130E-04 0.128E-06 0.104E+04   -.508E-18 0.410E-18 0.222E+02   0.116E-02 0.697E-03 0.157E-01
   0.242E-03 -.923E-04 -.168E+04   0.619E-05 0.668E-08 0.169E+04   -.131E-17 -.847E-18 -.252E+01   0.382E-02 0.233E-02 0.859E-02
   0.706E-05 -.143E-04 -.321E+03   0.431E-06 -.114E-08 0.330E+03   -.483E-19 -.268E-19 -.870E+01   0.202E-03 0.123E-03 0.477E-02
   0.892E-03 -.974E-03 -.102E+01   -.141E-12 0.490E-13 -.330E-11   0.218E-15 0.153E-17 0.112E+01   0.255E-01 0.131E-01 0.256E-01

 POSITION                                       TOTAL-FORCE (eV/Angst)
      0.00000      0.00000      5.28219         0.000000     -0.000000     -0.037092
      2.93046      0.00000      5.28219         0.004306      0.006162      0.018180
      5.86091      0.00000      5.28219        -0.004306      0.006162      0.018180
      1.46523      2.53785      5.28219         0.007490      0.000648      0.018180
      4.39568      2.53785      5.28219         0.000000     -0.000000     -0.023194
      7.32614      2.53785      5.28219        -0.007490      0.000648      0.018180
      2.93046      5.07570      5.28219         0.003183     -0.006810      0.018180
      5.86091      5.07570      5.28219        -0.003183     -0.006810      0.018180
      8.79137      5.07570      5.28219         0.000000      0.000000      0.002084
      1.46523      0.84595      7.67490        -0.022532     -0.013009     -0.063994
      4.39568      0.84595      7.67490        -0.000000     -0.018224     -0.046423
      7.32614      0.84595      7.67490         0.022532     -0.013009     -0.063994
      2.93046      3.38380      7.67490        -0.015782      0.009112     -0.046423
      5.86091      3.38380      7.67490         0.015782      0.009112     -0.046423
      8.79137      3.38380      7.67490        -0.000000     -0.009030      0.003935
      4.39568      5.92165      7.67490         0.000000      0.026017     -0.063994
      7.32614      5.92165      7.67490        -0.007820      0.004515      0.003935
     10.25659      5.92165      7.67490         0.007820      0.004515      0.003935
      8.79137      1.69022     10.04930         0.000000      0.026552      0.076531
      2.93117      1.69231     10.04246        -0.129729     -0.074899     -0.122766
      5.86019      1.69231     10.04246         0.129729     -0.074899     -0.122766
     10.25641      4.22985     10.06824         0.009939     -0.005738      0.047637
      4.39568      4.22892     10.04246         0.000000      0.149798     -0.122766
      7.32632      4.22985     10.06824        -0.009939     -0.005738      0.047637
     11.72328      6.76844     10.04930        -0.022995     -0.013276      0.076531
      5.85946      6.76844     10.04930         0.022995     -0.013276      0.076531
      8.79137      6.76739     10.06824         0.000000      0.011476      0.047637
      0.00000      0.00000     12.44689         0.000000      0.000000     -0.025404
      2.93311      0.00118     12.48352        -0.045523     -0.050172      0.059946
      5.85826      0.00118     12.48352         0.045523     -0.050172      0.059946
      1.46758      2.53956     12.48352        -0.066212     -0.014338      0.059946
      7.32379      2.53956     12.48352         0.066212     -0.014338      0.059946
      2.93015      5.07281     12.48352        -0.020689      0.064510      0.059946
      5.86121      5.07281     12.48352         0.020689      0.064510      0.059946
      8.79137      5.07570     12.47551         0.000000     -0.000000     -0.045246
      4.39568      2.53785     12.42634         0.000000      0.000000      0.016674
      4.39568      2.53785     14.45365         0.000000      0.000000     -0.048182
      4.39568      2.53785     15.72730         0.000000     -0.000000      0.006698
      4.39568      2.53785     16.68352         0.000000     -0.000000      0.000146
    total drift:                                0.026377      0.012084      0.119878

  FREE ENERGIE OF THE ION-ELECTRON SYSTEM (eV)
  free  energy   TOTEN  =      -114.12255084 eV

  energy  without entropy=     -114.12255084  energy(sigma->0) =     -114.12255084

 stress matrix after NEB project (eV)
     -6.65114     -0.00000     -0.00000
     -0.00000     -6.65114      0.00000
      0.00000      0.00000      0.45058
  FORCES: max atom, RMS     0.048182    0.007789
  FORCE total and by dimension    0.048645    0.048182
  Stress total and by dimension    9.416921    6.651142
|           W    W    AA    RRRRR   N    N  II  N    N   GGGG   !!!           |
|           W    W   A  A   R    R  NN   N  II  NN   N  G    G  !!!           |
|           W    W  A    A  R    R  N N  N  II  N N  N  G       !!!           |
|           W WW W  AAAAAA  RRRRR   N  N N  II  N  N N  G  GGG   !            |
|           WW  WW  A    A  R   R   N   NN  II  N   NN  G    G                |
|           W    W  A    A  R    R  N    N  II  N    N   GGGG   !!!           |
|     Tetrahedron method does not include variations of the Fermi             |
|     occupations, so forces and stress will be inaccurate. We suggest        |
|     using a different smearing scheme ISMEAR = 1 or 2 for metals in         |
|     relaxations.                                                            |

 total charge

# of ion       s       p       d       tot
    1        0.418   0.201   9.179   9.797
    2        0.415   0.204   9.177   9.796
    3        0.415   0.204   9.177   9.796
    4        0.415   0.204   9.177   9.796
    5        0.423   0.202   9.174   9.799
    6        0.415   0.204   9.177   9.796
    7        0.415   0.204   9.177   9.796
    8        0.415   0.204   9.177   9.796
    9        0.415   0.202   9.179   9.796
   10        0.409   0.270   9.162   9.841
   11        0.410   0.265   9.168   9.843
   12        0.409   0.270   9.162   9.841
   13        0.410   0.265   9.168   9.843
   14        0.410   0.265   9.168   9.843
   15        0.403   0.269   9.163   9.836
   16        0.409   0.270   9.162   9.841
   17        0.403   0.269   9.163   9.836
   18        0.403   0.269   9.163   9.836
   19        0.403   0.267   9.164   9.834
   20        0.438   0.288   9.143   9.868
   21        0.438   0.288   9.143   9.868
   22        0.395   0.271   9.165   9.831
   23        0.438   0.288   9.143   9.868
   24        0.395   0.271   9.165   9.831
   25        0.403   0.267   9.164   9.834
   26        0.403   0.267   9.164   9.834
   27        0.395   0.271   9.165   9.831
   28        0.409   0.206   9.176   9.790
   29        0.444   0.216   9.156   9.816
   30        0.444   0.216   9.156   9.816
   31        0.444   0.216   9.156   9.816
   32        0.444   0.216   9.156   9.816
   33        0.444   0.216   9.156   9.816
   34        0.444   0.216   9.156   9.816
   35        0.409   0.205   9.177   9.792
   36        2.194   5.985   1.685   9.864
   37        0.940   1.391   0.000   2.331
   38        1.523   3.751   0.000   5.275
   39        0.569   0.138   0.000   0.707
tot         19.826  19.690 322.466 361.982

 BZINTS: Fermi energy:    0.449276;  408.000000 electrons
         Band energy:-0.179444E+04;  BLOECHL correction:   -0.037819