 vasp.6.2.0 18Jan21 (build Jun 12 2021 23:27:24) complex

 executed on             LinuxIFC date 2022.05.26  20:21:56

 INCAR:
   ISMEAR = -5
   SIGMA = 0.1
   ISPIN = 1
   EDIFF = 1.d-5
   EDIFFG = -0.01
   NSW = 0
   NELM = 150
   ENCUT = 500
   ISIF = 2
   IBRION = 2
   LREAL = Auto
   ALGO = Fast
   ICHARG = 11
   LORBIT = 10
   LCHARG = .F.
   LWAVE = .F.

 POTCAR:    PAW_PBE Ag 02Apr2005
 POTCAR:    PAW_PBE Hf 20Jan2003
|           W    W    AA    RRRRR   N    N  II  N    N   GGGG   !!!           |
|           W    W   A  A   R    R  NN   N  II  NN   N  G    G  !!!           |
|           W    W  A    A  R    R  N N  N  II  N N  N  G       !!!           |
|           W WW W  AAAAAA  RRRRR   N  N N  II  N  N N  G  GGG   !            |
|           WW  WW  A    A  R   R   N   NN  II  N   NN  G    G                |
|           W    W  A    A  R    R  N    N  II  N    N   GGGG   !!!           |
|     For optimal performance we recommend to set                             |
|       NCORE = 2 up to number-of-cores-per-socket                            |
|     This setting can greatly improve the performance of VASP for DFT.       |
|     The default, NCORE=1 might be grossly inefficient on modern             |
|     multi-core architectures or massively parallel machines. Do your        |
|     Unfortunately you need to use the default for GW and RPA                |
|     calculations (for HF NCORE is supported but not extensively tested      |
|     yet).                                                                   |

 POTCAR:    PAW_PBE Ag 02Apr2005
   VRHFIN =Ag : s1 d10

   TITEL  = PAW_PBE Ag 02Apr2005
   POMASS =  107.868; ZVAL   =   11.000    mass and valenz
   ENMAX  =  249.844; ENMIN  =  187.383 eV

 POTCAR:    PAW_PBE Hf 20Jan2003
   VRHFIN =Hf: 6s5d

   TITEL  = PAW_PBE Hf 20Jan2003
   POMASS =  178.490; ZVAL   =    4.000    mass and valenz
   ENMAX  =  220.334; ENMIN  =  165.250 eV

 Optimization of the real space projectors (new method)

 maximal supplied QI-value         = 15.12
 optimisation between [QCUT,QGAM] = [ 11.34, 22.83] = [ 36.00,145.93] Ry
 Optimized for a Real-space Cutoff    1.43 Angstroem

   l    n(q)    QCUT    max X(q) W(low)/X(q) W(high)/X(q)  e(spline)
   2      9    11.338    53.897    0.16E-03    0.20E-03    0.28E-06
   2      9    11.338    52.416    0.16E-03    0.20E-03    0.29E-06
   0     10    11.338   122.045    0.31E-04    0.76E-04    0.15E-06
   0     10    11.338    73.629    0.30E-04    0.72E-04    0.15E-06
   1      9    11.338    15.255    0.20E-03    0.19E-04    0.17E-06
   1      9    11.338     9.562    0.16E-03    0.15E-04    0.14E-06
 Optimization of the real space projectors (new method)

 maximal supplied QI-value         = 12.47
 optimisation between [QCUT,QGAM] = [ 11.35, 22.82] = [ 36.07,145.88] Ry
 Optimized for a Real-space Cutoff    1.66 Angstroem

   l    n(q)    QCUT    max X(q) W(low)/X(q) W(high)/X(q)  e(spline)
   2     10    11.350    48.111    0.20E-03    0.11E-03    0.41E-06
   2     10    11.350    40.545    0.19E-03    0.10E-03    0.39E-06
   0     11    11.350   121.658    0.22E-04    0.19E-04    0.24E-06
   0     11    11.350    71.177    0.17E-04    0.17E-04    0.23E-06
   1     11    11.350    14.183    0.25E-03    0.43E-03    0.12E-05
   1     11    11.350     8.257    0.17E-03    0.29E-03    0.81E-06
  PAW_PBE Ag 02Apr2005                  :
  PAW_PBE Hf 20Jan2003                  :

 POSCAR: Ag-Hf
  positions in direct lattice
  velocities in cartesian coordinates
 exchange correlation table for  LEXCH =        8
   RHO(1)=    0.500       N(1)  =     2000
   RHO(2)=  100.500       N(2)  =     4000

 VTST: version 3.2, (02/03/18)

 CHAIN: initializing optimizer

 OPT: Using VASP Conjugate-Gradient optimizer
 CHAIN: Read ICHAIN            0

 POSCAR: Ag-Hf
  positions in direct lattice
  velocities in cartesian coordinates

 ion  position               nearest neighbor table
   1  0.000  0.000  0.238-   2 2.93   8 2.93   7 2.93   6 2.93   4 2.93  12 2.93  16 2.93  10 2.93
                             3 2.93
   2  0.333  0.000  0.238-   1 2.93   8 2.93   9 2.93   3 2.93   4 2.93   5 2.93  10 2.93  17 2.93
                            11 2.93
   3  0.667  0.000  0.238-   9 2.93   2 2.93   5 2.93  11 2.93   7 2.93  18 2.93   1 2.93   6 2.93
                            12 2.93
   4  0.000  0.333  0.238-   5 2.93   6 2.93   2 2.93   1 2.93   7 2.93  13 2.93  15 2.93   9 2.93
                            10 2.93
   5  0.333  0.333  0.238-   4 2.93   3 2.93   7 2.93   2 2.93   8 2.93  14 2.93  13 2.93  11 2.93
                             6 2.93
   6  0.667  0.333  0.238-   4 2.93   9 2.93   1 2.93  15 2.93   8 2.93  12 2.93   3 2.93   5 2.93
                            14 2.93
   7  0.000  0.667  0.238-   8 2.93   1 2.93   5 2.93   3 2.93   4 2.93  16 2.93  18 2.93  13 2.93
                             9 2.93
   8  0.333  0.667  0.238-   7 2.93   1 2.93   2 2.93   9 2.93   5 2.93  16 2.93   6 2.93  17 2.93
                            14 2.93
   9  0.667  0.667  0.238-   3 2.93   2 2.93   8 2.93   6 2.93  17 2.93   4 2.93  15 2.93   7 2.93
                            18 2.93
  10  0.111  0.111  0.346-  20 2.90  19 2.92  26 2.92  12 2.93  16 2.93  15 2.93  17 2.93  13 2.93
                            11 2.93   2 2.93   1 2.93   4 2.93
  11  0.444  0.111  0.346-  21 2.90  20 2.90  14 2.93  17 2.93  18 2.93   3 2.93  12 2.93  13 2.93
                            10 2.93   5 2.93   2 2.93  27 2.93
  12  0.778  0.111  0.346-  21 2.90  25 2.92  19 2.92  10 2.93  16 2.93  18 2.93  15 2.93  11 2.93
                             1 2.93  14 2.93   6 2.93   3 2.93
  13  0.111  0.444  0.346-  20 2.90  23 2.90  15 2.93  14 2.93  18 2.93  10 2.93  11 2.93  16 2.93
                             4 2.93   5 2.93   7 2.93  22 2.93
  14  0.444  0.444  0.346-  23 2.90  21 2.90  13 2.93  11 2.93  16 2.93   5 2.93  12 2.93  17 2.93
                             8 2.93  15 2.93   6 2.93  24 2.93
  15  0.778  0.444  0.346-  19 2.92  24 2.93  22 2.93  13 2.93  10 2.93  12 2.93  17 2.93  18 2.93
                             4 2.93   6 2.93   9 2.93  14 2.93
  16  0.111  0.778  0.346-  23 2.90  26 2.92  25 2.92  18 2.93  12 2.93  10 2.93  14 2.93  17 2.93
                            13 2.93   7 2.93   8 2.93   1 2.93
  17  0.444  0.778  0.346-  26 2.92  27 2.93  24 2.93  11 2.93  10 2.93   9 2.93  18 2.93  15 2.93
                            16 2.93   2 2.93  14 2.93   8 2.93
  18  0.778  0.778  0.346-  25 2.92  22 2.93  27 2.93  16 2.93  12 2.93  13 2.93  11 2.93  17 2.93
                            15 2.93   7 2.93   3 2.93   9 2.93
  19  0.889  0.222  0.454-  10 2.92  12 2.92  15 2.92  20 2.93  21 2.93  26 2.93  25 2.93  24 2.93
                            22 2.93  28 2.94  32 2.98  31 2.98
  20  0.222  0.222  0.452-  36 2.86  10 2.90  13 2.90  11 2.90  19 2.93  26 2.93  27 2.93  22 2.93
                            21 2.94  23 2.94  31 2.97  29 2.97
  21  0.556  0.222  0.452-  36 2.86  12 2.90  11 2.90  14 2.90  25 2.93  19 2.93  27 2.93  24 2.93
                            20 2.94  23 2.94  30 2.97  32 2.97
  22  0.889  0.556  0.454-  24 2.93  27 2.93  18 2.93  15 2.93  25 2.93  19 2.93  13 2.93  23 2.93
                            20 2.93  35 2.94  33 2.96  31 2.96
  23  0.222  0.556  0.452-  36 2.86  16 2.90  14 2.90  13 2.90  26 2.93  25 2.93  22 2.93  24 2.93
                            21 2.94  20 2.94  34 2.97  33 2.97
  24  0.556  0.556  0.454-  27 2.93  22 2.93  15 2.93  17 2.93  19 2.93  26 2.93  14 2.93  23 2.93
                            21 2.93  35 2.94  32 2.96  34 2.96
  25  0.889  0.889  0.454-  16 2.92  12 2.92  18 2.92  23 2.93  21 2.93  26 2.93  19 2.93  22 2.93
                            27 2.93  28 2.94  33 2.98  30 2.98
  26  0.222  0.889  0.454-  16 2.92  10 2.92  17 2.92  23 2.93  20 2.93  25 2.93  19 2.93  27 2.93
                            24 2.93  28 2.94  34 2.98  29 2.98
  27  0.556  0.889  0.454-  24 2.93  22 2.93  17 2.93  18 2.93  26 2.93  25 2.93  11 2.93  20 2.93
                            21 2.93  35 2.94  29 2.96  30 2.96
  28  0.000  0.000  0.562-  26 2.94  25 2.94  19 2.94  29 2.94  34 2.94  33 2.94  32 2.94  31 2.94
                            30 2.94
  29  0.333  0.003  0.563-  30 2.90  31 2.91  36 2.91  35 2.94  28 2.94  27 2.96  20 2.97  26 2.98
                            34 2.98
  30  0.664  0.003  0.563-  29 2.90  32 2.91  36 2.91  35 2.94  28 2.94  27 2.96  21 2.97  25 2.98
                            33 2.98
  31  0.003  0.333  0.563-  33 2.90  29 2.91  36 2.91  35 2.94  28 2.94  22 2.96  20 2.97  19 2.98
                            32 2.98
  32  0.664  0.333  0.563-  34 2.90  30 2.91  36 2.91  35 2.94  28 2.94  24 2.96  21 2.97  19 2.98
                            31 2.98
  33  0.003  0.664  0.563-  31 2.90  34 2.91  36 2.91  35 2.94  28 2.94  22 2.96  23 2.97  25 2.98
                            30 2.98
  34  0.333  0.664  0.563-  32 2.90  33 2.91  36 2.91  35 2.94  28 2.94  24 2.96  23 2.97  26 2.98
                            29 2.98
  35  0.667  0.667  0.563-  30 2.94  29 2.94  32 2.94  34 2.94  31 2.94  33 2.94  24 2.94  27 2.94
                            22 2.94
  36  0.333  0.333  0.556-  21 2.86  20 2.86  23 2.86  31 2.91  33 2.91  30 2.91  29 2.91  34 2.91
                            32 2.91

  LATTYP: Found a hexagonal cell.
 ALAT       =     8.7913665772
 C/A-ratio  =     2.5227160501

  Lattice vectors:

 A1 = (  -4.3956832886,  -7.6135467898,   0.0000000000)
 A2 = (   8.7913665771,   0.0000000000,   0.0000000000)
 A3 = (   0.0000000000,   0.0000000000,  22.1781215668)

Analysis of symmetry for initial positions (statically):
 Subroutine PRICEL returns:
 Original cell was already a primitive cell.

 Routine SETGRP: Setting up the symmetry group for a
 hexagonal supercell.

 Subroutine GETGRP returns: Found  6 space group operations
 (whereof  6 operations were pure point group operations)
 out of a pool of 24 trial point group operations.

The static configuration has the point symmetry C_3v.

Analysis of symmetry for dynamics (positions and initial velocities):
 Subroutine PRICEL returns:
 Original cell was already a primitive cell.

[...]

The dynamic configuration has the point symmetry C_3v.

Analysis of constrained symmetry for selective dynamics:
 Subroutine PRICEL returns:
 Original cell was already a primitive cell.

 Routine SETGRP: Setting up the symmetry group for a
 hexagonal supercell.

 Subroutine GETGRP returns: Found  6 space group operations
 (whereof  6 operations were pure point group operations)
 out of a pool of 24 trial point group operations.

The constrained configuration has the point symmetry C_3v.

 Subroutine INISYM returns: Found  6 space group operations
 (whereof  6 operations are pure point group operations),
 and found     1 'primitive' translations

                                     Primitive cell

  volume of cell :    1484.4589

  direct lattice vectors                    reciprocal lattice vectors
     8.791366577  0.000000000  0.000000000     0.113747958 -0.065672414  0.000000000
     4.395683289  7.613546790  0.000000000     0.000000000  0.131344829  0.000000000
[...]
     15      -4.7577      2.00000
     16      -4.7116      2.00000
     17      -4.7019      2.00000
     18      -4.6938      2.00000
     19      -4.6886      2.00000
     20      -4.6565      2.00000
     21      -4.6380      2.00000
     22      -4.6269      2.00000
     23      -4.6187      2.00000
     24      -4.6000      2.00000
     25      -4.5917      2.00000
     26      -4.5869      2.00000
     27      -4.5562      2.00000
     28      -4.5336      2.00000
     29      -4.5289      2.00000
     30      -4.5179      2.00000
     31      -4.4874      2.00000
     32      -4.4681      2.00000
     33      -4.4637      2.00000
     34      -4.4398      2.00000
     35      -4.4287      2.00000
     36      -4.3820      2.00000
     37      -4.3510      2.00000
     38      -4.3183      2.00000
     39      -4.3133      2.00000
     40      -4.3058      2.00000
     41      -4.2908      2.00000
     42      -4.2793      2.00000
     43      -4.1887      2.00000
     44      -4.1758      2.00000
     45      -4.1722      2.00000
     46      -4.1482      2.00000
     47      -4.1422      2.00000
     48      -4.1366      2.00000
     49      -4.1273      2.00000
     50      -4.1193      2.00000
     51      -4.1089      2.00000
     52      -4.1034      2.00000
     53      -4.0490      2.00000
     54      -4.0393      2.00000
     55      -4.0293      2.00000
     56      -4.0108      2.00000
     57      -3.9986      2.00000
     58      -3.9821      2.00000
     59      -3.9695      2.00000
     60      -3.9411      2.00000
[...]
    238       7.2569      0.00000
    239       7.2690      0.00000
    240       7.2860      0.00000
    241       7.2972      0.00000
    242       7.3333      0.00000
    243       7.3765      0.00000
    244       7.4376      0.00000
    245       7.5236      0.00000
    246       7.5876      0.00000
    247       7.6530      0.00000
    248       7.6858      0.00000
    249       7.8055      0.00000
    250       7.9762      0.00000
    251       8.1170      0.00000
    252       8.1954      0.00000

 soft charge-density along one line, spin component           1
         0         1         2         3         4         5         6         7         8         9
 total charge-density along one line

------------------------ aborting loop because EDIFF is reached ----------------------------------------

 total charge

# of ion       s       p       d       tot
    1        0.425   0.199   9.178   9.802
    2        0.414   0.204   9.178   9.796
    3        0.414   0.204   9.178   9.796
    4        0.414   0.204   9.178   9.796
    5        0.417   0.203   9.176   9.796
    6        0.414   0.204   9.178   9.796
    7        0.414   0.204   9.178   9.796
    8        0.414   0.204   9.178   9.796
    9        0.420   0.202   9.177   9.798
   10        0.411   0.271   9.162   9.844
   11        0.404   0.269   9.169   9.841
   12        0.411   0.271   9.162   9.844
   13        0.404   0.269   9.169   9.841
   14        0.404   0.269   9.169   9.841
   15        0.404   0.268   9.165   9.838
   16        0.411   0.271   9.162   9.844
   17        0.404   0.268   9.165   9.838
   18        0.404   0.268   9.165   9.838
   19        0.401   0.268   9.164   9.833
   20        0.443   0.303   9.127   9.872
   21        0.443   0.303   9.127   9.872
   22        0.396   0.270   9.165   9.831
   23        0.443   0.303   9.127   9.872
   24        0.396   0.270   9.165   9.831
   25        0.401   0.268   9.164   9.833
   26        0.401   0.268   9.164   9.833
   27        0.396   0.270   9.165   9.831
   28        0.408   0.206   9.171   9.785
   29        0.454   0.225   9.139   9.817
   30        0.454   0.225   9.139   9.817
   31        0.454   0.225   9.139   9.817
   32        0.454   0.225   9.139   9.817
   33        0.454   0.225   9.139   9.817
   34        0.454   0.225   9.139   9.817
   35        0.404   0.207   9.172   9.783
   36        0.607   0.388   1.691   2.686
tot         15.269   8.924 322.315 346.508

  FORCE on cell =-STRESS in cart. coord.  units (eV):
  Direction    XX          YY          ZZ          XY          YZ          ZX
  Alpha Z   730.83194   730.83194   730.83194
  Ewald  117631.29697117631.29680************    -0.00003    -0.00001    -0.00003
  Hartree127625.62129127625.62121************    -0.00002    -0.00001    -0.00001
  E(xc)   -2044.14765 -2044.14764 -2049.45341    -0.00001     0.00000     0.00000
  Local  ************************256228.31397     0.00028    -0.00002    -0.00003
  n-local  -313.17265  -296.38235  -309.97562    10.11674    -0.52142     0.50487
  augment  3218.89757  3218.89776  3232.87388    -0.00016     0.00001     0.00001
  Kinetic  4794.95450  4792.42961  4828.11254     1.70508     0.92560    -0.54686
  Fock        0.00000     0.00000     0.00000     0.00000     0.00000     0.00000
  Total      -9.08837    -9.08837    -0.46864    -0.00000    -0.00000    -0.00000
  in kB      -9.80908    -9.80908    -0.50580    -0.00000    -0.00000    -0.00000

 VOLUME and BASIS-vectors are now :
  energy-cutoff  :      500.00
  volume of cell :     1484.46
      direct lattice vectors                 reciprocal lattice vectors
     8.791366577  0.000000000  0.000000000     0.113747958 -0.065672414  0.000000000
     4.395683289  7.613546790  0.000000000     0.000000000  0.131344829  0.000000000
     0.000000000  0.000000000 22.178121567     0.000000000  0.000000000  0.045089481

  length of vectors
     8.791366577  8.791366577 22.178121567     0.131344829  0.131344829  0.045089481

 FORCES acting on ions
    electron-ion (+dipol)            ewald-force                    non-local-force                 convergence-correction
   0.461E-04 -.281E-04 0.246E+04   -.953E-04 0.592E-04 -.246E+04   -.149E-16 0.159E-17 -.173E+01   -.830E-04 -.155E-03 -.153E+00
   -.474E+00 -.394E+00 0.246E+04   0.391E+00 0.232E+00 -.246E+04   -.320E-02 0.121E+00 -.167E+01   0.885E-01 0.356E-01 -.318E-01
   0.474E+00 -.394E+00 0.246E+04   -.391E+00 0.232E+00 -.246E+04   0.320E-02 0.121E+00 -.167E+01   -.890E-01 0.374E-01 -.312E-01
   -.578E+00 -.213E+00 0.246E+04   0.397E+00 0.223E+00 -.246E+04   0.103E+00 -.634E-01 -.167E+01   0.753E-01 0.590E-01 -.318E-01
   -.767E-05 -.198E-04 0.246E+04   0.980E-04 -.199E-05 -.246E+04   -.128E-17 -.190E-17 -.134E+01   0.618E-02 0.378E-02 0.138E-01
   0.578E+00 -.213E+00 0.246E+04   -.397E+00 0.223E+00 -.246E+04   -.103E+00 -.634E-01 -.167E+01   -.766E-01 0.599E-01 -.311E-01
   -.104E+00 0.608E+00 0.246E+04   0.530E-02 -.455E+00 -.246E+04   0.107E+00 -.578E-01 -.167E+01   -.116E-01 -.953E-01 -.312E-01
   0.104E+00 0.608E+00 0.246E+04   -.537E-02 -.455E+00 -.246E+04   -.107E+00 -.578E-01 -.167E+01   0.132E-01 -.963E-01 -.311E-01
   0.365E-04 -.131E-04 0.246E+04   0.792E-04 -.642E-04 -.246E+04   -.203E-17 -.595E-18 -.155E+01   -.663E-02 -.341E-02 0.378E-01
   -.186E+01 -.108E+01 0.780E+03   0.198E+01 0.114E+01 -.780E+03   -.273E+00 -.157E+00 -.696E+00   0.126E+00 0.730E-01 0.215E+00
   -.281E-04 -.264E+01 0.772E+03   0.399E-04 0.244E+01 -.772E+03   0.474E-12 0.722E-01 -.200E+00   0.617E-02 0.659E-01 0.186E+00
   0.186E+01 -.108E+01 0.780E+03   -.198E+01 0.114E+01 -.780E+03   0.273E+00 -.157E+00 -.696E+00   -.128E+00 0.736E-01 0.214E+00
   -.229E+01 0.132E+01 0.772E+03   0.211E+01 -.122E+01 -.772E+03   0.625E-01 -.361E-01 -.200E+00   0.600E-01 -.276E-01 0.186E+00
   0.229E+01 0.132E+01 0.772E+03   -.211E+01 -.122E+01 -.772E+03   -.625E-01 -.361E-01 -.200E+00   -.497E-01 -.285E-01 0.184E+00
   0.151E-04 -.106E+01 0.778E+03   -.107E-03 0.838E+00 -.778E+03   0.473E-12 0.720E-01 -.681E+00   -.126E-02 0.140E+00 0.178E+00
   -.815E-05 0.215E+01 0.780E+03   0.205E-04 -.229E+01 -.780E+03   0.207E-11 0.315E+00 -.696E+00   -.968E-04 -.147E+00 0.214E+00
   -.917E+00 0.529E+00 0.778E+03   0.726E+00 -.419E+00 -.778E+03   0.623E-01 -.360E-01 -.681E+00   0.121E+00 -.711E-01 0.178E+00
   0.917E+00 0.529E+00 0.778E+03   -.726E+00 -.419E+00 -.778E+03   -.623E-01 -.360E-01 -.681E+00   -.120E+00 -.695E-01 0.179E+00
   0.383E-04 -.788E+01 -.906E+03   -.124E-03 0.781E+01 0.905E+03   0.543E-13 0.827E-02 0.733E+00   0.112E-02 0.654E-01 0.513E+00
   -.454E+02 -.262E+02 -.953E+03   0.463E+02 0.267E+02 0.954E+03   -.922E+00 -.532E+00 -.589E+00   0.382E-01 0.221E-01 0.451E+00
   0.454E+02 -.262E+02 -.953E+03   -.463E+02 0.267E+02 0.954E+03   0.922E+00 -.532E+00 -.589E+00   -.491E-01 0.215E-01 0.450E+00
   -.221E+02 0.127E+02 -.915E+03   0.220E+02 -.127E+02 0.914E+03   0.673E-01 -.389E-01 0.409E+00   0.675E-02 -.349E-02 0.386E+00
   -.483E-04 0.524E+02 -.953E+03   0.338E-04 -.534E+02 0.954E+03   0.699E-11 0.106E+01 -.589E+00   -.557E-02 -.527E-01 0.450E+00
   0.221E+02 0.127E+02 -.915E+03   -.220E+02 -.127E+02 0.914E+03   -.673E-01 -.389E-01 0.409E+00   -.508E-02 -.284E-02 0.386E+00
   0.682E+01 0.394E+01 -.906E+03   -.676E+01 -.391E+01 0.905E+03   -.716E-02 -.414E-02 0.733E+00   -.567E-01 -.329E-01 0.513E+00
   -.682E+01 0.394E+01 -.906E+03   0.676E+01 -.391E+01 0.905E+03   0.716E-02 -.414E-02 0.733E+00   0.569E-01 -.318E-01 0.514E+00
   0.188E-04 -.255E+02 -.915E+03   0.110E-03 0.254E+02 0.914E+03   0.511E-12 0.777E-01 0.409E+00   -.316E-03 0.757E-02 0.386E+00
   0.542E-04 -.354E-04 -.248E+04   -.113E-03 0.759E-04 0.248E+04   0.174E-17 0.131E-17 0.147E+01   0.313E-03 0.481E-04 0.965E-01
   -.408E+02 -.757E+02 -.250E+04   0.418E+02 0.770E+02 0.249E+04   -.992E+00 -.139E+01 0.711E+00   0.167E-01 0.570E-02 0.123E+00
   0.408E+02 -.757E+02 -.250E+04   -.418E+02 0.770E+02 0.249E+04   0.992E+00 -.139E+01 0.711E+00   -.175E-01 0.644E-02 0.123E+00
   -.859E+02 0.246E+01 -.250E+04   0.876E+02 -.231E+01 0.249E+04   -.170E+01 -.165E+00 0.711E+00   0.135E-01 0.117E-01 0.123E+00
   0.859E+02 0.246E+01 -.250E+04   -.876E+02 -.231E+01 0.249E+04   0.170E+01 -.165E+00 0.711E+00   -.131E-01 0.127E-01 0.124E+00
   -.451E+02 0.732E+02 -.250E+04   0.458E+02 -.747E+02 0.249E+04   -.705E+00 0.155E+01 0.711E+00   -.275E-02 -.179E-01 0.123E+00
   0.451E+02 0.732E+02 -.250E+04   -.458E+02 -.747E+02 0.249E+04   0.705E+00 0.155E+01 0.711E+00   0.405E-02 -.176E-01 0.124E+00
   0.286E-04 -.141E-04 -.249E+04   0.102E-03 -.644E-04 0.249E+04   0.227E-17 0.209E-17 0.171E+01   -.628E-02 -.319E-02 0.948E-01
   -.229E-04 0.190E-05 -.890E+03   0.378E-04 0.404E-05 0.887E+03   -.569E-17 -.236E-17 0.286E+01   0.285E-04 0.198E-04 0.600E-01
   0.280E-03 -.707E-03 0.945E+00   0.349E-13 -.296E-13 -.841E-11   0.330E-15 0.222E-15 -.738E+01   -.587E-02 -.200E-03 0.648E+01

 POSITION                                       TOTAL-FORCE (eV/Angst)
      0.00000      0.00000      5.28219        -0.000000     -0.000000     -0.013406
      2.93046      0.00000      5.28219         0.003187     -0.004256      0.036571
      5.86091      0.00000      5.28219        -0.003187     -0.004256      0.036571
      1.46523      2.53785      5.28219        -0.002092      0.004888      0.036571
      4.39568      2.53785      5.28219        -0.000000     -0.000000      0.036980
      7.32614      2.53785      5.28219         0.002092      0.004888      0.036571
      2.93046      5.07570      5.28219        -0.005279     -0.000632      0.036571
      5.86091      5.07570      5.28219         0.005279     -0.000632      0.036571
      8.79137      5.07570      5.28219        -0.000000     -0.000000     -0.001713
      1.46523      0.84595      7.67490        -0.028583     -0.016502     -0.063413
      4.39568      0.84595      7.67490        -0.000000     -0.065220     -0.077055
      7.32614      0.84595      7.67490         0.028583     -0.016502     -0.063413
      2.93046      3.38380      7.67490        -0.056482      0.032610     -0.077055
      5.86091      3.38380      7.67490         0.056482      0.032610     -0.077055
      8.79137      3.38380      7.67490        -0.000000     -0.009025      0.025067
      4.39568      5.92165      7.67490         0.000000      0.033005     -0.063413
      7.32614      5.92165      7.67490        -0.007816      0.004512      0.025067
     10.25659      5.92165      7.67490         0.007816      0.004512      0.025067
      8.79137      1.69178     10.05827         0.000000      0.004565      0.006437
      2.92613      1.68940     10.03306         0.001440      0.000832      0.016617
      5.86523      1.68940     10.03306        -0.001440      0.000832      0.016617
     10.25456      4.23092     10.06776         0.007379     -0.004260      0.008023
      4.39568      4.23474     10.03306        -0.000000     -0.001663      0.016617
      7.32817      4.23092     10.06776        -0.007379     -0.004260      0.008023
     11.72193      6.76766     10.05827        -0.003953     -0.002282      0.006437
      5.86080      6.76766     10.05827         0.003953     -0.002282      0.006437
      8.79137      6.76525     10.06776         0.000000      0.008521      0.008023
      0.00000      0.00000     12.45716        -0.000000     -0.000000      0.003582
      2.94326      0.02074     12.49530        -0.003704     -0.005507     -0.004411
      5.84810      0.02074     12.49530         0.003704     -0.005507     -0.004411
      1.48959      2.53857     12.49530        -0.006621     -0.000454     -0.004411
      7.30177      2.53857     12.49530         0.006621     -0.000454     -0.004411
      2.94201      5.05424     12.49530        -0.002918      0.005961     -0.004411
      5.84935      5.05424     12.49530         0.002918      0.005961     -0.004411
      8.79137      5.07570     12.47846        -0.000000     -0.000000     -0.003564
      4.39568      2.53785     12.33403        -0.000000     -0.000000      0.038142
    total drift:                               -0.005590     -0.000907      0.054960

  FREE ENERGIE OF THE ION-ELECTRON SYSTEM (eV)
  free  energy   TOTEN  =       -97.82562080 eV

  energy  without entropy=      -97.82562080  energy(sigma->0) =      -97.82562080

 stress matrix after NEB project (eV)
     -9.08837     -0.00000     -0.00000
     -0.00000     -9.08837     -0.00000
     -0.00000     -0.00000     -0.46864
  FORCES: max atom, RMS     0.038142    0.009568
  FORCE total and by dimension    0.057409    0.038142
  Stress total and by dimension   12.861433    9.088367
|           W    W    AA    RRRRR   N    N  II  N    N   GGGG   !!!           |
|           W    W   A  A   R    R  NN   N  II  NN   N  G    G  !!!           |
|           W    W  A    A  R    R  N N  N  II  N N  N  G       !!!           |
|           W WW W  AAAAAA  RRRRR   N  N N  II  N  N N  G  GGG   !            |
|           WW  WW  A    A  R   R   N   NN  II  N   NN  G    G                |
|           W    W  A    A  R    R  N    N  II  N    N   GGGG   !!!           |
|     Tetrahedron method does not include variations of the Fermi             |
|     occupations, so forces and stress will be inaccurate. We suggest        |
|     using a different smearing scheme ISMEAR = 1 or 2 for metals in         |
|     relaxations.                                                            |

 total charge

# of ion       s       p       d       tot
    1        0.425   0.199   9.178   9.802
    2        0.414   0.204   9.178   9.796
    3        0.414   0.204   9.178   9.796
    4        0.414   0.204   9.178   9.796
    5        0.417   0.203   9.176   9.796
    6        0.414   0.204   9.178   9.796
    7        0.414   0.204   9.178   9.796
    8        0.414   0.204   9.178   9.796
    9        0.420   0.202   9.177   9.798
   10        0.411   0.271   9.162   9.844
   11        0.404   0.269   9.169   9.841
   12        0.411   0.271   9.162   9.844
   13        0.404   0.269   9.169   9.841
   14        0.404   0.269   9.169   9.841
   15        0.404   0.268   9.165   9.838
   16        0.411   0.271   9.162   9.844
   17        0.404   0.268   9.165   9.838
   18        0.404   0.268   9.165   9.838
   19        0.401   0.268   9.164   9.833
   20        0.443   0.303   9.127   9.872
   21        0.443   0.303   9.127   9.872
   22        0.396   0.270   9.165   9.831
   23        0.443   0.303   9.127   9.872
   24        0.396   0.270   9.165   9.831
   25        0.401   0.268   9.164   9.833
   26        0.401   0.268   9.164   9.833
   27        0.396   0.270   9.165   9.831
   28        0.408   0.206   9.171   9.785
   29        0.454   0.225   9.139   9.817
   30        0.454   0.225   9.139   9.817
   31        0.454   0.225   9.139   9.817
   32        0.454   0.225   9.139   9.817
   33        0.454   0.225   9.139   9.817
   34        0.454   0.225   9.139   9.817
   35        0.404   0.207   9.172   9.783
   36        0.607   0.388   1.691   2.686
tot         15.269   8.924 322.315 346.508

 BZINTS: Fermi energy:    0.934576;  389.000000 electrons
         Band energy:-0.126051E+04;  BLOECHL correction:   -0.031416