 vasp.6.2.0 18Jan21 (build Jun 12 2021 23:27:24) complex

 executed on             LinuxIFC date 2022.05.28  00:53:30

 INCAR:
   ISMEAR = -5
   SIGMA = 0.1
   ISPIN = 1
   EDIFF = 1.d-5
   EDIFFG = -0.01
   NSW = 0
   NELM = 150
   ENCUT = 500
   ISIF = 2
   IBRION = 2
   LREAL = Auto
   ALGO = Fast
   ICHARG = 11
   LORBIT = 10
   LCHARG = .F.
   LWAVE = .F.

 POTCAR:    PAW_PBE Au 04Oct2007
 POTCAR:    PAW_PBE Nb_sv 25May2007
 POTCAR:    PAW_PBE C 08Apr2002
 POTCAR:    PAW_PBE O 08Apr2002
|           W    W    AA    RRRRR   N    N  II  N    N   GGGG   !!!           |
|           W    W   A  A   R    R  NN   N  II  NN   N  G    G  !!!           |
|           W    W  A    A  R    R  N N  N  II  N N  N  G       !!!           |
|           W WW W  AAAAAA  RRRRR   N  N N  II  N  N N  G  GGG   !            |
|           WW  WW  A    A  R   R   N   NN  II  N   NN  G    G                |
|           W    W  A    A  R    R  N    N  II  N    N   GGGG   !!!           |
|     For optimal performance we recommend to set                             |
|       NCORE = 2 up to number-of-cores-per-socket                            |
|     This setting can greatly improve the performance of VASP for DFT.       |
|     The default, NCORE=1 might be grossly inefficient on modern             |
|     multi-core architectures or massively parallel machines. Do your        |
|     Unfortunately you need to use the default for GW and RPA                |
|     calculations (for HF NCORE is supported but not extensively tested      |
|     yet).                                                                   |

 POTCAR:    PAW_PBE Au 04Oct2007
   VRHFIN =Au: s1d10

   TITEL  = PAW_PBE Au 04Oct2007
   POMASS =  196.966; ZVAL   =   11.000    mass and valenz
   ENMAX  =  229.943; ENMIN  =  172.457 eV

 POTCAR:    PAW_PBE Nb_sv 25May2007
   VRHFIN =Nb: 4p5s4d

   TITEL  = PAW_PBE Nb_sv 25May2007
   POMASS =   92.910; ZVAL   =   13.000    mass and valenz
   ENMAX  =  293.235; ENMIN  =  219.927 eV

 POTCAR:    PAW_PBE C 08Apr2002
   VRHFIN =C: s2p2

   TITEL  = PAW_PBE C 08Apr2002
   POMASS =   12.011; ZVAL   =    4.000    mass and valenz
   ENMAX  =  400.000; ENMIN  =  300.000 eV

 POTCAR:    PAW_PBE O 08Apr2002
   VRHFIN =O: s2p4

   TITEL  = PAW_PBE O 08Apr2002
   POMASS =   16.000; ZVAL   =    6.000    mass and valenz
   ENMAX  =  400.000; ENMIN  =  300.000 eV

 Optimization of the real space projectors (new method)

 maximal supplied QI-value         = 15.12
 optimisation between [QCUT,QGAM] = [ 11.34, 22.83] = [ 36.00,145.93] Ry
 Optimized for a Real-space Cutoff    1.39 Angstroem

   l    n(q)    QCUT    max X(q) W(low)/X(q) W(high)/X(q)  e(spline)
   2      9    11.338    60.898    0.39E-03    0.42E-03    0.21E-06
   2      9    11.338    58.894    0.40E-03    0.42E-03    0.22E-06
   0      9    11.338   109.617    0.13E-03    0.20E-04    0.13E-06
   0      9    11.338    75.026    0.13E-03    0.20E-04    0.13E-06
   1      9    11.338    16.344    0.33E-04    0.24E-03    0.18E-06
   1      9    11.338    10.160    0.26E-04    0.19E-03    0.15E-06
 Optimization of the real space projectors (new method)

[...]

   l    n(q)    QCUT    max X(q) W(low)/X(q) W(high)/X(q)  e(spline)
   0      7    11.310   115.676    0.43E-03    0.13E-02    0.19E-06
   0      7    11.310    87.132    0.43E-03    0.13E-02    0.18E-06
   1      6    11.310     4.429    0.42E-03    0.74E-03    0.11E-06
   1      6    11.310     2.733    0.34E-03    0.55E-03    0.92E-07
 Optimization of the real space projectors (new method)

 maximal supplied QI-value         = 24.76
 optimisation between [QCUT,QGAM] = [ 11.39, 22.77] = [ 36.31,145.25] Ry
 Optimized for a Real-space Cutoff    1.00 Angstroem

   l    n(q)    QCUT    max X(q) W(low)/X(q) W(high)/X(q)  e(spline)
   0      7    11.387    20.381    0.39E-03    0.13E-02    0.15E-06
   0      7    11.387    15.268    0.42E-03    0.14E-02    0.17E-06
   1      6    11.387     5.964    0.41E-03    0.11E-02    0.17E-06
   1      6    11.387     5.382    0.39E-03    0.87E-03    0.15E-06
  PAW_PBE Au 04Oct2007                  :
  PAW_PBE Nb_sv 25May2007               :
  PAW_PBE C 08Apr2002                   :
  PAW_PBE O 08Apr2002                   :

 POSCAR: Au-Nb-CO2
  positions in direct lattice
  velocities in cartesian coordinates
 exchange correlation table for  LEXCH =        8
   RHO(1)=    0.500       N(1)  =     2000
   RHO(2)=  100.500       N(2)  =     4000

 VTST: version 3.2, (02/03/18)

 CHAIN: initializing optimizer

 OPT: Using VASP Conjugate-Gradient optimizer
 CHAIN: Read ICHAIN            0

 POSCAR: Au-Nb-CO2
  positions in direct lattice
  velocities in cartesian coordinates

 ion  position               nearest neighbor table
   1  0.000  0.000  0.203-  16 2.94  12 2.94   6 2.94   8 2.94   7 2.94   3 2.94  10 2.94   4 2.94
                             2 2.94
   2  0.333  0.000  0.203-   9 2.94  11 2.94  17 2.94  10 2.94   8 2.94   4 2.94   5 2.94   1 2.94
                             3 2.94
   3  0.667  0.000  0.203-   7 2.94  18 2.94  12 2.94   1 2.94  11 2.94   5 2.94   6 2.94   9 2.94
                             2 2.94
   4  0.000  0.333  0.203-  10 2.94   6 2.94   5 2.94  13 2.94   2 2.94  15 2.94   9 2.94   1 2.94
                             7 2.94
   5  0.333  0.333  0.203-  13 2.94   7 2.94  11 2.94   4 2.94   2 2.94  14 2.94   3 2.94   8 2.94
                             6 2.94
   6  0.667  0.333  0.203-  15 2.94  14 2.94   1 2.94  12 2.94   4 2.94   9 2.94   8 2.94   3 2.94
                             5 2.94
   7  0.000  0.667  0.203-  18 2.94   3 2.94  16 2.94   5 2.94   1 2.94  13 2.94   8 2.94   4 2.94
                             9 2.94
   8  0.333  0.667  0.203-   9 2.94  17 2.94   1 2.94   2 2.94  14 2.94  16 2.94   6 2.94   7 2.94
                             5 2.94
   9  0.667  0.667  0.203-   2 2.94   8 2.94  17 2.94   6 2.94  15 2.94   4 2.94   3 2.94  18 2.94
                             7 2.94
  10  0.111  0.111  0.296-  20 2.91  11 2.94  17 2.94   2 2.94   4 2.94   1 2.94  12 2.94  16 2.94
                            13 2.94  15 2.94  26 2.95  19 2.95
  11  0.444  0.111  0.296-  20 2.91  21 2.91  13 2.94   2 2.94  10 2.94  17 2.94   5 2.94   3 2.94
                            18 2.94  14 2.94  12 2.94  27 2.94
  12  0.778  0.111  0.296-  21 2.91  16 2.94  18 2.94   1 2.94  14 2.94  15 2.94   3 2.94   6 2.94
                            10 2.94  11 2.94  25 2.95  19 2.95
  13  0.111  0.444  0.296-  23 2.91  20 2.91   5 2.94  18 2.94  11 2.94   7 2.94   4 2.94  16 2.94
                            10 2.94  14 2.94  15 2.94  22 2.94
  14  0.444  0.444  0.296-  21 2.91  23 2.91  15 2.94   6 2.94  12 2.94   8 2.94  17 2.94   5 2.94
                            16 2.94  13 2.94  11 2.94  24 2.94
  15  0.778  0.444  0.296-  24 2.93  22 2.93  14 2.94   6 2.94  17 2.94  12 2.94   9 2.94   4 2.94
                            10 2.94  13 2.94  18 2.94  19 2.94
  16  0.111  0.778  0.296-  23 2.91  18 2.94  12 2.94   7 2.94   1 2.94   8 2.94  13 2.94  10 2.94
                            14 2.94  17 2.94  25 2.95  26 2.95
  17  0.444  0.778  0.296-  27 2.93  24 2.93   9 2.94  15 2.94   2 2.94  10 2.94  11 2.94   8 2.94
                            14 2.94  16 2.94  18 2.94  26 2.94
  18  0.778  0.778  0.296-  22 2.93  27 2.93  16 2.94   7 2.94  13 2.94  12 2.94   3 2.94  11 2.94
                             9 2.94  15 2.94  17 2.94  25 2.94
  19  0.889  0.223  0.389-  24 2.93  22 2.93  21 2.94  20 2.94  15 2.94  26 2.94  25 2.94  10 2.95
                            12 2.95  28 2.95  32 3.04  31 3.04
  20  0.222  0.222  0.387-  36 2.78  10 2.91  11 2.91  13 2.91  26 2.94  19 2.94  23 2.94  21 2.94
                            27 2.95  22 2.95  29 2.99  31 2.99
  21  0.556  0.222  0.387-  36 2.78  12 2.91  14 2.91  11 2.91  25 2.94  19 2.94  20 2.94  23 2.94
                            27 2.95  24 2.95  30 2.99  32 2.99
  22  0.887  0.557  0.388-  24 2.91  27 2.91  18 2.93  15 2.93  25 2.93  19 2.93  13 2.94  23 2.95
                            20 2.95  35 2.96  33 3.02  31 3.02
  23  0.222  0.556  0.387-  36 2.78  16 2.91  13 2.91  14 2.91  25 2.94  26 2.94  20 2.94  21 2.94
                            22 2.95  24 2.95  33 2.99  34 2.99
  24  0.557  0.557  0.388-  27 2.91  22 2.91  15 2.93  17 2.93  26 2.93  19 2.93  14 2.94  21 2.95
                            23 2.95  35 2.96  32 3.02  34 3.02
  25  0.889  0.889  0.389-  22 2.93  27 2.93  23 2.94  21 2.94  18 2.94  19 2.94  26 2.94  16 2.95
                            12 2.95  28 2.95  33 3.04  30 3.04
  26  0.223  0.889  0.389-  27 2.93  24 2.93  20 2.94  23 2.94  17 2.94  19 2.94  25 2.94  10 2.95
                            16 2.95  28 2.95  29 3.04  34 3.04
  27  0.557  0.887  0.388-  24 2.91  22 2.91  17 2.93  18 2.93  26 2.93  25 2.93  11 2.94  20 2.95
                            21 2.95  35 2.96  29 3.02  30 3.02
  28  0.000  0.000  0.482-  25 2.95  19 2.95  26 2.95  34 2.98  32 2.98  33 2.98  30 2.98  31 2.98
                            29 2.98
  29  0.334  0.009  0.484-  30 2.85  31 2.86  36 2.87  35 2.98  28 2.98  20 2.99  27 3.02  26 3.04
                            34 3.10
  30  0.657  0.009  0.484-  29 2.85  32 2.86  36 2.87  35 2.98  28 2.98  21 2.99  27 3.02  25 3.04
                            33 3.10
  31  0.009  0.334  0.484-  33 2.85  29 2.86  36 2.87  35 2.98  28 2.98  20 2.99  22 3.02  19 3.04
                            32 3.10
  32  0.657  0.334  0.484-  34 2.85  30 2.86  36 2.87  35 2.98  28 2.98  21 2.99  24 3.02  19 3.04
                            31 3.10
  33  0.009  0.657  0.484-  31 2.85  34 2.86  36 2.87  35 2.98  28 2.98  23 2.99  22 3.02  25 3.04
                            30 3.10
  34  0.334  0.657  0.484-  32 2.85  33 2.86  36 2.87  35 2.98  28 2.98  23 2.99  24 3.02  26 3.04
                            29 3.10
  35  0.667  0.667  0.482-  24 2.96  27 2.96  22 2.96  29 2.98  34 2.98  32 2.98  31 2.98  30 2.98
                            33 2.98
  36  0.333  0.333  0.472-  20 2.78  23 2.78  21 2.78  33 2.87  31 2.87  29 2.87  30 2.87  34 2.87
                            32 2.87
  37  0.344  0.343  0.637-  39 1.18  38 1.18
  38  0.206  0.354  0.633-  37 1.18
  39  0.482  0.333  0.640-  37 1.18

  LATTYP: Found a hexagonal cell.
 ALAT       =     8.8135128021
 C/A-ratio  =     2.9452095606

  Lattice vectors:

 A1 = (  -4.4067569092,  -7.6327256898,   0.0000000000)
 A2 = (   8.8135128021,   0.0000000000,   0.0000000000)
 A3 = (   0.0000000000,   0.0000000000,  25.9576421668)

Analysis of symmetry for initial positions (statically):
 Subroutine PRICEL returns:
 Original cell was already a primitive cell.

 Routine SETGRP: Setting up the symmetry group for a
 hexagonal supercell.

 Subroutine GETGRP returns: Found  1 space group operations
 (whereof  1 operations were pure point group operations)
 out of a pool of 24 trial point group operations.

The static configuration has the point symmetry C_1 .

Analysis of symmetry for dynamics (positions and initial velocities):
 Subroutine PRICEL returns:
 Original cell was already a primitive cell.

[...]

The dynamic configuration has the point symmetry C_1 .

Analysis of constrained symmetry for selective dynamics:
[...]
     41      -5.4246      2.00000
     42      -5.3708      2.00000
     43      -5.3582      2.00000
     44      -5.3428      2.00000
     45      -5.3261      2.00000
     46      -5.3224      2.00000
     47      -5.1697      2.00000
     48      -5.1403      2.00000
     49      -5.0871      2.00000
     50      -5.0399      2.00000
     51      -5.0126      2.00000
     52      -4.9871      2.00000
     53      -4.9615      2.00000
     54      -4.9323      2.00000
     55      -4.9094      2.00000
     56      -4.8221      2.00000
     57      -4.8146      2.00000
     58      -4.7739      2.00000
     59      -4.7488      2.00000
     60      -4.7448      2.00000
[...]
    238       4.4654      0.00000
    239       4.5553      0.00000
    240       4.5807      0.00000
    241       4.7471      0.00000
    242       4.8020      0.00000
    243       5.0227      0.00000
    244       5.0425      0.00000
    245       5.2425      0.00000
    246       5.4624      0.00000
    247       5.5644      0.00000
    248       5.6569      0.00000
    249       5.7834      0.00000
    250       5.8629      0.00000
    251       5.9293      0.00000
    252       5.9747      0.00000

 soft charge-density along one line, spin component           1
         0         1         2         3         4         5         6         7         8         9
 total charge-density along one line

------------------------ aborting loop because EDIFF is reached ----------------------------------------

 total charge

# of ion       s       p       d       tot
    1        0.548   0.237   8.767   9.552
    2        0.541   0.241   8.765   9.548
    3        0.541   0.241   8.765   9.548
    4        0.541   0.241   8.765   9.548
    5        0.546   0.241   8.761   9.548
    6        0.541   0.241   8.765   9.548
    7        0.541   0.241   8.765   9.548
    8        0.541   0.241   8.765   9.548
    9        0.544   0.239   8.767   9.551
   10        0.528   0.307   8.766   9.601
   11        0.520   0.307   8.780   9.608
   12        0.528   0.307   8.766   9.601
   13        0.520   0.307   8.780   9.608
   14        0.521   0.307   8.780   9.608
   15        0.516   0.307   8.775   9.598
   16        0.528   0.307   8.766   9.601
   17        0.516   0.307   8.775   9.598
   18        0.516   0.307   8.775   9.598
   19        0.518   0.297   8.770   9.584
   20        0.576   0.341   8.721   9.638
   21        0.576   0.341   8.720   9.638
   22        0.507   0.305   8.779   9.590
   23        0.576   0.341   8.721   9.638
   24        0.507   0.305   8.779   9.590
   25        0.518   0.297   8.769   9.584
   26        0.518   0.297   8.769   9.584
   27        0.507   0.305   8.779   9.591
   28        0.540   0.229   8.752   9.521
   29        0.592   0.250   8.724   9.566
   30        0.592   0.250   8.724   9.566
   31        0.591   0.249   8.725   9.565
   32        0.591   0.249   8.725   9.565
   33        0.592   0.250   8.724   9.566
   34        0.592   0.250   8.724   9.566
   35        0.539   0.230   8.755   9.524
   36        2.177   5.975   2.261  10.412
   37        0.933   1.802   0.000   2.736
   38        1.607   3.529   0.000   5.136
   39        1.607   3.529   0.000   5.136
tot         25.336  24.546 308.771 358.653

  FORCE on cell =-STRESS in cart. coord.  units (eV):
  Direction    XX          YY          ZZ          XY          YZ          ZX
  Alpha Z   921.71600   921.71600   921.71600
  Ewald  171450.80967170656.60424************   -54.62074    -3.52803    62.71417
  Hartree179948.68346179568.66977************   -25.62543    -1.43794    29.23593
  E(xc)   -1859.00850 -1861.08504 -1868.91854    -0.14533    -0.01233     0.16745
  Local  ************************362873.03706    75.29460     4.57352   -86.29378
  n-local  -105.41170   -99.45611   -67.26101     0.40970     0.04364    -0.47290
  augment  2391.81726  2394.50857  2415.25477     0.18617     0.01581    -0.19873
  Kinetic  5861.11404  5925.49183  5990.57397     4.50233     0.35072    -5.07370
  Fock        0.00000     0.00000     0.00000     0.00000     0.00000     0.00000
  Total     -23.67595   -23.69213     2.62807     0.00130     0.00540     0.07845
  in kB     -21.72321   -21.73806     2.41131     0.00119     0.00495     0.07198

 VOLUME and BASIS-vectors are now :
  energy-cutoff  :      500.00
  volume of cell :     1746.20
      direct lattice vectors                 reciprocal lattice vectors
     8.813512802  0.000000000  0.000000000     0.113462137 -0.065507406  0.000000000
     4.406756909  7.632725690  0.000000000     0.000000000  0.131014796  0.000000000
     0.000000000  0.000000000 25.957642167     0.000000000  0.000000000  0.038524300

  length of vectors
     8.813512802  8.813512802 25.957642167     0.131014796  0.131014796  0.038524300

 FORCES acting on ions
    electron-ion (+dipol)            ewald-force                    non-local-force                 convergence-correction
   -.842E-03 0.109E-01 0.280E+04   0.281E-02 -.783E-02 -.280E+04   -.122E-03 -.483E-03 -.797E+00   -.196E-02 -.256E-02 -.113E+00
   0.833E+00 0.671E+00 0.280E+04   -.835E+00 -.849E+00 -.280E+04   0.408E-01 0.141E+00 -.365E+00   -.410E-01 0.243E-01 -.125E+00
   -.832E+00 0.662E+00 0.280E+04   0.832E+00 -.851E+00 -.280E+04   -.408E-01 0.141E+00 -.364E+00   0.428E-01 0.352E-01 -.122E+00
   0.987E+00 0.393E+00 0.280E+04   -.114E+01 -.306E+00 -.280E+04   0.144E+00 -.352E-01 -.371E+00   0.214E-02 -.473E-01 -.125E+00
   -.983E-02 -.351E-02 0.280E+04   -.292E-02 -.448E-02 -.280E+04   -.606E-03 -.339E-03 0.876E-01   0.139E-01 0.885E-02 -.253E-01
   -.982E+00 0.388E+00 0.280E+04   0.115E+01 -.305E+00 -.280E+04   -.143E+00 -.352E-01 -.367E+00   -.113E-01 -.435E-01 -.119E+00
   0.148E+00 -.106E+01 0.280E+04   -.313E+00 0.115E+01 -.280E+04   0.103E+00 -.106E+00 -.365E+00   0.529E-01 0.193E-01 -.121E+00
   -.156E+00 -.106E+01 0.280E+04   0.312E+00 0.116E+01 -.280E+04   -.102E+00 -.105E+00 -.364E+00   -.440E-01 0.135E-01 -.119E+00
   0.115E-01 -.560E-02 0.280E+04   0.429E-03 0.123E-01 -.280E+04   0.907E-03 0.602E-03 -.444E+00   -.133E-01 -.723E-02 -.489E-01
   0.864E+01 0.507E+01 0.101E+04   -.820E+01 -.482E+01 -.101E+04   -.394E+00 -.225E+00 -.656E+00   -.519E-01 -.305E-01 0.183E+00
   0.765E-02 0.939E+01 0.102E+04   -.200E-01 -.942E+01 -.102E+04   -.247E-03 -.180E-01 -.326E-01   0.132E-01 -.121E-01 0.203E+00
   -.865E+01 0.507E+01 0.101E+04   0.822E+01 -.483E+01 -.101E+04   0.394E+00 -.227E+00 -.653E+00   0.432E-01 -.230E-01 0.183E+00
   0.806E+01 -.468E+01 0.102E+04   -.809E+01 0.469E+01 -.102E+04   -.180E-01 0.938E-02 -.360E-01   -.292E-02 0.181E-01 0.203E+00
   -.806E+01 -.470E+01 0.102E+04   0.808E+01 0.470E+01 -.102E+04   0.175E-01 0.101E-01 -.357E-01   0.241E-01 0.138E-01 0.200E+00
   -.353E-02 0.250E+01 0.101E+04   0.138E-01 -.260E+01 -.101E+04   0.165E-02 0.504E-02 -.498E+00   -.121E-01 0.260E-01 0.165E+00
   -.792E-02 -.100E+02 0.101E+04   0.680E-02 0.954E+01 -.101E+04   -.306E-03 0.452E+00 -.653E+00   0.136E-02 0.482E-01 0.181E+00
   0.219E+01 -.132E+01 0.101E+04   -.227E+01 0.138E+01 -.101E+04   0.394E-02 -.254E-02 -.494E+00   0.164E-01 -.221E-01 0.165E+00
   -.219E+01 -.131E+01 0.101E+04   0.227E+01 0.136E+01 -.101E+04   -.428E-02 -.455E-02 -.493E+00   -.178E-01 -.108E-01 0.167E+00
   -.148E+00 0.310E+01 -.825E+03   0.153E+00 -.296E+01 0.824E+03   0.177E-02 -.276E-01 0.504E+00   -.679E-02 -.846E-01 0.382E+00
   0.545E+02 0.320E+02 -.732E+03   -.535E+02 -.314E+02 0.733E+03   -.107E+01 -.616E+00 -.131E+01   0.722E-01 0.403E-01 0.483E+00
   -.544E+02 0.320E+02 -.731E+03   0.534E+02 -.314E+02 0.732E+03   0.107E+01 -.616E+00 -.132E+01   -.656E-01 0.451E-01 0.482E+00
   0.126E+02 -.775E+01 -.804E+03   -.130E+02 0.799E+01 0.803E+03   0.376E+00 -.220E+00 0.591E+00   0.421E-01 -.238E-01 0.321E+00
   0.409E-01 -.634E+02 -.732E+03   -.448E-01 0.623E+02 0.732E+03   -.195E-02 0.123E+01 -.132E+01   0.645E-02 -.794E-01 0.482E+00
   -.127E+02 -.788E+01 -.803E+03   0.131E+02 0.813E+01 0.803E+03   -.376E+00 -.221E+00 0.582E+00   -.482E-01 -.279E-01 0.322E+00
   -.229E+01 -.124E+01 -.825E+03   0.216E+01 0.116E+01 0.825E+03   0.273E-01 0.153E-01 0.490E+00   0.766E-01 0.443E-01 0.380E+00
   0.220E+01 -.135E+01 -.826E+03   -.207E+01 0.128E+01 0.825E+03   -.274E-01 0.188E-01 0.489E+00   -.758E-01 0.370E-01 0.382E+00
   0.882E-01 0.146E+02 -.804E+03   -.871E-01 -.150E+02 0.803E+03   -.616E-03 0.432E+00 0.580E+00   -.700E-03 0.493E-01 0.321E+00
   -.919E+00 0.263E+01 -.259E+04   0.920E+00 -.263E+01 0.259E+04   -.164E-04 -.140E-02 0.440E+00   -.990E-03 -.921E-03 0.142E+00
   0.540E+02 0.923E+02 -.262E+04   -.527E+02 -.905E+02 0.262E+04   -.129E+01 -.200E+01 -.520E+00   0.266E-01 0.172E+00 0.981E-01
   -.529E+02 0.931E+02 -.261E+04   0.517E+02 -.912E+02 0.261E+04   0.129E+01 -.200E+01 -.530E+00   -.251E-01 0.181E+00 0.968E-01
   0.106E+03 0.400E+01 -.261E+04   -.103E+03 -.381E+01 0.261E+04   -.238E+01 -.116E+00 -.435E+00   0.161E+00 -.636E-01 0.984E-01
   -.106E+03 0.321E+01 -.260E+04   0.104E+03 -.302E+01 0.261E+04   0.237E+01 -.115E+00 -.462E+00   -.170E+00 -.589E-01 0.950E-01
   0.502E+02 -.961E+02 -.261E+04   -.493E+02 0.941E+02 0.261E+04   -.109E+01 0.212E+01 -.508E+00   0.145E+00 -.111E+00 0.973E-01
   -.500E+02 -.969E+02 -.261E+04   0.491E+02 0.949E+02 0.261E+04   0.109E+01 0.212E+01 -.544E+00   -.136E+00 -.118E+00 0.954E-01
   -.883E-01 -.393E+01 -.260E+04   0.103E+00 0.394E+01 0.260E+04   -.613E-03 0.150E-02 0.640E+00   -.135E-01 -.701E-02 0.137E+00
   0.715E+00 0.183E+01 -.287E+04   -.735E+00 -.184E+01 0.286E+04   -.121E-01 -.157E-02 0.351E+01   0.206E-01 0.110E-01 0.289E+00
   0.438E+00 -.172E+00 -.886E+03   -.447E+00 0.177E+00 0.886E+03   0.819E-02 -.618E-02 -.101E+00   -.122E-02 0.582E-04 -.434E-01
   0.265E+03 -.185E+02 -.133E+04   -.328E+03 0.229E+02 0.132E+04   0.636E+02 -.442E+01 0.514E+01   0.137E-01 0.172E-02 -.547E-01
   -.265E+03 0.186E+02 -.133E+04   0.329E+03 -.230E+02 0.133E+04   -.637E+02 0.445E+01 -.494E+01   -.476E-02 -.273E-02 -.570E-01
   0.905E-01 -.167E-01 0.735E+00   -.568E-13 0.103E-12 0.227E-11   -.137E+00 0.107E-01 -.594E+01   0.287E-01 0.122E-01 0.528E+01

 POSITION                                       TOTAL-FORCE (eV/Angst)
      0.00000      0.00000      5.28038         0.000342     -0.000128     -0.199606
      2.93784      0.00000      5.28038        -0.001159     -0.012382     -0.100541
      5.87568      0.00000      5.28038         0.002262     -0.012181     -0.100708
      1.46892      2.54424      5.28038        -0.010787      0.004174     -0.100682
      4.40676      2.54424      5.28038         0.001002      0.000356     -0.110571
      7.34459      2.54424      5.28038         0.011420      0.004545     -0.101123
      2.93784      5.08848      5.28038        -0.008706      0.007462     -0.101106
      5.87568      5.08848      5.28038         0.010012      0.006972     -0.101365
      8.81351      5.08848      5.28038        -0.000049     -0.000073     -0.124292
      1.46892      0.84808      7.67911        -0.008436     -0.005423      0.131575
      4.40676      0.84808      7.67911         0.001041     -0.060865      0.016857
      7.34459      0.84808      7.67911         0.009033     -0.005224      0.131130
      2.93784      3.39232      7.67911        -0.052282      0.030294      0.017018
      5.87568      3.39232      7.67911         0.053891      0.029905      0.016826
      8.81351      3.39232      7.67911         0.000336     -0.068166      0.139357
      4.40676      5.93656      7.67911         0.000392      0.009571      0.131885
      7.34459      5.93656      7.67911        -0.058736      0.033923      0.138743
     10.28243      5.93656      7.67911         0.059699      0.033903      0.138996
      8.81351      1.70030     10.08698         0.000164      0.026283     -0.003122
      2.93503      1.69454     10.04736        -0.000838     -0.002038      0.010137
      5.87848      1.69454     10.04736         0.001248     -0.000940      0.013566
     10.26776      4.24887     10.06889         0.002292     -0.000527      0.010023
      4.40676      4.24365     10.04736         0.001123     -0.000576      0.009531
      7.35926      4.24887     10.06889        -0.001190     -0.000324      0.008528
     11.74777      6.78258     10.08698        -0.023330     -0.013612     -0.004006
      5.87926      6.78258     10.08698         0.024260     -0.013892     -0.003897
      8.81351      6.76771     10.06889         0.000251      0.000239      0.006425
      0.00000      0.00000     12.49943         0.000678      0.000177     -0.027652
      2.98194      0.07009     12.55649         0.009842     -0.006096      0.032514
      5.83157      0.07009     12.55649        -0.009062     -0.004088      0.035209
      1.55167      2.54739     12.55649        -0.003661      0.010832      0.027737
      7.26184      2.54739     12.55649         0.000925      0.010161      0.033825
      2.97649      5.01524     12.55649        -0.007924     -0.004089      0.032774
      5.83702      5.01524     12.55649         0.007502     -0.006578      0.036206
      8.81351      5.08848     12.50498         0.000900     -0.000883      0.003264
      4.40676      2.54424     12.24418        -0.011033      0.004459     -0.038416
      4.54452      2.62108     16.52585        -0.002150     -0.000728      0.007037
      3.37461      2.70238     16.42777        -0.000926      0.009013     -0.001710
      5.71415      2.53927     16.61583         0.001653     -0.003453     -0.010365
    total drift:                               -0.017890      0.006243      0.079135

  FREE ENERGIE OF THE ION-ELECTRON SYSTEM (eV)
  free  energy   TOTEN  =      -139.10049524 eV

  energy  without entropy=     -139.10049524  energy(sigma->0) =     -139.10049524

 stress matrix after NEB project (eV)
    -23.67595      0.00130      0.07845
      0.00130    -23.69213      0.00540
      0.07845      0.00540      2.62807
  FORCES: max atom, RMS     0.011049    0.002591
  FORCE total and by dimension    0.016180    0.010365
  Stress total and by dimension   33.597421   23.692133
|           W    W    AA    RRRRR   N    N  II  N    N   GGGG   !!!           |
|           W    W   A  A   R    R  NN   N  II  NN   N  G    G  !!!           |
|           W    W  A    A  R    R  N N  N  II  N N  N  G       !!!           |
|           W WW W  AAAAAA  RRRRR   N  N N  II  N  N N  G  GGG   !            |
|           WW  WW  A    A  R   R   N   NN  II  N   NN  G    G                |
|           W    W  A    A  R    R  N    N  II  N    N   GGGG   !!!           |
|     Tetrahedron method does not include variations of the Fermi             |
|     occupations, so forces and stress will be inaccurate. We suggest        |
|     using a different smearing scheme ISMEAR = 1 or 2 for metals in         |
|     relaxations.                                                            |

 total charge

# of ion       s       p       d       tot
    1        0.548   0.237   8.767   9.552
    2        0.541   0.241   8.765   9.548
    3        0.541   0.241   8.765   9.548
    4        0.541   0.241   8.765   9.548
    5        0.546   0.241   8.761   9.548
    6        0.541   0.241   8.765   9.548
    7        0.541   0.241   8.765   9.548
    8        0.541   0.241   8.765   9.548
    9        0.544   0.239   8.767   9.551
   10        0.528   0.307   8.766   9.601
   11        0.520   0.307   8.780   9.608
   12        0.528   0.307   8.766   9.601
   13        0.520   0.307   8.780   9.608
   14        0.521   0.307   8.780   9.608
   15        0.516   0.307   8.775   9.598
   16        0.528   0.307   8.766   9.601
   17        0.516   0.307   8.775   9.598
   18        0.516   0.307   8.775   9.598
   19        0.518   0.297   8.770   9.584
   20        0.576   0.341   8.721   9.638
   21        0.576   0.341   8.720   9.638
   22        0.507   0.305   8.779   9.590
   23        0.576   0.341   8.721   9.638
   24        0.507   0.305   8.779   9.590
   25        0.518   0.297   8.769   9.584
   26        0.518   0.297   8.769   9.584
   27        0.507   0.305   8.779   9.591
   28        0.540   0.229   8.752   9.521
   29        0.592   0.250   8.724   9.566
   30        0.592   0.250   8.724   9.566
   31        0.591   0.249   8.725   9.565
   32        0.591   0.249   8.725   9.565
   33        0.592   0.250   8.724   9.566
   34        0.592   0.250   8.724   9.566
   35        0.539   0.230   8.755   9.524
   36        2.177   5.975   2.261  10.412
   37        0.933   1.802   0.000   2.736
   38        1.607   3.529   0.000   5.136
   39        1.607   3.529   0.000   5.136
tot         25.336  24.546 308.771 358.653

 BZINTS: Fermi energy:    0.074219;  414.000000 electrons
         Band energy:-0.190997E+04;  BLOECHL correction:   -0.028508