 vasp.6.2.0 18Jan21 (build Jun 12 2021 23:27:24) complex

 executed on             LinuxIFC date 2022.05.27  05:09:59

 INCAR:
   ISMEAR = -5
   SIGMA = 0.1
   ISPIN = 1
   EDIFF = 1.d-5
   EDIFFG = -0.01
   NSW = 0
   NELM = 150
   ENCUT = 500
   ISIF = 2
   IBRION = 2
   LREAL = Auto
   ALGO = Fast
   ICHARG = 11
   LORBIT = 10
   LCHARG = .F.
   LWAVE = .F.

 POTCAR:    PAW_PBE Au 04Oct2007
 POTCAR:    PAW_PBE Ru 04Feb2005
 POTCAR:    PAW_PBE C 08Apr2002
 POTCAR:    PAW_PBE O 08Apr2002
|           W    W    AA    RRRRR   N    N  II  N    N   GGGG   !!!           |
|           W    W   A  A   R    R  NN   N  II  NN   N  G    G  !!!           |
|           W    W  A    A  R    R  N N  N  II  N N  N  G       !!!           |
|           W WW W  AAAAAA  RRRRR   N  N N  II  N  N N  G  GGG   !            |
|           WW  WW  A    A  R   R   N   NN  II  N   NN  G    G                |
|           W    W  A    A  R    R  N    N  II  N    N   GGGG   !!!           |
|     For optimal performance we recommend to set                             |
|       NCORE = 2 up to number-of-cores-per-socket                            |
|     This setting can greatly improve the performance of VASP for DFT.       |
|     The default, NCORE=1 might be grossly inefficient on modern             |
|     multi-core architectures or massively parallel machines. Do your        |
|     Unfortunately you need to use the default for GW and RPA                |
|     calculations (for HF NCORE is supported but not extensively tested      |
|     yet).                                                                   |

 POTCAR:    PAW_PBE Au 04Oct2007
   VRHFIN =Au: s1d10

   TITEL  = PAW_PBE Au 04Oct2007
   POMASS =  196.966; ZVAL   =   11.000    mass and valenz
   ENMAX  =  229.943; ENMIN  =  172.457 eV

 POTCAR:    PAW_PBE Ru 04Feb2005
   VRHFIN =Ru: s1 d7

   TITEL  = PAW_PBE Ru 04Feb2005
   POMASS =  101.070; ZVAL   =    8.000    mass and valenz
   ENMAX  =  213.271; ENMIN  =  159.953 eV

 POTCAR:    PAW_PBE C 08Apr2002
   VRHFIN =C: s2p2

   TITEL  = PAW_PBE C 08Apr2002
   POMASS =   12.011; ZVAL   =    4.000    mass and valenz
   ENMAX  =  400.000; ENMIN  =  300.000 eV

 POTCAR:    PAW_PBE O 08Apr2002
   VRHFIN =O: s2p4

   TITEL  = PAW_PBE O 08Apr2002
   POMASS =   16.000; ZVAL   =    6.000    mass and valenz
   ENMAX  =  400.000; ENMIN  =  300.000 eV

 Optimization of the real space projectors (new method)

 maximal supplied QI-value         = 15.12
 optimisation between [QCUT,QGAM] = [ 11.34, 22.83] = [ 36.00,145.93] Ry
 Optimized for a Real-space Cutoff    1.39 Angstroem

   l    n(q)    QCUT    max X(q) W(low)/X(q) W(high)/X(q)  e(spline)
   2      9    11.338    60.898    0.39E-03    0.42E-03    0.21E-06
   2      9    11.338    58.894    0.40E-03    0.42E-03    0.22E-06
   0      9    11.338   109.617    0.13E-03    0.20E-04    0.13E-06
   0      9    11.338    75.026    0.13E-03    0.20E-04    0.13E-06
   1      9    11.338    16.344    0.33E-04    0.24E-03    0.18E-06
   1      9    11.338    10.160    0.26E-04    0.19E-03    0.15E-06
 Optimization of the real space projectors (new method)

[...]

   l    n(q)    QCUT    max X(q) W(low)/X(q) W(high)/X(q)  e(spline)
   0      7    11.310   115.676    0.43E-03    0.13E-02    0.19E-06
   0      7    11.310    87.132    0.43E-03    0.13E-02    0.18E-06
   1      6    11.310     4.429    0.42E-03    0.74E-03    0.11E-06
   1      6    11.310     2.733    0.34E-03    0.55E-03    0.92E-07
 Optimization of the real space projectors (new method)

 maximal supplied QI-value         = 24.76
 optimisation between [QCUT,QGAM] = [ 11.39, 22.77] = [ 36.31,145.25] Ry
 Optimized for a Real-space Cutoff    1.00 Angstroem

   l    n(q)    QCUT    max X(q) W(low)/X(q) W(high)/X(q)  e(spline)
   0      7    11.387    20.381    0.39E-03    0.13E-02    0.15E-06
   0      7    11.387    15.268    0.42E-03    0.14E-02    0.17E-06
   1      6    11.387     5.964    0.41E-03    0.11E-02    0.17E-06
   1      6    11.387     5.382    0.39E-03    0.87E-03    0.15E-06
  PAW_PBE Au 04Oct2007                  :
  PAW_PBE Ru 04Feb2005                  :
  PAW_PBE C 08Apr2002                   :
  PAW_PBE O 08Apr2002                   :

 POSCAR: Au-Ru-CO
  positions in direct lattice
  velocities in cartesian coordinates
 exchange correlation table for  LEXCH =        8
   RHO(1)=    0.500       N(1)  =     2000
   RHO(2)=  100.500       N(2)  =     4000

 VTST: version 3.2, (02/03/18)

 CHAIN: initializing optimizer

 OPT: Using VASP Conjugate-Gradient optimizer
 CHAIN: Read ICHAIN            0

 POSCAR: Au-Ru-CO
  positions in direct lattice
  velocities in cartesian coordinates

 ion  position               nearest neighbor table
   1  0.000  0.000  0.238-  16 2.94  12 2.94   6 2.94   8 2.94   7 2.94   3 2.94  10 2.94   4 2.94
                             2 2.94
   2  0.333  0.000  0.238-   9 2.94  11 2.94  17 2.94  10 2.94   8 2.94   4 2.94   5 2.94   1 2.94
                             3 2.94
   3  0.667  0.000  0.238-   7 2.94  18 2.94  12 2.94   1 2.94  11 2.94   5 2.94   6 2.94   9 2.94
                             2 2.94
   4  0.000  0.333  0.238-  10 2.94   6 2.94   5 2.94  13 2.94   2 2.94  15 2.94   9 2.94   1 2.94
                             7 2.94
   5  0.333  0.333  0.238-  13 2.94   7 2.94  11 2.94   4 2.94   2 2.94  14 2.94   3 2.94   8 2.94
                             6 2.94
   6  0.667  0.333  0.238-  15 2.94  14 2.94   1 2.94  12 2.94   4 2.94   9 2.94   8 2.94   3 2.94
                             5 2.94
   7  0.000  0.667  0.238-  18 2.94   3 2.94  16 2.94   5 2.94   1 2.94  13 2.94   8 2.94   4 2.94
                             9 2.94
   8  0.333  0.667  0.238-   9 2.94  17 2.94   1 2.94   2 2.94  14 2.94  16 2.94   6 2.94   7 2.94
                             5 2.94
   9  0.667  0.667  0.238-   2 2.94   8 2.94  17 2.94   6 2.94  15 2.94   4 2.94   3 2.94  18 2.94
                             7 2.94
  10  0.111  0.111  0.346-  20 2.91  26 2.94  19 2.94  11 2.94  17 2.94   2 2.94   4 2.94   1 2.94
                            12 2.94  16 2.94  13 2.94  15 2.94
  11  0.444  0.111  0.346-  20 2.91  21 2.91  27 2.94  13 2.94   2 2.94  10 2.94  17 2.94   5 2.94
                             3 2.94  18 2.94  14 2.94  12 2.94
  12  0.778  0.111  0.346-  21 2.91  25 2.94  19 2.94  16 2.94  18 2.94   1 2.94  14 2.94  15 2.94
                             3 2.94   6 2.94  10 2.94  11 2.94
  13  0.111  0.444  0.346-  23 2.91  20 2.91  22 2.94   5 2.94  18 2.94  11 2.94   7 2.94   4 2.94
                            16 2.94  10 2.94  14 2.94  15 2.94
  14  0.444  0.444  0.346-  21 2.91  23 2.91  24 2.94  15 2.94   6 2.94  12 2.94   8 2.94  17 2.94
                             5 2.94  16 2.94  13 2.94  11 2.94
  15  0.778  0.444  0.346-  24 2.92  22 2.92  19 2.94  14 2.94   6 2.94  17 2.94  12 2.94   9 2.94
                             4 2.94  10 2.94  13 2.94  18 2.94
  16  0.111  0.778  0.346-  23 2.91  25 2.94  26 2.94  18 2.94  12 2.94   7 2.94   1 2.94   8 2.94
                            13 2.94  10 2.94  14 2.94  17 2.94
  17  0.444  0.778  0.346-  27 2.92  24 2.92  26 2.94   9 2.94  15 2.94   2 2.94  10 2.94  11 2.94
                             8 2.94  14 2.94  16 2.94  18 2.94
  18  0.778  0.778  0.346-  22 2.92  27 2.92  25 2.94  16 2.94   7 2.94  13 2.94  12 2.94   3 2.94
                            11 2.94   9 2.94  15 2.94  17 2.94
  19  0.889  0.222  0.454-  15 2.94  10 2.94  12 2.94  24 2.94  22 2.94  26 2.94  25 2.94  21 2.94
                            20 2.94  28 2.95  32 2.97  31 2.97
  20  0.223  0.223  0.452-  36 2.78  11 2.91  13 2.91  10 2.91  23 2.93  21 2.93  29 2.94  31 2.94
                            26 2.94  19 2.94  27 2.95  22 2.95
  21  0.555  0.223  0.452-  36 2.78  14 2.91  11 2.91  12 2.91  20 2.93  23 2.93  30 2.94  32 2.94
                            25 2.94  19 2.94  27 2.95  24 2.95
  22  0.887  0.557  0.453-  24 2.91  27 2.91  18 2.92  15 2.92  13 2.94  25 2.94  19 2.94  23 2.95
                            20 2.95  35 2.96  33 2.96  31 2.96
  23  0.223  0.555  0.452-  36 2.78  13 2.91  14 2.91  16 2.91  20 2.93  21 2.93  33 2.94  34 2.94
                            25 2.94  26 2.94  22 2.95  24 2.95
  24  0.557  0.557  0.453-  27 2.91  22 2.91  15 2.92  17 2.92  14 2.94  26 2.94  19 2.94  21 2.95
                            23 2.95  35 2.96  32 2.96  34 2.96
  25  0.889  0.889  0.454-  18 2.94  16 2.94  12 2.94  22 2.94  27 2.94  19 2.94  26 2.94  23 2.94
                            21 2.94  28 2.95  33 2.97  30 2.97
  26  0.222  0.889  0.454-  17 2.94  10 2.94  16 2.94  27 2.94  24 2.94  19 2.94  25 2.94  20 2.94
                            23 2.94  28 2.95  29 2.97  34 2.97
  27  0.557  0.887  0.453-  24 2.91  22 2.91  17 2.92  18 2.92  11 2.94  26 2.94  25 2.94  20 2.95
                            21 2.95  35 2.96  29 2.96  30 2.96
  28  0.000  0.000  0.563-  25 2.95  19 2.95  26 2.95  34 2.97  32 2.97  33 2.97  30 2.97  31 2.97
                            29 2.97
  29  0.333  0.007  0.562-  31 2.88  30 2.88  36 2.89  20 2.94  27 2.96  28 2.97  35 2.97  26 2.97
                            34 3.05
  30  0.660  0.007  0.562-  32 2.88  29 2.88  36 2.89  21 2.94  27 2.96  28 2.97  35 2.97  25 2.97
                            33 3.05
  31  0.007  0.333  0.562-  29 2.88  33 2.88  36 2.89  20 2.94  22 2.96  28 2.97  35 2.97  19 2.97
                            32 3.05
  32  0.660  0.333  0.562-  30 2.88  34 2.88  36 2.89  21 2.94  24 2.96  28 2.97  35 2.97  19 2.97
                            31 3.05
  33  0.007  0.660  0.562-  34 2.88  31 2.88  36 2.89  23 2.94  22 2.96  28 2.97  35 2.97  25 2.97
                            30 3.05
  34  0.333  0.660  0.562-  33 2.88  32 2.88  36 2.89  23 2.94  24 2.96  28 2.97  35 2.97  26 2.97
                            29 3.05
  35  0.667  0.667  0.563-  24 2.96  27 2.96  22 2.96  29 2.97  34 2.97  32 2.97  31 2.97  30 2.97
                            33 2.97
  36  0.333  0.333  0.552-  37 1.85  20 2.78  23 2.78  21 2.78  33 2.89  31 2.89  29 2.89  30 2.89
                            34 2.89  32 2.89
  37  0.333  0.333  0.635-  38 1.17  36 1.85
  38  0.333  0.333  0.688-  37 1.17

  LATTYP: Found a hexagonal cell.
 ALAT       =     8.8135128021
 C/A-ratio  =     2.5184286595

  Lattice vectors:

 A1 = (  -4.4067569092,  -7.6327256898,   0.0000000000)
 A2 = (   8.8135128021,   0.0000000000,   0.0000000000)
 A3 = (   0.0000000000,   0.0000000000,  22.1962032318)

Analysis of symmetry for initial positions (statically):
 Subroutine PRICEL returns:
 Original cell was already a primitive cell.

 Routine SETGRP: Setting up the symmetry group for a
 hexagonal supercell.

 Subroutine GETGRP returns: Found  6 space group operations
 (whereof  6 operations were pure point group operations)
 out of a pool of 24 trial point group operations.

The static configuration has the point symmetry C_3v.

Analysis of symmetry for dynamics (positions and initial velocities):
 Subroutine PRICEL returns:
 Original cell was already a primitive cell.

[...]

The dynamic configuration has the point symmetry C_3v.

Analysis of constrained symmetry for selective dynamics:
 Subroutine PRICEL returns:
[...]
     33      -4.7942      2.00000
     34      -4.7321      2.00000
     35      -4.7183      2.00000
     36      -4.7037      2.00000
     37      -4.6931      2.00000
     38      -4.6813      2.00000
     39      -4.6377      2.00000
     40      -4.5397      2.00000
     41      -4.5281      2.00000
     42      -4.4883      2.00000
     43      -4.4597      2.00000
     44      -4.3968      2.00000
     45      -4.3505      2.00000
     46      -4.3141      2.00000
     47      -4.2615      2.00000
     48      -4.2421      2.00000
     49      -4.2362      2.00000
     50      -4.2295      2.00000
     51      -4.1242      2.00000
     52      -4.0998      2.00000
     53      -4.0713      2.00000
     54      -4.0572      2.00000
     55      -4.0489      2.00000
     56      -4.0465      2.00000
     57      -4.0314      2.00000
     58      -3.9964      2.00000
     59      -3.9566      2.00000
     60      -3.9152      2.00000
[...]
    238       6.2099      0.00000
    239       6.4871      0.00000
    240       6.5355      0.00000
    241       6.5840      0.00000
    242       6.6131      0.00000
    243       6.6154      0.00000
    244       6.7633      0.00000
    245       6.8474      0.00000
    246       6.9046      0.00000
    247       6.9284      0.00000
    248       6.9477      0.00000
    249       7.2681      0.00000
    250       7.3253      0.00000
    251       7.3886      0.00000
    252       7.7414      0.00000

 soft charge-density along one line, spin component           1
         0         1         2         3         4         5         6         7         8         9
 total charge-density along one line

------------------------ aborting loop because EDIFF is reached ----------------------------------------

 total charge

# of ion       s       p       d       tot
    1        0.545   0.238   8.769   9.552
    2        0.545   0.240   8.765   9.550
    3        0.545   0.240   8.765   9.550
    4        0.545   0.240   8.765   9.550
    5        0.544   0.242   8.759   9.545
    6        0.545   0.240   8.765   9.550
    7        0.545   0.240   8.765   9.550
    8        0.545   0.240   8.765   9.550
    9        0.541   0.239   8.771   9.551
   10        0.520   0.309   8.769   9.598
   11        0.524   0.307   8.780   9.611
   12        0.520   0.309   8.769   9.598
   13        0.524   0.307   8.780   9.611
   14        0.524   0.307   8.780   9.611
   15        0.515   0.309   8.776   9.600
   16        0.520   0.309   8.769   9.598
   17        0.515   0.309   8.776   9.600
   18        0.515   0.309   8.776   9.600
   19        0.518   0.301   8.774   9.593
   20        0.549   0.327   8.756   9.632
   21        0.549   0.327   8.756   9.632
   22        0.508   0.310   8.776   9.594
   23        0.549   0.327   8.756   9.632
   24        0.508   0.310   8.776   9.594
   25        0.518   0.301   8.774   9.593
   26        0.518   0.301   8.774   9.593
   27        0.508   0.310   8.776   9.594
   28        0.540   0.226   8.769   9.535
   29        0.549   0.244   8.756   9.549
   30        0.549   0.244   8.756   9.549
   31        0.549   0.244   8.756   9.549
   32        0.549   0.244   8.756   9.549
   33        0.549   0.244   8.756   9.549
   34        0.549   0.244   8.756   9.549
   35        0.534   0.227   8.770   9.532
   36        0.515   0.631   6.707   7.853
   37        0.957   1.561   0.000   2.518
   38        1.613   3.528   0.000   5.140
tot         21.754  15.384 313.563 350.700

  FORCE on cell =-STRESS in cart. coord.  units (eV):
  Direction    XX          YY          ZZ          XY          YZ          ZX
  Alpha Z  1027.55559  1027.55559  1027.55559
  Ewald  117616.42758117616.42801************    -0.00032    -0.00008    -0.00012
  Hartree126512.59153126512.59153************     0.00001    -0.00002    -0.00003
  E(xc)   -1810.19668 -1810.19675 -1816.25663     0.00007    -0.00001    -0.00001
  Local  ************************256173.58271     0.00210     0.00001    -0.00002
  n-local   -96.62453   -43.44073   -44.56411    26.26192    -1.56280     1.70230
  augment  2419.68627  2419.68786  2430.64194    -0.00138     0.00001     0.00003
  Kinetic  5634.44051  5648.57306  5655.57575     7.65418    -0.11820     0.54121
  Fock        0.00000     0.00000     0.00000     0.00000     0.00000     0.00000
  Total     -20.06590   -20.06590     4.23105    -0.00000     0.00000     0.00000
  in kB     -21.53088   -21.53088     4.53996    -0.00000     0.00000     0.00000

 VOLUME and BASIS-vectors are now :
  energy-cutoff  :      500.00
  volume of cell :     1493.16
      direct lattice vectors                 reciprocal lattice vectors
     8.813512802  0.000000000  0.000000000     0.113462137 -0.065507406  0.000000000
     4.406756909  7.632725690  0.000000000     0.000000000  0.131014796  0.000000000
     0.000000000  0.000000000 22.196203232     0.000000000  0.000000000  0.045052750

  length of vectors
     8.813512802  8.813512802 22.196203232     0.131014796  0.131014796  0.045052750

 FORCES acting on ions
    electron-ion (+dipol)            ewald-force                    non-local-force                 convergence-correction
   -.195E-04 -.162E-04 0.249E+04   0.519E-04 0.434E-04 -.249E+04   -.700E-17 0.468E-17 -.938E+00   -.182E-03 -.119E-03 -.314E+00
   0.455E+00 0.244E+00 0.249E+04   -.492E+00 -.370E+00 -.249E+04   0.501E-01 0.770E-01 -.310E+00   -.817E-02 0.660E-01 -.398E+00
   -.455E+00 0.244E+00 0.249E+04   0.492E+00 -.370E+00 -.249E+04   -.501E-01 0.770E-01 -.310E+00   0.844E-02 0.680E-01 -.398E+00
   0.439E+00 0.272E+00 0.249E+04   -.567E+00 -.241E+00 -.249E+04   0.918E-01 0.488E-02 -.310E+00   0.532E-01 -.402E-01 -.398E+00
   0.867E-05 -.233E-04 0.249E+04   0.951E-04 0.173E-05 -.249E+04   -.158E-18 -.167E-17 -.114E+00   0.424E-02 0.258E-02 -.378E+00
   -.439E+00 0.272E+00 0.249E+04   0.567E+00 -.241E+00 -.249E+04   -.918E-01 0.488E-02 -.310E+00   -.547E-01 -.392E-01 -.397E+00
   -.162E-01 -.516E+00 0.249E+04   -.745E-01 0.611E+00 -.249E+04   0.417E-01 -.819E-01 -.310E+00   0.631E-01 -.267E-01 -.397E+00
   0.162E-01 -.516E+00 0.249E+04   0.743E-01 0.611E+00 -.249E+04   -.417E-01 -.819E-01 -.310E+00   -.613E-01 -.277E-01 -.397E+00
   0.193E-04 -.417E-04 0.249E+04   0.166E-03 -.201E-04 -.249E+04   -.845E-19 -.211E-17 -.640E+00   -.461E-02 -.238E-02 -.430E+00
   0.477E+01 0.276E+01 0.861E+03   -.447E+01 -.258E+01 -.860E+03   -.294E+00 -.170E+00 -.702E+00   -.102E-01 -.602E-02 0.427E-01
   0.145E-04 0.475E+01 0.867E+03   0.148E-03 -.486E+01 -.867E+03   0.533E-08 0.801E-01 -.275E+00   0.364E-02 -.206E-01 0.341E-01
   -.477E+01 0.276E+01 0.861E+03   0.447E+01 -.258E+01 -.860E+03   0.294E+00 -.170E+00 -.702E+00   0.910E-02 -.493E-02 0.417E-01
   0.411E+01 -.237E+01 0.867E+03   -.421E+01 0.243E+01 -.867E+03   0.694E-01 -.400E-01 -.275E+00   -.157E-01 0.137E-01 0.341E-01
   -.411E+01 -.237E+01 0.867E+03   0.421E+01 0.243E+01 -.867E+03   -.694E-01 -.400E-01 -.275E+00   0.231E-01 0.132E-01 0.331E-01
   0.310E-04 0.274E+01 0.863E+03   0.236E-03 -.276E+01 -.862E+03   0.126E-08 0.189E-01 -.538E+00   -.209E-02 -.397E-01 0.511E-01
   -.214E-04 -.551E+01 0.861E+03   0.163E-03 0.516E+01 -.860E+03   0.226E-07 0.340E+00 -.702E+00   0.384E-04 0.103E-01 0.417E-01
   0.238E+01 -.137E+01 0.863E+03   -.239E+01 0.138E+01 -.862E+03   0.163E-01 -.944E-02 -.538E+00   -.352E-01 0.185E-01 0.511E-01
   -.238E+01 -.137E+01 0.863E+03   0.239E+01 0.138E+01 -.862E+03   -.163E-01 -.944E-02 -.538E+00   0.352E-01 0.201E-01 0.511E-01
   -.410E-04 0.260E+01 -.803E+03   0.536E-04 -.262E+01 0.802E+03   0.654E-09 0.982E-02 0.623E+00   0.343E-02 0.743E-02 0.436E+00
   0.133E+02 0.766E+01 -.766E+03   -.124E+02 -.719E+01 0.766E+03   -.105E+01 -.604E+00 -.919E+00   0.162E+00 0.936E-01 0.816E+00
   -.133E+02 0.766E+01 -.766E+03   0.124E+02 -.719E+01 0.766E+03   0.105E+01 -.604E+00 -.919E+00   -.163E+00 0.948E-01 0.816E+00
   -.508E-01 0.293E-01 -.792E+03   -.372E+00 0.215E+00 0.790E+03   0.367E+00 -.212E+00 0.584E+00   0.940E-01 -.556E-01 0.528E+00
   -.112E-04 -.153E+02 -.766E+03   0.142E-03 0.144E+02 0.766E+03   0.804E-07 0.121E+01 -.919E+00   0.265E-03 -.189E+00 0.816E+00
   0.507E-01 0.293E-01 -.792E+03   0.372E+00 0.215E+00 0.790E+03   -.367E+00 -.212E+00 0.584E+00   -.943E-01 -.544E-01 0.528E+00
   -.226E+01 -.130E+01 -.803E+03   0.227E+01 0.131E+01 0.802E+03   -.850E-02 -.491E-02 0.623E+00   -.131E-02 -.821E-03 0.436E+00
   0.226E+01 -.130E+01 -.803E+03   -.227E+01 0.131E+01 0.802E+03   0.850E-02 -.491E-02 0.623E+00   0.847E-02 -.712E-03 0.436E+00
   0.100E-04 -.587E-01 -.792E+03   0.198E-03 -.430E+00 0.790E+03   0.282E-07 0.423E+00 0.584E+00   -.175E-02 0.109E+00 0.528E+00
   -.126E-04 -.130E-04 -.243E+04   0.293E-04 0.346E-04 0.242E+04   -.459E-17 -.227E-18 0.658E+00   0.222E-03 0.109E-03 0.568E+00
   0.268E+02 0.456E+02 -.239E+04   -.265E+02 -.454E+02 0.239E+04   -.518E+00 -.727E+00 0.504E+00   0.214E+00 0.355E+00 0.531E+00
   -.268E+02 0.456E+02 -.239E+04   0.265E+02 -.454E+02 0.239E+04   0.518E+00 -.727E+00 0.504E+00   -.214E+00 0.357E+00 0.532E+00
   0.529E+02 0.369E+00 -.239E+04   -.526E+02 -.279E+00 0.239E+04   -.889E+00 -.852E-01 0.504E+00   0.415E+00 0.720E-02 0.531E+00
   -.529E+02 0.369E+00 -.239E+04   0.526E+02 -.279E+00 0.239E+04   0.889E+00 -.852E-01 0.504E+00   -.416E+00 0.839E-02 0.531E+00
   0.261E+02 -.460E+02 -.239E+04   -.260E+02 0.457E+02 0.239E+04   -.371E+00 0.812E+00 0.504E+00   0.202E+00 -.364E+00 0.532E+00
   -.261E+02 -.460E+02 -.239E+04   0.260E+02 0.457E+02 0.239E+04   0.371E+00 0.812E+00 0.504E+00   -.201E+00 -.364E+00 0.531E+00
   0.320E-04 -.278E-04 -.243E+04   0.143E-03 -.499E-04 0.243E+04   -.143E-17 0.453E-17 0.695E+00   -.462E-02 -.237E-02 0.529E+00
   -.793E-06 -.606E-05 -.152E+04   0.824E-04 0.740E-05 0.152E+04   -.113E-16 -.241E-17 -.609E+01   0.191E-02 0.117E-02 0.473E+00
   -.526E-05 -.853E-04 -.847E+03   0.141E-04 0.919E-06 0.832E+03   0.484E-18 0.255E-18 0.149E+02   0.118E-02 0.721E-03 -.221E+00
   0.241E-03 -.919E-04 -.151E+04   0.532E-05 0.518E-06 0.157E+04   -.834E-19 -.666E-19 -.592E+02   0.372E-02 0.228E-02 -.193E+00
   -.498E-03 -.928E-03 0.472E+02   0.254E-13 -.398E-13 0.614E-11   -.678E-16 0.224E-15 -.533E+02   0.191E-01 0.118E-01 0.656E+01

 POSITION                                       TOTAL-FORCE (eV/Angst)
      0.00000      0.00000      5.28038         0.000000     -0.000000     -0.124383
      2.93784      0.00000      5.28038         0.004898      0.017801     -0.057523
      5.87568      0.00000      5.28038        -0.004898      0.017801     -0.057523
      1.46892      2.54424      5.28038         0.017865     -0.004658     -0.057523
      4.40676      2.54424      5.28038         0.000000     -0.000000     -0.089080
      7.34459      2.54424      5.28038        -0.017865     -0.004658     -0.057523
      2.93784      5.08848      5.28038         0.012967     -0.013143     -0.057523
      5.87568      5.08848      5.28038        -0.012967     -0.013143     -0.057523
      8.81351      5.08848      5.28038         0.000000     -0.000000     -0.076263
      1.46892      0.84808      7.67911        -0.000147     -0.000085      0.110604
      4.40676      0.84808      7.67911        -0.000000     -0.051961      0.046316
      7.34459      0.84808      7.67911         0.000147     -0.000085      0.110604
      2.93784      3.39232      7.67911        -0.045000      0.025981      0.046316
      5.87568      3.39232      7.67911         0.045000      0.025981      0.046316
      8.81351      3.39232      7.67911        -0.000000     -0.036722      0.099401
      4.40676      5.93656      7.67911         0.000000      0.000170      0.110604
      7.34459      5.93656      7.67911        -0.031802      0.018361      0.099401
     10.28243      5.93656      7.67911         0.031802      0.018361      0.099401
      8.81351      1.69681     10.07567         0.000000      0.001122      0.004238
      2.94232      1.69875     10.04120        -0.060529     -0.034946     -0.250745
      5.87120      1.69875     10.04120         0.060529     -0.034946     -0.250745
     10.26751      4.24902     10.06295         0.038171     -0.022038     -0.016325
      4.40676      4.23523     10.04120         0.000000      0.069892     -0.250745
      7.35952      4.24902     10.06295        -0.038171     -0.022038     -0.016325
     11.75079      6.78432     10.07567        -0.000972     -0.000561      0.004238
      5.87624      6.78432     10.07567         0.000972     -0.000561      0.004238
      8.81351      6.76742     10.06295         0.000000      0.044076     -0.016325
      0.00000      0.00000     12.49459         0.000000     -0.000000     -0.051220
      2.96623      0.05046     12.47837        -0.069397     -0.145359     -0.066690
      5.84728      0.05046     12.47837         0.069397     -0.145359     -0.066690
      1.52682      2.54360     12.47837        -0.160583      0.012580     -0.066690
      7.28669      2.54360     12.47837         0.160583      0.012580     -0.066690
      2.96734      5.03866     12.47837        -0.091186      0.132779     -0.066690
      5.84617      5.03866     12.47837         0.091186      0.132779     -0.066690
      8.81351      5.08848     12.49555         0.000000     -0.000000     -0.026171
      4.40676      2.54424     12.24198         0.000000     -0.000000      1.125417
      4.40676      2.54424     14.09553         0.000000     -0.000000      0.041446
      4.40676      2.54424     15.26505         0.000000     -0.000000     -0.034934
    total drift:                                0.018552      0.010826      0.440777

  FREE ENERGIE OF THE ION-ELECTRON SYSTEM (eV)
  free  energy   TOTEN  =      -131.10288404 eV

  energy  without entropy=     -131.10288404  energy(sigma->0) =     -131.10288404

 stress matrix after NEB project (eV)
    -20.06590     -0.00000      0.00000
     -0.00000    -20.06590      0.00000
     -0.00000      0.00000      4.23105
  FORCES: max atom, RMS     0.041446    0.008793
  FORCE total and by dimension    0.054205    0.041446
  Stress total and by dimension   28.691158   20.065901
|           W    W    AA    RRRRR   N    N  II  N    N   GGGG   !!!           |
|           W    W   A  A   R    R  NN   N  II  NN   N  G    G  !!!           |
|           W    W  A    A  R    R  N N  N  II  N N  N  G       !!!           |
|           W WW W  AAAAAA  RRRRR   N  N N  II  N  N N  G  GGG   !            |
|           WW  WW  A    A  R   R   N   NN  II  N   NN  G    G                |
|           W    W  A    A  R    R  N    N  II  N    N   GGGG   !!!           |
|     Tetrahedron method does not include variations of the Fermi             |
|     occupations, so forces and stress will be inaccurate. We suggest        |
|     using a different smearing scheme ISMEAR = 1 or 2 for metals in         |
|     relaxations.                                                            |

 total charge

# of ion       s       p       d       tot
    1        0.545   0.238   8.769   9.552
    2        0.545   0.240   8.765   9.550
    3        0.545   0.240   8.765   9.550
    4        0.545   0.240   8.765   9.550
    5        0.544   0.242   8.759   9.545
    6        0.545   0.240   8.765   9.550
    7        0.545   0.240   8.765   9.550
    8        0.545   0.240   8.765   9.550
    9        0.541   0.239   8.771   9.551
   10        0.520   0.309   8.769   9.598
   11        0.524   0.307   8.780   9.611
   12        0.520   0.309   8.769   9.598
   13        0.524   0.307   8.780   9.611
   14        0.524   0.307   8.780   9.611
   15        0.515   0.309   8.776   9.600
   16        0.520   0.309   8.769   9.598
   17        0.515   0.309   8.776   9.600
   18        0.515   0.309   8.776   9.600
   19        0.518   0.301   8.774   9.593
   20        0.549   0.327   8.756   9.632
   21        0.549   0.327   8.756   9.632
   22        0.508   0.310   8.776   9.594
   23        0.549   0.327   8.756   9.632
   24        0.508   0.310   8.776   9.594
   25        0.518   0.301   8.774   9.593
   26        0.518   0.301   8.774   9.593
   27        0.508   0.310   8.776   9.594
   28        0.540   0.226   8.769   9.535
   29        0.549   0.244   8.756   9.549
   30        0.549   0.244   8.756   9.549
   31        0.549   0.244   8.756   9.549
   32        0.549   0.244   8.756   9.549
   33        0.549   0.244   8.756   9.549
   34        0.549   0.244   8.756   9.549
   35        0.534   0.227   8.770   9.532
   36        0.515   0.631   6.707   7.853
   37        0.957   1.561   0.000   2.518
   38        1.613   3.528   0.000   5.140
tot         21.754  15.384 313.563 350.700

 BZINTS: Fermi energy:    0.719421;  403.000000 electrons
         Band energy:-0.125105E+04;  BLOECHL correction:   -0.081470