 vasp.6.2.0 18Jan21 (build Jun 12 2021 23:27:24) complex

 executed on             LinuxIFC date 2022.05.26  19:49:40

 INCAR:
   ISMEAR = -5
   SIGMA = 0.1
   ISPIN = 1
   EDIFF = 1.d-5
   EDIFFG = -0.01
   NSW = 0
   NELM = 150
   ENCUT = 500
   ISIF = 2
   IBRION = 2
   LREAL = Auto
   ALGO = Fast
   ICHARG = 11
   LORBIT = 10
   LCHARG = .F.
   LWAVE = .F.

 POTCAR:    PAW_PBE Ag 02Apr2005
 POTCAR:    PAW_PBE Pd 04Jan2005
 POTCAR:    PAW_PBE N 08Apr2002
|           W    W    AA    RRRRR   N    N  II  N    N   GGGG   !!!           |
|           W    W   A  A   R    R  NN   N  II  NN   N  G    G  !!!           |
|           W    W  A    A  R    R  N N  N  II  N N  N  G       !!!           |
|           W WW W  AAAAAA  RRRRR   N  N N  II  N  N N  G  GGG   !            |
|           WW  WW  A    A  R   R   N   NN  II  N   NN  G    G                |
|           W    W  A    A  R    R  N    N  II  N    N   GGGG   !!!           |
|     For optimal performance we recommend to set                             |
|       NCORE = 2 up to number-of-cores-per-socket                            |
|     This setting can greatly improve the performance of VASP for DFT.       |
|     The default, NCORE=1 might be grossly inefficient on modern             |
|     multi-core architectures or massively parallel machines. Do your        |
|     Unfortunately you need to use the default for GW and RPA                |
|     calculations (for HF NCORE is supported but not extensively tested      |
|     yet).                                                                   |

 POTCAR:    PAW_PBE Ag 02Apr2005
   VRHFIN =Ag : s1 d10

   TITEL  = PAW_PBE Ag 02Apr2005
   POMASS =  107.868; ZVAL   =   11.000    mass and valenz
   ENMAX  =  249.844; ENMIN  =  187.383 eV

 POTCAR:    PAW_PBE Pd 04Jan2005
   VRHFIN =Pd : s1 d9

   TITEL  = PAW_PBE Pd 04Jan2005
   POMASS =  106.420; ZVAL   =   10.000    mass and valenz
   ENMAX  =  250.925; ENMIN  =  188.194 eV

 POTCAR:    PAW_PBE N 08Apr2002
   VRHFIN =N: s2p3

   TITEL  = PAW_PBE N 08Apr2002
   POMASS =   14.001; ZVAL   =    5.000    mass and valenz
   ENMAX  =  400.000; ENMIN  =  300.000 eV

 Optimization of the real space projectors (new method)

 maximal supplied QI-value         = 15.12
 optimisation between [QCUT,QGAM] = [ 11.34, 22.83] = [ 36.00,145.93] Ry
 Optimized for a Real-space Cutoff    1.43 Angstroem

   l    n(q)    QCUT    max X(q) W(low)/X(q) W(high)/X(q)  e(spline)
   2      9    11.338    53.897    0.16E-03    0.20E-03    0.28E-06
   2      9    11.338    52.416    0.16E-03    0.20E-03    0.29E-06
   0     10    11.338   122.045    0.31E-04    0.76E-04    0.15E-06
   0     10    11.338    73.629    0.30E-04    0.72E-04    0.15E-06
   1      9    11.338    15.255    0.20E-03    0.19E-04    0.17E-06
   1      9    11.338     9.562    0.16E-03    0.15E-04    0.14E-06
 Optimization of the real space projectors (new method)

[...]

   l    n(q)    QCUT    max X(q) W(low)/X(q) W(high)/X(q)  e(spline)
   2      9    11.346    59.108    0.74E-04    0.81E-04    0.26E-06
   2      9    11.346    58.101    0.74E-04    0.83E-04    0.27E-06
   0     10    11.346   102.235    0.26E-04    0.31E-04    0.16E-06
   0     10    11.346    58.388    0.23E-04    0.29E-04    0.15E-06
   1     10    11.346    22.191    0.23E-03    0.26E-03    0.14E-06
   1     10    11.346    15.590    0.19E-03    0.22E-03    0.12E-06
 Optimization of the real space projectors (new method)

 maximal supplied QI-value         = 25.13
 optimisation between [QCUT,QGAM] = [ 11.31, 22.87] = [ 35.82,146.48] Ry
 Optimized for a Real-space Cutoff    1.27 Angstroem

   l    n(q)    QCUT    max X(q) W(low)/X(q) W(high)/X(q)  e(spline)
   0      9    11.310    79.467    0.75E-04    0.16E-03    0.36E-06
   0      9    11.310    66.151    0.74E-04    0.16E-03    0.36E-06
   1      8    11.310    17.416    0.35E-03    0.12E-03    0.95E-06
   1      8    11.310    12.382    0.37E-03    0.13E-03    0.98E-06
  PAW_PBE Ag 02Apr2005                  :
  PAW_PBE Pd 04Jan2005                  :
  PAW_PBE N 08Apr2002                   :

 POSCAR: Ag-Pd-N
  positions in direct lattice
  velocities in cartesian coordinates
 exchange correlation table for  LEXCH =        8
   RHO(1)=    0.500       N(1)  =     2000
   RHO(2)=  100.500       N(2)  =     4000

 VTST: version 3.2, (02/03/18)

 CHAIN: initializing optimizer

 OPT: Using VASP Conjugate-Gradient optimizer
 CHAIN: Read ICHAIN            0

 POSCAR: Ag-Pd-N
  positions in direct lattice
  velocities in cartesian coordinates

 ion  position               nearest neighbor table
   1  0.000  0.000  0.238-   2 2.93   8 2.93   7 2.93   6 2.93   4 2.93  12 2.93  16 2.93  10 2.93
                             3 2.93
   2  0.333  0.000  0.238-   1 2.93   8 2.93   9 2.93   3 2.93   4 2.93   5 2.93  10 2.93  17 2.93
                            11 2.93
   3  0.667  0.000  0.238-   9 2.93   2 2.93   5 2.93  11 2.93   7 2.93  18 2.93   1 2.93   6 2.93
                            12 2.93
   4  0.000  0.333  0.238-   5 2.93   6 2.93   2 2.93   1 2.93   7 2.93  13 2.93  15 2.93   9 2.93
                            10 2.93
   5  0.333  0.333  0.238-   4 2.93   3 2.93   7 2.93   2 2.93   8 2.93  14 2.93  13 2.93  11 2.93
                             6 2.93
   6  0.667  0.333  0.238-   4 2.93   9 2.93   1 2.93  15 2.93   8 2.93  12 2.93   3 2.93   5 2.93
                            14 2.93
   7  0.000  0.667  0.238-   8 2.93   1 2.93   5 2.93   3 2.93   4 2.93  16 2.93  18 2.93  13 2.93
                             9 2.93
   8  0.333  0.667  0.238-   7 2.93   1 2.93   2 2.93   9 2.93   5 2.93  16 2.93   6 2.93  17 2.93
                            14 2.93
   9  0.667  0.667  0.238-   3 2.93   2 2.93   8 2.93   6 2.93  17 2.93   4 2.93  15 2.93   7 2.93
                            18 2.93
  10  0.111  0.111  0.346-  20 2.91  19 2.92  26 2.92  12 2.93  16 2.93  15 2.93  17 2.93  13 2.93
                            11 2.93   2 2.93   1 2.93   4 2.93
  11  0.444  0.111  0.346-  21 2.91  20 2.91  27 2.91  14 2.93  17 2.93  18 2.93   3 2.93  12 2.93
                            13 2.93  10 2.93   5 2.93   2 2.93
  12  0.778  0.111  0.346-  21 2.91  25 2.92  19 2.92  10 2.93  16 2.93  18 2.93  15 2.93  11 2.93
                             1 2.93  14 2.93   6 2.93   3 2.93
  13  0.111  0.444  0.346-  20 2.91  23 2.91  22 2.91  15 2.93  14 2.93  18 2.93  10 2.93  11 2.93
                            16 2.93   4 2.93   5 2.93   7 2.93
  14  0.444  0.444  0.346-  23 2.91  21 2.91  24 2.91  13 2.93  11 2.93  16 2.93   5 2.93  12 2.93
                            17 2.93   8 2.93  15 2.93   6 2.93
  15  0.778  0.444  0.346-  24 2.91  22 2.91  19 2.92  13 2.93  10 2.93  12 2.93  17 2.93  18 2.93
                             4 2.93   6 2.93   9 2.93  14 2.93
  16  0.111  0.778  0.346-  23 2.91  26 2.92  25 2.92  18 2.93  12 2.93  10 2.93  14 2.93  17 2.93
                            13 2.93   7 2.93   8 2.93   1 2.93
  17  0.444  0.778  0.346-  27 2.91  24 2.91  26 2.92  11 2.93  10 2.93   9 2.93  18 2.93  15 2.93
                            16 2.93   2 2.93  14 2.93   8 2.93
  18  0.778  0.778  0.346-  22 2.91  27 2.91  25 2.92  16 2.93  12 2.93  13 2.93  11 2.93  17 2.93
                            15 2.93   7 2.93   3 2.93   9 2.93
  19  0.889  0.223  0.453-  28 2.91  15 2.92  10 2.92  12 2.92  32 2.92  31 2.92  20 2.93  21 2.93
                            24 2.93  22 2.93  26 2.93  25 2.93
  20  0.222  0.222  0.453-  36 2.81  10 2.91  13 2.91  11 2.91  31 2.91  29 2.91  19 2.93  26 2.93
                            27 2.93  22 2.93  21 2.94  23 2.94
  21  0.556  0.222  0.453-  36 2.81  12 2.91  11 2.91  14 2.91  30 2.91  32 2.91  25 2.93  19 2.93
                            27 2.93  24 2.93  20 2.94  23 2.94
  22  0.889  0.556  0.453-  35 2.91  18 2.91  15 2.91  13 2.91  33 2.92  31 2.92  25 2.93  19 2.93
                            24 2.93  27 2.93  23 2.93  20 2.93
  23  0.222  0.556  0.453-  36 2.81  16 2.91  14 2.91  13 2.91  34 2.91  33 2.91  26 2.93  25 2.93
                            22 2.93  24 2.93  21 2.94  20 2.94
  24  0.556  0.556  0.453-  35 2.91  15 2.91  17 2.91  14 2.91  32 2.92  34 2.92  19 2.93  26 2.93
                            27 2.93  22 2.93  23 2.93  21 2.93
  25  0.889  0.889  0.453-  28 2.91  18 2.92  16 2.92  12 2.92  33 2.92  30 2.92  23 2.93  21 2.93
                            22 2.93  27 2.93  26 2.93  19 2.93
  26  0.223  0.889  0.453-  28 2.91  17 2.92  16 2.92  10 2.92  34 2.92  29 2.92  23 2.93  20 2.93
                            27 2.93  24 2.93  25 2.93  19 2.93
  27  0.556  0.889  0.453-  35 2.91  17 2.91  18 2.91  11 2.91  29 2.92  30 2.92  26 2.93  25 2.93
                            24 2.93  22 2.93  20 2.93  21 2.93
  28  0.000  0.000  0.560-  26 2.91  25 2.91  19 2.91  29 2.94  34 2.94  33 2.94  32 2.94  31 2.94
                            30 2.94
  29  0.333  0.003  0.560-  30 2.91  31 2.91  36 2.91  20 2.91  27 2.92  26 2.92  35 2.94  28 2.94
                            34 2.98
  30  0.664  0.003  0.560-  29 2.91  32 2.91  36 2.91  21 2.91  27 2.92  25 2.92  35 2.94  28 2.94
                            33 2.98
  31  0.003  0.333  0.560-  33 2.91  29 2.91  36 2.91  20 2.91  22 2.92  19 2.92  35 2.94  28 2.94
                            32 2.98
  32  0.664  0.333  0.560-  34 2.91  30 2.91  36 2.91  21 2.91  24 2.92  19 2.92  35 2.94  28 2.94
                            31 2.98
  33  0.003  0.664  0.560-  31 2.91  34 2.91  36 2.91  23 2.91  22 2.92  25 2.92  35 2.94  28 2.94
                            30 2.98
  34  0.333  0.664  0.560-  32 2.91  33 2.91  36 2.91  23 2.91  24 2.92  26 2.92  35 2.94  28 2.94
                            29 2.98
  35  0.667  0.667  0.560-  24 2.91  27 2.91  22 2.91  30 2.94  29 2.94  32 2.94  34 2.94  31 2.94
                            33 2.94
  36  0.333  0.333  0.554-  37 1.77  21 2.81  20 2.81  23 2.81  31 2.91  33 2.91  30 2.91  29 2.91
                            34 2.91  32 2.91
  37  0.333  0.333  0.634-  36 1.77

  LATTYP: Found a hexagonal cell.
 ALAT       =     8.7913665772
 C/A-ratio  =     2.5227160501

  Lattice vectors:

 A1 = (  -4.3956832886,  -7.6135467898,   0.0000000000)
 A2 = (   8.7913665771,   0.0000000000,   0.0000000000)
 A3 = (   0.0000000000,   0.0000000000,  22.1781215668)

Analysis of symmetry for initial positions (statically):
 Subroutine PRICEL returns:
 Original cell was already a primitive cell.

 Routine SETGRP: Setting up the symmetry group for a
 hexagonal supercell.

 Subroutine GETGRP returns: Found  6 space group operations
 (whereof  6 operations were pure point group operations)
 out of a pool of 24 trial point group operations.

The static configuration has the point symmetry C_3v.

Analysis of symmetry for dynamics (positions and initial velocities):
 Subroutine PRICEL returns:
 Original cell was already a primitive cell.

[...]

The dynamic configuration has the point symmetry C_3v.

Analysis of constrained symmetry for selective dynamics:
 Subroutine PRICEL returns:
 Original cell was already a primitive cell.

 Routine SETGRP: Setting up the symmetry group for a
 hexagonal supercell.

 Subroutine GETGRP returns: Found  6 space group operations
[...]
     24      -4.6939      2.00000
     25      -4.6887      2.00000
     26      -4.6551      2.00000
     27      -4.6419      2.00000
     28      -4.6212      2.00000
     29      -4.6179      2.00000
     30      -4.5981      2.00000
     31      -4.5936      2.00000
     32      -4.5831      2.00000
     33      -4.5622      2.00000
     34      -4.5514      2.00000
     35      -4.4918      2.00000
     36      -4.4767      2.00000
     37      -4.4704      2.00000
     38      -4.4537      2.00000
     39      -4.4339      2.00000
     40      -4.4174      2.00000
     41      -4.3912      2.00000
     42      -4.3831      2.00000
     43      -4.3556      2.00000
     44      -4.2973      2.00000
     45      -4.2555      2.00000
     46      -4.2401      2.00000
     47      -4.2308      2.00000
     48      -4.2275      2.00000
     49      -4.2117      2.00000
     50      -4.2096      2.00000
     51      -4.2060      2.00000
     52      -4.2032      2.00000
     53      -4.1892      2.00000
     54      -4.1277      2.00000
     55      -4.1151      2.00000
     56      -4.0933      2.00000
     57      -4.0873      2.00000
     58      -4.0819      2.00000
     59      -4.0692      2.00000
     60      -4.0473      2.00000
[...]
    238       6.3046      0.00000
    239       6.3576      0.00000
    240       6.4487      0.00000
    241       7.0736      0.00000
    242       7.1756      0.00000
    243       7.2457      0.00000
    244       7.3537      0.00000
    245       7.3591      0.00000
    246       7.4111      0.00000
    247       7.4537      0.00000
    248       7.5174      0.00000
    249       7.6034      0.00000
    250       7.6682      0.00000
    251       7.6939      0.00000
    252       7.7904      0.00000

 soft charge-density along one line, spin component           1
         0         1         2         3         4         5         6         7         8         9
 total charge-density along one line

------------------------ aborting loop because EDIFF is reached ----------------------------------------

 total charge

# of ion       s       p       d       tot
    1        0.419   0.202   9.178   9.799
    2        0.416   0.203   9.177   9.796
    3        0.416   0.203   9.177   9.796
    4        0.416   0.203   9.177   9.796
    5        0.415   0.205   9.176   9.796
    6        0.416   0.203   9.177   9.796
    7        0.416   0.203   9.177   9.796
    8        0.416   0.203   9.177   9.796
    9        0.417   0.201   9.177   9.796
   10        0.406   0.270   9.164   9.840
   11        0.404   0.270   9.166   9.840
   12        0.406   0.270   9.164   9.840
   13        0.404   0.270   9.166   9.840
   14        0.404   0.270   9.166   9.840
   15        0.403   0.269   9.166   9.838
   16        0.406   0.270   9.164   9.840
   17        0.403   0.269   9.166   9.838
   18        0.403   0.269   9.166   9.838
   19        0.404   0.273   9.162   9.840
   20        0.419   0.282   9.159   9.861
   21        0.419   0.282   9.159   9.861
   22        0.403   0.270   9.168   9.841
   23        0.419   0.282   9.159   9.861
   24        0.403   0.270   9.168   9.841
   25        0.404   0.273   9.162   9.840
   26        0.404   0.273   9.162   9.840
   27        0.403   0.270   9.168   9.841
   28        0.421   0.197   9.183   9.801
   29        0.396   0.208   9.185   9.788
   30        0.396   0.208   9.185   9.788
   31        0.396   0.208   9.185   9.788
   32        0.396   0.208   9.185   9.788
   33        0.396   0.208   9.185   9.788
   34        0.396   0.208   9.185   9.788
   35        0.418   0.199   9.181   9.798
   36        0.576   0.616   8.457   9.649
   37        1.350   2.080   0.000   3.430
tot         16.204  11.070 329.480 356.754

  FORCE on cell =-STRESS in cart. coord.  units (eV):
  Direction    XX          YY          ZZ          XY          YZ          ZX
  Alpha Z   752.62690   752.62690   752.62690
  Ewald  121871.44792121871.44798************     0.00003     0.00000     0.00003
  Hartree132180.63514132180.63516************     0.00001    -0.00000     0.00002
  E(xc)   -2102.50747 -2102.50746 -2107.19295    -0.00001     0.00000     0.00000
  Local  ************************265458.70530     0.00045    -0.00006    -0.00016
  n-local  -338.70211  -320.52986  -326.98246    10.85188    -0.37906     0.42688
  augment  3297.05514  3297.05536  3298.42607    -0.00019    -0.00000     0.00002
  Kinetic  4997.91641  4998.60950  5006.46398     1.89821     1.29560    -0.39906
  Fock        0.00000     0.00000     0.00000     0.00000     0.00000     0.00000
  Total      -7.68163    -7.68163     0.53565    -0.00000     0.00000    -0.00000
  in kB      -8.29079    -8.29079     0.57813    -0.00000     0.00000    -0.00000

 VOLUME and BASIS-vectors are now :
  energy-cutoff  :      500.00
  volume of cell :     1484.46
      direct lattice vectors                 reciprocal lattice vectors
     8.791366577  0.000000000  0.000000000     0.113747958 -0.065672414  0.000000000
     4.395683289  7.613546790  0.000000000     0.000000000  0.131344829  0.000000000
     0.000000000  0.000000000 22.178121567     0.000000000  0.000000000  0.045089481

  length of vectors
     8.791366577  8.791366577 22.178121567     0.131344829  0.131344829  0.045089481

 FORCES acting on ions
    electron-ion (+dipol)            ewald-force                    non-local-force                 convergence-correction
   0.459E-04 -.283E-04 0.252E+04   -.954E-04 0.593E-04 -.252E+04   -.144E-16 -.528E-17 -.191E+01   -.846E-04 -.156E-03 0.217E-01
   0.535E-01 0.429E+00 0.252E+04   -.240E+00 -.292E+00 -.252E+04   0.605E-01 -.258E-01 -.165E+01   0.122E+00 -.943E-01 0.447E-01
   -.534E-01 0.429E+00 0.252E+04   0.240E+00 -.292E+00 -.252E+04   -.605E-01 -.258E-01 -.165E+01   -.122E+00 -.924E-01 0.453E-01
   0.399E+00 -.168E+00 0.252E+04   -.373E+00 -.619E-01 -.252E+04   0.793E-02 0.653E-01 -.165E+01   -.206E-01 0.153E+00 0.447E-01
   -.603E-05 -.189E-04 0.252E+04   0.981E-04 -.199E-05 -.252E+04   -.419E-18 0.133E-17 -.151E+01   0.618E-02 0.378E-02 0.570E-01
   -.399E+00 -.168E+00 0.252E+04   0.373E+00 -.620E-01 -.252E+04   -.793E-02 0.653E-01 -.165E+01   0.193E-01 0.154E+00 0.454E-01
   0.345E+00 -.261E+00 0.252E+04   -.133E+00 0.354E+00 -.252E+04   -.526E-01 -.395E-01 -.165E+01   -.141E+00 -.591E-01 0.454E-01
   -.345E+00 -.261E+00 0.252E+04   0.133E+00 0.354E+00 -.252E+04   0.526E-01 -.395E-01 -.165E+01   0.142E+00 -.600E-01 0.454E-01
   0.364E-04 -.131E-04 0.252E+04   0.792E-04 -.643E-04 -.252E+04   -.294E-17 -.177E-17 -.177E+01   -.663E-02 -.341E-02 0.939E-01
   0.286E+01 0.165E+01 0.868E+03   -.271E+01 -.156E+01 -.868E+03   -.167E+00 -.962E-01 -.775E+00   0.142E-01 0.821E-02 -.389E-01
   -.292E-04 0.270E+01 0.872E+03   0.414E-04 -.265E+01 -.871E+03   0.395E-12 0.601E-01 -.324E+00   0.619E-02 -.126E+00 -.928E-01
   -.286E+01 0.165E+01 0.868E+03   0.271E+01 -.156E+01 -.868E+03   0.167E+00 -.962E-01 -.775E+00   -.155E-01 0.888E-02 -.398E-01
   0.234E+01 -.135E+01 0.872E+03   -.229E+01 0.132E+01 -.871E+03   0.521E-01 -.301E-01 -.324E+00   -.106E+00 0.683E-01 -.928E-01
   -.234E+01 -.135E+01 0.872E+03   0.229E+01 0.132E+01 -.871E+03   -.521E-01 -.301E-01 -.324E+00   0.116E+00 0.674E-01 -.944E-01
   0.160E-04 0.290E-01 0.868E+03   -.108E-03 -.196E+00 -.867E+03   0.235E-12 0.358E-01 -.607E+00   -.128E-02 0.122E+00 -.576E-01
   -.778E-05 -.330E+01 0.868E+03   0.206E-04 0.313E+01 -.868E+03   0.126E-11 0.192E+00 -.775E+00   -.888E-04 -.179E-01 -.398E-01
   0.251E-01 -.145E-01 0.868E+03   -.170E+00 0.978E-01 -.867E+03   0.310E-01 -.179E-01 -.607E+00   0.105E+00 -.621E-01 -.576E-01
   -.252E-01 -.145E-01 0.868E+03   0.170E+00 0.979E-01 -.867E+03   -.310E-01 -.179E-01 -.607E+00   -.105E+00 -.606E-01 -.568E-01
   0.416E-04 0.204E+01 -.815E+03   -.130E-03 -.213E+01 0.814E+03   0.142E-12 0.217E-01 0.462E+00   0.995E-03 0.785E-01 -.774E-01
   0.139E+02 0.804E+01 -.787E+03   -.132E+02 -.762E+01 0.787E+03   -.682E+00 -.393E+00 -.125E+00   -.258E-01 -.149E-01 0.319E-01
   -.139E+02 0.804E+01 -.787E+03   0.132E+02 -.762E+01 0.787E+03   0.682E+00 -.393E+00 -.125E+00   0.149E-01 -.152E-01 0.317E-01
   0.710E+01 -.410E+01 -.808E+03   -.710E+01 0.410E+01 0.807E+03   0.594E-01 -.343E-01 0.718E+00   -.673E-01 0.393E-01 -.734E-01
   -.575E-04 -.161E+02 -.787E+03   0.444E-04 0.152E+02 0.787E+03   0.517E-11 0.787E+00 -.125E+00   -.538E-02 0.212E-01 0.317E-01
   -.710E+01 -.410E+01 -.808E+03   0.710E+01 0.410E+01 0.807E+03   -.594E-01 -.343E-01 0.718E+00   0.688E-01 0.398E-01 -.732E-01
   -.177E+01 -.102E+01 -.815E+03   0.185E+01 0.107E+01 0.814E+03   -.188E-01 -.108E-01 0.462E+00   -.680E-01 -.394E-01 -.777E-01
   0.177E+01 -.102E+01 -.815E+03   -.185E+01 0.107E+01 0.814E+03   0.188E-01 -.108E-01 0.462E+00   0.682E-01 -.385E-01 -.774E-01
   0.201E-04 0.820E+01 -.808E+03   0.110E-03 -.820E+01 0.807E+03   0.451E-12 0.686E-01 0.718E+00   -.291E-03 -.779E-01 -.733E-01
   0.547E-04 -.377E-04 -.249E+04   -.118E-03 0.786E-04 0.249E+04   0.134E-17 0.475E-18 0.191E+01   0.207E-03 -.183E-04 0.178E+00
   0.220E+02 0.369E+02 -.248E+04   -.223E+02 -.374E+02 0.247E+04   0.155E+00 0.396E+00 0.212E+01   0.415E-01 -.482E-03 0.131E+00
   -.220E+02 0.369E+02 -.248E+04   0.223E+02 -.374E+02 0.247E+04   -.155E+00 0.396E+00 0.212E+01   -.424E-01 0.888E-03 0.131E+00
   0.430E+02 0.602E+00 -.248E+04   -.435E+02 -.584E+00 0.247E+04   0.421E+00 -.638E-01 0.212E+01   0.206E-01 0.364E-01 0.131E+00
   -.430E+02 0.602E+00 -.248E+04   0.435E+02 -.584E+00 0.247E+04   -.421E+00 -.638E-01 0.212E+01   -.213E-01 0.373E-01 0.132E+00
   0.210E+02 -.375E+02 -.248E+04   -.213E+02 0.380E+02 0.247E+04   0.266E+00 -.333E+00 0.212E+01   -.200E-01 -.366E-01 0.131E+00
   -.210E+02 -.375E+02 -.248E+04   0.213E+02 0.380E+02 0.247E+04   -.266E+00 -.333E+00 0.212E+01   0.213E-01 -.370E-01 0.132E+00
   0.218E-04 -.109E-04 -.249E+04   0.106E-03 -.670E-04 0.249E+04   -.154E-17 0.175E-17 0.184E+01   -.638E-02 -.326E-02 0.924E-01
   0.252E-04 -.207E-04 -.200E+04   0.943E-04 0.110E-04 0.201E+04   0.230E-16 0.542E-17 -.518E+01   0.441E-02 0.270E-02 0.300E+00
   0.107E-03 -.577E-04 -.141E+04   0.217E-04 0.297E-06 0.143E+04   -.113E-17 0.716E-19 -.194E+02   0.173E-02 0.106E-02 0.145E-01
   0.532E-03 -.745E-03 0.243E+02   -.148E-13 -.405E-14 -.500E-11   -.351E-16 -.270E-15 -.251E+02   -.997E-03 0.278E-02 0.891E+00

 POSITION                                       TOTAL-FORCE (eV/Angst)
      0.00000      0.00000      5.28219        -0.000000     -0.000000      0.009904
      2.93046      0.00000      5.28219        -0.003818      0.018555      0.031210
      5.86091      0.00000      5.28219         0.003818      0.018555      0.031210
      1.46523      2.53785      5.28219         0.014159     -0.012584      0.031210
      4.39568      2.53785      5.28219        -0.000000     -0.000000      0.041284
      7.32614      2.53785      5.28219        -0.014159     -0.012584      0.031210
      2.93046      5.07570      5.28219         0.017978     -0.005970      0.031210
      5.86091      5.07570      5.28219        -0.017978     -0.005970      0.031210
      8.79137      5.07570      5.28219        -0.000000     -0.000000      0.021195
      1.46523      0.84595      7.67490         0.000942      0.000544     -0.011312
      4.39568      0.84595      7.67490        -0.000000     -0.018734     -0.028448
      7.32614      0.84595      7.67490        -0.000942      0.000544     -0.011312
      2.93046      3.38380      7.67490        -0.016225      0.009367     -0.028448
      5.86091      3.38380      7.67490         0.016225      0.009367     -0.028448
      8.79137      3.38380      7.67490        -0.000000     -0.009352     -0.030065
      4.39568      5.92165      7.67490        -0.000000     -0.001087     -0.011312
      7.32614      5.92165      7.67490        -0.008099      0.004676     -0.030065
     10.25659      5.92165      7.67490         0.008099      0.004676     -0.030065
      8.79137      1.69432     10.05238         0.000000      0.007804      0.009724
      2.92802      1.69049     10.04000         0.022898      0.013220     -0.181912
      5.86334      1.69049     10.04000        -0.022898      0.013220     -0.181912
     10.25637      4.22988     10.04709        -0.006363      0.003674     -0.014594
      4.39568      4.23256     10.04000        -0.000000     -0.026440     -0.181912
      7.32637      4.22988     10.04709         0.006363      0.003674     -0.014594
     11.71973      6.76639     10.05238        -0.006758     -0.003902      0.009724
      5.86300      6.76639     10.05238         0.006758     -0.003902      0.009724
      8.79137      6.76733     10.04709        -0.000000     -0.007348     -0.014594
      0.00000      0.00000     12.42253        -0.000000     -0.000000     -0.015854
      2.94245      0.01904     12.42445        -0.068564     -0.100779      0.028659
      5.84892      0.01904     12.42445         0.068564     -0.100779      0.028659
      1.48772      2.53872     12.42445        -0.121559     -0.008989      0.028659
      7.30365      2.53872     12.42445         0.121559     -0.008989      0.028659
      2.94095      5.05579     12.42445        -0.052995      0.109767      0.028659
      5.85042      5.05579     12.42445         0.052995      0.109767      0.028659
      8.79137      5.07570     12.41807        -0.000000     -0.000000     -0.002705
      4.39568      2.53785     12.28633        -0.000000     -0.000000      0.340557
      4.39568      2.53785     14.05618        -0.000000     -0.000000      0.016221
    total drift:                               -0.000465      0.002037      0.011237

  FREE ENERGIE OF THE ION-ELECTRON SYSTEM (eV)
  free  energy   TOTEN  =       -99.25487827 eV

  energy  without entropy=      -99.25487827  energy(sigma->0) =      -99.25487827

 stress matrix after NEB project (eV)
     -7.68163     -0.00000     -0.00000
     -0.00000     -7.68163      0.00000
      0.00000      0.00000      0.53565
  FORCES: max atom, RMS     0.016221    0.002667
  FORCE total and by dimension    0.016221    0.016221
  Stress total and by dimension   10.876668    7.681633
|           W    W    AA    RRRRR   N    N  II  N    N   GGGG   !!!           |
|           W    W   A  A   R    R  NN   N  II  NN   N  G    G  !!!           |
|           W    W  A    A  R    R  N N  N  II  N N  N  G       !!!           |
|           W WW W  AAAAAA  RRRRR   N  N N  II  N  N N  G  GGG   !            |
|           WW  WW  A    A  R   R   N   NN  II  N   NN  G    G                |
|           W    W  A    A  R    R  N    N  II  N    N   GGGG   !!!           |
|     Tetrahedron method does not include variations of the Fermi             |
|     occupations, so forces and stress will be inaccurate. We suggest        |
|     using a different smearing scheme ISMEAR = 1 or 2 for metals in         |
|     relaxations.                                                            |

 total charge

# of ion       s       p       d       tot
    1        0.419   0.202   9.178   9.799
    2        0.416   0.203   9.177   9.796
    3        0.416   0.203   9.177   9.796
    4        0.416   0.203   9.177   9.796
    5        0.415   0.205   9.176   9.796
    6        0.416   0.203   9.177   9.796
    7        0.416   0.203   9.177   9.796
    8        0.416   0.203   9.177   9.796
    9        0.417   0.201   9.177   9.796
   10        0.406   0.270   9.164   9.840
   11        0.404   0.270   9.166   9.840
   12        0.406   0.270   9.164   9.840
   13        0.404   0.270   9.166   9.840
   14        0.404   0.270   9.166   9.840
   15        0.403   0.269   9.166   9.838
   16        0.406   0.270   9.164   9.840
   17        0.403   0.269   9.166   9.838
   18        0.403   0.269   9.166   9.838
   19        0.404   0.273   9.162   9.840
   20        0.419   0.282   9.159   9.861
   21        0.419   0.282   9.159   9.861
   22        0.403   0.270   9.168   9.841
   23        0.419   0.282   9.159   9.861
   24        0.403   0.270   9.168   9.841
   25        0.404   0.273   9.162   9.840
   26        0.404   0.273   9.162   9.840
   27        0.403   0.270   9.168   9.841
   28        0.421   0.197   9.183   9.801
   29        0.396   0.208   9.185   9.788
   30        0.396   0.208   9.185   9.788
   31        0.396   0.208   9.185   9.788
   32        0.396   0.208   9.185   9.788
   33        0.396   0.208   9.185   9.788
   34        0.396   0.208   9.185   9.788
   35        0.418   0.199   9.181   9.798
   36        0.576   0.616   8.457   9.649
   37        1.350   2.080   0.000   3.430
tot         16.204  11.070 329.480 356.754

 BZINTS: Fermi energy:    0.787466;  400.000000 electrons
         Band energy:-0.133440E+04;  BLOECHL correction:   -0.040685