 vasp.6.2.0 18Jan21 (build Jun 12 2021 23:27:24) complex

 executed on             LinuxIFC date 2022.05.27  05:30:40

 INCAR:
   ISMEAR = -5
   SIGMA = 0.1
   ISPIN = 1
   EDIFF = 1.d-5
   EDIFFG = -0.01
   NSW = 0
   NELM = 150
   ENCUT = 500
   ISIF = 2
   IBRION = 2
   LREAL = Auto
   ALGO = Fast
   ICHARG = 11
   LORBIT = 10
   LCHARG = .F.
   LWAVE = .F.

 POTCAR:    PAW_PBE Ag 02Apr2005
 POTCAR:    PAW_PBE Fe 06Sep2000
 POTCAR:    PAW_PBE O 08Apr2002
 POTCAR:    PAW_PBE H 15Jun2001
|           W    W    AA    RRRRR   N    N  II  N    N   GGGG   !!!           |
|           W    W   A  A   R    R  NN   N  II  NN   N  G    G  !!!           |
|           W    W  A    A  R    R  N N  N  II  N N  N  G       !!!           |
|           W WW W  AAAAAA  RRRRR   N  N N  II  N  N N  G  GGG   !            |
|           WW  WW  A    A  R   R   N   NN  II  N   NN  G    G                |
|           W    W  A    A  R    R  N    N  II  N    N   GGGG   !!!           |
|     For optimal performance we recommend to set                             |
|       NCORE = 2 up to number-of-cores-per-socket                            |
|     This setting can greatly improve the performance of VASP for DFT.       |
|     The default, NCORE=1 might be grossly inefficient on modern             |
|     multi-core architectures or massively parallel machines. Do your        |
|     Unfortunately you need to use the default for GW and RPA                |
|     calculations (for HF NCORE is supported but not extensively tested      |
|     yet).                                                                   |

 POTCAR:    PAW_PBE Ag 02Apr2005
   VRHFIN =Ag : s1 d10

   TITEL  = PAW_PBE Ag 02Apr2005
   POMASS =  107.868; ZVAL   =   11.000    mass and valenz
   ENMAX  =  249.844; ENMIN  =  187.383 eV

 POTCAR:    PAW_PBE Fe 06Sep2000
   VRHFIN =Fe:  d7 s1

   TITEL  = PAW_PBE Fe 06Sep2000
   POMASS =   55.847; ZVAL   =    8.000    mass and valenz
   ENMAX  =  267.882; ENMIN  =  200.911 eV

 POTCAR:    PAW_PBE O 08Apr2002
   VRHFIN =O: s2p4

   TITEL  = PAW_PBE O 08Apr2002
   POMASS =   16.000; ZVAL   =    6.000    mass and valenz
   ENMAX  =  400.000; ENMIN  =  300.000 eV

 POTCAR:    PAW_PBE H 15Jun2001
   VRHFIN =H: ultrasoft test

   TITEL  = PAW_PBE H 15Jun2001
   POMASS =    1.000; ZVAL   =    1.000    mass and valenz
   ENMAX  =  250.000; ENMIN  =  200.000 eV

 Optimization of the real space projectors (new method)

 maximal supplied QI-value         = 15.12
 optimisation between [QCUT,QGAM] = [ 11.34, 22.83] = [ 36.00,145.93] Ry
 Optimized for a Real-space Cutoff    1.43 Angstroem

   l    n(q)    QCUT    max X(q) W(low)/X(q) W(high)/X(q)  e(spline)
   2      9    11.338    53.897    0.16E-03    0.20E-03    0.28E-06
   2      9    11.338    52.416    0.16E-03    0.20E-03    0.29E-06
   0     10    11.338   122.045    0.31E-04    0.76E-04    0.15E-06
   0     10    11.338    73.629    0.30E-04    0.72E-04    0.15E-06
   1      9    11.338    15.255    0.20E-03    0.19E-04    0.17E-06
   1      9    11.338     9.562    0.16E-03    0.15E-04    0.14E-06
 Optimization of the real space projectors (new method)

[...]

   l    n(q)    QCUT    max X(q) W(low)/X(q) W(high)/X(q)  e(spline)
   0      7    11.387    20.381    0.39E-03    0.13E-02    0.15E-06
   0      7    11.387    15.268    0.42E-03    0.14E-02    0.17E-06
   1      6    11.387     5.964    0.41E-03    0.11E-02    0.17E-06
   1      6    11.387     5.382    0.39E-03    0.87E-03    0.15E-06
 Optimization of the real space projectors (new method)

 maximal supplied QI-value         = 34.20
 optimisation between [QCUT,QGAM] = [ 11.29, 22.57] = [ 35.68,142.71] Ry
 Optimized for a Real-space Cutoff    1.16 Angstroem

   l    n(q)    QCUT    max X(q) W(low)/X(q) W(high)/X(q)  e(spline)
   0      8    11.287    19.460    0.40E-03    0.73E-03    0.16E-06
   0      8    11.287    12.209    0.38E-03    0.70E-03    0.15E-06
   1      7    11.287     4.655    0.22E-03    0.25E-04    0.22E-06
  PAW_PBE Ag 02Apr2005                  :
  PAW_PBE Fe 06Sep2000                  :
  PAW_PBE O 08Apr2002                   :
  PAW_PBE H 15Jun2001                   :

 POSCAR: Ag-Fe-OH
  positions in direct lattice
  velocities in cartesian coordinates
 exchange correlation table for  LEXCH =        8
   RHO(1)=    0.500       N(1)  =     2000
   RHO(2)=  100.500       N(2)  =     4000

 VTST: version 3.2, (02/03/18)

 CHAIN: initializing optimizer

 OPT: Using VASP Conjugate-Gradient optimizer
 CHAIN: Read ICHAIN            0

 POSCAR: Ag-Fe-OH
  positions in direct lattice
  velocities in cartesian coordinates

 ion  position               nearest neighbor table
   1  0.000  0.000  0.238-   2 2.93   8 2.93   7 2.93   6 2.93   4 2.93  12 2.93  16 2.93  10 2.93
                             3 2.93
   2  0.333  0.000  0.238-   1 2.93   8 2.93   9 2.93   3 2.93   4 2.93   5 2.93  10 2.93  17 2.93
                            11 2.93
   3  0.667  0.000  0.238-   9 2.93   2 2.93   5 2.93  11 2.93   7 2.93  18 2.93   1 2.93   6 2.93
                            12 2.93
   4  0.000  0.333  0.238-   5 2.93   6 2.93   2 2.93   1 2.93   7 2.93  13 2.93  15 2.93   9 2.93
                            10 2.93
   5  0.333  0.333  0.238-   4 2.93   3 2.93   7 2.93   2 2.93   8 2.93  14 2.93  13 2.93  11 2.93
                             6 2.93
   6  0.667  0.333  0.238-   4 2.93   9 2.93   1 2.93  15 2.93   8 2.93  12 2.93   3 2.93   5 2.93
                            14 2.93
   7  0.000  0.667  0.238-   8 2.93   1 2.93   5 2.93   3 2.93   4 2.93  16 2.93  18 2.93  13 2.93
                             9 2.93
   8  0.333  0.667  0.238-   7 2.93   1 2.93   2 2.93   9 2.93   5 2.93  16 2.93   6 2.93  17 2.93
                            14 2.93
   9  0.667  0.667  0.238-   3 2.93   2 2.93   8 2.93   6 2.93  17 2.93   4 2.93  15 2.93   7 2.93
                            18 2.93
  10  0.111  0.111  0.346-  20 2.92  19 2.93  26 2.93  12 2.93  16 2.93  15 2.93  17 2.93  13 2.93
                            11 2.93   2 2.93   1 2.93   4 2.93
  11  0.444  0.111  0.346-  21 2.90  20 2.90  27 2.92  14 2.93  17 2.93  18 2.93   3 2.93  12 2.93
                            13 2.93  10 2.93   5 2.93   2 2.93
  12  0.778  0.111  0.346-  21 2.92  25 2.93  19 2.93  10 2.93  16 2.93  18 2.93  15 2.93  11 2.93
                             1 2.93  14 2.93   6 2.93   3 2.93
  13  0.111  0.444  0.346-  20 2.90  23 2.90  22 2.92  15 2.93  14 2.93  18 2.93  10 2.93  11 2.93
                            16 2.93   4 2.93   5 2.93   7 2.93
  14  0.444  0.444  0.346-  23 2.90  21 2.90  24 2.92  13 2.93  11 2.93  16 2.93   5 2.93  12 2.93
                            17 2.93   8 2.93  15 2.93   6 2.93
  15  0.778  0.444  0.346-  24 2.92  22 2.92  19 2.93  13 2.93  10 2.93  12 2.93  17 2.93  18 2.93
                             4 2.93   6 2.93   9 2.93  14 2.93
  16  0.111  0.778  0.346-  23 2.92  26 2.93  25 2.93  18 2.93  12 2.93  10 2.93  14 2.93  17 2.93
                            13 2.93   7 2.93   8 2.93   1 2.93
  17  0.444  0.778  0.346-  27 2.92  24 2.92  26 2.93  11 2.93  10 2.93   9 2.93  18 2.93  15 2.93
                            16 2.93   2 2.93  14 2.93   8 2.93
  18  0.778  0.778  0.346-  22 2.92  27 2.92  25 2.93  16 2.93  12 2.93  13 2.93  11 2.93  17 2.93
                            15 2.93   7 2.93   3 2.93   9 2.93
  19  0.889  0.222  0.454-  28 2.91  15 2.93  10 2.93  12 2.93  24 2.93  22 2.93  26 2.93  25 2.93
                            20 2.94  21 2.94  32 2.94  31 2.94
  20  0.223  0.223  0.453-  36 2.70  31 2.89  29 2.89  13 2.90  11 2.90  21 2.91  23 2.91  10 2.92
                            27 2.94  22 2.94  19 2.94  26 2.94
  21  0.554  0.223  0.453-  36 2.70  30 2.89  32 2.89  11 2.90  14 2.90  20 2.91  23 2.91  12 2.92
                            27 2.94  24 2.94  25 2.94  19 2.94
  22  0.888  0.556  0.453-  35 2.91  18 2.92  15 2.92  33 2.92  31 2.92  13 2.92  24 2.92  27 2.92
                            25 2.93  19 2.93  23 2.94  20 2.94
  23  0.223  0.554  0.453-  36 2.70  34 2.89  33 2.89  14 2.90  13 2.90  21 2.91  20 2.91  16 2.92
                            22 2.94  24 2.94  26 2.94  25 2.94
  24  0.556  0.556  0.453-  35 2.91  15 2.92  17 2.92  32 2.92  34 2.92  14 2.92  27 2.92  22 2.92
                            19 2.93  26 2.93  23 2.94  21 2.94
  25  0.889  0.889  0.454-  28 2.91  18 2.93  16 2.93  12 2.93  22 2.93  27 2.93  26 2.93  19 2.93
                            23 2.94  21 2.94  33 2.94  30 2.94
  26  0.222  0.889  0.454-  28 2.91  17 2.93  16 2.93  10 2.93  27 2.93  24 2.93  25 2.93  19 2.93
                            23 2.94  20 2.94  34 2.94  29 2.94
  27  0.556  0.888  0.453-  35 2.91  17 2.92  18 2.92  29 2.92  30 2.92  11 2.92  24 2.92  22 2.92
                            26 2.93  25 2.93  20 2.94  21 2.94
  28  0.000  0.000  0.560-  26 2.91  25 2.91  19 2.91  29 2.97  34 2.97  33 2.97  32 2.97  31 2.97
                            30 2.97
  29  0.333  0.008  0.560-  31 2.86  30 2.86  36 2.87  20 2.89  27 2.92  26 2.94  28 2.97  35 2.97
                            34 3.07
  30  0.659  0.008  0.560-  32 2.86  29 2.86  36 2.87  21 2.89  27 2.92  25 2.94  28 2.97  35 2.97
                            33 3.07
  31  0.008  0.333  0.560-  29 2.86  33 2.86  36 2.87  20 2.89  22 2.92  19 2.94  28 2.97  35 2.97
                            32 3.07
  32  0.659  0.333  0.560-  30 2.86  34 2.86  36 2.87  21 2.89  24 2.92  19 2.94  28 2.97  35 2.97
                            31 3.07
  33  0.008  0.659  0.560-  34 2.86  31 2.86  36 2.87  23 2.89  22 2.92  25 2.94  28 2.97  35 2.97
                            30 3.07
  34  0.333  0.659  0.560-  33 2.86  32 2.86  36 2.87  23 2.89  24 2.92  26 2.94  28 2.97  35 2.97
                            29 3.07
  35  0.667  0.667  0.560-  24 2.91  27 2.91  22 2.91  32 2.97  30 2.97  29 2.97  34 2.97  31 2.97
                            33 2.97
  36  0.333  0.333  0.548-  37 1.75  21 2.70  20 2.70  23 2.70  31 2.87  30 2.87  33 2.87  29 2.87
                            34 2.87  32 2.87
  37  0.333  0.333  0.627-  38 0.97  36 1.75
  38  0.333  0.333  0.671-  37 0.97

  LATTYP: Found a hexagonal cell.
 ALAT       =     8.7913665772
 C/A-ratio  =     2.5227160501

  Lattice vectors:

 A1 = (  -4.3956832886,  -7.6135467898,   0.0000000000)
 A2 = (   8.7913665771,   0.0000000000,   0.0000000000)
 A3 = (   0.0000000000,   0.0000000000,  22.1781215668)

Analysis of symmetry for initial positions (statically):
 Subroutine PRICEL returns:
 Original cell was already a primitive cell.

 Routine SETGRP: Setting up the symmetry group for a
 hexagonal supercell.

 Subroutine GETGRP returns: Found  6 space group operations
 (whereof  6 operations were pure point group operations)
 out of a pool of 24 trial point group operations.

The static configuration has the point symmetry C_3v.

Analysis of symmetry for dynamics (positions and initial velocities):
 Subroutine PRICEL returns:
 Original cell was already a primitive cell.

[...]

The dynamic configuration has the point symmetry C_3v.

Analysis of constrained symmetry for selective dynamics:
 Subroutine PRICEL returns:
 Original cell was already a primitive cell.

[...]
     33      -4.3519      2.00000
     34      -4.3301      2.00000
     35      -4.2706      2.00000
     36      -4.2543      2.00000
     37      -4.2273      2.00000
     38      -4.2200      2.00000
     39      -4.1943      2.00000
     40      -4.1639      2.00000
     41      -4.1576      2.00000
     42      -4.1477      2.00000
     43      -4.1249      2.00000
     44      -4.1169      2.00000
     45      -4.0419      2.00000
     46      -4.0165      2.00000
     47      -4.0062      2.00000
     48      -3.9978      2.00000
     49      -3.9907      2.00000
     50      -3.9868      2.00000
     51      -3.9732      2.00000
     52      -3.9670      2.00000
     53      -3.9472      2.00000
     54      -3.9427      2.00000
     55      -3.8823      2.00000
     56      -3.8692      2.00000
     57      -3.8598      2.00000
     58      -3.8525      2.00000
     59      -3.8452      2.00000
     60      -3.8230      2.00000
[...]
    238       6.3611      0.00000
    239       6.4347      0.00000
    240       6.4490      0.00000
    241       6.6741      0.00000
    242       7.1178      0.00000
    243       7.2118      0.00000
    244       7.2948      0.00000
    245       7.3023      0.00000
    246       7.3711      0.00000
    247       7.3796      0.00000
    248       7.4657      0.00000
    249       7.5022      0.00000
    250       7.5726      0.00000
    251       7.6630      0.00000
    252       7.8151      0.00000

 soft charge-density along one line, spin component           1
         0         1         2         3         4         5         6         7         8         9
 total charge-density along one line

------------------------ aborting loop because EDIFF is reached ----------------------------------------

 total charge

# of ion       s       p       d       tot
    1        0.418   0.202   9.178   9.797
    2        0.418   0.203   9.177   9.797
    3        0.418   0.203   9.177   9.797
    4        0.418   0.203   9.177   9.797
    5        0.416   0.204   9.175   9.795
    6        0.418   0.203   9.177   9.797
    7        0.418   0.203   9.177   9.797
    8        0.418   0.203   9.177   9.797
    9        0.413   0.203   9.178   9.793
   10        0.407   0.268   9.163   9.838
   11        0.408   0.268   9.167   9.843
   12        0.407   0.268   9.163   9.838
   13        0.408   0.268   9.167   9.843
   14        0.408   0.268   9.167   9.843
   15        0.402   0.268   9.166   9.836
   16        0.407   0.268   9.163   9.838
   17        0.402   0.268   9.166   9.836
   18        0.402   0.268   9.166   9.836
   19        0.401   0.265   9.166   9.833
   20        0.426   0.296   9.147   9.869
   21        0.426   0.296   9.147   9.869
   22        0.398   0.272   9.167   9.837
   23        0.426   0.296   9.147   9.869
   24        0.398   0.272   9.167   9.837
   25        0.401   0.265   9.166   9.833
   26        0.401   0.265   9.166   9.833
   27        0.398   0.272   9.167   9.837
   28        0.414   0.197   9.178   9.788
   29        0.407   0.204   9.181   9.793
   30        0.407   0.204   9.181   9.793
   31        0.407   0.204   9.181   9.793
   32        0.407   0.204   9.181   9.793
   33        0.407   0.204   9.181   9.793
   34        0.407   0.204   9.181   9.793
   35        0.407   0.199   9.177   9.784
   36        0.379   0.404   6.339   7.121
   37        1.554   3.525   0.000   5.079
   38        0.609   0.126   0.000   0.735
tot         16.882  12.420 327.301 356.602

  FORCE on cell =-STRESS in cart. coord.  units (eV):
  Direction    XX          YY          ZZ          XY          YZ          ZX
  Alpha Z   759.43424   759.43424   759.43424
  Ewald  121118.88097121118.88104************     0.00004    -0.00000     0.00004
  Hartree131554.72724131554.72727************     0.00002    -0.00000     0.00002
  E(xc)   -2101.20917 -2101.20919 -2105.54975     0.00001     0.00000     0.00000
  Local  ************************263873.68414     0.00051    -0.00006    -0.00018
  n-local  -385.16138  -368.44261  -378.90656    10.14061    -0.29798     0.30810
  augment  3266.57693  3266.57710  3269.74142    -0.00015     0.00002     0.00003
  Kinetic  4988.69332  4994.22128  4979.70836     4.95429     1.04957    -0.04384
  Fock        0.00000     0.00000     0.00000     0.00000     0.00000     0.00000
  Total      -6.87595    -6.87595     0.18544    -0.00000     0.00000    -0.00000
  in kB      -7.42122    -7.42122     0.20015    -0.00000     0.00000    -0.00000

 VOLUME and BASIS-vectors are now :
  energy-cutoff  :      500.00
  volume of cell :     1484.46
      direct lattice vectors                 reciprocal lattice vectors
     8.791366577  0.000000000  0.000000000     0.113747958 -0.065672414  0.000000000
     4.395683289  7.613546790  0.000000000     0.000000000  0.131344829  0.000000000
     0.000000000  0.000000000 22.178121567     0.000000000  0.000000000  0.045089481

  length of vectors
     8.791366577  8.791366577 22.178121567     0.131344829  0.131344829  0.045089481

 FORCES acting on ions
    electron-ion (+dipol)            ewald-force                    non-local-force                 convergence-correction
   0.458E-04 -.283E-04 0.252E+04   -.954E-04 0.593E-04 -.251E+04   -.630E-17 -.244E-17 -.227E+01   -.164E-03 -.201E-03 -.720E-01
   0.461E+00 0.544E+00 0.252E+04   -.561E+00 -.555E+00 -.251E+04   0.372E-01 0.760E-01 -.156E+01   0.633E-01 -.537E-01 -.466E-01
   -.460E+00 0.544E+00 0.252E+04   0.561E+00 -.555E+00 -.251E+04   -.372E-01 0.760E-01 -.156E+01   -.638E-01 -.518E-01 -.458E-01
   0.701E+00 0.127E+00 0.252E+04   -.761E+00 -.208E+00 -.251E+04   0.844E-01 -.576E-02 -.156E+01   -.146E-01 0.819E-01 -.466E-01
   -.553E-05 -.186E-04 0.252E+04   0.981E-04 -.199E-05 -.252E+04   0.449E-18 -.111E-18 -.148E+01   0.628E-02 0.384E-02 -.105E+00
   -.701E+00 0.127E+00 0.252E+04   0.761E+00 -.208E+00 -.251E+04   -.844E-01 -.576E-02 -.156E+01   0.132E-01 0.828E-01 -.457E-01
   0.241E+00 -.671E+00 0.252E+04   -.200E+00 0.763E+00 -.251E+04   0.472E-01 -.702E-01 -.156E+01   -.763E-01 -.289E-01 -.458E-01
   -.241E+00 -.671E+00 0.252E+04   0.200E+00 0.763E+00 -.251E+04   -.472E-01 -.702E-01 -.156E+01   0.779E-01 -.299E-01 -.456E-01
   0.362E-04 -.130E-04 0.252E+04   0.792E-04 -.643E-04 -.251E+04   0.195E-17 0.366E-18 -.194E+01   -.664E-02 -.342E-02 0.160E-01
   0.520E+01 0.300E+01 0.862E+03   -.470E+01 -.271E+01 -.861E+03   -.421E+00 -.243E+00 -.792E+00   -.577E-01 -.333E-01 -.258E+00
   -.295E-04 0.638E+01 0.871E+03   0.417E-04 -.627E+01 -.871E+03   0.578E-12 0.881E-01 -.357E+00   0.665E-02 -.225E+00 -.364E+00
   -.520E+01 0.300E+01 0.862E+03   0.470E+01 -.271E+01 -.861E+03   0.421E+00 -.243E+00 -.792E+00   0.558E-01 -.321E-01 -.258E+00
   0.553E+01 -.319E+01 0.871E+03   -.543E+01 0.314E+01 -.871E+03   0.763E-01 -.440E-01 -.357E+00   -.192E+00 0.118E+00 -.364E+00
   -.553E+01 -.319E+01 0.871E+03   0.543E+01 0.314E+01 -.871E+03   -.763E-01 -.440E-01 -.357E+00   0.202E+00 0.117E+00 -.364E+00
   0.162E-04 0.125E+01 0.863E+03   -.109E-03 -.146E+01 -.862E+03   0.450E-12 0.685E-01 -.704E+00   -.185E-02 0.120E+00 -.260E+00
   -.811E-05 -.601E+01 0.862E+03   0.208E-04 0.542E+01 -.861E+03   0.319E-11 0.486E+00 -.792E+00   0.165E-04 0.643E-01 -.258E+00
   0.109E+01 -.626E+00 0.863E+03   -.127E+01 0.732E+00 -.862E+03   0.593E-01 -.343E-01 -.704E+00   0.103E+00 -.616E-01 -.260E+00
   -.109E+01 -.627E+00 0.863E+03   0.127E+01 0.732E+00 -.862E+03   -.593E-01 -.343E-01 -.704E+00   -.103E+00 -.593E-01 -.258E+00
   0.411E-04 0.153E+01 -.824E+03   -.128E-03 -.177E+01 0.823E+03   0.119E-11 0.182E+00 0.730E+00   -.649E-02 0.514E-01 -.321E+00
   0.272E+02 0.157E+02 -.779E+03   -.254E+02 -.147E+02 0.781E+03   -.125E+01 -.722E+00 -.114E+01   -.556E+00 -.321E+00 -.818E+00
   -.272E+02 0.157E+02 -.779E+03   0.254E+02 -.147E+02 0.781E+03   0.125E+01 -.722E+00 -.114E+01   0.557E+00 -.321E+00 -.818E+00
   0.101E+02 -.583E+01 -.810E+03   -.101E+02 0.583E+01 0.810E+03   0.283E+00 -.163E+00 0.570E+00   -.238E+00 0.139E+00 -.365E+00
   -.599E-04 -.315E+02 -.779E+03   0.452E-04 0.293E+02 0.781E+03   0.948E-11 0.144E+01 -.114E+01   0.772E-03 0.644E+00 -.818E+00
   -.101E+02 -.583E+01 -.810E+03   0.101E+02 0.583E+01 0.810E+03   -.283E+00 -.163E+00 0.570E+00   0.238E+00 0.137E+00 -.365E+00
   -.132E+01 -.764E+00 -.824E+03   0.153E+01 0.885E+00 0.823E+03   -.158E+00 -.909E-01 0.730E+00   -.518E-01 -.301E-01 -.321E+00
   0.132E+01 -.764E+00 -.824E+03   -.153E+01 0.885E+00 0.823E+03   0.158E+00 -.909E-01 0.730E+00   0.410E-01 -.315E-01 -.320E+00
   0.214E-04 0.117E+02 -.810E+03   0.109E-03 -.117E+02 0.810E+03   0.215E-11 0.327E+00 0.570E+00   0.103E-02 -.275E+00 -.365E+00
   0.544E-04 -.371E-04 -.248E+04   -.115E-03 0.779E-04 0.248E+04   0.468E-17 -.525E-18 0.169E+01   -.263E-03 -.288E-03 -.187E+00
   0.343E+02 0.596E+02 -.246E+04   -.339E+02 -.592E+02 0.246E+04   -.143E+00 0.816E-03 0.229E+01   -.299E+00 -.598E+00 -.172E+00
   -.343E+02 0.596E+02 -.246E+04   0.339E+02 -.592E+02 0.246E+04   0.143E+00 0.816E-03 0.229E+01   0.299E+00 -.596E+00 -.173E+00
   0.687E+02 -.102E+00 -.246E+04   -.682E+02 0.204E+00 0.246E+04   -.706E-01 -.124E+00 0.229E+01   -.667E+00 0.398E-01 -.172E+00
   -.687E+02 -.102E+00 -.246E+04   0.682E+02 0.203E+00 0.246E+04   0.706E-01 -.124E+00 0.229E+01   0.666E+00 0.403E-01 -.173E+00
   0.344E+02 -.595E+02 -.246E+04   -.343E+02 0.590E+02 0.246E+04   0.720E-01 0.123E+00 0.229E+01   -.366E+00 0.558E+00 -.173E+00
   -.344E+02 -.595E+02 -.246E+04   0.343E+02 0.590E+02 0.246E+04   -.720E-01 0.123E+00 0.229E+01   0.367E+00 0.556E+00 -.173E+00
   0.217E-04 -.125E-04 -.248E+04   0.106E-03 -.661E-04 0.248E+04   0.110E-16 0.315E-17 0.183E+01   -.641E-02 -.327E-02 -.156E+00
   -.375E-04 -.246E-04 -.152E+04   0.771E-04 0.110E-04 0.152E+04   0.211E-17 0.236E-17 0.115E+01   0.494E-02 0.301E-02 -.102E+00
   0.195E-03 -.925E-04 -.162E+04   0.298E-04 0.461E-06 0.159E+04   0.176E-17 -.906E-18 0.216E+02   0.382E-02 0.234E-02 0.954E+00
   0.765E-05 -.130E-04 -.322E+03   0.214E-05 0.931E-08 0.330E+03   0.261E-18 -.821E-19 -.844E+01   0.210E-03 0.128E-03 0.965E-01
   0.548E-03 -.811E-03 -.336E+01   0.185E-13 0.115E-12 0.739E-12   -.403E-16 -.649E-16 0.114E+02   0.156E-02 0.435E-02 -.802E+01

 POSITION                                       TOTAL-FORCE (eV/Angst)
      0.00000      0.00000      5.28219         0.000000     -0.000000      0.009368
      2.93046      0.00000      5.28219         0.000869      0.012422      0.038551
      5.86091      0.00000      5.28219        -0.000869      0.012422      0.038551
      1.46523      2.53785      5.28219         0.011193     -0.005458      0.038551
      4.39568      2.53785      5.28219         0.000000     -0.000000      0.024715
      7.32614      2.53785      5.28219        -0.011193     -0.005458      0.038551
      2.93046      5.07570      5.28219         0.010323     -0.006964      0.038551
      5.86091      5.07570      5.28219        -0.010323     -0.006964      0.038551
      8.79137      5.07570      5.28219         0.000000     -0.000000      0.010046
      1.46523      0.84595      7.67490         0.027779      0.016038      0.012913
      4.39568      0.84595      7.67490        -0.000000     -0.030620     -0.063811
      7.32614      0.84595      7.67490        -0.027779      0.016038      0.012913
      2.93046      3.38380      7.67490        -0.026517      0.015310     -0.063811
      5.86091      3.38380      7.67490         0.026517      0.015310     -0.063811
      8.79137      3.38380      7.67490        -0.000000     -0.023815      0.007855
      4.39568      5.92165      7.67490        -0.000000     -0.032076      0.012913
      7.32614      5.92165      7.67490        -0.020625      0.011908      0.007855
     10.25659      5.92165      7.67490         0.020625      0.011908      0.007855
      8.79137      1.69341     10.06265        -0.000000     -0.005083     -0.001003
      2.94295      1.69911     10.03964         0.024639      0.014225     -0.049961
      5.84841      1.69911     10.03964        -0.024639      0.014225     -0.049961
     10.25212      4.23233     10.05217         0.035509     -0.020501     -0.016858
      4.39568      4.21532     10.03964        -0.000000     -0.028451     -0.049961
      7.33061      4.23233     10.05217        -0.035509     -0.020501     -0.016858
     11.72051      6.76684     10.06265         0.004402      0.002542     -0.001003
      5.86222      6.76684     10.06265        -0.004402      0.002542     -0.001003
      8.79137      6.76243     10.05217         0.000000      0.041002     -0.016858
      0.00000      0.00000     12.42704         0.000000     -0.000000      0.005557
      2.96539      0.06299     12.42777        -0.108354     -0.222718     -0.120358
      5.82597      0.06299     12.42777         0.108354     -0.222718     -0.120358
      1.53725      2.53661     12.42777        -0.247056      0.017522     -0.120358
      7.25412      2.53661     12.42777         0.247056      0.017522     -0.120358
      2.96754      5.01395     12.42777        -0.138703      0.205196     -0.120358
      5.82383      5.01395     12.42777         0.138703      0.205196     -0.120358
      8.79137      5.07570     12.42264         0.000000     -0.000000      0.031597
      4.39568      2.53785     12.15183         0.000000     -0.000000      0.694372
      4.39568      2.53785     13.90635         0.000000     -0.000000      0.091531
      4.39568      2.53785     14.87246         0.000000     -0.000000     -0.043750
    total drift:                                0.002112      0.003540      0.040124

  FREE ENERGIE OF THE ION-ELECTRON SYSTEM (eV)
  free  energy   TOTEN  =      -105.32922377 eV

  energy  without entropy=     -105.32922377  energy(sigma->0) =     -105.32922377

 stress matrix after NEB project (eV)
     -6.87595     -0.00000     -0.00000
     -0.00000     -6.87595      0.00000
      0.00000      0.00000      0.18544
  FORCES: max atom, RMS     0.091531    0.016457
  FORCE total and by dimension    0.101449    0.091531
  Stress total and by dimension    9.725835    6.875954
|           W    W    AA    RRRRR   N    N  II  N    N   GGGG   !!!           |
|           W    W   A  A   R    R  NN   N  II  NN   N  G    G  !!!           |
|           W    W  A    A  R    R  N N  N  II  N N  N  G       !!!           |
|           W WW W  AAAAAA  RRRRR   N  N N  II  N  N N  G  GGG   !            |
|           WW  WW  A    A  R   R   N   NN  II  N   NN  G    G                |
|           W    W  A    A  R    R  N    N  II  N    N   GGGG   !!!           |
|     Tetrahedron method does not include variations of the Fermi             |
|     occupations, so forces and stress will be inaccurate. We suggest        |
|     using a different smearing scheme ISMEAR = 1 or 2 for metals in         |
|     relaxations.                                                            |

 total charge

# of ion       s       p       d       tot
    1        0.418   0.202   9.178   9.797
    2        0.418   0.203   9.177   9.797
    3        0.418   0.203   9.177   9.797
    4        0.418   0.203   9.177   9.797
    5        0.416   0.204   9.175   9.795
    6        0.418   0.203   9.177   9.797
    7        0.418   0.203   9.177   9.797
    8        0.418   0.203   9.177   9.797
    9        0.413   0.203   9.178   9.793
   10        0.407   0.268   9.163   9.838
   11        0.408   0.268   9.167   9.843
   12        0.407   0.268   9.163   9.838
   13        0.408   0.268   9.167   9.843
   14        0.408   0.268   9.167   9.843
   15        0.402   0.268   9.166   9.836
   16        0.407   0.268   9.163   9.838
   17        0.402   0.268   9.166   9.836
   18        0.402   0.268   9.166   9.836
   19        0.401   0.265   9.166   9.833
   20        0.426   0.296   9.147   9.869
   21        0.426   0.296   9.147   9.869
   22        0.398   0.272   9.167   9.837
   23        0.426   0.296   9.147   9.869
   24        0.398   0.272   9.167   9.837
   25        0.401   0.265   9.166   9.833
   26        0.401   0.265   9.166   9.833
   27        0.398   0.272   9.167   9.837
   28        0.414   0.197   9.178   9.788
   29        0.407   0.204   9.181   9.793
   30        0.407   0.204   9.181   9.793
   31        0.407   0.204   9.181   9.793
   32        0.407   0.204   9.181   9.793
   33        0.407   0.204   9.181   9.793
   34        0.407   0.204   9.181   9.793
   35        0.407   0.199   9.177   9.784
   36        0.379   0.404   6.339   7.121
   37        1.554   3.525   0.000   5.079
   38        0.609   0.126   0.000   0.735
tot         16.882  12.420 327.301 356.602

 BZINTS: Fermi energy:    0.999011;  400.000000 electrons
         Band energy:-0.125755E+04;  BLOECHL correction:   -0.034537