 vasp.6.2.0 18Jan21 (build Jun 12 2021 23:27:24) complex

 executed on             LinuxIFC date 2022.05.27  05:04:32

 INCAR:
   ISMEAR = -5
   SIGMA = 0.1
   ISPIN = 1
   EDIFF = 1.d-5
   EDIFFG = -0.01
   NSW = 0
   NELM = 150
   ENCUT = 500
   ISIF = 2
   IBRION = 2
   LREAL = Auto
   ALGO = Fast
   ICHARG = 11
   LORBIT = 10
   LCHARG = .F.
   LWAVE = .F.

 POTCAR:    PAW_PBE Au 04Oct2007
 POTCAR:    PAW_PBE Co 02Aug2007
 POTCAR:    PAW_PBE C 08Apr2002
 POTCAR:    PAW_PBE O 08Apr2002
|           W    W    AA    RRRRR   N    N  II  N    N   GGGG   !!!           |
|           W    W   A  A   R    R  NN   N  II  NN   N  G    G  !!!           |
|           W    W  A    A  R    R  N N  N  II  N N  N  G       !!!           |
|           W WW W  AAAAAA  RRRRR   N  N N  II  N  N N  G  GGG   !            |
|           WW  WW  A    A  R   R   N   NN  II  N   NN  G    G                |
|           W    W  A    A  R    R  N    N  II  N    N   GGGG   !!!           |
|     For optimal performance we recommend to set                             |
|       NCORE = 2 up to number-of-cores-per-socket                            |
|     This setting can greatly improve the performance of VASP for DFT.       |
|     The default, NCORE=1 might be grossly inefficient on modern             |
|     multi-core architectures or massively parallel machines. Do your        |
|     Unfortunately you need to use the default for GW and RPA                |
|     calculations (for HF NCORE is supported but not extensively tested      |
|     yet).                                                                   |

 POTCAR:    PAW_PBE Au 04Oct2007
   VRHFIN =Au: s1d10

   TITEL  = PAW_PBE Au 04Oct2007
   POMASS =  196.966; ZVAL   =   11.000    mass and valenz
   ENMAX  =  229.943; ENMIN  =  172.457 eV

 POTCAR:    PAW_PBE Co 02Aug2007
   VRHFIN =Co: d8 s1

   TITEL  = PAW_PBE Co 02Aug2007
   POMASS =   58.933; ZVAL   =    9.000    mass and valenz
   ENMAX  =  267.968; ENMIN  =  200.976 eV

 POTCAR:    PAW_PBE C 08Apr2002
   VRHFIN =C: s2p2

   TITEL  = PAW_PBE C 08Apr2002
   POMASS =   12.011; ZVAL   =    4.000    mass and valenz
   ENMAX  =  400.000; ENMIN  =  300.000 eV

 POTCAR:    PAW_PBE O 08Apr2002
   VRHFIN =O: s2p4

   TITEL  = PAW_PBE O 08Apr2002
   POMASS =   16.000; ZVAL   =    6.000    mass and valenz
   ENMAX  =  400.000; ENMIN  =  300.000 eV

 Optimization of the real space projectors (new method)

 maximal supplied QI-value         = 15.12
 optimisation between [QCUT,QGAM] = [ 11.34, 22.83] = [ 36.00,145.93] Ry
 Optimized for a Real-space Cutoff    1.39 Angstroem

   l    n(q)    QCUT    max X(q) W(low)/X(q) W(high)/X(q)  e(spline)
   2      9    11.338    60.898    0.39E-03    0.42E-03    0.21E-06
   2      9    11.338    58.894    0.40E-03    0.42E-03    0.22E-06
   0      9    11.338   109.617    0.13E-03    0.20E-04    0.13E-06
   0      9    11.338    75.026    0.13E-03    0.20E-04    0.13E-06
   1      9    11.338    16.344    0.33E-04    0.24E-03    0.18E-06
   1      9    11.338    10.160    0.26E-04    0.19E-03    0.15E-06
 Optimization of the real space projectors (new method)

[...]

   l    n(q)    QCUT    max X(q) W(low)/X(q) W(high)/X(q)  e(spline)
   0      7    11.310   115.676    0.43E-03    0.13E-02    0.19E-06
   0      7    11.310    87.132    0.43E-03    0.13E-02    0.18E-06
   1      6    11.310     4.429    0.42E-03    0.74E-03    0.11E-06
   1      6    11.310     2.733    0.34E-03    0.55E-03    0.92E-07
 Optimization of the real space projectors (new method)

 maximal supplied QI-value         = 24.76
 optimisation between [QCUT,QGAM] = [ 11.39, 22.77] = [ 36.31,145.25] Ry
 Optimized for a Real-space Cutoff    1.00 Angstroem

   l    n(q)    QCUT    max X(q) W(low)/X(q) W(high)/X(q)  e(spline)
   0      7    11.387    20.381    0.39E-03    0.13E-02    0.15E-06
   0      7    11.387    15.268    0.42E-03    0.14E-02    0.17E-06
   1      6    11.387     5.964    0.41E-03    0.11E-02    0.17E-06
   1      6    11.387     5.382    0.39E-03    0.87E-03    0.15E-06
  PAW_PBE Au 04Oct2007                  :
  PAW_PBE Co 02Aug2007                  :
  PAW_PBE C 08Apr2002                   :
  PAW_PBE O 08Apr2002                   :

 POSCAR: Au-Co-CO
  positions in direct lattice
  velocities in cartesian coordinates
 exchange correlation table for  LEXCH =        8
   RHO(1)=    0.500       N(1)  =     2000
   RHO(2)=  100.500       N(2)  =     4000

 VTST: version 3.2, (02/03/18)

 CHAIN: initializing optimizer

 OPT: Using VASP Conjugate-Gradient optimizer
 CHAIN: Read ICHAIN            0

 POSCAR: Au-Co-CO
  positions in direct lattice
  velocities in cartesian coordinates

 ion  position               nearest neighbor table
   1  0.000  0.000  0.238-  16 2.94  12 2.94   6 2.94   8 2.94   7 2.94   3 2.94  10 2.94   4 2.94
                             2 2.94
   2  0.333  0.000  0.238-   9 2.94  11 2.94  17 2.94  10 2.94   8 2.94   4 2.94   5 2.94   1 2.94
                             3 2.94
   3  0.667  0.000  0.238-   7 2.94  18 2.94  12 2.94   1 2.94  11 2.94   5 2.94   6 2.94   9 2.94
                             2 2.94
   4  0.000  0.333  0.238-  10 2.94   6 2.94   5 2.94  13 2.94   2 2.94  15 2.94   9 2.94   1 2.94
                             7 2.94
   5  0.333  0.333  0.238-  13 2.94   7 2.94  11 2.94   4 2.94   2 2.94  14 2.94   3 2.94   8 2.94
                             6 2.94
   6  0.667  0.333  0.238-  15 2.94  14 2.94   1 2.94  12 2.94   4 2.94   9 2.94   8 2.94   3 2.94
                             5 2.94
   7  0.000  0.667  0.238-  18 2.94   3 2.94  16 2.94   5 2.94   1 2.94  13 2.94   8 2.94   4 2.94
                             9 2.94
   8  0.333  0.667  0.238-   9 2.94  17 2.94   1 2.94   2 2.94  14 2.94  16 2.94   6 2.94   7 2.94
                             5 2.94
   9  0.667  0.667  0.238-   2 2.94   8 2.94  17 2.94   6 2.94  15 2.94   4 2.94   3 2.94  18 2.94
                             7 2.94
  10  0.111  0.111  0.346-  20 2.92  26 2.93  19 2.93  11 2.94  17 2.94   2 2.94   4 2.94   1 2.94
                            12 2.94  16 2.94  13 2.94  15 2.94
  11  0.444  0.111  0.346-  20 2.91  21 2.91  27 2.93  13 2.94   2 2.94  10 2.94  17 2.94   5 2.94
                             3 2.94  18 2.94  14 2.94  12 2.94
  12  0.778  0.111  0.346-  21 2.92  25 2.93  19 2.93  16 2.94  18 2.94   1 2.94  14 2.94  15 2.94
                             3 2.94   6 2.94  10 2.94  11 2.94
  13  0.111  0.444  0.346-  23 2.91  20 2.91  22 2.93   5 2.94  18 2.94  11 2.94   7 2.94   4 2.94
                            16 2.94  10 2.94  14 2.94  15 2.94
  14  0.444  0.444  0.346-  21 2.91  23 2.91  24 2.93  15 2.94   6 2.94  12 2.94   8 2.94  17 2.94
                             5 2.94  16 2.94  13 2.94  11 2.94
  15  0.778  0.444  0.346-  24 2.92  22 2.92  19 2.93  14 2.94   6 2.94  17 2.94  12 2.94   9 2.94
                             4 2.94  10 2.94  13 2.94  18 2.94
  16  0.111  0.778  0.346-  23 2.92  25 2.93  26 2.93  18 2.94  12 2.94   7 2.94   1 2.94   8 2.94
                            13 2.94  10 2.94  14 2.94  17 2.94
  17  0.444  0.778  0.346-  27 2.92  24 2.92  26 2.93   9 2.94  15 2.94   2 2.94  10 2.94  11 2.94
                             8 2.94  14 2.94  16 2.94  18 2.94
  18  0.778  0.778  0.346-  22 2.92  27 2.92  25 2.93  16 2.94   7 2.94  13 2.94  12 2.94   3 2.94
                            11 2.94   9 2.94  15 2.94  17 2.94
  19  0.889  0.222  0.454-  10 2.93  12 2.93  15 2.93  26 2.94  25 2.94  24 2.94  22 2.94  28 2.94
                            21 2.95  20 2.95  32 2.96  31 2.96
  20  0.223  0.223  0.453-  36 2.69  29 2.91  31 2.91  11 2.91  13 2.91  23 2.91  21 2.91  10 2.92
                            27 2.95  22 2.95  26 2.95  19 2.95
  21  0.554  0.223  0.453-  36 2.69  30 2.91  32 2.91  14 2.91  11 2.91  20 2.91  23 2.91  12 2.92
                            27 2.95  24 2.95  25 2.95  19 2.95
  22  0.887  0.557  0.453-  24 2.91  27 2.91  18 2.92  15 2.92  13 2.93  25 2.94  19 2.94  33 2.94
                            31 2.94  23 2.95  20 2.95  35 2.96
  23  0.223  0.554  0.453-  36 2.69  33 2.91  34 2.91  13 2.91  14 2.91  20 2.91  21 2.91  16 2.92
                            22 2.95  24 2.95  25 2.95  26 2.95
  24  0.557  0.557  0.453-  27 2.91  22 2.91  15 2.92  17 2.92  14 2.93  26 2.94  19 2.94  32 2.94
                            34 2.94  21 2.95  23 2.95  35 2.96
  25  0.889  0.889  0.454-  16 2.93  12 2.93  18 2.93  19 2.94  26 2.94  22 2.94  27 2.94  28 2.94
                            23 2.95  21 2.95  33 2.96  30 2.96
  26  0.222  0.889  0.454-  10 2.93  16 2.93  17 2.93  19 2.94  25 2.94  27 2.94  24 2.94  28 2.94
                            20 2.95  23 2.95  29 2.96  34 2.96
  27  0.557  0.887  0.453-  24 2.91  22 2.91  17 2.92  18 2.92  11 2.93  26 2.94  25 2.94  29 2.94
                            30 2.94  20 2.95  21 2.95  35 2.96
  28  0.000  0.000  0.562-  25 2.94  19 2.94  26 2.94  34 2.98  32 2.98  33 2.98  30 2.98  31 2.98
                            29 2.98
  29  0.334  0.008  0.561-  30 2.86  31 2.87  36 2.88  20 2.91  27 2.94  26 2.96  35 2.98  28 2.98
                            34 3.09
  30  0.658  0.008  0.561-  29 2.86  32 2.87  36 2.88  21 2.91  27 2.94  25 2.96  35 2.98  28 2.98
                            33 3.09
  31  0.008  0.334  0.561-  33 2.86  29 2.87  36 2.88  20 2.91  22 2.94  19 2.96  35 2.98  28 2.98
                            32 3.09
  32  0.658  0.334  0.561-  34 2.86  30 2.87  36 2.88  21 2.91  24 2.94  19 2.96  35 2.98  28 2.98
                            31 3.09
  33  0.008  0.658  0.561-  31 2.86  34 2.87  36 2.88  23 2.91  22 2.94  25 2.96  35 2.98  28 2.98
                            30 3.09
  34  0.334  0.658  0.561-  32 2.86  33 2.87  36 2.88  23 2.91  24 2.94  26 2.96  35 2.98  28 2.98
                            29 3.09
  35  0.667  0.667  0.563-  24 2.96  27 2.96  22 2.96  29 2.98  34 2.98  32 2.98  31 2.98  30 2.98
                            33 2.98
  36  0.333  0.333  0.547-  37 1.73  20 2.69  23 2.69  21 2.69  33 2.88  31 2.88  29 2.88  30 2.88
                            34 2.88  32 2.88
  37  0.333  0.333  0.626-  38 1.17  36 1.73
  38  0.333  0.333  0.678-  37 1.17

  LATTYP: Found a hexagonal cell.
 ALAT       =     8.8135128021
 C/A-ratio  =     2.5184286595

  Lattice vectors:

 A1 = (  -4.4067569092,  -7.6327256898,   0.0000000000)
 A2 = (   8.8135128021,   0.0000000000,   0.0000000000)
 A3 = (   0.0000000000,   0.0000000000,  22.1962032318)

Analysis of symmetry for initial positions (statically):
 Subroutine PRICEL returns:
 Original cell was already a primitive cell.

 Routine SETGRP: Setting up the symmetry group for a
 hexagonal supercell.

 Subroutine GETGRP returns: Found  6 space group operations
 (whereof  6 operations were pure point group operations)
 out of a pool of 24 trial point group operations.

The static configuration has the point symmetry C_3v.

Analysis of symmetry for dynamics (positions and initial velocities):
 Subroutine PRICEL returns:
 Original cell was already a primitive cell.

[...]

The dynamic configuration has the point symmetry C_3v.

Analysis of constrained symmetry for selective dynamics:
 Subroutine PRICEL returns:
[...]
     33      -4.7941      2.00000
     34      -4.7262      2.00000
     35      -4.7124      2.00000
     36      -4.7036      2.00000
     37      -4.7016      2.00000
     38      -4.6785      2.00000
     39      -4.5618      2.00000
     40      -4.5073      2.00000
     41      -4.4993      2.00000
     42      -4.4806      2.00000
     43      -4.4573      2.00000
     44      -4.3993      2.00000
     45      -4.3535      2.00000
     46      -4.3237      2.00000
     47      -4.2557      2.00000
     48      -4.2389      2.00000
     49      -4.2350      2.00000
     50      -4.2270      2.00000
     51      -4.1221      2.00000
     52      -4.1042      2.00000
     53      -4.0721      2.00000
     54      -4.0625      2.00000
     55      -4.0519      2.00000
     56      -4.0471      2.00000
     57      -4.0313      2.00000
     58      -3.9923      2.00000
     59      -3.9552      2.00000
     60      -3.9181      2.00000
[...]
    238       6.1678      0.00000
    239       6.4803      0.00000
    240       6.5007      0.00000
    241       6.5480      0.00000
    242       6.5608      0.00000
    243       6.5745      0.00000
    244       6.6454      0.00000
    245       6.8609      0.00000
    246       6.8689      0.00000
    247       6.8960      0.00000
    248       6.9524      0.00000
    249       7.2327      0.00000
    250       7.2598      0.00000
    251       7.3491      0.00000
    252       7.6307      0.00000

 soft charge-density along one line, spin component           1
         0         1         2         3         4         5         6         7         8         9
 total charge-density along one line

------------------------ aborting loop because EDIFF is reached ----------------------------------------

 total charge

# of ion       s       p       d       tot
    1        0.544   0.238   8.770   9.552
    2        0.545   0.240   8.765   9.551
    3        0.545   0.240   8.765   9.551
    4        0.545   0.240   8.765   9.551
    5        0.544   0.242   8.761   9.546
    6        0.545   0.240   8.765   9.551
    7        0.545   0.240   8.765   9.551
    8        0.545   0.240   8.765   9.551
    9        0.542   0.239   8.771   9.552
   10        0.519   0.308   8.771   9.598
   11        0.523   0.307   8.779   9.609
   12        0.519   0.308   8.771   9.598
   13        0.523   0.307   8.779   9.609
   14        0.523   0.307   8.779   9.609
   15        0.515   0.310   8.774   9.599
   16        0.519   0.308   8.771   9.598
   17        0.515   0.310   8.774   9.599
   18        0.515   0.310   8.774   9.599
   19        0.517   0.302   8.776   9.595
   20        0.544   0.327   8.757   9.629
   21        0.544   0.327   8.757   9.629
   22        0.511   0.312   8.773   9.596
   23        0.544   0.327   8.757   9.629
   24        0.511   0.312   8.773   9.596
   25        0.517   0.302   8.776   9.595
   26        0.517   0.302   8.776   9.595
   27        0.511   0.312   8.773   9.596
   28        0.540   0.224   8.770   9.534
   29        0.543   0.237   8.768   9.548
   30        0.543   0.237   8.768   9.548
   31        0.543   0.237   8.768   9.548
   32        0.543   0.237   8.768   9.548
   33        0.543   0.237   8.768   9.548
   34        0.543   0.237   8.768   9.548
   35        0.538   0.222   8.773   9.533
   36        0.401   0.463   7.400   8.264
   37        0.965   1.554   0.000   2.519
   38        1.614   3.526   0.000   5.140
tot         21.606  15.172 314.332 351.111

  FORCE on cell =-STRESS in cart. coord.  units (eV):
  Direction    XX          YY          ZZ          XY          YZ          ZX
  Alpha Z  1027.32171  1027.32171  1027.32171
  Ewald  119169.72630119169.72676************    -0.00031    -0.00008    -0.00011
  Hartree128180.70699128180.70701************     0.00001    -0.00002    -0.00003
  E(xc)   -1818.58599 -1818.58605 -1823.96303     0.00005    -0.00001    -0.00002
  Local  ************************259301.17833     0.00216     0.00001    -0.00003
  n-local  -110.59660   -62.54358   -69.38543    22.86983    -1.39811     1.51098
  augment  2532.68884  2532.69044  2535.45222    -0.00138     0.00001     0.00005
  Kinetic  5620.24327  5631.15425  5636.50974     5.75133     0.01976     0.44969
  Fock        0.00000     0.00000     0.00000     0.00000     0.00000     0.00000
  Total     -20.46602   -20.46601     2.25568    -0.00000     0.00000    -0.00000
  in kB     -21.96021   -21.96021     2.42036    -0.00000     0.00000    -0.00000

 VOLUME and BASIS-vectors are now :
  energy-cutoff  :      500.00
  volume of cell :     1493.16
      direct lattice vectors                 reciprocal lattice vectors
     8.813512802  0.000000000  0.000000000     0.113462137 -0.065507406  0.000000000
     4.406756909  7.632725690  0.000000000     0.000000000  0.131014796  0.000000000
     0.000000000  0.000000000 22.196203232     0.000000000  0.000000000  0.045052750

  length of vectors
     8.813512802  8.813512802 22.196203232     0.131014796  0.131014796  0.045052750

 FORCES acting on ions
    electron-ion (+dipol)            ewald-force                    non-local-force                 convergence-correction
   -.196E-04 -.162E-04 0.250E+04   0.519E-04 0.434E-04 -.250E+04   0.430E-17 -.110E-17 -.955E+00   -.175E-03 -.113E-03 -.381E+00
   0.579E+00 0.496E+00 0.251E+04   -.695E+00 -.578E+00 -.250E+04   0.528E-01 0.701E-01 -.357E+00   0.625E-01 0.269E-01 -.412E+00
   -.579E+00 0.496E+00 0.251E+04   0.695E+00 -.578E+00 -.250E+04   -.528E-01 0.701E-01 -.357E+00   -.623E-01 0.289E-01 -.411E+00
   0.719E+00 0.253E+00 0.251E+04   -.848E+00 -.313E+00 -.250E+04   0.871E-01 0.106E-01 -.357E+00   0.546E-01 0.407E-01 -.412E+00
   0.911E-05 -.230E-04 0.251E+04   0.951E-04 0.173E-05 -.251E+04   -.164E-18 0.126E-17 -.179E+00   0.427E-02 0.263E-02 -.401E+00
   -.719E+00 0.253E+00 0.251E+04   0.848E+00 -.313E+00 -.250E+04   -.871E-01 0.106E-01 -.357E+00   -.562E-01 0.416E-01 -.411E+00
   0.140E+00 -.749E+00 0.251E+04   -.153E+00 0.891E+00 -.250E+04   0.344E-01 -.807E-01 -.357E+00   -.606E-02 -.684E-01 -.411E+00
   -.140E+00 -.749E+00 0.251E+04   0.153E+00 0.891E+00 -.250E+04   -.344E-01 -.807E-01 -.357E+00   0.795E-02 -.695E-01 -.411E+00
   0.196E-04 -.415E-04 0.251E+04   0.166E-03 -.201E-04 -.250E+04   -.564E-17 -.316E-17 -.637E+00   -.464E-02 -.244E-02 -.416E+00
   0.552E+01 0.318E+01 0.874E+03   -.529E+01 -.305E+01 -.873E+03   -.263E+00 -.152E+00 -.646E+00   0.523E-01 0.304E-01 -.592E-01
   0.153E-04 0.715E+01 0.885E+03   0.147E-03 -.717E+01 -.885E+03   0.363E-08 0.545E-01 -.317E+00   0.365E-02 -.679E-01 -.750E-01
   -.552E+01 0.318E+01 0.874E+03   0.529E+01 -.305E+01 -.873E+03   0.263E+00 -.152E+00 -.646E+00   -.536E-01 0.316E-01 -.602E-01
   0.620E+01 -.358E+01 0.885E+03   -.621E+01 0.359E+01 -.885E+03   0.472E-01 -.272E-01 -.317E+00   -.569E-01 0.374E-01 -.747E-01
   -.620E+01 -.358E+01 0.885E+03   0.621E+01 0.359E+01 -.885E+03   -.472E-01 -.272E-01 -.317E+00   0.645E-01 0.371E-01 -.750E-01
   0.304E-04 0.274E+01 0.876E+03   0.237E-03 -.278E+01 -.876E+03   -.843E-09 -.127E-01 -.556E+00   -.217E-02 0.185E-01 -.629E-01
   -.217E-04 -.637E+01 0.874E+03   0.163E-03 0.611E+01 -.873E+03   0.202E-07 0.304E+00 -.646E+00   0.341E-03 -.623E-01 -.598E-01
   0.238E+01 -.137E+01 0.876E+03   -.241E+01 0.139E+01 -.876E+03   -.110E-01 0.633E-02 -.556E+00   0.152E-01 -.111E-01 -.635E-01
   -.238E+01 -.137E+01 0.876E+03   0.241E+01 0.139E+01 -.876E+03   0.110E-01 0.633E-02 -.556E+00   -.153E-01 -.927E-02 -.639E-01
   -.400E-04 0.324E+01 -.795E+03   0.532E-04 -.332E+01 0.794E+03   0.291E-08 0.437E-01 0.692E+00   0.344E-02 0.539E-01 0.336E+00
   0.392E+02 0.226E+02 -.735E+03   -.384E+02 -.222E+02 0.735E+03   -.971E+00 -.561E+00 -.951E+00   0.174E+00 0.101E+00 0.625E+00
   -.392E+02 0.226E+02 -.735E+03   0.384E+02 -.222E+02 0.735E+03   0.971E+00 -.561E+00 -.951E+00   -.174E+00 0.103E+00 0.625E+00
   0.125E+02 -.722E+01 -.779E+03   -.128E+02 0.741E+01 0.778E+03   0.274E+00 -.158E+00 0.539E+00   0.933E-01 -.598E-01 0.316E+00
   -.121E-04 -.453E+02 -.735E+03   0.144E-03 0.443E+02 0.735E+03   0.747E-07 0.112E+01 -.951E+00   0.168E-02 -.201E+00 0.625E+00
   -.125E+02 -.722E+01 -.779E+03   0.128E+02 0.741E+01 0.778E+03   -.274E+00 -.158E+00 0.539E+00   -.100E+00 -.586E-01 0.316E+00
   -.280E+01 -.162E+01 -.795E+03   0.287E+01 0.166E+01 0.794E+03   -.378E-01 -.218E-01 0.692E+00   -.395E-01 -.236E-01 0.336E+00
   0.280E+01 -.162E+01 -.795E+03   -.287E+01 0.166E+01 0.794E+03   0.378E-01 -.218E-01 0.692E+00   0.414E-01 -.243E-01 0.336E+00
   0.117E-04 0.144E+02 -.779E+03   0.196E-03 -.148E+02 0.778E+03   0.210E-07 0.316E+00 0.539E+00   -.451E-02 0.110E+00 0.316E+00
   -.142E-04 -.148E-04 -.244E+04   0.308E-04 0.360E-04 0.244E+04   0.116E-17 -.810E-18 0.652E+00   0.333E-03 -.288E-04 0.567E+00
   0.457E+02 0.766E+02 -.241E+04   -.456E+02 -.765E+02 0.241E+04   -.356E+00 -.538E+00 0.727E+00   0.159E+00 0.262E+00 0.550E+00
   -.457E+02 0.766E+02 -.241E+04   0.456E+02 -.765E+02 0.241E+04   0.356E+00 -.538E+00 0.727E+00   -.159E+00 0.264E+00 0.551E+00
   0.892E+02 0.123E+01 -.241E+04   -.891E+02 -.118E+01 0.241E+04   -.644E+00 -.393E-01 0.727E+00   0.306E+00 0.727E-02 0.550E+00
   -.892E+02 0.123E+01 -.241E+04   0.891E+02 -.118E+01 0.241E+04   0.644E+00 -.393E-01 0.727E+00   -.307E+00 0.866E-02 0.550E+00
   0.435E+02 -.779E+02 -.241E+04   -.435E+02 0.777E+02 0.241E+04   -.288E+00 0.577E+00 0.727E+00   0.149E+00 -.270E+00 0.551E+00
   -.435E+02 -.779E+02 -.241E+04   0.435E+02 0.777E+02 0.241E+04   0.288E+00 0.577E+00 0.727E+00   -.147E+00 -.271E+00 0.550E+00
   0.348E-04 -.263E-04 -.245E+04   0.141E-03 -.515E-04 0.244E+04   -.656E-18 0.511E-18 0.624E+00   -.475E-02 -.273E-02 0.561E+00
   -.239E-04 -.661E-05 -.168E+04   0.951E-04 0.891E-05 0.168E+04   -.442E-17 -.464E-18 -.741E+00   0.630E-02 0.398E-02 0.589E+00
   -.372E-05 -.824E-04 -.901E+03   0.169E-04 0.111E-05 0.885E+03   -.898E-19 -.153E-18 0.162E+02   0.130E-02 0.816E-03 -.148E+00
   0.241E-03 -.910E-04 -.158E+04   0.663E-05 0.636E-06 0.164E+04   -.108E-20 0.219E-19 -.593E+02   0.376E-02 0.231E-02 -.215E+00
   -.512E-03 -.933E-03 0.421E+02   -.284E-13 -.276E-14 -.273E-11   -.517E-17 -.850E-19 -.459E+02   0.109E-01 0.101E-01 0.422E+01

 POSITION                                       TOTAL-FORCE (eV/Angst)
      0.00000      0.00000      5.28038        -0.000000      0.000000     -0.098169
      2.93784      0.00000      5.28038        -0.000270      0.016234     -0.036326
      5.87568      0.00000      5.28038         0.000270      0.016234     -0.036326
      1.46892      2.54424      5.28038         0.013924     -0.008351     -0.036326
      4.40676      2.54424      5.28038        -0.000000      0.000000     -0.050042
      7.34459      2.54424      5.28038        -0.013924     -0.008351     -0.036326
      2.93784      5.08848      5.28038         0.014194     -0.007883     -0.036326
      5.87568      5.08848      5.28038        -0.014194     -0.007883     -0.036326
      8.81351      5.08848      5.28038        -0.000000      0.000000     -0.046229
      1.46892      0.84808      7.67911         0.014731      0.008505      0.108057
      4.40676      0.84808      7.67911        -0.000000     -0.031137      0.026592
      7.34459      0.84808      7.67911        -0.014731      0.008505      0.108057
      2.93784      3.39232      7.67911        -0.026965      0.015568      0.026592
      5.87568      3.39232      7.67911         0.026965      0.015568      0.026592
      8.81351      3.39232      7.67911        -0.000000     -0.030709      0.078543
      4.40676      5.93656      7.67911        -0.000000     -0.017010      0.108057
      7.34459      5.93656      7.67911        -0.026595      0.015354      0.078543
     10.28243      5.93656      7.67911         0.026595      0.015354      0.078543
      8.81351      1.69524     10.07173         0.000000      0.010487      0.017991
      2.95099      1.70376     10.05075         0.012677      0.007319     -0.148347
      5.86252      1.70376     10.05075        -0.012677      0.007319     -0.148347
     10.26977      4.24772     10.05674         0.038010     -0.021945      0.001517
      4.40676      4.22522     10.05075        -0.000000     -0.014638     -0.148347
      7.35726      4.24772     10.05674        -0.038010     -0.021945      0.001517
     11.75215      6.78511     10.07173        -0.009082     -0.005244      0.017991
      5.87488      6.78511     10.07173         0.009082     -0.005244      0.017991
      8.81351      6.77002     10.05674         0.000000      0.043890      0.001517
      0.00000      0.00000     12.47665        -0.000000      0.000000     -0.025071
      2.97645      0.06424     12.45579        -0.079636     -0.177731     -0.091281
      5.83706      0.06424     12.45579         0.079636     -0.177731     -0.091281
      1.54386      2.54556     12.45579        -0.193737      0.019899     -0.091281
      7.26966      2.54556     12.45579         0.193737      0.019899     -0.091281
      2.97417      5.02293     12.45579        -0.114102      0.157832     -0.091281
      5.83935      5.02293     12.45579         0.114102      0.157832     -0.091281
      8.81351      5.08848     12.49078        -0.000000      0.000000     -0.022671
      4.40676      2.54424     12.15093        -0.000000      0.000000      0.719235
      4.40676      2.54424     13.88568        -0.000000      0.000000      0.074514
      4.40676      2.54424     15.05263        -0.000000      0.000000     -0.038984
    total drift:                                0.010436      0.009153      0.430161

  FREE ENERGIE OF THE ION-ELECTRON SYSTEM (eV)
  free  energy   TOTEN  =      -128.89803122 eV

  energy  without entropy=     -128.89803122  energy(sigma->0) =     -128.89803122

 stress matrix after NEB project (eV)
    -20.46602     -0.00000     -0.00000
     -0.00000    -20.46601      0.00000
      0.00000      0.00000      2.25568
  FORCES: max atom, RMS     0.074514    0.013642
  FORCE total and by dimension    0.084096    0.074514
  Stress total and by dimension   29.031081   20.466016
|           W    W    AA    RRRRR   N    N  II  N    N   GGGG   !!!           |
|           W    W   A  A   R    R  NN   N  II  NN   N  G    G  !!!           |
|           W    W  A    A  R    R  N N  N  II  N N  N  G       !!!           |
|           W WW W  AAAAAA  RRRRR   N  N N  II  N  N N  G  GGG   !            |
|           WW  WW  A    A  R   R   N   NN  II  N   NN  G    G                |
|           W    W  A    A  R    R  N    N  II  N    N   GGGG   !!!           |
|     Tetrahedron method does not include variations of the Fermi             |
|     occupations, so forces and stress will be inaccurate. We suggest        |
|     using a different smearing scheme ISMEAR = 1 or 2 for metals in         |
|     relaxations.                                                            |

 total charge

# of ion       s       p       d       tot
    1        0.544   0.238   8.770   9.552
    2        0.545   0.240   8.765   9.551
    3        0.545   0.240   8.765   9.551
    4        0.545   0.240   8.765   9.551
    5        0.544   0.242   8.761   9.546
    6        0.545   0.240   8.765   9.551
    7        0.545   0.240   8.765   9.551
    8        0.545   0.240   8.765   9.551
    9        0.542   0.239   8.771   9.552
   10        0.519   0.308   8.771   9.598
   11        0.523   0.307   8.779   9.609
   12        0.519   0.308   8.771   9.598
   13        0.523   0.307   8.779   9.609
   14        0.523   0.307   8.779   9.609
   15        0.515   0.310   8.774   9.599
   16        0.519   0.308   8.771   9.598
   17        0.515   0.310   8.774   9.599
   18        0.515   0.310   8.774   9.599
   19        0.517   0.302   8.776   9.595
   20        0.544   0.327   8.757   9.629
   21        0.544   0.327   8.757   9.629
   22        0.511   0.312   8.773   9.596
   23        0.544   0.327   8.757   9.629
   24        0.511   0.312   8.773   9.596
   25        0.517   0.302   8.776   9.595
   26        0.517   0.302   8.776   9.595
   27        0.511   0.312   8.773   9.596
   28        0.540   0.224   8.770   9.534
   29        0.543   0.237   8.768   9.548
   30        0.543   0.237   8.768   9.548
   31        0.543   0.237   8.768   9.548
   32        0.543   0.237   8.768   9.548
   33        0.543   0.237   8.768   9.548
   34        0.543   0.237   8.768   9.548
   35        0.538   0.222   8.773   9.533
   36        0.401   0.463   7.400   8.264
   37        0.965   1.554   0.000   2.519
   38        1.614   3.526   0.000   5.140
tot         21.606  15.172 314.332 351.111

 BZINTS: Fermi energy:    0.710113;  404.000000 electrons
         Band energy:-0.125037E+04;  BLOECHL correction:   -0.071476