 vasp.6.2.0 18Jan21 (build Jun 12 2021 23:27:24) complex

 executed on             LinuxIFC date 2022.05.27  05:42:46

 INCAR:
   ISMEAR = -5
   SIGMA = 0.1
   ISPIN = 1
   EDIFF = 1.d-5
   EDIFFG = -0.01
   NSW = 0
   NELM = 150
   ENCUT = 500
   ISIF = 2
   IBRION = 2
   LREAL = Auto
   ALGO = Fast
   ICHARG = 11
   LORBIT = 10
   LCHARG = .F.
   LWAVE = .F.

 POTCAR:    PAW_PBE Ag 02Apr2005
 POTCAR:    PAW_PBE Ru 04Feb2005
 POTCAR:    PAW_PBE N 08Apr2002
|           W    W    AA    RRRRR   N    N  II  N    N   GGGG   !!!           |
|           W    W   A  A   R    R  NN   N  II  NN   N  G    G  !!!           |
|           W    W  A    A  R    R  N N  N  II  N N  N  G       !!!           |
|           W WW W  AAAAAA  RRRRR   N  N N  II  N  N N  G  GGG   !            |
|           WW  WW  A    A  R   R   N   NN  II  N   NN  G    G                |
|           W    W  A    A  R    R  N    N  II  N    N   GGGG   !!!           |
|     For optimal performance we recommend to set                             |
|       NCORE = 2 up to number-of-cores-per-socket                            |
|     This setting can greatly improve the performance of VASP for DFT.       |
|     The default, NCORE=1 might be grossly inefficient on modern             |
|     multi-core architectures or massively parallel machines. Do your        |
|     Unfortunately you need to use the default for GW and RPA                |
|     calculations (for HF NCORE is supported but not extensively tested      |
|     yet).                                                                   |

 POTCAR:    PAW_PBE Ag 02Apr2005
   VRHFIN =Ag : s1 d10

   TITEL  = PAW_PBE Ag 02Apr2005
   POMASS =  107.868; ZVAL   =   11.000    mass and valenz
   ENMAX  =  249.844; ENMIN  =  187.383 eV

 POTCAR:    PAW_PBE Ru 04Feb2005
   VRHFIN =Ru: s1 d7

   TITEL  = PAW_PBE Ru 04Feb2005
   POMASS =  101.070; ZVAL   =    8.000    mass and valenz
   ENMAX  =  213.271; ENMIN  =  159.953 eV

 POTCAR:    PAW_PBE N 08Apr2002
   VRHFIN =N: s2p3

   TITEL  = PAW_PBE N 08Apr2002
   POMASS =   14.001; ZVAL   =    5.000    mass and valenz
   ENMAX  =  400.000; ENMIN  =  300.000 eV

 Optimization of the real space projectors (new method)

 maximal supplied QI-value         = 15.12
 optimisation between [QCUT,QGAM] = [ 11.34, 22.83] = [ 36.00,145.93] Ry
 Optimized for a Real-space Cutoff    1.43 Angstroem

   l    n(q)    QCUT    max X(q) W(low)/X(q) W(high)/X(q)  e(spline)
   2      9    11.338    53.897    0.16E-03    0.20E-03    0.28E-06
   2      9    11.338    52.416    0.16E-03    0.20E-03    0.29E-06
   0     10    11.338   122.045    0.31E-04    0.76E-04    0.15E-06
   0     10    11.338    73.629    0.30E-04    0.72E-04    0.15E-06
   1      9    11.338    15.255    0.20E-03    0.19E-04    0.17E-06
   1      9    11.338     9.562    0.16E-03    0.15E-04    0.14E-06
 Optimization of the real space projectors (new method)

[...]

   l    n(q)    QCUT    max X(q) W(low)/X(q) W(high)/X(q)  e(spline)
   2      9    11.327    61.733    0.26E-03    0.14E-03    0.16E-06
   2      9    11.327    59.886    0.26E-03    0.14E-03    0.17E-06
   0     10    11.327    23.358    0.19E-03    0.14E-04    0.46E-06
   0     10    11.327    11.320    0.15E-03    0.11E-04    0.37E-06
   1     10    11.327    14.765    0.49E-04    0.26E-03    0.24E-06
   1     10    11.327     8.283    0.37E-04    0.20E-03    0.18E-06
 Optimization of the real space projectors (new method)

 maximal supplied QI-value         = 25.13
 optimisation between [QCUT,QGAM] = [ 11.31, 22.87] = [ 35.82,146.48] Ry
 Optimized for a Real-space Cutoff    1.27 Angstroem

   l    n(q)    QCUT    max X(q) W(low)/X(q) W(high)/X(q)  e(spline)
   0      9    11.310    79.467    0.75E-04    0.16E-03    0.36E-06
   0      9    11.310    66.151    0.74E-04    0.16E-03    0.36E-06
   1      8    11.310    17.416    0.35E-03    0.12E-03    0.95E-06
   1      8    11.310    12.382    0.37E-03    0.13E-03    0.98E-06
  PAW_PBE Ag 02Apr2005                  :
  PAW_PBE Ru 04Feb2005                  :
  PAW_PBE N 08Apr2002                   :

 POSCAR: Ag-Ru-N2
  positions in direct lattice
  velocities in cartesian coordinates
 exchange correlation table for  LEXCH =        8
   RHO(1)=    0.500       N(1)  =     2000
   RHO(2)=  100.500       N(2)  =     4000

 VTST: version 3.2, (02/03/18)

 CHAIN: initializing optimizer

 OPT: Using VASP Conjugate-Gradient optimizer
 CHAIN: Read ICHAIN            0

 POSCAR: Ag-Ru-N2
  positions in direct lattice
  velocities in cartesian coordinates

 ion  position               nearest neighbor table
   1  0.000  0.000  0.218-   2 2.93   8 2.93   7 2.93   6 2.93   4 2.93  12 2.93  16 2.93  10 2.93
                             3 2.93
   2  0.333  0.000  0.218-   1 2.93   8 2.93   9 2.93   3 2.93   4 2.93   5 2.93  10 2.93  17 2.93
                            11 2.93
   3  0.667  0.000  0.218-   9 2.93   2 2.93   5 2.93  11 2.93   7 2.93  18 2.93   1 2.93   6 2.93
                            12 2.93
   4  0.000  0.333  0.218-   5 2.93   6 2.93   2 2.93   1 2.93   7 2.93  13 2.93  15 2.93   9 2.93
                            10 2.93
   5  0.333  0.333  0.218-   4 2.93   3 2.93   7 2.93   2 2.93   8 2.93  14 2.93  13 2.93  11 2.93
                             6 2.93
   6  0.667  0.333  0.218-   4 2.93   9 2.93   1 2.93  15 2.93   8 2.93  12 2.93   3 2.93   5 2.93
                            14 2.93
   7  0.000  0.667  0.218-   8 2.93   1 2.93   5 2.93   3 2.93   4 2.93  16 2.93  18 2.93  13 2.93
                             9 2.93
   8  0.333  0.667  0.218-   7 2.93   1 2.93   2 2.93   9 2.93   5 2.93  16 2.93   6 2.93  17 2.93
                            14 2.93
   9  0.667  0.667  0.218-   3 2.93   2 2.93   8 2.93   6 2.93  17 2.93   4 2.93  15 2.93   7 2.93
                            18 2.93
  10  0.111  0.111  0.317-  20 2.90  19 2.93  26 2.93  12 2.93  16 2.93  15 2.93  17 2.93  13 2.93
                            11 2.93   2 2.93   1 2.93   4 2.93
  11  0.444  0.111  0.317-  21 2.90  20 2.90  27 2.92  14 2.93  17 2.93  18 2.93   3 2.93  12 2.93
                            13 2.93  10 2.93   5 2.93   2 2.93
  12  0.778  0.111  0.317-  21 2.90  25 2.93  19 2.93  10 2.93  16 2.93  18 2.93  15 2.93  11 2.93
                             1 2.93  14 2.93   6 2.93   3 2.93
  13  0.111  0.444  0.317-  20 2.90  23 2.90  22 2.92  15 2.93  14 2.93  18 2.93  10 2.93  11 2.93
                            16 2.93   4 2.93   5 2.93   7 2.93
  14  0.444  0.444  0.317-  23 2.90  21 2.90  24 2.92  13 2.93  11 2.93  16 2.93   5 2.93  12 2.93
                            17 2.93   8 2.93  15 2.93   6 2.93
  15  0.778  0.444  0.317-  24 2.92  22 2.92  19 2.93  13 2.93  10 2.93  12 2.93  17 2.93  18 2.93
                             4 2.93   6 2.93   9 2.93  14 2.93
  16  0.111  0.778  0.317-  23 2.90  26 2.93  25 2.93  18 2.93  12 2.93  10 2.93  14 2.93  17 2.93
                            13 2.93   7 2.93   8 2.93   1 2.93
  17  0.444  0.778  0.317-  27 2.92  24 2.92  26 2.93  11 2.93  10 2.93   9 2.93  18 2.93  15 2.93
                            16 2.93   2 2.93  14 2.93   8 2.93
  18  0.778  0.778  0.317-  22 2.92  27 2.92  25 2.93  16 2.93  12 2.93  13 2.93  11 2.93  17 2.93
                            15 2.93   7 2.93   3 2.93   9 2.93
  19  0.889  0.223  0.415-  28 2.91  15 2.93  10 2.93  12 2.93  24 2.93  22 2.93  26 2.93  25 2.93
                            20 2.94  21 2.94  32 2.94  31 2.94
  20  0.223  0.223  0.414-  36 2.77  13 2.90  11 2.90  10 2.90  21 2.92  23 2.92  31 2.92  29 2.92
                            27 2.93  22 2.93  19 2.94  26 2.94
  21  0.555  0.223  0.414-  36 2.77  11 2.90  14 2.90  12 2.90  20 2.92  23 2.92  30 2.92  32 2.92
                            27 2.93  24 2.93  25 2.94  19 2.94
  22  0.888  0.556  0.415-  35 2.91  18 2.92  15 2.92  13 2.92  33 2.92  31 2.92  24 2.92  27 2.92
                            25 2.93  19 2.93  23 2.93  20 2.93
  23  0.223  0.555  0.414-  36 2.77  14 2.90  13 2.90  16 2.90  21 2.92  20 2.92  34 2.92  33 2.92
                            22 2.93  24 2.93  26 2.94  25 2.94
  24  0.556  0.556  0.415-  35 2.91  15 2.92  17 2.92  14 2.92  32 2.92  34 2.92  27 2.92  22 2.92
                            19 2.93  26 2.93  23 2.93  21 2.93
  25  0.889  0.889  0.415-  28 2.91  18 2.93  16 2.93  12 2.93  22 2.93  27 2.93  26 2.93  19 2.93
                            23 2.94  21 2.94  33 2.94  30 2.94
  26  0.223  0.889  0.415-  28 2.91  17 2.93  16 2.93  10 2.93  27 2.93  24 2.93  25 2.93  19 2.93
                            23 2.94  20 2.94  34 2.94  29 2.94
  27  0.556  0.888  0.415-  35 2.91  17 2.92  18 2.92  11 2.92  29 2.92  30 2.92  24 2.92  22 2.92
                            26 2.93  25 2.93  20 2.93  21 2.93
  28  0.000  0.000  0.513-  26 2.91  25 2.91  19 2.91  29 2.95  34 2.95  33 2.95  32 2.95  31 2.95
                            30 2.95
  29  0.333  0.006  0.513-  31 2.88  30 2.88  36 2.89  20 2.92  27 2.92  26 2.94  28 2.95  35 2.96
                            34 3.03
  30  0.661  0.006  0.513-  32 2.88  29 2.88  36 2.89  21 2.92  27 2.92  25 2.94  28 2.95  35 2.96
                            33 3.03
  31  0.006  0.333  0.513-  29 2.88  33 2.88  36 2.89  20 2.92  22 2.92  19 2.94  28 2.95  35 2.96
                            32 3.03
  32  0.661  0.333  0.513-  30 2.88  34 2.88  36 2.89  21 2.92  24 2.92  19 2.94  28 2.95  35 2.96
                            31 3.03
  33  0.006  0.661  0.513-  34 2.88  31 2.88  36 2.89  23 2.92  22 2.92  25 2.94  28 2.95  35 2.96
                            30 3.03
  34  0.333  0.661  0.513-  33 2.88  32 2.88  36 2.89  23 2.92  24 2.92  26 2.94  28 2.95  35 2.96
                            29 3.03
  35  0.667  0.667  0.513-  24 2.91  27 2.91  22 2.91  30 2.96  32 2.96  29 2.96  34 2.96  31 2.96
                            33 2.96
  36  0.333  0.333  0.505-  38 2.24  37 2.24  21 2.77  20 2.77  23 2.77  31 2.89  30 2.89  33 2.89
                            29 2.89  34 2.89  32 2.89
  37  0.270  0.329  0.594-  38 1.16  36 2.24
  38  0.401  0.329  0.594-  37 1.16  36 2.24

  LATTYP: Found a hexagonal cell.
 ALAT       =     8.7913665772
 C/A-ratio  =     2.7558620758

  Lattice vectors:

 A1 = (  -4.3956832886,  -7.6135467898,   0.0000000000)
 A2 = (   8.7913665771,   0.0000000000,   0.0000000000)
 A3 = (   0.0000000000,   0.0000000000,  24.2277937442)

Analysis of symmetry for initial positions (statically):
 Subroutine PRICEL returns:
 Original cell was already a primitive cell.

 Routine SETGRP: Setting up the symmetry group for a
 hexagonal supercell.

 Subroutine GETGRP returns: Found  2 space group operations
 (whereof  2 operations were pure point group operations)
 out of a pool of 24 trial point group operations.

The static configuration has the point symmetry C_1h.

Analysis of symmetry for dynamics (positions and initial velocities):
 Subroutine PRICEL returns:
 Original cell was already a primitive cell.

[...]

The dynamic configuration has the point symmetry C_1h.

Analysis of constrained symmetry for selective dynamics:
 Subroutine PRICEL returns:
 Original cell was already a primitive cell.

 Routine SETGRP: Setting up the symmetry group for a
 hexagonal supercell.

[...]
     33      -4.8942      2.00000
     34      -4.8681      2.00000
     35      -4.8654      2.00000
     36      -4.8534      2.00000
     37      -4.8207      2.00000
     38      -4.7659      2.00000
     39      -4.7392      2.00000
     40      -4.7268      2.00000
     41      -4.7137      2.00000
     42      -4.6799      2.00000
     43      -4.6681      2.00000
     44      -4.6563      2.00000
     45      -4.6448      2.00000
     46      -4.6349      2.00000
     47      -4.6204      2.00000
     48      -4.5459      2.00000
     49      -4.5195      2.00000
     50      -4.5148      2.00000
     51      -4.4984      2.00000
     52      -4.4963      2.00000
     53      -4.4920      2.00000
     54      -4.4787      2.00000
     55      -4.4713      2.00000
     56      -4.4558      2.00000
     57      -4.4540      2.00000
     58      -4.3843      2.00000
     59      -4.3758      2.00000
     60      -4.3671      2.00000
[...]
    242       6.0210      0.00000
    243       6.0861      0.00000
    244       6.5166      0.00000
    245       6.5216      0.00000
    246       6.6575      0.00000
    247       6.7249      0.00000
    248       6.8381      0.00000
    249       6.8993      0.00000
    250       6.9016      0.00000
    251       6.9744      0.00000
    252       7.0184      0.00000
    253       7.2098      0.00000
    254       7.2809      0.00000
    255       7.4135      0.00000
    256       7.5035      0.00000

 soft charge-density along one line, spin component           1
         0         1         2         3         4         5         6         7         8         9
 total charge-density along one line

------------------------ aborting loop because EDIFF is reached ----------------------------------------

 total charge

# of ion       s       p       d       tot
    1        0.416   0.202   9.178   9.796
    2        0.417   0.203   9.177   9.798
    3        0.417   0.203   9.177   9.798
    4        0.418   0.203   9.177   9.798
    5        0.417   0.204   9.175   9.797
    6        0.418   0.203   9.177   9.798
    7        0.418   0.203   9.177   9.798
    8        0.418   0.203   9.177   9.798
    9        0.413   0.203   9.180   9.795
   10        0.406   0.269   9.164   9.839
   11        0.410   0.267   9.169   9.846
   12        0.406   0.269   9.164   9.839
   13        0.410   0.267   9.169   9.845
   14        0.410   0.267   9.169   9.845
   15        0.402   0.270   9.166   9.837
   16        0.407   0.269   9.163   9.840
   17        0.401   0.271   9.165   9.837
   18        0.401   0.271   9.165   9.837
   19        0.400   0.267   9.167   9.834
   20        0.426   0.292   9.150   9.868
   21        0.426   0.292   9.150   9.868
   22        0.395   0.274   9.167   9.836
   23        0.427   0.296   9.146   9.868
   24        0.395   0.274   9.167   9.836
   25        0.404   0.266   9.166   9.836
   26        0.404   0.266   9.166   9.836
   27        0.395   0.273   9.168   9.836
   28        0.416   0.197   9.180   9.793
   29        0.418   0.210   9.176   9.804
   30        0.418   0.210   9.176   9.804
   31        0.411   0.210   9.178   9.799
   32        0.411   0.210   9.178   9.799
   33        0.418   0.210   9.175   9.804
   34        0.418   0.210   9.175   9.804
   35        0.406   0.200   9.181   9.788
   36        0.430   0.411   6.648   7.489
   37        1.349   2.452   0.000   3.800
   38        1.349   2.452   0.000   3.800
tot         17.526  13.712 327.606 358.844

  FORCE on cell =-STRESS in cart. coord.  units (eV):
  Direction    XX          YY          ZZ          XY          YZ          ZX
  Alpha Z   697.53295   697.53295   697.53295
  Ewald  151462.18355151143.79583************     0.00004     0.58201     0.00006
  Hartree161440.03773161322.40667************     0.00002     1.18381     0.00002
  E(xc)   -2108.59342 -2109.79938 -2114.44367     0.00007    -0.02299    -0.00000
  Local  ************************323879.02985     0.00082    -2.04059    -0.00017
  n-local  -341.97936  -330.81397  -339.76325     2.73799     0.16802     0.16529
  augment  3268.18324  3267.67448  3276.69897    -0.00017     0.01598     0.00002
  Kinetic  5043.31126  5058.03147  5081.20508     1.54635     0.28237    -0.02833
  Fock        0.00000     0.00000     0.00000     0.00000     0.00000     0.00000
  Total      -7.54754    -7.66643    -0.15454    -0.00000     0.16862     0.00000
  in kB      -7.45691    -7.57437    -0.15268    -0.00000     0.16659     0.00000

 VOLUME and BASIS-vectors are now :
  energy-cutoff  :      500.00
  volume of cell :     1621.65
      direct lattice vectors                 reciprocal lattice vectors
     8.791366577  0.000000000  0.000000000     0.113747958 -0.065672414  0.000000000
     4.395683289  7.613546790  0.000000000     0.000000000  0.131344829  0.000000000
     0.000000000  0.000000000 24.227793744     0.000000000  0.000000000  0.041274910

  length of vectors
     8.791366577  8.791366577 24.227793744     0.131344829  0.131344829  0.041274910

 FORCES acting on ions
    electron-ion (+dipol)            ewald-force                    non-local-force                 convergence-correction
   0.461E-04 -.154E-01 0.269E+04   -.954E-04 -.149E-01 -.269E+04   0.190E-12 0.290E-01 -.236E+01   -.106E-03 -.420E-02 -.146E+00
   0.394E+00 0.495E+00 0.269E+04   -.418E+00 -.538E+00 -.269E+04   0.473E-01 0.696E-01 -.157E+01   -.161E-01 -.119E-01 -.152E+00
   -.394E+00 0.495E+00 0.269E+04   0.418E+00 -.538E+00 -.269E+04   -.473E-01 0.696E-01 -.157E+01   0.155E-01 -.999E-02 -.151E+00
   0.588E+00 0.569E-01 0.269E+04   -.662E+00 -.938E-01 -.269E+04   0.101E+00 0.126E-01 -.159E+01   -.834E-02 0.207E-01 -.123E+00
   -.732E-05 -.378E-01 0.269E+04   0.981E-04 0.656E-02 -.269E+04   0.141E-12 0.215E-01 -.139E+01   0.624E-02 0.883E-02 -.728E-01
   -.588E+00 0.569E-01 0.269E+04   0.662E+00 -.939E-01 -.269E+04   -.101E+00 0.126E-01 -.159E+01   0.694E-02 0.217E-01 -.122E+00
   0.250E+00 -.544E+00 0.269E+04   -.244E+00 0.632E+00 -.269E+04   0.324E-01 -.983E-01 -.154E+01   -.224E-01 -.290E-03 -.131E+00
   -.250E+00 -.544E+00 0.269E+04   0.244E+00 0.632E+00 -.269E+04   -.324E-01 -.983E-01 -.154E+01   0.240E-01 -.129E-02 -.131E+00
   0.362E-04 0.385E-01 0.269E+04   0.792E-04 0.849E-02 -.269E+04   -.123E-12 -.187E-01 -.208E+01   -.666E-02 -.258E-01 -.196E+00
   0.490E+01 0.285E+01 0.935E+03   -.445E+01 -.265E+01 -.934E+03   -.434E+00 -.221E+00 -.811E+00   -.393E-02 0.291E-01 0.112E+00
   -.300E-04 0.530E+01 0.941E+03   0.413E-04 -.555E+01 -.941E+03   0.121E-11 0.184E+00 -.345E+00   0.629E-02 0.121E-01 0.133E+00
   -.490E+01 0.285E+01 0.935E+03   0.445E+01 -.265E+01 -.934E+03   0.434E+00 -.221E+00 -.811E+00   0.235E-02 0.302E-01 0.111E+00
   0.459E+01 -.272E+01 0.941E+03   -.473E+01 0.283E+01 -.941E+03   0.128E+00 -.115E+00 -.357E+00   -.231E-01 0.327E-01 0.118E+00
   -.459E+01 -.272E+01 0.941E+03   0.473E+01 0.283E+01 -.941E+03   -.128E+00 -.115E+00 -.357E+00   0.337E-01 0.318E-01 0.117E+00
   0.162E-04 0.478E+00 0.935E+03   -.108E-03 -.565E+00 -.934E+03   0.399E-12 0.608E-01 -.797E+00   -.165E-02 0.286E-02 0.822E-01
   -.784E-05 -.565E+01 0.935E+03   0.206E-04 0.512E+01 -.934E+03   0.358E-11 0.546E+00 -.864E+00   0.121E-03 -.419E-01 0.868E-01
   0.520E+00 -.211E+00 0.935E+03   -.571E+00 0.321E+00 -.934E+03   0.378E-01 -.534E-01 -.732E+00   -.681E-02 -.446E-01 0.706E-01
   -.520E+00 -.211E+00 0.935E+03   0.571E+00 0.321E+00 -.934E+03   -.378E-01 -.534E-01 -.732E+00   0.680E-02 -.427E-01 0.712E-01
   0.405E-04 0.117E+01 -.847E+03   -.128E-03 -.130E+01 0.846E+03   0.928E-12 0.141E+00 0.811E+00   -.413E-03 -.918E-02 0.348E+00
   0.131E+02 0.786E+01 -.813E+03   -.118E+02 -.713E+01 0.813E+03   -.137E+01 -.813E+00 -.124E+01   0.113E+00 0.569E-01 0.523E+00
   -.131E+02 0.786E+01 -.813E+03   0.118E+02 -.713E+01 0.813E+03   0.137E+01 -.813E+00 -.124E+01   -.113E+00 0.572E-01 0.522E+00
   0.502E+01 -.350E+01 -.838E+03   -.526E+01 0.374E+01 0.837E+03   0.261E+00 -.208E+00 0.552E+00   0.176E-01 -.461E-01 0.340E+00
   -.566E-04 -.160E+02 -.814E+03   0.432E-04 0.145E+02 0.815E+03   0.113E-10 0.173E+01 -.142E+01   0.652E-03 -.162E+00 0.518E+00
   -.502E+01 -.350E+01 -.838E+03   0.526E+01 0.374E+01 0.837E+03   -.261E+00 -.208E+00 0.552E+00   -.175E-01 -.463E-01 0.340E+00
   -.963E+00 -.722E-01 -.848E+03   0.997E+00 0.313E-01 0.847E+03   -.502E-01 -.581E-02 0.737E+00   0.666E-02 0.422E-01 0.382E+00
   0.963E+00 -.722E-01 -.848E+03   -.997E+00 0.312E-01 0.847E+03   0.502E-01 -.581E-02 0.737E+00   -.668E-02 0.416E-01 0.382E+00
   0.195E-04 0.601E+01 -.838E+03   0.110E-03 -.646E+01 0.837E+03   0.279E-11 0.425E+00 0.583E+00   -.394E-03 0.592E-01 0.381E+00
   0.541E-04 0.316E+01 -.260E+04   -.117E-03 -.313E+01 0.260E+04   -.180E-12 -.274E-01 0.193E+01   0.322E-04 -.175E-01 0.160E+00
   0.275E+02 0.539E+02 -.258E+04   -.270E+02 -.536E+02 0.258E+04   -.667E+00 -.658E+00 0.198E+01   0.731E-01 0.167E+00 0.134E+00
   -.275E+02 0.539E+02 -.258E+04   0.270E+02 -.536E+02 0.258E+04   0.667E+00 -.658E+00 0.198E+01   -.737E-01 0.168E+00 0.134E+00
   0.626E+02 -.112E+01 -.257E+04   -.623E+02 0.133E+01 0.257E+04   -.714E+00 -.158E+00 0.254E+01   0.220E+00 -.363E-01 0.105E+00
   -.626E+02 -.112E+01 -.257E+04   0.623E+02 0.133E+01 0.257E+04   0.714E+00 -.158E+00 0.254E+01   -.221E+00 -.355E-01 0.105E+00
   0.257E+02 -.515E+02 -.258E+04   -.254E+02 0.509E+02 0.258E+04   -.443E+00 0.848E+00 0.193E+01   0.110E+00 -.131E+00 0.139E+00
   -.257E+02 -.515E+02 -.258E+04   0.254E+02 0.509E+02 0.258E+04   0.443E+00 0.848E+00 0.193E+01   -.108E+00 -.132E+00 0.139E+00
   0.212E-04 -.204E+01 -.260E+04   0.107E-03 0.199E+01 0.260E+04   0.261E-12 0.398E-01 0.209E+01   -.658E-02 0.292E-01 0.151E+00
   -.132E-04 -.314E+01 -.165E+04   0.767E-04 0.315E+01 0.165E+04   0.577E-12 0.879E-01 0.174E+01   0.205E-02 -.923E-02 0.911E-01
   0.220E+03 -.352E+00 -.140E+04   -.261E+03 0.297E+00 0.140E+04   0.411E+02 0.555E-01 -.765E+01   0.493E-01 -.193E-02 -.956E-01
   -.220E+03 -.352E+00 -.140E+04   0.261E+03 0.297E+00 0.140E+04   -.411E+02 0.555E-01 -.765E+01   -.469E-01 -.188E-02 -.959E-01
   0.507E-03 -.528E+00 0.131E+02   -.568E-13 0.310E-12 -.136E-11   0.346E-11 0.528E+00 -.176E+02   0.106E-01 0.307E-03 0.438E+01

 POSITION                                       TOTAL-FORCE (eV/Angst)
      0.00000      0.00000      5.28219        -0.000000     -0.005538      0.009906
      2.93046      0.00000      5.28219         0.008140      0.015989      0.043052
      5.86091      0.00000      5.28219        -0.008140      0.015989      0.043052
      1.46523      2.53785      5.28219         0.019741     -0.003141      0.038574
      4.39568      2.53785      5.28219        -0.000000     -0.000916      0.007234
      7.32614      2.53785      5.28219        -0.019741     -0.003141      0.038574
      2.93046      5.07570      5.28219         0.015407     -0.010856      0.035334
      5.86091      5.07570      5.28219        -0.015407     -0.010856      0.035334
      8.79137      5.07570      5.28219         0.000000      0.002537      0.025693
      1.46523      0.84595      7.67490         0.012205      0.009056     -0.009826
      4.39568      0.84595      7.67490        -0.000000     -0.055975     -0.093593
      7.32614      0.84595      7.67490        -0.012205      0.009056     -0.009826
      2.93046      3.38380      7.67490        -0.040629      0.027424     -0.078767
      5.86091      3.38380      7.67490         0.040629      0.027424     -0.078767
      8.79137      3.38380      7.67490        -0.000000     -0.023507     -0.000891
      4.39568      5.92165      7.67490        -0.000000     -0.025381      0.000920
      7.32614      5.92165      7.67490        -0.019594      0.013540      0.010959
     10.25659      5.92165      7.67490         0.019594      0.013540      0.010959
      8.79137      1.69450     10.06282         0.000000      0.006160      0.020274
      2.93652      1.69540     10.03056        -0.012576     -0.031102     -0.126789
      5.85484      1.69540     10.03056         0.012576     -0.031102     -0.126789
     10.25378      4.23137     10.05553         0.039527     -0.016162      0.001313
      4.39568      4.22274     10.03056        -0.000000     -0.003380     -0.101219
      7.32895      4.23137     10.05553        -0.039527     -0.016162      0.001313
     11.71957      6.76630     10.06282        -0.009476     -0.004879     -0.012197
      5.86316      6.76630     10.06282         0.009476     -0.004879     -0.012197
      8.79137      6.76435     10.05553         0.000000      0.029710     -0.011231
      0.00000      0.00000     12.42400        -0.000000     -0.019599      0.017374
      2.95387      0.04433     12.43748        -0.075461     -0.180113     -0.120042
      5.83749      0.04433     12.43748         0.075461     -0.180113     -0.120042
      1.51533      2.53597     12.43748        -0.203239      0.016391     -0.122203
      7.27604      2.53597     12.43748         0.203239      0.016391     -0.122203
      2.95713      5.03325     12.43748        -0.083029      0.159243     -0.105513
      5.83423      5.03325     12.43748         0.083029      0.159243     -0.105513
      8.79137      5.07570     12.42069         0.000000      0.015027      0.010720
      4.39568      2.53785     12.23056         0.000000      0.093013      1.013137
      3.81772      2.50455     14.39299         0.028161     -0.001464     -0.003058
      4.97365      2.50455     14.39299        -0.028161     -0.001464     -0.003058
    total drift:                                0.011105     -0.000581     -0.075799

  FREE ENERGIE OF THE ION-ELECTRON SYSTEM (eV)
  free  energy   TOTEN  =      -112.53785540 eV

  energy  without entropy=     -112.53785540  energy(sigma->0) =     -112.53785540

 stress matrix after NEB project (eV)
     -7.54754     -0.00000      0.00000
     -0.00000     -7.66643      0.16862
      0.00000      0.16862     -0.15454
  FORCES: max atom, RMS     0.028364    0.006507
  FORCE total and by dimension    0.040113    0.028161
  Stress total and by dimension   10.761981    7.666426
|           W    W    AA    RRRRR   N    N  II  N    N   GGGG   !!!           |
|           W    W   A  A   R    R  NN   N  II  NN   N  G    G  !!!           |
|           W    W  A    A  R    R  N N  N  II  N N  N  G       !!!           |
|           W WW W  AAAAAA  RRRRR   N  N N  II  N  N N  G  GGG   !            |
|           WW  WW  A    A  R   R   N   NN  II  N   NN  G    G                |
|           W    W  A    A  R    R  N    N  II  N    N   GGGG   !!!           |
|     Tetrahedron method does not include variations of the Fermi             |
|     occupations, so forces and stress will be inaccurate. We suggest        |
|     using a different smearing scheme ISMEAR = 1 or 2 for metals in         |
|     relaxations.                                                            |

 total charge

# of ion       s       p       d       tot
    1        0.416   0.202   9.178   9.796
    2        0.417   0.203   9.177   9.798
    3        0.417   0.203   9.177   9.798
    4        0.418   0.203   9.177   9.798
    5        0.417   0.204   9.175   9.797
    6        0.418   0.203   9.177   9.798
    7        0.418   0.203   9.177   9.798
    8        0.418   0.203   9.177   9.798
    9        0.413   0.203   9.180   9.795
   10        0.406   0.269   9.164   9.839
   11        0.410   0.267   9.169   9.846
   12        0.406   0.269   9.164   9.839
   13        0.410   0.267   9.169   9.845
   14        0.410   0.267   9.169   9.845
   15        0.402   0.270   9.166   9.837
   16        0.407   0.269   9.163   9.840
   17        0.401   0.271   9.165   9.837
   18        0.401   0.271   9.165   9.837
   19        0.400   0.267   9.167   9.834
   20        0.426   0.292   9.150   9.868
   21        0.426   0.292   9.150   9.868
   22        0.395   0.274   9.167   9.836
   23        0.427   0.296   9.146   9.868
   24        0.395   0.274   9.167   9.836
   25        0.404   0.266   9.166   9.836
   26        0.404   0.266   9.166   9.836
   27        0.395   0.273   9.168   9.836
   28        0.416   0.197   9.180   9.793
   29        0.418   0.210   9.176   9.804
   30        0.418   0.210   9.176   9.804
   31        0.411   0.210   9.178   9.799
   32        0.411   0.210   9.178   9.799
   33        0.418   0.210   9.175   9.804
   34        0.418   0.210   9.175   9.804
   35        0.406   0.200   9.181   9.788
   36        0.430   0.411   6.648   7.489
   37        1.349   2.452   0.000   3.800
   38        1.349   2.452   0.000   3.800
tot         17.526  13.712 327.606 358.844

 BZINTS: Fermi energy:    0.452330;  403.000000 electrons
         Band energy:-0.149320E+04;  BLOECHL correction:   -0.045139