 vasp.6.2.0 18Jan21 (build Jun 12 2021 23:27:24) complex

 executed on             LinuxIFC date 2022.05.30  16:36:22

 INCAR:
   ISMEAR = -5
   SIGMA = 0.1
   ISPIN = 1
   EDIFF = 1.d-5
   EDIFFG = -0.01
   NSW = 0
   NELM = 150
   ENCUT = 500
   ISIF = 2
   IBRION = 2
   LREAL = Auto
   ALGO = Fast
   ICHARG = 11
   LORBIT = 10
   LCHARG = .F.
   LWAVE = .F.

 POTCAR:    PAW_PBE Au 04Oct2007
 POTCAR:    PAW_PBE Re 17Jan2003
 POTCAR:    PAW_PBE O 08Apr2002
|           W    W    AA    RRRRR   N    N  II  N    N   GGGG   !!!           |
|           W    W   A  A   R    R  NN   N  II  NN   N  G    G  !!!           |
|           W    W  A    A  R    R  N N  N  II  N N  N  G       !!!           |
|           W WW W  AAAAAA  RRRRR   N  N N  II  N  N N  G  GGG   !            |
|           WW  WW  A    A  R   R   N   NN  II  N   NN  G    G                |
|           W    W  A    A  R    R  N    N  II  N    N   GGGG   !!!           |
|     For optimal performance we recommend to set                             |
|       NCORE = 2 up to number-of-cores-per-socket                            |
|     This setting can greatly improve the performance of VASP for DFT.       |
|     The default, NCORE=1 might be grossly inefficient on modern             |
|     multi-core architectures or massively parallel machines. Do your        |
|     Unfortunately you need to use the default for GW and RPA                |
|     calculations (for HF NCORE is supported but not extensively tested      |
|     yet).                                                                   |

 POTCAR:    PAW_PBE Au 04Oct2007
   VRHFIN =Au: s1d10

   TITEL  = PAW_PBE Au 04Oct2007
   POMASS =  196.966; ZVAL   =   11.000    mass and valenz
   ENMAX  =  229.943; ENMIN  =  172.457 eV

 POTCAR:    PAW_PBE Re 17Jan2003
   VRHFIN =Re: 5p6s5d

   TITEL  = PAW_PBE Re 17Jan2003
   POMASS =  186.207; ZVAL   =    7.000    mass and valenz
   ENMAX  =  226.216; ENMIN  =  169.662 eV

 POTCAR:    PAW_PBE O 08Apr2002
   VRHFIN =O: s2p4

   TITEL  = PAW_PBE O 08Apr2002
   POMASS =   16.000; ZVAL   =    6.000    mass and valenz
   ENMAX  =  400.000; ENMIN  =  300.000 eV

 Optimization of the real space projectors (new method)

 maximal supplied QI-value         = 15.12
 optimisation between [QCUT,QGAM] = [ 11.34, 22.83] = [ 36.00,145.93] Ry
 Optimized for a Real-space Cutoff    1.39 Angstroem

   l    n(q)    QCUT    max X(q) W(low)/X(q) W(high)/X(q)  e(spline)
   2      9    11.338    60.898    0.39E-03    0.42E-03    0.21E-06
   2      9    11.338    58.894    0.40E-03    0.42E-03    0.22E-06
   0      9    11.338   109.617    0.13E-03    0.20E-04    0.13E-06
   0      9    11.338    75.026    0.13E-03    0.20E-04    0.13E-06
   1      9    11.338    16.344    0.33E-04    0.24E-03    0.18E-06
   1      9    11.338    10.160    0.26E-04    0.19E-03    0.15E-06
 Optimization of the real space projectors (new method)

[...]

   l    n(q)    QCUT    max X(q) W(low)/X(q) W(high)/X(q)  e(spline)
   2     10    11.327   884.633    0.22E-03    0.51E-03    0.88E-06
   2     10    11.327   796.723    0.22E-03    0.51E-03    0.88E-06
   0     11    11.327    65.348    0.44E-04    0.11E-03    0.75E-06
   0     11    11.327    39.642    0.40E-04    0.10E-03    0.69E-06
   1     10    11.327    13.988    0.15E-03    0.10E-03    0.19E-06
   1     10    11.327     8.682    0.11E-03    0.76E-04    0.14E-06
 Optimization of the real space projectors (new method)

 maximal supplied QI-value         = 24.76
 optimisation between [QCUT,QGAM] = [ 11.39, 22.77] = [ 36.31,145.25] Ry
 Optimized for a Real-space Cutoff    1.00 Angstroem

   l    n(q)    QCUT    max X(q) W(low)/X(q) W(high)/X(q)  e(spline)
   0      7    11.387    20.381    0.39E-03    0.13E-02    0.15E-06
   0      7    11.387    15.268    0.42E-03    0.14E-02    0.17E-06
   1      6    11.387     5.964    0.41E-03    0.11E-02    0.17E-06
   1      6    11.387     5.382    0.39E-03    0.87E-03    0.15E-06
  PAW_PBE Au 04Oct2007                  :
  PAW_PBE Re 17Jan2003                  :
  PAW_PBE O 08Apr2002                   :

 POSCAR: Au-Re-O2
  positions in direct lattice
  velocities in cartesian coordinates
 exchange correlation table for  LEXCH =        8
   RHO(1)=    0.500       N(1)  =     2000
   RHO(2)=  100.500       N(2)  =     4000

 VTST: version 3.2, (02/03/18)

 CHAIN: initializing optimizer

 OPT: Using VASP Conjugate-Gradient optimizer
 CHAIN: Read ICHAIN            0

 POSCAR: Au-Re-O2
  positions in direct lattice
  velocities in cartesian coordinates

 ion  position               nearest neighbor table
   1  0.000  0.000  0.217-  16 2.94  12 2.94   6 2.94   8 2.94   7 2.94   3 2.94  10 2.94   4 2.94
                             2 2.94
   2  0.333  0.000  0.217-   9 2.94  11 2.94  17 2.94  10 2.94   8 2.94   4 2.94   5 2.94   1 2.94
                             3 2.94
   3  0.667  0.000  0.217-   7 2.94  18 2.94  12 2.94   1 2.94  11 2.94   5 2.94   6 2.94   9 2.94
                             2 2.94
   4  0.000  0.333  0.217-  10 2.94   6 2.94   5 2.94  13 2.94   2 2.94  15 2.94   9 2.94   1 2.94
                             7 2.94
   5  0.333  0.333  0.217-  13 2.94   7 2.94  11 2.94   4 2.94   2 2.94  14 2.94   3 2.94   8 2.94
                             6 2.94
   6  0.667  0.333  0.217-  15 2.94  14 2.94   1 2.94  12 2.94   4 2.94   9 2.94   8 2.94   3 2.94
                             5 2.94
   7  0.000  0.667  0.217-  18 2.94   3 2.94  16 2.94   5 2.94   1 2.94  13 2.94   8 2.94   4 2.94
                             9 2.94
   8  0.333  0.667  0.217-   9 2.94  17 2.94   1 2.94   2 2.94  14 2.94  16 2.94   6 2.94   7 2.94
                             5 2.94
   9  0.667  0.667  0.217-   2 2.94   8 2.94  17 2.94   6 2.94  15 2.94   4 2.94   3 2.94  18 2.94
                             7 2.94
  10  0.111  0.111  0.316-  20 2.90  11 2.94  17 2.94   2 2.94   4 2.94   1 2.94  12 2.94  16 2.94
                            13 2.94  15 2.94  26 2.96  19 2.96
  11  0.444  0.111  0.316-  20 2.91  21 2.91  13 2.94   2 2.94  10 2.94  17 2.94   5 2.94   3 2.94
                            18 2.94  14 2.94  12 2.94  27 2.94
  12  0.778  0.111  0.316-  21 2.90  16 2.94  18 2.94   1 2.94  14 2.94  15 2.94   3 2.94   6 2.94
                            10 2.94  11 2.94  25 2.96  19 2.96
  13  0.111  0.444  0.316-  23 2.91  20 2.91   5 2.94  18 2.94  11 2.94   7 2.94   4 2.94  16 2.94
                            10 2.94  14 2.94  15 2.94  22 2.94
  14  0.444  0.444  0.316-  21 2.91  23 2.91  15 2.94   6 2.94  12 2.94   8 2.94  17 2.94   5 2.94
                            16 2.94  13 2.94  11 2.94  24 2.94
  15  0.778  0.444  0.316-  24 2.92  22 2.92  14 2.94   6 2.94  17 2.94  12 2.94   9 2.94   4 2.94
                            10 2.94  13 2.94  18 2.94  19 2.95
  16  0.111  0.778  0.316-  23 2.90  18 2.94  12 2.94   7 2.94   1 2.94   8 2.94  13 2.94  10 2.94
                            14 2.94  17 2.94  25 2.96  26 2.96
  17  0.444  0.778  0.316-  27 2.92  24 2.92   9 2.94  15 2.94   2 2.94  10 2.94  11 2.94   8 2.94
                            14 2.94  16 2.94  18 2.94  26 2.95
  18  0.778  0.778  0.316-  22 2.92  27 2.92  16 2.94   7 2.94  13 2.94  12 2.94   3 2.94  11 2.94
                             9 2.94  15 2.94  17 2.94  25 2.95
  19  0.888  0.224  0.415-  24 2.93  22 2.93  21 2.93  20 2.93  28 2.94  15 2.95  26 2.96  25 2.96
                            10 2.96  12 2.96  32 3.02  31 3.02
  20  0.222  0.222  0.413-  36 2.75  10 2.90  11 2.91  13 2.91  26 2.93  19 2.93  23 2.95  21 2.95
                            27 2.96  22 2.96  29 2.97  31 2.97
  21  0.556  0.222  0.413-  36 2.75  12 2.90  14 2.91  11 2.91  25 2.93  19 2.93  20 2.95  23 2.95
                            27 2.96  24 2.96  30 2.97  32 2.97
  22  0.886  0.557  0.414-  24 2.90  27 2.90  18 2.92  15 2.92  25 2.93  19 2.93  13 2.94  35 2.95
                            23 2.96  20 2.96  33 3.00  31 3.00
  23  0.222  0.556  0.413-  36 2.75  16 2.90  13 2.91  14 2.91  25 2.93  26 2.93  20 2.95  21 2.95
                            22 2.96  24 2.96  33 2.97  34 2.97
  24  0.557  0.557  0.414-  27 2.90  22 2.90  15 2.92  17 2.92  26 2.93  19 2.93  14 2.94  35 2.95
                            21 2.96  23 2.96  32 3.00  34 3.00
  25  0.888  0.888  0.415-  22 2.93  27 2.93  23 2.93  21 2.93  28 2.94  18 2.95  19 2.96  26 2.96
                            16 2.96  12 2.96  33 3.02  30 3.02
  26  0.224  0.888  0.415-  27 2.93  24 2.93  20 2.93  23 2.93  28 2.94  17 2.95  19 2.96  25 2.96
                            10 2.96  16 2.96  29 3.02  34 3.02
  27  0.557  0.886  0.414-  24 2.90  22 2.90  17 2.92  18 2.92  26 2.93  25 2.93  11 2.94  35 2.95
                            20 2.96  21 2.96  29 3.00  30 3.00
  28  0.000  0.000  0.514-  25 2.94  19 2.94  26 2.94  34 2.99  32 2.99  33 2.99  30 2.99  31 2.99
                            29 2.99
  29  0.333  0.011  0.516-  30 2.84  31 2.84  36 2.86  20 2.97  35 2.99  28 2.99  27 3.00  26 3.02
                            34 3.14
  30  0.655  0.011  0.516-  29 2.84  32 2.84  36 2.86  21 2.97  35 2.99  28 2.99  27 3.00  25 3.02
                            33 3.14
  31  0.011  0.333  0.516-  37 2.66  33 2.84  29 2.84  36 2.86  20 2.97  35 2.99  28 2.99  22 3.00
                            19 3.02  32 3.14
  32  0.655  0.333  0.516-  38 2.66  34 2.84  30 2.84  36 2.86  21 2.97  35 2.99  28 2.99  24 3.00
                            19 3.02  31 3.14
  33  0.011  0.655  0.516-  31 2.84  34 2.84  36 2.86  23 2.97  35 2.99  28 2.99  22 3.00  25 3.02
                            30 3.14
  34  0.333  0.655  0.516-  32 2.84  33 2.84  36 2.86  23 2.97  35 2.99  28 2.99  24 3.00  26 3.02
                            29 3.14
  35  0.667  0.667  0.514-  24 2.95  27 2.95  22 2.95  29 2.99  34 2.99  32 2.99  31 2.99  30 2.99
                            33 2.99
  36  0.333  0.333  0.502-  38 2.04  37 2.04  20 2.75  23 2.75  21 2.75  33 2.86  31 2.86  29 2.86
                            30 2.86  34 2.86  32 2.86
  37  0.255  0.332  0.581-  38 1.40  36 2.04  31 2.66
  38  0.414  0.332  0.581-  37 1.40  36 2.04  32 2.66

  LATTYP: Found a hexagonal cell.
 ALAT       =     8.8135128021
 C/A-ratio  =     2.7586513333

  Lattice vectors:

 A1 = (  -4.4067569092,  -7.6327256898,   0.0000000000)
 A2 = (   8.8135128021,   0.0000000000,   0.0000000000)
 A3 = (   0.0000000000,   0.0000000000,  24.3134088421)

Analysis of symmetry for initial positions (statically):
 Subroutine PRICEL returns:
 Original cell was already a primitive cell.

 Routine SETGRP: Setting up the symmetry group for a
 hexagonal supercell.

 Subroutine GETGRP returns: Found  2 space group operations
 (whereof  2 operations were pure point group operations)
 out of a pool of 24 trial point group operations.

The static configuration has the point symmetry C_1h.

Analysis of symmetry for dynamics (positions and initial velocities):
 Subroutine PRICEL returns:
 Original cell was already a primitive cell.

[...]

The dynamic configuration has the point symmetry C_1h.

Analysis of constrained symmetry for selective dynamics:
 Subroutine PRICEL returns:
 Original cell was already a primitive cell.

 Routine SETGRP: Setting up the symmetry group for a
[...]
     33      -5.4088      2.00000
     34      -5.3422      2.00000
     35      -5.3166      2.00000
     36      -5.2757      2.00000
     37      -5.2400      2.00000
     38      -5.2272      2.00000
     39      -5.2075      2.00000
     40      -5.1797      2.00000
     41      -5.1633      2.00000
     42      -5.0411      2.00000
     43      -5.0151      2.00000
     44      -4.9623      2.00000
     45      -4.9028      2.00000
     46      -4.8681      2.00000
     47      -4.8567      2.00000
     48      -4.8095      2.00000
     49      -4.8024      2.00000
     50      -4.7705      2.00000
     51      -4.6893      2.00000
     52      -4.6602      2.00000
     53      -4.6417      2.00000
     54      -4.6287      2.00000
     55      -4.6075      2.00000
     56      -4.5976      2.00000
     57      -4.5771      2.00000
     58      -4.5684      2.00000
     59      -4.5183      2.00000
     60      -4.4914      2.00000
[...]
    238       5.5692      0.00000
    239       5.6969      0.00000
    240       5.9159      0.00000
    241       6.0120      0.00000
    242       6.0629      0.00000
    243       6.0738      0.00000
    244       6.1261      0.00000
    245       6.2479      0.00000
    246       6.2808      0.00000
    247       6.3688      0.00000
    248       6.4111      0.00000
    249       6.4849      0.00000
    250       6.7358      0.00000
    251       6.8543      0.00000
    252       6.9011      0.00000

 soft charge-density along one line, spin component           1
         0         1         2         3         4         5         6         7         8         9
 total charge-density along one line

------------------------ aborting loop because EDIFF is reached ----------------------------------------

 total charge

# of ion       s       p       d       tot
    1        0.548   0.237   8.766   9.551
    2        0.541   0.241   8.765   9.547
    3        0.541   0.241   8.765   9.547
    4        0.543   0.241   8.763   9.548
    5        0.543   0.241   8.761   9.545
    6        0.543   0.241   8.763   9.548
    7        0.543   0.241   8.764   9.548
    8        0.543   0.241   8.764   9.548
    9        0.541   0.240   8.767   9.548
   10        0.524   0.306   8.768   9.598
   11        0.519   0.308   8.781   9.608
   12        0.524   0.306   8.768   9.598
   13        0.519   0.309   8.777   9.606
   14        0.519   0.309   8.777   9.606
   15        0.514   0.307   8.774   9.595
   16        0.526   0.308   8.763   9.597
   17        0.514   0.308   8.775   9.596
   18        0.514   0.308   8.775   9.596
   19        0.513   0.294   8.777   9.584
   20        0.561   0.342   8.737   9.640
   21        0.561   0.342   8.737   9.640
   22        0.506   0.307   8.775   9.589
   23        0.567   0.351   8.722   9.640
   24        0.506   0.307   8.775   9.589
   25        0.515   0.295   8.774   9.585
   26        0.515   0.295   8.774   9.585
   27        0.506   0.305   8.781   9.592
   28        0.541   0.225   8.761   9.527
   29        0.559   0.245   8.754   9.558
   30        0.559   0.245   8.754   9.558
   31        0.551   0.249   8.759   9.558
   32        0.551   0.249   8.759   9.558
   33        0.559   0.245   8.754   9.557
   34        0.559   0.245   8.754   9.557
   35        0.534   0.225   8.763   9.521
   36        0.508   0.496   4.636   5.641
   37        1.614   3.254   0.000   4.868
   38        1.614   3.254   0.000   4.868
tot         22.458  16.703 311.383 350.544

  FORCE on cell =-STRESS in cart. coord.  units (eV):
  Direction    XX          YY          ZZ          XY          YZ          ZX
  Alpha Z   960.29723   960.29723   960.29723
  Ewald  150424.05657150037.45610************    -0.00030     0.77253    -0.00011
  Hartree158852.91998158668.17015************     0.00001     1.05687    -0.00003
  E(xc)   -1817.98773 -1819.01333 -1825.72143     0.00000    -0.06492     0.00000
  Local  ************************321233.03008     0.00263    -2.30045    -0.00001
  n-local  -114.73693  -121.29290   -91.32584     4.79678     0.87054     0.11330
  augment  2383.51993  2387.95323  2403.52337    -0.00127    -0.03960     0.00009
  Kinetic  5679.34693  5727.54836  5752.02888     1.26677     0.28600     0.15835
  Fock        0.00000     0.00000     0.00000     0.00000     0.00000     0.00000
  Total     -18.00413   -20.47354     0.29300    -0.00000     0.58096     0.00000
  in kB     -17.63633   -20.05529     0.28702    -0.00000     0.56910     0.00000

 VOLUME and BASIS-vectors are now :
  energy-cutoff  :      500.00
  volume of cell :     1635.59
      direct lattice vectors                 reciprocal lattice vectors
     8.813512802  0.000000000  0.000000000     0.113462137 -0.065507406  0.000000000
     4.406756909  7.632725690  0.000000000     0.000000000  0.131014796  0.000000000
     0.000000000  0.000000000 24.313408842     0.000000000  0.000000000  0.041129568

  length of vectors
     8.813512802  8.813512802 24.313408842     0.131014796  0.131014796  0.041129568

 FORCES acting on ions
    electron-ion (+dipol)            ewald-force                    non-local-force                 convergence-correction
   -.199E-04 -.508E-04 0.267E+04   0.520E-04 -.278E-01 -.267E+04   0.317E-08 0.476E-01 -.870E+00   -.160E-03 -.273E-01 -.298E+00
   0.854E+00 0.393E+00 0.267E+04   -.879E+00 -.489E+00 -.267E+04   0.192E-01 0.901E-01 -.270E+00   0.379E-02 0.137E-01 -.388E+00
   -.854E+00 0.393E+00 0.267E+04   0.879E+00 -.489E+00 -.267E+04   -.192E-01 0.901E-01 -.270E+00   -.354E-02 0.156E-01 -.388E+00
   0.710E+00 0.520E+00 0.267E+04   -.839E+00 -.527E+00 -.267E+04   0.971E-01 -.350E-01 -.283E+00   0.293E-01 0.354E-01 -.343E+00
   0.805E-05 -.106E+00 0.267E+04   0.951E-04 0.395E-02 -.267E+04   0.285E-08 0.428E-01 -.145E+00   0.418E-02 0.652E-01 -.324E+00
   -.710E+00 0.520E+00 0.267E+04   0.839E+00 -.527E+00 -.267E+04   -.971E-01 -.350E-01 -.283E+00   -.307E-01 0.363E-01 -.343E+00
   -.122E+00 -.885E+00 0.267E+04   0.409E-01 0.102E+01 -.267E+04   0.532E-01 -.777E-01 -.250E+00   0.400E-01 -.494E-01 -.359E+00
   0.122E+00 -.885E+00 0.267E+04   -.410E-01 0.102E+01 -.267E+04   -.532E-01 -.777E-01 -.250E+00   -.381E-01 -.504E-01 -.358E+00
   0.197E-04 0.361E-01 0.267E+04   0.166E-03 0.239E-01 -.267E+04   -.164E-08 -.246E-01 -.507E+00   -.457E-02 -.389E-01 -.299E+00
   0.899E+01 0.528E+01 0.928E+03   -.849E+01 -.511E+01 -.927E+03   -.443E+00 -.195E+00 -.637E+00   -.663E-01 0.142E-01 -.281E+00
   0.174E-04 0.587E+01 0.938E+03   0.148E-03 -.597E+01 -.938E+03   0.310E-08 0.466E-01 -.223E+00   0.353E-02 -.551E-01 -.275E+00
   -.899E+01 0.528E+01 0.928E+03   0.849E+01 -.511E+01 -.927E+03   0.443E+00 -.195E+00 -.637E+00   0.655E-01 0.149E-01 -.283E+00
   0.488E+01 -.303E+01 0.938E+03   -.498E+01 0.304E+01 -.938E+03   0.703E-01 -.510E-01 -.255E+00   -.557E-01 0.686E-01 -.330E+00
   -.489E+01 -.303E+01 0.938E+03   0.498E+01 0.304E+01 -.938E+03   -.703E-01 -.510E-01 -.255E+00   0.627E-01 0.680E-01 -.332E+00
   0.310E-04 0.485E+01 0.933E+03   0.236E-03 -.494E+01 -.932E+03   -.167E-08 -.251E-01 -.497E+00   -.169E-02 0.589E-01 -.237E+00
   -.218E-04 -.105E+02 0.928E+03   0.163E-03 0.984E+01 -.927E+03   0.398E-07 0.598E+00 -.805E+00   -.179E-03 0.700E-02 -.335E+00
   0.433E+01 -.242E+01 0.932E+03   -.441E+01 0.260E+01 -.931E+03   -.842E-02 -.600E-01 -.442E+00   0.470E-01 -.817E-01 -.251E+00
   -.433E+01 -.242E+01 0.932E+03   0.441E+01 0.260E+01 -.931E+03   0.842E-02 -.600E-01 -.442E+00   -.468E-01 -.804E-01 -.251E+00
   -.435E-04 0.580E+01 -.851E+03   0.536E-04 -.610E+01 0.850E+03   0.571E-09 0.857E-02 0.707E+00   0.517E-02 0.180E+00 0.107E+00
   0.163E+02 0.104E+02 -.785E+03   -.151E+02 -.992E+01 0.786E+03   -.111E+01 -.540E+00 -.105E+01   -.586E-01 -.352E-01 0.154E+00
   -.163E+02 0.104E+02 -.785E+03   0.151E+02 -.992E+01 0.786E+03   0.111E+01 -.540E+00 -.105E+01   0.509E-01 -.347E-01 0.154E+00
   -.190E+00 -.119E+01 -.827E+03   -.202E-01 0.144E+01 0.826E+03   0.433E+00 -.290E+00 0.752E+00   -.148E+00 0.208E-01 0.127E+00
   -.539E-05 -.209E+02 -.787E+03   0.141E-03 0.193E+02 0.788E+03   0.100E-06 0.150E+01 -.129E+01   -.376E-02 0.285E-01 0.146E+00
   0.190E+00 -.119E+01 -.827E+03   0.200E-01 0.144E+01 0.826E+03   -.433E+00 -.290E+00 0.752E+00   0.149E+00 0.227E-01 0.127E+00
   -.450E+01 -.188E+01 -.853E+03   0.470E+01 0.196E+01 0.852E+03   -.411E-01 0.932E-02 0.581E+00   -.125E+00 -.452E-01 0.118E+00
   0.450E+01 -.188E+01 -.853E+03   -.470E+01 0.196E+01 0.852E+03   0.411E-01 0.932E-02 0.581E+00   0.132E+00 -.432E-01 0.118E+00
   0.132E-04 -.351E+00 -.828E+03   0.196E-03 -.268E+00 0.827E+03   0.514E-07 0.772E+00 0.803E+00   -.156E-02 -.895E-01 0.136E+00
   -.167E-04 0.563E+01 -.256E+04   0.315E-04 -.557E+01 0.256E+04   -.465E-08 -.699E-01 0.460E+00   0.172E-02 -.197E-02 0.380E+00
   0.485E+02 0.992E+02 -.253E+04   -.478E+02 -.987E+02 0.253E+04   -.937E+00 -.949E+00 0.416E+00   0.371E-01 -.486E-01 0.324E+00
   -.485E+02 0.992E+02 -.253E+04   0.478E+02 -.987E+02 0.253E+04   0.937E+00 -.949E+00 0.416E+00   -.439E-01 -.479E-01 0.325E+00
   0.121E+03 -.353E+00 -.252E+04   -.122E+03 0.482E+00 0.252E+04   -.955E+00 -.153E+00 0.813E+00   0.263E-01 0.595E-01 0.302E+00
   -.121E+03 -.353E+00 -.252E+04   0.122E+03 0.482E+00 0.252E+04   0.955E+00 -.153E+00 0.813E+00   -.322E-01 0.607E-01 0.303E+00
   0.466E+02 -.980E+02 -.254E+04   -.461E+02 0.974E+02 0.254E+04   -.662E+00 0.106E+01 0.364E+00   -.736E-01 -.388E-01 0.335E+00
   -.466E+02 -.980E+02 -.254E+04   0.461E+02 0.974E+02 0.254E+04   0.662E+00 0.106E+01 0.364E+00   0.689E-01 -.383E-01 0.335E+00
   0.341E-04 -.508E+01 -.256E+04   0.139E-03 0.493E+01 0.256E+04   0.801E-08 0.120E+00 0.672E+00   -.308E-02 0.153E-01 0.308E+00
   -.897E-05 -.182E+01 -.131E+04   0.738E-04 0.179E+01 0.131E+04   0.232E-07 0.348E+00 0.219E+01   0.793E-03 0.878E-02 0.271E+00
   0.205E+03 -.335E+00 -.170E+04   -.240E+03 0.353E+00 0.172E+04   0.360E+02 -.391E-01 -.185E+02   -.211E-01 0.143E-01 0.754E-01
   -.205E+03 -.335E+00 -.170E+04   0.240E+03 0.353E+00 0.172E+04   -.360E+02 -.391E-01 -.185E+02   0.171E-01 0.144E-01 0.747E-01
   -.453E-03 -.893E+00 0.388E+02   -.853E-13 0.175E-13 -.796E-11   0.602E-07 0.904E+00 -.370E+02   -.132E-01 0.161E-01 -.146E+01

 POSITION                                       TOTAL-FORCE (eV/Angst)
      0.00000      0.00000      5.28038        -0.000000     -0.008266     -0.123903
      2.93784      0.00000      5.28038        -0.002351      0.008189     -0.020664
      5.87568      0.00000      5.28038         0.002351      0.008189     -0.020664
      1.46892      2.54424      5.28038        -0.002608     -0.007075     -0.034044
      4.40676      2.54424      5.28038         0.000000      0.004991     -0.062792
      7.34459      2.54424      5.28038         0.002608     -0.007075     -0.034044
      2.93784      5.08848      5.28038         0.011556      0.002404     -0.034369
      5.87568      5.08848      5.28038        -0.011556      0.002404     -0.034369
      8.81351      5.08848      5.28038        -0.000000     -0.004190     -0.059979
      1.46892      0.84808      7.67911        -0.010589     -0.002873      0.103577
      4.40676      0.84808      7.67911        -0.000000     -0.105296     -0.062741
      7.34459      0.84808      7.67911         0.010589     -0.002873      0.103577
      2.93784      3.39232      7.67911        -0.079968      0.028704     -0.023256
      5.87568      3.39232      7.67911         0.079968      0.028704     -0.023256
      8.81351      3.39232      7.67911        -0.000000     -0.061909      0.090751
      4.40676      5.93656      7.67911        -0.000000     -0.009439      0.156226
      7.34459      5.93656      7.67911        -0.044618      0.032160      0.075631
     10.28243      5.93656      7.67911         0.044618      0.032160      0.075631
      8.81351      1.70659     10.09931        -0.000000     -0.111071     -0.059468
      2.93410      1.69400     10.03753         0.021876     -0.062450     -0.105517
      5.87941      1.69400     10.03753        -0.021876     -0.062450     -0.105517
     10.26439      4.25082     10.06692         0.075328     -0.021512      0.059775
      4.40676      4.24472     10.03753        -0.000000     -0.082815      0.011551
      7.36264      4.25082     10.06692        -0.075328     -0.021512      0.059775
     11.74232      6.77943     10.09931         0.036344      0.047661     -0.010585
      5.88471      6.77943     10.09931        -0.036344      0.047661     -0.010585
      8.81351      6.76381     10.06692         0.000000      0.062699      0.053835
      0.00000      0.00000     12.49835        -0.000000     -0.012828     -0.044374
      2.98825      0.08685     12.53577        -0.188963     -0.500952     -0.308858
      5.82526      0.08685     12.53577         0.188963     -0.500952     -0.308858
      1.56934      2.54447     12.53577        -1.029270      0.036112     -0.628803
      7.24417      2.54447     12.53577         1.029270      0.036112     -0.628803
      2.98785      5.00140     12.53577        -0.219230      0.458549     -0.254778
      5.82567      5.00140     12.53577         0.219231      0.458549     -0.254778
      8.81351      5.08848     12.49628        -0.000000     -0.016966      0.055524
      4.40676      2.54424     12.20474         0.000000      0.321847      2.391530
      3.70636      2.53077     14.12534         0.036409     -0.007296      0.008809
      5.10715      2.53077     14.12534        -0.036409     -0.007296      0.008809
    total drift:                               -0.013628      0.026375      0.295339

  FREE ENERGIE OF THE ION-ELECTRON SYSTEM (eV)
  free  energy   TOTEN  =      -127.05330044 eV

  energy  without entropy=     -127.05330044  energy(sigma->0) =     -127.05330044

 stress matrix after NEB project (eV)
    -18.00413     -0.00000      0.00000
     -0.00000    -20.47354      0.58096
      0.00000      0.58096      0.29300
  FORCES: max atom, RMS     0.038164    0.008755
  FORCE total and by dimension    0.053972    0.036409
  Stress total and by dimension   27.277747   20.473538
|           W    W    AA    RRRRR   N    N  II  N    N   GGGG   !!!           |
|           W    W   A  A   R    R  NN   N  II  NN   N  G    G  !!!           |
|           W    W  A    A  R    R  N N  N  II  N N  N  G       !!!           |
|           W WW W  AAAAAA  RRRRR   N  N N  II  N  N N  G  GGG   !            |
|           WW  WW  A    A  R   R   N   NN  II  N   NN  G    G                |
|           W    W  A    A  R    R  N    N  II  N    N   GGGG   !!!           |
|     Tetrahedron method does not include variations of the Fermi             |
|     occupations, so forces and stress will be inaccurate. We suggest        |
|     using a different smearing scheme ISMEAR = 1 or 2 for metals in         |
|     relaxations.                                                            |

 total charge

# of ion       s       p       d       tot
    1        0.548   0.237   8.766   9.551
    2        0.541   0.241   8.765   9.547
    3        0.541   0.241   8.765   9.547
    4        0.543   0.241   8.763   9.548
    5        0.543   0.241   8.761   9.545
    6        0.543   0.241   8.763   9.548
    7        0.543   0.241   8.764   9.548
    8        0.543   0.241   8.764   9.548
    9        0.541   0.240   8.767   9.548
   10        0.524   0.306   8.768   9.598
   11        0.519   0.308   8.781   9.608
   12        0.524   0.306   8.768   9.598
   13        0.519   0.309   8.777   9.606
   14        0.519   0.309   8.777   9.606
   15        0.514   0.307   8.774   9.595
   16        0.526   0.308   8.763   9.597
   17        0.514   0.308   8.775   9.596
   18        0.514   0.308   8.775   9.596
   19        0.513   0.294   8.777   9.584
   20        0.561   0.342   8.737   9.640
   21        0.561   0.342   8.737   9.640
   22        0.506   0.307   8.775   9.589
   23        0.567   0.351   8.722   9.640
   24        0.506   0.307   8.775   9.589
   25        0.515   0.295   8.774   9.585
   26        0.515   0.295   8.774   9.585
   27        0.506   0.305   8.781   9.592
   28        0.541   0.225   8.761   9.527
   29        0.559   0.245   8.754   9.558
   30        0.559   0.245   8.754   9.558
   31        0.551   0.249   8.759   9.558
   32        0.551   0.249   8.759   9.558
   33        0.559   0.245   8.754   9.557
   34        0.559   0.245   8.754   9.557
   35        0.534   0.225   8.763   9.521
   36        0.508   0.496   4.636   5.641
   37        1.614   3.254   0.000   4.868
   38        1.614   3.254   0.000   4.868
tot         22.458  16.703 311.383 350.544

 BZINTS: Fermi energy:    0.177648;  404.000000 electrons
         Band energy:-0.150339E+04;  BLOECHL correction:   -0.047488