 vasp.6.2.0 18Jan21 (build Jun 12 2021 23:27:24) complex

 executed on             LinuxIFC date 2022.05.26  19:20:13

 INCAR:
   ISMEAR = -5
   SIGMA = 0.1
   ISPIN = 1
   EDIFF = 1.d-5
   EDIFFG = -0.01
   NSW = 0
   NELM = 150
   ENCUT = 500
   ISIF = 2
   IBRION = 2
   LREAL = Auto
   ALGO = Fast
   ICHARG = 11
   LORBIT = 10
   LCHARG = .F.
   LWAVE = .F.

 POTCAR:    PAW_PBE Au 04Oct2007
 POTCAR:    PAW_PBE Fe 06Sep2000
 POTCAR:    PAW_PBE H 15Jun2001
|           W    W    AA    RRRRR   N    N  II  N    N   GGGG   !!!           |
|           W    W   A  A   R    R  NN   N  II  NN   N  G    G  !!!           |
|           W    W  A    A  R    R  N N  N  II  N N  N  G       !!!           |
|           W WW W  AAAAAA  RRRRR   N  N N  II  N  N N  G  GGG   !            |
|           WW  WW  A    A  R   R   N   NN  II  N   NN  G    G                |
|           W    W  A    A  R    R  N    N  II  N    N   GGGG   !!!           |
|     For optimal performance we recommend to set                             |
|       NCORE = 2 up to number-of-cores-per-socket                            |
|     This setting can greatly improve the performance of VASP for DFT.       |
|     The default, NCORE=1 might be grossly inefficient on modern             |
|     multi-core architectures or massively parallel machines. Do your        |
|     Unfortunately you need to use the default for GW and RPA                |
|     calculations (for HF NCORE is supported but not extensively tested      |
|     yet).                                                                   |

 POTCAR:    PAW_PBE Au 04Oct2007
   VRHFIN =Au: s1d10

   TITEL  = PAW_PBE Au 04Oct2007
   POMASS =  196.966; ZVAL   =   11.000    mass and valenz
   ENMAX  =  229.943; ENMIN  =  172.457 eV

 POTCAR:    PAW_PBE Fe 06Sep2000
   VRHFIN =Fe:  d7 s1

   TITEL  = PAW_PBE Fe 06Sep2000
   POMASS =   55.847; ZVAL   =    8.000    mass and valenz
   ENMAX  =  267.882; ENMIN  =  200.911 eV

 POTCAR:    PAW_PBE H 15Jun2001
   VRHFIN =H: ultrasoft test

   TITEL  = PAW_PBE H 15Jun2001
   POMASS =    1.000; ZVAL   =    1.000    mass and valenz
   ENMAX  =  250.000; ENMIN  =  200.000 eV

 Optimization of the real space projectors (new method)

 maximal supplied QI-value         = 15.12
 optimisation between [QCUT,QGAM] = [ 11.34, 22.83] = [ 36.00,145.93] Ry
 Optimized for a Real-space Cutoff    1.39 Angstroem

   l    n(q)    QCUT    max X(q) W(low)/X(q) W(high)/X(q)  e(spline)
   2      9    11.338    60.898    0.39E-03    0.42E-03    0.21E-06
   2      9    11.338    58.894    0.40E-03    0.42E-03    0.22E-06
   0      9    11.338   109.617    0.13E-03    0.20E-04    0.13E-06
   0      9    11.338    75.026    0.13E-03    0.20E-04    0.13E-06
   1      9    11.338    16.344    0.33E-04    0.24E-03    0.18E-06
   1      9    11.338    10.160    0.26E-04    0.19E-03    0.15E-06
 Optimization of the real space projectors (new method)

[...]

   l    n(q)    QCUT    max X(q) W(low)/X(q) W(high)/X(q)  e(spline)
   2      8    11.376    80.901    0.45E-03    0.44E-04    0.21E-06
   2      8    11.376    75.754    0.45E-03    0.45E-04    0.22E-06
   0      9    11.376    58.752    0.65E-04    0.95E-04    0.17E-06
   0      9    11.376    30.679    0.59E-04    0.87E-04    0.16E-06
   1      9    11.376    17.977    0.38E-03    0.10E-03    0.14E-06
   1      9    11.376    13.559    0.31E-03    0.90E-04    0.12E-06
 Optimization of the real space projectors (new method)

 maximal supplied QI-value         = 34.20
 optimisation between [QCUT,QGAM] = [ 11.29, 22.57] = [ 35.68,142.71] Ry
 Optimized for a Real-space Cutoff    1.16 Angstroem

   l    n(q)    QCUT    max X(q) W(low)/X(q) W(high)/X(q)  e(spline)
   0      8    11.287    19.460    0.40E-03    0.73E-03    0.16E-06
   0      8    11.287    12.209    0.38E-03    0.70E-03    0.15E-06
   1      7    11.287     4.655    0.22E-03    0.25E-04    0.22E-06
  PAW_PBE Au 04Oct2007                  :
  PAW_PBE Fe 06Sep2000                  :
  PAW_PBE H 15Jun2001                   :

 POSCAR: Au-Fe-H
  positions in direct lattice
  velocities in cartesian coordinates
 exchange correlation table for  LEXCH =        8
   RHO(1)=    0.500       N(1)  =     2000
   RHO(2)=  100.500       N(2)  =     4000

 VTST: version 3.2, (02/03/18)

 CHAIN: initializing optimizer

 OPT: Using VASP Conjugate-Gradient optimizer
 CHAIN: Read ICHAIN            0

 POSCAR: Au-Fe-H
  positions in direct lattice
  velocities in cartesian coordinates

 ion  position               nearest neighbor table
   1  0.000  0.000  0.238-  16 2.94  12 2.94   6 2.94   8 2.94   7 2.94   3 2.94  10 2.94   4 2.94
                             2 2.94
   2  0.333  0.000  0.238-   9 2.94  11 2.94  17 2.94  10 2.94   8 2.94   4 2.94   5 2.94   1 2.94
                             3 2.94
   3  0.667  0.000  0.238-   7 2.94  18 2.94  12 2.94   1 2.94  11 2.94   5 2.94   6 2.94   9 2.94
                             2 2.94
   4  0.000  0.333  0.238-  10 2.94   6 2.94   5 2.94  13 2.94   2 2.94  15 2.94   9 2.94   1 2.94
                             7 2.94
   5  0.333  0.333  0.238-  13 2.94   7 2.94  11 2.94   4 2.94   2 2.94  14 2.94   3 2.94   8 2.94
                             6 2.94
   6  0.667  0.333  0.238-  15 2.94  14 2.94   1 2.94  12 2.94   4 2.94   9 2.94   8 2.94   3 2.94
                             5 2.94
   7  0.000  0.667  0.238-  18 2.94   3 2.94  16 2.94   5 2.94   1 2.94  13 2.94   8 2.94   4 2.94
                             9 2.94
   8  0.333  0.667  0.238-   9 2.94  17 2.94   1 2.94   2 2.94  14 2.94  16 2.94   6 2.94   7 2.94
                             5 2.94
   9  0.667  0.667  0.238-   2 2.94   8 2.94  17 2.94   6 2.94  15 2.94   4 2.94   3 2.94  18 2.94
                             7 2.94
  10  0.111  0.111  0.346-  20 2.93  26 2.94  19 2.94  11 2.94  17 2.94   2 2.94   4 2.94   1 2.94
                            12 2.94  16 2.94  13 2.94  15 2.94
  11  0.444  0.111  0.346-  20 2.91  21 2.91  27 2.93  13 2.94   2 2.94  10 2.94  17 2.94   5 2.94
                             3 2.94  18 2.94  14 2.94  12 2.94
  12  0.778  0.111  0.346-  21 2.93  25 2.94  19 2.94  16 2.94  18 2.94   1 2.94  14 2.94  15 2.94
                             3 2.94   6 2.94  10 2.94  11 2.94
  13  0.111  0.444  0.346-  23 2.91  20 2.91  22 2.93   5 2.94  18 2.94  11 2.94   7 2.94   4 2.94
                            16 2.94  10 2.94  14 2.94  15 2.94
  14  0.444  0.444  0.346-  21 2.91  23 2.91  24 2.93  15 2.94   6 2.94  12 2.94   8 2.94  17 2.94
                             5 2.94  16 2.94  13 2.94  11 2.94
  15  0.778  0.444  0.346-  24 2.92  22 2.92  19 2.94  14 2.94   6 2.94  17 2.94  12 2.94   9 2.94
                             4 2.94  10 2.94  13 2.94  18 2.94
  16  0.111  0.778  0.346-  23 2.93  25 2.94  26 2.94  18 2.94  12 2.94   7 2.94   1 2.94   8 2.94
                            13 2.94  10 2.94  14 2.94  17 2.94
  17  0.444  0.778  0.346-  27 2.92  24 2.92  26 2.94   9 2.94  15 2.94   2 2.94  10 2.94  11 2.94
                             8 2.94  14 2.94  16 2.94  18 2.94
  18  0.778  0.778  0.346-  22 2.92  27 2.92  25 2.94  16 2.94   7 2.94  13 2.94  12 2.94   3 2.94
                            11 2.94   9 2.94  15 2.94  17 2.94
  19  0.889  0.222  0.454-  10 2.94  12 2.94  15 2.94  26 2.94  25 2.94  24 2.94  22 2.94  28 2.95
                            21 2.95  20 2.95  32 2.98  31 2.98
  20  0.223  0.223  0.453-  36 2.70  23 2.91  21 2.91  11 2.91  13 2.91  29 2.92  31 2.92  10 2.93
                            27 2.95  22 2.95  26 2.95  19 2.95
  21  0.553  0.223  0.453-  36 2.70  20 2.91  23 2.91  14 2.91  11 2.91  30 2.92  32 2.92  12 2.93
                            27 2.95  24 2.95  25 2.95  19 2.95
  22  0.887  0.557  0.453-  24 2.91  27 2.91  18 2.92  15 2.92  13 2.93  25 2.94  19 2.94  33 2.95
                            31 2.95  23 2.95  20 2.95  35 2.95
  23  0.223  0.553  0.453-  36 2.70  20 2.91  21 2.91  13 2.91  14 2.91  33 2.92  34 2.92  16 2.93
                            22 2.95  24 2.95  25 2.95  26 2.95
  24  0.557  0.557  0.453-  27 2.91  22 2.91  15 2.92  17 2.92  14 2.93  26 2.94  19 2.94  32 2.95
                            34 2.95  21 2.95  23 2.95  35 2.95
  25  0.889  0.889  0.454-  16 2.94  12 2.94  18 2.94  19 2.94  26 2.94  22 2.94  27 2.94  28 2.95
                            23 2.95  21 2.95  33 2.98  30 2.98
  26  0.222  0.889  0.454-  10 2.94  16 2.94  17 2.94  19 2.94  25 2.94  27 2.94  24 2.94  28 2.95
                            20 2.95  23 2.95  29 2.98  34 2.98
  27  0.557  0.887  0.453-  24 2.91  22 2.91  17 2.92  18 2.92  11 2.93  26 2.94  25 2.94  29 2.95
                            30 2.95  20 2.95  21 2.95  35 2.95
  28  0.000  0.000  0.563-  25 2.95  19 2.95  26 2.95  34 2.98  32 2.98  33 2.98  30 2.98  31 2.98
                            29 2.98
  29  0.333  0.010  0.562-  30 2.85  31 2.85  36 2.87  20 2.92  27 2.95  26 2.98  35 2.98  28 2.98
                            34 3.11
  30  0.657  0.010  0.562-  29 2.85  32 2.85  36 2.87  21 2.92  27 2.95  25 2.98  35 2.98  28 2.98
                            33 3.11
  31  0.010  0.333  0.562-  33 2.85  29 2.85  36 2.87  20 2.92  22 2.95  19 2.98  35 2.98  28 2.98
                            32 3.11
  32  0.657  0.333  0.562-  34 2.85  30 2.85  36 2.87  21 2.92  24 2.95  19 2.98  35 2.98  28 2.98
                            31 3.11
  33  0.010  0.657  0.562-  31 2.85  34 2.85  36 2.87  23 2.92  22 2.95  25 2.98  35 2.98  28 2.98
                            30 3.11
  34  0.333  0.657  0.562-  32 2.85  33 2.85  36 2.87  23 2.92  24 2.95  26 2.98  35 2.98  28 2.98
                            29 3.11
  35  0.667  0.667  0.563-  24 2.95  27 2.95  22 2.95  29 2.98  34 2.98  32 2.98  31 2.98  30 2.98
                            33 2.98
  36  0.333  0.333  0.548-  37 1.51  20 2.70  23 2.70  21 2.70  33 2.87  31 2.87  29 2.87  30 2.87
                            34 2.87  32 2.87
  37  0.333  0.333  0.616-  36 1.51

  LATTYP: Found a hexagonal cell.
 ALAT       =     8.8135128021
 C/A-ratio  =     2.5184286595

  Lattice vectors:

 A1 = (  -4.4067569092,  -7.6327256898,   0.0000000000)
 A2 = (   8.8135128021,   0.0000000000,   0.0000000000)
 A3 = (   0.0000000000,   0.0000000000,  22.1962032318)

Analysis of symmetry for initial positions (statically):
 Subroutine PRICEL returns:
 Original cell was already a primitive cell.

 Routine SETGRP: Setting up the symmetry group for a
 hexagonal supercell.

 Subroutine GETGRP returns: Found  6 space group operations
 (whereof  6 operations were pure point group operations)
 out of a pool of 24 trial point group operations.

The static configuration has the point symmetry C_3v.

Analysis of symmetry for dynamics (positions and initial velocities):
 Subroutine PRICEL returns:
 Original cell was already a primitive cell.

[...]

The dynamic configuration has the point symmetry C_3v.

Analysis of constrained symmetry for selective dynamics:
 Subroutine PRICEL returns:
 Original cell was already a primitive cell.

 Routine SETGRP: Setting up the symmetry group for a
 hexagonal supercell.

 Subroutine GETGRP returns: Found  6 space group operations
 (whereof  6 operations were pure point group operations)
[...]
     24      -5.1245      2.00000
     25      -5.1186      2.00000
     26      -5.0781      2.00000
     27      -5.0044      2.00000
     28      -4.9369      2.00000
     29      -4.8547      2.00000
     30      -4.8472      2.00000
     31      -4.8264      2.00000
     32      -4.8226      2.00000
     33      -4.8109      2.00000
     34      -4.7555      2.00000
     35      -4.6490      2.00000
     36      -4.6238      2.00000
     37      -4.6137      2.00000
     38      -4.6084      2.00000
     39      -4.5604      2.00000
     40      -4.4760      2.00000
     41      -4.4375      2.00000
     42      -4.3762      2.00000
     43      -4.3679      2.00000
     44      -4.3574      2.00000
     45      -4.3472      2.00000
     46      -4.2549      2.00000
     47      -4.2409      2.00000
     48      -4.2078      2.00000
     49      -4.1829      2.00000
     50      -4.1780      2.00000
     51      -4.1687      2.00000
     52      -4.1480      2.00000
     53      -4.1204      2.00000
     54      -4.0816      2.00000
     55      -4.0768      2.00000
     56      -4.0348      2.00000
     57      -4.0220      2.00000
     58      -4.0113      2.00000
     59      -3.9979      2.00000
     60      -3.9860      2.00000
[...]
    238       6.5554      0.00000
    239       6.6975      0.00000
    240       6.7055      0.00000
    241       6.7501      0.00000
    242       6.7799      0.00000
    243       7.0496      0.00000
    244       7.0823      0.00000
    245       7.2155      0.00000
    246       7.5202      0.00000
    247       7.5466      0.00000
    248       7.6367      0.00000
    249       7.6747      0.00000
    250       7.7583      0.00000
    251       7.9157      0.00000
    252       7.9632      0.00000

 soft charge-density along one line, spin component           1
         0         1         2         3         4         5         6         7         8         9
 total charge-density along one line

------------------------ aborting loop because EDIFF is reached ----------------------------------------

 total charge

# of ion       s       p       d       tot
    1        0.547   0.237   8.769   9.554
    2        0.543   0.241   8.765   9.549
    3        0.543   0.241   8.765   9.549
    4        0.543   0.241   8.765   9.549
    5        0.545   0.241   8.759   9.545
    6        0.543   0.241   8.765   9.549
    7        0.543   0.241   8.765   9.549
    8        0.543   0.241   8.765   9.549
    9        0.543   0.239   8.768   9.550
   10        0.523   0.308   8.768   9.599
   11        0.522   0.308   8.780   9.610
   12        0.523   0.308   8.768   9.599
   13        0.522   0.308   8.780   9.610
   14        0.522   0.308   8.780   9.610
   15        0.518   0.308   8.776   9.602
   16        0.523   0.308   8.768   9.599
   17        0.518   0.308   8.776   9.602
   18        0.518   0.308   8.776   9.602
   19        0.514   0.300   8.775   9.589
   20        0.551   0.328   8.751   9.630
   21        0.551   0.328   8.751   9.630
   22        0.510   0.309   8.776   9.594
   23        0.551   0.328   8.751   9.630
   24        0.510   0.309   8.776   9.594
   25        0.514   0.300   8.775   9.589
   26        0.514   0.300   8.775   9.589
   27        0.510   0.309   8.776   9.594
   28        0.537   0.223   8.763   9.524
   29        0.554   0.235   8.752   9.541
   30        0.554   0.235   8.752   9.541
   31        0.554   0.235   8.752   9.541
   32        0.554   0.235   8.752   9.541
   33        0.554   0.235   8.752   9.541
   34        0.554   0.235   8.752   9.541
   35        0.533   0.223   8.765   9.521
   36        0.376   0.357   6.280   7.012
   37        0.513   0.016   0.000   0.528
tot         19.590   9.975 313.083 342.648

  FORCE on cell =-STRESS in cart. coord.  units (eV):
  Direction    XX          YY          ZZ          XY          YZ          ZX
  Alpha Z  1001.38330  1001.38330  1001.38330
  Ewald  119653.96638119653.96680************    -0.00032    -0.00009    -0.00016
  Hartree128275.62599128275.62600************     0.00000    -0.00002    -0.00004
  E(xc)   -1768.84006 -1768.84004 -1776.36577    -0.00002    -0.00000    -0.00000
  Local  ************************260492.47174     0.00175     0.00005     0.00008
  n-local  -112.35648   -61.49152   -59.21970    25.04206    -1.39209     1.60401
  augment  2402.79345  2402.79502  2420.61285    -0.00136     0.00001     0.00005
  Kinetic  5418.70117  5432.40790  5480.93979     7.15291    -0.40039     0.94605
  Fock        0.00000     0.00000     0.00000     0.00000     0.00000     0.00000
  Total     -23.31099   -23.31099     2.55126    -0.00000     0.00000    -0.00000
  in kB     -25.01290   -25.01289     2.73752    -0.00000     0.00000    -0.00000

 VOLUME and BASIS-vectors are now :
  energy-cutoff  :      500.00
  volume of cell :     1493.16
      direct lattice vectors                 reciprocal lattice vectors
     8.813512802  0.000000000  0.000000000     0.113462137 -0.065507406  0.000000000
     4.406756909  7.632725690  0.000000000     0.000000000  0.131014796  0.000000000
     0.000000000  0.000000000 22.196203232     0.000000000  0.000000000  0.045052750

  length of vectors
     8.813512802  8.813512802 22.196203232     0.131014796  0.131014796  0.045052750

 FORCES acting on ions
    electron-ion (+dipol)            ewald-force                    non-local-force                 convergence-correction
   -.198E-04 -.164E-04 0.248E+04   0.519E-04 0.433E-04 -.248E+04   0.728E-17 -.502E-17 -.755E+00   -.237E-03 -.151E-03 -.321E+00
   0.480E+00 0.216E+00 0.248E+04   -.578E+00 -.336E+00 -.248E+04   0.441E-01 0.845E-01 -.299E+00   0.511E-01 0.349E-01 -.393E+00
   -.480E+00 0.216E+00 0.248E+04   0.578E+00 -.336E+00 -.248E+04   -.441E-01 0.845E-01 -.299E+00   -.508E-01 0.368E-01 -.393E+00
   0.427E+00 0.308E+00 0.248E+04   -.580E+00 -.332E+00 -.248E+04   0.952E-01 -.406E-02 -.299E+00   0.558E-01 0.267E-01 -.393E+00
   0.732E-05 -.240E-04 0.248E+04   0.951E-04 0.173E-05 -.248E+04   -.353E-17 -.102E-17 -.116E+00   0.428E-02 0.260E-02 -.457E+00
   -.427E+00 0.308E+00 0.248E+04   0.579E+00 -.332E+00 -.248E+04   -.952E-01 -.406E-02 -.299E+00   -.574E-01 0.276E-01 -.392E+00
   -.528E-01 -.524E+00 0.248E+04   -.201E-02 0.668E+00 -.248E+04   0.511E-01 -.804E-01 -.299E+00   0.658E-02 -.624E-01 -.393E+00
   0.528E-01 -.524E+00 0.248E+04   0.187E-02 0.668E+00 -.248E+04   -.511E-01 -.804E-01 -.299E+00   -.474E-02 -.635E-01 -.392E+00
   0.198E-04 -.415E-04 0.248E+04   0.166E-03 -.201E-04 -.248E+04   -.244E-17 -.629E-18 -.513E+00   -.459E-02 -.237E-02 -.385E+00
   0.441E+01 0.254E+01 0.815E+03   -.406E+01 -.235E+01 -.814E+03   -.281E+00 -.162E+00 -.642E+00   -.549E-01 -.318E-01 0.154E+00
   0.151E-04 0.524E+01 0.823E+03   0.147E-03 -.525E+01 -.823E+03   0.422E-08 0.634E-01 -.254E+00   0.404E-02 -.887E-01 0.139E+00
   -.441E+01 0.254E+01 0.815E+03   0.406E+01 -.235E+01 -.814E+03   0.281E+00 -.162E+00 -.642E+00   0.535E-01 -.306E-01 0.154E+00
   0.454E+01 -.262E+01 0.823E+03   -.454E+01 0.262E+01 -.823E+03   0.549E-01 -.317E-01 -.254E+00   -.745E-01 0.481E-01 0.139E+00
   -.454E+01 -.262E+01 0.823E+03   0.454E+01 0.262E+01 -.823E+03   -.549E-01 -.317E-01 -.254E+00   0.822E-01 0.473E-01 0.138E+00
   0.314E-04 0.322E+01 0.818E+03   0.236E-03 -.338E+01 -.818E+03   0.393E-08 0.591E-01 -.538E+00   -.224E-02 0.576E-01 0.226E+00
   -.215E-04 -.509E+01 0.815E+03   0.163E-03 0.469E+01 -.814E+03   0.216E-07 0.325E+00 -.642E+00   -.179E-04 0.616E-01 0.154E+00
   0.279E+01 -.161E+01 0.818E+03   -.293E+01 0.169E+01 -.818E+03   0.512E-01 -.296E-01 -.538E+00   0.490E-01 -.303E-01 0.226E+00
   -.279E+01 -.161E+01 0.818E+03   0.293E+01 0.169E+01 -.818E+03   -.512E-01 -.296E-01 -.538E+00   -.486E-01 -.283E-01 0.227E+00
   -.402E-04 0.140E+01 -.876E+03   0.545E-04 -.168E+01 0.874E+03   0.708E-08 0.106E+00 0.618E+00   -.315E-02 0.156E+00 0.880E+00
   0.218E+02 0.126E+02 -.841E+03   -.208E+02 -.120E+02 0.840E+03   -.104E+01 -.602E+00 -.914E+00   0.276E-01 0.158E-01 0.111E+01
   -.218E+02 0.126E+02 -.841E+03   0.208E+02 -.120E+02 0.840E+03   0.104E+01 -.602E+00 -.914E+00   -.319E-01 0.162E-01 0.111E+01
   0.126E+01 -.729E+00 -.863E+03   -.154E+01 0.888E+00 0.861E+03   0.351E+00 -.202E+00 0.510E+00   -.458E-01 0.237E-01 0.932E+00
   -.996E-05 -.252E+02 -.841E+03   0.141E-03 0.241E+02 0.840E+03   0.801E-07 0.120E+01 -.914E+00   -.221E-02 -.357E-01 0.111E+01
   -.126E+01 -.729E+00 -.863E+03   0.154E+01 0.887E+00 0.861E+03   -.351E+00 -.202E+00 0.510E+00   0.405E-01 0.235E-01 0.932E+00
   -.121E+01 -.699E+00 -.876E+03   0.145E+01 0.838E+00 0.874E+03   -.921E-01 -.532E-01 0.618E+00   -.138E+00 -.800E-01 0.880E+00
   0.121E+01 -.699E+00 -.876E+03   -.145E+01 0.838E+00 0.874E+03   0.921E-01 -.532E-01 0.618E+00   0.134E+00 -.807E-01 0.880E+00
   0.104E-04 0.146E+01 -.863E+03   0.197E-03 -.178E+01 0.861E+03   0.270E-07 0.405E+00 0.510E+00   -.291E-02 -.516E-01 0.933E+00
   -.106E-04 -.123E-04 -.249E+04   0.284E-04 0.321E-04 0.249E+04   -.135E-16 -.131E-17 0.692E+00   0.119E-04 -.994E-05 0.593E+00
   0.132E+02 0.206E+02 -.249E+04   -.127E+02 -.198E+02 0.249E+04   -.602E+00 -.916E+00 0.467E+00   0.122E+00 0.107E+00 0.483E+00
   -.132E+02 0.206E+02 -.249E+04   0.127E+02 -.198E+02 0.249E+04   0.602E+00 -.916E+00 0.467E+00   -.122E+00 0.109E+00 0.483E+00
   0.244E+02 0.113E+01 -.249E+04   -.235E+02 -.111E+01 0.249E+04   -.109E+01 -.630E-01 0.467E+00   0.154E+00 0.518E-01 0.483E+00
   -.244E+02 0.113E+01 -.249E+04   0.235E+02 -.111E+01 0.249E+04   0.109E+01 -.630E-01 0.467E+00   -.155E+00 0.526E-01 0.482E+00
   0.112E+02 -.217E+02 -.249E+04   -.108E+02 0.209E+02 0.249E+04   -.493E+00 0.979E+00 0.467E+00   0.334E-01 -.160E+00 0.483E+00
   -.112E+02 -.217E+02 -.249E+04   0.108E+02 0.209E+02 0.249E+04   0.493E+00 0.979E+00 0.467E+00   -.317E-01 -.160E+00 0.482E+00
   0.345E-04 -.312E-04 -.250E+04   0.143E-03 -.474E-04 0.250E+04   0.426E-17 0.503E-17 0.700E+00   -.437E-02 -.223E-02 0.430E+00
   -.231E-04 -.180E-05 -.169E+04   0.846E-04 0.789E-05 0.169E+04   -.611E-17 -.246E-19 -.372E+01   0.446E-02 0.273E-02 0.289E+00
   0.507E-05 -.389E-05 -.292E+03   0.522E-05 0.328E-06 0.294E+03   -.194E-18 -.972E-19 -.235E+01   0.126E-03 0.765E-04 -.354E-01
   -.776E-03 -.777E-03 -.178E+01   0.111E-12 0.314E-12 -.944E-11   -.576E-16 -.217E-15 -.871E+01   -.125E-01 -.652E-02 0.110E+02

 POSITION                                       TOTAL-FORCE (eV/Angst)
      0.00000      0.00000      5.28038         0.000000      0.000000     -0.161503
      2.93784      0.00000      5.28038        -0.002029      0.000854     -0.066158
      5.87568      0.00000      5.28038         0.002029      0.000854     -0.066158
      1.46892      2.54424      5.28038        -0.000275     -0.002185     -0.066158
      4.40676      2.54424      5.28038         0.000000      0.000000     -0.114313
      7.34459      2.54424      5.28038         0.000275     -0.002185     -0.066158
      2.93784      5.08848      5.28038         0.001755      0.001330     -0.066158
      5.87568      5.08848      5.28038        -0.001755      0.001330     -0.066158
      8.81351      5.08848      5.28038         0.000000      0.000000     -0.103025
      1.46892      0.84808      7.67911         0.007131      0.004117      0.119854
      4.40676      0.84808      7.67911        -0.000000     -0.036125      0.056350
      7.34459      0.84808      7.67911        -0.007131      0.004117      0.119854
      2.93784      3.39232      7.67911        -0.031285      0.018063      0.056350
      5.87568      3.39232      7.67911         0.031285      0.018063      0.056350
      8.81351      3.39232      7.67911        -0.000000     -0.043390      0.094266
      4.40676      5.93656      7.67911        -0.000000     -0.008235      0.119854
      7.34459      5.93656      7.67911        -0.037577      0.021695      0.094266
     10.28243      5.93656      7.67911         0.037577      0.021695      0.094266
      8.81351      1.69603     10.07519        -0.000000     -0.013400      0.000334
      2.95264      1.70471     10.05068        -0.019009     -0.010975     -0.067506
      5.86088      1.70471     10.05068         0.019009     -0.010975     -0.067506
     10.26798      4.24875     10.06116         0.031847     -0.018387     -0.001420
      4.40676      4.22331     10.05068         0.000000      0.021950     -0.067506
      7.35905      4.24875     10.06116        -0.031847     -0.018387     -0.001420
     11.75147      6.78471     10.07519         0.011605      0.006700      0.000334
      5.87556      6.78471     10.07519        -0.011605      0.006700      0.000334
      8.81351      6.76796     10.06116         0.000000      0.036774     -0.001420
      0.00000      0.00000     12.48698         0.000000      0.000000     -0.015465
      2.98147      0.07441     12.46921         0.001494     -0.013475      0.012497
      5.83205      0.07441     12.46921        -0.001494     -0.013475      0.012497
      1.55518      2.54482     12.46921        -0.010923      0.008032      0.012497
      7.25833      2.54482     12.46921         0.010923      0.008032      0.012497
      2.98047      5.01349     12.46921        -0.012417      0.005444      0.012497
      5.83305      5.01349     12.46921         0.012417      0.005444      0.012497
      8.81351      5.08848     12.49182         0.000000      0.000000      0.010382
      4.40676      2.54424     12.16047         0.000000      0.000000      0.155370
      4.40676      2.54424     13.66605         0.000000      0.000000     -0.055114
    total drift:                               -0.013252     -0.007297      0.480940

  FREE ENERGIE OF THE ION-ELECTRON SYSTEM (eV)
  free  energy   TOTEN  =      -116.18332212 eV

  energy  without entropy=     -116.18332212  energy(sigma->0) =     -116.18332212

 stress matrix after NEB project (eV)
    -23.31099     -0.00000     -0.00000
     -0.00000    -23.31099      0.00000
     -0.00000      0.00000      2.55126
  FORCES: max atom, RMS     0.055114    0.009061
  FORCE total and by dimension    0.055114    0.055114
  Stress total and by dimension   33.065295   23.310994
|           W    W    AA    RRRRR   N    N  II  N    N   GGGG   !!!           |
|           W    W   A  A   R    R  NN   N  II  NN   N  G    G  !!!           |
|           W    W  A    A  R    R  N N  N  II  N N  N  G       !!!           |
|           W WW W  AAAAAA  RRRRR   N  N N  II  N  N N  G  GGG   !            |
|           WW  WW  A    A  R   R   N   NN  II  N   NN  G    G                |
|           W    W  A    A  R    R  N    N  II  N    N   GGGG   !!!           |
|     Tetrahedron method does not include variations of the Fermi             |
|     occupations, so forces and stress will be inaccurate. We suggest        |
|     using a different smearing scheme ISMEAR = 1 or 2 for metals in         |
|     relaxations.                                                            |

 total charge

# of ion       s       p       d       tot
    1        0.547   0.237   8.769   9.554
    2        0.543   0.241   8.765   9.549
    3        0.543   0.241   8.765   9.549
    4        0.543   0.241   8.765   9.549
    5        0.545   0.241   8.759   9.545
    6        0.543   0.241   8.765   9.549
    7        0.543   0.241   8.765   9.549
    8        0.543   0.241   8.765   9.549
    9        0.543   0.239   8.768   9.550
   10        0.523   0.308   8.768   9.599
   11        0.522   0.308   8.780   9.610
   12        0.523   0.308   8.768   9.599
   13        0.522   0.308   8.780   9.610
   14        0.522   0.308   8.780   9.610
   15        0.518   0.308   8.776   9.602
   16        0.523   0.308   8.768   9.599
   17        0.518   0.308   8.776   9.602
   18        0.518   0.308   8.776   9.602
   19        0.514   0.300   8.775   9.589
   20        0.551   0.328   8.751   9.630
   21        0.551   0.328   8.751   9.630
   22        0.510   0.309   8.776   9.594
   23        0.551   0.328   8.751   9.630
   24        0.510   0.309   8.776   9.594
   25        0.514   0.300   8.775   9.589
   26        0.514   0.300   8.775   9.589
   27        0.510   0.309   8.776   9.594
   28        0.537   0.223   8.763   9.524
   29        0.554   0.235   8.752   9.541
   30        0.554   0.235   8.752   9.541
   31        0.554   0.235   8.752   9.541
   32        0.554   0.235   8.752   9.541
   33        0.554   0.235   8.752   9.541
   34        0.554   0.235   8.752   9.541
   35        0.533   0.223   8.765   9.521
   36        0.376   0.357   6.280   7.012
   37        0.513   0.016   0.000   0.528
tot         19.590   9.975 313.083 342.648

 BZINTS: Fermi energy:    0.599916;  394.000000 electrons
         Band energy:-0.120568E+04;  BLOECHL correction:   -0.059954