 vasp.6.2.0 18Jan21 (build Jun 12 2021 23:27:24) complex

 executed on             LinuxIFC date 2022.05.27  05:42:39

 INCAR:
   ISMEAR = -5
   SIGMA = 0.1
   ISPIN = 1
   EDIFF = 1.d-5
   EDIFFG = -0.01
   NSW = 0
   NELM = 150
   ENCUT = 500
   ISIF = 2
   IBRION = 2
   LREAL = Auto
   ALGO = Fast
   ICHARG = 11
   LORBIT = 10
   LCHARG = .F.
   LWAVE = .F.

 POTCAR:    PAW_PBE Ag 02Apr2005
 POTCAR:    PAW_PBE Ru 04Feb2005
 POTCAR:    PAW_PBE H 15Jun2001
|           W    W    AA    RRRRR   N    N  II  N    N   GGGG   !!!           |
|           W    W   A  A   R    R  NN   N  II  NN   N  G    G  !!!           |
|           W    W  A    A  R    R  N N  N  II  N N  N  G       !!!           |
|           W WW W  AAAAAA  RRRRR   N  N N  II  N  N N  G  GGG   !            |
|           WW  WW  A    A  R   R   N   NN  II  N   NN  G    G                |
|           W    W  A    A  R    R  N    N  II  N    N   GGGG   !!!           |
|     For optimal performance we recommend to set                             |
|       NCORE = 2 up to number-of-cores-per-socket                            |
|     This setting can greatly improve the performance of VASP for DFT.       |
|     The default, NCORE=1 might be grossly inefficient on modern             |
|     multi-core architectures or massively parallel machines. Do your        |
|     Unfortunately you need to use the default for GW and RPA                |
|     calculations (for HF NCORE is supported but not extensively tested      |
|     yet).                                                                   |

 POTCAR:    PAW_PBE Ag 02Apr2005
   VRHFIN =Ag : s1 d10

   TITEL  = PAW_PBE Ag 02Apr2005
   POMASS =  107.868; ZVAL   =   11.000    mass and valenz
   ENMAX  =  249.844; ENMIN  =  187.383 eV

 POTCAR:    PAW_PBE Ru 04Feb2005
   VRHFIN =Ru: s1 d7

   TITEL  = PAW_PBE Ru 04Feb2005
   POMASS =  101.070; ZVAL   =    8.000    mass and valenz
   ENMAX  =  213.271; ENMIN  =  159.953 eV

 POTCAR:    PAW_PBE H 15Jun2001
   VRHFIN =H: ultrasoft test

   TITEL  = PAW_PBE H 15Jun2001
   POMASS =    1.000; ZVAL   =    1.000    mass and valenz
   ENMAX  =  250.000; ENMIN  =  200.000 eV

 Optimization of the real space projectors (new method)

 maximal supplied QI-value         = 15.12
 optimisation between [QCUT,QGAM] = [ 11.34, 22.83] = [ 36.00,145.93] Ry
 Optimized for a Real-space Cutoff    1.43 Angstroem

   l    n(q)    QCUT    max X(q) W(low)/X(q) W(high)/X(q)  e(spline)
   2      9    11.338    53.897    0.16E-03    0.20E-03    0.28E-06
   2      9    11.338    52.416    0.16E-03    0.20E-03    0.29E-06
   0     10    11.338   122.045    0.31E-04    0.76E-04    0.15E-06
   0     10    11.338    73.629    0.30E-04    0.72E-04    0.15E-06
   1      9    11.338    15.255    0.20E-03    0.19E-04    0.17E-06
   1      9    11.338     9.562    0.16E-03    0.15E-04    0.14E-06
 Optimization of the real space projectors (new method)

[...]

   l    n(q)    QCUT    max X(q) W(low)/X(q) W(high)/X(q)  e(spline)
   2      9    11.327    61.733    0.26E-03    0.14E-03    0.16E-06
   2      9    11.327    59.886    0.26E-03    0.14E-03    0.17E-06
   0     10    11.327    23.358    0.19E-03    0.14E-04    0.46E-06
   0     10    11.327    11.320    0.15E-03    0.11E-04    0.37E-06
   1     10    11.327    14.765    0.49E-04    0.26E-03    0.24E-06
   1     10    11.327     8.283    0.37E-04    0.20E-03    0.18E-06
 Optimization of the real space projectors (new method)

 maximal supplied QI-value         = 34.20
 optimisation between [QCUT,QGAM] = [ 11.29, 22.57] = [ 35.68,142.71] Ry
 Optimized for a Real-space Cutoff    1.16 Angstroem

   l    n(q)    QCUT    max X(q) W(low)/X(q) W(high)/X(q)  e(spline)
   0      8    11.287    19.460    0.40E-03    0.73E-03    0.16E-06
   0      8    11.287    12.209    0.38E-03    0.70E-03    0.15E-06
   1      7    11.287     4.655    0.22E-03    0.25E-04    0.22E-06
  PAW_PBE Ag 02Apr2005                  :
  PAW_PBE Ru 04Feb2005                  :
  PAW_PBE H 15Jun2001                   :

 POSCAR: Ag-Ru-H2
  positions in direct lattice
  velocities in cartesian coordinates
 exchange correlation table for  LEXCH =        8
   RHO(1)=    0.500       N(1)  =     2000
   RHO(2)=  100.500       N(2)  =     4000

 VTST: version 3.2, (02/03/18)

 CHAIN: initializing optimizer

 OPT: Using VASP Conjugate-Gradient optimizer
 CHAIN: Read ICHAIN            0

 POSCAR: Ag-Ru-H2
  positions in direct lattice
  velocities in cartesian coordinates

 ion  position               nearest neighbor table
   1  0.000  0.000  0.238-   2 2.93   8 2.93   7 2.93   6 2.93   4 2.93  12 2.93  16 2.93  10 2.93
                             3 2.93
   2  0.333  0.000  0.238-   1 2.93   8 2.93   9 2.93   3 2.93   4 2.93   5 2.93  10 2.93  17 2.93
                            11 2.93
   3  0.667  0.000  0.238-   9 2.93   2 2.93   5 2.93  11 2.93   7 2.93  18 2.93   1 2.93   6 2.93
                            12 2.93
   4  0.000  0.333  0.238-   5 2.93   6 2.93   2 2.93   1 2.93   7 2.93  13 2.93  15 2.93   9 2.93
                            10 2.93
   5  0.333  0.333  0.238-   4 2.93   3 2.93   7 2.93   2 2.93   8 2.93  14 2.93  13 2.93  11 2.93
                             6 2.93
   6  0.667  0.333  0.238-   4 2.93   9 2.93   1 2.93  15 2.93   8 2.93  12 2.93   3 2.93   5 2.93
                            14 2.93
   7  0.000  0.667  0.238-   8 2.93   1 2.93   5 2.93   3 2.93   4 2.93  16 2.93  18 2.93  13 2.93
                             9 2.93
   8  0.333  0.667  0.238-   7 2.93   1 2.93   2 2.93   9 2.93   5 2.93  16 2.93   6 2.93  17 2.93
                            14 2.93
   9  0.667  0.667  0.238-   3 2.93   2 2.93   8 2.93   6 2.93  17 2.93   4 2.93  15 2.93   7 2.93
                            18 2.93
  10  0.111  0.111  0.346-  20 2.90  19 2.93  26 2.93  12 2.93  16 2.93  15 2.93  17 2.93  13 2.93
                            11 2.93   2 2.93   1 2.93   4 2.93
  11  0.444  0.111  0.346-  21 2.90  20 2.90  27 2.92  14 2.93  17 2.93  18 2.93   3 2.93  12 2.93
                            13 2.93  10 2.93   5 2.93   2 2.93
  12  0.778  0.111  0.346-  21 2.90  25 2.93  19 2.93  10 2.93  16 2.93  18 2.93  15 2.93  11 2.93
                             1 2.93  14 2.93   6 2.93   3 2.93
  13  0.111  0.444  0.346-  20 2.90  23 2.90  22 2.92  15 2.93  14 2.93  18 2.93  10 2.93  11 2.93
                            16 2.93   4 2.93   5 2.93   7 2.93
  14  0.444  0.444  0.346-  23 2.90  21 2.90  24 2.92  13 2.93  11 2.93  16 2.93   5 2.93  12 2.93
                            17 2.93   8 2.93  15 2.93   6 2.93
  15  0.778  0.444  0.346-  24 2.92  22 2.92  19 2.93  13 2.93  10 2.93  12 2.93  17 2.93  18 2.93
                             4 2.93   6 2.93   9 2.93  14 2.93
  16  0.111  0.778  0.346-  23 2.90  26 2.93  25 2.93  18 2.93  12 2.93  10 2.93  14 2.93  17 2.93
                            13 2.93   7 2.93   8 2.93   1 2.93
  17  0.444  0.778  0.346-  27 2.92  24 2.92  26 2.93  11 2.93  10 2.93   9 2.93  18 2.93  15 2.93
                            16 2.93   2 2.93  14 2.93   8 2.93
  18  0.778  0.778  0.346-  22 2.92  27 2.92  25 2.93  16 2.93  12 2.93  13 2.93  11 2.93  17 2.93
                            15 2.93   7 2.93   3 2.93   9 2.93
  19  0.889  0.223  0.454-  28 2.91  15 2.93  10 2.93  12 2.93  24 2.93  22 2.93  26 2.93  25 2.93
                            20 2.94  21 2.94  32 2.94  31 2.94
  20  0.223  0.223  0.452-  36 2.77  13 2.90  11 2.90  10 2.90  21 2.92  23 2.92  31 2.92  29 2.92
                            27 2.93  22 2.93  19 2.94  26 2.94
  21  0.555  0.223  0.452-  36 2.77  11 2.90  14 2.90  12 2.90  20 2.92  23 2.92  30 2.92  32 2.92
                            27 2.93  24 2.93  25 2.94  19 2.94
  22  0.888  0.556  0.453-  35 2.91  18 2.92  15 2.92  13 2.92  33 2.92  31 2.92  24 2.92  27 2.92
                            25 2.93  19 2.93  23 2.93  20 2.93
  23  0.223  0.555  0.452-  36 2.77  14 2.90  13 2.90  16 2.90  21 2.92  20 2.92  34 2.92  33 2.92
                            22 2.93  24 2.93  26 2.94  25 2.94
  24  0.556  0.556  0.453-  35 2.91  15 2.92  17 2.92  14 2.92  32 2.92  34 2.92  27 2.92  22 2.92
                            19 2.93  26 2.93  23 2.93  21 2.93
  25  0.889  0.889  0.454-  28 2.91  18 2.93  16 2.93  12 2.93  22 2.93  27 2.93  26 2.93  19 2.93
                            23 2.94  21 2.94  33 2.94  30 2.94
  26  0.223  0.889  0.454-  28 2.91  17 2.93  16 2.93  10 2.93  27 2.93  24 2.93  25 2.93  19 2.93
                            23 2.94  20 2.94  34 2.94  29 2.94
  27  0.556  0.888  0.453-  35 2.91  17 2.92  18 2.92  11 2.92  29 2.92  30 2.92  24 2.92  22 2.92
                            26 2.93  25 2.93  20 2.93  21 2.93
  28  0.000  0.000  0.560-  26 2.91  25 2.91  19 2.91  29 2.95  34 2.95  33 2.95  32 2.95  31 2.95
                            30 2.95
  29  0.333  0.006  0.561-  31 2.88  30 2.88  36 2.89  20 2.92  27 2.92  26 2.94  28 2.95  35 2.96
                            34 3.03
  30  0.661  0.006  0.561-  32 2.88  29 2.88  36 2.89  21 2.92  27 2.92  25 2.94  28 2.95  35 2.96
                            33 3.03
  31  0.006  0.333  0.561-  37 2.25  29 2.88  33 2.88  36 2.89  20 2.92  22 2.92  19 2.94  28 2.95
                            35 2.96  32 3.03
  32  0.661  0.333  0.561-  38 2.25  30 2.88  34 2.88  36 2.89  21 2.92  24 2.92  19 2.94  28 2.95
                            35 2.96  31 3.03
  33  0.006  0.661  0.561-  34 2.88  31 2.88  36 2.89  23 2.92  22 2.92  25 2.94  28 2.95  35 2.96
                            30 3.03
  34  0.333  0.661  0.561-  33 2.88  32 2.88  36 2.89  23 2.92  24 2.92  26 2.94  28 2.95  35 2.96
                            29 3.03
  35  0.667  0.667  0.560-  24 2.91  27 2.91  22 2.91  30 2.96  32 2.96  29 2.96  34 2.96  31 2.96
                            33 2.96
  36  0.333  0.333  0.551-  38 1.63  37 1.63  21 2.77  20 2.77  23 2.77  31 2.89  30 2.89  33 2.89
                            29 2.89  34 2.89  32 2.89
  37  0.252  0.282  0.609-  36 1.63  31 2.25
  38  0.466  0.282  0.609-  36 1.63  32 2.25

  LATTYP: Found a hexagonal cell.
 ALAT       =     8.7913665772
 C/A-ratio  =     2.5227160501

  Lattice vectors:

 A1 = (  -4.3956832886,  -7.6135467898,   0.0000000000)
 A2 = (   8.7913665771,   0.0000000000,   0.0000000000)
 A3 = (   0.0000000000,   0.0000000000,  22.1781215668)

Analysis of symmetry for initial positions (statically):
 Subroutine PRICEL returns:
 Original cell was already a primitive cell.

 Routine SETGRP: Setting up the symmetry group for a
 hexagonal supercell.

 Subroutine GETGRP returns: Found  2 space group operations
 (whereof  2 operations were pure point group operations)
 out of a pool of 24 trial point group operations.

The static configuration has the point symmetry C_1h.

Analysis of symmetry for dynamics (positions and initial velocities):
 Subroutine PRICEL returns:
 Original cell was already a primitive cell.

[...]

The dynamic configuration has the point symmetry C_1h.

Analysis of constrained symmetry for selective dynamics:
 Subroutine PRICEL returns:
 Original cell was already a primitive cell.

 Routine SETGRP: Setting up the symmetry group for a
 hexagonal supercell.

[...]
     33      -4.4440      2.00000
     34      -4.4176      2.00000
     35      -4.3909      2.00000
     36      -4.3598      2.00000
     37      -4.3301      2.00000
     38      -4.3062      2.00000
     39      -4.2908      2.00000
     40      -4.2893      2.00000
     41      -4.2659      2.00000
     42      -4.2468      2.00000
     43      -4.1986      2.00000
     44      -4.1695      2.00000
     45      -4.1599      2.00000
     46      -4.1426      2.00000
     47      -4.1285      2.00000
     48      -4.1211      2.00000
     49      -4.1083      2.00000
     50      -4.1029      2.00000
     51      -4.0921      2.00000
     52      -4.0879      2.00000
     53      -4.0746      2.00000
     54      -4.0626      2.00000
     55      -4.0104      2.00000
     56      -4.0052      2.00000
     57      -3.9966      2.00000
     58      -3.9731      2.00000
     59      -3.9607      2.00000
     60      -3.9515      2.00000
[...]
    238       6.9149      0.00000
    239       7.2257      0.00000
    240       7.2586      0.00000
    241       7.2795      0.00000
    242       7.3204      0.00000
    243       7.3557      0.00000
    244       7.3615      0.00000
    245       7.4060      0.00000
    246       7.5888      0.00000
    247       7.6072      0.00000
    248       7.6627      0.00000
    249       7.6901      0.00000
    250       7.9527      0.00000
    251       8.0157      0.00000
    252       8.1181      0.00000

 soft charge-density along one line, spin component           1
         0         1         2         3         4         5         6         7         8         9
 total charge-density along one line

------------------------ aborting loop because EDIFF is reached ----------------------------------------

 total charge

# of ion       s       p       d       tot
    1        0.417   0.201   9.180   9.797
    2        0.418   0.202   9.178   9.798
    3        0.418   0.202   9.178   9.798
    4        0.418   0.203   9.177   9.798
    5        0.419   0.203   9.175   9.798
    6        0.418   0.203   9.177   9.798
    7        0.417   0.203   9.177   9.797
    8        0.417   0.203   9.177   9.797
    9        0.413   0.202   9.179   9.795
   10        0.406   0.269   9.164   9.839
   11        0.410   0.267   9.168   9.845
   12        0.406   0.269   9.164   9.839
   13        0.410   0.267   9.168   9.846
   14        0.410   0.267   9.168   9.846
   15        0.404   0.268   9.166   9.838
   16        0.408   0.268   9.165   9.841
   17        0.402   0.270   9.165   9.838
   18        0.402   0.270   9.165   9.838
   19        0.399   0.268   9.166   9.834
   20        0.429   0.288   9.155   9.872
   21        0.429   0.288   9.155   9.872
   22        0.394   0.276   9.165   9.836
   23        0.434   0.291   9.148   9.873
   24        0.394   0.276   9.165   9.836
   25        0.403   0.266   9.167   9.836
   26        0.403   0.266   9.167   9.836
   27        0.394   0.275   9.166   9.834
   28        0.417   0.194   9.183   9.794
   29        0.405   0.216   9.178   9.799
   30        0.405   0.216   9.178   9.799
   31        0.403   0.230   9.168   9.802
   32        0.403   0.230   9.168   9.802
   33        0.417   0.212   9.171   9.800
   34        0.417   0.212   9.171   9.800
   35        0.408   0.197   9.184   9.789
   36        0.518   0.542   6.760   7.821
   37        0.504   0.020   0.000   0.524
   38        0.504   0.020   0.000   0.524
tot         15.896   9.021 327.709 352.626

  FORCE on cell =-STRESS in cart. coord.  units (eV):
  Direction    XX          YY          ZZ          XY          YZ          ZX
  Alpha Z   736.69991   736.69991   736.69991
  Ewald  121110.84249121080.18464************     0.00001    -6.57473     0.00000
  Hartree131219.12688131209.68110************     0.00000     1.54711     0.00000
  E(xc)   -2072.77761 -2072.92140 -2078.68277    -0.00002    -0.00232     0.00000
  Local  ************************263774.96882     0.00033     2.62312    -0.00005
  n-local  -316.84607  -318.89281  -319.29882     2.76666    -0.98161     0.24147
  augment  3265.96492  3267.03785  3274.72595    -0.00015     0.83295     0.00003
  Kinetic  4877.32160  4881.62171  4903.41949     1.42678     2.66299    -0.03439
  Fock        0.00000     0.00000     0.00000     0.00000     0.00000     0.00000
  Total      -8.26483    -7.88174     0.72711    -0.00000     0.10751     0.00000
  in kB      -8.92023    -8.50677     0.78477    -0.00000     0.11604     0.00000

 VOLUME and BASIS-vectors are now :
  energy-cutoff  :      500.00
  volume of cell :     1484.46
      direct lattice vectors                 reciprocal lattice vectors
     8.791366577  0.000000000  0.000000000     0.113747958 -0.065672414  0.000000000
     4.395683289  7.613546790  0.000000000     0.000000000  0.131344829  0.000000000
     0.000000000  0.000000000 22.178121567     0.000000000  0.000000000  0.045089481

  length of vectors
     8.791366577  8.791366577 22.178121567     0.131344829  0.131344829  0.045089481

 FORCES acting on ions
    electron-ion (+dipol)            ewald-force                    non-local-force                 convergence-correction
   0.459E-04 -.635E-01 0.250E+04   -.954E-04 -.249E-01 -.250E+04   0.352E-12 0.536E-01 -.226E+01   -.106E-03 0.317E-01 -.249E+00
   0.223E+00 0.267E+00 0.250E+04   -.353E+00 -.418E+00 -.250E+04   0.822E-01 0.122E+00 -.162E+01   0.508E-01 0.395E-01 -.231E+00
   -.223E+00 0.267E+00 0.250E+04   0.353E+00 -.418E+00 -.250E+04   -.822E-01 0.122E+00 -.162E+01   -.514E-01 0.414E-01 -.231E+00
   0.367E+00 0.481E-01 0.250E+04   -.517E+00 -.803E-01 -.250E+04   0.127E+00 0.768E-02 -.162E+01   0.411E-01 0.232E-01 -.221E+00
   -.777E-05 0.920E-01 0.250E+04   0.981E-04 0.301E-01 -.250E+04   -.139E-12 -.211E-01 -.126E+01   0.624E-02 -.922E-01 -.163E+00
   -.367E+00 0.482E-01 0.250E+04   0.517E+00 -.803E-01 -.250E+04   -.127E+00 0.768E-02 -.162E+01   -.425E-01 0.241E-01 -.220E+00
   0.210E+00 -.346E+00 0.250E+04   -.163E+00 0.498E+00 -.250E+04   0.499E-01 -.136E+00 -.154E+01   -.800E-01 -.307E-01 -.187E+00
   -.210E+00 -.346E+00 0.250E+04   0.163E+00 0.498E+00 -.250E+04   -.499E-01 -.136E+00 -.154E+01   0.816E-01 -.317E-01 -.187E+00
   0.360E-04 0.535E-01 0.250E+04   0.792E-04 -.429E-02 -.250E+04   -.202E-12 -.308E-01 -.203E+01   -.666E-02 -.170E-01 -.251E+00
   0.400E+01 0.231E+01 0.832E+03   -.371E+01 -.219E+01 -.831E+03   -.349E+00 -.167E+00 -.800E+00   0.541E-01 0.343E-01 0.117E+00
   -.285E-04 0.415E+01 0.837E+03   0.412E-04 -.435E+01 -.837E+03   0.103E-11 0.157E+00 -.384E+00   0.628E-02 -.226E-02 0.154E+00
   -.400E+01 0.231E+01 0.832E+03   0.371E+01 -.219E+01 -.831E+03   0.349E+00 -.167E+00 -.800E+00   -.557E-01 0.354E-01 0.117E+00
   0.369E+01 -.220E+01 0.836E+03   -.371E+01 0.237E+01 -.836E+03   0.228E-01 -.133E+00 -.317E+00   -.245E-01 -.537E-02 0.129E+00
   -.369E+01 -.220E+01 0.836E+03   0.371E+01 0.237E+01 -.836E+03   -.228E-01 -.133E+00 -.317E+00   0.351E-01 -.618E-02 0.128E+00
   0.162E-04 0.583E+00 0.832E+03   -.108E-03 -.725E+00 -.831E+03   0.357E-12 0.543E-01 -.839E+00   -.164E-02 0.734E-01 0.678E-01
   -.800E-05 -.454E+01 0.832E+03   0.206E-04 0.410E+01 -.831E+03   0.315E-11 0.479E+00 -.770E+00   0.120E-03 -.482E-01 0.991E-01
   0.647E+00 -.221E+00 0.832E+03   -.806E+00 0.303E+00 -.831E+03   0.700E-01 -.285E-01 -.816E+00   0.697E-01 -.384E-01 0.618E-01
   -.647E+00 -.221E+00 0.832E+03   0.806E+00 0.303E+00 -.831E+03   -.700E-01 -.285E-01 -.816E+00   -.697E-01 -.365E-01 0.624E-01
   0.409E-04 -.268E+00 -.861E+03   -.127E-03 0.272E+00 0.860E+03   0.174E-13 0.265E-02 0.588E+00   -.378E-03 0.174E-01 0.274E+00
   0.555E+01 0.282E+01 -.841E+03   -.479E+01 -.209E+01 0.842E+03   -.101E+01 -.825E+00 -.119E+01   0.160E+00 0.165E-01 0.346E+00
   -.555E+01 0.282E+01 -.841E+03   0.479E+01 -.209E+01 0.842E+03   0.101E+01 -.825E+00 -.119E+01   -.160E+00 0.168E-01 0.345E+00
   -.443E+00 -.527E+00 -.855E+03   0.395E+00 0.592E+00 0.855E+03   0.111E+00 -.842E-01 0.402E+00   -.115E-01 -.111E-01 0.288E+00
   -.560E-04 -.735E+01 -.845E+03   0.418E-04 0.617E+01 0.846E+03   0.968E-11 0.147E+01 -.136E+01   0.620E-03 -.156E+00 0.369E+00
   0.443E+00 -.527E+00 -.855E+03   -.396E+00 0.592E+00 0.855E+03   -.111E+00 -.842E-01 0.402E+00   0.115E-01 -.113E-01 0.288E+00
   -.338E+00 0.123E+01 -.862E+03   0.322E+00 -.126E+01 0.861E+03   0.247E-01 0.756E-02 0.654E+00   -.501E-01 0.263E-01 0.342E+00
   0.339E+00 0.123E+01 -.862E+03   -.322E+00 -.126E+01 0.861E+03   -.247E-01 0.756E-02 0.654E+00   0.501E-01 0.258E-01 0.343E+00
   0.197E-04 0.571E+00 -.855E+03   0.110E-03 -.106E+01 0.854E+03   0.272E-11 0.414E+00 0.465E+00   -.402E-03 0.788E-01 0.321E+00
   0.539E-04 0.358E+01 -.250E+04   -.115E-03 -.351E+01 0.250E+04   -.623E-12 -.949E-01 0.209E+01   0.108E-03 -.294E-01 0.295E+00
   0.624E+01 0.170E+02 -.250E+04   -.556E+01 -.166E+02 0.250E+04   -.772E+00 -.526E+00 0.216E+01   0.682E-01 0.919E-01 0.144E+00
   -.624E+01 0.170E+02 -.250E+04   0.556E+01 -.166E+02 0.250E+04   0.772E+00 -.526E+00 0.216E+01   -.688E-01 0.932E-01 0.144E+00
   0.168E+02 -.550E+01 -.250E+04   -.162E+02 0.594E+01 0.250E+04   -.850E+00 -.358E+00 0.204E+01   0.200E+00 -.259E-01 0.114E+00
   -.168E+02 -.550E+01 -.250E+04   0.162E+02 0.594E+01 0.250E+04   0.850E+00 -.358E+00 0.204E+01   -.201E+00 -.250E-01 0.114E+00
   -.951E-01 -.492E+01 -.251E+04   0.698E+00 0.401E+01 0.251E+04   -.634E+00 0.103E+01 0.172E+01   0.245E-01 -.710E-01 0.147E+00
   0.952E-01 -.492E+01 -.251E+04   -.698E+00 0.401E+01 0.251E+04   0.634E+00 0.103E+01 0.172E+01   -.231E-01 -.714E-01 0.147E+00
   0.247E-04 0.673E-01 -.251E+04   0.105E-03 -.242E+00 0.250E+04   0.578E-12 0.880E-01 0.224E+01   -.651E-02 0.778E-01 0.227E+00
   -.244E-04 -.218E+02 -.170E+04   0.767E-04 0.198E+02 0.171E+04   0.136E-10 0.208E+01 -.548E+01   0.176E-02 -.175E-01 0.409E-01
   0.483E+01 0.886E+00 -.286E+03   -.578E+01 -.130E+01 0.287E+03   0.930E+00 0.416E+00 -.178E+01   0.127E-01 0.479E-02 -.177E-01
   -.483E+01 0.886E+00 -.286E+03   0.578E+01 -.130E+01 0.287E+03   -.930E+00 0.416E+00 -.178E+01   -.127E-01 0.485E-02 -.178E-01
   0.325E-03 -.334E+01 0.112E+02   0.888E-15 0.195E-13 -.563E-11   0.218E-10 0.332E+01 -.144E+02   0.839E-02 0.295E-01 0.325E+01

 POSITION                                       TOTAL-FORCE (eV/Angst)
      0.00000      0.00000      5.28219        -0.000000     -0.003216     -0.000788
      2.93046      0.00000      5.28219         0.003299      0.011422      0.034925
      5.86091      0.00000      5.28219        -0.003299      0.011422      0.034925
      1.46523      2.53785      5.28219         0.019542     -0.000933      0.040355
      4.39568      2.53785      5.28219         0.000000      0.008618      0.014236
      7.32614      2.53785      5.28219        -0.019542     -0.000933      0.040355
      2.93046      5.07570      5.28219         0.016254     -0.015250      0.037757
      5.86091      5.07570      5.28219        -0.016254     -0.015250      0.037757
      8.79137      5.07570      5.28219         0.000000      0.001385      0.026800
      1.46523      0.84595      7.67490        -0.001065     -0.007099     -0.009492
      4.39568      0.84595      7.67490        -0.000000     -0.049457     -0.086796
      7.32614      0.84595      7.67490         0.001065     -0.007099     -0.009492
      2.93046      3.38380      7.67490        -0.023850      0.027185     -0.058517
      5.86091      3.38380      7.67490         0.023850      0.027185     -0.058517
      8.79137      3.38380      7.67490        -0.000000     -0.014559     -0.017228
      4.39568      5.92165      7.67490        -0.000000     -0.005077     -0.007549
      7.32614      5.92165      7.67490        -0.018948      0.016033      0.007698
     10.25659      5.92165      7.67490         0.018948      0.016033      0.007698
      8.79137      1.69450     10.06282         0.000000      0.024330      0.073479
      2.93652      1.69540     10.03056        -0.089897     -0.071462     -0.190887
      5.85484      1.69540     10.03056         0.089897     -0.071462     -0.190887
     10.25378      4.23137     10.05553         0.052789     -0.030180      0.000130
      4.39568      4.22274     10.03056         0.000000      0.128702     -0.178142
      7.32895      4.23137     10.05553        -0.052789     -0.030180      0.000130
     11.71957      6.76630     10.06282        -0.041935     -0.001226      0.013871
      5.86316      6.76630     10.06282         0.041935     -0.001226      0.013871
      8.79137      6.76435     10.05553         0.000000      0.006338     -0.010446
      0.00000      0.00000     12.42400        -0.000000     -0.057620     -0.002779
      2.95387      0.04433     12.43748        -0.015390     -0.080602     -0.002743
      5.83749      0.04433     12.43748         0.015390     -0.080602     -0.002743
      1.51533      2.53597     12.43748        -0.048738      0.049760      0.017575
      7.27604      2.53597     12.43748         0.048738      0.049760      0.017575
      2.95713      5.03325     12.43748        -0.006627      0.051647     -0.014948
      5.83423      5.03325     12.43748         0.006627      0.051647     -0.014948
      8.79137      5.07570     12.42069        -0.000000     -0.009054      0.007903
      4.39568      2.53785     12.23056         0.000000      0.065848      0.400801
      3.45238      2.14936     13.50746        -0.008790      0.002585      0.014532
      5.33898      2.14936     13.50746         0.008790      0.002585      0.014532
    total drift:                                0.008718      0.003486      0.052119

  FREE ENERGIE OF THE ION-ELECTRON SYSTEM (eV)
  free  energy   TOTEN  =      -103.69113270 eV

  energy  without entropy=     -103.69113270  energy(sigma->0) =     -103.69113270

 stress matrix after NEB project (eV)
     -8.26483     -0.00000      0.00000
     -0.00000     -7.88174      0.10751
      0.00000      0.10751      0.72711
  FORCES: max atom, RMS     0.017179    0.003941
  FORCE total and by dimension    0.024295    0.014532
  Stress total and by dimension   11.444698    8.264829
|           W    W    AA    RRRRR   N    N  II  N    N   GGGG   !!!           |
|           W    W   A  A   R    R  NN   N  II  NN   N  G    G  !!!           |
|           W    W  A    A  R    R  N N  N  II  N N  N  G       !!!           |
|           W WW W  AAAAAA  RRRRR   N  N N  II  N  N N  G  GGG   !            |
|           WW  WW  A    A  R   R   N   NN  II  N   NN  G    G                |
|           W    W  A    A  R    R  N    N  II  N    N   GGGG   !!!           |
|     Tetrahedron method does not include variations of the Fermi             |
|     occupations, so forces and stress will be inaccurate. We suggest        |
|     using a different smearing scheme ISMEAR = 1 or 2 for metals in         |
|     relaxations.                                                            |

 total charge

# of ion       s       p       d       tot
    1        0.417   0.201   9.180   9.797
    2        0.418   0.202   9.178   9.798
    3        0.418   0.202   9.178   9.798
    4        0.418   0.203   9.177   9.798
    5        0.419   0.203   9.175   9.798
    6        0.418   0.203   9.177   9.798
    7        0.417   0.203   9.177   9.797
    8        0.417   0.203   9.177   9.797
    9        0.413   0.202   9.179   9.795
   10        0.406   0.269   9.164   9.839
   11        0.410   0.267   9.168   9.845
   12        0.406   0.269   9.164   9.839
   13        0.410   0.267   9.168   9.846
   14        0.410   0.267   9.168   9.846
   15        0.404   0.268   9.166   9.838
   16        0.408   0.268   9.165   9.841
   17        0.402   0.270   9.165   9.838
   18        0.402   0.270   9.165   9.838
   19        0.399   0.268   9.166   9.834
   20        0.429   0.288   9.155   9.872
   21        0.429   0.288   9.155   9.872
   22        0.394   0.276   9.165   9.836
   23        0.434   0.291   9.148   9.873
   24        0.394   0.276   9.165   9.836
   25        0.403   0.266   9.167   9.836
   26        0.403   0.266   9.167   9.836
   27        0.394   0.275   9.166   9.834
   28        0.417   0.194   9.183   9.794
   29        0.405   0.216   9.178   9.799
   30        0.405   0.216   9.178   9.799
   31        0.403   0.230   9.168   9.802
   32        0.403   0.230   9.168   9.802
   33        0.417   0.212   9.171   9.800
   34        0.417   0.212   9.171   9.800
   35        0.408   0.197   9.184   9.789
   36        0.518   0.542   6.760   7.821
   37        0.504   0.020   0.000   0.524
   38        0.504   0.020   0.000   0.524
tot         15.896   9.021 327.709 352.626

 BZINTS: Fermi energy:    0.812013;  395.000000 electrons
         Band energy:-0.126046E+04;  BLOECHL correction:   -0.045473