 vasp.6.2.0 18Jan21 (build Jun 12 2021 23:27:24) complex

 executed on             LinuxIFC date 2022.05.26  19:43:14

 INCAR:
   ISMEAR = -5
   SIGMA = 0.1
   ISPIN = 1
   EDIFF = 1.d-5
   EDIFFG = -0.01
   NSW = 0
   NELM = 150
   ENCUT = 500
   ISIF = 2
   IBRION = 2
   LREAL = Auto
   ALGO = Fast
   ICHARG = 11
   LORBIT = 10
   LCHARG = .F.
   LWAVE = .F.

 POTCAR:    PAW_PBE Ag 02Apr2005
 POTCAR:    PAW_PBE Ni 02Aug2007
 POTCAR:    PAW_PBE N 08Apr2002
|           W    W    AA    RRRRR   N    N  II  N    N   GGGG   !!!           |
|           W    W   A  A   R    R  NN   N  II  NN   N  G    G  !!!           |
|           W    W  A    A  R    R  N N  N  II  N N  N  G       !!!           |
|           W WW W  AAAAAA  RRRRR   N  N N  II  N  N N  G  GGG   !            |
|           WW  WW  A    A  R   R   N   NN  II  N   NN  G    G                |
|           W    W  A    A  R    R  N    N  II  N    N   GGGG   !!!           |
|     For optimal performance we recommend to set                             |
|       NCORE = 2 up to number-of-cores-per-socket                            |
|     This setting can greatly improve the performance of VASP for DFT.       |
|     The default, NCORE=1 might be grossly inefficient on modern             |
|     multi-core architectures or massively parallel machines. Do your        |
|     Unfortunately you need to use the default for GW and RPA                |
|     calculations (for HF NCORE is supported but not extensively tested      |
|     yet).                                                                   |

 POTCAR:    PAW_PBE Ag 02Apr2005
   VRHFIN =Ag : s1 d10

   TITEL  = PAW_PBE Ag 02Apr2005
   POMASS =  107.868; ZVAL   =   11.000    mass and valenz
   ENMAX  =  249.844; ENMIN  =  187.383 eV

 POTCAR:    PAW_PBE Ni 02Aug2007
   VRHFIN =Ni:

   TITEL  = PAW_PBE Ni 02Aug2007
   POMASS =   58.690; ZVAL   =   10.000    mass and valenz
   ENMAX  =  269.532; ENMIN  =  202.149 eV

 POTCAR:    PAW_PBE N 08Apr2002
   VRHFIN =N: s2p3

   TITEL  = PAW_PBE N 08Apr2002
   POMASS =   14.001; ZVAL   =    5.000    mass and valenz
   ENMAX  =  400.000; ENMIN  =  300.000 eV

 Optimization of the real space projectors (new method)

 maximal supplied QI-value         = 15.12
 optimisation between [QCUT,QGAM] = [ 11.34, 22.83] = [ 36.00,145.93] Ry
 Optimized for a Real-space Cutoff    1.43 Angstroem

   l    n(q)    QCUT    max X(q) W(low)/X(q) W(high)/X(q)  e(spline)
   2      9    11.338    53.897    0.16E-03    0.20E-03    0.28E-06
   2      9    11.338    52.416    0.16E-03    0.20E-03    0.29E-06
   0     10    11.338   122.045    0.31E-04    0.76E-04    0.15E-06
   0     10    11.338    73.629    0.30E-04    0.72E-04    0.15E-06
   1      9    11.338    15.255    0.20E-03    0.19E-04    0.17E-06
   1      9    11.338     9.562    0.16E-03    0.15E-04    0.14E-06
 Optimization of the real space projectors (new method)

[...]

   l    n(q)    QCUT    max X(q) W(low)/X(q) W(high)/X(q)  e(spline)
   2      8    11.376    60.317    0.19E-03    0.33E-04    0.13E-06
   2      8    11.376    55.921    0.20E-03    0.34E-04    0.14E-06
   0      9    11.376    51.690    0.82E-04    0.12E-03    0.20E-06
   0      9    11.376    30.015    0.74E-04    0.11E-03    0.18E-06
   1      9    11.376    18.849    0.39E-03    0.12E-03    0.13E-06
   1      9    11.376    14.624    0.33E-03    0.10E-03    0.11E-06
 Optimization of the real space projectors (new method)

 maximal supplied QI-value         = 25.13
 optimisation between [QCUT,QGAM] = [ 11.31, 22.87] = [ 35.82,146.48] Ry
 Optimized for a Real-space Cutoff    1.27 Angstroem

   l    n(q)    QCUT    max X(q) W(low)/X(q) W(high)/X(q)  e(spline)
   0      9    11.310    79.467    0.75E-04    0.16E-03    0.36E-06
   0      9    11.310    66.151    0.74E-04    0.16E-03    0.36E-06
   1      8    11.310    17.416    0.35E-03    0.12E-03    0.95E-06
   1      8    11.310    12.382    0.37E-03    0.13E-03    0.98E-06
  PAW_PBE Ag 02Apr2005                  :
  PAW_PBE Ni 02Aug2007                  :
  PAW_PBE N 08Apr2002                   :

 POSCAR: Ag-Ni-N
  positions in direct lattice
  velocities in cartesian coordinates
 exchange correlation table for  LEXCH =        8
   RHO(1)=    0.500       N(1)  =     2000
   RHO(2)=  100.500       N(2)  =     4000

 VTST: version 3.2, (02/03/18)

 CHAIN: initializing optimizer

 OPT: Using VASP Conjugate-Gradient optimizer
 CHAIN: Read ICHAIN            0

 POSCAR: Ag-Ni-N
  positions in direct lattice
  velocities in cartesian coordinates

 ion  position               nearest neighbor table
   1  0.000  0.000  0.238-   2 2.93   8 2.93   7 2.93   6 2.93   4 2.93  12 2.93  16 2.93  10 2.93
                             3 2.93
   2  0.333  0.000  0.238-   1 2.93   8 2.93   9 2.93   3 2.93   4 2.93   5 2.93  10 2.93  17 2.93
                            11 2.93
   3  0.667  0.000  0.238-   9 2.93   2 2.93   5 2.93  11 2.93   7 2.93  18 2.93   1 2.93   6 2.93
                            12 2.93
   4  0.000  0.333  0.238-   5 2.93   6 2.93   2 2.93   1 2.93   7 2.93  13 2.93  15 2.93   9 2.93
                            10 2.93
   5  0.333  0.333  0.238-   4 2.93   3 2.93   7 2.93   2 2.93   8 2.93  14 2.93  13 2.93  11 2.93
                             6 2.93
   6  0.667  0.333  0.238-   4 2.93   9 2.93   1 2.93  15 2.93   8 2.93  12 2.93   3 2.93   5 2.93
                            14 2.93
   7  0.000  0.667  0.238-   8 2.93   1 2.93   5 2.93   3 2.93   4 2.93  16 2.93  18 2.93  13 2.93
                             9 2.93
   8  0.333  0.667  0.238-   7 2.93   1 2.93   2 2.93   9 2.93   5 2.93  16 2.93   6 2.93  17 2.93
                            14 2.93
   9  0.667  0.667  0.238-   3 2.93   2 2.93   8 2.93   6 2.93  17 2.93   4 2.93  15 2.93   7 2.93
                            18 2.93
  10  0.111  0.111  0.346-  20 2.91  19 2.92  26 2.92  12 2.93  16 2.93  15 2.93  17 2.93  13 2.93
                            11 2.93   2 2.93   1 2.93   4 2.93
  11  0.444  0.111  0.346-  21 2.91  20 2.91  27 2.91  14 2.93  17 2.93  18 2.93   3 2.93  12 2.93
                            13 2.93  10 2.93   5 2.93   2 2.93
  12  0.778  0.111  0.346-  21 2.91  25 2.92  19 2.92  10 2.93  16 2.93  18 2.93  15 2.93  11 2.93
                             1 2.93  14 2.93   6 2.93   3 2.93
  13  0.111  0.444  0.346-  20 2.91  23 2.91  22 2.91  15 2.93  14 2.93  18 2.93  10 2.93  11 2.93
                            16 2.93   4 2.93   5 2.93   7 2.93
  14  0.444  0.444  0.346-  23 2.91  21 2.91  24 2.91  13 2.93  11 2.93  16 2.93   5 2.93  12 2.93
                            17 2.93   8 2.93  15 2.93   6 2.93
  15  0.778  0.444  0.346-  24 2.91  22 2.91  19 2.92  13 2.93  10 2.93  12 2.93  17 2.93  18 2.93
                             4 2.93   6 2.93   9 2.93  14 2.93
  16  0.111  0.778  0.346-  23 2.91  26 2.92  25 2.92  18 2.93  12 2.93  10 2.93  14 2.93  17 2.93
                            13 2.93   7 2.93   8 2.93   1 2.93
  17  0.444  0.778  0.346-  27 2.91  24 2.91  26 2.92  11 2.93  10 2.93   9 2.93  18 2.93  15 2.93
                            16 2.93   2 2.93  14 2.93   8 2.93
  18  0.778  0.778  0.346-  22 2.91  27 2.91  25 2.92  16 2.93  12 2.93  13 2.93  11 2.93  17 2.93
                            15 2.93   7 2.93   3 2.93   9 2.93
  19  0.889  0.223  0.454-  28 2.91  15 2.92  10 2.92  12 2.92  24 2.93  22 2.93  32 2.94  31 2.94
                            26 2.94  25 2.94  20 2.94  21 2.94
  20  0.223  0.223  0.453-  36 2.69  31 2.89  29 2.89  13 2.91  11 2.91  10 2.91  21 2.92  23 2.92
                            27 2.93  22 2.93  19 2.94  26 2.94
  21  0.554  0.223  0.453-  36 2.69  30 2.89  32 2.89  11 2.91  14 2.91  12 2.91  20 2.92  23 2.92
                            27 2.93  24 2.93  25 2.94  19 2.94
  22  0.889  0.556  0.453-  18 2.91  15 2.91  35 2.91  13 2.91  33 2.91  31 2.91  24 2.93  27 2.93
                            25 2.93  19 2.93  23 2.93  20 2.93
  23  0.223  0.554  0.453-  36 2.69  34 2.89  33 2.89  14 2.91  13 2.91  16 2.91  21 2.92  20 2.92
                            22 2.93  24 2.93  26 2.94  25 2.94
  24  0.556  0.556  0.453-  15 2.91  17 2.91  35 2.91  14 2.91  32 2.91  34 2.91  27 2.93  22 2.93
                            19 2.93  26 2.93  23 2.93  21 2.93
  25  0.889  0.889  0.454-  28 2.91  18 2.92  16 2.92  12 2.92  22 2.93  27 2.93  33 2.94  30 2.94
                            26 2.94  19 2.94  23 2.94  21 2.94
  26  0.223  0.889  0.454-  28 2.91  17 2.92  16 2.92  10 2.92  27 2.93  24 2.93  34 2.94  29 2.94
                            25 2.94  19 2.94  23 2.94  20 2.94
  27  0.556  0.889  0.453-  17 2.91  18 2.91  35 2.91  11 2.91  29 2.91  30 2.91  24 2.93  22 2.93
                            26 2.93  25 2.93  20 2.93  21 2.93
  28  0.000  0.000  0.560-  26 2.91  25 2.91  19 2.91  29 2.96  34 2.96  33 2.96  32 2.96  31 2.96
                            30 2.96
  29  0.333  0.007  0.560-  30 2.87  31 2.87  36 2.88  20 2.89  27 2.91  26 2.94  35 2.96  28 2.96
                            34 3.06
  30  0.659  0.007  0.560-  29 2.87  32 2.87  36 2.88  21 2.89  27 2.91  25 2.94  35 2.96  28 2.96
                            33 3.06
  31  0.007  0.333  0.560-  33 2.87  29 2.87  36 2.88  20 2.89  22 2.91  19 2.94  35 2.96  28 2.96
                            32 3.06
  32  0.659  0.333  0.560-  34 2.87  30 2.87  36 2.88  21 2.89  24 2.91  19 2.94  35 2.96  28 2.96
                            31 3.06
  33  0.007  0.659  0.560-  31 2.87  34 2.87  36 2.88  23 2.89  22 2.91  25 2.94  35 2.96  28 2.96
                            30 3.06
  34  0.333  0.659  0.560-  32 2.87  33 2.87  36 2.88  23 2.89  24 2.91  26 2.94  35 2.96  28 2.96
                            29 3.06
  35  0.667  0.667  0.560-  24 2.91  27 2.91  22 2.91  30 2.96  32 2.96  29 2.96  34 2.96  31 2.96
                            33 2.96
  36  0.333  0.333  0.547-  37 1.62  21 2.69  20 2.69  23 2.69  31 2.88  33 2.88  30 2.88  29 2.88
                            34 2.88  32 2.88
  37  0.333  0.333  0.621-  36 1.62

  LATTYP: Found a hexagonal cell.
 ALAT       =     8.7913665772
 C/A-ratio  =     2.5227160501

  Lattice vectors:

 A1 = (  -4.3956832886,  -7.6135467898,   0.0000000000)
 A2 = (   8.7913665771,   0.0000000000,   0.0000000000)
 A3 = (   0.0000000000,   0.0000000000,  22.1781215668)

Analysis of symmetry for initial positions (statically):
 Subroutine PRICEL returns:
 Original cell was already a primitive cell.

 Routine SETGRP: Setting up the symmetry group for a
 hexagonal supercell.

 Subroutine GETGRP returns: Found  6 space group operations
 (whereof  6 operations were pure point group operations)
 out of a pool of 24 trial point group operations.

The static configuration has the point symmetry C_3v.

Analysis of symmetry for dynamics (positions and initial velocities):
 Subroutine PRICEL returns:
 Original cell was already a primitive cell.

[...]

The dynamic configuration has the point symmetry C_3v.

Analysis of constrained symmetry for selective dynamics:
 Subroutine PRICEL returns:
 Original cell was already a primitive cell.

 Routine SETGRP: Setting up the symmetry group for a
 hexagonal supercell.

 Subroutine GETGRP returns: Found  6 space group operations
[...]
     24      -4.7105      2.00000
     25      -4.7043      2.00000
     26      -4.6739      2.00000
     27      -4.6484      2.00000
     28      -4.6426      2.00000
     29      -4.6344      2.00000
     30      -4.6185      2.00000
     31      -4.6048      2.00000
     32      -4.6002      2.00000
     33      -4.5710      2.00000
     34      -4.5266      2.00000
     35      -4.4992      2.00000
     36      -4.4726      2.00000
     37      -4.4550      2.00000
     38      -4.4410      2.00000
     39      -4.4062      2.00000
     40      -4.4023      2.00000
     41      -4.3936      2.00000
     42      -4.3766      2.00000
     43      -4.3627      2.00000
     44      -4.3030      2.00000
     45      -4.2646      2.00000
     46      -4.2549      2.00000
     47      -4.2499      2.00000
     48      -4.2377      2.00000
     49      -4.2352      2.00000
     50      -4.2188      2.00000
     51      -4.2130      2.00000
     52      -4.2004      2.00000
     53      -4.1940      2.00000
     54      -4.1285      2.00000
     55      -4.1169      2.00000
     56      -4.1071      2.00000
     57      -4.1029      2.00000
     58      -4.0871      2.00000
     59      -4.0727      2.00000
     60      -4.0408      2.00000
[...]
    238       6.2600      0.00000
    239       6.3140      0.00000
    240       6.3855      0.00000
    241       6.9710      0.00000
    242       7.1349      0.00000
    243       7.1879      0.00000
    244       7.3010      0.00000
    245       7.3249      0.00000
    246       7.3640      0.00000
    247       7.4094      0.00000
    248       7.4907      0.00000
    249       7.5816      0.00000
    250       7.6252      0.00000
    251       7.6307      0.00000
    252       7.7298      0.00000

 soft charge-density along one line, spin component           1
         0         1         2         3         4         5         6         7         8         9
 total charge-density along one line

------------------------ aborting loop because EDIFF is reached ----------------------------------------

 total charge

# of ion       s       p       d       tot
    1        0.420   0.202   9.177   9.799
    2        0.415   0.203   9.177   9.796
    3        0.415   0.203   9.177   9.796
    4        0.415   0.203   9.177   9.796
    5        0.415   0.205   9.176   9.795
    6        0.415   0.203   9.177   9.796
    7        0.415   0.203   9.177   9.796
    8        0.415   0.203   9.177   9.796
    9        0.418   0.202   9.176   9.796
   10        0.406   0.269   9.164   9.839
   11        0.403   0.271   9.166   9.840
   12        0.406   0.269   9.164   9.839
   13        0.403   0.271   9.166   9.840
   14        0.403   0.271   9.166   9.840
   15        0.403   0.269   9.165   9.838
   16        0.406   0.269   9.164   9.839
   17        0.403   0.269   9.165   9.838
   18        0.403   0.269   9.165   9.838
   19        0.403   0.271   9.162   9.835
   20        0.422   0.288   9.155   9.866
   21        0.422   0.288   9.155   9.866
   22        0.404   0.270   9.168   9.842
   23        0.422   0.288   9.155   9.866
   24        0.404   0.270   9.168   9.842
   25        0.403   0.271   9.162   9.835
   26        0.403   0.271   9.162   9.835
   27        0.404   0.270   9.168   9.842
   28        0.415   0.193   9.184   9.792
   29        0.392   0.205   9.185   9.782
   30        0.392   0.205   9.185   9.782
   31        0.392   0.205   9.185   9.782
   32        0.392   0.205   9.185   9.782
   33        0.392   0.205   9.185   9.782
   34        0.392   0.205   9.185   9.782
   35        0.415   0.194   9.181   9.789
   36        0.533   0.558   8.376   9.467
   37        1.350   2.110   0.000   3.461
tot         16.133  11.027 329.382 356.542

  FORCE on cell =-STRESS in cart. coord.  units (eV):
  Direction    XX          YY          ZZ          XY          YZ          ZX
  Alpha Z   748.80710   748.80710   748.80710
  Ewald  122662.11677122662.11688************     0.00004     0.00001     0.00003
  Hartree133049.98687133049.98692************     0.00002    -0.00000     0.00002
  E(xc)   -2104.68505 -2104.68504 -2109.64915    -0.00001     0.00000    -0.00000
  Local  ************************266948.11129     0.00059    -0.00006    -0.00016
  n-local  -345.98894  -329.23302  -339.77124    10.21020    -0.40769     0.40907
  augment  3401.41529  3401.41567  3395.34594    -0.00035    -0.00000     0.00003
  Kinetic  4938.50265  4938.55413  4954.64100     1.95155     1.29815    -0.47524
  Fock        0.00000     0.00000     0.00000     0.00000     0.00000     0.00000
  Total      -9.31535    -9.31535     0.31801    -0.00000     0.00000    -0.00000
  in kB     -10.05406   -10.05406     0.34322    -0.00000     0.00000    -0.00000

 VOLUME and BASIS-vectors are now :
  energy-cutoff  :      500.00
  volume of cell :     1484.46
      direct lattice vectors                 reciprocal lattice vectors
     8.791366577  0.000000000  0.000000000     0.113747958 -0.065672414  0.000000000
     4.395683289  7.613546790  0.000000000     0.000000000  0.131344829  0.000000000
     0.000000000  0.000000000 22.178121567     0.000000000  0.000000000  0.045089481

  length of vectors
     8.791366577  8.791366577 22.178121567     0.131344829  0.131344829  0.045089481

 FORCES acting on ions
    electron-ion (+dipol)            ewald-force                    non-local-force                 convergence-correction
   0.458E-04 -.284E-04 0.252E+04   -.954E-04 0.593E-04 -.252E+04   0.185E-17 -.123E-17 -.182E+01   -.132E-03 -.177E-03 0.631E-01
   0.473E+00 0.765E+00 0.252E+04   -.635E+00 -.645E+00 -.252E+04   0.566E-01 -.283E-01 -.165E+01   0.987E-01 -.785E-01 0.281E-01
   -.473E+00 0.765E+00 0.252E+04   0.635E+00 -.645E+00 -.252E+04   -.566E-01 -.283E-01 -.165E+01   -.992E-01 -.765E-01 0.288E-01
   0.899E+00 0.266E-01 0.252E+04   -.876E+00 -.227E+00 -.252E+04   0.378E-02 0.632E-01 -.165E+01   -.184E-01 0.125E+00 0.281E-01
   -.597E-05 -.188E-04 0.253E+04   0.981E-04 -.200E-05 -.252E+04   -.171E-17 0.240E-17 -.158E+01   0.631E-02 0.384E-02 0.427E-01
   -.899E+00 0.266E-01 0.252E+04   0.876E+00 -.228E+00 -.252E+04   -.378E-02 0.632E-01 -.165E+01   0.170E-01 0.126E+00 0.290E-01
   0.427E+00 -.792E+00 0.252E+04   -.241E+00 0.873E+00 -.252E+04   -.528E-01 -.349E-01 -.165E+01   -.115E+00 -.471E-01 0.288E-01
   -.426E+00 -.792E+00 0.252E+04   0.241E+00 0.872E+00 -.252E+04   0.528E-01 -.349E-01 -.165E+01   0.117E+00 -.482E-01 0.290E-01
   0.363E-04 -.132E-04 0.252E+04   0.792E-04 -.643E-04 -.252E+04   -.314E-17 -.365E-18 -.170E+01   -.671E-02 -.345E-02 0.492E-01
   0.566E+01 0.327E+01 0.870E+03   -.551E+01 -.318E+01 -.869E+03   -.150E+00 -.867E-01 -.726E+00   -.623E-02 -.358E-02 -.863E-01
   -.296E-04 0.684E+01 0.880E+03   0.420E-04 -.682E+01 -.880E+03   0.487E-12 0.741E-01 -.328E+00   0.643E-02 -.110E+00 -.127E+00
   -.566E+01 0.327E+01 0.870E+03   0.551E+01 -.318E+01 -.869E+03   0.150E+00 -.867E-01 -.726E+00   0.432E-02 -.207E-02 -.857E-01
   0.592E+01 -.342E+01 0.880E+03   -.591E+01 0.341E+01 -.880E+03   0.642E-01 -.371E-01 -.328E+00   -.919E-01 0.604E-01 -.127E+00
   -.592E+01 -.342E+01 0.880E+03   0.591E+01 0.341E+01 -.880E+03   -.642E-01 -.371E-01 -.328E+00   0.103E+00 0.596E-01 -.127E+00
   0.164E-04 0.104E+01 0.871E+03   -.109E-03 -.115E+01 -.870E+03   0.167E-12 0.254E-01 -.568E+00   -.206E-02 0.679E-01 -.757E-01
   -.801E-05 -.653E+01 0.870E+03   0.208E-04 0.636E+01 -.869E+03   0.114E-11 0.173E+00 -.726E+00   0.334E-03 0.477E-02 -.858E-01
   0.902E+00 -.521E+00 0.871E+03   -.993E+00 0.573E+00 -.870E+03   0.220E-01 -.127E-01 -.568E+00   0.578E-01 -.357E-01 -.756E-01
   -.902E+00 -.521E+00 0.871E+03   0.993E+00 0.573E+00 -.870E+03   -.220E-01 -.127E-01 -.568E+00   -.580E-01 -.334E-01 -.752E-01
   0.428E-04 0.424E+01 -.824E+03   -.130E-03 -.430E+01 0.823E+03   0.199E-12 0.303E-01 0.440E+00   -.213E-02 0.478E-01 -.953E-01
   0.419E+02 0.242E+02 -.764E+03   -.410E+02 -.237E+02 0.764E+03   -.793E+00 -.458E+00 -.235E+00   -.859E-01 -.500E-01 -.112E+00
   -.419E+02 0.242E+02 -.764E+03   0.410E+02 -.237E+02 0.764E+03   0.793E+00 -.458E+00 -.235E+00   0.969E-01 -.487E-01 -.112E+00
   0.175E+02 -.101E+02 -.809E+03   -.175E+02 0.101E+02 0.808E+03   0.465E-01 -.269E-01 0.658E+00   -.858E-01 0.497E-01 -.144E+00
   -.627E-04 -.484E+02 -.764E+03   0.484E-04 0.474E+02 0.764E+03   0.602E-11 0.916E+00 -.235E+00   0.685E-02 0.109E+00 -.113E+00
   -.175E+02 -.101E+02 -.809E+03   0.175E+02 0.101E+02 0.808E+03   -.465E-01 -.269E-01 0.658E+00   0.840E-01 0.488E-01 -.144E+00
   -.367E+01 -.212E+01 -.824E+03   0.373E+01 0.215E+01 0.823E+03   -.263E-01 -.152E-01 0.440E+00   -.406E-01 -.231E-01 -.957E-01
   0.367E+01 -.212E+01 -.824E+03   -.373E+01 0.215E+01 0.823E+03   0.263E-01 -.152E-01 0.440E+00   0.404E-01 -.257E-01 -.957E-01
   0.212E-04 0.202E+02 -.809E+03   0.109E-03 -.202E+02 0.808E+03   0.353E-12 0.537E-01 0.658E+00   -.589E-03 -.987E-01 -.144E+00
   0.549E-04 -.376E-04 -.250E+04   -.116E-03 0.782E-04 0.250E+04   0.476E-17 0.118E-17 0.196E+01   -.133E-02 0.493E-03 0.929E-01
   0.405E+02 0.696E+02 -.249E+04   -.405E+02 -.698E+02 0.249E+04   0.994E-01 0.206E+00 0.227E+01   -.915E-01 -.109E+00 -.215E-01
   -.405E+02 0.696E+02 -.249E+04   0.405E+02 -.698E+02 0.249E+04   -.994E-01 0.206E+00 0.227E+01   0.102E+00 -.106E+00 -.217E-01
   0.806E+02 0.241E+00 -.249E+04   -.807E+02 -.199E+00 0.249E+04   0.228E+00 -.168E-01 0.227E+01   -.145E+00 -.348E-01 -.215E-01
   -.806E+02 0.241E+00 -.249E+04   0.807E+02 -.199E+00 0.249E+04   -.228E+00 -.168E-01 0.227E+01   0.143E+00 -.340E-01 -.224E-01
   0.401E+02 -.699E+02 -.249E+04   -.402E+02 0.700E+02 0.249E+04   0.128E+00 -.189E+00 0.227E+01   -.411E-01 0.143E+00 -.218E-01
   -.401E+02 -.699E+02 -.249E+04   0.402E+02 0.700E+02 0.249E+04   -.128E+00 -.189E+00 0.227E+01   0.532E-01 0.141E+00 -.225E-01
   0.217E-04 -.123E-04 -.250E+04   0.107E-03 -.665E-04 0.250E+04   0.323E-17 0.371E-17 0.185E+01   -.798E-02 -.278E-02 -.356E-01
   -.439E-04 -.309E-04 -.193E+04   0.957E-04 0.140E-04 0.193E+04   -.472E-17 -.150E-17 -.533E+00   0.105E-01 0.489E-02 0.503E-01
   0.103E-03 -.562E-04 -.148E+04   0.274E-04 0.492E-06 0.150E+04   -.321E-18 0.350E-18 -.185E+02   0.204E-02 0.735E-03 0.633E-01
   0.453E-03 -.767E-03 0.205E+02   0.136E-13 -.962E-13 -.205E-11   0.109E-15 -.252E-16 -.189E+02   0.494E-01 0.213E-01 -.155E+01

 POSITION                                       TOTAL-FORCE (eV/Angst)
      0.00000      0.00000      5.28219        -0.000000      0.000000     -0.000229
      2.93046      0.00000      5.28219        -0.006532      0.014484      0.028778
      5.86091      0.00000      5.28219         0.006532      0.014484      0.028778
      1.46523      2.53785      5.28219         0.009277     -0.012899      0.028778
      4.39568      2.53785      5.28219        -0.000000      0.000000      0.042447
      7.32614      2.53785      5.28219        -0.009277     -0.012899      0.028778
      2.93046      5.07570      5.28219         0.015810     -0.001585      0.028778
      5.86091      5.07570      5.28219        -0.015810     -0.001585      0.028778
      8.79137      5.07570      5.28219        -0.000000      0.000000      0.020488
      1.46523      0.84595      7.67490        -0.002555     -0.001475      0.005693
      4.39568      0.84595      7.67490        -0.000000     -0.025105     -0.037627
      7.32614      0.84595      7.67490         0.002555     -0.001475      0.005693
      2.93046      3.38380      7.67490        -0.021742      0.012553     -0.037627
      5.86091      3.38380      7.67490         0.021742      0.012553     -0.037627
      8.79137      3.38380      7.67490        -0.000000     -0.012078     -0.028674
      4.39568      5.92165      7.67490         0.000000      0.002950      0.005693
      7.32614      5.92165      7.67490        -0.010460      0.006039     -0.028674
     10.25659      5.92165      7.67490         0.010460      0.006039     -0.028674
      8.79137      1.69533     10.05818         0.000000      0.015484      0.026099
      2.93805      1.69629     10.04232         0.006328      0.003653     -0.168934
      5.85331      1.69629     10.04232        -0.006328      0.003653     -0.168934
     10.25424      4.23111     10.04634        -0.002216      0.001279     -0.009825
      4.39568      4.22098     10.04232        -0.000000     -0.007307     -0.168934
      7.32849      4.23111     10.04634         0.002216      0.001279     -0.009825
     11.71886      6.76588     10.05818        -0.013410     -0.007742      0.026099
      5.86388      6.76588     10.05818         0.013410     -0.007742      0.026099
      8.79137      6.76488     10.04634        -0.000000     -0.002558     -0.009825
      0.00000      0.00000     12.42348        -0.000000      0.000000     -0.029517
      2.96241      0.05505     12.41819        -0.057699     -0.088557      0.040270
      5.82895      0.05505     12.41819         0.057699     -0.088557      0.040270
      1.52888      2.53800     12.41819        -0.105542     -0.005690      0.040270
      7.26249      2.53800     12.41819         0.105542     -0.005690      0.040270
      2.96215      5.02050     12.41819        -0.047843      0.094247      0.040270
      5.82922      5.02050     12.41819         0.047843      0.094247      0.040270
      8.79137      5.07570     12.42030        -0.000000      0.000000     -0.014729
      4.39568      2.53785     12.13895        -0.000000      0.000000      0.180712
      4.39568      2.53785     13.76278        -0.000000      0.000000      0.026345
    total drift:                                0.049820      0.020515      0.057401

  FREE ENERGIE OF THE ION-ELECTRON SYSTEM (eV)
  free  energy   TOTEN  =       -99.68462979 eV

  energy  without entropy=      -99.68462979  energy(sigma->0) =      -99.68462979

 stress matrix after NEB project (eV)
     -9.31535     -0.00000     -0.00000
     -0.00000     -9.31535      0.00000
      0.00000      0.00000      0.31801
  FORCES: max atom, RMS     0.026345    0.004331
  FORCE total and by dimension    0.026345    0.026345
  Stress total and by dimension   13.177734    9.315351
|           W    W    AA    RRRRR   N    N  II  N    N   GGGG   !!!           |
|           W    W   A  A   R    R  NN   N  II  NN   N  G    G  !!!           |
|           W    W  A    A  R    R  N N  N  II  N N  N  G       !!!           |
|           W WW W  AAAAAA  RRRRR   N  N N  II  N  N N  G  GGG   !            |
|           WW  WW  A    A  R   R   N   NN  II  N   NN  G    G                |
|           W    W  A    A  R    R  N    N  II  N    N   GGGG   !!!           |
|     Tetrahedron method does not include variations of the Fermi             |
|     occupations, so forces and stress will be inaccurate. We suggest        |
|     using a different smearing scheme ISMEAR = 1 or 2 for metals in         |
|     relaxations.                                                            |

 total charge

# of ion       s       p       d       tot
    1        0.420   0.202   9.177   9.799
    2        0.415   0.203   9.177   9.796
    3        0.415   0.203   9.177   9.796
    4        0.415   0.203   9.177   9.796
    5        0.415   0.205   9.176   9.795
    6        0.415   0.203   9.177   9.796
    7        0.415   0.203   9.177   9.796
    8        0.415   0.203   9.177   9.796
    9        0.418   0.202   9.176   9.796
   10        0.406   0.269   9.164   9.839
   11        0.403   0.271   9.166   9.840
   12        0.406   0.269   9.164   9.839
   13        0.403   0.271   9.166   9.840
   14        0.403   0.271   9.166   9.840
   15        0.403   0.269   9.165   9.838
   16        0.406   0.269   9.164   9.839
   17        0.403   0.269   9.165   9.838
   18        0.403   0.269   9.165   9.838
   19        0.403   0.271   9.162   9.835
   20        0.422   0.288   9.155   9.866
   21        0.422   0.288   9.155   9.866
   22        0.404   0.270   9.168   9.842
   23        0.422   0.288   9.155   9.866
   24        0.404   0.270   9.168   9.842
   25        0.403   0.271   9.162   9.835
   26        0.403   0.271   9.162   9.835
   27        0.404   0.270   9.168   9.842
   28        0.415   0.193   9.184   9.792
   29        0.392   0.205   9.185   9.782
   30        0.392   0.205   9.185   9.782
   31        0.392   0.205   9.185   9.782
   32        0.392   0.205   9.185   9.782
   33        0.392   0.205   9.185   9.782
   34        0.392   0.205   9.185   9.782
   35        0.415   0.194   9.181   9.789
   36        0.533   0.558   8.376   9.467
   37        1.350   2.110   0.000   3.461
tot         16.133  11.027 329.382 356.542

 BZINTS: Fermi energy:    0.770380;  400.000000 electrons
         Band energy:-0.133434E+04;  BLOECHL correction:   -0.040419