 vasp.6.2.0 18Jan21 (build Jun 12 2021 23:27:24) complex

 executed on             LinuxIFC date 2022.05.30  16:18:12

 INCAR:
   ISMEAR = -5
   SIGMA = 0.1
   ISPIN = 1
   EDIFF = 1.d-5
   EDIFFG = -0.01
   NSW = 0
   NELM = 150
   ENCUT = 500
   ISIF = 2
   IBRION = 2
   LREAL = Auto
   ALGO = Fast
   ICHARG = 11
   LORBIT = 10
   LCHARG = .F.
   LWAVE = .F.

 POTCAR:    PAW_PBE Au 04Oct2007
 POTCAR:    PAW_PBE Ru 04Feb2005
 POTCAR:    PAW_PBE O 08Apr2002
|           W    W    AA    RRRRR   N    N  II  N    N   GGGG   !!!           |
|           W    W   A  A   R    R  NN   N  II  NN   N  G    G  !!!           |
|           W    W  A    A  R    R  N N  N  II  N N  N  G       !!!           |
|           W WW W  AAAAAA  RRRRR   N  N N  II  N  N N  G  GGG   !            |
|           WW  WW  A    A  R   R   N   NN  II  N   NN  G    G                |
|           W    W  A    A  R    R  N    N  II  N    N   GGGG   !!!           |
|     For optimal performance we recommend to set                             |
|       NCORE = 2 up to number-of-cores-per-socket                            |
|     This setting can greatly improve the performance of VASP for DFT.       |
|     The default, NCORE=1 might be grossly inefficient on modern             |
|     multi-core architectures or massively parallel machines. Do your        |
|     Unfortunately you need to use the default for GW and RPA                |
|     calculations (for HF NCORE is supported but not extensively tested      |
|     yet).                                                                   |

 POTCAR:    PAW_PBE Au 04Oct2007
   VRHFIN =Au: s1d10

   TITEL  = PAW_PBE Au 04Oct2007
   POMASS =  196.966; ZVAL   =   11.000    mass and valenz
   ENMAX  =  229.943; ENMIN  =  172.457 eV

 POTCAR:    PAW_PBE Ru 04Feb2005
   VRHFIN =Ru: s1 d7

   TITEL  = PAW_PBE Ru 04Feb2005
   POMASS =  101.070; ZVAL   =    8.000    mass and valenz
   ENMAX  =  213.271; ENMIN  =  159.953 eV

 POTCAR:    PAW_PBE O 08Apr2002
   VRHFIN =O: s2p4

   TITEL  = PAW_PBE O 08Apr2002
   POMASS =   16.000; ZVAL   =    6.000    mass and valenz
   ENMAX  =  400.000; ENMIN  =  300.000 eV

 Optimization of the real space projectors (new method)

 maximal supplied QI-value         = 15.12
 optimisation between [QCUT,QGAM] = [ 11.34, 22.83] = [ 36.00,145.93] Ry
 Optimized for a Real-space Cutoff    1.39 Angstroem

   l    n(q)    QCUT    max X(q) W(low)/X(q) W(high)/X(q)  e(spline)
   2      9    11.338    60.898    0.39E-03    0.42E-03    0.21E-06
   2      9    11.338    58.894    0.40E-03    0.42E-03    0.22E-06
   0      9    11.338   109.617    0.13E-03    0.20E-04    0.13E-06
   0      9    11.338    75.026    0.13E-03    0.20E-04    0.13E-06
   1      9    11.338    16.344    0.33E-04    0.24E-03    0.18E-06
   1      9    11.338    10.160    0.26E-04    0.19E-03    0.15E-06
 Optimization of the real space projectors (new method)

[...]

   l    n(q)    QCUT    max X(q) W(low)/X(q) W(high)/X(q)  e(spline)
   2      9    11.327    61.733    0.26E-03    0.14E-03    0.16E-06
   2      9    11.327    59.886    0.26E-03    0.14E-03    0.17E-06
   0     10    11.327    23.358    0.19E-03    0.14E-04    0.46E-06
   0     10    11.327    11.320    0.15E-03    0.11E-04    0.37E-06
   1     10    11.327    14.765    0.49E-04    0.26E-03    0.24E-06
   1     10    11.327     8.283    0.37E-04    0.20E-03    0.18E-06
 Optimization of the real space projectors (new method)

 maximal supplied QI-value         = 24.76
 optimisation between [QCUT,QGAM] = [ 11.39, 22.77] = [ 36.31,145.25] Ry
 Optimized for a Real-space Cutoff    1.00 Angstroem

   l    n(q)    QCUT    max X(q) W(low)/X(q) W(high)/X(q)  e(spline)
   0      7    11.387    20.381    0.39E-03    0.13E-02    0.15E-06
   0      7    11.387    15.268    0.42E-03    0.14E-02    0.17E-06
   1      6    11.387     5.964    0.41E-03    0.11E-02    0.17E-06
   1      6    11.387     5.382    0.39E-03    0.87E-03    0.15E-06
  PAW_PBE Au 04Oct2007                  :
  PAW_PBE Ru 04Feb2005                  :
  PAW_PBE O 08Apr2002                   :

 POSCAR: Au-Ru-O2
  positions in direct lattice
  velocities in cartesian coordinates
 exchange correlation table for  LEXCH =        8
   RHO(1)=    0.500       N(1)  =     2000
   RHO(2)=  100.500       N(2)  =     4000

 VTST: version 3.2, (02/03/18)

 CHAIN: initializing optimizer

 OPT: Using VASP Conjugate-Gradient optimizer
 CHAIN: Read ICHAIN            0

 POSCAR: Au-Ru-O2
  positions in direct lattice
  velocities in cartesian coordinates

 ion  position               nearest neighbor table
   1  0.000  0.000  0.217-  16 2.94  12 2.94   6 2.94   8 2.94   7 2.94   3 2.94  10 2.94   4 2.94
                             2 2.94
   2  0.333  0.000  0.217-   9 2.94  11 2.94  17 2.94  10 2.94   8 2.94   4 2.94   5 2.94   1 2.94
                             3 2.94
   3  0.667  0.000  0.217-   7 2.94  18 2.94  12 2.94   1 2.94  11 2.94   5 2.94   6 2.94   9 2.94
                             2 2.94
   4  0.000  0.333  0.217-  10 2.94   6 2.94   5 2.94  13 2.94   2 2.94  15 2.94   9 2.94   1 2.94
                             7 2.94
   5  0.333  0.333  0.217-  13 2.94   7 2.94  11 2.94   4 2.94   2 2.94  14 2.94   3 2.94   8 2.94
                             6 2.94
   6  0.667  0.333  0.217-  15 2.94  14 2.94   1 2.94  12 2.94   4 2.94   9 2.94   8 2.94   3 2.94
                             5 2.94
   7  0.000  0.667  0.217-  18 2.94   3 2.94  16 2.94   5 2.94   1 2.94  13 2.94   8 2.94   4 2.94
                             9 2.94
   8  0.333  0.667  0.217-   9 2.94  17 2.94   1 2.94   2 2.94  14 2.94  16 2.94   6 2.94   7 2.94
                             5 2.94
   9  0.667  0.667  0.217-   2 2.94   8 2.94  17 2.94   6 2.94  15 2.94   4 2.94   3 2.94  18 2.94
                             7 2.94
  10  0.111  0.111  0.316-  20 2.91  26 2.94  19 2.94  11 2.94  17 2.94   2 2.94   4 2.94   1 2.94
                            12 2.94  16 2.94  13 2.94  15 2.94
  11  0.444  0.111  0.316-  20 2.91  21 2.91  27 2.94  13 2.94   2 2.94  10 2.94  17 2.94   5 2.94
                             3 2.94  18 2.94  14 2.94  12 2.94
  12  0.778  0.111  0.316-  21 2.91  25 2.94  19 2.94  16 2.94  18 2.94   1 2.94  14 2.94  15 2.94
                             3 2.94   6 2.94  10 2.94  11 2.94
  13  0.111  0.444  0.316-  23 2.91  20 2.91  22 2.94   5 2.94  18 2.94  11 2.94   7 2.94   4 2.94
                            16 2.94  10 2.94  14 2.94  15 2.94
  14  0.444  0.444  0.316-  21 2.91  23 2.91  24 2.94  15 2.94   6 2.94  12 2.94   8 2.94  17 2.94
                             5 2.94  16 2.94  13 2.94  11 2.94
  15  0.778  0.444  0.316-  24 2.92  22 2.92  19 2.94  14 2.94   6 2.94  17 2.94  12 2.94   9 2.94
                             4 2.94  10 2.94  13 2.94  18 2.94
  16  0.111  0.778  0.316-  23 2.91  25 2.94  26 2.94  18 2.94  12 2.94   7 2.94   1 2.94   8 2.94
                            13 2.94  10 2.94  14 2.94  17 2.94
  17  0.444  0.778  0.316-  27 2.92  24 2.92  26 2.94   9 2.94  15 2.94   2 2.94  10 2.94  11 2.94
                             8 2.94  14 2.94  16 2.94  18 2.94
  18  0.778  0.778  0.316-  22 2.92  27 2.92  25 2.94  16 2.94   7 2.94  13 2.94  12 2.94   3 2.94
                            11 2.94   9 2.94  15 2.94  17 2.94
  19  0.889  0.222  0.414-  15 2.94  10 2.94  12 2.94  24 2.94  22 2.94  26 2.94  25 2.94  21 2.94
                            20 2.94  28 2.95  32 2.97  31 2.97
  20  0.223  0.223  0.413-  36 2.78  11 2.91  13 2.91  10 2.91  23 2.93  21 2.93  29 2.94  31 2.94
                            26 2.94  19 2.94  27 2.95  22 2.95
  21  0.555  0.223  0.413-  36 2.78  14 2.91  11 2.91  12 2.91  20 2.93  23 2.93  30 2.94  32 2.94
                            25 2.94  19 2.94  27 2.95  24 2.95
  22  0.887  0.557  0.414-  24 2.91  27 2.91  18 2.92  15 2.92  13 2.94  25 2.94  19 2.94  23 2.95
                            20 2.95  35 2.96  33 2.96  31 2.96
  23  0.223  0.555  0.413-  36 2.78  13 2.91  14 2.91  16 2.91  20 2.93  21 2.93  33 2.94  34 2.94
                            25 2.94  26 2.94  22 2.95  24 2.95
  24  0.557  0.557  0.414-  27 2.91  22 2.91  15 2.92  17 2.92  14 2.94  26 2.94  19 2.94  21 2.95
                            23 2.95  35 2.96  32 2.96  34 2.96
  25  0.889  0.889  0.414-  18 2.94  16 2.94  12 2.94  22 2.94  27 2.94  19 2.94  26 2.94  23 2.94
                            21 2.94  28 2.95  33 2.97  30 2.97
  26  0.222  0.889  0.414-  17 2.94  10 2.94  16 2.94  27 2.94  24 2.94  19 2.94  25 2.94  20 2.94
                            23 2.94  28 2.95  29 2.97  34 2.97
  27  0.557  0.887  0.414-  24 2.91  22 2.91  17 2.92  18 2.92  11 2.94  26 2.94  25 2.94  20 2.95
                            21 2.95  35 2.96  29 2.96  30 2.96
  28  0.000  0.000  0.514-  25 2.95  19 2.95  26 2.95  34 2.97  32 2.97  33 2.97  30 2.97  31 2.97
                            29 2.97
  29  0.333  0.007  0.513-  31 2.88  30 2.88  36 2.89  20 2.94  27 2.96  28 2.97  35 2.97  26 2.97
                            34 3.05
  30  0.660  0.007  0.513-  32 2.88  29 2.88  36 2.89  21 2.94  27 2.96  28 2.97  35 2.97  25 2.97
                            33 3.05
  31  0.007  0.333  0.513-  37 2.77  29 2.88  33 2.88  36 2.89  20 2.94  22 2.96  28 2.97  35 2.97
                            19 2.97  32 3.05
  32  0.660  0.333  0.513-  38 2.77  30 2.88  34 2.88  36 2.89  21 2.94  24 2.96  28 2.97  35 2.97
                            19 2.97  31 3.05
  33  0.007  0.660  0.513-  34 2.88  31 2.88  36 2.89  23 2.94  22 2.96  28 2.97  35 2.97  25 2.97
                            30 3.05
  34  0.333  0.660  0.513-  33 2.88  32 2.88  36 2.89  23 2.94  24 2.96  28 2.97  35 2.97  26 2.97
                            29 3.05
  35  0.667  0.667  0.514-  24 2.96  27 2.96  22 2.96  29 2.97  34 2.97  32 2.97  31 2.97  30 2.97
                            33 2.97
  36  0.333  0.333  0.504-  38 2.04  37 2.04  20 2.78  23 2.78  21 2.78  33 2.89  31 2.89  29 2.89
                            30 2.89  34 2.89  32 2.89
  37  0.256  0.333  0.583-  38 1.36  36 2.04  31 2.77
  38  0.411  0.333  0.583-  37 1.36  36 2.04  32 2.77

  LATTYP: Found a hexagonal cell.
 ALAT       =     8.8135128021
 C/A-ratio  =     2.7586513333

  Lattice vectors:

 A1 = (  -4.4067569092,  -7.6327256898,   0.0000000000)
 A2 = (   8.8135128021,   0.0000000000,   0.0000000000)
 A3 = (   0.0000000000,   0.0000000000,  24.3134088421)

Analysis of symmetry for initial positions (statically):
 Subroutine PRICEL returns:
 Original cell was already a primitive cell.

 Routine SETGRP: Setting up the symmetry group for a
 hexagonal supercell.

 Subroutine GETGRP returns: Found  2 space group operations
 (whereof  2 operations were pure point group operations)
 out of a pool of 24 trial point group operations.

The static configuration has the point symmetry C_1h.

Analysis of symmetry for dynamics (positions and initial velocities):
 Subroutine PRICEL returns:
 Original cell was already a primitive cell.

[...]

The dynamic configuration has the point symmetry C_1h.

Analysis of constrained symmetry for selective dynamics:
 Subroutine PRICEL returns:
 Original cell was already a primitive cell.

 Routine SETGRP: Setting up the symmetry group for a
[...]
     33      -5.3451      2.00000
     34      -5.2649      2.00000
     35      -5.2528      2.00000
     36      -5.2334      2.00000
     37      -5.2236      2.00000
     38      -5.2048      2.00000
     39      -5.1372      2.00000
     40      -5.0819      2.00000
     41      -5.0739      2.00000
     42      -5.0163      2.00000
     43      -4.9982      2.00000
     44      -4.9436      2.00000
     45      -4.8812      2.00000
     46      -4.8433      2.00000
     47      -4.7965      2.00000
     48      -4.7823      2.00000
     49      -4.7682      2.00000
     50      -4.7592      2.00000
     51      -4.6565      2.00000
     52      -4.6332      2.00000
     53      -4.6033      2.00000
     54      -4.5900      2.00000
     55      -4.5834      2.00000
     56      -4.5780      2.00000
     57      -4.5682      2.00000
     58      -4.5305      2.00000
     59      -4.4827      2.00000
     60      -4.4480      2.00000
[...]
    238       5.6674      0.00000
    239       5.7572      0.00000
    240       5.9685      0.00000
    241       6.0422      0.00000
    242       6.0620      0.00000
    243       6.0876      0.00000
    244       6.1287      0.00000
    245       6.3071      0.00000
    246       6.3537      0.00000
    247       6.4121      0.00000
    248       6.4326      0.00000
    249       6.5488      0.00000
    250       6.7411      0.00000
    251       6.8467      0.00000
    252       6.9601      0.00000

 soft charge-density along one line, spin component           1
         0         1         2         3         4         5         6         7         8         9
 total charge-density along one line

------------------------ aborting loop because EDIFF is reached ----------------------------------------

 total charge

# of ion       s       p       d       tot
    1        0.546   0.238   8.768   9.553
    2        0.544   0.241   8.766   9.550
    3        0.544   0.241   8.766   9.550
    4        0.545   0.241   8.764   9.550
    5        0.543   0.242   8.761   9.546
    6        0.545   0.241   8.764   9.550
    7        0.545   0.241   8.765   9.550
    8        0.545   0.241   8.765   9.550
    9        0.541   0.240   8.769   9.549
   10        0.523   0.309   8.770   9.601
   11        0.522   0.308   8.781   9.611
   12        0.523   0.309   8.770   9.601
   13        0.521   0.308   8.779   9.608
   14        0.521   0.308   8.779   9.608
   15        0.515   0.309   8.776   9.600
   16        0.521   0.311   8.768   9.600
   17        0.514   0.310   8.778   9.602
   18        0.514   0.310   8.778   9.602
   19        0.514   0.301   8.779   9.594
   20        0.549   0.330   8.751   9.630
   21        0.549   0.330   8.751   9.630
   22        0.509   0.311   8.775   9.594
   23        0.544   0.338   8.747   9.628
   24        0.509   0.311   8.775   9.594
   25        0.516   0.303   8.775   9.594
   26        0.516   0.303   8.775   9.594
   27        0.509   0.309   8.778   9.595
   28        0.542   0.226   8.769   9.537
   29        0.548   0.238   8.761   9.548
   30        0.548   0.238   8.761   9.548
   31        0.540   0.241   8.770   9.551
   32        0.540   0.241   8.770   9.551
   33        0.547   0.238   8.764   9.549
   34        0.547   0.238   8.764   9.549
   35        0.537   0.226   8.769   9.533
   36        0.458   0.579   6.487   7.524
   37        1.610   3.245   0.000   4.855
   38        1.610   3.245   0.000   4.855
tot         22.314  16.737 313.386 352.437

  FORCE on cell =-STRESS in cart. coord.  units (eV):
  Direction    XX          YY          ZZ          XY          YZ          ZX
  Alpha Z   943.38112   943.38112   943.38112
  Ewald  151837.55765151430.24238************    -0.00031     0.29960    -0.00010
  Hartree160336.84514160142.28011************     0.00001     0.11808    -0.00003
  E(xc)   -1823.83951 -1825.10573 -1831.12621     0.00000    -0.07699    -0.00000
  Local  ************************324130.89992     0.00272    -0.98032    -0.00003
  n-local   -89.68268   -95.77530   -67.25341     4.86131     0.59491     0.17799
  augment  2422.09286  2429.10850  2437.53572    -0.00137     0.19922     0.00002
  Kinetic  5678.06032  5728.56102  5745.09932     1.35134     0.15587     0.09970
  Fock        0.00000     0.00000     0.00000     0.00000     0.00000     0.00000
  Total     -17.76629   -20.25431     1.99673    -0.00000     0.31037     0.00000
  in kB     -17.40335   -19.84054     1.95594    -0.00000     0.30403     0.00000

 VOLUME and BASIS-vectors are now :
  energy-cutoff  :      500.00
  volume of cell :     1635.59
      direct lattice vectors                 reciprocal lattice vectors
     8.813512802  0.000000000  0.000000000     0.113462137 -0.065507406  0.000000000
     4.406756909  7.632725690  0.000000000     0.000000000  0.131014796  0.000000000
     0.000000000  0.000000000 24.313408842     0.000000000  0.000000000  0.041129568

  length of vectors
     8.813512802  8.813512802 24.313408842     0.131014796  0.131014796  0.041129568

 FORCES acting on ions
    electron-ion (+dipol)            ewald-force                    non-local-force                 convergence-correction
   -.199E-04 0.192E-01 0.268E+04   0.519E-04 -.244E-01 -.268E+04   0.712E-09 0.107E-01 -.945E+00   -.181E-03 -.670E-02 -.408E+00
   0.510E+00 0.414E+00 0.268E+04   -.545E+00 -.485E+00 -.268E+04   0.644E-02 0.555E-01 -.275E+00   0.331E-01 0.334E-01 -.508E+00
   -.510E+00 0.414E+00 0.268E+04   0.545E+00 -.485E+00 -.268E+04   -.644E-02 0.555E-01 -.275E+00   -.329E-01 0.354E-01 -.508E+00
   0.485E+00 0.178E+00 0.268E+04   -.672E+00 -.240E+00 -.268E+04   0.115E+00 -.131E-01 -.279E+00   0.677E-01 0.630E-01 -.420E+00
   0.803E-05 -.102E+00 0.268E+04   0.951E-04 0.136E-02 -.268E+04   0.224E-08 0.336E-01 -.183E+00   0.424E-02 0.707E-01 -.417E+00
   -.485E+00 0.178E+00 0.268E+04   0.672E+00 -.241E+00 -.268E+04   -.115E+00 -.131E-01 -.279E+00   -.692E-01 0.639E-01 -.419E+00
   0.134E+00 -.560E+00 0.268E+04   -.126E+00 0.725E+00 -.268E+04   0.574E-02 -.657E-01 -.299E+00   0.121E-01 -.103E+00 -.483E+00
   -.134E+00 -.560E+00 0.268E+04   0.126E+00 0.725E+00 -.268E+04   -.574E-02 -.657E-01 -.299E+00   -.102E-01 -.104E+00 -.483E+00
   0.196E-04 0.491E-01 0.268E+04   0.166E-03 0.231E-01 -.268E+04   -.167E-08 -.250E-01 -.546E+00   -.461E-02 -.569E-01 -.438E+00
   0.554E+01 0.319E+01 0.943E+03   -.511E+01 -.314E+01 -.943E+03   -.391E+00 -.137E+00 -.711E+00   -.843E-02 0.981E-01 0.278E+00
   0.172E-04 0.580E+01 0.950E+03   0.148E-03 -.598E+01 -.950E+03   0.936E-09 0.141E-01 -.351E+00   0.364E-02 0.821E-01 0.391E+00
   -.554E+01 0.319E+01 0.943E+03   0.511E+01 -.314E+01 -.943E+03   0.391E+00 -.137E+00 -.711E+00   0.731E-02 0.992E-01 0.277E+00
   0.486E+01 -.295E+01 0.951E+03   -.501E+01 0.303E+01 -.951E+03   0.684E-01 -.531E-01 -.307E+00   0.241E-01 -.140E-01 0.310E+00
   -.486E+01 -.295E+01 0.951E+03   0.501E+01 0.303E+01 -.951E+03   -.684E-01 -.531E-01 -.307E+00   -.167E-01 -.145E-01 0.309E+00
   0.311E-04 0.243E+01 0.945E+03   0.236E-03 -.248E+01 -.945E+03   0.331E-09 0.497E-02 -.597E+00   -.208E-02 0.238E-01 0.228E+00
   -.218E-04 -.634E+01 0.943E+03   0.163E-03 0.594E+01 -.943E+03   0.293E-07 0.440E+00 -.813E+00   0.373E-04 -.794E-01 0.225E+00
   0.225E+01 -.121E+01 0.944E+03   -.225E+01 0.136E+01 -.944E+03   -.335E-01 -.401E-01 -.479E+00   0.151E-01 -.917E-01 0.273E+00
   -.225E+01 -.121E+01 0.944E+03   0.225E+01 0.136E+01 -.944E+03   0.335E-01 -.401E-01 -.479E+00   -.151E-01 -.901E-01 0.273E+00
   -.408E-04 0.403E+01 -.830E+03   0.529E-04 -.432E+01 0.829E+03   0.572E-08 0.859E-01 0.760E+00   0.346E-02 0.158E+00 0.106E+01
   0.187E+02 0.121E+02 -.781E+03   -.183E+02 -.118E+02 0.780E+03   -.973E+00 -.648E+00 -.102E+01   0.510E+00 0.235E+00 0.177E+01
   -.187E+02 0.121E+02 -.781E+03   0.183E+02 -.118E+02 0.780E+03   0.973E+00 -.648E+00 -.102E+01   -.511E+00 0.236E+00 0.177E+01
   0.423E+01 -.367E+01 -.817E+03   -.462E+01 0.395E+01 0.816E+03   0.302E+00 -.208E+00 0.647E+00   0.154E+00 -.102E+00 0.118E+01
   -.682E-05 -.234E+02 -.783E+03   0.143E-03 0.228E+02 0.782E+03   0.729E-07 0.109E+01 -.784E+00   0.234E-03 -.600E+00 0.185E+01
   -.423E+01 -.367E+01 -.817E+03   0.462E+01 0.395E+01 0.816E+03   -.302E+00 -.208E+00 0.647E+00   -.155E+00 -.101E+00 0.118E+01
   -.292E+01 -.112E+01 -.832E+03   0.315E+01 0.123E+01 0.830E+03   -.506E-01 -.341E-01 0.652E+00   -.163E+00 -.603E-01 0.114E+01
   0.292E+01 -.112E+01 -.832E+03   -.315E+01 0.123E+01 0.830E+03   0.506E-01 -.341E-01 0.652E+00   0.170E+00 -.602E-01 0.114E+01
   0.116E-04 0.467E+01 -.819E+03   0.198E-03 -.545E+01 0.817E+03   0.374E-07 0.562E+00 0.709E+00   -.175E-02 0.262E+00 0.125E+01
   -.148E-04 0.512E+01 -.259E+04   0.301E-04 -.499E+01 0.259E+04   -.431E-08 -.647E-01 0.481E+00   0.288E-03 -.689E-01 0.109E+01
   0.394E+02 0.813E+02 -.254E+04   -.395E+02 -.819E+02 0.254E+04   -.536E+00 -.435E+00 0.698E+00   0.507E+00 0.730E+00 0.107E+01
   -.394E+02 0.813E+02 -.254E+04   0.395E+02 -.819E+02 0.254E+04   0.536E+00 -.435E+00 0.698E+00   -.507E+00 0.731E+00 0.108E+01
   0.993E+02 0.152E+00 -.253E+04   -.101E+03 -.650E-01 0.252E+04   -.317E+00 -.767E-01 0.970E+00   0.104E+01 0.177E-01 0.105E+01
   -.993E+02 0.152E+00 -.253E+04   0.101E+03 -.651E-01 0.252E+04   0.317E+00 -.767E-01 0.970E+00   -.104E+01 0.189E-01 0.105E+01
   0.384E+02 -.811E+02 -.254E+04   -.386E+02 0.817E+02 0.254E+04   -.403E+00 0.491E+00 0.693E+00   0.433E+00 -.779E+00 0.107E+01
   -.384E+02 -.811E+02 -.254E+04   0.386E+02 0.817E+02 0.254E+04   0.403E+00 0.491E+00 0.693E+00   -.431E+00 -.780E+00 0.107E+01
   0.317E-04 -.504E+01 -.259E+04   0.142E-03 0.477E+01 0.259E+04   0.946E-08 0.142E+00 0.592E+00   -.455E-02 0.116E+00 0.971E+00
   -.153E-05 -.761E+00 -.153E+04   0.824E-04 0.728E+00 0.153E+04   0.113E-07 0.170E+00 -.172E-01   0.159E-02 0.128E-01 0.116E+01
   0.228E+03 -.585E-01 -.172E+04   -.267E+03 0.873E-01 0.173E+04   0.389E+02 -.657E-01 -.160E+02   0.653E+00 0.341E-01 -.446E+00
   -.228E+03 -.585E-01 -.172E+04   0.267E+03 0.873E-01 0.173E+04   -.389E+02 -.657E-01 -.160E+02   -.653E+00 0.342E-01 -.446E+00
   -.437E-03 -.286E-01 0.139E+02   0.000E+00 0.239E-12 0.477E-11   0.482E-09 0.724E-02 -.332E+02   0.145E-01 0.460E-01 0.196E+02

 POSITION                                       TOTAL-FORCE (eV/Angst)
      0.00000      0.00000      5.28038        -0.000000     -0.001875     -0.087050
      2.93784      0.00000      5.28038         0.004922      0.018870     -0.018186
      5.87568      0.00000      5.28038        -0.004922      0.018870     -0.018186
      1.46892      2.54424      5.28038        -0.003385     -0.012938     -0.034131
      4.40676      2.54424      5.28038         0.000000      0.003169     -0.057823
      7.34459      2.54424      5.28038         0.003385     -0.012938     -0.034131
      2.93784      5.08848      5.28038         0.025212     -0.003656     -0.027006
      5.87568      5.08848      5.28038        -0.025212     -0.003656     -0.027006
      8.81351      5.08848      5.28038        -0.000000     -0.010395     -0.046575
      1.46892      0.84808      7.67911         0.027819      0.013085      0.073104
      4.40676      0.84808      7.67911        -0.000000     -0.091142     -0.047543
      7.34459      0.84808      7.67911        -0.027819      0.013085      0.073104
      2.93784      3.39232      7.67911        -0.059710      0.019678     -0.013635
      5.87568      3.39232      7.67911         0.059710      0.019678     -0.013635
      8.81351      3.39232      7.67911        -0.000000     -0.016811      0.073300
      4.40676      5.93656      7.67911        -0.000000     -0.039586      0.103855
      7.34459      5.93656      7.67911        -0.021150      0.021980      0.060072
     10.28243      5.93656      7.67911         0.021150      0.021980      0.060072
      8.81351      1.69681     10.07567        -0.000000     -0.053490     -0.013254
      2.94232      1.69875     10.04120        -0.052852     -0.024131     -0.127784
      5.87120      1.69875     10.04120         0.052852     -0.024131     -0.127784
     10.26751      4.24902     10.06295         0.068764     -0.028084      0.031297
      4.40676      4.23523     10.04120        -0.000000     -0.025392     -0.117020
      7.35952      4.24902     10.06295        -0.068764     -0.028084      0.031297
     11.75079      6.78432     10.07567         0.007581      0.015824      0.011863
      5.87624      6.78432     10.07567        -0.007581      0.015824      0.011863
      8.81351      6.76742     10.06295         0.000000      0.040174      0.029727
      0.00000      0.00000     12.49459        -0.000000     -0.007705     -0.038415
      2.96623      0.05046     12.47837        -0.151990     -0.360087     -0.194729
      5.84728      0.05046     12.47837         0.151990     -0.360087     -0.194729
      1.52682      2.54360     12.47837        -0.779812      0.027926     -0.401579
      7.28669      2.54360     12.47837         0.779812      0.027926     -0.401579
      2.96734      5.03866     12.47837        -0.195720      0.345817     -0.149161
      5.84617      5.03866     12.47837         0.195720      0.345817     -0.149161
      8.81351      5.08848     12.49555        -0.000000     -0.008098      0.012810
      4.40676      2.54424     12.24198         0.000000      0.149392      1.818616
      3.72544      2.53949     14.16394         0.039224     -0.003405     -0.025438
      5.08808      2.53949     14.16394        -0.039224     -0.003405     -0.025438
    total drift:                                0.014091      0.024645      0.265129

  FREE ENERGIE OF THE ION-ELECTRON SYSTEM (eV)
  free  energy   TOTEN  =      -124.52019867 eV

  energy  without entropy=     -124.52019867  energy(sigma->0) =     -124.52019867

 stress matrix after NEB project (eV)
    -17.76629     -0.00000      0.00000
     -0.00000    -20.25431      0.31037
      0.00000      0.31037      1.99673
  FORCES: max atom, RMS     0.046874    0.010754
  FORCE total and by dimension    0.066290    0.039224
  Stress total and by dimension   27.019585   20.254312
|           W    W    AA    RRRRR   N    N  II  N    N   GGGG   !!!           |
|           W    W   A  A   R    R  NN   N  II  NN   N  G    G  !!!           |
|           W    W  A    A  R    R  N N  N  II  N N  N  G       !!!           |
|           W WW W  AAAAAA  RRRRR   N  N N  II  N  N N  G  GGG   !            |
|           WW  WW  A    A  R   R   N   NN  II  N   NN  G    G                |
|           W    W  A    A  R    R  N    N  II  N    N   GGGG   !!!           |
|     Tetrahedron method does not include variations of the Fermi             |
|     occupations, so forces and stress will be inaccurate. We suggest        |
|     using a different smearing scheme ISMEAR = 1 or 2 for metals in         |
|     relaxations.                                                            |

 total charge

# of ion       s       p       d       tot
    1        0.546   0.238   8.768   9.553
    2        0.544   0.241   8.766   9.550
    3        0.544   0.241   8.766   9.550
    4        0.545   0.241   8.764   9.550
    5        0.543   0.242   8.761   9.546
    6        0.545   0.241   8.764   9.550
    7        0.545   0.241   8.765   9.550
    8        0.545   0.241   8.765   9.550
    9        0.541   0.240   8.769   9.549
   10        0.523   0.309   8.770   9.601
   11        0.522   0.308   8.781   9.611
   12        0.523   0.309   8.770   9.601
   13        0.521   0.308   8.779   9.608
   14        0.521   0.308   8.779   9.608
   15        0.515   0.309   8.776   9.600
   16        0.521   0.311   8.768   9.600
   17        0.514   0.310   8.778   9.602
   18        0.514   0.310   8.778   9.602
   19        0.514   0.301   8.779   9.594
   20        0.549   0.330   8.751   9.630
   21        0.549   0.330   8.751   9.630
   22        0.509   0.311   8.775   9.594
   23        0.544   0.338   8.747   9.628
   24        0.509   0.311   8.775   9.594
   25        0.516   0.303   8.775   9.594
   26        0.516   0.303   8.775   9.594
   27        0.509   0.309   8.778   9.595
   28        0.542   0.226   8.769   9.537
   29        0.548   0.238   8.761   9.548
   30        0.548   0.238   8.761   9.548
   31        0.540   0.241   8.770   9.551
   32        0.540   0.241   8.770   9.551
   33        0.547   0.238   8.764   9.549
   34        0.547   0.238   8.764   9.549
   35        0.537   0.226   8.769   9.533
   36        0.458   0.579   6.487   7.524
   37        1.610   3.245   0.000   4.855
   38        1.610   3.245   0.000   4.855
tot         22.314  16.737 313.386 352.437

 BZINTS: Fermi energy:    0.198454;  405.000000 electrons
         Band energy:-0.148710E+04;  BLOECHL correction:   -0.055027