 vasp.6.2.0 18Jan21 (build Jun 12 2021 23:27:24) complex

 executed on             LinuxIFC date 2022.05.26  20:29:21

 INCAR:
   ISMEAR = -5
   SIGMA = 0.1
   ISPIN = 1
   EDIFF = 1.d-5
   EDIFFG = -0.01
   NSW = 0
   NELM = 150
   ENCUT = 500
   ISIF = 2
   IBRION = 2
   LREAL = Auto
   ALGO = Fast
   ICHARG = 11
   LORBIT = 10
   LCHARG = .F.
   LWAVE = .F.

 POTCAR:    PAW_PBE Cu 22Jun2005
 POTCAR:    PAW_PBE Os 17Jan2003
|           W    W    AA    RRRRR   N    N  II  N    N   GGGG   !!!           |
|           W    W   A  A   R    R  NN   N  II  NN   N  G    G  !!!           |
|           W    W  A    A  R    R  N N  N  II  N N  N  G       !!!           |
|           W WW W  AAAAAA  RRRRR   N  N N  II  N  N N  G  GGG   !            |
|           WW  WW  A    A  R   R   N   NN  II  N   NN  G    G                |
|           W    W  A    A  R    R  N    N  II  N    N   GGGG   !!!           |
|     For optimal performance we recommend to set                             |
|       NCORE = 2 up to number-of-cores-per-socket                            |
|     This setting can greatly improve the performance of VASP for DFT.       |
|     The default, NCORE=1 might be grossly inefficient on modern             |
|     multi-core architectures or massively parallel machines. Do your        |
|     Unfortunately you need to use the default for GW and RPA                |
|     calculations (for HF NCORE is supported but not extensively tested      |
|     yet).                                                                   |

 POTCAR:    PAW_PBE Cu 22Jun2005
   VRHFIN =Cu: d10 p1

   TITEL  = PAW_PBE Cu 22Jun2005
   POMASS =   63.546; ZVAL   =   11.000    mass and valenz
   ENMAX  =  295.446; ENMIN  =  221.585 eV

 POTCAR:    PAW_PBE Os 17Jan2003
   VRHFIN =Os: 6s5d

   TITEL  = PAW_PBE Os 17Jan2003
   POMASS =  190.200; ZVAL   =    8.000    mass and valenz
   ENMAX  =  228.022; ENMIN  =  171.017 eV

 Optimization of the real space projectors (new method)

 maximal supplied QI-value         = 16.25
 optimisation between [QCUT,QGAM] = [ 11.38, 22.75] = [ 36.24,144.96] Ry
 Optimized for a Real-space Cutoff    1.52 Angstroem

   l    n(q)    QCUT    max X(q) W(low)/X(q) W(high)/X(q)  e(spline)
   2      9    11.376     4.610    0.21E-03    0.10E-03    0.26E-06
   2      9    11.376     8.522    0.33E-03    0.16E-03    0.37E-06
   0     10    11.376    51.609    0.62E-04    0.20E-04    0.13E-06
   0     10    11.376    27.747    0.54E-04    0.20E-04    0.13E-06
   1     10    11.376    20.408    0.13E-04    0.99E-04    0.19E-06
   1     10    11.376    13.425    0.12E-04    0.87E-04    0.17E-06
 Optimization of the real space projectors (new method)

 maximal supplied QI-value         = 13.98
 optimisation between [QCUT,QGAM] = [ 11.33, 22.79] = [ 35.93,145.49] Ry
 Optimized for a Real-space Cutoff    1.56 Angstroem

   l    n(q)    QCUT    max X(q) W(low)/X(q) W(high)/X(q)  e(spline)
   2     10    11.327   152.873    0.32E-03    0.72E-03    0.11E-05
   2     10    11.327   151.010    0.32E-03    0.72E-03    0.11E-05
   0     11    11.327    72.114    0.43E-04    0.61E-04    0.13E-06
   0     11    11.327    44.596    0.40E-04    0.57E-04    0.12E-06
   1     10    11.327    13.742    0.16E-03    0.10E-03    0.19E-06
   1     10    11.327     8.461    0.12E-03    0.78E-04    0.15E-06
  PAW_PBE Cu 22Jun2005                  :
  PAW_PBE Os 17Jan2003                  :

 POSCAR: Cu-Os
  positions in direct lattice
  velocities in cartesian coordinates
 exchange correlation table for  LEXCH =        8
   RHO(1)=    0.500       N(1)  =     2000
   RHO(2)=  100.500       N(2)  =     4000

 VTST: version 3.2, (02/03/18)

 CHAIN: initializing optimizer

 OPT: Using VASP Conjugate-Gradient optimizer
 CHAIN: Read ICHAIN            0

 POSCAR: Cu-Os
  positions in direct lattice
  velocities in cartesian coordinates

 ion  position               nearest neighbor table
   1  0.000  0.000  0.252-   7 2.57   3 2.57   4 2.57   2 2.57   6 2.57   8 2.57  12 2.57  10 2.57
                            16 2.57
   2  0.333  0.000  0.252-   8 2.57   9 2.57   5 2.57   1 2.57   3 2.57  11 2.57   4 2.57  10 2.57
                            17 2.57
   3  0.667  0.000  0.252-   1 2.57   7 2.57   6 2.57   9 2.57   2 2.57  12 2.57   5 2.57  18 2.57
                            11 2.57
   4  0.000  0.333  0.252-   5 2.57   6 2.57   1 2.57   7 2.57   2 2.57  13 2.57   9 2.57  10 2.57
                            15 2.57
   5  0.333  0.333  0.252-   4 2.57   2 2.57   7 2.57  13 2.57   8 2.57   6 2.57   3 2.57  11 2.57
                            14 2.57
   6  0.667  0.333  0.252-   4 2.57   9 2.57  15 2.57   3 2.57   1 2.57   8 2.57  14 2.57   5 2.57
                            12 2.57
   7  0.000  0.667  0.252-   1 2.57   3 2.57  16 2.57  18 2.57   4 2.57   5 2.57   8 2.57   9 2.57
                            13 2.57
   8  0.333  0.667  0.252-   9 2.57   2 2.57  17 2.57   6 2.57   1 2.57   7 2.57   5 2.57  14 2.57
                            16 2.57
   9  0.667  0.667  0.252-   8 2.57   6 2.57   2 2.57  17 2.57   3 2.57   7 2.57   4 2.57  15 2.57
                            18 2.57
  10  0.111  0.111  0.351-  20 2.53  11 2.57  12 2.57  13 2.57   1 2.57   2 2.57   4 2.57  15 2.57
                            16 2.57  17 2.57  26 2.57  19 2.57
  11  0.444  0.111  0.351-  20 2.54  21 2.54  10 2.57  13 2.57   2 2.57  17 2.57  14 2.57  12 2.57
                             5 2.57   3 2.57  18 2.57  27 2.57
  12  0.778  0.111  0.351-  21 2.53  15 2.57  10 2.57  14 2.57  18 2.57   3 2.57   1 2.57  16 2.57
                            11 2.57   6 2.57  19 2.57  25 2.57
  13  0.111  0.444  0.351-  23 2.54  20 2.54  16 2.57  18 2.57  10 2.57  11 2.57  14 2.57   5 2.57
                             4 2.57   7 2.57  15 2.57  22 2.57
  14  0.444  0.444  0.351-  21 2.54  23 2.54  15 2.57  17 2.57  12 2.57  16 2.57  13 2.57  11 2.57
                             6 2.57   8 2.57   5 2.57  24 2.57
  15  0.778  0.444  0.351-  19 2.56  14 2.57  17 2.57  12 2.57   6 2.57  18 2.57  10 2.57   9 2.57
                            13 2.57   4 2.57  24 2.57  22 2.57
  16  0.111  0.778  0.351-  23 2.53  18 2.57  13 2.57   7 2.57  14 2.57  17 2.57  12 2.57  10 2.57
                             8 2.57   1 2.57  25 2.57  26 2.57
  17  0.444  0.778  0.351-  26 2.56  14 2.57  15 2.57   8 2.57   9 2.57  11 2.57  16 2.57  18 2.57
                            10 2.57   2 2.57  27 2.57  24 2.57
  18  0.778  0.778  0.351-  25 2.56  16 2.57  13 2.57   7 2.57  15 2.57  12 2.57  17 2.57   9 2.57
                             3 2.57  11 2.57  22 2.57  27 2.57
  19  0.888  0.223  0.449-  21 2.55  20 2.55  28 2.55  22 2.56  24 2.56  15 2.56  12 2.57  10 2.57
                            32 2.57  31 2.57  25 2.57  26 2.57
  20  0.221  0.221  0.448-  10 2.53  36 2.53  11 2.54  13 2.54  26 2.55  19 2.55  27 2.57  22 2.57
                            23 2.59  21 2.59  29 2.60  31 2.60
  21  0.558  0.221  0.448-  12 2.53  36 2.53  14 2.54  11 2.54  19 2.55  25 2.55  24 2.57  27 2.57
                            20 2.59  23 2.59  32 2.60  30 2.60
  22  0.888  0.556  0.449-  35 2.55  24 2.55  27 2.55  19 2.56  25 2.56  18 2.57  15 2.57  23 2.57
                            20 2.57  13 2.57  31 2.58  33 2.58
  23  0.221  0.558  0.448-  16 2.53  36 2.53  13 2.54  14 2.54  25 2.55  26 2.55  22 2.57  24 2.57
                            20 2.59  21 2.59  33 2.60  34 2.60
  24  0.556  0.556  0.449-  35 2.55  22 2.55  27 2.55  19 2.56  26 2.56  15 2.57  17 2.57  21 2.57
                            23 2.57  14 2.57  32 2.58  34 2.58
  25  0.888  0.888  0.449-  21 2.55  23 2.55  28 2.55  22 2.56  27 2.56  18 2.56  16 2.57  12 2.57
                            33 2.57  30 2.57  19 2.57  26 2.57
  26  0.223  0.888  0.449-  20 2.55  23 2.55  28 2.55  27 2.56  24 2.56  17 2.56  10 2.57  16 2.57
                            29 2.57  34 2.57  25 2.57  19 2.57
  27  0.556  0.888  0.449-  35 2.55  24 2.55  22 2.55  26 2.56  25 2.56  17 2.57  18 2.57  20 2.57
                            21 2.57  11 2.57  29 2.58  30 2.58
  28  0.000  0.000  0.547-  25 2.55  19 2.55  26 2.55  33 2.56  30 2.56  31 2.56  29 2.56  32 2.56
                            34 2.56
  29  0.333  0.000  0.548-  31 2.56  28 2.56  34 2.57  36 2.57  35 2.57  30 2.57  26 2.57  27 2.58
                            20 2.60
  30  0.667  0.000  0.548-  32 2.56  28 2.56  33 2.57  36 2.57  35 2.57  29 2.57  25 2.57  27 2.58
                            21 2.60
  31  0.000  0.333  0.548-  29 2.56  28 2.56  32 2.57  36 2.57  35 2.57  33 2.57  19 2.57  22 2.58
                            20 2.60
  32  0.667  0.333  0.548-  30 2.56  28 2.56  31 2.57  36 2.57  35 2.57  34 2.57  19 2.57  24 2.58
                            21 2.60
  33  0.000  0.667  0.548-  34 2.56  28 2.56  30 2.57  36 2.57  35 2.57  31 2.57  25 2.57  22 2.58
                            23 2.60
  34  0.333  0.667  0.548-  33 2.56  28 2.56  29 2.57  36 2.57  35 2.57  32 2.57  26 2.57  24 2.58
                            23 2.60
  35  0.667  0.667  0.547-  24 2.55  27 2.55  22 2.55  34 2.57  32 2.57  29 2.57  30 2.57  33 2.57
                            31 2.57
  36  0.333  0.333  0.544-  23 2.53  20 2.53  21 2.53  31 2.57  29 2.57  33 2.57  34 2.57  32 2.57
                            30 2.57

  LATTYP: Found a hexagonal cell.
 ALAT       =     7.6967864036
 C/A-ratio  =     2.7653617908

  Lattice vectors:

 A1 = (  -3.8483927580,  -6.6656128093,   0.0000000000)
 A2 = (   7.6967864037,   0.0000000000,   0.0000000000)
 A3 = (   0.0000000000,   0.0000000000,  21.2843990326)

Analysis of symmetry for initial positions (statically):
 Subroutine PRICEL returns:
 Original cell was already a primitive cell.

 Routine SETGRP: Setting up the symmetry group for a
 hexagonal supercell.

 Subroutine GETGRP returns: Found  6 space group operations
 (whereof  6 operations were pure point group operations)
 out of a pool of 24 trial point group operations.

The static configuration has the point symmetry C_3v.

Analysis of symmetry for dynamics (positions and initial velocities):
 Subroutine PRICEL returns:
 Original cell was already a primitive cell.

[...]

The dynamic configuration has the point symmetry C_3v.

Analysis of constrained symmetry for selective dynamics:
 Subroutine PRICEL returns:
 Original cell was already a primitive cell.

 Routine SETGRP: Setting up the symmetry group for a
 hexagonal supercell.

 Subroutine GETGRP returns: Found  6 space group operations
 (whereof  6 operations were pure point group operations)
 out of a pool of 24 trial point group operations.

The constrained configuration has the point symmetry C_3v.

 Subroutine INISYM returns: Found  6 space group operations
 (whereof  6 operations are pure point group operations),
 and found     1 'primitive' translations

                                     Primitive cell

  volume of cell :    1091.9705

  direct lattice vectors                    reciprocal lattice vectors
     7.696786404  0.000000000  0.000000000     0.129924354 -0.075011849  0.000000000
     3.848392758  6.665612809  0.000000000     0.000000000  0.150023716  0.000000000
[...]
     15      -4.5186      2.00000
     16      -4.5119      2.00000
     17      -4.4916      2.00000
     18      -4.4410      2.00000
     19      -4.4094      2.00000
     20      -4.3727      2.00000
     21      -4.3603      2.00000
     22      -4.3375      2.00000
     23      -4.3118      2.00000
     24      -4.1717      2.00000
     25      -4.1311      2.00000
     26      -4.1053      2.00000
     27      -4.0925      2.00000
     28      -4.0465      2.00000
     29      -4.0352      2.00000
     30      -4.0285      2.00000
     31      -4.0187      2.00000
     32      -4.0071      2.00000
     33      -3.9955      2.00000
     34      -3.9594      2.00000
     35      -3.9033      2.00000
     36      -3.8692      2.00000
     37      -3.7245      2.00000
     38      -3.7097      2.00000
     39      -3.6637      2.00000
     40      -3.6390      2.00000
     41      -3.6309      2.00000
     42      -3.6119      2.00000
     43      -3.6007      2.00000
     44      -3.5920      2.00000
     45      -3.5862      2.00000
     46      -3.4014      2.00000
     47      -3.3836      2.00000
     48      -3.3755      2.00000
     49      -3.3620      2.00000
     50      -3.3129      2.00000
     51      -3.2986      2.00000
     52      -3.2976      2.00000
     53      -3.2931      2.00000
     54      -3.2864      2.00000
     55      -3.2707      2.00000
     56      -3.2346      2.00000
     57      -3.2254      2.00000
     58      -3.2176      2.00000
     59      -3.2162      2.00000
     60      -3.2157      2.00000
[...]
    238       6.8811      0.00000
    239       6.9147      0.00000
    240       7.0145      0.00000
    241       7.0931      0.00000
    242       7.3096      0.00000
    243       7.3167      0.00000
    244       7.3841      0.00000
    245       7.4637      0.00000
    246       7.6480      0.00000
    247       7.7250      0.00000
    248       7.9093      0.00000
    249       8.0543      0.00000
    250       8.1911      0.00000
    251       8.3155      0.00000
    252       8.4797      0.00000

 soft charge-density along one line, spin component           1
         0         1         2         3         4         5         6         7         8         9
 total charge-density along one line

------------------------ aborting loop because EDIFF is reached ----------------------------------------

 total charge

# of ion       s       p       d       tot
    1        0.448   0.284   9.189   9.921
    2        0.449   0.285   9.187   9.921
    3        0.449   0.285   9.187   9.921
    4        0.449   0.285   9.187   9.921
    5        0.445   0.289   9.182   9.915
    6        0.449   0.285   9.187   9.921
    7        0.449   0.285   9.187   9.921
    8        0.449   0.285   9.187   9.921
    9        0.448   0.282   9.189   9.920
   10        0.443   0.374   9.173   9.989
   11        0.444   0.365   9.185   9.994
   12        0.443   0.374   9.173   9.989
   13        0.444   0.365   9.185   9.994
   14        0.444   0.365   9.185   9.994
   15        0.439   0.368   9.180   9.987
   16        0.443   0.374   9.173   9.989
   17        0.439   0.368   9.180   9.987
   18        0.439   0.368   9.180   9.987
   19        0.439   0.369   9.181   9.989
   20        0.454   0.400   9.165  10.019
   21        0.454   0.400   9.165  10.019
   22        0.431   0.369   9.185   9.985
   23        0.454   0.400   9.165  10.019
   24        0.431   0.369   9.185   9.985
   25        0.439   0.369   9.181   9.989
   26        0.439   0.369   9.181   9.989
   27        0.431   0.369   9.185   9.985
   28        0.447   0.288   9.189   9.924
   29        0.459   0.312   9.168   9.939
   30        0.459   0.312   9.168   9.939
   31        0.459   0.312   9.168   9.939
   32        0.459   0.312   9.168   9.939
   33        0.459   0.312   9.168   9.939
   34        0.459   0.312   9.168   9.939
   35        0.439   0.292   9.188   9.919
   36        0.638   0.388   6.049   7.075
tot         16.260  12.140 327.320 355.719

  FORCE on cell =-STRESS in cart. coord.  units (eV):
  Direction    XX          YY          ZZ          XY          YZ          ZX
  Alpha Z   886.16578   886.16578   886.16578
  Ewald  172395.40594172395.40555************     0.00037     0.00011     0.00015
  Hartree185261.43942185261.43941************     0.00003     0.00005     0.00006
  E(xc)   -2282.89057 -2282.89007 -2287.77230    -0.00043    -0.00003    -0.00006
  Local  ************************370970.54087     0.01843    -0.00055    -0.00088
  n-local  -788.19697  -773.69389  -797.31903     7.59223    -0.04034     0.13098
  augment  3323.69822  3323.71844  3346.07614    -0.01751     0.00028     0.00051
  Kinetic  3237.27821  3247.79677  3276.88368     6.11665     1.28568    -0.68886
  Fock        0.00000     0.00000     0.00000     0.00000     0.00000     0.00000
  Total      -7.22669    -7.22669     0.41215     0.00000    -0.00000     0.00000
  in kB     -10.60325   -10.60325     0.60472     0.00000    -0.00000     0.00000

 VOLUME and BASIS-vectors are now :
  energy-cutoff  :      500.00
  volume of cell :     1091.97
      direct lattice vectors                 reciprocal lattice vectors
     7.696786404  0.000000000  0.000000000     0.129924354 -0.075011849  0.000000000
     3.848392758  6.665612809  0.000000000     0.000000000  0.150023716  0.000000000
     0.000000000  0.000000000 21.284399033     0.000000000  0.000000000  0.046982769

  length of vectors
     7.696786404  7.696786404 21.284399033     0.150023716  0.150023716  0.046982769

 FORCES acting on ions
    electron-ion (+dipol)            ewald-force                    non-local-force                 convergence-correction
   -.416E-04 0.156E-06 0.346E+04   0.580E-04 -.434E-05 -.346E+04   0.511E-17 0.578E-17 -.284E+01   -.344E-03 -.219E-03 -.230E+00
   -.174E+00 0.108E+00 0.346E+04   0.105E+00 -.220E-01 -.346E+04   0.281E-01 -.499E-01 -.179E+01   0.448E-01 -.226E-01 -.206E+00
   0.174E+00 0.108E+00 0.346E+04   -.105E+00 -.220E-01 -.346E+04   -.281E-01 -.499E-01 -.179E+01   -.439E-01 -.201E-01 -.205E+00
   0.655E-02 -.204E+00 0.346E+04   0.335E-01 0.102E+00 -.346E+04   -.292E-01 0.493E-01 -.179E+01   0.289E-02 0.500E-01 -.206E+00
   -.618E-04 -.339E-05 0.346E+04   0.116E-03 -.101E-04 -.346E+04   0.106E-17 -.103E-18 -.168E+01   0.122E-01 0.745E-02 -.133E+00
   -.651E-02 -.204E+00 0.346E+04   -.336E-01 0.102E+00 -.346E+04   0.292E-01 0.493E-01 -.179E+01   -.451E-02 0.512E-01 -.205E+00
   0.180E+00 0.965E-01 0.346E+04   -.718E-01 -.802E-01 -.346E+04   -.573E-01 0.608E-03 -.179E+01   -.393E-01 -.280E-01 -.205E+00
   -.180E+00 0.965E-01 0.346E+04   0.715E-01 -.802E-01 -.346E+04   0.573E-01 0.608E-03 -.179E+01   0.428E-01 -.295E-01 -.205E+00
   -.144E-03 -.330E-04 0.346E+04   0.263E-03 0.205E-04 -.346E+04   -.412E-17 0.187E-17 -.228E+01   -.132E-01 -.677E-02 -.250E+00
   0.240E+01 0.139E+01 0.113E+04   -.200E+01 -.116E+01 -.113E+04   -.451E+00 -.261E+00 -.127E+01   0.673E-01 0.386E-01 0.108E+00
   -.911E-04 -.140E+00 0.113E+04   0.190E-03 -.106E+00 -.113E+04   -.825E-08 0.124E+00 -.381E+00   0.121E-01 0.673E-01 0.155E+00
   -.240E+01 0.139E+01 0.113E+04   0.200E+01 -.116E+01 -.113E+04   0.451E+00 -.261E+00 -.127E+01   -.690E-01 0.399E-01 0.108E+00
   -.121E+00 0.702E-01 0.113E+04   -.921E-01 0.530E-01 -.113E+04   0.107E+00 -.620E-01 -.381E+00   0.648E-01 -.224E-01 0.155E+00
   0.122E+00 0.702E-01 0.113E+04   0.918E-01 0.530E-01 -.113E+04   -.107E+00 -.620E-01 -.381E+00   -.410E-01 -.237E-01 0.154E+00
   -.143E-03 -.108E+00 0.113E+04   0.298E-03 -.142E+00 -.113E+04   -.123E-07 0.185E+00 -.881E+00   -.358E-02 0.540E-01 0.818E-01
   -.920E-04 -.277E+01 0.113E+04   0.186E-03 0.231E+01 -.113E+04   -.347E-07 0.521E+00 -.127E+01   -.507E-03 -.813E-01 0.108E+00
   -.939E-01 0.541E-01 0.113E+04   -.123E+00 0.714E-01 -.113E+04   0.160E+00 -.925E-01 -.881E+00   0.454E-01 -.300E-01 0.820E-01
   0.940E-01 0.541E-01 0.113E+04   0.123E+00 0.713E-01 -.113E+04   -.160E+00 -.925E-01 -.881E+00   -.441E-01 -.271E-01 0.837E-01
   -.578E-04 -.186E+01 -.121E+04   0.706E-04 0.186E+01 0.121E+04   0.561E-08 -.843E-01 0.617E+00   -.110E-01 0.781E-01 0.283E+00
   -.324E+02 -.187E+02 -.122E+04   0.330E+02 0.190E+02 0.122E+04   -.721E+00 -.416E+00 -.841E+00   0.148E+00 0.842E-01 0.402E+00
   0.324E+02 -.187E+02 -.122E+04   -.330E+02 0.190E+02 0.122E+04   0.721E+00 -.416E+00 -.841E+00   -.166E+00 0.836E-01 0.401E+00
   -.233E+02 0.134E+02 -.121E+04   0.224E+02 -.129E+02 0.121E+04   0.734E+00 -.424E+00 0.732E+00   0.143E+00 -.814E-01 0.299E+00
   -.894E-04 0.374E+02 -.122E+04   0.146E-03 -.381E+02 0.122E+04   -.554E-07 0.832E+00 -.841E+00   0.186E-05 -.167E+00 0.401E+00
   0.233E+02 0.134E+02 -.121E+04   -.224E+02 -.129E+02 0.121E+04   -.734E+00 -.424E+00 0.732E+00   -.144E+00 -.827E-01 0.299E+00
   0.161E+01 0.931E+00 -.121E+04   -.161E+01 -.931E+00 0.121E+04   0.730E-01 0.421E-01 0.617E+00   -.832E-01 -.490E-01 0.283E+00
   -.161E+01 0.931E+00 -.121E+04   0.161E+01 -.931E+00 0.121E+04   -.730E-01 0.421E-01 0.617E+00   0.620E-01 -.498E-01 0.283E+00
   -.114E-03 -.269E+02 -.121E+04   0.241E-03 0.258E+02 0.121E+04   -.564E-07 0.848E+00 0.732E+00   0.931E-03 0.166E+00 0.299E+00
   -.490E-04 0.962E-05 -.347E+04   0.427E-04 -.320E-04 0.347E+04   0.549E-17 0.504E-17 0.215E+01   -.166E-03 -.409E-03 0.323E+00
   -.335E+02 -.527E+02 -.349E+04   0.341E+02 0.533E+02 0.349E+04   -.703E+00 -.796E+00 0.118E+01   0.141E+00 0.214E+00 0.344E+00
   0.335E+02 -.527E+02 -.349E+04   -.341E+02 0.533E+02 0.349E+04   0.703E+00 -.796E+00 0.118E+01   -.140E+00 0.216E+00 0.343E+00
   -.624E+02 -.271E+01 -.349E+04   0.632E+02 0.290E+01 0.349E+04   -.104E+01 -.210E+00 0.118E+01   0.256E+00 0.143E-01 0.344E+00
   0.624E+02 -.271E+01 -.349E+04   -.632E+02 0.290E+01 0.349E+04   0.104E+01 -.210E+00 0.118E+01   -.256E+00 0.152E-01 0.344E+00
   -.288E+02 0.554E+02 -.349E+04   0.291E+02 -.562E+02 0.349E+04   -.338E+00 0.101E+01 0.118E+01   0.117E+00 -.229E+00 0.343E+00
   0.288E+02 0.554E+02 -.349E+04   -.291E+02 -.562E+02 0.349E+04   0.338E+00 0.101E+01 0.118E+01   -.115E+00 -.229E+00 0.343E+00
   -.150E-03 -.305E-04 -.347E+04   0.249E-03 0.328E-05 0.347E+04   0.232E-17 0.179E-17 0.262E+01   -.127E-01 -.635E-02 0.376E+00
   -.497E-04 -.181E-04 -.249E+04   0.102E-03 0.192E-04 0.248E+04   0.788E-17 0.268E-17 0.197E+01   0.134E-02 0.602E-03 0.210E+00
   -.222E-03 0.183E-04 0.468E+01   0.172E-12 0.462E-12 0.236E-10   0.102E-16 -.440E-15 -.982E+01   -.258E-01 -.642E-02 0.511E+01

 POSITION                                       TOTAL-FORCE (eV/Angst)
      0.00000      0.00000      5.37156         0.000000     -0.000000      0.032948
      2.56560      0.00000      5.37156         0.004948      0.014293      0.055376
      5.13119      0.00000      5.37156        -0.004948      0.014293      0.055376
      1.28280      2.22187      5.37156         0.014852     -0.002862      0.055376
      3.84839      2.22187      5.37156        -0.000000     -0.000000      0.026935
      6.41399      2.22187      5.37156        -0.014852     -0.002862      0.055376
      2.56560      4.44374      5.37156         0.009904     -0.011432      0.055376
      5.13119      4.44374      5.37156        -0.009904     -0.011432      0.055376
      7.69679      4.44374      5.37156         0.000000      0.000000      0.025511
      1.28280      0.74062      7.46636         0.017201      0.009931     -0.046545
      3.84839      0.74062      7.46636         0.000000     -0.061863     -0.110987
      6.41399      0.74062      7.46636        -0.017201      0.009931     -0.046545
      2.56560      2.96249      7.46636        -0.053575      0.030931     -0.110987
      5.13119      2.96249      7.46636         0.053575      0.030931     -0.110987
      7.69679      2.96249      7.46636         0.000000     -0.012254      0.013037
      3.84839      5.18437      7.46636         0.000000     -0.019862     -0.046545
      6.41399      5.18437      7.46636        -0.010613      0.006127      0.013037
      8.97958      5.18437      7.46636         0.010613      0.006127      0.013037
      7.69679      1.48657      9.56400        -0.000000      0.000430     -0.010313
      2.55408      1.47460      9.52990        -0.000893     -0.000515      0.004650
      5.14271      1.47460      9.52990         0.000893     -0.000515      0.004650
      8.97350      3.70663      9.56526         0.003808     -0.002198     -0.011410
      3.84839      3.71642      9.52990        -0.000000      0.001031      0.004650
      6.42007      3.70663      9.56526        -0.003808     -0.002198     -0.011410
     10.25777      5.92233      9.56400        -0.000372     -0.000215     -0.010313
      5.13580      5.92233      9.56400         0.000372     -0.000215     -0.010313
      7.69679      5.91797      9.56526        -0.000000      0.004397     -0.011410
      0.00000      0.00000     11.64184         0.000000     -0.000000      0.018266
      2.56182      0.00242     11.67254        -0.005756     -0.005096      0.013982
      5.13496      0.00242     11.67254         0.005756     -0.005096      0.013982
      1.28301      2.21740     11.67254        -0.007291     -0.002437      0.013982
      6.41378      2.21740     11.67254         0.007291     -0.002437      0.013982
      2.56958      4.44580     11.67254        -0.001535      0.007533      0.013982
      5.12721      4.44580     11.67254         0.001535      0.007533      0.013982
      7.69679      4.44374     11.64035         0.000000     -0.000000      0.014657
      3.84839      2.22187     11.57579         0.000000     -0.000000     -0.049758
    total drift:                               -0.026067     -0.006400     -0.035991

  FREE ENERGIE OF THE ION-ELECTRON SYSTEM (eV)
  free  energy   TOTEN  =      -131.44204700 eV

  energy  without entropy=     -131.44204700  energy(sigma->0) =     -131.44204700

 stress matrix after NEB project (eV)
     -7.22669      0.00000      0.00000
      0.00000     -7.22669     -0.00000
     -0.00000     -0.00000      0.41215
  FORCES: max atom, RMS     0.049758    0.012234
  FORCE total and by dimension    0.073404    0.049758
  Stress total and by dimension   10.228386    7.226687
|           W    W    AA    RRRRR   N    N  II  N    N   GGGG   !!!           |
|           W    W   A  A   R    R  NN   N  II  NN   N  G    G  !!!           |
|           W    W  A    A  R    R  N N  N  II  N N  N  G       !!!           |
|           W WW W  AAAAAA  RRRRR   N  N N  II  N  N N  G  GGG   !            |
|           WW  WW  A    A  R   R   N   NN  II  N   NN  G    G                |
|           W    W  A    A  R    R  N    N  II  N    N   GGGG   !!!           |
|     Tetrahedron method does not include variations of the Fermi             |
|     occupations, so forces and stress will be inaccurate. We suggest        |
|     using a different smearing scheme ISMEAR = 1 or 2 for metals in         |
|     relaxations.                                                            |

 total charge

# of ion       s       p       d       tot
    1        0.448   0.284   9.189   9.921
    2        0.449   0.285   9.187   9.921
    3        0.449   0.285   9.187   9.921
    4        0.449   0.285   9.187   9.921
    5        0.445   0.289   9.182   9.915
    6        0.449   0.285   9.187   9.921
    7        0.449   0.285   9.187   9.921
    8        0.449   0.285   9.187   9.921
    9        0.448   0.282   9.189   9.920
   10        0.443   0.374   9.173   9.989
   11        0.444   0.365   9.185   9.994
   12        0.443   0.374   9.173   9.989
   13        0.444   0.365   9.185   9.994
   14        0.444   0.365   9.185   9.994
   15        0.439   0.368   9.180   9.987
   16        0.443   0.374   9.173   9.989
   17        0.439   0.368   9.180   9.987
   18        0.439   0.368   9.180   9.987
   19        0.439   0.369   9.181   9.989
   20        0.454   0.400   9.165  10.019
   21        0.454   0.400   9.165  10.019
   22        0.431   0.369   9.185   9.985
   23        0.454   0.400   9.165  10.019
   24        0.431   0.369   9.185   9.985
   25        0.439   0.369   9.181   9.989
   26        0.439   0.369   9.181   9.989
   27        0.431   0.369   9.185   9.985
   28        0.447   0.288   9.189   9.924
   29        0.459   0.312   9.168   9.939
   30        0.459   0.312   9.168   9.939
   31        0.459   0.312   9.168   9.939
   32        0.459   0.312   9.168   9.939
   33        0.459   0.312   9.168   9.939
   34        0.459   0.312   9.168   9.939
   35        0.439   0.292   9.188   9.919
   36        0.638   0.388   6.049   7.075
tot         16.260  12.140 327.320 355.719

 BZINTS: Fermi energy:    0.061141;  393.000000 electrons
         Band energy:-0.107402E+04;  BLOECHL correction:   -0.052457