 vasp.6.2.0 18Jan21 (build Jun 12 2021 23:27:24) complex

 executed on             LinuxIFC date 2022.05.26  19:52:30

 INCAR:
   ISMEAR = -5
   SIGMA = 0.1
   ISPIN = 1
   EDIFF = 1.d-5
   EDIFFG = -0.01
   NSW = 0
   NELM = 150
   ENCUT = 500
   ISIF = 2
   IBRION = 2
   LREAL = Auto
   ALGO = Fast
   ICHARG = 11
   LORBIT = 10
   LCHARG = .F.
   LWAVE = .F.

 POTCAR:    PAW_PBE Ag 02Apr2005
 POTCAR:    PAW_PBE W 08Apr2002
 POTCAR:    PAW_PBE N 08Apr2002
|           W    W    AA    RRRRR   N    N  II  N    N   GGGG   !!!           |
|           W    W   A  A   R    R  NN   N  II  NN   N  G    G  !!!           |
|           W    W  A    A  R    R  N N  N  II  N N  N  G       !!!           |
|           W WW W  AAAAAA  RRRRR   N  N N  II  N  N N  G  GGG   !            |
|           WW  WW  A    A  R   R   N   NN  II  N   NN  G    G                |
|           W    W  A    A  R    R  N    N  II  N    N   GGGG   !!!           |
|     For optimal performance we recommend to set                             |
|       NCORE = 2 up to number-of-cores-per-socket                            |
|     This setting can greatly improve the performance of VASP for DFT.       |
|     The default, NCORE=1 might be grossly inefficient on modern             |
|     multi-core architectures or massively parallel machines. Do your        |
|     Unfortunately you need to use the default for GW and RPA                |
|     calculations (for HF NCORE is supported but not extensively tested      |
|     yet).                                                                   |

 POTCAR:    PAW_PBE Ag 02Apr2005
   VRHFIN =Ag : s1 d10

   TITEL  = PAW_PBE Ag 02Apr2005
   POMASS =  107.868; ZVAL   =   11.000    mass and valenz
   ENMAX  =  249.844; ENMIN  =  187.383 eV

 POTCAR:    PAW_PBE W 08Apr2002
   VRHFIN =W : 6s5d

[...]

 POTCAR:    PAW_PBE N 08Apr2002
   VRHFIN =N: s2p3

   TITEL  = PAW_PBE N 08Apr2002
   POMASS =   14.001; ZVAL   =    5.000    mass and valenz
   ENMAX  =  400.000; ENMIN  =  300.000 eV

 Optimization of the real space projectors (new method)

 maximal supplied QI-value         = 15.12
 optimisation between [QCUT,QGAM] = [ 11.34, 22.83] = [ 36.00,145.93] Ry
 Optimized for a Real-space Cutoff    1.43 Angstroem

   l    n(q)    QCUT    max X(q) W(low)/X(q) W(high)/X(q)  e(spline)
   2      9    11.338    53.897    0.16E-03    0.20E-03    0.28E-06
   2      9    11.338    52.416    0.16E-03    0.20E-03    0.29E-06
   0     10    11.338   122.045    0.31E-04    0.76E-04    0.15E-06
   0     10    11.338    73.629    0.30E-04    0.72E-04    0.15E-06
   1      9    11.338    15.255    0.20E-03    0.19E-04    0.17E-06
   1      9    11.338     9.562    0.16E-03    0.15E-04    0.14E-06
 Optimization of the real space projectors (new method)

[...]

   l    n(q)    QCUT    max X(q) W(low)/X(q) W(high)/X(q)  e(spline)
   2     10    11.429   130.855    0.22E-03    0.64E-03    0.11E-05
   2     10    11.429   114.007    0.22E-03    0.64E-03    0.11E-05
   0     11    11.429    84.709    0.39E-04    0.67E-04    0.23E-06
   0     11    11.429    49.163    0.35E-04    0.62E-04    0.21E-06
   1     10    11.429    15.765    0.84E-04    0.15E-03    0.24E-06
   1     10    11.429    10.638    0.58E-04    0.12E-03    0.19E-06
 Optimization of the real space projectors (new method)

 maximal supplied QI-value         = 25.13
 optimisation between [QCUT,QGAM] = [ 11.31, 22.87] = [ 35.82,146.48] Ry
 Optimized for a Real-space Cutoff    1.27 Angstroem

   l    n(q)    QCUT    max X(q) W(low)/X(q) W(high)/X(q)  e(spline)
   0      9    11.310    79.467    0.75E-04    0.16E-03    0.36E-06
   0      9    11.310    66.151    0.74E-04    0.16E-03    0.36E-06
   1      8    11.310    17.416    0.35E-03    0.12E-03    0.95E-06
   1      8    11.310    12.382    0.37E-03    0.13E-03    0.98E-06
  PAW_PBE Ag 02Apr2005                  :
  PAW_PBE W 08Apr2002                   :
  PAW_PBE N 08Apr2002                   :

 POSCAR: Ag-W-N
  positions in direct lattice
  velocities in cartesian coordinates
 exchange correlation table for  LEXCH =        8
   RHO(1)=    0.500       N(1)  =     2000
   RHO(2)=  100.500       N(2)  =     4000

 VTST: version 3.2, (02/03/18)

 CHAIN: initializing optimizer

 OPT: Using VASP Conjugate-Gradient optimizer
 CHAIN: Read ICHAIN            0

 POSCAR: Ag-W-N
  positions in direct lattice
  velocities in cartesian coordinates

 ion  position               nearest neighbor table
   1  0.000  0.000  0.238-   2 2.93   8 2.93   7 2.93   6 2.93   4 2.93  12 2.93  16 2.93  10 2.93
                             3 2.93
   2  0.333  0.000  0.238-   1 2.93   8 2.93   9 2.93   3 2.93   4 2.93   5 2.93  10 2.93  17 2.93
                            11 2.93
   3  0.667  0.000  0.238-   9 2.93   2 2.93   5 2.93  11 2.93   7 2.93  18 2.93   1 2.93   6 2.93
                            12 2.93
   4  0.000  0.333  0.238-   5 2.93   6 2.93   2 2.93   1 2.93   7 2.93  13 2.93  15 2.93   9 2.93
                            10 2.93
   5  0.333  0.333  0.238-   4 2.93   3 2.93   7 2.93   2 2.93   8 2.93  14 2.93  13 2.93  11 2.93
                             6 2.93
   6  0.667  0.333  0.238-   4 2.93   9 2.93   1 2.93  15 2.93   8 2.93  12 2.93   3 2.93   5 2.93
                            14 2.93
   7  0.000  0.667  0.238-   8 2.93   1 2.93   5 2.93   3 2.93   4 2.93  16 2.93  18 2.93  13 2.93
                             9 2.93
   8  0.333  0.667  0.238-   7 2.93   1 2.93   2 2.93   9 2.93   5 2.93  16 2.93   6 2.93  17 2.93
                            14 2.93
   9  0.667  0.667  0.238-   3 2.93   2 2.93   8 2.93   6 2.93  17 2.93   4 2.93  15 2.93   7 2.93
                            18 2.93
  10  0.111  0.111  0.346-  20 2.89  12 2.93  16 2.93  15 2.93  17 2.93  13 2.93  11 2.93   2 2.93
                             1 2.93   4 2.93  19 2.93  26 2.93
  11  0.444  0.111  0.346-  21 2.90  20 2.90  14 2.93  17 2.93  18 2.93   3 2.93  12 2.93  13 2.93
                            10 2.93   5 2.93   2 2.93  27 2.93
  12  0.778  0.111  0.346-  21 2.89  10 2.93  16 2.93  18 2.93  15 2.93  11 2.93   1 2.93  14 2.93
                             6 2.93   3 2.93  25 2.93  19 2.93
  13  0.111  0.444  0.346-  20 2.90  23 2.90  15 2.93  14 2.93  18 2.93  10 2.93  11 2.93  16 2.93
                             4 2.93   5 2.93   7 2.93  22 2.93
  14  0.444  0.444  0.346-  23 2.90  21 2.90  13 2.93  11 2.93  16 2.93   5 2.93  12 2.93  17 2.93
                             8 2.93  15 2.93   6 2.93  24 2.93
  15  0.778  0.444  0.346-  24 2.93  22 2.93  13 2.93  10 2.93  12 2.93  17 2.93  18 2.93   4 2.93
                             6 2.93   9 2.93  14 2.93  19 2.93
  16  0.111  0.778  0.346-  23 2.89  18 2.93  12 2.93  10 2.93  14 2.93  17 2.93  13 2.93   7 2.93
                             8 2.93   1 2.93  26 2.93  25 2.93
  17  0.444  0.778  0.346-  27 2.93  24 2.93  11 2.93  10 2.93   9 2.93  18 2.93  15 2.93  16 2.93
                             2 2.93  14 2.93   8 2.93  26 2.93
  18  0.778  0.778  0.346-  22 2.93  27 2.93  16 2.93  12 2.93  13 2.93  11 2.93  17 2.93  15 2.93
                             7 2.93   3 2.93   9 2.93  25 2.93
  19  0.889  0.223  0.454-  28 2.92  20 2.93  21 2.93  24 2.93  22 2.93  15 2.93  10 2.93  12 2.93
                            26 2.94  25 2.94  32 2.98  31 2.98
  20  0.222  0.222  0.452-  36 2.76  10 2.89  13 2.90  11 2.90  19 2.93  26 2.93  27 2.94  22 2.94
                            21 2.94  23 2.94  31 2.96  29 2.96
  21  0.556  0.222  0.452-  36 2.76  12 2.89  11 2.90  14 2.90  25 2.93  19 2.93  27 2.94  24 2.94
                            20 2.94  23 2.94  30 2.96  32 2.96
  22  0.888  0.556  0.454-  35 2.92  24 2.92  27 2.92  18 2.93  15 2.93  25 2.93  19 2.93  13 2.93
                            23 2.94  20 2.94  33 2.96  31 2.96
  23  0.222  0.556  0.452-  36 2.76  16 2.89  14 2.90  13 2.90  26 2.93  25 2.93  22 2.94  24 2.94
                            21 2.94  20 2.94  34 2.96  33 2.96
  24  0.556  0.556  0.454-  35 2.92  27 2.92  22 2.92  15 2.93  17 2.93  19 2.93  26 2.93  14 2.93
                            23 2.94  21 2.94  32 2.96  34 2.96
  25  0.889  0.889  0.454-  28 2.92  23 2.93  21 2.93  22 2.93  27 2.93  18 2.93  16 2.93  12 2.93
                            26 2.94  19 2.94  33 2.98  30 2.98
  26  0.223  0.889  0.454-  28 2.92  23 2.93  20 2.93  27 2.93  24 2.93  17 2.93  16 2.93  10 2.93
                            25 2.94  19 2.94  34 2.98  29 2.98
  27  0.556  0.888  0.454-  35 2.92  24 2.92  22 2.92  17 2.93  18 2.93  26 2.93  25 2.93  11 2.93
                            20 2.94  21 2.94  29 2.96  30 2.96
  28  0.000  0.000  0.562-  26 2.92  25 2.92  19 2.92  29 2.96  34 2.96  33 2.96  32 2.96  31 2.96
                            30 2.96
  29  0.333  0.007  0.563-  31 2.86  30 2.87  36 2.88  20 2.96  27 2.96  28 2.96  35 2.96  26 2.98
                            34 3.06
  30  0.659  0.007  0.563-  32 2.86  29 2.87  36 2.88  21 2.96  27 2.96  28 2.96  35 2.96  25 2.98
                            33 3.06
  31  0.007  0.333  0.563-  29 2.86  33 2.87  36 2.88  20 2.96  22 2.96  28 2.96  35 2.96  19 2.98
                            32 3.06
  32  0.659  0.333  0.563-  30 2.86  34 2.87  36 2.88  21 2.96  24 2.96  28 2.96  35 2.96  19 2.98
                            31 3.06
  33  0.007  0.659  0.563-  34 2.86  31 2.87  36 2.88  23 2.96  22 2.96  28 2.96  35 2.96  25 2.98
                            30 3.06
  34  0.333  0.659  0.563-  33 2.86  32 2.87  36 2.88  23 2.96  24 2.96  28 2.96  35 2.96  26 2.98
                            29 3.06
  35  0.667  0.667  0.561-  24 2.92  27 2.92  22 2.92  30 2.96  32 2.96  29 2.96  34 2.96  31 2.96
                            33 2.96
  36  0.333  0.333  0.550-  37 1.72  21 2.76  20 2.76  23 2.76  31 2.88  30 2.88  33 2.88  29 2.88
                            34 2.88  32 2.88
  37  0.333  0.333  0.628-  36 1.72

  LATTYP: Found a hexagonal cell.
 ALAT       =     8.7913665772
 C/A-ratio  =     2.5227160501

  Lattice vectors:

 A1 = (  -4.3956832886,  -7.6135467898,   0.0000000000)
 A2 = (   8.7913665771,   0.0000000000,   0.0000000000)
 A3 = (   0.0000000000,   0.0000000000,  22.1781215668)

Analysis of symmetry for initial positions (statically):
 Subroutine PRICEL returns:
 Original cell was already a primitive cell.

 Routine SETGRP: Setting up the symmetry group for a
 hexagonal supercell.

 Subroutine GETGRP returns: Found  6 space group operations
 (whereof  6 operations were pure point group operations)
 out of a pool of 24 trial point group operations.

The static configuration has the point symmetry C_3v.

Analysis of symmetry for dynamics (positions and initial velocities):
 Subroutine PRICEL returns:
 Original cell was already a primitive cell.

[...]

The dynamic configuration has the point symmetry C_3v.

Analysis of constrained symmetry for selective dynamics:
 Subroutine PRICEL returns:
 Original cell was already a primitive cell.

 Routine SETGRP: Setting up the symmetry group for a
 hexagonal supercell.

 Subroutine GETGRP returns: Found  6 space group operations
 (whereof  6 operations were pure point group operations)
 out of a pool of 24 trial point group operations.

[...]
     24      -4.7187      2.00000
     25      -4.6963      2.00000
     26      -4.6833      2.00000
     27      -4.6773      2.00000
     28      -4.6380      2.00000
     29      -4.6332      2.00000
     30      -4.6267      2.00000
     31      -4.6112      2.00000
     32      -4.5952      2.00000
     33      -4.5662      2.00000
     34      -4.5580      2.00000
     35      -4.5180      2.00000
     36      -4.4925      2.00000
     37      -4.4832      2.00000
     38      -4.4656      2.00000
     39      -4.4318      2.00000
     40      -4.4204      2.00000
     41      -4.4108      2.00000
     42      -4.3922      2.00000
     43      -4.3702      2.00000
     44      -4.3077      2.00000
     45      -4.2772      2.00000
     46      -4.2557      2.00000
     47      -4.2448      2.00000
     48      -4.2377      2.00000
     49      -4.2353      2.00000
     50      -4.2329      2.00000
     51      -4.2229      2.00000
     52      -4.2077      2.00000
     53      -4.2041      2.00000
     54      -4.1501      2.00000
     55      -4.1354      2.00000
     56      -4.1249      2.00000
     57      -4.1159      2.00000
     58      -4.0919      2.00000
     59      -4.0801      2.00000
     60      -4.0720      2.00000
[...]
    238       6.2907      0.00000
    239       6.3558      0.00000
    240       6.5200      0.00000
    241       7.1825      0.00000
    242       7.2291      0.00000
    243       7.2524      0.00000
    244       7.3370      0.00000
    245       7.3523      0.00000
    246       7.3613      0.00000
    247       7.4386      0.00000
    248       7.5563      0.00000
    249       7.6231      0.00000
    250       7.6422      0.00000
    251       7.6715      0.00000
    252       7.7920      0.00000

 soft charge-density along one line, spin component           1
         0         1         2         3         4         5         6         7         8         9
 total charge-density along one line

------------------------ aborting loop because EDIFF is reached ----------------------------------------

 total charge

# of ion       s       p       d       tot
    1        0.419   0.202   9.177   9.798
    2        0.416   0.204   9.176   9.796
    3        0.416   0.204   9.176   9.796
    4        0.416   0.204   9.176   9.796
    5        0.417   0.201   9.178   9.796
    6        0.416   0.204   9.176   9.796
    7        0.416   0.204   9.176   9.796
    8        0.416   0.204   9.176   9.796
    9        0.414   0.204   9.177   9.795
   10        0.406   0.270   9.165   9.840
   11        0.403   0.273   9.165   9.841
   12        0.406   0.270   9.165   9.840
   13        0.403   0.273   9.165   9.841
   14        0.403   0.273   9.165   9.841
   15        0.402   0.270   9.164   9.836
   16        0.406   0.270   9.165   9.840
   17        0.402   0.270   9.164   9.836
   18        0.402   0.270   9.164   9.836
   19        0.401   0.261   9.169   9.830
   20        0.434   0.305   9.143   9.882
   21        0.434   0.305   9.143   9.882
   22        0.393   0.274   9.163   9.830
   23        0.434   0.305   9.143   9.882
   24        0.393   0.274   9.163   9.830
   25        0.401   0.261   9.169   9.830
   26        0.401   0.261   9.169   9.830
   27        0.393   0.274   9.163   9.830
   28        0.418   0.194   9.175   9.787
   29        0.422   0.218   9.166   9.806
   30        0.422   0.218   9.166   9.806
   31        0.422   0.218   9.166   9.806
   32        0.422   0.218   9.166   9.806
   33        0.422   0.218   9.166   9.806
   34        0.422   0.218   9.166   9.806
   35        0.413   0.200   9.173   9.786
   36        0.694   0.569   4.360   5.623
   37        1.337   2.240   0.000   3.577
tot         16.458  11.298 325.205 352.960

  FORCE on cell =-STRESS in cart. coord.  units (eV):
  Direction    XX          YY          ZZ          XY          YZ          ZX
  Alpha Z   760.11860   760.11860   760.11860
  Ewald  119128.76332119128.76330************     0.00002    -0.00001     0.00002
  Hartree129251.21917129251.21916************     0.00001    -0.00000     0.00001
  E(xc)   -2075.84565 -2075.84564 -2083.59685    -0.00000     0.00000     0.00000
  Local  ************************259643.08469     0.00038    -0.00004    -0.00013
  n-local  -347.57027  -330.42331  -343.18140    10.17235    -0.51204     0.60915
  augment  3224.92656  3224.92672  3236.78415    -0.00011    -0.00001     0.00005
  Kinetic  4936.68993  4940.34301  4957.22575     4.10538     0.81720    -0.29136
  Fock        0.00000     0.00000     0.00000     0.00000     0.00000     0.00000
  Total      -6.76814    -6.76814     0.12724    -0.00000     0.00000    -0.00000
  in kB      -7.30485    -7.30485     0.13733    -0.00000     0.00000    -0.00000

 VOLUME and BASIS-vectors are now :
  energy-cutoff  :      500.00
  volume of cell :     1484.46
      direct lattice vectors                 reciprocal lattice vectors
     8.791366577  0.000000000  0.000000000     0.113747958 -0.065672414  0.000000000
     4.395683289  7.613546790  0.000000000     0.000000000  0.131344829  0.000000000
     0.000000000  0.000000000 22.178121567     0.000000000  0.000000000  0.045089481

  length of vectors
     8.791366577  8.791366577 22.178121567     0.131344829  0.131344829  0.045089481

 FORCES acting on ions
    electron-ion (+dipol)            ewald-force                    non-local-force                 convergence-correction
   0.461E-04 -.281E-04 0.249E+04   -.953E-04 0.593E-04 -.249E+04   0.247E-16 -.725E-17 -.179E+01   -.203E-03 -.221E-03 -.216E+00
   0.179E+00 0.315E+00 0.249E+04   -.246E+00 -.367E+00 -.249E+04   0.164E-02 0.310E-01 -.167E+01   0.628E-01 0.218E-01 -.201E+00
   -.179E+00 0.315E+00 0.249E+04   0.246E+00 -.367E+00 -.249E+04   -.164E-02 0.310E-01 -.167E+01   -.633E-01 0.237E-01 -.200E+00
   0.362E+00 -.285E-02 0.249E+04   -.441E+00 -.293E-01 -.249E+04   0.277E-01 -.141E-01 -.167E+01   0.505E-01 0.437E-01 -.201E+00
   -.614E-05 -.190E-04 0.249E+04   0.980E-04 -.197E-05 -.249E+04   0.535E-18 0.901E-18 -.169E+01   0.626E-02 0.383E-02 -.106E+00
   -.362E+00 -.281E-02 0.249E+04   0.441E+00 -.294E-01 -.249E+04   -.277E-01 -.141E-01 -.167E+01   -.519E-01 0.445E-01 -.200E+00
   0.184E+00 -.312E+00 0.249E+04   -.195E+00 0.397E+00 -.249E+04   0.260E-01 -.169E-01 -.167E+01   -.107E-01 -.661E-01 -.200E+00
   -.183E+00 -.312E+00 0.249E+04   0.195E+00 0.397E+00 -.249E+04   -.260E-01 -.169E-01 -.167E+01   0.122E-01 -.672E-01 -.200E+00
   0.362E-04 -.131E-04 0.249E+04   0.792E-04 -.643E-04 -.249E+04   0.221E-17 -.735E-18 -.174E+01   -.658E-02 -.339E-02 -.241E+00
   0.411E+01 0.237E+01 0.828E+03   -.398E+01 -.230E+01 -.828E+03   -.256E+00 -.148E+00 -.550E+00   0.986E-01 0.570E-01 0.470E-01
   -.284E-04 0.330E+01 0.831E+03   0.404E-04 -.360E+01 -.830E+03   0.877E-12 0.134E+00 -.643E+00   0.688E-02 0.108E+00 -.578E-01
   -.411E+01 0.237E+01 0.828E+03   0.398E+01 -.230E+01 -.828E+03   0.256E+00 -.148E+00 -.550E+00   -.101E+00 0.578E-01 0.480E-01
   0.286E+01 -.165E+01 0.831E+03   -.312E+01 0.180E+01 -.830E+03   0.116E+00 -.668E-01 -.643E+00   0.964E-01 -.478E-01 -.578E-01
   -.286E+01 -.165E+01 0.831E+03   0.312E+01 0.180E+01 -.830E+03   -.116E+00 -.668E-01 -.643E+00   -.859E-01 -.493E-01 -.591E-01
   0.156E-04 0.690E+00 0.827E+03   -.108E-03 -.770E+00 -.827E+03   0.390E-12 0.595E-01 -.579E+00   -.173E-02 0.596E-02 0.505E-01
   -.814E-05 -.475E+01 0.828E+03   0.205E-04 0.460E+01 -.828E+03   0.194E-11 0.296E+00 -.550E+00   -.372E-03 -.116E+00 0.480E-01
   0.597E+00 -.345E+00 0.827E+03   -.667E+00 0.385E+00 -.827E+03   0.515E-01 -.297E-01 -.579E+00   0.427E-02 -.452E-02 0.505E-01
   -.597E+00 -.345E+00 0.827E+03   0.667E+00 0.385E+00 -.827E+03   -.515E-01 -.297E-01 -.579E+00   -.362E-02 -.214E-02 0.528E-01
   0.383E-04 -.254E+01 -.860E+03   -.127E-03 0.234E+01 0.859E+03   0.631E-12 0.961E-01 0.929E+00   -.652E-02 0.878E-01 0.170E+00
   -.869E+01 -.502E+01 -.843E+03   0.898E+01 0.518E+01 0.843E+03   -.581E+00 -.335E+00 -.247E+00   -.252E-01 -.142E-01 -.546E-02
   0.869E+01 -.502E+01 -.843E+03   -.898E+01 0.518E+01 0.843E+03   0.581E+00 -.335E+00 -.247E+00   0.266E-01 -.161E-01 -.536E-02
   -.625E+01 0.361E+01 -.852E+03   0.588E+01 -.340E+01 0.851E+03   0.406E+00 -.234E+00 0.761E+00   0.976E-02 0.354E-02 0.784E-01
   -.515E-04 0.100E+02 -.843E+03   0.397E-04 -.104E+02 0.843E+03   0.441E-11 0.671E+00 -.247E+00   -.631E-03 0.315E-01 -.533E-02
   0.625E+01 0.361E+01 -.852E+03   -.588E+01 -.340E+01 0.851E+03   -.406E+00 -.234E+00 0.761E+00   0.129E-02 0.705E-03 0.780E-01
   0.220E+01 0.127E+01 -.860E+03   -.202E+01 -.117E+01 0.859E+03   -.832E-01 -.480E-01 0.929E+00   -.851E-01 -.491E-01 0.170E+00
   -.220E+01 0.127E+01 -.860E+03   0.202E+01 -.117E+01 0.859E+03   0.832E-01 -.480E-01 0.929E+00   0.724E-01 -.496E-01 0.170E+00
   0.204E-04 -.722E+01 -.852E+03   0.109E-03 0.679E+01 0.851E+03   0.308E-11 0.468E+00 0.761E+00   0.733E-02 0.635E-02 0.778E-01
   0.531E-04 -.359E-04 -.247E+04   -.114E-03 0.768E-04 0.247E+04   -.135E-16 0.545E-17 0.178E+01   -.483E-03 0.345E-03 0.142E+00
   0.856E+01 0.135E+02 -.246E+04   -.762E+01 -.123E+02 0.246E+04   -.880E+00 -.122E+01 0.228E+01   -.171E+00 -.177E+00 0.970E-01
   -.856E+01 0.135E+02 -.246E+04   0.762E+01 -.123E+02 0.246E+04   0.880E+00 -.122E+01 0.228E+01   0.171E+00 -.176E+00 0.956E-01
   0.160E+02 0.666E+00 -.246E+04   -.145E+02 -.452E+00 0.246E+04   -.150E+01 -.153E+00 0.228E+01   -.238E+00 -.581E-01 0.971E-01
   -.160E+02 0.666E+00 -.246E+04   0.145E+02 -.452E+00 0.246E+04   0.150E+01 -.153E+00 0.228E+01   0.227E+00 -.588E-01 0.966E-01
   0.740E+01 -.142E+02 -.246E+04   -.684E+01 0.128E+02 0.246E+04   -.615E+00 0.137E+01 0.228E+01   -.725E-01 0.227E+00 0.956E-01
   -.740E+01 -.142E+02 -.246E+04   0.684E+01 0.128E+02 0.246E+04   0.615E+00 0.137E+01 0.228E+01   0.628E-01 0.226E+00 0.966E-01
   0.241E-04 -.128E-04 -.247E+04   0.105E-03 -.653E-04 0.247E+04   0.392E-18 0.328E-17 0.196E+01   -.480E-02 -.311E-02 0.143E+00
   -.981E-05 -.677E-05 -.116E+04   0.578E-04 0.738E-05 0.116E+04   -.971E-18 0.563E-18 -.912E+00   0.134E-02 0.116E-02 0.113E-01
   0.105E-03 -.584E-04 -.133E+04   0.255E-04 0.375E-06 0.135E+04   0.155E-17 0.114E-17 -.199E+02   0.190E-02 0.136E-02 0.186E+00
   0.451E-03 -.746E-03 0.196E+02   -.274E-13 0.140E-12 0.114E-11   0.112E-15 0.227E-15 -.196E+02   -.954E-02 -.769E-02 0.146E+00

 POSITION                                       TOTAL-FORCE (eV/Angst)
      0.00000      0.00000      5.28219        -0.000000      0.000000      0.006900
      2.93046      0.00000      5.28219        -0.002404      0.001331      0.033716
      5.86091      0.00000      5.28219         0.002404      0.001331      0.033716
      1.46523      2.53785      5.28219        -0.000050     -0.002747      0.033716
      4.39568      2.53785      5.28219        -0.000000      0.000000     -0.004917
      7.32614      2.53785      5.28219         0.000050     -0.002747      0.033716
      2.93046      5.07570      5.28219         0.002354      0.001417      0.033716
      5.86091      5.07570      5.28219        -0.002354      0.001417      0.033716
      8.79137      5.07570      5.28219        -0.000000      0.000000      0.034281
      1.46523      0.84595      7.67490        -0.027859     -0.016084     -0.020593
      4.39568      0.84595      7.67490        -0.000000     -0.062576     -0.050304
      7.32614      0.84595      7.67490         0.027859     -0.016084     -0.020593
      2.93046      3.38380      7.67490        -0.054192      0.031288     -0.050304
      5.86091      3.38380      7.67490         0.054192      0.031288     -0.050304
      8.79137      3.38380      7.67490        -0.000000     -0.015330      0.045072
      4.39568      5.92165      7.67490         0.000000      0.032168     -0.020593
      7.32614      5.92165      7.67490        -0.013276      0.007665      0.045072
     10.25659      5.92165      7.67490         0.013276      0.007665      0.045072
      8.79137      1.69504     10.07204        -0.000000     -0.020348      0.012390
      2.92602      1.68934     10.02478        -0.326234     -0.188351     -0.260709
      5.86534      1.68934     10.02478         0.326234     -0.188351     -0.260709
     10.25093      4.23302     10.06482         0.038638     -0.022308      0.019252
      4.39568      4.23487     10.02478         0.000000      0.376703     -0.260709
      7.33181      4.23302     10.06482        -0.038638     -0.022308      0.019252
     11.71910      6.76603     10.07204         0.017622      0.010174      0.012390
      5.86363      6.76603     10.07204        -0.017622      0.010174      0.012390
      8.79137      6.76105     10.06482         0.000000      0.044616      0.019252
      0.00000      0.00000     12.45341        -0.000000      0.000000     -0.036365
      2.96185      0.05622     12.48740        -0.112449     -0.200410     -0.151055
      5.82952      0.05622     12.48740         0.112449     -0.200410     -0.151055
      1.52961      2.53693     12.48740        -0.229784      0.002821     -0.151055
      7.26176      2.53693     12.48740         0.229784      0.002821     -0.151055
      2.96344      5.02040     12.48740        -0.117335      0.197588     -0.151055
      5.82792      5.02040     12.48740         0.117335      0.197588     -0.151055
      8.79137      5.07570     12.44798        -0.000000      0.000000     -0.006541
      4.39568      2.53785     12.20252        -0.000000      0.000000      1.500337
      4.39568      2.53785     13.92585        -0.000000      0.000000     -0.024986
    total drift:                               -0.009088     -0.008436      0.079535

  FREE ENERGIE OF THE ION-ELECTRON SYSTEM (eV)
  free  energy   TOTEN  =      -107.32705757 eV

  energy  without entropy=     -107.32705757  energy(sigma->0) =     -107.32705757

 stress matrix after NEB project (eV)
     -6.76814     -0.00000     -0.00000
     -0.00000     -6.76814      0.00000
      0.00000      0.00000      0.12724
  FORCES: max atom, RMS     0.024986    0.004108
  FORCE total and by dimension    0.024986    0.024986
  Stress total and by dimension    9.572435    6.768136
|           W    W    AA    RRRRR   N    N  II  N    N   GGGG   !!!           |
|           W    W   A  A   R    R  NN   N  II  NN   N  G    G  !!!           |
|           W    W  A    A  R    R  N N  N  II  N N  N  G       !!!           |
|           W WW W  AAAAAA  RRRRR   N  N N  II  N  N N  G  GGG   !            |
|           WW  WW  A    A  R   R   N   NN  II  N   NN  G    G                |
|           W    W  A    A  R    R  N    N  II  N    N   GGGG   !!!           |
|     Tetrahedron method does not include variations of the Fermi             |
|     occupations, so forces and stress will be inaccurate. We suggest        |
|     using a different smearing scheme ISMEAR = 1 or 2 for metals in         |
|     relaxations.                                                            |

 total charge

# of ion       s       p       d       tot
    1        0.419   0.202   9.177   9.798
    2        0.416   0.204   9.176   9.796
    3        0.416   0.204   9.176   9.796
    4        0.416   0.204   9.176   9.796
    5        0.417   0.201   9.178   9.796
    6        0.416   0.204   9.176   9.796
    7        0.416   0.204   9.176   9.796
    8        0.416   0.204   9.176   9.796
    9        0.414   0.204   9.177   9.795
   10        0.406   0.270   9.165   9.840
   11        0.403   0.273   9.165   9.841
   12        0.406   0.270   9.165   9.840
   13        0.403   0.273   9.165   9.841
   14        0.403   0.273   9.165   9.841
   15        0.402   0.270   9.164   9.836
   16        0.406   0.270   9.165   9.840
   17        0.402   0.270   9.164   9.836
   18        0.402   0.270   9.164   9.836
   19        0.401   0.261   9.169   9.830
   20        0.434   0.305   9.143   9.882
   21        0.434   0.305   9.143   9.882
   22        0.393   0.274   9.163   9.830
   23        0.434   0.305   9.143   9.882
   24        0.393   0.274   9.163   9.830
   25        0.401   0.261   9.169   9.830
   26        0.401   0.261   9.169   9.830
   27        0.393   0.274   9.163   9.830
   28        0.418   0.194   9.175   9.787
   29        0.422   0.218   9.166   9.806
   30        0.422   0.218   9.166   9.806
   31        0.422   0.218   9.166   9.806
   32        0.422   0.218   9.166   9.806
   33        0.422   0.218   9.166   9.806
   34        0.422   0.218   9.166   9.806
   35        0.413   0.200   9.173   9.786
   36        0.694   0.569   4.360   5.623
   37        1.337   2.240   0.000   3.577
tot         16.458  11.298 325.205 352.960

 BZINTS: Fermi energy:    0.760513;  396.000000 electrons
         Band energy:-0.133307E+04;  BLOECHL correction:   -0.029806