 vasp.6.2.0 18Jan21 (build Jun 12 2021 23:27:24) complex

 executed on             LinuxIFC date 2022.05.28  01:00:21

 INCAR:
   ISMEAR = -5
   SIGMA = 0.1
   ISPIN = 1
   EDIFF = 1.d-5
   EDIFFG = -0.01
   NSW = 0
   NELM = 150
   ENCUT = 500
   ISIF = 2
   IBRION = 2
   LREAL = Auto
   ALGO = Fast
   ICHARG = 11
   LORBIT = 10
   LCHARG = .F.
   LWAVE = .F.

 POTCAR:    PAW_PBE Au 04Oct2007
 POTCAR:    PAW_PBE Ru 04Feb2005
 POTCAR:    PAW_PBE O 08Apr2002
 POTCAR:    PAW_PBE H 15Jun2001
|           W    W    AA    RRRRR   N    N  II  N    N   GGGG   !!!           |
|           W    W   A  A   R    R  NN   N  II  NN   N  G    G  !!!           |
|           W    W  A    A  R    R  N N  N  II  N N  N  G       !!!           |
|           W WW W  AAAAAA  RRRRR   N  N N  II  N  N N  G  GGG   !            |
|           WW  WW  A    A  R   R   N   NN  II  N   NN  G    G                |
|           W    W  A    A  R    R  N    N  II  N    N   GGGG   !!!           |
|     For optimal performance we recommend to set                             |
|       NCORE = 2 up to number-of-cores-per-socket                            |
|     This setting can greatly improve the performance of VASP for DFT.       |
|     The default, NCORE=1 might be grossly inefficient on modern             |
|     multi-core architectures or massively parallel machines. Do your        |
|     Unfortunately you need to use the default for GW and RPA                |
|     calculations (for HF NCORE is supported but not extensively tested      |
|     yet).                                                                   |

 POTCAR:    PAW_PBE Au 04Oct2007
   VRHFIN =Au: s1d10

   TITEL  = PAW_PBE Au 04Oct2007
   POMASS =  196.966; ZVAL   =   11.000    mass and valenz
   ENMAX  =  229.943; ENMIN  =  172.457 eV

 POTCAR:    PAW_PBE Ru 04Feb2005
   VRHFIN =Ru: s1 d7

   TITEL  = PAW_PBE Ru 04Feb2005
   POMASS =  101.070; ZVAL   =    8.000    mass and valenz
   ENMAX  =  213.271; ENMIN  =  159.953 eV

 POTCAR:    PAW_PBE O 08Apr2002
   VRHFIN =O: s2p4

   TITEL  = PAW_PBE O 08Apr2002
   POMASS =   16.000; ZVAL   =    6.000    mass and valenz
   ENMAX  =  400.000; ENMIN  =  300.000 eV

 POTCAR:    PAW_PBE H 15Jun2001
   VRHFIN =H: ultrasoft test

   TITEL  = PAW_PBE H 15Jun2001
   POMASS =    1.000; ZVAL   =    1.000    mass and valenz
   ENMAX  =  250.000; ENMIN  =  200.000 eV

 Optimization of the real space projectors (new method)

 maximal supplied QI-value         = 15.12
 optimisation between [QCUT,QGAM] = [ 11.34, 22.83] = [ 36.00,145.93] Ry
 Optimized for a Real-space Cutoff    1.39 Angstroem

   l    n(q)    QCUT    max X(q) W(low)/X(q) W(high)/X(q)  e(spline)
   2      9    11.338    60.898    0.39E-03    0.42E-03    0.21E-06
   2      9    11.338    58.894    0.40E-03    0.42E-03    0.22E-06
   0      9    11.338   109.617    0.13E-03    0.20E-04    0.13E-06
   0      9    11.338    75.026    0.13E-03    0.20E-04    0.13E-06
   1      9    11.338    16.344    0.33E-04    0.24E-03    0.18E-06
   1      9    11.338    10.160    0.26E-04    0.19E-03    0.15E-06
 Optimization of the real space projectors (new method)

[...]

   l    n(q)    QCUT    max X(q) W(low)/X(q) W(high)/X(q)  e(spline)
   0      7    11.387    20.381    0.39E-03    0.13E-02    0.15E-06
   0      7    11.387    15.268    0.42E-03    0.14E-02    0.17E-06
   1      6    11.387     5.964    0.41E-03    0.11E-02    0.17E-06
   1      6    11.387     5.382    0.39E-03    0.87E-03    0.15E-06
 Optimization of the real space projectors (new method)

 maximal supplied QI-value         = 34.20
 optimisation between [QCUT,QGAM] = [ 11.29, 22.57] = [ 35.68,142.71] Ry
 Optimized for a Real-space Cutoff    1.16 Angstroem

   l    n(q)    QCUT    max X(q) W(low)/X(q) W(high)/X(q)  e(spline)
   0      8    11.287    19.460    0.40E-03    0.73E-03    0.16E-06
   0      8    11.287    12.209    0.38E-03    0.70E-03    0.15E-06
   1      7    11.287     4.655    0.22E-03    0.25E-04    0.22E-06
  PAW_PBE Au 04Oct2007                  :
  PAW_PBE Ru 04Feb2005                  :
  PAW_PBE O 08Apr2002                   :
  PAW_PBE H 15Jun2001                   :

 POSCAR: Au-Ru-OOH
  positions in direct lattice
  velocities in cartesian coordinates
 exchange correlation table for  LEXCH =        8
   RHO(1)=    0.500       N(1)  =     2000
   RHO(2)=  100.500       N(2)  =     4000

 VTST: version 3.2, (02/03/18)

 CHAIN: initializing optimizer

 OPT: Using VASP Conjugate-Gradient optimizer
 CHAIN: Read ICHAIN            0

 POSCAR: Au-Ru-OOH
  positions in direct lattice
  velocities in cartesian coordinates

 ion  position               nearest neighbor table
   1  0.000  0.000  0.204-  16 2.94  12 2.94   6 2.94   8 2.94   7 2.94   3 2.94  10 2.94   4 2.94
                             2 2.94
   2  0.333  0.000  0.204-   9 2.94  11 2.94  17 2.94  10 2.94   8 2.94   4 2.94   5 2.94   1 2.94
                             3 2.94
   3  0.667  0.000  0.204-   7 2.94  18 2.94  12 2.94   1 2.94  11 2.94   5 2.94   6 2.94   9 2.94
                             2 2.94
   4  0.000  0.333  0.204-  10 2.94   6 2.94   5 2.94  13 2.94   2 2.94  15 2.94   9 2.94   1 2.94
                             7 2.94
   5  0.333  0.333  0.204-  13 2.94   7 2.94  11 2.94   4 2.94   2 2.94  14 2.94   3 2.94   8 2.94
                             6 2.94
   6  0.667  0.333  0.204-  15 2.94  14 2.94   1 2.94  12 2.94   4 2.94   9 2.94   8 2.94   3 2.94
                             5 2.94
   7  0.000  0.667  0.204-  18 2.94   3 2.94  16 2.94   5 2.94   1 2.94  13 2.94   8 2.94   4 2.94
                             9 2.94
   8  0.333  0.667  0.204-   9 2.94  17 2.94   1 2.94   2 2.94  14 2.94  16 2.94   6 2.94   7 2.94
                             5 2.94
   9  0.667  0.667  0.204-   2 2.94   8 2.94  17 2.94   6 2.94  15 2.94   4 2.94   3 2.94  18 2.94
                             7 2.94
  10  0.111  0.111  0.296-  20 2.91  26 2.94  19 2.94  11 2.94  17 2.94   2 2.94   4 2.94   1 2.94
                            12 2.94  16 2.94  13 2.94  15 2.94
  11  0.444  0.111  0.296-  20 2.91  21 2.91  27 2.94  13 2.94   2 2.94  10 2.94  17 2.94   5 2.94
                             3 2.94  18 2.94  14 2.94  12 2.94
  12  0.778  0.111  0.296-  21 2.91  25 2.94  19 2.94  16 2.94  18 2.94   1 2.94  14 2.94  15 2.94
                             3 2.94   6 2.94  10 2.94  11 2.94
  13  0.111  0.444  0.296-  23 2.91  20 2.91  22 2.94   5 2.94  18 2.94  11 2.94   7 2.94   4 2.94
                            16 2.94  10 2.94  14 2.94  15 2.94
  14  0.444  0.444  0.296-  21 2.91  23 2.91  24 2.94  15 2.94   6 2.94  12 2.94   8 2.94  17 2.94
                             5 2.94  16 2.94  13 2.94  11 2.94
  15  0.778  0.444  0.296-  24 2.92  22 2.92  19 2.94  14 2.94   6 2.94  17 2.94  12 2.94   9 2.94
                             4 2.94  10 2.94  13 2.94  18 2.94
  16  0.111  0.778  0.296-  23 2.91  25 2.94  26 2.94  18 2.94  12 2.94   7 2.94   1 2.94   8 2.94
                            13 2.94  10 2.94  14 2.94  17 2.94
  17  0.444  0.778  0.296-  27 2.92  24 2.92  26 2.94   9 2.94  15 2.94   2 2.94  10 2.94  11 2.94
                             8 2.94  14 2.94  16 2.94  18 2.94
  18  0.778  0.778  0.296-  22 2.92  27 2.92  25 2.94  16 2.94   7 2.94  13 2.94  12 2.94   3 2.94
                            11 2.94   9 2.94  15 2.94  17 2.94
  19  0.889  0.222  0.389-  15 2.94  10 2.94  12 2.94  24 2.94  22 2.94  26 2.94  25 2.94  21 2.94
                            20 2.94  28 2.95  32 2.97  31 2.97
  20  0.223  0.223  0.387-  36 2.78  11 2.91  13 2.91  10 2.91  23 2.93  21 2.93  29 2.94  31 2.94
                            26 2.94  19 2.94  27 2.95  22 2.95
  21  0.555  0.223  0.387-  36 2.78  14 2.91  11 2.91  12 2.91  20 2.93  23 2.93  30 2.94  32 2.94
                            25 2.94  19 2.94  27 2.95  24 2.95
  22  0.887  0.557  0.388-  24 2.91  27 2.91  18 2.92  15 2.92  13 2.94  25 2.94  19 2.94  23 2.95
                            20 2.95  35 2.96  33 2.96  31 2.96
  23  0.223  0.555  0.387-  36 2.78  13 2.91  14 2.91  16 2.91  20 2.93  21 2.93  33 2.94  34 2.94
                            25 2.94  26 2.94  22 2.95  24 2.95
  24  0.557  0.557  0.388-  27 2.91  22 2.91  15 2.92  17 2.92  14 2.94  26 2.94  19 2.94  21 2.95
                            23 2.95  35 2.96  32 2.96  34 2.96
  25  0.889  0.889  0.389-  18 2.94  16 2.94  12 2.94  22 2.94  27 2.94  19 2.94  26 2.94  23 2.94
                            21 2.94  28 2.95  33 2.97  30 2.97
  26  0.222  0.889  0.389-  17 2.94  10 2.94  16 2.94  27 2.94  24 2.94  19 2.94  25 2.94  20 2.94
                            23 2.94  28 2.95  29 2.97  34 2.97
  27  0.557  0.887  0.388-  24 2.91  22 2.91  17 2.92  18 2.92  11 2.94  26 2.94  25 2.94  20 2.95
                            21 2.95  35 2.96  29 2.96  30 2.96
  28  0.000  0.000  0.482-  25 2.95  19 2.95  26 2.95  34 2.97  32 2.97  33 2.97  30 2.97  31 2.97
                            29 2.97
  29  0.333  0.007  0.481-  31 2.88  30 2.88  36 2.89  20 2.94  27 2.96  28 2.97  35 2.97  26 2.97
                            34 3.05
  30  0.660  0.007  0.481-  32 2.88  29 2.88  36 2.89  21 2.94  27 2.96  28 2.97  35 2.97  25 2.97
                            33 3.05
  31  0.007  0.333  0.481-  29 2.88  33 2.88  36 2.89  20 2.94  22 2.96  28 2.97  35 2.97  19 2.97
                            32 3.05
  32  0.660  0.333  0.481-  30 2.88  34 2.88  36 2.89  21 2.94  24 2.96  28 2.97  35 2.97  19 2.97
                            31 3.05
  33  0.007  0.660  0.481-  34 2.88  31 2.88  36 2.89  23 2.94  22 2.96  28 2.97  35 2.97  25 2.97
                            30 3.05
  34  0.333  0.660  0.481-  33 2.88  32 2.88  36 2.89  23 2.94  24 2.96  28 2.97  35 2.97  26 2.97
                            29 3.05
  35  0.667  0.667  0.482-  24 2.96  27 2.96  22 2.96  29 2.97  34 2.97  32 2.97  31 2.97  30 2.97
                            33 2.97
  36  0.333  0.333  0.472-  37 1.85  20 2.78  23 2.78  21 2.78  33 2.89  31 2.89  29 2.89  30 2.89
                            34 2.89  32 2.89
  37  0.346  0.340  0.543-  38 1.53  36 1.85
  38  0.270  0.247  0.576-  39 0.98  37 1.53
  39  0.315  0.256  0.610-  38 0.98

  LATTYP: Found a hexagonal cell.
 ALAT       =     8.8135128021
 C/A-ratio  =     2.9412617888

  Lattice vectors:

 A1 = (  -4.4067569092,  -7.6327256898,   0.0000000000)
 A2 = (   8.8135128021,   0.0000000000,   0.0000000000)
 A3 = (   0.0000000000,   0.0000000000,  25.9228484302)

Analysis of symmetry for initial positions (statically):
 Subroutine PRICEL returns:
 Original cell was already a primitive cell.

 Routine SETGRP: Setting up the symmetry group for a
 hexagonal supercell.

 Subroutine GETGRP returns: Found  1 space group operations
 (whereof  1 operations were pure point group operations)
 out of a pool of 24 trial point group operations.

The static configuration has the point symmetry C_1 .

Analysis of symmetry for dynamics (positions and initial velocities):
 Subroutine PRICEL returns:
 Original cell was already a primitive cell.

[...]

The dynamic configuration has the point symmetry C_1 .

Analysis of constrained symmetry for selective dynamics:
 Subroutine PRICEL returns:
[...]
     41      -5.1749      2.00000
     42      -5.1466      2.00000
     43      -5.1340      2.00000
     44      -5.0826      2.00000
     45      -5.0097      2.00000
     46      -4.9780      2.00000
     47      -4.9181      2.00000
     48      -4.8996      2.00000
     49      -4.8931      2.00000
     50      -4.8769      2.00000
     51      -4.7851      2.00000
     52      -4.7649      2.00000
     53      -4.7354      2.00000
     54      -4.7241      2.00000
     55      -4.7128      2.00000
     56      -4.7059      2.00000
     57      -4.6996      2.00000
     58      -4.6547      2.00000
     59      -4.6091      2.00000
     60      -4.5857      2.00000
[...]
    238       5.2772      0.00000
    239       5.5010      0.00000
    240       5.5303      0.00000
    241       5.5926      0.00000
    242       5.8171      0.00000
    243       5.8370      0.00000
    244       5.8597      0.00000
    245       5.9164      0.00000
    246       6.0101      0.00000
    247       6.1794      0.00000
    248       6.1972      0.00000
    249       6.2445      0.00000
    250       6.2778      0.00000
    251       6.3597      0.00000
    252       6.4360      0.00000

 soft charge-density along one line, spin component           1
         0         1         2         3         4         5         6         7         8         9
 total charge-density along one line

------------------------ aborting loop because EDIFF is reached ----------------------------------------

 total charge

# of ion       s       p       d       tot
    1        0.547   0.238   8.769   9.553
    2        0.545   0.241   8.763   9.549
    3        0.544   0.242   8.763   9.549
    4        0.545   0.241   8.763   9.549
    5        0.544   0.241   8.761   9.546
    6        0.544   0.241   8.765   9.550
    7        0.543   0.242   8.763   9.548
    8        0.544   0.241   8.765   9.549
    9        0.542   0.240   8.766   9.548
   10        0.520   0.309   8.772   9.601
   11        0.520   0.309   8.778   9.607
   12        0.524   0.309   8.768   9.601
   13        0.519   0.309   8.778   9.606
   14        0.519   0.310   8.779   9.608
   15        0.516   0.308   8.777   9.601
   16        0.524   0.309   8.768   9.601
   17        0.516   0.308   8.777   9.601
   18        0.516   0.309   8.776   9.600
   19        0.516   0.301   8.776   9.594
   20        0.541   0.334   8.753   9.628
   21        0.553   0.332   8.743   9.628
   22        0.509   0.309   8.777   9.595
   23        0.553   0.331   8.745   9.629
   24        0.508   0.309   8.777   9.594
   25        0.516   0.300   8.779   9.595
   26        0.516   0.302   8.776   9.593
   27        0.508   0.309   8.777   9.594
   28        0.542   0.227   8.765   9.535
   29        0.549   0.240   8.757   9.546
   30        0.549   0.241   8.760   9.551
   31        0.551   0.240   8.757   9.548
   32        0.552   0.240   8.759   9.551
   33        0.548   0.242   8.759   9.550
   34        0.553   0.240   8.758   9.551
   35        0.534   0.228   8.769   9.531
   36        0.497   0.593   6.552   7.642
   37        1.609   3.212   0.000   4.820
   38        1.600   3.354   0.000   4.954
   39        0.616   0.111   0.000   0.727
tot         22.994  16.942 313.387 353.323

  FORCE on cell =-STRESS in cart. coord.  units (eV):
  Direction    XX          YY          ZZ          XY          YZ          ZX
  Alpha Z   887.56249   887.56249   887.56249
  Ewald  175418.65978175313.17294************   110.28830   -69.12581   -73.67063
  Hartree183950.57050183896.19696************    61.68206   -37.99389   -53.27469
  E(xc)   -1827.70380 -1827.78411 -1833.61611     0.04662    -0.09344     0.00846
  Local  ************************371386.31849  -161.15537    99.27850   123.46745
  n-local   -95.58399   -97.02006   -65.25639     1.87301    -1.92663    -2.36470
  augment  2426.56868  2426.97359  2434.84356    -0.37666     0.90063     0.47490
  Kinetic  5713.44015  5727.22506  5736.15964   -12.41620     8.81242     5.24125
  Fock        0.00000     0.00000     0.00000     0.00000     0.00000     0.00000
  Total     -21.22616   -21.15446     2.61501    -0.05824    -0.14821    -0.11796
  in kB     -19.50162   -19.43574     2.40255    -0.05351    -0.13617    -0.10838

 VOLUME and BASIS-vectors are now :
  energy-cutoff  :      500.00
  volume of cell :     1743.86
      direct lattice vectors                 reciprocal lattice vectors
     8.813512802  0.000000000  0.000000000     0.113462137 -0.065507406  0.000000000
     4.406756909  7.632725690  0.000000000     0.000000000  0.131014796  0.000000000
     0.000000000  0.000000000 25.922848430     0.000000000  0.000000000  0.038576008

  length of vectors
     8.813512802  8.813512802 25.922848430     0.131014796  0.131014796  0.038576008

 FORCES acting on ions
    electron-ion (+dipol)            ewald-force                    non-local-force                 convergence-correction
   0.331E-01 0.395E-01 0.279E+04   -.401E-01 -.267E-01 -.279E+04   0.154E-01 0.464E-02 -.810E+00   -.141E-01 -.187E-01 -.305E+00
   0.358E+00 0.354E+00 0.279E+04   -.516E+00 -.453E+00 -.279E+04   0.515E-01 0.606E-01 -.324E+00   0.957E-01 0.576E-01 -.336E+00
   -.385E+00 0.305E+00 0.279E+04   0.556E+00 -.422E+00 -.279E+04   -.730E-01 0.871E-01 -.273E+00   -.855E-01 0.272E-01 -.352E+00
   0.476E+00 0.107E+00 0.279E+04   -.647E+00 -.207E+00 -.279E+04   0.774E-01 0.208E-01 -.320E+00   0.105E+00 0.616E-01 -.339E+00
   -.120E+00 -.863E-01 0.280E+04   0.471E-01 0.421E-01 -.280E+04   0.633E-01 0.266E-01 -.232E+00   0.121E-01 0.204E-01 -.348E+00
   -.444E+00 0.213E+00 0.279E+04   0.600E+00 -.227E+00 -.279E+04   -.616E-01 -.339E-01 -.270E+00   -.100E+00 0.473E-01 -.404E+00
   0.608E-01 -.467E+00 0.279E+04   -.840E-01 0.679E+00 -.279E+04   0.353E-01 -.106E+00 -.282E+00   -.765E-02 -.961E-01 -.359E+00
   -.697E-02 -.491E+00 0.279E+04   0.904E-01 0.629E+00 -.279E+04   -.642E-01 -.358E-01 -.269E+00   -.238E-01 -.109E+00 -.407E+00
   -.119E-01 0.339E-02 0.279E+04   -.642E-02 -.150E-01 -.279E+04   0.722E-03 0.260E-02 -.491E+00   0.174E-01 0.921E-02 -.328E+00
   0.530E+01 0.301E+01 0.986E+03   -.511E+01 -.290E+01 -.985E+03   -.235E+00 -.138E+00 -.713E+00   0.668E-01 0.395E-01 -.181E-01
   -.364E+00 0.524E+01 0.992E+03   0.352E+00 -.536E+01 -.992E+03   0.284E-01 0.754E-01 -.296E+00   -.311E-02 -.118E-01 -.556E-03
   -.512E+01 0.309E+01 0.985E+03   0.476E+01 -.278E+01 -.984E+03   0.386E+00 -.241E+00 -.683E+00   -.339E-01 -.388E-01 -.436E-02
   0.441E+01 -.304E+01 0.992E+03   -.451E+01 0.307E+01 -.991E+03   0.662E-01 -.749E-02 -.289E+00   -.125E-01 0.118E-01 -.601E-02
   -.460E+01 -.273E+01 0.991E+03   0.477E+01 0.282E+01 -.991E+03   -.967E-01 -.546E-01 -.265E+00   -.307E-01 -.116E-01 0.441E-02
   0.241E+00 0.242E+01 0.986E+03   -.264E+00 -.255E+01 -.986E+03   -.180E-01 0.828E-02 -.484E+00   0.332E-01 0.769E-01 -.685E-02
   0.163E+00 -.585E+01 0.985E+03   -.749E-01 0.542E+01 -.984E+03   -.165E-01 0.427E+00 -.668E+00   -.529E-01 -.202E-01 -.147E-01
   0.226E+01 -.922E+00 0.987E+03   -.239E+01 0.966E+00 -.986E+03   0.812E-02 -.133E-01 -.493E+00   0.812E-01 -.129E-01 -.590E-02
   -.235E+01 -.125E+01 0.986E+03   0.247E+01 0.132E+01 -.986E+03   -.614E-01 -.264E-01 -.484E+00   -.368E-01 -.271E-01 -.780E-02
   0.249E+01 0.261E+01 -.858E+03   -.258E+01 -.285E+01 0.856E+03   0.971E-01 0.666E-01 0.605E+00   0.220E-01 0.123E+00 0.677E+00
   0.156E+02 0.824E+01 -.809E+03   -.151E+02 -.791E+01 0.808E+03   -.791E+00 -.484E+00 -.555E+00   0.259E+00 0.145E+00 0.104E+01
   -.186E+02 0.863E+01 -.814E+03   0.176E+02 -.815E+01 0.814E+03   0.120E+01 -.589E+00 -.829E+00   -.265E+00 0.102E+00 0.102E+01
   0.239E+01 -.281E+01 -.845E+03   -.283E+01 0.310E+01 0.844E+03   0.385E+00 -.275E+00 0.595E+00   0.998E-01 -.417E-01 0.658E+00
   -.119E+01 -.205E+02 -.815E+03   0.110E+01 0.195E+02 0.815E+03   0.119E+00 0.132E+01 -.802E+00   -.411E-01 -.277E+00 0.101E+01
   -.126E+01 -.672E+00 -.847E+03   0.168E+01 0.909E+00 0.846E+03   -.404E+00 -.230E+00 0.632E+00   -.547E-01 -.286E-01 0.711E+00
   -.274E+01 -.101E+01 -.860E+03   0.295E+01 0.113E+01 0.858E+03   -.606E-01 -.374E-01 0.635E+00   -.113E+00 -.645E-01 0.662E+00
   0.408E+01 0.113E+01 -.857E+03   -.433E+01 -.109E+01 0.856E+03   0.109E+00 0.461E-01 0.613E+00   0.118E+00 -.440E-01 0.686E+00
   -.132E+01 0.424E+01 -.844E+03   0.136E+01 -.476E+01 0.843E+03   -.486E-01 0.463E+00 0.611E+00   0.110E-01 0.104E+00 0.670E+00
   0.108E+02 0.675E+01 -.267E+04   -.109E+02 -.679E+01 0.267E+04   0.639E-01 0.358E-01 0.395E+00   -.968E-02 -.980E-02 0.677E+00
   0.369E+02 0.848E+02 -.260E+04   -.367E+02 -.848E+02 0.260E+04   -.488E+00 -.653E+00 0.832E+00   0.247E+00 0.344E+00 0.664E+00
   -.474E+02 0.621E+02 -.263E+04   0.474E+02 -.622E+02 0.263E+04   0.453E+00 -.579E+00 0.389E+00   -.241E+00 0.403E+00 0.667E+00
   0.879E+02 -.147E+02 -.261E+04   -.877E+02 0.148E+02 0.261E+04   -.857E+00 -.831E-01 0.671E+00   0.426E+00 0.316E-01 0.659E+00
   -.655E+02 -.250E+01 -.264E+04   0.655E+02 0.267E+01 0.264E+04   0.790E+00 -.145E+00 0.473E+00   -.494E+00 0.298E-01 0.686E+00
   0.285E+02 -.657E+02 -.264E+04   -.287E+02 0.657E+02 0.264E+04   -.293E+00 0.677E+00 0.364E+00   0.227E+00 -.402E+00 0.668E+00
   -.312E+02 -.538E+02 -.264E+04   0.313E+02 0.536E+02 0.264E+04   0.294E+00 0.785E+00 0.460E+00   -.212E+00 -.432E+00 0.686E+00
   0.179E+01 0.360E+01 -.268E+04   -.171E+01 -.357E+01 0.268E+04   -.466E-01 -.257E-01 0.545E+00   -.242E-01 0.229E-02 0.631E+00
   -.836E+01 -.115E+02 -.162E+04   0.832E+01 0.114E+02 0.163E+04   -.528E-01 0.880E-01 -.330E+01   0.385E-01 0.121E-01 0.732E+00
   -.136E+03 -.918E+02 -.169E+04   0.159E+03 0.106E+03 0.170E+04   -.225E+02 -.146E+02 -.967E+01   -.824E-01 -.383E-01 -.156E+00
   0.144E+03 0.831E+02 -.173E+04   -.178E+03 -.967E+02 0.170E+04   0.339E+02 0.134E+02 0.217E+02   0.317E+00 0.208E+00 -.235E+00
   -.288E+02 0.981E+00 -.338E+03   0.323E+02 -.469E+00 0.345E+03   -.349E+01 -.513E+00 -.729E+01   0.995E-03 0.122E-01 -.704E-01
   -.867E+01 0.112E+01 -.890E+01   -.355E-13 -.131E-12 -.250E-11   0.848E+01 -.127E+01 -.558E+00   0.239E+00 0.184E+00 0.950E+01

 POSITION                                       TOTAL-FORCE (eV/Angst)
      0.00000      0.00000      5.28038        -0.006904     -0.002032     -0.130111
      2.93784      0.00000      5.28038        -0.012006      0.018530     -0.060205
      5.87568      0.00000      5.28038         0.011316     -0.003167     -0.043141
      1.46892      2.54424      5.28038         0.010412     -0.018721     -0.055718
      4.40676      2.54424      5.28038         0.001446      0.002018     -0.096193
      7.34459      2.54424      5.28038        -0.006871     -0.001185     -0.050330
      2.93784      5.08848      5.28038         0.003302      0.009208     -0.036510
      5.87568      5.08848      5.28038        -0.005704     -0.006921     -0.050013
      8.81351      5.08848      5.28038        -0.001454     -0.000564     -0.077540
      1.46892      0.84808      7.67911         0.022489      0.009266      0.110125
      4.40676      0.84808      7.67911         0.012418     -0.055409      0.039937
      7.34459      0.84808      7.67911        -0.013481      0.021662      0.126328
      2.93784      3.39232      7.67911        -0.043544      0.036731      0.042884
      5.87568      3.39232      7.67911         0.040991      0.023274      0.050478
      8.81351      3.39232      7.67911        -0.008691     -0.045101      0.095288
      4.40676      5.93656      7.67911         0.017284     -0.017563      0.120322
      7.34459      5.93656      7.67911        -0.046227      0.016715      0.094718
     10.28243      5.93656      7.67911         0.015485      0.011220      0.108215
      8.81351      1.69681     10.07567         0.025493     -0.044946     -0.034943
      2.94232      1.69875     10.04120        -0.026114     -0.013111     -0.170119
      5.87120      1.69875     10.04120        -0.006471     -0.006792     -0.015459
     10.26751      4.24902     10.06295         0.042471     -0.022701     -0.011787
      4.40676      4.23523     10.04120        -0.011102      0.019999     -0.040543
      7.35952      4.24902     10.06295        -0.034069     -0.022061     -0.016016
     11.75079      6.78432     10.07567         0.030861      0.015684     -0.049984
      5.87624      6.78432     10.07567        -0.024722      0.047297     -0.033233
      8.81351      6.76742     10.06295        -0.000876      0.042887     -0.006698
      0.00000      0.00000     12.49459        -0.014933     -0.008348     -0.125628
      2.96623      0.05046     12.47837        -0.104572     -0.238001     -0.082940
      5.84728      0.05046     12.47837         0.150396     -0.349270     -0.161681
      1.52682      2.54360     12.47837        -0.270727      0.029324     -0.098211
      7.28669      2.54360     12.47837         0.326911      0.053209     -0.137898
      2.96734      5.03866     12.47837        -0.210641      0.286534     -0.147218
      5.84617      5.03866     12.47837         0.190388      0.239167     -0.125128
      8.81351      5.08848     12.49555         0.001664     -0.000007     -0.032846
      4.40676      2.54424     12.24198        -0.062676     -0.048298      1.158888
      4.54743      2.59390     14.08869        -0.040362     -0.022584     -0.012721
      3.47251      1.88812     14.92224         0.036151      0.032954     -0.056046
      3.90592      1.95628     15.80275         0.012669      0.011102      0.011677
    total drift:                                0.047026      0.029062      0.049329

  FREE ENERGIE OF THE ION-ELECTRON SYSTEM (eV)
  free  energy   TOTEN  =      -129.00148473 eV

  energy  without entropy=     -129.00148473  energy(sigma->0) =     -129.00148473

 stress matrix after NEB project (eV)
    -21.22616     -0.05824     -0.11796
     -0.05824    -21.15446     -0.14821
     -0.11796     -0.14821      2.61501
  FORCES: max atom, RMS     0.074391    0.014549
  FORCE total and by dimension    0.090857    0.056046
  Stress total and by dimension   30.082855   21.226164
|           W    W    AA    RRRRR   N    N  II  N    N   GGGG   !!!           |
|           W    W   A  A   R    R  NN   N  II  NN   N  G    G  !!!           |
|           W    W  A    A  R    R  N N  N  II  N N  N  G       !!!           |
|           W WW W  AAAAAA  RRRRR   N  N N  II  N  N N  G  GGG   !            |
|           WW  WW  A    A  R   R   N   NN  II  N   NN  G    G                |
|           W    W  A    A  R    R  N    N  II  N    N   GGGG   !!!           |
|     Tetrahedron method does not include variations of the Fermi             |
|     occupations, so forces and stress will be inaccurate. We suggest        |
|     using a different smearing scheme ISMEAR = 1 or 2 for metals in         |
|     relaxations.                                                            |

 total charge

# of ion       s       p       d       tot
    1        0.547   0.238   8.769   9.553
    2        0.545   0.241   8.763   9.549
    3        0.544   0.242   8.763   9.549
    4        0.545   0.241   8.763   9.549
    5        0.544   0.241   8.761   9.546
    6        0.544   0.241   8.765   9.550
    7        0.543   0.242   8.763   9.548
    8        0.544   0.241   8.765   9.549
    9        0.542   0.240   8.766   9.548
   10        0.520   0.309   8.772   9.601
   11        0.520   0.309   8.778   9.607
   12        0.524   0.309   8.768   9.601
   13        0.519   0.309   8.778   9.606
   14        0.519   0.310   8.779   9.608
   15        0.516   0.308   8.777   9.601
   16        0.524   0.309   8.768   9.601
   17        0.516   0.308   8.777   9.601
   18        0.516   0.309   8.776   9.600
   19        0.516   0.301   8.776   9.594
   20        0.541   0.334   8.753   9.628
   21        0.553   0.332   8.743   9.628
   22        0.509   0.309   8.777   9.595
   23        0.553   0.331   8.745   9.629
   24        0.508   0.309   8.777   9.594
   25        0.516   0.300   8.779   9.595
   26        0.516   0.302   8.776   9.593
   27        0.508   0.309   8.777   9.594
   28        0.542   0.227   8.765   9.535
   29        0.549   0.240   8.757   9.546
   30        0.549   0.241   8.760   9.551
   31        0.551   0.240   8.757   9.548
   32        0.552   0.240   8.759   9.551
   33        0.548   0.242   8.759   9.550
   34        0.553   0.240   8.758   9.551
   35        0.534   0.228   8.769   9.531
   36        0.497   0.593   6.552   7.642
   37        1.609   3.212   0.000   4.820
   38        1.600   3.354   0.000   4.954
   39        0.616   0.111   0.000   0.727
tot         22.994  16.942 313.387 353.323

 BZINTS: Fermi energy:    0.069235;  406.000000 electrons
         Band energy:-0.154596E+04;  BLOECHL correction:   -0.070262