 vasp.6.2.0 18Jan21 (build Jun 12 2021 23:27:24) complex

 executed on             LinuxIFC date 2022.05.27  05:38:10

 INCAR:
   ISMEAR = -5
   SIGMA = 0.1
   ISPIN = 1
   EDIFF = 1.d-5
   EDIFFG = -0.01
   NSW = 0
   NELM = 150
   ENCUT = 500
   ISIF = 2
   IBRION = 2
   LREAL = Auto
   ALGO = Fast
   ICHARG = 11
   LORBIT = 10
   LCHARG = .F.
   LWAVE = .F.

 POTCAR:    PAW_PBE Ag 02Apr2005
 POTCAR:    PAW_PBE Zr_sv 04Jan2005
 POTCAR:    PAW_PBE H 15Jun2001
|           W    W    AA    RRRRR   N    N  II  N    N   GGGG   !!!           |
|           W    W   A  A   R    R  NN   N  II  NN   N  G    G  !!!           |
|           W    W  A    A  R    R  N N  N  II  N N  N  G       !!!           |
|           W WW W  AAAAAA  RRRRR   N  N N  II  N  N N  G  GGG   !            |
|           WW  WW  A    A  R   R   N   NN  II  N   NN  G    G                |
|           W    W  A    A  R    R  N    N  II  N    N   GGGG   !!!           |
|     For optimal performance we recommend to set                             |
|       NCORE = 2 up to number-of-cores-per-socket                            |
|     This setting can greatly improve the performance of VASP for DFT.       |
|     The default, NCORE=1 might be grossly inefficient on modern             |
|     multi-core architectures or massively parallel machines. Do your        |
|     Unfortunately you need to use the default for GW and RPA                |
|     calculations (for HF NCORE is supported but not extensively tested      |
|     yet).                                                                   |

 POTCAR:    PAW_PBE Ag 02Apr2005
   VRHFIN =Ag : s1 d10

   TITEL  = PAW_PBE Ag 02Apr2005
   POMASS =  107.868; ZVAL   =   11.000    mass and valenz
   ENMAX  =  249.844; ENMIN  =  187.383 eV

 POTCAR:    PAW_PBE Zr_sv 04Jan2005
   VRHFIN =Zr: 4s4p5s4d

   TITEL  = PAW_PBE Zr_sv 04Jan2005
   POMASS =   91.224; ZVAL   =   12.000    mass and valenz
   ENMAX  =  229.898; ENMIN  =  172.424 eV

 POTCAR:    PAW_PBE H 15Jun2001
   VRHFIN =H: ultrasoft test

   TITEL  = PAW_PBE H 15Jun2001
   POMASS =    1.000; ZVAL   =    1.000    mass and valenz
   ENMAX  =  250.000; ENMIN  =  200.000 eV

 Optimization of the real space projectors (new method)

 maximal supplied QI-value         = 15.12
 optimisation between [QCUT,QGAM] = [ 11.34, 22.83] = [ 36.00,145.93] Ry
 Optimized for a Real-space Cutoff    1.43 Angstroem

   l    n(q)    QCUT    max X(q) W(low)/X(q) W(high)/X(q)  e(spline)
   2      9    11.338    53.897    0.16E-03    0.20E-03    0.28E-06
   2      9    11.338    52.416    0.16E-03    0.20E-03    0.29E-06
   0     10    11.338   122.045    0.31E-04    0.76E-04    0.15E-06
   0     10    11.338    73.629    0.30E-04    0.72E-04    0.15E-06
   1      9    11.338    15.255    0.20E-03    0.19E-04    0.17E-06
   1      9    11.338     9.562    0.16E-03    0.15E-04    0.14E-06
 Optimization of the real space projectors (new method)

[...]

   l    n(q)    QCUT    max X(q) W(low)/X(q) W(high)/X(q)  e(spline)
   0     10    11.338    12.107    0.38E-04    0.13E-04    0.27E-07
   0     10    11.338     9.948    0.69E-04    0.30E-04    0.38E-07
   1     10    11.338     3.563    0.26E-04    0.18E-04    0.40E-07
   1     10    11.338     4.524    0.25E-03    0.39E-04    0.44E-06
   2      9    11.338    87.261    0.26E-03    0.91E-05    0.26E-06
   2      9    11.338    70.950    0.25E-03    0.91E-05    0.25E-06
 Optimization of the real space projectors (new method)

 maximal supplied QI-value         = 34.20
 optimisation between [QCUT,QGAM] = [ 11.29, 22.57] = [ 35.68,142.71] Ry
 Optimized for a Real-space Cutoff    1.16 Angstroem

   l    n(q)    QCUT    max X(q) W(low)/X(q) W(high)/X(q)  e(spline)
   0      8    11.287    19.460    0.40E-03    0.73E-03    0.16E-06
   0      8    11.287    12.209    0.38E-03    0.70E-03    0.15E-06
   1      7    11.287     4.655    0.22E-03    0.25E-04    0.22E-06
  PAW_PBE Ag 02Apr2005                  :
  PAW_PBE Zr_sv 04Jan2005               :
  PAW_PBE H 15Jun2001                   :

 POSCAR: Ag-Zr-H2
  positions in direct lattice
  velocities in cartesian coordinates
 exchange correlation table for  LEXCH =        8
   RHO(1)=    0.500       N(1)  =     2000
   RHO(2)=  100.500       N(2)  =     4000

 VTST: version 3.2, (02/03/18)

 CHAIN: initializing optimizer

 OPT: Using VASP Conjugate-Gradient optimizer
 CHAIN: Read ICHAIN            0

 POSCAR: Ag-Zr-H2
  positions in direct lattice
  velocities in cartesian coordinates

 ion  position               nearest neighbor table
   1  0.000  0.000  0.220-   2 2.93   8 2.93   7 2.93   6 2.93   4 2.93  12 2.93  16 2.93  10 2.93
                             3 2.93
   2  0.333  0.000  0.220-   1 2.93   8 2.93   9 2.93   3 2.93   4 2.93   5 2.93  10 2.93  17 2.93
                            11 2.93
   3  0.667  0.000  0.220-   9 2.93   2 2.93   5 2.93  11 2.93   7 2.93  18 2.93   1 2.93   6 2.93
                            12 2.93
   4  0.000  0.333  0.220-   5 2.93   6 2.93   2 2.93   1 2.93   7 2.93  13 2.93  15 2.93   9 2.93
                            10 2.93
   5  0.333  0.333  0.220-   4 2.93   3 2.93   7 2.93   2 2.93   8 2.93  14 2.93  13 2.93  11 2.93
                             6 2.93
   6  0.667  0.333  0.220-   4 2.93   9 2.93   1 2.93  15 2.93   8 2.93  12 2.93   3 2.93   5 2.93
                            14 2.93
   7  0.000  0.667  0.220-   8 2.93   1 2.93   5 2.93   3 2.93   4 2.93  16 2.93  18 2.93  13 2.93
                             9 2.93
   8  0.333  0.667  0.220-   7 2.93   1 2.93   2 2.93   9 2.93   5 2.93  16 2.93   6 2.93  17 2.93
                            14 2.93
   9  0.667  0.667  0.220-   3 2.93   2 2.93   8 2.93   6 2.93  17 2.93   4 2.93  15 2.93   7 2.93
                            18 2.93
  10  0.111  0.111  0.320-  20 2.91  19 2.92  26 2.92  12 2.93  16 2.93  15 2.93  17 2.93  13 2.93
                            11 2.93   2 2.93   1 2.93   4 2.93
  11  0.444  0.111  0.320-  21 2.91  20 2.91  14 2.93  17 2.93  18 2.93   3 2.93  12 2.93  13 2.93
                            10 2.93   5 2.93   2 2.93  27 2.93
  12  0.778  0.111  0.320-  21 2.91  25 2.92  19 2.92  10 2.93  16 2.93  18 2.93  15 2.93  11 2.93
                             1 2.93  14 2.93   6 2.93   3 2.93
  13  0.111  0.444  0.320-  20 2.91  23 2.91  15 2.93  14 2.93  18 2.93  10 2.93  11 2.93  16 2.93
                             4 2.93   5 2.93   7 2.93  22 2.93
  14  0.444  0.444  0.320-  23 2.91  21 2.91  13 2.93  11 2.93  16 2.93   5 2.93  12 2.93  17 2.93
                             8 2.93  15 2.93   6 2.93  24 2.93
  15  0.778  0.444  0.320-  19 2.92  13 2.93  10 2.93  12 2.93  17 2.93  18 2.93   4 2.93   6 2.93
                             9 2.93  14 2.93  24 2.93  22 2.93
  16  0.111  0.778  0.320-  23 2.91  26 2.92  25 2.92  18 2.93  12 2.93  10 2.93  14 2.93  17 2.93
                            13 2.93   7 2.93   8 2.93   1 2.93
  17  0.444  0.778  0.320-  26 2.92  11 2.93  10 2.93   9 2.93  18 2.93  15 2.93  16 2.93   2 2.93
                            14 2.93   8 2.93  27 2.93  24 2.93
  18  0.778  0.778  0.320-  25 2.92  16 2.93  12 2.93  13 2.93  11 2.93  17 2.93  15 2.93   7 2.93
                             3 2.93   9 2.93  22 2.93  27 2.93
  19  0.889  0.222  0.419-  10 2.92  12 2.92  15 2.92  26 2.93  25 2.93  20 2.93  21 2.93  24 2.93
                            22 2.93  28 2.93  32 2.97  31 2.97
  20  0.222  0.222  0.418-  13 2.91  11 2.91  10 2.91  36 2.92  21 2.93  23 2.93  27 2.93  22 2.93
                            19 2.93  26 2.93  31 2.97  29 2.97
  21  0.555  0.222  0.418-  11 2.91  14 2.91  12 2.91  36 2.92  20 2.93  23 2.93  27 2.93  24 2.93
                            25 2.93  19 2.93  30 2.97  32 2.97
  22  0.889  0.556  0.419-  24 2.93  27 2.93  23 2.93  20 2.93  18 2.93  15 2.93  13 2.93  25 2.93
                            19 2.93  35 2.94  33 2.95  31 2.95
  23  0.222  0.555  0.418-  14 2.91  13 2.91  16 2.91  36 2.92  21 2.93  20 2.93  22 2.93  24 2.93
                            26 2.93  25 2.93  34 2.97  33 2.97
  24  0.556  0.556  0.419-  27 2.93  22 2.93  23 2.93  21 2.93  15 2.93  17 2.93  14 2.93  19 2.93
                            26 2.93  35 2.94  32 2.95  34 2.95
  25  0.889  0.889  0.419-  16 2.92  12 2.92  18 2.92  26 2.93  19 2.93  23 2.93  21 2.93  22 2.93
                            27 2.93  28 2.93  33 2.97  30 2.97
  26  0.222  0.889  0.419-  16 2.92  10 2.92  17 2.92  25 2.93  19 2.93  23 2.93  20 2.93  27 2.93
                            24 2.93  28 2.93  34 2.97  29 2.97
  27  0.556  0.889  0.419-  24 2.93  22 2.93  20 2.93  21 2.93  17 2.93  18 2.93  11 2.93  26 2.93
                            25 2.93  35 2.94  29 2.95  30 2.95
  28  0.000  0.000  0.518-  29 2.93  34 2.93  33 2.93  32 2.93  31 2.93  30 2.93  26 2.93  25 2.93
                            19 2.93
  29  0.334  0.000  0.520-  30 2.93  36 2.93  35 2.93  31 2.93  28 2.93  34 2.94  27 2.95  26 2.97
                            20 2.97
  30  0.666  0.000  0.520-  29 2.93  36 2.93  35 2.93  32 2.93  28 2.93  33 2.94  27 2.95  25 2.97
                            21 2.97
  31  0.000  0.334  0.520-  33 2.93  36 2.93  35 2.93  29 2.93  28 2.93  32 2.94  22 2.95  19 2.97
                            20 2.97
  32  0.666  0.334  0.520-  34 2.93  36 2.93  35 2.93  30 2.93  28 2.93  31 2.94  24 2.95  19 2.97
                            21 2.97
  33  0.000  0.666  0.520-  31 2.93  36 2.93  35 2.93  34 2.93  28 2.93  30 2.94  22 2.95  25 2.97
                            23 2.97
  34  0.334  0.666  0.520-  32 2.93  36 2.93  35 2.93  33 2.93  28 2.93  29 2.94  24 2.95  26 2.97
                            23 2.97
  35  0.667  0.667  0.520-  30 2.93  29 2.93  32 2.93  34 2.93  31 2.93  33 2.93  24 2.94  27 2.94
                            22 2.94
  36  0.333  0.333  0.518-  37 2.17  38 2.17  21 2.92  20 2.92  23 2.92  31 2.93  33 2.93  30 2.93
                            29 2.93  34 2.93  32 2.93
  37  0.287  0.335  0.606-  38 0.80  36 2.17
  38  0.378  0.335  0.606-  37 0.80  36 2.17

  LATTYP: Found a hexagonal cell.
 ALAT       =     8.7913665772
 C/A-ratio  =     2.7306349153

  Lattice vectors:

 A1 = (  -4.3956832886,  -7.6135467898,   0.0000000000)
 A2 = (   8.7913665771,   0.0000000000,   0.0000000000)
 A3 = (   0.0000000000,   0.0000000000,  24.0060125285)

Analysis of symmetry for initial positions (statically):
 Subroutine PRICEL returns:
 Original cell was already a primitive cell.

 Routine SETGRP: Setting up the symmetry group for a
 hexagonal supercell.

 Subroutine GETGRP returns: Found  2 space group operations
 (whereof  2 operations were pure point group operations)
 out of a pool of 24 trial point group operations.

The static configuration has the point symmetry C_1h.

Analysis of symmetry for dynamics (positions and initial velocities):
 Subroutine PRICEL returns:
 Original cell was already a primitive cell.

[...]

The dynamic configuration has the point symmetry C_1h.

Analysis of constrained symmetry for selective dynamics:
 Subroutine PRICEL returns:
 Original cell was already a primitive cell.

 Routine SETGRP: Setting up the symmetry group for a
 hexagonal supercell.

[...]
     33      -4.8263      2.00000
     34      -4.8223      2.00000
     35      -4.7950      2.00000
     36      -4.7858      2.00000
     37      -4.7713      2.00000
     38      -4.7509      2.00000
     39      -4.7349      2.00000
     40      -4.7234      2.00000
     41      -4.6776      2.00000
     42      -4.6452      2.00000
     43      -4.6132      2.00000
     44      -4.6089      2.00000
     45      -4.5971      2.00000
     46      -4.5937      2.00000
     47      -4.5752      2.00000
     48      -4.4777      2.00000
     49      -4.4691      2.00000
     50      -4.4531      2.00000
     51      -4.4381      2.00000
     52      -4.4329      2.00000
     53      -4.4267      2.00000
     54      -4.4249      2.00000
     55      -4.4133      2.00000
     56      -4.4078      2.00000
     57      -4.3987      2.00000
     58      -4.3350      2.00000
     59      -4.3258      2.00000
     60      -4.3206      2.00000
[...]
    226       4.6614      0.00000
    227       4.7248      0.00000
    228       5.0911      0.00000
    229       5.1748      0.00000
    230       5.2053      0.00000
    231       5.3767      0.00000
    232       5.4146      0.00000
    233       5.4816      0.00000
    234       5.5343      0.00000
    235       5.5752      0.00000
    236       5.5975      0.00000
    237       5.8076      0.00000
    238       5.9157      0.00000
    239       5.9931      0.00000
    240       6.0572      0.00000

 soft charge-density along one line, spin component           1
         0         1         2         3         4         5         6         7         8         9
 total charge-density along one line

------------------------ aborting loop because EDIFF is reached ----------------------------------------

 total charge

# of ion       s       p       d       tot
    1        0.422   0.200   9.178   9.800
    2        0.414   0.204   9.177   9.795
    3        0.414   0.204   9.177   9.795
    4        0.413   0.204   9.178   9.795
    5        0.421   0.203   9.174   9.798
    6        0.413   0.204   9.178   9.795
    7        0.414   0.204   9.178   9.795
    8        0.414   0.204   9.178   9.795
    9        0.418   0.201   9.178   9.797
   10        0.412   0.270   9.161   9.842
   11        0.408   0.265   9.168   9.842
   12        0.412   0.270   9.161   9.842
   13        0.407   0.265   9.169   9.842
   14        0.407   0.265   9.169   9.842
   15        0.403   0.268   9.164   9.836
   16        0.411   0.270   9.162   9.842
   17        0.403   0.268   9.164   9.836
   18        0.403   0.268   9.164   9.836
   19        0.404   0.267   9.164   9.835
   20        0.441   0.293   9.134   9.868
   21        0.441   0.293   9.134   9.868
   22        0.395   0.271   9.165   9.831
   23        0.440   0.292   9.135   9.867
   24        0.395   0.271   9.165   9.831
   25        0.405   0.265   9.165   9.835
   26        0.405   0.265   9.165   9.835
   27        0.395   0.271   9.165   9.831
   28        0.408   0.208   9.173   9.788
   29        0.455   0.222   9.144   9.822
   30        0.455   0.222   9.144   9.822
   31        0.453   0.223   9.145   9.821
   32        0.453   0.223   9.145   9.821
   33        0.455   0.222   9.145   9.822
   34        0.455   0.222   9.145   9.822
   35        0.404   0.209   9.175   9.788
   36        2.188   5.962   1.536   9.686
   37        0.575   0.028   0.000   0.604
   38        0.575   0.028   0.000   0.604
tot         18.008  14.494 322.222 354.724

  FORCE on cell =-STRESS in cart. coord.  units (eV):
  Direction    XX          YY          ZZ          XY          YZ          ZX
  Alpha Z   700.75024   700.75024   700.75024
  Ewald  148381.96499148361.04337************     0.00002     0.37114     0.00002
  Hartree158450.71837158444.12299************     0.00001     0.32073     0.00000
  E(xc)   -2085.42145 -2085.70932 -2091.52204    -0.00002     0.00513     0.00000
  Local  ************************318530.75699     0.00035    -0.93958    -0.00006
  n-local  -327.66994  -327.68810  -324.74674     2.13656    -0.05800     0.01301
  augment  3221.60474  3221.16708  3234.76189    -0.00020     0.06397     0.00002
  Kinetic  5003.96120  5006.92963  5036.71459     0.48089     0.12032     0.10041
  Fock        0.00000     0.00000     0.00000     0.00000     0.00000     0.00000
  Total      -7.87403    -7.65410    -0.44863    -0.00000    -0.11629    -0.00000
  in kB      -7.85134    -7.63205    -0.44734    -0.00000    -0.11596    -0.00000

 VOLUME and BASIS-vectors are now :
  energy-cutoff  :      500.00
  volume of cell :     1606.81
      direct lattice vectors                 reciprocal lattice vectors
     8.791366577  0.000000000  0.000000000     0.113747958 -0.065672414  0.000000000
     4.395683289  7.613546790  0.000000000     0.000000000  0.131344829  0.000000000
     0.000000000  0.000000000 24.006012529     0.000000000  0.000000000  0.041656231

  length of vectors
     8.791366577  8.791366577 24.006012529     0.131344829  0.131344829  0.041656231

 FORCES acting on ions
    electron-ion (+dipol)            ewald-force                    non-local-force                 convergence-correction
   0.460E-04 0.612E-01 0.266E+04   -.953E-04 -.676E-03 -.266E+04   -.276E-12 -.420E-01 -.182E+01   -.911E-04 -.198E-01 0.485E-01
   -.171E+00 0.490E+00 0.266E+04   0.712E-01 -.492E+00 -.266E+04   0.484E-01 0.135E+00 -.159E+01   0.562E-01 -.131E+00 0.175E+00
   0.171E+00 0.490E+00 0.266E+04   -.711E-01 -.492E+00 -.266E+04   -.484E-01 0.135E+00 -.159E+01   -.568E-01 -.129E+00 0.176E+00
   0.314E+00 -.375E+00 0.266E+04   -.390E+00 0.307E+00 -.266E+04   0.169E+00 -.366E-01 -.166E+01   -.870E-01 0.104E+00 0.147E+00
   -.748E-05 0.427E-01 0.266E+04   0.981E-04 -.543E-03 -.266E+04   -.166E-12 -.253E-01 -.110E+01   0.616E-02 -.142E-01 0.385E+00
   -.314E+00 -.375E+00 0.266E+04   0.390E+00 0.307E+00 -.266E+04   -.169E+00 -.366E-01 -.166E+01   0.857E-01 0.105E+00 0.148E+00
   0.526E+00 -.142E+00 0.266E+04   -.462E+00 0.185E+00 -.266E+04   0.802E-01 -.872E-01 -.161E+01   -.140E+00 0.376E-01 0.161E+00
   -.526E+00 -.142E+00 0.266E+04   0.462E+00 0.185E+00 -.266E+04   -.802E-01 -.872E-01 -.161E+01   0.142E+00 0.366E-01 0.161E+00
   0.364E-04 -.231E-01 0.266E+04   0.792E-04 0.120E-02 -.266E+04   0.155E-12 0.236E-01 -.165E+01   -.660E-02 0.892E-03 0.179E+00
   0.115E+01 0.702E+00 0.908E+03   -.975E+00 -.572E+00 -.908E+03   -.270E+00 -.171E+00 -.736E+00   0.757E-01 0.322E-01 0.101E+00
   -.283E-04 0.465E+01 0.909E+03   0.409E-04 -.472E+01 -.909E+03   0.582E-12 0.886E-01 -.159E+00   0.618E-02 -.656E-01 0.361E-01
   -.115E+01 0.702E+00 0.908E+03   0.975E+00 -.572E+00 -.908E+03   0.270E+00 -.171E+00 -.736E+00   -.768E-01 0.327E-01 0.996E-01
   0.396E+01 -.229E+01 0.909E+03   -.408E+01 0.236E+01 -.909E+03   0.113E+00 -.581E-01 -.152E+00   -.251E-01 0.245E-01 0.316E-01
   -.396E+01 -.229E+01 0.909E+03   0.408E+01 0.236E+01 -.909E+03   -.113E+00 -.581E-01 -.152E+00   0.352E-01 0.234E-01 0.293E-01
   0.160E-04 -.303E+01 0.904E+03   -.108E-03 0.289E+01 -.903E+03   0.259E-12 0.395E-01 -.776E+00   -.121E-02 0.977E-01 0.992E-02
   -.784E-05 -.139E+01 0.908E+03   0.208E-04 0.113E+01 -.908E+03   0.223E-11 0.340E+00 -.664E+00   -.387E-03 -.677E-01 0.126E+00
   -.268E+01 0.148E+01 0.904E+03   0.250E+01 -.144E+01 -.903E+03   0.640E-01 -.118E-01 -.670E+00   0.109E+00 -.375E-01 0.370E-01
   0.268E+01 0.148E+01 0.904E+03   -.250E+01 -.144E+01 -.903E+03   -.640E-01 -.118E-01 -.670E+00   -.109E+00 -.361E-01 0.380E-01
   0.394E-04 -.272E+01 -.865E+03   -.129E-03 0.275E+01 0.865E+03   0.211E-12 0.322E-01 0.748E+00   0.950E-03 -.565E-01 -.164E+00
   0.156E+02 0.921E+01 -.844E+03   -.143E+02 -.832E+01 0.846E+03   -.117E+01 -.695E+00 -.964E+00   -.155E+00 -.189E+00 -.360E+00
   -.156E+02 0.921E+01 -.844E+03   0.143E+02 -.832E+01 0.846E+03   0.117E+01 -.695E+00 -.964E+00   0.144E+00 -.190E+00 -.361E+00
   0.600E+01 -.360E+01 -.871E+03   -.607E+01 0.356E+01 0.871E+03   0.131E+00 -.737E-01 0.346E+00   -.556E-01 0.107E+00 -.293E+00
   -.543E-04 -.181E+02 -.845E+03   0.449E-04 0.166E+02 0.846E+03   0.874E-11 0.133E+01 -.780E+00   -.679E-02 0.268E+00 -.271E+00
   -.600E+01 -.360E+01 -.871E+03   0.607E+01 0.356E+01 0.871E+03   -.131E+00 -.737E-01 0.346E+00   0.678E-01 0.107E+00 -.293E+00
   0.242E+01 0.143E+01 -.865E+03   -.243E+01 -.140E+01 0.865E+03   -.935E-02 -.141E-01 0.778E+00   0.197E-01 -.143E-01 -.115E+00
   -.242E+01 0.143E+01 -.865E+03   0.242E+01 -.140E+01 0.865E+03   0.935E-02 -.141E-01 0.778E+00   -.103E-01 -.126E-01 -.114E+00
   0.199E-04 0.690E+01 -.871E+03   0.109E-03 -.699E+01 0.871E+03   0.968E-12 0.147E+00 0.402E+00   0.449E-02 -.472E-01 -.253E+00
   0.554E-04 0.182E+00 -.261E+04   -.118E-03 -.180E+00 0.261E+04   0.295E-12 0.449E-01 0.167E+01   0.938E-04 -.515E-01 -.303E+00
   0.175E+02 0.238E+02 -.262E+04   -.165E+02 -.224E+02 0.262E+04   -.918E+00 -.132E+01 0.637E+00   -.545E-01 -.133E+00 -.262E+00
   -.175E+02 0.238E+02 -.262E+04   0.165E+02 -.224E+02 0.262E+04   0.918E+00 -.132E+01 0.637E+00   0.535E-01 -.132E+00 -.262E+00
   0.299E+02 0.373E+01 -.262E+04   -.281E+02 -.352E+01 0.262E+04   -.166E+01 -.138E+00 0.566E+00   -.176E+00 -.642E-01 -.275E+00
   -.299E+02 0.373E+01 -.262E+04   0.281E+02 -.352E+01 0.262E+04   0.166E+01 -.138E+00 0.566E+00   0.176E+00 -.635E-01 -.274E+00
   0.114E+02 -.276E+02 -.262E+04   -.107E+02 0.260E+02 0.262E+04   -.686E+00 0.146E+01 0.671E+00   0.256E-01 0.199E+00 -.288E+00
   -.114E+02 -.276E+02 -.262E+04   0.107E+02 0.260E+02 0.262E+04   0.686E+00 0.146E+01 0.671E+00   -.244E-01 0.199E+00 -.287E+00
   0.208E-04 -.284E+00 -.263E+04   0.105E-03 0.283E+00 0.263E+04   -.386E-12 -.588E-01 0.188E+01   -.626E-02 0.658E-01 -.257E+00
   0.204E-03 0.427E+00 -.278E+04   0.112E-03 -.487E+00 0.278E+04   0.505E-14 0.769E-03 0.210E+01   0.472E-02 0.539E-03 -.301E+00
   0.203E+02 -.628E-01 -.287E+03   -.246E+02 0.813E-01 0.287E+03   0.429E+01 -.671E-02 -.738E+00   -.712E-02 -.289E-02 0.208E-01
   -.203E+02 -.628E-01 -.287E+03   0.246E+02 0.813E-01 0.287E+03   -.429E+01 -.671E-02 -.738E+00   0.721E-02 -.289E-02 0.208E-01
   0.559E-03 0.121E+00 0.130E+02   0.782E-13 0.819E-13 0.153E-11   -.671E-12 -.102E+00 -.104E+02   0.203E-01 -.193E-01 -.260E+01

 POSITION                                       TOTAL-FORCE (eV/Angst)
      0.00000      0.00000      5.28219        -0.000000     -0.001247     -0.024759
      2.93046      0.00000      5.28219         0.005274      0.003018      0.028860
      5.86091      0.00000      5.28219        -0.005274      0.003018      0.028860
      1.46523      2.53785      5.28219         0.006951     -0.000032      0.024862
      4.39568      2.53785      5.28219         0.000000      0.002740      0.004079
      7.32614      2.53785      5.28219        -0.006951     -0.000032      0.024862
      2.93046      5.07570      5.28219         0.003139     -0.006673      0.026460
      5.86091      5.07570      5.28219        -0.003139     -0.006673      0.026460
      8.79137      5.07570      5.28219         0.000000      0.002629      0.000592
      1.46523      0.84595      7.67490        -0.015499     -0.008028     -0.075085
      4.39568      0.84595      7.67490        -0.000000     -0.046334     -0.056935
      7.32614      0.84595      7.67490         0.015499     -0.008028     -0.075085
      2.93046      3.38380      7.67490        -0.038387      0.028608     -0.064990
      5.86091      3.38380      7.67490         0.038387      0.028608     -0.064990
      8.79137      3.38380      7.67490        -0.000000     -0.003307      0.001597
      4.39568      5.92165      7.67490         0.000000      0.018595     -0.072985
      7.32614      5.92165      7.67490        -0.004906     -0.002394      0.015766
     10.25659      5.92165      7.67490         0.004906     -0.002394      0.015766
      8.79137      1.69022     10.04930         0.000000      0.003035      0.043417
      2.93117      1.69231     10.04246        -0.021098      0.008395     -0.033267
      5.86019      1.69231     10.04246         0.021098      0.008395     -0.033267
     10.25641      4.22985     10.06824        -0.002976     -0.007825      0.022823
      4.39568      4.22892     10.04246         0.000000      0.018042     -0.037199
      7.32632      4.22985     10.06824         0.002976     -0.007825      0.022823
     11.72328      6.76844     10.04930         0.002240      0.008552      0.017823
      5.85946      6.76844     10.04930        -0.002240      0.008552      0.017823
      8.79137      6.76739     10.06824         0.000000      0.008456      0.022545
      0.00000      0.00000     12.44689        -0.000000     -0.003927      0.032443
      2.93311      0.00118     12.48352        -0.029478     -0.025674     -0.001680
      5.85826      0.00118     12.48352         0.029478     -0.025674     -0.001680
      1.46758      2.53956     12.48352         0.033042      0.001382      0.069116
      7.32379      2.53956     12.48352        -0.033042      0.001382      0.069116
      2.93015      5.07281     12.48352        -0.033630      0.018840     -0.004745
      5.86121      5.07281     12.48352         0.033630      0.018840     -0.004745
      8.79137      5.07570     12.47551         0.000000      0.006152      0.013933
      4.39568      2.53785     12.42634        -0.000000     -0.058968      0.057540
      3.99570      2.55325     14.55422        -0.030828      0.008898     -0.018076
      4.79567      2.55325     14.55422         0.030828      0.008898     -0.018076
    total drift:                                0.020872     -0.000593      0.042245

  FREE ENERGIE OF THE ION-ELECTRON SYSTEM (eV)
  free  energy   TOTEN  =      -103.66597986 eV

  energy  without entropy=     -103.66597986  energy(sigma->0) =     -103.66597986

 stress matrix after NEB project (eV)
     -7.87403     -0.00000     -0.00000
     -0.00000     -7.65410     -0.11629
     -0.00000     -0.11629     -0.44863
  FORCES: max atom, RMS     0.036827    0.008449
  FORCE total and by dimension    0.052082    0.030828
  Stress total and by dimension   10.991538    7.874026
|           W    W    AA    RRRRR   N    N  II  N    N   GGGG   !!!           |
|           W    W   A  A   R    R  NN   N  II  NN   N  G    G  !!!           |
|           W    W  A    A  R    R  N N  N  II  N N  N  G       !!!           |
|           W WW W  AAAAAA  RRRRR   N  N N  II  N  N N  G  GGG   !            |
|           WW  WW  A    A  R   R   N   NN  II  N   NN  G    G                |
|           W    W  A    A  R    R  N    N  II  N    N   GGGG   !!!           |
|     Tetrahedron method does not include variations of the Fermi             |
|     occupations, so forces and stress will be inaccurate. We suggest        |
|     using a different smearing scheme ISMEAR = 1 or 2 for metals in         |
|     relaxations.                                                            |

 total charge

# of ion       s       p       d       tot
    1        0.422   0.200   9.178   9.800
    2        0.414   0.204   9.177   9.795
    3        0.414   0.204   9.177   9.795
    4        0.413   0.204   9.178   9.795
    5        0.421   0.203   9.174   9.798
    6        0.413   0.204   9.178   9.795
    7        0.414   0.204   9.178   9.795
    8        0.414   0.204   9.178   9.795
    9        0.418   0.201   9.178   9.797
   10        0.412   0.270   9.161   9.842
   11        0.408   0.265   9.168   9.842
   12        0.412   0.270   9.161   9.842
   13        0.407   0.265   9.169   9.842
   14        0.407   0.265   9.169   9.842
   15        0.403   0.268   9.164   9.836
   16        0.411   0.270   9.162   9.842
   17        0.403   0.268   9.164   9.836
   18        0.403   0.268   9.164   9.836
   19        0.404   0.267   9.164   9.835
   20        0.441   0.293   9.134   9.868
   21        0.441   0.293   9.134   9.868
   22        0.395   0.271   9.165   9.831
   23        0.440   0.292   9.135   9.867
   24        0.395   0.271   9.165   9.831
   25        0.405   0.265   9.165   9.835
   26        0.405   0.265   9.165   9.835
   27        0.395   0.271   9.165   9.831
   28        0.408   0.208   9.173   9.788
   29        0.455   0.222   9.144   9.822
   30        0.455   0.222   9.144   9.822
   31        0.453   0.223   9.145   9.821
   32        0.453   0.223   9.145   9.821
   33        0.455   0.222   9.145   9.822
   34        0.455   0.222   9.145   9.822
   35        0.404   0.209   9.175   9.788
   36        2.188   5.962   1.536   9.686
   37        0.575   0.028   0.000   0.604
   38        0.575   0.028   0.000   0.604
tot         18.008  14.494 322.222 354.724

 BZINTS: Fermi energy:    0.601875;  399.000000 electrons
         Band energy:-0.164962E+04;  BLOECHL correction:   -0.020978