 vasp.6.2.0 18Jan21 (build Jun 12 2021 23:27:24) complex

 executed on             LinuxIFC date 2022.05.30  15:56:55

 INCAR:
   ISMEAR = -5
   SIGMA = 0.1
   ISPIN = 1
   EDIFF = 1.d-5
   EDIFFG = -0.01
   NSW = 0
   NELM = 150
   ENCUT = 500
   ISIF = 2
   IBRION = 2
   LREAL = Auto
   ALGO = Fast
   ICHARG = 11
   LORBIT = 10
   LCHARG = .F.
   LWAVE = .F.

 POTCAR:    PAW_PBE Au 04Oct2007
 POTCAR:    PAW_PBE Fe 06Sep2000
 POTCAR:    PAW_PBE O 08Apr2002
|           W    W    AA    RRRRR   N    N  II  N    N   GGGG   !!!           |
|           W    W   A  A   R    R  NN   N  II  NN   N  G    G  !!!           |
|           W    W  A    A  R    R  N N  N  II  N N  N  G       !!!           |
|           W WW W  AAAAAA  RRRRR   N  N N  II  N  N N  G  GGG   !            |
|           WW  WW  A    A  R   R   N   NN  II  N   NN  G    G                |
|           W    W  A    A  R    R  N    N  II  N    N   GGGG   !!!           |
|     For optimal performance we recommend to set                             |
|       NCORE = 2 up to number-of-cores-per-socket                            |
|     This setting can greatly improve the performance of VASP for DFT.       |
|     The default, NCORE=1 might be grossly inefficient on modern             |
|     multi-core architectures or massively parallel machines. Do your        |
|     Unfortunately you need to use the default for GW and RPA                |
|     calculations (for HF NCORE is supported but not extensively tested      |
|     yet).                                                                   |

 POTCAR:    PAW_PBE Au 04Oct2007
   VRHFIN =Au: s1d10

   TITEL  = PAW_PBE Au 04Oct2007
   POMASS =  196.966; ZVAL   =   11.000    mass and valenz
   ENMAX  =  229.943; ENMIN  =  172.457 eV

 POTCAR:    PAW_PBE Fe 06Sep2000
   VRHFIN =Fe:  d7 s1

   TITEL  = PAW_PBE Fe 06Sep2000
   POMASS =   55.847; ZVAL   =    8.000    mass and valenz
   ENMAX  =  267.882; ENMIN  =  200.911 eV

 POTCAR:    PAW_PBE O 08Apr2002
   VRHFIN =O: s2p4

   TITEL  = PAW_PBE O 08Apr2002
   POMASS =   16.000; ZVAL   =    6.000    mass and valenz
   ENMAX  =  400.000; ENMIN  =  300.000 eV

 Optimization of the real space projectors (new method)

 maximal supplied QI-value         = 15.12
 optimisation between [QCUT,QGAM] = [ 11.34, 22.83] = [ 36.00,145.93] Ry
 Optimized for a Real-space Cutoff    1.39 Angstroem

   l    n(q)    QCUT    max X(q) W(low)/X(q) W(high)/X(q)  e(spline)
   2      9    11.338    60.898    0.39E-03    0.42E-03    0.21E-06
   2      9    11.338    58.894    0.40E-03    0.42E-03    0.22E-06
   0      9    11.338   109.617    0.13E-03    0.20E-04    0.13E-06
   0      9    11.338    75.026    0.13E-03    0.20E-04    0.13E-06
   1      9    11.338    16.344    0.33E-04    0.24E-03    0.18E-06
   1      9    11.338    10.160    0.26E-04    0.19E-03    0.15E-06
 Optimization of the real space projectors (new method)

[...]

   l    n(q)    QCUT    max X(q) W(low)/X(q) W(high)/X(q)  e(spline)
   2      8    11.376    80.901    0.45E-03    0.44E-04    0.21E-06
   2      8    11.376    75.754    0.45E-03    0.45E-04    0.22E-06
   0      9    11.376    58.752    0.65E-04    0.95E-04    0.17E-06
   0      9    11.376    30.679    0.59E-04    0.87E-04    0.16E-06
   1      9    11.376    17.977    0.38E-03    0.10E-03    0.14E-06
   1      9    11.376    13.559    0.31E-03    0.90E-04    0.12E-06
 Optimization of the real space projectors (new method)

 maximal supplied QI-value         = 24.76
 optimisation between [QCUT,QGAM] = [ 11.39, 22.77] = [ 36.31,145.25] Ry
 Optimized for a Real-space Cutoff    1.00 Angstroem

   l    n(q)    QCUT    max X(q) W(low)/X(q) W(high)/X(q)  e(spline)
   0      7    11.387    20.381    0.39E-03    0.13E-02    0.15E-06
   0      7    11.387    15.268    0.42E-03    0.14E-02    0.17E-06
   1      6    11.387     5.964    0.41E-03    0.11E-02    0.17E-06
   1      6    11.387     5.382    0.39E-03    0.87E-03    0.15E-06
  PAW_PBE Au 04Oct2007                  :
  PAW_PBE Fe 06Sep2000                  :
  PAW_PBE O 08Apr2002                   :

 POSCAR: Au-Fe-O2
  positions in direct lattice
  velocities in cartesian coordinates
 exchange correlation table for  LEXCH =        8
   RHO(1)=    0.500       N(1)  =     2000
   RHO(2)=  100.500       N(2)  =     4000

 VTST: version 3.2, (02/03/18)

 CHAIN: initializing optimizer

 OPT: Using VASP Conjugate-Gradient optimizer
 CHAIN: Read ICHAIN            0

 POSCAR: Au-Fe-O2
  positions in direct lattice
  velocities in cartesian coordinates

 ion  position               nearest neighbor table
   1  0.000  0.000  0.217-  16 2.94  12 2.94   6 2.94   8 2.94   7 2.94   3 2.94  10 2.94   4 2.94
                             2 2.94
   2  0.333  0.000  0.217-   9 2.94  11 2.94  17 2.94  10 2.94   8 2.94   4 2.94   5 2.94   1 2.94
                             3 2.94
   3  0.667  0.000  0.217-   7 2.94  18 2.94  12 2.94   1 2.94  11 2.94   5 2.94   6 2.94   9 2.94
                             2 2.94
   4  0.000  0.333  0.217-  10 2.94   6 2.94   5 2.94  13 2.94   2 2.94  15 2.94   9 2.94   1 2.94
                             7 2.94
   5  0.333  0.333  0.217-  13 2.94   7 2.94  11 2.94   4 2.94   2 2.94  14 2.94   3 2.94   8 2.94
                             6 2.94
   6  0.667  0.333  0.217-  15 2.94  14 2.94   1 2.94  12 2.94   4 2.94   9 2.94   8 2.94   3 2.94
                             5 2.94
   7  0.000  0.667  0.217-  18 2.94   3 2.94  16 2.94   5 2.94   1 2.94  13 2.94   8 2.94   4 2.94
                             9 2.94
   8  0.333  0.667  0.217-   9 2.94  17 2.94   1 2.94   2 2.94  14 2.94  16 2.94   6 2.94   7 2.94
                             5 2.94
   9  0.667  0.667  0.217-   2 2.94   8 2.94  17 2.94   6 2.94  15 2.94   4 2.94   3 2.94  18 2.94
                             7 2.94
  10  0.111  0.111  0.316-  20 2.93  26 2.94  19 2.94  11 2.94  17 2.94   2 2.94   4 2.94   1 2.94
                            12 2.94  16 2.94  13 2.94  15 2.94
  11  0.444  0.111  0.316-  20 2.91  21 2.91  27 2.93  13 2.94   2 2.94  10 2.94  17 2.94   5 2.94
                             3 2.94  18 2.94  14 2.94  12 2.94
  12  0.778  0.111  0.316-  21 2.93  25 2.94  19 2.94  16 2.94  18 2.94   1 2.94  14 2.94  15 2.94
                             3 2.94   6 2.94  10 2.94  11 2.94
  13  0.111  0.444  0.316-  23 2.91  20 2.91  22 2.93   5 2.94  18 2.94  11 2.94   7 2.94   4 2.94
                            16 2.94  10 2.94  14 2.94  15 2.94
  14  0.444  0.444  0.316-  21 2.91  23 2.91  24 2.93  15 2.94   6 2.94  12 2.94   8 2.94  17 2.94
                             5 2.94  16 2.94  13 2.94  11 2.94
  15  0.778  0.444  0.316-  24 2.92  22 2.92  19 2.94  14 2.94   6 2.94  17 2.94  12 2.94   9 2.94
                             4 2.94  10 2.94  13 2.94  18 2.94
  16  0.111  0.778  0.316-  23 2.93  25 2.94  26 2.94  18 2.94  12 2.94   7 2.94   1 2.94   8 2.94
                            13 2.94  10 2.94  14 2.94  17 2.94
  17  0.444  0.778  0.316-  27 2.92  24 2.92  26 2.94   9 2.94  15 2.94   2 2.94  10 2.94  11 2.94
                             8 2.94  14 2.94  16 2.94  18 2.94
  18  0.778  0.778  0.316-  22 2.92  27 2.92  25 2.94  16 2.94   7 2.94  13 2.94  12 2.94   3 2.94
                            11 2.94   9 2.94  15 2.94  17 2.94
  19  0.889  0.222  0.414-  10 2.94  12 2.94  15 2.94  26 2.94  25 2.94  24 2.94  22 2.94  28 2.95
                            21 2.95  20 2.95  32 2.98  31 2.98
  20  0.223  0.223  0.413-  36 2.70  23 2.91  21 2.91  11 2.91  13 2.91  29 2.92  31 2.92  10 2.93
                            27 2.95  22 2.95  26 2.95  19 2.95
  21  0.553  0.223  0.413-  36 2.70  20 2.91  23 2.91  14 2.91  11 2.91  30 2.92  32 2.92  12 2.93
                            27 2.95  24 2.95  25 2.95  19 2.95
  22  0.887  0.557  0.414-  24 2.91  27 2.91  18 2.92  15 2.92  13 2.93  25 2.94  19 2.94  33 2.95
                            31 2.95  23 2.95  20 2.95  35 2.95
  23  0.223  0.553  0.413-  36 2.70  20 2.91  21 2.91  13 2.91  14 2.91  33 2.92  34 2.92  16 2.93
                            22 2.95  24 2.95  25 2.95  26 2.95
  24  0.557  0.557  0.414-  27 2.91  22 2.91  15 2.92  17 2.92  14 2.93  26 2.94  19 2.94  32 2.95
                            34 2.95  21 2.95  23 2.95  35 2.95
  25  0.889  0.889  0.414-  16 2.94  12 2.94  18 2.94  19 2.94  26 2.94  22 2.94  27 2.94  28 2.95
                            23 2.95  21 2.95  33 2.98  30 2.98
  26  0.222  0.889  0.414-  10 2.94  16 2.94  17 2.94  19 2.94  25 2.94  27 2.94  24 2.94  28 2.95
                            20 2.95  23 2.95  29 2.98  34 2.98
  27  0.557  0.887  0.414-  24 2.91  22 2.91  17 2.92  18 2.92  11 2.93  26 2.94  25 2.94  29 2.95
                            30 2.95  20 2.95  21 2.95  35 2.95
  28  0.000  0.000  0.514-  25 2.95  19 2.95  26 2.95  34 2.98  32 2.98  33 2.98  30 2.98  31 2.98
                            29 2.98
  29  0.333  0.010  0.513-  30 2.85  31 2.85  36 2.87  20 2.92  27 2.95  26 2.98  35 2.98  28 2.98
                            34 3.11
  30  0.657  0.010  0.513-  29 2.85  32 2.85  36 2.87  21 2.92  27 2.95  25 2.98  35 2.98  28 2.98
                            33 3.11
  31  0.010  0.333  0.513-  37 2.61  33 2.85  29 2.85  36 2.87  20 2.92  22 2.95  19 2.98  35 2.98
                            28 2.98  32 3.11
  32  0.657  0.333  0.513-  38 2.61  34 2.85  30 2.85  36 2.87  21 2.92  24 2.95  19 2.98  35 2.98
                            28 2.98  31 3.11
  33  0.010  0.657  0.513-  31 2.85  34 2.85  36 2.87  23 2.92  22 2.95  25 2.98  35 2.98  28 2.98
                            30 3.11
  34  0.333  0.657  0.513-  32 2.85  33 2.85  36 2.87  23 2.92  24 2.95  26 2.98  35 2.98  28 2.98
                            29 3.11
  35  0.667  0.667  0.514-  24 2.95  27 2.95  22 2.95  29 2.98  34 2.98  32 2.98  31 2.98  30 2.98
                            33 2.98
  36  0.333  0.333  0.500-  37 1.91  38 1.91  20 2.70  23 2.70  21 2.70  33 2.87  31 2.87  29 2.87
                            30 2.87  34 2.87  32 2.87
  37  0.255  0.333  0.573-  38 1.38  36 1.91  31 2.61
  38  0.411  0.333  0.573-  37 1.38  36 1.91  32 2.61

  LATTYP: Found a hexagonal cell.
 ALAT       =     8.8135128021
 C/A-ratio  =     2.7586513333

  Lattice vectors:

 A1 = (  -4.4067569092,  -7.6327256898,   0.0000000000)
 A2 = (   8.8135128021,   0.0000000000,   0.0000000000)
 A3 = (   0.0000000000,   0.0000000000,  24.3134088421)

Analysis of symmetry for initial positions (statically):
 Subroutine PRICEL returns:
 Original cell was already a primitive cell.

 Routine SETGRP: Setting up the symmetry group for a
 hexagonal supercell.

 Subroutine GETGRP returns: Found  2 space group operations
 (whereof  2 operations were pure point group operations)
 out of a pool of 24 trial point group operations.

The static configuration has the point symmetry C_1h.

Analysis of symmetry for dynamics (positions and initial velocities):
 Subroutine PRICEL returns:
 Original cell was already a primitive cell.

[...]

The dynamic configuration has the point symmetry C_1h.

Analysis of constrained symmetry for selective dynamics:
 Subroutine PRICEL returns:
 Original cell was already a primitive cell.

 Routine SETGRP: Setting up the symmetry group for a
[...]
     33      -5.3866      2.00000
     34      -5.3008      2.00000
     35      -5.2895      2.00000
     36      -5.2700      2.00000
     37      -5.2674      2.00000
     38      -5.2469      2.00000
     39      -5.0996      2.00000
     40      -5.0836      2.00000
     41      -5.0627      2.00000
     42      -5.0550      2.00000
     43      -5.0347      2.00000
     44      -4.9928      2.00000
     45      -4.9242      2.00000
     46      -4.8889      2.00000
     47      -4.8232      2.00000
     48      -4.8131      2.00000
     49      -4.8018      2.00000
     50      -4.7902      2.00000
     51      -4.6957      2.00000
     52      -4.6826      2.00000
     53      -4.6465      2.00000
     54      -4.6321      2.00000
     55      -4.6249      2.00000
     56      -4.6204      2.00000
     57      -4.5947      2.00000
     58      -4.5679      2.00000
     59      -4.5243      2.00000
     60      -4.4918      2.00000
[...]
    238       5.5869      0.00000
    239       5.6820      0.00000
    240       5.9218      0.00000
    241       5.9711      0.00000
    242       5.9737      0.00000
    243       5.9935      0.00000
    244       6.0333      0.00000
    245       6.2470      0.00000
    246       6.2966      0.00000
    247       6.3433      0.00000
    248       6.3565      0.00000
    249       6.4479      0.00000
    250       6.6599      0.00000
    251       6.7336      0.00000
    252       6.8097      0.00000

 soft charge-density along one line, spin component           1
         0         1         2         3         4         5         6         7         8         9
 total charge-density along one line

------------------------ aborting loop because EDIFF is reached ----------------------------------------

 total charge

# of ion       s       p       d       tot
    1        0.546   0.239   8.770   9.555
    2        0.544   0.242   8.767   9.553
    3        0.544   0.242   8.767   9.553
    4        0.546   0.242   8.766   9.553
    5        0.543   0.242   8.763   9.549
    6        0.546   0.242   8.766   9.553
    7        0.545   0.241   8.766   9.553
    8        0.545   0.241   8.766   9.553
    9        0.542   0.241   8.769   9.552
   10        0.523   0.308   8.773   9.603
   11        0.522   0.309   8.780   9.611
   12        0.523   0.308   8.773   9.603
   13        0.521   0.309   8.779   9.609
   14        0.521   0.309   8.779   9.609
   15        0.516   0.310   8.777   9.603
   16        0.521   0.310   8.772   9.603
   17        0.516   0.310   8.779   9.606
   18        0.516   0.310   8.779   9.606
   19        0.514   0.300   8.780   9.594
   20        0.547   0.330   8.753   9.630
   21        0.547   0.330   8.753   9.630
   22        0.511   0.312   8.776   9.599
   23        0.542   0.336   8.752   9.630
   24        0.511   0.312   8.776   9.599
   25        0.516   0.302   8.776   9.594
   26        0.516   0.302   8.776   9.594
   27        0.511   0.311   8.777   9.599
   28        0.540   0.223   8.771   9.533
   29        0.547   0.233   8.768   9.548
   30        0.547   0.233   8.768   9.548
   31        0.536   0.236   8.781   9.552
   32        0.536   0.236   8.781   9.552
   33        0.545   0.233   8.772   9.549
   34        0.545   0.233   8.772   9.549
   35        0.538   0.223   8.771   9.531
   36        0.353   0.427   6.177   6.956
   37        1.611   3.241   0.000   4.852
   38        1.611   3.241   0.000   4.852
tot         22.202  16.549 313.169 351.919

  FORCE on cell =-STRESS in cart. coord.  units (eV):
  Direction    XX          YY          ZZ          XY          YZ          ZX
  Alpha Z   950.57190   950.57190   950.57190
  Ewald  152936.64718152516.95683************    -0.00029     0.50877    -0.00009
  Hartree161481.23696161275.84134************     0.00002     0.30509    -0.00002
  E(xc)   -1825.27007 -1826.29473 -1832.62987    -0.00000    -0.03261     0.00000
  Local  ************************326361.52165     0.00267    -1.04109    -0.00003
  n-local  -126.92700  -131.54870  -107.67435     4.29301     0.11658     0.14581
  augment  2413.91041  2419.68061  2429.44776    -0.00140     0.13710     0.00005
  Kinetic  5658.26619  5704.64646  5728.19010     0.99760     0.13916     0.13396
  Fock        0.00000     0.00000     0.00000     0.00000     0.00000     0.00000
  Total     -20.78640   -23.25488    -2.26033    -0.00000     0.13300     0.00000
  in kB     -20.36176   -22.77981    -2.21415    -0.00000     0.13028     0.00000

 VOLUME and BASIS-vectors are now :
  energy-cutoff  :      500.00
  volume of cell :     1635.59
      direct lattice vectors                 reciprocal lattice vectors
     8.813512802  0.000000000  0.000000000     0.113462137 -0.065507406  0.000000000
     4.406756909  7.632725690  0.000000000     0.000000000  0.131014796  0.000000000
     0.000000000  0.000000000 24.313408842     0.000000000  0.000000000  0.041129568

  length of vectors
     8.813512802  8.813512802 24.313408842     0.131014796  0.131014796  0.041129568

 FORCES acting on ions
    electron-ion (+dipol)            ewald-force                    non-local-force                 convergence-correction
   -.199E-04 0.828E-01 0.269E+04   0.520E-04 -.290E-01 -.269E+04   -.492E-09 -.738E-02 -.840E+00   -.236E-03 -.456E-01 -.370E+00
   0.695E+00 0.598E+00 0.269E+04   -.744E+00 -.654E+00 -.269E+04   0.551E-02 0.365E-01 -.265E+00   0.467E-01 0.340E-01 -.409E+00
   -.695E+00 0.598E+00 0.269E+04   0.744E+00 -.654E+00 -.269E+04   -.551E-02 0.365E-01 -.265E+00   -.464E-01 0.360E-01 -.408E+00
   0.694E+00 0.275E+00 0.269E+04   -.914E+00 -.332E+00 -.269E+04   0.101E+00 -.211E-01 -.272E+00   0.115E+00 0.650E-01 -.320E+00
   0.825E-05 -.822E-01 0.269E+04   0.951E-04 -.151E-03 -.269E+04   0.177E-08 0.265E-01 -.242E+00   0.428E-02 0.612E-01 -.272E+00
   -.694E+00 0.275E+00 0.269E+04   0.914E+00 -.332E+00 -.269E+04   -.101E+00 -.211E-01 -.272E+00   -.116E+00 0.659E-01 -.319E+00
   0.187E+00 -.844E+00 0.269E+04   -.169E+00 0.986E+00 -.269E+04   -.878E-02 -.425E-01 -.313E+00   0.121E-01 -.100E+00 -.402E+00
   -.187E+00 -.844E+00 0.269E+04   0.168E+00 0.986E+00 -.269E+04   0.878E-02 -.425E-01 -.313E+00   -.103E-01 -.101E+00 -.402E+00
   0.197E-04 0.211E-01 0.269E+04   0.166E-03 0.292E-01 -.269E+04   -.174E-08 -.261E-01 -.506E+00   -.458E-02 -.337E-01 -.405E+00
   0.606E+01 0.355E+01 0.945E+03   -.587E+01 -.362E+01 -.946E+03   -.319E+00 -.102E+00 -.623E+00   0.150E+00 0.183E+00 0.124E+01
   0.182E-04 0.782E+01 0.957E+03   0.147E-03 -.815E+01 -.958E+03   -.108E-08 -.162E-01 -.382E+00   0.403E-02 0.267E+00 0.152E+01
   -.606E+01 0.355E+01 0.945E+03   0.587E+01 -.362E+01 -.946E+03   0.319E+00 -.102E+00 -.623E+00   -.152E+00 0.184E+00 0.124E+01
   0.650E+01 -.392E+01 0.957E+03   -.684E+01 0.411E+01 -.958E+03   0.816E-01 -.447E-01 -.356E+00   0.210E+00 -.131E+00 0.144E+01
   -.650E+01 -.392E+01 0.957E+03   0.684E+01 0.412E+01 -.958E+03   -.816E-01 -.447E-01 -.356E+00   -.202E+00 -.132E+00 0.144E+01
   0.310E-04 0.279E+01 0.948E+03   0.236E-03 -.279E+01 -.948E+03   0.929E-09 0.140E-01 -.594E+00   -.223E-02 -.316E-01 0.109E+01
   -.221E-04 -.698E+01 0.945E+03   0.163E-03 0.684E+01 -.946E+03   0.235E-07 0.354E+00 -.699E+00   -.202E-04 -.236E+00 0.118E+01
   0.257E+01 -.145E+01 0.947E+03   -.254E+01 0.155E+01 -.948E+03   -.329E-01 -.365E-01 -.451E+00   -.228E-01 -.481E-01 0.113E+01
   -.257E+01 -.145E+01 0.947E+03   0.254E+01 0.155E+01 -.948E+03   0.329E-01 -.365E-01 -.451E+00   0.232E-01 -.461E-01 0.113E+01
   -.402E-04 0.490E+01 -.834E+03   0.529E-04 -.527E+01 0.831E+03   0.108E-07 0.163E+00 0.796E+00   -.308E-02 0.169E+00 0.239E+01
   0.372E+02 0.233E+02 -.767E+03   -.379E+02 -.235E+02 0.764E+03   -.971E+00 -.599E+00 -.902E+00   0.160E+01 0.828E+00 0.439E+01
   -.372E+02 0.233E+02 -.767E+03   0.379E+02 -.235E+02 0.764E+03   0.971E+00 -.599E+00 -.902E+00   -.160E+01 0.829E+00 0.439E+01
   0.125E+02 -.873E+01 -.816E+03   -.134E+02 0.929E+01 0.813E+03   0.292E+00 -.209E+00 0.606E+00   0.687E+00 -.385E+00 0.267E+01
   -.635E-05 -.452E+02 -.770E+03   0.143E-03 0.460E+02 0.766E+03   0.702E-07 0.105E+01 -.639E+00   -.227E-02 -.186E+01 0.451E+01
   -.125E+02 -.873E+01 -.816E+03   0.134E+02 0.929E+01 0.813E+03   -.292E+00 -.209E+00 0.606E+00   -.693E+00 -.385E+00 0.267E+01
   -.355E+01 -.138E+01 -.836E+03   0.379E+01 0.155E+01 0.833E+03   -.535E-01 -.665E-01 0.684E+00   -.194E+00 -.818E-01 0.253E+01
   0.355E+01 -.138E+01 -.836E+03   -.379E+01 0.155E+01 0.833E+03   0.535E-01 -.665E-01 0.684E+00   0.189E+00 -.824E-01 0.253E+01
   0.137E-04 0.141E+02 -.818E+03   0.195E-03 -.155E+02 0.815E+03   0.350E-07 0.526E+00 0.698E+00   -.292E-02 0.894E+00 0.276E+01
   -.162E-04 0.559E+01 -.260E+04   0.317E-04 -.544E+01 0.260E+04   -.311E-08 -.467E-01 0.491E+00   0.136E-03 -.115E+00 0.170E+01
   0.555E+02 0.111E+03 -.255E+04   -.565E+02 -.113E+03 0.255E+04   -.564E+00 -.367E+00 0.861E+00   0.132E+01 0.218E+01 0.159E+01
   -.555E+02 0.111E+03 -.255E+04   0.565E+02 -.113E+03 0.255E+04   0.564E+00 -.367E+00 0.861E+00   -.132E+01 0.219E+01 0.159E+01
   0.138E+03 0.119E+01 -.254E+04   -.141E+03 -.111E+01 0.253E+04   -.836E-01 -.553E-01 0.121E+01   0.284E+01 -.180E-01 0.159E+01
   -.138E+03 0.119E+01 -.254E+04   0.141E+03 -.111E+01 0.253E+04   0.836E-01 -.553E-01 0.121E+01   -.284E+01 -.172E-01 0.159E+01
   0.536E+02 -.112E+03 -.255E+04   -.546E+02 0.114E+03 0.255E+04   -.459E+00 0.381E+00 0.879E+00   0.128E+01 -.221E+01 0.158E+01
   -.536E+02 -.112E+03 -.255E+04   0.546E+02 0.114E+03 0.255E+04   0.459E+00 0.381E+00 0.879E+00   -.128E+01 -.221E+01 0.158E+01
   0.349E-04 -.578E+01 -.260E+04   0.139E-03 0.547E+01 0.260E+04   0.895E-08 0.134E+00 0.484E+00   -.424E-02 0.182E+00 0.159E+01
   -.261E-04 -.198E-01 -.148E+04   0.846E-04 -.847E-01 0.148E+04   0.728E-08 0.109E+00 0.263E+01   0.390E-02 0.140E-01 0.186E+01
   0.224E+03 0.103E-01 -.176E+04   -.262E+03 0.435E-01 0.178E+04   0.369E+02 -.646E-01 -.162E+02   0.152E+01 0.172E-01 -.214E+01
   -.224E+03 0.103E-01 -.176E+04   0.262E+03 0.435E-01 0.178E+04   -.369E+02 -.646E-01 -.162E+02   -.152E+01 0.173E-01 -.214E+01
   -.469E-03 0.146E+00 -.180E+02   0.568E-13 0.291E-12 0.568E-11   -.638E-08 -.959E-01 -.290E+02   -.165E-01 -.480E-01 0.473E+02

 POSITION                                       TOTAL-FORCE (eV/Angst)
      0.00000      0.00000      5.28038         0.000000      0.000705     -0.080786
      2.93784      0.00000      5.28038         0.003476      0.015851     -0.018109
      5.87568      0.00000      5.28038        -0.003476      0.015851     -0.018109
      1.46892      2.54424      5.28038        -0.003477     -0.013331     -0.036403
      4.40676      2.54424      5.28038         0.000000      0.005266     -0.061649
      7.34459      2.54424      5.28038         0.003477     -0.013331     -0.036403
      2.93784      5.08848      5.28038         0.020621     -0.001361     -0.022385
      5.87568      5.08848      5.28038        -0.020621     -0.001361     -0.022385
      8.81351      5.08848      5.28038        -0.000000     -0.009635     -0.045125
      1.46892      0.84808      7.67911         0.028386      0.013987      0.087004
      4.40676      0.84808      7.67911        -0.000000     -0.075602     -0.030500
      7.34459      0.84808      7.67911        -0.028386      0.013987      0.087004
      2.93784      3.39232      7.67911        -0.046945      0.018979     -0.007035
      5.87568      3.39232      7.67911         0.046945      0.018979     -0.007035
      8.81351      3.39232      7.67911        -0.000000     -0.014892      0.069901
      4.40676      5.93656      7.67911        -0.000000     -0.027488      0.102607
      7.34459      5.93656      7.67911        -0.024932      0.018237      0.063153
     10.28243      5.93656      7.67911         0.024932      0.018237      0.063153
      8.81351      1.69603     10.07519        -0.000000     -0.037339      0.023319
      2.95264      1.70471     10.05068        -0.079860     -0.014966     -0.054707
      5.86088      1.70471     10.05068         0.079860     -0.014966     -0.054707
     10.26798      4.24875     10.06116         0.074375     -0.030675      0.036270
      4.40676      4.22331     10.05068         0.000000      0.023277     -0.057346
      7.35905      4.24875     10.06116        -0.074375     -0.030675      0.036270
     11.75147      6.78471     10.07519        -0.003929      0.013219      0.030383
      5.87556      6.78471     10.07519         0.003929      0.013219      0.030383
      8.81351      6.76796     10.06116         0.000000      0.056727      0.044800
      0.00000      0.00000     12.48698        -0.000000     -0.012122     -0.055363
      2.98147      0.07441     12.46921        -0.186922     -0.414656     -0.257681
      5.83205      0.07441     12.46921         0.186922     -0.414656     -0.257681
      1.55518      2.54482     12.46921        -0.946813      0.016279     -0.500756
      7.25833      2.54482     12.46921         0.946813      0.016279     -0.500756
      2.98047      5.01349     12.46921        -0.221082      0.407726     -0.228921
      5.83305      5.01349     12.46921         0.221082      0.407726     -0.228921
      8.81351      5.08848     12.49182         0.000000      0.000961     -0.012677
      4.40676      2.54424     12.16047         0.000000      0.018740      1.982302
      3.71851      2.54469     13.93731         0.137263      0.006412     -0.030553
      5.09500      2.54469     13.93731        -0.137263      0.006412     -0.030553
    total drift:                               -0.016958      0.002085      0.269103

  FREE ENERGIE OF THE ION-ELECTRON SYSTEM (eV)
  free  energy   TOTEN  =      -123.50968158 eV

  energy  without entropy=     -123.50968158  energy(sigma->0) =     -123.50968158

 stress matrix after NEB project (eV)
    -20.78640     -0.00000      0.00000
     -0.00000    -23.25488      0.13300
      0.00000      0.13300     -2.26033
  FORCES: max atom, RMS     0.140769    0.032295
  FORCE total and by dimension    0.199077    0.137263
  Stress total and by dimension   31.273123   23.254876
|           W    W    AA    RRRRR   N    N  II  N    N   GGGG   !!!           |
|           W    W   A  A   R    R  NN   N  II  NN   N  G    G  !!!           |
|           W    W  A    A  R    R  N N  N  II  N N  N  G       !!!           |
|           W WW W  AAAAAA  RRRRR   N  N N  II  N  N N  G  GGG   !            |
|           WW  WW  A    A  R   R   N   NN  II  N   NN  G    G                |
|           W    W  A    A  R    R  N    N  II  N    N   GGGG   !!!           |
|     Tetrahedron method does not include variations of the Fermi             |
|     occupations, so forces and stress will be inaccurate. We suggest        |
|     using a different smearing scheme ISMEAR = 1 or 2 for metals in         |
|     relaxations.                                                            |

 total charge

# of ion       s       p       d       tot
    1        0.546   0.239   8.770   9.555
    2        0.544   0.242   8.767   9.553
    3        0.544   0.242   8.767   9.553
    4        0.546   0.242   8.766   9.553
    5        0.543   0.242   8.763   9.549
    6        0.546   0.242   8.766   9.553
    7        0.545   0.241   8.766   9.553
    8        0.545   0.241   8.766   9.553
    9        0.542   0.241   8.769   9.552
   10        0.523   0.308   8.773   9.603
   11        0.522   0.309   8.780   9.611
   12        0.523   0.308   8.773   9.603
   13        0.521   0.309   8.779   9.609
   14        0.521   0.309   8.779   9.609
   15        0.516   0.310   8.777   9.603
   16        0.521   0.310   8.772   9.603
   17        0.516   0.310   8.779   9.606
   18        0.516   0.310   8.779   9.606
   19        0.514   0.300   8.780   9.594
   20        0.547   0.330   8.753   9.630
   21        0.547   0.330   8.753   9.630
   22        0.511   0.312   8.776   9.599
   23        0.542   0.336   8.752   9.630
   24        0.511   0.312   8.776   9.599
   25        0.516   0.302   8.776   9.594
   26        0.516   0.302   8.776   9.594
   27        0.511   0.311   8.777   9.599
   28        0.540   0.223   8.771   9.533
   29        0.547   0.233   8.768   9.548
   30        0.547   0.233   8.768   9.548
   31        0.536   0.236   8.781   9.552
   32        0.536   0.236   8.781   9.552
   33        0.545   0.233   8.772   9.549
   34        0.545   0.233   8.772   9.549
   35        0.538   0.223   8.771   9.531
   36        0.353   0.427   6.177   6.956
   37        1.611   3.241   0.000   4.852
   38        1.611   3.241   0.000   4.852
tot         22.202  16.549 313.169 351.919

 BZINTS: Fermi energy:    0.154139;  405.000000 electrons
         Band energy:-0.150085E+04;  BLOECHL correction:   -0.047338