 vasp.6.2.0 18Jan21 (build Jun 12 2021 23:27:24) complex

 executed on             LinuxIFC date 2022.05.30  15:54:25

 INCAR:
   ISMEAR = -5
   SIGMA = 0.1
   ISPIN = 1
   EDIFF = 1.d-5
   EDIFFG = -0.01
   NSW = 0
   NELM = 150
   ENCUT = 500
   ISIF = 2
   IBRION = 2
   LREAL = Auto
   ALGO = Fast
   ICHARG = 11
   LORBIT = 10
   LCHARG = .F.
   LWAVE = .F.

 POTCAR:    PAW_PBE Au 04Oct2007
 POTCAR:    PAW_PBE Fe 06Sep2000
 POTCAR:    PAW_PBE C 08Apr2002
 POTCAR:    PAW_PBE O 08Apr2002
 POTCAR:    PAW_PBE H 15Jun2001
|           W    W    AA    RRRRR   N    N  II  N    N   GGGG   !!!           |
|           W    W   A  A   R    R  NN   N  II  NN   N  G    G  !!!           |
|           W    W  A    A  R    R  N N  N  II  N N  N  G       !!!           |
|           W WW W  AAAAAA  RRRRR   N  N N  II  N  N N  G  GGG   !            |
|           WW  WW  A    A  R   R   N   NN  II  N   NN  G    G                |
|           W    W  A    A  R    R  N    N  II  N    N   GGGG   !!!           |
|     For optimal performance we recommend to set                             |
|       NCORE = 2 up to number-of-cores-per-socket                            |
|     This setting can greatly improve the performance of VASP for DFT.       |
|     The default, NCORE=1 might be grossly inefficient on modern             |
|     multi-core architectures or massively parallel machines. Do your        |
|     Unfortunately you need to use the default for GW and RPA                |
|     calculations (for HF NCORE is supported but not extensively tested      |
|     yet).                                                                   |

 POTCAR:    PAW_PBE Au 04Oct2007
   VRHFIN =Au: s1d10

   TITEL  = PAW_PBE Au 04Oct2007
   POMASS =  196.966; ZVAL   =   11.000    mass and valenz
   ENMAX  =  229.943; ENMIN  =  172.457 eV

 POTCAR:    PAW_PBE Fe 06Sep2000
   VRHFIN =Fe:  d7 s1

   TITEL  = PAW_PBE Fe 06Sep2000
   POMASS =   55.847; ZVAL   =    8.000    mass and valenz
   ENMAX  =  267.882; ENMIN  =  200.911 eV

 POTCAR:    PAW_PBE C 08Apr2002
   VRHFIN =C: s2p2

   TITEL  = PAW_PBE C 08Apr2002
   POMASS =   12.011; ZVAL   =    4.000    mass and valenz
   ENMAX  =  400.000; ENMIN  =  300.000 eV

 POTCAR:    PAW_PBE O 08Apr2002
   VRHFIN =O: s2p4

   TITEL  = PAW_PBE O 08Apr2002
   POMASS =   16.000; ZVAL   =    6.000    mass and valenz
   ENMAX  =  400.000; ENMIN  =  300.000 eV

 POTCAR:    PAW_PBE H 15Jun2001
   VRHFIN =H: ultrasoft test

   TITEL  = PAW_PBE H 15Jun2001
   POMASS =    1.000; ZVAL   =    1.000    mass and valenz
   ENMAX  =  250.000; ENMIN  =  200.000 eV

 Optimization of the real space projectors (new method)

 maximal supplied QI-value         = 15.12
 optimisation between [QCUT,QGAM] = [ 11.34, 22.83] = [ 36.00,145.93] Ry
 Optimized for a Real-space Cutoff    1.39 Angstroem

   l    n(q)    QCUT    max X(q) W(low)/X(q) W(high)/X(q)  e(spline)
   2      9    11.338    60.898    0.39E-03    0.42E-03    0.21E-06
   2      9    11.338    58.894    0.40E-03    0.42E-03    0.22E-06
   0      9    11.338   109.617    0.13E-03    0.20E-04    0.13E-06
   0      9    11.338    75.026    0.13E-03    0.20E-04    0.13E-06
   1      9    11.338    16.344    0.33E-04    0.24E-03    0.18E-06
   1      9    11.338    10.160    0.26E-04    0.19E-03    0.15E-06
 Optimization of the real space projectors (new method)

[...]

   l    n(q)    QCUT    max X(q) W(low)/X(q) W(high)/X(q)  e(spline)
   0      7    11.387    20.381    0.39E-03    0.13E-02    0.15E-06
   0      7    11.387    15.268    0.42E-03    0.14E-02    0.17E-06
   1      6    11.387     5.964    0.41E-03    0.11E-02    0.17E-06
   1      6    11.387     5.382    0.39E-03    0.87E-03    0.15E-06
 Optimization of the real space projectors (new method)

 maximal supplied QI-value         = 34.20
 optimisation between [QCUT,QGAM] = [ 11.29, 22.57] = [ 35.68,142.71] Ry
 Optimized for a Real-space Cutoff    1.16 Angstroem

   l    n(q)    QCUT    max X(q) W(low)/X(q) W(high)/X(q)  e(spline)
   0      8    11.287    19.460    0.40E-03    0.73E-03    0.16E-06
   0      8    11.287    12.209    0.38E-03    0.70E-03    0.15E-06
   1      7    11.287     4.655    0.22E-03    0.25E-04    0.22E-06
  PAW_PBE Au 04Oct2007                  :
  PAW_PBE Fe 06Sep2000                  :
  PAW_PBE C 08Apr2002                   :
  PAW_PBE O 08Apr2002                   :
  PAW_PBE H 15Jun2001                   :

 POSCAR: Au-Fe-COH
  positions in direct lattice
  velocities in cartesian coordinates
 exchange correlation table for  LEXCH =        8
   RHO(1)=    0.500       N(1)  =     2000
   RHO(2)=  100.500       N(2)  =     4000

 VTST: version 3.2, (02/03/18)

 CHAIN: initializing optimizer

 OPT: Using VASP Conjugate-Gradient optimizer
 CHAIN: Read ICHAIN            0

 POSCAR: Au-Fe-COH
  positions in direct lattice
  velocities in cartesian coordinates

 ion  position               nearest neighbor table
   1  0.000  0.000  0.197-  16 2.94  12 2.94   6 2.94   8 2.94   7 2.94   3 2.94  10 2.94   4 2.94
                             2 2.94
   2  0.333  0.000  0.197-   9 2.94  11 2.94  17 2.94  10 2.94   8 2.94   4 2.94   5 2.94   1 2.94
                             3 2.94
   3  0.667  0.000  0.197-   7 2.94  18 2.94  12 2.94   1 2.94  11 2.94   5 2.94   6 2.94   9 2.94
                             2 2.94
   4  0.000  0.333  0.197-  10 2.94   6 2.94   5 2.94  13 2.94   2 2.94  15 2.94   9 2.94   1 2.94
                             7 2.94
   5  0.333  0.333  0.197-  13 2.94   7 2.94  11 2.94   4 2.94   2 2.94  14 2.94   3 2.94   8 2.94
                             6 2.94
   6  0.667  0.333  0.197-  15 2.94  14 2.94   1 2.94  12 2.94   4 2.94   9 2.94   8 2.94   3 2.94
                             5 2.94
   7  0.000  0.667  0.197-  18 2.94   3 2.94  16 2.94   5 2.94   1 2.94  13 2.94   8 2.94   4 2.94
                             9 2.94
   8  0.333  0.667  0.197-   9 2.94  17 2.94   1 2.94   2 2.94  14 2.94  16 2.94   6 2.94   7 2.94
                             5 2.94
   9  0.667  0.667  0.197-   2 2.94   8 2.94  17 2.94   6 2.94  15 2.94   4 2.94   3 2.94  18 2.94
                             7 2.94
  10  0.111  0.111  0.287-  20 2.93  26 2.94  19 2.94  11 2.94  17 2.94   2 2.94   4 2.94   1 2.94
                            12 2.94  16 2.94  13 2.94  15 2.94
  11  0.444  0.111  0.287-  20 2.91  21 2.91  27 2.93  13 2.94   2 2.94  10 2.94  17 2.94   5 2.94
                             3 2.94  18 2.94  14 2.94  12 2.94
  12  0.778  0.111  0.287-  21 2.93  25 2.94  19 2.94  16 2.94  18 2.94   1 2.94  14 2.94  15 2.94
                             3 2.94   6 2.94  10 2.94  11 2.94
  13  0.111  0.444  0.287-  23 2.91  20 2.91  22 2.93   5 2.94  18 2.94  11 2.94   7 2.94   4 2.94
                            16 2.94  10 2.94  14 2.94  15 2.94
  14  0.444  0.444  0.287-  21 2.91  23 2.91  24 2.93  15 2.94   6 2.94  12 2.94   8 2.94  17 2.94
                             5 2.94  16 2.94  13 2.94  11 2.94
  15  0.778  0.444  0.287-  24 2.92  22 2.92  19 2.94  14 2.94   6 2.94  17 2.94  12 2.94   9 2.94
                             4 2.94  10 2.94  13 2.94  18 2.94
  16  0.111  0.778  0.287-  23 2.93  25 2.94  26 2.94  18 2.94  12 2.94   7 2.94   1 2.94   8 2.94
                            13 2.94  10 2.94  14 2.94  17 2.94
  17  0.444  0.778  0.287-  27 2.92  24 2.92  26 2.94   9 2.94  15 2.94   2 2.94  10 2.94  11 2.94
                             8 2.94  14 2.94  16 2.94  18 2.94
  18  0.778  0.778  0.287-  22 2.92  27 2.92  25 2.94  16 2.94   7 2.94  13 2.94  12 2.94   3 2.94
                            11 2.94   9 2.94  15 2.94  17 2.94
  19  0.889  0.222  0.377-  10 2.94  12 2.94  15 2.94  26 2.94  25 2.94  24 2.94  22 2.94  28 2.95
                            21 2.95  20 2.95  32 2.98  31 2.98
  20  0.223  0.223  0.376-  36 2.70  23 2.91  21 2.91  11 2.91  13 2.91  29 2.92  31 2.92  10 2.93
                            27 2.95  22 2.95  26 2.95  19 2.95
  21  0.553  0.223  0.376-  36 2.70  20 2.91  23 2.91  14 2.91  11 2.91  30 2.92  32 2.92  12 2.93
                            27 2.95  24 2.95  25 2.95  19 2.95
  22  0.887  0.557  0.376-  24 2.91  27 2.91  18 2.92  15 2.92  13 2.93  25 2.94  19 2.94  33 2.95
                            31 2.95  23 2.95  20 2.95  35 2.95
  23  0.223  0.553  0.376-  36 2.70  20 2.91  21 2.91  13 2.91  14 2.91  33 2.92  34 2.92  16 2.93
                            22 2.95  24 2.95  25 2.95  26 2.95
  24  0.557  0.557  0.376-  27 2.91  22 2.91  15 2.92  17 2.92  14 2.93  26 2.94  19 2.94  32 2.95
                            34 2.95  21 2.95  23 2.95  35 2.95
  25  0.889  0.889  0.377-  16 2.94  12 2.94  18 2.94  19 2.94  26 2.94  22 2.94  27 2.94  28 2.95
                            23 2.95  21 2.95  33 2.98  30 2.98
  26  0.222  0.889  0.377-  10 2.94  16 2.94  17 2.94  19 2.94  25 2.94  27 2.94  24 2.94  28 2.95
                            20 2.95  23 2.95  29 2.98  34 2.98
  27  0.557  0.887  0.376-  24 2.91  22 2.91  17 2.92  18 2.92  11 2.93  26 2.94  25 2.94  29 2.95
                            30 2.95  20 2.95  21 2.95  35 2.95
  28  0.000  0.000  0.467-  25 2.95  19 2.95  26 2.95  34 2.98  32 2.98  33 2.98  30 2.98  31 2.98
                            29 2.98
  29  0.333  0.010  0.466-  30 2.85  31 2.85  36 2.87  20 2.92  27 2.95  26 2.98  35 2.98  28 2.98
                            34 3.11
  30  0.657  0.010  0.466-  29 2.85  32 2.85  36 2.87  21 2.92  27 2.95  25 2.98  35 2.98  28 2.98
                            33 3.11
  31  0.010  0.333  0.466-  33 2.85  29 2.85  36 2.87  20 2.92  22 2.95  19 2.98  35 2.98  28 2.98
                            32 3.11
  32  0.657  0.333  0.466-  34 2.85  30 2.85  36 2.87  21 2.92  24 2.95  19 2.98  35 2.98  28 2.98
                            31 3.11
  33  0.010  0.657  0.466-  31 2.85  34 2.85  36 2.87  23 2.92  22 2.95  25 2.98  35 2.98  28 2.98
                            30 3.11
  34  0.333  0.657  0.466-  32 2.85  33 2.85  36 2.87  23 2.92  24 2.95  26 2.98  35 2.98  28 2.98
                            29 3.11
  35  0.667  0.667  0.467-  24 2.95  27 2.95  22 2.95  29 2.98  34 2.98  32 2.98  31 2.98  30 2.98
                            33 2.98
  36  0.333  0.333  0.455-  37 1.65  20 2.70  23 2.70  21 2.70  33 2.87  31 2.87  29 2.87  30 2.87
                            34 2.87  32 2.87
  37  0.333  0.333  0.516-  38 1.25  36 1.65
  38  0.333  0.333  0.563-  39 0.96  37 1.25
  39  0.333  0.333  0.599-  38 0.96

  LATTYP: Found a hexagonal cell.
 ALAT       =     8.8135128021
 C/A-ratio  =     3.0356784858

  Lattice vectors:

 A1 = (  -4.4067569092,  -7.6327256898,   0.0000000000)
 A2 = (   8.8135128021,   0.0000000000,   0.0000000000)
 A3 = (   0.0000000000,   0.0000000000,  26.7549911976)

Analysis of symmetry for initial positions (statically):
 Subroutine PRICEL returns:
 Original cell was already a primitive cell.

 Routine SETGRP: Setting up the symmetry group for a
 hexagonal supercell.

 Subroutine GETGRP returns: Found  6 space group operations
 (whereof  6 operations were pure point group operations)
 out of a pool of 24 trial point group operations.

The static configuration has the point symmetry C_3v.

Analysis of symmetry for dynamics (positions and initial velocities):
[...]
     41      -4.9480      2.00000
     42      -4.9433      2.00000
     43      -4.9194      2.00000
     44      -4.8696      2.00000
     45      -4.8027      2.00000
     46      -4.7794      2.00000
     47      -4.7178      2.00000
     48      -4.6952      2.00000
     49      -4.6892      2.00000
     50      -4.6807      2.00000
     51      -4.5736      2.00000
     52      -4.5603      2.00000
     53      -4.5257      2.00000
     54      -4.5115      2.00000
     55      -4.5048      2.00000
     56      -4.5002      2.00000
     57      -4.4804      2.00000
     58      -4.4467      2.00000
     59      -4.4084      2.00000
     60      -4.3766      2.00000
[...]
    238       5.2338      0.00000
    239       5.2765      0.00000
    240       5.4281      0.00000
    241       5.5404      0.00000
    242       5.6277      0.00000
    243       5.8829      0.00000
    244       5.8918      0.00000
    245       5.9744      0.00000
    246       6.0124      0.00000
    247       6.0709      0.00000
    248       6.0920      0.00000
    249       6.1165      0.00000
    250       6.1374      0.00000
    251       6.3169      0.00000
    252       6.3549      0.00000

 soft charge-density along one line, spin component           1
         0         1         2         3         4         5         6         7         8         9
 total charge-density along one line

------------------------ aborting loop because EDIFF is reached ----------------------------------------

 total charge

# of ion       s       p       d       tot
    1        0.546   0.239   8.768   9.553
    2        0.545   0.241   8.764   9.551
    3        0.545   0.241   8.764   9.551
    4        0.545   0.241   8.764   9.551
    5        0.544   0.242   8.762   9.548
    6        0.545   0.241   8.764   9.551
    7        0.545   0.241   8.764   9.551
    8        0.545   0.241   8.764   9.551
    9        0.542   0.240   8.769   9.551
   10        0.520   0.307   8.770   9.598
   11        0.522   0.307   8.778   9.608
   12        0.520   0.307   8.770   9.598
   13        0.522   0.307   8.778   9.608
   14        0.522   0.307   8.778   9.608
   15        0.514   0.310   8.773   9.598
   16        0.520   0.307   8.770   9.598
   17        0.514   0.310   8.773   9.598
   18        0.514   0.310   8.773   9.598
   19        0.518   0.299   8.774   9.592
   20        0.547   0.330   8.753   9.630
   21        0.547   0.330   8.753   9.630
   22        0.511   0.312   8.772   9.595
   23        0.547   0.330   8.753   9.630
   24        0.511   0.312   8.772   9.595
   25        0.518   0.299   8.774   9.592
   26        0.518   0.299   8.774   9.592
   27        0.511   0.312   8.772   9.595
   28        0.543   0.225   8.767   9.535
   29        0.545   0.244   8.764   9.552
   30        0.545   0.244   8.764   9.552
   31        0.545   0.244   8.764   9.552
   32        0.545   0.244   8.764   9.552
   33        0.545   0.244   8.764   9.552
   34        0.545   0.244   8.764   9.552
   35        0.541   0.225   8.769   9.535
   36        0.421   0.534   6.451   7.407
   37        0.936   1.445   0.000   2.381
   38        1.527   3.767   0.000   5.294
   39        0.557   0.134   0.000   0.691
tot         22.093  15.561 313.317 350.971

  FORCE on cell =-STRESS in cart. coord.  units (eV):
  Direction    XX          YY          ZZ          XY          YZ          ZX
  Alpha Z   861.65078   861.65078   861.65078
  Ewald  188267.43456188267.43502************    -0.00031    -0.00008    -0.00012
  Hartree196884.98318196884.98320************     0.00001    -0.00002    -0.00003
  E(xc)   -1814.83274 -1814.83290 -1820.18426     0.00014    -0.00002    -0.00003
  Local  ************************397292.79236     0.00221     0.00000    -0.00004
  n-local  -134.66493   -89.09148   -88.24722    21.89366    -1.38925     1.39762
  augment  2414.24552  2414.24713  2419.43091    -0.00139    -0.00000     0.00004
  Kinetic  5637.83196  5648.23397  5619.35991     5.73630     0.10570     0.25637
  Fock        0.00000     0.00000     0.00000     0.00000     0.00000     0.00000
  Total     -21.38322   -21.38321     0.97885    -0.00000     0.00000    -0.00000
  in kB     -19.03488   -19.03488     0.87135    -0.00000     0.00000    -0.00000

 VOLUME and BASIS-vectors are now :
  energy-cutoff  :      500.00
  volume of cell :     1799.84
      direct lattice vectors                 reciprocal lattice vectors
     8.813512802  0.000000000  0.000000000     0.113462137 -0.065507406  0.000000000
     4.406756909  7.632725690  0.000000000     0.000000000  0.131014796  0.000000000
     0.000000000  0.000000000 26.754991198     0.000000000  0.000000000  0.037376204

  length of vectors
     8.813512802  8.813512802 26.754991198     0.131014796  0.131014796  0.037376204

 FORCES acting on ions
    electron-ion (+dipol)            ewald-force                    non-local-force                 convergence-correction
   -.200E-04 -.165E-04 0.284E+04   0.519E-04 0.434E-04 -.284E+04   -.569E-17 -.108E-17 -.870E+00   -.238E-03 -.151E-03 -.212E+00
   0.570E+00 0.423E+00 0.284E+04   -.680E+00 -.513E+00 -.284E+04   0.388E-01 0.727E-01 -.288E+00   0.674E-01 0.305E-01 -.280E+00
   -.571E+00 0.423E+00 0.284E+04   0.680E+00 -.513E+00 -.284E+04   -.388E-01 0.727E-01 -.288E+00   -.671E-01 0.324E-01 -.279E+00
   0.651E+00 0.283E+00 0.284E+04   -.785E+00 -.332E+00 -.284E+04   0.823E-01 -.270E-02 -.288E+00   0.602E-01 0.431E-01 -.280E+00
   0.110E-04 -.219E-04 0.284E+04   0.951E-04 0.173E-05 -.284E+04   -.714E-17 0.113E-17 -.149E+00   0.428E-02 0.260E-02 -.292E+00
   -.651E+00 0.283E+00 0.284E+04   0.785E+00 -.332E+00 -.284E+04   -.823E-01 -.270E-02 -.288E+00   -.617E-01 0.440E-01 -.279E+00
   0.808E-01 -.705E+00 0.284E+04   -.105E+00 0.846E+00 -.284E+04   0.435E-01 -.700E-01 -.288E+00   -.541E-02 -.743E-01 -.279E+00
   -.808E-01 -.705E+00 0.284E+04   0.104E+00 0.846E+00 -.284E+04   -.435E-01 -.700E-01 -.288E+00   0.725E-02 -.754E-01 -.279E+00
   0.198E-04 -.414E-04 0.284E+04   0.166E-03 -.201E-04 -.284E+04   -.990E-19 -.733E-18 -.571E+00   -.459E-02 -.237E-02 -.270E+00
   0.545E+01 0.315E+01 0.989E+03   -.517E+01 -.298E+01 -.988E+03   -.293E+00 -.169E+00 -.587E+00   0.259E-01 0.148E-01 -.131E-01
   0.157E-04 0.685E+01 0.999E+03   0.147E-03 -.688E+01 -.999E+03   0.318E-08 0.478E-01 -.307E+00   0.405E-02 -.577E-01 -.259E-01
   -.545E+01 0.315E+01 0.989E+03   0.517E+01 -.298E+01 -.988E+03   0.293E+00 -.169E+00 -.587E+00   -.273E-01 0.160E-01 -.132E-01
   0.593E+01 -.342E+01 0.999E+03   -.596E+01 0.344E+01 -.999E+03   0.414E-01 -.239E-01 -.307E+00   -.476E-01 0.326E-01 -.259E-01
   -.593E+01 -.342E+01 0.999E+03   0.596E+01 0.344E+01 -.999E+03   -.414E-01 -.239E-01 -.307E+00   0.553E-01 0.318E-01 -.266E-01
   0.310E-04 0.308E+01 0.992E+03   0.236E-03 -.311E+01 -.991E+03   -.951E-09 -.143E-01 -.506E+00   -.224E-02 0.132E-01 -.369E-01
   -.212E-04 -.630E+01 0.989E+03   0.163E-03 0.597E+01 -.988E+03   0.225E-07 0.338E+00 -.587E+00   -.171E-04 -.316E-01 -.132E-01
   0.267E+01 -.154E+01 0.992E+03   -.269E+01 0.155E+01 -.991E+03   -.124E-01 0.714E-02 -.506E+00   0.106E-01 -.812E-02 -.369E-01
   -.267E+01 -.154E+01 0.992E+03   0.269E+01 0.155E+01 -.991E+03   0.124E-01 0.714E-02 -.506E+00   -.102E-01 -.612E-02 -.363E-01
   -.417E-04 0.326E+01 -.896E+03   0.536E-04 -.333E+01 0.895E+03   0.245E-08 0.368E-01 0.654E+00   -.318E-02 0.304E-01 0.192E+00
   0.324E+02 0.187E+02 -.840E+03   -.315E+02 -.182E+02 0.840E+03   -.102E+01 -.589E+00 -.103E+01   0.134E+00 0.772E-01 0.422E+00
   -.324E+02 0.187E+02 -.840E+03   0.315E+02 -.182E+02 0.840E+03   0.102E+01 -.589E+00 -.103E+01   -.138E+00 0.776E-01 0.422E+00
   0.840E+01 -.485E+01 -.879E+03   -.876E+01 0.506E+01 0.878E+03   0.317E+00 -.183E+00 0.527E+00   0.848E-01 -.517E-01 0.156E+00
   -.115E-04 -.374E+02 -.840E+03   0.143E-03 0.364E+02 0.840E+03   0.784E-07 0.118E+01 -.103E+01   -.218E-02 -.159E+00 0.422E+00
   -.840E+01 -.485E+01 -.879E+03   0.876E+01 0.506E+01 0.878E+03   -.317E+00 -.183E+00 0.527E+00   -.901E-01 -.520E-01 0.156E+00
   -.282E+01 -.163E+01 -.896E+03   0.288E+01 0.166E+01 0.895E+03   -.319E-01 -.184E-01 0.654E+00   -.297E-01 -.172E-01 0.191E+00
   0.282E+01 -.163E+01 -.896E+03   -.288E+01 0.166E+01 0.895E+03   0.319E-01 -.184E-01 0.654E+00   0.250E-01 -.179E-01 0.192E+00
   0.105E-04 0.970E+01 -.879E+03   0.196E-03 -.101E+02 0.878E+03   0.244E-07 0.366E+00 0.527E+00   -.290E-02 0.993E-01 0.156E+00
   -.148E-04 -.148E-04 -.275E+04   0.310E-04 0.359E-04 0.275E+04   -.348E-18 -.171E-19 0.295E+00   -.512E-04 -.484E-04 0.250E+00
   0.442E+02 0.743E+02 -.271E+04   -.441E+02 -.742E+02 0.271E+04   -.407E+00 -.618E+00 0.452E+00   0.151E+00 0.254E+00 0.257E+00
   -.442E+02 0.743E+02 -.271E+04   0.441E+02 -.742E+02 0.271E+04   0.407E+00 -.618E+00 0.452E+00   -.150E+00 0.255E+00 0.257E+00
   0.865E+02 0.116E+01 -.271E+04   -.863E+02 -.110E+01 0.271E+04   -.739E+00 -.440E-01 0.452E+00   0.295E+00 0.343E-02 0.257E+00
   -.865E+02 0.116E+01 -.271E+04   0.863E+02 -.110E+01 0.271E+04   0.739E+00 -.440E-01 0.452E+00   -.296E+00 0.423E-02 0.257E+00
   0.422E+02 -.755E+02 -.271E+04   -.422E+02 0.753E+02 0.271E+04   -.331E+00 0.662E+00 0.452E+00   0.146E+00 -.258E+00 0.257E+00
   -.422E+02 -.755E+02 -.271E+04   0.422E+02 0.753E+02 0.271E+04   0.331E+00 0.662E+00 0.452E+00   -.144E+00 -.259E+00 0.257E+00
   0.357E-04 -.263E-04 -.275E+04   0.140E-03 -.513E-04 0.275E+04   0.156E-16 -.534E-17 0.354E+00   -.443E-02 -.227E-02 0.318E+00
   -.321E-04 -.189E-04 -.168E+04   0.846E-04 0.789E-05 0.167E+04   0.141E-17 0.141E-17 0.209E+01   0.480E-02 0.293E-02 0.311E+00
   -.577E-05 -.780E-04 -.108E+04   0.183E-04 0.117E-05 0.106E+04   -.457E-19 0.484E-19 0.205E+02   0.127E-02 0.775E-03 -.242E+00
   0.245E-03 -.889E-04 -.180E+04   0.654E-05 0.622E-06 0.180E+04   0.138E-18 0.170E-18 -.645E+01   0.388E-02 0.238E-02 -.164E+00
   0.614E-05 -.145E-04 -.342E+03   0.288E-06 0.465E-07 0.350E+03   -.105E-19 -.549E-21 -.860E+01   0.204E-03 0.125E-03 -.185E-01
   -.526E-03 -.957E-03 -.511E+01   0.503E-13 -.107E-12 -.608E-11   -.205E-15 0.329E-15 0.380E+01   -.730E-02 -.335E-02 0.163E+01

 POSITION                                       TOTAL-FORCE (eV/Angst)
      0.00000      0.00000      5.28038        -0.000000      0.000000     -0.101425
      2.93784      0.00000      5.28038        -0.003003      0.013449     -0.035502
      5.87568      0.00000      5.28038         0.003003      0.013449     -0.035502
      1.46892      2.54424      5.28038         0.010146     -0.009325     -0.035502
      4.40676      2.54424      5.28038        -0.000000      0.000000     -0.046893
      7.34459      2.54424      5.28038        -0.010146     -0.009325     -0.035502
      2.93784      5.08848      5.28038         0.013149     -0.004124     -0.035502
      5.87568      5.08848      5.28038        -0.013149     -0.004124     -0.035502
      8.81351      5.08848      5.28038        -0.000000      0.000000     -0.046854
      1.46892      0.84808      7.67911         0.018202      0.010509      0.150049
      4.40676      0.84808      7.67911        -0.000000     -0.045234      0.053717
      7.34459      0.84808      7.67911        -0.018202      0.010509      0.150049
      2.93784      3.39232      7.67911        -0.039174      0.022617      0.053717
      5.87568      3.39232      7.67911         0.039174      0.022617      0.053717
      8.81351      3.39232      7.67911        -0.000000     -0.030608      0.125917
      4.40676      5.93656      7.67911        -0.000000     -0.021018      0.150049
      7.34459      5.93656      7.67911        -0.026507      0.015304      0.125917
     10.28243      5.93656      7.67911         0.026507      0.015304      0.125917
      8.81351      1.69603     10.07519        -0.000000     -0.002815      0.002166
      2.95264      1.70471     10.05068        -0.046541     -0.026871     -0.163979
      5.86088      1.70471     10.05068         0.046541     -0.026871     -0.163979
     10.26798      4.24875     10.06116         0.052527     -0.030327     -0.003466
      4.40676      4.22331     10.05068         0.000000      0.053741     -0.163979
      7.35905      4.24875     10.06116        -0.052527     -0.030327     -0.003466
     11.75147      6.78471     10.07519         0.002438      0.001408      0.002166
      5.87556      6.78471     10.07519        -0.002438      0.001408      0.002166
      8.81351      6.76796     10.06116         0.000000      0.060653     -0.003466
      0.00000      0.00000     12.48698        -0.000000      0.000000     -0.096893
      2.98147      0.07441     12.46921        -0.113911     -0.242857     -0.125995
      5.83205      0.07441     12.46921         0.113911     -0.242857     -0.125995
      1.55518      2.54482     12.46921        -0.267276      0.022779     -0.125995
      7.25833      2.54482     12.46921         0.267276      0.022779     -0.125995
      2.98047      5.01349     12.46921        -0.153365      0.220078     -0.125995
      5.83305      5.01349     12.46921         0.153365      0.220078     -0.125995
      8.81351      5.08848     12.49182        -0.000000      0.000000     -0.076739
      4.40676      2.54424     12.16047        -0.000000      0.000000      0.820507
      4.40676      2.54424     13.81137        -0.000000      0.000000      0.052988
      4.40676      2.54424     15.06145        -0.000000      0.000000     -0.030960
      4.40676      2.54424     16.02179        -0.000000      0.000000      0.002036
    total drift:                               -0.007823     -0.004308      0.317130

  FREE ENERGIE OF THE ION-ELECTRON SYSTEM (eV)
  free  energy   TOTEN  =      -131.23453702 eV

  energy  without entropy=     -131.23453702  energy(sigma->0) =     -131.23453702

 stress matrix after NEB project (eV)
    -21.38322     -0.00000     -0.00000
     -0.00000    -21.38321     -0.00000
      0.00000      0.00000      0.97885
  FORCES: max atom, RMS     0.052988    0.009832
  FORCE total and by dimension    0.061404    0.052988
  Stress total and by dimension   30.256270   21.383215
|           W    W    AA    RRRRR   N    N  II  N    N   GGGG   !!!           |
|           W    W   A  A   R    R  NN   N  II  NN   N  G    G  !!!           |
|           W    W  A    A  R    R  N N  N  II  N N  N  G       !!!           |
|           W WW W  AAAAAA  RRRRR   N  N N  II  N  N N  G  GGG   !            |
|           WW  WW  A    A  R   R   N   NN  II  N   NN  G    G                |
|           W    W  A    A  R    R  N    N  II  N    N   GGGG   !!!           |
|     Tetrahedron method does not include variations of the Fermi             |
|     occupations, so forces and stress will be inaccurate. We suggest        |
|     using a different smearing scheme ISMEAR = 1 or 2 for metals in         |
|     relaxations.                                                            |

 total charge

# of ion       s       p       d       tot
    1        0.546   0.239   8.768   9.553
    2        0.545   0.241   8.764   9.551
    3        0.545   0.241   8.764   9.551
    4        0.545   0.241   8.764   9.551
    5        0.544   0.242   8.762   9.548
    6        0.545   0.241   8.764   9.551
    7        0.545   0.241   8.764   9.551
    8        0.545   0.241   8.764   9.551
    9        0.542   0.240   8.769   9.551
   10        0.520   0.307   8.770   9.598
   11        0.522   0.307   8.778   9.608
   12        0.520   0.307   8.770   9.598
   13        0.522   0.307   8.778   9.608
   14        0.522   0.307   8.778   9.608
   15        0.514   0.310   8.773   9.598
   16        0.520   0.307   8.770   9.598
   17        0.514   0.310   8.773   9.598
   18        0.514   0.310   8.773   9.598
   19        0.518   0.299   8.774   9.592
   20        0.547   0.330   8.753   9.630
   21        0.547   0.330   8.753   9.630
   22        0.511   0.312   8.772   9.595
   23        0.547   0.330   8.753   9.630
   24        0.511   0.312   8.772   9.595
   25        0.518   0.299   8.774   9.592
   26        0.518   0.299   8.774   9.592
   27        0.511   0.312   8.772   9.595
   28        0.543   0.225   8.767   9.535
   29        0.545   0.244   8.764   9.552
   30        0.545   0.244   8.764   9.552
   31        0.545   0.244   8.764   9.552
   32        0.545   0.244   8.764   9.552
   33        0.545   0.244   8.764   9.552
   34        0.545   0.244   8.764   9.552
   35        0.541   0.225   8.769   9.535
   36        0.421   0.534   6.451   7.407
   37        0.936   1.445   0.000   2.381
   38        1.527   3.767   0.000   5.294
   39        0.557   0.134   0.000   0.691
tot         22.093  15.561 313.317 350.971

 BZINTS: Fermi energy:    0.276575;  404.000000 electrons
         Band energy:-0.146157E+04;  BLOECHL correction:   -0.056342