 vasp.6.2.0 18Jan21 (build Jun 12 2021 23:27:24) complex

 executed on             LinuxIFC date 2022.05.30  18:40:10

 INCAR:
   ISMEAR = -5
   SIGMA = 0.1
   ISPIN = 1
   EDIFF = 1.d-5
   EDIFFG = -0.01
   NSW = 0
   NELM = 150
   ENCUT = 500
   ISIF = 2
   IBRION = 2
   LREAL = Auto
   ALGO = Fast
   ICHARG = 11
   LORBIT = 10
   LCHARG = .F.
   LWAVE = .F.

 POTCAR:    PAW_PBE Cu 22Jun2005
 POTCAR:    PAW_PBE Re 17Jan2003
 POTCAR:    PAW_PBE C 08Apr2002
|           W    W    AA    RRRRR   N    N  II  N    N   GGGG   !!!           |
|           W    W   A  A   R    R  NN   N  II  NN   N  G    G  !!!           |
|           W    W  A    A  R    R  N N  N  II  N N  N  G       !!!           |
|           W WW W  AAAAAA  RRRRR   N  N N  II  N  N N  G  GGG   !            |
|           WW  WW  A    A  R   R   N   NN  II  N   NN  G    G                |
|           W    W  A    A  R    R  N    N  II  N    N   GGGG   !!!           |
|     For optimal performance we recommend to set                             |
|       NCORE = 2 up to number-of-cores-per-socket                            |
|     This setting can greatly improve the performance of VASP for DFT.       |
|     The default, NCORE=1 might be grossly inefficient on modern             |
|     multi-core architectures or massively parallel machines. Do your        |
|     Unfortunately you need to use the default for GW and RPA                |
|     calculations (for HF NCORE is supported but not extensively tested      |
|     yet).                                                                   |

 POTCAR:    PAW_PBE Cu 22Jun2005
   VRHFIN =Cu: d10 p1

   TITEL  = PAW_PBE Cu 22Jun2005
   POMASS =   63.546; ZVAL   =   11.000    mass and valenz
   ENMAX  =  295.446; ENMIN  =  221.585 eV

 POTCAR:    PAW_PBE Re 17Jan2003
   VRHFIN =Re: 5p6s5d

   TITEL  = PAW_PBE Re 17Jan2003
   POMASS =  186.207; ZVAL   =    7.000    mass and valenz
   ENMAX  =  226.216; ENMIN  =  169.662 eV

 POTCAR:    PAW_PBE C 08Apr2002
   VRHFIN =C: s2p2

   TITEL  = PAW_PBE C 08Apr2002
   POMASS =   12.011; ZVAL   =    4.000    mass and valenz
   ENMAX  =  400.000; ENMIN  =  300.000 eV

 Optimization of the real space projectors (new method)

 maximal supplied QI-value         = 16.25
 optimisation between [QCUT,QGAM] = [ 11.38, 22.75] = [ 36.24,144.96] Ry
 Optimized for a Real-space Cutoff    1.52 Angstroem

   l    n(q)    QCUT    max X(q) W(low)/X(q) W(high)/X(q)  e(spline)
   2      9    11.376     4.610    0.21E-03    0.10E-03    0.26E-06
   2      9    11.376     8.522    0.33E-03    0.16E-03    0.37E-06
   0     10    11.376    51.609    0.62E-04    0.20E-04    0.13E-06
   0     10    11.376    27.747    0.54E-04    0.20E-04    0.13E-06
   1     10    11.376    20.408    0.13E-04    0.99E-04    0.19E-06
   1     10    11.376    13.425    0.12E-04    0.87E-04    0.17E-06
 Optimization of the real space projectors (new method)

[...]

   l    n(q)    QCUT    max X(q) W(low)/X(q) W(high)/X(q)  e(spline)
   2     10    11.327   884.633    0.22E-03    0.51E-03    0.88E-06
   2     10    11.327   796.723    0.22E-03    0.51E-03    0.88E-06
   0     11    11.327    65.348    0.44E-04    0.11E-03    0.75E-06
   0     11    11.327    39.642    0.40E-04    0.10E-03    0.69E-06
   1     10    11.327    13.988    0.15E-03    0.10E-03    0.19E-06
   1     10    11.327     8.682    0.11E-03    0.76E-04    0.14E-06
 Optimization of the real space projectors (new method)

 maximal supplied QI-value         = 25.13
 optimisation between [QCUT,QGAM] = [ 11.31, 22.87] = [ 35.82,146.48] Ry
 Optimized for a Real-space Cutoff    1.00 Angstroem

   l    n(q)    QCUT    max X(q) W(low)/X(q) W(high)/X(q)  e(spline)
   0      7    11.310   115.676    0.43E-03    0.13E-02    0.19E-06
   0      7    11.310    87.132    0.43E-03    0.13E-02    0.18E-06
   1      6    11.310     4.429    0.42E-03    0.74E-03    0.11E-06
   1      6    11.310     2.733    0.34E-03    0.55E-03    0.92E-07
  PAW_PBE Cu 22Jun2005                  :
  PAW_PBE Re 17Jan2003                  :
  PAW_PBE C 08Apr2002                   :

 POSCAR: Cu-Re-C
  positions in direct lattice
  velocities in cartesian coordinates
 exchange correlation table for  LEXCH =        8
   RHO(1)=    0.500       N(1)  =     2000
   RHO(2)=  100.500       N(2)  =     4000

 VTST: version 3.2, (02/03/18)

 CHAIN: initializing optimizer

 OPT: Using VASP Conjugate-Gradient optimizer
 CHAIN: Read ICHAIN            0

 POSCAR: Cu-Re-C
  positions in direct lattice
  velocities in cartesian coordinates

 ion  position               nearest neighbor table
   1  0.000  0.000  0.226-   7 2.57   3 2.57   4 2.57   2 2.57   6 2.57   8 2.57  12 2.57  10 2.57
                            16 2.57
   2  0.333  0.000  0.226-   8 2.57   9 2.57   5 2.57   1 2.57   3 2.57  11 2.57   4 2.57  10 2.57
                            17 2.57
   3  0.667  0.000  0.226-   1 2.57   7 2.57   6 2.57   9 2.57   2 2.57  12 2.57   5 2.57  18 2.57
                            11 2.57
   4  0.000  0.333  0.226-   5 2.57   6 2.57   1 2.57   7 2.57   2 2.57  13 2.57   9 2.57  10 2.57
                            15 2.57
   5  0.333  0.333  0.226-   4 2.57   2 2.57   7 2.57  13 2.57   8 2.57   6 2.57   3 2.57  11 2.57
                            14 2.57
   6  0.667  0.333  0.226-   4 2.57   9 2.57  15 2.57   3 2.57   1 2.57   8 2.57  14 2.57   5 2.57
                            12 2.57
   7  0.000  0.667  0.226-   1 2.57   3 2.57  16 2.57  18 2.57   4 2.57   5 2.57   8 2.57   9 2.57
                            13 2.57
   8  0.333  0.667  0.226-   9 2.57   2 2.57  17 2.57   6 2.57   1 2.57   7 2.57   5 2.57  14 2.57
                            16 2.57
   9  0.667  0.667  0.226-   8 2.57   6 2.57   2 2.57  17 2.57   3 2.57   7 2.57   4 2.57  15 2.57
                            18 2.57
  10  0.111  0.111  0.314-  20 2.53  11 2.57  12 2.57  13 2.57   1 2.57   2 2.57   4 2.57  15 2.57
                            16 2.57  17 2.57  26 2.57  19 2.57
  11  0.444  0.111  0.314-  20 2.55  21 2.55  10 2.57  13 2.57   2 2.57  17 2.57  14 2.57  12 2.57
                             5 2.57   3 2.57  18 2.57  27 2.58
  12  0.778  0.111  0.314-  21 2.53  15 2.57  10 2.57  14 2.57  18 2.57   3 2.57   1 2.57  16 2.57
                            11 2.57   6 2.57  19 2.57  25 2.57
  13  0.111  0.444  0.314-  23 2.55  20 2.55  16 2.57  18 2.57  10 2.57  11 2.57  14 2.57   5 2.57
                             4 2.57   7 2.57  15 2.57  22 2.58
  14  0.444  0.444  0.314-  21 2.55  23 2.55  15 2.57  17 2.57  12 2.57  16 2.57  13 2.57  11 2.57
                             6 2.57   8 2.57   5 2.57  24 2.58
  15  0.778  0.444  0.314-  19 2.57  14 2.57  17 2.57  12 2.57   6 2.57  18 2.57  10 2.57   9 2.57
                            13 2.57   4 2.57  24 2.57  22 2.57
  16  0.111  0.778  0.314-  23 2.53  18 2.57  13 2.57   7 2.57  14 2.57  17 2.57  12 2.57  10 2.57
                             8 2.57   1 2.57  25 2.57  26 2.57
  17  0.444  0.778  0.314-  26 2.57  14 2.57  15 2.57   8 2.57   9 2.57  11 2.57  16 2.57  18 2.57
                            10 2.57   2 2.57  27 2.57  24 2.57
  18  0.778  0.778  0.314-  25 2.57  16 2.57  13 2.57   7 2.57  15 2.57  12 2.57  17 2.57   9 2.57
                             3 2.57  11 2.57  22 2.57  27 2.57
  19  0.889  0.223  0.402-  21 2.55  20 2.55  22 2.56  24 2.56  28 2.56  15 2.57  12 2.57  10 2.57
                            25 2.57  26 2.57  32 2.59  31 2.59
  20  0.221  0.221  0.401-  36 2.53  10 2.53  11 2.55  13 2.55  26 2.55  19 2.55  27 2.57  22 2.57
                            23 2.59  21 2.59  29 2.61  31 2.61
  21  0.558  0.221  0.401-  36 2.53  12 2.53  14 2.55  11 2.55  19 2.55  25 2.55  24 2.57  27 2.57
                            20 2.59  23 2.59  32 2.61  30 2.61
  22  0.888  0.556  0.402-  24 2.55  27 2.55  35 2.55  19 2.56  25 2.56  18 2.57  15 2.57  23 2.57
                            20 2.57  13 2.58  31 2.59  33 2.59
  23  0.221  0.558  0.401-  36 2.53  16 2.53  13 2.55  14 2.55  25 2.55  26 2.55  22 2.57  24 2.57
                            20 2.59  21 2.59  33 2.61  34 2.61
  24  0.556  0.556  0.402-  22 2.55  27 2.55  35 2.55  19 2.56  26 2.56  15 2.57  17 2.57  21 2.57
                            23 2.57  14 2.58  32 2.59  34 2.59
  25  0.889  0.889  0.402-  21 2.55  23 2.55  22 2.56  27 2.56  28 2.56  18 2.57  16 2.57  12 2.57
                            19 2.57  26 2.57  33 2.59  30 2.59
  26  0.223  0.889  0.402-  20 2.55  23 2.55  27 2.56  24 2.56  28 2.56  17 2.57  10 2.57  16 2.57
                            25 2.57  19 2.57  29 2.59  34 2.59
  27  0.556  0.888  0.402-  24 2.55  22 2.55  35 2.55  26 2.56  25 2.56  17 2.57  18 2.57  20 2.57
                            21 2.57  11 2.58  29 2.59  30 2.59
  28  0.000  0.000  0.490-  33 2.56  30 2.56  31 2.56  29 2.56  32 2.56  34 2.56  25 2.56  19 2.56
                            26 2.56
  29  0.333  0.000  0.491-  31 2.56  28 2.56  36 2.57  34 2.57  35 2.57  30 2.57  26 2.59  27 2.59
                            20 2.61
  30  0.667  0.000  0.491-  32 2.56  28 2.56  36 2.57  33 2.57  35 2.57  29 2.57  25 2.59  27 2.59
                            21 2.61
  31  0.000  0.333  0.491-  29 2.56  28 2.56  36 2.57  32 2.57  35 2.57  33 2.57  19 2.59  22 2.59
                            20 2.61
  32  0.667  0.333  0.491-  30 2.56  28 2.56  36 2.57  31 2.57  35 2.57  34 2.57  19 2.59  24 2.59
                            21 2.61
  33  0.000  0.667  0.491-  34 2.56  28 2.56  36 2.57  30 2.57  35 2.57  31 2.57  25 2.59  22 2.59
                            23 2.61
  34  0.333  0.667  0.491-  33 2.56  28 2.56  36 2.57  29 2.57  35 2.57  32 2.57  26 2.59  24 2.59
                            23 2.61
  35  0.667  0.667  0.490-  24 2.55  27 2.55  22 2.55  34 2.57  32 2.57  29 2.57  30 2.57  33 2.57
                            31 2.57
  36  0.333  0.333  0.486-  37 1.77  23 2.53  20 2.53  21 2.53  31 2.57  29 2.57  33 2.57  34 2.57
                            32 2.57  30 2.57
  37  0.333  0.333  0.561-  36 1.77

  LATTYP: Found a hexagonal cell.
 ALAT       =     7.6967864036
 C/A-ratio  =     3.0908716217

  Lattice vectors:

 A1 = (  -3.8483927580,  -6.6656128093,   0.0000000000)
 A2 = (   7.6967864037,   0.0000000000,   0.0000000000)
 A3 = (   0.0000000000,   0.0000000000,  23.7897786731)

Analysis of symmetry for initial positions (statically):
 Subroutine PRICEL returns:
 Original cell was already a primitive cell.

 Routine SETGRP: Setting up the symmetry group for a
 hexagonal supercell.

 Subroutine GETGRP returns: Found  6 space group operations
 (whereof  6 operations were pure point group operations)
 out of a pool of 24 trial point group operations.

The static configuration has the point symmetry C_3v.

Analysis of symmetry for dynamics (positions and initial velocities):
 Subroutine PRICEL returns:
 Original cell was already a primitive cell.

[...]

The dynamic configuration has the point symmetry C_3v.

Analysis of constrained symmetry for selective dynamics:
 Subroutine PRICEL returns:
 Original cell was already a primitive cell.

 Routine SETGRP: Setting up the symmetry group for a
 hexagonal supercell.

 Subroutine GETGRP returns: Found  6 space group operations
[...]
     24      -4.9203      2.00000
     25      -4.7955      2.00000
     26      -4.7620      2.00000
     27      -4.7186      2.00000
     28      -4.7015      2.00000
     29      -4.6552      2.00000
     30      -4.6458      2.00000
     31      -4.6425      2.00000
     32      -4.6313      2.00000
     33      -4.6176      2.00000
     34      -4.5987      2.00000
     35      -4.5711      2.00000
     36      -4.5296      2.00000
     37      -4.4766      2.00000
     38      -4.3402      2.00000
     39      -4.3288      2.00000
     40      -4.3137      2.00000
     41      -4.2844      2.00000
     42      -4.2466      2.00000
     43      -4.2327      2.00000
     44      -4.2196      2.00000
     45      -4.1977      2.00000
     46      -4.1905      2.00000
     47      -4.0284      2.00000
     48      -4.0013      2.00000
     49      -3.9933      2.00000
     50      -3.9855      2.00000
     51      -3.9537      2.00000
     52      -3.9342      2.00000
     53      -3.9237      2.00000
     54      -3.9223      2.00000
     55      -3.8956      2.00000
     56      -3.8901      2.00000
     57      -3.8720      2.00000
     58      -3.8578      2.00000
     59      -3.8510      2.00000
     60      -3.8357      2.00000
[...]
    238       5.7824      0.00000
    239       5.8768      0.00000
    240       5.9562      0.00000
    241       6.0536      0.00000
    242       6.0982      0.00000
    243       6.2812      0.00000
    244       6.3421      0.00000
    245       6.5294      0.00000
    246       6.6727      0.00000
    247       6.7691      0.00000
    248       6.8480      0.00000
    249       7.0083      0.00000
    250       7.2588      0.00000
    251       7.3101      0.00000
    252       7.5092      0.00000

 soft charge-density along one line, spin component           1
         0         1         2         3         4         5         6         7         8         9
 total charge-density along one line

------------------------ aborting loop because EDIFF is reached ----------------------------------------

 total charge

# of ion       s       p       d       tot
    1        0.448   0.286   9.187   9.921
    2        0.449   0.285   9.186   9.920
    3        0.449   0.285   9.186   9.920
    4        0.449   0.285   9.186   9.920
    5        0.447   0.286   9.186   9.919
    6        0.449   0.285   9.186   9.920
    7        0.449   0.285   9.186   9.920
    8        0.449   0.285   9.186   9.920
    9        0.446   0.286   9.186   9.918
   10        0.440   0.372   9.177   9.990
   11        0.441   0.370   9.181   9.993
   12        0.440   0.372   9.177   9.990
   13        0.441   0.370   9.181   9.993
   14        0.441   0.370   9.181   9.993
   15        0.437   0.369   9.178   9.984
   16        0.440   0.372   9.177   9.990
   17        0.437   0.369   9.178   9.984
   18        0.437   0.369   9.178   9.984
   19        0.441   0.363   9.183   9.987
   20        0.457   0.399   9.174  10.030
   21        0.457   0.399   9.174  10.030
   22        0.430   0.372   9.179   9.981
   23        0.457   0.399   9.174  10.030
   24        0.430   0.372   9.179   9.981
   25        0.441   0.363   9.183   9.987
   26        0.441   0.363   9.183   9.987
   27        0.430   0.372   9.179   9.981
   28        0.452   0.286   9.186   9.924
   29        0.455   0.313   9.175   9.943
   30        0.455   0.313   9.175   9.943
   31        0.455   0.313   9.175   9.943
   32        0.455   0.313   9.175   9.943
   33        0.455   0.313   9.175   9.943
   34        0.455   0.313   9.175   9.943
   35        0.447   0.291   9.183   9.921
   36        0.677   0.581   5.160   6.418
   37        0.999   1.234   0.000   2.233
tot         17.282  13.574 326.469 357.325

  FORCE on cell =-STRESS in cart. coord.  units (eV):
  Direction    XX          YY          ZZ          XY          YZ          ZX
  Alpha Z   805.54434   805.54434   805.54434
  Ewald  221523.20182221523.20142************     0.00038     0.00012     0.00016
  Hartree234097.09099234097.09098************     0.00003     0.00006     0.00006
  E(xc)   -2292.92461 -2292.92410 -2298.92493    -0.00044    -0.00003    -0.00006
  Local  ************************468942.13604     0.01850    -0.00057    -0.00089
  n-local  -779.77562  -766.06425  -787.82249     7.25133    -0.06876     0.23713
  augment  3315.76661  3315.78699  3336.19797    -0.01764     0.00033     0.00059
  Kinetic  3281.52829  3286.08851  3302.62662     3.49269     1.72126    -1.28548
  Fock        0.00000     0.00000     0.00000     0.00000     0.00000     0.00000
  Total      -4.57197    -4.57197     0.18281     0.00000     0.00000    -0.00000
  in kB      -6.00169    -6.00169     0.23998     0.00000     0.00000    -0.00000

 VOLUME and BASIS-vectors are now :
  energy-cutoff  :      500.00
  volume of cell :     1220.51
      direct lattice vectors                 reciprocal lattice vectors
     7.696786404  0.000000000  0.000000000     0.129924354 -0.075011849  0.000000000
     3.848392758  6.665612809  0.000000000     0.000000000  0.150023716  0.000000000
     0.000000000  0.000000000 23.789778673     0.000000000  0.000000000  0.042034859

  length of vectors
     7.696786404  7.696786404 23.789778673     0.150023716  0.150023716  0.042034859

 FORCES acting on ions
    electron-ion (+dipol)            ewald-force                    non-local-force                 convergence-correction
   -.424E-04 -.283E-06 0.371E+04   0.580E-04 -.433E-05 -.371E+04   -.854E-17 0.912E-18 -.226E+01   -.400E-03 -.198E-03 -.604E-01
   -.254E+00 0.142E+00 0.371E+04   0.230E+00 -.309E-01 -.370E+04   -.246E-01 -.257E-01 -.191E+01   0.469E-01 -.832E-01 0.657E-02
   0.254E+00 0.142E+00 0.371E+04   -.230E+00 -.310E-01 -.370E+04   0.246E-01 -.257E-01 -.191E+01   -.460E-01 -.807E-01 0.764E-02
   -.402E-02 -.291E+00 0.371E+04   0.883E-01 0.215E+00 -.370E+04   -.346E-01 -.848E-02 -.191E+01   -.485E-01 0.821E-01 0.659E-02
   -.639E-04 -.460E-05 0.371E+04   0.116E-03 -.101E-04 -.370E+04   0.220E-17 0.133E-17 -.209E+01   0.121E-01 0.741E-02 -.156E+00
   0.406E-02 -.291E+00 0.371E+04   -.884E-01 0.215E+00 -.370E+04   0.346E-01 -.848E-02 -.191E+01   0.469E-01 0.832E-01 0.773E-02
   0.250E+00 0.149E+00 0.371E+04   -.142E+00 -.184E+00 -.370E+04   -.995E-02 0.342E-01 -.191E+01   -.929E-01 0.488E-03 0.780E-02
   -.250E+00 0.149E+00 0.371E+04   0.142E+00 -.184E+00 -.370E+04   0.995E-02 0.342E-01 -.191E+01   0.962E-01 -.962E-03 0.768E-02
   -.145E-03 -.333E-04 0.371E+04   0.263E-03 0.205E-04 -.370E+04   -.158E-18 -.177E-17 -.222E+01   -.131E-01 -.674E-02 -.302E-01
   0.129E+01 0.744E+00 0.123E+04   -.116E+01 -.670E+00 -.123E+04   -.236E+00 -.136E+00 -.751E+00   0.788E-01 0.455E-01 0.354E+00
   -.898E-04 0.873E-01 0.123E+04   0.190E-03 -.619E-01 -.123E+04   -.501E-08 0.752E-01 -.868E+00   0.123E-01 -.136E+00 0.338E+00
   -.129E+01 0.744E+00 0.123E+04   0.116E+01 -.671E+00 -.123E+04   0.236E+00 -.136E+00 -.751E+00   -.807E-01 0.461E-01 0.354E+00
   0.756E-01 -.435E-01 0.123E+04   -.536E-01 0.308E-01 -.123E+04   0.652E-01 -.376E-01 -.868E+00   -.111E+00 0.795E-01 0.338E+00
   -.754E-01 -.435E-01 0.123E+04   0.533E-01 0.308E-01 -.123E+04   -.652E-01 -.376E-01 -.868E+00   0.135E+00 0.773E-01 0.335E+00
   -.141E-03 -.859E+00 0.123E+04   0.298E-03 0.708E+00 -.123E+04   -.471E-08 0.707E-01 -.704E+00   -.323E-02 0.846E-01 0.329E+00
   -.893E-04 -.149E+01 0.123E+04   0.186E-03 0.134E+01 -.123E+04   -.182E-07 0.273E+00 -.751E+00   -.131E-02 -.941E-01 0.354E+00
   -.744E+00 0.430E+00 0.123E+04   0.613E+00 -.354E+00 -.123E+04   0.612E-01 -.354E-01 -.704E+00   0.724E-01 -.451E-01 0.329E+00
   0.744E+00 0.430E+00 0.123E+04   -.613E+00 -.354E+00 -.123E+04   -.612E-01 -.354E-01 -.704E+00   -.704E-01 -.423E-01 0.332E+00
   -.589E-04 -.349E+01 -.125E+04   0.703E-04 0.345E+01 0.125E+04   0.246E-08 -.369E-01 0.103E+01   -.109E-01 0.564E-01 0.361E+00
   -.362E+02 -.209E+02 -.127E+04   0.357E+02 0.206E+02 0.126E+04   0.150E-01 0.865E-02 0.478E+00   0.116E+00 0.666E-01 0.521E+00
   0.362E+02 -.209E+02 -.127E+04   -.357E+02 0.206E+02 0.126E+04   -.150E-01 0.865E-02 0.478E+00   -.135E+00 0.631E-01 0.520E+00
   -.223E+02 0.129E+02 -.126E+04   0.217E+02 -.125E+02 0.126E+04   0.692E+00 -.399E+00 0.120E+01   0.777E-01 -.296E-01 0.219E+00
   -.951E-04 0.418E+02 -.127E+04   0.146E-03 -.412E+02 0.126E+04   0.115E-08 -.173E-01 0.478E+00   -.139E-01 -.149E+00 0.520E+00
   0.223E+02 0.129E+02 -.126E+04   -.217E+02 -.125E+02 0.126E+04   -.692E+00 -.399E+00 0.120E+01   -.538E-01 -.319E-01 0.219E+00
   0.303E+01 0.175E+01 -.125E+04   -.299E+01 -.173E+01 0.125E+04   0.320E-01 0.184E-01 0.103E+01   -.670E-01 -.387E-01 0.361E+00
   -.303E+01 0.175E+01 -.125E+04   0.299E+01 -.173E+01 0.125E+04   -.320E-01 0.184E-01 0.103E+01   0.437E-01 -.375E-01 0.361E+00
   -.116E-03 -.258E+02 -.126E+04   0.240E-03 0.250E+02 0.126E+04   -.532E-07 0.799E+00 0.120E+01   0.132E-01 0.820E-01 0.219E+00
   -.479E-04 0.103E-04 -.366E+04   0.398E-04 -.324E-04 0.366E+04   0.627E-18 -.205E-17 0.210E+01   -.501E-03 -.238E-03 0.193E+00
   -.227E+02 -.354E+02 -.367E+04   0.230E+02 0.354E+02 0.367E+04   -.429E+00 -.388E+00 0.260E+01   0.854E-01 0.192E+00 0.225E+00
   0.227E+02 -.354E+02 -.367E+04   -.230E+02 0.354E+02 0.367E+04   0.429E+00 -.388E+00 0.260E+01   -.842E-01 0.193E+00 0.224E+00
   -.421E+02 -.198E+01 -.367E+04   0.422E+02 0.219E+01 0.367E+04   -.551E+00 -.177E+00 0.260E+01   0.209E+00 -.221E-01 0.225E+00
   0.421E+02 -.198E+01 -.367E+04   -.422E+02 0.219E+01 0.367E+04   0.551E+00 -.177E+00 0.260E+01   -.209E+00 -.219E-01 0.226E+00
   -.193E+02 0.374E+02 -.367E+04   0.192E+02 -.376E+02 0.367E+04   -.122E+00 0.566E+00 0.260E+01   0.125E+00 -.169E+00 0.224E+00
   0.193E+02 0.374E+02 -.367E+04   -.192E+02 -.376E+02 0.367E+04   0.122E+00 0.566E+00 0.260E+01   -.123E+00 -.170E+00 0.226E+00
   -.151E-03 -.290E-04 -.367E+04   0.251E-03 0.354E-05 0.367E+04   0.486E-17 0.527E-17 0.252E+01   -.121E-01 -.618E-02 0.371E+00
   -.343E-04 -.144E-04 -.218E+04   0.892E-04 0.167E-04 0.218E+04   0.201E-17 0.160E-17 0.112E+01   0.712E-03 0.425E-03 0.165E+00
   0.538E-04 -.212E-04 -.158E+04   0.125E-04 0.565E-05 0.159E+04   -.745E-18 0.650E-18 -.873E+01   0.571E-03 0.342E-03 -.104E+00
   -.161E-03 0.631E-05 -.400E+01   0.145E-13 -.312E-12 0.166E-10   -.633E-16 -.437E-15 -.425E+01   -.552E-02 -.627E-02 0.814E+01

 POSITION                                       TOTAL-FORCE (eV/Angst)
      0.00000      0.00000      5.37156        -0.000000      0.000000      0.040853
      2.56560      0.00000      5.37156        -0.001211      0.003273      0.047786
      5.13119      0.00000      5.37156         0.001211      0.003273      0.047786
      1.28280      2.22187      5.37156         0.002229     -0.002685      0.047786
      3.84839      2.22187      5.37156        -0.000000      0.000000      0.030998
      6.41399      2.22187      5.37156        -0.002229     -0.002685      0.047786
      2.56560      4.44374      5.37156         0.003440     -0.000588      0.047786
      5.13119      4.44374      5.37156        -0.003440     -0.000588      0.047786
      7.69679      4.44374      5.37156        -0.000000      0.000000      0.043639
      1.28280      0.74062      7.46636        -0.028521     -0.016467     -0.046999
      3.84839      0.74062      7.46636         0.000000     -0.041801     -0.074767
      6.41399      0.74062      7.46636         0.028521     -0.016467     -0.046999
      2.56560      2.96249      7.46636        -0.036201      0.020901     -0.074767
      5.13119      2.96249      7.46636         0.036201      0.020901     -0.074767
      7.69679      2.96249      7.46636        -0.000000      0.002989      0.045835
      3.84839      5.18437      7.46636        -0.000000      0.032934     -0.046999
      6.41399      5.18437      7.46636         0.002589     -0.001495      0.045835
      8.97958      5.18437      7.46636        -0.002589     -0.001495      0.045835
      7.69679      1.48486      9.56345         0.000000     -0.016344      0.061202
      2.55359      1.47432      9.53212        -0.355730     -0.205381     -0.416777
      5.14319      1.47432      9.53212         0.355730     -0.205381     -0.416777
      8.97343      3.70667      9.56919         0.065668     -0.037914      0.032396
      3.84839      3.71698      9.53212        -0.000000      0.410762     -0.416777
      6.42014      3.70667      9.56919        -0.065668     -0.037914      0.032396
     10.25925      5.92318      9.56345         0.014154      0.008172      0.061202
      5.13432      5.92318      9.56345        -0.014154      0.008172      0.061202
      7.69679      5.91789      9.56919        -0.000000      0.075827      0.032396
      0.00000      0.00000     11.65394        -0.000000      0.000000     -0.119537
      2.56263      0.00314     11.68588        -0.096364     -0.179605     -0.062438
      5.13415      0.00314     11.68588         0.096364     -0.179605     -0.062438
      1.28404      2.21774     11.68588        -0.203724      0.006349     -0.062438
      6.41275      2.21774     11.68588         0.203724      0.006349     -0.062438
      2.56979      4.44474     11.68588        -0.107361      0.173256     -0.062438
      5.12699      4.44474     11.68588         0.107361      0.173256     -0.062438
      7.69679      4.44374     11.65455        -0.000000      0.000000     -0.083279
      3.84839      2.22187     11.57229        -0.000000      0.000000      1.386911
      3.84839      2.22187     13.34670        -0.000000      0.000000     -0.014345
    total drift:                               -0.005685     -0.006266     -0.105933

  FREE ENERGIE OF THE ION-ELECTRON SYSTEM (eV)
  free  energy   TOTEN  =      -139.74812675 eV

  energy  without entropy=     -139.74812675  energy(sigma->0) =     -139.74812675

 stress matrix after NEB project (eV)
     -4.57197      0.00000     -0.00000
      0.00000     -4.57197      0.00000
     -0.00000      0.00000      0.18281
  FORCES: max atom, RMS     0.014345    0.002358
  FORCE total and by dimension    0.014345    0.014345
  Stress total and by dimension    6.468321    4.571966
|           W    W    AA    RRRRR   N    N  II  N    N   GGGG   !!!           |
|           W    W   A  A   R    R  NN   N  II  NN   N  G    G  !!!           |
|           W    W  A    A  R    R  N N  N  II  N N  N  G       !!!           |
|           W WW W  AAAAAA  RRRRR   N  N N  II  N  N N  G  GGG   !            |
|           WW  WW  A    A  R   R   N   NN  II  N   NN  G    G                |
|           W    W  A    A  R    R  N    N  II  N    N   GGGG   !!!           |
|     Tetrahedron method does not include variations of the Fermi             |
|     occupations, so forces and stress will be inaccurate. We suggest        |
|     using a different smearing scheme ISMEAR = 1 or 2 for metals in         |
|     relaxations.                                                            |

 total charge

# of ion       s       p       d       tot
    1        0.448   0.286   9.187   9.921
    2        0.449   0.285   9.186   9.920
    3        0.449   0.285   9.186   9.920
    4        0.449   0.285   9.186   9.920
    5        0.447   0.286   9.186   9.919
    6        0.449   0.285   9.186   9.920
    7        0.449   0.285   9.186   9.920
    8        0.449   0.285   9.186   9.920
    9        0.446   0.286   9.186   9.918
   10        0.440   0.372   9.177   9.990
   11        0.441   0.370   9.181   9.993
   12        0.440   0.372   9.177   9.990
   13        0.441   0.370   9.181   9.993
   14        0.441   0.370   9.181   9.993
   15        0.437   0.369   9.178   9.984
   16        0.440   0.372   9.177   9.990
   17        0.437   0.369   9.178   9.984
   18        0.437   0.369   9.178   9.984
   19        0.441   0.363   9.183   9.987
   20        0.457   0.399   9.174  10.030
   21        0.457   0.399   9.174  10.030
   22        0.430   0.372   9.179   9.981
   23        0.457   0.399   9.174  10.030
   24        0.430   0.372   9.179   9.981
   25        0.441   0.363   9.183   9.987
   26        0.441   0.363   9.183   9.987
   27        0.430   0.372   9.179   9.981
   28        0.452   0.286   9.186   9.924
   29        0.455   0.313   9.175   9.943
   30        0.455   0.313   9.175   9.943
   31        0.455   0.313   9.175   9.943
   32        0.455   0.313   9.175   9.943
   33        0.455   0.313   9.175   9.943
   34        0.455   0.313   9.175   9.943
   35        0.447   0.291   9.183   9.921
   36        0.677   0.581   5.160   6.418
   37        0.999   1.234   0.000   2.233
tot         17.282  13.574 326.469 357.325

 BZINTS: Fermi energy:   -0.527166;  396.000000 electrons
         Band energy:-0.134084E+04;  BLOECHL correction:   -0.040204