 vasp.6.2.0 18Jan21 (build Jun 12 2021 23:27:24) complex

 executed on             LinuxIFC date 2022.05.28  02:09:31

 INCAR:
   ISMEAR = -5
   SIGMA = 0.1
   ISPIN = 1
   EDIFF = 1.d-5
   EDIFFG = -0.01
   NSW = 0
   NELM = 150
   ENCUT = 500
   ISIF = 2
   IBRION = 2
   LREAL = Auto
   ALGO = Fast
   ICHARG = 11
   LORBIT = 10
   LCHARG = .F.
   LWAVE = .F.

 POTCAR:    PAW_PBE Ag 02Apr2005
 POTCAR:    PAW_PBE Ir 06Sep2000
 POTCAR:    PAW_PBE H 15Jun2001
 POTCAR:    PAW_PBE O 08Apr2002
|           W    W    AA    RRRRR   N    N  II  N    N   GGGG   !!!           |
|           W    W   A  A   R    R  NN   N  II  NN   N  G    G  !!!           |
|           W    W  A    A  R    R  N N  N  II  N N  N  G       !!!           |
|           W WW W  AAAAAA  RRRRR   N  N N  II  N  N N  G  GGG   !            |
|           WW  WW  A    A  R   R   N   NN  II  N   NN  G    G                |
|           W    W  A    A  R    R  N    N  II  N    N   GGGG   !!!           |
|     For optimal performance we recommend to set                             |
|       NCORE = 2 up to number-of-cores-per-socket                            |
|     This setting can greatly improve the performance of VASP for DFT.       |
|     The default, NCORE=1 might be grossly inefficient on modern             |
|     multi-core architectures or massively parallel machines. Do your        |
|     Unfortunately you need to use the default for GW and RPA                |
|     calculations (for HF NCORE is supported but not extensively tested      |
|     yet).                                                                   |

 POTCAR:    PAW_PBE Ag 02Apr2005
   VRHFIN =Ag : s1 d10

   TITEL  = PAW_PBE Ag 02Apr2005
   POMASS =  107.868; ZVAL   =   11.000    mass and valenz
   ENMAX  =  249.844; ENMIN  =  187.383 eV

 POTCAR:    PAW_PBE Ir 06Sep2000
   VRHFIN =Ir: s1d8

   TITEL  = PAW_PBE Ir 06Sep2000
   POMASS =  192.220; ZVAL   =    9.000    mass and valenz
   ENMAX  =  210.864; ENMIN  =  158.148 eV

 POTCAR:    PAW_PBE H 15Jun2001
   VRHFIN =H: ultrasoft test

   TITEL  = PAW_PBE H 15Jun2001
   POMASS =    1.000; ZVAL   =    1.000    mass and valenz
   ENMAX  =  250.000; ENMIN  =  200.000 eV

 POTCAR:    PAW_PBE O 08Apr2002
   VRHFIN =O: s2p4

   TITEL  = PAW_PBE O 08Apr2002
   POMASS =   16.000; ZVAL   =    6.000    mass and valenz
   ENMAX  =  400.000; ENMIN  =  300.000 eV

 Optimization of the real space projectors (new method)

 maximal supplied QI-value         = 15.12
 optimisation between [QCUT,QGAM] = [ 11.34, 22.83] = [ 36.00,145.93] Ry
 Optimized for a Real-space Cutoff    1.43 Angstroem

   l    n(q)    QCUT    max X(q) W(low)/X(q) W(high)/X(q)  e(spline)
   2      9    11.338    53.897    0.16E-03    0.20E-03    0.28E-06
   2      9    11.338    52.416    0.16E-03    0.20E-03    0.29E-06
   0     10    11.338   122.045    0.31E-04    0.76E-04    0.15E-06
   0     10    11.338    73.629    0.30E-04    0.72E-04    0.15E-06
   1      9    11.338    15.255    0.20E-03    0.19E-04    0.17E-06
   1      9    11.338     9.562    0.16E-03    0.15E-04    0.14E-06
 Optimization of the real space projectors (new method)

[...]

   l    n(q)    QCUT    max X(q) W(low)/X(q) W(high)/X(q)  e(spline)
   0      8    11.287    19.460    0.40E-03    0.73E-03    0.16E-06
   0      8    11.287    12.209    0.38E-03    0.70E-03    0.15E-06
   1      7    11.287     4.655    0.22E-03    0.25E-04    0.22E-06
 Optimization of the real space projectors (new method)

 maximal supplied QI-value         = 24.76
 optimisation between [QCUT,QGAM] = [ 11.39, 22.77] = [ 36.31,145.25] Ry
 Optimized for a Real-space Cutoff    1.00 Angstroem

   l    n(q)    QCUT    max X(q) W(low)/X(q) W(high)/X(q)  e(spline)
   0      7    11.387    20.381    0.39E-03    0.13E-02    0.15E-06
   0      7    11.387    15.268    0.42E-03    0.14E-02    0.17E-06
   1      6    11.387     5.964    0.41E-03    0.11E-02    0.17E-06
   1      6    11.387     5.382    0.39E-03    0.87E-03    0.15E-06
  PAW_PBE Ag 02Apr2005                  :
  PAW_PBE Ir 06Sep2000                  :
  PAW_PBE H 15Jun2001                   :
  PAW_PBE O 08Apr2002                   :

 POSCAR: Ag-Ir-H2O
  positions in direct lattice
  velocities in cartesian coordinates
 exchange correlation table for  LEXCH =        8
   RHO(1)=    0.500       N(1)  =     2000
   RHO(2)=  100.500       N(2)  =     4000

 VTST: version 3.2, (02/03/18)

 CHAIN: initializing optimizer

 OPT: Using VASP Conjugate-Gradient optimizer
 CHAIN: Read ICHAIN            0

 POSCAR: Ag-Ir-H2O
  positions in direct lattice
  velocities in cartesian coordinates

 ion  position               nearest neighbor table
   1  0.000  0.000  0.212-   2 2.93   8 2.93   7 2.93   6 2.93   4 2.93  12 2.93  16 2.93  10 2.93
                             3 2.93
   2  0.333  0.000  0.212-   1 2.93   8 2.93   9 2.93   3 2.93   4 2.93   5 2.93  10 2.93  17 2.93
                            11 2.93
   3  0.667  0.000  0.212-   9 2.93   2 2.93   5 2.93  11 2.93   7 2.93  18 2.93   1 2.93   6 2.93
                            12 2.93
   4  0.000  0.333  0.212-   5 2.93   6 2.93   2 2.93   1 2.93   7 2.93  13 2.93  15 2.93   9 2.93
                            10 2.93
   5  0.333  0.333  0.212-   4 2.93   3 2.93   7 2.93   2 2.93   8 2.93  14 2.93  13 2.93  11 2.93
                             6 2.93
   6  0.667  0.333  0.212-   4 2.93   9 2.93   1 2.93  15 2.93   8 2.93  12 2.93   3 2.93   5 2.93
                            14 2.93
   7  0.000  0.667  0.212-   8 2.93   1 2.93   5 2.93   3 2.93   4 2.93  16 2.93  18 2.93  13 2.93
                             9 2.93
   8  0.333  0.667  0.212-   7 2.93   1 2.93   2 2.93   9 2.93   5 2.93  16 2.93   6 2.93  17 2.93
                            14 2.93
   9  0.667  0.667  0.212-   3 2.93   2 2.93   8 2.93   6 2.93  17 2.93   4 2.93  15 2.93   7 2.93
                            18 2.93
  10  0.111  0.111  0.308-  20 2.89  12 2.93  16 2.93  15 2.93  17 2.93  13 2.93  11 2.93   2 2.93
                             1 2.93   4 2.93  19 2.93  26 2.93
  11  0.444  0.111  0.308-  21 2.90  20 2.90  27 2.92  14 2.93  17 2.93  18 2.93   3 2.93  12 2.93
                            13 2.93  10 2.93   5 2.93   2 2.93
  12  0.778  0.111  0.308-  21 2.89  10 2.93  16 2.93  18 2.93  15 2.93  11 2.93   1 2.93  14 2.93
                             6 2.93   3 2.93  25 2.93  19 2.93
  13  0.111  0.444  0.308-  20 2.90  23 2.90  22 2.92  15 2.93  14 2.93  18 2.93  10 2.93  11 2.93
                            16 2.93   4 2.93   5 2.93   7 2.93
  14  0.444  0.444  0.308-  23 2.90  21 2.90  24 2.92  13 2.93  11 2.93  16 2.93   5 2.93  12 2.93
                            17 2.93   8 2.93  15 2.93   6 2.93
  15  0.778  0.444  0.308-  24 2.92  22 2.92  19 2.93  13 2.93  10 2.93  12 2.93  17 2.93  18 2.93
                             4 2.93   6 2.93   9 2.93  14 2.93
  16  0.111  0.778  0.308-  23 2.89  18 2.93  12 2.93  10 2.93  14 2.93  17 2.93  13 2.93   7 2.93
                             8 2.93   1 2.93  26 2.93  25 2.93
  17  0.444  0.778  0.308-  27 2.92  24 2.92  26 2.93  11 2.93  10 2.93   9 2.93  18 2.93  15 2.93
                            16 2.93   2 2.93  14 2.93   8 2.93
  18  0.778  0.778  0.308-  22 2.92  27 2.92  25 2.93  16 2.93  12 2.93  13 2.93  11 2.93  17 2.93
                            15 2.93   7 2.93   3 2.93   9 2.93
  19  0.888  0.223  0.404-  28 2.90  24 2.92  22 2.92  15 2.93  20 2.93  21 2.93  10 2.93  12 2.93
                            32 2.94  31 2.94  26 2.94  25 2.94
  20  0.222  0.222  0.402-  36 2.77  10 2.89  13 2.90  11 2.90  31 2.92  29 2.92  19 2.93  26 2.93
                            27 2.93  22 2.93  21 2.94  23 2.94
  21  0.556  0.222  0.402-  36 2.77  12 2.89  11 2.90  14 2.90  30 2.92  32 2.92  25 2.93  19 2.93
                            27 2.93  24 2.93  20 2.94  23 2.94
  22  0.888  0.556  0.403-  35 2.90  18 2.92  15 2.92  13 2.92  24 2.92  27 2.92  25 2.92  19 2.92
                            33 2.93  31 2.93  23 2.93  20 2.93
  23  0.222  0.556  0.402-  36 2.77  16 2.89  14 2.90  13 2.90  34 2.92  33 2.92  26 2.93  25 2.93
                            22 2.93  24 2.93  21 2.94  20 2.94
  24  0.556  0.556  0.403-  35 2.90  15 2.92  17 2.92  14 2.92  27 2.92  22 2.92  19 2.92  26 2.92
                            32 2.93  34 2.93  23 2.93  21 2.93
  25  0.888  0.888  0.404-  28 2.90  22 2.92  27 2.92  18 2.93  23 2.93  21 2.93  16 2.93  12 2.93
                            33 2.94  30 2.94  26 2.94  19 2.94
  26  0.223  0.888  0.404-  28 2.90  27 2.92  24 2.92  17 2.93  23 2.93  20 2.93  16 2.93  10 2.93
                            34 2.94  29 2.94  25 2.94  19 2.94
  27  0.556  0.888  0.403-  35 2.90  17 2.92  18 2.92  11 2.92  24 2.92  22 2.92  26 2.92  25 2.92
                            29 2.93  30 2.93  20 2.93  21 2.93
  28  0.000  0.000  0.498-  26 2.90  25 2.90  19 2.90  29 2.96  34 2.96  33 2.96  32 2.96  31 2.96
                            30 2.96
  29  0.333  0.007  0.498-  31 2.87  30 2.88  36 2.88  20 2.92  27 2.93  26 2.94  28 2.96  35 2.96
                            34 3.04
  30  0.660  0.007  0.498-  32 2.87  29 2.88  36 2.88  21 2.92  27 2.93  25 2.94  28 2.96  35 2.96
                            33 3.04
  31  0.007  0.333  0.498-  29 2.87  33 2.88  36 2.88  20 2.92  22 2.93  19 2.94  28 2.96  35 2.96
                            32 3.04
  32  0.660  0.333  0.498-  30 2.87  34 2.88  36 2.88  21 2.92  24 2.93  19 2.94  28 2.96  35 2.96
                            31 3.04
  33  0.007  0.660  0.498-  34 2.87  31 2.88  36 2.88  23 2.92  22 2.93  25 2.94  28 2.96  35 2.96
                            30 3.04
  34  0.333  0.660  0.498-  33 2.87  32 2.88  36 2.88  23 2.92  24 2.93  26 2.94  28 2.96  35 2.96
                            29 3.04
  35  0.667  0.667  0.497-  24 2.90  27 2.90  22 2.90  30 2.96  32 2.96  29 2.96  34 2.96  31 2.96
                            33 2.96
  36  0.333  0.333  0.489-  21 2.77  20 2.77  23 2.77  31 2.88  30 2.88  33 2.88  29 2.88  34 2.88
                            32 2.88
  37  0.226  0.372  0.603-  39 0.97
  38  0.402  0.371  0.603-  39 0.97
  39  0.351  0.295  0.598-  37 0.97  38 0.97

  LATTYP: Found a hexagonal cell.
 ALAT       =     8.7913665772
 C/A-ratio  =     2.8382349142

  Lattice vectors:

 A1 = (  -4.3956832886,  -7.6135467898,   0.0000000000)
 A2 = (   8.7913665771,   0.0000000000,   0.0000000000)
 A3 = (   0.0000000000,   0.0000000000,  24.9519635625)

Analysis of symmetry for initial positions (statically):
 Subroutine PRICEL returns:
 Original cell was already a primitive cell.

 Routine SETGRP: Setting up the symmetry group for a
 hexagonal supercell.

 Subroutine GETGRP returns: Found  1 space group operations
 (whereof  1 operations were pure point group operations)
 out of a pool of 24 trial point group operations.

The static configuration has the point symmetry C_1 .

Analysis of symmetry for dynamics (positions and initial velocities):
 Subroutine PRICEL returns:
 Original cell was already a primitive cell.

[...]

The dynamic configuration has the point symmetry C_1 .

Analysis of constrained symmetry for selective dynamics:
 Subroutine PRICEL returns:
 Original cell was already a primitive cell.

[...]
     41      -4.7115      2.00000
     42      -4.7048      2.00000
     43      -4.6945      2.00000
     44      -4.6779      2.00000
     45      -4.6674      2.00000
     46      -4.5965      2.00000
     47      -4.5712      2.00000
     48      -4.5568      2.00000
     49      -4.5501      2.00000
     50      -4.5384      2.00000
     51      -4.5338      2.00000
     52      -4.5249      2.00000
     53      -4.5164      2.00000
     54      -4.5044      2.00000
     55      -4.4973      2.00000
     56      -4.4251      2.00000
     57      -4.4152      2.00000
     58      -4.4113      2.00000
     59      -4.4074      2.00000
     60      -4.3899      2.00000
[...]
    238       5.7537      0.00000
    239       5.8180      0.00000
    240       5.8918      0.00000
    241       5.9931      0.00000
    242       6.0423      0.00000
    243       6.1729      0.00000
    244       6.3186      0.00000
    245       6.3941      0.00000
    246       6.4262      0.00000
    247       6.6461      0.00000
    248       6.7317      0.00000
    249       6.8372      0.00000
    250       6.8893      0.00000
    251       7.0256      0.00000
    252       7.2367      0.00000

 soft charge-density along one line, spin component           1
         0         1         2         3         4         5         6         7         8         9
 total charge-density along one line

------------------------ aborting loop because EDIFF is reached ----------------------------------------

 total charge

# of ion       s       p       d       tot
    1        0.415   0.204   9.177   9.796
    2        0.420   0.202   9.178   9.800
    3        0.420   0.203   9.178   9.800
    4        0.420   0.202   9.177   9.800
    5        0.413   0.205   9.178   9.796
    6        0.420   0.202   9.177   9.800
    7        0.420   0.203   9.177   9.800
    8        0.420   0.203   9.177   9.800
    9        0.415   0.203   9.179   9.796
   10        0.407   0.269   9.163   9.838
   11        0.409   0.267   9.168   9.844
   12        0.407   0.269   9.163   9.838
   13        0.410   0.267   9.168   9.845
   14        0.410   0.267   9.168   9.845
   15        0.402   0.269   9.167   9.837
   16        0.407   0.270   9.162   9.838
   17        0.402   0.269   9.167   9.837
   18        0.402   0.269   9.167   9.837
   19        0.404   0.266   9.166   9.837
   20        0.414   0.297   9.154   9.864
   21        0.414   0.297   9.154   9.864
   22        0.399   0.272   9.169   9.840
   23        0.414   0.299   9.151   9.864
   24        0.399   0.272   9.169   9.839
   25        0.404   0.267   9.166   9.836
   26        0.404   0.267   9.166   9.836
   27        0.398   0.273   9.168   9.839
   28        0.413   0.197   9.181   9.792
   29        0.413   0.213   9.174   9.799
   30        0.413   0.213   9.174   9.800
   31        0.418   0.217   9.170   9.804
   32        0.418   0.217   9.170   9.804
   33        0.417   0.217   9.169   9.804
   34        0.417   0.217   9.169   9.804
   35        0.406   0.200   9.183   9.789
   36        0.558   0.284   7.058   7.900
   37        0.619   0.121   0.000   0.740
   38        0.617   0.119   0.000   0.736
   39        1.572   3.584   0.000   5.156
tot         17.747  12.549 328.000 358.297

  FORCE on cell =-STRESS in cart. coord.  units (eV):
  Direction    XX          YY          ZZ          XY          YZ          ZX
  Alpha Z   688.67167   688.67167   688.67167
  Ewald  161826.32761161769.84366************    -0.40488    14.57909    -0.00786
  Hartree171867.47078171857.12860************    -0.05038     4.63955     0.15145
  E(xc)   -2105.99767 -2106.20706 -2111.60907    -0.00134    -0.00625    -0.00256
  Local  ************************344965.41781     0.30803   -15.56401    -0.20870
  n-local  -363.95632  -365.00540  -370.67904     0.02204     0.21024    -0.00122
  augment  3266.01268  3267.12360  3276.72377     0.00829    -0.15741     0.00644
  Kinetic  5019.62148  5035.64440  5074.48509     0.08992    -3.45018     0.05371
  Fock        0.00000     0.00000     0.00000     0.00000     0.00000     0.00000
  Total      -8.50156    -8.79332     0.03335    -0.02833     0.25102    -0.00874
  in kB      -8.15570    -8.43559     0.03199    -0.02718     0.24081    -0.00839

 VOLUME and BASIS-vectors are now :
  energy-cutoff  :      500.00
  volume of cell :     1670.12
      direct lattice vectors                 reciprocal lattice vectors
     8.791366577  0.000000000  0.000000000     0.113747958 -0.065672414  0.000000000
     4.395683289  7.613546790  0.000000000     0.000000000  0.131344829  0.000000000
     0.000000000  0.000000000 24.951963562     0.000000000  0.000000000  0.040077006

  length of vectors
     8.791366577  8.791366577 24.951963562     0.131344829  0.131344829  0.040077006

 FORCES acting on ions
    electron-ion (+dipol)            ewald-force                    non-local-force                 convergence-correction
   0.305E-03 -.226E-01 0.273E+04   -.596E-03 -.885E-02 -.273E+04   0.269E-03 0.833E-02 -.236E+01   -.143E-03 0.193E-01 -.121E+00
   0.509E+00 0.607E+00 0.273E+04   -.557E+00 -.524E+00 -.273E+04   0.330E-01 -.407E-01 -.162E+01   0.164E-01 -.261E-01 -.114E+00
   -.509E+00 0.598E+00 0.273E+04   0.558E+00 -.523E+00 -.273E+04   -.333E-01 -.419E-01 -.162E+01   -.175E-01 -.168E-01 -.110E+00
   0.811E+00 0.159E+00 0.273E+04   -.725E+00 -.209E+00 -.273E+04   -.286E-01 0.377E-01 -.159E+01   -.408E-01 0.855E-02 -.945E-01
   -.148E-01 -.312E-01 0.274E+04   0.101E-02 0.163E-01 -.273E+04   -.164E-02 0.180E-01 -.160E+01   0.157E-01 0.777E-03 -.160E+00
   -.802E+00 0.153E+00 0.273E+04   0.724E+00 -.209E+00 -.273E+04   0.288E-01 0.382E-01 -.159E+01   0.327E-01 0.140E-01 -.877E-01
   0.270E+00 -.746E+00 0.273E+04   -.167E+00 0.733E+00 -.273E+04   -.616E-01 -.454E-02 -.158E+01   -.274E-01 0.692E-02 -.899E-01
   -.278E+00 -.739E+00 0.273E+04   0.167E+00 0.732E+00 -.273E+04   0.609E-01 -.460E-02 -.158E+01   0.357E-01 0.146E-02 -.868E-01
   0.137E-01 0.246E-01 0.273E+04   -.322E-03 -.722E-02 -.273E+04   0.232E-02 -.103E-01 -.195E+01   -.160E-01 -.100E-01 -.159E+00
   0.675E+01 0.387E+01 0.944E+03   -.633E+01 -.364E+01 -.943E+03   -.358E+00 -.207E+00 -.869E+00   -.368E-01 -.111E-01 0.944E-01
   -.180E-01 0.503E+01 0.951E+03   0.536E-02 -.508E+01 -.951E+03   -.266E-02 0.357E-02 -.506E+00   0.156E-01 0.388E-02 0.151E+00
   -.674E+01 0.386E+01 0.944E+03   0.632E+01 -.363E+01 -.943E+03   0.360E+00 -.207E+00 -.870E+00   0.281E-01 -.191E-02 0.974E-01
   0.434E+01 -.260E+01 0.951E+03   -.440E+01 0.264E+01 -.950E+03   0.103E-01 -.160E-01 -.480E+00   0.153E-01 0.149E-02 0.157E+00
   -.437E+01 -.260E+01 0.951E+03   0.441E+01 0.264E+01 -.950E+03   -.155E-01 -.160E-01 -.479E+00   0.993E-02 -.138E-02 0.159E+00
   0.169E-01 0.166E+01 0.944E+03   -.597E-02 -.160E+01 -.944E+03   0.500E-03 0.303E-02 -.621E+00   -.116E-01 -.738E-01 0.335E-01
   -.418E-02 -.771E+01 0.944E+03   0.791E-03 0.719E+01 -.943E+03   -.101E-03 0.457E+00 -.879E+00   0.359E-02 0.289E-01 0.116E+00
   0.151E+01 -.760E+00 0.945E+03   -.147E+01 0.740E+00 -.944E+03   -.600E-02 -.137E-02 -.640E+00   -.514E-01 0.268E-01 0.571E-01
   -.151E+01 -.778E+00 0.945E+03   0.147E+01 0.746E+00 -.944E+03   0.648E-02 -.170E-02 -.640E+00   0.484E-01 0.385E-01 0.586E-01
   0.551E-01 0.363E+01 -.880E+03   -.422E-01 -.354E+01 0.880E+03   0.364E-02 -.546E-01 0.467E+00   -.167E-01 -.349E-01 0.104E+00
   0.124E+02 0.655E+01 -.836E+03   -.116E+02 -.609E+01 0.837E+03   -.902E+00 -.517E+00 -.109E+01   0.131E+00 0.745E-01 0.237E+00
   -.124E+02 0.653E+01 -.836E+03   0.116E+02 -.607E+01 0.837E+03   0.905E+00 -.519E+00 -.109E+01   -.121E+00 0.818E-01 0.235E+00
   0.284E+01 -.185E+01 -.867E+03   -.338E+01 0.216E+01 0.866E+03   0.410E+00 -.238E+00 0.537E+00   0.125E+00 -.678E-01 0.133E+00
   -.456E-01 -.146E+02 -.837E+03   0.343E-01 0.135E+02 0.838E+03   -.411E-03 0.116E+01 -.118E+01   0.119E-01 -.122E+00 0.230E+00
   -.278E+01 -.181E+01 -.867E+03   0.335E+01 0.213E+01 0.866E+03   -.409E+00 -.239E+00 0.536E+00   -.150E+00 -.730E-01 0.133E+00
   -.354E+01 -.136E+01 -.881E+03   0.353E+01 0.132E+01 0.880E+03   -.464E-02 0.517E-01 0.459E+00   0.181E-01 0.146E-02 0.964E-01
   0.356E+01 -.131E+01 -.881E+03   -.354E+01 0.128E+01 0.880E+03   0.906E-02 0.532E-01 0.460E+00   -.311E-01 -.105E-01 0.988E-01
   -.486E-02 0.417E+01 -.866E+03   0.114E-01 -.472E+01 0.865E+03   0.162E-02 0.416E+00 0.534E+00   -.856E-02 0.130E+00 0.140E+00
   0.107E+00 0.183E+01 -.266E+04   -.108E+00 -.186E+01 0.266E+04   -.461E-03 0.348E-03 0.199E+01   0.655E-03 0.254E-01 0.338E+00
   0.246E+02 0.419E+02 -.265E+04   -.241E+02 -.412E+02 0.264E+04   -.632E+00 -.944E+00 0.190E+01   0.659E-01 0.106E+00 0.305E+00
   -.247E+02 0.416E+02 -.265E+04   0.242E+02 -.408E+02 0.264E+04   0.634E+00 -.949E+00 0.189E+01   -.665E-01 0.115E+00 0.302E+00
   0.453E+02 -.279E+01 -.265E+04   -.442E+02 0.296E+01 0.265E+04   -.129E+01 -.127E+00 0.153E+01   0.915E-01 -.256E-01 0.311E+00
   -.449E+02 -.276E+01 -.265E+04   0.438E+02 0.293E+01 0.265E+04   0.129E+01 -.126E+00 0.152E+01   -.970E-01 -.212E-01 0.302E+00
   0.198E+02 -.366E+02 -.265E+04   -.194E+02 0.355E+02 0.265E+04   -.541E+00 0.118E+01 0.145E+01   0.611E-01 -.843E-01 0.263E+00
   -.199E+02 -.363E+02 -.265E+04   0.194E+02 0.352E+02 0.265E+04   0.541E+00 0.118E+01 0.145E+01   -.533E-01 -.879E-01 0.257E+00
   0.965E-01 0.136E+01 -.266E+04   -.841E-01 -.136E+01 0.266E+04   0.258E-02 -.140E-01 0.212E+01   -.152E-01 0.759E-02 0.411E+00
   -.373E+00 -.697E+01 -.201E+04   0.376E+00 0.730E+01 0.200E+04   -.128E-01 -.348E+00 0.308E+01   0.724E-02 -.258E-01 0.262E+00
   0.693E+02 -.494E+02 -.275E+03   -.763E+02 0.544E+02 0.276E+03   0.677E+01 -.486E+01 -.971E+00   0.245E-01 -.163E-01 -.155E-01
   -.699E+02 -.484E+02 -.275E+03   0.767E+02 0.532E+02 0.276E+03   -.678E+01 -.473E+01 -.937E+00   -.246E-01 -.157E-01 -.156E-01
   0.180E+00 0.589E+02 -.160E+04   -.351E+00 -.106E+03 0.159E+04   0.270E+00 0.472E+02 0.684E+01   -.352E-02 0.440E-01 -.187E+00
   -.220E+00 -.376E+02 -.394E+01   -.570E-13 0.313E-12 0.227E-12   0.260E+00 0.376E+02 0.196E-01   -.304E-01 0.920E-02 0.384E+01

 POSITION                                       TOTAL-FORCE (eV/Angst)
      0.00000      0.00000      5.28219        -0.000419     -0.003784      0.051449
      2.93046      0.00000      5.28219         0.001448      0.015753      0.030597
      5.86091      0.00000      5.28219        -0.001853      0.015818      0.030575
      1.46523      2.53785      5.28219         0.016391     -0.004239      0.029030
      4.39568      2.53785      5.28219        -0.000000      0.003938      0.012726
      7.32614      2.53785      5.28219        -0.016869     -0.004401      0.028946
      2.93046      5.07570      5.28219         0.013419     -0.009953      0.028361
      5.86091      5.07570      5.28219        -0.013940     -0.009941      0.028297
      8.79137      5.07570      5.28219        -0.000528     -0.002739      0.040433
      1.46523      0.84595      7.67490         0.027326      0.017635     -0.004197
      4.39568      0.84595      7.67490         0.000054     -0.044559     -0.110163
      7.32614      0.84595      7.67490        -0.027846      0.017760     -0.004067
      2.93046      3.38380      7.67490        -0.036457      0.022883     -0.111915
      5.86091      3.38380      7.67490         0.036421      0.022832     -0.112047
      8.79137      3.38380      7.67490        -0.000390     -0.016598      0.004111
      4.39568      5.92165      7.67490        -0.000158     -0.031267      0.002518
      7.32614      5.92165      7.67490        -0.014785      0.005597      0.000395
     10.25659      5.92165      7.67490         0.014175      0.005706      0.000366
      8.79137      1.70006     10.06849        -0.000320     -0.008347     -0.010617
      2.92657      1.68966     10.02287         0.023865      0.019086     -0.028935
      5.86479      1.68966     10.02287        -0.025274      0.019932     -0.027428
     10.25237      4.23218     10.05185        -0.012210      0.003089     -0.012828
      4.39568      4.23423     10.02287         0.000032     -0.058984      0.007755
      7.33036      4.23218     10.05185         0.011345      0.003220     -0.012932
     11.71475      6.76352     10.06849         0.004385      0.009967     -0.011088
      5.86798      6.76352     10.06849        -0.005247      0.010133     -0.010712
      8.79137      6.76272     10.05185        -0.000605     -0.004948      0.004494
      0.00000      0.00000     12.42216        -0.000429     -0.004326      0.016975
      2.95716      0.04978     12.43839        -0.038094     -0.063639     -0.046444
      5.83420      0.04978     12.43839         0.037963     -0.062586     -0.045962
      1.52169      2.53609     12.43839        -0.063813      0.018924     -0.036815
      7.26967      2.53609     12.43839         0.061648      0.018301     -0.034182
      2.96021      5.02768     12.43839        -0.027331      0.035611     -0.003875
      5.83115      5.02768     12.43839         0.026774      0.035069     -0.002876
      8.79137      5.07570     12.41166        -0.000491     -0.008468      0.011002
      4.39568      2.53785     12.21369        -0.002979     -0.038257      0.492341
      3.61901      2.83148     15.05011        -0.135770      0.102205     -0.010028
      5.16081      2.82281     15.04744         0.055727      0.039051     -0.020450
      4.38509      2.24424     14.92993         0.094835     -0.065474     -0.162809
    total drift:                                0.009921     -0.003973     -0.084316

  FREE ENERGIE OF THE ION-ELECTRON SYSTEM (eV)
  free  energy   TOTEN  =      -110.42086440 eV

  energy  without entropy=     -110.42086440  energy(sigma->0) =     -110.42086440

 stress matrix after NEB project (eV)
     -8.50156     -0.02833     -0.00874
     -0.02833     -8.79332      0.25102
     -0.00874      0.25102      0.03335
  FORCES: max atom, RMS     0.199467    0.043505
  FORCE total and by dimension    0.271690    0.162809
  Stress total and by dimension   12.236334    8.793320
|           W    W    AA    RRRRR   N    N  II  N    N   GGGG   !!!           |
|           W    W   A  A   R    R  NN   N  II  NN   N  G    G  !!!           |
|           W    W  A    A  R    R  N N  N  II  N N  N  G       !!!           |
|           W WW W  AAAAAA  RRRRR   N  N N  II  N  N N  G  GGG   !            |
|           WW  WW  A    A  R   R   N   NN  II  N   NN  G    G                |
|           W    W  A    A  R    R  N    N  II  N    N   GGGG   !!!           |
|     Tetrahedron method does not include variations of the Fermi             |
|     occupations, so forces and stress will be inaccurate. We suggest        |
|     using a different smearing scheme ISMEAR = 1 or 2 for metals in         |
|     relaxations.                                                            |

 total charge

# of ion       s       p       d       tot
    1        0.415   0.204   9.177   9.796
    2        0.420   0.202   9.178   9.800
    3        0.420   0.203   9.178   9.800
    4        0.420   0.202   9.177   9.800
    5        0.413   0.205   9.178   9.796
    6        0.420   0.202   9.177   9.800
    7        0.420   0.203   9.177   9.800
    8        0.420   0.203   9.177   9.800
    9        0.415   0.203   9.179   9.796
   10        0.407   0.269   9.163   9.838
   11        0.409   0.267   9.168   9.844
   12        0.407   0.269   9.163   9.838
   13        0.410   0.267   9.168   9.845
   14        0.410   0.267   9.168   9.845
   15        0.402   0.269   9.167   9.837
   16        0.407   0.270   9.162   9.838
   17        0.402   0.269   9.167   9.837
   18        0.402   0.269   9.167   9.837
   19        0.404   0.266   9.166   9.837
   20        0.414   0.297   9.154   9.864
   21        0.414   0.297   9.154   9.864
   22        0.399   0.272   9.169   9.840
   23        0.414   0.299   9.151   9.864
   24        0.399   0.272   9.169   9.839
   25        0.404   0.267   9.166   9.836
   26        0.404   0.267   9.166   9.836
   27        0.398   0.273   9.168   9.839
   28        0.413   0.197   9.181   9.792
   29        0.413   0.213   9.174   9.799
   30        0.413   0.213   9.174   9.800
   31        0.418   0.217   9.170   9.804
   32        0.418   0.217   9.170   9.804
   33        0.417   0.217   9.169   9.804
   34        0.417   0.217   9.169   9.804
   35        0.406   0.200   9.183   9.789
   36        0.558   0.284   7.058   7.900
   37        0.619   0.121   0.000   0.740
   38        0.617   0.119   0.000   0.736
   39        1.572   3.584   0.000   5.156
tot         17.747  12.549 328.000 358.297

 BZINTS: Fermi energy:    0.408976;  402.000000 electrons
         Band energy:-0.149355E+04;  BLOECHL correction:   -0.051422