 vasp.6.2.0 18Jan21 (build Jun 12 2021 23:27:24) complex

 executed on             LinuxIFC date 2022.05.30  15:44:20

 INCAR:
   ISMEAR = -5
   SIGMA = 0.1
   ISPIN = 1
   EDIFF = 1.d-5
   EDIFFG = -0.01
   NSW = 0
   NELM = 150
   ENCUT = 500
   ISIF = 2
   IBRION = 2
   LREAL = Auto
   ALGO = Fast
   ICHARG = 11
   LORBIT = 10
   LCHARG = .F.
   LWAVE = .F.

 POTCAR:    PAW_PBE Au 04Oct2007
 POTCAR:    PAW_PBE V 08Apr2002
 POTCAR:    PAW_PBE C 08Apr2002
 POTCAR:    PAW_PBE O 08Apr2002
 POTCAR:    PAW_PBE H 15Jun2001
|           W    W    AA    RRRRR   N    N  II  N    N   GGGG   !!!           |
|           W    W   A  A   R    R  NN   N  II  NN   N  G    G  !!!           |
|           W    W  A    A  R    R  N N  N  II  N N  N  G       !!!           |
|           W WW W  AAAAAA  RRRRR   N  N N  II  N  N N  G  GGG   !            |
|           WW  WW  A    A  R   R   N   NN  II  N   NN  G    G                |
|           W    W  A    A  R    R  N    N  II  N    N   GGGG   !!!           |
|     For optimal performance we recommend to set                             |
|       NCORE = 2 up to number-of-cores-per-socket                            |
|     This setting can greatly improve the performance of VASP for DFT.       |
|     The default, NCORE=1 might be grossly inefficient on modern             |
|     multi-core architectures or massively parallel machines. Do your        |
|     Unfortunately you need to use the default for GW and RPA                |
|     calculations (for HF NCORE is supported but not extensively tested      |
|     yet).                                                                   |

 POTCAR:    PAW_PBE Au 04Oct2007
   VRHFIN =Au: s1d10

   TITEL  = PAW_PBE Au 04Oct2007
   POMASS =  196.966; ZVAL   =   11.000    mass and valenz
   ENMAX  =  229.943; ENMIN  =  172.457 eV

 POTCAR:    PAW_PBE V 08Apr2002
   VRHFIN =V: p6 d4 s1

   TITEL  = PAW_PBE V 08Apr2002
   POMASS =   50.941; ZVAL   =    5.000    mass and valenz
   ENMAX  =  192.543; ENMIN  =  144.408 eV

 POTCAR:    PAW_PBE C 08Apr2002
   VRHFIN =C: s2p2

[...]

 POTCAR:    PAW_PBE O 08Apr2002
   VRHFIN =O: s2p4

   TITEL  = PAW_PBE O 08Apr2002
   POMASS =   16.000; ZVAL   =    6.000    mass and valenz
   ENMAX  =  400.000; ENMIN  =  300.000 eV

 POTCAR:    PAW_PBE H 15Jun2001
   VRHFIN =H: ultrasoft test

   TITEL  = PAW_PBE H 15Jun2001
   POMASS =    1.000; ZVAL   =    1.000    mass and valenz
   ENMAX  =  250.000; ENMIN  =  200.000 eV

 Optimization of the real space projectors (new method)

 maximal supplied QI-value         = 15.12
 optimisation between [QCUT,QGAM] = [ 11.34, 22.83] = [ 36.00,145.93] Ry
 Optimized for a Real-space Cutoff    1.39 Angstroem

   l    n(q)    QCUT    max X(q) W(low)/X(q) W(high)/X(q)  e(spline)
   2      9    11.338    60.898    0.39E-03    0.42E-03    0.21E-06
   2      9    11.338    58.894    0.40E-03    0.42E-03    0.22E-06
   0      9    11.338   109.617    0.13E-03    0.20E-04    0.13E-06
   0      9    11.338    75.026    0.13E-03    0.20E-04    0.13E-06
   1      9    11.338    16.344    0.33E-04    0.24E-03    0.18E-06
   1      9    11.338    10.160    0.26E-04    0.19E-03    0.15E-06
 Optimization of the real space projectors (new method)

[...]

   l    n(q)    QCUT    max X(q) W(low)/X(q) W(high)/X(q)  e(spline)
   0      7    11.387    20.381    0.39E-03    0.13E-02    0.15E-06
   0      7    11.387    15.268    0.42E-03    0.14E-02    0.17E-06
   1      6    11.387     5.964    0.41E-03    0.11E-02    0.17E-06
   1      6    11.387     5.382    0.39E-03    0.87E-03    0.15E-06
 Optimization of the real space projectors (new method)

 maximal supplied QI-value         = 34.20
 optimisation between [QCUT,QGAM] = [ 11.29, 22.57] = [ 35.68,142.71] Ry
 Optimized for a Real-space Cutoff    1.16 Angstroem

   l    n(q)    QCUT    max X(q) W(low)/X(q) W(high)/X(q)  e(spline)
   0      8    11.287    19.460    0.40E-03    0.73E-03    0.16E-06
   0      8    11.287    12.209    0.38E-03    0.70E-03    0.15E-06
   1      7    11.287     4.655    0.22E-03    0.25E-04    0.22E-06
  PAW_PBE Au 04Oct2007                  :
  PAW_PBE V 08Apr2002                   :
  PAW_PBE C 08Apr2002                   :
  PAW_PBE O 08Apr2002                   :
  PAW_PBE H 15Jun2001                   :

 POSCAR: Au-V-COH
  positions in direct lattice
  velocities in cartesian coordinates
 exchange correlation table for  LEXCH =        8
   RHO(1)=    0.500       N(1)  =     2000
   RHO(2)=  100.500       N(2)  =     4000

 VTST: version 3.2, (02/03/18)

 CHAIN: initializing optimizer

 OPT: Using VASP Conjugate-Gradient optimizer
 CHAIN: Read ICHAIN            0

 POSCAR: Au-V-COH
  positions in direct lattice
  velocities in cartesian coordinates

 ion  position               nearest neighbor table
   1  0.000  0.000  0.197-  16 2.94  12 2.94   6 2.94   8 2.94   7 2.94   3 2.94  10 2.94   4 2.94
                             2 2.94
   2  0.333  0.000  0.197-   9 2.94  11 2.94  17 2.94  10 2.94   8 2.94   4 2.94   5 2.94   1 2.94
                             3 2.94
   3  0.667  0.000  0.197-   7 2.94  18 2.94  12 2.94   1 2.94  11 2.94   5 2.94   6 2.94   9 2.94
                             2 2.94
   4  0.000  0.333  0.197-  10 2.94   6 2.94   5 2.94  13 2.94   2 2.94  15 2.94   9 2.94   1 2.94
                             7 2.94
   5  0.333  0.333  0.197-  13 2.94   7 2.94  11 2.94   4 2.94   2 2.94  14 2.94   3 2.94   8 2.94
                             6 2.94
   6  0.667  0.333  0.197-  15 2.94  14 2.94   1 2.94  12 2.94   4 2.94   9 2.94   8 2.94   3 2.94
                             5 2.94
   7  0.000  0.667  0.197-  18 2.94   3 2.94  16 2.94   5 2.94   1 2.94  13 2.94   8 2.94   4 2.94
                             9 2.94
   8  0.333  0.667  0.197-   9 2.94  17 2.94   1 2.94   2 2.94  14 2.94  16 2.94   6 2.94   7 2.94
                             5 2.94
   9  0.667  0.667  0.197-   2 2.94   8 2.94  17 2.94   6 2.94  15 2.94   4 2.94   3 2.94  18 2.94
                             7 2.94
  10  0.111  0.111  0.287-  20 2.93  26 2.94  19 2.94  11 2.94  17 2.94   2 2.94   4 2.94   1 2.94
                            12 2.94  16 2.94  13 2.94  15 2.94
  11  0.444  0.111  0.287-  20 2.92  21 2.92  27 2.94  13 2.94   2 2.94  10 2.94  17 2.94   5 2.94
                             3 2.94  18 2.94  14 2.94  12 2.94
  12  0.778  0.111  0.287-  21 2.93  25 2.94  19 2.94  16 2.94  18 2.94   1 2.94  14 2.94  15 2.94
                             3 2.94   6 2.94  10 2.94  11 2.94
  13  0.111  0.444  0.287-  23 2.92  20 2.92  22 2.94   5 2.94  18 2.94  11 2.94   7 2.94   4 2.94
                            16 2.94  10 2.94  14 2.94  15 2.94
  14  0.444  0.444  0.287-  21 2.92  23 2.92  24 2.94  15 2.94   6 2.94  12 2.94   8 2.94  17 2.94
                             5 2.94  16 2.94  13 2.94  11 2.94
  15  0.778  0.444  0.287-  24 2.92  22 2.92  19 2.93  14 2.94   6 2.94  17 2.94  12 2.94   9 2.94
                             4 2.94  10 2.94  13 2.94  18 2.94
  16  0.111  0.778  0.287-  23 2.93  25 2.94  26 2.94  18 2.94  12 2.94   7 2.94   1 2.94   8 2.94
                            13 2.94  10 2.94  14 2.94  17 2.94
  17  0.444  0.778  0.287-  27 2.92  24 2.92  26 2.93   9 2.94  15 2.94   2 2.94  10 2.94  11 2.94
                             8 2.94  14 2.94  16 2.94  18 2.94
  18  0.778  0.778  0.287-  22 2.92  27 2.92  25 2.93  16 2.94   7 2.94  13 2.94  12 2.94   3 2.94
                            11 2.94   9 2.94  15 2.94  17 2.94
  19  0.889  0.222  0.377-  15 2.93  10 2.94  12 2.94  24 2.94  22 2.94  28 2.94  26 2.94  25 2.94
                            21 2.95  20 2.95  32 3.03  31 3.03
  20  0.223  0.223  0.376-  36 2.72  23 2.92  21 2.92  11 2.92  13 2.92  10 2.93  29 2.95  31 2.95
                            26 2.95  19 2.95  27 2.95  22 2.95
  21  0.554  0.223  0.376-  36 2.72  20 2.92  23 2.92  14 2.92  11 2.92  12 2.93  30 2.95  32 2.95
                            25 2.95  19 2.95  27 2.95  24 2.95
  22  0.887  0.557  0.376-  24 2.91  27 2.91  18 2.92  15 2.92  25 2.94  19 2.94  13 2.94  23 2.95
                            20 2.95  35 2.96  33 2.99  31 2.99
  23  0.223  0.554  0.376-  36 2.72  20 2.92  21 2.92  13 2.92  14 2.92  16 2.93  33 2.95  34 2.95
                            25 2.95  26 2.95  22 2.95  24 2.95
  24  0.557  0.557  0.376-  27 2.91  22 2.91  15 2.92  17 2.92  26 2.94  19 2.94  14 2.94  21 2.95
                            23 2.95  35 2.96  32 2.99  34 2.99
  25  0.889  0.889  0.377-  18 2.93  16 2.94  12 2.94  22 2.94  27 2.94  28 2.94  19 2.94  26 2.94
                            23 2.95  21 2.95  33 3.03  30 3.03
  26  0.222  0.889  0.377-  17 2.93  10 2.94  16 2.94  27 2.94  24 2.94  28 2.94  19 2.94  25 2.94
                            20 2.95  23 2.95  29 3.03  34 3.03
  27  0.557  0.887  0.376-  24 2.91  22 2.91  17 2.92  18 2.92  26 2.94  25 2.94  11 2.94  20 2.95
                            21 2.95  35 2.96  29 2.99  30 2.99
  28  0.000  0.000  0.466-  25 2.94  19 2.94  26 2.94  34 2.99  32 2.99  33 2.99  30 2.99  31 2.99
                            29 2.99
  29  0.334  0.011  0.468-  30 2.83  31 2.85  36 2.86  20 2.95  35 2.98  27 2.99  28 2.99  26 3.03
                            34 3.13
  30  0.655  0.011  0.468-  29 2.83  32 2.85  36 2.86  21 2.95  35 2.98  27 2.99  28 2.99  25 3.03
                            33 3.13
  31  0.011  0.334  0.468-  33 2.83  29 2.85  36 2.86  20 2.95  35 2.98  22 2.99  28 2.99  19 3.03
                            32 3.13
  32  0.655  0.334  0.468-  34 2.83  30 2.85  36 2.86  21 2.95  35 2.98  24 2.99  28 2.99  19 3.03
                            31 3.13
  33  0.011  0.655  0.468-  31 2.83  34 2.85  36 2.86  23 2.95  35 2.98  22 2.99  28 2.99  25 3.03
                            30 3.13
  34  0.334  0.655  0.468-  32 2.83  33 2.85  36 2.86  23 2.95  35 2.98  24 2.99  28 2.99  26 3.03
                            29 3.13
  35  0.667  0.667  0.467-  24 2.96  27 2.96  22 2.96  29 2.98  34 2.98  32 2.98  31 2.98  30 2.98
                            33 2.98
  36  0.333  0.333  0.456-  37 1.78  20 2.72  23 2.72  21 2.72  33 2.86  31 2.86  29 2.86  30 2.86
                            34 2.86  32 2.86
  37  0.333  0.333  0.523-  38 1.26  36 1.78
  38  0.333  0.333  0.570-  39 0.96  37 1.26
  39  0.333  0.333  0.605-  38 0.96

  LATTYP: Found a hexagonal cell.
 ALAT       =     8.8135128021
 C/A-ratio  =     3.0356784858

  Lattice vectors:

 A1 = (  -4.4067569092,  -7.6327256898,   0.0000000000)
 A2 = (   8.8135128021,   0.0000000000,   0.0000000000)
 A3 = (   0.0000000000,   0.0000000000,  26.7549911976)

Analysis of symmetry for initial positions (statically):
 Subroutine PRICEL returns:
 Original cell was already a primitive cell.

 Routine SETGRP: Setting up the symmetry group for a
 hexagonal supercell.

 Subroutine GETGRP returns: Found  6 space group operations
 (whereof  6 operations were pure point group operations)
 out of a pool of 24 trial point group operations.

The static configuration has the point symmetry C_3v.

Analysis of symmetry for dynamics (positions and initial velocities):
 Subroutine PRICEL returns:
 Original cell was already a primitive cell.

[...]

[...]
     41      -5.0328      2.00000
     42      -4.9774      2.00000
     43      -4.9557      2.00000
     44      -4.9008      2.00000
     45      -4.8484      2.00000
     46      -4.8250      2.00000
     47      -4.7711      2.00000
     48      -4.7526      2.00000
     49      -4.7389      2.00000
     50      -4.7226      2.00000
     51      -4.6257      2.00000
     52      -4.5994      2.00000
     53      -4.5795      2.00000
     54      -4.5534      2.00000
     55      -4.5504      2.00000
     56      -4.5445      2.00000
     57      -4.5205      2.00000
     58      -4.5012      2.00000
     59      -4.4588      2.00000
     60      -4.4310      2.00000
[...]
    238       5.2561      0.00000
    239       5.3000      0.00000
    240       5.4714      0.00000
    241       5.5606      0.00000
    242       5.6805      0.00000
    243       5.8982      0.00000
    244       5.9152      0.00000
    245       5.9392      0.00000
    246       6.0285      0.00000
    247       6.0631      0.00000
    248       6.1081      0.00000
    249       6.1201      0.00000
    250       6.1719      0.00000
    251       6.2882      0.00000
    252       6.3455      0.00000

 soft charge-density along one line, spin component           1
         0         1         2         3         4         5         6         7         8         9
 total charge-density along one line

------------------------ aborting loop because EDIFF is reached ----------------------------------------

 total charge

# of ion       s       p       d       tot
    1        0.544   0.238   8.769   9.551
    2        0.544   0.241   8.764   9.550
    3        0.544   0.241   8.764   9.550
    4        0.544   0.241   8.764   9.550
    5        0.546   0.242   8.759   9.547
    6        0.544   0.241   8.764   9.550
    7        0.544   0.241   8.764   9.550
    8        0.544   0.241   8.764   9.550
    9        0.542   0.240   8.770   9.552
   10        0.522   0.307   8.769   9.599
   11        0.524   0.306   8.777   9.606
   12        0.522   0.307   8.769   9.599
   13        0.524   0.306   8.777   9.606
   14        0.524   0.306   8.777   9.606
   15        0.516   0.310   8.773   9.599
   16        0.522   0.307   8.769   9.599
   17        0.516   0.310   8.773   9.599
   18        0.516   0.310   8.773   9.599
   19        0.518   0.298   8.771   9.586
   20        0.557   0.329   8.745   9.630
   21        0.557   0.329   8.745   9.630
   22        0.509   0.308   8.776   9.593
   23        0.557   0.329   8.745   9.630
   24        0.509   0.308   8.776   9.593
   25        0.518   0.298   8.771   9.586
   26        0.518   0.298   8.771   9.586
   27        0.509   0.308   8.776   9.593
   28        0.540   0.227   8.763   9.530
   29        0.565   0.242   8.749   9.556
   30        0.565   0.242   8.749   9.556
   31        0.565   0.242   8.749   9.556
   32        0.565   0.242   8.749   9.556
   33        0.565   0.242   8.749   9.556
   34        0.565   0.242   8.749   9.556
   35        0.543   0.227   8.759   9.528
   36        0.465   0.678   3.575   4.718
   37        0.938   1.424   0.000   2.361
   38        1.522   3.769   0.000   5.291
   39        0.564   0.138   0.000   0.702
tot         22.295  15.657 310.307 348.259

  FORCE on cell =-STRESS in cart. coord.  units (eV):
  Direction    XX          YY          ZZ          XY          YZ          ZX
  Alpha Z   849.81650   849.81650   849.81650
  Ewald  184281.02849184281.02891************    -0.00031    -0.00009    -0.00013
  Hartree192744.31281192744.31281************     0.00001    -0.00002    -0.00004
  E(xc)   -1796.70409 -1796.70423 -1804.63574     0.00012    -0.00001    -0.00002
  Local  ************************389037.92167     0.00216     0.00000    -0.00002
  n-local  -102.50303   -57.49083   -53.42966    22.31988    -1.49737     1.57444
  augment  2391.36020  2391.36174  2408.76887    -0.00133     0.00001     0.00003
  Kinetic  5591.15674  5599.25720  5593.91175     5.21953     0.22881     0.31073
  Fock        0.00000     0.00000     0.00000     0.00000     0.00000     0.00000
  Total     -22.13247   -22.13247     1.62733    -0.00000     0.00000     0.00000
  in kB     -19.70185   -19.70185     1.44861    -0.00000     0.00000     0.00000

 VOLUME and BASIS-vectors are now :
  energy-cutoff  :      500.00
  volume of cell :     1799.84
      direct lattice vectors                 reciprocal lattice vectors
     8.813512802  0.000000000  0.000000000     0.113462137 -0.065507406  0.000000000
     4.406756909  7.632725690  0.000000000     0.000000000  0.131014796  0.000000000
     0.000000000  0.000000000 26.754991198     0.000000000  0.000000000  0.037376204

  length of vectors
     8.813512802  8.813512802 26.754991198     0.131014796  0.131014796  0.037376204

 FORCES acting on ions
    electron-ion (+dipol)            ewald-force                    non-local-force                 convergence-correction
   -.199E-04 -.164E-04 0.281E+04   0.519E-04 0.433E-04 -.281E+04   0.391E-17 -.268E-17 -.789E+00   -.238E-03 -.151E-03 -.212E+00
   0.265E+00 -.229E+00 0.281E+04   -.306E+00 0.719E-01 -.281E+04   0.474E-01 0.924E-01 -.245E+00   0.668E-03 0.728E-01 -.184E+00
   -.265E+00 -.229E+00 0.281E+04   0.306E+00 0.719E-01 -.281E+04   -.474E-01 0.924E-01 -.245E+00   -.347E-03 0.747E-01 -.183E+00
   -.659E-01 0.344E+00 0.281E+04   -.908E-01 -.301E+00 -.281E+04   0.104E+00 -.520E-02 -.245E+00   0.634E-01 -.359E-01 -.184E+00
   0.106E-04 -.222E-04 0.281E+04   0.951E-04 0.173E-05 -.281E+04   0.373E-17 -.990E-18 0.764E-02   0.428E-02 0.260E-02 -.834E-01
   0.659E-01 0.344E+00 0.281E+04   0.907E-01 -.301E+00 -.281E+04   -.104E+00 -.520E-02 -.245E+00   -.650E-01 -.350E-01 -.183E+00
   -.331E+00 -.115E+00 0.281E+04   0.215E+00 0.229E+00 -.281E+04   0.564E-01 -.872E-01 -.245E+00   0.646E-01 -.377E-01 -.183E+00
   0.331E+00 -.115E+00 0.281E+04   -.215E+00 0.229E+00 -.281E+04   -.564E-01 -.872E-01 -.245E+00   -.628E-01 -.388E-01 -.183E+00
   0.197E-04 -.415E-04 0.281E+04   0.166E-03 -.200E-04 -.281E+04   0.153E-17 -.121E-17 -.526E+00   -.458E-02 -.237E-02 -.212E+00
   0.170E+01 0.979E+00 0.955E+03   -.148E+01 -.856E+00 -.954E+03   -.277E+00 -.160E+00 -.557E+00   0.643E-01 0.370E-01 0.866E-01
   0.150E-04 0.854E+00 0.957E+03   0.148E-03 -.102E+01 -.957E+03   0.440E-08 0.661E-01 -.205E+00   0.400E-02 0.694E-01 0.123E+00
   -.170E+01 0.979E+00 0.955E+03   0.148E+01 -.856E+00 -.954E+03   0.277E+00 -.160E+00 -.557E+00   -.658E-01 0.382E-01 0.865E-01
   0.740E+00 -.427E+00 0.957E+03   -.885E+00 0.511E+00 -.957E+03   0.572E-01 -.330E-01 -.205E+00   0.624E-01 -.310E-01 0.123E+00
   -.740E+00 -.427E+00 0.957E+03   0.885E+00 0.511E+00 -.957E+03   -.572E-01 -.330E-01 -.205E+00   -.549E-01 -.318E-01 0.122E+00
   0.322E-04 0.348E+01 0.959E+03   0.235E-03 -.343E+01 -.958E+03   0.733E-09 0.110E-01 -.496E+00   -.228E-02 -.953E-01 0.774E-01
   -.205E-04 -.196E+01 0.955E+03   0.162E-03 0.171E+01 -.954E+03   0.213E-07 0.320E+00 -.557E+00   -.713E-04 -.761E-01 0.865E-01
   0.301E+01 -.174E+01 0.959E+03   -.297E+01 0.172E+01 -.958E+03   0.953E-02 -.550E-02 -.496E+00   -.834E-01 0.461E-01 0.774E-01
   -.301E+01 -.174E+01 0.959E+03   0.297E+01 0.172E+01 -.958E+03   -.953E-02 -.550E-02 -.496E+00   0.837E-01 0.481E-01 0.780E-01
   -.434E-04 -.250E+01 -.920E+03   0.555E-04 0.245E+01 0.919E+03   0.531E-08 0.797E-01 0.709E+00   -.563E-03 -.103E-01 0.340E+00
   -.130E+01 -.753E+00 -.908E+03   0.211E+01 0.122E+01 0.908E+03   -.107E+01 -.619E+00 -.115E+01   0.156E+00 0.897E-01 0.520E+00
   0.130E+01 -.752E+00 -.908E+03   -.211E+01 0.122E+01 0.908E+03   0.107E+01 -.619E+00 -.115E+01   -.155E+00 0.900E-01 0.519E+00
   -.721E+01 0.416E+01 -.908E+03   0.668E+01 -.386E+01 0.907E+03   0.392E+00 -.226E+00 0.588E+00   0.184E+00 -.106E+00 0.320E+00
   -.942E-05 0.150E+01 -.908E+03   0.139E-03 -.244E+01 0.908E+03   0.824E-07 0.124E+01 -.115E+01   0.287E-03 -.179E+00 0.519E+00
   0.721E+01 0.416E+01 -.908E+03   -.668E+01 -.386E+01 0.907E+03   -.392E+00 -.226E+00 0.588E+00   -.184E+00 -.106E+00 0.320E+00
   0.217E+01 0.125E+01 -.920E+03   -.212E+01 -.123E+01 0.919E+03   -.690E-01 -.398E-01 0.709E+00   0.931E-02 0.532E-02 0.340E+00
   -.217E+01 0.125E+01 -.920E+03   0.212E+01 -.123E+01 0.919E+03   0.690E-01 -.398E-01 0.709E+00   -.890E-02 0.471E-02 0.340E+00
   0.889E-05 -.833E+01 -.908E+03   0.197E-03 0.771E+01 0.907E+03   0.301E-07 0.453E+00 0.588E+00   -.354E-03 0.212E+00 0.320E+00
   -.140E-04 -.134E-04 -.271E+04   0.300E-04 0.338E-04 0.270E+04   0.955E-18 0.885E-18 0.460E+00   -.550E-04 -.491E-04 0.343E+00
   0.260E+02 0.363E+02 -.270E+04   -.254E+02 -.354E+02 0.269E+04   -.856E+00 -.131E+01 0.274E+00   0.138E+00 0.259E+00 0.269E+00
   -.260E+02 0.363E+02 -.270E+04   0.254E+02 -.354E+02 0.269E+04   0.856E+00 -.131E+01 0.274E+00   -.138E+00 0.261E+00 0.269E+00
   0.445E+02 0.437E+01 -.270E+04   -.433E+02 -.428E+01 0.269E+04   -.156E+01 -.862E-01 0.274E+00   0.294E+00 -.100E-01 0.269E+00
   -.445E+02 0.437E+01 -.270E+04   0.433E+02 -.428E+01 0.269E+04   0.156E+01 -.862E-01 0.274E+00   -.295E+00 -.926E-02 0.269E+00
   0.185E+02 -.407E+02 -.270E+04   -.180E+02 0.397E+02 0.269E+04   -.706E+00 0.140E+01 0.274E+00   0.157E+00 -.250E+00 0.269E+00
   -.185E+02 -.407E+02 -.270E+04   0.180E+02 0.397E+02 0.269E+04   0.706E+00 0.140E+01 0.274E+00   -.155E+00 -.250E+00 0.269E+00
   0.352E-04 -.287E-04 -.272E+04   0.141E-03 -.494E-04 0.272E+04   0.113E-17 -.153E-17 0.276E+00   -.443E-02 -.226E-02 0.434E+00
   -.204E-04 -.151E-05 -.106E+04   0.527E-04 0.489E-05 0.106E+04   -.762E-18 -.555E-17 -.752E+00   0.923E-03 0.561E-03 0.173E+00
   -.875E-05 -.782E-04 -.100E+04   0.164E-04 0.109E-05 0.983E+03   0.150E-17 -.834E-18 0.216E+02   0.109E-02 0.665E-03 -.149E+00
   0.243E-03 -.899E-04 -.172E+04   0.544E-05 0.586E-06 0.173E+04   0.467E-19 -.694E-18 -.490E+01   0.383E-02 0.234E-02 -.154E+00
   0.632E-05 -.145E-04 -.332E+03   0.233E-06 0.449E-07 0.341E+03   -.339E-19 0.148E-19 -.873E+01   0.202E-03 0.124E-03 -.229E-01
   -.561E-03 -.955E-03 -.793E+01   0.128E-12 -.829E-13 -.648E-11   -.331E-15 0.213E-15 0.349E+01   0.112E-01 0.721E-02 0.503E+01

 POSITION                                       TOTAL-FORCE (eV/Angst)
      0.00000      0.00000      5.28038        -0.000000      0.000000     -0.129637
      2.93784      0.00000      5.28038         0.007608      0.008907     -0.064818
      5.87568      0.00000      5.28038        -0.007608      0.008907     -0.064818
      1.46892      2.54424      5.28038         0.011518      0.002136     -0.064818
      4.40676      2.54424      5.28038        -0.000000      0.000000     -0.110856
      7.34459      2.54424      5.28038        -0.011518      0.002136     -0.064818
      2.93784      5.08848      5.28038         0.003909     -0.011042     -0.064818
      5.87568      5.08848      5.28038        -0.003909     -0.011042     -0.064818
      8.81351      5.08848      5.28038        -0.000000      0.000000     -0.071775
      1.46892      0.84808      7.67911         0.000941      0.000543      0.126660
      4.40676      0.84808      7.67911        -0.000000     -0.033987      0.076824
      7.34459      0.84808      7.67911        -0.000941      0.000543      0.126660
      2.93784      3.39232      7.67911        -0.029433      0.016993      0.076824
      5.87568      3.39232      7.67911         0.029433      0.016993      0.076824
      8.81351      3.39232      7.67911        -0.000000     -0.037828      0.124517
      4.40676      5.93656      7.67911        -0.000000     -0.001087      0.126660
      7.34459      5.93656      7.67911        -0.032760      0.018914      0.124517
     10.28243      5.93656      7.67911         0.032760      0.018914      0.124517
      8.81351      1.69782     10.07545         0.000000      0.017999      0.060381
      2.94790      1.70197     10.06171        -0.109718     -0.063346     -0.200656
      5.86562      1.70197     10.06171         0.109718     -0.063346     -0.200656
     10.26824      4.24860     10.06503         0.044280     -0.025565      0.025495
      4.40676      4.22879     10.06171         0.000000      0.126692     -0.200656
      7.35878      4.24860     10.06503        -0.044280     -0.025565      0.025495
     11.74991      6.78381     10.07545        -0.015588     -0.009000      0.060381
      5.87712      6.78381     10.07545         0.015588     -0.009000      0.060381
      8.81351      6.76826     10.06503         0.000000      0.051130      0.025495
      0.00000      0.00000     12.47281        -0.000000      0.000000     -0.033551
      2.99055      0.08121     12.52138        -0.081840     -0.119079     -0.101496
      5.82296      0.08121     12.52138         0.081840     -0.119079     -0.101496
      1.56560      2.54929     12.52138        -0.144046     -0.011336     -0.101496
      7.24791      2.54929     12.52138         0.144046     -0.011336     -0.101496
      2.98181      5.00223     12.52138        -0.062205      0.130415     -0.101496
      5.83171      5.00223     12.52138         0.062205      0.130415     -0.101496
      8.81351      5.08848     12.50032        -0.000000      0.000000     -0.109952
      4.40676      2.54424     12.20130        -0.000000      0.000000      0.799751
      4.40676      2.54424     13.98207        -0.000000      0.000000      0.027424
      4.40676      2.54424     15.24181        -0.000000      0.000000     -0.013654
      4.40676      2.54424     16.19809        -0.000000      0.000000      0.000468
    total drift:                                0.010644      0.006255      0.593723

  FREE ENERGIE OF THE ION-ELECTRON SYSTEM (eV)
  free  energy   TOTEN  =      -132.58702487 eV

  energy  without entropy=     -132.58702487  energy(sigma->0) =     -132.58702487

 stress matrix after NEB project (eV)
    -22.13247     -0.00000      0.00000
     -0.00000    -22.13247      0.00000
      0.00000      0.00000      1.62733
  FORCES: max atom, RMS     0.027424    0.004906
  FORCE total and by dimension    0.030639    0.027424
  Stress total and by dimension   31.342312   22.132469
|           W    W    AA    RRRRR   N    N  II  N    N   GGGG   !!!           |
|           W    W   A  A   R    R  NN   N  II  NN   N  G    G  !!!           |
|           W    W  A    A  R    R  N N  N  II  N N  N  G       !!!           |
|           W WW W  AAAAAA  RRRRR   N  N N  II  N  N N  G  GGG   !            |
|           WW  WW  A    A  R   R   N   NN  II  N   NN  G    G                |
|           W    W  A    A  R    R  N    N  II  N    N   GGGG   !!!           |
|     Tetrahedron method does not include variations of the Fermi             |
|     occupations, so forces and stress will be inaccurate. We suggest        |
|     using a different smearing scheme ISMEAR = 1 or 2 for metals in         |
|     relaxations.                                                            |

 total charge

# of ion       s       p       d       tot
    1        0.544   0.238   8.769   9.551
    2        0.544   0.241   8.764   9.550
    3        0.544   0.241   8.764   9.550
    4        0.544   0.241   8.764   9.550
    5        0.546   0.242   8.759   9.547
    6        0.544   0.241   8.764   9.550
    7        0.544   0.241   8.764   9.550
    8        0.544   0.241   8.764   9.550
    9        0.542   0.240   8.770   9.552
   10        0.522   0.307   8.769   9.599
   11        0.524   0.306   8.777   9.606
   12        0.522   0.307   8.769   9.599
   13        0.524   0.306   8.777   9.606
   14        0.524   0.306   8.777   9.606
   15        0.516   0.310   8.773   9.599
   16        0.522   0.307   8.769   9.599
   17        0.516   0.310   8.773   9.599
   18        0.516   0.310   8.773   9.599
   19        0.518   0.298   8.771   9.586
   20        0.557   0.329   8.745   9.630
   21        0.557   0.329   8.745   9.630
   22        0.509   0.308   8.776   9.593
   23        0.557   0.329   8.745   9.630
   24        0.509   0.308   8.776   9.593
   25        0.518   0.298   8.771   9.586
   26        0.518   0.298   8.771   9.586
   27        0.509   0.308   8.776   9.593
   28        0.540   0.227   8.763   9.530
   29        0.565   0.242   8.749   9.556
   30        0.565   0.242   8.749   9.556
   31        0.565   0.242   8.749   9.556
   32        0.565   0.242   8.749   9.556
   33        0.565   0.242   8.749   9.556
   34        0.565   0.242   8.749   9.556
   35        0.543   0.227   8.759   9.528
   36        0.465   0.678   3.575   4.718
   37        0.938   1.424   0.000   2.361
   38        1.522   3.769   0.000   5.291
   39        0.564   0.138   0.000   0.702
tot         22.295  15.657 310.307 348.259

 BZINTS: Fermi energy:    0.241564;  401.000000 electrons
         Band energy:-0.147390E+04;  BLOECHL correction:   -0.054177