 vasp.6.2.0 18Jan21 (build Jun 12 2021 23:27:24) complex

 executed on             LinuxIFC date 2022.05.30  16:38:31

 INCAR:
   ISMEAR = -5
   SIGMA = 0.1
   ISPIN = 1
   EDIFF = 1.d-5
   EDIFFG = -0.01
   NSW = 0
   NELM = 150
   ENCUT = 500
   ISIF = 2
   IBRION = 2
   LREAL = Auto
   ALGO = Fast
   ICHARG = 11
   LORBIT = 10
   LCHARG = .F.
   LWAVE = .F.

 POTCAR:    PAW_PBE Au 04Oct2007
 POTCAR:    PAW_PBE Os 17Jan2003
 POTCAR:    PAW_PBE C 08Apr2002
|           W    W    AA    RRRRR   N    N  II  N    N   GGGG   !!!           |
|           W    W   A  A   R    R  NN   N  II  NN   N  G    G  !!!           |
|           W    W  A    A  R    R  N N  N  II  N N  N  G       !!!           |
|           W WW W  AAAAAA  RRRRR   N  N N  II  N  N N  G  GGG   !            |
|           WW  WW  A    A  R   R   N   NN  II  N   NN  G    G                |
|           W    W  A    A  R    R  N    N  II  N    N   GGGG   !!!           |
|     For optimal performance we recommend to set                             |
|       NCORE = 2 up to number-of-cores-per-socket                            |
|     This setting can greatly improve the performance of VASP for DFT.       |
|     The default, NCORE=1 might be grossly inefficient on modern             |
|     multi-core architectures or massively parallel machines. Do your        |
|     Unfortunately you need to use the default for GW and RPA                |
|     calculations (for HF NCORE is supported but not extensively tested      |
|     yet).                                                                   |

 POTCAR:    PAW_PBE Au 04Oct2007
   VRHFIN =Au: s1d10

   TITEL  = PAW_PBE Au 04Oct2007
   POMASS =  196.966; ZVAL   =   11.000    mass and valenz
   ENMAX  =  229.943; ENMIN  =  172.457 eV

 POTCAR:    PAW_PBE Os 17Jan2003
   VRHFIN =Os: 6s5d

   TITEL  = PAW_PBE Os 17Jan2003
   POMASS =  190.200; ZVAL   =    8.000    mass and valenz
   ENMAX  =  228.022; ENMIN  =  171.017 eV

 POTCAR:    PAW_PBE C 08Apr2002
   VRHFIN =C: s2p2

   TITEL  = PAW_PBE C 08Apr2002
   POMASS =   12.011; ZVAL   =    4.000    mass and valenz
   ENMAX  =  400.000; ENMIN  =  300.000 eV

 Optimization of the real space projectors (new method)

 maximal supplied QI-value         = 15.12
 optimisation between [QCUT,QGAM] = [ 11.34, 22.83] = [ 36.00,145.93] Ry
 Optimized for a Real-space Cutoff    1.39 Angstroem

   l    n(q)    QCUT    max X(q) W(low)/X(q) W(high)/X(q)  e(spline)
   2      9    11.338    60.898    0.39E-03    0.42E-03    0.21E-06
   2      9    11.338    58.894    0.40E-03    0.42E-03    0.22E-06
   0      9    11.338   109.617    0.13E-03    0.20E-04    0.13E-06
   0      9    11.338    75.026    0.13E-03    0.20E-04    0.13E-06
   1      9    11.338    16.344    0.33E-04    0.24E-03    0.18E-06
   1      9    11.338    10.160    0.26E-04    0.19E-03    0.15E-06
 Optimization of the real space projectors (new method)

[...]

   l    n(q)    QCUT    max X(q) W(low)/X(q) W(high)/X(q)  e(spline)
   2     10    11.327   152.873    0.32E-03    0.72E-03    0.11E-05
   2     10    11.327   151.010    0.32E-03    0.72E-03    0.11E-05
   0     11    11.327    72.114    0.43E-04    0.61E-04    0.13E-06
   0     11    11.327    44.596    0.40E-04    0.57E-04    0.12E-06
   1     10    11.327    13.742    0.16E-03    0.10E-03    0.19E-06
   1     10    11.327     8.461    0.12E-03    0.78E-04    0.15E-06
 Optimization of the real space projectors (new method)

 maximal supplied QI-value         = 25.13
 optimisation between [QCUT,QGAM] = [ 11.31, 22.87] = [ 35.82,146.48] Ry
 Optimized for a Real-space Cutoff    1.00 Angstroem

   l    n(q)    QCUT    max X(q) W(low)/X(q) W(high)/X(q)  e(spline)
   0      7    11.310   115.676    0.43E-03    0.13E-02    0.19E-06
   0      7    11.310    87.132    0.43E-03    0.13E-02    0.18E-06
   1      6    11.310     4.429    0.42E-03    0.74E-03    0.11E-06
   1      6    11.310     2.733    0.34E-03    0.55E-03    0.92E-07
  PAW_PBE Au 04Oct2007                  :
  PAW_PBE Os 17Jan2003                  :
  PAW_PBE C 08Apr2002                   :

 POSCAR: Au-Os-C
  positions in direct lattice
  velocities in cartesian coordinates
 exchange correlation table for  LEXCH =        8
   RHO(1)=    0.500       N(1)  =     2000
   RHO(2)=  100.500       N(2)  =     4000

 VTST: version 3.2, (02/03/18)

 CHAIN: initializing optimizer

 OPT: Using VASP Conjugate-Gradient optimizer
 CHAIN: Read ICHAIN            0

 POSCAR: Au-Os-C
  positions in direct lattice
  velocities in cartesian coordinates

 ion  position               nearest neighbor table
   1  0.000  0.000  0.217-  16 2.94  12 2.94   6 2.94   8 2.94   7 2.94   3 2.94  10 2.94   4 2.94
                             2 2.94
   2  0.333  0.000  0.217-   9 2.94  11 2.94  17 2.94  10 2.94   8 2.94   4 2.94   5 2.94   1 2.94
                             3 2.94
   3  0.667  0.000  0.217-   7 2.94  18 2.94  12 2.94   1 2.94  11 2.94   5 2.94   6 2.94   9 2.94
                             2 2.94
   4  0.000  0.333  0.217-  10 2.94   6 2.94   5 2.94  13 2.94   2 2.94  15 2.94   9 2.94   1 2.94
                             7 2.94
   5  0.333  0.333  0.217-  13 2.94   7 2.94  11 2.94   4 2.94   2 2.94  14 2.94   3 2.94   8 2.94
                             6 2.94
   6  0.667  0.333  0.217-  15 2.94  14 2.94   1 2.94  12 2.94   4 2.94   9 2.94   8 2.94   3 2.94
                             5 2.94
   7  0.000  0.667  0.217-  18 2.94   3 2.94  16 2.94   5 2.94   1 2.94  13 2.94   8 2.94   4 2.94
                             9 2.94
   8  0.333  0.667  0.217-   9 2.94  17 2.94   1 2.94   2 2.94  14 2.94  16 2.94   6 2.94   7 2.94
                             5 2.94
   9  0.667  0.667  0.217-   2 2.94   8 2.94  17 2.94   6 2.94  15 2.94   4 2.94   3 2.94  18 2.94
                             7 2.94
  10  0.111  0.111  0.316-  20 2.90  11 2.94  17 2.94   2 2.94   4 2.94   1 2.94  12 2.94  16 2.94
                            13 2.94  15 2.94  26 2.95  19 2.95
  11  0.444  0.111  0.316-  20 2.91  21 2.91  27 2.94  13 2.94   2 2.94  10 2.94  17 2.94   5 2.94
                             3 2.94  18 2.94  14 2.94  12 2.94
  12  0.778  0.111  0.316-  21 2.90  16 2.94  18 2.94   1 2.94  14 2.94  15 2.94   3 2.94   6 2.94
                            10 2.94  11 2.94  25 2.95  19 2.95
  13  0.111  0.444  0.316-  23 2.91  20 2.91  22 2.94   5 2.94  18 2.94  11 2.94   7 2.94   4 2.94
                            16 2.94  10 2.94  14 2.94  15 2.94
  14  0.444  0.444  0.316-  21 2.91  23 2.91  24 2.94  15 2.94   6 2.94  12 2.94   8 2.94  17 2.94
                             5 2.94  16 2.94  13 2.94  11 2.94
  15  0.778  0.444  0.316-  24 2.92  22 2.92  14 2.94   6 2.94  17 2.94  12 2.94   9 2.94   4 2.94
                            10 2.94  13 2.94  18 2.94  19 2.95
  16  0.111  0.778  0.316-  23 2.90  18 2.94  12 2.94   7 2.94   1 2.94   8 2.94  13 2.94  10 2.94
                            14 2.94  17 2.94  25 2.95  26 2.95
  17  0.444  0.778  0.316-  27 2.92  24 2.92   9 2.94  15 2.94   2 2.94  10 2.94  11 2.94   8 2.94
                            14 2.94  16 2.94  18 2.94  26 2.95
  18  0.778  0.778  0.316-  22 2.92  27 2.92  16 2.94   7 2.94  13 2.94  12 2.94   3 2.94  11 2.94
                             9 2.94  15 2.94  17 2.94  25 2.95
  19  0.888  0.223  0.415-  24 2.93  22 2.93  21 2.93  20 2.93  28 2.95  15 2.95  26 2.95  25 2.95
                            10 2.95  12 2.95  32 2.98  31 2.98
  20  0.222  0.222  0.413-  36 2.77  10 2.90  11 2.91  13 2.91  26 2.93  19 2.93  23 2.95  21 2.95
                            27 2.96  22 2.96  29 2.96  31 2.96
  21  0.556  0.222  0.413-  36 2.77  12 2.90  14 2.91  11 2.91  25 2.93  19 2.93  20 2.95  23 2.95
                            27 2.96  24 2.96  30 2.96  32 2.96
  22  0.886  0.557  0.414-  24 2.90  27 2.90  18 2.92  15 2.92  25 2.93  19 2.93  13 2.94  35 2.95
                            23 2.96  20 2.96  33 2.98  31 2.98
  23  0.222  0.556  0.413-  36 2.77  16 2.90  13 2.91  14 2.91  25 2.93  26 2.93  20 2.95  21 2.95
                            22 2.96  24 2.96  33 2.96  34 2.96
  24  0.557  0.557  0.414-  27 2.90  22 2.90  15 2.92  17 2.92  26 2.93  19 2.93  14 2.94  35 2.95
                            21 2.96  23 2.96  32 2.98  34 2.98
  25  0.888  0.888  0.415-  22 2.93  27 2.93  23 2.93  21 2.93  28 2.95  18 2.95  19 2.95  26 2.95
                            16 2.95  12 2.95  33 2.98  30 2.98
  26  0.223  0.888  0.415-  27 2.93  24 2.93  20 2.93  23 2.93  28 2.95  17 2.95  19 2.95  25 2.95
                            10 2.95  16 2.95  29 2.98  34 2.98
  27  0.557  0.886  0.414-  24 2.90  22 2.90  17 2.92  18 2.92  26 2.93  25 2.93  11 2.94  35 2.95
                            20 2.96  21 2.96  29 2.98  30 2.98
  28  0.000  0.000  0.514-  25 2.95  19 2.95  26 2.95  34 2.98  32 2.98  33 2.98  30 2.98  31 2.98
                            29 2.98
  29  0.333  0.009  0.514-  31 2.86  30 2.86  36 2.88  20 2.96  28 2.98  35 2.98  27 2.98  26 2.98
                            34 3.09
  30  0.658  0.009  0.514-  32 2.86  29 2.86  36 2.88  21 2.96  28 2.98  35 2.98  27 2.98  25 2.98
                            33 3.09
  31  0.009  0.333  0.514-  29 2.86  33 2.86  36 2.88  20 2.96  28 2.98  35 2.98  22 2.98  19 2.98
                            32 3.09
  32  0.658  0.333  0.514-  30 2.86  34 2.86  36 2.88  21 2.96  28 2.98  35 2.98  24 2.98  19 2.98
                            31 3.09
  33  0.009  0.658  0.514-  34 2.86  31 2.86  36 2.88  23 2.96  28 2.98  35 2.98  22 2.98  25 2.98
                            30 3.09
  34  0.333  0.658  0.514-  33 2.86  32 2.86  36 2.88  23 2.96  28 2.98  35 2.98  24 2.98  26 2.98
                            29 3.09
  35  0.667  0.667  0.514-  24 2.95  27 2.95  22 2.95  29 2.98  34 2.98  32 2.98  31 2.98  30 2.98
                            33 2.98
  36  0.333  0.333  0.502-  37 1.74  20 2.77  23 2.77  21 2.77  33 2.88  31 2.88  29 2.88  30 2.88
                            34 2.88  32 2.88
  37  0.333  0.333  0.574-  36 1.74

  LATTYP: Found a hexagonal cell.
 ALAT       =     8.8135128021
 C/A-ratio  =     2.7586513333

  Lattice vectors:

 A1 = (  -4.4067569092,  -7.6327256898,   0.0000000000)
 A2 = (   8.8135128021,   0.0000000000,   0.0000000000)
 A3 = (   0.0000000000,   0.0000000000,  24.3134088421)

Analysis of symmetry for initial positions (statically):
 Subroutine PRICEL returns:
 Original cell was already a primitive cell.

 Routine SETGRP: Setting up the symmetry group for a
 hexagonal supercell.

 Subroutine GETGRP returns: Found  6 space group operations
 (whereof  6 operations were pure point group operations)
 out of a pool of 24 trial point group operations.

The static configuration has the point symmetry C_3v.

Analysis of symmetry for dynamics (positions and initial velocities):
 Subroutine PRICEL returns:
 Original cell was already a primitive cell.

[...]

The dynamic configuration has the point symmetry C_3v.

Analysis of constrained symmetry for selective dynamics:
 Subroutine PRICEL returns:
 Original cell was already a primitive cell.

 Routine SETGRP: Setting up the symmetry group for a
 hexagonal supercell.

 Subroutine GETGRP returns: Found  6 space group operations
[...]
     24      -5.6254      2.00000
     25      -5.5938      2.00000
     26      -5.5902      2.00000
     27      -5.5388      2.00000
     28      -5.4709      2.00000
     29      -5.4428      2.00000
     30      -5.3544      2.00000
     31      -5.3432      2.00000
     32      -5.3240      2.00000
     33      -5.2874      2.00000
     34      -5.2853      2.00000
     35      -5.2708      2.00000
     36      -5.1843      2.00000
     37      -5.1723      2.00000
     38      -5.1013      2.00000
     39      -5.0665      2.00000
     40      -5.0162      2.00000
     41      -4.9683      2.00000
     42      -4.9408      2.00000
     43      -4.9054      2.00000
     44      -4.8916      2.00000
     45      -4.8420      2.00000
     46      -4.8198      2.00000
     47      -4.7272      2.00000
     48      -4.7090      2.00000
     49      -4.6802      2.00000
     50      -4.6614      2.00000
     51      -4.6527      2.00000
     52      -4.6481      2.00000
     53      -4.6331      2.00000
     54      -4.6064      2.00000
     55      -4.5759      2.00000
     56      -4.5257      2.00000
     57      -4.5128      2.00000
     58      -4.4968      2.00000
     59      -4.4871      2.00000
     60      -4.4804      2.00000
[...]
    238       6.0064      0.00000
    239       6.0348      0.00000
    240       6.0824      0.00000
    241       6.2437      0.00000
    242       6.2927      0.00000
    243       6.2983      0.00000
    244       6.3523      0.00000
    245       6.4527      0.00000
    246       6.6819      0.00000
    247       6.7242      0.00000
    248       6.8225      0.00000
    249       6.8666      0.00000
    250       6.9288      0.00000
    251       7.0052      0.00000
    252       7.1070      0.00000

 soft charge-density along one line, spin component           1
         0         1         2         3         4         5         6         7         8         9
 total charge-density along one line

------------------------ aborting loop because EDIFF is reached ----------------------------------------

 total charge

# of ion       s       p       d       tot
    1        0.545   0.240   8.764   9.550
    2        0.544   0.241   8.764   9.548
    3        0.544   0.241   8.764   9.548
    4        0.544   0.241   8.764   9.548
    5        0.543   0.240   8.764   9.547
    6        0.544   0.241   8.764   9.548
    7        0.544   0.241   8.764   9.548
    8        0.544   0.241   8.764   9.548
    9        0.542   0.241   8.766   9.549
   10        0.519   0.307   8.770   9.596
   11        0.519   0.310   8.776   9.605
   12        0.519   0.307   8.770   9.596
   13        0.519   0.310   8.776   9.605
   14        0.519   0.310   8.776   9.605
   15        0.516   0.309   8.774   9.598
   16        0.519   0.307   8.770   9.596
   17        0.516   0.309   8.774   9.598
   18        0.516   0.309   8.774   9.598
   19        0.517   0.296   8.777   9.591
   20        0.545   0.334   8.756   9.635
   21        0.545   0.334   8.756   9.635
   22        0.510   0.309   8.775   9.594
   23        0.545   0.334   8.756   9.635
   24        0.510   0.309   8.775   9.594
   25        0.517   0.296   8.777   9.591
   26        0.517   0.296   8.777   9.591
   27        0.510   0.309   8.775   9.594
   28        0.542   0.225   8.765   9.533
   29        0.542   0.247   8.761   9.551
   30        0.542   0.247   8.761   9.551
   31        0.542   0.247   8.761   9.551
   32        0.542   0.247   8.761   9.551
   33        0.542   0.247   8.761   9.551
   34        0.542   0.247   8.761   9.551
   35        0.537   0.225   8.769   9.531
   36        0.622   0.567   6.211   7.401
   37        1.016   1.225   0.000   2.240
tot         20.239  11.488 313.075 344.802

  FORCE on cell =-STRESS in cart. coord.  units (eV):
  Direction    XX          YY          ZZ          XY          YZ          ZX
  Alpha Z   937.40946   937.40946   937.40946
  Ewald  150352.75425150352.75467************    -0.00032    -0.00009    -0.00014
  Hartree158672.01324158672.01325************     0.00000    -0.00002    -0.00004
  E(xc)   -1778.13168 -1778.13166 -1785.87748    -0.00001    -0.00000    -0.00000
  Local  ************************321685.55554     0.00177     0.00004     0.00005
  n-local  -105.00940   -54.12868   -53.94499    24.92679    -1.49860     1.58819
  augment  2384.28580  2384.28730  2396.83985    -0.00130     0.00000     0.00005
  Kinetic  5517.76203  5530.16828  5558.90265     6.61860    -0.07069     0.54619
  Fock        0.00000     0.00000     0.00000     0.00000     0.00000     0.00000
  Total     -18.97338   -18.97337     2.12064    -0.00000     0.00000    -0.00000
  in kB     -18.58577   -18.58577     2.07732    -0.00000     0.00000    -0.00000

 VOLUME and BASIS-vectors are now :
  energy-cutoff  :      500.00
  volume of cell :     1635.59
      direct lattice vectors                 reciprocal lattice vectors
     8.813512802  0.000000000  0.000000000     0.113462137 -0.065507406  0.000000000
     4.406756909  7.632725690  0.000000000     0.000000000  0.131014796  0.000000000
     0.000000000  0.000000000 24.313408842     0.000000000  0.000000000  0.041129568

  length of vectors
     8.813512802  8.813512802 24.313408842     0.131014796  0.131014796  0.041129568

 FORCES acting on ions
    electron-ion (+dipol)            ewald-force                    non-local-force                 convergence-correction
   -.198E-04 -.163E-04 0.265E+04   0.520E-04 0.434E-04 -.265E+04   0.525E-17 -.479E-17 -.533E+00   -.203E-03 -.130E-03 -.122E+00
   0.755E+00 0.260E+00 0.265E+04   -.748E+00 -.342E+00 -.265E+04   -.132E-01 0.132E-01 -.332E+00   0.759E-02 0.630E-01 -.170E+00
   -.755E+00 0.260E+00 0.265E+04   0.748E+00 -.342E+00 -.265E+04   0.132E-01 0.132E-01 -.332E+00   -.730E-02 0.650E-01 -.169E+00
   0.603E+00 0.524E+00 0.265E+04   -.670E+00 -.476E+00 -.265E+04   0.484E-02 -.180E-01 -.332E+00   0.584E-01 -.250E-01 -.170E+00
   0.772E-05 -.238E-04 0.265E+04   0.951E-04 0.175E-05 -.265E+04   -.147E-17 -.557E-18 -.382E+00   0.430E-02 0.262E-02 -.151E+00
   -.603E+00 0.524E+00 0.265E+04   0.670E+00 -.476E+00 -.265E+04   -.484E-02 -.180E-01 -.332E+00   -.600E-01 -.240E-01 -.169E+00
   -.152E+00 -.784E+00 0.265E+04   0.774E-01 0.819E+00 -.265E+04   0.180E-01 0.484E-02 -.332E+00   0.527E-01 -.388E-01 -.169E+00
   0.152E+00 -.784E+00 0.265E+04   -.776E-01 0.819E+00 -.265E+04   -.180E-01 0.484E-02 -.332E+00   -.508E-01 -.399E-01 -.169E+00
   0.197E-04 -.416E-04 0.265E+04   0.166E-03 -.201E-04 -.265E+04   -.645E-18 -.214E-17 -.405E+00   -.464E-02 -.240E-02 -.185E+00
   0.737E+01 0.425E+01 0.886E+03   -.724E+01 -.418E+01 -.885E+03   -.195E+00 -.113E+00 -.486E+00   0.206E-01 0.118E-01 -.600E-01
   0.145E-04 0.440E+01 0.894E+03   0.148E-03 -.450E+01 -.893E+03   0.109E-08 0.163E-01 -.554E+00   0.380E-02 0.386E-01 -.126E+00
   -.737E+01 0.425E+01 0.886E+03   0.724E+01 -.418E+01 -.885E+03   0.195E+00 -.113E+00 -.486E+00   -.219E-01 0.133E-01 -.603E-01
   0.381E+01 -.220E+01 0.894E+03   -.390E+01 0.225E+01 -.893E+03   0.141E-01 -.816E-02 -.554E+00   0.356E-01 -.157E-01 -.126E+00
   -.381E+01 -.220E+01 0.894E+03   0.390E+01 0.225E+01 -.893E+03   -.141E-01 -.816E-02 -.554E+00   -.278E-01 -.162E-01 -.127E+00
   0.313E-04 0.495E+01 0.890E+03   0.236E-03 -.495E+01 -.889E+03   -.120E-12 -.180E-05 -.409E+00   -.241E-02 -.518E-01 -.909E-01
   -.214E-04 -.851E+01 0.886E+03   0.163E-03 0.836E+01 -.885E+03   0.150E-07 0.225E+00 -.486E+00   0.297E-03 -.256E-01 -.603E-01
   0.428E+01 -.247E+01 0.890E+03   -.429E+01 0.248E+01 -.889E+03   -.156E-05 0.901E-06 -.409E+00   -.458E-01 0.242E-01 -.908E-01
   -.428E+01 -.247E+01 0.890E+03   0.429E+01 0.248E+01 -.889E+03   0.156E-05 0.901E-06 -.409E+00   0.458E-01 0.262E-01 -.911E-01
   -.421E-04 0.429E+01 -.910E+03   0.539E-04 -.424E+01 0.909E+03   -.347E-08 -.522E-01 0.567E+00   -.520E-03 -.318E-01 0.305E-01
   0.968E+01 0.559E+01 -.861E+03   -.922E+01 -.532E+01 0.861E+03   -.658E+00 -.380E+00 -.473E+00   0.136E-01 0.772E-02 0.124E+00
   -.968E+01 0.559E+01 -.861E+03   0.922E+01 -.532E+01 0.861E+03   0.658E+00 -.380E+00 -.473E+00   -.127E-01 0.961E-02 0.124E+00
   -.409E+01 0.236E+01 -.890E+03   0.358E+01 -.206E+01 0.889E+03   0.455E+00 -.263E+00 0.755E+00   0.868E-01 -.545E-01 0.581E-01
   -.117E-04 -.112E+02 -.861E+03   0.141E-03 0.106E+02 0.861E+03   0.506E-07 0.760E+00 -.473E+00   0.174E-02 -.158E-01 0.124E+00
   0.409E+01 0.236E+01 -.890E+03   -.358E+01 -.206E+01 0.889E+03   -.455E+00 -.263E+00 0.755E+00   -.937E-01 -.541E-01 0.581E-01
   -.371E+01 -.214E+01 -.910E+03   0.368E+01 0.212E+01 0.909E+03   0.452E-01 0.261E-01 0.567E+00   0.294E-01 0.169E-01 0.302E-01
   0.371E+01 -.214E+01 -.910E+03   -.368E+01 0.212E+01 0.909E+03   -.452E-01 0.261E-01 0.567E+00   -.274E-01 0.155E-01 0.305E-01
   0.993E-05 -.472E+01 -.890E+03   0.199E-03 0.413E+01 0.889E+03   0.350E-07 0.525E+00 0.755E+00   -.439E-02 0.102E+00 0.581E-01
   -.124E-04 -.122E-04 -.263E+04   0.287E-04 0.330E-04 0.263E+04   0.437E-18 0.139E-17 0.546E+00   0.133E-03 0.598E-04 0.208E+00
   0.196E+02 0.345E+02 -.262E+04   -.193E+02 -.343E+02 0.262E+04   -.521E+00 -.681E+00 0.661E+00   0.357E-01 0.735E-01 0.103E+00
   -.196E+02 0.345E+02 -.262E+04   0.193E+02 -.343E+02 0.262E+04   0.521E+00 -.681E+00 0.661E+00   -.356E-01 0.754E-01 0.104E+00
   0.397E+02 -.291E+00 -.262E+04   -.393E+02 0.431E+00 0.262E+04   -.850E+00 -.110E+00 0.661E+00   0.816E-01 -.589E-02 0.103E+00
   -.397E+02 -.291E+00 -.262E+04   0.393E+02 0.431E+00 0.262E+04   0.850E+00 -.110E+00 0.661E+00   -.828E-01 -.476E-02 0.103E+00
   0.201E+02 -.342E+02 -.262E+04   -.200E+02 0.338E+02 0.262E+04   -.330E+00 0.792E+00 0.661E+00   0.476E-01 -.686E-01 0.104E+00
   -.201E+02 -.342E+02 -.262E+04   0.200E+02 0.338E+02 0.262E+04   0.330E+00 0.792E+00 0.661E+00   -.455E-01 -.693E-01 0.103E+00
   0.321E-04 -.296E-04 -.263E+04   0.143E-03 -.486E-04 0.263E+04   0.570E-17 -.140E-17 0.608E+00   -.475E-02 -.245E-02 0.187E+00
   -.678E-05 -.129E-04 -.169E+04   0.835E-04 0.756E-05 0.169E+04   0.105E-16 -.497E-18 0.164E+01   0.172E-02 0.104E-02 0.499E-01
   0.467E-04 -.299E-04 -.119E+04   0.165E-04 0.104E-05 0.120E+04   -.259E-18 0.171E-19 -.115E+02   0.747E-03 0.454E-03 -.166E+00
   -.722E-03 -.799E-03 0.107E+02   0.425E-13 0.137E-12 -.819E-11   0.238E-15 -.113E-15 -.985E+01   -.165E-03 0.499E-03 -.771E+00

 POSITION                                       TOTAL-FORCE (eV/Angst)
      0.00000      0.00000      5.28038         0.000000      0.000000     -0.057339
      2.93784      0.00000      5.28038         0.002447     -0.004578     -0.032203
      5.87568      0.00000      5.28038        -0.002447     -0.004578     -0.032203
      1.46892      2.54424      5.28038        -0.002741      0.004408     -0.032203
      4.40676      2.54424      5.28038         0.000000      0.000000     -0.071145
      7.34459      2.54424      5.28038         0.002741      0.004408     -0.032203
      2.93784      5.08848      5.28038        -0.005188      0.000170     -0.032203
      5.87568      5.08848      5.28038         0.005188      0.000170     -0.032203
      8.81351      5.08848      5.28038         0.000000      0.000000     -0.034426
      1.46892      0.84808      7.67911        -0.043106     -0.024887      0.100442
      4.40676      0.84808      7.67911        -0.000000     -0.047284      0.004035
      7.34459      0.84808      7.67911         0.043106     -0.024887      0.100442
      2.93784      3.39232      7.67911        -0.040949      0.023642      0.004035
      5.87568      3.39232      7.67911         0.040949      0.023642      0.004035
      8.81351      3.39232      7.67911        -0.000000     -0.055584      0.086123
      4.40676      5.93656      7.67911         0.000000      0.049774      0.100442
      7.34459      5.93656      7.67911        -0.048137      0.027792      0.086123
     10.28243      5.93656      7.67911         0.048137      0.027792      0.086123
      8.81351      1.70311     10.09495        -0.000000     -0.040005     -0.046486
      2.93286      1.69329     10.03570        -0.183106     -0.105716     -0.231267
      5.88065      1.69329     10.03570         0.183106     -0.105716     -0.231267
     10.26497      4.25049     10.06286         0.030556     -0.017641      0.040988
      4.40676      4.24615     10.03570         0.000000      0.211432     -0.231267
      7.36206      4.25049     10.06286        -0.030556     -0.017641      0.040988
     11.74534      6.78117     10.09495         0.034645      0.020002     -0.046486
      5.88169      6.78117     10.09495        -0.034645      0.020002     -0.046486
      8.81351      6.76448     10.06286         0.000000      0.035283      0.040988
      0.00000      0.00000     12.49897         0.000000      0.000000     -0.072715
      2.97514      0.06495     12.50272        -0.174569     -0.349946     -0.168911
      5.83837      0.06495     12.50272         0.174569     -0.349946     -0.168911
      1.54382      2.54408     12.50272        -0.390347      0.023792     -0.168911
      7.26969      2.54408     12.50272         0.390347      0.023792     -0.168911
      2.97543      5.02370     12.50272        -0.215778      0.326154     -0.168911
      5.83808      5.02370     12.50272         0.215778      0.326154     -0.168911
      8.81351      5.08848     12.49601         0.000000      0.000000     -0.021574
      4.40676      2.54424     12.21487         0.000000      0.000000      1.617158
      4.40676      2.54424     13.95922         0.000000      0.000000     -0.014780
    total drift:                               -0.000887     -0.000300      0.121020

  FREE ENERGIE OF THE ION-ELECTRON SYSTEM (eV)
  free  energy   TOTEN  =      -122.72392361 eV

  energy  without entropy=     -122.72392361  energy(sigma->0) =     -122.72392361

 stress matrix after NEB project (eV)
    -18.97338     -0.00000     -0.00000
     -0.00000    -18.97337      0.00000
     -0.00000      0.00000      2.12064
  FORCES: max atom, RMS     0.014780    0.002430
  FORCE total and by dimension    0.014780    0.014780
  Stress total and by dimension   26.916075   18.973376
|           W    W    AA    RRRRR   N    N  II  N    N   GGGG   !!!           |
|           W    W   A  A   R    R  NN   N  II  NN   N  G    G  !!!           |
|           W    W  A    A  R    R  N N  N  II  N N  N  G       !!!           |
|           W WW W  AAAAAA  RRRRR   N  N N  II  N  N N  G  GGG   !            |
|           WW  WW  A    A  R   R   N   NN  II  N   NN  G    G                |
|           W    W  A    A  R    R  N    N  II  N    N   GGGG   !!!           |
|     Tetrahedron method does not include variations of the Fermi             |
|     occupations, so forces and stress will be inaccurate. We suggest        |
|     using a different smearing scheme ISMEAR = 1 or 2 for metals in         |
|     relaxations.                                                            |

 total charge

# of ion       s       p       d       tot
    1        0.545   0.240   8.764   9.550
    2        0.544   0.241   8.764   9.548
    3        0.544   0.241   8.764   9.548
    4        0.544   0.241   8.764   9.548
    5        0.543   0.240   8.764   9.547
    6        0.544   0.241   8.764   9.548
    7        0.544   0.241   8.764   9.548
    8        0.544   0.241   8.764   9.548
    9        0.542   0.241   8.766   9.549
   10        0.519   0.307   8.770   9.596
   11        0.519   0.310   8.776   9.605
   12        0.519   0.307   8.770   9.596
   13        0.519   0.310   8.776   9.605
   14        0.519   0.310   8.776   9.605
   15        0.516   0.309   8.774   9.598
   16        0.519   0.307   8.770   9.596
   17        0.516   0.309   8.774   9.598
   18        0.516   0.309   8.774   9.598
   19        0.517   0.296   8.777   9.591
   20        0.545   0.334   8.756   9.635
   21        0.545   0.334   8.756   9.635
   22        0.510   0.309   8.775   9.594
   23        0.545   0.334   8.756   9.635
   24        0.510   0.309   8.775   9.594
   25        0.517   0.296   8.777   9.591
   26        0.517   0.296   8.777   9.591
   27        0.510   0.309   8.775   9.594
   28        0.542   0.225   8.765   9.533
   29        0.542   0.247   8.761   9.551
   30        0.542   0.247   8.761   9.551
   31        0.542   0.247   8.761   9.551
   32        0.542   0.247   8.761   9.551
   33        0.542   0.247   8.761   9.551
   34        0.542   0.247   8.761   9.551
   35        0.537   0.225   8.769   9.531
   36        0.622   0.567   6.211   7.401
   37        1.016   1.225   0.000   2.240
tot         20.239  11.488 313.075 344.802

 BZINTS: Fermi energy:    0.140403;  397.000000 electrons
         Band energy:-0.142265E+04;  BLOECHL correction:   -0.089572