 vasp.6.2.0 18Jan21 (build Jun 12 2021 23:27:24) complex

 executed on             LinuxIFC date 2022.05.26  19:34:41

 INCAR:
   ISMEAR = -5
   SIGMA = 0.1
   ISPIN = 1
   EDIFF = 1.d-5
   EDIFFG = -0.01
   NSW = 0
   NELM = 150
   ENCUT = 500
   ISIF = 2
   IBRION = 2
   LREAL = Auto
   ALGO = Fast
   ICHARG = 11
   LORBIT = 10
   LCHARG = .F.
   LWAVE = .F.

 POTCAR:    PAW_PBE Au 04Oct2007
 POTCAR:    PAW_PBE Os 17Jan2003
 POTCAR:    PAW_PBE O 08Apr2002
|           W    W    AA    RRRRR   N    N  II  N    N   GGGG   !!!           |
|           W    W   A  A   R    R  NN   N  II  NN   N  G    G  !!!           |
|           W    W  A    A  R    R  N N  N  II  N N  N  G       !!!           |
|           W WW W  AAAAAA  RRRRR   N  N N  II  N  N N  G  GGG   !            |
|           WW  WW  A    A  R   R   N   NN  II  N   NN  G    G                |
|           W    W  A    A  R    R  N    N  II  N    N   GGGG   !!!           |
|     For optimal performance we recommend to set                             |
|       NCORE = 2 up to number-of-cores-per-socket                            |
|     This setting can greatly improve the performance of VASP for DFT.       |
|     The default, NCORE=1 might be grossly inefficient on modern             |
|     multi-core architectures or massively parallel machines. Do your        |
|     Unfortunately you need to use the default for GW and RPA                |
|     calculations (for HF NCORE is supported but not extensively tested      |
|     yet).                                                                   |

 POTCAR:    PAW_PBE Au 04Oct2007
   VRHFIN =Au: s1d10

   TITEL  = PAW_PBE Au 04Oct2007
   POMASS =  196.966; ZVAL   =   11.000    mass and valenz
   ENMAX  =  229.943; ENMIN  =  172.457 eV

 POTCAR:    PAW_PBE Os 17Jan2003
   VRHFIN =Os: 6s5d

   TITEL  = PAW_PBE Os 17Jan2003
   POMASS =  190.200; ZVAL   =    8.000    mass and valenz
   ENMAX  =  228.022; ENMIN  =  171.017 eV

 POTCAR:    PAW_PBE O 08Apr2002
   VRHFIN =O: s2p4

   TITEL  = PAW_PBE O 08Apr2002
   POMASS =   16.000; ZVAL   =    6.000    mass and valenz
   ENMAX  =  400.000; ENMIN  =  300.000 eV

 Optimization of the real space projectors (new method)

 maximal supplied QI-value         = 15.12
 optimisation between [QCUT,QGAM] = [ 11.34, 22.83] = [ 36.00,145.93] Ry
 Optimized for a Real-space Cutoff    1.39 Angstroem

   l    n(q)    QCUT    max X(q) W(low)/X(q) W(high)/X(q)  e(spline)
   2      9    11.338    60.898    0.39E-03    0.42E-03    0.21E-06
   2      9    11.338    58.894    0.40E-03    0.42E-03    0.22E-06
   0      9    11.338   109.617    0.13E-03    0.20E-04    0.13E-06
   0      9    11.338    75.026    0.13E-03    0.20E-04    0.13E-06
   1      9    11.338    16.344    0.33E-04    0.24E-03    0.18E-06
   1      9    11.338    10.160    0.26E-04    0.19E-03    0.15E-06
 Optimization of the real space projectors (new method)

[...]

   l    n(q)    QCUT    max X(q) W(low)/X(q) W(high)/X(q)  e(spline)
   2     10    11.327   152.873    0.32E-03    0.72E-03    0.11E-05
   2     10    11.327   151.010    0.32E-03    0.72E-03    0.11E-05
   0     11    11.327    72.114    0.43E-04    0.61E-04    0.13E-06
   0     11    11.327    44.596    0.40E-04    0.57E-04    0.12E-06
   1     10    11.327    13.742    0.16E-03    0.10E-03    0.19E-06
   1     10    11.327     8.461    0.12E-03    0.78E-04    0.15E-06
 Optimization of the real space projectors (new method)

 maximal supplied QI-value         = 24.76
 optimisation between [QCUT,QGAM] = [ 11.39, 22.77] = [ 36.31,145.25] Ry
 Optimized for a Real-space Cutoff    1.00 Angstroem

   l    n(q)    QCUT    max X(q) W(low)/X(q) W(high)/X(q)  e(spline)
   0      7    11.387    20.381    0.39E-03    0.13E-02    0.15E-06
   0      7    11.387    15.268    0.42E-03    0.14E-02    0.17E-06
   1      6    11.387     5.964    0.41E-03    0.11E-02    0.17E-06
   1      6    11.387     5.382    0.39E-03    0.87E-03    0.15E-06
  PAW_PBE Au 04Oct2007                  :
  PAW_PBE Os 17Jan2003                  :
  PAW_PBE O 08Apr2002                   :

 POSCAR: Au-Os-O
  positions in direct lattice
  velocities in cartesian coordinates
 exchange correlation table for  LEXCH =        8
   RHO(1)=    0.500       N(1)  =     2000
   RHO(2)=  100.500       N(2)  =     4000

 VTST: version 3.2, (02/03/18)

 CHAIN: initializing optimizer

 OPT: Using VASP Conjugate-Gradient optimizer
 CHAIN: Read ICHAIN            0

 POSCAR: Au-Os-O
  positions in direct lattice
  velocities in cartesian coordinates

 ion  position               nearest neighbor table
   1  0.000  0.000  0.238-  16 2.94  12 2.94   6 2.94   8 2.94   7 2.94   3 2.94  10 2.94   4 2.94
                             2 2.94
   2  0.333  0.000  0.238-   9 2.94  11 2.94  17 2.94  10 2.94   8 2.94   4 2.94   5 2.94   1 2.94
                             3 2.94
   3  0.667  0.000  0.238-   7 2.94  18 2.94  12 2.94   1 2.94  11 2.94   5 2.94   6 2.94   9 2.94
                             2 2.94
   4  0.000  0.333  0.238-  10 2.94   6 2.94   5 2.94  13 2.94   2 2.94  15 2.94   9 2.94   1 2.94
                             7 2.94
   5  0.333  0.333  0.238-  13 2.94   7 2.94  11 2.94   4 2.94   2 2.94  14 2.94   3 2.94   8 2.94
                             6 2.94
   6  0.667  0.333  0.238-  15 2.94  14 2.94   1 2.94  12 2.94   4 2.94   9 2.94   8 2.94   3 2.94
                             5 2.94
   7  0.000  0.667  0.238-  18 2.94   3 2.94  16 2.94   5 2.94   1 2.94  13 2.94   8 2.94   4 2.94
                             9 2.94
   8  0.333  0.667  0.238-   9 2.94  17 2.94   1 2.94   2 2.94  14 2.94  16 2.94   6 2.94   7 2.94
                             5 2.94
   9  0.667  0.667  0.238-   2 2.94   8 2.94  17 2.94   6 2.94  15 2.94   4 2.94   3 2.94  18 2.94
                             7 2.94
  10  0.111  0.111  0.346-  20 2.90  11 2.94  17 2.94   2 2.94   4 2.94   1 2.94  12 2.94  16 2.94
                            13 2.94  15 2.94  26 2.95  19 2.95
  11  0.444  0.111  0.346-  20 2.91  21 2.91  27 2.94  13 2.94   2 2.94  10 2.94  17 2.94   5 2.94
                             3 2.94  18 2.94  14 2.94  12 2.94
  12  0.778  0.111  0.346-  21 2.90  16 2.94  18 2.94   1 2.94  14 2.94  15 2.94   3 2.94   6 2.94
                            10 2.94  11 2.94  25 2.95  19 2.95
  13  0.111  0.444  0.346-  23 2.91  20 2.91  22 2.94   5 2.94  18 2.94  11 2.94   7 2.94   4 2.94
                            16 2.94  10 2.94  14 2.94  15 2.94
  14  0.444  0.444  0.346-  21 2.91  23 2.91  24 2.94  15 2.94   6 2.94  12 2.94   8 2.94  17 2.94
                             5 2.94  16 2.94  13 2.94  11 2.94
  15  0.778  0.444  0.346-  24 2.92  22 2.92  14 2.94   6 2.94  17 2.94  12 2.94   9 2.94   4 2.94
                            10 2.94  13 2.94  18 2.94  19 2.95
  16  0.111  0.778  0.346-  23 2.90  18 2.94  12 2.94   7 2.94   1 2.94   8 2.94  13 2.94  10 2.94
                            14 2.94  17 2.94  25 2.95  26 2.95
  17  0.444  0.778  0.346-  27 2.92  24 2.92   9 2.94  15 2.94   2 2.94  10 2.94  11 2.94   8 2.94
                            14 2.94  16 2.94  18 2.94  26 2.95
  18  0.778  0.778  0.346-  22 2.92  27 2.92  16 2.94   7 2.94  13 2.94  12 2.94   3 2.94  11 2.94
                             9 2.94  15 2.94  17 2.94  25 2.95
  19  0.888  0.223  0.455-  24 2.93  22 2.93  21 2.93  20 2.93  28 2.95  15 2.95  26 2.95  25 2.95
                            10 2.95  12 2.95  32 2.98  31 2.98
  20  0.222  0.222  0.452-  36 2.77  10 2.90  11 2.91  13 2.91  26 2.93  19 2.93  23 2.95  21 2.95
                            27 2.96  22 2.96  29 2.96  31 2.96
  21  0.556  0.222  0.452-  36 2.77  12 2.90  14 2.91  11 2.91  25 2.93  19 2.93  20 2.95  23 2.95
                            27 2.96  24 2.96  30 2.96  32 2.96
  22  0.886  0.557  0.453-  24 2.90  27 2.90  18 2.92  15 2.92  25 2.93  19 2.93  13 2.94  35 2.95
                            23 2.96  20 2.96  33 2.98  31 2.98
  23  0.222  0.556  0.452-  36 2.77  16 2.90  13 2.91  14 2.91  25 2.93  26 2.93  20 2.95  21 2.95
                            22 2.96  24 2.96  33 2.96  34 2.96
  24  0.557  0.557  0.453-  27 2.90  22 2.90  15 2.92  17 2.92  26 2.93  19 2.93  14 2.94  35 2.95
                            21 2.96  23 2.96  32 2.98  34 2.98
  25  0.888  0.888  0.455-  22 2.93  27 2.93  23 2.93  21 2.93  28 2.95  18 2.95  19 2.95  26 2.95
                            16 2.95  12 2.95  33 2.98  30 2.98
  26  0.223  0.888  0.455-  27 2.93  24 2.93  20 2.93  23 2.93  28 2.95  17 2.95  19 2.95  25 2.95
                            10 2.95  16 2.95  29 2.98  34 2.98
  27  0.557  0.886  0.453-  24 2.90  22 2.90  17 2.92  18 2.92  26 2.93  25 2.93  11 2.94  35 2.95
                            20 2.96  21 2.96  29 2.98  30 2.98
  28  0.000  0.000  0.563-  25 2.95  19 2.95  26 2.95  34 2.98  32 2.98  33 2.98  30 2.98  31 2.98
                            29 2.98
  29  0.333  0.009  0.563-  31 2.86  30 2.86  36 2.88  20 2.96  28 2.98  35 2.98  27 2.98  26 2.98
                            34 3.09
  30  0.658  0.009  0.563-  32 2.86  29 2.86  36 2.88  21 2.96  28 2.98  35 2.98  27 2.98  25 2.98
                            33 3.09
  31  0.009  0.333  0.563-  29 2.86  33 2.86  36 2.88  20 2.96  28 2.98  35 2.98  22 2.98  19 2.98
                            32 3.09
  32  0.658  0.333  0.563-  30 2.86  34 2.86  36 2.88  21 2.96  28 2.98  35 2.98  24 2.98  19 2.98
                            31 3.09
  33  0.009  0.658  0.563-  34 2.86  31 2.86  36 2.88  23 2.96  28 2.98  35 2.98  22 2.98  25 2.98
                            30 3.09
  34  0.333  0.658  0.563-  33 2.86  32 2.86  36 2.88  23 2.96  28 2.98  35 2.98  24 2.98  26 2.98
                            29 3.09
  35  0.667  0.667  0.563-  24 2.95  27 2.95  22 2.95  29 2.98  34 2.98  32 2.98  31 2.98  30 2.98
                            33 2.98
  36  0.333  0.333  0.550-  37 1.73  20 2.77  23 2.77  21 2.77  33 2.88  31 2.88  29 2.88  30 2.88
                            34 2.88  32 2.88
  37  0.333  0.333  0.628-  36 1.73

  LATTYP: Found a hexagonal cell.
 ALAT       =     8.8135128021
 C/A-ratio  =     2.5184286595

  Lattice vectors:

 A1 = (  -4.4067569092,  -7.6327256898,   0.0000000000)
 A2 = (   8.8135128021,   0.0000000000,   0.0000000000)
 A3 = (   0.0000000000,   0.0000000000,  22.1962032318)

Analysis of symmetry for initial positions (statically):
 Subroutine PRICEL returns:
 Original cell was already a primitive cell.

 Routine SETGRP: Setting up the symmetry group for a
 hexagonal supercell.

 Subroutine GETGRP returns: Found  6 space group operations
 (whereof  6 operations were pure point group operations)
 out of a pool of 24 trial point group operations.

The static configuration has the point symmetry C_3v.

Analysis of symmetry for dynamics (positions and initial velocities):
 Subroutine PRICEL returns:
 Original cell was already a primitive cell.

[...]

The dynamic configuration has the point symmetry C_3v.

Analysis of constrained symmetry for selective dynamics:
 Subroutine PRICEL returns:
 Original cell was already a primitive cell.

 Routine SETGRP: Setting up the symmetry group for a
 hexagonal supercell.

 Subroutine GETGRP returns: Found  6 space group operations
[...]
     24      -5.1048      2.00000
     25      -5.0993      2.00000
     26      -5.0614      2.00000
     27      -5.0344      2.00000
     28      -4.9657      2.00000
     29      -4.9455      2.00000
     30      -4.8905      2.00000
     31      -4.8631      2.00000
     32      -4.8298      2.00000
     33      -4.8038      2.00000
     34      -4.7769      2.00000
     35      -4.7294      2.00000
     36      -4.7235      2.00000
     37      -4.7159      2.00000
     38      -4.6690      2.00000
     39      -4.6469      2.00000
     40      -4.6200      2.00000
     41      -4.5210      2.00000
     42      -4.4986      2.00000
     43      -4.4414      2.00000
     44      -4.3980      2.00000
     45      -4.3263      2.00000
     46      -4.2876      2.00000
     47      -4.2732      2.00000
     48      -4.2526      2.00000
     49      -4.2073      2.00000
     50      -4.1701      2.00000
     51      -4.1525      2.00000
     52      -4.1388      2.00000
     53      -4.1206      2.00000
     54      -4.0953      2.00000
     55      -4.0753      2.00000
     56      -4.0484      2.00000
     57      -4.0193      2.00000
     58      -4.0018      2.00000
     59      -3.9702      2.00000
     60      -3.9609      2.00000
[...]
    238       6.5236      0.00000
    239       6.5326      0.00000
    240       6.5632      0.00000
    241       6.7145      0.00000
    242       6.7775      0.00000
    243       6.8209      0.00000
    244       6.8739      0.00000
    245       6.9044      0.00000
    246       7.1905      0.00000
    247       7.2000      0.00000
    248       7.3203      0.00000
    249       7.5570      0.00000
    250       7.6660      0.00000
    251       7.7553      0.00000
    252       7.8472      0.00000

 soft charge-density along one line, spin component           1
         0         1         2         3         4         5         6         7         8         9
 total charge-density along one line

------------------------ aborting loop because EDIFF is reached ----------------------------------------

 total charge

# of ion       s       p       d       tot
    1        0.547   0.237   8.768   9.552
    2        0.543   0.241   8.765   9.549
    3        0.543   0.241   8.765   9.549
    4        0.543   0.241   8.765   9.549
    5        0.545   0.240   8.763   9.549
    6        0.543   0.241   8.765   9.549
    7        0.543   0.241   8.765   9.549
    8        0.543   0.241   8.765   9.549
    9        0.541   0.241   8.765   9.546
   10        0.525   0.307   8.768   9.601
   11        0.518   0.311   8.776   9.606
   12        0.525   0.307   8.768   9.601
   13        0.518   0.311   8.776   9.606
   14        0.518   0.311   8.776   9.606
   15        0.514   0.308   8.775   9.598
   16        0.525   0.307   8.768   9.601
   17        0.514   0.308   8.775   9.598
   18        0.514   0.308   8.775   9.598
   19        0.516   0.298   8.777   9.590
   20        0.559   0.342   8.735   9.636
   21        0.559   0.342   8.735   9.636
   22        0.508   0.308   8.776   9.592
   23        0.559   0.342   8.735   9.636
   24        0.508   0.308   8.776   9.592
   25        0.516   0.298   8.777   9.590
   26        0.516   0.298   8.777   9.590
   27        0.508   0.308   8.776   9.592
   28        0.542   0.226   8.767   9.535
   29        0.542   0.245   8.765   9.553
   30        0.542   0.245   8.765   9.553
   31        0.542   0.245   8.765   9.553
   32        0.542   0.245   8.765   9.553
   33        0.542   0.245   8.765   9.553
   34        0.542   0.245   8.765   9.553
   35        0.533   0.226   8.770   9.529
   36        0.623   0.644   5.951   7.218
   37        1.611   3.260   0.000   4.872
tot         20.873  13.615 312.788 347.275

  FORCE on cell =-STRESS in cart. coord.  units (eV):
  Direction    XX          YY          ZZ          XY          YZ          ZX
  Alpha Z  1032.69881  1032.69881  1032.69881
  Ewald  119167.08079119167.08122************    -0.00032    -0.00008    -0.00013
  Hartree127902.05656127902.05657************     0.00001    -0.00002    -0.00003
  E(xc)   -1794.03001 -1794.03001 -1800.36591     0.00000     0.00000     0.00000
  Local  ************************259531.56874     0.00199     0.00002    -0.00000
  n-local  -126.91976   -75.11689   -67.13767    25.36963    -1.26921     1.47997
  augment  2390.50185  2390.50337  2400.88110    -0.00132     0.00001     0.00004
  Kinetic  5596.79993  5606.30356  5619.28831     5.68157     0.03317     0.48044
  Fock        0.00000     0.00000     0.00000     0.00000     0.00000     0.00000
  Total     -18.93327   -18.93327     1.87674    -0.00000    -0.00000    -0.00000
  in kB     -20.31556   -20.31556     2.01376    -0.00000    -0.00000    -0.00000

 VOLUME and BASIS-vectors are now :
  energy-cutoff  :      500.00
  volume of cell :     1493.16
      direct lattice vectors                 reciprocal lattice vectors
     8.813512802  0.000000000  0.000000000     0.113462137 -0.065507406  0.000000000
     4.406756909  7.632725690  0.000000000     0.000000000  0.131014796  0.000000000
     0.000000000  0.000000000 22.196203232     0.000000000  0.000000000  0.045052750

  length of vectors
     8.813512802  8.813512802 22.196203232     0.131014796  0.131014796  0.045052750

 FORCES acting on ions
    electron-ion (+dipol)            ewald-force                    non-local-force                 convergence-correction
   -.195E-04 -.162E-04 0.249E+04   0.520E-04 0.434E-04 -.249E+04   0.737E-17 -.107E-17 -.861E+00   -.203E-03 -.130E-03 -.180E+00
   0.698E+00 0.321E+00 0.249E+04   -.785E+00 -.407E+00 -.249E+04   0.382E-01 0.118E+00 -.296E+00   0.443E-01 -.280E-01 -.256E+00
   -.698E+00 0.321E+00 0.249E+04   0.785E+00 -.407E+00 -.249E+04   -.382E-01 0.118E+00 -.296E+00   -.440E-01 -.260E-01 -.256E+00
   0.627E+00 0.444E+00 0.249E+04   -.745E+00 -.476E+00 -.249E+04   0.121E+00 -.257E-01 -.296E+00   -.200E-02 0.523E-01 -.256E+00
   0.916E-05 -.230E-04 0.249E+04   0.951E-04 0.175E-05 -.249E+04   0.123E-17 0.189E-17 -.196E+00   0.430E-02 0.262E-02 -.234E+00
   -.627E+00 0.444E+00 0.249E+04   0.745E+00 -.476E+00 -.249E+04   -.121E+00 -.257E-01 -.296E+00   0.436E-03 0.533E-01 -.255E+00
   -.711E-01 -.765E+00 0.249E+04   0.399E-01 0.884E+00 -.249E+04   0.828E-01 -.919E-01 -.296E+00   -.445E-01 -.251E-01 -.256E+00
   0.711E-01 -.765E+00 0.249E+04   -.400E-01 0.884E+00 -.249E+04   -.828E-01 -.919E-01 -.296E+00   0.464E-01 -.262E-01 -.255E+00
   0.195E-04 -.416E-04 0.249E+04   0.166E-03 -.201E-04 -.249E+04   -.945E-18 0.199E-17 -.501E+00   -.464E-02 -.240E-02 -.210E+00
   0.814E+01 0.470E+01 0.843E+03   -.762E+01 -.440E+01 -.842E+03   -.446E+00 -.257E+00 -.644E+00   -.691E-01 -.400E-01 -.211E-01
   0.143E-04 0.498E+01 0.851E+03   0.148E-03 -.508E+01 -.851E+03   0.518E-08 0.778E-01 -.212E+00   0.380E-02 -.441E-01 0.137E-02
   -.814E+01 0.470E+01 0.843E+03   0.762E+01 -.440E+01 -.842E+03   0.446E+00 -.257E+00 -.644E+00   0.678E-01 -.385E-01 -.215E-01
   0.431E+01 -.249E+01 0.851E+03   -.440E+01 0.254E+01 -.851E+03   0.674E-01 -.389E-01 -.212E+00   -.360E-01 0.256E-01 0.136E-02
   -.431E+01 -.249E+01 0.851E+03   0.440E+01 0.254E+01 -.851E+03   -.674E-01 -.389E-01 -.212E+00   0.438E-01 0.251E-01 0.129E-02
   0.308E-04 0.474E+01 0.846E+03   0.236E-03 -.486E+01 -.846E+03   -.116E-08 -.175E-01 -.456E+00   -.241E-02 0.679E-01 0.278E-02
   -.213E-04 -.940E+01 0.843E+03   0.163E-03 0.880E+01 -.842E+03   0.342E-07 0.514E+00 -.644E+00   0.297E-03 0.779E-01 -.215E-01
   0.410E+01 -.237E+01 0.846E+03   -.420E+01 0.243E+01 -.846E+03   -.151E-01 0.873E-02 -.456E+00   0.579E-01 -.356E-01 0.280E-02
   -.410E+01 -.237E+01 0.846E+03   0.420E+01 0.243E+01 -.846E+03   0.151E-01 0.873E-02 -.456E+00   -.579E-01 -.337E-01 0.251E-02
   -.424E-04 0.462E+01 -.838E+03   0.535E-04 -.479E+01 0.838E+03   0.805E-09 0.121E-01 0.559E+00   -.531E-03 0.925E-01 0.191E+00
   0.141E+02 0.815E+01 -.785E+03   -.130E+02 -.752E+01 0.785E+03   -.103E+01 -.597E+00 -.822E+00   0.183E-01 0.105E-01 0.280E+00
   -.141E+02 0.815E+01 -.785E+03   0.130E+02 -.752E+01 0.785E+03   0.103E+01 -.597E+00 -.822E+00   -.174E-01 0.123E-01 0.279E+00
   -.146E+01 0.842E+00 -.818E+03   0.111E+01 -.639E+00 0.818E+03   0.483E+00 -.279E+00 0.709E+00   -.765E-01 0.398E-01 0.202E+00
   -.116E-04 -.163E+02 -.785E+03   0.142E-03 0.150E+02 0.785E+03   0.795E-07 0.119E+01 -.822E+00   0.175E-02 -.212E-01 0.279E+00
   0.146E+01 0.842E+00 -.818E+03   -.111E+01 -.639E+00 0.818E+03   -.483E+00 -.279E+00 0.709E+00   0.696E-01 0.402E-01 0.202E+00
   -.400E+01 -.231E+01 -.838E+03   0.415E+01 0.240E+01 0.838E+03   -.105E-01 -.605E-02 0.559E+00   -.782E-01 -.452E-01 0.191E+00
   0.400E+01 -.231E+01 -.838E+03   -.415E+01 0.240E+01 0.838E+03   0.105E-01 -.605E-02 0.559E+00   0.802E-01 -.467E-01 0.191E+00
   0.105E-04 -.168E+01 -.818E+03   0.198E-03 0.128E+01 0.818E+03   0.372E-07 0.558E+00 0.709E+00   -.439E-02 -.862E-01 0.202E+00
   -.130E-04 -.127E-04 -.245E+04   0.294E-04 0.340E-04 0.245E+04   -.930E-17 0.207E-17 0.489E+00   0.115E-03 0.488E-04 0.294E+00
   0.295E+02 0.518E+02 -.244E+04   -.295E+02 -.519E+02 0.244E+04   -.409E+00 -.473E+00 0.355E+00   0.116E+00 0.580E-01 0.281E+00
   -.295E+02 0.518E+02 -.244E+04   0.295E+02 -.519E+02 0.244E+04   0.409E+00 -.473E+00 0.355E+00   -.116E+00 0.600E-01 0.282E+00
   0.596E+02 -.337E+00 -.244E+04   -.597E+02 0.430E+00 0.244E+04   -.614E+00 -.118E+00 0.355E+00   0.108E+00 0.714E-01 0.281E+00
   -.596E+02 -.337E+00 -.244E+04   0.597E+02 0.430E+00 0.244E+04   0.614E+00 -.118E+00 0.355E+00   -.110E+00 0.725E-01 0.281E+00
   0.301E+02 -.514E+02 -.244E+04   -.302E+02 0.515E+02 0.244E+04   -.205E+00 0.591E+00 0.355E+00   -.591E-02 -.130E+00 0.282E+00
   -.301E+02 -.514E+02 -.244E+04   0.302E+02 0.515E+02 0.244E+04   0.205E+00 0.591E+00 0.355E+00   0.800E-02 -.131E+00 0.281E+00
   0.321E-04 -.283E-04 -.246E+04   0.142E-03 -.496E-04 0.245E+04   0.642E-17 -.167E-17 0.672E+00   -.477E-02 -.246E-02 0.223E+00
   0.322E-05 -.108E-04 -.149E+04   0.835E-04 0.756E-05 0.149E+04   0.113E-17 -.560E-18 0.145E+01   0.189E-02 0.115E-02 0.399E+00
   0.185E-03 -.996E-04 -.164E+04   0.250E-04 0.157E-05 0.167E+04   -.525E-17 0.159E-17 -.342E+02   0.361E-02 0.221E-02 -.474E-01
   -.555E-03 -.855E-03 0.336E+02   -.154E-13 0.192E-12 0.296E-11   0.578E-16 -.445E-15 -.354E+02   0.271E-02 0.226E-02 0.237E+01

 POSITION                                       TOTAL-FORCE (eV/Angst)
      0.00000      0.00000      5.28038        -0.000000     -0.000000     -0.146921
      2.93784      0.00000      5.28038        -0.003800      0.004586     -0.057488
      5.87568      0.00000      5.28038         0.003800      0.004586     -0.057488
      1.46892      2.54424      5.28038         0.002072     -0.005583     -0.057488
      4.40676      2.54424      5.28038        -0.000000     -0.000000     -0.090754
      7.34459      2.54424      5.28038        -0.002072     -0.005583     -0.057488
      2.93784      5.08848      5.28038         0.005871      0.000998     -0.057488
      5.87568      5.08848      5.28038        -0.005871      0.000998     -0.057488
      8.81351      5.08848      5.28038        -0.000000     -0.000000     -0.085884
      1.46892      0.84808      7.67911         0.006085      0.003513      0.155526
      4.40676      0.84808      7.67911        -0.000000     -0.071131      0.019146
      7.34459      0.84808      7.67911        -0.006085      0.003513      0.155526
      2.93784      3.39232      7.67911        -0.061601      0.035566      0.019146
      5.87568      3.39232      7.67911         0.061601      0.035566      0.019146
      8.81351      3.39232      7.67911        -0.000000     -0.066543      0.104327
      4.40676      5.93656      7.67911        -0.000000     -0.007027      0.155526
      7.34459      5.93656      7.67911        -0.057628      0.033272      0.104327
     10.28243      5.93656      7.67911         0.057628      0.033272      0.104327
      8.81351      1.70311     10.09495        -0.000000     -0.073141     -0.068639
      2.93286      1.69329     10.03570         0.061052      0.035249     -0.023493
      5.88065      1.69329     10.03570        -0.061052      0.035249     -0.023493
     10.26497      4.25049     10.06286         0.058568     -0.033814     -0.017459
      4.40676      4.24615     10.03570        -0.000000     -0.070497     -0.023493
      7.36206      4.25049     10.06286        -0.058568     -0.033814     -0.017459
     11.74534      6.78117     10.09495         0.063342      0.036571     -0.068639
      5.88169      6.78117     10.09495        -0.063342      0.036571     -0.068639
      8.81351      6.76448     10.06286         0.000000      0.067628     -0.017459
      0.00000      0.00000     12.49897        -0.000000     -0.000000     -0.028505
      2.97514      0.06495     12.50272        -0.262066     -0.546305     -0.225085
      5.83837      0.06495     12.50272         0.262065     -0.546305     -0.225085
      1.54382      2.54408     12.50272        -0.604147      0.046197     -0.225085
      7.26969      2.54408     12.50272         0.604147      0.046197     -0.225085
      2.97543      5.02370     12.50272        -0.342082      0.500108     -0.225085
      5.83808      5.02370     12.50272         0.342082      0.500108     -0.225085
      8.81351      5.08848     12.49601        -0.000000     -0.000000      0.051915
      4.40676      2.54424     12.21487        -0.000000     -0.000000      1.459658
      4.40676      2.54424     13.94723        -0.000000     -0.000000      0.027705
    total drift:                                0.002153      0.001403      0.575329

  FREE ENERGIE OF THE ION-ELECTRON SYSTEM (eV)
  free  energy   TOTEN  =      -121.91106420 eV

  energy  without entropy=     -121.91106420  energy(sigma->0) =     -121.91106420

 stress matrix after NEB project (eV)
    -18.93327     -0.00000     -0.00000
     -0.00000    -18.93327      0.00000
     -0.00000     -0.00000      1.87674
  FORCES: max atom, RMS     0.027705    0.004555
  FORCE total and by dimension    0.027705    0.027705
  Stress total and by dimension   26.841381   18.933273
|           W    W    AA    RRRRR   N    N  II  N    N   GGGG   !!!           |
|           W    W   A  A   R    R  NN   N  II  NN   N  G    G  !!!           |
|           W    W  A    A  R    R  N N  N  II  N N  N  G       !!!           |
|           W WW W  AAAAAA  RRRRR   N  N N  II  N  N N  G  GGG   !            |
|           WW  WW  A    A  R   R   N   NN  II  N   NN  G    G                |
|           W    W  A    A  R    R  N    N  II  N    N   GGGG   !!!           |
|     Tetrahedron method does not include variations of the Fermi             |
|     occupations, so forces and stress will be inaccurate. We suggest        |
|     using a different smearing scheme ISMEAR = 1 or 2 for metals in         |
|     relaxations.                                                            |

 total charge

# of ion       s       p       d       tot
    1        0.547   0.237   8.768   9.552
    2        0.543   0.241   8.765   9.549
    3        0.543   0.241   8.765   9.549
    4        0.543   0.241   8.765   9.549
    5        0.545   0.240   8.763   9.549
    6        0.543   0.241   8.765   9.549
    7        0.543   0.241   8.765   9.549
    8        0.543   0.241   8.765   9.549
    9        0.541   0.241   8.765   9.546
   10        0.525   0.307   8.768   9.601
   11        0.518   0.311   8.776   9.606
   12        0.525   0.307   8.768   9.601
   13        0.518   0.311   8.776   9.606
   14        0.518   0.311   8.776   9.606
   15        0.514   0.308   8.775   9.598
   16        0.525   0.307   8.768   9.601
   17        0.514   0.308   8.775   9.598
   18        0.514   0.308   8.775   9.598
   19        0.516   0.298   8.777   9.590
   20        0.559   0.342   8.735   9.636
   21        0.559   0.342   8.735   9.636
   22        0.508   0.308   8.776   9.592
   23        0.559   0.342   8.735   9.636
   24        0.508   0.308   8.776   9.592
   25        0.516   0.298   8.777   9.590
   26        0.516   0.298   8.777   9.590
   27        0.508   0.308   8.776   9.592
   28        0.542   0.226   8.767   9.535
   29        0.542   0.245   8.765   9.553
   30        0.542   0.245   8.765   9.553
   31        0.542   0.245   8.765   9.553
   32        0.542   0.245   8.765   9.553
   33        0.542   0.245   8.765   9.553
   34        0.542   0.245   8.765   9.553
   35        0.533   0.226   8.770   9.529
   36        0.623   0.644   5.951   7.218
   37        1.611   3.260   0.000   4.872
tot         20.873  13.615 312.788 347.275

 BZINTS: Fermi energy:    0.698875;  399.000000 electrons
         Band energy:-0.124419E+04;  BLOECHL correction:   -0.065090