 vasp.6.2.0 18Jan21 (build Jun 12 2021 23:27:24) complex

 executed on             LinuxIFC date 2022.05.27  06:00:45

 INCAR:
   ISMEAR = -5
   SIGMA = 0.1
   ISPIN = 1
   EDIFF = 1.d-5
   EDIFFG = -0.01
   NSW = 0
   NELM = 150
   ENCUT = 500
   ISIF = 2
   IBRION = 2
   LREAL = Auto
   ALGO = Fast
   ICHARG = 11
   LORBIT = 10
   LCHARG = .F.
   LWAVE = .F.

 POTCAR:    PAW_PBE Cu 22Jun2005
 POTCAR:    PAW_PBE Mn 06Sep2000
 POTCAR:    PAW_PBE C 08Apr2002
 POTCAR:    PAW_PBE O 08Apr2002
|           W    W    AA    RRRRR   N    N  II  N    N   GGGG   !!!           |
|           W    W   A  A   R    R  NN   N  II  NN   N  G    G  !!!           |
|           W    W  A    A  R    R  N N  N  II  N N  N  G       !!!           |
|           W WW W  AAAAAA  RRRRR   N  N N  II  N  N N  G  GGG   !            |
|           WW  WW  A    A  R   R   N   NN  II  N   NN  G    G                |
|           W    W  A    A  R    R  N    N  II  N    N   GGGG   !!!           |
|     For optimal performance we recommend to set                             |
|       NCORE = 2 up to number-of-cores-per-socket                            |
|     This setting can greatly improve the performance of VASP for DFT.       |
|     The default, NCORE=1 might be grossly inefficient on modern             |
|     multi-core architectures or massively parallel machines. Do your        |
|     Unfortunately you need to use the default for GW and RPA                |
|     calculations (for HF NCORE is supported but not extensively tested      |
|     yet).                                                                   |

 POTCAR:    PAW_PBE Cu 22Jun2005
   VRHFIN =Cu: d10 p1

   TITEL  = PAW_PBE Cu 22Jun2005
   POMASS =   63.546; ZVAL   =   11.000    mass and valenz
   ENMAX  =  295.446; ENMIN  =  221.585 eV

 POTCAR:    PAW_PBE Mn 06Sep2000
   VRHFIN =Mn: d6 s1

   TITEL  = PAW_PBE Mn 06Sep2000
   POMASS =   54.938; ZVAL   =    7.000    mass and valenz
   ENMAX  =  269.864; ENMIN  =  202.398 eV

 POTCAR:    PAW_PBE C 08Apr2002
   VRHFIN =C: s2p2

   TITEL  = PAW_PBE C 08Apr2002
   POMASS =   12.011; ZVAL   =    4.000    mass and valenz
   ENMAX  =  400.000; ENMIN  =  300.000 eV

 POTCAR:    PAW_PBE O 08Apr2002
   VRHFIN =O: s2p4

   TITEL  = PAW_PBE O 08Apr2002
   POMASS =   16.000; ZVAL   =    6.000    mass and valenz
   ENMAX  =  400.000; ENMIN  =  300.000 eV

 Optimization of the real space projectors (new method)

 maximal supplied QI-value         = 16.25
 optimisation between [QCUT,QGAM] = [ 11.38, 22.75] = [ 36.24,144.96] Ry
 Optimized for a Real-space Cutoff    1.52 Angstroem

   l    n(q)    QCUT    max X(q) W(low)/X(q) W(high)/X(q)  e(spline)
   2      9    11.376     4.610    0.21E-03    0.10E-03    0.26E-06
   2      9    11.376     8.522    0.33E-03    0.16E-03    0.37E-06
   0     10    11.376    51.609    0.62E-04    0.20E-04    0.13E-06
   0     10    11.376    27.747    0.54E-04    0.20E-04    0.13E-06
   1     10    11.376    20.408    0.13E-04    0.99E-04    0.19E-06
   1     10    11.376    13.425    0.12E-04    0.87E-04    0.17E-06
 Optimization of the real space projectors (new method)

[...]

   l    n(q)    QCUT    max X(q) W(low)/X(q) W(high)/X(q)  e(spline)
   0      7    11.310   115.676    0.43E-03    0.13E-02    0.19E-06
   0      7    11.310    87.132    0.43E-03    0.13E-02    0.18E-06
   1      6    11.310     4.429    0.42E-03    0.74E-03    0.11E-06
   1      6    11.310     2.733    0.34E-03    0.55E-03    0.92E-07
 Optimization of the real space projectors (new method)

 maximal supplied QI-value         = 24.76
 optimisation between [QCUT,QGAM] = [ 11.39, 22.77] = [ 36.31,145.25] Ry
 Optimized for a Real-space Cutoff    1.00 Angstroem

   l    n(q)    QCUT    max X(q) W(low)/X(q) W(high)/X(q)  e(spline)
   0      7    11.387    20.381    0.39E-03    0.13E-02    0.15E-06
   0      7    11.387    15.268    0.42E-03    0.14E-02    0.17E-06
   1      6    11.387     5.964    0.41E-03    0.11E-02    0.17E-06
   1      6    11.387     5.382    0.39E-03    0.87E-03    0.15E-06
  PAW_PBE Cu 22Jun2005                  :
  PAW_PBE Mn 06Sep2000                  :
  PAW_PBE C 08Apr2002                   :
  PAW_PBE O 08Apr2002                   :

 POSCAR: Cu-Mn-CO
  positions in direct lattice
  velocities in cartesian coordinates
 exchange correlation table for  LEXCH =        8
   RHO(1)=    0.500       N(1)  =     2000
   RHO(2)=  100.500       N(2)  =     4000

 VTST: version 3.2, (02/03/18)

 CHAIN: initializing optimizer

 OPT: Using VASP Conjugate-Gradient optimizer
 CHAIN: Read ICHAIN            0

 POSCAR: Cu-Mn-CO
  positions in direct lattice
  velocities in cartesian coordinates

 ion  position               nearest neighbor table
   1  0.000  0.000  0.252-   7 2.57   3 2.57   4 2.57   2 2.57   6 2.57   8 2.57  12 2.57  10 2.57
                            16 2.57
   2  0.333  0.000  0.252-   8 2.57   9 2.57   5 2.57   1 2.57   3 2.57  11 2.57   4 2.57  10 2.57
                            17 2.57
   3  0.667  0.000  0.252-   1 2.57   7 2.57   6 2.57   9 2.57   2 2.57  12 2.57   5 2.57  18 2.57
                            11 2.57
   4  0.000  0.333  0.252-   5 2.57   6 2.57   1 2.57   7 2.57   2 2.57  13 2.57   9 2.57  10 2.57
                            15 2.57
   5  0.333  0.333  0.252-   4 2.57   2 2.57   7 2.57  13 2.57   8 2.57   6 2.57   3 2.57  11 2.57
                            14 2.57
   6  0.667  0.333  0.252-   4 2.57   9 2.57  15 2.57   3 2.57   1 2.57   8 2.57  14 2.57   5 2.57
                            12 2.57
   7  0.000  0.667  0.252-   1 2.57   3 2.57  16 2.57  18 2.57   4 2.57   5 2.57   8 2.57   9 2.57
                            13 2.57
   8  0.333  0.667  0.252-   9 2.57   2 2.57  17 2.57   6 2.57   1 2.57   7 2.57   5 2.57  14 2.57
                            16 2.57
   9  0.667  0.667  0.252-   8 2.57   6 2.57   2 2.57  17 2.57   3 2.57   7 2.57   4 2.57  15 2.57
                            18 2.57
  10  0.111  0.111  0.351-  20 2.55  26 2.56  19 2.56  11 2.57  12 2.57  13 2.57   1 2.57   2 2.57
                             4 2.57  15 2.57  16 2.57  17 2.57
  11  0.444  0.111  0.351-  20 2.55  21 2.55  27 2.56  10 2.57  13 2.57   2 2.57  17 2.57  14 2.57
                            12 2.57   5 2.57   3 2.57  18 2.57
  12  0.778  0.111  0.351-  21 2.55  19 2.56  25 2.56  15 2.57  10 2.57  14 2.57  18 2.57   3 2.57
                             1 2.57  16 2.57  11 2.57   6 2.57
  13  0.111  0.444  0.351-  23 2.55  20 2.55  22 2.56  16 2.57  18 2.57  10 2.57  11 2.57  14 2.57
                             5 2.57   4 2.57   7 2.57  15 2.57
  14  0.444  0.444  0.351-  21 2.55  23 2.55  24 2.56  15 2.57  17 2.57  12 2.57  16 2.57  13 2.57
                            11 2.57   6 2.57   8 2.57   5 2.57
  15  0.778  0.444  0.351-  19 2.56  24 2.56  22 2.56  14 2.57  17 2.57  12 2.57   6 2.57  18 2.57
                            10 2.57   9 2.57  13 2.57   4 2.57
  16  0.111  0.778  0.351-  23 2.55  25 2.56  26 2.56  18 2.57  13 2.57   7 2.57  14 2.57  17 2.57
                            12 2.57  10 2.57   8 2.57   1 2.57
  17  0.444  0.778  0.351-  26 2.56  27 2.56  24 2.56  14 2.57  15 2.57   8 2.57   9 2.57  11 2.57
                            16 2.57  18 2.57  10 2.57   2 2.57
  18  0.778  0.778  0.351-  25 2.56  22 2.56  27 2.56  16 2.57  13 2.57   7 2.57  15 2.57  12 2.57
                            17 2.57   9 2.57   3 2.57  11 2.57
  19  0.889  0.222  0.449-  28 2.55  15 2.56  12 2.56  10 2.56  22 2.56  24 2.56  21 2.57  20 2.57
                            25 2.57  26 2.57  32 2.57  31 2.57
  20  0.222  0.222  0.448-  36 2.48  11 2.55  13 2.55  10 2.55  29 2.56  31 2.56  23 2.56  21 2.56
                            26 2.57  19 2.57  27 2.57  22 2.57
  21  0.555  0.222  0.448-  36 2.48  14 2.55  11 2.55  12 2.55  32 2.56  30 2.56  20 2.56  23 2.56
                            19 2.57  25 2.57  24 2.57  27 2.57
  22  0.888  0.556  0.449-  35 2.55  24 2.56  27 2.56  31 2.56  33 2.56  18 2.56  15 2.56  13 2.56
                            19 2.56  25 2.56  23 2.57  20 2.57
  23  0.222  0.555  0.448-  36 2.48  13 2.55  14 2.55  16 2.55  33 2.56  34 2.56  20 2.56  21 2.56
                            25 2.57  26 2.57  22 2.57  24 2.57
  24  0.556  0.556  0.449-  35 2.55  22 2.56  27 2.56  32 2.56  34 2.56  15 2.56  17 2.56  14 2.56
                            19 2.56  26 2.56  21 2.57  23 2.57
  25  0.889  0.889  0.449-  28 2.55  18 2.56  16 2.56  12 2.56  22 2.56  27 2.56  21 2.57  23 2.57
                            19 2.57  26 2.57  33 2.57  30 2.57
  26  0.222  0.889  0.449-  28 2.55  17 2.56  10 2.56  16 2.56  27 2.56  24 2.56  20 2.57  23 2.57
                            25 2.57  19 2.57  29 2.57  34 2.57
  27  0.556  0.888  0.449-  35 2.55  24 2.56  22 2.56  29 2.56  30 2.56  17 2.56  18 2.56  11 2.56
                            26 2.56  25 2.56  20 2.57  21 2.57
  28  0.000  0.000  0.547-  25 2.55  19 2.55  26 2.55  33 2.58  30 2.58  31 2.58  29 2.58  32 2.58
                            34 2.58
  29  0.333  0.003  0.547-  31 2.54  36 2.55  30 2.55  20 2.56  27 2.56  26 2.57  28 2.58  35 2.58
                            34 2.61
  30  0.664  0.003  0.547-  32 2.54  36 2.55  29 2.55  21 2.56  27 2.56  25 2.57  28 2.58  35 2.58
                            33 2.61
  31  0.003  0.333  0.547-  29 2.54  36 2.55  33 2.55  20 2.56  22 2.56  19 2.57  28 2.58  35 2.58
                            32 2.61
  32  0.664  0.333  0.547-  30 2.54  36 2.55  34 2.55  21 2.56  24 2.56  19 2.57  28 2.58  35 2.58
                            31 2.61
  33  0.003  0.664  0.547-  34 2.54  36 2.55  31 2.55  23 2.56  22 2.56  25 2.57  28 2.58  35 2.58
                            30 2.61
  34  0.333  0.664  0.547-  33 2.54  36 2.55  32 2.55  23 2.56  24 2.56  26 2.57  28 2.58  35 2.58
                            29 2.61
  35  0.667  0.667  0.547-  24 2.55  27 2.55  22 2.55  34 2.58  32 2.58  29 2.58  30 2.58  33 2.58
                            31 2.58
  36  0.333  0.333  0.542-  37 1.79  23 2.48  20 2.48  21 2.48  31 2.55  29 2.55  33 2.55  34 2.55
                            32 2.55  30 2.55
  37  0.333  0.333  0.626-  38 1.18  36 1.79
  38  0.333  0.333  0.681-  37 1.18

  LATTYP: Found a hexagonal cell.
 ALAT       =     7.6967864036
 C/A-ratio  =     2.7653617908

  Lattice vectors:

 A1 = (  -3.8483927580,  -6.6656128093,   0.0000000000)
 A2 = (   7.6967864037,   0.0000000000,   0.0000000000)
 A3 = (   0.0000000000,   0.0000000000,  21.2843990326)

Analysis of symmetry for initial positions (statically):
 Subroutine PRICEL returns:
 Original cell was already a primitive cell.

 Routine SETGRP: Setting up the symmetry group for a
 hexagonal supercell.

 Subroutine GETGRP returns: Found  6 space group operations
 (whereof  6 operations were pure point group operations)
 out of a pool of 24 trial point group operations.

The static configuration has the point symmetry C_3v.

Analysis of symmetry for dynamics (positions and initial velocities):
 Subroutine PRICEL returns:
 Original cell was already a primitive cell.

[...]

The dynamic configuration has the point symmetry C_3v.

Analysis of constrained symmetry for selective dynamics:
 Subroutine PRICEL returns:
[...]
     33      -4.1100      2.00000
     34      -4.0992      2.00000
     35      -4.0821      2.00000
     36      -4.0658      2.00000
     37      -4.0150      2.00000
     38      -4.0052      2.00000
     39      -3.9745      2.00000
     40      -3.8927      2.00000
     41      -3.8751      2.00000
     42      -3.7935      2.00000
     43      -3.7815      2.00000
     44      -3.7088      2.00000
     45      -3.7025      2.00000
     46      -3.6872      2.00000
     47      -3.6626      2.00000
     48      -3.6595      2.00000
     49      -3.6390      2.00000
     50      -3.6279      2.00000
     51      -3.4563      2.00000
     52      -3.4356      2.00000
     53      -3.4349      2.00000
     54      -3.4264      2.00000
     55      -3.3778      2.00000
     56      -3.3735      2.00000
     57      -3.3604      2.00000
     58      -3.3376      2.00000
     59      -3.3348      2.00000
     60      -3.3113      2.00000
[...]
    238       5.8091      0.00000
    239       6.0948      0.00000
    240       6.1710      0.00000
    241       6.1852      0.00000
    242       6.2912      0.00000
    243       6.4156      0.00000
    244       7.0136      0.00000
    245       7.0265      0.00000
    246       7.0979      0.00000
    247       7.1479      0.00000
    248       7.1875      0.00000
    249       7.2555      0.00000
    250       7.4424      0.00000
    251       7.4557      0.00000
    252       7.5193      0.00000

 soft charge-density along one line, spin component           1
         0         1         2         3         4         5         6         7         8         9
 total charge-density along one line

------------------------ aborting loop because EDIFF is reached ----------------------------------------

 total charge

# of ion       s       p       d       tot
    1        0.449   0.283   9.190   9.922
    2        0.449   0.285   9.187   9.920
    3        0.449   0.285   9.187   9.920
    4        0.449   0.285   9.187   9.920
    5        0.450   0.286   9.179   9.915
    6        0.449   0.285   9.187   9.920
    7        0.449   0.285   9.187   9.920
    8        0.449   0.285   9.187   9.920
    9        0.448   0.282   9.191   9.921
   10        0.442   0.372   9.175   9.989
   11        0.445   0.366   9.185   9.995
   12        0.442   0.372   9.175   9.989
   13        0.445   0.366   9.185   9.995
   14        0.445   0.366   9.185   9.995
   15        0.438   0.371   9.177   9.986
   16        0.442   0.372   9.175   9.989
   17        0.438   0.371   9.177   9.986
   18        0.438   0.371   9.177   9.986
   19        0.441   0.369   9.181   9.991
   20        0.461   0.392   9.166  10.019
   21        0.461   0.392   9.166  10.019
   22        0.432   0.375   9.180   9.988
   23        0.461   0.392   9.166  10.019
   24        0.432   0.375   9.180   9.988
   25        0.441   0.369   9.181   9.991
   26        0.441   0.369   9.181   9.991
   27        0.432   0.375   9.180   9.988
   28        0.445   0.283   9.190   9.918
   29        0.455   0.297   9.176   9.928
   30        0.455   0.297   9.176   9.928
   31        0.455   0.297   9.176   9.928
   32        0.455   0.297   9.176   9.928
   33        0.455   0.297   9.176   9.928
   34        0.455   0.297   9.176   9.928
   35        0.443   0.286   9.187   9.915
   36        0.371   0.410   5.196   5.977
   37        0.959   1.548   0.000   2.507
   38        1.610   3.529   0.000   5.139
tot         18.574  17.129 326.504 362.207

  FORCE on cell =-STRESS in cart. coord.  units (eV):
  Direction    XX          YY          ZZ          XY          YZ          ZX
  Alpha Z   901.76935   901.76935   901.76935
  Ewald  170667.37141170667.37099************     0.00041     0.00012     0.00018
  Hartree183853.59441183853.59438************     0.00005     0.00006     0.00007
  E(xc)   -2323.68709 -2323.68666 -2327.61486    -0.00037    -0.00003    -0.00006
  Local  ************************367326.40935     0.01867    -0.00061    -0.00099
  n-local  -809.10538  -795.27737  -820.73305     7.08978    -0.04984     0.22879
  augment  3342.15403  3342.17406  3362.78764    -0.01735     0.00027     0.00041
  Kinetic  3391.90542  3397.62773  3394.66182     3.85250     1.67005    -1.17854
  Fock        0.00000     0.00000     0.00000     0.00000     0.00000     0.00000
  Total      -7.49159    -7.49159     1.19155     0.00000     0.00000    -0.00000
  in kB     -10.99192   -10.99192     1.74828     0.00000     0.00000    -0.00000

 VOLUME and BASIS-vectors are now :
  energy-cutoff  :      500.00
  volume of cell :     1091.97
      direct lattice vectors                 reciprocal lattice vectors
     7.696786404  0.000000000  0.000000000     0.129924354 -0.075011849  0.000000000
     3.848392758  6.665612809  0.000000000     0.000000000  0.150023716  0.000000000
     0.000000000  0.000000000 21.284399033     0.000000000  0.000000000  0.046982769

  length of vectors
     7.696786404  7.696786404 21.284399033     0.150023716  0.150023716  0.046982769

 FORCES acting on ions
    electron-ion (+dipol)            ewald-force                    non-local-force                 convergence-correction
   -.416E-04 0.166E-06 0.349E+04   0.579E-04 -.438E-05 -.349E+04   0.509E-17 -.503E-17 -.269E+01   -.251E-03 -.112E-03 -.993E-01
   -.207E+00 0.818E-01 0.349E+04   0.303E-01 -.248E-01 -.349E+04   0.916E-01 0.771E-01 -.184E+01   0.934E-01 -.109E+00 -.628E-01
   0.207E+00 0.818E-01 0.349E+04   -.304E-01 -.249E-01 -.349E+04   -.916E-01 0.771E-01 -.184E+01   -.926E-01 -.107E+00 -.620E-01
   -.325E-01 -.220E+00 0.349E+04   -.642E-02 0.387E-01 -.349E+04   0.113E+00 0.408E-01 -.184E+01   -.476E-01 0.135E+00 -.628E-01
   -.652E-04 -.551E-05 0.349E+04   0.116E-03 -.101E-04 -.349E+04   -.254E-17 -.135E-18 -.145E+01   0.120E-01 0.735E-02 0.244E-01
   0.325E-01 -.220E+00 0.349E+04   0.630E-02 0.386E-01 -.349E+04   -.113E+00 0.408E-01 -.184E+01   0.462E-01 0.137E+00 -.618E-01
   0.174E+00 0.138E+00 0.349E+04   -.368E-01 -.138E-01 -.349E+04   0.210E-01 -.118E+00 -.184E+01   -.139E+00 -.270E-01 -.619E-01
   -.174E+00 0.138E+00 0.349E+04   0.365E-01 -.138E-01 -.349E+04   -.210E-01 -.118E+00 -.184E+01   0.142E+00 -.283E-01 -.619E-01
   -.144E-03 -.329E-04 0.349E+04   0.263E-03 0.206E-04 -.349E+04   0.130E-18 -.423E-18 -.239E+01   -.131E-01 -.677E-02 -.108E+00
   0.705E+00 0.407E+00 0.120E+04   -.341E+00 -.197E+00 -.120E+04   -.423E+00 -.244E+00 -.107E+01   0.517E-01 0.298E-01 0.619E-01
   -.903E-04 0.199E+00 0.120E+04   0.189E-03 -.651E+00 -.120E+04   -.223E-07 0.336E+00 -.409E+00   0.113E-01 0.764E-01 0.871E-01
   -.705E+00 0.407E+00 0.120E+04   0.341E+00 -.197E+00 -.120E+04   0.423E+00 -.244E+00 -.107E+01   -.527E-01 0.303E-01 0.599E-01
   0.172E+00 -.993E-01 0.120E+04   -.563E+00 0.325E+00 -.120E+04   0.291E+00 -.168E+00 -.409E+00   0.723E-01 -.276E-01 0.871E-01
   -.172E+00 -.993E-01 0.120E+04   0.563E+00 0.325E+00 -.120E+04   -.291E+00 -.168E+00 -.409E+00   -.494E-01 -.289E-01 0.838E-01
   -.143E-03 -.277E+00 0.120E+04   0.299E-03 -.356E-01 -.120E+04   -.107E-07 0.161E+00 -.990E+00   -.272E-02 0.140E+00 0.114E+00
   -.915E-04 -.814E+00 0.120E+04   0.186E-03 0.394E+00 -.120E+04   -.325E-07 0.488E+00 -.107E+01   -.104E-02 -.620E-01 0.599E-01
   -.240E+00 0.138E+00 0.120E+04   -.308E-01 0.181E-01 -.120E+04   0.139E+00 -.804E-01 -.990E+00   0.120E+00 -.723E-01 0.114E+00
   0.240E+00 0.138E+00 0.120E+04   0.306E-01 0.180E-01 -.120E+04   -.139E+00 -.804E-01 -.990E+00   -.119E+00 -.705E-01 0.115E+00
   -.603E-04 -.160E+01 -.111E+04   0.687E-04 0.132E+01 0.111E+04   -.337E-08 0.506E-01 0.955E+00   0.129E-01 0.234E+00 0.348E+00
   -.147E+02 -.849E+01 -.112E+04   0.157E+02 0.908E+01 0.112E+04   -.129E+01 -.745E+00 -.940E+00   0.157E+00 0.904E-01 0.647E+00
   0.147E+02 -.849E+01 -.112E+04   -.157E+02 0.908E+01 0.112E+04   0.129E+01 -.745E+00 -.940E+00   -.180E+00 0.886E-01 0.646E+00
   -.840E+01 0.485E+01 -.111E+04   0.797E+01 -.460E+01 0.111E+04   0.445E+00 -.257E+00 0.639E+00   0.446E-01 -.150E-01 0.351E+00
   -.793E-04 0.170E+02 -.112E+04   0.145E-03 -.182E+02 0.112E+04   -.992E-07 0.149E+01 -.940E+00   -.143E-01 -.201E+00 0.646E+00
   0.840E+01 0.485E+01 -.111E+04   -.797E+01 -.460E+01 0.111E+04   -.445E+00 -.257E+00 0.639E+00   -.211E-01 -.131E-01 0.352E+00
   0.139E+01 0.802E+00 -.111E+04   -.115E+01 -.662E+00 0.111E+04   -.438E-01 -.253E-01 0.955E+00   -.187E+00 -.108E+00 0.348E+00
   -.139E+01 0.802E+00 -.111E+04   0.115E+01 -.662E+00 0.111E+04   0.438E-01 -.253E-01 0.955E+00   0.209E+00 -.105E+00 0.348E+00
   -.125E-03 -.970E+01 -.111E+04   0.241E-03 0.920E+01 0.111E+04   -.342E-07 0.514E+00 0.639E+00   0.925E-02 0.461E-01 0.351E+00
   -.339E-04 0.171E-04 -.339E+04   0.341E-04 -.345E-04 0.338E+04   0.171E-16 -.183E-17 0.250E+01   -.128E-02 -.690E-03 0.500E+00
   0.336E+01 0.584E+01 -.336E+04   -.299E+01 -.537E+01 0.336E+04   -.590E+00 -.794E+00 0.228E+01   0.232E+00 0.329E+00 0.443E+00
   -.336E+01 0.584E+01 -.336E+04   0.299E+01 -.537E+01 0.336E+04   0.590E+00 -.794E+00 0.228E+01   -.210E+00 0.331E+00 0.444E+00
   0.674E+01 -.860E-02 -.336E+04   -.614E+01 0.973E-01 0.336E+04   -.982E+00 -.114E+00 0.228E+01   0.401E+00 0.360E-01 0.443E+00
   -.674E+01 -.829E-02 -.336E+04   0.614E+01 0.972E-01 0.336E+04   0.982E+00 -.114E+00 0.228E+01   -.379E+00 0.372E-01 0.445E+00
   0.337E+01 -.583E+01 -.336E+04   -.316E+01 0.527E+01 0.336E+04   -.392E+00 0.908E+00 0.228E+01   0.181E+00 -.347E+00 0.444E+00
   -.337E+01 -.583E+01 -.336E+04   0.316E+01 0.527E+01 0.336E+04   0.392E+00 0.908E+00 0.228E+01   -.157E+00 -.347E+00 0.446E+00
   -.133E-03 -.182E-04 -.339E+04   0.256E-03 0.641E-05 0.339E+04   -.612E-17 -.224E-17 0.271E+01   -.141E-01 -.734E-02 0.453E+00
   -.641E-04 -.255E-04 -.196E+04   0.914E-04 0.167E-04 0.196E+04   -.515E-18 0.126E-18 -.159E+01   0.114E-02 0.734E-03 0.323E+00
   -.440E-05 -.759E-04 -.123E+04   0.120E-04 0.564E-05 0.121E+04   -.233E-19 0.716E-20 0.160E+02   0.788E-03 0.483E-03 -.101E+00
   0.223E-03 -.744E-04 -.198E+04   0.282E-05 0.281E-05 0.203E+04   -.854E-19 -.166E-18 -.578E+02   0.315E-02 0.193E-02 -.112E+00
   -.970E-04 -.186E-03 0.395E+02   0.610E-13 0.585E-13 0.477E-11   -.173E-15 -.227E-17 -.474E+02   0.120E+00 0.665E-01 0.799E+01

 POSITION                                       TOTAL-FORCE (eV/Angst)
      0.00000      0.00000      5.37156        -0.000000     -0.000000     -0.027425
      2.56560      0.00000      5.37156         0.008971      0.026101      0.054719
      5.13119      0.00000      5.37156        -0.008971      0.026101      0.054719
      1.28280      2.22187      5.37156         0.027089     -0.005281      0.054719
      3.84839      2.22187      5.37156        -0.000000     -0.000000      0.015488
      6.41399      2.22187      5.37156        -0.027089     -0.005281      0.054719
      2.56560      4.44374      5.37156         0.018118     -0.020820      0.054719
      5.13119      4.44374      5.37156        -0.018118     -0.020820      0.054719
      7.69679      4.44374      5.37156        -0.000000     -0.000000      0.012217
      1.28280      0.74062      7.46636        -0.006011     -0.003470     -0.063079
      3.84839      0.74062      7.46636         0.000000     -0.046217     -0.063555
      6.41399      0.74062      7.46636         0.006011     -0.003470     -0.063079
      2.56560      2.96249      7.46636        -0.040025      0.023109     -0.063555
      5.13119      2.96249      7.46636         0.040025      0.023109     -0.063555
      7.69679      2.96249      7.46636         0.000000     -0.012437     -0.026154
      3.84839      5.18437      7.46636        -0.000000      0.006941     -0.063079
      6.41399      5.18437      7.46636        -0.010770      0.006218     -0.026154
      8.97958      5.18437      7.46636         0.010770      0.006218     -0.026154
      7.69679      1.48275      9.55327         0.000000     -0.001532      0.057066
      2.56715      1.48214      9.54261        -0.092005     -0.053119     -0.190455
      5.12964      1.48214      9.54261         0.092005     -0.053119     -0.190455
      8.97640      3.70496      9.55687         0.047553     -0.027455      0.010594
      3.84839      3.70133      9.54261        -0.000000      0.106238     -0.190455
      6.41717      3.70496      9.55687        -0.047553     -0.027455      0.010594
     10.26108      5.92424      9.55327         0.001327      0.000766      0.057066
      5.13249      5.92424      9.55327        -0.001327      0.000766      0.057066
      7.69679      5.92131      9.55687        -0.000000      0.054910      0.010594
      0.00000      0.00000     11.63217        -0.000000     -0.000000     -0.071619
      2.57513      0.01976     11.64308         0.003483     -0.003680      0.006605
      5.12165      0.01976     11.64308        -0.003483     -0.003680      0.006605
      1.30468      2.22025     11.64308        -0.001445      0.004856      0.006605
      6.39211      2.22025     11.64308         0.001445      0.004856      0.006605
      2.57794      4.42560     11.64308        -0.004928     -0.001176      0.006605
      5.11885      4.42560     11.64308         0.004928     -0.001176      0.006605
      7.69679      4.44374     11.63403        -0.000000     -0.000000     -0.056776
      3.84839      2.22187     11.52902        -0.000000     -0.000000      0.580619
      3.84839      2.22187     13.32192        -0.000000     -0.000000      0.034966
      3.84839      2.22187     14.49809        -0.000000     -0.000000     -0.028666
    total drift:                                0.120075      0.066292      0.072824

  FREE ENERGIE OF THE ION-ELECTRON SYSTEM (eV)
  free  energy   TOTEN  =      -146.20263080 eV

  energy  without entropy=     -146.20263080  energy(sigma->0) =     -146.20263080

 stress matrix after NEB project (eV)
     -7.49159      0.00000     -0.00000
      0.00000     -7.49159      0.00000
     -0.00000      0.00000      1.19155
  FORCES: max atom, RMS     0.034966    0.007335
  FORCE total and by dimension    0.045215    0.034966
  Stress total and by dimension   10.661501    7.491590
|           W    W    AA    RRRRR   N    N  II  N    N   GGGG   !!!           |
|           W    W   A  A   R    R  NN   N  II  NN   N  G    G  !!!           |
|           W    W  A    A  R    R  N N  N  II  N N  N  G       !!!           |
|           W WW W  AAAAAA  RRRRR   N  N N  II  N  N N  G  GGG   !            |
|           WW  WW  A    A  R   R   N   NN  II  N   NN  G    G                |
|           W    W  A    A  R    R  N    N  II  N    N   GGGG   !!!           |
|     Tetrahedron method does not include variations of the Fermi             |
|     occupations, so forces and stress will be inaccurate. We suggest        |
|     using a different smearing scheme ISMEAR = 1 or 2 for metals in         |
|     relaxations.                                                            |

 total charge

# of ion       s       p       d       tot
    1        0.449   0.283   9.190   9.922
    2        0.449   0.285   9.187   9.920
    3        0.449   0.285   9.187   9.920
    4        0.449   0.285   9.187   9.920
    5        0.450   0.286   9.179   9.915
    6        0.449   0.285   9.187   9.920
    7        0.449   0.285   9.187   9.920
    8        0.449   0.285   9.187   9.920
    9        0.448   0.282   9.191   9.921
   10        0.442   0.372   9.175   9.989
   11        0.445   0.366   9.185   9.995
   12        0.442   0.372   9.175   9.989
   13        0.445   0.366   9.185   9.995
   14        0.445   0.366   9.185   9.995
   15        0.438   0.371   9.177   9.986
   16        0.442   0.372   9.175   9.989
   17        0.438   0.371   9.177   9.986
   18        0.438   0.371   9.177   9.986
   19        0.441   0.369   9.181   9.991
   20        0.461   0.392   9.166  10.019
   21        0.461   0.392   9.166  10.019
   22        0.432   0.375   9.180   9.988
   23        0.461   0.392   9.166  10.019
   24        0.432   0.375   9.180   9.988
   25        0.441   0.369   9.181   9.991
   26        0.441   0.369   9.181   9.991
   27        0.432   0.375   9.180   9.988
   28        0.445   0.283   9.190   9.918
   29        0.455   0.297   9.176   9.928
   30        0.455   0.297   9.176   9.928
   31        0.455   0.297   9.176   9.928
   32        0.455   0.297   9.176   9.928
   33        0.455   0.297   9.176   9.928
   34        0.455   0.297   9.176   9.928
   35        0.443   0.286   9.187   9.915
   36        0.371   0.410   5.196   5.977
   37        0.959   1.548   0.000   2.507
   38        1.610   3.529   0.000   5.139
tot         18.574  17.129 326.504 362.207

 BZINTS: Fermi energy:   -0.014383;  402.000000 electrons
         Band energy:-0.118949E+04;  BLOECHL correction:   -0.028465