 vasp.6.2.0 18Jan21 (build Jun 12 2021 23:27:24) complex

 executed on             LinuxIFC date 2022.05.28  01:18:10

 INCAR:
   ISMEAR = -5
   SIGMA = 0.1
   ISPIN = 1
   EDIFF = 1.d-5
   EDIFFG = -0.01
   NSW = 0
   NELM = 150
   ENCUT = 500
   ISIF = 2
   IBRION = 2
   LREAL = Auto
   ALGO = Fast
   ICHARG = 11
   LORBIT = 10
   LCHARG = .F.
   LWAVE = .F.

 POTCAR:    PAW_PBE Au 04Oct2007
 POTCAR:    PAW_PBE Ir 06Sep2000
 POTCAR:    PAW_PBE H 15Jun2001
 POTCAR:    PAW_PBE O 08Apr2002
|           W    W    AA    RRRRR   N    N  II  N    N   GGGG   !!!           |
|           W    W   A  A   R    R  NN   N  II  NN   N  G    G  !!!           |
|           W    W  A    A  R    R  N N  N  II  N N  N  G       !!!           |
|           W WW W  AAAAAA  RRRRR   N  N N  II  N  N N  G  GGG   !            |
|           WW  WW  A    A  R   R   N   NN  II  N   NN  G    G                |
|           W    W  A    A  R    R  N    N  II  N    N   GGGG   !!!           |
|     For optimal performance we recommend to set                             |
|       NCORE = 2 up to number-of-cores-per-socket                            |
|     This setting can greatly improve the performance of VASP for DFT.       |
|     The default, NCORE=1 might be grossly inefficient on modern             |
|     multi-core architectures or massively parallel machines. Do your        |
|     Unfortunately you need to use the default for GW and RPA                |
|     calculations (for HF NCORE is supported but not extensively tested      |
|     yet).                                                                   |

 POTCAR:    PAW_PBE Au 04Oct2007
   VRHFIN =Au: s1d10

   TITEL  = PAW_PBE Au 04Oct2007
   POMASS =  196.966; ZVAL   =   11.000    mass and valenz
   ENMAX  =  229.943; ENMIN  =  172.457 eV

 POTCAR:    PAW_PBE Ir 06Sep2000
   VRHFIN =Ir: s1d8

   TITEL  = PAW_PBE Ir 06Sep2000
   POMASS =  192.220; ZVAL   =    9.000    mass and valenz
   ENMAX  =  210.864; ENMIN  =  158.148 eV

 POTCAR:    PAW_PBE H 15Jun2001
   VRHFIN =H: ultrasoft test

   TITEL  = PAW_PBE H 15Jun2001
   POMASS =    1.000; ZVAL   =    1.000    mass and valenz
   ENMAX  =  250.000; ENMIN  =  200.000 eV

 POTCAR:    PAW_PBE O 08Apr2002
   VRHFIN =O: s2p4

   TITEL  = PAW_PBE O 08Apr2002
   POMASS =   16.000; ZVAL   =    6.000    mass and valenz
   ENMAX  =  400.000; ENMIN  =  300.000 eV

 Optimization of the real space projectors (new method)

 maximal supplied QI-value         = 15.12
 optimisation between [QCUT,QGAM] = [ 11.34, 22.83] = [ 36.00,145.93] Ry
 Optimized for a Real-space Cutoff    1.39 Angstroem

   l    n(q)    QCUT    max X(q) W(low)/X(q) W(high)/X(q)  e(spline)
   2      9    11.338    60.898    0.39E-03    0.42E-03    0.21E-06
   2      9    11.338    58.894    0.40E-03    0.42E-03    0.22E-06
   0      9    11.338   109.617    0.13E-03    0.20E-04    0.13E-06
   0      9    11.338    75.026    0.13E-03    0.20E-04    0.13E-06
   1      9    11.338    16.344    0.33E-04    0.24E-03    0.18E-06
   1      9    11.338    10.160    0.26E-04    0.19E-03    0.15E-06
 Optimization of the real space projectors (new method)

[...]

   l    n(q)    QCUT    max X(q) W(low)/X(q) W(high)/X(q)  e(spline)
   0      8    11.287    19.460    0.40E-03    0.73E-03    0.16E-06
   0      8    11.287    12.209    0.38E-03    0.70E-03    0.15E-06
   1      7    11.287     4.655    0.22E-03    0.25E-04    0.22E-06
 Optimization of the real space projectors (new method)

 maximal supplied QI-value         = 24.76
 optimisation between [QCUT,QGAM] = [ 11.39, 22.77] = [ 36.31,145.25] Ry
 Optimized for a Real-space Cutoff    1.00 Angstroem

   l    n(q)    QCUT    max X(q) W(low)/X(q) W(high)/X(q)  e(spline)
   0      7    11.387    20.381    0.39E-03    0.13E-02    0.15E-06
   0      7    11.387    15.268    0.42E-03    0.14E-02    0.17E-06
   1      6    11.387     5.964    0.41E-03    0.11E-02    0.17E-06
   1      6    11.387     5.382    0.39E-03    0.87E-03    0.15E-06
  PAW_PBE Au 04Oct2007                  :
  PAW_PBE Ir 06Sep2000                  :
  PAW_PBE H 15Jun2001                   :
  PAW_PBE O 08Apr2002                   :

 POSCAR: Au-Ir-H2O
  positions in direct lattice
  velocities in cartesian coordinates
 exchange correlation table for  LEXCH =        8
   RHO(1)=    0.500       N(1)  =     2000
   RHO(2)=  100.500       N(2)  =     4000

 VTST: version 3.2, (02/03/18)

 CHAIN: initializing optimizer

 OPT: Using VASP Conjugate-Gradient optimizer
 CHAIN: Read ICHAIN            0

 POSCAR: Au-Ir-H2O
  positions in direct lattice
  velocities in cartesian coordinates

 ion  position               nearest neighbor table
   1  0.000  0.000  0.213-  16 2.94  12 2.94   6 2.94   8 2.94   7 2.94   3 2.94  10 2.94   4 2.94
                             2 2.94
   2  0.333  0.000  0.213-   9 2.94  11 2.94  17 2.94  10 2.94   8 2.94   4 2.94   5 2.94   1 2.94
                             3 2.94
   3  0.667  0.000  0.213-   7 2.94  18 2.94  12 2.94   1 2.94  11 2.94   5 2.94   6 2.94   9 2.94
                             2 2.94
   4  0.000  0.333  0.213-  10 2.94   6 2.94   5 2.94  13 2.94   2 2.94  15 2.94   9 2.94   1 2.94
                             7 2.94
   5  0.333  0.333  0.213-  13 2.94   7 2.94  11 2.94   4 2.94   2 2.94  14 2.94   3 2.94   8 2.94
                             6 2.94
   6  0.667  0.333  0.213-  15 2.94  14 2.94   1 2.94  12 2.94   4 2.94   9 2.94   8 2.94   3 2.94
                             5 2.94
   7  0.000  0.667  0.213-  18 2.94   3 2.94  16 2.94   5 2.94   1 2.94  13 2.94   8 2.94   4 2.94
                             9 2.94
   8  0.333  0.667  0.213-   9 2.94  17 2.94   1 2.94   2 2.94  14 2.94  16 2.94   6 2.94   7 2.94
                             5 2.94
   9  0.667  0.667  0.213-   2 2.94   8 2.94  17 2.94   6 2.94  15 2.94   4 2.94   3 2.94  18 2.94
                             7 2.94
  10  0.111  0.111  0.310-  20 2.90  11 2.94  17 2.94   2 2.94   4 2.94   1 2.94  12 2.94  16 2.94
                            13 2.94  15 2.94  26 2.94  19 2.94
  11  0.444  0.111  0.310-  20 2.91  21 2.91  27 2.93  13 2.94   2 2.94  10 2.94  17 2.94   5 2.94
                             3 2.94  18 2.94  14 2.94  12 2.94
  12  0.778  0.111  0.310-  21 2.90  16 2.94  18 2.94   1 2.94  14 2.94  15 2.94   3 2.94   6 2.94
                            10 2.94  11 2.94  25 2.94  19 2.94
  13  0.111  0.444  0.310-  23 2.91  20 2.91  22 2.93   5 2.94  18 2.94  11 2.94   7 2.94   4 2.94
                            16 2.94  10 2.94  14 2.94  15 2.94
  14  0.444  0.444  0.310-  21 2.91  23 2.91  24 2.93  15 2.94   6 2.94  12 2.94   8 2.94  17 2.94
                             5 2.94  16 2.94  13 2.94  11 2.94
  15  0.778  0.444  0.310-  24 2.92  22 2.92  14 2.94   6 2.94  17 2.94  12 2.94   9 2.94   4 2.94
                            10 2.94  13 2.94  18 2.94  19 2.94
  16  0.111  0.778  0.310-  23 2.90  18 2.94  12 2.94   7 2.94   1 2.94   8 2.94  13 2.94  10 2.94
                            14 2.94  17 2.94  25 2.94  26 2.94
  17  0.444  0.778  0.310-  27 2.92  24 2.92   9 2.94  15 2.94   2 2.94  10 2.94  11 2.94   8 2.94
                            14 2.94  16 2.94  18 2.94  26 2.94
  18  0.778  0.778  0.310-  22 2.92  27 2.92  16 2.94   7 2.94  13 2.94  12 2.94   3 2.94  11 2.94
                             9 2.94  15 2.94  17 2.94  25 2.94
  19  0.889  0.223  0.407-  21 2.93  20 2.93  24 2.93  22 2.93  15 2.94  10 2.94  12 2.94  26 2.95
                            25 2.95  28 2.95  32 2.96  31 2.96
  20  0.222  0.222  0.406-  36 2.78  10 2.90  11 2.91  13 2.91  26 2.93  19 2.93  29 2.95  31 2.95
                            27 2.95  22 2.95  23 2.95  21 2.95
  21  0.557  0.222  0.406-  36 2.78  12 2.90  14 2.91  11 2.91  25 2.93  19 2.93  30 2.95  32 2.95
                            24 2.95  27 2.95  20 2.95  23 2.95
  22  0.887  0.557  0.407-  24 2.91  27 2.91  18 2.92  15 2.92  13 2.93  25 2.93  19 2.93  23 2.95
                            20 2.95  35 2.95  33 2.96  31 2.96
  23  0.222  0.557  0.406-  36 2.78  16 2.90  13 2.91  14 2.91  25 2.93  26 2.93  33 2.95  34 2.95
                            22 2.95  24 2.95  20 2.95  21 2.95
  24  0.557  0.557  0.407-  27 2.91  22 2.91  15 2.92  17 2.92  14 2.93  26 2.93  19 2.93  21 2.95
                            23 2.95  35 2.95  32 2.96  34 2.96
  25  0.889  0.889  0.407-  23 2.93  21 2.93  22 2.93  27 2.93  18 2.94  16 2.94  12 2.94  19 2.95
                            26 2.95  28 2.95  33 2.96  30 2.96
  26  0.223  0.889  0.407-  20 2.93  23 2.93  27 2.93  24 2.93  17 2.94  10 2.94  16 2.94  19 2.95
                            25 2.95  28 2.95  29 2.96  34 2.96
  27  0.557  0.887  0.407-  24 2.91  22 2.91  17 2.92  18 2.92  11 2.93  26 2.93  25 2.93  20 2.95
                            21 2.95  35 2.95  29 2.96  30 2.96
  28  0.000  0.000  0.505-  25 2.95  19 2.95  26 2.95  34 2.96  32 2.96  33 2.96  30 2.96  31 2.96
                            29 2.96
  29  0.333  0.005  0.504-  31 2.89  30 2.89  36 2.90  20 2.95  28 2.96  35 2.96  27 2.96  26 2.96
                            34 3.03
  30  0.661  0.005  0.504-  32 2.89  29 2.89  36 2.90  21 2.95  28 2.96  35 2.96  27 2.96  25 2.96
                            33 3.03
  31  0.005  0.333  0.504-  29 2.89  33 2.89  36 2.90  20 2.95  28 2.96  35 2.96  22 2.96  19 2.96
                            32 3.03
  32  0.661  0.333  0.504-  30 2.89  34 2.89  36 2.90  21 2.95  28 2.96  35 2.96  24 2.96  19 2.96
                            31 3.03
  33  0.005  0.661  0.504-  34 2.89  31 2.89  36 2.90  23 2.95  28 2.96  35 2.96  22 2.96  25 2.96
                            30 3.03
  34  0.333  0.661  0.504-  33 2.89  32 2.89  36 2.90  23 2.95  28 2.96  35 2.96  24 2.96  26 2.96
                            29 3.03
  35  0.667  0.667  0.505-  24 2.95  27 2.95  22 2.95  29 2.96  34 2.96  32 2.96  31 2.96  30 2.96
                            33 2.96
  36  0.333  0.333  0.495-  39 2.28  20 2.78  23 2.78  21 2.78  33 2.90  31 2.90  29 2.90  30 2.90
                            34 2.90  32 2.90
  37  0.206  0.411  0.593-  39 0.98
  38  0.385  0.409  0.594-  39 0.98
  39  0.332  0.336  0.587-  37 0.98  38 0.98  36 2.28

  LATTYP: Found a hexagonal cell.
 ALAT       =     8.8135128021
 C/A-ratio  =     2.8075332270

  Lattice vectors:

 A1 = (  -4.4067569092,  -7.6327256898,   0.0000000000)
 A2 = (   8.8135128021,   0.0000000000,   0.0000000000)
 A3 = (   0.0000000000,   0.0000000000,  24.7442300386)

Analysis of symmetry for initial positions (statically):
 Subroutine PRICEL returns:
 Original cell was already a primitive cell.

 Routine SETGRP: Setting up the symmetry group for a
 hexagonal supercell.

 Subroutine GETGRP returns: Found  1 space group operations
 (whereof  1 operations were pure point group operations)
 out of a pool of 24 trial point group operations.

The static configuration has the point symmetry C_1 .

Analysis of symmetry for dynamics (positions and initial velocities):
 Subroutine PRICEL returns:
 Original cell was already a primitive cell.

[...]

The dynamic configuration has the point symmetry C_1 .

Analysis of constrained symmetry for selective dynamics:
 Subroutine PRICEL returns:
[...]
     41      -4.8425      2.00000
     42      -4.8134      2.00000
     43      -4.7348      2.00000
     44      -4.7074      2.00000
     45      -4.6898      2.00000
     46      -4.6302      2.00000
     47      -4.6195      2.00000
     48      -4.5965      2.00000
     49      -4.5754      2.00000
     50      -4.4896      2.00000
     51      -4.4562      2.00000
     52      -4.4311      2.00000
     53      -4.4220      2.00000
     54      -4.4138      2.00000
     55      -4.4077      2.00000
     56      -4.3941      2.00000
     57      -4.3536      2.00000
     58      -4.3146      2.00000
     59      -4.2723      2.00000
     60      -4.2587      2.00000
[...]
    238       5.8179      0.00000
    239       6.0288      0.00000
    240       6.0792      0.00000
    241       6.1427      0.00000
    242       6.2044      0.00000
    243       6.3616      0.00000
    244       6.4609      0.00000
    245       6.4632      0.00000
    246       6.5085      0.00000
    247       6.5811      0.00000
    248       6.6316      0.00000
    249       6.6755      0.00000
    250       6.7342      0.00000
    251       6.8417      0.00000
    252       6.8684      0.00000

 soft charge-density along one line, spin component           1
         0         1         2         3         4         5         6         7         8         9
 total charge-density along one line

------------------------ aborting loop because EDIFF is reached ----------------------------------------

 total charge

# of ion       s       p       d       tot
    1        0.544   0.240   8.766   9.549
    2        0.546   0.240   8.764   9.551
    3        0.546   0.240   8.764   9.551
    4        0.547   0.240   8.764   9.551
    5        0.540   0.243   8.762   9.545
    6        0.547   0.240   8.764   9.551
    7        0.546   0.240   8.764   9.551
    8        0.546   0.240   8.764   9.551
    9        0.540   0.240   8.770   9.549
   10        0.522   0.309   8.768   9.599
   11        0.522   0.307   8.781   9.610
   12        0.522   0.309   8.768   9.599
   13        0.523   0.307   8.781   9.610
   14        0.523   0.307   8.780   9.610
   15        0.515   0.308   8.777   9.600
   16        0.522   0.310   8.768   9.599
   17        0.515   0.308   8.777   9.600
   18        0.515   0.308   8.777   9.600
   19        0.520   0.303   8.773   9.596
   20        0.537   0.333   8.750   9.621
   21        0.537   0.333   8.750   9.621
   22        0.511   0.308   8.778   9.597
   23        0.538   0.333   8.751   9.621
   24        0.511   0.308   8.778   9.597
   25        0.520   0.303   8.774   9.596
   26        0.520   0.303   8.774   9.596
   27        0.509   0.308   8.778   9.595
   28        0.539   0.231   8.769   9.540
   29        0.549   0.244   8.756   9.549
   30        0.549   0.244   8.756   9.549
   31        0.553   0.250   8.752   9.555
   32        0.553   0.250   8.752   9.555
   33        0.555   0.251   8.752   9.557
   34        0.554   0.251   8.752   9.557
   35        0.533   0.232   8.770   9.535
   36        0.522   0.386   6.945   7.853
   37        0.604   0.118   0.000   0.722
   38        0.604   0.118   0.000   0.722
   39        1.569   3.588   0.000   5.157
tot         21.968  13.931 313.768 349.666

  FORCE on cell =-STRESS in cart. coord.  units (eV):
  Direction    XX          YY          ZZ          XY          YZ          ZX
  Alpha Z   932.41910   932.41910   932.41910
  Ewald  157369.52722157308.74943************    -0.70853    14.11470     0.19709
  Hartree165884.08352165872.70946************    -0.13629    -0.91425     0.01673
  E(xc)   -1804.62970 -1804.86418 -1811.42082    -0.00284     0.04693     0.00046
  Local  ************************335711.19525     0.64897    -7.27570    -0.14327
  n-local   -96.79139   -98.07304   -74.22716    -0.01163     0.03744     0.00140
  augment  2413.11946  2414.32306  2427.96417     0.01266    -0.35418    -0.00372
  Kinetic  5601.15901  5618.50185  5671.73400     0.19455    -5.56916    -0.06755
  Fock        0.00000     0.00000     0.00000     0.00000     0.00000     0.00000
  Total     -21.06292   -21.28169     2.43746    -0.00311     0.08578     0.00115
  in kB     -20.27340   -20.48397     2.34609    -0.00300     0.08256     0.00111

 VOLUME and BASIS-vectors are now :
  energy-cutoff  :      500.00
  volume of cell :     1664.57
      direct lattice vectors                 reciprocal lattice vectors
     8.813512802  0.000000000  0.000000000     0.113462137 -0.065507406  0.000000000
     4.406756909  7.632725690  0.000000000     0.000000000  0.131014796  0.000000000
     0.000000000  0.000000000 24.744230039     0.000000000  0.000000000  0.040413462

  length of vectors
     8.813512802  8.813512802 24.744230039     0.131014796  0.131014796  0.040413462

 FORCES acting on ions
    electron-ion (+dipol)            ewald-force                    non-local-force                 convergence-correction
   0.263E-02 -.316E-03 0.270E+04   0.132E-03 0.813E-02 -.270E+04   -.137E-03 -.620E-02 -.103E+01   -.269E-02 -.255E-02 -.322E+00
   0.455E+00 0.304E+00 0.270E+04   -.523E+00 -.331E+00 -.270E+04   0.270E-01 0.223E-01 -.220E+00   0.382E-01 0.263E-01 -.400E+00
   -.458E+00 0.293E+00 0.270E+04   0.522E+00 -.331E+00 -.270E+04   -.270E-01 0.224E-01 -.219E+00   -.355E-01 0.373E-01 -.396E+00
   0.504E+00 0.267E+00 0.270E+04   -.555E+00 -.302E+00 -.270E+04   0.293E-01 0.145E-01 -.208E+00   0.412E-01 0.114E-01 -.394E+00
   -.148E-01 0.262E-02 0.270E+04   0.149E-04 -.192E-01 -.270E+04   0.111E-03 0.927E-02 -.225E+00   0.149E-01 0.114E-01 -.389E+00
   -.494E+00 0.263E+00 0.270E+04   0.555E+00 -.302E+00 -.270E+04   -.295E-01 0.146E-01 -.208E+00   -.514E-01 0.151E-01 -.387E+00
   0.205E-01 -.563E+00 0.270E+04   -.324E-01 0.633E+00 -.270E+04   0.103E-01 -.356E-01 -.195E+00   0.210E-01 -.468E-01 -.398E+00
   -.293E-01 -.555E+00 0.270E+04   0.323E-01 0.633E+00 -.270E+04   -.102E-01 -.359E-01 -.195E+00   -.121E-01 -.544E-01 -.396E+00
   0.132E-01 -.956E-02 0.270E+04   0.165E-03 0.108E-01 -.270E+04   0.977E-04 -.345E-02 -.513E+00   -.137E-01 0.356E-03 -.410E+00
   0.599E+01 0.351E+01 0.933E+03   -.558E+01 -.326E+01 -.932E+03   -.345E+00 -.198E+00 -.845E+00   -.110E-01 -.155E-01 -.106E+00
   -.149E-01 0.406E+01 0.938E+03   -.505E-03 -.408E+01 -.937E+03   -.935E-04 0.268E-01 -.382E+00   0.158E-01 -.587E-01 -.646E-01
   -.598E+01 0.350E+01 0.933E+03   0.558E+01 -.326E+01 -.932E+03   0.345E+00 -.198E+00 -.845E+00   -.487E-03 -.793E-02 -.103E+00
   0.349E+01 -.193E+01 0.938E+03   -.351E+01 0.193E+01 -.938E+03   0.119E-01 -.116E-01 -.362E+00   -.377E-01 0.347E-01 -.737E-01
   -.351E+01 -.192E+01 0.938E+03   0.351E+01 0.193E+01 -.938E+03   -.115E-01 -.117E-01 -.362E+00   0.600E-01 0.280E-01 -.761E-01
   0.129E-01 0.315E+01 0.934E+03   0.661E-03 -.319E+01 -.934E+03   -.183E-03 -.280E-01 -.471E+00   -.135E-01 0.217E-01 -.122E+00
   -.383E-04 -.707E+01 0.933E+03   0.399E-03 0.658E+01 -.932E+03   -.183E-03 0.414E+00 -.793E+00   -.141E-03 0.171E-01 -.114E+00
   0.265E+01 -.165E+01 0.934E+03   -.268E+01 0.168E+01 -.934E+03   -.191E-01 0.367E-02 -.484E+00   0.207E-01 -.137E-01 -.119E+00
   -.265E+01 -.166E+01 0.934E+03   0.268E+01 0.168E+01 -.934E+03   0.189E-01 0.347E-02 -.484E+00   -.199E-01 0.498E-03 -.113E+00
   0.106E-01 0.468E+01 -.870E+03   0.490E-02 -.470E+01 0.869E+03   0.110E-02 -.610E-01 0.444E+00   -.168E-01 0.565E-01 0.489E+00
   0.120E+02 0.777E+01 -.825E+03   -.115E+02 -.749E+01 0.825E+03   -.666E+00 -.398E+00 -.734E+00   0.297E+00 0.159E+00 0.102E+01
   -.120E+02 0.777E+01 -.825E+03   0.115E+02 -.749E+01 0.825E+03   0.665E+00 -.398E+00 -.734E+00   -.284E+00 0.159E+00 0.102E+01
   -.435E-01 0.129E+00 -.855E+03   -.436E+00 0.146E+00 0.854E+03   0.379E+00 -.230E+00 0.596E+00   0.105E+00 -.501E-01 0.560E+00
   -.397E-02 -.139E+02 -.823E+03   -.736E-03 0.134E+02 0.823E+03   0.562E-04 0.748E+00 -.741E+00   0.480E-02 -.331E+00 0.102E+01
   0.475E-01 0.134E+00 -.855E+03   0.437E+00 0.151E+00 0.854E+03   -.380E+00 -.229E+00 0.596E+00   -.109E+00 -.607E-01 0.559E+00
   -.338E+01 -.285E+01 -.870E+03   0.345E+01 0.282E+01 0.869E+03   0.122E-01 0.676E-01 0.456E+00   -.688E-01 -.253E-01 0.488E+00
   0.339E+01 -.284E+01 -.870E+03   -.345E+01 0.282E+01 0.869E+03   -.119E-01 0.673E-01 0.458E+00   0.537E-01 -.350E-01 0.490E+00
   -.317E-02 -.102E+01 -.857E+03   -.246E-02 0.461E+00 0.856E+03   -.208E-03 0.449E+00 0.628E+00   0.592E-02 0.122E+00 0.561E+00
   -.161E-01 -.160E+01 -.264E+04   0.190E-01 0.160E+01 0.263E+04   -.260E-03 -.442E-02 0.344E+00   -.257E-02 0.139E-02 0.592E+00
   0.211E+02 0.397E+02 -.261E+04   -.211E+02 -.397E+02 0.261E+04   -.406E+00 -.508E+00 0.274E+00   0.297E+00 0.411E+00 0.518E+00
   -.211E+02 0.397E+02 -.261E+04   0.211E+02 -.397E+02 0.261E+04   0.407E+00 -.509E+00 0.269E+00   -.294E+00 0.418E+00 0.512E+00
   0.497E+02 0.334E+01 -.261E+04   -.496E+02 -.325E+01 0.260E+04   -.760E+00 -.111E+00 -.776E-01   0.504E+00 0.435E-01 0.525E+00
   -.498E+02 0.332E+01 -.261E+04   0.497E+02 -.323E+01 0.260E+04   0.763E+00 -.111E+00 -.876E-01   -.509E+00 0.448E-01 0.518E+00
   0.274E+02 -.465E+02 -.260E+04   -.274E+02 0.463E+02 0.260E+04   -.273E+00 0.722E+00 -.202E+00   0.213E+00 -.454E+00 0.521E+00
   -.273E+02 -.464E+02 -.260E+04   0.274E+02 0.463E+02 0.260E+04   0.272E+00 0.719E+00 -.196E+00   -.207E+00 -.459E+00 0.520E+00
   0.111E-01 -.230E+01 -.264E+04   -.199E-03 0.231E+01 0.263E+04   -.411E-04 -.139E-01 0.447E+00   -.111E-01 0.368E-02 0.588E+00
   0.177E-01 0.822E+01 -.192E+04   -.247E-01 -.831E+01 0.191E+04   -.801E-03 0.519E-01 0.235E+01   0.698E-02 -.578E-02 0.429E+00
   0.681E+02 -.467E+02 -.290E+03   -.748E+02 0.514E+02 0.291E+03   0.670E+01 -.466E+01 -.136E+01   0.355E-01 -.266E-01 -.420E-01
   -.691E+02 -.452E+02 -.290E+03   0.759E+02 0.497E+02 0.291E+03   -.680E+01 -.451E+01 -.137E+01   -.359E-01 -.254E-01 -.421E-01
   0.613E+00 0.584E+02 -.167E+04   -.109E+01 -.104E+03 0.166E+04   0.486E+00 0.451E+02 0.315E+01   -.505E-02 0.528E-02 -.437E+00
   -.391E+00 -.361E+02 -.194E+01   0.422E-13 -.128E-12 -.136E-11   0.393E+00 0.362E+02 -.353E+01   -.650E-02 -.449E-01 0.603E+01

 POSITION                                       TOTAL-FORCE (eV/Angst)
      0.00000      0.00000      5.28038         0.000069     -0.000498      0.020747
      2.93784      0.00000      5.28038        -0.001852      0.022383     -0.001712
      5.87568      0.00000      5.28038         0.002169      0.022438     -0.001566
      1.46892      2.54424      5.28038         0.019875     -0.009220     -0.003788
      4.40676      2.54424      5.28038         0.000370      0.004556     -0.021556
      7.34459      2.54424      5.28038        -0.019665     -0.009242     -0.003744
      2.93784      5.08848      5.28038         0.019487     -0.012086     -0.000557
      5.87568      5.08848      5.28038        -0.019186     -0.012143     -0.000475
      8.81351      5.08848      5.28038        -0.000074     -0.001393      0.007219
      1.46892      0.84808      7.67911         0.058311      0.036387      0.106917
      4.40676      0.84808      7.67911         0.000371     -0.052136     -0.025209
      7.34459      0.84808      7.67911        -0.058072      0.036505      0.107026
      2.93784      3.39232      7.67911        -0.044054      0.024506     -0.021215
      5.87568      3.39232      7.67911         0.044850      0.024503     -0.021289
      8.81351      3.39232      7.67911         0.000020     -0.038894      0.059085
      4.40676      5.93656      7.67911         0.000168     -0.067169      0.118129
      7.34459      5.93656      7.67911        -0.029156      0.020225      0.059908
     10.28243      5.93656      7.67911         0.029350      0.020250      0.059978
      8.81351      1.70038     10.08128        -0.000046     -0.025631     -0.032073
      2.93047      1.69191     10.03818         0.079479      0.038589     -0.076717
      5.88304      1.69191     10.03818        -0.079310      0.038611     -0.076887
     10.26792      4.24878     10.06124         0.005467     -0.004236     -0.024993
      4.40676      4.24891     10.03818         0.000276     -0.087134     -0.088898
      7.35911      4.24878     10.06124        -0.005275     -0.004247     -0.025030
     11.74770      6.78254     10.08128         0.022134      0.015311     -0.031643
      5.87933      6.78254     10.08128        -0.022316      0.015157     -0.031315
      8.81351      6.76789     10.06124         0.000203      0.012784     -0.003549
      0.00000      0.00000     12.49619         0.000196      0.001362     -0.096732
      2.96082      0.04010     12.48308        -0.045955     -0.114439     -0.078083
      5.85269      0.04010     12.48308         0.046145     -0.114076     -0.077724
      1.51514      2.54410     12.48308        -0.124281      0.022766     -0.059005
      7.29838      2.54410     12.48308         0.124237      0.022713     -0.057980
      2.96107      5.04853     12.48308        -0.094393      0.106129     -0.050574
      5.85244      5.04853     12.48308         0.094803      0.106294     -0.051118
      8.81351      5.08848     12.49171        -0.000079      0.002470     -0.064880
      4.40676      2.54424     12.23647        -0.000676     -0.045622      0.535185
      3.63144      3.13768     14.68524        -0.018050      0.016303      0.003316
      5.19309      3.12069     14.68586         0.011277      0.010882      0.002152
      4.40604      2.56142     14.51757         0.003184     -0.022958     -0.051354
    total drift:                               -0.005107     -0.017336      0.564300

  FREE ENERGIE OF THE ION-ELECTRON SYSTEM (eV)
  free  energy   TOTEN  =      -128.47371099 eV

  energy  without entropy=     -128.47371099  energy(sigma->0) =     -128.47371099

 stress matrix after NEB project (eV)
    -21.06292     -0.00311      0.00115
     -0.00311    -21.28169      0.08578
      0.00115      0.08578      2.43746
  FORCES: max atom, RMS     0.056342    0.010162
  FORCE total and by dimension    0.063460    0.051354
  Stress total and by dimension   30.041855   21.281694
|           W    W    AA    RRRRR   N    N  II  N    N   GGGG   !!!           |
|           W    W   A  A   R    R  NN   N  II  NN   N  G    G  !!!           |
|           W    W  A    A  R    R  N N  N  II  N N  N  G       !!!           |
|           W WW W  AAAAAA  RRRRR   N  N N  II  N  N N  G  GGG   !            |
|           WW  WW  A    A  R   R   N   NN  II  N   NN  G    G                |
|           W    W  A    A  R    R  N    N  II  N    N   GGGG   !!!           |
|     Tetrahedron method does not include variations of the Fermi             |
|     occupations, so forces and stress will be inaccurate. We suggest        |
|     using a different smearing scheme ISMEAR = 1 or 2 for metals in         |
|     relaxations.                                                            |

 total charge

# of ion       s       p       d       tot
    1        0.544   0.240   8.766   9.549
    2        0.546   0.240   8.764   9.551
    3        0.546   0.240   8.764   9.551
    4        0.547   0.240   8.764   9.551
    5        0.540   0.243   8.762   9.545
    6        0.547   0.240   8.764   9.551
    7        0.546   0.240   8.764   9.551
    8        0.546   0.240   8.764   9.551
    9        0.540   0.240   8.770   9.549
   10        0.522   0.309   8.768   9.599
   11        0.522   0.307   8.781   9.610
   12        0.522   0.309   8.768   9.599
   13        0.523   0.307   8.781   9.610
   14        0.523   0.307   8.780   9.610
   15        0.515   0.308   8.777   9.600
   16        0.522   0.310   8.768   9.599
   17        0.515   0.308   8.777   9.600
   18        0.515   0.308   8.777   9.600
   19        0.520   0.303   8.773   9.596
   20        0.537   0.333   8.750   9.621
   21        0.537   0.333   8.750   9.621
   22        0.511   0.308   8.778   9.597
   23        0.538   0.333   8.751   9.621
   24        0.511   0.308   8.778   9.597
   25        0.520   0.303   8.774   9.596
   26        0.520   0.303   8.774   9.596
   27        0.509   0.308   8.778   9.595
   28        0.539   0.231   8.769   9.540
   29        0.549   0.244   8.756   9.549
   30        0.549   0.244   8.756   9.549
   31        0.553   0.250   8.752   9.555
   32        0.553   0.250   8.752   9.555
   33        0.555   0.251   8.752   9.557
   34        0.554   0.251   8.752   9.557
   35        0.533   0.232   8.770   9.535
   36        0.522   0.386   6.945   7.853
   37        0.604   0.118   0.000   0.722
   38        0.604   0.118   0.000   0.722
   39        1.569   3.588   0.000   5.157
tot         21.968  13.931 313.768 349.666

 BZINTS: Fermi energy:    0.365442;  402.000000 electrons
         Band energy:-0.139014E+04;  BLOECHL correction:   -0.078402