 vasp.6.2.0 18Jan21 (build Jun 12 2021 23:27:24) complex

 executed on             LinuxIFC date 2022.05.30  18:05:20

 INCAR:
   ISMEAR = -5
   SIGMA = 0.1
   ISPIN = 1
   EDIFF = 1.d-5
   EDIFFG = -0.01
   NSW = 0
   NELM = 150
   ENCUT = 500
   ISIF = 2
   IBRION = 2
   LREAL = Auto
   ALGO = Fast
   ICHARG = 11
   LORBIT = 10
   LCHARG = .F.
   LWAVE = .F.

 POTCAR:    PAW_PBE Cu 22Jun2005
 POTCAR:    PAW_PBE Co 02Aug2007
 POTCAR:    PAW_PBE O 08Apr2002
|           W    W    AA    RRRRR   N    N  II  N    N   GGGG   !!!           |
|           W    W   A  A   R    R  NN   N  II  NN   N  G    G  !!!           |
|           W    W  A    A  R    R  N N  N  II  N N  N  G       !!!           |
|           W WW W  AAAAAA  RRRRR   N  N N  II  N  N N  G  GGG   !            |
|           WW  WW  A    A  R   R   N   NN  II  N   NN  G    G                |
|           W    W  A    A  R    R  N    N  II  N    N   GGGG   !!!           |
|     For optimal performance we recommend to set                             |
|       NCORE = 2 up to number-of-cores-per-socket                            |
|     This setting can greatly improve the performance of VASP for DFT.       |
|     The default, NCORE=1 might be grossly inefficient on modern             |
|     multi-core architectures or massively parallel machines. Do your        |
|     Unfortunately you need to use the default for GW and RPA                |
|     calculations (for HF NCORE is supported but not extensively tested      |
|     yet).                                                                   |

 POTCAR:    PAW_PBE Cu 22Jun2005
   VRHFIN =Cu: d10 p1

   TITEL  = PAW_PBE Cu 22Jun2005
   POMASS =   63.546; ZVAL   =   11.000    mass and valenz
   ENMAX  =  295.446; ENMIN  =  221.585 eV

 POTCAR:    PAW_PBE Co 02Aug2007
   VRHFIN =Co: d8 s1

   TITEL  = PAW_PBE Co 02Aug2007
   POMASS =   58.933; ZVAL   =    9.000    mass and valenz
   ENMAX  =  267.968; ENMIN  =  200.976 eV

 POTCAR:    PAW_PBE O 08Apr2002
   VRHFIN =O: s2p4

   TITEL  = PAW_PBE O 08Apr2002
   POMASS =   16.000; ZVAL   =    6.000    mass and valenz
   ENMAX  =  400.000; ENMIN  =  300.000 eV

 Optimization of the real space projectors (new method)

 maximal supplied QI-value         = 16.25
 optimisation between [QCUT,QGAM] = [ 11.38, 22.75] = [ 36.24,144.96] Ry
 Optimized for a Real-space Cutoff    1.52 Angstroem

   l    n(q)    QCUT    max X(q) W(low)/X(q) W(high)/X(q)  e(spline)
   2      9    11.376     4.610    0.21E-03    0.10E-03    0.26E-06
   2      9    11.376     8.522    0.33E-03    0.16E-03    0.37E-06
   0     10    11.376    51.609    0.62E-04    0.20E-04    0.13E-06
   0     10    11.376    27.747    0.54E-04    0.20E-04    0.13E-06
   1     10    11.376    20.408    0.13E-04    0.99E-04    0.19E-06
   1     10    11.376    13.425    0.12E-04    0.87E-04    0.17E-06
 Optimization of the real space projectors (new method)

[...]

   l    n(q)    QCUT    max X(q) W(low)/X(q) W(high)/X(q)  e(spline)
   2      8    11.376    65.824    0.20E-03    0.32E-04    0.13E-06
   2      8    11.376    61.429    0.20E-03    0.33E-04    0.14E-06
   0      9    11.376    56.174    0.76E-04    0.11E-03    0.19E-06
   0      9    11.376    31.263    0.69E-04    0.99E-04    0.17E-06
   1      9    11.376    19.828    0.35E-03    0.11E-03    0.12E-06
   1      9    11.376    15.139    0.29E-03    0.94E-04    0.10E-06
 Optimization of the real space projectors (new method)

 maximal supplied QI-value         = 24.76
 optimisation between [QCUT,QGAM] = [ 11.39, 22.77] = [ 36.31,145.25] Ry
 Optimized for a Real-space Cutoff    1.00 Angstroem

   l    n(q)    QCUT    max X(q) W(low)/X(q) W(high)/X(q)  e(spline)
   0      7    11.387    20.381    0.39E-03    0.13E-02    0.15E-06
   0      7    11.387    15.268    0.42E-03    0.14E-02    0.17E-06
   1      6    11.387     5.964    0.41E-03    0.11E-02    0.17E-06
   1      6    11.387     5.382    0.39E-03    0.87E-03    0.15E-06
  PAW_PBE Cu 22Jun2005                  :
  PAW_PBE Co 02Aug2007                  :
  PAW_PBE O 08Apr2002                   :

 POSCAR: Cu-Co-O2
  positions in direct lattice
  velocities in cartesian coordinates
 exchange correlation table for  LEXCH =        8
   RHO(1)=    0.500       N(1)  =     2000
   RHO(2)=  100.500       N(2)  =     4000

 VTST: version 3.2, (02/03/18)

 CHAIN: initializing optimizer

 OPT: Using VASP Conjugate-Gradient optimizer
 CHAIN: Read ICHAIN            0

 POSCAR: Cu-Co-O2
  positions in direct lattice
  velocities in cartesian coordinates

 ion  position               nearest neighbor table
   1  0.000  0.000  0.226-   7 2.57   3 2.57   4 2.57   2 2.57   6 2.57   8 2.57  12 2.57  10 2.57
                            16 2.57
   2  0.333  0.000  0.226-   8 2.57   9 2.57   5 2.57   1 2.57   3 2.57  11 2.57   4 2.57  10 2.57
                            17 2.57
   3  0.667  0.000  0.226-   1 2.57   7 2.57   6 2.57   9 2.57   2 2.57  12 2.57   5 2.57  18 2.57
                            11 2.57
   4  0.000  0.333  0.226-   5 2.57   6 2.57   1 2.57   7 2.57   2 2.57  13 2.57   9 2.57  10 2.57
                            15 2.57
   5  0.333  0.333  0.226-   4 2.57   2 2.57   7 2.57  13 2.57   8 2.57   6 2.57   3 2.57  11 2.57
                            14 2.57
   6  0.667  0.333  0.226-   4 2.57   9 2.57  15 2.57   3 2.57   1 2.57   8 2.57  14 2.57   5 2.57
                            12 2.57
   7  0.000  0.667  0.226-   1 2.57   3 2.57  16 2.57  18 2.57   4 2.57   5 2.57   8 2.57   9 2.57
                            13 2.57
   8  0.333  0.667  0.226-   9 2.57   2 2.57  17 2.57   6 2.57   1 2.57   7 2.57   5 2.57  14 2.57
                            16 2.57
   9  0.667  0.667  0.226-   8 2.57   6 2.57   2 2.57  17 2.57   3 2.57   7 2.57   4 2.57  15 2.57
                            18 2.57
  10  0.111  0.111  0.314-  20 2.55  26 2.56  19 2.56  11 2.57  12 2.57  13 2.57   1 2.57   2 2.57
                             4 2.57  15 2.57  16 2.57  17 2.57
  11  0.444  0.111  0.314-  20 2.55  21 2.55  27 2.56  10 2.57  13 2.57   2 2.57  17 2.57  14 2.57
                            12 2.57   5 2.57   3 2.57  18 2.57
  12  0.778  0.111  0.314-  21 2.55  19 2.56  25 2.56  15 2.57  10 2.57  14 2.57  18 2.57   3 2.57
                             1 2.57  16 2.57  11 2.57   6 2.57
  13  0.111  0.444  0.314-  23 2.55  20 2.55  22 2.56  16 2.57  18 2.57  10 2.57  11 2.57  14 2.57
                             5 2.57   4 2.57   7 2.57  15 2.57
  14  0.444  0.444  0.314-  21 2.55  23 2.55  24 2.56  15 2.57  17 2.57  12 2.57  16 2.57  13 2.57
                            11 2.57   6 2.57   8 2.57   5 2.57
  15  0.778  0.444  0.314-  24 2.56  22 2.56  19 2.56  14 2.57  17 2.57  12 2.57   6 2.57  18 2.57
                            10 2.57   9 2.57  13 2.57   4 2.57
  16  0.111  0.778  0.314-  23 2.55  25 2.56  26 2.56  18 2.57  13 2.57   7 2.57  14 2.57  17 2.57
                            12 2.57  10 2.57   8 2.57   1 2.57
  17  0.444  0.778  0.314-  27 2.56  24 2.56  26 2.56  14 2.57  15 2.57   8 2.57   9 2.57  11 2.57
                            16 2.57  18 2.57  10 2.57   2 2.57
  18  0.778  0.778  0.314-  22 2.56  27 2.56  25 2.56  16 2.57  13 2.57   7 2.57  15 2.57  12 2.57
                            17 2.57   9 2.57   3 2.57  11 2.57
  19  0.889  0.223  0.402-  28 2.54  32 2.56  31 2.56  15 2.56  12 2.56  10 2.56  22 2.56  24 2.56
                            21 2.57  20 2.57  25 2.57  26 2.57
  20  0.222  0.222  0.401-  36 2.46  29 2.55  31 2.55  11 2.55  13 2.55  10 2.55  23 2.56  21 2.56
                            26 2.57  19 2.57  27 2.57  22 2.57
  21  0.555  0.222  0.401-  36 2.46  32 2.55  30 2.55  14 2.55  11 2.55  12 2.55  20 2.56  23 2.56
                            19 2.57  25 2.57  24 2.57  27 2.57
  22  0.889  0.556  0.402-  35 2.54  31 2.55  33 2.55  18 2.56  15 2.56  13 2.56  24 2.56  27 2.56
                            19 2.56  25 2.56  23 2.57  20 2.57
  23  0.222  0.555  0.401-  36 2.46  33 2.55  34 2.55  13 2.55  14 2.55  16 2.55  20 2.56  21 2.56
                            25 2.57  26 2.57  22 2.57  24 2.57
  24  0.556  0.556  0.402-  35 2.54  32 2.55  34 2.55  15 2.56  17 2.56  14 2.56  22 2.56  27 2.56
                            19 2.56  26 2.56  21 2.57  23 2.57
  25  0.889  0.889  0.402-  28 2.54  33 2.56  30 2.56  18 2.56  16 2.56  12 2.56  22 2.56  27 2.56
                            21 2.57  23 2.57  19 2.57  26 2.57
  26  0.223  0.889  0.402-  28 2.54  29 2.56  34 2.56  17 2.56  10 2.56  16 2.56  27 2.56  24 2.56
                            20 2.57  23 2.57  25 2.57  19 2.57
  27  0.556  0.889  0.402-  35 2.54  29 2.55  30 2.55  17 2.56  18 2.56  11 2.56  24 2.56  22 2.56
                            26 2.56  25 2.56  20 2.57  21 2.57
  28  0.000  0.000  0.489-  25 2.54  19 2.54  26 2.54  33 2.58  30 2.58  31 2.58  29 2.58  32 2.58
                            34 2.58
  29  0.333  0.003  0.489-  37 1.91  31 2.54  36 2.54  30 2.55  20 2.55  27 2.55  26 2.56  28 2.58
                            35 2.58  34 2.61
  30  0.664  0.003  0.489-  38 1.91  32 2.54  36 2.54  29 2.55  21 2.55  27 2.55  25 2.56  28 2.58
                            35 2.58  33 2.61
  31  0.003  0.333  0.489-  37 1.84  29 2.54  36 2.54  33 2.55  20 2.55  22 2.55  19 2.56  28 2.58
                            35 2.58  32 2.61
  32  0.664  0.333  0.489-  38 1.84  30 2.54  36 2.54  34 2.55  21 2.55  24 2.55  19 2.56  28 2.58
                            35 2.58  31 2.61
  33  0.003  0.664  0.489-  34 2.54  36 2.54  31 2.55  23 2.55  22 2.55  25 2.56  28 2.58  35 2.58
                            30 2.61
  34  0.333  0.664  0.489-  33 2.54  36 2.54  32 2.55  23 2.55  24 2.55  26 2.56  28 2.58  35 2.58
                            29 2.61
  35  0.667  0.667  0.488-  24 2.54  27 2.54  22 2.54  34 2.58  32 2.58  29 2.58  30 2.58  33 2.58
                            31 2.58
  36  0.333  0.333  0.484-  37 1.85  38 1.85  23 2.46  20 2.46  21 2.46  31 2.54  29 2.54  33 2.54
                            34 2.54  32 2.54  30 2.54
  37  0.222  0.237  0.536-  31 1.84  36 1.85  29 1.91
  38  0.541  0.237  0.536-  32 1.84  36 1.85  30 1.91

  LATTYP: Found a hexagonal cell.
 ALAT       =     7.6967864036
 C/A-ratio  =     3.0908716217

  Lattice vectors:

 A1 = (  -3.8483927580,  -6.6656128093,   0.0000000000)
 A2 = (   7.6967864037,   0.0000000000,   0.0000000000)
 A3 = (   0.0000000000,   0.0000000000,  23.7897786731)

Analysis of symmetry for initial positions (statically):
 Subroutine PRICEL returns:
 Original cell was already a primitive cell.

 Routine SETGRP: Setting up the symmetry group for a
 hexagonal supercell.

 Subroutine GETGRP returns: Found  2 space group operations
 (whereof  2 operations were pure point group operations)
 out of a pool of 24 trial point group operations.

The static configuration has the point symmetry C_1h.

Analysis of symmetry for dynamics (positions and initial velocities):
 Subroutine PRICEL returns:
 Original cell was already a primitive cell.

[...]

The dynamic configuration has the point symmetry C_1h.

Analysis of constrained symmetry for selective dynamics:
 Subroutine PRICEL returns:
 Original cell was already a primitive cell.

[...]
     33      -4.6866      2.00000
     34      -4.6793      2.00000
     35      -4.6709      2.00000
     36      -4.6657      2.00000
     37      -4.6579      2.00000
     38      -4.6061      2.00000
     39      -4.5846      2.00000
     40      -4.5512      2.00000
     41      -4.4556      2.00000
     42      -4.4158      2.00000
     43      -4.3529      2.00000
     44      -4.3423      2.00000
     45      -4.3230      2.00000
     46      -4.2913      2.00000
     47      -4.2629      2.00000
     48      -4.2439      2.00000
     49      -4.2377      2.00000
     50      -4.1976      2.00000
     51      -4.1774      2.00000
     52      -4.1371      2.00000
     53      -4.0961      2.00000
     54      -4.0172      2.00000
     55      -4.0075      2.00000
     56      -3.9891      2.00000
     57      -3.9697      2.00000
     58      -3.9435      2.00000
     59      -3.9275      2.00000
     60      -3.9168      2.00000
[...]
    238       5.3589      0.00000
    239       5.4917      0.00000
    240       5.7182      0.00000
    241       5.8031      0.00000
    242       6.0244      0.00000
    243       6.0715      0.00000
    244       6.1915      0.00000
    245       6.3142      0.00000
    246       6.3377      0.00000
    247       6.4477      0.00000
    248       6.5722      0.00000
    249       6.5976      0.00000
    250       6.7196      0.00000
    251       6.7620      0.00000
    252       6.8498      0.00000

 soft charge-density along one line, spin component           1
         0         1         2         3         4         5         6         7         8         9
 total charge-density along one line

------------------------ aborting loop because EDIFF is reached ----------------------------------------

 total charge

# of ion       s       p       d       tot
    1        0.450   0.284   9.187   9.921
    2        0.447   0.284   9.188   9.920
    3        0.447   0.284   9.188   9.920
    4        0.448   0.284   9.187   9.919
    5        0.447   0.286   9.188   9.921
    6        0.448   0.284   9.187   9.919
    7        0.448   0.286   9.187   9.921
    8        0.448   0.286   9.187   9.921
    9        0.450   0.284   9.187   9.920
   10        0.441   0.370   9.179   9.990
   11        0.443   0.369   9.181   9.993
   12        0.441   0.370   9.179   9.990
   13        0.438   0.371   9.182   9.992
   14        0.438   0.371   9.182   9.992
   15        0.444   0.366   9.181   9.991
   16        0.447   0.369   9.180   9.996
   17        0.441   0.369   9.181   9.991
   18        0.441   0.369   9.181   9.991
   19        0.441   0.377   9.176   9.994
   20        0.453   0.386   9.181  10.020
   21        0.453   0.386   9.181  10.020
   22        0.438   0.374   9.180   9.993
   23        0.454   0.390   9.173  10.017
   24        0.438   0.374   9.180   9.993
   25        0.441   0.375   9.176   9.991
   26        0.441   0.375   9.176   9.991
   27        0.440   0.376   9.178   9.994
   28        0.434   0.272   9.218   9.925
   29        0.434   0.380   9.166   9.980
   30        0.434   0.380   9.166   9.980
   31        0.454   0.420   9.146  10.020
   32        0.454   0.420   9.146  10.020
   33        0.437   0.287   9.201   9.925
   34        0.437   0.287   9.201   9.925
   35        0.444   0.279   9.200   9.922
   36        0.447   0.541   7.362   8.350
   37        1.589   3.327   0.000   4.916
   38        1.589   3.327   0.000   4.916
tot         19.160  19.221 328.717 367.099

  FORCE on cell =-STRESS in cart. coord.  units (eV):
  Direction    XX          YY          ZZ          XY          YZ          ZX
  Alpha Z   805.12185   805.12185   805.12185
  Ewald  230522.96116230327.20849************     0.00035    17.78213     0.00016
  Hartree243389.52737243241.87737************     0.00004    23.40189     0.00006
  E(xc)   -2352.75622 -2352.92738 -2357.03941    -0.00031    -0.03951    -0.00003
  Local  ************************487076.94299     0.02038   -45.79284    -0.00071
  n-local  -801.57925  -802.01787  -813.52064     1.69629    -0.30574     0.06197
  augment  3476.16197  3480.27694  3490.99034    -0.01834     2.53788     0.00040
  Kinetic  3464.33529  3468.87358  3489.18402     0.70013     2.45199    -0.18949
  Fock        0.00000     0.00000     0.00000     0.00000     0.00000     0.00000
  Total      -0.32072    -2.31045     1.72912     0.00000     0.03580    -0.00000
  in kB      -0.42101    -3.03297     2.26985     0.00000     0.04699    -0.00000

 VOLUME and BASIS-vectors are now :
  energy-cutoff  :      500.00
  volume of cell :     1220.51
      direct lattice vectors                 reciprocal lattice vectors
     7.696786404  0.000000000  0.000000000     0.129924354 -0.075011849  0.000000000
     3.848392758  6.665612809  0.000000000     0.000000000  0.150023716  0.000000000
     0.000000000  0.000000000 23.789778673     0.000000000  0.000000000  0.042034859

  length of vectors
     7.696786404  7.696786404 23.789778673     0.150023716  0.150023716  0.042034859

 FORCES acting on ions
    electron-ion (+dipol)            ewald-force                    non-local-force                 convergence-correction
   -.415E-04 -.212E+00 0.380E+04   0.578E-04 -.281E+00 -.379E+04   -.143E-07 0.215E+00 -.235E+01   -.280E-03 0.247E+00 -.336E+00
   0.201E+00 0.752E+00 0.380E+04   -.428E+00 -.681E+00 -.380E+04   0.389E-01 -.686E-01 -.228E+01   0.169E+00 0.114E-01 -.423E+00
   -.201E+00 0.752E+00 0.380E+04   0.428E+00 -.681E+00 -.380E+04   -.389E-01 -.686E-01 -.228E+01   -.168E+00 0.139E-01 -.422E+00
   0.791E+00 -.101E+00 0.380E+04   -.560E+00 0.153E+00 -.380E+04   -.662E-01 -.273E-01 -.193E+01   -.168E+00 -.251E-01 -.269E+00
   -.616E-04 -.254E+00 0.380E+04   0.116E-03 0.330E+00 -.380E+04   -.641E-08 0.962E-01 -.187E+01   0.121E-01 -.182E+00 -.392E+00
   -.791E+00 -.101E+00 0.380E+04   0.560E+00 0.153E+00 -.380E+04   0.662E-01 -.273E-01 -.193E+01   0.167E+00 -.239E-01 -.267E+00
   0.436E+00 -.288E+00 0.380E+04   -.127E+00 0.524E+00 -.380E+04   -.105E+00 -.191E+00 -.193E+01   -.181E+00 -.369E-01 -.406E+00
   -.436E+00 -.288E+00 0.380E+04   0.127E+00 0.524E+00 -.380E+04   0.105E+00 -.191E+00 -.193E+01   0.185E+00 -.383E-01 -.406E+00
   -.144E-03 -.180E+00 0.380E+04   0.264E-03 -.429E-01 -.379E+04   -.127E-07 0.191E+00 -.186E+01   -.132E-01 0.177E-01 -.311E+00
   0.454E+01 0.319E+01 0.136E+04   -.443E+01 -.308E+01 -.136E+04   -.132E+00 -.301E+00 -.935E+00   0.337E-01 0.188E+00 0.283E+00
   -.882E-04 0.501E+01 0.136E+04   0.189E-03 -.485E+01 -.136E+04   0.701E-08 -.105E+00 -.648E+00   0.115E-01 -.723E-01 0.380E+00
   -.454E+01 0.319E+01 0.136E+04   0.443E+01 -.308E+01 -.136E+04   0.132E+00 -.301E+00 -.935E+00   -.351E-01 0.189E+00 0.282E+00
   0.395E+01 -.450E+01 0.136E+04   -.358E+01 0.459E+01 -.136E+04   -.103E+00 0.283E-01 -.207E+00   -.266E+00 -.950E-01 0.355E+00
   -.395E+01 -.450E+01 0.136E+04   0.358E+01 0.459E+01 -.136E+04   0.103E+00 0.283E-01 -.207E+00   0.290E+00 -.962E-01 0.353E+00
   -.142E-03 -.119E+01 0.135E+04   0.300E-03 0.142E+01 -.135E+04   0.783E-08 -.118E+00 -.832E+00   -.319E-02 -.751E-01 0.332E+00
   -.890E-04 -.363E+01 0.135E+04   0.185E-03 0.312E+01 -.135E+04   -.300E-07 0.451E+00 -.140E+01   -.760E-03 0.562E-01 0.337E+00
   0.637E+00 0.123E+01 0.135E+04   -.795E+00 -.135E+01 -.135E+04   0.393E-01 0.145E+00 -.754E+00   0.149E+00 -.417E-01 0.379E+00
   -.637E+00 0.123E+01 0.135E+04   0.795E+00 -.135E+01 -.135E+04   -.393E-01 0.145E+00 -.754E+00   -.148E+00 -.395E-01 0.380E+00
   -.569E-04 0.143E+01 -.111E+04   0.643E-04 -.167E+01 0.111E+04   -.899E-08 0.135E+00 -.349E+00   0.113E-01 0.204E+00 0.676E+00
   0.156E+02 0.194E+01 -.106E+04   -.153E+02 -.126E+01 0.106E+04   -.467E+00 -.722E+00 -.859E-01   0.158E+00 0.502E-01 0.101E+01
   -.156E+02 0.194E+01 -.106E+04   0.153E+02 -.126E+01 0.106E+04   0.467E+00 -.722E+00 -.859E-01   -.158E+00 0.497E-01 0.101E+01
   0.628E+01 -.133E+02 -.112E+04   -.588E+01 0.128E+02 0.112E+04   -.305E+00 0.480E+00 0.533E+00   -.863E-01 -.777E-01 0.663E+00
   -.695E-04 -.277E+02 -.110E+04   0.141E-03 0.270E+02 0.110E+04   -.730E-07 0.110E+01 -.809E+00   -.197E-02 -.336E+00 0.113E+01
   -.628E+01 -.133E+02 -.112E+04   0.588E+01 0.128E+02 0.112E+04   0.305E+00 0.480E+00 0.533E+00   0.108E+00 -.771E-01 0.664E+00
   -.835E+01 0.129E+02 -.113E+04   0.825E+01 -.124E+02 0.113E+04   0.301E+00 -.540E+00 0.300E+00   -.196E+00 0.568E-01 0.708E+00
   0.835E+01 0.129E+02 -.113E+04   -.825E+01 -.124E+02 0.113E+04   -.301E+00 -.540E+00 0.300E+00   0.217E+00 0.579E-01 0.708E+00
   -.133E-03 0.238E+02 -.111E+04   0.244E-03 -.239E+02 0.111E+04   -.356E-08 0.534E-01 0.401E+00   0.936E-02 0.855E-01 0.622E+00
   -.260E-04 0.494E+02 -.363E+04   0.203E-04 -.511E+02 0.363E+04   -.813E-07 0.122E+01 0.393E+01   0.108E-03 0.208E+00 0.574E+00
   0.449E+02 0.209E+03 -.352E+04   -.455E+02 -.211E+03 0.352E+04   0.238E+00 0.129E+01 0.526E+00   0.652E-01 0.563E-01 0.377E+00
   -.449E+02 0.209E+03 -.352E+04   0.455E+02 -.211E+03 0.352E+04   -.238E+00 0.129E+01 0.526E+00   -.650E-01 0.578E-01 0.378E+00
   0.174E+03 -.988E+02 -.351E+04   -.176E+03 0.994E+02 0.351E+04   0.280E+00 -.108E+00 -.808E+00   -.639E-02 0.351E-01 0.368E+00
   -.174E+03 -.988E+02 -.351E+04   0.176E+03 0.994E+02 0.351E+04   -.280E+00 -.108E+00 -.808E+00   0.608E-02 0.363E-01 0.369E+00
   0.502E+01 -.496E+02 -.365E+04   -.444E+01 0.510E+02 0.364E+04   -.549E+00 -.929E+00 0.340E+01   -.759E-01 -.179E+00 0.485E+00
   -.501E+01 -.496E+02 -.365E+04   0.444E+01 0.510E+02 0.364E+04   0.549E+00 -.929E+00 0.340E+01   0.788E-01 -.179E+00 0.485E+00
   -.134E-03 0.442E+01 -.365E+04   0.261E-03 -.394E+01 0.365E+04   0.269E-07 -.404E+00 0.281E+01   -.128E-01 -.652E-01 0.486E+00
   -.767E-04 -.146E+03 -.267E+04   0.122E-03 0.146E+03 0.267E+04   0.870E-08 -.131E+00 -.942E+00   0.474E-02 0.897E-01 0.641E-01
   0.283E+02 -.160E+02 -.253E+04   -.257E+02 0.152E+02 0.256E+04   -.265E+01 0.722E+00 -.285E+02   0.475E-01 0.656E-01 -.807E-01
   -.283E+02 -.160E+02 -.253E+04   0.257E+02 0.152E+02 0.256E+04   0.265E+01 0.722E+00 -.285E+02   -.479E-01 0.662E-01 -.815E-01
   0.689E-04 -.247E+01 0.587E+02   -.462E-13 -.568E-13 -.864E-11   -.150E-06 0.225E+01 -.692E+02   0.872E-01 0.203E+00 0.105E+02

 POSITION                                       TOTAL-FORCE (eV/Angst)
      0.00000      0.00000      5.37156         0.000000     -0.030296      0.031146
      2.56560      0.00000      5.37156        -0.019136      0.016234      0.060144
      5.13119      0.00000      5.37156         0.019136      0.016234      0.060144
      1.28280      2.22187      5.37156        -0.003192      0.001386      0.061789
      3.84839      2.22187      5.37156         0.000000     -0.009768      0.083878
      6.41399      2.22187      5.37156         0.003192      0.001386      0.061789
      2.56560      4.44374      5.37156         0.021457      0.007942      0.060820
      5.13119      4.44374      5.37156        -0.021457      0.007942      0.060820
      7.69679      4.44374      5.37156         0.000000     -0.014367      0.068849
      1.28280      0.74062      7.46636         0.011423     -0.006947     -0.039297
      3.84839      0.74062      7.46636         0.000000     -0.016945     -0.135215
      6.41399      0.74062      7.46636        -0.011423     -0.006947     -0.039297
      2.56560      2.96249      7.46636        -0.011589      0.026078     -0.075364
      5.13119      2.96249      7.46636         0.011589      0.026078     -0.075364
      7.69679      2.96249      7.46636        -0.000000      0.033471     -0.099698
      3.84839      5.18437      7.46636         0.000000     -0.006293     -0.089311
      6.41399      5.18437      7.46636         0.029624     -0.014481     -0.050930
      8.97958      5.18437      7.46636        -0.029624     -0.014481     -0.050930
      7.69679      1.48420      9.55496        -0.000000      0.098987      0.005225
      2.56664      1.48185      9.54157        -0.007105      0.007307     -0.435900
      5.13014      1.48185      9.54157         0.007105      0.007307     -0.435900
      8.97778      3.70416      9.55304        -0.002341     -0.068009      0.051356
      3.84839      3.70191      9.54157        -0.000000      0.000075     -0.118691
      6.41579      3.70416      9.55304         0.002341     -0.068009      0.051356
     10.25982      5.92351      9.55496        -0.003981     -0.024530      0.030987
      5.13375      5.92351      9.55496         0.003981     -0.024530      0.030987
      7.69679      5.92291      9.55304        -0.000000      0.020543      0.032963
      0.00000      0.00000     11.62172         0.000000     -0.231362     -0.094738
      2.57582      0.02145     11.62841        -0.324415     -0.850073      0.172515
      5.12097      0.02145     11.62841         0.324416     -0.850073      0.172515
      1.30649      2.22000     11.62841        -1.077553      0.493096     -0.254689
      6.39030      2.22000     11.62841         1.077553      0.493096     -0.254689
      2.57906      4.42416     11.62841        -0.054400      0.354169     -0.196536
      5.11773      4.42416     11.62841         0.054399      0.354169     -0.196536
      7.69679      4.44374     11.62071        -0.000000      0.011764     -0.164441
      3.84839      2.22187     11.51210        -0.000000      0.248365      1.821579
      2.62122      1.57808     12.74063         0.000311      0.005741     -0.055670
      5.07556      1.57808     12.74063        -0.000311      0.005741     -0.055670
    total drift:                                0.087262     -0.020537     -0.039222

  FREE ENERGIE OF THE ION-ELECTRON SYSTEM (eV)
  free  energy   TOTEN  =      -141.43996223 eV

  energy  without entropy=     -141.43996223  energy(sigma->0) =     -141.43996223

 stress matrix after NEB project (eV)
     -0.32072      0.00000     -0.00000
      0.00000     -2.31045      0.03580
     -0.00000      0.03580      1.72912
  FORCES: max atom, RMS     0.055966    0.012840
  FORCE total and by dimension    0.079148    0.055670
  Stress total and by dimension    2.904047    2.310454
|           W    W    AA    RRRRR   N    N  II  N    N   GGGG   !!!           |
|           W    W   A  A   R    R  NN   N  II  NN   N  G    G  !!!           |
|           W    W  A    A  R    R  N N  N  II  N N  N  G       !!!           |
|           W WW W  AAAAAA  RRRRR   N  N N  II  N  N N  G  GGG   !            |
|           WW  WW  A    A  R   R   N   NN  II  N   NN  G    G                |
|           W    W  A    A  R    R  N    N  II  N    N   GGGG   !!!           |
|     Tetrahedron method does not include variations of the Fermi             |
|     occupations, so forces and stress will be inaccurate. We suggest        |
|     using a different smearing scheme ISMEAR = 1 or 2 for metals in         |
|     relaxations.                                                            |

 total charge

# of ion       s       p       d       tot
    1        0.450   0.284   9.187   9.921
    2        0.447   0.284   9.188   9.920
    3        0.447   0.284   9.188   9.920
    4        0.448   0.284   9.187   9.919
    5        0.447   0.286   9.188   9.921
    6        0.448   0.284   9.187   9.919
    7        0.448   0.286   9.187   9.921
    8        0.448   0.286   9.187   9.921
    9        0.450   0.284   9.187   9.920
   10        0.441   0.370   9.179   9.990
   11        0.443   0.369   9.181   9.993
   12        0.441   0.370   9.179   9.990
   13        0.438   0.371   9.182   9.992
   14        0.438   0.371   9.182   9.992
   15        0.444   0.366   9.181   9.991
   16        0.447   0.369   9.180   9.996
   17        0.441   0.369   9.181   9.991
   18        0.441   0.369   9.181   9.991
   19        0.441   0.377   9.176   9.994
   20        0.453   0.386   9.181  10.020
   21        0.453   0.386   9.181  10.020
   22        0.438   0.374   9.180   9.993
   23        0.454   0.390   9.173  10.017
   24        0.438   0.374   9.180   9.993
   25        0.441   0.375   9.176   9.991
   26        0.441   0.375   9.176   9.991
   27        0.440   0.376   9.178   9.994
   28        0.434   0.272   9.218   9.925
   29        0.434   0.380   9.166   9.980
   30        0.434   0.380   9.166   9.980
   31        0.454   0.420   9.146  10.020
   32        0.454   0.420   9.146  10.020
   33        0.437   0.287   9.201   9.925
   34        0.437   0.287   9.201   9.925
   35        0.444   0.279   9.200   9.922
   36        0.447   0.541   7.362   8.350
   37        1.589   3.327   0.000   4.916
   38        1.589   3.327   0.000   4.916
tot         19.160  19.221 328.717 367.099

 BZINTS: Fermi energy:   -0.544498;  406.000000 electrons
         Band energy:-0.144471E+04;  BLOECHL correction:   -0.026324