 vasp.6.2.0 18Jan21 (build Jun 12 2021 23:27:24) complex

 executed on             LinuxIFC date 2022.05.27  04:58:56

 INCAR:
   ISMEAR = -5
   SIGMA = 0.1
   ISPIN = 1
   EDIFF = 1.d-5
   EDIFFG = -0.01
   NSW = 0
   NELM = 150
   ENCUT = 500
   ISIF = 2
   IBRION = 2
   LREAL = Auto
   ALGO = Fast
   ICHARG = 11
   LORBIT = 10
   LCHARG = .F.
   LWAVE = .F.

 POTCAR:    PAW_PBE Au 04Oct2007
 POTCAR:    PAW_PBE V 08Apr2002
 POTCAR:    PAW_PBE C 08Apr2002
 POTCAR:    PAW_PBE O 08Apr2002
|           W    W    AA    RRRRR   N    N  II  N    N   GGGG   !!!           |
|           W    W   A  A   R    R  NN   N  II  NN   N  G    G  !!!           |
|           W    W  A    A  R    R  N N  N  II  N N  N  G       !!!           |
|           W WW W  AAAAAA  RRRRR   N  N N  II  N  N N  G  GGG   !            |
|           WW  WW  A    A  R   R   N   NN  II  N   NN  G    G                |
|           W    W  A    A  R    R  N    N  II  N    N   GGGG   !!!           |
|     For optimal performance we recommend to set                             |
|       NCORE = 2 up to number-of-cores-per-socket                            |
|     This setting can greatly improve the performance of VASP for DFT.       |
|     The default, NCORE=1 might be grossly inefficient on modern             |
|     multi-core architectures or massively parallel machines. Do your        |
|     Unfortunately you need to use the default for GW and RPA                |
|     calculations (for HF NCORE is supported but not extensively tested      |
|     yet).                                                                   |

 POTCAR:    PAW_PBE Au 04Oct2007
   VRHFIN =Au: s1d10

   TITEL  = PAW_PBE Au 04Oct2007
   POMASS =  196.966; ZVAL   =   11.000    mass and valenz
   ENMAX  =  229.943; ENMIN  =  172.457 eV

 POTCAR:    PAW_PBE V 08Apr2002
   VRHFIN =V: p6 d4 s1

   TITEL  = PAW_PBE V 08Apr2002
   POMASS =   50.941; ZVAL   =    5.000    mass and valenz
   ENMAX  =  192.543; ENMIN  =  144.408 eV

 POTCAR:    PAW_PBE C 08Apr2002
   VRHFIN =C: s2p2

[...]

 POTCAR:    PAW_PBE O 08Apr2002
   VRHFIN =O: s2p4

   TITEL  = PAW_PBE O 08Apr2002
   POMASS =   16.000; ZVAL   =    6.000    mass and valenz
   ENMAX  =  400.000; ENMIN  =  300.000 eV

 Optimization of the real space projectors (new method)

 maximal supplied QI-value         = 15.12
 optimisation between [QCUT,QGAM] = [ 11.34, 22.83] = [ 36.00,145.93] Ry
 Optimized for a Real-space Cutoff    1.39 Angstroem

   l    n(q)    QCUT    max X(q) W(low)/X(q) W(high)/X(q)  e(spline)
   2      9    11.338    60.898    0.39E-03    0.42E-03    0.21E-06
   2      9    11.338    58.894    0.40E-03    0.42E-03    0.22E-06
   0      9    11.338   109.617    0.13E-03    0.20E-04    0.13E-06
   0      9    11.338    75.026    0.13E-03    0.20E-04    0.13E-06
   1      9    11.338    16.344    0.33E-04    0.24E-03    0.18E-06
   1      9    11.338    10.160    0.26E-04    0.19E-03    0.15E-06
 Optimization of the real space projectors (new method)

[...]

   l    n(q)    QCUT    max X(q) W(low)/X(q) W(high)/X(q)  e(spline)
   0      7    11.310   115.676    0.43E-03    0.13E-02    0.19E-06
   0      7    11.310    87.132    0.43E-03    0.13E-02    0.18E-06
   1      6    11.310     4.429    0.42E-03    0.74E-03    0.11E-06
   1      6    11.310     2.733    0.34E-03    0.55E-03    0.92E-07
 Optimization of the real space projectors (new method)

 maximal supplied QI-value         = 24.76
 optimisation between [QCUT,QGAM] = [ 11.39, 22.77] = [ 36.31,145.25] Ry
 Optimized for a Real-space Cutoff    1.00 Angstroem

   l    n(q)    QCUT    max X(q) W(low)/X(q) W(high)/X(q)  e(spline)
   0      7    11.387    20.381    0.39E-03    0.13E-02    0.15E-06
   0      7    11.387    15.268    0.42E-03    0.14E-02    0.17E-06
   1      6    11.387     5.964    0.41E-03    0.11E-02    0.17E-06
   1      6    11.387     5.382    0.39E-03    0.87E-03    0.15E-06
  PAW_PBE Au 04Oct2007                  :
  PAW_PBE V 08Apr2002                   :
  PAW_PBE C 08Apr2002                   :
  PAW_PBE O 08Apr2002                   :

 POSCAR: Au-V-CO
  positions in direct lattice
  velocities in cartesian coordinates
 exchange correlation table for  LEXCH =        8
   RHO(1)=    0.500       N(1)  =     2000
   RHO(2)=  100.500       N(2)  =     4000

 VTST: version 3.2, (02/03/18)

 CHAIN: initializing optimizer

 OPT: Using VASP Conjugate-Gradient optimizer
 CHAIN: Read ICHAIN            0

 POSCAR: Au-V-CO
  positions in direct lattice
  velocities in cartesian coordinates

 ion  position               nearest neighbor table
   1  0.000  0.000  0.238-  16 2.94  12 2.94   6 2.94   8 2.94   7 2.94   3 2.94  10 2.94   4 2.94
                             2 2.94
   2  0.333  0.000  0.238-   9 2.94  11 2.94  17 2.94  10 2.94   8 2.94   4 2.94   5 2.94   1 2.94
                             3 2.94
   3  0.667  0.000  0.238-   7 2.94  18 2.94  12 2.94   1 2.94  11 2.94   5 2.94   6 2.94   9 2.94
                             2 2.94
   4  0.000  0.333  0.238-  10 2.94   6 2.94   5 2.94  13 2.94   2 2.94  15 2.94   9 2.94   1 2.94
                             7 2.94
   5  0.333  0.333  0.238-  13 2.94   7 2.94  11 2.94   4 2.94   2 2.94  14 2.94   3 2.94   8 2.94
                             6 2.94
   6  0.667  0.333  0.238-  15 2.94  14 2.94   1 2.94  12 2.94   4 2.94   9 2.94   8 2.94   3 2.94
                             5 2.94
   7  0.000  0.667  0.238-  18 2.94   3 2.94  16 2.94   5 2.94   1 2.94  13 2.94   8 2.94   4 2.94
                             9 2.94
   8  0.333  0.667  0.238-   9 2.94  17 2.94   1 2.94   2 2.94  14 2.94  16 2.94   6 2.94   7 2.94
                             5 2.94
   9  0.667  0.667  0.238-   2 2.94   8 2.94  17 2.94   6 2.94  15 2.94   4 2.94   3 2.94  18 2.94
                             7 2.94
  10  0.111  0.111  0.346-  20 2.93  26 2.94  19 2.94  11 2.94  17 2.94   2 2.94   4 2.94   1 2.94
                            12 2.94  16 2.94  13 2.94  15 2.94
  11  0.444  0.111  0.346-  20 2.92  21 2.92  27 2.94  13 2.94   2 2.94  10 2.94  17 2.94   5 2.94
                             3 2.94  18 2.94  14 2.94  12 2.94
  12  0.778  0.111  0.346-  21 2.93  25 2.94  19 2.94  16 2.94  18 2.94   1 2.94  14 2.94  15 2.94
                             3 2.94   6 2.94  10 2.94  11 2.94
  13  0.111  0.444  0.346-  23 2.92  20 2.92  22 2.94   5 2.94  18 2.94  11 2.94   7 2.94   4 2.94
                            16 2.94  10 2.94  14 2.94  15 2.94
  14  0.444  0.444  0.346-  21 2.92  23 2.92  24 2.94  15 2.94   6 2.94  12 2.94   8 2.94  17 2.94
                             5 2.94  16 2.94  13 2.94  11 2.94
  15  0.778  0.444  0.346-  24 2.92  22 2.92  19 2.93  14 2.94   6 2.94  17 2.94  12 2.94   9 2.94
                             4 2.94  10 2.94  13 2.94  18 2.94
  16  0.111  0.778  0.346-  23 2.93  25 2.94  26 2.94  18 2.94  12 2.94   7 2.94   1 2.94   8 2.94
                            13 2.94  10 2.94  14 2.94  17 2.94
  17  0.444  0.778  0.346-  27 2.92  24 2.92  26 2.93   9 2.94  15 2.94   2 2.94  10 2.94  11 2.94
                             8 2.94  14 2.94  16 2.94  18 2.94
  18  0.778  0.778  0.346-  22 2.92  27 2.92  25 2.93  16 2.94   7 2.94  13 2.94  12 2.94   3 2.94
                            11 2.94   9 2.94  15 2.94  17 2.94
  19  0.889  0.222  0.454-  15 2.93  10 2.94  12 2.94  24 2.94  22 2.94  28 2.94  26 2.94  25 2.94
                            21 2.95  20 2.95  32 3.03  31 3.03
  20  0.223  0.223  0.453-  36 2.72  23 2.92  21 2.92  11 2.92  13 2.92  10 2.93  29 2.95  31 2.95
                            26 2.95  19 2.95  27 2.95  22 2.95
  21  0.554  0.223  0.453-  36 2.72  20 2.92  23 2.92  14 2.92  11 2.92  12 2.93  30 2.95  32 2.95
                            25 2.95  19 2.95  27 2.95  24 2.95
  22  0.887  0.557  0.453-  24 2.91  27 2.91  18 2.92  15 2.92  25 2.94  19 2.94  13 2.94  23 2.95
                            20 2.95  35 2.96  33 2.99  31 2.99
  23  0.223  0.554  0.453-  36 2.72  20 2.92  21 2.92  13 2.92  14 2.92  16 2.93  33 2.95  34 2.95
                            25 2.95  26 2.95  22 2.95  24 2.95
  24  0.557  0.557  0.453-  27 2.91  22 2.91  15 2.92  17 2.92  26 2.94  19 2.94  14 2.94  21 2.95
                            23 2.95  35 2.96  32 2.99  34 2.99
  25  0.889  0.889  0.454-  18 2.93  16 2.94  12 2.94  22 2.94  27 2.94  28 2.94  19 2.94  26 2.94
                            23 2.95  21 2.95  33 3.03  30 3.03
  26  0.222  0.889  0.454-  17 2.93  10 2.94  16 2.94  27 2.94  24 2.94  28 2.94  19 2.94  25 2.94
                            20 2.95  23 2.95  29 3.03  34 3.03
  27  0.557  0.887  0.453-  24 2.91  22 2.91  17 2.92  18 2.92  26 2.94  25 2.94  11 2.94  20 2.95
                            21 2.95  35 2.96  29 2.99  30 2.99
  28  0.000  0.000  0.562-  25 2.94  19 2.94  26 2.94  34 2.99  32 2.99  33 2.99  30 2.99  31 2.99
                            29 2.99
  29  0.334  0.011  0.564-  30 2.83  31 2.85  36 2.86  20 2.95  35 2.98  27 2.99  28 2.99  26 3.03
                            34 3.13
  30  0.655  0.011  0.564-  29 2.83  32 2.85  36 2.86  21 2.95  35 2.98  27 2.99  28 2.99  25 3.03
                            33 3.13
  31  0.011  0.334  0.564-  33 2.83  29 2.85  36 2.86  20 2.95  35 2.98  22 2.99  28 2.99  19 3.03
                            32 3.13
  32  0.655  0.334  0.564-  34 2.83  30 2.85  36 2.86  21 2.95  35 2.98  24 2.99  28 2.99  19 3.03
                            31 3.13
  33  0.011  0.655  0.564-  31 2.83  34 2.85  36 2.86  23 2.95  35 2.98  22 2.99  28 2.99  25 3.03
                            30 3.13
  34  0.334  0.655  0.564-  32 2.83  33 2.85  36 2.86  23 2.95  35 2.98  24 2.99  28 2.99  26 3.03
                            29 3.13
  35  0.667  0.667  0.563-  24 2.96  27 2.96  22 2.96  29 2.98  34 2.98  32 2.98  31 2.98  30 2.98
                            33 2.98
  36  0.333  0.333  0.550-  37 1.95  20 2.72  23 2.72  21 2.72  33 2.86  31 2.86  29 2.86  30 2.86
                            34 2.86  32 2.86
  37  0.333  0.333  0.638-  38 1.16  36 1.95
  38  0.333  0.333  0.690-  37 1.16

  LATTYP: Found a hexagonal cell.
 ALAT       =     8.8135128021
 C/A-ratio  =     2.5184286595

  Lattice vectors:

 A1 = (  -4.4067569092,  -7.6327256898,   0.0000000000)
 A2 = (   8.8135128021,   0.0000000000,   0.0000000000)
 A3 = (   0.0000000000,   0.0000000000,  22.1962032318)

Analysis of symmetry for initial positions (statically):
 Subroutine PRICEL returns:
 Original cell was already a primitive cell.

 Routine SETGRP: Setting up the symmetry group for a
 hexagonal supercell.

 Subroutine GETGRP returns: Found  6 space group operations
 (whereof  6 operations were pure point group operations)
 out of a pool of 24 trial point group operations.

The static configuration has the point symmetry C_3v.

Analysis of symmetry for dynamics (positions and initial velocities):
 Subroutine PRICEL returns:
 Original cell was already a primitive cell.

[...]

The dynamic configuration has the point symmetry C_3v.

Analysis of constrained symmetry for selective dynamics:
 Subroutine PRICEL returns:
 Original cell was already a primitive cell.

 Routine SETGRP: Setting up the symmetry group for a
 hexagonal supercell.

[...]
     33      -4.8497      2.00000
     34      -4.7653      2.00000
     35      -4.7557      2.00000
     36      -4.7285      2.00000
     37      -4.7136      2.00000
     38      -4.7002      2.00000
     39      -4.6551      2.00000
     40      -4.5723      2.00000
     41      -4.5576      2.00000
     42      -4.5105      2.00000
     43      -4.4796      2.00000
     44      -4.4235      2.00000
     45      -4.3806      2.00000
     46      -4.3536      2.00000
     47      -4.2960      2.00000
     48      -4.2807      2.00000
     49      -4.2707      2.00000
     50      -4.2573      2.00000
     51      -4.1587      2.00000
     52      -4.1292      2.00000
     53      -4.1105      2.00000
     54      -4.0860      2.00000
     55      -4.0837      2.00000
     56      -4.0764      2.00000
     57      -4.0540      2.00000
     58      -4.0336      2.00000
     59      -3.9920      2.00000
     60      -3.9637      2.00000
[...]
    238       6.1389      0.00000
    239       6.4245      0.00000
    240       6.4719      0.00000
    241       6.5152      0.00000
    242       6.5389      0.00000
    243       6.5529      0.00000
    244       6.6114      0.00000
    245       6.7794      0.00000
    246       6.8178      0.00000
    247       6.8535      0.00000
    248       6.8657      0.00000
    249       7.2139      0.00000
    250       7.2503      0.00000
    251       7.3385      0.00000
    252       7.6042      0.00000

 soft charge-density along one line, spin component           1
         0         1         2         3         4         5         6         7         8         9
 total charge-density along one line

------------------------ aborting loop because EDIFF is reached ----------------------------------------

 total charge

# of ion       s       p       d       tot
    1        0.546   0.237   8.769   9.552
    2        0.542   0.241   8.765   9.548
    3        0.542   0.241   8.765   9.548
    4        0.542   0.241   8.765   9.548
    5        0.548   0.240   8.759   9.548
    6        0.542   0.241   8.765   9.548
    7        0.542   0.241   8.765   9.548
    8        0.542   0.241   8.765   9.548
    9        0.543   0.239   8.769   9.551
   10        0.525   0.307   8.767   9.599
   11        0.522   0.305   8.780   9.607
   12        0.525   0.307   8.767   9.599
   13        0.522   0.305   8.780   9.607
   14        0.522   0.305   8.780   9.607
   15        0.516   0.309   8.774   9.600
   16        0.525   0.307   8.767   9.599
   17        0.516   0.309   8.774   9.600
   18        0.516   0.309   8.774   9.600
   19        0.518   0.298   8.771   9.586
   20        0.563   0.330   8.738   9.631
   21        0.563   0.330   8.738   9.631
   22        0.508   0.307   8.777   9.592
   23        0.563   0.330   8.738   9.631
   24        0.508   0.307   8.777   9.592
   25        0.518   0.298   8.771   9.586
   26        0.518   0.298   8.771   9.586
   27        0.508   0.307   8.777   9.592
   28        0.538   0.226   8.760   9.523
   29        0.571   0.240   8.744   9.555
   30        0.571   0.240   8.744   9.555
   31        0.571   0.240   8.744   9.555
   32        0.571   0.240   8.744   9.555
   33        0.571   0.240   8.744   9.555
   34        0.571   0.240   8.744   9.555
   35        0.540   0.224   8.761   9.525
   36        0.430   0.593   3.380   4.403
   37        0.975   1.533   0.000   2.507
   38        1.615   3.530   0.000   5.145
tot         21.868  15.275 310.075 347.219

  FORCE on cell =-STRESS in cart. coord.  units (eV):
  Direction    XX          YY          ZZ          XY          YZ          ZX
  Alpha Z  1021.14973  1021.14973  1021.14973
  Ewald  115453.46752115453.46793************    -0.00031    -0.00009    -0.00013
  Hartree124254.52616124254.52616************     0.00001    -0.00002    -0.00004
  E(xc)   -1793.05320 -1793.05327 -1800.76513     0.00006    -0.00000    -0.00001
  Local  ************************251600.12422     0.00205     0.00002     0.00000
  n-local   -95.47200   -48.94652   -50.84009    22.90827    -1.49219     1.55277
  augment  2388.92571  2388.92724  2409.99770    -0.00133     0.00001     0.00002
  Kinetic  5567.65003  5575.14533  5608.06912     4.72841     0.15976     0.37375
  Fock        0.00000     0.00000     0.00000     0.00000     0.00000     0.00000
  Total     -22.30984   -22.30983     2.55128    -0.00000     0.00000     0.00000
  in kB     -23.93865   -23.93864     2.73755    -0.00000     0.00000     0.00000

 VOLUME and BASIS-vectors are now :
  energy-cutoff  :      500.00
  volume of cell :     1493.16
      direct lattice vectors                 reciprocal lattice vectors
     8.813512802  0.000000000  0.000000000     0.113462137 -0.065507406  0.000000000
     4.406756909  7.632725690  0.000000000     0.000000000  0.131014796  0.000000000
     0.000000000  0.000000000 22.196203232     0.000000000  0.000000000  0.045052750

  length of vectors
     8.813512802  8.813512802 22.196203232     0.131014796  0.131014796  0.045052750

 FORCES acting on ions
    electron-ion (+dipol)            ewald-force                    non-local-force                 convergence-correction
   -.195E-04 -.161E-04 0.247E+04   0.519E-04 0.433E-04 -.247E+04   -.207E-18 -.332E-17 -.766E+00   -.238E-03 -.151E-03 -.244E+00
   0.238E+00 -.246E+00 0.247E+04   -.299E+00 0.841E-01 -.247E+04   0.611E-01 0.129E+00 -.321E+00   -.112E-02 0.243E-01 -.239E+00
   -.238E+00 -.246E+00 0.247E+04   0.299E+00 0.841E-01 -.247E+04   -.611E-01 0.129E+00 -.321E+00   0.144E-02 0.262E-01 -.238E+00
   -.941E-01 0.329E+00 0.247E+04   -.767E-01 -.301E+00 -.247E+04   0.142E+00 -.117E-01 -.321E+00   0.205E-01 -.132E-01 -.239E+00
   0.885E-05 -.232E-04 0.247E+04   0.951E-04 0.173E-05 -.247E+04   -.793E-19 0.193E-18 0.884E-01   0.428E-02 0.260E-02 -.145E+00
   0.941E-01 0.329E+00 0.247E+04   0.766E-01 -.301E+00 -.247E+04   -.142E+00 -.117E-01 -.321E+00   -.221E-01 -.123E-01 -.238E+00
   -.332E+00 -.830E-01 0.247E+04   0.222E+00 0.217E+00 -.247E+04   0.814E-01 -.118E+00 -.321E+00   0.235E-01 -.119E-01 -.238E+00
   0.332E+00 -.830E-01 0.247E+04   -.222E+00 0.217E+00 -.247E+04   -.814E-01 -.118E+00 -.321E+00   -.216E-01 -.130E-01 -.238E+00
   0.195E-04 -.417E-04 0.247E+04   0.166E-03 -.200E-04 -.247E+04   -.133E-17 0.545E-18 -.494E+00   -.458E-02 -.237E-02 -.228E+00
   0.163E+01 0.939E+00 0.831E+03   -.134E+01 -.771E+00 -.830E+03   -.295E+00 -.170E+00 -.609E+00   -.205E-02 -.130E-02 0.774E-01
   0.145E-04 0.746E+00 0.833E+03   0.148E-03 -.799E+00 -.833E+03   0.265E-08 0.398E-01 -.122E+00   0.400E-02 -.125E-01 0.123E+00
   -.163E+01 0.939E+00 0.831E+03   0.134E+01 -.771E+00 -.830E+03   0.295E+00 -.170E+00 -.609E+00   0.584E-03 -.142E-03 0.773E-01
   0.646E+00 -.373E+00 0.833E+03   -.692E+00 0.400E+00 -.833E+03   0.345E-01 -.199E-01 -.122E+00   -.851E-02 0.996E-02 0.123E+00
   -.646E+00 -.373E+00 0.833E+03   0.692E+00 0.400E+00 -.833E+03   -.345E-01 -.199E-01 -.122E+00   0.160E-01 0.912E-02 0.122E+00
   0.319E-04 0.340E+01 0.835E+03   0.235E-03 -.347E+01 -.834E+03   0.189E-08 0.283E-01 -.543E+00   -.228E-02 -.113E-01 0.549E-01
   -.210E-04 -.188E+01 0.831E+03   0.162E-03 0.154E+01 -.830E+03   0.227E-07 0.341E+00 -.609E+00   -.715E-04 0.552E-03 0.773E-01
   0.294E+01 -.170E+01 0.835E+03   -.300E+01 0.173E+01 -.834E+03   0.245E-01 -.142E-01 -.543E+00   -.107E-01 0.413E-02 0.549E-01
   -.294E+01 -.170E+01 0.835E+03   0.300E+01 0.173E+01 -.834E+03   -.245E-01 -.142E-01 -.543E+00   0.110E-01 0.612E-02 0.555E-01
   -.424E-04 -.264E+01 -.829E+03   0.556E-04 0.265E+01 0.828E+03   0.260E-08 0.390E-01 0.661E+00   -.559E-03 -.315E-01 0.454E+00
   -.268E+01 -.155E+01 -.820E+03   0.365E+01 0.211E+01 0.821E+03   -.117E+01 -.675E+00 -.120E+01   0.149E+00 0.860E-01 0.707E+00
   0.268E+01 -.155E+01 -.820E+03   -.365E+01 0.211E+01 0.821E+03   0.117E+01 -.675E+00 -.120E+01   -.148E+00 0.863E-01 0.707E+00
   -.808E+01 0.466E+01 -.818E+03   0.761E+01 -.439E+01 0.817E+03   0.366E+00 -.211E+00 0.546E+00   0.118E+00 -.681E-01 0.445E+00
   -.877E-05 0.310E+01 -.820E+03   0.139E-03 -.421E+01 0.821E+03   0.899E-07 0.135E+01 -.120E+01   0.283E-03 -.172E+00 0.707E+00
   0.808E+01 0.466E+01 -.818E+03   -.761E+01 -.439E+01 0.817E+03   -.366E+00 -.211E+00 0.546E+00   -.118E+00 -.683E-01 0.445E+00
   0.229E+01 0.132E+01 -.829E+03   -.230E+01 -.133E+01 0.828E+03   -.338E-01 -.195E-01 0.661E+00   0.277E-01 0.159E-01 0.453E+00
   -.229E+01 0.132E+01 -.829E+03   0.230E+01 -.133E+01 0.828E+03   0.338E-01 -.195E-01 0.661E+00   -.273E-01 0.153E-01 0.454E+00
   0.103E-04 -.933E+01 -.818E+03   0.197E-03 0.879E+01 0.817E+03   0.281E-07 0.422E+00 0.546E+00   -.355E-03 0.136E+00 0.445E+00
   -.133E-04 -.129E-04 -.239E+04   0.297E-04 0.334E-04 0.239E+04   0.177E-17 0.103E-17 0.664E+00   -.490E-04 -.454E-04 0.272E+00
   0.225E+02 0.303E+02 -.238E+04   -.218E+02 -.291E+02 0.238E+04   -.956E+00 -.155E+01 0.114E+00   0.180E+00 0.324E+00 0.199E+00
   -.225E+02 0.303E+02 -.238E+04   0.218E+02 -.291E+02 0.238E+04   0.956E+00 -.155E+01 0.114E+00   -.179E+00 0.326E+00 0.199E+00
   0.375E+02 0.436E+01 -.238E+04   -.361E+02 -.430E+01 0.238E+04   -.182E+01 -.508E-01 0.114E+00   0.371E+00 -.675E-02 0.199E+00
   -.375E+02 0.436E+01 -.238E+04   0.361E+02 -.430E+01 0.238E+04   0.182E+01 -.508E-01 0.114E+00   -.372E+00 -.596E-02 0.199E+00
   0.150E+02 -.346E+02 -.238E+04   -.143E+02 0.334E+02 0.238E+04   -.868E+00 0.160E+01 0.114E+00   0.193E+00 -.318E+00 0.199E+00
   -.150E+02 -.346E+02 -.238E+04   0.143E+02 0.334E+02 0.238E+04   0.868E+00 0.160E+01 0.114E+00   -.191E+00 -.319E+00 0.199E+00
   0.347E-04 -.294E-04 -.241E+04   0.141E-03 -.491E-04 0.240E+04   0.188E-17 -.271E-17 0.639E+00   -.442E-02 -.226E-02 0.288E+00
   -.232E-04 -.756E-06 -.947E+03   0.527E-04 0.489E-05 0.949E+03   -.186E-17 -.192E-17 -.151E+01   0.890E-03 0.541E-03 0.133E+00
   -.573E-05 -.831E-04 -.787E+03   0.137E-04 0.949E-06 0.769E+03   0.406E-18 0.621E-18 0.184E+02   0.110E-02 0.670E-03 -.277E+00
   0.240E-03 -.923E-04 -.147E+04   0.491E-05 0.551E-06 0.153E+04   -.973E-18 -.508E-18 -.594E+02   0.369E-02 0.226E-02 -.133E+00
   -.572E-03 -.948E-03 0.428E+02   -.434E-14 0.261E-12 -.409E-11   -.112E-15 -.449E-15 -.474E+02   0.109E-01 0.702E-02 0.502E+01

 POSITION                                       TOTAL-FORCE (eV/Angst)
      0.00000      0.00000      5.28038        -0.000000     -0.000000     -0.158199
      2.93784      0.00000      5.28038        -0.000698     -0.007415     -0.059476
      5.87568      0.00000      5.28038         0.000698     -0.007415     -0.059476
      1.46892      2.54424      5.28038        -0.006771      0.003102     -0.059476
      4.40676      2.54424      5.28038        -0.000000     -0.000000     -0.102701
      7.34459      2.54424      5.28038         0.006771      0.003102     -0.059476
      2.93784      5.08848      5.28038        -0.006072      0.004312     -0.059476
      5.87568      5.08848      5.28038         0.006072      0.004312     -0.059476
      8.81351      5.08848      5.28038        -0.000000     -0.000000     -0.080329
      1.46892      0.84808      7.67911        -0.005256     -0.003035      0.103398
      4.40676      0.84808      7.67911        -0.000000     -0.028093      0.042612
      7.34459      0.84808      7.67911         0.005256     -0.003035      0.103398
      2.93784      3.39232      7.67911        -0.024329      0.014047      0.042612
      5.87568      3.39232      7.67911         0.024329      0.014047      0.042612
      8.81351      3.39232      7.67911        -0.000000     -0.057334      0.093276
      4.40676      5.93656      7.67911         0.000000      0.006069      0.103398
      7.34459      5.93656      7.67911        -0.049653      0.028667      0.093276
     10.28243      5.93656      7.67911         0.049653      0.028667      0.093276
      8.81351      1.69782     10.07545         0.000000      0.020925      0.041741
      2.94790      1.70197     10.06171        -0.052960     -0.030576     -0.105009
      5.86562      1.70197     10.06171         0.052960     -0.030576     -0.105009
     10.26824      4.24860     10.06503         0.016050     -0.009266      0.018177
      4.40676      4.22879     10.06171         0.000000      0.061153     -0.105009
      7.35878      4.24860     10.06503        -0.016050     -0.009266      0.018177
     11.74991      6.78381     10.07545        -0.018121     -0.010462      0.041741
      5.87712      6.78381     10.07545         0.018121     -0.010462      0.041741
      8.81351      6.76826     10.06503         0.000000      0.018532      0.018177
      0.00000      0.00000     12.47281        -0.000000     -0.000000     -0.019742
      2.99055      0.08121     12.52138        -0.037913     -0.085627     -0.050939
      5.82296      0.08121     12.52138         0.037913     -0.085627     -0.050939
      1.56560      2.54929     12.52138        -0.093112      0.009980     -0.050939
      7.24791      2.54929     12.52138         0.093112      0.009980     -0.050939
      2.98181      5.00223     12.52138        -0.055199      0.075647     -0.050939
      5.83171      5.00223     12.52138         0.055199      0.075647     -0.050939
      8.81351      5.08848     12.50032        -0.000000      0.000000     -0.009306
      4.40676      2.54424     12.20130        -0.000000     -0.000000      0.454224
      4.40676      2.54424     14.15192        -0.000000     -0.000000     -0.011080
      4.40676      2.54424     15.31632        -0.000000     -0.000000      0.007038
    total drift:                                0.010327      0.006074      0.417314

  FREE ENERGIE OF THE ION-ELECTRON SYSTEM (eV)
  free  energy   TOTEN  =      -130.82068433 eV

  energy  without entropy=     -130.82068433  energy(sigma->0) =     -130.82068433

 stress matrix after NEB project (eV)
    -22.30984     -0.00000      0.00000
     -0.00000    -22.30983      0.00000
      0.00000      0.00000      2.55128
  FORCES: max atom, RMS     0.011080    0.002129
  FORCE total and by dimension    0.013126    0.011080
  Stress total and by dimension   31.653855   22.309836
|           W    W    AA    RRRRR   N    N  II  N    N   GGGG   !!!           |
|           W    W   A  A   R    R  NN   N  II  NN   N  G    G  !!!           |
|           W    W  A    A  R    R  N N  N  II  N N  N  G       !!!           |
|           W WW W  AAAAAA  RRRRR   N  N N  II  N  N N  G  GGG   !            |
|           WW  WW  A    A  R   R   N   NN  II  N   NN  G    G                |
|           W    W  A    A  R    R  N    N  II  N    N   GGGG   !!!           |
|     Tetrahedron method does not include variations of the Fermi             |
|     occupations, so forces and stress will be inaccurate. We suggest        |
|     using a different smearing scheme ISMEAR = 1 or 2 for metals in         |
|     relaxations.                                                            |

 total charge

# of ion       s       p       d       tot
    1        0.546   0.237   8.769   9.552
    2        0.542   0.241   8.765   9.548
    3        0.542   0.241   8.765   9.548
    4        0.542   0.241   8.765   9.548
    5        0.548   0.240   8.759   9.548
    6        0.542   0.241   8.765   9.548
    7        0.542   0.241   8.765   9.548
    8        0.542   0.241   8.765   9.548
    9        0.543   0.239   8.769   9.551
   10        0.525   0.307   8.767   9.599
   11        0.522   0.305   8.780   9.607
   12        0.525   0.307   8.767   9.599
   13        0.522   0.305   8.780   9.607
   14        0.522   0.305   8.780   9.607
   15        0.516   0.309   8.774   9.600
   16        0.525   0.307   8.767   9.599
   17        0.516   0.309   8.774   9.600
   18        0.516   0.309   8.774   9.600
   19        0.518   0.298   8.771   9.586
   20        0.563   0.330   8.738   9.631
   21        0.563   0.330   8.738   9.631
   22        0.508   0.307   8.777   9.592
   23        0.563   0.330   8.738   9.631
   24        0.508   0.307   8.777   9.592
   25        0.518   0.298   8.771   9.586
   26        0.518   0.298   8.771   9.586
   27        0.508   0.307   8.777   9.592
   28        0.538   0.226   8.760   9.523
   29        0.571   0.240   8.744   9.555
   30        0.571   0.240   8.744   9.555
   31        0.571   0.240   8.744   9.555
   32        0.571   0.240   8.744   9.555
   33        0.571   0.240   8.744   9.555
   34        0.571   0.240   8.744   9.555
   35        0.540   0.224   8.761   9.525
   36        0.430   0.593   3.380   4.403
   37        0.975   1.533   0.000   2.507
   38        1.615   3.530   0.000   5.145
tot         21.868  15.275 310.075 347.219

 BZINTS: Fermi energy:    0.699606;  400.000000 electrons
         Band energy:-0.126518E+04;  BLOECHL correction:   -0.035294