 vasp.6.2.0 18Jan21 (build Jun 12 2021 23:27:24) complex

 executed on             LinuxIFC date 2022.05.27  05:34:40

 INCAR:
   ISMEAR = -5
   SIGMA = 0.1
   ISPIN = 1
   EDIFF = 1.d-5
   EDIFFG = -0.01
   NSW = 0
   NELM = 150
   ENCUT = 500
   ISIF = 2
   IBRION = 2
   LREAL = Auto
   ALGO = Fast
   ICHARG = 11
   LORBIT = 10
   LCHARG = .F.
   LWAVE = .F.

 POTCAR:    PAW_PBE Ag 02Apr2005
 POTCAR:    PAW_PBE Ni 02Aug2007
 POTCAR:    PAW_PBE N 08Apr2002
|           W    W    AA    RRRRR   N    N  II  N    N   GGGG   !!!           |
|           W    W   A  A   R    R  NN   N  II  NN   N  G    G  !!!           |
|           W    W  A    A  R    R  N N  N  II  N N  N  G       !!!           |
|           W WW W  AAAAAA  RRRRR   N  N N  II  N  N N  G  GGG   !            |
|           WW  WW  A    A  R   R   N   NN  II  N   NN  G    G                |
|           W    W  A    A  R    R  N    N  II  N    N   GGGG   !!!           |
|     For optimal performance we recommend to set                             |
|       NCORE = 2 up to number-of-cores-per-socket                            |
|     This setting can greatly improve the performance of VASP for DFT.       |
|     The default, NCORE=1 might be grossly inefficient on modern             |
|     multi-core architectures or massively parallel machines. Do your        |
|     Unfortunately you need to use the default for GW and RPA                |
|     calculations (for HF NCORE is supported but not extensively tested      |
|     yet).                                                                   |

 POTCAR:    PAW_PBE Ag 02Apr2005
   VRHFIN =Ag : s1 d10

   TITEL  = PAW_PBE Ag 02Apr2005
   POMASS =  107.868; ZVAL   =   11.000    mass and valenz
   ENMAX  =  249.844; ENMIN  =  187.383 eV

 POTCAR:    PAW_PBE Ni 02Aug2007
   VRHFIN =Ni:

   TITEL  = PAW_PBE Ni 02Aug2007
   POMASS =   58.690; ZVAL   =   10.000    mass and valenz
   ENMAX  =  269.532; ENMIN  =  202.149 eV

 POTCAR:    PAW_PBE N 08Apr2002
   VRHFIN =N: s2p3

   TITEL  = PAW_PBE N 08Apr2002
   POMASS =   14.001; ZVAL   =    5.000    mass and valenz
   ENMAX  =  400.000; ENMIN  =  300.000 eV

 Optimization of the real space projectors (new method)

 maximal supplied QI-value         = 15.12
 optimisation between [QCUT,QGAM] = [ 11.34, 22.83] = [ 36.00,145.93] Ry
 Optimized for a Real-space Cutoff    1.43 Angstroem

   l    n(q)    QCUT    max X(q) W(low)/X(q) W(high)/X(q)  e(spline)
   2      9    11.338    53.897    0.16E-03    0.20E-03    0.28E-06
   2      9    11.338    52.416    0.16E-03    0.20E-03    0.29E-06
   0     10    11.338   122.045    0.31E-04    0.76E-04    0.15E-06
   0     10    11.338    73.629    0.30E-04    0.72E-04    0.15E-06
   1      9    11.338    15.255    0.20E-03    0.19E-04    0.17E-06
   1      9    11.338     9.562    0.16E-03    0.15E-04    0.14E-06
 Optimization of the real space projectors (new method)

[...]

   l    n(q)    QCUT    max X(q) W(low)/X(q) W(high)/X(q)  e(spline)
   2      8    11.376    60.317    0.19E-03    0.33E-04    0.13E-06
   2      8    11.376    55.921    0.20E-03    0.34E-04    0.14E-06
   0      9    11.376    51.690    0.82E-04    0.12E-03    0.20E-06
   0      9    11.376    30.015    0.74E-04    0.11E-03    0.18E-06
   1      9    11.376    18.849    0.39E-03    0.12E-03    0.13E-06
   1      9    11.376    14.624    0.33E-03    0.10E-03    0.11E-06
 Optimization of the real space projectors (new method)

 maximal supplied QI-value         = 25.13
 optimisation between [QCUT,QGAM] = [ 11.31, 22.87] = [ 35.82,146.48] Ry
 Optimized for a Real-space Cutoff    1.27 Angstroem

   l    n(q)    QCUT    max X(q) W(low)/X(q) W(high)/X(q)  e(spline)
   0      9    11.310    79.467    0.75E-04    0.16E-03    0.36E-06
   0      9    11.310    66.151    0.74E-04    0.16E-03    0.36E-06
   1      8    11.310    17.416    0.35E-03    0.12E-03    0.95E-06
   1      8    11.310    12.382    0.37E-03    0.13E-03    0.98E-06
  PAW_PBE Ag 02Apr2005                  :
  PAW_PBE Ni 02Aug2007                  :
  PAW_PBE N 08Apr2002                   :

 POSCAR: Ag-Ni-N2
  positions in direct lattice
  velocities in cartesian coordinates
 exchange correlation table for  LEXCH =        8
   RHO(1)=    0.500       N(1)  =     2000
   RHO(2)=  100.500       N(2)  =     4000

 VTST: version 3.2, (02/03/18)

 CHAIN: initializing optimizer

 OPT: Using VASP Conjugate-Gradient optimizer
 CHAIN: Read ICHAIN            0

 POSCAR: Ag-Ni-N2
  positions in direct lattice
  velocities in cartesian coordinates

 ion  position               nearest neighbor table
   1  0.000  0.000  0.238-   2 2.93   8 2.93   7 2.93   6 2.93   4 2.93  12 2.93  16 2.93  10 2.93
                             3 2.93
   2  0.333  0.000  0.238-   1 2.93   8 2.93   9 2.93   3 2.93   4 2.93   5 2.93  10 2.93  17 2.93
                            11 2.93
   3  0.667  0.000  0.238-   9 2.93   2 2.93   5 2.93  11 2.93   7 2.93  18 2.93   1 2.93   6 2.93
                            12 2.93
   4  0.000  0.333  0.238-   5 2.93   6 2.93   2 2.93   1 2.93   7 2.93  13 2.93  15 2.93   9 2.93
                            10 2.93
   5  0.333  0.333  0.238-   4 2.93   3 2.93   7 2.93   2 2.93   8 2.93  14 2.93  13 2.93  11 2.93
                             6 2.93
   6  0.667  0.333  0.238-   4 2.93   9 2.93   1 2.93  15 2.93   8 2.93  12 2.93   3 2.93   5 2.93
                            14 2.93
   7  0.000  0.667  0.238-   8 2.93   1 2.93   5 2.93   3 2.93   4 2.93  16 2.93  18 2.93  13 2.93
                             9 2.93
   8  0.333  0.667  0.238-   7 2.93   1 2.93   2 2.93   9 2.93   5 2.93  16 2.93   6 2.93  17 2.93
                            14 2.93
   9  0.667  0.667  0.238-   3 2.93   2 2.93   8 2.93   6 2.93  17 2.93   4 2.93  15 2.93   7 2.93
                            18 2.93
  10  0.111  0.111  0.346-  20 2.91  19 2.92  26 2.92  12 2.93  16 2.93  15 2.93  17 2.93  13 2.93
                            11 2.93   2 2.93   1 2.93   4 2.93
  11  0.444  0.111  0.346-  21 2.91  20 2.91  27 2.91  14 2.93  17 2.93  18 2.93   3 2.93  12 2.93
                            13 2.93  10 2.93   5 2.93   2 2.93
  12  0.778  0.111  0.346-  21 2.91  25 2.92  19 2.92  10 2.93  16 2.93  18 2.93  15 2.93  11 2.93
                             1 2.93  14 2.93   6 2.93   3 2.93
  13  0.111  0.444  0.346-  20 2.91  23 2.91  22 2.91  15 2.93  14 2.93  18 2.93  10 2.93  11 2.93
                            16 2.93   4 2.93   5 2.93   7 2.93
  14  0.444  0.444  0.346-  23 2.91  21 2.91  24 2.91  13 2.93  11 2.93  16 2.93   5 2.93  12 2.93
                            17 2.93   8 2.93  15 2.93   6 2.93
  15  0.778  0.444  0.346-  24 2.91  22 2.91  19 2.92  13 2.93  10 2.93  12 2.93  17 2.93  18 2.93
                             4 2.93   6 2.93   9 2.93  14 2.93
  16  0.111  0.778  0.346-  23 2.91  26 2.92  25 2.92  18 2.93  12 2.93  10 2.93  14 2.93  17 2.93
                            13 2.93   7 2.93   8 2.93   1 2.93
  17  0.444  0.778  0.346-  27 2.91  24 2.91  26 2.92  11 2.93  10 2.93   9 2.93  18 2.93  15 2.93
                            16 2.93   2 2.93  14 2.93   8 2.93
  18  0.778  0.778  0.346-  22 2.91  27 2.91  25 2.92  16 2.93  12 2.93  13 2.93  11 2.93  17 2.93
                            15 2.93   7 2.93   3 2.93   9 2.93
  19  0.889  0.223  0.454-  28 2.91  15 2.92  10 2.92  12 2.92  24 2.93  22 2.93  32 2.94  31 2.94
                            26 2.94  25 2.94  20 2.94  21 2.94
  20  0.223  0.223  0.453-  36 2.69  31 2.89  29 2.89  13 2.91  11 2.91  10 2.91  21 2.92  23 2.92
                            27 2.93  22 2.93  19 2.94  26 2.94
  21  0.554  0.223  0.453-  36 2.69  30 2.89  32 2.89  11 2.91  14 2.91  12 2.91  20 2.92  23 2.92
                            27 2.93  24 2.93  25 2.94  19 2.94
  22  0.889  0.556  0.453-  18 2.91  15 2.91  35 2.91  13 2.91  33 2.91  31 2.91  24 2.93  27 2.93
                            25 2.93  19 2.93  23 2.93  20 2.93
  23  0.223  0.554  0.453-  36 2.69  34 2.89  33 2.89  14 2.91  13 2.91  16 2.91  21 2.92  20 2.92
                            22 2.93  24 2.93  26 2.94  25 2.94
  24  0.556  0.556  0.453-  15 2.91  17 2.91  35 2.91  14 2.91  32 2.91  34 2.91  27 2.93  22 2.93
                            19 2.93  26 2.93  23 2.93  21 2.93
  25  0.889  0.889  0.454-  28 2.91  18 2.92  16 2.92  12 2.92  22 2.93  27 2.93  33 2.94  30 2.94
                            26 2.94  19 2.94  23 2.94  21 2.94
  26  0.223  0.889  0.454-  28 2.91  17 2.92  16 2.92  10 2.92  27 2.93  24 2.93  34 2.94  29 2.94
                            25 2.94  19 2.94  23 2.94  20 2.94
  27  0.556  0.889  0.453-  17 2.91  18 2.91  35 2.91  11 2.91  29 2.91  30 2.91  24 2.93  22 2.93
                            26 2.93  25 2.93  20 2.93  21 2.93
  28  0.000  0.000  0.560-  26 2.91  25 2.91  19 2.91  29 2.96  34 2.96  33 2.96  32 2.96  31 2.96
                            30 2.96
  29  0.333  0.007  0.560-  30 2.87  31 2.87  36 2.88  20 2.89  27 2.91  26 2.94  35 2.96  28 2.96
                            34 3.06
  30  0.659  0.007  0.560-  29 2.87  32 2.87  36 2.88  21 2.89  27 2.91  25 2.94  35 2.96  28 2.96
                            33 3.06
  31  0.007  0.333  0.560-  33 2.87  29 2.87  36 2.88  20 2.89  22 2.91  19 2.94  35 2.96  28 2.96
                            32 3.06
  32  0.659  0.333  0.560-  34 2.87  30 2.87  36 2.88  21 2.89  24 2.91  19 2.94  35 2.96  28 2.96
                            31 3.06
  33  0.007  0.659  0.560-  31 2.87  34 2.87  36 2.88  23 2.89  22 2.91  25 2.94  35 2.96  28 2.96
                            30 3.06
  34  0.333  0.659  0.560-  32 2.87  33 2.87  36 2.88  23 2.89  24 2.91  26 2.94  35 2.96  28 2.96
                            29 3.06
  35  0.667  0.667  0.560-  24 2.91  27 2.91  22 2.91  30 2.96  32 2.96  29 2.96  34 2.96  31 2.96
                            33 2.96
  36  0.333  0.333  0.547-  21 2.69  20 2.69  23 2.69  31 2.88  33 2.88  30 2.88  29 2.88  34 2.88
                            32 2.88
  37  0.278  0.318  0.740-  38 1.11
  38  0.404  0.318  0.740-  37 1.11

  LATTYP: Found a hexagonal cell.
 ALAT       =     8.7913665772
 C/A-ratio  =     2.5227160501

  Lattice vectors:

 A1 = (  -4.3956832886,  -7.6135467898,   0.0000000000)
 A2 = (   8.7913665771,   0.0000000000,   0.0000000000)
 A3 = (   0.0000000000,   0.0000000000,  22.1781215668)

Analysis of symmetry for initial positions (statically):
 Subroutine PRICEL returns:
 Original cell was already a primitive cell.

 Routine SETGRP: Setting up the symmetry group for a
 hexagonal supercell.

 Subroutine GETGRP returns: Found  2 space group operations
 (whereof  2 operations were pure point group operations)
 out of a pool of 24 trial point group operations.

The static configuration has the point symmetry C_1h.

Analysis of symmetry for dynamics (positions and initial velocities):
 Subroutine PRICEL returns:
 Original cell was already a primitive cell.

[...]

The dynamic configuration has the point symmetry C_1h.

Analysis of constrained symmetry for selective dynamics:
 Subroutine PRICEL returns:
 Original cell was already a primitive cell.

 Routine SETGRP: Setting up the symmetry group for a
 hexagonal supercell.

[...]
     33      -4.4500      2.00000
     34      -4.4379      2.00000
     35      -4.4219      2.00000
     36      -4.4133      2.00000
     37      -4.3840      2.00000
     38      -4.3451      2.00000
     39      -4.3136      2.00000
     40      -4.2891      2.00000
     41      -4.2721      2.00000
     42      -4.2536      2.00000
     43      -4.2230      2.00000
     44      -4.2141      2.00000
     45      -4.1985      2.00000
     46      -4.1872      2.00000
     47      -4.1706      2.00000
     48      -4.1115      2.00000
     49      -4.0789      2.00000
     50      -4.0742      2.00000
     51      -4.0625      2.00000
     52      -4.0567      2.00000
     53      -4.0519      2.00000
     54      -4.0378      2.00000
     55      -4.0279      2.00000
     56      -4.0046      2.00000
     57      -4.0014      2.00000
     58      -3.9412      2.00000
     59      -3.9328      2.00000
     60      -3.9214      2.00000
[...]
    238       5.9498      0.00000
    239       6.1139      0.00000
    240       6.2415      0.00000
    241       6.3208      0.00000
    242       6.3327      0.00000
    243       6.3939      0.00000
    244       6.4648      0.00000
    245       7.1421      0.00000
    246       7.2006      0.00000
    247       7.2899      0.00000
    248       7.3000      0.00000
    249       7.3225      0.00000
    250       7.3838      0.00000
    251       7.4462      0.00000
    252       7.5488      0.00000

 soft charge-density along one line, spin component           1
         0         1         2         3         4         5         6         7         8         9
 total charge-density along one line

------------------------ aborting loop because EDIFF is reached ----------------------------------------

 total charge

# of ion       s       p       d       tot
    1        0.415   0.204   9.177   9.796
    2        0.417   0.203   9.177   9.797
    3        0.417   0.203   9.177   9.797
    4        0.417   0.203   9.177   9.797
    5        0.414   0.203   9.178   9.795
    6        0.417   0.203   9.177   9.797
    7        0.417   0.203   9.177   9.797
    8        0.417   0.203   9.177   9.797
    9        0.417   0.203   9.177   9.798
   10        0.406   0.269   9.164   9.839
   11        0.406   0.269   9.166   9.842
   12        0.406   0.269   9.164   9.839
   13        0.406   0.269   9.166   9.842
   14        0.406   0.269   9.166   9.842
   15        0.405   0.269   9.166   9.840
   16        0.406   0.269   9.164   9.839
   17        0.405   0.270   9.166   9.840
   18        0.405   0.270   9.166   9.840
   19        0.403   0.267   9.167   9.837
   20        0.415   0.287   9.156   9.858
   21        0.415   0.287   9.156   9.858
   22        0.402   0.273   9.166   9.841
   23        0.415   0.287   9.156   9.858
   24        0.402   0.273   9.166   9.841
   25        0.403   0.267   9.167   9.837
   26        0.403   0.267   9.167   9.837
   27        0.402   0.273   9.166   9.841
   28        0.412   0.194   9.180   9.787
   29        0.417   0.203   9.175   9.795
   30        0.417   0.203   9.175   9.795
   31        0.416   0.203   9.175   9.794
   32        0.416   0.203   9.175   9.794
   33        0.417   0.203   9.175   9.794
   34        0.417   0.203   9.175   9.794
   35        0.411   0.195   9.181   9.787
   36        0.378   0.200   8.413   8.991
   37        1.373   2.469   0.000   3.842
   38        1.373   2.469   0.000   3.842
tot         17.507  13.472 329.379 360.357

  FORCE on cell =-STRESS in cart. coord.  units (eV):
  Direction    XX          YY          ZZ          XY          YZ          ZX
  Alpha Z   764.04638   764.04638   764.04638
  Ewald  117403.29920117081.67176************     0.00003     0.93927     0.00001
  Hartree127828.11476127713.26157************     0.00002     0.64338     0.00000
  E(xc)   -2125.24386 -2126.48487 -2131.98304    -0.00004     0.00028     0.00000
  Local  ************************255966.61142     0.00110    -1.58251    -0.00010
  n-local  -362.76213  -350.22759  -355.15459     2.43522     0.00057     0.17861
  augment  3398.40162  3398.10333  3407.53285    -0.00038     0.00083    -0.00002
  Kinetic  5020.32992  5038.41293  5064.75128     1.08289     0.00073     0.05812
  Fock        0.00000     0.00000     0.00000     0.00000     0.00000     0.00000
  Total      -9.49517    -9.48838    -0.78627    -0.00000     0.00254     0.00000
  in kB     -10.24815   -10.24082    -0.84863    -0.00000     0.00274     0.00000

 VOLUME and BASIS-vectors are now :
  energy-cutoff  :      500.00
  volume of cell :     1484.46
      direct lattice vectors                 reciprocal lattice vectors
     8.791366577  0.000000000  0.000000000     0.113747958 -0.065672414  0.000000000
     4.395683289  7.613546790  0.000000000     0.000000000  0.131344829  0.000000000
     0.000000000  0.000000000 22.178121567     0.000000000  0.000000000  0.045089481

  length of vectors
     8.791366577  8.791366577 22.178121567     0.131344829  0.131344829  0.045089481

 FORCES acting on ions
    electron-ion (+dipol)            ewald-force                    non-local-force                 convergence-correction
   0.459E-04 0.875E-02 0.251E+04   -.954E-04 -.847E-02 -.250E+04   -.626E-14 -.953E-03 -.192E+01   -.131E-03 0.475E-03 -.138E+00
   0.482E+00 0.546E+00 0.251E+04   -.579E+00 -.548E+00 -.250E+04   0.430E-01 -.112E-01 -.165E+01   0.506E-01 0.139E-01 -.980E-01
   -.482E+00 0.546E+00 0.251E+04   0.579E+00 -.548E+00 -.250E+04   -.430E-01 -.112E-01 -.165E+01   -.511E-01 0.159E-01 -.973E-01
   0.704E+00 0.133E+00 0.251E+04   -.757E+00 -.223E+00 -.250E+04   0.134E-01 0.426E-01 -.165E+01   0.387E-01 0.430E-01 -.979E-01
   -.746E-05 -.168E-01 0.251E+04   0.981E-04 0.897E-02 -.251E+04   -.110E-13 -.168E-02 -.165E+01   0.631E-02 0.963E-02 -.152E+00
   -.704E+00 0.133E+00 0.251E+04   0.757E+00 -.223E+00 -.250E+04   -.134E-01 0.426E-01 -.165E+01   -.402E-01 0.439E-01 -.970E-01
   0.227E+00 -.679E+00 0.251E+04   -.178E+00 0.771E+00 -.250E+04   -.314E-01 -.316E-01 -.165E+01   -.140E-01 -.576E-01 -.945E-01
   -.227E+00 -.679E+00 0.251E+04   0.178E+00 0.771E+00 -.250E+04   0.314E-01 -.316E-01 -.165E+01   0.156E-01 -.587E-01 -.942E-01
   0.359E-04 0.836E-02 0.251E+04   0.792E-04 -.448E-03 -.250E+04   0.139E-13 0.212E-02 -.172E+01   -.670E-02 -.100E-01 -.748E-01
   0.484E+01 0.280E+01 0.868E+03   -.466E+01 -.270E+01 -.867E+03   -.133E+00 -.764E-01 -.649E+00   -.347E-01 -.152E-01 0.486E-01
   -.300E-04 0.548E+01 0.877E+03   0.418E-04 -.553E+01 -.877E+03   0.792E-13 0.121E-01 -.506E+00   0.643E-02 0.227E-01 0.659E-01
   -.484E+01 0.280E+01 0.868E+03   0.466E+01 -.270E+01 -.867E+03   0.133E+00 -.764E-01 -.649E+00   0.328E-01 -.137E-01 0.492E-01
   0.474E+01 -.278E+01 0.877E+03   -.478E+01 0.279E+01 -.877E+03   0.113E-01 -.832E-02 -.506E+00   0.162E-01 0.409E-03 0.671E-01
   -.474E+01 -.278E+01 0.877E+03   0.478E+01 0.279E+01 -.877E+03   -.113E-01 -.832E-02 -.506E+00   -.518E-02 -.337E-03 0.673E-01
   0.161E-04 0.135E+01 0.869E+03   -.109E-03 -.134E+01 -.869E+03   0.336E-13 0.511E-02 -.613E+00   -.206E-02 -.281E-01 0.523E-01
   -.836E-05 -.556E+01 0.868E+03   0.208E-04 0.536E+01 -.867E+03   0.101E-11 0.154E+00 -.646E+00   0.333E-03 0.316E-01 0.496E-01
   0.120E+01 -.661E+00 0.869E+03   -.119E+01 0.661E+00 -.869E+03   0.502E-02 -.254E-02 -.608E+00   -.273E-01 0.603E-02 0.533E-01
   -.120E+01 -.661E+00 0.869E+03   0.119E+01 0.661E+00 -.869E+03   -.502E-02 -.254E-02 -.608E+00   0.272E-01 0.831E-02 0.537E-01
   0.433E-04 0.325E+01 -.804E+03   -.129E-03 -.324E+01 0.804E+03   -.627E-13 -.955E-02 0.536E+00   -.209E-02 -.596E-02 0.137E+00
   0.326E+02 0.187E+02 -.758E+03   -.321E+02 -.184E+02 0.759E+03   -.567E+00 -.327E+00 -.473E+00   0.250E-01 0.222E-01 0.603E-01
   -.326E+02 0.187E+02 -.758E+03   0.321E+02 -.184E+02 0.759E+03   0.567E+00 -.327E+00 -.473E+00   -.140E-01 0.234E-01 0.603E-01
   0.119E+02 -.701E+01 -.791E+03   -.121E+02 0.712E+01 0.791E+03   0.154E+00 -.912E-01 0.485E+00   0.104E-01 -.759E-02 0.137E+00
   -.618E-04 -.378E+02 -.759E+03   0.468E-04 0.372E+02 0.759E+03   0.427E-11 0.651E+00 -.472E+00   0.682E-02 -.216E-01 0.565E-01
   -.119E+02 -.701E+01 -.791E+03   0.121E+02 0.712E+01 0.791E+03   -.154E+00 -.912E-01 0.485E+00   -.121E-01 -.851E-02 0.138E+00
   -.290E+01 -.143E+01 -.804E+03   0.288E+01 0.142E+01 0.804E+03   0.968E-02 0.616E-02 0.535E+00   0.106E-01 0.296E-02 0.136E+00
   0.290E+01 -.143E+01 -.804E+03   -.288E+01 0.142E+01 0.804E+03   -.968E-02 0.616E-02 0.535E+00   -.108E-01 0.367E-03 0.136E+00
   0.204E-04 0.140E+02 -.791E+03   0.110E-03 -.142E+02 0.791E+03   0.117E-11 0.179E+00 0.486E+00   -.598E-03 0.756E-02 0.141E+00
   0.551E-04 0.124E+01 -.245E+04   -.115E-03 -.125E+01 0.244E+04   0.952E-14 0.145E-02 0.201E+01   -.126E-02 0.379E-02 0.154E+00
   0.228E+02 0.394E+02 -.244E+04   -.223E+02 -.386E+02 0.244E+04   -.453E+00 -.721E+00 0.186E+01   -.388E-01 -.112E+00 0.847E-01
   -.228E+02 0.394E+02 -.244E+04   0.223E+02 -.386E+02 0.244E+04   0.453E+00 -.721E+00 0.186E+01   0.489E-01 -.110E+00 0.844E-01
   0.445E+02 -.569E+00 -.244E+04   -.435E+02 0.585E+00 0.244E+04   -.848E+00 -.266E-01 0.189E+01   -.124E+00 0.121E-01 0.834E-01
   -.445E+02 -.569E+00 -.244E+04   0.435E+02 0.585E+00 0.244E+04   0.848E+00 -.266E-01 0.189E+01   0.123E+00 0.129E-01 0.822E-01
   0.211E+02 -.386E+02 -.244E+04   -.207E+02 0.378E+02 0.244E+04   -.403E+00 0.748E+00 0.186E+01   -.766E-01 0.999E-01 0.820E-01
   -.211E+02 -.386E+02 -.244E+04   0.207E+02 0.378E+02 0.244E+04   0.403E+00 0.748E+00 0.186E+01   0.886E-01 0.982E-01 0.811E-01
   0.236E-04 -.838E-02 -.245E+04   0.106E-03 0.151E-01 0.244E+04   0.223E-14 0.339E-03 0.203E+01   -.792E-02 -.624E-02 0.718E-01
   -.504E-04 -.134E+01 -.211E+04   0.957E-04 0.134E+01 0.211E+04   -.279E-13 -.425E-02 0.221E+01   0.985E-02 0.581E-02 0.175E+00
   0.241E+03 -.161E+00 -.843E+03   -.286E+03 0.165E+00 0.843E+03   0.456E+02 0.179E-04 0.136E-01   -.222E-02 -.322E-02 -.182E-01
   -.241E+03 -.161E+00 -.843E+03   0.286E+03 0.165E+00 0.843E+03   -.456E+02 0.179E-04 0.136E-01   0.119E-03 -.320E-02 -.183E-01
   0.512E-03 -.932E-02 -.474E-01   0.000E+00 -.111E-12 -.216E-11   -.853E-13 -.117E-01 -.132E+01   0.450E-01 0.230E-01 0.143E+01

 POSITION                                       TOTAL-FORCE (eV/Angst)
      0.00000      0.00000      5.28219        -0.000000     -0.000257      0.041678
      2.93046      0.00000      5.28219        -0.003477      0.001298      0.033063
      5.86091      0.00000      5.28219         0.003477      0.001298      0.033063
      1.46523      2.53785      5.28219        -0.000499     -0.003911      0.032838
      4.39568      2.53785      5.28219         0.000000      0.000061      0.026614
      7.32614      2.53785      5.28219         0.000499     -0.003911      0.032838
      2.93046      5.07570      5.28219         0.003241      0.002469      0.032970
      5.86091      5.07570      5.28219        -0.003241      0.002469      0.032970
      8.79137      5.07570      5.28219        -0.000000     -0.000045      0.033548
      1.46523      0.84595      7.67490         0.015712      0.009035     -0.011134
      4.39568      0.84595      7.67490        -0.000000     -0.013423     -0.058028
      7.32614      0.84595      7.67490        -0.015712      0.009035     -0.011134
      2.93046      3.38380      7.67490        -0.011644      0.007007     -0.058053
      5.86091      3.38380      7.67490         0.011644      0.007007     -0.058053
      8.79137      3.38380      7.67490        -0.000000     -0.010348     -0.018740
      4.39568      5.92165      7.67490        -0.000000     -0.018398     -0.010873
      7.32614      5.92165      7.67490        -0.009034      0.005124     -0.018243
     10.25659      5.92165      7.67490         0.009034      0.005124     -0.018243
      8.79137      1.69533     10.05818        -0.000000     -0.002320      0.001709
      2.93805      1.69629     10.04232         0.000984      0.000407      0.002299
      5.85331      1.69629     10.04232        -0.000984      0.000407      0.002299
     10.25424      4.23111     10.04634        -0.008500      0.004630     -0.000469
      4.39568      4.22098     10.04232        -0.000000     -0.001137      0.002236
      7.32849      4.23111     10.04634         0.008500      0.004630     -0.000469
     11.71886      6.76588     10.05818         0.001980      0.001265      0.000321
      5.86388      6.76588     10.05818        -0.001980      0.001265      0.000321
      8.79137      6.76488     10.04634        -0.000000     -0.009487     -0.001307
      0.00000      0.00000     12.42348        -0.000000     -0.001186     -0.001013
      2.96241      0.05505     12.41819         0.002826      0.000785     -0.010324
      5.82895      0.05505     12.41819        -0.002826      0.000785     -0.010324
      1.52888      2.53800     12.41819         0.003360      0.001352     -0.007915
      7.26249      2.53800     12.41819        -0.003360      0.001352     -0.007915
      2.96215      5.02050     12.41819         0.000379     -0.002409     -0.009880
      5.82922      5.02050     12.41819        -0.000379     -0.002409     -0.009880
      8.79137      5.07570     12.42030         0.000000      0.000802      0.001834
      4.39568      2.53785     12.13895         0.000000      0.000383      0.010501
      3.83882      2.42014     16.41717         0.000924      0.000626      0.000447
      4.95255      2.42014     16.41717        -0.000924      0.000626      0.000447
    total drift:                                0.045562      0.002033      0.059649

  FREE ENERGIE OF THE ION-ELECTRON SYSTEM (eV)
  free  energy   TOTEN  =      -110.11593783 eV

  energy  without entropy=     -110.11593783  energy(sigma->0) =     -110.11593783

 stress matrix after NEB project (eV)
     -9.49517     -0.00000      0.00000
     -0.00000     -9.48838      0.00254
      0.00000      0.00254     -0.78627
  FORCES: max atom, RMS     0.001202    0.000276
  FORCE total and by dimension    0.001700    0.000924
  Stress total and by dimension   13.446411    9.495175
|           W    W    AA    RRRRR   N    N  II  N    N   GGGG   !!!           |
|           W    W   A  A   R    R  NN   N  II  NN   N  G    G  !!!           |
|           W    W  A    A  R    R  N N  N  II  N N  N  G       !!!           |
|           W WW W  AAAAAA  RRRRR   N  N N  II  N  N N  G  GGG   !            |
|           WW  WW  A    A  R   R   N   NN  II  N   NN  G    G                |
|           W    W  A    A  R    R  N    N  II  N    N   GGGG   !!!           |
|     Tetrahedron method does not include variations of the Fermi             |
|     occupations, so forces and stress will be inaccurate. We suggest        |
|     using a different smearing scheme ISMEAR = 1 or 2 for metals in         |
|     relaxations.                                                            |

 total charge

# of ion       s       p       d       tot
    1        0.415   0.204   9.177   9.796
    2        0.417   0.203   9.177   9.797
    3        0.417   0.203   9.177   9.797
    4        0.417   0.203   9.177   9.797
    5        0.414   0.203   9.178   9.795
    6        0.417   0.203   9.177   9.797
    7        0.417   0.203   9.177   9.797
    8        0.417   0.203   9.177   9.797
    9        0.417   0.203   9.177   9.798
   10        0.406   0.269   9.164   9.839
   11        0.406   0.269   9.166   9.842
   12        0.406   0.269   9.164   9.839
   13        0.406   0.269   9.166   9.842
   14        0.406   0.269   9.166   9.842
   15        0.405   0.269   9.166   9.840
   16        0.406   0.269   9.164   9.839
   17        0.405   0.270   9.166   9.840
   18        0.405   0.270   9.166   9.840
   19        0.403   0.267   9.167   9.837
   20        0.415   0.287   9.156   9.858
   21        0.415   0.287   9.156   9.858
   22        0.402   0.273   9.166   9.841
   23        0.415   0.287   9.156   9.858
   24        0.402   0.273   9.166   9.841
   25        0.403   0.267   9.167   9.837
   26        0.403   0.267   9.167   9.837
   27        0.402   0.273   9.166   9.841
   28        0.412   0.194   9.180   9.787
   29        0.417   0.203   9.175   9.795
   30        0.417   0.203   9.175   9.795
   31        0.416   0.203   9.175   9.794
   32        0.416   0.203   9.175   9.794
   33        0.417   0.203   9.175   9.794
   34        0.417   0.203   9.175   9.794
   35        0.411   0.195   9.181   9.787
   36        0.378   0.200   8.413   8.991
   37        1.373   2.469   0.000   3.842
   38        1.373   2.469   0.000   3.842
tot         17.507  13.472 329.379 360.357

 BZINTS: Fermi energy:    0.903662;  405.000000 electrons
         Band energy:-0.131336E+04;  BLOECHL correction:   -0.075888