 vasp.6.2.0 18Jan21 (build Jun 12 2021 23:27:24) complex

 executed on             LinuxIFC date 2022.05.30  17:46:02

 INCAR:
   ISMEAR = -5
   SIGMA = 0.1
   ISPIN = 1
   EDIFF = 1.d-5
   EDIFFG = -0.01
   NSW = 0
   NELM = 150
   ENCUT = 500
   ISIF = 2
   IBRION = 2
   LREAL = Auto
   ALGO = Fast
   ICHARG = 11
   LORBIT = 10
   LCHARG = .F.
   LWAVE = .F.

 POTCAR:    PAW_PBE Ag 02Apr2005
 POTCAR:    PAW_PBE Ir 06Sep2000
 POTCAR:    PAW_PBE O 08Apr2002
|           W    W    AA    RRRRR   N    N  II  N    N   GGGG   !!!           |
|           W    W   A  A   R    R  NN   N  II  NN   N  G    G  !!!           |
|           W    W  A    A  R    R  N N  N  II  N N  N  G       !!!           |
|           W WW W  AAAAAA  RRRRR   N  N N  II  N  N N  G  GGG   !            |
|           WW  WW  A    A  R   R   N   NN  II  N   NN  G    G                |
|           W    W  A    A  R    R  N    N  II  N    N   GGGG   !!!           |
|     For optimal performance we recommend to set                             |
|       NCORE = 2 up to number-of-cores-per-socket                            |
|     This setting can greatly improve the performance of VASP for DFT.       |
|     The default, NCORE=1 might be grossly inefficient on modern             |
|     multi-core architectures or massively parallel machines. Do your        |
|     Unfortunately you need to use the default for GW and RPA                |
|     calculations (for HF NCORE is supported but not extensively tested      |
|     yet).                                                                   |

 POTCAR:    PAW_PBE Ag 02Apr2005
   VRHFIN =Ag : s1 d10

   TITEL  = PAW_PBE Ag 02Apr2005
   POMASS =  107.868; ZVAL   =   11.000    mass and valenz
   ENMAX  =  249.844; ENMIN  =  187.383 eV

 POTCAR:    PAW_PBE Ir 06Sep2000
   VRHFIN =Ir: s1d8

   TITEL  = PAW_PBE Ir 06Sep2000
   POMASS =  192.220; ZVAL   =    9.000    mass and valenz
   ENMAX  =  210.864; ENMIN  =  158.148 eV

 POTCAR:    PAW_PBE O 08Apr2002
   VRHFIN =O: s2p4

   TITEL  = PAW_PBE O 08Apr2002
   POMASS =   16.000; ZVAL   =    6.000    mass and valenz
   ENMAX  =  400.000; ENMIN  =  300.000 eV

 Optimization of the real space projectors (new method)

 maximal supplied QI-value         = 15.12
 optimisation between [QCUT,QGAM] = [ 11.34, 22.83] = [ 36.00,145.93] Ry
 Optimized for a Real-space Cutoff    1.43 Angstroem

   l    n(q)    QCUT    max X(q) W(low)/X(q) W(high)/X(q)  e(spline)
   2      9    11.338    53.897    0.16E-03    0.20E-03    0.28E-06
   2      9    11.338    52.416    0.16E-03    0.20E-03    0.29E-06
   0     10    11.338   122.045    0.31E-04    0.76E-04    0.15E-06
   0     10    11.338    73.629    0.30E-04    0.72E-04    0.15E-06
   1      9    11.338    15.255    0.20E-03    0.19E-04    0.17E-06
   1      9    11.338     9.562    0.16E-03    0.15E-04    0.14E-06
 Optimization of the real space projectors (new method)

[...]

   l    n(q)    QCUT    max X(q) W(low)/X(q) W(high)/X(q)  e(spline)
   2      9    11.346   134.116    0.47E-03    0.13E-03    0.92E-06
   2      9    11.346   130.192    0.47E-03    0.13E-03    0.92E-06
   0     10    11.346    60.310    0.74E-04    0.13E-03    0.69E-06
   0     10    11.346    39.218    0.68E-04    0.12E-03    0.65E-06
   1     10    11.346    18.439    0.15E-03    0.34E-04    0.20E-06
   1     10    11.346    12.760    0.12E-03    0.31E-04    0.16E-06
 Optimization of the real space projectors (new method)

 maximal supplied QI-value         = 24.76
 optimisation between [QCUT,QGAM] = [ 11.39, 22.77] = [ 36.31,145.25] Ry
 Optimized for a Real-space Cutoff    1.00 Angstroem

   l    n(q)    QCUT    max X(q) W(low)/X(q) W(high)/X(q)  e(spline)
   0      7    11.387    20.381    0.39E-03    0.13E-02    0.15E-06
   0      7    11.387    15.268    0.42E-03    0.14E-02    0.17E-06
   1      6    11.387     5.964    0.41E-03    0.11E-02    0.17E-06
   1      6    11.387     5.382    0.39E-03    0.87E-03    0.15E-06
  PAW_PBE Ag 02Apr2005                  :
  PAW_PBE Ir 06Sep2000                  :
  PAW_PBE O 08Apr2002                   :

 POSCAR: Ag-Ir-O2
  positions in direct lattice
  velocities in cartesian coordinates
 exchange correlation table for  LEXCH =        8
   RHO(1)=    0.500       N(1)  =     2000
   RHO(2)=  100.500       N(2)  =     4000

 VTST: version 3.2, (02/03/18)

 CHAIN: initializing optimizer

 OPT: Using VASP Conjugate-Gradient optimizer
 CHAIN: Read ICHAIN            0

 POSCAR: Ag-Ir-O2
  positions in direct lattice
  velocities in cartesian coordinates

 ion  position               nearest neighbor table
   1  0.000  0.000  0.217-   2 2.93   8 2.93   7 2.93   6 2.93   4 2.93  12 2.93  16 2.93  10 2.93
                             3 2.93
   2  0.333  0.000  0.217-   1 2.93   8 2.93   9 2.93   3 2.93   4 2.93   5 2.93  10 2.93  17 2.93
                            11 2.93
   3  0.667  0.000  0.217-   9 2.93   2 2.93   5 2.93  11 2.93   7 2.93  18 2.93   1 2.93   6 2.93
                            12 2.93
   4  0.000  0.333  0.217-   5 2.93   6 2.93   2 2.93   1 2.93   7 2.93  13 2.93  15 2.93   9 2.93
                            10 2.93
   5  0.333  0.333  0.217-   4 2.93   3 2.93   7 2.93   2 2.93   8 2.93  14 2.93  13 2.93  11 2.93
                             6 2.93
   6  0.667  0.333  0.217-   4 2.93   9 2.93   1 2.93  15 2.93   8 2.93  12 2.93   3 2.93   5 2.93
                            14 2.93
   7  0.000  0.667  0.217-   8 2.93   1 2.93   5 2.93   3 2.93   4 2.93  16 2.93  18 2.93  13 2.93
                             9 2.93
   8  0.333  0.667  0.217-   7 2.93   1 2.93   2 2.93   9 2.93   5 2.93  16 2.93   6 2.93  17 2.93
                            14 2.93
   9  0.667  0.667  0.217-   3 2.93   2 2.93   8 2.93   6 2.93  17 2.93   4 2.93  15 2.93   7 2.93
                            18 2.93
  10  0.111  0.111  0.315-  20 2.89  12 2.93  16 2.93  15 2.93  17 2.93  13 2.93  11 2.93   2 2.93
                             1 2.93   4 2.93  19 2.93  26 2.93
  11  0.444  0.111  0.315-  21 2.90  20 2.90  27 2.92  14 2.93  17 2.93  18 2.93   3 2.93  12 2.93
                            13 2.93  10 2.93   5 2.93   2 2.93
  12  0.778  0.111  0.315-  21 2.89  10 2.93  16 2.93  18 2.93  15 2.93  11 2.93   1 2.93  14 2.93
                             6 2.93   3 2.93  25 2.93  19 2.93
  13  0.111  0.444  0.315-  20 2.90  23 2.90  22 2.92  15 2.93  14 2.93  18 2.93  10 2.93  11 2.93
                            16 2.93   4 2.93   5 2.93   7 2.93
  14  0.444  0.444  0.315-  23 2.90  21 2.90  24 2.92  13 2.93  11 2.93  16 2.93   5 2.93  12 2.93
                            17 2.93   8 2.93  15 2.93   6 2.93
  15  0.778  0.444  0.315-  24 2.92  22 2.92  19 2.93  13 2.93  10 2.93  12 2.93  17 2.93  18 2.93
                             4 2.93   6 2.93   9 2.93  14 2.93
  16  0.111  0.778  0.315-  23 2.89  18 2.93  12 2.93  10 2.93  14 2.93  17 2.93  13 2.93   7 2.93
                             8 2.93   1 2.93  26 2.93  25 2.93
  17  0.444  0.778  0.315-  27 2.92  24 2.92  26 2.93  11 2.93  10 2.93   9 2.93  18 2.93  15 2.93
                            16 2.93   2 2.93  14 2.93   8 2.93
  18  0.778  0.778  0.315-  22 2.92  27 2.92  25 2.93  16 2.93  12 2.93  13 2.93  11 2.93  17 2.93
                            15 2.93   7 2.93   3 2.93   9 2.93
  19  0.888  0.223  0.413-  28 2.90  24 2.92  22 2.92  15 2.93  20 2.93  21 2.93  10 2.93  12 2.93
                            32 2.94  31 2.94  26 2.94  25 2.94
  20  0.222  0.222  0.411-  36 2.77  10 2.89  13 2.90  11 2.90  31 2.92  29 2.92  19 2.93  26 2.93
                            27 2.93  22 2.93  21 2.94  23 2.94
  21  0.556  0.222  0.411-  36 2.77  12 2.89  11 2.90  14 2.90  30 2.92  32 2.92  25 2.93  19 2.93
                            27 2.93  24 2.93  20 2.94  23 2.94
  22  0.888  0.556  0.413-  35 2.90  18 2.92  15 2.92  13 2.92  24 2.92  27 2.92  25 2.92  19 2.92
                            33 2.93  31 2.93  23 2.93  20 2.93
  23  0.222  0.556  0.411-  36 2.77  16 2.89  14 2.90  13 2.90  34 2.92  33 2.92  26 2.93  25 2.93
                            22 2.93  24 2.93  21 2.94  20 2.94
  24  0.556  0.556  0.413-  35 2.90  15 2.92  17 2.92  14 2.92  27 2.92  22 2.92  19 2.92  26 2.92
                            32 2.93  34 2.93  23 2.93  21 2.93
  25  0.888  0.888  0.413-  28 2.90  22 2.92  27 2.92  18 2.93  23 2.93  21 2.93  16 2.93  12 2.93
                            33 2.94  30 2.94  26 2.94  19 2.94
  26  0.223  0.888  0.413-  28 2.90  27 2.92  24 2.92  17 2.93  23 2.93  20 2.93  16 2.93  10 2.93
                            34 2.94  29 2.94  25 2.94  19 2.94
  27  0.556  0.888  0.413-  35 2.90  17 2.92  18 2.92  11 2.92  24 2.92  22 2.92  26 2.92  25 2.92
                            29 2.93  30 2.93  20 2.93  21 2.93
  28  0.000  0.000  0.510-  26 2.90  25 2.90  19 2.90  29 2.96  34 2.96  33 2.96  32 2.96  31 2.96
                            30 2.96
  29  0.333  0.007  0.511-  31 2.87  30 2.88  36 2.88  20 2.92  27 2.93  26 2.94  28 2.96  35 2.96
                            34 3.04
  30  0.660  0.007  0.511-  32 2.87  29 2.88  36 2.88  21 2.92  27 2.93  25 2.94  28 2.96  35 2.96
                            33 3.04
  31  0.007  0.333  0.511-  37 2.77  29 2.87  33 2.88  36 2.88  20 2.92  22 2.93  19 2.94  28 2.96
                            35 2.96  32 3.04
  32  0.660  0.333  0.511-  38 2.77  30 2.87  34 2.88  36 2.88  21 2.92  24 2.93  19 2.94  28 2.96
                            35 2.96  31 3.04
  33  0.007  0.660  0.511-  34 2.87  31 2.88  36 2.88  23 2.92  22 2.93  25 2.94  28 2.96  35 2.96
                            30 3.04
  34  0.333  0.660  0.511-  33 2.87  32 2.88  36 2.88  23 2.92  24 2.93  26 2.94  28 2.96  35 2.96
                            29 3.04
  35  0.667  0.667  0.509-  24 2.90  27 2.90  22 2.90  30 2.96  32 2.96  29 2.96  34 2.96  31 2.96
                            33 2.96
  36  0.333  0.333  0.501-  38 2.07  37 2.07  21 2.77  20 2.77  23 2.77  31 2.88  30 2.88  33 2.88
                            29 2.88  34 2.88  32 2.88
  37  0.255  0.330  0.581-  38 1.41  36 2.07  31 2.77
  38  0.415  0.330  0.581-  37 1.41  36 2.07  32 2.77

  LATTYP: Found a hexagonal cell.
 ALAT       =     8.7913665772
 C/A-ratio  =     2.7711238095

  Lattice vectors:

 A1 = (  -4.3956832886,  -7.6135467898,   0.0000000000)
 A2 = (   8.7913665771,   0.0000000000,   0.0000000000)
 A3 = (   0.0000000000,   0.0000000000,  24.3619652401)

Analysis of symmetry for initial positions (statically):
 Subroutine PRICEL returns:
 Original cell was already a primitive cell.

 Routine SETGRP: Setting up the symmetry group for a
 hexagonal supercell.

 Subroutine GETGRP returns: Found  2 space group operations
 (whereof  2 operations were pure point group operations)
 out of a pool of 24 trial point group operations.

The static configuration has the point symmetry C_1h.

Analysis of symmetry for dynamics (positions and initial velocities):
 Subroutine PRICEL returns:
 Original cell was already a primitive cell.

[...]

The dynamic configuration has the point symmetry C_1h.

Analysis of constrained symmetry for selective dynamics:
 Subroutine PRICEL returns:
 Original cell was already a primitive cell.

 Routine SETGRP: Setting up the symmetry group for a
[...]
     33      -5.0690      2.00000
     34      -5.0562      2.00000
     35      -5.0405      2.00000
     36      -5.0252      2.00000
     37      -4.9854      2.00000
     38      -4.9684      2.00000
     39      -4.9382      2.00000
     40      -4.9205      2.00000
     41      -4.9087      2.00000
     42      -4.8700      2.00000
     43      -4.8429      2.00000
     44      -4.8386      2.00000
     45      -4.8242      2.00000
     46      -4.8149      2.00000
     47      -4.7860      2.00000
     48      -4.7241      2.00000
     49      -4.6983      2.00000
     50      -4.6858      2.00000
     51      -4.6740      2.00000
     52      -4.6731      2.00000
     53      -4.6670      2.00000
     54      -4.6543      2.00000
     55      -4.6516      2.00000
     56      -4.6459      2.00000
     57      -4.6318      2.00000
     58      -4.5548      2.00000
     59      -4.5497      2.00000
     60      -4.5481      2.00000
[...]
    238       5.5772      0.00000
    239       5.6796      0.00000
    240       5.7367      0.00000
    241       5.8340      0.00000
    242       5.9253      0.00000
    243       5.9387      0.00000
    244       6.2027      0.00000
    245       6.4364      0.00000
    246       6.4890      0.00000
    247       6.6200      0.00000
    248       6.6797      0.00000
    249       6.7298      0.00000
    250       6.7633      0.00000
    251       6.8129      0.00000
    252       6.8779      0.00000

 soft charge-density along one line, spin component           1
         0         1         2         3         4         5         6         7         8         9
 total charge-density along one line

------------------------ aborting loop because EDIFF is reached ----------------------------------------

 total charge

# of ion       s       p       d       tot
    1        0.417   0.202   9.177   9.796
    2        0.418   0.202   9.178   9.797
    3        0.418   0.202   9.178   9.797
    4        0.418   0.203   9.177   9.798
    5        0.416   0.204   9.175   9.796
    6        0.418   0.203   9.177   9.798
    7        0.418   0.203   9.177   9.797
    8        0.418   0.203   9.177   9.797
    9        0.413   0.203   9.178   9.795
   10        0.407   0.269   9.162   9.838
   11        0.409   0.267   9.168   9.844
   12        0.407   0.269   9.162   9.838
   13        0.409   0.268   9.168   9.844
   14        0.409   0.268   9.168   9.844
   15        0.400   0.272   9.164   9.835
   16        0.406   0.269   9.163   9.839
   17        0.400   0.270   9.166   9.836
   18        0.400   0.270   9.166   9.836
   19        0.400   0.266   9.170   9.836
   20        0.424   0.298   9.146   9.868
   21        0.424   0.298   9.146   9.868
   22        0.396   0.274   9.167   9.837
   23        0.416   0.304   9.147   9.868
   24        0.396   0.274   9.167   9.837
   25        0.402   0.267   9.166   9.835
   26        0.402   0.267   9.166   9.835
   27        0.396   0.272   9.169   9.837
   28        0.417   0.194   9.182   9.793
   29        0.402   0.208   9.185   9.795
   30        0.402   0.208   9.185   9.795
   31        0.396   0.211   9.188   9.795
   32        0.396   0.211   9.188   9.795
   33        0.401   0.208   9.186   9.795
   34        0.401   0.208   9.186   9.795
   35        0.412   0.196   9.183   9.791
   36        0.578   0.482   7.008   8.068
   37        1.605   3.257   0.000   4.862
   38        1.605   3.257   0.000   4.862
tot         18.070  15.408 328.016 361.494

  FORCE on cell =-STRESS in cart. coord.  units (eV):
  Direction    XX          YY          ZZ          XY          YZ          ZX
  Alpha Z   716.92143   716.92143   716.92143
  Ewald  155234.61709154832.29915************     0.00006    -0.64023     0.00008
  Hartree165289.83033165092.78363************     0.00003     0.56938     0.00003
  E(xc)   -2129.02941 -2130.33628 -2134.31291    -0.00002    -0.04739     0.00000
  Local  ************************331371.07548     0.00112    -0.40154    -0.00022
  n-local  -374.47022  -382.74723  -383.49619     2.23153    -0.02501     0.10886
  augment  3269.05759  3277.83955  3278.40999    -0.00013     0.14057     0.00001
  Kinetic  5120.38547  5181.77631  5159.65856     1.20195     0.58509    -0.03108
  Fock        0.00000     0.00000     0.00000     0.00000     0.00000     0.00000
  Total      -5.27340    -6.19240    -0.35695    -0.00000     0.18087     0.00000
  in kB      -5.18138    -6.08434    -0.35072    -0.00000     0.17772     0.00000

 VOLUME and BASIS-vectors are now :
  energy-cutoff  :      500.00
  volume of cell :     1630.63
      direct lattice vectors                 reciprocal lattice vectors
     8.791366577  0.000000000  0.000000000     0.113747958 -0.065672414  0.000000000
     4.395683289  7.613546790  0.000000000     0.000000000  0.131344829  0.000000000
     0.000000000  0.000000000 24.361965240     0.000000000  0.000000000  0.041047592

  length of vectors
     8.791366577  8.791366577 24.361965240     0.131344829  0.131344829  0.041047592

 FORCES acting on ions
    electron-ion (+dipol)            ewald-force                    non-local-force                 convergence-correction
   0.461E-04 0.147E-01 0.272E+04   -.954E-04 -.291E-01 -.271E+04   0.689E-13 0.105E-01 -.246E+01   -.126E-03 0.738E-02 -.186E+00
   0.629E+00 0.742E+00 0.272E+04   -.648E+00 -.712E+00 -.271E+04   0.469E-02 0.822E-02 -.164E+01   0.210E-01 -.202E-01 -.166E+00
   -.629E+00 0.742E+00 0.272E+04   0.649E+00 -.712E+00 -.271E+04   -.469E-02 0.822E-02 -.164E+01   -.216E-01 -.183E-01 -.165E+00
   0.755E+00 0.162E+00 0.272E+04   -.916E+00 -.213E+00 -.271E+04   0.122E+00 0.237E-01 -.167E+01   0.478E-01 0.226E-01 -.232E+00
   -.765E-05 0.107E+00 0.272E+04   0.981E-04 0.810E-02 -.272E+04   -.377E-12 -.574E-01 -.149E+01   0.630E-02 -.533E-01 -.162E+00
   -.755E+00 0.162E+00 0.272E+04   0.916E+00 -.213E+00 -.271E+04   -.122E+00 0.237E-01 -.167E+01   -.492E-01 0.236E-01 -.231E+00
   0.428E+00 -.911E+00 0.272E+04   -.267E+00 0.924E+00 -.271E+04   -.448E-01 -.347E-01 -.168E+01   -.914E-01 0.605E-02 -.207E+00
   -.428E+00 -.911E+00 0.272E+04   0.266E+00 0.924E+00 -.271E+04   0.448E-01 -.347E-01 -.168E+01   0.931E-01 0.501E-02 -.206E+00
   0.363E-04 -.921E-01 0.272E+04   0.792E-04 0.212E-01 -.271E+04   0.220E-12 0.335E-01 -.207E+01   -.670E-02 0.294E-01 -.214E+00
   0.785E+01 0.474E+01 0.964E+03   -.733E+01 -.443E+01 -.963E+03   -.521E+00 -.279E+00 -.883E+00   0.229E-01 -.255E-01 -.229E+00
   -.268E-04 0.677E+01 0.973E+03   0.412E-04 -.684E+01 -.973E+03   0.359E-12 0.546E-01 -.443E+00   0.644E-02 -.451E-01 -.270E+00
   -.785E+01 0.474E+01 0.964E+03   0.733E+01 -.443E+01 -.963E+03   0.521E+00 -.279E+00 -.883E+00   -.247E-01 -.240E-01 -.228E+00
   0.563E+01 -.343E+01 0.973E+03   -.574E+01 0.350E+01 -.973E+03   0.691E-01 -.310E-01 -.381E+00   -.101E-01 -.138E-01 -.230E+00
   -.563E+01 -.343E+01 0.973E+03   0.574E+01 0.350E+01 -.973E+03   -.691E-01 -.310E-01 -.381E+00   0.212E-01 -.145E-01 -.230E+00
   0.163E-04 0.117E+01 0.965E+03   -.109E-03 -.123E+01 -.964E+03   0.153E-12 0.233E-01 -.785E+00   -.196E-02 0.225E-01 -.296E+00
   -.823E-05 -.902E+01 0.964E+03   0.205E-04 0.847E+01 -.963E+03   0.328E-11 0.499E+00 -.941E+00   0.385E-03 0.234E-01 -.227E+00
   0.116E+01 -.777E+00 0.964E+03   -.121E+01 0.721E+00 -.963E+03   0.592E-02 0.199E-01 -.634E+00   0.268E-01 0.478E-01 -.282E+00
   -.116E+01 -.777E+00 0.964E+03   0.121E+01 0.721E+00 -.963E+03   -.592E-02 0.199E-01 -.634E+00   -.269E-01 0.500E-01 -.282E+00
   0.414E-04 0.582E+01 -.826E+03   -.131E-03 -.586E+01 0.826E+03   0.727E-12 0.111E+00 0.713E+00   -.637E-02 -.877E-01 -.312E+00
   0.225E+02 0.141E+02 -.764E+03   -.212E+02 -.132E+02 0.766E+03   -.117E+01 -.838E+00 -.142E+01   -.255E-01 -.423E-02 -.430E+00
   -.225E+02 0.141E+02 -.764E+03   0.212E+02 -.132E+02 0.766E+03   0.117E+01 -.838E+00 -.142E+01   0.271E-01 -.309E-02 -.430E+00
   0.101E+02 -.725E+01 -.810E+03   -.104E+02 0.742E+01 0.810E+03   0.317E+00 -.201E+00 0.665E+00   0.205E-02 0.763E-02 -.332E+00
   -.504E-04 -.278E+02 -.767E+03   0.451E-04 0.263E+02 0.768E+03   0.893E-11 0.136E+01 -.110E+01   0.216E-02 0.143E-01 -.378E+00
   -.101E+02 -.725E+01 -.810E+03   0.104E+02 0.742E+01 0.810E+03   -.317E+00 -.201E+00 0.665E+00   -.126E-01 0.667E-02 -.332E+00
   -.475E+01 -.181E+01 -.828E+03   0.463E+01 0.177E+01 0.828E+03   0.497E-01 0.158E-01 0.641E+00   0.718E-01 0.298E-01 -.302E+00
   0.475E+01 -.181E+01 -.828E+03   -.463E+01 0.177E+01 0.828E+03   -.497E-01 0.158E-01 0.641E+00   -.812E-01 0.277E-01 -.302E+00
   0.198E-04 0.121E+02 -.812E+03   0.110E-03 -.125E+02 0.811E+03   0.264E-11 0.402E+00 0.714E+00   -.504E-02 -.283E-01 -.337E+00
   0.543E-04 0.585E+01 -.261E+04   -.117E-03 -.575E+01 0.261E+04   -.671E-12 -.102E+00 0.197E+01   -.117E-04 -.876E-02 -.129E+00
   0.452E+02 0.931E+02 -.258E+04   -.447E+02 -.930E+02 0.257E+04   -.397E+00 -.615E-01 0.246E+01   -.224E+00 -.330E+00 -.311E+00
   -.452E+02 0.931E+02 -.258E+04   0.447E+02 -.930E+02 0.257E+04   0.397E+00 -.615E-01 0.246E+01   0.223E+00 -.328E+00 -.311E+00
   0.111E+03 -.194E+01 -.256E+04   -.111E+03 0.211E+01 0.256E+04   -.272E-01 -.119E+00 0.276E+01   -.362E+00 -.219E-01 -.278E+00
   -.111E+03 -.194E+01 -.256E+04   0.111E+03 0.211E+01 0.256E+04   0.272E-01 -.119E+00 0.276E+01   0.361E+00 -.211E-01 -.279E+00
   0.439E+02 -.895E+02 -.258E+04   -.436E+02 0.892E+02 0.258E+04   -.276E+00 0.220E+00 0.241E+01   -.169E+00 0.340E+00 -.307E+00
   -.439E+02 -.895E+02 -.258E+04   0.436E+02 0.892E+02 0.258E+04   0.276E+00 0.220E+00 0.241E+01   0.171E+00 0.339E+00 -.308E+00
   0.192E-04 -.459E+01 -.260E+04   0.108E-03 0.442E+01 0.260E+04   0.112E-11 0.171E+00 0.207E+01   -.667E-02 -.217E-02 -.132E+00
   -.166E-04 -.469E+01 -.176E+04   0.867E-04 0.470E+01 0.176E+04   0.662E-12 0.101E+00 0.286E+01   0.230E-02 0.202E-01 -.954E+00
   0.220E+03 -.394E-01 -.175E+04   -.254E+03 0.641E-01 0.176E+04   0.347E+02 -.221E-01 -.172E+02   -.417E+00 -.613E-02 0.288E-01
   -.220E+03 -.395E-01 -.175E+04   0.254E+03 0.640E-01 0.176E+04   -.347E+02 -.221E-01 -.172E+02   0.417E+00 -.604E-02 0.282E-01
   0.692E-03 0.707E-01 0.442E+02   0.568E-13 -.256E-12 0.000E+00   0.711E-13 0.982E-02 -.341E+02   -.178E-01 -.389E-01 -.101E+02

 POSITION                                       TOTAL-FORCE (eV/Angst)
      0.00000      0.00000      5.28219         0.000000      0.002338      0.026302
      2.93046      0.00000      5.28219         0.006711      0.018416      0.034818
      5.86091      0.00000      5.28219        -0.006711      0.018416      0.034818
      1.46523      2.53785      5.28219         0.009648     -0.004856      0.039837
      4.39568      2.53785      5.28219         0.000000      0.003051      0.020489
      7.32614      2.53785      5.28219        -0.009648     -0.004856      0.039837
      2.93046      5.07570      5.28219         0.024545     -0.017258      0.043148
      5.86091      5.07570      5.28219        -0.024545     -0.017258      0.043148
      8.79137      5.07570      5.28219        -0.000000     -0.009016      0.036230
      1.46523      0.84595      7.67490         0.017093      0.005277     -0.005516
      4.39568      0.84595      7.67490        -0.000000     -0.054724     -0.113966
      7.32614      0.84595      7.67490        -0.017093      0.005277     -0.005516
      2.93046      3.38380      7.67490        -0.049039      0.020914     -0.113614
      5.86091      3.38380      7.67490         0.049039      0.020914     -0.113614
      8.79137      3.38380      7.67490        -0.000000     -0.012728      0.002188
      4.39568      5.92165      7.67490        -0.000000     -0.031345      0.006096
      7.32614      5.92165      7.67490        -0.020612      0.012310      0.008644
     10.25659      5.92165      7.67490         0.020612      0.012310      0.008644
      8.79137      1.70006     10.06849        -0.000000     -0.012975      0.008883
      2.92657      1.68966     10.02287         0.018918      0.023444     -0.058619
      5.86479      1.68966     10.02287        -0.018918      0.023444     -0.058619
     10.25237      4.23218     10.05185         0.043592     -0.029020      0.011433
      4.39568      4.23423     10.02287        -0.000000     -0.085977     -0.077063
      7.33036      4.23218     10.05185        -0.043592     -0.029020      0.011433
     11.71475      6.76352     10.06849         0.012712      0.004177      0.002282
      5.86798      6.76352     10.06849        -0.012712      0.004177      0.002282
      8.79137      6.76272     10.05185         0.000000      0.010293      0.003596
      0.00000      0.00000     12.42216        -0.000000     -0.016802      0.024484
      2.95716      0.04978     12.43839        -0.131850     -0.259967     -0.098689
      5.83420      0.04978     12.43839         0.131850     -0.259967     -0.098689
      1.52169      2.53609     12.43839        -0.482103      0.024727     -0.247288
      7.26967      2.53609     12.43839         0.482103      0.024727     -0.247288
      2.96021      5.02768     12.43839        -0.151798      0.242578     -0.084429
      5.83115      5.02768     12.43839         0.151798      0.242578     -0.084429
      8.79137      5.07570     12.41166         0.000000      0.004014      0.036528
      4.39568      2.53785     12.21369         0.000000      0.131815      1.032357
      3.69056      2.50906     14.16321        -0.099979     -0.004715     -0.035067
      5.10081      2.50906     14.16321         0.099979     -0.004715     -0.035067
    total drift:                               -0.017134      0.041651     -0.124276

  FREE ENERGIE OF THE ION-ELECTRON SYSTEM (eV)
  free  energy   TOTEN  =      -106.54662283 eV

  energy  without entropy=     -106.54662283  energy(sigma->0) =     -106.54662283

 stress matrix after NEB project (eV)
     -5.27340     -0.00000      0.00000
     -0.00000     -6.19240      0.18087
      0.00000      0.18087     -0.35695
  FORCES: max atom, RMS     0.106055    0.024331
  FORCE total and by dimension    0.149985    0.099979
  Stress total and by dimension    8.145389    6.192396
|           W    W    AA    RRRRR   N    N  II  N    N   GGGG   !!!           |
|           W    W   A  A   R    R  NN   N  II  NN   N  G    G  !!!           |
|           W    W  A    A  R    R  N N  N  II  N N  N  G       !!!           |
|           W WW W  AAAAAA  RRRRR   N  N N  II  N  N N  G  GGG   !            |
|           WW  WW  A    A  R   R   N   NN  II  N   NN  G    G                |
|           W    W  A    A  R    R  N    N  II  N    N   GGGG   !!!           |
|     Tetrahedron method does not include variations of the Fermi             |
|     occupations, so forces and stress will be inaccurate. We suggest        |
|     using a different smearing scheme ISMEAR = 1 or 2 for metals in         |
|     relaxations.                                                            |

 total charge

# of ion       s       p       d       tot
    1        0.417   0.202   9.177   9.796
    2        0.418   0.202   9.178   9.797
    3        0.418   0.202   9.178   9.797
    4        0.418   0.203   9.177   9.798
    5        0.416   0.204   9.175   9.796
    6        0.418   0.203   9.177   9.798
    7        0.418   0.203   9.177   9.797
    8        0.418   0.203   9.177   9.797
    9        0.413   0.203   9.178   9.795
   10        0.407   0.269   9.162   9.838
   11        0.409   0.267   9.168   9.844
   12        0.407   0.269   9.162   9.838
   13        0.409   0.268   9.168   9.844
   14        0.409   0.268   9.168   9.844
   15        0.400   0.272   9.164   9.835
   16        0.406   0.269   9.163   9.839
   17        0.400   0.270   9.166   9.836
   18        0.400   0.270   9.166   9.836
   19        0.400   0.266   9.170   9.836
   20        0.424   0.298   9.146   9.868
   21        0.424   0.298   9.146   9.868
   22        0.396   0.274   9.167   9.837
   23        0.416   0.304   9.147   9.868
   24        0.396   0.274   9.167   9.837
   25        0.402   0.267   9.166   9.835
   26        0.402   0.267   9.166   9.835
   27        0.396   0.272   9.169   9.837
   28        0.417   0.194   9.182   9.793
   29        0.402   0.208   9.185   9.795
   30        0.402   0.208   9.185   9.795
   31        0.396   0.211   9.188   9.795
   32        0.396   0.211   9.188   9.795
   33        0.401   0.208   9.186   9.795
   34        0.401   0.208   9.186   9.795
   35        0.412   0.196   9.183   9.791
   36        0.578   0.482   7.008   8.068
   37        1.605   3.257   0.000   4.862
   38        1.605   3.257   0.000   4.862
tot         18.070  15.408 328.016 361.494

 BZINTS: Fermi energy:    0.301869;  406.000000 electrons
         Band energy:-0.158386E+04;  BLOECHL correction:   -0.040130