 vasp.6.2.0 18Jan21 (build Jun 12 2021 23:27:24) complex

 executed on             LinuxIFC date 2022.05.27  05:10:17

 INCAR:
   ISMEAR = -5
   SIGMA = 0.1
   ISPIN = 1
   EDIFF = 1.d-5
   EDIFFG = -0.01
   NSW = 0
   NELM = 150
   ENCUT = 500
   ISIF = 2
   IBRION = 2
   LREAL = Auto
   ALGO = Fast
   ICHARG = 11
   LORBIT = 10
   LCHARG = .F.
   LWAVE = .F.

 POTCAR:    PAW_PBE Au 04Oct2007
 POTCAR:    PAW_PBE Ru 04Feb2005
 POTCAR:    PAW_PBE O 08Apr2002
 POTCAR:    PAW_PBE H 15Jun2001
|           W    W    AA    RRRRR   N    N  II  N    N   GGGG   !!!           |
|           W    W   A  A   R    R  NN   N  II  NN   N  G    G  !!!           |
|           W    W  A    A  R    R  N N  N  II  N N  N  G       !!!           |
|           W WW W  AAAAAA  RRRRR   N  N N  II  N  N N  G  GGG   !            |
|           WW  WW  A    A  R   R   N   NN  II  N   NN  G    G                |
|           W    W  A    A  R    R  N    N  II  N    N   GGGG   !!!           |
|     For optimal performance we recommend to set                             |
|       NCORE = 2 up to number-of-cores-per-socket                            |
|     This setting can greatly improve the performance of VASP for DFT.       |
|     The default, NCORE=1 might be grossly inefficient on modern             |
|     multi-core architectures or massively parallel machines. Do your        |
|     Unfortunately you need to use the default for GW and RPA                |
|     calculations (for HF NCORE is supported but not extensively tested      |
|     yet).                                                                   |

 POTCAR:    PAW_PBE Au 04Oct2007
   VRHFIN =Au: s1d10

   TITEL  = PAW_PBE Au 04Oct2007
   POMASS =  196.966; ZVAL   =   11.000    mass and valenz
   ENMAX  =  229.943; ENMIN  =  172.457 eV

 POTCAR:    PAW_PBE Ru 04Feb2005
   VRHFIN =Ru: s1 d7

   TITEL  = PAW_PBE Ru 04Feb2005
   POMASS =  101.070; ZVAL   =    8.000    mass and valenz
   ENMAX  =  213.271; ENMIN  =  159.953 eV

 POTCAR:    PAW_PBE O 08Apr2002
   VRHFIN =O: s2p4

   TITEL  = PAW_PBE O 08Apr2002
   POMASS =   16.000; ZVAL   =    6.000    mass and valenz
   ENMAX  =  400.000; ENMIN  =  300.000 eV

 POTCAR:    PAW_PBE H 15Jun2001
   VRHFIN =H: ultrasoft test

   TITEL  = PAW_PBE H 15Jun2001
   POMASS =    1.000; ZVAL   =    1.000    mass and valenz
   ENMAX  =  250.000; ENMIN  =  200.000 eV

 Optimization of the real space projectors (new method)

 maximal supplied QI-value         = 15.12
 optimisation between [QCUT,QGAM] = [ 11.34, 22.83] = [ 36.00,145.93] Ry
 Optimized for a Real-space Cutoff    1.39 Angstroem

   l    n(q)    QCUT    max X(q) W(low)/X(q) W(high)/X(q)  e(spline)
   2      9    11.338    60.898    0.39E-03    0.42E-03    0.21E-06
   2      9    11.338    58.894    0.40E-03    0.42E-03    0.22E-06
   0      9    11.338   109.617    0.13E-03    0.20E-04    0.13E-06
   0      9    11.338    75.026    0.13E-03    0.20E-04    0.13E-06
   1      9    11.338    16.344    0.33E-04    0.24E-03    0.18E-06
   1      9    11.338    10.160    0.26E-04    0.19E-03    0.15E-06
 Optimization of the real space projectors (new method)

[...]

   l    n(q)    QCUT    max X(q) W(low)/X(q) W(high)/X(q)  e(spline)
   0      7    11.387    20.381    0.39E-03    0.13E-02    0.15E-06
   0      7    11.387    15.268    0.42E-03    0.14E-02    0.17E-06
   1      6    11.387     5.964    0.41E-03    0.11E-02    0.17E-06
   1      6    11.387     5.382    0.39E-03    0.87E-03    0.15E-06
 Optimization of the real space projectors (new method)

 maximal supplied QI-value         = 34.20
 optimisation between [QCUT,QGAM] = [ 11.29, 22.57] = [ 35.68,142.71] Ry
 Optimized for a Real-space Cutoff    1.16 Angstroem

   l    n(q)    QCUT    max X(q) W(low)/X(q) W(high)/X(q)  e(spline)
   0      8    11.287    19.460    0.40E-03    0.73E-03    0.16E-06
   0      8    11.287    12.209    0.38E-03    0.70E-03    0.15E-06
   1      7    11.287     4.655    0.22E-03    0.25E-04    0.22E-06
  PAW_PBE Au 04Oct2007                  :
  PAW_PBE Ru 04Feb2005                  :
  PAW_PBE O 08Apr2002                   :
  PAW_PBE H 15Jun2001                   :

 POSCAR: Au-Ru-OH
  positions in direct lattice
  velocities in cartesian coordinates
 exchange correlation table for  LEXCH =        8
   RHO(1)=    0.500       N(1)  =     2000
   RHO(2)=  100.500       N(2)  =     4000

 VTST: version 3.2, (02/03/18)

 CHAIN: initializing optimizer

 OPT: Using VASP Conjugate-Gradient optimizer
 CHAIN: Read ICHAIN            0

 POSCAR: Au-Ru-OH
  positions in direct lattice
  velocities in cartesian coordinates

 ion  position               nearest neighbor table
   1  0.000  0.000  0.238-  16 2.94  12 2.94   6 2.94   8 2.94   7 2.94   3 2.94  10 2.94   4 2.94
                             2 2.94
   2  0.333  0.000  0.238-   9 2.94  11 2.94  17 2.94  10 2.94   8 2.94   4 2.94   5 2.94   1 2.94
                             3 2.94
   3  0.667  0.000  0.238-   7 2.94  18 2.94  12 2.94   1 2.94  11 2.94   5 2.94   6 2.94   9 2.94
                             2 2.94
   4  0.000  0.333  0.238-  10 2.94   6 2.94   5 2.94  13 2.94   2 2.94  15 2.94   9 2.94   1 2.94
                             7 2.94
   5  0.333  0.333  0.238-  13 2.94   7 2.94  11 2.94   4 2.94   2 2.94  14 2.94   3 2.94   8 2.94
                             6 2.94
   6  0.667  0.333  0.238-  15 2.94  14 2.94   1 2.94  12 2.94   4 2.94   9 2.94   8 2.94   3 2.94
                             5 2.94
   7  0.000  0.667  0.238-  18 2.94   3 2.94  16 2.94   5 2.94   1 2.94  13 2.94   8 2.94   4 2.94
                             9 2.94
   8  0.333  0.667  0.238-   9 2.94  17 2.94   1 2.94   2 2.94  14 2.94  16 2.94   6 2.94   7 2.94
                             5 2.94
   9  0.667  0.667  0.238-   2 2.94   8 2.94  17 2.94   6 2.94  15 2.94   4 2.94   3 2.94  18 2.94
                             7 2.94
  10  0.111  0.111  0.346-  20 2.91  26 2.94  19 2.94  11 2.94  17 2.94   2 2.94   4 2.94   1 2.94
                            12 2.94  16 2.94  13 2.94  15 2.94
  11  0.444  0.111  0.346-  20 2.91  21 2.91  27 2.94  13 2.94   2 2.94  10 2.94  17 2.94   5 2.94
                             3 2.94  18 2.94  14 2.94  12 2.94
  12  0.778  0.111  0.346-  21 2.91  25 2.94  19 2.94  16 2.94  18 2.94   1 2.94  14 2.94  15 2.94
                             3 2.94   6 2.94  10 2.94  11 2.94
  13  0.111  0.444  0.346-  23 2.91  20 2.91  22 2.94   5 2.94  18 2.94  11 2.94   7 2.94   4 2.94
                            16 2.94  10 2.94  14 2.94  15 2.94
  14  0.444  0.444  0.346-  21 2.91  23 2.91  24 2.94  15 2.94   6 2.94  12 2.94   8 2.94  17 2.94
                             5 2.94  16 2.94  13 2.94  11 2.94
  15  0.778  0.444  0.346-  24 2.92  22 2.92  19 2.94  14 2.94   6 2.94  17 2.94  12 2.94   9 2.94
                             4 2.94  10 2.94  13 2.94  18 2.94
  16  0.111  0.778  0.346-  23 2.91  25 2.94  26 2.94  18 2.94  12 2.94   7 2.94   1 2.94   8 2.94
                            13 2.94  10 2.94  14 2.94  17 2.94
  17  0.444  0.778  0.346-  27 2.92  24 2.92  26 2.94   9 2.94  15 2.94   2 2.94  10 2.94  11 2.94
                             8 2.94  14 2.94  16 2.94  18 2.94
  18  0.778  0.778  0.346-  22 2.92  27 2.92  25 2.94  16 2.94   7 2.94  13 2.94  12 2.94   3 2.94
                            11 2.94   9 2.94  15 2.94  17 2.94
  19  0.889  0.222  0.454-  15 2.94  10 2.94  12 2.94  24 2.94  22 2.94  26 2.94  25 2.94  21 2.94
                            20 2.94  28 2.95  32 2.97  31 2.97
  20  0.223  0.223  0.452-  36 2.78  11 2.91  13 2.91  10 2.91  23 2.93  21 2.93  29 2.94  31 2.94
                            26 2.94  19 2.94  27 2.95  22 2.95
  21  0.555  0.223  0.452-  36 2.78  14 2.91  11 2.91  12 2.91  20 2.93  23 2.93  30 2.94  32 2.94
                            25 2.94  19 2.94  27 2.95  24 2.95
  22  0.887  0.557  0.453-  24 2.91  27 2.91  18 2.92  15 2.92  13 2.94  25 2.94  19 2.94  23 2.95
                            20 2.95  35 2.96  33 2.96  31 2.96
  23  0.223  0.555  0.452-  36 2.78  13 2.91  14 2.91  16 2.91  20 2.93  21 2.93  33 2.94  34 2.94
                            25 2.94  26 2.94  22 2.95  24 2.95
  24  0.557  0.557  0.453-  27 2.91  22 2.91  15 2.92  17 2.92  14 2.94  26 2.94  19 2.94  21 2.95
                            23 2.95  35 2.96  32 2.96  34 2.96
  25  0.889  0.889  0.454-  18 2.94  16 2.94  12 2.94  22 2.94  27 2.94  19 2.94  26 2.94  23 2.94
                            21 2.94  28 2.95  33 2.97  30 2.97
  26  0.222  0.889  0.454-  17 2.94  10 2.94  16 2.94  27 2.94  24 2.94  19 2.94  25 2.94  20 2.94
                            23 2.94  28 2.95  29 2.97  34 2.97
  27  0.557  0.887  0.453-  24 2.91  22 2.91  17 2.92  18 2.92  11 2.94  26 2.94  25 2.94  20 2.95
                            21 2.95  35 2.96  29 2.96  30 2.96
  28  0.000  0.000  0.563-  25 2.95  19 2.95  26 2.95  34 2.97  32 2.97  33 2.97  30 2.97  31 2.97
                            29 2.97
  29  0.333  0.007  0.562-  31 2.88  30 2.88  36 2.89  20 2.94  27 2.96  28 2.97  35 2.97  26 2.97
                            34 3.05
  30  0.660  0.007  0.562-  32 2.88  29 2.88  36 2.89  21 2.94  27 2.96  28 2.97  35 2.97  25 2.97
                            33 3.05
  31  0.007  0.333  0.562-  29 2.88  33 2.88  36 2.89  20 2.94  22 2.96  28 2.97  35 2.97  19 2.97
                            32 3.05
  32  0.660  0.333  0.562-  30 2.88  34 2.88  36 2.89  21 2.94  24 2.96  28 2.97  35 2.97  19 2.97
                            31 3.05
  33  0.007  0.660  0.562-  34 2.88  31 2.88  36 2.89  23 2.94  22 2.96  28 2.97  35 2.97  25 2.97
                            30 3.05
  34  0.333  0.660  0.562-  33 2.88  32 2.88  36 2.89  23 2.94  24 2.96  28 2.97  35 2.97  26 2.97
                            29 3.05
  35  0.667  0.667  0.563-  24 2.96  27 2.96  22 2.96  29 2.97  34 2.97  32 2.97  31 2.97  30 2.97
                            33 2.97
  36  0.333  0.333  0.552-  37 1.89  20 2.78  23 2.78  21 2.78  33 2.89  31 2.89  29 2.89  30 2.89
                            34 2.89  32 2.89
  37  0.333  0.333  0.637-  38 0.97  36 1.89
  38  0.333  0.333  0.680-  37 0.97

  LATTYP: Found a hexagonal cell.
 ALAT       =     8.8135128021
 C/A-ratio  =     2.5184286595

  Lattice vectors:

 A1 = (  -4.4067569092,  -7.6327256898,   0.0000000000)
 A2 = (   8.8135128021,   0.0000000000,   0.0000000000)
 A3 = (   0.0000000000,   0.0000000000,  22.1962032318)

Analysis of symmetry for initial positions (statically):
 Subroutine PRICEL returns:
 Original cell was already a primitive cell.

 Routine SETGRP: Setting up the symmetry group for a
 hexagonal supercell.

 Subroutine GETGRP returns: Found  6 space group operations
 (whereof  6 operations were pure point group operations)
 out of a pool of 24 trial point group operations.

The static configuration has the point symmetry C_3v.

Analysis of symmetry for dynamics (positions and initial velocities):
 Subroutine PRICEL returns:
 Original cell was already a primitive cell.

[...]

The dynamic configuration has the point symmetry C_3v.

Analysis of constrained symmetry for selective dynamics:
 Subroutine PRICEL returns:
 Original cell was already a primitive cell.

[...]
     33      -4.5367      2.00000
     34      -4.5281      2.00000
     35      -4.5181      2.00000
     36      -4.4942      2.00000
     37      -4.3878      2.00000
     38      -4.3800      2.00000
     39      -4.3224      2.00000
     40      -4.3071      2.00000
     41      -4.2520      2.00000
     42      -4.1876      2.00000
     43      -4.1719      2.00000
     44      -4.1311      2.00000
     45      -4.1071      2.00000
     46      -4.0738      2.00000
     47      -4.0675      2.00000
     48      -3.9642      2.00000
     49      -3.9394      2.00000
     50      -3.9112      2.00000
     51      -3.9032      2.00000
     52      -3.8942      2.00000
     53      -3.8871      2.00000
     54      -3.8766      2.00000
     55      -3.8376      2.00000
     56      -3.8031      2.00000
     57      -3.7637      2.00000
     58      -3.7399      2.00000
     59      -3.7369      2.00000
     60      -3.7300      2.00000
[...]
    238       6.5925      0.00000
    239       6.6460      0.00000
    240       6.6707      0.00000
    241       6.7332      0.00000
    242       6.7840      0.00000
    243       6.9964      0.00000
    244       7.0527      0.00000
    245       7.0611      0.00000
    246       7.1908      0.00000
    247       7.4023      0.00000
    248       7.4368      0.00000
    249       7.5033      0.00000
    250       7.6164      0.00000
    251       7.7254      0.00000
    252       7.7459      0.00000

 soft charge-density along one line, spin component           1
         0         1         2         3         4         5         6         7         8         9
 total charge-density along one line

------------------------ aborting loop because EDIFF is reached ----------------------------------------

 total charge

# of ion       s       p       d       tot
    1        0.547   0.238   8.769   9.553
    2        0.545   0.241   8.763   9.549
    3        0.545   0.241   8.763   9.549
    4        0.545   0.241   8.763   9.549
    5        0.543   0.242   8.760   9.545
    6        0.545   0.241   8.763   9.549
    7        0.545   0.241   8.763   9.549
    8        0.545   0.241   8.763   9.549
    9        0.541   0.240   8.765   9.546
   10        0.525   0.309   8.767   9.601
   11        0.520   0.309   8.777   9.606
   12        0.525   0.309   8.767   9.601
   13        0.520   0.309   8.777   9.606
   14        0.520   0.309   8.777   9.606
   15        0.515   0.308   8.778   9.601
   16        0.525   0.309   8.767   9.601
   17        0.515   0.308   8.778   9.601
   18        0.515   0.308   8.778   9.601
   19        0.515   0.301   8.777   9.592
   20        0.551   0.334   8.744   9.629
   21        0.551   0.334   8.744   9.629
   22        0.508   0.308   8.777   9.592
   23        0.551   0.334   8.744   9.629
   24        0.508   0.308   8.777   9.592
   25        0.515   0.301   8.777   9.592
   26        0.515   0.301   8.777   9.592
   27        0.508   0.308   8.777   9.592
   28        0.543   0.227   8.764   9.534
   29        0.546   0.240   8.760   9.546
   30        0.546   0.240   8.760   9.546
   31        0.546   0.240   8.760   9.546
   32        0.546   0.240   8.760   9.546
   33        0.546   0.240   8.760   9.546
   34        0.546   0.240   8.760   9.546
   35        0.534   0.229   8.766   9.529
   36        0.465   0.577   6.479   7.521
   37        1.545   3.528   0.000   5.073
   38        0.601   0.127   0.000   0.728
tot         21.263  13.897 313.305 348.465

  FORCE on cell =-STRESS in cart. coord.  units (eV):
  Direction    XX          YY          ZZ          XY          YZ          ZX
  Alpha Z  1015.05739  1015.05739  1015.05739
  Ewald  118984.91841118984.91884************    -0.00032    -0.00009    -0.00013
  Hartree127846.63232127846.63233************     0.00001    -0.00002    -0.00003
  E(xc)   -1798.51200 -1798.51202 -1804.21699     0.00002    -0.00000    -0.00000
  Local  ************************259176.47857     0.00208     0.00001    -0.00002
  n-local  -102.97926   -48.12185   -46.78690    26.17366    -1.22391     1.55382
  augment  2421.30469  2421.30625  2430.62492    -0.00135     0.00003     0.00004
  Kinetic  5584.80305  5600.25491  5604.84890     7.70816    -0.15719     0.58476
  Fock        0.00000     0.00000     0.00000     0.00000     0.00000     0.00000
  Total     -20.37834   -20.37833     2.70953    -0.00000     0.00000     0.00000
  in kB     -21.86613   -21.86613     2.90735    -0.00000     0.00000     0.00000

 VOLUME and BASIS-vectors are now :
  energy-cutoff  :      500.00
  volume of cell :     1493.16
      direct lattice vectors                 reciprocal lattice vectors
     8.813512802  0.000000000  0.000000000     0.113462137 -0.065507406  0.000000000
     4.406756909  7.632725690  0.000000000     0.000000000  0.131014796  0.000000000
     0.000000000  0.000000000 22.196203232     0.000000000  0.000000000  0.045052750

  length of vectors
     8.813512802  8.813512802 22.196203232     0.131014796  0.131014796  0.045052750

 FORCES acting on ions
    electron-ion (+dipol)            ewald-force                    non-local-force                 convergence-correction
   -.195E-04 -.161E-04 0.249E+04   0.519E-04 0.434E-04 -.249E+04   -.439E-18 0.198E-17 -.988E+00   -.182E-03 -.118E-03 -.409E+00
   0.303E+00 0.275E+00 0.249E+04   -.487E+00 -.362E+00 -.249E+04   0.566E-01 0.929E-01 -.258E+00   0.116E+00 0.754E-02 -.501E+00
   -.303E+00 0.275E+00 0.249E+04   0.487E+00 -.362E+00 -.249E+04   -.566E-01 0.929E-01 -.258E+00   -.116E+00 0.947E-02 -.500E+00
   0.389E+00 0.125E+00 0.249E+04   -.557E+00 -.241E+00 -.249E+04   0.109E+00 0.260E-02 -.258E+00   0.647E-01 0.968E-01 -.501E+00
   0.914E-05 -.230E-04 0.249E+04   0.951E-04 0.173E-05 -.249E+04   -.931E-18 0.343E-18 -.166E+00   0.424E-02 0.258E-02 -.452E+00
   -.389E+00 0.125E+00 0.249E+04   0.557E+00 -.241E+00 -.249E+04   -.109E+00 0.260E-02 -.258E+00   -.662E-01 0.977E-01 -.500E+00
   0.863E-01 -.400E+00 0.249E+04   -.696E-01 0.603E+00 -.249E+04   0.521E-01 -.955E-01 -.258E+00   -.497E-01 -.105E+00 -.500E+00
   -.863E-01 -.400E+00 0.249E+04   0.694E-01 0.603E+00 -.249E+04   -.521E-01 -.955E-01 -.258E+00   0.515E-01 -.106E+00 -.500E+00
   0.192E-04 -.417E-04 0.249E+04   0.166E-03 -.201E-04 -.249E+04   0.579E-17 0.301E-17 -.551E+00   -.461E-02 -.238E-02 -.447E+00
   0.498E+01 0.287E+01 0.850E+03   -.446E+01 -.257E+01 -.849E+03   -.434E+00 -.250E+00 -.779E+00   -.288E-01 -.167E-01 -.191E+00
   0.143E-04 0.476E+01 0.856E+03   0.148E-03 -.485E+01 -.856E+03   0.446E-08 0.670E-01 -.229E+00   0.364E-02 -.482E-01 -.240E+00
   -.498E+01 0.287E+01 0.850E+03   0.446E+01 -.257E+01 -.849E+03   0.434E+00 -.250E+00 -.779E+00   0.277E-01 -.157E-01 -.192E+00
   0.413E+01 -.238E+01 0.856E+03   -.420E+01 0.242E+01 -.856E+03   0.580E-01 -.335E-01 -.229E+00   -.397E-01 0.275E-01 -.240E+00
   -.413E+01 -.238E+01 0.856E+03   0.420E+01 0.242E+01 -.856E+03   -.580E-01 -.335E-01 -.229E+00   0.471E-01 0.270E-01 -.241E+00
   0.310E-04 0.261E+01 0.852E+03   0.236E-03 -.276E+01 -.851E+03   0.109E-08 0.164E-01 -.515E+00   -.209E-02 0.104E+00 -.182E+00
   -.214E-04 -.575E+01 0.850E+03   0.163E-03 0.515E+01 -.849E+03   0.333E-07 0.501E+00 -.779E+00   0.382E-04 0.318E-01 -.192E+00
   0.226E+01 -.130E+01 0.852E+03   -.239E+01 0.138E+01 -.851E+03   0.142E-01 -.820E-02 -.515E+00   0.891E-01 -.533E-01 -.182E+00
   -.226E+01 -.130E+01 0.852E+03   0.239E+01 0.138E+01 -.851E+03   -.142E-01 -.820E-02 -.515E+00   -.891E-01 -.517E-01 -.182E+00
   -.409E-04 0.226E+01 -.823E+03   0.536E-04 -.255E+01 0.822E+03   0.707E-08 0.106E+00 0.617E+00   0.343E-02 0.140E+00 0.358E+00
   0.137E+02 0.794E+01 -.786E+03   -.125E+02 -.722E+01 0.787E+03   -.107E+01 -.617E+00 -.101E+01   -.131E+00 -.760E-01 0.261E+00
   -.137E+02 0.794E+01 -.786E+03   0.125E+02 -.722E+01 0.787E+03   0.107E+01 -.617E+00 -.101E+01   0.131E+00 -.749E-01 0.261E+00
   -.253E-01 0.146E-01 -.812E+03   -.208E+00 0.120E+00 0.811E+03   0.411E+00 -.237E+00 0.628E+00   -.123E+00 0.696E-01 0.342E+00
   -.110E-04 -.159E+02 -.786E+03   0.142E-03 0.144E+02 0.787E+03   0.822E-07 0.123E+01 -.101E+01   0.265E-03 0.151E+00 0.261E+00
   0.252E-01 0.146E-01 -.812E+03   0.208E+00 0.120E+00 0.811E+03   -.411E+00 -.237E+00 0.628E+00   0.123E+00 0.708E-01 0.342E+00
   -.196E+01 -.113E+01 -.823E+03   0.221E+01 0.127E+01 0.822E+03   -.920E-01 -.531E-01 0.617E+00   -.116E+00 -.671E-01 0.358E+00
   0.196E+01 -.113E+01 -.823E+03   -.221E+01 0.127E+01 0.822E+03   0.920E-01 -.531E-01 0.617E+00   0.123E+00 -.670E-01 0.358E+00
   0.994E-05 -.292E-01 -.812E+03   0.199E-03 -.240E+00 0.811E+03   0.316E-07 0.475E+00 0.628E+00   -.175E-02 -.141E+00 0.342E+00
   -.120E-04 -.127E-04 -.245E+04   0.289E-04 0.341E-04 0.245E+04   0.420E-17 -.322E-17 0.379E+00   0.229E-03 0.114E-03 0.462E+00
   0.252E+02 0.427E+02 -.242E+04   -.248E+02 -.424E+02 0.242E+04   -.410E+00 -.450E+00 0.456E+00   -.828E-01 -.159E+00 0.380E+00
   -.252E+02 0.427E+02 -.242E+04   0.248E+02 -.424E+02 0.242E+04   0.410E+00 -.450E+00 0.456E+00   0.826E-01 -.157E+00 0.381E+00
   0.496E+02 0.435E+00 -.242E+04   -.491E+02 -.278E+00 0.242E+04   -.595E+00 -.130E+00 0.456E+00   -.179E+00 0.750E-02 0.381E+00
   -.496E+02 0.435E+00 -.242E+04   0.491E+02 -.278E+00 0.242E+04   0.595E+00 -.130E+00 0.456E+00   0.178E+00 0.869E-02 0.381E+00
   0.244E+02 -.431E+02 -.242E+04   -.243E+02 0.427E+02 0.242E+04   -.185E+00 0.580E+00 0.456E+00   -.945E-01 0.150E+00 0.381E+00
   -.244E+02 -.431E+02 -.242E+04   0.243E+02 0.427E+02 0.242E+04   0.185E+00 0.580E+00 0.456E+00   0.964E-01 0.150E+00 0.381E+00
   0.318E-04 -.284E-04 -.246E+04   0.144E-03 -.493E-04 0.245E+04   0.547E-17 -.194E-17 0.589E+00   -.461E-02 -.237E-02 0.314E+00
   0.147E-05 -.441E-05 -.153E+04   0.824E-04 0.740E-05 0.154E+04   0.262E-18 -.370E-19 -.103E+01   0.196E-02 0.120E-02 0.316E+00
   0.197E-03 -.960E-04 -.155E+04   0.202E-04 0.133E-05 0.153E+04   0.109E-16 -.190E-17 0.196E+02   0.366E-02 0.224E-02 0.169E+00
   0.786E-05 -.133E-04 -.311E+03   0.109E-05 0.991E-07 0.320E+03   0.795E-19 -.406E-19 -.842E+01   0.201E-03 0.123E-03 0.321E-01
   -.518E-03 -.854E-03 -.671E+01   0.388E-13 -.407E-13 -.625E-11   -.233E-15 -.448E-15 0.673E+01   0.180E-01 0.111E-01 0.306E+00

 POSITION                                       TOTAL-FORCE (eV/Angst)
      0.00000      0.00000      5.28038        -0.000000     -0.000000     -0.133185
      2.93784      0.00000      5.28038        -0.011154      0.014361     -0.060376
      5.87568      0.00000      5.28038         0.011154      0.014361     -0.060376
      1.46892      2.54424      5.28038         0.006860     -0.016840     -0.060376
      4.40676      2.54424      5.28038        -0.000000      0.000000     -0.097313
      7.34459      2.54424      5.28038        -0.006860     -0.016840     -0.060376
      2.93784      5.08848      5.28038         0.018014      0.002479     -0.060376
      5.87568      5.08848      5.28038        -0.018014      0.002479     -0.060376
      8.81351      5.08848      5.28038        -0.000000     -0.000000     -0.086734
      1.46892      0.84808      7.67911         0.060361      0.034850      0.149712
      4.40676      0.84808      7.67911        -0.000000     -0.066060      0.045492
      7.34459      0.84808      7.67911        -0.060361      0.034850      0.149712
      2.93784      3.39232      7.67911        -0.057209      0.033030      0.045492
      5.87568      3.39232      7.67911         0.057209      0.033030      0.045492
      8.81351      3.39232      7.67911        -0.000000     -0.037260      0.109964
      4.40676      5.93656      7.67911        -0.000000     -0.069699      0.149712
      7.34459      5.93656      7.67911        -0.032268      0.018630      0.109964
     10.28243      5.93656      7.67911         0.032268      0.018630      0.109964
      8.81351      1.69681     10.07567        -0.000000     -0.042607     -0.040019
      2.94232      1.69875     10.04120         0.045560      0.026304     -0.034184
      5.87120      1.69875     10.04120        -0.045560      0.026304     -0.034184
     10.26751      4.24902     10.06295         0.055297     -0.031926     -0.020549
      4.40676      4.23523     10.04120        -0.000000     -0.052608     -0.034184
      7.35952      4.24902     10.06295        -0.055297     -0.031926     -0.020549
     11.75079      6.78432     10.07567         0.036898      0.021303     -0.040019
      5.87624      6.78432     10.07567        -0.036898      0.021303     -0.040019
      8.81351      6.76742     10.06295         0.000000      0.063852     -0.020549
      0.00000      0.00000     12.49459        -0.000000      0.000000     -0.006098
      2.96623      0.05046     12.47837        -0.138562     -0.309983     -0.135575
      5.84728      0.05046     12.47837         0.138562     -0.309983     -0.135575
      1.52682      2.54360     12.47837        -0.337734      0.034993     -0.135575
      7.28669      2.54360     12.47837         0.337734      0.034993     -0.135575
      2.96734      5.03866     12.47837        -0.199172      0.274989     -0.135575
      5.84617      5.03866     12.47837         0.199172      0.274989     -0.135575
      8.81351      5.08848     12.49555        -0.000000      0.000000      0.056328
      4.40676      2.54424     12.24198        -0.000000      0.000000      0.797389
      4.40676      2.54424     14.13625        -0.000000     -0.000000      0.067526
      4.40676      2.54424     15.10203        -0.000000      0.000000     -0.053457
    total drift:                                0.017526      0.010284      0.330630

  FREE ENERGIE OF THE ION-ELECTRON SYSTEM (eV)
  free  energy   TOTEN  =      -124.00025431 eV

  energy  without entropy=     -124.00025431  energy(sigma->0) =     -124.00025431

 stress matrix after NEB project (eV)
    -20.37834     -0.00000      0.00000
     -0.00000    -20.37833     -0.00000
     -0.00000      0.00000      2.70953
  FORCES: max atom, RMS     0.067526    0.013971
  FORCE total and by dimension    0.086124    0.067526
  Stress total and by dimension   28.946409   20.378335
|           W    W    AA    RRRRR   N    N  II  N    N   GGGG   !!!           |
|           W    W   A  A   R    R  NN   N  II  NN   N  G    G  !!!           |
|           W    W  A    A  R    R  N N  N  II  N N  N  G       !!!           |
|           W WW W  AAAAAA  RRRRR   N  N N  II  N  N N  G  GGG   !            |
|           WW  WW  A    A  R   R   N   NN  II  N   NN  G    G                |
|           W    W  A    A  R    R  N    N  II  N    N   GGGG   !!!           |
|     Tetrahedron method does not include variations of the Fermi             |
|     occupations, so forces and stress will be inaccurate. We suggest        |
|     using a different smearing scheme ISMEAR = 1 or 2 for metals in         |
|     relaxations.                                                            |

 total charge

# of ion       s       p       d       tot
    1        0.547   0.238   8.769   9.553
    2        0.545   0.241   8.763   9.549
    3        0.545   0.241   8.763   9.549
    4        0.545   0.241   8.763   9.549
    5        0.543   0.242   8.760   9.545
    6        0.545   0.241   8.763   9.549
    7        0.545   0.241   8.763   9.549
    8        0.545   0.241   8.763   9.549
    9        0.541   0.240   8.765   9.546
   10        0.525   0.309   8.767   9.601
   11        0.520   0.309   8.777   9.606
   12        0.525   0.309   8.767   9.601
   13        0.520   0.309   8.777   9.606
   14        0.520   0.309   8.777   9.606
   15        0.515   0.308   8.778   9.601
   16        0.525   0.309   8.767   9.601
   17        0.515   0.308   8.778   9.601
   18        0.515   0.308   8.778   9.601
   19        0.515   0.301   8.777   9.592
   20        0.551   0.334   8.744   9.629
   21        0.551   0.334   8.744   9.629
   22        0.508   0.308   8.777   9.592
   23        0.551   0.334   8.744   9.629
   24        0.508   0.308   8.777   9.592
   25        0.515   0.301   8.777   9.592
   26        0.515   0.301   8.777   9.592
   27        0.508   0.308   8.777   9.592
   28        0.543   0.227   8.764   9.534
   29        0.546   0.240   8.760   9.546
   30        0.546   0.240   8.760   9.546
   31        0.546   0.240   8.760   9.546
   32        0.546   0.240   8.760   9.546
   33        0.546   0.240   8.760   9.546
   34        0.546   0.240   8.760   9.546
   35        0.534   0.229   8.766   9.529
   36        0.465   0.577   6.479   7.521
   37        1.545   3.528   0.000   5.073
   38        0.601   0.127   0.000   0.728
tot         21.263  13.897 313.305 348.465

 BZINTS: Fermi energy:    0.899818;  400.000000 electrons
         Band energy:-0.115479E+04;  BLOECHL correction:   -0.063532