 vasp.6.2.0 18Jan21 (build Jun 12 2021 23:27:24) complex

 executed on             LinuxIFC date 2022.05.27  05:39:55

 INCAR:
   ISMEAR = -5
   SIGMA = 0.1
   ISPIN = 1
   EDIFF = 1.d-5
   EDIFFG = -0.01
   NSW = 0
   NELM = 150
   ENCUT = 500
   ISIF = 2
   IBRION = 2
   LREAL = Auto
   ALGO = Fast
   ICHARG = 11
   LORBIT = 10
   LCHARG = .F.
   LWAVE = .F.

 POTCAR:    PAW_PBE Ag 02Apr2005
 POTCAR:    PAW_PBE Nb_sv 25May2007
 POTCAR:    PAW_PBE O 08Apr2002
 POTCAR:    PAW_PBE H 15Jun2001
|           W    W    AA    RRRRR   N    N  II  N    N   GGGG   !!!           |
|           W    W   A  A   R    R  NN   N  II  NN   N  G    G  !!!           |
|           W    W  A    A  R    R  N N  N  II  N N  N  G       !!!           |
|           W WW W  AAAAAA  RRRRR   N  N N  II  N  N N  G  GGG   !            |
|           WW  WW  A    A  R   R   N   NN  II  N   NN  G    G                |
|           W    W  A    A  R    R  N    N  II  N    N   GGGG   !!!           |
|     For optimal performance we recommend to set                             |
|       NCORE = 2 up to number-of-cores-per-socket                            |
|     This setting can greatly improve the performance of VASP for DFT.       |
|     The default, NCORE=1 might be grossly inefficient on modern             |
|     multi-core architectures or massively parallel machines. Do your        |
|     Unfortunately you need to use the default for GW and RPA                |
|     calculations (for HF NCORE is supported but not extensively tested      |
|     yet).                                                                   |

 POTCAR:    PAW_PBE Ag 02Apr2005
   VRHFIN =Ag : s1 d10

   TITEL  = PAW_PBE Ag 02Apr2005
   POMASS =  107.868; ZVAL   =   11.000    mass and valenz
   ENMAX  =  249.844; ENMIN  =  187.383 eV

 POTCAR:    PAW_PBE Nb_sv 25May2007
   VRHFIN =Nb: 4p5s4d

   TITEL  = PAW_PBE Nb_sv 25May2007
   POMASS =   92.910; ZVAL   =   13.000    mass and valenz
   ENMAX  =  293.235; ENMIN  =  219.927 eV

 POTCAR:    PAW_PBE O 08Apr2002
   VRHFIN =O: s2p4

   TITEL  = PAW_PBE O 08Apr2002
   POMASS =   16.000; ZVAL   =    6.000    mass and valenz
   ENMAX  =  400.000; ENMIN  =  300.000 eV

 POTCAR:    PAW_PBE H 15Jun2001
   VRHFIN =H: ultrasoft test

   TITEL  = PAW_PBE H 15Jun2001
   POMASS =    1.000; ZVAL   =    1.000    mass and valenz
   ENMAX  =  250.000; ENMIN  =  200.000 eV

 Optimization of the real space projectors (new method)

 maximal supplied QI-value         = 15.12
 optimisation between [QCUT,QGAM] = [ 11.34, 22.83] = [ 36.00,145.93] Ry
 Optimized for a Real-space Cutoff    1.43 Angstroem

   l    n(q)    QCUT    max X(q) W(low)/X(q) W(high)/X(q)  e(spline)
   2      9    11.338    53.897    0.16E-03    0.20E-03    0.28E-06
   2      9    11.338    52.416    0.16E-03    0.20E-03    0.29E-06
   0     10    11.338   122.045    0.31E-04    0.76E-04    0.15E-06
   0     10    11.338    73.629    0.30E-04    0.72E-04    0.15E-06
   1      9    11.338    15.255    0.20E-03    0.19E-04    0.17E-06
   1      9    11.338     9.562    0.16E-03    0.15E-04    0.14E-06
 Optimization of the real space projectors (new method)

[...]

   l    n(q)    QCUT    max X(q) W(low)/X(q) W(high)/X(q)  e(spline)
   0      7    11.387    20.381    0.39E-03    0.13E-02    0.15E-06
   0      7    11.387    15.268    0.42E-03    0.14E-02    0.17E-06
   1      6    11.387     5.964    0.41E-03    0.11E-02    0.17E-06
   1      6    11.387     5.382    0.39E-03    0.87E-03    0.15E-06
 Optimization of the real space projectors (new method)

 maximal supplied QI-value         = 34.20
 optimisation between [QCUT,QGAM] = [ 11.29, 22.57] = [ 35.68,142.71] Ry
 Optimized for a Real-space Cutoff    1.16 Angstroem

   l    n(q)    QCUT    max X(q) W(low)/X(q) W(high)/X(q)  e(spline)
   0      8    11.287    19.460    0.40E-03    0.73E-03    0.16E-06
   0      8    11.287    12.209    0.38E-03    0.70E-03    0.15E-06
   1      7    11.287     4.655    0.22E-03    0.25E-04    0.22E-06
  PAW_PBE Ag 02Apr2005                  :
  PAW_PBE Nb_sv 25May2007               :
  PAW_PBE O 08Apr2002                   :
  PAW_PBE H 15Jun2001                   :

 POSCAR: Ag-Nb-OH
  positions in direct lattice
  velocities in cartesian coordinates
 exchange correlation table for  LEXCH =        8
   RHO(1)=    0.500       N(1)  =     2000
   RHO(2)=  100.500       N(2)  =     4000

 VTST: version 3.2, (02/03/18)

 CHAIN: initializing optimizer

 OPT: Using VASP Conjugate-Gradient optimizer
 CHAIN: Read ICHAIN            0

 POSCAR: Ag-Nb-OH
  positions in direct lattice
  velocities in cartesian coordinates

 ion  position               nearest neighbor table
   1  0.000  0.000  0.209-   2 2.93   8 2.93   7 2.93   6 2.93   4 2.93  12 2.93  16 2.93  10 2.93
                             3 2.93
   2  0.333  0.000  0.209-   1 2.93   8 2.93   9 2.93   3 2.93   4 2.93   5 2.93  10 2.93  17 2.93
                            11 2.93
   3  0.667  0.000  0.209-   9 2.93   2 2.93   5 2.93  11 2.93   7 2.93  18 2.93   1 2.93   6 2.93
                            12 2.93
   4  0.000  0.333  0.209-   5 2.93   6 2.93   2 2.93   1 2.93   7 2.93  13 2.93  15 2.93   9 2.93
                            10 2.93
   5  0.333  0.333  0.209-   4 2.93   3 2.93   7 2.93   2 2.93   8 2.93  14 2.93  13 2.93  11 2.93
                             6 2.93
   6  0.667  0.333  0.209-   4 2.93   9 2.93   1 2.93  15 2.93   8 2.93  12 2.93   3 2.93   5 2.93
                            14 2.93
   7  0.000  0.667  0.209-   8 2.93   1 2.93   5 2.93   3 2.93   4 2.93  16 2.93  18 2.93  13 2.93
                             9 2.93
   8  0.333  0.667  0.209-   7 2.93   1 2.93   2 2.93   9 2.93   5 2.93  16 2.93   6 2.93  17 2.93
                            14 2.93
   9  0.667  0.667  0.209-   3 2.93   2 2.93   8 2.93   6 2.93  17 2.93   4 2.93  15 2.93   7 2.93
                            18 2.93
  10  0.111  0.111  0.304-  20 2.90  19 2.93  26 2.93  12 2.93  16 2.93  15 2.93  17 2.93  13 2.93
                            11 2.93   2 2.93   1 2.93   4 2.93
  11  0.444  0.111  0.304-  21 2.90  20 2.90  14 2.93  17 2.93  18 2.93   3 2.93  12 2.93  13 2.93
                            10 2.93   5 2.93   2 2.93  27 2.93
  12  0.778  0.111  0.304-  21 2.90  25 2.93  19 2.93  10 2.93  16 2.93  18 2.93  15 2.93  11 2.93
                             1 2.93  14 2.93   6 2.93   3 2.93
  13  0.111  0.444  0.304-  20 2.90  23 2.90  15 2.93  14 2.93  18 2.93  10 2.93  11 2.93  16 2.93
                             4 2.93   5 2.93   7 2.93  22 2.93
  14  0.444  0.444  0.304-  23 2.90  21 2.90  13 2.93  11 2.93  16 2.93   5 2.93  12 2.93  17 2.93
                             8 2.93  15 2.93   6 2.93  24 2.93
  15  0.778  0.444  0.304-  19 2.93  13 2.93  10 2.93  12 2.93  17 2.93  18 2.93   4 2.93   6 2.93
                             9 2.93  14 2.93  24 2.93  22 2.93
  16  0.111  0.778  0.304-  23 2.90  26 2.93  25 2.93  18 2.93  12 2.93  10 2.93  14 2.93  17 2.93
                            13 2.93   7 2.93   8 2.93   1 2.93
  17  0.444  0.778  0.304-  26 2.93  11 2.93  10 2.93   9 2.93  18 2.93  15 2.93  16 2.93   2 2.93
                            14 2.93   8 2.93  27 2.93  24 2.93
  18  0.778  0.778  0.304-  25 2.93  16 2.93  12 2.93  13 2.93  11 2.93  17 2.93  15 2.93   7 2.93
                             3 2.93   9 2.93  22 2.93  27 2.93
  19  0.889  0.222  0.399-  15 2.93  10 2.93  12 2.93  20 2.93  21 2.93  28 2.93  24 2.93  22 2.93
                            26 2.93  25 2.93  32 2.97  31 2.97
  20  0.222  0.222  0.397-  36 2.82  10 2.90  13 2.90  11 2.90  19 2.93  26 2.93  27 2.93  22 2.93
                            21 2.94  23 2.94  31 2.97  29 2.97
  21  0.556  0.222  0.397-  36 2.82  12 2.90  11 2.90  14 2.90  25 2.93  19 2.93  27 2.93  24 2.93
                            20 2.94  23 2.94  30 2.97  32 2.97
  22  0.889  0.556  0.399-  24 2.93  27 2.93  25 2.93  19 2.93  18 2.93  15 2.93  23 2.93  20 2.93
                            35 2.93  13 2.93  33 2.95  31 2.95
  23  0.222  0.556  0.397-  36 2.82  16 2.90  14 2.90  13 2.90  26 2.93  25 2.93  22 2.93  24 2.93
                            21 2.94  20 2.94  34 2.97  33 2.97
  24  0.556  0.556  0.399-  27 2.93  22 2.93  19 2.93  26 2.93  15 2.93  17 2.93  23 2.93  21 2.93
                            35 2.93  14 2.93  32 2.95  34 2.95
  25  0.889  0.889  0.399-  18 2.93  16 2.93  12 2.93  23 2.93  21 2.93  28 2.93  22 2.93  27 2.93
                            26 2.93  19 2.93  33 2.97  30 2.97
  26  0.222  0.889  0.399-  17 2.93  16 2.93  10 2.93  23 2.93  20 2.93  28 2.93  27 2.93  24 2.93
                            25 2.93  19 2.93  34 2.97  29 2.97
  27  0.556  0.889  0.399-  24 2.93  22 2.93  26 2.93  25 2.93  17 2.93  18 2.93  20 2.93  21 2.93
                            35 2.93  11 2.93  29 2.95  30 2.95
  28  0.000  0.000  0.493-  26 2.93  25 2.93  19 2.93  29 2.95  34 2.95  33 2.95  32 2.95  31 2.95
                            30 2.95
  29  0.333  0.004  0.495-  30 2.90  31 2.90  36 2.91  35 2.95  28 2.95  27 2.95  20 2.97  26 2.97
                            34 2.99
  30  0.663  0.004  0.495-  29 2.90  32 2.90  36 2.91  35 2.95  28 2.95  27 2.95  21 2.97  25 2.97
                            33 2.99
  31  0.004  0.333  0.495-  33 2.90  29 2.90  36 2.91  35 2.95  28 2.95  22 2.95  20 2.97  19 2.97
                            32 2.99
  32  0.663  0.333  0.495-  34 2.90  30 2.90  36 2.91  35 2.95  28 2.95  24 2.95  21 2.97  19 2.97
                            31 2.99
  33  0.004  0.663  0.495-  31 2.90  34 2.90  36 2.91  35 2.95  28 2.95  22 2.95  23 2.97  25 2.97
                            30 2.99
  34  0.333  0.663  0.495-  32 2.90  33 2.90  36 2.91  35 2.95  28 2.95  24 2.95  23 2.97  26 2.97
                            29 2.99
  35  0.667  0.667  0.494-  24 2.93  27 2.93  22 2.93  30 2.95  29 2.95  32 2.95  34 2.95  31 2.95
                            33 2.95
  36  0.333  0.333  0.487-  37 1.86  21 2.82  20 2.82  23 2.82  31 2.91  33 2.91  30 2.91  29 2.91
                            34 2.91  32 2.91
  37  0.333  0.333  0.560-  38 0.97  36 1.86
  38  0.333  0.333  0.599-  37 0.97

  LATTYP: Found a hexagonal cell.
 ALAT       =     8.7913665772
 C/A-ratio  =     2.8719070141

  Lattice vectors:

 A1 = (  -4.3956832886,  -7.6135467898,   0.0000000000)
 A2 = (   8.7913665771,   0.0000000000,   0.0000000000)
 A3 = (   0.0000000000,   0.0000000000,  25.2479873362)

Analysis of symmetry for initial positions (statically):
 Subroutine PRICEL returns:
 Original cell was already a primitive cell.

 Routine SETGRP: Setting up the symmetry group for a
 hexagonal supercell.

 Subroutine GETGRP returns: Found  6 space group operations
 (whereof  6 operations were pure point group operations)
 out of a pool of 24 trial point group operations.

The static configuration has the point symmetry C_3v.

Analysis of symmetry for dynamics (positions and initial velocities):
 Subroutine PRICEL returns:
 Original cell was already a primitive cell.

[...]

The dynamic configuration has the point symmetry C_3v.

Analysis of constrained symmetry for selective dynamics:
 Subroutine PRICEL returns:
 Original cell was already a primitive cell.

[...]
     33      -4.9151      2.00000
     34      -4.8851      2.00000
     35      -4.8797      2.00000
     36      -4.8732      2.00000
     37      -4.8516      2.00000
     38      -4.8370      2.00000
     39      -4.8203      2.00000
     40      -4.7971      2.00000
     41      -4.7713      2.00000
     42      -4.7645      2.00000
     43      -4.7361      2.00000
     44      -4.7189      2.00000
     45      -4.6748      2.00000
     46      -4.6587      2.00000
     47      -4.6413      2.00000
     48      -4.6220      2.00000
     49      -4.5763      2.00000
     50      -4.5375      2.00000
     51      -4.5229      2.00000
     52      -4.5070      2.00000
     53      -4.4948      2.00000
     54      -4.4887      2.00000
     55      -4.4785      2.00000
     56      -4.4721      2.00000
     57      -4.4615      2.00000
     58      -4.4544      2.00000
     59      -4.4426      2.00000
     60      -4.4394      2.00000
[...]
    242       5.8455      0.00000
    243       5.8943      0.00000
    244       5.9349      0.00000
    245       5.9774      0.00000
    246       6.1038      0.00000
    247       6.3324      0.00000
    248       6.3514      0.00000
    249       6.4198      0.00000
    250       6.6530      0.00000
    251       6.7159      0.00000
    252       6.9074      0.00000
    253       6.9744      0.00000
    254       7.0016      0.00000
    255       7.1022      0.00000
    256       7.2292      0.00000

 soft charge-density along one line, spin component           1
         0         1         2         3         4         5         6         7         8         9
 total charge-density along one line

------------------------ aborting loop because EDIFF is reached ----------------------------------------

 total charge

# of ion       s       p       d       tot
    1        0.422   0.200   9.178   9.800
    2        0.416   0.204   9.177   9.797
    3        0.416   0.204   9.177   9.797
    4        0.416   0.204   9.177   9.797
    5        0.417   0.202   9.177   9.797
    6        0.416   0.204   9.177   9.797
    7        0.416   0.204   9.177   9.797
    8        0.416   0.204   9.177   9.797
    9        0.415   0.204   9.177   9.796
   10        0.410   0.268   9.164   9.842
   11        0.404   0.270   9.168   9.842
   12        0.410   0.268   9.164   9.842
   13        0.404   0.270   9.168   9.842
   14        0.404   0.270   9.168   9.842
   15        0.402   0.269   9.165   9.835
   16        0.410   0.268   9.164   9.842
   17        0.402   0.269   9.165   9.835
   18        0.402   0.269   9.165   9.835
   19        0.404   0.263   9.167   9.835
   20        0.444   0.302   9.131   9.877
   21        0.444   0.302   9.131   9.877
   22        0.392   0.273   9.164   9.828
   23        0.444   0.302   9.131   9.877
   24        0.392   0.273   9.164   9.828
   25        0.404   0.263   9.167   9.835
   26        0.404   0.263   9.167   9.835
   27        0.392   0.273   9.164   9.828
   28        0.418   0.202   9.171   9.792
   29        0.436   0.221   9.158   9.816
   30        0.436   0.221   9.158   9.816
   31        0.436   0.221   9.158   9.816
   32        0.436   0.221   9.158   9.816
   33        0.436   0.221   9.158   9.816
   34        0.436   0.221   9.158   9.816
   35        0.410   0.206   9.172   9.788
   36        2.197   6.014   2.298  10.509
   37        1.563   3.555   0.000   5.119
   38        0.605   0.124   0.000   0.729
tot         18.932  18.192 323.060 360.185

  FORCE on cell =-STRESS in cart. coord.  units (eV):
  Direction    XX          YY          ZZ          XY          YZ          ZX
  Alpha Z   682.20840   682.20840   682.20840
  Ewald  169268.75344169268.75361************     0.00006     0.00001     0.00005
  Hartree179602.41828179602.41835************     0.00002     0.00000     0.00002
  E(xc)   -2121.41039 -2121.41041 -2126.19224     0.00002     0.00000     0.00000
  Local  ************************360243.33817     0.00048    -0.00007    -0.00019
  n-local  -355.20178  -341.99955  -348.21254     8.86356    -0.68331     0.59799
  augment  3245.53028  3245.53050  3254.17053    -0.00019    -0.00001     0.00000
  Kinetic  5164.63368  5170.66874  5147.27212     5.09703     1.09432    -0.55761
  Fock        0.00000     0.00000     0.00000     0.00000     0.00000     0.00000
  Total      -6.49621    -6.49621    -0.19554    -0.00000    -0.00000    -0.00000
  in kB      -6.15886    -6.15886    -0.18539    -0.00000    -0.00000    -0.00000

 VOLUME and BASIS-vectors are now :
  energy-cutoff  :      500.00
  volume of cell :     1689.94
      direct lattice vectors                 reciprocal lattice vectors
     8.791366577  0.000000000  0.000000000     0.113747958 -0.065672414  0.000000000
     4.395683289  7.613546790  0.000000000     0.000000000  0.131344829  0.000000000
     0.000000000  0.000000000 25.247987336     0.000000000  0.000000000  0.039607117

  length of vectors
     8.791366577  8.791366577 25.247987336     0.131344829  0.131344829  0.039607117

 FORCES acting on ions
    electron-ion (+dipol)            ewald-force                    non-local-force                 convergence-correction
   0.461E-04 -.281E-04 0.278E+04   -.954E-04 0.593E-04 -.277E+04   0.938E-17 0.201E-17 -.188E+01   -.129E-03 -.181E-03 -.819E-01
   0.364E+00 0.969E+00 0.278E+04   -.389E+00 -.108E+01 -.278E+04   0.544E-02 0.128E+00 -.161E+01   0.198E-01 -.115E-01 -.103E+00
   -.364E+00 0.969E+00 0.278E+04   0.389E+00 -.108E+01 -.278E+04   -.544E-02 0.128E+00 -.161E+01   -.203E-01 -.952E-02 -.102E+00
   0.102E+01 -.170E+00 0.278E+04   -.113E+01 0.203E+00 -.278E+04   0.113E+00 -.592E-01 -.161E+01   0.144E-03 0.231E-01 -.103E+00
   -.413E-05 -.179E-04 0.278E+04   0.980E-04 -.199E-05 -.278E+04   -.964E-18 0.431E-18 -.144E+01   0.630E-02 0.385E-02 -.592E-02
   -.102E+01 -.170E+00 0.278E+04   0.113E+01 0.203E+00 -.278E+04   -.113E+00 -.592E-01 -.161E+01   -.161E-02 0.240E-01 -.102E+00
   0.657E+00 -.799E+00 0.278E+04   -.741E+00 0.877E+00 -.278E+04   0.108E+00 -.686E-01 -.161E+01   -.180E-01 -.123E-01 -.102E+00
   -.657E+00 -.799E+00 0.278E+04   0.741E+00 0.877E+00 -.278E+04   -.108E+00 -.686E-01 -.161E+01   0.196E-01 -.134E-01 -.102E+00
   0.369E-04 -.125E-04 0.278E+04   0.792E-04 -.643E-04 -.277E+04   -.107E-16 -.613E-17 -.177E+01   -.670E-02 -.346E-02 -.898E-01
   0.651E+01 0.376E+01 0.983E+03   -.601E+01 -.347E+01 -.982E+03   -.475E+00 -.274E+00 -.687E+00   -.339E-01 -.196E-01 0.931E-01
   -.282E-04 0.101E+02 0.992E+03   0.411E-04 -.103E+02 -.991E+03   0.919E-12 0.140E+00 -.335E+00   0.640E-02 0.116E-01 0.686E-01
   -.651E+01 0.376E+01 0.983E+03   0.601E+01 -.347E+01 -.982E+03   0.475E+00 -.274E+00 -.687E+00   0.320E-01 -.181E-01 0.937E-01
   0.873E+01 -.504E+01 0.992E+03   -.892E+01 0.515E+01 -.991E+03   0.121E+00 -.699E-01 -.335E+00   0.131E-01 -.212E-03 0.686E-01
   -.873E+01 -.504E+01 0.992E+03   0.892E+01 0.515E+01 -.991E+03   -.121E+00 -.699E-01 -.335E+00   -.207E-02 -.947E-03 0.687E-01
   0.164E-04 -.255E+01 0.978E+03   -.109E-03 0.246E+01 -.977E+03   0.316E-12 0.480E-01 -.690E+00   -.203E-02 0.407E-01 0.102E+00
   -.749E-05 -.752E+01 0.983E+03   0.207E-04 0.694E+01 -.982E+03   0.360E-11 0.549E+00 -.687E+00   0.335E-03 0.367E-01 0.937E-01
   -.221E+01 0.128E+01 0.978E+03   0.213E+01 -.123E+01 -.977E+03   0.416E-01 -.240E-01 -.690E+00   0.342E-01 -.221E-01 0.102E+00
   0.221E+01 0.128E+01 0.978E+03   -.213E+01 -.123E+01 -.977E+03   -.416E-01 -.240E-01 -.690E+00   -.344E-01 -.199E-01 0.103E+00
   0.405E-04 0.522E+00 -.853E+03   -.132E-03 -.591E+00 0.852E+03   0.296E-12 0.451E-01 0.858E+00   -.190E-02 0.115E-01 0.236E+00
   0.463E+02 0.267E+02 -.776E+03   -.452E+02 -.261E+02 0.777E+03   -.118E+01 -.684E+00 -.857E+00   0.196E-01 0.113E-01 0.190E+00
   -.463E+02 0.267E+02 -.776E+03   0.452E+02 -.261E+02 0.777E+03   0.118E+01 -.684E+00 -.857E+00   -.880E-02 0.126E-01 0.190E+00
   0.201E+02 -.116E+02 -.847E+03   -.201E+02 0.116E+02 0.846E+03   0.174E+00 -.101E+00 0.607E+00   -.108E+00 0.627E-01 0.202E+00
   -.580E-04 -.534E+02 -.776E+03   0.502E-04 0.522E+02 0.777E+03   0.898E-11 0.137E+01 -.857E+00   0.682E-02 -.133E-01 0.190E+00
   -.201E+02 -.116E+02 -.847E+03   0.201E+02 0.116E+02 0.846E+03   -.174E+00 -.101E+00 0.607E+00   0.107E+00 0.617E-01 0.203E+00
   -.452E+00 -.261E+00 -.853E+03   0.512E+00 0.296E+00 0.852E+03   -.391E-01 -.226E-01 0.858E+00   -.890E-02 -.529E-02 0.236E+00
   0.452E+00 -.261E+00 -.853E+03   -.512E+00 0.296E+00 0.852E+03   0.391E-01 -.226E-01 0.858E+00   0.867E-02 -.750E-02 0.236E+00
   0.208E-04 0.232E+02 -.847E+03   0.109E-03 -.233E+02 0.846E+03   0.132E-11 0.201E+00 0.607E+00   -.463E-03 -.125E+00 0.202E+00
   0.545E-04 -.360E-04 -.268E+04   -.118E-03 0.787E-04 0.268E+04   0.568E-17 -.722E-17 0.141E+01   -.163E-03 -.232E-03 0.148E+00
   0.548E+02 0.894E+02 -.268E+04   -.540E+02 -.885E+02 0.268E+04   -.847E+00 -.101E+01 0.163E+01   -.215E-01 -.697E-01 0.152E+00
   -.548E+02 0.894E+02 -.268E+04   0.540E+02 -.885E+02 0.268E+04   0.847E+00 -.101E+01 0.163E+01   0.211E-01 -.674E-01 0.152E+00
   0.105E+03 0.278E+01 -.268E+04   -.104E+03 -.257E+01 0.268E+04   -.130E+01 -.228E+00 0.163E+01   -.708E-01 0.164E-01 0.152E+00
   -.105E+03 0.278E+01 -.268E+04   0.104E+03 -.257E+01 0.268E+04   0.130E+01 -.228E+00 0.163E+01   0.689E-01 0.172E-01 0.151E+00
   0.500E+02 -.921E+02 -.268E+04   -.496E+02 0.910E+02 0.268E+04   -.452E+00 0.124E+01 0.163E+01   -.474E-01 0.526E-01 0.152E+00
   -.500E+02 -.921E+02 -.268E+04   0.496E+02 0.910E+02 0.268E+04   0.452E+00 0.124E+01 0.163E+01   0.490E-01 0.511E-01 0.151E+00
   0.195E-04 -.860E-05 -.269E+04   0.107E-03 -.674E-04 0.269E+04   0.359E-17 -.862E-18 0.172E+01   -.681E-02 -.351E-02 0.113E+00
   0.268E-03 -.154E-03 -.276E+04   0.123E-03 0.141E-04 0.277E+04   -.199E-17 0.195E-18 -.318E+01   0.795E-02 0.485E-02 0.234E+00
   0.215E-03 -.975E-04 -.187E+04   0.254E-04 0.314E-06 0.185E+04   0.532E-18 -.352E-18 0.193E+02   0.399E-02 0.244E-02 0.310E-01
   0.851E-05 -.133E-04 -.358E+03   0.181E-05 0.641E-08 0.367E+03   -.598E-19 0.437E-19 -.850E+01   0.216E-03 0.133E-03 -.530E-02
   0.890E-03 -.917E-03 -.566E+01   0.177E-12 0.485E-13 -.585E-11   0.835E-15 0.443E-15 0.244E+01   0.308E-01 0.213E-01 0.332E+01

 POSITION                                       TOTAL-FORCE (eV/Angst)
      0.00000      0.00000      5.28219         0.000000      0.000000     -0.034956
      2.93046      0.00000      5.28219         0.000577      0.005725      0.037791
      5.86091      0.00000      5.28219        -0.000577      0.005725      0.037791
      1.46523      2.53785      5.28219         0.005246     -0.002363      0.037791
      4.39568      2.53785      5.28219         0.000000      0.000000      0.028203
      7.32614      2.53785      5.28219        -0.005246     -0.002363      0.037791
      2.93046      5.07570      5.28219         0.004670     -0.003362      0.037791
      5.86091      5.07570      5.28219        -0.004670     -0.003362      0.037791
      8.79137      5.07570      5.28219         0.000000      0.000000      0.015350
      1.46523      0.84595      7.67490        -0.001655     -0.000956     -0.040159
      4.39568      0.84595      7.67490        -0.000000     -0.069456     -0.051421
      7.32614      0.84595      7.67490         0.001655     -0.000956     -0.040159
      2.93046      3.38380      7.67490        -0.060150      0.034728     -0.051421
      5.86091      3.38380      7.67490         0.060150      0.034728     -0.051421
      8.79137      3.38380      7.67490        -0.000000     -0.010006      0.049912
      4.39568      5.92165      7.67490         0.000000      0.001911     -0.040159
      7.32614      5.92165      7.67490        -0.008665      0.005003      0.049912
     10.25659      5.92165      7.67490         0.008665      0.005003      0.049912
      8.79137      1.69211     10.06133        -0.000000     -0.013089     -0.006571
      2.92756      1.69022     10.03254        -0.099712     -0.057569     -0.132346
      5.86381      1.69022     10.03254         0.099712     -0.057569     -0.132346
     10.25459      4.23091     10.07004         0.048774     -0.028160      0.013592
      4.39568      4.23310     10.03254         0.000000      0.115138     -0.132346
      7.32815      4.23091     10.07004        -0.048774     -0.028160      0.013592
     11.72164      6.76749     10.06133         0.011336      0.006545     -0.006571
      5.86110      6.76749     10.06133        -0.011336      0.006545     -0.006571
      8.79137      6.76528     10.07004         0.000000      0.056319      0.013592
      0.00000      0.00000     12.45237         0.000000      0.000000     -0.010976
      2.94700      0.02679     12.48745        -0.111664     -0.193613     -0.212722
      5.84437      0.02679     12.48745         0.111664     -0.193613     -0.212722
      1.49670      2.53878     12.48745        -0.223506      0.000103     -0.212722
      7.29466      2.53878     12.48745         0.223506      0.000103     -0.212722
      2.94539      5.04797     12.48745        -0.111842      0.193511     -0.212722
      5.84598      5.04797     12.48745         0.111842      0.193511     -0.212722
      8.79137      5.07570     12.46721         0.000000      0.000000      0.027108
      4.39568      2.53785     12.28926         0.000000      0.000000      1.524324
      4.39568      2.53785     14.15049         0.000000      0.000000      0.000152
      4.39568      2.53785     15.11769         0.000000      0.000000      0.001365
    total drift:                                0.031656      0.020373      0.093602

  FREE ENERGIE OF THE ION-ELECTRON SYSTEM (eV)
  free  energy   TOTEN  =      -108.84276799 eV

  energy  without entropy=     -108.84276799  energy(sigma->0) =     -108.84276799

 stress matrix after NEB project (eV)
     -6.49621     -0.00000     -0.00000
     -0.00000     -6.49621     -0.00000
     -0.00000     -0.00000     -0.19554
  FORCES: max atom, RMS     0.001365    0.000223
  FORCE total and by dimension    0.001373    0.001365
  Stress total and by dimension    9.189113    6.496213
|           W    W    AA    RRRRR   N    N  II  N    N   GGGG   !!!           |
|           W    W   A  A   R    R  NN   N  II  NN   N  G    G  !!!           |
|           W    W  A    A  R    R  N N  N  II  N N  N  G       !!!           |
|           W WW W  AAAAAA  RRRRR   N  N N  II  N  N N  G  GGG   !            |
|           WW  WW  A    A  R   R   N   NN  II  N   NN  G    G                |
|           W    W  A    A  R    R  N    N  II  N    N   GGGG   !!!           |
|     Tetrahedron method does not include variations of the Fermi             |
|     occupations, so forces and stress will be inaccurate. We suggest        |
|     using a different smearing scheme ISMEAR = 1 or 2 for metals in         |
|     relaxations.                                                            |

 total charge

# of ion       s       p       d       tot
    1        0.422   0.200   9.178   9.800
    2        0.416   0.204   9.177   9.797
    3        0.416   0.204   9.177   9.797
    4        0.416   0.204   9.177   9.797
    5        0.417   0.202   9.177   9.797
    6        0.416   0.204   9.177   9.797
    7        0.416   0.204   9.177   9.797
    8        0.416   0.204   9.177   9.797
    9        0.415   0.204   9.177   9.796
   10        0.410   0.268   9.164   9.842
   11        0.404   0.270   9.168   9.842
   12        0.410   0.268   9.164   9.842
   13        0.404   0.270   9.168   9.842
   14        0.404   0.270   9.168   9.842
   15        0.402   0.269   9.165   9.835
   16        0.410   0.268   9.164   9.842
   17        0.402   0.269   9.165   9.835
   18        0.402   0.269   9.165   9.835
   19        0.404   0.263   9.167   9.835
   20        0.444   0.302   9.131   9.877
   21        0.444   0.302   9.131   9.877
   22        0.392   0.273   9.164   9.828
   23        0.444   0.302   9.131   9.877
   24        0.392   0.273   9.164   9.828
   25        0.404   0.263   9.167   9.835
   26        0.404   0.263   9.167   9.835
   27        0.392   0.273   9.164   9.828
   28        0.418   0.202   9.171   9.792
   29        0.436   0.221   9.158   9.816
   30        0.436   0.221   9.158   9.816
   31        0.436   0.221   9.158   9.816
   32        0.436   0.221   9.158   9.816
   33        0.436   0.221   9.158   9.816
   34        0.436   0.221   9.158   9.816
   35        0.410   0.206   9.172   9.788
   36        2.197   6.014   2.298  10.509
   37        1.563   3.555   0.000   5.119
   38        0.605   0.124   0.000   0.729
tot         18.932  18.192 323.060 360.185

 BZINTS: Fermi energy:    0.517895;  405.000000 electrons
         Band energy:-0.176904E+04;  BLOECHL correction:   -0.025512