 vasp.6.2.0 18Jan21 (build Jun 12 2021 23:27:24) complex

 executed on             LinuxIFC date 2022.05.27  05:55:49

 INCAR:
   ISMEAR = -5
   SIGMA = 0.1
   ISPIN = 1
   EDIFF = 1.d-5
   EDIFFG = -0.01
   NSW = 0
   NELM = 150
   ENCUT = 500
   ISIF = 2
   IBRION = 2
   LREAL = Auto
   ALGO = Fast
   ICHARG = 11
   LORBIT = 10
   LCHARG = .F.
   LWAVE = .F.

 POTCAR:    PAW_PBE Ag 02Apr2005
 POTCAR:    PAW_PBE Pt 04Feb2005
 POTCAR:    PAW_PBE C 08Apr2002
 POTCAR:    PAW_PBE O 08Apr2002
|           W    W    AA    RRRRR   N    N  II  N    N   GGGG   !!!           |
|           W    W   A  A   R    R  NN   N  II  NN   N  G    G  !!!           |
|           W    W  A    A  R    R  N N  N  II  N N  N  G       !!!           |
|           W WW W  AAAAAA  RRRRR   N  N N  II  N  N N  G  GGG   !            |
|           WW  WW  A    A  R   R   N   NN  II  N   NN  G    G                |
|           W    W  A    A  R    R  N    N  II  N    N   GGGG   !!!           |
|     For optimal performance we recommend to set                             |
|       NCORE = 2 up to number-of-cores-per-socket                            |
|     This setting can greatly improve the performance of VASP for DFT.       |
|     The default, NCORE=1 might be grossly inefficient on modern             |
|     multi-core architectures or massively parallel machines. Do your        |
|     Unfortunately you need to use the default for GW and RPA                |
|     calculations (for HF NCORE is supported but not extensively tested      |
|     yet).                                                                   |

 POTCAR:    PAW_PBE Ag 02Apr2005
   VRHFIN =Ag : s1 d10

   TITEL  = PAW_PBE Ag 02Apr2005
   POMASS =  107.868; ZVAL   =   11.000    mass and valenz
   ENMAX  =  249.844; ENMIN  =  187.383 eV

 POTCAR:    PAW_PBE Pt 04Feb2005
   VRHFIN =Pt: s1d9

   TITEL  = PAW_PBE Pt 04Feb2005
   POMASS =  195.080; ZVAL   =   10.000    mass and valenz
   ENMAX  =  230.283; ENMIN  =  172.712 eV

 POTCAR:    PAW_PBE C 08Apr2002
   VRHFIN =C: s2p2

[...]

 POTCAR:    PAW_PBE O 08Apr2002
   VRHFIN =O: s2p4

   TITEL  = PAW_PBE O 08Apr2002
   POMASS =   16.000; ZVAL   =    6.000    mass and valenz
   ENMAX  =  400.000; ENMIN  =  300.000 eV

 Optimization of the real space projectors (new method)

 maximal supplied QI-value         = 15.12
 optimisation between [QCUT,QGAM] = [ 11.34, 22.83] = [ 36.00,145.93] Ry
 Optimized for a Real-space Cutoff    1.43 Angstroem

   l    n(q)    QCUT    max X(q) W(low)/X(q) W(high)/X(q)  e(spline)
   2      9    11.338    53.897    0.16E-03    0.20E-03    0.28E-06
   2      9    11.338    52.416    0.16E-03    0.20E-03    0.29E-06
   0     10    11.338   122.045    0.31E-04    0.76E-04    0.15E-06
   0     10    11.338    73.629    0.30E-04    0.72E-04    0.15E-06
   1      9    11.338    15.255    0.20E-03    0.19E-04    0.17E-06
   1      9    11.338     9.562    0.16E-03    0.15E-04    0.14E-06
 Optimization of the real space projectors (new method)

[...]

   l    n(q)    QCUT    max X(q) W(low)/X(q) W(high)/X(q)  e(spline)
   0      7    11.310   115.676    0.43E-03    0.13E-02    0.19E-06
   0      7    11.310    87.132    0.43E-03    0.13E-02    0.18E-06
   1      6    11.310     4.429    0.42E-03    0.74E-03    0.11E-06
   1      6    11.310     2.733    0.34E-03    0.55E-03    0.92E-07
 Optimization of the real space projectors (new method)

 maximal supplied QI-value         = 24.76
 optimisation between [QCUT,QGAM] = [ 11.39, 22.77] = [ 36.31,145.25] Ry
 Optimized for a Real-space Cutoff    1.00 Angstroem

   l    n(q)    QCUT    max X(q) W(low)/X(q) W(high)/X(q)  e(spline)
   0      7    11.387    20.381    0.39E-03    0.13E-02    0.15E-06
   0      7    11.387    15.268    0.42E-03    0.14E-02    0.17E-06
   1      6    11.387     5.964    0.41E-03    0.11E-02    0.17E-06
   1      6    11.387     5.382    0.39E-03    0.87E-03    0.15E-06
  PAW_PBE Ag 02Apr2005                  :
  PAW_PBE Pt 04Feb2005                  :
  PAW_PBE C 08Apr2002                   :
  PAW_PBE O 08Apr2002                   :

 POSCAR: Ag-Pt-CO
  positions in direct lattice
  velocities in cartesian coordinates
 exchange correlation table for  LEXCH =        8
   RHO(1)=    0.500       N(1)  =     2000
   RHO(2)=  100.500       N(2)  =     4000

 VTST: version 3.2, (02/03/18)

 CHAIN: initializing optimizer

 OPT: Using VASP Conjugate-Gradient optimizer
 CHAIN: Read ICHAIN            0

 POSCAR: Ag-Pt-CO
  positions in direct lattice
  velocities in cartesian coordinates

 ion  position               nearest neighbor table
   1  0.000  0.000  0.238-   2 2.93   8 2.93   7 2.93   6 2.93   4 2.93  12 2.93  16 2.93  10 2.93
                             3 2.93
   2  0.333  0.000  0.238-   1 2.93   8 2.93   9 2.93   3 2.93   4 2.93   5 2.93  10 2.93  17 2.93
                            11 2.93
   3  0.667  0.000  0.238-   9 2.93   2 2.93   5 2.93  11 2.93   7 2.93  18 2.93   1 2.93   6 2.93
                            12 2.93
   4  0.000  0.333  0.238-   5 2.93   6 2.93   2 2.93   1 2.93   7 2.93  13 2.93  15 2.93   9 2.93
                            10 2.93
   5  0.333  0.333  0.238-   4 2.93   3 2.93   7 2.93   2 2.93   8 2.93  14 2.93  13 2.93  11 2.93
                             6 2.93
   6  0.667  0.333  0.238-   4 2.93   9 2.93   1 2.93  15 2.93   8 2.93  12 2.93   3 2.93   5 2.93
                            14 2.93
   7  0.000  0.667  0.238-   8 2.93   1 2.93   5 2.93   3 2.93   4 2.93  16 2.93  18 2.93  13 2.93
                             9 2.93
   8  0.333  0.667  0.238-   7 2.93   1 2.93   2 2.93   9 2.93   5 2.93  16 2.93   6 2.93  17 2.93
                            14 2.93
   9  0.667  0.667  0.238-   3 2.93   2 2.93   8 2.93   6 2.93  17 2.93   4 2.93  15 2.93   7 2.93
                            18 2.93
  10  0.111  0.111  0.346-  20 2.89  19 2.93  26 2.93  12 2.93  16 2.93  15 2.93  17 2.93  13 2.93
                            11 2.93   2 2.93   1 2.93   4 2.93
  11  0.444  0.111  0.346-  21 2.90  20 2.90  27 2.91  14 2.93  17 2.93  18 2.93   3 2.93  12 2.93
                            13 2.93  10 2.93   5 2.93   2 2.93
  12  0.778  0.111  0.346-  21 2.89  25 2.93  19 2.93  10 2.93  16 2.93  18 2.93  15 2.93  11 2.93
                             1 2.93  14 2.93   6 2.93   3 2.93
  13  0.111  0.444  0.346-  20 2.90  23 2.90  22 2.91  15 2.93  14 2.93  18 2.93  10 2.93  11 2.93
                            16 2.93   4 2.93   5 2.93   7 2.93
  14  0.444  0.444  0.346-  23 2.90  21 2.90  24 2.91  13 2.93  11 2.93  16 2.93   5 2.93  12 2.93
                            17 2.93   8 2.93  15 2.93   6 2.93
  15  0.778  0.444  0.346-  24 2.91  22 2.91  19 2.92  13 2.93  10 2.93  12 2.93  17 2.93  18 2.93
                             4 2.93   6 2.93   9 2.93  14 2.93
  16  0.111  0.778  0.346-  23 2.89  26 2.93  25 2.93  18 2.93  12 2.93  10 2.93  14 2.93  17 2.93
                            13 2.93   7 2.93   8 2.93   1 2.93
  17  0.444  0.778  0.346-  27 2.91  24 2.91  26 2.92  11 2.93  10 2.93   9 2.93  18 2.93  15 2.93
                            16 2.93   2 2.93  14 2.93   8 2.93
  18  0.778  0.778  0.346-  22 2.91  27 2.91  25 2.92  16 2.93  12 2.93  13 2.93  11 2.93  17 2.93
                            15 2.93   7 2.93   3 2.93   9 2.93
  19  0.888  0.223  0.454-  28 2.91  15 2.92  20 2.92  21 2.92  24 2.92  22 2.92  10 2.93  12 2.93
                            32 2.93  31 2.93  26 2.94  25 2.94
  20  0.221  0.221  0.452-  36 2.81  10 2.89  13 2.90  11 2.90  19 2.92  26 2.92  31 2.92  29 2.92
                            27 2.93  22 2.93  21 2.95  23 2.95
  21  0.557  0.221  0.452-  36 2.81  12 2.89  11 2.90  14 2.90  25 2.92  19 2.92  30 2.92  32 2.92
                            27 2.93  24 2.93  20 2.95  23 2.95
  22  0.889  0.556  0.453-  35 2.91  18 2.91  15 2.91  13 2.91  25 2.92  19 2.92  24 2.93  27 2.93
                            33 2.93  31 2.93  23 2.93  20 2.93
  23  0.221  0.557  0.452-  36 2.81  16 2.89  14 2.90  13 2.90  26 2.92  25 2.92  34 2.92  33 2.92
                            22 2.93  24 2.93  21 2.95  20 2.95
  24  0.556  0.556  0.453-  35 2.91  15 2.91  17 2.91  14 2.91  19 2.92  26 2.92  27 2.93  22 2.93
                            32 2.93  34 2.93  23 2.93  21 2.93
  25  0.888  0.888  0.454-  28 2.91  18 2.92  23 2.92  21 2.92  22 2.92  27 2.92  16 2.93  12 2.93
                            33 2.93  30 2.93  26 2.94  19 2.94
  26  0.223  0.888  0.454-  28 2.91  17 2.92  23 2.92  20 2.92  27 2.92  24 2.92  16 2.93  10 2.93
                            34 2.93  29 2.93  25 2.94  19 2.94
  27  0.556  0.889  0.453-  35 2.91  17 2.91  18 2.91  11 2.91  26 2.92  25 2.92  24 2.93  22 2.93
                            29 2.93  30 2.93  20 2.93  21 2.93
  28  0.000  0.000  0.560-  26 2.91  25 2.91  19 2.91  29 2.95  34 2.95  33 2.95  32 2.95  31 2.95
                            30 2.95
  29  0.333  0.004  0.561-  30 2.89  31 2.89  36 2.90  20 2.92  27 2.93  26 2.93  35 2.95  28 2.95
                            34 3.00
  30  0.662  0.004  0.561-  29 2.89  32 2.89  36 2.90  21 2.92  27 2.93  25 2.93  35 2.95  28 2.95
                            33 3.00
  31  0.004  0.333  0.561-  33 2.89  29 2.89  36 2.90  20 2.92  22 2.93  19 2.93  35 2.95  28 2.95
                            32 3.00
  32  0.662  0.333  0.561-  34 2.89  30 2.89  36 2.90  21 2.92  24 2.93  19 2.93  35 2.95  28 2.95
                            31 3.00
  33  0.004  0.662  0.561-  31 2.89  34 2.89  36 2.90  23 2.92  22 2.93  25 2.93  35 2.95  28 2.95
                            30 3.00
  34  0.333  0.662  0.561-  32 2.89  33 2.89  36 2.90  23 2.92  24 2.93  26 2.93  35 2.95  28 2.95
                            29 3.00
  35  0.667  0.667  0.560-  24 2.91  27 2.91  22 2.91  30 2.95  32 2.95  29 2.95  34 2.95  31 2.95
                            33 2.95
  36  0.333  0.333  0.553-  37 1.87  21 2.81  20 2.81  23 2.81  31 2.90  33 2.90  30 2.90  29 2.90
                            34 2.90  32 2.90
  37  0.333  0.333  0.637-  38 1.17  36 1.87
  38  0.333  0.333  0.690-  37 1.17

  LATTYP: Found a hexagonal cell.
 ALAT       =     8.7913665772
 C/A-ratio  =     2.5227160501

  Lattice vectors:

 A1 = (  -4.3956832886,  -7.6135467898,   0.0000000000)
 A2 = (   8.7913665771,   0.0000000000,   0.0000000000)
 A3 = (   0.0000000000,   0.0000000000,  22.1781215668)

Analysis of symmetry for initial positions (statically):
 Subroutine PRICEL returns:
 Original cell was already a primitive cell.

 Routine SETGRP: Setting up the symmetry group for a
 hexagonal supercell.

 Subroutine GETGRP returns: Found  6 space group operations
 (whereof  6 operations were pure point group operations)
 out of a pool of 24 trial point group operations.

The static configuration has the point symmetry C_3v.

Analysis of symmetry for dynamics (positions and initial velocities):
 Subroutine PRICEL returns:
 Original cell was already a primitive cell.

[...]

The dynamic configuration has the point symmetry C_3v.

Analysis of constrained symmetry for selective dynamics:
 Subroutine PRICEL returns:
 Original cell was already a primitive cell.

 Routine SETGRP: Setting up the symmetry group for a
 hexagonal supercell.

[...]
     33      -4.4202      2.00000
     34      -4.4109      2.00000
     35      -4.4068      2.00000
     36      -4.3873      2.00000
     37      -4.3636      2.00000
     38      -4.3525      2.00000
     39      -4.3005      2.00000
     40      -4.2794      2.00000
     41      -4.2763      2.00000
     42      -4.2412      2.00000
     43      -4.2080      2.00000
     44      -4.1997      2.00000
     45      -4.1970      2.00000
     46      -4.1900      2.00000
     47      -4.1644      2.00000
     48      -4.0759      2.00000
     49      -4.0465      2.00000
     50      -4.0372      2.00000
     51      -4.0306      2.00000
     52      -4.0254      2.00000
     53      -4.0230      2.00000
     54      -4.0149      2.00000
     55      -4.0097      2.00000
     56      -4.0005      2.00000
     57      -3.9811      2.00000
     58      -3.9132      2.00000
     59      -3.9039      2.00000
     60      -3.8941      2.00000
[...]
    238       5.9961      0.00000
    239       6.2672      0.00000
    240       6.3072      0.00000
    241       6.3175      0.00000
    242       6.4073      0.00000
    243       6.4893      0.00000
    244       7.2749      0.00000
    245       7.3212      0.00000
    246       7.3629      0.00000
    247       7.3792      0.00000
    248       7.3929      0.00000
    249       7.4426      0.00000
    250       7.4704      0.00000
    251       7.6024      0.00000
    252       7.6939      0.00000

 soft charge-density along one line, spin component           1
         0         1         2         3         4         5         6         7         8         9
 total charge-density along one line

------------------------ aborting loop because EDIFF is reached ----------------------------------------

 total charge

# of ion       s       p       d       tot
    1        0.414   0.204   9.177   9.795
    2        0.419   0.203   9.177   9.799
    3        0.419   0.203   9.177   9.799
    4        0.419   0.203   9.177   9.799
    5        0.416   0.205   9.176   9.796
    6        0.419   0.203   9.177   9.799
    7        0.419   0.203   9.177   9.799
    8        0.419   0.203   9.177   9.799
    9        0.414   0.204   9.178   9.796
   10        0.406   0.270   9.163   9.839
   11        0.410   0.268   9.167   9.844
   12        0.406   0.270   9.163   9.839
   13        0.410   0.268   9.167   9.844
   14        0.410   0.268   9.167   9.844
   15        0.399   0.272   9.165   9.837
   16        0.406   0.270   9.163   9.839
   17        0.399   0.272   9.165   9.837
   18        0.399   0.272   9.165   9.837
   19        0.405   0.269   9.166   9.840
   20        0.415   0.294   9.153   9.861
   21        0.415   0.294   9.153   9.861
   22        0.399   0.274   9.166   9.839
   23        0.415   0.294   9.153   9.861
   24        0.399   0.274   9.166   9.839
   25        0.405   0.269   9.166   9.840
   26        0.405   0.269   9.166   9.840
   27        0.399   0.274   9.166   9.839
   28        0.418   0.199   9.180   9.797
   29        0.405   0.211   9.184   9.800
   30        0.405   0.211   9.184   9.800
   31        0.405   0.211   9.184   9.800
   32        0.405   0.211   9.184   9.800
   33        0.405   0.211   9.184   9.800
   34        0.405   0.211   9.184   9.800
   35        0.416   0.200   9.181   9.797
   36        0.679   0.627   8.104   9.410
   37        0.954   1.554   0.000   2.508
   38        1.615   3.527   0.000   5.143
tot         17.573  14.143 329.099 360.814

  FORCE on cell =-STRESS in cart. coord.  units (eV):
  Direction    XX          YY          ZZ          XY          YZ          ZX
  Alpha Z   776.22980   776.22980   776.22980
  Ewald  119985.73983119985.73991************     0.00004     0.00000     0.00005
  Hartree130516.72756130516.72759************     0.00002     0.00000     0.00002
  E(xc)   -2118.96406 -2118.96414 -2122.82702     0.00007    -0.00000    -0.00001
  Local  ************************261479.30909     0.00055    -0.00006    -0.00019
  n-local  -342.42540  -325.09544  -345.19310    10.65598    -0.39851     0.43223
  augment  3280.42248  3280.42277  3282.85987    -0.00025    -0.00002    -0.00004
  Kinetic  5114.15043  5115.91119  5094.88279     3.95853     1.19476    -0.44258
  Fock        0.00000     0.00000     0.00000     0.00000     0.00000     0.00000
  Total      -6.49352    -6.49352    -0.35243    -0.00000     0.00000    -0.00000
  in kB      -7.00846    -7.00846    -0.38037    -0.00000     0.00000    -0.00000

 VOLUME and BASIS-vectors are now :
  energy-cutoff  :      500.00
  volume of cell :     1484.46
      direct lattice vectors                 reciprocal lattice vectors
     8.791366577  0.000000000  0.000000000     0.113747958 -0.065672414  0.000000000
     4.395683289  7.613546790  0.000000000     0.000000000  0.131344829  0.000000000
     0.000000000  0.000000000 22.178121567     0.000000000  0.000000000  0.045089481

  length of vectors
     8.791366577  8.791366577 22.178121567     0.131344829  0.131344829  0.045089481

 FORCES acting on ions
    electron-ion (+dipol)            ewald-force                    non-local-force                 convergence-correction
   0.459E-04 -.283E-04 0.253E+04   -.954E-04 0.593E-04 -.252E+04   0.463E-17 -.126E-17 -.247E+01   -.107E-03 -.169E-03 -.408E-02
   0.462E+00 0.417E+00 0.253E+04   -.473E+00 -.435E+00 -.252E+04   0.746E-02 -.123E-01 -.164E+01   0.121E-01 0.465E-01 -.199E-01
   -.462E+00 0.417E+00 0.253E+04   0.474E+00 -.435E+00 -.252E+04   -.746E-02 -.123E-01 -.164E+01   -.126E-01 0.484E-01 -.192E-01
   0.592E+00 0.192E+00 0.253E+04   -.614E+00 -.192E+00 -.252E+04   -.690E-02 0.126E-01 -.164E+01   0.465E-01 -.126E-01 -.199E-01
   -.628E-05 -.190E-04 0.253E+04   0.981E-04 -.197E-05 -.252E+04   -.514E-18 0.244E-17 -.154E+01   0.624E-02 0.382E-02 -.271E-01
   -.592E+00 0.192E+00 0.253E+04   0.613E+00 -.192E+00 -.252E+04   0.690E-02 0.126E-01 -.164E+01   -.479E-01 -.117E-01 -.190E-01
   0.130E+00 -.609E+00 0.253E+04   -.140E+00 0.628E+00 -.252E+04   -.144E-01 -.326E-03 -.164E+01   0.361E-01 -.346E-01 -.192E-01
   -.130E+00 -.609E+00 0.253E+04   0.140E+00 0.627E+00 -.252E+04   0.144E-01 -.326E-03 -.164E+01   -.344E-01 -.356E-01 -.190E-01
   0.368E-04 -.127E-04 0.253E+04   0.792E-04 -.643E-04 -.252E+04   -.652E-18 -.296E-17 -.207E+01   -.667E-02 -.344E-02 0.299E-01
   0.602E+01 0.348E+01 0.888E+03   -.558E+01 -.322E+01 -.887E+03   -.420E+00 -.243E+00 -.863E+00   0.211E-02 0.124E-02 0.655E-01
   -.288E-04 0.356E+01 0.894E+03   0.411E-04 -.371E+01 -.894E+03   0.367E-12 0.559E-01 -.550E+00   0.629E-02 0.536E-01 0.612E-01
   -.602E+01 0.348E+01 0.888E+03   0.558E+01 -.322E+01 -.887E+03   0.420E+00 -.243E+00 -.863E+00   -.368E-02 0.231E-02 0.654E-01
   0.309E+01 -.178E+01 0.894E+03   -.322E+01 0.186E+01 -.894E+03   0.484E-01 -.280E-01 -.550E+00   0.494E-01 -.213E-01 0.612E-01
   -.309E+01 -.178E+01 0.894E+03   0.322E+01 0.186E+01 -.894E+03   -.484E-01 -.280E-01 -.550E+00   -.387E-01 -.221E-01 0.604E-01
   0.162E-04 0.122E+01 0.889E+03   -.109E-03 -.122E+01 -.888E+03   -.977E-13 -.149E-01 -.660E+00   -.166E-02 -.194E-02 0.491E-01
   -.778E-05 -.695E+01 0.888E+03   0.205E-04 0.644E+01 -.887E+03   0.319E-11 0.485E+00 -.863E+00   0.118E-03 -.442E-02 0.654E-01
   0.105E+01 -.609E+00 0.889E+03   -.106E+01 0.611E+00 -.888E+03   -.129E-01 0.744E-02 -.660E+00   -.254E-02 -.480E-03 0.491E-01
   -.105E+01 -.609E+00 0.889E+03   0.106E+01 0.611E+00 -.888E+03   0.129E-01 0.744E-02 -.660E+00   0.254E-02 0.144E-02 0.497E-01
   0.406E-04 0.491E+01 -.787E+03   -.131E-03 -.486E+01 0.786E+03   -.256E-12 -.390E-01 0.655E+00   -.652E-03 -.307E-01 -.644E-01
   0.154E+02 0.886E+01 -.741E+03   -.145E+02 -.837E+01 0.742E+03   -.836E+00 -.483E+00 -.905E+00   0.397E-01 0.230E-01 0.161E-01
   -.154E+02 0.886E+01 -.741E+03   0.145E+02 -.837E+01 0.742E+03   0.836E+00 -.483E+00 -.905E+00   -.397E-01 0.231E-01 0.155E-01
   0.727E+01 -.420E+01 -.774E+03   -.754E+01 0.435E+01 0.773E+03   0.273E+00 -.158E+00 0.715E+00   0.268E-01 -.154E-01 -.403E-01
   -.563E-04 -.177E+02 -.741E+03   0.446E-04 0.167E+02 0.742E+03   0.634E-11 0.965E+00 -.905E+00   0.531E-03 -.453E-01 0.155E-01
   -.727E+01 -.420E+01 -.774E+03   0.754E+01 0.435E+01 0.773E+03   -.273E+00 -.158E+00 0.715E+00   -.268E-01 -.154E-01 -.397E-01
   -.425E+01 -.245E+01 -.787E+03   0.421E+01 0.243E+01 0.786E+03   0.338E-01 0.195E-01 0.655E+00   0.272E-01 0.156E-01 -.643E-01
   0.425E+01 -.245E+01 -.787E+03   -.421E+01 0.243E+01 0.786E+03   -.338E-01 0.195E-01 0.655E+00   -.272E-01 0.146E-01 -.644E-01
   0.199E-04 0.839E+01 -.774E+03   0.110E-03 -.871E+01 0.773E+03   0.207E-11 0.315E+00 0.715E+00   -.552E-03 0.309E-01 -.403E-01
   0.548E-04 -.370E-04 -.244E+04   -.117E-03 0.788E-04 0.244E+04   0.593E-18 -.158E-17 0.178E+01   -.118E-02 -.819E-03 0.651E-01
   0.321E+02 0.558E+02 -.242E+04   -.322E+02 -.560E+02 0.242E+04   -.790E-01 -.527E-01 0.216E+01   0.245E-01 0.556E-01 0.702E-01
   -.321E+02 0.558E+02 -.242E+04   0.322E+02 -.560E+02 0.242E+04   0.790E-01 -.527E-01 0.216E+01   -.148E-01 0.573E-01 0.702E-01
   0.644E+02 -.569E-01 -.242E+04   -.646E+02 0.122E+00 0.242E+04   -.852E-01 -.420E-01 0.216E+01   0.606E-01 -.642E-02 0.702E-01
   -.644E+02 -.569E-01 -.242E+04   0.646E+02 0.122E+00 0.242E+04   0.852E-01 -.420E-01 0.216E+01   -.514E-01 -.555E-02 0.703E-01
   0.322E+02 -.557E+02 -.242E+04   -.324E+02 0.559E+02 0.242E+04   -.618E-02 0.948E-01 0.216E+01   0.427E-01 -.409E-01 0.702E-01
   -.322E+02 -.557E+02 -.242E+04   0.324E+02 0.559E+02 0.242E+04   0.618E-02 0.948E-01 0.216E+01   -.309E-01 -.417E-01 0.703E-01
   0.206E-04 -.103E-04 -.244E+04   0.107E-03 -.671E-04 0.244E+04   0.640E-17 0.131E-17 0.183E+01   -.780E-02 -.408E-02 0.587E-01
   0.263E-04 -.214E-04 -.194E+04   0.953E-04 0.113E-04 0.195E+04   -.119E-16 0.355E-18 -.276E+01   0.218E-02 0.136E-02 0.407E-01
   0.374E-05 -.811E-04 -.880E+03   0.165E-04 0.200E-06 0.865E+03   0.395E-19 0.691E-18 0.146E+02   0.108E-02 0.668E-03 0.476E-02
   0.238E-03 -.932E-04 -.153E+04   0.878E-05 0.787E-08 0.159E+04   0.252E-18 -.432E-19 -.595E+02   0.367E-02 0.225E-02 -.307E-01
   0.673E-03 -.856E-03 0.513E+02   0.104E-12 0.205E-12 -.227E-11   0.121E-15 -.331E-15 -.519E+02   0.411E-01 0.271E-01 0.703E+00

 POSITION                                       TOTAL-FORCE (eV/Angst)
      0.00000      0.00000      5.28219        -0.000000      0.000000      0.062567
      2.93046      0.00000      5.28219         0.008769      0.017052      0.043290
      5.86091      0.00000      5.28219        -0.008769      0.017052      0.043290
      1.46523      2.53785      5.28219         0.019152     -0.000931      0.043290
      4.39568      2.53785      5.28219        -0.000000      0.000000      0.020371
      7.32614      2.53785      5.28219        -0.019152     -0.000931      0.043290
      2.93046      5.07570      5.28219         0.010382     -0.016120      0.043290
      5.86091      5.07570      5.28219        -0.010382     -0.016120      0.043290
      8.79137      5.07570      5.28219        -0.000000      0.000000      0.051103
      1.46523      0.84595      7.67490         0.024051      0.013886     -0.016781
      4.39568      0.84595      7.67490        -0.000000     -0.044298     -0.114320
      7.32614      0.84595      7.67490        -0.024051      0.013886     -0.016781
      2.93046      3.38380      7.67490        -0.038363      0.022149     -0.114320
      5.86091      3.38380      7.67490         0.038363      0.022149     -0.114320
      8.79137      3.38380      7.67490        -0.000000     -0.020964     -0.010437
      4.39568      5.92165      7.67490        -0.000000     -0.027772     -0.016781
      7.32614      5.92165      7.67490        -0.018155      0.010482     -0.010437
     10.25659      5.92165      7.67490         0.018155      0.010482     -0.010437
      8.79137      1.70009     10.06101        -0.000000     -0.017745     -0.008476
      2.92042      1.68610     10.02751         0.048833      0.028193     -0.119654
      5.87095      1.68610     10.02751        -0.048833      0.028193     -0.119654
     10.25445      4.23098     10.04520         0.024219     -0.013983      0.010151
      4.39568      4.24134     10.02751        -0.000000     -0.056387     -0.119654
      7.32828      4.23098     10.04520        -0.024219     -0.013983      0.010151
     11.71473      6.76350     10.06101         0.015367      0.008872     -0.008476
      5.86800      6.76350     10.06101        -0.015367      0.008872     -0.008476
      8.79137      6.76512     10.04520         0.000000      0.027966      0.010151
      0.00000      0.00000     12.42233        -0.000000      0.000000     -0.003263
      2.94927      0.03214     12.43461        -0.109934     -0.217286     -0.080439
      5.84210      0.03214     12.43461         0.109934     -0.217286     -0.080439
      1.50247      2.53807     12.43461        -0.243142      0.013438     -0.080439
      7.28890      2.53807     12.43461         0.243142      0.013438     -0.080439
      2.94888      5.04334     12.43461        -0.133209      0.203849     -0.080439
      5.84248      5.04334     12.43461         0.133209      0.203849     -0.080439
      8.79137      5.07570     12.41249        -0.000000      0.000000      0.001667
      4.39568      2.53785     12.25656        -0.000000      0.000000      0.876140
      4.39568      2.53785     14.13046        -0.000000      0.000000     -0.010902
      4.39568      2.53785     15.29657        -0.000000      0.000000      0.003762
    total drift:                                0.041759      0.026288      0.106572

  FREE ENERGIE OF THE ION-ELECTRON SYSTEM (eV)
  free  energy   TOTEN  =      -111.25237995 eV

  energy  without entropy=     -111.25237995  energy(sigma->0) =     -111.25237995

 stress matrix after NEB project (eV)
     -6.49352     -0.00000     -0.00000
     -0.00000     -6.49352      0.00000
      0.00000      0.00000     -0.35243
  FORCES: max atom, RMS     0.010902    0.001871
  FORCE total and by dimension    0.011533    0.010902
  Stress total and by dimension    9.189980    6.493517
|           W    W    AA    RRRRR   N    N  II  N    N   GGGG   !!!           |
|           W    W   A  A   R    R  NN   N  II  NN   N  G    G  !!!           |
|           W    W  A    A  R    R  N N  N  II  N N  N  G       !!!           |
|           W WW W  AAAAAA  RRRRR   N  N N  II  N  N N  G  GGG   !            |
|           WW  WW  A    A  R   R   N   NN  II  N   NN  G    G                |
|           W    W  A    A  R    R  N    N  II  N    N   GGGG   !!!           |
|     Tetrahedron method does not include variations of the Fermi             |
|     occupations, so forces and stress will be inaccurate. We suggest        |
|     using a different smearing scheme ISMEAR = 1 or 2 for metals in         |
|     relaxations.                                                            |

 total charge

# of ion       s       p       d       tot
    1        0.414   0.204   9.177   9.795
    2        0.419   0.203   9.177   9.799
    3        0.419   0.203   9.177   9.799
    4        0.419   0.203   9.177   9.799
    5        0.416   0.205   9.176   9.796
    6        0.419   0.203   9.177   9.799
    7        0.419   0.203   9.177   9.799
    8        0.419   0.203   9.177   9.799
    9        0.414   0.204   9.178   9.796
   10        0.406   0.270   9.163   9.839
   11        0.410   0.268   9.167   9.844
   12        0.406   0.270   9.163   9.839
   13        0.410   0.268   9.167   9.844
   14        0.410   0.268   9.167   9.844
   15        0.399   0.272   9.165   9.837
   16        0.406   0.270   9.163   9.839
   17        0.399   0.272   9.165   9.837
   18        0.399   0.272   9.165   9.837
   19        0.405   0.269   9.166   9.840
   20        0.415   0.294   9.153   9.861
   21        0.415   0.294   9.153   9.861
   22        0.399   0.274   9.166   9.839
   23        0.415   0.294   9.153   9.861
   24        0.399   0.274   9.166   9.839
   25        0.405   0.269   9.166   9.840
   26        0.405   0.269   9.166   9.840
   27        0.399   0.274   9.166   9.839
   28        0.418   0.199   9.180   9.797
   29        0.405   0.211   9.184   9.800
   30        0.405   0.211   9.184   9.800
   31        0.405   0.211   9.184   9.800
   32        0.405   0.211   9.184   9.800
   33        0.405   0.211   9.184   9.800
   34        0.405   0.211   9.184   9.800
   35        0.416   0.200   9.181   9.797
   36        0.679   0.627   8.104   9.410
   37        0.954   1.554   0.000   2.508
   38        1.615   3.527   0.000   5.143
tot         17.573  14.143 329.099 360.814

 BZINTS: Fermi energy:    0.990748;  405.000000 electrons
         Band energy:-0.132710E+04;  BLOECHL correction:   -0.061979