 vasp.6.2.0 18Jan21 (build Jun 12 2021 23:27:24) complex

 executed on             LinuxIFC date 2022.05.26  19:41:00

 INCAR:
   ISMEAR = -5
   SIGMA = 0.1
   ISPIN = 1
   EDIFF = 1.d-5
   EDIFFG = -0.01
   NSW = 0
   NELM = 150
   ENCUT = 500
   ISIF = 2
   IBRION = 2
   LREAL = Auto
   ALGO = Fast
   ICHARG = 11
   LORBIT = 10
   LCHARG = .F.
   LWAVE = .F.

 POTCAR:    PAW_PBE Ag 02Apr2005
 POTCAR:    PAW_PBE Fe 06Sep2000
 POTCAR:    PAW_PBE H 15Jun2001
|           W    W    AA    RRRRR   N    N  II  N    N   GGGG   !!!           |
|           W    W   A  A   R    R  NN   N  II  NN   N  G    G  !!!           |
|           W    W  A    A  R    R  N N  N  II  N N  N  G       !!!           |
|           W WW W  AAAAAA  RRRRR   N  N N  II  N  N N  G  GGG   !            |
|           WW  WW  A    A  R   R   N   NN  II  N   NN  G    G                |
|           W    W  A    A  R    R  N    N  II  N    N   GGGG   !!!           |
|     For optimal performance we recommend to set                             |
|       NCORE = 2 up to number-of-cores-per-socket                            |
|     This setting can greatly improve the performance of VASP for DFT.       |
|     The default, NCORE=1 might be grossly inefficient on modern             |
|     multi-core architectures or massively parallel machines. Do your        |
|     Unfortunately you need to use the default for GW and RPA                |
|     calculations (for HF NCORE is supported but not extensively tested      |
|     yet).                                                                   |

 POTCAR:    PAW_PBE Ag 02Apr2005
   VRHFIN =Ag : s1 d10

   TITEL  = PAW_PBE Ag 02Apr2005
   POMASS =  107.868; ZVAL   =   11.000    mass and valenz
   ENMAX  =  249.844; ENMIN  =  187.383 eV

 POTCAR:    PAW_PBE Fe 06Sep2000
   VRHFIN =Fe:  d7 s1

   TITEL  = PAW_PBE Fe 06Sep2000
   POMASS =   55.847; ZVAL   =    8.000    mass and valenz
   ENMAX  =  267.882; ENMIN  =  200.911 eV

 POTCAR:    PAW_PBE H 15Jun2001
   VRHFIN =H: ultrasoft test

   TITEL  = PAW_PBE H 15Jun2001
   POMASS =    1.000; ZVAL   =    1.000    mass and valenz
   ENMAX  =  250.000; ENMIN  =  200.000 eV

 Optimization of the real space projectors (new method)

 maximal supplied QI-value         = 15.12
 optimisation between [QCUT,QGAM] = [ 11.34, 22.83] = [ 36.00,145.93] Ry
 Optimized for a Real-space Cutoff    1.43 Angstroem

   l    n(q)    QCUT    max X(q) W(low)/X(q) W(high)/X(q)  e(spline)
   2      9    11.338    53.897    0.16E-03    0.20E-03    0.28E-06
   2      9    11.338    52.416    0.16E-03    0.20E-03    0.29E-06
   0     10    11.338   122.045    0.31E-04    0.76E-04    0.15E-06
   0     10    11.338    73.629    0.30E-04    0.72E-04    0.15E-06
   1      9    11.338    15.255    0.20E-03    0.19E-04    0.17E-06
   1      9    11.338     9.562    0.16E-03    0.15E-04    0.14E-06
 Optimization of the real space projectors (new method)

[...]

   l    n(q)    QCUT    max X(q) W(low)/X(q) W(high)/X(q)  e(spline)
   2      8    11.376    80.901    0.45E-03    0.44E-04    0.21E-06
   2      8    11.376    75.754    0.45E-03    0.45E-04    0.22E-06
   0      9    11.376    58.752    0.65E-04    0.95E-04    0.17E-06
   0      9    11.376    30.679    0.59E-04    0.87E-04    0.16E-06
   1      9    11.376    17.977    0.38E-03    0.10E-03    0.14E-06
   1      9    11.376    13.559    0.31E-03    0.90E-04    0.12E-06
 Optimization of the real space projectors (new method)

 maximal supplied QI-value         = 34.20
 optimisation between [QCUT,QGAM] = [ 11.29, 22.57] = [ 35.68,142.71] Ry
 Optimized for a Real-space Cutoff    1.16 Angstroem

   l    n(q)    QCUT    max X(q) W(low)/X(q) W(high)/X(q)  e(spline)
   0      8    11.287    19.460    0.40E-03    0.73E-03    0.16E-06
   0      8    11.287    12.209    0.38E-03    0.70E-03    0.15E-06
   1      7    11.287     4.655    0.22E-03    0.25E-04    0.22E-06
  PAW_PBE Ag 02Apr2005                  :
  PAW_PBE Fe 06Sep2000                  :
  PAW_PBE H 15Jun2001                   :

 POSCAR: Ag-Fe-H
  positions in direct lattice
  velocities in cartesian coordinates
 exchange correlation table for  LEXCH =        8
   RHO(1)=    0.500       N(1)  =     2000
   RHO(2)=  100.500       N(2)  =     4000

 VTST: version 3.2, (02/03/18)

 CHAIN: initializing optimizer

 OPT: Using VASP Conjugate-Gradient optimizer
 CHAIN: Read ICHAIN            0

 POSCAR: Ag-Fe-H
  positions in direct lattice
  velocities in cartesian coordinates

 ion  position               nearest neighbor table
   1  0.000  0.000  0.238-   2 2.93   8 2.93   7 2.93   6 2.93   4 2.93  12 2.93  16 2.93  10 2.93
                             3 2.93
   2  0.333  0.000  0.238-   1 2.93   8 2.93   9 2.93   3 2.93   4 2.93   5 2.93  10 2.93  17 2.93
                            11 2.93
   3  0.667  0.000  0.238-   9 2.93   2 2.93   5 2.93  11 2.93   7 2.93  18 2.93   1 2.93   6 2.93
                            12 2.93
   4  0.000  0.333  0.238-   5 2.93   6 2.93   2 2.93   1 2.93   7 2.93  13 2.93  15 2.93   9 2.93
                            10 2.93
   5  0.333  0.333  0.238-   4 2.93   3 2.93   7 2.93   2 2.93   8 2.93  14 2.93  13 2.93  11 2.93
                             6 2.93
   6  0.667  0.333  0.238-   4 2.93   9 2.93   1 2.93  15 2.93   8 2.93  12 2.93   3 2.93   5 2.93
                            14 2.93
   7  0.000  0.667  0.238-   8 2.93   1 2.93   5 2.93   3 2.93   4 2.93  16 2.93  18 2.93  13 2.93
                             9 2.93
   8  0.333  0.667  0.238-   7 2.93   1 2.93   2 2.93   9 2.93   5 2.93  16 2.93   6 2.93  17 2.93
                            14 2.93
   9  0.667  0.667  0.238-   3 2.93   2 2.93   8 2.93   6 2.93  17 2.93   4 2.93  15 2.93   7 2.93
                            18 2.93
  10  0.111  0.111  0.346-  20 2.92  19 2.93  26 2.93  12 2.93  16 2.93  15 2.93  17 2.93  13 2.93
                            11 2.93   2 2.93   1 2.93   4 2.93
  11  0.444  0.111  0.346-  21 2.90  20 2.90  27 2.92  14 2.93  17 2.93  18 2.93   3 2.93  12 2.93
                            13 2.93  10 2.93   5 2.93   2 2.93
  12  0.778  0.111  0.346-  21 2.92  25 2.93  19 2.93  10 2.93  16 2.93  18 2.93  15 2.93  11 2.93
                             1 2.93  14 2.93   6 2.93   3 2.93
  13  0.111  0.444  0.346-  20 2.90  23 2.90  22 2.92  15 2.93  14 2.93  18 2.93  10 2.93  11 2.93
                            16 2.93   4 2.93   5 2.93   7 2.93
  14  0.444  0.444  0.346-  23 2.90  21 2.90  24 2.92  13 2.93  11 2.93  16 2.93   5 2.93  12 2.93
                            17 2.93   8 2.93  15 2.93   6 2.93
  15  0.778  0.444  0.346-  24 2.92  22 2.92  19 2.93  13 2.93  10 2.93  12 2.93  17 2.93  18 2.93
                             4 2.93   6 2.93   9 2.93  14 2.93
  16  0.111  0.778  0.346-  23 2.92  26 2.93  25 2.93  18 2.93  12 2.93  10 2.93  14 2.93  17 2.93
                            13 2.93   7 2.93   8 2.93   1 2.93
  17  0.444  0.778  0.346-  27 2.92  24 2.92  26 2.93  11 2.93  10 2.93   9 2.93  18 2.93  15 2.93
                            16 2.93   2 2.93  14 2.93   8 2.93
  18  0.778  0.778  0.346-  22 2.92  27 2.92  25 2.93  16 2.93  12 2.93  13 2.93  11 2.93  17 2.93
                            15 2.93   7 2.93   3 2.93   9 2.93
  19  0.889  0.222  0.454-  28 2.91  15 2.93  10 2.93  12 2.93  24 2.93  22 2.93  26 2.93  25 2.93
                            20 2.94  21 2.94  32 2.94  31 2.94
  20  0.223  0.223  0.453-  36 2.70  31 2.89  29 2.89  13 2.90  11 2.90  21 2.91  23 2.91  10 2.92
                            27 2.94  22 2.94  19 2.94  26 2.94
  21  0.554  0.223  0.453-  36 2.70  30 2.89  32 2.89  11 2.90  14 2.90  20 2.91  23 2.91  12 2.92
                            27 2.94  24 2.94  25 2.94  19 2.94
  22  0.888  0.556  0.453-  35 2.91  18 2.92  15 2.92  33 2.92  31 2.92  13 2.92  24 2.92  27 2.92
                            25 2.93  19 2.93  23 2.94  20 2.94
  23  0.223  0.554  0.453-  36 2.70  34 2.89  33 2.89  14 2.90  13 2.90  21 2.91  20 2.91  16 2.92
                            22 2.94  24 2.94  26 2.94  25 2.94
  24  0.556  0.556  0.453-  35 2.91  15 2.92  17 2.92  32 2.92  34 2.92  14 2.92  27 2.92  22 2.92
                            19 2.93  26 2.93  23 2.94  21 2.94
  25  0.889  0.889  0.454-  28 2.91  18 2.93  16 2.93  12 2.93  22 2.93  27 2.93  26 2.93  19 2.93
                            23 2.94  21 2.94  33 2.94  30 2.94
  26  0.222  0.889  0.454-  28 2.91  17 2.93  16 2.93  10 2.93  27 2.93  24 2.93  25 2.93  19 2.93
                            23 2.94  20 2.94  34 2.94  29 2.94
  27  0.556  0.888  0.453-  35 2.91  17 2.92  18 2.92  29 2.92  30 2.92  11 2.92  24 2.92  22 2.92
                            26 2.93  25 2.93  20 2.94  21 2.94
  28  0.000  0.000  0.560-  26 2.91  25 2.91  19 2.91  29 2.97  34 2.97  33 2.97  32 2.97  31 2.97
                            30 2.97
  29  0.333  0.008  0.560-  31 2.86  30 2.86  36 2.87  20 2.89  27 2.92  26 2.94  28 2.97  35 2.97
                            34 3.07
  30  0.659  0.008  0.560-  32 2.86  29 2.86  36 2.87  21 2.89  27 2.92  25 2.94  28 2.97  35 2.97
                            33 3.07
  31  0.008  0.333  0.560-  29 2.86  33 2.86  36 2.87  20 2.89  22 2.92  19 2.94  28 2.97  35 2.97
                            32 3.07
  32  0.659  0.333  0.560-  30 2.86  34 2.86  36 2.87  21 2.89  24 2.92  19 2.94  28 2.97  35 2.97
                            31 3.07
  33  0.008  0.659  0.560-  34 2.86  31 2.86  36 2.87  23 2.89  22 2.92  25 2.94  28 2.97  35 2.97
                            30 3.07
  34  0.333  0.659  0.560-  33 2.86  32 2.86  36 2.87  23 2.89  24 2.92  26 2.94  28 2.97  35 2.97
                            29 3.07
  35  0.667  0.667  0.560-  24 2.91  27 2.91  22 2.91  32 2.97  30 2.97  29 2.97  34 2.97  31 2.97
                            33 2.97
  36  0.333  0.333  0.548-  37 1.52  21 2.70  20 2.70  23 2.70  31 2.87  30 2.87  33 2.87  29 2.87
                            34 2.87  32 2.87
  37  0.333  0.333  0.616-  36 1.52

  LATTYP: Found a hexagonal cell.
 ALAT       =     8.7913665772
 C/A-ratio  =     2.5227160501

  Lattice vectors:

 A1 = (  -4.3956832886,  -7.6135467898,   0.0000000000)
 A2 = (   8.7913665771,   0.0000000000,   0.0000000000)
 A3 = (   0.0000000000,   0.0000000000,  22.1781215668)

Analysis of symmetry for initial positions (statically):
 Subroutine PRICEL returns:
 Original cell was already a primitive cell.

 Routine SETGRP: Setting up the symmetry group for a
 hexagonal supercell.

 Subroutine GETGRP returns: Found  6 space group operations
 (whereof  6 operations were pure point group operations)
 out of a pool of 24 trial point group operations.

The static configuration has the point symmetry C_3v.

Analysis of symmetry for dynamics (positions and initial velocities):
 Subroutine PRICEL returns:
 Original cell was already a primitive cell.

[...]

The dynamic configuration has the point symmetry C_3v.

Analysis of constrained symmetry for selective dynamics:
 Subroutine PRICEL returns:
 Original cell was already a primitive cell.

 Routine SETGRP: Setting up the symmetry group for a
 hexagonal supercell.

 Subroutine GETGRP returns: Found  6 space group operations
 (whereof  6 operations were pure point group operations)
[...]
     24      -4.7193      2.00000
     25      -4.6882      2.00000
     26      -4.6642      2.00000
     27      -4.6515      2.00000
     28      -4.6435      2.00000
     29      -4.6337      2.00000
     30      -4.6151      2.00000
     31      -4.6065      2.00000
     32      -4.5685      2.00000
     33      -4.5449      2.00000
     34      -4.5040      2.00000
     35      -4.4811      2.00000
     36      -4.4614      2.00000
     37      -4.4407      2.00000
     38      -4.4138      2.00000
     39      -4.4072      2.00000
     40      -4.3860      2.00000
     41      -4.3794      2.00000
     42      -4.3520      2.00000
     43      -4.3008      2.00000
     44      -4.2753      2.00000
     45      -4.2652      2.00000
     46      -4.2575      2.00000
     47      -4.2462      2.00000
     48      -4.2418      2.00000
     49      -4.2265      2.00000
     50      -4.2167      2.00000
     51      -4.2014      2.00000
     52      -4.1965      2.00000
     53      -4.1348      2.00000
     54      -4.1284      2.00000
     55      -4.1162      2.00000
     56      -4.1096      2.00000
     57      -4.0928      2.00000
     58      -4.0773      2.00000
     59      -4.0391      2.00000
     60      -4.0304      2.00000
[...]
    238       7.0551      0.00000
    239       7.1288      0.00000
    240       7.1389      0.00000
    241       7.1720      0.00000
    242       7.2163      0.00000
    243       7.2723      0.00000
    244       7.2833      0.00000
    245       7.4373      0.00000
    246       7.4778      0.00000
    247       7.5049      0.00000
    248       7.5452      0.00000
    249       7.5828      0.00000
    250       7.7919      0.00000
    251       7.8676      0.00000
    252       8.0722      0.00000

 soft charge-density along one line, spin component           1
         0         1         2         3         4         5         6         7         8         9
 total charge-density along one line

------------------------ aborting loop because EDIFF is reached ----------------------------------------

 total charge

# of ion       s       p       d       tot
    1        0.418   0.200   9.179   9.797
    2        0.416   0.203   9.177   9.796
    3        0.416   0.203   9.177   9.796
    4        0.416   0.203   9.177   9.796
    5        0.420   0.202   9.175   9.797
    6        0.416   0.203   9.177   9.796
    7        0.416   0.203   9.177   9.796
    8        0.416   0.203   9.177   9.796
    9        0.415   0.201   9.179   9.795
   10        0.407   0.268   9.163   9.838
   11        0.408   0.267   9.168   9.843
   12        0.407   0.268   9.163   9.838
   13        0.408   0.267   9.168   9.843
   14        0.408   0.267   9.168   9.843
   15        0.404   0.269   9.164   9.837
   16        0.407   0.268   9.163   9.838
   17        0.404   0.269   9.164   9.837
   18        0.404   0.269   9.164   9.837
   19        0.400   0.265   9.166   9.832
   20        0.430   0.291   9.148   9.869
   21        0.430   0.291   9.148   9.869
   22        0.397   0.274   9.166   9.837
   23        0.430   0.291   9.148   9.869
   24        0.397   0.274   9.166   9.837
   25        0.400   0.265   9.166   9.832
   26        0.400   0.265   9.166   9.832
   27        0.397   0.274   9.166   9.837
   28        0.410   0.194   9.180   9.784
   29        0.417   0.203   9.173   9.793
   30        0.417   0.203   9.173   9.793
   31        0.417   0.203   9.173   9.793
   32        0.417   0.203   9.173   9.793
   33        0.417   0.203   9.173   9.793
   34        0.417   0.203   9.173   9.793
   35        0.404   0.196   9.181   9.781
   36        0.397   0.321   6.343   7.061
   37        0.516   0.015   0.000   0.531
tot         15.320   8.662 327.265 351.247

  FORCE on cell =-STRESS in cart. coord.  units (eV):
  Direction    XX          YY          ZZ          XY          YZ          ZX
  Alpha Z   741.89592   741.89592   741.89592
  Ewald  121118.70852121118.70851************     0.00001    -0.00000    -0.00001
  Hartree131249.12707131249.12707************     0.00001    -0.00000    -0.00000
  E(xc)   -2070.37710 -2070.37709 -2076.33705    -0.00001     0.00000     0.00000
  Local  ************************263795.59009     0.00022    -0.00003    -0.00006
  n-local  -363.14078  -343.26175  -354.08497    10.90138    -0.51134     0.46546
  augment  3256.78238  3256.78256  3268.01798    -0.00015    -0.00000     0.00003
  Kinetic  4842.23367  4849.82610  4875.99989     5.29515     0.77199     0.18344
  Fock        0.00000     0.00000     0.00000     0.00000     0.00000     0.00000
  Total      -9.46600    -9.46600     0.36904    -0.00000     0.00000    -0.00000
  in kB     -10.21666   -10.21666     0.39830    -0.00000     0.00000    -0.00000

 VOLUME and BASIS-vectors are now :
  energy-cutoff  :      500.00
  volume of cell :     1484.46
      direct lattice vectors                 reciprocal lattice vectors
     8.791366577  0.000000000  0.000000000     0.113747958 -0.065672414  0.000000000
     4.395683289  7.613546790  0.000000000     0.000000000  0.131344829  0.000000000
     0.000000000  0.000000000 22.178121567     0.000000000  0.000000000  0.045089481

  length of vectors
     8.791366577  8.791366577 22.178121567     0.131344829  0.131344829  0.045089481

 FORCES acting on ions
    electron-ion (+dipol)            ewald-force                    non-local-force                 convergence-correction
   0.460E-04 -.282E-04 0.250E+04   -.954E-04 0.593E-04 -.250E+04   -.538E-18 -.590E-18 -.200E+01   -.164E-03 -.201E-03 0.187E+00
   0.363E+00 0.413E+00 0.250E+04   -.464E+00 -.387E+00 -.250E+04   0.753E-01 0.109E+00 -.155E+01   0.276E-01 -.124E+00 0.267E+00
   -.363E+00 0.413E+00 0.250E+04   0.464E+00 -.387E+00 -.250E+04   -.753E-01 0.109E+00 -.155E+01   -.281E-01 -.122E+00 0.268E+00
   0.539E+00 0.108E+00 0.250E+04   -.567E+00 -.208E+00 -.250E+04   0.132E+00 0.107E-01 -.155E+01   -.929E-01 0.859E-01 0.267E+00
   -.791E-05 -.201E-04 0.250E+04   0.981E-04 -.199E-05 -.250E+04   -.208E-17 -.137E-17 -.120E+01   0.628E-02 0.384E-02 0.385E+00
   -.539E+00 0.108E+00 0.250E+04   0.567E+00 -.208E+00 -.250E+04   -.132E+00 0.107E-01 -.155E+01   0.915E-01 0.868E-01 0.268E+00
   0.176E+00 -.521E+00 0.250E+04   -.103E+00 0.595E+00 -.250E+04   0.568E-01 -.120E+00 -.155E+01   -.119E+00 0.369E-01 0.268E+00
   -.176E+00 -.521E+00 0.250E+04   0.103E+00 0.595E+00 -.250E+04   -.568E-01 -.120E+00 -.155E+01   0.121E+00 0.359E-01 0.268E+00
   0.363E-04 -.131E-04 0.250E+04   0.792E-04 -.643E-04 -.250E+04   -.212E-17 -.887E-18 -.186E+01   -.664E-02 -.342E-02 0.165E+00
   0.401E+01 0.232E+01 0.825E+03   -.368E+01 -.212E+01 -.824E+03   -.309E+00 -.179E+00 -.711E+00   -.306E-01 -.176E-01 0.423E-01
   -.291E-04 0.470E+01 0.832E+03   0.415E-04 -.475E+01 -.832E+03   0.105E-11 0.161E+00 -.321E+00   0.665E-02 -.129E+00 -.657E-01
   -.401E+01 0.232E+01 0.825E+03   0.368E+01 -.212E+01 -.824E+03   0.309E+00 -.179E+00 -.711E+00   0.286E-01 -.165E-01 0.430E-01
   0.407E+01 -.235E+01 0.832E+03   -.412E+01 0.238E+01 -.832E+03   0.139E+00 -.803E-01 -.321E+00   -.109E+00 0.703E-01 -.657E-01
   -.407E+01 -.235E+01 0.832E+03   0.412E+01 0.238E+01 -.832E+03   -.139E+00 -.803E-01 -.321E+00   0.119E+00 0.692E-01 -.663E-01
   0.162E-04 0.150E+01 0.827E+03   -.108E-03 -.172E+01 -.826E+03   0.684E-12 0.104E+00 -.765E+00   -.185E-02 0.860E-01 0.267E-01
   -.812E-05 -.463E+01 0.825E+03   0.208E-04 0.425E+01 -.824E+03   0.235E-11 0.357E+00 -.711E+00   0.157E-04 0.330E-01 0.430E-01
   0.130E+01 -.750E+00 0.827E+03   -.149E+01 0.858E+00 -.826E+03   0.903E-01 -.521E-01 -.765E+00   0.735E-01 -.446E-01 0.267E-01
   -.130E+01 -.750E+00 0.827E+03   0.149E+01 0.858E+00 -.826E+03   -.903E-01 -.521E-01 -.765E+00   -.732E-01 -.423E-01 0.280E-01
   0.414E-04 0.171E+00 -.874E+03   -.127E-03 -.310E+00 0.873E+03   0.833E-12 0.127E+00 0.750E+00   -.646E-02 0.723E-02 -.517E-01
   0.171E+02 0.985E+01 -.847E+03   -.154E+02 -.888E+01 0.848E+03   -.123E+01 -.707E+00 -.104E+01   -.471E+00 -.272E+00 -.425E+00
   -.171E+02 0.985E+01 -.847E+03   0.154E+02 -.888E+01 0.848E+03   0.123E+01 -.707E+00 -.104E+01   0.473E+00 -.272E+00 -.425E+00
   0.342E+01 -.198E+01 -.863E+03   -.349E+01 0.202E+01 0.863E+03   0.244E+00 -.141E+00 0.349E+00   -.144E+00 0.851E-01 -.137E+00
   -.586E-04 -.197E+02 -.847E+03   0.433E-04 0.178E+02 0.848E+03   0.929E-11 0.141E+01 -.104E+01   0.743E-03 0.546E+00 -.425E+00
   -.342E+01 -.198E+01 -.863E+03   0.349E+01 0.202E+01 0.863E+03   -.244E+00 -.141E+00 0.349E+00   0.144E+00 0.834E-01 -.137E+00
   -.148E+00 -.853E-01 -.874E+03   0.269E+00 0.155E+00 0.873E+03   -.110E+00 -.634E-01 0.750E+00   -.135E-01 -.798E-02 -.521E-01
   0.148E+00 -.853E-01 -.874E+03   -.269E+00 0.155E+00 0.873E+03   0.110E+00 -.634E-01 0.750E+00   0.272E-02 -.933E-02 -.517E-01
   0.209E-04 0.395E+01 -.863E+03   0.110E-03 -.403E+01 0.863E+03   0.185E-11 0.282E+00 0.349E+00   0.102E-02 -.167E+00 -.137E+00
   0.542E-04 -.369E-04 -.252E+04   -.113E-03 0.771E-04 0.251E+04   0.102E-17 0.153E-17 0.205E+01   -.214E-03 -.258E-03 -.297E+00
   0.796E+01 0.142E+02 -.252E+04   -.718E+01 -.129E+02 0.252E+04   -.569E+00 -.845E+00 0.188E+01   -.194E+00 -.423E+00 -.259E+00
   -.796E+01 0.142E+02 -.252E+04   0.718E+01 -.129E+02 0.252E+04   0.569E+00 -.845E+00 0.188E+01   0.194E+00 -.422E+00 -.259E+00
   0.163E+02 -.192E+00 -.252E+04   -.148E+02 0.228E+00 0.252E+04   -.102E+01 -.703E-01 0.188E+01   -.464E+00 0.434E-01 -.258E+00
   -.163E+02 -.192E+00 -.252E+04   0.148E+02 0.228E+00 0.252E+04   0.102E+01 -.703E-01 0.188E+01   0.463E+00 0.438E-01 -.259E+00
   0.829E+01 -.140E+02 -.252E+04   -.758E+01 0.127E+02 0.252E+04   -.447E+00 0.915E+00 0.188E+01   -.268E+00 0.380E+00 -.259E+00
   -.829E+01 -.140E+02 -.252E+04   0.758E+01 0.127E+02 0.252E+04   0.447E+00 0.915E+00 0.188E+01   0.269E+00 0.379E+00 -.259E+00
   0.246E-04 -.142E-04 -.252E+04   0.105E-03 -.652E-04 0.251E+04   0.105E-17 -.110E-17 0.214E+01   -.636E-02 -.324E-02 -.181E+00
   -.299E-04 -.948E-05 -.171E+04   0.771E-04 0.110E-04 0.172E+04   0.108E-17 0.256E-17 -.417E+01   0.457E-02 0.278E-02 -.271E+00
   0.422E-05 -.421E-05 -.294E+03   0.591E-05 0.116E-06 0.296E+03   -.195E-18 -.372E-19 -.220E+01   0.131E-03 0.800E-04 0.129E+00
   0.318E-03 -.717E-03 0.121E+02   -.588E-14 0.128E-12 -.369E-11   -.536E-16 0.223E-15 -.105E+02   -.234E-02 0.196E-02 -.166E+01

 POSITION                                       TOTAL-FORCE (eV/Angst)
      0.00000      0.00000      5.28219         0.000000      0.000000     -0.031324
      2.93046      0.00000      5.28219         0.002601      0.012387      0.024504
      5.86091      0.00000      5.28219        -0.002601      0.012387      0.024504
      1.46523      2.53785      5.28219         0.012028     -0.003941      0.024504
      4.39568      2.53785      5.28219         0.000000      0.000000     -0.018994
      7.32614      2.53785      5.28219        -0.012028     -0.003941      0.024504
      2.93046      5.07570      5.28219         0.009427     -0.008446      0.024504
      5.86091      5.07570      5.28219        -0.009427     -0.008446      0.024504
      8.79137      5.07570      5.28219         0.000000      0.000000     -0.000001
      1.46523      0.84595      7.67490        -0.003450     -0.001992      0.001233
      4.39568      0.84595      7.67490        -0.000000     -0.026285     -0.038586
      7.32614      0.84595      7.67490         0.003450     -0.001992      0.001233
      2.93046      3.38380      7.67490        -0.022764      0.013143     -0.038586
      5.86091      3.38380      7.67490         0.022764      0.013143     -0.038586
      8.79137      3.38380      7.67490        -0.000000     -0.027898     -0.003646
      4.39568      5.92165      7.67490         0.000000      0.003984      0.001233
      7.32614      5.92165      7.67490        -0.024160      0.013949     -0.003646
     10.25659      5.92165      7.67490         0.024160      0.013949     -0.003646
      8.79137      1.69341     10.06265        -0.000000     -0.003095      0.009852
      2.94295      1.69911     10.03964        -0.019275     -0.011129     -0.056554
      5.84841      1.69911     10.03964         0.019275     -0.011129     -0.056554
     10.25212      4.23233     10.05217         0.031027     -0.017913     -0.004384
      4.39568      4.21532     10.03964         0.000000      0.022257     -0.056554
      7.33061      4.23233     10.05217        -0.031027     -0.017913     -0.004384
     11.72051      6.76684     10.06265         0.002680      0.001547      0.009852
      5.86222      6.76684     10.06265        -0.002680      0.001547      0.009852
      8.79137      6.76243     10.05217         0.000000      0.035827     -0.004384
      0.00000      0.00000     12.42704         0.000000      0.000000      0.003653
      2.96539      0.06299     12.42777         0.016960      0.010605      0.035617
      5.82597      0.06299     12.42777        -0.016960      0.010605      0.035617
      1.53725      2.53661     12.42777         0.017664      0.009385      0.035617
      7.25412      2.53661     12.42777        -0.017664      0.009385      0.035617
      2.96754      5.01395     12.42777         0.000704     -0.019990      0.035617
      5.82383      5.01395     12.42777        -0.000704     -0.019990      0.035617
      8.79137      5.07570     12.42264         0.000000      0.000000      0.015121
      4.39568      2.53785     12.15183         0.000000      0.000000      0.019411
      4.39568      2.53785     13.67127         0.000000      0.000000     -0.072336
    total drift:                               -0.002019      0.001246      0.007200

  FREE ENERGIE OF THE ION-ELECTRON SYSTEM (eV)
  free  energy   TOTEN  =       -97.99038654 eV

  energy  without entropy=      -97.99038654  energy(sigma->0) =      -97.99038654

 stress matrix after NEB project (eV)
     -9.46600     -0.00000     -0.00000
     -0.00000     -9.46600     -0.00000
      0.00000      0.00000      0.36904
  FORCES: max atom, RMS     0.072336    0.011892
  FORCE total and by dimension    0.072336    0.072336
  Stress total and by dimension   13.392031    9.466000
|           W    W    AA    RRRRR   N    N  II  N    N   GGGG   !!!           |
|           W    W   A  A   R    R  NN   N  II  NN   N  G    G  !!!           |
|           W    W  A    A  R    R  N N  N  II  N N  N  G       !!!           |
|           W WW W  AAAAAA  RRRRR   N  N N  II  N  N N  G  GGG   !            |
|           WW  WW  A    A  R   R   N   NN  II  N   NN  G    G                |
|           W    W  A    A  R    R  N    N  II  N    N   GGGG   !!!           |
|     Tetrahedron method does not include variations of the Fermi             |
|     occupations, so forces and stress will be inaccurate. We suggest        |
|     using a different smearing scheme ISMEAR = 1 or 2 for metals in         |
|     relaxations.                                                            |

 total charge

# of ion       s       p       d       tot
    1        0.418   0.200   9.179   9.797
    2        0.416   0.203   9.177   9.796
    3        0.416   0.203   9.177   9.796
    4        0.416   0.203   9.177   9.796
    5        0.420   0.202   9.175   9.797
    6        0.416   0.203   9.177   9.796
    7        0.416   0.203   9.177   9.796
    8        0.416   0.203   9.177   9.796
    9        0.415   0.201   9.179   9.795
   10        0.407   0.268   9.163   9.838
   11        0.408   0.267   9.168   9.843
   12        0.407   0.268   9.163   9.838
   13        0.408   0.267   9.168   9.843
   14        0.408   0.267   9.168   9.843
   15        0.404   0.269   9.164   9.837
   16        0.407   0.268   9.163   9.838
   17        0.404   0.269   9.164   9.837
   18        0.404   0.269   9.164   9.837
   19        0.400   0.265   9.166   9.832
   20        0.430   0.291   9.148   9.869
   21        0.430   0.291   9.148   9.869
   22        0.397   0.274   9.166   9.837
   23        0.430   0.291   9.148   9.869
   24        0.397   0.274   9.166   9.837
   25        0.400   0.265   9.166   9.832
   26        0.400   0.265   9.166   9.832
   27        0.397   0.274   9.166   9.837
   28        0.410   0.194   9.180   9.784
   29        0.417   0.203   9.173   9.793
   30        0.417   0.203   9.173   9.793
   31        0.417   0.203   9.173   9.793
   32        0.417   0.203   9.173   9.793
   33        0.417   0.203   9.173   9.793
   34        0.417   0.203   9.173   9.793
   35        0.404   0.196   9.181   9.781
   36        0.397   0.321   6.343   7.061
   37        0.516   0.015   0.000   0.531
tot         15.320   8.662 327.265 351.247

 BZINTS: Fermi energy:    0.703657;  394.000000 electrons
         Band energy:-0.129543E+04;  BLOECHL correction:   -0.028620