 vasp.6.2.0 18Jan21 (build Jun 12 2021 23:27:24) complex

 executed on             LinuxIFC date 2022.05.28  02:52:29

 INCAR:
   ISMEAR = -5
   SIGMA = 0.1
   ISPIN = 1
   EDIFF = 1.d-5
   EDIFFG = -0.01
   NSW = 0
   NELM = 150
   ENCUT = 500
   ISIF = 2
   IBRION = 2
   LREAL = Auto
   ALGO = Fast
   ICHARG = 11
   LORBIT = 10
   LCHARG = .F.
   LWAVE = .F.

 POTCAR:    PAW_PBE Cu 22Jun2005
 POTCAR:    PAW_PBE Ir 06Sep2000
 POTCAR:    PAW_PBE H 15Jun2001
 POTCAR:    PAW_PBE O 08Apr2002
|           W    W    AA    RRRRR   N    N  II  N    N   GGGG   !!!           |
|           W    W   A  A   R    R  NN   N  II  NN   N  G    G  !!!           |
|           W    W  A    A  R    R  N N  N  II  N N  N  G       !!!           |
|           W WW W  AAAAAA  RRRRR   N  N N  II  N  N N  G  GGG   !            |
|           WW  WW  A    A  R   R   N   NN  II  N   NN  G    G                |
|           W    W  A    A  R    R  N    N  II  N    N   GGGG   !!!           |
|     For optimal performance we recommend to set                             |
|       NCORE = 2 up to number-of-cores-per-socket                            |
|     This setting can greatly improve the performance of VASP for DFT.       |
|     The default, NCORE=1 might be grossly inefficient on modern             |
|     multi-core architectures or massively parallel machines. Do your        |
|     Unfortunately you need to use the default for GW and RPA                |
|     calculations (for HF NCORE is supported but not extensively tested      |
|     yet).                                                                   |

 POTCAR:    PAW_PBE Cu 22Jun2005
   VRHFIN =Cu: d10 p1

   TITEL  = PAW_PBE Cu 22Jun2005
   POMASS =   63.546; ZVAL   =   11.000    mass and valenz
   ENMAX  =  295.446; ENMIN  =  221.585 eV

 POTCAR:    PAW_PBE Ir 06Sep2000
   VRHFIN =Ir: s1d8

   TITEL  = PAW_PBE Ir 06Sep2000
   POMASS =  192.220; ZVAL   =    9.000    mass and valenz
   ENMAX  =  210.864; ENMIN  =  158.148 eV

 POTCAR:    PAW_PBE H 15Jun2001
   VRHFIN =H: ultrasoft test

   TITEL  = PAW_PBE H 15Jun2001
   POMASS =    1.000; ZVAL   =    1.000    mass and valenz
   ENMAX  =  250.000; ENMIN  =  200.000 eV

 POTCAR:    PAW_PBE O 08Apr2002
   VRHFIN =O: s2p4

   TITEL  = PAW_PBE O 08Apr2002
   POMASS =   16.000; ZVAL   =    6.000    mass and valenz
   ENMAX  =  400.000; ENMIN  =  300.000 eV

 Optimization of the real space projectors (new method)

 maximal supplied QI-value         = 16.25
 optimisation between [QCUT,QGAM] = [ 11.38, 22.75] = [ 36.24,144.96] Ry
 Optimized for a Real-space Cutoff    1.52 Angstroem

   l    n(q)    QCUT    max X(q) W(low)/X(q) W(high)/X(q)  e(spline)
   2      9    11.376     4.610    0.21E-03    0.10E-03    0.26E-06
   2      9    11.376     8.522    0.33E-03    0.16E-03    0.37E-06
   0     10    11.376    51.609    0.62E-04    0.20E-04    0.13E-06
   0     10    11.376    27.747    0.54E-04    0.20E-04    0.13E-06
   1     10    11.376    20.408    0.13E-04    0.99E-04    0.19E-06
   1     10    11.376    13.425    0.12E-04    0.87E-04    0.17E-06
 Optimization of the real space projectors (new method)

[...]

   l    n(q)    QCUT    max X(q) W(low)/X(q) W(high)/X(q)  e(spline)
   0      8    11.287    19.460    0.40E-03    0.73E-03    0.16E-06
   0      8    11.287    12.209    0.38E-03    0.70E-03    0.15E-06
   1      7    11.287     4.655    0.22E-03    0.25E-04    0.22E-06
 Optimization of the real space projectors (new method)

 maximal supplied QI-value         = 24.76
 optimisation between [QCUT,QGAM] = [ 11.39, 22.77] = [ 36.31,145.25] Ry
 Optimized for a Real-space Cutoff    1.00 Angstroem

   l    n(q)    QCUT    max X(q) W(low)/X(q) W(high)/X(q)  e(spline)
   0      7    11.387    20.381    0.39E-03    0.13E-02    0.15E-06
   0      7    11.387    15.268    0.42E-03    0.14E-02    0.17E-06
   1      6    11.387     5.964    0.41E-03    0.11E-02    0.17E-06
   1      6    11.387     5.382    0.39E-03    0.87E-03    0.15E-06
  PAW_PBE Cu 22Jun2005                  :
  PAW_PBE Ir 06Sep2000                  :
  PAW_PBE H 15Jun2001                   :
  PAW_PBE O 08Apr2002                   :

 POSCAR: Cu-Ir-H2O
  positions in direct lattice
  velocities in cartesian coordinates
 exchange correlation table for  LEXCH =        8
   RHO(1)=    0.500       N(1)  =     2000
   RHO(2)=  100.500       N(2)  =     4000

 VTST: version 3.2, (02/03/18)

 CHAIN: initializing optimizer

 OPT: Using VASP Conjugate-Gradient optimizer
 CHAIN: Read ICHAIN            0

 POSCAR: Cu-Ir-H2O
  positions in direct lattice
  velocities in cartesian coordinates

 ion  position               nearest neighbor table
   1  0.000  0.000  0.221-   7 2.57   3 2.57   4 2.57   2 2.57   6 2.57   8 2.57  12 2.57  10 2.57
                            16 2.57
   2  0.333  0.000  0.221-   8 2.57   9 2.57   5 2.57   1 2.57   3 2.57  11 2.57   4 2.57  10 2.57
                            17 2.57
   3  0.667  0.000  0.221-   1 2.57   7 2.57   6 2.57   9 2.57   2 2.57  12 2.57   5 2.57  18 2.57
                            11 2.57
   4  0.000  0.333  0.221-   5 2.57   6 2.57   1 2.57   7 2.57   2 2.57  13 2.57   9 2.57  10 2.57
                            15 2.57
   5  0.333  0.333  0.221-   4 2.57   2 2.57   7 2.57  13 2.57   8 2.57   6 2.57   3 2.57  11 2.57
                            14 2.57
   6  0.667  0.333  0.221-   4 2.57   9 2.57  15 2.57   3 2.57   1 2.57   8 2.57  14 2.57   5 2.57
                            12 2.57
   7  0.000  0.667  0.221-   1 2.57   3 2.57  16 2.57  18 2.57   4 2.57   5 2.57   8 2.57   9 2.57
                            13 2.57
   8  0.333  0.667  0.221-   9 2.57   2 2.57  17 2.57   6 2.57   1 2.57   7 2.57   5 2.57  14 2.57
                            16 2.57
   9  0.667  0.667  0.221-   8 2.57   6 2.57   2 2.57  17 2.57   3 2.57   7 2.57   4 2.57  15 2.57
                            18 2.57
  10  0.111  0.111  0.308-  20 2.53  11 2.57  12 2.57  13 2.57   1 2.57   2 2.57   4 2.57  15 2.57
                            16 2.57  17 2.57  26 2.57  19 2.57
  11  0.444  0.111  0.308-  20 2.55  21 2.55  10 2.57  13 2.57   2 2.57  17 2.57  14 2.57  12 2.57
                             5 2.57   3 2.57  18 2.57  27 2.57
  12  0.778  0.111  0.308-  21 2.53  15 2.57  10 2.57  14 2.57  18 2.57   3 2.57   1 2.57  16 2.57
                            11 2.57   6 2.57  19 2.57  25 2.57
  13  0.111  0.444  0.308-  23 2.55  20 2.55  16 2.57  18 2.57  10 2.57  11 2.57  14 2.57   5 2.57
                             4 2.57   7 2.57  15 2.57  22 2.57
  14  0.444  0.444  0.308-  21 2.55  23 2.55  15 2.57  17 2.57  12 2.57  16 2.57  13 2.57  11 2.57
                             6 2.57   8 2.57   5 2.57  24 2.57
  15  0.778  0.444  0.308-  19 2.56  24 2.56  22 2.56  14 2.57  17 2.57  12 2.57   6 2.57  18 2.57
                            10 2.57   9 2.57  13 2.57   4 2.57
  16  0.111  0.778  0.308-  23 2.53  18 2.57  13 2.57   7 2.57  14 2.57  17 2.57  12 2.57  10 2.57
                             8 2.57   1 2.57  25 2.57  26 2.57
  17  0.444  0.778  0.308-  26 2.56  27 2.56  24 2.56  14 2.57  15 2.57   8 2.57   9 2.57  11 2.57
                            16 2.57  18 2.57  10 2.57   2 2.57
  18  0.778  0.778  0.308-  25 2.56  22 2.56  27 2.56  16 2.57  13 2.57   7 2.57  15 2.57  12 2.57
                            17 2.57   9 2.57   3 2.57  11 2.57
  19  0.888  0.223  0.394-  28 2.55  21 2.55  20 2.55  22 2.56  24 2.56  15 2.56  32 2.56  31 2.56
                            12 2.57  10 2.57  25 2.58  26 2.58
  20  0.221  0.221  0.393-  10 2.53  11 2.55  13 2.55  26 2.55  19 2.55  36 2.55  27 2.57  22 2.57
                            29 2.59  31 2.59  23 2.59  21 2.59
  21  0.558  0.221  0.393-  12 2.53  14 2.55  11 2.55  19 2.55  25 2.55  36 2.55  24 2.57  27 2.57
                            32 2.59  30 2.59  20 2.59  23 2.59
  22  0.888  0.556  0.394-  35 2.54  24 2.56  27 2.56  19 2.56  25 2.56  18 2.56  15 2.56  13 2.57
                            23 2.57  20 2.57  31 2.57  33 2.57
  23  0.221  0.558  0.393-  16 2.53  13 2.55  14 2.55  25 2.55  26 2.55  36 2.55  22 2.57  24 2.57
                            33 2.59  34 2.59  20 2.59  21 2.59
  24  0.556  0.556  0.394-  35 2.54  22 2.56  27 2.56  19 2.56  26 2.56  15 2.56  17 2.56  14 2.57
                            21 2.57  23 2.57  32 2.57  34 2.57
  25  0.888  0.888  0.394-  28 2.55  21 2.55  23 2.55  22 2.56  27 2.56  18 2.56  33 2.56  30 2.56
                            16 2.57  12 2.57  19 2.58  26 2.58
  26  0.223  0.888  0.394-  28 2.55  20 2.55  23 2.55  27 2.56  24 2.56  17 2.56  29 2.56  34 2.56
                            10 2.57  16 2.57  25 2.58  19 2.58
  27  0.556  0.888  0.394-  35 2.54  24 2.56  22 2.56  26 2.56  25 2.56  17 2.56  18 2.56  11 2.57
                            20 2.57  21 2.57  29 2.57  30 2.57
  28  0.000  0.000  0.479-  25 2.55  19 2.55  26 2.55  33 2.56  30 2.56  31 2.56  29 2.56  32 2.56
                            34 2.56
  29  0.333  0.999  0.480-  34 2.55  28 2.56  26 2.56  35 2.57  31 2.57  27 2.57  36 2.57  30 2.58
                            20 2.59
  30  0.668  0.999  0.480-  33 2.55  28 2.56  25 2.56  35 2.57  32 2.57  27 2.57  36 2.57  29 2.58
                            21 2.59
  31  0.999  0.333  0.480-  32 2.55  28 2.56  19 2.56  35 2.57  29 2.57  22 2.57  36 2.57  33 2.58
                            20 2.59
  32  0.668  0.333  0.480-  31 2.55  28 2.56  19 2.56  35 2.57  30 2.57  24 2.57  36 2.57  34 2.58
                            21 2.59
  33  0.999  0.668  0.480-  30 2.55  28 2.56  25 2.56  35 2.57  34 2.57  22 2.57  36 2.57  31 2.58
                            23 2.59
  34  0.333  0.668  0.480-  29 2.55  28 2.56  26 2.56  35 2.57  33 2.57  24 2.57  36 2.57  32 2.58
                            23 2.59
  35  0.667  0.667  0.479-  24 2.54  27 2.54  22 2.54  34 2.57  32 2.57  29 2.57  30 2.57  33 2.57
                            31 2.57
  36  0.333  0.333  0.478-  39 2.47  23 2.55  20 2.55  21 2.55  31 2.57  29 2.57  33 2.57  34 2.57
                            32 2.57  30 2.57
  37  0.231  0.333  0.603-  39 0.97
  38  0.436  0.333  0.603-  39 0.97
  39  0.333  0.333  0.580-  38 0.97  37 0.97  36 2.47

  LATTYP: Found a hexagonal cell.
 ALAT       =     7.6967864036
 C/A-ratio  =     3.1535378041

  Lattice vectors:

 A1 = (  -3.8483927580,  -6.6656128093,   0.0000000000)
 A2 = (   7.6967864037,   0.0000000000,   0.0000000000)
 A3 = (   0.0000000000,   0.0000000000,  24.2721068937)

Analysis of symmetry for initial positions (statically):
 Subroutine PRICEL returns:
 Original cell was already a primitive cell.

 Routine SETGRP: Setting up the symmetry group for a
 hexagonal supercell.

 Subroutine GETGRP returns: Found  1 space group operations
 (whereof  1 operations were pure point group operations)
 out of a pool of 24 trial point group operations.

The static configuration has the point symmetry C_1 .

Analysis of symmetry for dynamics (positions and initial velocities):
 Subroutine PRICEL returns:
 Original cell was already a primitive cell.

[...]

The dynamic configuration has the point symmetry C_1 .

Analysis of constrained symmetry for selective dynamics:
 Subroutine PRICEL returns:
[...]
     41      -3.7621      2.00000
     42      -3.7526      2.00000
     43      -3.6991      2.00000
     44      -3.6855      2.00000
     45      -3.6716      2.00000
     46      -3.6637      2.00000
     47      -3.6399      2.00000
     48      -3.6365      2.00000
     49      -3.6317      2.00000
     50      -3.4398      2.00000
     51      -3.4351      2.00000
     52      -3.4196      2.00000
     53      -3.4082      2.00000
     54      -3.3567      2.00000
     55      -3.3432      2.00000
     56      -3.3394      2.00000
     57      -3.3308      2.00000
     58      -3.3290      2.00000
     59      -3.3137      2.00000
     60      -3.2795      2.00000
[...]
    238       5.6853      0.00000
    239       5.8339      0.00000
    240       5.9118      0.00000
    241       5.9642      0.00000
    242       6.0353      0.00000
    243       6.0659      0.00000
    244       6.2547      0.00000
    245       6.3406      0.00000
    246       6.3818      0.00000
    247       6.5109      0.00000
    248       6.6393      0.00000
    249       7.1509      0.00000
    250       7.2270      0.00000
    251       7.4150      0.00000
    252       7.5436      0.00000

 soft charge-density along one line, spin component           1
         0         1         2         3         4         5         6         7         8         9
 total charge-density along one line

------------------------ aborting loop because EDIFF is reached ----------------------------------------

 total charge

# of ion       s       p       d       tot
    1        0.446   0.287   9.186   9.919
    2        0.450   0.285   9.186   9.921
    3        0.450   0.285   9.186   9.921
    4        0.450   0.285   9.186   9.921
    5        0.443   0.290   9.182   9.915
    6        0.450   0.285   9.186   9.921
    7        0.450   0.285   9.186   9.921
    8        0.450   0.285   9.186   9.921
    9        0.447   0.284   9.188   9.919
   10        0.441   0.374   9.173   9.989
   11        0.444   0.366   9.184   9.995
   12        0.441   0.374   9.173   9.989
   13        0.444   0.366   9.184   9.995
   14        0.444   0.366   9.184   9.995
   15        0.438   0.369   9.180   9.987
   16        0.441   0.374   9.173   9.989
   17        0.438   0.369   9.180   9.988
   18        0.438   0.369   9.180   9.988
   19        0.443   0.371   9.181   9.994
   20        0.445   0.394   9.169  10.009
   21        0.445   0.394   9.169  10.009
   22        0.434   0.370   9.184   9.989
   23        0.445   0.395   9.169  10.009
   24        0.434   0.370   9.184   9.989
   25        0.442   0.371   9.181   9.994
   26        0.442   0.371   9.181   9.994
   27        0.434   0.371   9.184   9.989
   28        0.450   0.293   9.190   9.933
   29        0.453   0.307   9.180   9.940
   30        0.453   0.307   9.180   9.940
   31        0.454   0.310   9.178   9.942
   32        0.454   0.310   9.178   9.942
   33        0.453   0.307   9.180   9.940
   34        0.453   0.307   9.180   9.940
   35        0.443   0.296   9.190   9.930
   36        0.649   0.438   7.073   8.160
   37        0.616   0.121   0.000   0.737
   38        0.616   0.121   0.000   0.737
   39        1.558   3.620   0.000   5.178
tot         19.024  16.041 328.420 363.486

  FORCE on cell =-STRESS in cart. coord.  units (eV):
  Direction    XX          YY          ZZ          XY          YZ          ZX
  Alpha Z   801.15069   801.15069   801.15069
  Ewald  232585.42758232459.77871************    -0.00323     0.06264     0.01442
  Hartree245509.46074245486.62139************    -0.00279     0.02241     0.00381
  E(xc)   -2323.88769 -2324.43322 -2328.29680    -0.00014    -0.00005     0.00006
  Local  ************************491274.38385     0.03053    -0.06866    -0.01424
  n-local  -795.57136  -796.46747  -813.05175     0.00227    -0.00370    -0.00033
  augment  3352.69618  3355.25204  3373.00328    -0.01982    -0.00146    -0.00027
  Kinetic  3378.81477  3414.59900  3421.31527     0.00228    -0.00305    -0.00257
  Fock        0.00000     0.00000     0.00000     0.00000     0.00000     0.00000
  Total      -5.28513    -5.51327     1.34492     0.00909     0.00814     0.00088
  in kB      -6.80001    -7.09354     1.73041     0.01170     0.01047     0.00113

 VOLUME and BASIS-vectors are now :
  energy-cutoff  :      500.00
  volume of cell :     1245.25
      direct lattice vectors                 reciprocal lattice vectors
     7.696786404  0.000000000  0.000000000     0.129924354 -0.075011849  0.000000000
     3.848392758  6.665612809  0.000000000     0.000000000  0.150023716  0.000000000
     0.000000000  0.000000000 24.272106894     0.000000000  0.000000000  0.041199555

  length of vectors
     7.696786404  7.696786404 24.272106894     0.150023716  0.150023716  0.041199555

 FORCES acting on ions
    electron-ion (+dipol)            ewald-force                    non-local-force                 convergence-correction
   0.254E-02 -.491E-02 0.379E+04   0.563E-04 -.220E-02 -.378E+04   0.135E-03 0.750E-02 -.290E+01   -.274E-02 0.134E-04 -.491E+00
   0.692E-03 0.283E+00 0.379E+04   0.198E-01 -.601E-01 -.378E+04   -.104E-01 -.130E+00 -.181E+01   -.677E-02 -.773E-01 -.377E+00
   -.325E-02 0.269E+00 0.379E+04   -.199E-01 -.601E-01 -.378E+04   0.976E-02 -.131E+00 -.181E+01   0.100E-01 -.627E-01 -.373E+00
   0.237E+00 -.129E+00 0.379E+04   -.403E-01 0.461E-01 -.378E+04   -.122E+00 0.523E-01 -.178E+01   -.600E-01 0.275E-01 -.365E+00
   -.174E-01 -.651E-02 0.379E+04   0.120E-03 0.465E-05 -.378E+04   -.878E-02 -.181E-02 -.195E+01   0.264E-01 0.938E-02 -.334E+00
   -.224E+00 -.134E+00 0.379E+04   0.402E-01 0.460E-01 -.378E+04   0.123E+00 0.517E-01 -.178E+01   0.473E-01 0.331E-01 -.357E+00
   0.230E+00 -.142E+00 0.379E+04   -.601E-01 0.140E-01 -.378E+04   -.103E+00 0.744E-01 -.180E+01   -.553E-01 0.426E-01 -.352E+00
   -.242E+00 -.134E+00 0.379E+04   0.598E-01 0.140E-01 -.378E+04   0.101E+00 0.751E-01 -.180E+01   0.688E-01 0.332E-01 -.349E+00
   0.161E-01 -.493E-02 0.379E+04   0.261E-03 0.220E-02 -.378E+04   0.956E-02 0.220E-02 -.235E+01   -.263E-01 -.196E-02 -.462E+00
   0.306E+01 0.177E+01 0.131E+04   -.269E+01 -.157E+01 -.130E+04   -.390E+00 -.221E+00 -.110E+01   0.522E-01 0.375E-01 -.208E+00
   -.159E-01 0.239E-02 0.130E+04   0.210E-03 -.144E+00 -.130E+04   -.857E-02 0.232E-01 -.622E+00   0.247E-01 0.676E-01 -.111E+00
   -.304E+01 0.176E+01 0.131E+04   0.269E+01 -.157E+01 -.130E+04   0.391E+00 -.222E+00 -.110E+01   -.646E-01 0.506E-01 -.205E+00
   -.400E-02 -.903E-02 0.130E+04   -.109E+00 0.748E-01 -.130E+04   0.177E-01 -.276E-01 -.620E+00   0.547E-01 -.136E-01 -.974E-01
   -.225E-01 -.494E-02 0.130E+04   0.109E+00 0.748E-01 -.130E+04   -.358E-01 -.271E-01 -.620E+00   -.887E-02 -.181E-01 -.961E-01
   0.170E-01 0.665E-01 0.130E+04   0.273E-03 -.207E+00 -.130E+04   0.233E-02 0.135E+00 -.649E+00   -.195E-01 -.617E-02 -.289E+00
   -.380E-02 -.353E+01 0.131E+04   0.192E-03 0.311E+01 -.130E+04   0.202E-03 0.457E+00 -.112E+01   0.341E-02 -.746E-01 -.212E+00
   0.938E-01 -.247E-01 0.130E+04   -.189E+00 0.116E+00 -.130E+04   0.104E+00 -.639E-01 -.686E+00   -.190E-01 -.192E-01 -.305E+00
   -.899E-01 -.408E-01 0.130E+04   0.189E+00 0.116E+00 -.130E+04   -.104E+00 -.655E-01 -.686E+00   0.162E-01 -.159E-02 -.304E+00
   0.142E-01 0.873E+00 -.120E+04   -.102E-03 -.772E+00 0.120E+04   0.124E-02 -.999E-01 0.519E+00   -.152E-01 -.129E-01 0.190E+00
   -.235E+02 -.135E+02 -.119E+04   0.239E+02 0.137E+02 0.119E+04   -.595E+00 -.354E+00 -.709E+00   0.261E+00 0.170E+00 0.433E+00
   0.235E+02 -.135E+02 -.119E+04   -.239E+02 0.137E+02 0.119E+04   0.576E+00 -.354E+00 -.709E+00   -.218E+00 0.180E+00 0.430E+00
   -.163E+02 0.927E+01 -.120E+04   0.153E+02 -.868E+01 0.120E+04   0.722E+00 -.397E+00 0.851E+00   0.279E+00 -.189E+00 0.187E+00
   -.188E-01 0.270E+02 -.119E+04   0.296E-03 -.274E+02 0.119E+04   -.849E-02 0.702E+00 -.727E+00   0.275E-01 -.302E+00 0.436E+00
   0.163E+02 0.928E+01 -.120E+04   -.153E+02 -.868E+01 0.120E+04   -.721E+00 -.397E+00 0.851E+00   -.294E+00 -.197E+00 0.186E+00
   -.699E+00 -.359E+00 -.120E+04   0.602E+00 0.300E+00 0.120E+04   0.724E-01 0.371E-01 0.574E+00   0.349E-01 0.263E-01 0.189E+00
   0.698E+00 -.342E+00 -.120E+04   -.602E+00 0.300E+00 0.120E+04   -.729E-01 0.386E-01 0.574E+00   -.333E-01 0.875E-02 0.192E+00
   0.161E-02 -.188E+02 -.120E+04   0.270E-03 0.176E+02 0.120E+04   0.616E-03 0.844E+00 0.859E+00   -.254E-02 0.329E+00 0.193E+00
   0.186E-02 0.640E+00 -.366E+04   -.388E-03 -.671E+00 0.366E+04   0.150E-03 0.203E-01 0.188E+01   -.162E-02 0.143E-01 0.484E+00
   -.101E+02 -.114E+02 -.366E+04   0.103E+02 0.111E+02 0.366E+04   -.316E+00 -.180E+00 0.164E+01   0.106E+00 0.369E+00 0.361E+00
   0.101E+02 -.114E+02 -.366E+04   -.103E+02 0.111E+02 0.366E+04   0.315E+00 -.181E+00 0.164E+01   -.104E+00 0.382E+00 0.359E+00
   -.149E+02 -.250E+01 -.366E+04   0.149E+02 0.279E+01 0.365E+04   -.436E+00 -.202E+00 0.139E+01   0.372E+00 -.781E-01 0.368E+00
   0.149E+02 -.251E+01 -.366E+04   -.149E+02 0.279E+01 0.365E+04   0.436E+00 -.202E+00 0.139E+01   -.383E+00 -.725E-01 0.360E+00
   -.578E+01 0.139E+02 -.366E+04   0.542E+01 -.139E+02 0.366E+04   0.273E-01 0.383E+00 0.164E+01   0.255E+00 -.297E+00 0.355E+00
   0.577E+01 0.139E+02 -.366E+04   -.542E+01 -.139E+02 0.366E+04   -.290E-01 0.384E+00 0.164E+01   -.242E+00 -.305E+00 0.350E+00
   0.168E-01 -.630E+00 -.366E+04   -.246E-03 0.667E+00 0.366E+04   0.953E-02 -.120E-01 0.228E+01   -.265E-01 -.292E-01 0.421E+00
   -.114E-01 -.224E-01 -.286E+04   0.161E-02 0.735E-02 0.285E+04   0.312E-03 0.128E-01 0.345E+01   0.966E-02 0.766E-02 0.251E+00
   0.714E+02 -.277E-01 -.391E+03   -.784E+02 0.305E-01 0.396E+03   0.699E+01 -.161E-02 -.466E+01   0.148E-01 -.162E-03 -.160E-01
   -.714E+02 -.239E-01 -.391E+03   0.784E+02 0.259E-01 0.396E+03   -.699E+01 -.134E-02 -.466E+01   -.147E-01 -.110E-03 -.159E-01
   -.408E-02 0.880E-02 -.217E+04   0.745E-02 -.425E-01 0.213E+04   -.431E-02 0.291E-01 0.409E+02   -.159E-02 0.143E-02 -.206E+00
   -.155E-01 -.904E-01 -.256E+02   0.852E-13 0.324E-12 0.100E-10   -.459E-01 0.590E-01 0.254E+02   0.645E-01 0.317E-01 0.221E+00

 POSITION                                       TOTAL-FORCE (eV/Angst)
      0.00000      0.00000      5.37156        -0.000088      0.000397      0.073222
      2.56560      0.00000      5.37156         0.003274      0.015741      0.063338
      5.13119      0.00000      5.37156        -0.003427      0.015616      0.063299
      1.28280      2.22187      5.37156         0.014061     -0.003527      0.063883
      3.84839      2.22187      5.37156         0.000264      0.001057      0.036590
      6.41399      2.22187      5.37156        -0.014102     -0.003599      0.063893
      2.56560      4.44374      5.37156         0.011436     -0.011291      0.062813
      5.13119      4.44374      5.37156        -0.011681     -0.011227      0.062871
      7.69679      4.44374      5.37156        -0.000463     -0.002495      0.043774
      1.28280      0.74062      7.46636         0.031853      0.018832     -0.045476
      3.84839      0.74062      7.46636         0.000337     -0.050981     -0.130631
      6.41399      0.74062      7.46636        -0.031882      0.018778     -0.045551
      2.56560      2.96249      7.46636        -0.040579      0.024570     -0.127507
      5.13119      2.96249      7.46636         0.041401      0.024621     -0.127549
      7.69679      2.96249      7.46636        -0.000005     -0.012094      0.007039
      3.84839      5.18437      7.46636        -0.000075     -0.038405     -0.044253
      6.41399      5.18437      7.46636        -0.011017      0.008059      0.006675
      8.97958      5.18437      7.46636         0.010925      0.007944      0.006653
      7.69679      1.48769      9.56171         0.000045     -0.010936     -0.034263
      2.55203      1.47342      9.53141         0.069485      0.038159     -0.014670
      5.14476      1.47342      9.53141        -0.068783      0.038288     -0.014573
      8.97489      3.70583      9.56026        -0.004362      0.002340     -0.011649
      3.84839      3.71878      9.53141         0.000429     -0.080560     -0.006301
      6.41868      3.70583      9.56026         0.004284      0.002417     -0.011566
     10.25680      5.92177      9.56171         0.010253      0.004567     -0.027029
      5.13677      5.92177      9.56171        -0.010398      0.004694     -0.026968
      7.69679      5.91957      9.56026        -0.000132     -0.005109     -0.007321
      0.00000      0.00000     11.63002        -0.000071      0.003906      0.024477
      6.40663      6.66047     11.66109        -0.054645     -0.095741     -0.045593
      8.98694      6.66047     11.66109         0.054449     -0.095714     -0.045444
      8.97145      2.21807     11.66109        -0.113146      0.008085     -0.051204
      6.42212      2.21807     11.66109         0.113062      0.008058     -0.051150
     10.26160      4.45269     11.66109        -0.071108      0.088120     -0.046562
      5.13197      4.45269     11.66109         0.070992      0.088238     -0.046682
      7.69679      4.44374     11.62915        -0.000494     -0.004647      0.021275
      3.84839      2.22187     11.60012         0.000107      0.005413      0.411300
      3.05786      2.22195     14.63355        -0.003797      0.001035     -0.003565
      4.63868      2.22191     14.63377         0.006206      0.000567     -0.001841
      3.84839      2.22170     14.06861        -0.002611     -0.003175     -0.043755
    total drift:                                0.003155      0.000344      0.006446

  FREE ENERGIE OF THE ION-ELECTRON SYSTEM (eV)
  free  energy   TOTEN  =      -144.81080436 eV

  energy  without entropy=     -144.81080436  energy(sigma->0) =     -144.81080436

 stress matrix after NEB project (eV)
     -5.28513      0.00909      0.00088
      0.00909     -5.51327      0.00814
      0.00088      0.00814      1.34492
  FORCES: max atom, RMS     0.043948    0.007164
  FORCE total and by dimension    0.044742    0.043755
  Stress total and by dimension    7.754862    5.513270
|           W    W    AA    RRRRR   N    N  II  N    N   GGGG   !!!           |
|           W    W   A  A   R    R  NN   N  II  NN   N  G    G  !!!           |
|           W    W  A    A  R    R  N N  N  II  N N  N  G       !!!           |
|           W WW W  AAAAAA  RRRRR   N  N N  II  N  N N  G  GGG   !            |
|           WW  WW  A    A  R   R   N   NN  II  N   NN  G    G                |
|           W    W  A    A  R    R  N    N  II  N    N   GGGG   !!!           |
|     Tetrahedron method does not include variations of the Fermi             |
|     occupations, so forces and stress will be inaccurate. We suggest        |
|     using a different smearing scheme ISMEAR = 1 or 2 for metals in         |
|     relaxations.                                                            |

 total charge

# of ion       s       p       d       tot
    1        0.446   0.287   9.186   9.919
    2        0.450   0.285   9.186   9.921
    3        0.450   0.285   9.186   9.921
    4        0.450   0.285   9.186   9.921
    5        0.443   0.290   9.182   9.915
    6        0.450   0.285   9.186   9.921
    7        0.450   0.285   9.186   9.921
    8        0.450   0.285   9.186   9.921
    9        0.447   0.284   9.188   9.919
   10        0.441   0.374   9.173   9.989
   11        0.444   0.366   9.184   9.995
   12        0.441   0.374   9.173   9.989
   13        0.444   0.366   9.184   9.995
   14        0.444   0.366   9.184   9.995
   15        0.438   0.369   9.180   9.987
   16        0.441   0.374   9.173   9.989
   17        0.438   0.369   9.180   9.988
   18        0.438   0.369   9.180   9.988
   19        0.443   0.371   9.181   9.994
   20        0.445   0.394   9.169  10.009
   21        0.445   0.394   9.169  10.009
   22        0.434   0.370   9.184   9.989
   23        0.445   0.395   9.169  10.009
   24        0.434   0.370   9.184   9.989
   25        0.442   0.371   9.181   9.994
   26        0.442   0.371   9.181   9.994
   27        0.434   0.371   9.184   9.989
   28        0.450   0.293   9.190   9.933
   29        0.453   0.307   9.180   9.940
   30        0.453   0.307   9.180   9.940
   31        0.454   0.310   9.178   9.942
   32        0.454   0.310   9.178   9.942
   33        0.453   0.307   9.180   9.940
   34        0.453   0.307   9.180   9.940
   35        0.443   0.296   9.190   9.930
   36        0.649   0.438   7.073   8.160
   37        0.616   0.121   0.000   0.737
   38        0.616   0.121   0.000   0.737
   39        1.558   3.620   0.000   5.178
tot         19.024  16.041 328.420 363.486

 BZINTS: Fermi energy:    0.009832;  402.000000 electrons
         Band energy:-0.117977E+04;  BLOECHL correction:   -0.063826