 vasp.6.2.0 18Jan21 (build Jun 12 2021 23:27:24) complex

 executed on             LinuxIFC date 2022.05.27  06:08:10

 INCAR:
   ISMEAR = -5
   SIGMA = 0.1
   ISPIN = 1
   EDIFF = 1.d-5
   EDIFFG = -0.01
   NSW = 0
   NELM = 150
   ENCUT = 500
   ISIF = 2
   IBRION = 2
   LREAL = Auto
   ALGO = Fast
   ICHARG = 11
   LORBIT = 10
   LCHARG = .F.
   LWAVE = .F.

 POTCAR:    PAW_PBE Cu 22Jun2005
 POTCAR:    PAW_PBE Nb_sv 25May2007
 POTCAR:    PAW_PBE C 08Apr2002
 POTCAR:    PAW_PBE O 08Apr2002
|           W    W    AA    RRRRR   N    N  II  N    N   GGGG   !!!           |
|           W    W   A  A   R    R  NN   N  II  NN   N  G    G  !!!           |
|           W    W  A    A  R    R  N N  N  II  N N  N  G       !!!           |
|           W WW W  AAAAAA  RRRRR   N  N N  II  N  N N  G  GGG   !            |
|           WW  WW  A    A  R   R   N   NN  II  N   NN  G    G                |
|           W    W  A    A  R    R  N    N  II  N    N   GGGG   !!!           |
|     For optimal performance we recommend to set                             |
|       NCORE = 2 up to number-of-cores-per-socket                            |
|     This setting can greatly improve the performance of VASP for DFT.       |
|     The default, NCORE=1 might be grossly inefficient on modern             |
|     multi-core architectures or massively parallel machines. Do your        |
|     Unfortunately you need to use the default for GW and RPA                |
|     calculations (for HF NCORE is supported but not extensively tested      |
|     yet).                                                                   |

 POTCAR:    PAW_PBE Cu 22Jun2005
   VRHFIN =Cu: d10 p1

   TITEL  = PAW_PBE Cu 22Jun2005
   POMASS =   63.546; ZVAL   =   11.000    mass and valenz
   ENMAX  =  295.446; ENMIN  =  221.585 eV

 POTCAR:    PAW_PBE Nb_sv 25May2007
   VRHFIN =Nb: 4p5s4d

   TITEL  = PAW_PBE Nb_sv 25May2007
   POMASS =   92.910; ZVAL   =   13.000    mass and valenz
   ENMAX  =  293.235; ENMIN  =  219.927 eV

 POTCAR:    PAW_PBE C 08Apr2002
   VRHFIN =C: s2p2

   TITEL  = PAW_PBE C 08Apr2002
   POMASS =   12.011; ZVAL   =    4.000    mass and valenz
   ENMAX  =  400.000; ENMIN  =  300.000 eV

 POTCAR:    PAW_PBE O 08Apr2002
   VRHFIN =O: s2p4

   TITEL  = PAW_PBE O 08Apr2002
   POMASS =   16.000; ZVAL   =    6.000    mass and valenz
   ENMAX  =  400.000; ENMIN  =  300.000 eV

 Optimization of the real space projectors (new method)

 maximal supplied QI-value         = 16.25
 optimisation between [QCUT,QGAM] = [ 11.38, 22.75] = [ 36.24,144.96] Ry
 Optimized for a Real-space Cutoff    1.52 Angstroem

   l    n(q)    QCUT    max X(q) W(low)/X(q) W(high)/X(q)  e(spline)
   2      9    11.376     4.610    0.21E-03    0.10E-03    0.26E-06
   2      9    11.376     8.522    0.33E-03    0.16E-03    0.37E-06
   0     10    11.376    51.609    0.62E-04    0.20E-04    0.13E-06
   0     10    11.376    27.747    0.54E-04    0.20E-04    0.13E-06
   1     10    11.376    20.408    0.13E-04    0.99E-04    0.19E-06
   1     10    11.376    13.425    0.12E-04    0.87E-04    0.17E-06
 Optimization of the real space projectors (new method)

[...]

   l    n(q)    QCUT    max X(q) W(low)/X(q) W(high)/X(q)  e(spline)
   0      7    11.310   115.676    0.43E-03    0.13E-02    0.19E-06
   0      7    11.310    87.132    0.43E-03    0.13E-02    0.18E-06
   1      6    11.310     4.429    0.42E-03    0.74E-03    0.11E-06
   1      6    11.310     2.733    0.34E-03    0.55E-03    0.92E-07
 Optimization of the real space projectors (new method)

 maximal supplied QI-value         = 24.76
 optimisation between [QCUT,QGAM] = [ 11.39, 22.77] = [ 36.31,145.25] Ry
 Optimized for a Real-space Cutoff    1.00 Angstroem

   l    n(q)    QCUT    max X(q) W(low)/X(q) W(high)/X(q)  e(spline)
   0      7    11.387    20.381    0.39E-03    0.13E-02    0.15E-06
   0      7    11.387    15.268    0.42E-03    0.14E-02    0.17E-06
   1      6    11.387     5.964    0.41E-03    0.11E-02    0.17E-06
   1      6    11.387     5.382    0.39E-03    0.87E-03    0.15E-06
  PAW_PBE Cu 22Jun2005                  :
  PAW_PBE Nb_sv 25May2007               :
  PAW_PBE C 08Apr2002                   :
  PAW_PBE O 08Apr2002                   :

 POSCAR: Cu-Nb-CO
  positions in direct lattice
  velocities in cartesian coordinates
 exchange correlation table for  LEXCH =        8
   RHO(1)=    0.500       N(1)  =     2000
   RHO(2)=  100.500       N(2)  =     4000

 VTST: version 3.2, (02/03/18)

 CHAIN: initializing optimizer

 OPT: Using VASP Conjugate-Gradient optimizer
 CHAIN: Read ICHAIN            0

 POSCAR: Cu-Nb-CO
  positions in direct lattice
  velocities in cartesian coordinates

 ion  position               nearest neighbor table
   1  0.000  0.000  0.220-   7 2.57   3 2.57   4 2.57   2 2.57   6 2.57   8 2.57  12 2.57  10 2.57
                            16 2.57
   2  0.333  0.000  0.220-   8 2.57   9 2.57   5 2.57   1 2.57   3 2.57  11 2.57   4 2.57  10 2.57
                            17 2.57
   3  0.667  0.000  0.220-   1 2.57   7 2.57   6 2.57   9 2.57   2 2.57  12 2.57   5 2.57  18 2.57
                            11 2.57
   4  0.000  0.333  0.220-   5 2.57   6 2.57   1 2.57   7 2.57   2 2.57  13 2.57   9 2.57  10 2.57
                            15 2.57
   5  0.333  0.333  0.220-   4 2.57   2 2.57   7 2.57  13 2.57   8 2.57   6 2.57   3 2.57  11 2.57
                            14 2.57
   6  0.667  0.333  0.220-   4 2.57   9 2.57  15 2.57   3 2.57   1 2.57   8 2.57  14 2.57   5 2.57
                            12 2.57
   7  0.000  0.667  0.220-   1 2.57   3 2.57  16 2.57  18 2.57   4 2.57   5 2.57   8 2.57   9 2.57
                            13 2.57
   8  0.333  0.667  0.220-   9 2.57   2 2.57  17 2.57   6 2.57   1 2.57   7 2.57   5 2.57  14 2.57
                            16 2.57
   9  0.667  0.667  0.220-   8 2.57   6 2.57   2 2.57  17 2.57   3 2.57   7 2.57   4 2.57  15 2.57
                            18 2.57
  10  0.111  0.111  0.305-  26 2.55  19 2.55  11 2.57  12 2.57  13 2.57   1 2.57   2 2.57   4 2.57
                            15 2.57  16 2.57  17 2.57  20 2.57
  11  0.444  0.111  0.305-  20 2.57  21 2.57  10 2.57  13 2.57   2 2.57  17 2.57  14 2.57  12 2.57
                             5 2.57   3 2.57  18 2.57  27 2.57
  12  0.778  0.111  0.305-  19 2.55  25 2.55  15 2.57  10 2.57  14 2.57  18 2.57   3 2.57   1 2.57
                            16 2.57  11 2.57   6 2.57  21 2.57
  13  0.111  0.444  0.305-  23 2.57  20 2.57  16 2.57  18 2.57  10 2.57  11 2.57  14 2.57   5 2.57
                             4 2.57   7 2.57  15 2.57  22 2.57
  14  0.444  0.444  0.305-  21 2.57  23 2.57  15 2.57  17 2.57  12 2.57  16 2.57  13 2.57  11 2.57
                             6 2.57   8 2.57   5 2.57  24 2.57
  15  0.778  0.444  0.305-  19 2.55  14 2.57  17 2.57  12 2.57   6 2.57  18 2.57  10 2.57   9 2.57
                            13 2.57   4 2.57  24 2.57  22 2.57
  16  0.111  0.778  0.305-  25 2.55  26 2.55  18 2.57  13 2.57   7 2.57  14 2.57  17 2.57  12 2.57
                            10 2.57   8 2.57   1 2.57  23 2.57
  17  0.444  0.778  0.305-  26 2.55  14 2.57  15 2.57   8 2.57   9 2.57  11 2.57  16 2.57  18 2.57
                            10 2.57   2 2.57  27 2.57  24 2.57
  18  0.778  0.778  0.305-  25 2.55  16 2.57  13 2.57   7 2.57  15 2.57  12 2.57  17 2.57   9 2.57
                             3 2.57  11 2.57  22 2.57  27 2.57
  19  0.889  0.222  0.390-  12 2.55  10 2.55  15 2.55  25 2.56  26 2.56  21 2.57  20 2.57  22 2.57
                            24 2.57  28 2.57  32 2.58  31 2.58
  20  0.222  0.222  0.391-  23 2.56  21 2.56  11 2.57  13 2.57  10 2.57  26 2.57  19 2.57  27 2.57
                            22 2.57  29 2.59  31 2.59  36 2.66
  21  0.555  0.222  0.391-  20 2.56  23 2.56  14 2.57  11 2.57  12 2.57  19 2.57  25 2.57  24 2.57
                            27 2.57  32 2.59  30 2.59  36 2.66
  22  0.889  0.556  0.391-  24 2.56  27 2.56  18 2.57  15 2.57  23 2.57  20 2.57  19 2.57  25 2.57
                            13 2.57  35 2.57  31 2.57  33 2.57
  23  0.222  0.555  0.391-  20 2.56  21 2.56  13 2.57  14 2.57  16 2.57  25 2.57  26 2.57  22 2.57
                            24 2.57  33 2.59  34 2.59  36 2.66
  24  0.556  0.556  0.391-  22 2.56  27 2.56  15 2.57  17 2.57  21 2.57  23 2.57  19 2.57  26 2.57
                            14 2.57  35 2.57  32 2.57  34 2.57
  25  0.889  0.889  0.390-  12 2.55  16 2.55  18 2.55  19 2.56  26 2.56  21 2.57  23 2.57  22 2.57
                            27 2.57  28 2.57  33 2.58  30 2.58
  26  0.222  0.889  0.390-  10 2.55  16 2.55  17 2.55  25 2.56  19 2.56  20 2.57  23 2.57  27 2.57
                            24 2.57  28 2.57  29 2.58  34 2.58
  27  0.556  0.889  0.391-  24 2.56  22 2.56  17 2.57  18 2.57  20 2.57  21 2.57  26 2.57  25 2.57
                            11 2.57  35 2.57  29 2.57  30 2.57
  28  0.000  0.000  0.476-  33 2.55  30 2.55  31 2.55  29 2.55  32 2.55  34 2.55  25 2.57  19 2.57
                            26 2.57
  29  0.334  0.996  0.477-  34 2.51  35 2.55  28 2.55  27 2.57  26 2.58  20 2.59  30 2.59  36 2.60
                            31 2.60
  30  0.670  0.996  0.477-  33 2.51  35 2.55  28 2.55  27 2.57  25 2.58  21 2.59  29 2.59  36 2.60
                            32 2.60
  31  0.996  0.334  0.477-  32 2.51  35 2.55  28 2.55  22 2.57  19 2.58  20 2.59  33 2.59  36 2.60
                            29 2.60
  32  0.670  0.334  0.477-  31 2.51  35 2.55  28 2.55  24 2.57  19 2.58  21 2.59  34 2.59  36 2.60
                            30 2.60
  33  0.996  0.670  0.477-  30 2.51  35 2.55  28 2.55  22 2.57  25 2.58  23 2.59  31 2.59  36 2.60
                            34 2.60
  34  0.334  0.670  0.477-  29 2.51  35 2.55  28 2.55  24 2.57  26 2.58  23 2.59  32 2.59  36 2.60
                            33 2.60
  35  0.667  0.667  0.477-  34 2.55  32 2.55  29 2.55  30 2.55  33 2.55  31 2.55  24 2.57  27 2.57
                            22 2.57
  36  0.333  0.333  0.482-  37 2.12  31 2.60  29 2.60  33 2.60  32 2.60  34 2.60  30 2.60  23 2.66
                            20 2.66  21 2.66
  37  0.333  0.333  0.568-  38 1.16  36 2.12
  38  0.333  0.333  0.616-  37 1.16

  LATTYP: Found a hexagonal cell.
 ALAT       =     7.6967864036
 C/A-ratio  =     3.1758526445

  Lattice vectors:

 A1 = (  -3.8483927580,  -6.6656128093,   0.0000000000)
 A2 = (   7.6967864037,   0.0000000000,   0.0000000000)
 A3 = (   0.0000000000,   0.0000000000,  24.4438594541)

Analysis of symmetry for initial positions (statically):
 Subroutine PRICEL returns:
 Original cell was already a primitive cell.

 Routine SETGRP: Setting up the symmetry group for a
 hexagonal supercell.

 Subroutine GETGRP returns: Found  6 space group operations
 (whereof  6 operations were pure point group operations)
 out of a pool of 24 trial point group operations.

The static configuration has the point symmetry C_3v.

Analysis of symmetry for dynamics (positions and initial velocities):
 Subroutine PRICEL returns:
 Original cell was already a primitive cell.

[...]

The dynamic configuration has the point symmetry C_3v.

Analysis of constrained symmetry for selective dynamics:
 Subroutine PRICEL returns:
[...]
     33      -4.7605      2.00000
     34      -4.7146      2.00000
     35      -4.6910      2.00000
     36      -4.6776      2.00000
     37      -4.6441      2.00000
     38      -4.6302      2.00000
     39      -4.6293      2.00000
     40      -4.6206      2.00000
     41      -4.6117      2.00000
     42      -4.5768      2.00000
     43      -4.5126      2.00000
     44      -4.4893      2.00000
     45      -4.4466      2.00000
     46      -4.3171      2.00000
     47      -4.3040      2.00000
     48      -4.2563      2.00000
     49      -4.2412      2.00000
     50      -4.2216      2.00000
     51      -4.2075      2.00000
     52      -4.2012      2.00000
     53      -4.1930      2.00000
     54      -4.1804      2.00000
     55      -4.0283      2.00000
     56      -3.9997      2.00000
     57      -3.9863      2.00000
     58      -3.9731      2.00000
     59      -3.9230      2.00000
     60      -3.9150      2.00000
[...]
    238       5.1286      0.00000
    239       5.2050      0.00000
    240       5.2063      0.00000
    241       5.3205      0.00000
    242       5.3974      0.00000
    243       5.5888      0.00000
    244       5.6198      0.00000
    245       5.6972      0.00000
    246       6.0145      0.00000
    247       6.0306      0.00000
    248       6.0450      0.00000
    249       6.0500      0.00000
    250       6.2224      0.00000
    251       6.2542      0.00000
    252       6.4494      0.00000

 soft charge-density along one line, spin component           1
         0         1         2         3         4         5         6         7         8         9
 total charge-density along one line

------------------------ aborting loop because EDIFF is reached ----------------------------------------

 total charge

# of ion       s       p       d       tot
    1        0.449   0.281   9.191   9.921
    2        0.446   0.285   9.187   9.918
    3        0.446   0.285   9.187   9.918
    4        0.446   0.285   9.187   9.918
    5        0.451   0.285   9.181   9.917
    6        0.446   0.285   9.187   9.918
    7        0.446   0.285   9.187   9.918
    8        0.446   0.285   9.187   9.918
    9        0.448   0.282   9.190   9.920
   10        0.444   0.372   9.175   9.990
   11        0.443   0.364   9.183   9.990
   12        0.444   0.372   9.175   9.990
   13        0.443   0.364   9.183   9.990
   14        0.443   0.364   9.183   9.990
   15        0.439   0.371   9.176   9.986
   16        0.444   0.372   9.175   9.990
   17        0.439   0.371   9.176   9.986
   18        0.439   0.371   9.176   9.986
   19        0.443   0.370   9.178   9.991
   20        0.465   0.388   9.162  10.015
   21        0.465   0.388   9.162  10.015
   22        0.430   0.373   9.180   9.983
   23        0.465   0.388   9.162  10.015
   24        0.430   0.373   9.180   9.983
   25        0.443   0.370   9.178   9.991
   26        0.443   0.370   9.178   9.991
   27        0.430   0.373   9.180   9.983
   28        0.443   0.293   9.182   9.918
   29        0.480   0.313   9.163   9.956
   30        0.480   0.313   9.163   9.956
   31        0.480   0.313   9.163   9.956
   32        0.480   0.313   9.163   9.956
   33        0.480   0.313   9.163   9.956
   34        0.480   0.313   9.163   9.956
   35        0.440   0.297   9.184   9.920
   36        2.205   6.015   2.453  10.673
   37        0.975   1.530   0.000   2.505
   38        1.617   3.522   0.000   5.138
tot         20.575  22.807 323.641 367.023

  FORCE on cell =-STRESS in cart. coord.  units (eV):
  Direction    XX          YY          ZZ          XY          YZ          ZX
  Alpha Z   808.57592   808.57592   808.57592
  Ewald  237532.60812237532.60762************     0.00042     0.00012     0.00021
  Hartree250567.80276250567.80270************     0.00005     0.00006     0.00007
  E(xc)   -2350.11739 -2350.11689 -2353.27935    -0.00043    -0.00003    -0.00005
  Local  ************************501284.31568     0.01878    -0.00060    -0.00099
  n-local  -790.04743  -778.40514  -798.01701     6.44480    -0.14602     0.08387
  augment  3331.64379  3331.66398  3355.68458    -0.01749     0.00029     0.00055
  Kinetic  3570.94084  3573.53914  3578.03576     2.34284     1.51762    -0.96934
  Fock        0.00000     0.00000     0.00000     0.00000     0.00000     0.00000
  Total      -5.77190    -5.77190    -1.17545     0.00000    -0.00000    -0.00000
  in kB      -7.37412    -7.37412    -1.50174     0.00000    -0.00000    -0.00000

 VOLUME and BASIS-vectors are now :
  energy-cutoff  :      500.00
  volume of cell :     1254.06
      direct lattice vectors                 reciprocal lattice vectors
     7.696786404  0.000000000  0.000000000     0.129924354 -0.075011849  0.000000000
     3.848392758  6.665612809  0.000000000     0.000000000  0.150023716  0.000000000
     0.000000000  0.000000000 24.443859454     0.000000000  0.000000000  0.040910070

  length of vectors
     7.696786404  7.696786404 24.443859454     0.150023716  0.150023716  0.040910070

 FORCES acting on ions
    electron-ion (+dipol)            ewald-force                    non-local-force                 convergence-correction
   -.424E-04 -.317E-06 0.384E+04   0.578E-04 -.435E-05 -.384E+04   -.398E-17 0.176E-17 -.252E+01   -.336E-03 -.161E-03 0.390E-01
   -.562E+00 -.173E+00 0.384E+04   0.421E+00 -.127E-01 -.384E+04   0.143E+00 0.248E+00 -.187E+01   0.102E-01 -.485E-01 0.668E-01
   0.562E+00 -.173E+00 0.384E+04   -.421E+00 -.128E-01 -.384E+04   -.143E+00 0.248E+00 -.187E+01   -.938E-02 -.458E-01 0.677E-01
   -.431E+00 -.400E+00 0.384E+04   0.199E+00 0.371E+00 -.384E+04   0.286E+00 -.142E-03 -.187E+01   -.368E-01 0.330E-01 0.668E-01
   -.668E-04 -.660E-05 0.384E+04   0.116E-03 -.101E-04 -.383E+04   0.529E-17 0.541E-18 -.112E+01   0.122E-01 0.749E-02 0.257E+00
   0.431E+00 -.400E+00 0.384E+04   -.200E+00 0.371E+00 -.384E+04   -.286E+00 -.142E-03 -.187E+01   0.351E-01 0.343E-01 0.682E-01
   0.131E+00 0.573E+00 0.384E+04   -.222E+00 -.358E+00 -.384E+04   0.143E+00 -.247E+00 -.187E+01   -.444E-01 0.148E-01 0.679E-01
   -.131E+00 0.573E+00 0.384E+04   0.221E+00 -.358E+00 -.384E+04   -.143E+00 -.247E+00 -.187E+01   0.479E-01 0.133E-01 0.682E-01
   -.145E-03 -.335E-04 0.384E+04   0.263E-03 0.205E-04 -.383E+04   0.119E-17 0.351E-18 -.223E+01   -.133E-01 -.685E-02 0.299E-01
   -.287E+01 -.166E+01 0.137E+04   0.332E+01 0.192E+01 -.137E+04   -.409E+00 -.236E+00 -.983E+00   -.429E-01 -.248E-01 0.380E-01
   -.914E-04 0.230E+00 0.136E+04   0.190E-03 -.495E+00 -.136E+04   -.197E-07 0.295E+00 -.798E-02   0.118E-01 -.406E-01 0.262E-01
   0.287E+01 -.166E+01 0.137E+04   -.332E+01 0.192E+01 -.137E+04   0.409E+00 -.236E+00 -.983E+00   0.409E-01 -.227E-01 0.387E-01
   0.199E+00 -.115E+00 0.136E+04   -.429E+00 0.247E+00 -.136E+04   0.256E+00 -.148E+00 -.798E-02   -.288E-01 0.314E-01 0.262E-01
   -.199E+00 -.115E+00 0.136E+04   0.429E+00 0.247E+00 -.136E+04   -.256E+00 -.148E+00 -.798E-02   0.532E-01 0.304E-01 0.264E-01
   -.143E-03 -.340E+01 0.137E+04   0.297E-03 0.317E+01 -.136E+04   -.104E-07 0.156E+00 -.106E+01   -.407E-02 0.623E-01 0.727E-02
   -.926E-04 0.332E+01 0.137E+04   0.185E-03 -.383E+01 -.137E+04   -.315E-07 0.473E+00 -.983E+00   -.152E-03 0.455E-01 0.386E-01
   -.295E+01 0.170E+01 0.137E+04   0.275E+01 -.159E+01 -.136E+04   0.135E+00 -.782E-01 -.106E+01   0.526E-01 -.347E-01 0.715E-02
   0.295E+01 0.170E+01 0.137E+04   -.275E+01 -.159E+01 -.136E+04   -.135E+00 -.782E-01 -.106E+01   -.519E-01 -.316E-01 0.776E-02
   -.678E-04 -.212E+01 -.111E+04   0.640E-04 0.221E+01 0.111E+04   0.220E-08 -.331E-01 0.109E+01   -.236E-02 -.555E-01 0.430E-01
   0.778E+01 0.449E+01 -.112E+04   -.625E+01 -.361E+01 0.112E+04   -.140E+01 -.810E+00 -.100E+01   -.253E+00 -.146E+00 -.238E+00
   -.778E+01 0.449E+01 -.112E+04   0.625E+01 -.361E+01 0.112E+04   0.140E+01 -.810E+00 -.100E+01   0.277E+00 -.144E+00 -.237E+00
   0.111E+01 -.640E+00 -.113E+04   -.140E+01 0.810E+00 0.113E+04   0.430E+00 -.248E+00 0.599E+00   -.114E+00 0.648E-01 -.710E-01
   -.584E-04 -.898E+01 -.112E+04   0.141E-03 0.722E+01 0.112E+04   -.108E-06 0.162E+01 -.100E+01   0.123E-01 0.311E+00 -.237E+00
   -.111E+01 -.640E+00 -.113E+04   0.140E+01 0.810E+00 0.113E+04   -.430E+00 -.248E+00 0.599E+00   0.111E+00 0.630E-01 -.714E-01
   0.184E+01 0.106E+01 -.111E+04   -.192E+01 -.111E+01 0.111E+04   0.287E-01 0.165E-01 0.109E+01   0.494E-01 0.285E-01 0.421E-01
   -.184E+01 0.106E+01 -.111E+04   0.192E+01 -.111E+01 0.111E+04   -.287E-01 0.165E-01 0.109E+01   -.489E-01 0.259E-01 0.431E-01
   -.131E-03 0.128E+01 -.113E+04   0.244E-03 -.162E+01 0.113E+04   -.331E-07 0.497E+00 0.599E+00   -.707E-03 -.131E+00 -.708E-01
   -.252E-04 0.242E-04 -.363E+04   0.333E-04 -.342E-04 0.363E+04   0.225E-17 0.391E-17 0.214E+01   0.121E-02 0.749E-03 0.203E-01
   0.255E+02 0.353E+02 -.361E+04   -.247E+02 -.344E+02 0.361E+04   -.590E+00 -.681E+00 0.647E+00   -.144E+00 -.201E+00 0.112E-01
   -.255E+02 0.353E+02 -.361E+04   0.247E+02 -.344E+02 0.361E+04   0.590E+00 -.681E+00 0.647E+00   0.123E+00 -.198E+00 0.111E-01
   0.433E+02 0.442E+01 -.361E+04   -.422E+02 -.422E+01 0.361E+04   -.885E+00 -.171E+00 0.647E+00   -.245E+00 -.240E-01 0.112E-01
   -.433E+02 0.442E+01 -.361E+04   0.422E+02 -.422E+01 0.361E+04   0.885E+00 -.171E+00 0.647E+00   0.222E+00 -.231E-01 0.103E-01
   0.178E+02 -.397E+02 -.361E+04   -.174E+02 0.386E+02 0.361E+04   -.295E+00 0.852E+00 0.647E+00   -.110E+00 0.205E+00 0.111E-01
   -.178E+02 -.397E+02 -.361E+04   0.174E+02 0.386E+02 0.361E+04   0.295E+00 0.852E+00 0.647E+00   0.916E-01 0.204E+00 0.104E-01
   -.150E-03 -.182E-04 -.365E+04   0.262E-03 0.234E-05 0.365E+04   -.247E-17 0.211E-17 0.262E+01   -.118E-01 -.598E-02 0.919E-01
   0.144E-03 -.173E-03 -.419E+04   0.151E-03 0.344E-04 0.419E+04   -.474E-18 0.278E-18 -.820E+00   0.855E-02 0.512E-02 -.563E-01
   0.244E-05 -.789E-04 -.137E+04   0.583E-05 0.337E-05 0.135E+04   0.101E-18 -.306E-18 0.189E+02   0.119E-02 0.721E-03 0.325E-01
   0.227E-03 -.746E-04 -.217E+04   0.139E-05 0.166E-05 0.223E+04   -.207E-17 -.807E-18 -.590E+02   0.329E-02 0.201E-02 0.591E-01
   0.139E-03 -.297E-03 0.533E+02   -.667E-13 -.273E-12 0.232E-10   -.492E-17 0.112E-15 -.535E+02   0.261E-02 -.130E-02 0.363E+00

 POSITION                                       TOTAL-FORCE (eV/Angst)
      0.00000      0.00000      5.37156         0.000000      0.000000     -0.042485
      2.56560      0.00000      5.37156         0.012808      0.014360      0.054186
      5.13119      0.00000      5.37156        -0.012808      0.014360      0.054186
      1.28280      2.22187      5.37156         0.018840      0.003912      0.054186
      3.84839      2.22187      5.37156        -0.000000      0.000000      0.049596
      6.41399      2.22187      5.37156        -0.018840      0.003912      0.054186
      2.56560      4.44374      5.37156         0.006032     -0.018272      0.054186
      5.13119      4.44374      5.37156        -0.006032     -0.018272      0.054186
      7.69679      4.44374      5.37156        -0.000000      0.000000      0.014381
      1.28280      0.74062      7.46636        -0.004777     -0.002758     -0.105718
      3.84839      0.74062      7.46636         0.000000     -0.017649     -0.030218
      6.41399      0.74062      7.46636         0.004777     -0.002758     -0.105718
      2.56560      2.96249      7.46636        -0.015285      0.008825     -0.030218
      5.13119      2.96249      7.46636         0.015285      0.008825     -0.030218
      7.69679      2.96249      7.46636         0.000000     -0.010383     -0.039675
      3.84839      5.18437      7.46636        -0.000000      0.005516     -0.105718
      6.41399      5.18437      7.46636        -0.008992      0.005192     -0.039675
      8.97958      5.18437      7.46636         0.008992      0.005192     -0.039675
      7.69679      1.47855      9.54201        -0.000000      0.004059      0.053627
      2.56706      1.48209      9.56134        -0.138166     -0.079770     -0.183262
      5.12972      1.48209      9.56134         0.138166     -0.079770     -0.183262
      8.97774      3.70418      9.56312         0.023722     -0.013696      0.019827
      3.84839      3.70142      9.56134        -0.000000      0.159541     -0.183262
      6.41583      3.70418      9.56312        -0.023722     -0.013696      0.019827
     10.26471      5.92634      9.54201        -0.003515     -0.002030      0.053627
      5.12886      5.92634      9.54201         0.003515     -0.002030      0.053627
      7.69679      5.92286      9.56312        -0.000000      0.027392      0.019827
      0.00000      0.00000     11.64396         0.000000      0.000000     -0.008787
      6.40056      6.63873     11.66709        -0.000971     -0.014197      0.037059
      8.99302      6.63873     11.66709         0.000971     -0.014197      0.037059
      8.94959      2.22368     11.66709        -0.012781      0.006257      0.037059
      6.44399      2.22368     11.66709         0.012781      0.006257      0.037059
     10.24582      4.46882     11.66709        -0.011809      0.007940      0.037059
      5.14776      4.46882     11.66709         0.011809      0.007940      0.037059
      7.69679      4.44374     11.66626        -0.000000      0.000000     -0.009177
      3.84839      2.22187     11.77465         0.000000      0.000000      0.349398
      3.84839      2.22187     13.89537        -0.000000      0.000000     -0.059294
      3.84839      2.22187     15.05966        -0.000000      0.000000      0.015153
    total drift:                                0.002753     -0.001600      0.144828

  FREE ENERGIE OF THE ION-ELECTRON SYSTEM (eV)
  free  energy   TOTEN  =      -147.30445609 eV

  energy  without entropy=     -147.30445609  energy(sigma->0) =     -147.30445609

 stress matrix after NEB project (eV)
     -5.77190      0.00000     -0.00000
      0.00000     -5.77190     -0.00000
     -0.00000     -0.00000     -1.17545
  FORCES: max atom, RMS     0.059294    0.009928
  FORCE total and by dimension    0.061199    0.059294
  Stress total and by dimension    8.246905    5.771905
|           W    W    AA    RRRRR   N    N  II  N    N   GGGG   !!!           |
|           W    W   A  A   R    R  NN   N  II  NN   N  G    G  !!!           |
|           W    W  A    A  R    R  N N  N  II  N N  N  G       !!!           |
|           W WW W  AAAAAA  RRRRR   N  N N  II  N  N N  G  GGG   !            |
|           WW  WW  A    A  R   R   N   NN  II  N   NN  G    G                |
|           W    W  A    A  R    R  N    N  II  N    N   GGGG   !!!           |
|     Tetrahedron method does not include variations of the Fermi             |
|     occupations, so forces and stress will be inaccurate. We suggest        |
|     using a different smearing scheme ISMEAR = 1 or 2 for metals in         |
|     relaxations.                                                            |

 total charge

# of ion       s       p       d       tot
    1        0.449   0.281   9.191   9.921
    2        0.446   0.285   9.187   9.918
    3        0.446   0.285   9.187   9.918
    4        0.446   0.285   9.187   9.918
    5        0.451   0.285   9.181   9.917
    6        0.446   0.285   9.187   9.918
    7        0.446   0.285   9.187   9.918
    8        0.446   0.285   9.187   9.918
    9        0.448   0.282   9.190   9.920
   10        0.444   0.372   9.175   9.990
   11        0.443   0.364   9.183   9.990
   12        0.444   0.372   9.175   9.990
   13        0.443   0.364   9.183   9.990
   14        0.443   0.364   9.183   9.990
   15        0.439   0.371   9.176   9.986
   16        0.444   0.372   9.175   9.990
   17        0.439   0.371   9.176   9.986
   18        0.439   0.371   9.176   9.986
   19        0.443   0.370   9.178   9.991
   20        0.465   0.388   9.162  10.015
   21        0.465   0.388   9.162  10.015
   22        0.430   0.373   9.180   9.983
   23        0.465   0.388   9.162  10.015
   24        0.430   0.373   9.180   9.983
   25        0.443   0.370   9.178   9.991
   26        0.443   0.370   9.178   9.991
   27        0.430   0.373   9.180   9.983
   28        0.443   0.293   9.182   9.918
   29        0.480   0.313   9.163   9.956
   30        0.480   0.313   9.163   9.956
   31        0.480   0.313   9.163   9.956
   32        0.480   0.313   9.163   9.956
   33        0.480   0.313   9.163   9.956
   34        0.480   0.313   9.163   9.956
   35        0.440   0.297   9.184   9.920
   36        2.205   6.015   2.453  10.673
   37        0.975   1.530   0.000   2.505
   38        1.617   3.522   0.000   5.138
tot         20.575  22.807 323.641 367.023

 BZINTS: Fermi energy:   -0.507170;  408.000000 electrons
         Band energy:-0.171285E+04;  BLOECHL correction:   -0.023120