 vasp.6.2.0 18Jan21 (build Jun 12 2021 23:27:24) complex

 executed on             LinuxIFC date 2022.05.28  01:14:59

 INCAR:
   ISMEAR = -5
   SIGMA = 0.1
   ISPIN = 1
   EDIFF = 1.d-5
   EDIFFG = -0.01
   NSW = 0
   NELM = 150
   ENCUT = 500
   ISIF = 2
   IBRION = 2
   LREAL = Auto
   ALGO = Fast
   ICHARG = 11
   LORBIT = 10
   LCHARG = .F.
   LWAVE = .F.

 POTCAR:    PAW_PBE Au 04Oct2007
 POTCAR:    PAW_PBE Os 17Jan2003
 POTCAR:    PAW_PBE O 08Apr2002
 POTCAR:    PAW_PBE H 15Jun2001
|           W    W    AA    RRRRR   N    N  II  N    N   GGGG   !!!           |
|           W    W   A  A   R    R  NN   N  II  NN   N  G    G  !!!           |
|           W    W  A    A  R    R  N N  N  II  N N  N  G       !!!           |
|           W WW W  AAAAAA  RRRRR   N  N N  II  N  N N  G  GGG   !            |
|           WW  WW  A    A  R   R   N   NN  II  N   NN  G    G                |
|           W    W  A    A  R    R  N    N  II  N    N   GGGG   !!!           |
|     For optimal performance we recommend to set                             |
|       NCORE = 2 up to number-of-cores-per-socket                            |
|     This setting can greatly improve the performance of VASP for DFT.       |
|     The default, NCORE=1 might be grossly inefficient on modern             |
|     multi-core architectures or massively parallel machines. Do your        |
|     Unfortunately you need to use the default for GW and RPA                |
|     calculations (for HF NCORE is supported but not extensively tested      |
|     yet).                                                                   |

 POTCAR:    PAW_PBE Au 04Oct2007
   VRHFIN =Au: s1d10

   TITEL  = PAW_PBE Au 04Oct2007
   POMASS =  196.966; ZVAL   =   11.000    mass and valenz
   ENMAX  =  229.943; ENMIN  =  172.457 eV

 POTCAR:    PAW_PBE Os 17Jan2003
   VRHFIN =Os: 6s5d

   TITEL  = PAW_PBE Os 17Jan2003
   POMASS =  190.200; ZVAL   =    8.000    mass and valenz
   ENMAX  =  228.022; ENMIN  =  171.017 eV

 POTCAR:    PAW_PBE O 08Apr2002
   VRHFIN =O: s2p4

   TITEL  = PAW_PBE O 08Apr2002
   POMASS =   16.000; ZVAL   =    6.000    mass and valenz
   ENMAX  =  400.000; ENMIN  =  300.000 eV

 POTCAR:    PAW_PBE H 15Jun2001
   VRHFIN =H: ultrasoft test

   TITEL  = PAW_PBE H 15Jun2001
   POMASS =    1.000; ZVAL   =    1.000    mass and valenz
   ENMAX  =  250.000; ENMIN  =  200.000 eV

 Optimization of the real space projectors (new method)

 maximal supplied QI-value         = 15.12
 optimisation between [QCUT,QGAM] = [ 11.34, 22.83] = [ 36.00,145.93] Ry
 Optimized for a Real-space Cutoff    1.39 Angstroem

   l    n(q)    QCUT    max X(q) W(low)/X(q) W(high)/X(q)  e(spline)
   2      9    11.338    60.898    0.39E-03    0.42E-03    0.21E-06
   2      9    11.338    58.894    0.40E-03    0.42E-03    0.22E-06
   0      9    11.338   109.617    0.13E-03    0.20E-04    0.13E-06
   0      9    11.338    75.026    0.13E-03    0.20E-04    0.13E-06
   1      9    11.338    16.344    0.33E-04    0.24E-03    0.18E-06
   1      9    11.338    10.160    0.26E-04    0.19E-03    0.15E-06
 Optimization of the real space projectors (new method)

[...]

   l    n(q)    QCUT    max X(q) W(low)/X(q) W(high)/X(q)  e(spline)
   0      7    11.387    20.381    0.39E-03    0.13E-02    0.15E-06
   0      7    11.387    15.268    0.42E-03    0.14E-02    0.17E-06
   1      6    11.387     5.964    0.41E-03    0.11E-02    0.17E-06
   1      6    11.387     5.382    0.39E-03    0.87E-03    0.15E-06
 Optimization of the real space projectors (new method)

 maximal supplied QI-value         = 34.20
 optimisation between [QCUT,QGAM] = [ 11.29, 22.57] = [ 35.68,142.71] Ry
 Optimized for a Real-space Cutoff    1.16 Angstroem

   l    n(q)    QCUT    max X(q) W(low)/X(q) W(high)/X(q)  e(spline)
   0      8    11.287    19.460    0.40E-03    0.73E-03    0.16E-06
   0      8    11.287    12.209    0.38E-03    0.70E-03    0.15E-06
   1      7    11.287     4.655    0.22E-03    0.25E-04    0.22E-06
  PAW_PBE Au 04Oct2007                  :
  PAW_PBE Os 17Jan2003                  :
  PAW_PBE O 08Apr2002                   :
  PAW_PBE H 15Jun2001                   :

 POSCAR: Au-Os-OOH
  positions in direct lattice
  velocities in cartesian coordinates
 exchange correlation table for  LEXCH =        8
   RHO(1)=    0.500       N(1)  =     2000
   RHO(2)=  100.500       N(2)  =     4000

 VTST: version 3.2, (02/03/18)

 CHAIN: initializing optimizer

 OPT: Using VASP Conjugate-Gradient optimizer
 CHAIN: Read ICHAIN            0

 POSCAR: Au-Os-OOH
  positions in direct lattice
  velocities in cartesian coordinates

 ion  position               nearest neighbor table
   1  0.000  0.000  0.204-  16 2.94  12 2.94   6 2.94   8 2.94   7 2.94   3 2.94  10 2.94   4 2.94
                             2 2.94
   2  0.333  0.000  0.204-   9 2.94  11 2.94  17 2.94  10 2.94   8 2.94   4 2.94   5 2.94   1 2.94
                             3 2.94
   3  0.667  0.000  0.204-   7 2.94  18 2.94  12 2.94   1 2.94  11 2.94   5 2.94   6 2.94   9 2.94
                             2 2.94
   4  0.000  0.333  0.204-  10 2.94   6 2.94   5 2.94  13 2.94   2 2.94  15 2.94   9 2.94   1 2.94
                             7 2.94
   5  0.333  0.333  0.204-  13 2.94   7 2.94  11 2.94   4 2.94   2 2.94  14 2.94   3 2.94   8 2.94
                             6 2.94
   6  0.667  0.333  0.204-  15 2.94  14 2.94   1 2.94  12 2.94   4 2.94   9 2.94   8 2.94   3 2.94
                             5 2.94
   7  0.000  0.667  0.204-  18 2.94   3 2.94  16 2.94   5 2.94   1 2.94  13 2.94   8 2.94   4 2.94
                             9 2.94
   8  0.333  0.667  0.204-   9 2.94  17 2.94   1 2.94   2 2.94  14 2.94  16 2.94   6 2.94   7 2.94
                             5 2.94
   9  0.667  0.667  0.204-   2 2.94   8 2.94  17 2.94   6 2.94  15 2.94   4 2.94   3 2.94  18 2.94
                             7 2.94
  10  0.111  0.111  0.296-  20 2.90  11 2.94  17 2.94   2 2.94   4 2.94   1 2.94  12 2.94  16 2.94
                            13 2.94  15 2.94  26 2.95  19 2.95
  11  0.444  0.111  0.296-  20 2.91  21 2.91  27 2.94  13 2.94   2 2.94  10 2.94  17 2.94   5 2.94
                             3 2.94  18 2.94  14 2.94  12 2.94
  12  0.778  0.111  0.296-  21 2.90  16 2.94  18 2.94   1 2.94  14 2.94  15 2.94   3 2.94   6 2.94
                            10 2.94  11 2.94  25 2.95  19 2.95
  13  0.111  0.444  0.296-  23 2.91  20 2.91  22 2.94   5 2.94  18 2.94  11 2.94   7 2.94   4 2.94
                            16 2.94  10 2.94  14 2.94  15 2.94
  14  0.444  0.444  0.296-  21 2.91  23 2.91  24 2.94  15 2.94   6 2.94  12 2.94   8 2.94  17 2.94
                             5 2.94  16 2.94  13 2.94  11 2.94
  15  0.778  0.444  0.296-  24 2.92  22 2.92  14 2.94   6 2.94  17 2.94  12 2.94   9 2.94   4 2.94
                            10 2.94  13 2.94  18 2.94  19 2.95
  16  0.111  0.778  0.296-  23 2.90  18 2.94  12 2.94   7 2.94   1 2.94   8 2.94  13 2.94  10 2.94
                            14 2.94  17 2.94  25 2.95  26 2.95
  17  0.444  0.778  0.296-  27 2.92  24 2.92   9 2.94  15 2.94   2 2.94  10 2.94  11 2.94   8 2.94
                            14 2.94  16 2.94  18 2.94  26 2.95
  18  0.778  0.778  0.296-  22 2.92  27 2.92  16 2.94   7 2.94  13 2.94  12 2.94   3 2.94  11 2.94
                             9 2.94  15 2.94  17 2.94  25 2.95
  19  0.888  0.223  0.389-  24 2.93  22 2.93  21 2.93  20 2.93  28 2.95  15 2.95  26 2.95  25 2.95
                            10 2.95  12 2.95  32 2.98  31 2.98
  20  0.222  0.222  0.387-  36 2.77  10 2.90  11 2.91  13 2.91  26 2.93  19 2.93  23 2.95  21 2.95
                            27 2.96  22 2.96  29 2.96  31 2.96
  21  0.556  0.222  0.387-  36 2.77  12 2.90  14 2.91  11 2.91  25 2.93  19 2.93  20 2.95  23 2.95
                            27 2.96  24 2.96  30 2.96  32 2.96
  22  0.886  0.557  0.388-  24 2.90  27 2.90  18 2.92  15 2.92  25 2.93  19 2.93  13 2.94  35 2.95
                            23 2.96  20 2.96  33 2.98  31 2.98
  23  0.222  0.556  0.387-  36 2.77  16 2.90  13 2.91  14 2.91  25 2.93  26 2.93  20 2.95  21 2.95
                            22 2.96  24 2.96  33 2.96  34 2.96
  24  0.557  0.557  0.388-  27 2.90  22 2.90  15 2.92  17 2.92  26 2.93  19 2.93  14 2.94  35 2.95
                            21 2.96  23 2.96  32 2.98  34 2.98
  25  0.888  0.888  0.389-  22 2.93  27 2.93  23 2.93  21 2.93  28 2.95  18 2.95  19 2.95  26 2.95
                            16 2.95  12 2.95  33 2.98  30 2.98
  26  0.223  0.888  0.389-  27 2.93  24 2.93  20 2.93  23 2.93  28 2.95  17 2.95  19 2.95  25 2.95
                            10 2.95  16 2.95  29 2.98  34 2.98
  27  0.557  0.886  0.388-  24 2.90  22 2.90  17 2.92  18 2.92  26 2.93  25 2.93  11 2.94  35 2.95
                            20 2.96  21 2.96  29 2.98  30 2.98
  28  0.000  0.000  0.482-  38 2.09  25 2.95  19 2.95  26 2.95  34 2.98  32 2.98  33 2.98  30 2.98
                            31 2.98  29 2.98
  29  0.333  0.009  0.482-  31 2.86  30 2.86  36 2.88  20 2.96  28 2.98  35 2.98  27 2.98  26 2.98
                            34 3.09
  30  0.658  0.009  0.482-  32 2.86  29 2.86  36 2.88  21 2.96  28 2.98  35 2.98  27 2.98  25 2.98
                            33 3.09
  31  0.009  0.333  0.482-  29 2.86  33 2.86  36 2.88  20 2.96  28 2.98  35 2.98  22 2.98  19 2.98
                            32 3.09
  32  0.658  0.333  0.482-  30 2.86  34 2.86  36 2.88  21 2.96  28 2.98  35 2.98  24 2.98  19 2.98
                            31 3.09
  33  0.009  0.658  0.482-  34 2.86  31 2.86  36 2.88  23 2.96  28 2.98  35 2.98  22 2.98  25 2.98
                            30 3.09
  34  0.333  0.658  0.482-  33 2.86  32 2.86  36 2.88  23 2.96  28 2.98  35 2.98  24 2.98  26 2.98
                            29 3.09
  35  0.667  0.667  0.482-  24 2.95  27 2.95  22 2.95  29 2.98  34 2.98  32 2.98  31 2.98  30 2.98
                            33 2.98
  36  0.333  0.333  0.471-  37 1.73  20 2.77  23 2.77  21 2.77  33 2.88  31 2.88  29 2.88  30 2.88
                            34 2.88  32 2.88
  37  0.338  0.332  0.538-  36 1.73
  38  0.999  0.058  0.561-  39 0.98  28 2.09
  39  0.110  0.966  0.575-  38 0.98

  LATTYP: Found a hexagonal cell.
 ALAT       =     8.8135128021
 C/A-ratio  =     2.9412617888

  Lattice vectors:

 A1 = (  -4.4067569092,  -7.6327256898,   0.0000000000)
 A2 = (   8.8135128021,   0.0000000000,   0.0000000000)
 A3 = (   0.0000000000,   0.0000000000,  25.9228484302)

Analysis of symmetry for initial positions (statically):
 Subroutine PRICEL returns:
 Original cell was already a primitive cell.

 Routine SETGRP: Setting up the symmetry group for a
 hexagonal supercell.

 Subroutine GETGRP returns: Found  1 space group operations
 (whereof  1 operations were pure point group operations)
 out of a pool of 24 trial point group operations.

The static configuration has the point symmetry C_1 .

Analysis of symmetry for dynamics (positions and initial velocities):
 Subroutine PRICEL returns:
 Original cell was already a primitive cell.

[...]

The dynamic configuration has the point symmetry C_1 .

Analysis of constrained symmetry for selective dynamics:
 Subroutine PRICEL returns:
[...]
     41      -5.5513      2.00000
     42      -5.5129      2.00000
     43      -5.4359      2.00000
     44      -5.4098      2.00000
     45      -5.3439      2.00000
     46      -5.3039      2.00000
     47      -5.2493      2.00000
     48      -5.1899      2.00000
     49      -5.1818      2.00000
     50      -5.1599      2.00000
     51      -5.1320      2.00000
     52      -5.0850      2.00000
     53      -5.0601      2.00000
     54      -5.0489      2.00000
     55      -5.0226      2.00000
     56      -5.0029      2.00000
     57      -4.9928      2.00000
     58      -4.9515      2.00000
     59      -4.9306      2.00000
     60      -4.9011      2.00000
[...]
    238       5.2002      0.00000
    239       5.3349      0.00000
    240       5.5236      0.00000
    241       5.5670      0.00000
    242       5.6375      0.00000
    243       5.6621      0.00000
    244       5.7587      0.00000
    245       5.8855      0.00000
    246       5.9117      0.00000
    247       5.9428      0.00000
    248       6.0581      0.00000
    249       6.1478      0.00000
    250       6.3255      0.00000
    251       6.4284      0.00000
    252       6.4555      0.00000

 soft charge-density along one line, spin component           1
         0         1         2         3         4         5         6         7         8         9
 total charge-density along one line

------------------------ aborting loop because EDIFF is reached ----------------------------------------

 total charge

# of ion       s       p       d       tot
    1        0.542   0.239   8.766   9.548
    2        0.545   0.241   8.764   9.550
    3        0.545   0.240   8.764   9.550
    4        0.545   0.240   8.764   9.550
    5        0.543   0.241   8.763   9.548
    6        0.545   0.240   8.764   9.550
    7        0.546   0.240   8.764   9.550
    8        0.546   0.240   8.764   9.550
    9        0.537   0.240   8.766   9.543
   10        0.528   0.304   8.770   9.602
   11        0.518   0.311   8.776   9.605
   12        0.528   0.304   8.769   9.602
   13        0.517   0.311   8.777   9.605
   14        0.517   0.311   8.777   9.604
   15        0.513   0.309   8.772   9.594
   16        0.529   0.304   8.770   9.603
   17        0.514   0.309   8.771   9.594
   18        0.514   0.310   8.770   9.593
   19        0.516   0.302   8.773   9.591
   20        0.558   0.343   8.735   9.635
   21        0.557   0.342   8.736   9.635
   22        0.508   0.308   8.777   9.594
   23        0.559   0.342   8.735   9.636
   24        0.509   0.307   8.778   9.594
   25        0.519   0.306   8.764   9.589
   26        0.517   0.302   8.772   9.592
   27        0.508   0.308   8.778   9.594
   28        0.538   0.333   8.669   9.540
   29        0.534   0.241   8.780   9.555
   30        0.536   0.240   8.777   9.554
   31        0.525   0.239   8.781   9.545
   32        0.536   0.237   8.781   9.554
   33        0.537   0.242   8.775   9.555
   34        0.540   0.243   8.776   9.559
   35        0.534   0.226   8.769   9.529
   36        0.623   0.647   5.948   7.219
   37        1.612   3.259   0.000   4.871
   38        1.580   3.410   0.000   4.990
   39        0.623   0.117   0.000   0.740
tot         23.041  17.232 312.738 353.011

  FORCE on cell =-STRESS in cart. coord.  units (eV):
  Direction    XX          YY          ZZ          XY          YZ          ZX
  Alpha Z   905.71094   905.71094   905.71094
  Ewald  176126.04213176118.99404************   -19.79084     3.83702    39.62963
  Hartree184547.68605184526.10000************     5.03966     6.67782     9.20966
  E(xc)   -1827.20704 -1827.11371 -1832.74135    -0.15723    -0.00661     0.18036
  Local  ************************373004.06109     4.49451   -13.54085   -40.92267
  n-local  -126.65161  -126.69177   -94.03956     0.03017    -0.03326    -0.08977
  augment  2398.26819  2397.86640  2405.96397     0.69510    -0.15493    -0.80525
  Kinetic  5746.35037  5741.17993  5753.26121     9.58600     3.07815    -7.33373
  Fock        0.00000     0.00000     0.00000     0.00000     0.00000     0.00000
  Total     -18.99969   -19.01137     0.43994    -0.10263    -0.14265    -0.13178
  in kB     -17.45604   -17.46677     0.40420    -0.09429    -0.13106    -0.12107

 VOLUME and BASIS-vectors are now :
  energy-cutoff  :      500.00
  volume of cell :     1743.86
      direct lattice vectors                 reciprocal lattice vectors
     8.813512802  0.000000000  0.000000000     0.113462137 -0.065507406  0.000000000
     4.406756909  7.632725690  0.000000000     0.000000000  0.131014796  0.000000000
     0.000000000  0.000000000 25.922848430     0.000000000  0.000000000  0.038576008

  length of vectors
     8.813512802  8.813512802 25.922848430     0.131014796  0.131014796  0.038576008

 FORCES acting on ions
    electron-ion (+dipol)            ewald-force                    non-local-force                 convergence-correction
   0.875E-01 0.810E-01 0.280E+04   -.341E-01 -.453E-01 -.280E+04   -.111E-01 -.201E-01 -.876E+00   -.412E-01 -.130E-01 -.848E-01
   0.462E+00 0.391E+00 0.280E+04   -.627E+00 -.426E+00 -.280E+04   0.863E-01 0.993E-01 -.206E+00   0.628E-01 -.549E-01 -.125E+00
   -.538E+00 0.359E+00 0.280E+04   0.661E+00 -.428E+00 -.280E+04   -.815E-01 0.106E+00 -.235E+00   -.288E-01 -.314E-01 -.114E+00
   0.580E+00 0.197E+00 0.280E+04   -.661E+00 -.328E+00 -.280E+04   0.125E+00 0.288E-01 -.225E+00   -.379E-01 0.855E-01 -.131E+00
   -.714E-01 -.385E-01 0.280E+04   0.156E-01 0.228E-01 -.280E+04   0.192E-01 -.435E-03 -.303E+00   0.363E-01 0.170E-01 -.158E+00
   -.529E+00 0.238E+00 0.280E+04   0.645E+00 -.359E+00 -.280E+04   -.129E+00 0.378E-01 -.229E+00   0.724E-02 0.646E-01 -.136E+00
   0.514E-02 -.655E+00 0.280E+04   -.178E-01 0.785E+00 -.280E+04   0.641E-01 -.115E+00 -.225E+00   -.421E-01 -.103E-01 -.109E+00
   -.118E-01 -.580E+00 0.280E+04   -.196E-03 0.757E+00 -.280E+04   -.491E-01 -.125E+00 -.203E+00   0.471E-01 -.447E-01 -.131E+00
   0.217E-01 0.168E-01 0.280E+04   0.180E-01 0.218E-01 -.280E+04   -.239E-01 -.117E-01 -.897E+00   -.110E-01 -.194E-01 -.849E-01
   0.718E+01 0.429E+01 0.988E+03   -.672E+01 -.402E+01 -.987E+03   -.365E+00 -.224E+00 -.714E+00   -.914E-01 -.391E-01 -.197E+00
   -.296E+00 0.493E+01 0.994E+03   0.220E+00 -.495E+01 -.994E+03   0.277E-01 0.588E-01 -.175E+00   0.477E-01 -.107E+00 -.211E+00
   -.695E+01 0.438E+01 0.988E+03   0.650E+01 -.411E+01 -.987E+03   0.387E+00 -.221E+00 -.739E+00   0.563E-01 -.480E-01 -.200E+00
   0.401E+01 -.282E+01 0.994E+03   -.406E+01 0.277E+01 -.994E+03   0.518E-01 0.146E-02 -.201E+00   -.668E-01 0.845E-01 -.224E+00
   -.405E+01 -.250E+01 0.994E+03   0.410E+01 0.254E+01 -.994E+03   -.696E-01 -.442E-01 -.159E+00   0.931E-01 0.413E-01 -.211E+00
   0.691E-01 0.351E+01 0.990E+03   -.350E-01 -.379E+01 -.989E+03   -.145E-01 0.836E-01 -.528E+00   -.242E-01 0.823E-01 -.228E+00
   0.218E+00 -.808E+01 0.987E+03   -.196E+00 0.758E+01 -.986E+03   0.308E-02 0.428E+00 -.705E+00   -.282E-01 0.675E-01 -.202E+00
   0.316E+01 -.175E+01 0.990E+03   -.346E+01 0.191E+01 -.989E+03   0.862E-01 -.498E-01 -.527E+00   0.104E+00 -.584E-01 -.238E+00
   -.332E+01 -.193E+01 0.990E+03   0.365E+01 0.207E+01 -.989E+03   -.135E+00 -.612E-01 -.593E+00   -.872E-01 -.220E-01 -.244E+00
   0.154E+01 -.343E+01 -.848E+03   -.152E+01 0.315E+01 0.848E+03   0.384E-02 0.136E+00 0.118E+00   -.296E-01 0.435E-01 0.392E-01
   0.772E+01 0.459E+01 -.803E+03   -.657E+01 -.393E+01 0.804E+03   -.109E+01 -.612E+00 -.826E+00   -.366E-01 -.218E-01 0.908E-01
   -.932E+01 0.598E+01 -.805E+03   0.800E+01 -.525E+01 0.806E+03   0.121E+01 -.662E+00 -.738E+00   0.661E-01 -.274E-01 0.827E-01
   -.171E+01 -.179E+01 -.843E+03   0.131E+01 0.206E+01 0.842E+03   0.505E+00 -.345E+00 0.816E+00   -.770E-01 0.276E-01 -.662E-02
   0.421E+00 -.121E+02 -.807E+03   -.438E+00 0.106E+02 0.807E+03   0.236E-01 0.140E+01 -.800E+00   0.887E-02 0.606E-01 0.665E-01
   0.126E+01 -.280E+00 -.843E+03   -.869E+00 0.590E+00 0.842E+03   -.489E+00 -.318E+00 0.797E+00   0.636E-01 -.138E-01 -.113E-01
   0.391E+01 0.329E+01 -.854E+03   -.345E+01 -.307E+01 0.854E+03   -.239E+00 -.133E+00 -.860E-01   -.169E-01 0.127E-01 0.134E-01
   -.223E+01 0.408E+01 -.851E+03   0.197E+01 -.395E+01 0.851E+03   0.133E+00 -.703E-01 0.686E-01   -.585E-02 -.889E-02 0.352E-01
   -.150E+01 -.194E+00 -.843E+03   0.148E+01 -.292E+00 0.843E+03   -.215E-01 0.600E+00 0.796E+00   0.294E-01 -.704E-01 -.161E-01
   0.309E+02 0.407E+02 -.247E+04   -.309E+02 -.410E+02 0.248E+04   -.102E+00 0.176E+00 -.118E+01   0.631E-02 0.327E-01 0.266E+00
   -.226E+02 0.566E+02 -.263E+04   0.235E+02 -.568E+02 0.263E+04   -.921E+00 -.416E+00 0.733E+00   0.402E-01 0.454E-01 0.265E+00
   0.311E+01 0.573E+02 -.265E+04   -.359E+01 -.574E+02 0.264E+04   0.618E+00 -.489E+00 0.674E+00   -.449E-01 0.645E-01 0.232E+00
   0.285E+02 -.518E+02 -.262E+04   -.279E+02 0.528E+02 0.262E+04   -.103E+01 -.765E+00 0.118E+01   0.215E-01 0.307E-02 0.264E+00
   -.296E+02 -.368E+02 -.263E+04   0.293E+02 0.374E+02 0.263E+04   0.782E+00 -.353E+00 0.872E+00   -.417E-01 0.190E-01 0.246E+00
   0.444E+02 -.260E+02 -.265E+04   -.447E+02 0.255E+02 0.265E+04   -.150E+00 0.826E+00 0.527E+00   0.165E-01 -.627E-01 0.228E+00
   -.416E+02 -.165E+02 -.264E+04   0.418E+02 0.162E+02 0.264E+04   0.132E+00 0.729E+00 0.442E+00   0.441E-03 -.749E-01 0.245E+00
   -.331E+01 -.415E+01 -.268E+04   0.331E+01 0.413E+01 0.268E+04   0.130E-01 0.334E-01 0.406E+00   -.177E-01 -.203E-01 0.235E+00
   0.157E+01 -.406E+01 -.164E+04   -.165E+01 0.407E+01 0.164E+04   0.192E-01 -.171E-01 0.145E+01   0.173E-01 -.556E-02 0.331E+00
   -.356E+01 -.322E+01 -.184E+04   0.412E+01 0.297E+01 0.187E+04   -.558E+00 0.251E+00 -.345E+02   0.320E-03 -.249E-02 -.576E-01
   0.243E+02 -.453E+02 -.178E+04   -.457E+02 0.775E+02 0.178E+04   0.214E+02 -.322E+02 -.378E+01   0.963E-02 -.200E-01 -.769E-02
   -.478E+02 0.595E+02 -.316E+03   0.525E+02 -.653E+02 0.320E+03   -.464E+01 0.577E+01 -.321E+01   -.141E-01 0.181E-01 -.216E-02
   -.155E+02 0.265E+02 0.445E+02   -.128E-12 0.142E-13 0.563E-11   0.155E+02 -.265E+02 -.440E+02   -.910E-02 -.631E-02 -.490E+00

 POSITION                                       TOTAL-FORCE (eV/Angst)
      0.00000      0.00000      5.28038         0.000197      0.002355     -0.147632
      2.93784      0.00000      5.28038        -0.016573      0.009373     -0.058874
      5.87568      0.00000      5.28038         0.011550      0.005592     -0.058067
      1.46892      2.54424      5.28038         0.005822     -0.017752     -0.061123
      4.40676      2.54424      5.28038        -0.001164      0.000581     -0.075505
      7.34459      2.54424      5.28038        -0.006498     -0.018751     -0.057657
      2.93784      5.08848      5.28038         0.008453      0.003812     -0.062249
      5.87568      5.08848      5.28038        -0.014986      0.005923     -0.055299
      8.81351      5.08848      5.28038         0.003949      0.007265     -0.019591
      1.46892      0.84808      7.67911         0.011481      0.006748      0.106131
      4.40676      0.84808      7.67911        -0.001758     -0.060948      0.029387
      7.34459      0.84808      7.67911        -0.008726      0.001830      0.107546
      2.93784      3.39232      7.67911        -0.063975      0.034442      0.031317
      5.87568      3.39232      7.67911         0.064283      0.034558      0.029057
      8.81351      3.39232      7.67911        -0.005494     -0.115972      0.103760
      4.40676      5.93656      7.67911        -0.003762     -0.007269      0.100395
      7.34459      5.93656      7.67911        -0.109992      0.051143      0.116167
     10.28243      5.93656      7.67911         0.108021      0.055402      0.135563
      8.81351      1.70311     10.09495        -0.014365     -0.100810      0.001709
      2.93286      1.69329     10.03570         0.030752      0.021559      0.023011
      5.88065      1.69329     10.03570        -0.047076      0.039910      0.025929
     10.26497      4.25049     10.06286         0.031934     -0.044737      0.008542
      4.40676      4.24615     10.03570         0.014749     -0.054716      0.014466
      7.36206      4.25049     10.06286        -0.036330     -0.021257     -0.001241
     11.74534      6.78117     10.09495         0.200743      0.107269      0.127484
      5.88169      6.78117     10.09495        -0.127688      0.048546      0.006852
      8.81351      6.76448     10.06286        -0.015578      0.044286     -0.010784
      0.00000      0.00000     12.49897        -0.035000     -0.085102      0.039475
      2.97514      0.06495     12.50272        -0.050081     -0.522219     -0.311694
      5.83837      0.06495     12.50272         0.099876     -0.532839     -0.287488
      1.54382      2.54408     12.50272        -0.433434      0.210104     -0.261892
      7.26969      2.54408     12.50272         0.455102      0.229438     -0.348048
      2.97543      5.02370     12.50272        -0.387814      0.331361     -0.269927
      5.83808      5.02370     12.50272         0.396188      0.339345     -0.291040
      8.81351      5.08848     12.49601        -0.009143     -0.001662     -0.020278
      4.40676      2.54424     12.21487        -0.047658     -0.004177      1.463350
      4.44113      2.53140     13.94560         0.002276      0.000546     -0.049134
      9.06511      0.44491     14.53011        -0.010868      0.005961     -0.023911
      5.22358      7.37070     14.89992         0.002586     -0.009136      0.001292
    total drift:                                0.035654      0.009340     -0.037198

  FREE ENERGIE OF THE ION-ELECTRON SYSTEM (eV)
  free  energy   TOTEN  =      -131.29491792 eV

  energy  without entropy=     -131.29491792  energy(sigma->0) =     -131.29491792

 stress matrix after NEB project (eV)
    -18.99969     -0.10263     -0.13178
     -0.10263    -19.01137     -0.14265
     -0.13178     -0.14265      0.43994
  FORCES: max atom, RMS     0.049190    0.009110
  FORCE total and by dimension    0.056894    0.049134
  Stress total and by dimension   26.883277   19.011372
|           W    W    AA    RRRRR   N    N  II  N    N   GGGG   !!!           |
|           W    W   A  A   R    R  NN   N  II  NN   N  G    G  !!!           |
|           W    W  A    A  R    R  N N  N  II  N N  N  G       !!!           |
|           W WW W  AAAAAA  RRRRR   N  N N  II  N  N N  G  GGG   !            |
|           WW  WW  A    A  R   R   N   NN  II  N   NN  G    G                |
|           W    W  A    A  R    R  N    N  II  N    N   GGGG   !!!           |
|     Tetrahedron method does not include variations of the Fermi             |
|     occupations, so forces and stress will be inaccurate. We suggest        |
|     using a different smearing scheme ISMEAR = 1 or 2 for metals in         |
|     relaxations.                                                            |

 total charge

# of ion       s       p       d       tot
    1        0.542   0.239   8.766   9.548
    2        0.545   0.241   8.764   9.550
    3        0.545   0.240   8.764   9.550
    4        0.545   0.240   8.764   9.550
    5        0.543   0.241   8.763   9.548
    6        0.545   0.240   8.764   9.550
    7        0.546   0.240   8.764   9.550
    8        0.546   0.240   8.764   9.550
    9        0.537   0.240   8.766   9.543
   10        0.528   0.304   8.770   9.602
   11        0.518   0.311   8.776   9.605
   12        0.528   0.304   8.769   9.602
   13        0.517   0.311   8.777   9.605
   14        0.517   0.311   8.777   9.604
   15        0.513   0.309   8.772   9.594
   16        0.529   0.304   8.770   9.603
   17        0.514   0.309   8.771   9.594
   18        0.514   0.310   8.770   9.593
   19        0.516   0.302   8.773   9.591
   20        0.558   0.343   8.735   9.635
   21        0.557   0.342   8.736   9.635
   22        0.508   0.308   8.777   9.594
   23        0.559   0.342   8.735   9.636
   24        0.509   0.307   8.778   9.594
   25        0.519   0.306   8.764   9.589
   26        0.517   0.302   8.772   9.592
   27        0.508   0.308   8.778   9.594
   28        0.538   0.333   8.669   9.540
   29        0.534   0.241   8.780   9.555
   30        0.536   0.240   8.777   9.554
   31        0.525   0.239   8.781   9.545
   32        0.536   0.237   8.781   9.554
   33        0.537   0.242   8.775   9.555
   34        0.540   0.243   8.776   9.559
   35        0.534   0.226   8.769   9.529
   36        0.623   0.647   5.948   7.219
   37        1.612   3.259   0.000   4.871
   38        1.580   3.410   0.000   4.990
   39        0.623   0.117   0.000   0.740
tot         23.041  17.232 312.738 353.011

 BZINTS: Fermi energy:   -0.213260;  406.000000 electrons
         Band energy:-0.166178E+04;  BLOECHL correction:   -0.052103