 vasp.6.2.0 18Jan21 (build Jun 12 2021 23:27:24) complex

 executed on             LinuxIFC date 2022.05.27  05:45:19

 INCAR:
   ISMEAR = -5
   SIGMA = 0.1
   ISPIN = 1
   EDIFF = 1.d-5
   EDIFFG = -0.01
   NSW = 0
   NELM = 150
   ENCUT = 500
   ISIF = 2
   IBRION = 2
   LREAL = Auto
   ALGO = Fast
   ICHARG = 11
   LORBIT = 10
   LCHARG = .F.
   LWAVE = .F.

 POTCAR:    PAW_PBE Ag 02Apr2005
 POTCAR:    PAW_PBE Pd 04Jan2005
 POTCAR:    PAW_PBE O 08Apr2002
 POTCAR:    PAW_PBE H 15Jun2001
|           W    W    AA    RRRRR   N    N  II  N    N   GGGG   !!!           |
|           W    W   A  A   R    R  NN   N  II  NN   N  G    G  !!!           |
|           W    W  A    A  R    R  N N  N  II  N N  N  G       !!!           |
|           W WW W  AAAAAA  RRRRR   N  N N  II  N  N N  G  GGG   !            |
|           WW  WW  A    A  R   R   N   NN  II  N   NN  G    G                |
|           W    W  A    A  R    R  N    N  II  N    N   GGGG   !!!           |
|     For optimal performance we recommend to set                             |
|       NCORE = 2 up to number-of-cores-per-socket                            |
|     This setting can greatly improve the performance of VASP for DFT.       |
|     The default, NCORE=1 might be grossly inefficient on modern             |
|     multi-core architectures or massively parallel machines. Do your        |
|     Unfortunately you need to use the default for GW and RPA                |
|     calculations (for HF NCORE is supported but not extensively tested      |
|     yet).                                                                   |

 POTCAR:    PAW_PBE Ag 02Apr2005
   VRHFIN =Ag : s1 d10

   TITEL  = PAW_PBE Ag 02Apr2005
   POMASS =  107.868; ZVAL   =   11.000    mass and valenz
   ENMAX  =  249.844; ENMIN  =  187.383 eV

 POTCAR:    PAW_PBE Pd 04Jan2005
   VRHFIN =Pd : s1 d9

   TITEL  = PAW_PBE Pd 04Jan2005
   POMASS =  106.420; ZVAL   =   10.000    mass and valenz
   ENMAX  =  250.925; ENMIN  =  188.194 eV

 POTCAR:    PAW_PBE O 08Apr2002
   VRHFIN =O: s2p4

   TITEL  = PAW_PBE O 08Apr2002
   POMASS =   16.000; ZVAL   =    6.000    mass and valenz
   ENMAX  =  400.000; ENMIN  =  300.000 eV

 POTCAR:    PAW_PBE H 15Jun2001
   VRHFIN =H: ultrasoft test

   TITEL  = PAW_PBE H 15Jun2001
   POMASS =    1.000; ZVAL   =    1.000    mass and valenz
   ENMAX  =  250.000; ENMIN  =  200.000 eV

 Optimization of the real space projectors (new method)

 maximal supplied QI-value         = 15.12
 optimisation between [QCUT,QGAM] = [ 11.34, 22.83] = [ 36.00,145.93] Ry
 Optimized for a Real-space Cutoff    1.43 Angstroem

   l    n(q)    QCUT    max X(q) W(low)/X(q) W(high)/X(q)  e(spline)
   2      9    11.338    53.897    0.16E-03    0.20E-03    0.28E-06
   2      9    11.338    52.416    0.16E-03    0.20E-03    0.29E-06
   0     10    11.338   122.045    0.31E-04    0.76E-04    0.15E-06
   0     10    11.338    73.629    0.30E-04    0.72E-04    0.15E-06
   1      9    11.338    15.255    0.20E-03    0.19E-04    0.17E-06
   1      9    11.338     9.562    0.16E-03    0.15E-04    0.14E-06
 Optimization of the real space projectors (new method)

[...]

   l    n(q)    QCUT    max X(q) W(low)/X(q) W(high)/X(q)  e(spline)
   0      7    11.387    20.381    0.39E-03    0.13E-02    0.15E-06
   0      7    11.387    15.268    0.42E-03    0.14E-02    0.17E-06
   1      6    11.387     5.964    0.41E-03    0.11E-02    0.17E-06
   1      6    11.387     5.382    0.39E-03    0.87E-03    0.15E-06
 Optimization of the real space projectors (new method)

 maximal supplied QI-value         = 34.20
 optimisation between [QCUT,QGAM] = [ 11.29, 22.57] = [ 35.68,142.71] Ry
 Optimized for a Real-space Cutoff    1.16 Angstroem

   l    n(q)    QCUT    max X(q) W(low)/X(q) W(high)/X(q)  e(spline)
   0      8    11.287    19.460    0.40E-03    0.73E-03    0.16E-06
   0      8    11.287    12.209    0.38E-03    0.70E-03    0.15E-06
   1      7    11.287     4.655    0.22E-03    0.25E-04    0.22E-06
  PAW_PBE Ag 02Apr2005                  :
  PAW_PBE Pd 04Jan2005                  :
  PAW_PBE O 08Apr2002                   :
  PAW_PBE H 15Jun2001                   :

 POSCAR: Ag-Pd-OH
  positions in direct lattice
  velocities in cartesian coordinates
 exchange correlation table for  LEXCH =        8
   RHO(1)=    0.500       N(1)  =     2000
   RHO(2)=  100.500       N(2)  =     4000

 VTST: version 3.2, (02/03/18)

 CHAIN: initializing optimizer

 OPT: Using VASP Conjugate-Gradient optimizer
 CHAIN: Read ICHAIN            0

 POSCAR: Ag-Pd-OH
  positions in direct lattice
  velocities in cartesian coordinates

 ion  position               nearest neighbor table
   1  0.000  0.000  0.209-   2 2.93   8 2.93   7 2.93   6 2.93   4 2.93  12 2.93  16 2.93  10 2.93
                             3 2.93
   2  0.333  0.000  0.209-   1 2.93   8 2.93   9 2.93   3 2.93   4 2.93   5 2.93  10 2.93  17 2.93
                            11 2.93
   3  0.667  0.000  0.209-   9 2.93   2 2.93   5 2.93  11 2.93   7 2.93  18 2.93   1 2.93   6 2.93
                            12 2.93
   4  0.000  0.333  0.209-   5 2.93   6 2.93   2 2.93   1 2.93   7 2.93  13 2.93  15 2.93   9 2.93
                            10 2.93
   5  0.333  0.333  0.209-   4 2.93   3 2.93   7 2.93   2 2.93   8 2.93  14 2.93  13 2.93  11 2.93
                             6 2.93
   6  0.667  0.333  0.209-   4 2.93   9 2.93   1 2.93  15 2.93   8 2.93  12 2.93   3 2.93   5 2.93
                            14 2.93
   7  0.000  0.667  0.209-   8 2.93   1 2.93   5 2.93   3 2.93   4 2.93  16 2.93  18 2.93  13 2.93
                             9 2.93
   8  0.333  0.667  0.209-   7 2.93   1 2.93   2 2.93   9 2.93   5 2.93  16 2.93   6 2.93  17 2.93
                            14 2.93
   9  0.667  0.667  0.209-   3 2.93   2 2.93   8 2.93   6 2.93  17 2.93   4 2.93  15 2.93   7 2.93
                            18 2.93
  10  0.111  0.111  0.304-  20 2.91  19 2.92  26 2.92  12 2.93  16 2.93  15 2.93  17 2.93  13 2.93
                            11 2.93   2 2.93   1 2.93   4 2.93
  11  0.444  0.111  0.304-  21 2.91  20 2.91  27 2.91  14 2.93  17 2.93  18 2.93   3 2.93  12 2.93
                            13 2.93  10 2.93   5 2.93   2 2.93
  12  0.778  0.111  0.304-  21 2.91  25 2.92  19 2.92  10 2.93  16 2.93  18 2.93  15 2.93  11 2.93
                             1 2.93  14 2.93   6 2.93   3 2.93
  13  0.111  0.444  0.304-  20 2.91  23 2.91  22 2.91  15 2.93  14 2.93  18 2.93  10 2.93  11 2.93
                            16 2.93   4 2.93   5 2.93   7 2.93
  14  0.444  0.444  0.304-  23 2.91  21 2.91  24 2.91  13 2.93  11 2.93  16 2.93   5 2.93  12 2.93
                            17 2.93   8 2.93  15 2.93   6 2.93
  15  0.778  0.444  0.304-  24 2.91  22 2.91  19 2.92  13 2.93  10 2.93  12 2.93  17 2.93  18 2.93
                             4 2.93   6 2.93   9 2.93  14 2.93
  16  0.111  0.778  0.304-  23 2.91  26 2.92  25 2.92  18 2.93  12 2.93  10 2.93  14 2.93  17 2.93
                            13 2.93   7 2.93   8 2.93   1 2.93
  17  0.444  0.778  0.304-  27 2.91  24 2.91  26 2.92  11 2.93  10 2.93   9 2.93  18 2.93  15 2.93
                            16 2.93   2 2.93  14 2.93   8 2.93
  18  0.778  0.778  0.304-  22 2.91  27 2.91  25 2.92  16 2.93  12 2.93  13 2.93  11 2.93  17 2.93
                            15 2.93   7 2.93   3 2.93   9 2.93
  19  0.889  0.223  0.398-  28 2.91  15 2.92  10 2.92  12 2.92  32 2.92  31 2.92  20 2.93  21 2.93
                            24 2.93  22 2.93  26 2.93  25 2.93
  20  0.222  0.222  0.398-  36 2.81  10 2.91  13 2.91  11 2.91  31 2.91  29 2.91  19 2.93  26 2.93
                            27 2.93  22 2.93  21 2.94  23 2.94
  21  0.556  0.222  0.398-  36 2.81  12 2.91  11 2.91  14 2.91  30 2.91  32 2.91  25 2.93  19 2.93
                            27 2.93  24 2.93  20 2.94  23 2.94
  22  0.889  0.556  0.398-  35 2.91  18 2.91  15 2.91  13 2.91  33 2.92  31 2.92  25 2.93  19 2.93
                            24 2.93  27 2.93  23 2.93  20 2.93
  23  0.222  0.556  0.398-  36 2.81  16 2.91  14 2.91  13 2.91  34 2.91  33 2.91  26 2.93  25 2.93
                            22 2.93  24 2.93  21 2.94  20 2.94
  24  0.556  0.556  0.398-  35 2.91  15 2.91  17 2.91  14 2.91  32 2.92  34 2.92  19 2.93  26 2.93
                            27 2.93  22 2.93  23 2.93  21 2.93
  25  0.889  0.889  0.398-  28 2.91  18 2.92  16 2.92  12 2.92  33 2.92  30 2.92  23 2.93  21 2.93
                            22 2.93  27 2.93  26 2.93  19 2.93
  26  0.223  0.889  0.398-  28 2.91  17 2.92  16 2.92  10 2.92  34 2.92  29 2.92  23 2.93  20 2.93
                            27 2.93  24 2.93  25 2.93  19 2.93
  27  0.556  0.889  0.398-  35 2.91  17 2.91  18 2.91  11 2.91  29 2.92  30 2.92  26 2.93  25 2.93
                            24 2.93  22 2.93  20 2.93  21 2.93
  28  0.000  0.000  0.492-  26 2.91  25 2.91  19 2.91  29 2.94  34 2.94  33 2.94  32 2.94  31 2.94
                            30 2.94
  29  0.333  0.003  0.492-  30 2.91  31 2.91  36 2.91  20 2.91  27 2.92  26 2.92  35 2.94  28 2.94
                            34 2.98
  30  0.664  0.003  0.492-  29 2.91  32 2.91  36 2.91  21 2.91  27 2.92  25 2.92  35 2.94  28 2.94
                            33 2.98
  31  0.003  0.333  0.492-  33 2.91  29 2.91  36 2.91  20 2.91  22 2.92  19 2.92  35 2.94  28 2.94
                            32 2.98
  32  0.664  0.333  0.492-  34 2.91  30 2.91  36 2.91  21 2.91  24 2.92  19 2.92  35 2.94  28 2.94
                            31 2.98
  33  0.003  0.664  0.492-  31 2.91  34 2.91  36 2.91  23 2.91  22 2.92  25 2.92  35 2.94  28 2.94
                            30 2.98
  34  0.333  0.664  0.492-  32 2.91  33 2.91  36 2.91  23 2.91  24 2.92  26 2.92  35 2.94  28 2.94
                            29 2.98
  35  0.667  0.667  0.492-  24 2.91  27 2.91  22 2.91  30 2.94  29 2.94  32 2.94  34 2.94  31 2.94
                            33 2.94
  36  0.333  0.333  0.487-  37 2.03  21 2.81  20 2.81  23 2.81  31 2.91  33 2.91  30 2.91  29 2.91
                            34 2.91  32 2.91
  37  0.333  0.333  0.567-  38 0.97  36 2.03
  38  0.333  0.333  0.605-  37 0.97

  LATTYP: Found a hexagonal cell.
 ALAT       =     8.7913665772
 C/A-ratio  =     2.8719070141

  Lattice vectors:

 A1 = (  -4.3956832886,  -7.6135467898,   0.0000000000)
 A2 = (   8.7913665771,   0.0000000000,   0.0000000000)
 A3 = (   0.0000000000,   0.0000000000,  25.2479873362)

Analysis of symmetry for initial positions (statically):
 Subroutine PRICEL returns:
 Original cell was already a primitive cell.

 Routine SETGRP: Setting up the symmetry group for a
 hexagonal supercell.

 Subroutine GETGRP returns: Found  6 space group operations
 (whereof  6 operations were pure point group operations)
 out of a pool of 24 trial point group operations.

The static configuration has the point symmetry C_3v.

Analysis of symmetry for dynamics (positions and initial velocities):
 Subroutine PRICEL returns:
 Original cell was already a primitive cell.

[...]

The dynamic configuration has the point symmetry C_3v.

Analysis of constrained symmetry for selective dynamics:
 Subroutine PRICEL returns:
 Original cell was already a primitive cell.

[...]
     33      -5.0992      2.00000
     34      -5.0784      2.00000
     35      -5.0166      2.00000
     36      -5.0066      2.00000
     37      -4.9774      2.00000
     38      -4.9597      2.00000
     39      -4.9453      2.00000
     40      -4.9171      2.00000
     41      -4.9028      2.00000
     42      -4.9003      2.00000
     43      -4.8788      2.00000
     44      -4.8655      2.00000
     45      -4.7896      2.00000
     46      -4.7600      2.00000
     47      -4.7576      2.00000
     48      -4.7464      2.00000
     49      -4.7375      2.00000
     50      -4.7329      2.00000
     51      -4.7244      2.00000
     52      -4.7131      2.00000
     53      -4.6937      2.00000
     54      -4.6733      2.00000
     55      -4.6211      2.00000
     56      -4.6162      2.00000
     57      -4.6066      2.00000
     58      -4.5973      2.00000
     59      -4.5883      2.00000
     60      -4.5751      2.00000
[...]
    242       6.1239      0.00000
    243       6.2758      0.00000
    244       6.3403      0.00000
    245       6.4315      0.00000
    246       6.5026      0.00000
    247       6.6293      0.00000
    248       6.6551      0.00000
    249       6.7177      0.00000
    250       6.8970      0.00000
    251       6.9543      0.00000
    252       7.0786      0.00000
    253       7.2059      0.00000
    254       7.3524      0.00000
    255       7.3791      0.00000
    256       7.5225      0.00000

 soft charge-density along one line, spin component           1
         0         1         2         3         4         5         6         7         8         9
 total charge-density along one line

------------------------ aborting loop because EDIFF is reached ----------------------------------------

 total charge

# of ion       s       p       d       tot
    1        0.414   0.204   9.178   9.796
    2        0.419   0.203   9.177   9.799
    3        0.419   0.203   9.177   9.799
    4        0.419   0.203   9.177   9.799
    5        0.415   0.205   9.176   9.797
    6        0.419   0.203   9.177   9.799
    7        0.419   0.203   9.177   9.799
    8        0.419   0.203   9.177   9.799
    9        0.414   0.204   9.179   9.797
   10        0.404   0.271   9.164   9.839
   11        0.409   0.266   9.167   9.843
   12        0.404   0.271   9.164   9.839
   13        0.409   0.266   9.167   9.843
   14        0.409   0.266   9.167   9.843
   15        0.401   0.271   9.165   9.838
   16        0.404   0.271   9.164   9.839
   17        0.401   0.271   9.165   9.838
   18        0.401   0.271   9.165   9.838
   19        0.403   0.271   9.166   9.840
   20        0.411   0.282   9.158   9.851
   21        0.411   0.282   9.158   9.851
   22        0.402   0.271   9.167   9.840
   23        0.411   0.282   9.158   9.851
   24        0.402   0.271   9.167   9.840
   25        0.403   0.271   9.166   9.840
   26        0.403   0.271   9.166   9.840
   27        0.402   0.271   9.167   9.840
   28        0.421   0.198   9.180   9.799
   29        0.401   0.199   9.189   9.789
   30        0.401   0.199   9.189   9.789
   31        0.401   0.199   9.189   9.789
   32        0.401   0.199   9.189   9.789
   33        0.401   0.199   9.189   9.789
   34        0.401   0.199   9.189   9.789
   35        0.417   0.201   9.179   9.797
   36        0.402   0.381   8.501   9.284
   37        1.545   3.494   0.000   5.039
   38        0.614   0.125   0.000   0.739
tot         16.856  12.321 329.550 358.726

  FORCE on cell =-STRESS in cart. coord.  units (eV):
  Direction    XX          YY          ZZ          XY          YZ          ZX
  Alpha Z   665.38414   665.38414   665.38414
  Ewald  168135.59958168135.59965************     0.00003     0.00000     0.00004
  Hartree178243.67674178243.67677************     0.00001    -0.00000     0.00002
  E(xc)   -2115.42260 -2115.42267 -2119.39954     0.00005    -0.00000    -0.00000
  Local  ************************357708.27533     0.00056    -0.00007    -0.00018
  n-local  -363.69870  -345.12135  -362.82365    10.59525    -0.33820     0.37243
  augment  3302.11661  3302.11686  3307.90645    -0.00021     0.00002     0.00002
  Kinetic  5052.46672  5057.47157  5047.59650     5.08852     1.03082    -0.30443
  Fock        0.00000     0.00000     0.00000     0.00000     0.00000     0.00000
  Total      -7.30230    -7.30230    -1.00475    -0.00000     0.00000    -0.00000
  in kB      -6.92310    -6.92310    -0.95257    -0.00000     0.00000    -0.00000

 VOLUME and BASIS-vectors are now :
  energy-cutoff  :      500.00
  volume of cell :     1689.94
      direct lattice vectors                 reciprocal lattice vectors
     8.791366577  0.000000000  0.000000000     0.113747958 -0.065672414  0.000000000
     4.395683289  7.613546790  0.000000000     0.000000000  0.131344829  0.000000000
     0.000000000  0.000000000 25.247987336     0.000000000  0.000000000  0.039607117

  length of vectors
     8.791366577  8.791366577 25.247987336     0.131344829  0.131344829  0.039607117

 FORCES acting on ions
    electron-ion (+dipol)            ewald-force                    non-local-force                 convergence-correction
   0.463E-04 -.280E-04 0.276E+04   -.954E-04 0.593E-04 -.276E+04   -.362E-17 -.335E-17 -.232E+01   -.847E-04 -.156E-03 -.261E+00
   0.207E+00 0.310E+00 0.276E+04   -.242E+00 -.295E+00 -.276E+04   0.160E-01 0.558E-03 -.169E+01   0.222E-01 -.244E-02 -.224E+00
   -.207E+00 0.310E+00 0.276E+04   0.242E+00 -.295E+00 -.276E+04   -.160E-01 0.558E-03 -.169E+01   -.228E-01 -.563E-03 -.224E+00
   0.372E+00 0.240E-01 0.276E+04   -.376E+00 -.619E-01 -.276E+04   0.847E-02 0.136E-01 -.169E+01   0.921E-02 0.207E-01 -.224E+00
   -.471E-05 -.181E-04 0.276E+04   0.981E-04 -.199E-05 -.276E+04   -.230E-17 -.159E-17 -.149E+01   0.618E-02 0.378E-02 -.122E+00
   -.372E+00 0.241E-01 0.276E+04   0.376E+00 -.620E-01 -.276E+04   -.847E-02 0.136E-01 -.169E+01   -.106E-01 0.216E-01 -.224E+00
   0.165E+00 -.335E+00 0.276E+04   -.135E+00 0.357E+00 -.276E+04   -.750E-02 -.141E-01 -.169E+01   -.114E-01 -.189E-01 -.224E+00
   -.165E+00 -.335E+00 0.276E+04   0.135E+00 0.357E+00 -.276E+04   0.750E-02 -.141E-01 -.169E+01   0.130E-01 -.199E-01 -.224E+00
   0.365E-04 -.129E-04 0.276E+04   0.792E-04 -.643E-04 -.276E+04   0.366E-17 -.475E-19 -.208E+01   -.663E-02 -.341E-02 -.238E+00
   0.302E+01 0.174E+01 0.960E+03   -.274E+01 -.158E+01 -.959E+03   -.266E+00 -.154E+00 -.762E+00   0.110E-01 0.637E-02 0.369E-01
   -.284E-04 0.266E+01 0.964E+03   0.414E-04 -.269E+01 -.963E+03   -.339E-13 -.516E-02 -.482E+00   0.619E-02 0.158E-01 0.112E+00
   -.302E+01 0.174E+01 0.960E+03   0.274E+01 -.158E+01 -.959E+03   0.266E+00 -.154E+00 -.762E+00   -.123E-01 0.704E-02 0.361E-01
   0.231E+01 -.133E+01 0.964E+03   -.233E+01 0.135E+01 -.963E+03   -.447E-02 0.258E-02 -.482E+00   0.167E-01 -.253E-02 0.112E+00
   -.231E+01 -.133E+01 0.964E+03   0.233E+01 0.135E+01 -.963E+03   0.447E-02 0.258E-02 -.482E+00   -.637E-02 -.343E-02 0.110E+00
   0.160E-04 0.134E+00 0.960E+03   -.108E-03 -.185E+00 -.959E+03   0.108E-12 0.164E-01 -.672E+00   -.128E-02 0.250E-01 -.525E-02
   -.760E-05 -.349E+01 0.960E+03   0.206E-04 0.317E+01 -.959E+03   0.202E-11 0.307E+00 -.762E+00   -.888E-04 -.142E-01 0.361E-01
   0.116E+00 -.671E-01 0.960E+03   -.160E+00 0.923E-01 -.959E+03   0.142E-01 -.820E-02 -.672E+00   0.210E-01 -.136E-01 -.525E-02
   -.116E+00 -.672E-01 0.960E+03   0.160E+00 0.924E-01 -.959E+03   -.142E-01 -.820E-02 -.672E+00   -.208E-01 -.121E-01 -.445E-02
   0.417E-04 0.214E+01 -.873E+03   -.130E-03 -.224E+01 0.872E+03   0.588E-12 0.896E-01 0.723E+00   0.993E-03 0.131E-01 0.107E+00
   0.140E+02 0.807E+01 -.843E+03   -.134E+02 -.771E+01 0.844E+03   -.711E+00 -.410E+00 -.819E+00   0.158E+00 0.912E-01 0.227E+00
   -.140E+02 0.807E+01 -.843E+03   0.134E+02 -.771E+01 0.844E+03   0.711E+00 -.410E+00 -.819E+00   -.169E+00 0.908E-01 0.227E+00
   0.728E+01 -.420E+01 -.865E+03   -.743E+01 0.429E+01 0.864E+03   0.115E+00 -.661E-01 0.581E+00   0.661E-01 -.377E-01 0.111E+00
   -.577E-04 -.161E+02 -.843E+03   0.445E-04 0.154E+02 0.844E+03   0.539E-11 0.821E+00 -.819E+00   -.538E-02 -.191E+00 0.227E+00
   -.728E+01 -.420E+01 -.865E+03   0.743E+01 0.429E+01 0.864E+03   -.115E+00 -.661E-01 0.581E+00   -.646E-01 -.372E-01 0.111E+00
   -.185E+01 -.107E+01 -.873E+03   0.194E+01 0.112E+01 0.872E+03   -.776E-01 -.448E-01 0.723E+00   -.114E-01 -.675E-02 0.107E+00
   0.185E+01 -.107E+01 -.873E+03   -.194E+01 0.112E+01 0.872E+03   0.776E-01 -.448E-01 0.723E+00   0.116E-01 -.584E-02 0.107E+00
   0.195E-04 0.841E+01 -.865E+03   0.110E-03 -.858E+01 0.864E+03   0.869E-12 0.132E+00 0.581E+00   -.291E-03 0.761E-01 0.111E+00
   0.544E-04 -.381E-04 -.270E+04   -.118E-03 0.787E-04 0.270E+04   0.395E-17 0.118E-17 0.183E+01   0.199E-03 -.232E-04 0.231E+00
   0.246E+02 0.412E+02 -.268E+04   -.248E+02 -.418E+02 0.268E+04   0.718E-01 0.346E+00 0.252E+01   0.323E-01 0.983E-01 0.153E+00
   -.246E+02 0.412E+02 -.268E+04   0.248E+02 -.418E+02 0.268E+04   -.718E-01 0.346E+00 0.252E+01   -.331E-01 0.997E-01 0.153E+00
   0.480E+02 0.720E+00 -.268E+04   -.486E+02 -.582E+00 0.268E+04   0.336E+00 -.111E+00 0.252E+01   0.102E+00 -.211E-01 0.153E+00
   -.480E+02 0.720E+00 -.268E+04   0.486E+02 -.582E+00 0.268E+04   -.336E+00 -.111E+00 0.252E+01   -.102E+00 -.201E-01 0.154E+00
   0.234E+02 -.419E+02 -.268E+04   -.238E+02 0.423E+02 0.268E+04   0.264E+00 -.235E+00 0.252E+01   0.703E-01 -.780E-01 0.153E+00
   -.234E+02 -.419E+02 -.268E+04   0.238E+02 0.423E+02 0.268E+04   -.264E+00 -.235E+00 0.252E+01   -.689E-01 -.784E-01 0.154E+00
   0.218E-04 -.104E-04 -.270E+04   0.107E-03 -.671E-04 0.270E+04   0.192E-17 -.591E-18 0.184E+01   -.639E-02 -.326E-02 0.206E+00
   0.236E-04 -.168E-04 -.221E+04   0.943E-04 0.110E-04 0.221E+04   -.447E-17 -.722E-18 0.550E+00   0.437E-02 0.268E-02 -.140E+00
   0.198E-03 -.947E-04 -.175E+04   0.210E-04 0.217E-06 0.172E+04   -.293E-17 -.296E-17 0.246E+02   0.366E-02 0.224E-02 -.248E+00
   0.802E-05 -.133E-04 -.345E+03   0.147E-05 0.238E-08 0.353E+03   0.313E-19 0.128E-19 -.820E+01   0.202E-03 0.124E-03 0.295E-01
   0.645E-03 -.784E-03 -.161E+02   0.169E-12 -.171E-12 0.682E-11   -.545E-17 0.235E-16 0.154E+02   0.109E-02 0.406E-02 0.798E+00

 POSITION                                       TOTAL-FORCE (eV/Angst)
      0.00000      0.00000      5.28219        -0.000000      0.000000      0.066250
      2.93046      0.00000      5.28219         0.004074      0.014640      0.046488
      5.86091      0.00000      5.28219        -0.004074      0.014640      0.046488
      1.46523      2.53785      5.28219         0.014716     -0.003792      0.046488
      4.39568      2.53785      5.28219        -0.000000     -0.000000      0.029122
      7.32614      2.53785      5.28219        -0.014716     -0.003792      0.046488
      2.93046      5.07570      5.28219         0.010642     -0.010848      0.046488
      5.86091      5.07570      5.28219        -0.010642     -0.010848      0.046488
      8.79137      5.07570      5.28219        -0.000000      0.000000      0.049274
      1.46523      0.84595      7.67490         0.022549      0.013019     -0.016226
      4.39568      0.84595      7.67490        -0.000000     -0.020816     -0.082736
      7.32614      0.84595      7.67490        -0.022549      0.013019     -0.016226
      2.93046      3.38380      7.67490        -0.018028      0.010408     -0.082736
      5.86091      3.38380      7.67490         0.018028      0.010408     -0.082736
      8.79137      3.38380      7.67490        -0.000000     -0.009370     -0.024633
      4.39568      5.92165      7.67490        -0.000000     -0.026038     -0.016226
      7.32614      5.92165      7.67490        -0.008115      0.004685     -0.024633
     10.25659      5.92165      7.67490         0.008115      0.004685     -0.024633
      8.79137      1.69432     10.05238         0.000000      0.002581      0.031459
      2.92802      1.69049     10.04000         0.067958      0.039236     -0.023112
      5.86334      1.69049     10.04000        -0.067958      0.039236     -0.023112
     10.25637      4.22988     10.04709         0.026300     -0.015184      0.011676
      4.39568      4.23256     10.04000        -0.000000     -0.078471     -0.023112
      7.32637      4.22988     10.04709        -0.026300     -0.015184      0.011676
     11.71973      6.76639     10.05238        -0.002236     -0.001291      0.031459
      5.86300      6.76639     10.05238         0.002236     -0.001291      0.031459
      8.79137      6.76733     10.04709         0.000000      0.030368      0.011676
      0.00000      0.00000     12.42253        -0.000000     -0.000000     -0.037033
      2.94245      0.01904     12.42445        -0.044478     -0.090093     -0.026667
      5.84892      0.01904     12.42445         0.044478     -0.090093     -0.026667
      1.48772      2.53872     12.42445        -0.100262      0.006527     -0.026667
      7.30365      2.53872     12.42445         0.100262      0.006527     -0.026667
      2.94095      5.05579     12.42445        -0.055783      0.083566     -0.026667
      5.85042      5.05579     12.42445         0.055783      0.083566     -0.026667
      8.79137      5.07570     12.41807        -0.000000      0.000000     -0.027947
      4.39568      2.53785     12.28633        -0.000000     -0.000000      0.163204
      4.39568      2.53785     14.31881        -0.000000     -0.000000     -0.006123
      4.39568      2.53785     15.28636        -0.000000     -0.000000     -0.044956
    total drift:                                0.001730      0.003274      0.100352

  FREE ENERGIE OF THE ION-ELECTRON SYSTEM (eV)
  free  energy   TOTEN  =      -103.66393609 eV

  energy  without entropy=     -103.66393609  energy(sigma->0) =     -103.66393609

 stress matrix after NEB project (eV)
     -7.30230     -0.00000     -0.00000
     -0.00000     -7.30230      0.00000
     -0.00000      0.00000     -1.00475
  FORCES: max atom, RMS     0.044956    0.007360
  FORCE total and by dimension    0.045371    0.044956
  Stress total and by dimension   10.375781    7.302305
|           W    W    AA    RRRRR   N    N  II  N    N   GGGG   !!!           |
|           W    W   A  A   R    R  NN   N  II  NN   N  G    G  !!!           |
|           W    W  A    A  R    R  N N  N  II  N N  N  G       !!!           |
|           W WW W  AAAAAA  RRRRR   N  N N  II  N  N N  G  GGG   !            |
|           WW  WW  A    A  R   R   N   NN  II  N   NN  G    G                |
|           W    W  A    A  R    R  N    N  II  N    N   GGGG   !!!           |
|     Tetrahedron method does not include variations of the Fermi             |
|     occupations, so forces and stress will be inaccurate. We suggest        |
|     using a different smearing scheme ISMEAR = 1 or 2 for metals in         |
|     relaxations.                                                            |

 total charge

# of ion       s       p       d       tot
    1        0.414   0.204   9.178   9.796
    2        0.419   0.203   9.177   9.799
    3        0.419   0.203   9.177   9.799
    4        0.419   0.203   9.177   9.799
    5        0.415   0.205   9.176   9.797
    6        0.419   0.203   9.177   9.799
    7        0.419   0.203   9.177   9.799
    8        0.419   0.203   9.177   9.799
    9        0.414   0.204   9.179   9.797
   10        0.404   0.271   9.164   9.839
   11        0.409   0.266   9.167   9.843
   12        0.404   0.271   9.164   9.839
   13        0.409   0.266   9.167   9.843
   14        0.409   0.266   9.167   9.843
   15        0.401   0.271   9.165   9.838
   16        0.404   0.271   9.164   9.839
   17        0.401   0.271   9.165   9.838
   18        0.401   0.271   9.165   9.838
   19        0.403   0.271   9.166   9.840
   20        0.411   0.282   9.158   9.851
   21        0.411   0.282   9.158   9.851
   22        0.402   0.271   9.167   9.840
   23        0.411   0.282   9.158   9.851
   24        0.402   0.271   9.167   9.840
   25        0.403   0.271   9.166   9.840
   26        0.403   0.271   9.166   9.840
   27        0.402   0.271   9.167   9.840
   28        0.421   0.198   9.180   9.799
   29        0.401   0.199   9.189   9.789
   30        0.401   0.199   9.189   9.789
   31        0.401   0.199   9.189   9.789
   32        0.401   0.199   9.189   9.789
   33        0.401   0.199   9.189   9.789
   34        0.401   0.199   9.189   9.789
   35        0.417   0.201   9.179   9.797
   36        0.402   0.381   8.501   9.284
   37        1.545   3.494   0.000   5.039
   38        0.614   0.125   0.000   0.739
tot         16.856  12.321 329.550 358.726

 BZINTS: Fermi energy:    0.224717;  402.000000 electrons
         Band energy:-0.155088E+04;  BLOECHL correction:   -0.048438