 vasp.6.2.0 18Jan21 (build Jun 12 2021 23:27:24) complex

 executed on             LinuxIFC date 2022.05.26  20:20:47

 INCAR:
   ISMEAR = -5
   SIGMA = 0.1
   ISPIN = 1
   EDIFF = 1.d-5
   EDIFFG = -0.01
   NSW = 0
   NELM = 150
   ENCUT = 500
   ISIF = 2
   IBRION = 2
   LREAL = Auto
   ALGO = Fast
   ICHARG = 11
   LORBIT = 10
   LCHARG = .F.
   LWAVE = .F.

 POTCAR:    PAW_PBE Ag 02Apr2005
 POTCAR:    PAW_PBE Nb_sv 25May2007
|           W    W    AA    RRRRR   N    N  II  N    N   GGGG   !!!           |
|           W    W   A  A   R    R  NN   N  II  NN   N  G    G  !!!           |
|           W    W  A    A  R    R  N N  N  II  N N  N  G       !!!           |
|           W WW W  AAAAAA  RRRRR   N  N N  II  N  N N  G  GGG   !            |
|           WW  WW  A    A  R   R   N   NN  II  N   NN  G    G                |
|           W    W  A    A  R    R  N    N  II  N    N   GGGG   !!!           |
|     For optimal performance we recommend to set                             |
|       NCORE = 2 up to number-of-cores-per-socket                            |
|     This setting can greatly improve the performance of VASP for DFT.       |
|     The default, NCORE=1 might be grossly inefficient on modern             |
|     multi-core architectures or massively parallel machines. Do your        |
|     Unfortunately you need to use the default for GW and RPA                |
|     calculations (for HF NCORE is supported but not extensively tested      |
|     yet).                                                                   |

 POTCAR:    PAW_PBE Ag 02Apr2005
   VRHFIN =Ag : s1 d10

   TITEL  = PAW_PBE Ag 02Apr2005
   POMASS =  107.868; ZVAL   =   11.000    mass and valenz
   ENMAX  =  249.844; ENMIN  =  187.383 eV

 POTCAR:    PAW_PBE Nb_sv 25May2007
   VRHFIN =Nb: 4p5s4d

   TITEL  = PAW_PBE Nb_sv 25May2007
   POMASS =   92.910; ZVAL   =   13.000    mass and valenz
   ENMAX  =  293.235; ENMIN  =  219.927 eV

 Optimization of the real space projectors (new method)

 maximal supplied QI-value         = 15.12
 optimisation between [QCUT,QGAM] = [ 11.34, 22.83] = [ 36.00,145.93] Ry
 Optimized for a Real-space Cutoff    1.43 Angstroem

   l    n(q)    QCUT    max X(q) W(low)/X(q) W(high)/X(q)  e(spline)
   2      9    11.338    53.897    0.16E-03    0.20E-03    0.28E-06
   2      9    11.338    52.416    0.16E-03    0.20E-03    0.29E-06
   0     10    11.338   122.045    0.31E-04    0.76E-04    0.15E-06
   0     10    11.338    73.629    0.30E-04    0.72E-04    0.15E-06
   1      9    11.338    15.255    0.20E-03    0.19E-04    0.17E-06
   1      9    11.338     9.562    0.16E-03    0.15E-04    0.14E-06
 Optimization of the real space projectors (new method)

 maximal supplied QI-value         = 15.68
 optimisation between [QCUT,QGAM] = [ 11.45, 22.90] = [ 36.71,146.85] Ry
 Optimized for a Real-space Cutoff    1.56 Angstroem

   l    n(q)    QCUT    max X(q) W(low)/X(q) W(high)/X(q)  e(spline)
   0     11    11.450    10.201    0.21E-04    0.96E-05    0.78E-07
   0     11    11.450     8.174    0.31E-04    0.18E-04    0.14E-06
   1     10    11.450     3.488    0.27E-04    0.12E-04    0.96E-07
   1     10    11.450     4.917    0.11E-03    0.11E-03    0.37E-06
   2     10    11.450   153.744    0.37E-03    0.81E-03    0.10E-05
   2     10    11.450   126.342    0.37E-03    0.81E-03    0.10E-05
  PAW_PBE Ag 02Apr2005                  :
  PAW_PBE Nb_sv 25May2007               :

 POSCAR: Ag-Nb
  positions in direct lattice
  velocities in cartesian coordinates
 exchange correlation table for  LEXCH =        8
   RHO(1)=    0.500       N(1)  =     2000
   RHO(2)=  100.500       N(2)  =     4000

 VTST: version 3.2, (02/03/18)

 CHAIN: initializing optimizer

 OPT: Using VASP Conjugate-Gradient optimizer
 CHAIN: Read ICHAIN            0

 POSCAR: Ag-Nb
  positions in direct lattice
  velocities in cartesian coordinates

 ion  position               nearest neighbor table
   1  0.000  0.000  0.238-   2 2.93   8 2.93   7 2.93   6 2.93   4 2.93  12 2.93  16 2.93  10 2.93
                             3 2.93
   2  0.333  0.000  0.238-   1 2.93   8 2.93   9 2.93   3 2.93   4 2.93   5 2.93  10 2.93  17 2.93
                            11 2.93
   3  0.667  0.000  0.238-   9 2.93   2 2.93   5 2.93  11 2.93   7 2.93  18 2.93   1 2.93   6 2.93
                            12 2.93
   4  0.000  0.333  0.238-   5 2.93   6 2.93   2 2.93   1 2.93   7 2.93  13 2.93  15 2.93   9 2.93
                            10 2.93
   5  0.333  0.333  0.238-   4 2.93   3 2.93   7 2.93   2 2.93   8 2.93  14 2.93  13 2.93  11 2.93
                             6 2.93
   6  0.667  0.333  0.238-   4 2.93   9 2.93   1 2.93  15 2.93   8 2.93  12 2.93   3 2.93   5 2.93
                            14 2.93
   7  0.000  0.667  0.238-   8 2.93   1 2.93   5 2.93   3 2.93   4 2.93  16 2.93  18 2.93  13 2.93
                             9 2.93
   8  0.333  0.667  0.238-   7 2.93   1 2.93   2 2.93   9 2.93   5 2.93  16 2.93   6 2.93  17 2.93
                            14 2.93
   9  0.667  0.667  0.238-   3 2.93   2 2.93   8 2.93   6 2.93  17 2.93   4 2.93  15 2.93   7 2.93
                            18 2.93
  10  0.111  0.111  0.346-  20 2.90  19 2.93  26 2.93  12 2.93  16 2.93  15 2.93  17 2.93  13 2.93
                            11 2.93   2 2.93   1 2.93   4 2.93
  11  0.444  0.111  0.346-  21 2.90  20 2.90  14 2.93  17 2.93  18 2.93   3 2.93  12 2.93  13 2.93
                            10 2.93   5 2.93   2 2.93  27 2.93
  12  0.778  0.111  0.346-  21 2.90  25 2.93  19 2.93  10 2.93  16 2.93  18 2.93  15 2.93  11 2.93
                             1 2.93  14 2.93   6 2.93   3 2.93
  13  0.111  0.444  0.346-  20 2.90  23 2.90  15 2.93  14 2.93  18 2.93  10 2.93  11 2.93  16 2.93
                             4 2.93   5 2.93   7 2.93  22 2.93
  14  0.444  0.444  0.346-  23 2.90  21 2.90  13 2.93  11 2.93  16 2.93   5 2.93  12 2.93  17 2.93
                             8 2.93  15 2.93   6 2.93  24 2.93
  15  0.778  0.444  0.346-  19 2.93  13 2.93  10 2.93  12 2.93  17 2.93  18 2.93   4 2.93   6 2.93
                             9 2.93  14 2.93  24 2.93  22 2.93
  16  0.111  0.778  0.346-  23 2.90  26 2.93  25 2.93  18 2.93  12 2.93  10 2.93  14 2.93  17 2.93
                            13 2.93   7 2.93   8 2.93   1 2.93
  17  0.444  0.778  0.346-  26 2.93  11 2.93  10 2.93   9 2.93  18 2.93  15 2.93  16 2.93   2 2.93
                            14 2.93   8 2.93  27 2.93  24 2.93
  18  0.778  0.778  0.346-  25 2.93  16 2.93  12 2.93  13 2.93  11 2.93  17 2.93  15 2.93   7 2.93
                             3 2.93   9 2.93  22 2.93  27 2.93
  19  0.889  0.222  0.454-  15 2.93  10 2.93  12 2.93  20 2.93  21 2.93  28 2.93  24 2.93  22 2.93
                            26 2.93  25 2.93  32 2.97  31 2.97
  20  0.222  0.222  0.452-  36 2.82  10 2.90  13 2.90  11 2.90  19 2.93  26 2.93  27 2.93  22 2.93
                            21 2.94  23 2.94  31 2.97  29 2.97
  21  0.556  0.222  0.452-  36 2.82  12 2.90  11 2.90  14 2.90  25 2.93  19 2.93  27 2.93  24 2.93
                            20 2.94  23 2.94  30 2.97  32 2.97
  22  0.889  0.556  0.454-  24 2.93  27 2.93  25 2.93  19 2.93  18 2.93  15 2.93  23 2.93  20 2.93
                            35 2.93  13 2.93  33 2.95  31 2.95
  23  0.222  0.556  0.452-  36 2.82  16 2.90  14 2.90  13 2.90  26 2.93  25 2.93  22 2.93  24 2.93
                            21 2.94  20 2.94  34 2.97  33 2.97
  24  0.556  0.556  0.454-  27 2.93  22 2.93  19 2.93  26 2.93  15 2.93  17 2.93  23 2.93  21 2.93
                            35 2.93  14 2.93  32 2.95  34 2.95
  25  0.889  0.889  0.454-  18 2.93  16 2.93  12 2.93  23 2.93  21 2.93  28 2.93  22 2.93  27 2.93
                            26 2.93  19 2.93  33 2.97  30 2.97
  26  0.222  0.889  0.454-  17 2.93  16 2.93  10 2.93  23 2.93  20 2.93  28 2.93  27 2.93  24 2.93
                            25 2.93  19 2.93  34 2.97  29 2.97
  27  0.556  0.889  0.454-  24 2.93  22 2.93  26 2.93  25 2.93  17 2.93  18 2.93  20 2.93  21 2.93
                            35 2.93  11 2.93  29 2.95  30 2.95
  28  0.000  0.000  0.561-  26 2.93  25 2.93  19 2.93  29 2.95  34 2.95  33 2.95  32 2.95  31 2.95
                            30 2.95
  29  0.333  0.004  0.563-  30 2.90  31 2.90  36 2.91  35 2.95  28 2.95  27 2.95  20 2.97  26 2.97
                            34 2.99
  30  0.663  0.004  0.563-  29 2.90  32 2.90  36 2.91  35 2.95  28 2.95  27 2.95  21 2.97  25 2.97
                            33 2.99
  31  0.004  0.333  0.563-  33 2.90  29 2.90  36 2.91  35 2.95  28 2.95  22 2.95  20 2.97  19 2.97
                            32 2.99
  32  0.663  0.333  0.563-  34 2.90  30 2.90  36 2.91  35 2.95  28 2.95  24 2.95  21 2.97  19 2.97
                            31 2.99
  33  0.004  0.663  0.563-  31 2.90  34 2.90  36 2.91  35 2.95  28 2.95  22 2.95  23 2.97  25 2.97
                            30 2.99
  34  0.333  0.663  0.563-  32 2.90  33 2.90  36 2.91  35 2.95  28 2.95  24 2.95  23 2.97  26 2.97
                            29 2.99
  35  0.667  0.667  0.562-  24 2.93  27 2.93  22 2.93  30 2.95  29 2.95  32 2.95  34 2.95  31 2.95
                            33 2.95
  36  0.333  0.333  0.554-  21 2.82  20 2.82  23 2.82  31 2.91  33 2.91  30 2.91  29 2.91  34 2.91
                            32 2.91

  LATTYP: Found a hexagonal cell.
 ALAT       =     8.7913665772
 C/A-ratio  =     2.5227160501

  Lattice vectors:

 A1 = (  -4.3956832886,  -7.6135467898,   0.0000000000)
 A2 = (   8.7913665771,   0.0000000000,   0.0000000000)
 A3 = (   0.0000000000,   0.0000000000,  22.1781215668)

Analysis of symmetry for initial positions (statically):
 Subroutine PRICEL returns:
 Original cell was already a primitive cell.

 Routine SETGRP: Setting up the symmetry group for a
 hexagonal supercell.

 Subroutine GETGRP returns: Found  6 space group operations
 (whereof  6 operations were pure point group operations)
 out of a pool of 24 trial point group operations.

The static configuration has the point symmetry C_3v.

Analysis of symmetry for dynamics (positions and initial velocities):
 Subroutine PRICEL returns:
 Original cell was already a primitive cell.

[...]

The dynamic configuration has the point symmetry C_3v.

Analysis of constrained symmetry for selective dynamics:
 Subroutine PRICEL returns:
 Original cell was already a primitive cell.

 Routine SETGRP: Setting up the symmetry group for a
 hexagonal supercell.

 Subroutine GETGRP returns: Found  6 space group operations
 (whereof  6 operations were pure point group operations)
 out of a pool of 24 trial point group operations.

The constrained configuration has the point symmetry C_3v.

 Subroutine INISYM returns: Found  6 space group operations
 (whereof  6 operations are pure point group operations),
 and found     1 'primitive' translations

                                     Primitive cell

  volume of cell :    1484.4589

  direct lattice vectors                    reciprocal lattice vectors
     8.791366577  0.000000000  0.000000000     0.113747958 -0.065672414  0.000000000
     4.395683289  7.613546790  0.000000000     0.000000000  0.131344829  0.000000000
[...]
     15      -4.8402      2.00000
     16      -4.8355      2.00000
     17      -4.7436      2.00000
     18      -4.7214      2.00000
     19      -4.6541      2.00000
     20      -4.6514      2.00000
     21      -4.6346      2.00000
     22      -4.6239      2.00000
     23      -4.6114      2.00000
     24      -4.6012      2.00000
     25      -4.5910      2.00000
     26      -4.5647      2.00000
     27      -4.5584      2.00000
     28      -4.5478      2.00000
     29      -4.5326      2.00000
     30      -4.5224      2.00000
     31      -4.4932      2.00000
     32      -4.4762      2.00000
     33      -4.4730      2.00000
     34      -4.4551      2.00000
     35      -4.4375      2.00000
     36      -4.4173      2.00000
     37      -4.4079      2.00000
     38      -4.3803      2.00000
     39      -4.3615      2.00000
     40      -4.3289      2.00000
     41      -4.2931      2.00000
     42      -4.2637      2.00000
     43      -4.2558      2.00000
     44      -4.2455      2.00000
     45      -4.2434      2.00000
     46      -4.2239      2.00000
     47      -4.1243      2.00000
     48      -4.1042      2.00000
     49      -4.1020      2.00000
     50      -4.0870      2.00000
     51      -4.0835      2.00000
     52      -4.0779      2.00000
     53      -4.0756      2.00000
     54      -4.0663      2.00000
     55      -4.0606      2.00000
     56      -4.0499      2.00000
     57      -3.9803      2.00000
     58      -3.9717      2.00000
     59      -3.9658      2.00000
     60      -3.9535      2.00000
[...]
    238       6.3103      0.00000
    239       6.3964      0.00000
    240       6.4393      0.00000
    241       6.4602      0.00000
    242       7.3140      0.00000
    243       7.3185      0.00000
    244       7.3293      0.00000
    245       7.3523      0.00000
    246       7.3901      0.00000
    247       7.4157      0.00000
    248       7.4677      0.00000
    249       7.5948      0.00000
    250       7.6394      0.00000
    251       7.7045      0.00000
    252       7.7688      0.00000

 soft charge-density along one line, spin component           1
         0         1         2         3         4         5         6         7         8         9
 total charge-density along one line

------------------------ aborting loop because EDIFF is reached ----------------------------------------

 total charge

# of ion       s       p       d       tot
    1        0.422   0.199   9.178   9.799
    2        0.414   0.204   9.178   9.795
    3        0.414   0.204   9.178   9.795
    4        0.414   0.204   9.178   9.795
    5        0.421   0.202   9.175   9.798
    6        0.414   0.204   9.178   9.795
    7        0.414   0.204   9.178   9.795
    8        0.414   0.204   9.178   9.795
    9        0.417   0.201   9.178   9.796
   10        0.411   0.269   9.161   9.841
   11        0.406   0.266   9.169   9.842
   12        0.411   0.269   9.161   9.841
   13        0.406   0.266   9.169   9.842
   14        0.406   0.266   9.169   9.842
   15        0.404   0.267   9.165   9.836
   16        0.411   0.269   9.161   9.841
   17        0.404   0.267   9.165   9.836
   18        0.404   0.267   9.165   9.836
   19        0.402   0.265   9.165   9.832
   20        0.443   0.303   9.131   9.877
   21        0.443   0.303   9.131   9.877
   22        0.393   0.270   9.167   9.830
   23        0.443   0.303   9.131   9.877
   24        0.393   0.270   9.167   9.830
   25        0.402   0.265   9.165   9.832
   26        0.402   0.265   9.165   9.832
   27        0.393   0.270   9.167   9.830
   28        0.407   0.202   9.173   9.782
   29        0.447   0.219   9.147   9.813
   30        0.447   0.219   9.147   9.813
   31        0.447   0.219   9.147   9.813
   32        0.447   0.219   9.147   9.813
   33        0.447   0.219   9.147   9.813
   34        0.447   0.219   9.147   9.813
   35        0.402   0.204   9.176   9.781
   36        2.185   5.946   2.378  10.508
tot         16.793  14.410 323.083 354.287

  FORCE on cell =-STRESS in cart. coord.  units (eV):
  Direction    XX          YY          ZZ          XY          YZ          ZX
  Alpha Z   756.35301   756.35301   756.35301
  Ewald  121977.30942121977.30950************     0.00002     0.00001    -0.00001
  Hartree132317.26026132317.26029************     0.00001     0.00000     0.00000
  E(xc)   -2087.36824 -2087.36823 -2093.62900    -0.00001     0.00000     0.00000
  Local  ************************266028.28063     0.00019    -0.00004    -0.00006
  n-local  -328.82177  -315.02296  -322.20349     9.15954    -0.38390     0.61708
  augment  3237.67309  3237.67328  3251.08514    -0.00017     0.00001     0.00002
  Kinetic  5006.84521  5010.25745  5042.43843     3.57073     0.21616    -0.44151
  Fock        0.00000     0.00000     0.00000     0.00000     0.00000     0.00000
  Total      -8.96461    -8.96461    -0.50994    -0.00000    -0.00000     0.00000
  in kB      -9.67551    -9.67551    -0.55038    -0.00000    -0.00000     0.00000

 VOLUME and BASIS-vectors are now :
  energy-cutoff  :      500.00
  volume of cell :     1484.46
      direct lattice vectors                 reciprocal lattice vectors
     8.791366577  0.000000000  0.000000000     0.113747958 -0.065672414  0.000000000
     4.395683289  7.613546790  0.000000000     0.000000000  0.131344829  0.000000000
     0.000000000  0.000000000 22.178121567     0.000000000  0.000000000  0.045089481

  length of vectors
     8.791366577  8.791366577 22.178121567     0.131344829  0.131344829  0.045089481

 FORCES acting on ions
    electron-ion (+dipol)            ewald-force                    non-local-force                 convergence-correction
   0.461E-04 -.281E-04 0.251E+04   -.954E-04 0.593E-04 -.251E+04   0.205E-17 0.448E-17 -.192E+01   -.129E-03 -.181E-03 -.283E-01
   0.252E+00 0.820E+00 0.251E+04   -.294E+00 -.915E+00 -.251E+04   0.746E-01 0.181E+00 -.160E+01   -.331E-01 -.878E-01 0.493E-01
   -.252E+00 0.820E+00 0.251E+04   0.294E+00 -.915E+00 -.251E+04   -.746E-01 0.181E+00 -.160E+01   0.326E-01 -.858E-01 0.500E-01
   0.836E+00 -.192E+00 0.251E+04   -.939E+00 0.203E+00 -.251E+04   0.194E+00 -.261E-01 -.160E+01   -.924E-01 0.154E-01 0.493E-01
   -.708E-05 -.197E-04 0.251E+04   0.980E-04 -.199E-05 -.251E+04   0.134E-17 -.295E-18 -.112E+01   0.630E-02 0.385E-02 0.285E+00
   -.836E+00 -.192E+00 0.251E+04   0.939E+00 0.203E+00 -.251E+04   -.194E+00 -.261E-01 -.160E+01   0.909E-01 0.164E-01 0.502E-01
   0.584E+00 -.628E+00 0.251E+04   -.646E+00 0.712E+00 -.251E+04   0.120E+00 -.155E+00 -.160E+01   -.576E-01 0.716E-01 0.500E-01
   -.584E+00 -.628E+00 0.251E+04   0.646E+00 0.712E+00 -.251E+04   -.120E+00 -.155E+00 -.160E+01   0.593E-01 0.706E-01 0.502E-01
   0.364E-04 -.130E-04 0.251E+04   0.792E-04 -.643E-04 -.251E+04   -.597E-18 -.574E-19 -.168E+01   -.670E-02 -.346E-02 0.651E-01
   0.540E+01 0.312E+01 0.856E+03   -.498E+01 -.287E+01 -.855E+03   -.413E+00 -.238E+00 -.781E+00   -.152E-01 -.873E-02 -.583E-01
   -.284E-04 0.871E+01 0.862E+03   0.410E-04 -.878E+01 -.862E+03   0.686E-12 0.104E+00 -.103E+00   0.640E-02 -.832E-01 -.133E+00
   -.540E+01 0.312E+01 0.856E+03   0.498E+01 -.287E+01 -.855E+03   0.413E+00 -.238E+00 -.781E+00   0.133E-01 -.723E-02 -.577E-01
   0.754E+01 -.435E+01 0.862E+03   -.760E+01 0.439E+01 -.862E+03   0.905E-01 -.522E-01 -.103E+00   -.690E-01 0.472E-01 -.133E+00
   -.754E+01 -.435E+01 0.862E+03   0.760E+01 0.439E+01 -.862E+03   -.905E-01 -.522E-01 -.103E+00   0.800E-01 0.464E-01 -.133E+00
   0.160E-04 -.244E+01 0.851E+03   -.109E-03 0.220E+01 -.850E+03   0.642E-12 0.977E-01 -.717E+00   -.202E-02 0.118E+00 -.802E-01
   -.821E-05 -.623E+01 0.856E+03   0.207E-04 0.575E+01 -.855E+03   0.313E-11 0.476E+00 -.781E+00   0.334E-03 0.150E-01 -.577E-01
   -.211E+01 0.122E+01 0.851E+03   0.191E+01 -.110E+01 -.850E+03   0.846E-01 -.489E-01 -.717E+00   0.102E+00 -.610E-01 -.802E-01
   0.211E+01 0.122E+01 0.851E+03   -.191E+01 -.110E+01 -.850E+03   -.846E-01 -.489E-01 -.717E+00   -.102E+00 -.587E-01 -.798E-01
   0.410E-04 -.937E+00 -.838E+03   -.131E-03 0.916E+00 0.838E+03   0.348E-12 0.529E-01 0.763E+00   -.187E-02 -.268E-01 0.224E-02
   0.370E+02 0.214E+02 -.781E+03   -.352E+02 -.204E+02 0.782E+03   -.134E+01 -.772E+00 -.126E+01   -.392E+00 -.226E+00 -.397E+00
   -.370E+02 0.214E+02 -.781E+03   0.353E+02 -.204E+02 0.782E+03   0.134E+01 -.772E+00 -.126E+01   0.403E+00 -.225E+00 -.397E+00
   0.134E+02 -.771E+01 -.834E+03   -.133E+02 0.768E+01 0.834E+03   0.192E+00 -.111E+00 0.357E+00   -.230E+00 0.133E+00 -.129E+00
   -.566E-04 -.427E+02 -.781E+03   0.484E-04 0.407E+02 0.782E+03   0.101E-10 0.154E+01 -.126E+01   0.680E-02 0.462E+00 -.397E+00
   -.134E+02 -.771E+01 -.834E+03   0.133E+02 0.768E+01 0.834E+03   -.192E+00 -.111E+00 0.357E+00   0.228E+00 0.132E+00 -.129E+00
   0.812E+00 0.469E+00 -.838E+03   -.794E+00 -.458E+00 0.838E+03   -.458E-01 -.265E-01 0.763E+00   0.242E-01 0.138E-01 0.191E-02
   -.812E+00 0.469E+00 -.838E+03   0.793E+00 -.458E+00 0.838E+03   0.458E-01 -.265E-01 0.763E+00   -.244E-01 0.116E-01 0.228E-02
   0.211E-04 0.154E+02 -.834E+03   0.109E-03 -.154E+02 0.834E+03   0.146E-11 0.222E+00 0.357E+00   -.470E-03 -.265E+00 -.129E+00
   0.543E-04 -.359E-04 -.249E+04   -.116E-03 0.778E-04 0.249E+04   -.608E-17 0.475E-17 0.171E+01   -.108E-03 -.199E-03 -.212E-01
   0.272E+02 0.416E+02 -.251E+04   -.259E+02 -.397E+02 0.251E+04   -.110E+01 -.158E+01 0.829E+00   -.199E+00 -.304E+00 -.508E-01
   -.272E+02 0.416E+02 -.251E+04   0.259E+02 -.397E+02 0.251E+04   0.110E+01 -.158E+01 0.829E+00   0.199E+00 -.302E+00 -.511E-01
   0.496E+02 0.277E+01 -.251E+04   -.473E+02 -.259E+01 0.251E+04   -.191E+01 -.164E+00 0.829E+00   -.363E+00 -.202E-01 -.508E-01
   -.496E+02 0.277E+01 -.251E+04   0.473E+02 -.259E+01 0.251E+04   0.191E+01 -.164E+00 0.829E+00   0.361E+00 -.194E-01 -.519E-01
   0.224E+02 -.444E+02 -.251E+04   -.214E+02 0.423E+02 0.251E+04   -.815E+00 0.174E+01 0.829E+00   -.162E+00 0.324E+00 -.512E-01
   -.224E+02 -.444E+02 -.251E+04   0.214E+02 0.423E+02 0.251E+04   0.815E+00 0.174E+01 0.829E+00   0.164E+00 0.323E+00 -.519E-01
   0.225E-04 -.105E-04 -.250E+04   0.105E-03 -.664E-04 0.250E+04   -.158E-17 -.563E-18 0.200E+01   -.676E-02 -.347E-02 -.833E-01
   0.226E-03 -.157E-03 -.288E+04   0.123E-03 0.141E-04 0.287E+04   0.703E-18 0.218E-18 0.342E+01   0.732E-02 0.446E-02 0.217E+00
   0.557E-03 -.846E-03 0.947E+01   -.425E-13 0.410E-13 -.364E-11   -.667E-15 0.888E-15 -.740E+01   0.263E-01 0.186E-01 -.196E+01

 POSITION                                       TOTAL-FORCE (eV/Angst)
      0.00000      0.00000      5.28219        -0.000000     -0.000000     -0.036808
      2.93046      0.00000      5.28219         0.000672     -0.000502      0.028926
      5.86091      0.00000      5.28219        -0.000672     -0.000502      0.028926
      1.46523      2.53785      5.28219        -0.000098      0.000833      0.028926
      4.39568      2.53785      5.28219        -0.000000     -0.000000      0.007386
      7.32614      2.53785      5.28219         0.000098      0.000833      0.028926
      2.93046      5.07570      5.28219        -0.000770     -0.000331      0.028926
      5.86091      5.07570      5.28219         0.000770     -0.000331      0.028926
      8.79137      5.07570      5.28219        -0.000000     -0.000000      0.002172
      1.46523      0.84595      7.67490        -0.007596     -0.004386     -0.040559
      4.39568      0.84595      7.67490        -0.000000     -0.055386     -0.067631
      7.32614      0.84595      7.67490         0.007596     -0.004386     -0.040559
      2.93046      3.38380      7.67490        -0.047966      0.027693     -0.067631
      5.86091      3.38380      7.67490         0.047966      0.027693     -0.067631
      8.79137      3.38380      7.67490        -0.000000     -0.020389      0.019593
      4.39568      5.92165      7.67490         0.000000      0.008771     -0.040559
      7.32614      5.92165      7.67490        -0.017657      0.010194      0.019593
     10.25659      5.92165      7.67490         0.017657      0.010194      0.019593
      8.79137      1.69211     10.06133         0.000000      0.004554      0.012513
      2.92756      1.69022     10.03254         0.000066      0.000038      0.005740
      5.86381      1.69022     10.03254        -0.000066      0.000038      0.005740
     10.25459      4.23091     10.07004         0.011946     -0.006897     -0.004551
      4.39568      4.23310     10.03254        -0.000000     -0.000076      0.005740
      7.32815      4.23091     10.07004        -0.011946     -0.006897     -0.004551
     11.72164      6.76749     10.06133        -0.003944     -0.002277      0.012513
      5.86110      6.76749     10.06133         0.003944     -0.002277      0.012513
      8.79137      6.76528     10.07004         0.000000      0.013794     -0.004551
      0.00000      0.00000     12.45237        -0.000000     -0.000000      0.007177
      2.94700      0.02679     12.48745         0.001274     -0.000597      0.007965
      5.84437      0.02679     12.48745        -0.001274     -0.000597      0.007965
      1.49670      2.53878     12.48745         0.000120      0.001402      0.007965
      7.29466      2.53878     12.48745        -0.000120      0.001402      0.007965
      2.94539      5.04797     12.48745        -0.001154     -0.000804      0.007965
      5.84598      5.04797     12.48745         0.001154     -0.000804      0.007965
      8.79137      5.07570     12.46721        -0.000000     -0.000000      0.009215
      4.39568      2.53785     12.28926        -0.000000     -0.000000      0.014194
    total drift:                                0.026880      0.017723      0.107817

  FREE ENERGIE OF THE ION-ELECTRON SYSTEM (eV)
  free  energy   TOTEN  =       -96.52045256 eV

  energy  without entropy=      -96.52045256  energy(sigma->0) =      -96.52045256

 stress matrix after NEB project (eV)
     -8.96461     -0.00000      0.00000
     -0.00000     -8.96461      0.00000
     -0.00000     -0.00000     -0.50994
  FORCES: max atom, RMS     0.014525    0.007443
  FORCE total and by dimension    0.044656    0.014194
  Stress total and by dimension   12.688131    8.964615
|           W    W    AA    RRRRR   N    N  II  N    N   GGGG   !!!           |
|           W    W   A  A   R    R  NN   N  II  NN   N  G    G  !!!           |
|           W    W  A    A  R    R  N N  N  II  N N  N  G       !!!           |
|           W WW W  AAAAAA  RRRRR   N  N N  II  N  N N  G  GGG   !            |
|           WW  WW  A    A  R   R   N   NN  II  N   NN  G    G                |
|           W    W  A    A  R    R  N    N  II  N    N   GGGG   !!!           |
|     Tetrahedron method does not include variations of the Fermi             |
|     occupations, so forces and stress will be inaccurate. We suggest        |
|     using a different smearing scheme ISMEAR = 1 or 2 for metals in         |
|     relaxations.                                                            |

 total charge

# of ion       s       p       d       tot
    1        0.422   0.199   9.178   9.799
    2        0.414   0.204   9.178   9.795
    3        0.414   0.204   9.178   9.795
    4        0.414   0.204   9.178   9.795
    5        0.421   0.202   9.175   9.798
    6        0.414   0.204   9.178   9.795
    7        0.414   0.204   9.178   9.795
    8        0.414   0.204   9.178   9.795
    9        0.417   0.201   9.178   9.796
   10        0.411   0.269   9.161   9.841
   11        0.406   0.266   9.169   9.842
   12        0.411   0.269   9.161   9.841
   13        0.406   0.266   9.169   9.842
   14        0.406   0.266   9.169   9.842
   15        0.404   0.267   9.165   9.836
   16        0.411   0.269   9.161   9.841
   17        0.404   0.267   9.165   9.836
   18        0.404   0.267   9.165   9.836
   19        0.402   0.265   9.165   9.832
   20        0.443   0.303   9.131   9.877
   21        0.443   0.303   9.131   9.877
   22        0.393   0.270   9.167   9.830
   23        0.443   0.303   9.131   9.877
   24        0.393   0.270   9.167   9.830
   25        0.402   0.265   9.165   9.832
   26        0.402   0.265   9.165   9.832
   27        0.393   0.270   9.167   9.830
   28        0.407   0.202   9.173   9.782
   29        0.447   0.219   9.147   9.813
   30        0.447   0.219   9.147   9.813
   31        0.447   0.219   9.147   9.813
   32        0.447   0.219   9.147   9.813
   33        0.447   0.219   9.147   9.813
   34        0.447   0.219   9.147   9.813
   35        0.402   0.204   9.176   9.781
   36        2.185   5.946   2.378  10.508
tot         16.793  14.410 323.083 354.287

 BZINTS: Fermi energy:    0.912423;  398.000000 electrons
         Band energy:-0.153082E+04;  BLOECHL correction:   -0.018455