 vasp.6.2.0 18Jan21 (build Jun 12 2021 23:27:24) complex

 executed on             LinuxIFC date 2022.05.30  17:28:07

 INCAR:
   ISMEAR = -5
   SIGMA = 0.1
   ISPIN = 1
   EDIFF = 1.d-5
   EDIFFG = -0.01
   NSW = 0
   NELM = 150
   ENCUT = 500
   ISIF = 2
   IBRION = 2
   LREAL = Auto
   ALGO = Fast
   ICHARG = 11
   LORBIT = 10
   LCHARG = .F.
   LWAVE = .F.

 POTCAR:    PAW_PBE Ag 02Apr2005
 POTCAR:    PAW_PBE Pd 04Jan2005
 POTCAR:    PAW_PBE O 08Apr2002
|           W    W    AA    RRRRR   N    N  II  N    N   GGGG   !!!           |
|           W    W   A  A   R    R  NN   N  II  NN   N  G    G  !!!           |
|           W    W  A    A  R    R  N N  N  II  N N  N  G       !!!           |
|           W WW W  AAAAAA  RRRRR   N  N N  II  N  N N  G  GGG   !            |
|           WW  WW  A    A  R   R   N   NN  II  N   NN  G    G                |
|           W    W  A    A  R    R  N    N  II  N    N   GGGG   !!!           |
|     For optimal performance we recommend to set                             |
|       NCORE = 2 up to number-of-cores-per-socket                            |
|     This setting can greatly improve the performance of VASP for DFT.       |
|     The default, NCORE=1 might be grossly inefficient on modern             |
|     multi-core architectures or massively parallel machines. Do your        |
|     Unfortunately you need to use the default for GW and RPA                |
|     calculations (for HF NCORE is supported but not extensively tested      |
|     yet).                                                                   |

 POTCAR:    PAW_PBE Ag 02Apr2005
   VRHFIN =Ag : s1 d10

   TITEL  = PAW_PBE Ag 02Apr2005
   POMASS =  107.868; ZVAL   =   11.000    mass and valenz
   ENMAX  =  249.844; ENMIN  =  187.383 eV

 POTCAR:    PAW_PBE Pd 04Jan2005
   VRHFIN =Pd : s1 d9

   TITEL  = PAW_PBE Pd 04Jan2005
   POMASS =  106.420; ZVAL   =   10.000    mass and valenz
   ENMAX  =  250.925; ENMIN  =  188.194 eV

 POTCAR:    PAW_PBE O 08Apr2002
   VRHFIN =O: s2p4

   TITEL  = PAW_PBE O 08Apr2002
   POMASS =   16.000; ZVAL   =    6.000    mass and valenz
   ENMAX  =  400.000; ENMIN  =  300.000 eV

 Optimization of the real space projectors (new method)

 maximal supplied QI-value         = 15.12
 optimisation between [QCUT,QGAM] = [ 11.34, 22.83] = [ 36.00,145.93] Ry
 Optimized for a Real-space Cutoff    1.43 Angstroem

   l    n(q)    QCUT    max X(q) W(low)/X(q) W(high)/X(q)  e(spline)
   2      9    11.338    53.897    0.16E-03    0.20E-03    0.28E-06
   2      9    11.338    52.416    0.16E-03    0.20E-03    0.29E-06
   0     10    11.338   122.045    0.31E-04    0.76E-04    0.15E-06
   0     10    11.338    73.629    0.30E-04    0.72E-04    0.15E-06
   1      9    11.338    15.255    0.20E-03    0.19E-04    0.17E-06
   1      9    11.338     9.562    0.16E-03    0.15E-04    0.14E-06
 Optimization of the real space projectors (new method)

[...]

   l    n(q)    QCUT    max X(q) W(low)/X(q) W(high)/X(q)  e(spline)
   2      9    11.346    59.108    0.74E-04    0.81E-04    0.26E-06
   2      9    11.346    58.101    0.74E-04    0.83E-04    0.27E-06
   0     10    11.346   102.235    0.26E-04    0.31E-04    0.16E-06
   0     10    11.346    58.388    0.23E-04    0.29E-04    0.15E-06
   1     10    11.346    22.191    0.23E-03    0.26E-03    0.14E-06
   1     10    11.346    15.590    0.19E-03    0.22E-03    0.12E-06
 Optimization of the real space projectors (new method)

 maximal supplied QI-value         = 24.76
 optimisation between [QCUT,QGAM] = [ 11.39, 22.77] = [ 36.31,145.25] Ry
 Optimized for a Real-space Cutoff    1.00 Angstroem

   l    n(q)    QCUT    max X(q) W(low)/X(q) W(high)/X(q)  e(spline)
   0      7    11.387    20.381    0.39E-03    0.13E-02    0.15E-06
   0      7    11.387    15.268    0.42E-03    0.14E-02    0.17E-06
   1      6    11.387     5.964    0.41E-03    0.11E-02    0.17E-06
   1      6    11.387     5.382    0.39E-03    0.87E-03    0.15E-06
  PAW_PBE Ag 02Apr2005                  :
  PAW_PBE Pd 04Jan2005                  :
  PAW_PBE O 08Apr2002                   :

 POSCAR: Ag-Pd-O2
  positions in direct lattice
  velocities in cartesian coordinates
 exchange correlation table for  LEXCH =        8
   RHO(1)=    0.500       N(1)  =     2000
   RHO(2)=  100.500       N(2)  =     4000

 VTST: version 3.2, (02/03/18)

 CHAIN: initializing optimizer

 OPT: Using VASP Conjugate-Gradient optimizer
 CHAIN: Read ICHAIN            0

 POSCAR: Ag-Pd-O2
  positions in direct lattice
  velocities in cartesian coordinates

 ion  position               nearest neighbor table
   1  0.000  0.000  0.217-   2 2.93   8 2.93   7 2.93   6 2.93   4 2.93  12 2.93  16 2.93  10 2.93
                             3 2.93
   2  0.333  0.000  0.217-   1 2.93   8 2.93   9 2.93   3 2.93   4 2.93   5 2.93  10 2.93  17 2.93
                            11 2.93
   3  0.667  0.000  0.217-   9 2.93   2 2.93   5 2.93  11 2.93   7 2.93  18 2.93   1 2.93   6 2.93
                            12 2.93
   4  0.000  0.333  0.217-   5 2.93   6 2.93   2 2.93   1 2.93   7 2.93  13 2.93  15 2.93   9 2.93
                            10 2.93
   5  0.333  0.333  0.217-   4 2.93   3 2.93   7 2.93   2 2.93   8 2.93  14 2.93  13 2.93  11 2.93
                             6 2.93
   6  0.667  0.333  0.217-   4 2.93   9 2.93   1 2.93  15 2.93   8 2.93  12 2.93   3 2.93   5 2.93
                            14 2.93
   7  0.000  0.667  0.217-   8 2.93   1 2.93   5 2.93   3 2.93   4 2.93  16 2.93  18 2.93  13 2.93
                             9 2.93
   8  0.333  0.667  0.217-   7 2.93   1 2.93   2 2.93   9 2.93   5 2.93  16 2.93   6 2.93  17 2.93
                            14 2.93
   9  0.667  0.667  0.217-   3 2.93   2 2.93   8 2.93   6 2.93  17 2.93   4 2.93  15 2.93   7 2.93
                            18 2.93
  10  0.111  0.111  0.315-  20 2.91  19 2.92  26 2.92  12 2.93  16 2.93  15 2.93  17 2.93  13 2.93
                            11 2.93   2 2.93   1 2.93   4 2.93
  11  0.444  0.111  0.315-  21 2.91  20 2.91  27 2.91  14 2.93  17 2.93  18 2.93   3 2.93  12 2.93
                            13 2.93  10 2.93   5 2.93   2 2.93
  12  0.778  0.111  0.315-  21 2.91  25 2.92  19 2.92  10 2.93  16 2.93  18 2.93  15 2.93  11 2.93
                             1 2.93  14 2.93   6 2.93   3 2.93
  13  0.111  0.444  0.315-  20 2.91  23 2.91  22 2.91  15 2.93  14 2.93  18 2.93  10 2.93  11 2.93
                            16 2.93   4 2.93   5 2.93   7 2.93
  14  0.444  0.444  0.315-  23 2.91  21 2.91  24 2.91  13 2.93  11 2.93  16 2.93   5 2.93  12 2.93
                            17 2.93   8 2.93  15 2.93   6 2.93
  15  0.778  0.444  0.315-  24 2.91  22 2.91  19 2.92  13 2.93  10 2.93  12 2.93  17 2.93  18 2.93
                             4 2.93   6 2.93   9 2.93  14 2.93
  16  0.111  0.778  0.315-  23 2.91  26 2.92  25 2.92  18 2.93  12 2.93  10 2.93  14 2.93  17 2.93
                            13 2.93   7 2.93   8 2.93   1 2.93
  17  0.444  0.778  0.315-  27 2.91  24 2.91  26 2.92  11 2.93  10 2.93   9 2.93  18 2.93  15 2.93
                            16 2.93   2 2.93  14 2.93   8 2.93
  18  0.778  0.778  0.315-  22 2.91  27 2.91  25 2.92  16 2.93  12 2.93  13 2.93  11 2.93  17 2.93
                            15 2.93   7 2.93   3 2.93   9 2.93
  19  0.889  0.223  0.413-  28 2.91  15 2.92  10 2.92  12 2.92  32 2.92  31 2.92  20 2.93  21 2.93
                            24 2.93  22 2.93  26 2.93  25 2.93
  20  0.222  0.222  0.412-  36 2.81  10 2.91  13 2.91  11 2.91  31 2.91  29 2.91  19 2.93  26 2.93
                            27 2.93  22 2.93  21 2.94  23 2.94
  21  0.556  0.222  0.412-  36 2.81  12 2.91  11 2.91  14 2.91  30 2.91  32 2.91  25 2.93  19 2.93
                            27 2.93  24 2.93  20 2.94  23 2.94
  22  0.889  0.556  0.412-  35 2.91  18 2.91  15 2.91  13 2.91  33 2.92  31 2.92  25 2.93  19 2.93
                            24 2.93  27 2.93  23 2.93  20 2.93
  23  0.222  0.556  0.412-  36 2.81  16 2.91  14 2.91  13 2.91  34 2.91  33 2.91  26 2.93  25 2.93
                            22 2.93  24 2.93  21 2.94  20 2.94
  24  0.556  0.556  0.412-  35 2.91  15 2.91  17 2.91  14 2.91  32 2.92  34 2.92  19 2.93  26 2.93
                            27 2.93  22 2.93  23 2.93  21 2.93
  25  0.889  0.889  0.413-  28 2.91  18 2.92  16 2.92  12 2.92  33 2.92  30 2.92  23 2.93  21 2.93
                            22 2.93  27 2.93  26 2.93  19 2.93
  26  0.223  0.889  0.413-  28 2.91  17 2.92  16 2.92  10 2.92  34 2.92  29 2.92  23 2.93  20 2.93
                            27 2.93  24 2.93  25 2.93  19 2.93
  27  0.556  0.889  0.412-  35 2.91  17 2.91  18 2.91  11 2.91  29 2.92  30 2.92  26 2.93  25 2.93
                            24 2.93  22 2.93  20 2.93  21 2.93
  28  0.000  0.000  0.510-  26 2.91  25 2.91  19 2.91  29 2.94  34 2.94  33 2.94  32 2.94  31 2.94
                            30 2.94
  29  0.333  0.003  0.510-  30 2.91  31 2.91  36 2.91  20 2.91  27 2.92  26 2.92  35 2.94  28 2.94
                            34 2.98
  30  0.664  0.003  0.510-  29 2.91  32 2.91  36 2.91  21 2.91  27 2.92  25 2.92  35 2.94  28 2.94
                            33 2.98
  31  0.003  0.333  0.510-  33 2.91  29 2.91  36 2.91  20 2.91  22 2.92  19 2.92  35 2.94  28 2.94
                            32 2.98
  32  0.664  0.333  0.510-  34 2.91  30 2.91  36 2.91  21 2.91  24 2.92  19 2.92  35 2.94  28 2.94
                            31 2.98
  33  0.003  0.664  0.510-  31 2.91  34 2.91  36 2.91  23 2.91  22 2.92  25 2.92  35 2.94  28 2.94
                            30 2.98
  34  0.333  0.664  0.510-  32 2.91  33 2.91  36 2.91  23 2.91  24 2.92  26 2.92  35 2.94  28 2.94
                            29 2.98
  35  0.667  0.667  0.510-  24 2.91  27 2.91  22 2.91  30 2.94  29 2.94  32 2.94  34 2.94  31 2.94
                            33 2.94
  36  0.333  0.333  0.504-  38 2.17  37 2.17  21 2.81  20 2.81  23 2.81  31 2.91  33 2.91  30 2.91
                            29 2.91  34 2.91  32 2.91
  37  0.256  0.333  0.589-  38 1.36  36 2.17
  38  0.411  0.333  0.589-  37 1.36  36 2.17

  LATTYP: Found a hexagonal cell.
 ALAT       =     8.7913665772
 C/A-ratio  =     2.7711238095

  Lattice vectors:

 A1 = (  -4.3956832886,  -7.6135467898,   0.0000000000)
 A2 = (   8.7913665771,   0.0000000000,   0.0000000000)
 A3 = (   0.0000000000,   0.0000000000,  24.3619652401)

Analysis of symmetry for initial positions (statically):
 Subroutine PRICEL returns:
 Original cell was already a primitive cell.

 Routine SETGRP: Setting up the symmetry group for a
 hexagonal supercell.

 Subroutine GETGRP returns: Found  2 space group operations
 (whereof  2 operations were pure point group operations)
 out of a pool of 24 trial point group operations.

The static configuration has the point symmetry C_1h.

Analysis of symmetry for dynamics (positions and initial velocities):
 Subroutine PRICEL returns:
 Original cell was already a primitive cell.

[...]

The dynamic configuration has the point symmetry C_1h.

Analysis of constrained symmetry for selective dynamics:
 Subroutine PRICEL returns:
 Original cell was already a primitive cell.

 Routine SETGRP: Setting up the symmetry group for a
 hexagonal supercell.

[...]
     33      -5.0899      2.00000
     34      -5.0671      2.00000
     35      -5.0633      2.00000
     36      -5.0529      2.00000
     37      -5.0180      2.00000
     38      -4.9641      2.00000
     39      -4.9609      2.00000
     40      -4.9261      2.00000
     41      -4.9195      2.00000
     42      -4.8958      2.00000
     43      -4.8715      2.00000
     44      -4.8594      2.00000
     45      -4.8410      2.00000
     46      -4.8325      2.00000
     47      -4.8195      2.00000
     48      -4.7465      2.00000
     49      -4.7160      2.00000
     50      -4.7096      2.00000
     51      -4.7025      2.00000
     52      -4.6939      2.00000
     53      -4.6919      2.00000
     54      -4.6789      2.00000
     55      -4.6708      2.00000
     56      -4.6571      2.00000
     57      -4.6425      2.00000
     58      -4.5759      2.00000
     59      -4.5728      2.00000
     60      -4.5652      2.00000
[...]
    238       5.6368      0.00000
    239       5.6713      0.00000
    240       5.7498      0.00000
    241       5.7976      0.00000
    242       5.9001      0.00000
    243       5.9571      0.00000
    244       6.3967      0.00000
    245       6.5230      0.00000
    246       6.5612      0.00000
    247       6.6027      0.00000
    248       6.6942      0.00000
    249       6.7017      0.00000
    250       6.7681      0.00000
    251       6.7927      0.00000
    252       6.9044      0.00000

 soft charge-density along one line, spin component           1
         0         1         2         3         4         5         6         7         8         9
 total charge-density along one line

------------------------ aborting loop because EDIFF is reached ----------------------------------------

 total charge

# of ion       s       p       d       tot
    1        0.413   0.203   9.177   9.794
    2        0.418   0.202   9.177   9.797
    3        0.418   0.202   9.177   9.797
    4        0.418   0.202   9.177   9.797
    5        0.414   0.204   9.177   9.796
    6        0.418   0.202   9.177   9.797
    7        0.418   0.203   9.176   9.797
    8        0.418   0.203   9.176   9.797
    9        0.414   0.203   9.177   9.794
   10        0.405   0.271   9.163   9.839
   11        0.409   0.268   9.166   9.843
   12        0.405   0.271   9.163   9.839
   13        0.408   0.268   9.166   9.842
   14        0.408   0.268   9.166   9.842
   15        0.400   0.272   9.164   9.836
   16        0.405   0.270   9.164   9.839
   17        0.401   0.270   9.165   9.837
   18        0.401   0.270   9.165   9.837
   19        0.403   0.269   9.168   9.840
   20        0.410   0.285   9.156   9.851
   21        0.410   0.285   9.156   9.851
   22        0.399   0.272   9.166   9.837
   23        0.407   0.284   9.160   9.851
   24        0.399   0.272   9.166   9.837
   25        0.403   0.270   9.167   9.840
   26        0.403   0.270   9.167   9.840
   27        0.401   0.274   9.164   9.839
   28        0.418   0.198   9.181   9.797
   29        0.405   0.198   9.189   9.793
   30        0.405   0.198   9.189   9.793
   31        0.396   0.203   9.189   9.788
   32        0.396   0.203   9.189   9.788
   33        0.405   0.198   9.190   9.792
   34        0.405   0.198   9.190   9.792
   35        0.417   0.199   9.180   9.797
   36        0.405   0.406   8.490   9.302
   37        1.604   3.261   0.000   4.864
   38        1.604   3.261   0.000   4.864
tot         17.888  15.256 329.531 362.675

  FORCE on cell =-STRESS in cart. coord.  units (eV):
  Direction    XX          YY          ZZ          XY          YZ          ZX
  Alpha Z   703.33283   703.33283   703.33283
  Ewald  155320.57190154906.49532************     0.00006     0.08480     0.00008
  Hartree165434.96749165229.11844************     0.00002     0.08318     0.00003
  E(xc)   -2140.37289 -2141.74091 -2145.89489    -0.00002     0.00032    -0.00000
  Local  ************************331515.56321     0.00121    -0.14210    -0.00022
  n-local  -370.15487  -377.30987  -377.74160     2.51299     0.01949     0.10065
  augment  3302.59016  3311.89767  3313.55620    -0.00018    -0.02078    -0.00001
  Kinetic  5137.67735  5196.92978  5183.21731     1.17040    -0.03355     0.01784
  Fock        0.00000     0.00000     0.00000     0.00000     0.00000     0.00000
  Total      -6.14302    -6.42843    -1.24680    -0.00000    -0.00864    -0.00000
  in kB      -6.03583    -6.31625    -1.22504    -0.00000    -0.00849    -0.00000

 VOLUME and BASIS-vectors are now :
  energy-cutoff  :      500.00
  volume of cell :     1630.63
      direct lattice vectors                 reciprocal lattice vectors
     8.791366577  0.000000000  0.000000000     0.113747958 -0.065672414  0.000000000
     4.395683289  7.613546790  0.000000000     0.000000000  0.131344829  0.000000000
     0.000000000  0.000000000 24.361965240     0.000000000  0.000000000  0.041047592

  length of vectors
     8.791366577  8.791366577 24.361965240     0.131344829  0.131344829  0.041047592

 FORCES acting on ions
    electron-ion (+dipol)            ewald-force                    non-local-force                 convergence-correction
   0.461E-04 -.196E-01 0.272E+04   -.954E-04 -.205E-01 -.272E+04   0.250E-12 0.380E-01 -.226E+01   -.844E-04 -.168E-02 -.233E+00
   0.388E+00 0.613E+00 0.272E+04   -.293E+00 -.404E+00 -.272E+04   -.436E-01 -.834E-01 -.169E+01   -.437E-01 -.111E+00 -.221E+00
   -.387E+00 0.613E+00 0.272E+04   0.293E+00 -.404E+00 -.272E+04   0.436E-01 -.834E-01 -.169E+01   0.431E-01 -.109E+00 -.220E+00
   0.616E+00 0.354E-02 0.272E+04   -.479E+00 -.618E-01 -.272E+04   -.524E-01 0.251E-01 -.170E+01   -.714E-01 0.298E-01 -.189E+00
   -.741E-05 0.610E-01 0.272E+04   0.981E-04 0.351E-03 -.272E+04   -.418E-12 -.637E-01 -.162E+01   0.618E-02 0.437E-02 -.163E+00
   -.616E+00 0.358E-02 0.272E+04   0.479E+00 -.618E-01 -.272E+04   0.524E-01 0.251E-01 -.170E+01   0.701E-01 0.308E-01 -.188E+00
   0.399E+00 -.595E+00 0.272E+04   -.186E+00 0.466E+00 -.272E+04   -.934E-01 0.482E-01 -.170E+01   -.972E-01 0.677E-01 -.196E+00
   -.399E+00 -.595E+00 0.272E+04   0.185E+00 0.466E+00 -.272E+04   0.934E-01 0.482E-01 -.170E+01   0.988E-01 0.667E-01 -.196E+00
   0.365E-04 -.429E-01 0.272E+04   0.792E-04 0.201E-01 -.272E+04   0.859E-13 0.131E-01 -.195E+01   -.663E-02 0.850E-02 -.180E+00
   0.373E+01 0.228E+01 0.973E+03   -.330E+01 -.207E+01 -.972E+03   -.314E+00 -.192E+00 -.763E+00   -.812E-01 0.407E-03 -.386E+00
   -.271E-04 0.374E+01 0.978E+03   0.415E-04 -.367E+01 -.977E+03   -.164E-12 -.250E-01 -.665E+00   0.619E-02 -.718E-01 -.343E+00
   -.373E+01 0.228E+01 0.973E+03   0.330E+01 -.207E+01 -.972E+03   0.314E+00 -.192E+00 -.763E+00   0.799E-01 0.107E-02 -.387E+00
   0.319E+01 -.194E+01 0.978E+03   -.302E+01 0.186E+01 -.977E+03   -.582E-01 0.169E-01 -.611E+00   -.118E+00 0.650E-01 -.295E+00
   -.319E+01 -.194E+01 0.978E+03   0.302E+01 0.186E+01 -.977E+03   0.582E-01 0.169E-01 -.611E+00   0.129E+00 0.641E-01 -.296E+00
   0.162E-04 -.135E+00 0.972E+03   -.108E-03 0.605E-01 -.972E+03   0.188E-12 0.286E-01 -.594E+00   -.128E-02 0.451E-01 -.339E+00
   -.824E-05 -.419E+01 0.973E+03   0.207E-04 0.386E+01 -.972E+03   0.160E-11 0.244E+00 -.791E+00   -.896E-04 0.458E-01 -.395E+00
   0.165E-01 -.204E-01 0.972E+03   -.380E-01 0.797E-01 -.971E+03   -.123E-01 0.240E-01 -.557E+00   0.362E-01 -.764E-01 -.375E+00
   -.166E-01 -.205E-01 0.972E+03   0.380E-01 0.798E-01 -.971E+03   0.123E-01 0.240E-01 -.557E+00   -.360E-01 -.749E-01 -.374E+00
   0.425E-04 0.349E+01 -.807E+03   -.131E-03 -.378E+01 0.807E+03   0.868E-12 0.132E+00 0.680E+00   0.102E-02 0.140E+00 -.402E+00
   0.190E+02 0.120E+02 -.768E+03   -.184E+02 -.116E+02 0.769E+03   -.583E+00 -.398E+00 -.776E+00   -.151E-01 0.704E-01 -.398E+00
   -.190E+02 0.120E+02 -.768E+03   0.184E+02 -.116E+02 0.769E+03   0.583E+00 -.398E+00 -.776E+00   0.420E-02 0.701E-01 -.398E+00
   0.112E+02 -.746E+01 -.798E+03   -.113E+02 0.760E+01 0.798E+03   0.211E+00 -.146E+00 0.722E+00   -.907E-01 -.206E-01 -.449E+00
   -.542E-04 -.231E+02 -.769E+03   0.453E-04 0.226E+02 0.770E+03   0.365E-11 0.555E+00 -.553E+00   -.541E-02 -.837E-01 -.393E+00
   -.112E+02 -.746E+01 -.798E+03   0.113E+02 0.760E+01 0.798E+03   -.211E+00 -.146E+00 0.722E+00   0.923E-01 -.200E-01 -.449E+00
   -.261E+01 -.104E+01 -.809E+03   0.273E+01 0.111E+01 0.809E+03   -.402E-01 -.533E-01 0.685E+00   -.570E-01 -.253E-01 -.426E+00
   0.261E+01 -.104E+01 -.809E+03   -.273E+01 0.111E+01 0.809E+03   0.402E-01 -.533E-01 0.685E+00   0.571E-01 -.244E-01 -.426E+00
   0.197E-04 0.132E+02 -.800E+03   0.110E-03 -.131E+02 0.800E+03   0.740E-12 0.113E+00 0.684E+00   -.297E-03 -.118E+00 -.432E+00
   0.548E-04 0.446E+01 -.261E+04   -.119E-03 -.440E+01 0.260E+04   -.755E-12 -.115E+00 0.182E+01   0.252E-03 0.442E-01 -.284E+00
   0.376E+02 0.747E+02 -.257E+04   -.374E+02 -.750E+02 0.257E+04   -.101E+00 0.297E+00 0.252E+01   -.113E+00 -.181E+00 -.505E+00
   -.376E+02 0.747E+02 -.257E+04   0.374E+02 -.750E+02 0.257E+04   0.101E+00 0.297E+00 0.252E+01   0.112E+00 -.179E+00 -.505E+00
   0.899E+02 0.517E+00 -.256E+04   -.904E+02 -.505E+00 0.255E+04   0.455E+00 -.425E-01 0.269E+01   -.220E+00 0.354E-01 -.525E+00
   -.899E+02 0.517E+00 -.256E+04   0.904E+02 -.505E+00 0.255E+04   -.455E+00 -.425E-01 0.269E+01   0.220E+00 0.363E-01 -.524E+00
   0.364E+02 -.752E+02 -.257E+04   -.363E+02 0.754E+02 0.257E+04   0.547E-02 -.252E+00 0.249E+01   -.130E+00 0.138E+00 -.515E+00
   -.364E+02 -.752E+02 -.257E+04   0.363E+02 0.754E+02 0.257E+04   -.547E-02 -.252E+00 0.249E+01   0.132E+00 0.138E+00 -.514E+00
   0.193E-04 -.445E+01 -.260E+04   0.108E-03 0.433E+01 0.260E+04   0.117E-11 0.178E+00 0.187E+01   -.634E-02 -.518E-01 -.368E+00
   0.337E-05 -.303E+00 -.202E+04   0.943E-04 0.229E+00 0.202E+04   -.356E-13 -.543E-02 0.223E+01   0.396E-02 0.359E-01 -.128E+01
   0.243E+03 0.317E-01 -.173E+04   -.281E+03 -.843E-04 0.174E+04   0.379E+02 -.383E-01 -.117E+02   -.543E+00 0.447E-02 -.219E+00
   -.243E+03 0.317E-01 -.173E+04   0.281E+03 -.903E-04 0.174E+04   -.379E+02 -.383E-01 -.117E+02   0.543E+00 0.453E-02 -.220E+00
   0.671E-03 0.492E+00 0.360E+02   0.171E-12 -.306E-12 -.682E-11   -.325E-11 -.495E+00 -.220E+02   -.254E-02 -.278E-02 -.142E+02

 POSITION                                       TOTAL-FORCE (eV/Angst)
      0.00000      0.00000      5.28219        -0.000000     -0.003582      0.061330
      2.93046      0.00000      5.28219         0.007307      0.015269      0.027275
      5.86091      0.00000      5.28219        -0.007307      0.015269      0.027275
      1.46523      2.53785      5.28219         0.013198     -0.002741      0.033947
      4.39568      2.53785      5.28219         0.000000      0.002155      0.001551
      7.32614      2.53785      5.28219        -0.013198     -0.002741      0.033947
      2.93046      5.07570      5.28219         0.022531     -0.013432      0.031866
      5.86091      5.07570      5.28219        -0.022531     -0.013432      0.031866
      8.79137      5.07570      5.28219        -0.000000     -0.001088      0.043008
      1.46523      0.84595      7.67490         0.032917      0.016207     -0.010956
      4.39568      0.84595      7.67490        -0.000000     -0.020401     -0.076945
      7.32614      0.84595      7.67490        -0.032917      0.016207     -0.010956
      2.93046      3.38380      7.67490        -0.018808      0.003754     -0.084484
      5.86091      3.38380      7.67490         0.018808      0.003754     -0.084484
      8.79137      3.38380      7.67490        -0.000000     -0.000748     -0.012094
      4.39568      5.92165      7.67490        -0.000000     -0.039478     -0.021854
      7.32614      5.92165      7.67490         0.002417      0.007784     -0.006520
     10.25659      5.92165      7.67490        -0.002417      0.007784     -0.006520
      8.79137      1.69432     10.05238        -0.000000     -0.009598      0.013100
      2.92802      1.69049     10.04000         0.045558      0.037176      0.005529
      5.86334      1.69049     10.04000        -0.045558      0.037176      0.005529
     10.25637      4.22988     10.04709         0.022613     -0.020783      0.022297
      4.39568      4.23256     10.04000        -0.000000     -0.021058     -0.052485
      7.32637      4.22988     10.04709        -0.022613     -0.020783      0.022297
     11.71973      6.76639     10.05238         0.020358     -0.002628      0.015193
      5.86300      6.76639     10.05238        -0.020358     -0.002628      0.015193
      8.79137      6.76733     10.04709         0.000000      0.034733      0.035016
      0.00000      0.00000     12.42253        -0.000000     -0.013244     -0.003819
      2.94245      0.01904     12.42445        -0.080984     -0.143179     -0.032034
      5.84892      0.01904     12.42445         0.080984     -0.143179     -0.032034
      1.48772      2.53872     12.42445        -0.220403      0.005307     -0.097418
      7.30365      2.53872     12.42445         0.220403      0.005307     -0.097418
      2.94095      5.05579     12.42445        -0.089263      0.151534     -0.025783
      5.85042      5.05579     12.42445         0.089263      0.151534     -0.025783
      8.79137      5.07570     12.41807         0.000000      0.011060      0.006248
      4.39568      2.53785     12.28633        -0.000000     -0.043161      0.379534
      3.71536      2.53640     14.34252        -0.124245     -0.002061     -0.065207
      5.07601      2.53640     14.34252         0.124245     -0.002061     -0.065207
    total drift:                               -0.001867     -0.005216     -0.147009

  FREE ENERGIE OF THE ION-ELECTRON SYSTEM (eV)
  free  energy   TOTEN  =      -103.90528457 eV

  energy  without entropy=     -103.90528457  energy(sigma->0) =     -103.90528457

 stress matrix after NEB project (eV)
     -6.14302     -0.00000     -0.00000
     -0.00000     -6.42843     -0.00864
     -0.00000     -0.00864     -1.24680
  FORCES: max atom, RMS     0.140332    0.032194
  FORCE total and by dimension    0.198459    0.124245
  Stress total and by dimension    8.978640    6.428426
|           W    W    AA    RRRRR   N    N  II  N    N   GGGG   !!!           |
|           W    W   A  A   R    R  NN   N  II  NN   N  G    G  !!!           |
|           W    W  A    A  R    R  N N  N  II  N N  N  G       !!!           |
|           W WW W  AAAAAA  RRRRR   N  N N  II  N  N N  G  GGG   !            |
|           WW  WW  A    A  R   R   N   NN  II  N   NN  G    G                |
|           W    W  A    A  R    R  N    N  II  N    N   GGGG   !!!           |
|     Tetrahedron method does not include variations of the Fermi             |
|     occupations, so forces and stress will be inaccurate. We suggest        |
|     using a different smearing scheme ISMEAR = 1 or 2 for metals in         |
|     relaxations.                                                            |

 total charge

# of ion       s       p       d       tot
    1        0.413   0.203   9.177   9.794
    2        0.418   0.202   9.177   9.797
    3        0.418   0.202   9.177   9.797
    4        0.418   0.202   9.177   9.797
    5        0.414   0.204   9.177   9.796
    6        0.418   0.202   9.177   9.797
    7        0.418   0.203   9.176   9.797
    8        0.418   0.203   9.176   9.797
    9        0.414   0.203   9.177   9.794
   10        0.405   0.271   9.163   9.839
   11        0.409   0.268   9.166   9.843
   12        0.405   0.271   9.163   9.839
   13        0.408   0.268   9.166   9.842
   14        0.408   0.268   9.166   9.842
   15        0.400   0.272   9.164   9.836
   16        0.405   0.270   9.164   9.839
   17        0.401   0.270   9.165   9.837
   18        0.401   0.270   9.165   9.837
   19        0.403   0.269   9.168   9.840
   20        0.410   0.285   9.156   9.851
   21        0.410   0.285   9.156   9.851
   22        0.399   0.272   9.166   9.837
   23        0.407   0.284   9.160   9.851
   24        0.399   0.272   9.166   9.837
   25        0.403   0.270   9.167   9.840
   26        0.403   0.270   9.167   9.840
   27        0.401   0.274   9.164   9.839
   28        0.418   0.198   9.181   9.797
   29        0.405   0.198   9.189   9.793
   30        0.405   0.198   9.189   9.793
   31        0.396   0.203   9.189   9.788
   32        0.396   0.203   9.189   9.788
   33        0.405   0.198   9.190   9.792
   34        0.405   0.198   9.190   9.792
   35        0.417   0.199   9.180   9.797
   36        0.405   0.406   8.490   9.302
   37        1.604   3.261   0.000   4.864
   38        1.604   3.261   0.000   4.864
tot         17.888  15.256 329.531 362.675

 BZINTS: Fermi energy:    0.280288;  407.000000 electrons
         Band energy:-0.159437E+04;  BLOECHL correction:   -0.036805