 vasp.6.2.0 18Jan21 (build Jun 12 2021 23:27:24) complex

 executed on             LinuxIFC date 2022.05.26  19:57:26

 INCAR:
   ISMEAR = -5
   SIGMA = 0.1
   ISPIN = 1
   EDIFF = 1.d-5
   EDIFFG = -0.01
   NSW = 0
   NELM = 150
   ENCUT = 500
   ISIF = 2
   IBRION = 2
   LREAL = Auto
   ALGO = Fast
   ICHARG = 11
   LORBIT = 10
   LCHARG = .F.
   LWAVE = .F.

 POTCAR:    PAW_PBE Cu 22Jun2005
 POTCAR:    PAW_PBE Cr 06Sep2000
 POTCAR:    PAW_PBE H 15Jun2001
|           W    W    AA    RRRRR   N    N  II  N    N   GGGG   !!!           |
|           W    W   A  A   R    R  NN   N  II  NN   N  G    G  !!!           |
|           W    W  A    A  R    R  N N  N  II  N N  N  G       !!!           |
|           W WW W  AAAAAA  RRRRR   N  N N  II  N  N N  G  GGG   !            |
|           WW  WW  A    A  R   R   N   NN  II  N   NN  G    G                |
|           W    W  A    A  R    R  N    N  II  N    N   GGGG   !!!           |
|     For optimal performance we recommend to set                             |
|       NCORE = 2 up to number-of-cores-per-socket                            |
|     This setting can greatly improve the performance of VASP for DFT.       |
|     The default, NCORE=1 might be grossly inefficient on modern             |
|     multi-core architectures or massively parallel machines. Do your        |
|     Unfortunately you need to use the default for GW and RPA                |
|     calculations (for HF NCORE is supported but not extensively tested      |
|     yet).                                                                   |

 POTCAR:    PAW_PBE Cu 22Jun2005
   VRHFIN =Cu: d10 p1

   TITEL  = PAW_PBE Cu 22Jun2005
   POMASS =   63.546; ZVAL   =   11.000    mass and valenz
   ENMAX  =  295.446; ENMIN  =  221.585 eV

 POTCAR:    PAW_PBE Cr 06Sep2000
   VRHFIN =Cr : d5 s1

   TITEL  = PAW_PBE Cr 06Sep2000
   POMASS =   51.996; ZVAL   =    6.000    mass and valenz
   ENMAX  =  227.080; ENMIN  =  170.310 eV

 POTCAR:    PAW_PBE H 15Jun2001
   VRHFIN =H: ultrasoft test

   TITEL  = PAW_PBE H 15Jun2001
   POMASS =    1.000; ZVAL   =    1.000    mass and valenz
   ENMAX  =  250.000; ENMIN  =  200.000 eV

 Optimization of the real space projectors (new method)

 maximal supplied QI-value         = 16.25
 optimisation between [QCUT,QGAM] = [ 11.38, 22.75] = [ 36.24,144.96] Ry
 Optimized for a Real-space Cutoff    1.52 Angstroem

   l    n(q)    QCUT    max X(q) W(low)/X(q) W(high)/X(q)  e(spline)
   2      9    11.376     4.610    0.21E-03    0.10E-03    0.26E-06
   2      9    11.376     8.522    0.33E-03    0.16E-03    0.37E-06
   0     10    11.376    51.609    0.62E-04    0.20E-04    0.13E-06
   0     10    11.376    27.747    0.54E-04    0.20E-04    0.13E-06
   1     10    11.376    20.408    0.13E-04    0.99E-04    0.19E-06
   1     10    11.376    13.425    0.12E-04    0.87E-04    0.17E-06
 Optimization of the real space projectors (new method)

[...]

   l    n(q)    QCUT    max X(q) W(low)/X(q) W(high)/X(q)  e(spline)
   2      9    11.338    94.395    0.18E-03    0.10E-02    0.64E-06
   2      9    11.338    88.078    0.18E-03    0.10E-02    0.65E-06
   0     10    11.338    50.173    0.13E-03    0.16E-03    0.96E-07
   0     10    11.338    24.906    0.12E-03    0.14E-03    0.88E-07
   1      9    11.338    12.133    0.13E-03    0.15E-03    0.24E-06
   1      9    11.338     7.290    0.10E-03    0.10E-03    0.18E-06
 Optimization of the real space projectors (new method)

 maximal supplied QI-value         = 34.20
 optimisation between [QCUT,QGAM] = [ 11.29, 22.57] = [ 35.68,142.71] Ry
 Optimized for a Real-space Cutoff    1.16 Angstroem

   l    n(q)    QCUT    max X(q) W(low)/X(q) W(high)/X(q)  e(spline)
   0      8    11.287    19.460    0.40E-03    0.73E-03    0.16E-06
   0      8    11.287    12.209    0.38E-03    0.70E-03    0.15E-06
   1      7    11.287     4.655    0.22E-03    0.25E-04    0.22E-06
  PAW_PBE Cu 22Jun2005                  :
  PAW_PBE Cr 06Sep2000                  :
  PAW_PBE H 15Jun2001                   :

 POSCAR: Cu-Cr-H
  positions in direct lattice
  velocities in cartesian coordinates
 exchange correlation table for  LEXCH =        8
   RHO(1)=    0.500       N(1)  =     2000
   RHO(2)=  100.500       N(2)  =     4000

 VTST: version 3.2, (02/03/18)

 CHAIN: initializing optimizer

 OPT: Using VASP Conjugate-Gradient optimizer
 CHAIN: Read ICHAIN            0

 POSCAR: Cu-Cr-H
  positions in direct lattice
  velocities in cartesian coordinates

 ion  position               nearest neighbor table
   1  0.000  0.000  0.252-   7 2.57   3 2.57   4 2.57   2 2.57   6 2.57   8 2.57  12 2.57  10 2.57
                            16 2.57
   2  0.333  0.000  0.252-   8 2.57   9 2.57   5 2.57   1 2.57   3 2.57  11 2.57   4 2.57  10 2.57
                            17 2.57
   3  0.667  0.000  0.252-   1 2.57   7 2.57   6 2.57   9 2.57   2 2.57  12 2.57   5 2.57  18 2.57
                            11 2.57
   4  0.000  0.333  0.252-   5 2.57   6 2.57   1 2.57   7 2.57   2 2.57  13 2.57   9 2.57  10 2.57
                            15 2.57
   5  0.333  0.333  0.252-   4 2.57   2 2.57   7 2.57  13 2.57   8 2.57   6 2.57   3 2.57  11 2.57
                            14 2.57
   6  0.667  0.333  0.252-   4 2.57   9 2.57  15 2.57   3 2.57   1 2.57   8 2.57  14 2.57   5 2.57
                            12 2.57
   7  0.000  0.667  0.252-   1 2.57   3 2.57  16 2.57  18 2.57   4 2.57   5 2.57   8 2.57   9 2.57
                            13 2.57
   8  0.333  0.667  0.252-   9 2.57   2 2.57  17 2.57   6 2.57   1 2.57   7 2.57   5 2.57  14 2.57
                            16 2.57
   9  0.667  0.667  0.252-   8 2.57   6 2.57   2 2.57  17 2.57   3 2.57   7 2.57   4 2.57  15 2.57
                            18 2.57
  10  0.111  0.111  0.351-  20 2.55  26 2.56  19 2.56  11 2.57  12 2.57  13 2.57   1 2.57   2 2.57
                             4 2.57  15 2.57  16 2.57  17 2.57
  11  0.444  0.111  0.351-  20 2.55  21 2.55  10 2.57  13 2.57   2 2.57  17 2.57  14 2.57  12 2.57
                             5 2.57   3 2.57  18 2.57  27 2.57
  12  0.778  0.111  0.351-  21 2.55  19 2.56  25 2.56  15 2.57  10 2.57  14 2.57  18 2.57   3 2.57
                             1 2.57  16 2.57  11 2.57   6 2.57
  13  0.111  0.444  0.351-  23 2.55  20 2.55  16 2.57  18 2.57  10 2.57  11 2.57  14 2.57   5 2.57
                             4 2.57   7 2.57  15 2.57  22 2.57
  14  0.444  0.444  0.351-  21 2.55  23 2.55  15 2.57  17 2.57  12 2.57  16 2.57  13 2.57  11 2.57
                             6 2.57   8 2.57   5 2.57  24 2.57
  15  0.778  0.444  0.351-  19 2.56  24 2.56  22 2.56  14 2.57  17 2.57  12 2.57   6 2.57  18 2.57
                            10 2.57   9 2.57  13 2.57   4 2.57
  16  0.111  0.778  0.351-  23 2.55  25 2.56  26 2.56  18 2.57  13 2.57   7 2.57  14 2.57  17 2.57
                            12 2.57  10 2.57   8 2.57   1 2.57
  17  0.444  0.778  0.351-  26 2.56  27 2.56  24 2.56  14 2.57  15 2.57   8 2.57   9 2.57  11 2.57
                            16 2.57  18 2.57  10 2.57   2 2.57
  18  0.778  0.778  0.351-  25 2.56  22 2.56  27 2.56  16 2.57  13 2.57   7 2.57  15 2.57  12 2.57
                            17 2.57   9 2.57   3 2.57  11 2.57
  19  0.889  0.222  0.449-  12 2.56  10 2.56  15 2.56  28 2.56  25 2.57  26 2.57  22 2.57  24 2.57
                            21 2.57  20 2.57  32 2.58  31 2.58
  20  0.222  0.222  0.448-  36 2.50  11 2.55  13 2.55  10 2.55  23 2.56  21 2.56  26 2.57  19 2.57
                            29 2.57  31 2.57  27 2.57  22 2.57
  21  0.555  0.222  0.448-  36 2.50  14 2.55  11 2.55  12 2.55  20 2.56  23 2.56  19 2.57  25 2.57
                            32 2.57  30 2.57  24 2.57  27 2.57
  22  0.888  0.556  0.449-  35 2.56  24 2.56  27 2.56  18 2.56  15 2.56  31 2.56  33 2.56  19 2.57
                            25 2.57  13 2.57  23 2.57  20 2.57
  23  0.222  0.555  0.448-  36 2.50  13 2.55  14 2.55  16 2.55  20 2.56  21 2.56  25 2.57  26 2.57
                            33 2.57  34 2.57  22 2.57  24 2.57
  24  0.556  0.556  0.449-  35 2.56  22 2.56  27 2.56  15 2.56  17 2.56  32 2.56  34 2.56  19 2.57
                            26 2.57  14 2.57  21 2.57  23 2.57
  25  0.889  0.889  0.449-  12 2.56  16 2.56  18 2.56  28 2.56  19 2.57  26 2.57  22 2.57  27 2.57
                            21 2.57  23 2.57  33 2.58  30 2.58
  26  0.222  0.889  0.449-  10 2.56  16 2.56  17 2.56  28 2.56  25 2.57  19 2.57  27 2.57  24 2.57
                            20 2.57  23 2.57  29 2.58  34 2.58
  27  0.556  0.888  0.449-  35 2.56  24 2.56  22 2.56  17 2.56  18 2.56  29 2.56  30 2.56  26 2.57
                            25 2.57  11 2.57  20 2.57  21 2.57
  28  0.000  0.000  0.547-  25 2.56  19 2.56  26 2.56  33 2.57  30 2.57  31 2.57  29 2.57  32 2.57
                            34 2.57
  29  0.333  0.002  0.547-  31 2.55  30 2.55  36 2.55  27 2.56  20 2.57  28 2.57  35 2.57  26 2.58
                            34 2.60
  30  0.665  0.002  0.547-  32 2.55  29 2.55  36 2.55  27 2.56  21 2.57  28 2.57  35 2.57  25 2.58
                            33 2.60
  31  0.002  0.333  0.547-  29 2.55  33 2.55  36 2.55  22 2.56  20 2.57  28 2.57  35 2.57  19 2.58
                            32 2.60
  32  0.665  0.333  0.547-  30 2.55  34 2.55  36 2.55  24 2.56  21 2.57  28 2.57  35 2.57  19 2.58
                            31 2.60
  33  0.002  0.665  0.547-  34 2.55  31 2.55  36 2.55  22 2.56  23 2.57  28 2.57  35 2.57  25 2.58
                            30 2.60
  34  0.333  0.665  0.547-  33 2.55  32 2.55  36 2.55  24 2.56  23 2.57  28 2.57  35 2.57  26 2.58
                            29 2.60
  35  0.667  0.667  0.547-  24 2.56  27 2.56  22 2.56  34 2.57  32 2.57  29 2.57  30 2.57  33 2.57
                            31 2.57
  36  0.333  0.333  0.543-  37 1.61  23 2.50  20 2.50  21 2.50  31 2.55  29 2.55  33 2.55  34 2.55
                            32 2.55  30 2.55
  37  0.333  0.333  0.619-  36 1.61

  LATTYP: Found a hexagonal cell.
 ALAT       =     7.6967864036
 C/A-ratio  =     2.7653617908

  Lattice vectors:

 A1 = (  -3.8483927580,  -6.6656128093,   0.0000000000)
 A2 = (   7.6967864037,   0.0000000000,   0.0000000000)
 A3 = (   0.0000000000,   0.0000000000,  21.2843990326)

Analysis of symmetry for initial positions (statically):
 Subroutine PRICEL returns:
 Original cell was already a primitive cell.

 Routine SETGRP: Setting up the symmetry group for a
 hexagonal supercell.

 Subroutine GETGRP returns: Found  6 space group operations
 (whereof  6 operations were pure point group operations)
 out of a pool of 24 trial point group operations.

The static configuration has the point symmetry C_3v.

Analysis of symmetry for dynamics (positions and initial velocities):
 Subroutine PRICEL returns:
 Original cell was already a primitive cell.

[...]

The dynamic configuration has the point symmetry C_3v.

Analysis of constrained symmetry for selective dynamics:
 Subroutine PRICEL returns:
 Original cell was already a primitive cell.

 Routine SETGRP: Setting up the symmetry group for a
 hexagonal supercell.

 Subroutine GETGRP returns: Found  6 space group operations
 (whereof  6 operations were pure point group operations)
[...]
     24      -4.2284      2.00000
     25      -4.2195      2.00000
     26      -4.1683      2.00000
     27      -4.1564      2.00000
     28      -4.1483      2.00000
     29      -4.1431      2.00000
     30      -4.1326      2.00000
     31      -4.1269      2.00000
     32      -4.0647      2.00000
     33      -4.0625      2.00000
     34      -4.0587      2.00000
     35      -3.9561      2.00000
     36      -3.9535      2.00000
     37      -3.8423      2.00000
     38      -3.8309      2.00000
     39      -3.7526      2.00000
     40      -3.7462      2.00000
     41      -3.7364      2.00000
     42      -3.7189      2.00000
     43      -3.6968      2.00000
     44      -3.6882      2.00000
     45      -3.6803      2.00000
     46      -3.5270      2.00000
     47      -3.4902      2.00000
     48      -3.4772      2.00000
     49      -3.4675      2.00000
     50      -3.4297      2.00000
     51      -3.4201      2.00000
     52      -3.4083      2.00000
     53      -3.3935      2.00000
     54      -3.3839      2.00000
     55      -3.3657      2.00000
     56      -3.3497      2.00000
     57      -3.3406      2.00000
     58      -3.3295      2.00000
     59      -3.3218      2.00000
     60      -3.3045      2.00000
[...]
    238       6.8712      0.00000
    239       6.8927      0.00000
    240       7.0112      0.00000
    241       7.0337      0.00000
    242       7.1458      0.00000
    243       7.2089      0.00000
    244       7.2963      0.00000
    245       7.3751      0.00000
    246       7.4188      0.00000
    247       7.5667      0.00000
    248       7.7073      0.00000
    249       7.8106      0.00000
    250       8.0238      0.00000
    251       8.1217      0.00000
    252       8.3727      0.00000

 soft charge-density along one line, spin component           1
         0         1         2         3         4         5         6         7         8         9
 total charge-density along one line

------------------------ aborting loop because EDIFF is reached ----------------------------------------

 total charge

# of ion       s       p       d       tot
    1        0.450   0.281   9.190   9.922
    2        0.447   0.286   9.187   9.919
    3        0.447   0.286   9.187   9.919
    4        0.447   0.286   9.187   9.919
    5        0.452   0.285   9.183   9.919
    6        0.447   0.286   9.187   9.919
    7        0.447   0.286   9.187   9.919
    8        0.447   0.286   9.187   9.919
    9        0.449   0.283   9.189   9.921
   10        0.444   0.371   9.176   9.991
   11        0.442   0.367   9.184   9.992
   12        0.444   0.371   9.176   9.991
   13        0.442   0.367   9.184   9.992
   14        0.442   0.367   9.184   9.992
   15        0.439   0.370   9.178   9.987
   16        0.444   0.371   9.176   9.991
   17        0.439   0.370   9.178   9.987
   18        0.439   0.370   9.178   9.987
   19        0.441   0.368   9.181   9.990
   20        0.467   0.392   9.163  10.022
   21        0.467   0.392   9.163  10.022
   22        0.432   0.374   9.180   9.987
   23        0.467   0.392   9.163  10.022
   24        0.432   0.374   9.180   9.987
   25        0.441   0.368   9.181   9.990
   26        0.441   0.368   9.181   9.990
   27        0.432   0.374   9.180   9.987
   28        0.446   0.285   9.182   9.912
   29        0.463   0.297   9.169   9.929
   30        0.463   0.297   9.169   9.929
   31        0.463   0.297   9.169   9.929
   32        0.463   0.297   9.169   9.929
   33        0.463   0.297   9.169   9.929
   34        0.463   0.297   9.169   9.929
   35        0.440   0.287   9.185   9.912
   36        0.492   0.527   4.301   5.320
   37        0.510   0.010   0.000   0.520
tot         16.692  12.179 325.552 354.423

  FORCE on cell =-STRESS in cart. coord.  units (eV):
  Direction    XX          YY          ZZ          XY          YZ          ZX
  Alpha Z   860.94164   860.94164   860.94164
  Ewald  171654.99693171654.99657************     0.00037     0.00011     0.00015
  Hartree184480.15265184480.15265************     0.00003     0.00005     0.00006
  E(xc)   -2274.69463 -2274.69414 -2279.75205    -0.00042    -0.00004    -0.00006
  Local  ************************369269.18029     0.01845    -0.00056    -0.00089
  n-local  -772.31578  -757.77025  -776.39613     7.61328    -0.13889     0.39013
  augment  3335.04592  3335.06604  3357.27753    -0.01742     0.00025     0.00043
  Kinetic  3181.22288  3184.26495  3213.45925     2.65386     1.50316    -1.18613
  Fock        0.00000     0.00000     0.00000     0.00000     0.00000     0.00000
  Total      -6.98482    -6.98482     1.29974     0.00000    -0.00000    -0.00000
  in kB     -10.24838   -10.24838     1.90702     0.00000    -0.00000    -0.00000

 VOLUME and BASIS-vectors are now :
  energy-cutoff  :      500.00
  volume of cell :     1091.97
      direct lattice vectors                 reciprocal lattice vectors
     7.696786404  0.000000000  0.000000000     0.129924354 -0.075011849  0.000000000
     3.848392758  6.665612809  0.000000000     0.000000000  0.150023716  0.000000000
     0.000000000  0.000000000 21.284399033     0.000000000  0.000000000  0.046982769

  length of vectors
     7.696786404  7.696786404 21.284399033     0.150023716  0.150023716  0.046982769

 FORCES acting on ions
    electron-ion (+dipol)            ewald-force                    non-local-force                 convergence-correction
   -.416E-04 0.168E-06 0.345E+04   0.580E-04 -.434E-05 -.345E+04   -.839E-17 -.907E-18 -.245E+01   -.155E-03 -.569E-04 -.745E-01
   -.444E+00 -.425E+00 0.345E+04   0.346E+00 0.318E+00 -.345E+04   0.102E+00 0.207E+00 -.194E+01   0.151E-02 -.908E-01 -.234E-01
   0.444E+00 -.425E+00 0.345E+04   -.346E+00 0.318E+00 -.345E+04   -.102E+00 0.207E+00 -.194E+01   -.860E-03 -.883E-01 -.228E-01
   -.590E+00 -.172E+00 0.345E+04   0.448E+00 0.140E+00 -.345E+04   0.230E+00 -.150E-01 -.194E+01   -.778E-01 0.467E-01 -.233E-01
   -.614E-04 -.337E-05 0.345E+04   0.116E-03 -.101E-04 -.345E+04   0.354E-17 0.231E-17 -.126E+01   0.121E-01 0.739E-02 0.246E+00
   0.590E+00 -.172E+00 0.345E+04   -.448E+00 0.140E+00 -.345E+04   -.230E+00 -.150E-01 -.194E+01   0.763E-01 0.480E-01 -.223E-01
   -.146E+00 0.597E+00 0.345E+04   0.103E+00 -.458E+00 -.345E+04   0.128E+00 -.192E+00 -.194E+01   -.769E-01 0.434E-01 -.227E-01
   0.146E+00 0.597E+00 0.345E+04   -.103E+00 -.458E+00 -.345E+04   -.128E+00 -.192E+00 -.194E+01   0.804E-01 0.421E-01 -.224E-01
   -.144E-03 -.329E-04 0.345E+04   0.263E-03 0.205E-04 -.345E+04   0.110E-17 0.917E-18 -.213E+01   -.133E-01 -.686E-02 -.793E-01
   -.209E+01 -.121E+01 0.112E+04   0.255E+01 0.147E+01 -.112E+04   -.402E+00 -.232E+00 -.920E+00   -.817E-01 -.472E-01 0.166E+00
   -.906E-04 -.292E+01 0.111E+04   0.189E-03 0.268E+01 -.111E+04   -.181E-07 0.272E+00 -.182E+00   0.108E-01 -.537E-01 0.209E+00
   0.209E+01 -.121E+01 0.112E+04   -.255E+01 0.147E+01 -.112E+04   0.402E+00 -.232E+00 -.920E+00   0.811E-01 -.459E-01 0.164E+00
   -.253E+01 0.146E+01 0.111E+04   0.232E+01 -.134E+01 -.111E+04   0.236E+00 -.136E+00 -.182E+00   -.407E-01 0.370E-01 0.209E+00
   0.253E+01 0.146E+01 0.111E+04   -.232E+01 -.134E+01 -.111E+04   -.236E+00 -.136E+00 -.182E+00   0.644E-01 0.368E-01 0.207E+00
   -.142E-03 -.520E+00 0.112E+04   0.298E-03 0.234E+00 -.112E+04   -.986E-08 0.148E+00 -.982E+00   -.298E-02 0.120E+00 0.197E+00
   -.921E-04 0.241E+01 0.112E+04   0.186E-03 -.294E+01 -.112E+04   -.309E-07 0.464E+00 -.920E+00   -.888E-04 0.920E-01 0.164E+00
   -.450E+00 0.260E+00 0.112E+04   0.202E+00 -.116E+00 -.112E+04   0.128E+00 -.740E-01 -.982E+00   0.103E+00 -.624E-01 0.197E+00
   0.450E+00 0.260E+00 0.112E+04   -.202E+00 -.117E+00 -.112E+04   -.128E+00 -.740E-01 -.982E+00   -.102E+00 -.608E-01 0.196E+00
   -.634E-04 -.511E+01 -.121E+04   0.717E-04 0.505E+01 0.121E+04   -.208E-08 0.312E-01 0.109E+01   0.134E-01 0.236E-01 0.497E+00
   -.374E+02 -.216E+02 -.126E+04   0.386E+02 0.223E+02 0.126E+04   -.118E+01 -.684E+00 -.898E+00   -.892E-01 -.516E-01 0.462E+00
   0.374E+02 -.216E+02 -.126E+04   -.386E+02 0.223E+02 0.126E+04   0.118E+01 -.684E+00 -.898E+00   0.667E-01 -.492E-01 0.461E+00
   -.200E+02 0.116E+02 -.122E+04   0.199E+02 -.115E+02 0.122E+04   0.384E+00 -.222E+00 0.574E+00   -.184E+00 0.891E-01 0.380E+00
   -.836E-04 0.432E+02 -.126E+04   0.149E-03 -.445E+02 0.126E+04   -.911E-07 0.137E+01 -.898E+00   -.105E-01 0.812E-01 0.461E+00
   0.200E+02 0.116E+02 -.122E+04   -.199E+02 -.115E+02 0.122E+04   -.384E+00 -.222E+00 0.574E+00   0.162E+00 0.928E-01 0.380E+00
   0.443E+01 0.256E+01 -.121E+04   -.438E+01 -.253E+01 0.121E+04   -.271E-01 -.156E-01 0.109E+01   -.201E-02 -.114E-02 0.496E+00
   -.443E+01 0.256E+01 -.121E+04   0.438E+01 -.253E+01 0.121E+04   0.271E-01 -.156E-01 0.109E+01   0.275E-01 0.275E-04 0.497E+00
   -.123E-03 -.231E+02 -.122E+04   0.239E-03 0.229E+02 0.122E+04   -.295E-07 0.443E+00 0.574E+00   -.146E-01 -.204E+00 0.380E+00
   -.376E-04 0.153E-04 -.347E+04   0.424E-04 -.323E-04 0.347E+04   0.144E-16 -.193E-17 0.227E+01   0.861E-03 0.550E-03 0.264E+00
   -.330E+02 -.593E+02 -.348E+04   0.335E+02 0.599E+02 0.348E+04   -.655E+00 -.807E+00 0.167E+01   0.125E+00 0.184E+00 0.379E+00
   0.330E+02 -.593E+02 -.348E+04   -.335E+02 0.599E+02 0.348E+04   0.655E+00 -.807E+00 0.167E+01   -.125E+00 0.186E+00 0.381E+00
   -.678E+02 0.111E+01 -.348E+04   0.687E+02 -.942E+00 0.348E+04   -.103E+01 -.164E+00 0.167E+01   0.222E+00 0.160E-01 0.379E+00
   0.678E+02 0.111E+01 -.348E+04   -.687E+02 -.942E+00 0.348E+04   0.103E+01 -.164E+00 0.167E+01   -.222E+00 0.181E-01 0.381E+00
   -.349E+02 0.582E+02 -.348E+04   0.351E+02 -.590E+02 0.348E+04   -.371E+00 0.971E+00 0.167E+01   0.986E-01 -.202E+00 0.381E+00
   0.349E+02 0.582E+02 -.348E+04   -.351E+02 -.590E+02 0.348E+04   0.371E+00 0.971E+00 0.167E+01   -.947E-01 -.201E+00 0.381E+00
   -.122E-03 -.164E-04 -.348E+04   0.248E-03 0.380E-05 0.348E+04   -.254E-17 0.158E-17 0.267E+01   -.133E-01 -.687E-02 0.345E+00
   -.488E-04 -.735E-05 -.184E+04   0.773E-04 0.145E-04 0.184E+04   0.306E-18 0.164E-18 -.223E+01   0.103E-02 0.626E-03 0.445E+00
   0.315E-05 -.500E-05 -.370E+03   0.372E-05 0.161E-05 0.372E+03   0.883E-19 0.262E-18 -.200E+01   0.639E-04 0.371E-04 -.648E-01
   -.219E-03 0.157E-04 0.177E+01   0.182E-12 0.330E-12 -.443E-11   0.497E-15 0.446E-15 -.107E+02   -.528E-02 -.612E-02 0.895E+01

 POSITION                                       TOTAL-FORCE (eV/Angst)
      0.00000      0.00000      5.37156        -0.000000      0.000000     -0.025047
      2.56560      0.00000      5.37156         0.006159      0.010285      0.063893
      5.13119      0.00000      5.37156        -0.006159      0.010285      0.063893
      1.28280      2.22187      5.37156         0.011987      0.000191      0.063893
      3.84839      2.22187      5.37156        -0.000000     -0.000000      0.036624
      6.41399      2.22187      5.37156        -0.011987      0.000191      0.063893
      2.56560      4.44374      5.37156         0.005828     -0.010476      0.063893
      5.13119      4.44374      5.37156        -0.005828     -0.010476      0.063893
      7.69679      4.44374      5.37156         0.000000      0.000000      0.029874
      1.28280      0.74062      7.46636        -0.024529     -0.014162     -0.082461
      3.84839      0.74062      7.46636         0.000000     -0.032845     -0.058137
      6.41399      0.74062      7.46636         0.024529     -0.014162     -0.082461
      2.56560      2.96249      7.46636        -0.028445      0.016422     -0.058137
      5.13119      2.96249      7.46636         0.028445      0.016422     -0.058137
      7.69679      2.96249      7.46636         0.000000     -0.018594     -0.038368
      3.84839      5.18437      7.46636        -0.000000      0.028323     -0.082461
      6.41399      5.18437      7.46636        -0.016103      0.009297     -0.038368
      8.97958      5.18437      7.46636         0.016103      0.009297     -0.038368
      7.69679      1.48113      9.55176         0.000000     -0.011171      0.029422
      2.56610      1.48154      9.54462        -0.098009     -0.056585     -0.106027
      5.13069      1.48154      9.54462         0.098009     -0.056585     -0.106027
      8.97635      3.70498      9.55922         0.052200     -0.030138      0.002984
      3.84839      3.70254      9.54462        -0.000000      0.113171     -0.106027
      6.41722      3.70498      9.55922        -0.052200     -0.030138      0.002984
     10.26248      5.92505      9.55176         0.009675      0.005586      0.029422
      5.13109      5.92505      9.55176        -0.009675      0.005586      0.029422
      7.69679      5.92126      9.55922        -0.000000      0.060276      0.002984
      0.00000      0.00000     11.63975        -0.000000      0.000000      0.020442
      2.57267      0.01383     11.65039         0.022735      0.005972      0.002406
      5.12411      0.01383     11.65039        -0.022735      0.005972      0.002406
      1.29831      2.22109     11.65039         0.016539      0.016703      0.002406
      6.39847      2.22109     11.65039        -0.016539      0.016703      0.002406
      2.57403      4.43070     11.65039        -0.006195     -0.022675      0.002406
      5.12275      4.43070     11.65039         0.006195     -0.022675      0.002406
      7.69679      4.44374     11.64501        -0.000000      0.000000      0.047292
      3.84839      2.22187     11.55740        -0.000000      0.000000      0.230186
      3.84839      2.22187     13.16568        -0.000000      0.000000      0.020594
    total drift:                               -0.005496     -0.006100     -0.001126

  FREE ENERGIE OF THE ION-ELECTRON SYSTEM (eV)
  free  energy   TOTEN  =      -132.74112623 eV

  energy  without entropy=     -132.74112623  energy(sigma->0) =     -132.74112623

 stress matrix after NEB project (eV)
     -6.98482      0.00000     -0.00000
      0.00000     -6.98482     -0.00000
     -0.00000     -0.00000      1.29974
  FORCES: max atom, RMS     0.020594    0.003386
  FORCE total and by dimension    0.020594    0.020594
  Stress total and by dimension    9.963175    6.984824
|           W    W    AA    RRRRR   N    N  II  N    N   GGGG   !!!           |
|           W    W   A  A   R    R  NN   N  II  NN   N  G    G  !!!           |
|           W    W  A    A  R    R  N N  N  II  N N  N  G       !!!           |
|           W WW W  AAAAAA  RRRRR   N  N N  II  N  N N  G  GGG   !            |
|           WW  WW  A    A  R   R   N   NN  II  N   NN  G    G                |
|           W    W  A    A  R    R  N    N  II  N    N   GGGG   !!!           |
|     Tetrahedron method does not include variations of the Fermi             |
|     occupations, so forces and stress will be inaccurate. We suggest        |
|     using a different smearing scheme ISMEAR = 1 or 2 for metals in         |
|     relaxations.                                                            |

 total charge

# of ion       s       p       d       tot
    1        0.450   0.281   9.190   9.922
    2        0.447   0.286   9.187   9.919
    3        0.447   0.286   9.187   9.919
    4        0.447   0.286   9.187   9.919
    5        0.452   0.285   9.183   9.919
    6        0.447   0.286   9.187   9.919
    7        0.447   0.286   9.187   9.919
    8        0.447   0.286   9.187   9.919
    9        0.449   0.283   9.189   9.921
   10        0.444   0.371   9.176   9.991
   11        0.442   0.367   9.184   9.992
   12        0.444   0.371   9.176   9.991
   13        0.442   0.367   9.184   9.992
   14        0.442   0.367   9.184   9.992
   15        0.439   0.370   9.178   9.987
   16        0.444   0.371   9.176   9.991
   17        0.439   0.370   9.178   9.987
   18        0.439   0.370   9.178   9.987
   19        0.441   0.368   9.181   9.990
   20        0.467   0.392   9.163  10.022
   21        0.467   0.392   9.163  10.022
   22        0.432   0.374   9.180   9.987
   23        0.467   0.392   9.163  10.022
   24        0.432   0.374   9.180   9.987
   25        0.441   0.368   9.181   9.990
   26        0.441   0.368   9.181   9.990
   27        0.432   0.374   9.180   9.987
   28        0.446   0.285   9.182   9.912
   29        0.463   0.297   9.169   9.929
   30        0.463   0.297   9.169   9.929
   31        0.463   0.297   9.169   9.929
   32        0.463   0.297   9.169   9.929
   33        0.463   0.297   9.169   9.929
   34        0.463   0.297   9.169   9.929
   35        0.440   0.287   9.185   9.912
   36        0.492   0.527   4.301   5.320
   37        0.510   0.010   0.000   0.520
tot         16.692  12.179 325.552 354.423

 BZINTS: Fermi energy:   -0.028749;  392.000000 electrons
         Band energy:-0.111545E+04;  BLOECHL correction:   -0.015729