 vasp.6.2.0 18Jan21 (build Jun 12 2021 23:27:24) complex

 executed on             LinuxIFC date 2022.05.26  19:47:28

 INCAR:
   ISMEAR = -5
   SIGMA = 0.1
   ISPIN = 1
   EDIFF = 1.d-5
   EDIFFG = -0.01
   NSW = 0
   NELM = 150
   ENCUT = 500
   ISIF = 2
   IBRION = 2
   LREAL = Auto
   ALGO = Fast
   ICHARG = 11
   LORBIT = 10
   LCHARG = .F.
   LWAVE = .F.

 POTCAR:    PAW_PBE Ag 02Apr2005
 POTCAR:    PAW_PBE Ru 04Feb2005
 POTCAR:    PAW_PBE N 08Apr2002
|           W    W    AA    RRRRR   N    N  II  N    N   GGGG   !!!           |
|           W    W   A  A   R    R  NN   N  II  NN   N  G    G  !!!           |
|           W    W  A    A  R    R  N N  N  II  N N  N  G       !!!           |
|           W WW W  AAAAAA  RRRRR   N  N N  II  N  N N  G  GGG   !            |
|           WW  WW  A    A  R   R   N   NN  II  N   NN  G    G                |
|           W    W  A    A  R    R  N    N  II  N    N   GGGG   !!!           |
|     For optimal performance we recommend to set                             |
|       NCORE = 2 up to number-of-cores-per-socket                            |
|     This setting can greatly improve the performance of VASP for DFT.       |
|     The default, NCORE=1 might be grossly inefficient on modern             |
|     multi-core architectures or massively parallel machines. Do your        |
|     Unfortunately you need to use the default for GW and RPA                |
|     calculations (for HF NCORE is supported but not extensively tested      |
|     yet).                                                                   |

 POTCAR:    PAW_PBE Ag 02Apr2005
   VRHFIN =Ag : s1 d10

   TITEL  = PAW_PBE Ag 02Apr2005
   POMASS =  107.868; ZVAL   =   11.000    mass and valenz
   ENMAX  =  249.844; ENMIN  =  187.383 eV

 POTCAR:    PAW_PBE Ru 04Feb2005
   VRHFIN =Ru: s1 d7

   TITEL  = PAW_PBE Ru 04Feb2005
   POMASS =  101.070; ZVAL   =    8.000    mass and valenz
   ENMAX  =  213.271; ENMIN  =  159.953 eV

 POTCAR:    PAW_PBE N 08Apr2002
   VRHFIN =N: s2p3

   TITEL  = PAW_PBE N 08Apr2002
   POMASS =   14.001; ZVAL   =    5.000    mass and valenz
   ENMAX  =  400.000; ENMIN  =  300.000 eV

 Optimization of the real space projectors (new method)

 maximal supplied QI-value         = 15.12
 optimisation between [QCUT,QGAM] = [ 11.34, 22.83] = [ 36.00,145.93] Ry
 Optimized for a Real-space Cutoff    1.43 Angstroem

   l    n(q)    QCUT    max X(q) W(low)/X(q) W(high)/X(q)  e(spline)
   2      9    11.338    53.897    0.16E-03    0.20E-03    0.28E-06
   2      9    11.338    52.416    0.16E-03    0.20E-03    0.29E-06
   0     10    11.338   122.045    0.31E-04    0.76E-04    0.15E-06
   0     10    11.338    73.629    0.30E-04    0.72E-04    0.15E-06
   1      9    11.338    15.255    0.20E-03    0.19E-04    0.17E-06
   1      9    11.338     9.562    0.16E-03    0.15E-04    0.14E-06
 Optimization of the real space projectors (new method)

[...]

   l    n(q)    QCUT    max X(q) W(low)/X(q) W(high)/X(q)  e(spline)
   2      9    11.327    61.733    0.26E-03    0.14E-03    0.16E-06
   2      9    11.327    59.886    0.26E-03    0.14E-03    0.17E-06
   0     10    11.327    23.358    0.19E-03    0.14E-04    0.46E-06
   0     10    11.327    11.320    0.15E-03    0.11E-04    0.37E-06
   1     10    11.327    14.765    0.49E-04    0.26E-03    0.24E-06
   1     10    11.327     8.283    0.37E-04    0.20E-03    0.18E-06
 Optimization of the real space projectors (new method)

 maximal supplied QI-value         = 25.13
 optimisation between [QCUT,QGAM] = [ 11.31, 22.87] = [ 35.82,146.48] Ry
 Optimized for a Real-space Cutoff    1.27 Angstroem

   l    n(q)    QCUT    max X(q) W(low)/X(q) W(high)/X(q)  e(spline)
   0      9    11.310    79.467    0.75E-04    0.16E-03    0.36E-06
   0      9    11.310    66.151    0.74E-04    0.16E-03    0.36E-06
   1      8    11.310    17.416    0.35E-03    0.12E-03    0.95E-06
   1      8    11.310    12.382    0.37E-03    0.13E-03    0.98E-06
  PAW_PBE Ag 02Apr2005                  :
  PAW_PBE Ru 04Feb2005                  :
  PAW_PBE N 08Apr2002                   :

 POSCAR: Ag-Ru-N
  positions in direct lattice
  velocities in cartesian coordinates
 exchange correlation table for  LEXCH =        8
   RHO(1)=    0.500       N(1)  =     2000
   RHO(2)=  100.500       N(2)  =     4000

 VTST: version 3.2, (02/03/18)

 CHAIN: initializing optimizer

 OPT: Using VASP Conjugate-Gradient optimizer
 CHAIN: Read ICHAIN            0

 POSCAR: Ag-Ru-N
  positions in direct lattice
  velocities in cartesian coordinates

 ion  position               nearest neighbor table
   1  0.000  0.000  0.238-   2 2.93   8 2.93   7 2.93   6 2.93   4 2.93  12 2.93  16 2.93  10 2.93
                             3 2.93
   2  0.333  0.000  0.238-   1 2.93   8 2.93   9 2.93   3 2.93   4 2.93   5 2.93  10 2.93  17 2.93
                            11 2.93
   3  0.667  0.000  0.238-   9 2.93   2 2.93   5 2.93  11 2.93   7 2.93  18 2.93   1 2.93   6 2.93
                            12 2.93
   4  0.000  0.333  0.238-   5 2.93   6 2.93   2 2.93   1 2.93   7 2.93  13 2.93  15 2.93   9 2.93
                            10 2.93
   5  0.333  0.333  0.238-   4 2.93   3 2.93   7 2.93   2 2.93   8 2.93  14 2.93  13 2.93  11 2.93
                             6 2.93
   6  0.667  0.333  0.238-   4 2.93   9 2.93   1 2.93  15 2.93   8 2.93  12 2.93   3 2.93   5 2.93
                            14 2.93
   7  0.000  0.667  0.238-   8 2.93   1 2.93   5 2.93   3 2.93   4 2.93  16 2.93  18 2.93  13 2.93
                             9 2.93
   8  0.333  0.667  0.238-   7 2.93   1 2.93   2 2.93   9 2.93   5 2.93  16 2.93   6 2.93  17 2.93
                            14 2.93
   9  0.667  0.667  0.238-   3 2.93   2 2.93   8 2.93   6 2.93  17 2.93   4 2.93  15 2.93   7 2.93
                            18 2.93
  10  0.111  0.111  0.346-  20 2.90  19 2.93  26 2.93  12 2.93  16 2.93  15 2.93  17 2.93  13 2.93
                            11 2.93   2 2.93   1 2.93   4 2.93
  11  0.444  0.111  0.346-  21 2.90  20 2.90  27 2.92  14 2.93  17 2.93  18 2.93   3 2.93  12 2.93
                            13 2.93  10 2.93   5 2.93   2 2.93
  12  0.778  0.111  0.346-  21 2.90  25 2.93  19 2.93  10 2.93  16 2.93  18 2.93  15 2.93  11 2.93
                             1 2.93  14 2.93   6 2.93   3 2.93
  13  0.111  0.444  0.346-  20 2.90  23 2.90  22 2.92  15 2.93  14 2.93  18 2.93  10 2.93  11 2.93
                            16 2.93   4 2.93   5 2.93   7 2.93
  14  0.444  0.444  0.346-  23 2.90  21 2.90  24 2.92  13 2.93  11 2.93  16 2.93   5 2.93  12 2.93
                            17 2.93   8 2.93  15 2.93   6 2.93
  15  0.778  0.444  0.346-  24 2.92  22 2.92  19 2.93  13 2.93  10 2.93  12 2.93  17 2.93  18 2.93
                             4 2.93   6 2.93   9 2.93  14 2.93
  16  0.111  0.778  0.346-  23 2.90  26 2.93  25 2.93  18 2.93  12 2.93  10 2.93  14 2.93  17 2.93
                            13 2.93   7 2.93   8 2.93   1 2.93
  17  0.444  0.778  0.346-  27 2.92  24 2.92  26 2.93  11 2.93  10 2.93   9 2.93  18 2.93  15 2.93
                            16 2.93   2 2.93  14 2.93   8 2.93
  18  0.778  0.778  0.346-  22 2.92  27 2.92  25 2.93  16 2.93  12 2.93  13 2.93  11 2.93  17 2.93
                            15 2.93   7 2.93   3 2.93   9 2.93
  19  0.889  0.223  0.454-  28 2.91  15 2.93  10 2.93  12 2.93  24 2.93  22 2.93  26 2.93  25 2.93
                            20 2.94  21 2.94  32 2.94  31 2.94
  20  0.223  0.223  0.452-  36 2.77  13 2.90  11 2.90  10 2.90  21 2.92  23 2.92  31 2.92  29 2.92
                            27 2.93  22 2.93  19 2.94  26 2.94
  21  0.555  0.223  0.452-  36 2.77  11 2.90  14 2.90  12 2.90  20 2.92  23 2.92  30 2.92  32 2.92
                            27 2.93  24 2.93  25 2.94  19 2.94
  22  0.888  0.556  0.453-  35 2.91  18 2.92  15 2.92  13 2.92  33 2.92  31 2.92  24 2.92  27 2.92
                            25 2.93  19 2.93  23 2.93  20 2.93
  23  0.223  0.555  0.452-  36 2.77  14 2.90  13 2.90  16 2.90  21 2.92  20 2.92  34 2.92  33 2.92
                            22 2.93  24 2.93  26 2.94  25 2.94
  24  0.556  0.556  0.453-  35 2.91  15 2.92  17 2.92  14 2.92  32 2.92  34 2.92  27 2.92  22 2.92
                            19 2.93  26 2.93  23 2.93  21 2.93
  25  0.889  0.889  0.454-  28 2.91  18 2.93  16 2.93  12 2.93  22 2.93  27 2.93  26 2.93  19 2.93
                            23 2.94  21 2.94  33 2.94  30 2.94
  26  0.223  0.889  0.454-  28 2.91  17 2.93  16 2.93  10 2.93  27 2.93  24 2.93  25 2.93  19 2.93
                            23 2.94  20 2.94  34 2.94  29 2.94
  27  0.556  0.888  0.453-  35 2.91  17 2.92  18 2.92  11 2.92  29 2.92  30 2.92  24 2.92  22 2.92
                            26 2.93  25 2.93  20 2.93  21 2.93
  28  0.000  0.000  0.560-  26 2.91  25 2.91  19 2.91  29 2.95  34 2.95  33 2.95  32 2.95  31 2.95
                            30 2.95
  29  0.333  0.006  0.561-  31 2.88  30 2.88  36 2.89  20 2.92  27 2.92  26 2.94  28 2.95  35 2.96
                            34 3.03
  30  0.661  0.006  0.561-  32 2.88  29 2.88  36 2.89  21 2.92  27 2.92  25 2.94  28 2.95  35 2.96
                            33 3.03
  31  0.006  0.333  0.561-  29 2.88  33 2.88  36 2.89  20 2.92  22 2.92  19 2.94  28 2.95  35 2.96
                            32 3.03
  32  0.661  0.333  0.561-  30 2.88  34 2.88  36 2.89  21 2.92  24 2.92  19 2.94  28 2.95  35 2.96
                            31 3.03
  33  0.006  0.661  0.561-  34 2.88  31 2.88  36 2.89  23 2.92  22 2.92  25 2.94  28 2.95  35 2.96
                            30 3.03
  34  0.333  0.661  0.561-  33 2.88  32 2.88  36 2.89  23 2.92  24 2.92  26 2.94  28 2.95  35 2.96
                            29 3.03
  35  0.667  0.667  0.560-  24 2.91  27 2.91  22 2.91  30 2.96  32 2.96  29 2.96  34 2.96  31 2.96
                            33 2.96
  36  0.333  0.333  0.551-  37 1.64  21 2.77  20 2.77  23 2.77  31 2.89  30 2.89  33 2.89  29 2.89
                            34 2.89  32 2.89
  37  0.333  0.333  0.626-  36 1.64

  LATTYP: Found a hexagonal cell.
 ALAT       =     8.7913665772
 C/A-ratio  =     2.5227160501

  Lattice vectors:

 A1 = (  -4.3956832886,  -7.6135467898,   0.0000000000)
 A2 = (   8.7913665771,   0.0000000000,   0.0000000000)
 A3 = (   0.0000000000,   0.0000000000,  22.1781215668)

Analysis of symmetry for initial positions (statically):
 Subroutine PRICEL returns:
 Original cell was already a primitive cell.

 Routine SETGRP: Setting up the symmetry group for a
 hexagonal supercell.

 Subroutine GETGRP returns: Found  6 space group operations
 (whereof  6 operations were pure point group operations)
 out of a pool of 24 trial point group operations.

The static configuration has the point symmetry C_3v.

Analysis of symmetry for dynamics (positions and initial velocities):
 Subroutine PRICEL returns:
 Original cell was already a primitive cell.

[...]

The dynamic configuration has the point symmetry C_3v.

Analysis of constrained symmetry for selective dynamics:
 Subroutine PRICEL returns:
 Original cell was already a primitive cell.

 Routine SETGRP: Setting up the symmetry group for a
 hexagonal supercell.

 Subroutine GETGRP returns: Found  6 space group operations
[...]
     24      -4.5996      2.00000
     25      -4.5934      2.00000
     26      -4.5659      2.00000
     27      -4.5633      2.00000
     28      -4.5323      2.00000
     29      -4.5260      2.00000
     30      -4.5115      2.00000
     31      -4.4967      2.00000
     32      -4.4846      2.00000
     33      -4.4644      2.00000
     34      -4.4517      2.00000
     35      -4.4242      2.00000
     36      -4.3983      2.00000
     37      -4.3801      2.00000
     38      -4.3517      2.00000
     39      -4.3375      2.00000
     40      -4.3192      2.00000
     41      -4.2978      2.00000
     42      -4.2812      2.00000
     43      -4.2594      2.00000
     44      -4.2175      2.00000
     45      -4.1689      2.00000
     46      -4.1588      2.00000
     47      -4.1422      2.00000
     48      -4.1292      2.00000
     49      -4.1244      2.00000
     50      -4.1159      2.00000
     51      -4.1081      2.00000
     52      -4.1076      2.00000
     53      -4.0925      2.00000
     54      -4.0534      2.00000
     55      -4.0402      2.00000
     56      -4.0153      2.00000
     57      -4.0023      2.00000
     58      -3.9935      2.00000
     59      -3.9756      2.00000
     60      -3.9600      2.00000
[...]
    238       6.3310      0.00000
    239       6.4118      0.00000
    240       6.4658      0.00000
    241       7.2157      0.00000
    242       7.2779      0.00000
    243       7.3363      0.00000
    244       7.3402      0.00000
    245       7.3856      0.00000
    246       7.4110      0.00000
    247       7.4757      0.00000
    248       7.5949      0.00000
    249       7.6565      0.00000
    250       7.6759      0.00000
    251       7.7155      0.00000
    252       7.8359      0.00000

 soft charge-density along one line, spin component           1
         0         1         2         3         4         5         6         7         8         9
 total charge-density along one line

------------------------ aborting loop because EDIFF is reached ----------------------------------------

 total charge

# of ion       s       p       d       tot
    1        0.419   0.201   9.178   9.798
    2        0.415   0.204   9.177   9.796
    3        0.415   0.204   9.177   9.796
    4        0.415   0.204   9.177   9.796
    5        0.421   0.201   9.177   9.799
    6        0.415   0.204   9.177   9.796
    7        0.415   0.204   9.177   9.796
    8        0.415   0.204   9.177   9.796
    9        0.413   0.205   9.176   9.794
   10        0.408   0.268   9.165   9.840
   11        0.402   0.274   9.164   9.841
   12        0.408   0.268   9.165   9.840
   13        0.402   0.274   9.164   9.841
   14        0.402   0.274   9.164   9.841
   15        0.403   0.269   9.165   9.837
   16        0.408   0.268   9.165   9.840
   17        0.403   0.269   9.165   9.837
   18        0.403   0.269   9.165   9.837
   19        0.405   0.265   9.167   9.838
   20        0.430   0.295   9.149   9.874
   21        0.430   0.295   9.149   9.874
   22        0.395   0.276   9.165   9.836
   23        0.430   0.295   9.149   9.874
   24        0.395   0.276   9.165   9.836
   25        0.405   0.265   9.167   9.838
   26        0.405   0.265   9.167   9.838
   27        0.395   0.276   9.165   9.836
   28        0.420   0.195   9.181   9.796
   29        0.407   0.213   9.180   9.801
   30        0.407   0.213   9.180   9.801
   31        0.407   0.213   9.180   9.801
   32        0.407   0.213   9.180   9.801
   33        0.407   0.213   9.180   9.801
   34        0.407   0.213   9.180   9.801
   35        0.417   0.196   9.182   9.795
   36        0.634   0.715   6.918   8.266
   37        1.359   2.192   0.000   3.550
tot         16.349  11.346 327.881 355.577

  FORCE on cell =-STRESS in cart. coord.  units (eV):
  Direction    XX          YY          ZZ          XY          YZ          ZX
  Alpha Z   746.76635   746.76635   746.76635
  Ewald  121046.39483121046.39486************     0.00002    -0.00000     0.00003
  Hartree131275.62258131275.62259************     0.00001    -0.00000     0.00001
  E(xc)   -2088.21099 -2088.21099 -2093.39508    -0.00001     0.00000     0.00000
  Local  ************************263684.69309     0.00041    -0.00005    -0.00015
  n-local  -328.33752  -309.12267  -310.27202    11.75140    -0.35131     0.55089
  augment  3269.91821  3269.91840  3266.53382    -0.00017    -0.00001     0.00005
  Kinetic  4961.86054  4963.86749  4958.88009     4.09993     1.12024    -0.41731
  Fock        0.00000     0.00000     0.00000     0.00000     0.00000     0.00000
  Total      -6.20353    -6.20353    -0.15505    -0.00000     0.00000     0.00000
  in kB      -6.69548    -6.69548    -0.16735    -0.00000     0.00000     0.00000

 VOLUME and BASIS-vectors are now :
  energy-cutoff  :      500.00
  volume of cell :     1484.46
      direct lattice vectors                 reciprocal lattice vectors
     8.791366577  0.000000000  0.000000000     0.113747958 -0.065672414  0.000000000
     4.395683289  7.613546790  0.000000000     0.000000000  0.131344829  0.000000000
     0.000000000  0.000000000 22.178121567     0.000000000  0.000000000  0.045089481

  length of vectors
     8.791366577  8.791366577 22.178121567     0.131344829  0.131344829  0.045089481

 FORCES acting on ions
    electron-ion (+dipol)            ewald-force                    non-local-force                 convergence-correction
   0.459E-04 -.283E-04 0.251E+04   -.954E-04 0.593E-04 -.251E+04   -.964E-18 -.534E-17 -.184E+01   -.106E-03 -.168E-03 -.499E-01
   0.378E+00 0.417E+00 0.251E+04   -.398E+00 -.494E+00 -.251E+04   0.136E-01 0.827E-01 -.166E+01   0.116E-01 -.134E-02 -.370E-01
   -.378E+00 0.417E+00 0.251E+04   0.398E+00 -.494E+00 -.251E+04   -.136E-01 0.827E-01 -.166E+01   -.121E-01 0.589E-03 -.363E-01
   0.550E+00 0.119E+00 0.251E+04   -.627E+00 -.973E-01 -.251E+04   0.784E-01 -.296E-01 -.166E+01   0.484E-02 0.109E-01 -.369E-01
   -.623E-05 -.191E-04 0.251E+04   0.981E-04 -.198E-05 -.251E+04   0.124E-17 -.611E-19 -.163E+01   0.624E-02 0.381E-02 0.322E-01
   -.550E+00 0.119E+00 0.251E+04   0.627E+00 -.973E-01 -.251E+04   -.784E-01 -.296E-01 -.166E+01   -.624E-02 0.118E-01 -.361E-01
   0.172E+00 -.536E+00 0.251E+04   -.229E+00 0.592E+00 -.251E+04   0.649E-01 -.531E-01 -.166E+01   -.511E-02 -.103E-01 -.362E-01
   -.172E+00 -.536E+00 0.251E+04   0.229E+00 0.592E+00 -.251E+04   -.649E-01 -.531E-01 -.166E+01   0.675E-02 -.113E-01 -.361E-01
   0.360E-04 -.132E-04 0.251E+04   0.792E-04 -.643E-04 -.251E+04   0.106E-17 -.950E-18 -.168E+01   -.666E-02 -.344E-02 -.713E-02
   0.446E+01 0.257E+01 0.850E+03   -.423E+01 -.244E+01 -.850E+03   -.262E+00 -.151E+00 -.618E+00   0.937E-02 0.544E-02 0.717E-01
   -.289E-04 0.507E+01 0.856E+03   0.412E-04 -.520E+01 -.856E+03   0.792E-12 0.121E+00 -.490E+00   0.629E-02 -.244E-01 0.864E-01
   -.446E+01 0.257E+01 0.850E+03   0.423E+01 -.244E+01 -.850E+03   0.262E+00 -.151E+00 -.618E+00   -.109E-01 0.651E-02 0.716E-01
   0.439E+01 -.254E+01 0.856E+03   -.450E+01 0.260E+01 -.856E+03   0.104E+00 -.603E-01 -.490E+00   -.181E-01 0.177E-01 0.864E-01
   -.439E+01 -.254E+01 0.856E+03   0.450E+01 0.260E+01 -.856E+03   -.104E+00 -.603E-01 -.490E+00   0.288E-01 0.169E-01 0.857E-01
   0.159E-04 0.628E+00 0.850E+03   -.108E-03 -.692E+00 -.850E+03   0.127E-13 0.193E-02 -.591E+00   -.165E-02 0.421E-01 0.132E-01
   -.800E-05 -.515E+01 0.850E+03   0.206E-04 0.488E+01 -.850E+03   0.198E-11 0.302E+00 -.618E+00   0.121E-03 -.128E-01 0.716E-01
   0.544E+00 -.314E+00 0.850E+03   -.599E+00 0.346E+00 -.850E+03   0.167E-02 -.966E-03 -.591E+00   0.356E-01 -.225E-01 0.132E-01
   -.544E+00 -.314E+00 0.850E+03   0.599E+00 0.346E+00 -.850E+03   -.167E-02 -.966E-03 -.591E+00   -.356E-01 -.206E-01 0.138E-01
   0.402E-04 0.656E+00 -.837E+03   -.128E-03 -.533E+00 0.836E+03   -.377E-12 -.574E-01 0.562E+00   -.405E-03 -.539E-01 0.256E-01
   0.112E+02 0.644E+01 -.809E+03   -.104E+02 -.600E+01 0.809E+03   -.917E+00 -.529E+00 -.481E+00   -.871E-02 -.499E-02 0.232E-01
   -.112E+02 0.644E+01 -.809E+03   0.104E+02 -.600E+01 0.809E+03   0.917E+00 -.529E+00 -.481E+00   0.865E-02 -.463E-02 0.228E-01
   0.344E+01 -.198E+01 -.829E+03   -.372E+01 0.215E+01 0.828E+03   0.301E+00 -.174E+00 0.693E+00   -.353E-02 0.235E-02 0.252E-02
   -.557E-04 -.129E+02 -.809E+03   0.430E-04 0.120E+02 0.809E+03   0.695E-11 0.106E+01 -.481E+00   0.649E-03 0.105E-01 0.228E-01
   -.344E+01 -.198E+01 -.829E+03   0.372E+01 0.215E+01 0.828E+03   -.301E+00 -.174E+00 0.693E+00   0.357E-02 0.216E-02 0.266E-02
   -.568E+00 -.328E+00 -.837E+03   0.461E+00 0.267E+00 0.836E+03   0.497E-01 0.287E-01 0.562E+00   0.472E-01 0.271E-01 0.252E-01
   0.568E+00 -.328E+00 -.837E+03   -.461E+00 0.266E+00 0.836E+03   -.497E-01 0.287E-01 0.562E+00   -.472E-01 0.265E-01 0.256E-01
   0.205E-04 0.397E+01 -.829E+03   0.110E-03 -.429E+01 0.828E+03   0.228E-11 0.347E+00 0.693E+00   -.396E-03 -.426E-02 0.258E-02
   0.540E-04 -.370E-04 -.249E+04   -.116E-03 0.780E-04 0.248E+04   0.435E-17 0.461E-17 0.192E+01   0.623E-04 -.100E-03 0.733E-01
   0.187E+02 0.328E+02 -.248E+04   -.185E+02 -.326E+02 0.248E+04   -.344E+00 -.488E+00 0.220E+01   0.256E-01 0.641E-01 -.490E-02
   -.187E+02 0.328E+02 -.248E+04   0.185E+02 -.326E+02 0.248E+04   0.344E+00 -.488E+00 0.220E+01   -.262E-01 0.657E-01 -.487E-02
   0.377E+02 -.230E+00 -.248E+04   -.375E+02 0.305E+00 0.248E+04   -.595E+00 -.540E-01 0.220E+01   0.686E-01 -.975E-02 -.488E-02
   -.377E+02 -.230E+00 -.248E+04   0.375E+02 0.305E+00 0.248E+04   0.595E+00 -.540E-01 0.220E+01   -.695E-01 -.888E-02 -.483E-02
   0.191E+02 -.325E+02 -.248E+04   -.190E+02 0.323E+02 0.248E+04   -.251E+00 0.542E+00 0.220E+01   0.443E-01 -.550E-01 -.490E-02
   -.191E+02 -.325E+02 -.248E+04   0.190E+02 0.323E+02 0.248E+04   0.251E+00 0.542E+00 0.220E+01   -.428E-01 -.557E-01 -.488E-02
   0.227E-04 -.120E-04 -.249E+04   0.106E-03 -.660E-04 0.249E+04   0.574E-17 0.236E-17 0.202E+01   -.656E-02 -.336E-02 0.557E-01
   -.261E-07 -.139E-04 -.155E+04   0.767E-04 0.950E-05 0.156E+04   -.141E-16 0.313E-18 -.953E+01   0.214E-02 0.130E-02 -.671E-01
   0.106E-03 -.589E-04 -.141E+04   0.255E-04 0.408E-06 0.143E+04   0.232E-17 0.215E-18 -.225E+02   0.173E-02 0.106E-02 -.170E+00
   0.491E-03 -.744E-03 0.326E+02   -.536E-15 0.119E-13 -.273E-11   0.495E-16 0.447E-15 -.328E+02   0.101E-01 0.909E-02 0.286E+00

 POSITION                                       TOTAL-FORCE (eV/Angst)
      0.00000      0.00000      5.28219        -0.000000      0.000000     -0.003095
      2.93046      0.00000      5.28219         0.006069      0.004988      0.039479
      5.86091      0.00000      5.28219        -0.006069      0.004988      0.039479
      1.46523      2.53785      5.28219         0.007354      0.002761      0.039479
      4.39568      2.53785      5.28219        -0.000000      0.000000      0.009958
      7.32614      2.53785      5.28219        -0.007354      0.002761      0.039479
      2.93046      5.07570      5.28219         0.001286     -0.007750      0.039479
      5.86091      5.07570      5.28219        -0.001286     -0.007750      0.039479
      8.79137      5.07570      5.28219        -0.000000      0.000000      0.031955
      1.46523      0.84595      7.67490        -0.017441     -0.010069     -0.011314
      4.39568      0.84595      7.67490        -0.000000     -0.035148     -0.056388
      7.32614      0.84595      7.67490         0.017441     -0.010069     -0.011314
      2.93046      3.38380      7.67490        -0.030439      0.017574     -0.056388
      5.86091      3.38380      7.67490         0.030439      0.017574     -0.056388
      8.79137      3.38380      7.67490        -0.000000     -0.020053      0.007045
      4.39568      5.92165      7.67490         0.000000      0.020139     -0.011314
      7.32614      5.92165      7.67490        -0.017367      0.010027      0.007045
     10.25659      5.92165      7.67490         0.017367      0.010027      0.007045
      8.79137      1.69450     10.06282         0.000000      0.011190     -0.008560
      2.93652      1.69540     10.03056        -0.165641     -0.095633     -0.186025
      5.85484      1.69540     10.03056         0.165641     -0.095633     -0.186025
     10.25378      4.23137     10.05553         0.015007     -0.008664     -0.007800
      4.39568      4.22274     10.03056         0.000000      0.191266     -0.186025
      7.32895      4.23137     10.05553        -0.015007     -0.008664     -0.007800
     11.71957      6.76630     10.06282        -0.009691     -0.005595     -0.008560
      5.86316      6.76630     10.06282         0.009691     -0.005595     -0.008560
      8.79137      6.76435     10.05553         0.000000      0.017329     -0.007800
      0.00000      0.00000     12.42400        -0.000000      0.000000      0.027722
      2.95387      0.04433     12.43748        -0.137512     -0.260458     -0.130121
      5.83749      0.04433     12.43748         0.137512     -0.260458     -0.130121
      1.51533      2.53597     12.43748        -0.294319      0.011141     -0.130121
      7.27604      2.53597     12.43748         0.294319      0.011141     -0.130121
      2.95713      5.03325     12.43748        -0.156808      0.249318     -0.130121
      5.83423      5.03325     12.43748         0.156808      0.249318     -0.130121
      8.79137      5.07570     12.42069        -0.000000      0.000000      0.033074
      4.39568      2.53785     12.23056        -0.000000      0.000000      1.246854
      4.39568      2.53785     13.87308        -0.000000      0.000000     -0.013488
    total drift:                                0.010564      0.008350      0.082021

  FREE ENERGIE OF THE ION-ELECTRON SYSTEM (eV)
  free  energy   TOTEN  =      -104.23181189 eV

  energy  without entropy=     -104.23181189  energy(sigma->0) =     -104.23181189

 stress matrix after NEB project (eV)
     -6.20353     -0.00000      0.00000
     -0.00000     -6.20353     -0.00000
      0.00000      0.00000     -0.15505
  FORCES: max atom, RMS     0.013488    0.002217
  FORCE total and by dimension    0.013488    0.013488
  Stress total and by dimension    8.774493    6.203535
|           W    W    AA    RRRRR   N    N  II  N    N   GGGG   !!!           |
|           W    W   A  A   R    R  NN   N  II  NN   N  G    G  !!!           |
|           W    W  A    A  R    R  N N  N  II  N N  N  G       !!!           |
|           W WW W  AAAAAA  RRRRR   N  N N  II  N  N N  G  GGG   !            |
|           WW  WW  A    A  R   R   N   NN  II  N   NN  G    G                |
|           W    W  A    A  R    R  N    N  II  N    N   GGGG   !!!           |
|     Tetrahedron method does not include variations of the Fermi             |
|     occupations, so forces and stress will be inaccurate. We suggest        |
|     using a different smearing scheme ISMEAR = 1 or 2 for metals in         |
|     relaxations.                                                            |

 total charge

# of ion       s       p       d       tot
    1        0.419   0.201   9.178   9.798
    2        0.415   0.204   9.177   9.796
    3        0.415   0.204   9.177   9.796
    4        0.415   0.204   9.177   9.796
    5        0.421   0.201   9.177   9.799
    6        0.415   0.204   9.177   9.796
    7        0.415   0.204   9.177   9.796
    8        0.415   0.204   9.177   9.796
    9        0.413   0.205   9.176   9.794
   10        0.408   0.268   9.165   9.840
   11        0.402   0.274   9.164   9.841
   12        0.408   0.268   9.165   9.840
   13        0.402   0.274   9.164   9.841
   14        0.402   0.274   9.164   9.841
   15        0.403   0.269   9.165   9.837
   16        0.408   0.268   9.165   9.840
   17        0.403   0.269   9.165   9.837
   18        0.403   0.269   9.165   9.837
   19        0.405   0.265   9.167   9.838
   20        0.430   0.295   9.149   9.874
   21        0.430   0.295   9.149   9.874
   22        0.395   0.276   9.165   9.836
   23        0.430   0.295   9.149   9.874
   24        0.395   0.276   9.165   9.836
   25        0.405   0.265   9.167   9.838
   26        0.405   0.265   9.167   9.838
   27        0.395   0.276   9.165   9.836
   28        0.420   0.195   9.181   9.796
   29        0.407   0.213   9.180   9.801
   30        0.407   0.213   9.180   9.801
   31        0.407   0.213   9.180   9.801
   32        0.407   0.213   9.180   9.801
   33        0.407   0.213   9.180   9.801
   34        0.407   0.213   9.180   9.801
   35        0.417   0.196   9.182   9.795
   36        0.634   0.715   6.918   8.266
   37        1.359   2.192   0.000   3.550
tot         16.349  11.346 327.881 355.577

 BZINTS: Fermi energy:    0.859461;  398.000000 electrons
         Band energy:-0.129460E+04;  BLOECHL correction:   -0.083030