 vasp.6.2.0 18Jan21 (build Jun 12 2021 23:27:24) complex

 executed on             LinuxIFC date 2022.05.28  02:24:07

 INCAR:
   ISMEAR = -5
   SIGMA = 0.1
   ISPIN = 1
   EDIFF = 1.d-5
   EDIFFG = -0.01
   NSW = 0
   NELM = 150
   ENCUT = 500
   ISIF = 2
   IBRION = 2
   LREAL = Auto
   ALGO = Fast
   ICHARG = 11
   LORBIT = 10
   LCHARG = .F.
   LWAVE = .F.

 POTCAR:    PAW_PBE Cu 22Jun2005
 POTCAR:    PAW_PBE Co 02Aug2007
 POTCAR:    PAW_PBE O 08Apr2002
 POTCAR:    PAW_PBE H 15Jun2001
|           W    W    AA    RRRRR   N    N  II  N    N   GGGG   !!!           |
|           W    W   A  A   R    R  NN   N  II  NN   N  G    G  !!!           |
|           W    W  A    A  R    R  N N  N  II  N N  N  G       !!!           |
|           W WW W  AAAAAA  RRRRR   N  N N  II  N  N N  G  GGG   !            |
|           WW  WW  A    A  R   R   N   NN  II  N   NN  G    G                |
|           W    W  A    A  R    R  N    N  II  N    N   GGGG   !!!           |
|     For optimal performance we recommend to set                             |
|       NCORE = 2 up to number-of-cores-per-socket                            |
|     This setting can greatly improve the performance of VASP for DFT.       |
|     The default, NCORE=1 might be grossly inefficient on modern             |
|     multi-core architectures or massively parallel machines. Do your        |
|     Unfortunately you need to use the default for GW and RPA                |
|     calculations (for HF NCORE is supported but not extensively tested      |
|     yet).                                                                   |

 POTCAR:    PAW_PBE Cu 22Jun2005
   VRHFIN =Cu: d10 p1

   TITEL  = PAW_PBE Cu 22Jun2005
   POMASS =   63.546; ZVAL   =   11.000    mass and valenz
   ENMAX  =  295.446; ENMIN  =  221.585 eV

 POTCAR:    PAW_PBE Co 02Aug2007
   VRHFIN =Co: d8 s1

   TITEL  = PAW_PBE Co 02Aug2007
   POMASS =   58.933; ZVAL   =    9.000    mass and valenz
   ENMAX  =  267.968; ENMIN  =  200.976 eV

 POTCAR:    PAW_PBE O 08Apr2002
   VRHFIN =O: s2p4

   TITEL  = PAW_PBE O 08Apr2002
   POMASS =   16.000; ZVAL   =    6.000    mass and valenz
   ENMAX  =  400.000; ENMIN  =  300.000 eV

 POTCAR:    PAW_PBE H 15Jun2001
   VRHFIN =H: ultrasoft test

   TITEL  = PAW_PBE H 15Jun2001
   POMASS =    1.000; ZVAL   =    1.000    mass and valenz
   ENMAX  =  250.000; ENMIN  =  200.000 eV

 Optimization of the real space projectors (new method)

 maximal supplied QI-value         = 16.25
 optimisation between [QCUT,QGAM] = [ 11.38, 22.75] = [ 36.24,144.96] Ry
 Optimized for a Real-space Cutoff    1.52 Angstroem

   l    n(q)    QCUT    max X(q) W(low)/X(q) W(high)/X(q)  e(spline)
   2      9    11.376     4.610    0.21E-03    0.10E-03    0.26E-06
   2      9    11.376     8.522    0.33E-03    0.16E-03    0.37E-06
   0     10    11.376    51.609    0.62E-04    0.20E-04    0.13E-06
   0     10    11.376    27.747    0.54E-04    0.20E-04    0.13E-06
   1     10    11.376    20.408    0.13E-04    0.99E-04    0.19E-06
   1     10    11.376    13.425    0.12E-04    0.87E-04    0.17E-06
 Optimization of the real space projectors (new method)

[...]

   l    n(q)    QCUT    max X(q) W(low)/X(q) W(high)/X(q)  e(spline)
   0      7    11.387    20.381    0.39E-03    0.13E-02    0.15E-06
   0      7    11.387    15.268    0.42E-03    0.14E-02    0.17E-06
   1      6    11.387     5.964    0.41E-03    0.11E-02    0.17E-06
   1      6    11.387     5.382    0.39E-03    0.87E-03    0.15E-06
 Optimization of the real space projectors (new method)

 maximal supplied QI-value         = 34.20
 optimisation between [QCUT,QGAM] = [ 11.29, 22.57] = [ 35.68,142.71] Ry
 Optimized for a Real-space Cutoff    1.16 Angstroem

   l    n(q)    QCUT    max X(q) W(low)/X(q) W(high)/X(q)  e(spline)
   0      8    11.287    19.460    0.40E-03    0.73E-03    0.16E-06
   0      8    11.287    12.209    0.38E-03    0.70E-03    0.15E-06
   1      7    11.287     4.655    0.22E-03    0.25E-04    0.22E-06
  PAW_PBE Cu 22Jun2005                  :
  PAW_PBE Co 02Aug2007                  :
  PAW_PBE O 08Apr2002                   :
  PAW_PBE H 15Jun2001                   :

 POSCAR: Cu-Co-OOH
  positions in direct lattice
  velocities in cartesian coordinates
 exchange correlation table for  LEXCH =        8
   RHO(1)=    0.500       N(1)  =     2000
   RHO(2)=  100.500       N(2)  =     4000

 VTST: version 3.2, (02/03/18)

 CHAIN: initializing optimizer

 OPT: Using VASP Conjugate-Gradient optimizer
 CHAIN: Read ICHAIN            0

 POSCAR: Cu-Co-OOH
  positions in direct lattice
  velocities in cartesian coordinates

 ion  position               nearest neighbor table
   1  0.000  0.000  0.212-   7 2.57   3 2.57   4 2.57   2 2.57   6 2.57   8 2.57  12 2.57  10 2.57
                            16 2.57
   2  0.333  0.000  0.212-   8 2.57   9 2.57   5 2.57   1 2.57   3 2.57  11 2.57   4 2.57  10 2.57
                            17 2.57
   3  0.667  0.000  0.212-   1 2.57   7 2.57   6 2.57   9 2.57   2 2.57  12 2.57   5 2.57  18 2.57
                            11 2.57
   4  0.000  0.333  0.212-   5 2.57   6 2.57   1 2.57   7 2.57   2 2.57  13 2.57   9 2.57  10 2.57
                            15 2.57
   5  0.333  0.333  0.212-   4 2.57   2 2.57   7 2.57  13 2.57   8 2.57   6 2.57   3 2.57  11 2.57
                            14 2.57
   6  0.667  0.333  0.212-   4 2.57   9 2.57  15 2.57   3 2.57   1 2.57   8 2.57  14 2.57   5 2.57
                            12 2.57
   7  0.000  0.667  0.212-   1 2.57   3 2.57  16 2.57  18 2.57   4 2.57   5 2.57   8 2.57   9 2.57
                            13 2.57
   8  0.333  0.667  0.212-   9 2.57   2 2.57  17 2.57   6 2.57   1 2.57   7 2.57   5 2.57  14 2.57
                            16 2.57
   9  0.667  0.667  0.212-   8 2.57   6 2.57   2 2.57  17 2.57   3 2.57   7 2.57   4 2.57  15 2.57
                            18 2.57
  10  0.111  0.111  0.294-  20 2.55  26 2.56  19 2.56  11 2.57  12 2.57  13 2.57   1 2.57   2 2.57
                             4 2.57  15 2.57  16 2.57  17 2.57
  11  0.444  0.111  0.294-  20 2.55  21 2.55  27 2.56  10 2.57  13 2.57   2 2.57  17 2.57  14 2.57
                            12 2.57   5 2.57   3 2.57  18 2.57
  12  0.778  0.111  0.294-  21 2.55  19 2.56  25 2.56  15 2.57  10 2.57  14 2.57  18 2.57   3 2.57
                             1 2.57  16 2.57  11 2.57   6 2.57
  13  0.111  0.444  0.294-  23 2.55  20 2.55  22 2.56  16 2.57  18 2.57  10 2.57  11 2.57  14 2.57
                             5 2.57   4 2.57   7 2.57  15 2.57
  14  0.444  0.444  0.294-  21 2.55  23 2.55  24 2.56  15 2.57  17 2.57  12 2.57  16 2.57  13 2.57
                            11 2.57   6 2.57   8 2.57   5 2.57
  15  0.778  0.444  0.294-  24 2.56  22 2.56  19 2.56  14 2.57  17 2.57  12 2.57   6 2.57  18 2.57
                            10 2.57   9 2.57  13 2.57   4 2.57
  16  0.111  0.778  0.294-  23 2.55  25 2.56  26 2.56  18 2.57  13 2.57   7 2.57  14 2.57  17 2.57
                            12 2.57  10 2.57   8 2.57   1 2.57
  17  0.444  0.778  0.294-  27 2.56  24 2.56  26 2.56  14 2.57  15 2.57   8 2.57   9 2.57  11 2.57
                            16 2.57  18 2.57  10 2.57   2 2.57
  18  0.778  0.778  0.294-  22 2.56  27 2.56  25 2.56  16 2.57  13 2.57   7 2.57  15 2.57  12 2.57
                            17 2.57   9 2.57   3 2.57  11 2.57
  19  0.889  0.223  0.376-  28 2.54  32 2.56  31 2.56  15 2.56  12 2.56  10 2.56  22 2.56  24 2.56
                            21 2.57  20 2.57  25 2.57  26 2.57
  20  0.222  0.222  0.376-  36 2.46  29 2.55  31 2.55  11 2.55  13 2.55  10 2.55  23 2.56  21 2.56
                            26 2.57  19 2.57  27 2.57  22 2.57
  21  0.555  0.222  0.376-  36 2.46  32 2.55  30 2.55  14 2.55  11 2.55  12 2.55  20 2.56  23 2.56
                            19 2.57  25 2.57  24 2.57  27 2.57
  22  0.889  0.556  0.376-  35 2.54  31 2.55  33 2.55  18 2.56  15 2.56  13 2.56  24 2.56  27 2.56
                            19 2.56  25 2.56  23 2.57  20 2.57
  23  0.222  0.555  0.376-  36 2.46  33 2.55  34 2.55  13 2.55  14 2.55  16 2.55  20 2.56  21 2.56
                            25 2.57  26 2.57  22 2.57  24 2.57
  24  0.556  0.556  0.376-  35 2.54  32 2.55  34 2.55  15 2.56  17 2.56  14 2.56  22 2.56  27 2.56
                            19 2.56  26 2.56  21 2.57  23 2.57
  25  0.889  0.889  0.376-  28 2.54  33 2.56  30 2.56  18 2.56  16 2.56  12 2.56  22 2.56  27 2.56
                            21 2.57  23 2.57  19 2.57  26 2.57
  26  0.223  0.889  0.376-  28 2.54  29 2.56  34 2.56  17 2.56  10 2.56  16 2.56  27 2.56  24 2.56
                            20 2.57  23 2.57  25 2.57  19 2.57
  27  0.556  0.889  0.376-  35 2.54  29 2.55  30 2.55  17 2.56  18 2.56  11 2.56  24 2.56  22 2.56
                            26 2.56  25 2.56  20 2.57  21 2.57
  28  0.000  0.000  0.458-  25 2.54  19 2.54  26 2.54  33 2.58  30 2.58  31 2.58  29 2.58  32 2.58
                            34 2.58
  29  0.333  0.003  0.458-  31 2.54  36 2.54  30 2.55  20 2.55  27 2.55  26 2.56  28 2.58  35 2.58
                            34 2.61
  30  0.664  0.003  0.458-  32 2.54  36 2.54  29 2.55  21 2.55  27 2.55  25 2.56  28 2.58  35 2.58
                            33 2.61
  31  0.003  0.333  0.458-  29 2.54  36 2.54  33 2.55  20 2.55  22 2.55  19 2.56  28 2.58  35 2.58
                            32 2.61
  32  0.664  0.333  0.458-  37 2.01  30 2.54  36 2.54  34 2.55  21 2.55  24 2.55  19 2.56  28 2.58
                            35 2.58  31 2.61
  33  0.003  0.664  0.458-  34 2.54  36 2.54  31 2.55  23 2.55  22 2.55  25 2.56  28 2.58  35 2.58
                            30 2.61
  34  0.333  0.664  0.458-  37 2.02  33 2.54  36 2.54  32 2.55  23 2.55  24 2.55  26 2.56  28 2.58
                            35 2.58  29 2.61
  35  0.667  0.667  0.458-  24 2.54  27 2.54  22 2.54  34 2.58  32 2.58  29 2.58  30 2.58  33 2.58
                            31 2.58
  36  0.333  0.333  0.454-  37 1.76  23 2.46  20 2.46  21 2.46  31 2.54  29 2.54  33 2.54  34 2.54
                            32 2.54  30 2.54
  37  0.423  0.422  0.505-  36 1.76  38 1.84  32 2.01  34 2.02
  38  0.353  0.385  0.572-  39 0.98  37 1.84
  39  0.486  0.340  0.587-  38 0.98

  LATTYP: Found a hexagonal cell.
 ALAT       =     7.6967864036
 C/A-ratio  =     3.2973366172

  Lattice vectors:

 A1 = (  -3.8483927580,  -6.6656128093,   0.0000000000)
 A2 = (   7.6967864037,   0.0000000000,   0.0000000000)
 A3 = (   0.0000000000,   0.0000000000,  25.3788956434)

Analysis of symmetry for initial positions (statically):
 Subroutine PRICEL returns:
 Original cell was already a primitive cell.

 Routine SETGRP: Setting up the symmetry group for a
 hexagonal supercell.

 Subroutine GETGRP returns: Found  1 space group operations
 (whereof  1 operations were pure point group operations)
 out of a pool of 24 trial point group operations.

The static configuration has the point symmetry C_1 .

Analysis of symmetry for dynamics (positions and initial velocities):
 Subroutine PRICEL returns:
 Original cell was already a primitive cell.

[...]

The dynamic configuration has the point symmetry C_1 .

Analysis of constrained symmetry for selective dynamics:
 Subroutine PRICEL returns:
[...]
     41      -4.6496      2.00000
     42      -4.6388      2.00000
     43      -4.5969      2.00000
     44      -4.5896      2.00000
     45      -4.5164      2.00000
     46      -4.5065      2.00000
     47      -4.4867      2.00000
     48      -4.4691      2.00000
     49      -4.4632      2.00000
     50      -4.4518      2.00000
     51      -4.3913      2.00000
     52      -4.2727      2.00000
     53      -4.2568      2.00000
     54      -4.2442      2.00000
     55      -4.2414      2.00000
     56      -4.1875      2.00000
     57      -4.1784      2.00000
     58      -4.1685      2.00000
     59      -4.1508      2.00000
     60      -4.1312      2.00000
[...]
    238       4.9712      0.00000
    239       5.0577      0.00000
    240       5.2881      0.00000
    241       5.3394      0.00000
    242       5.4192      0.00000
    243       5.5925      0.00000
    244       5.6682      0.00000
    245       5.7766      0.00000
    246       5.8475      0.00000
    247       5.8884      0.00000
    248       5.9458      0.00000
    249       6.0775      0.00000
    250       6.2744      0.00000
    251       6.3187      0.00000
    252       6.4772      0.00000

 soft charge-density along one line, spin component           1
         0         1         2         3         4         5         6         7         8         9
 total charge-density along one line

------------------------ aborting loop because EDIFF is reached ----------------------------------------

 total charge

# of ion       s       p       d       tot
    1        0.448   0.284   9.190   9.922
    2        0.449   0.286   9.184   9.919
    3        0.449   0.284   9.187   9.920
    4        0.449   0.286   9.184   9.919
    5        0.448   0.286   9.184   9.918
    6        0.447   0.284   9.188   9.920
    7        0.449   0.284   9.187   9.920
    8        0.448   0.284   9.188   9.920
    9        0.446   0.284   9.187   9.918
   10        0.444   0.370   9.176   9.990
   11        0.443   0.368   9.181   9.992
   12        0.440   0.372   9.179   9.990
   13        0.442   0.368   9.182   9.992
   14        0.442   0.369   9.182   9.993
   15        0.440   0.369   9.180   9.990
   16        0.440   0.371   9.179   9.991
   17        0.440   0.368   9.180   9.989
   18        0.441   0.368   9.181   9.990
   19        0.440   0.374   9.179   9.993
   20        0.462   0.385   9.169  10.015
   21        0.450   0.389   9.176  10.015
   22        0.437   0.372   9.184   9.993
   23        0.450   0.389   9.176  10.015
   24        0.437   0.378   9.179   9.995
   25        0.440   0.370   9.180   9.990
   26        0.440   0.374   9.178   9.993
   27        0.437   0.372   9.185   9.993
   28        0.449   0.280   9.199   9.928
   29        0.451   0.292   9.183   9.926
   30        0.441   0.285   9.198   9.925
   31        0.451   0.292   9.183   9.927
   32        0.431   0.344   9.178   9.952
   33        0.440   0.284   9.199   9.923
   34        0.428   0.342   9.176   9.946
   35        0.442   0.282   9.199   9.922
   36        0.461   0.476   7.375   8.312
   37        1.603   3.246   0.000   4.849
   38        1.601   3.313   0.000   4.914
   39        0.625   0.114   0.000   0.739
tot         19.824  18.837 328.796 367.458

  FORCE on cell =-STRESS in cart. coord.  units (eV):
  Direction    XX          YY          ZZ          XY          YZ          ZX
  Alpha Z   757.32900   757.32900   757.32900
  Ewald  259665.09146259571.77407************    -7.10696   -57.70959   -66.47959
  Hartree272475.86706272450.34987************    -1.30440   -42.48569   -78.15570
  E(xc)   -2355.00262 -2355.34028 -2359.27810    -0.05956    -0.05876     0.09751
  Local  ************************544994.53182     4.56638    96.72432   151.09844
  n-local  -811.64758  -814.10157  -820.53666     1.47875    -0.57320    -1.54058
  augment  3475.86262  3479.02632  3488.43370    -1.11050    -1.16072    -2.90851
  Kinetic  3469.82715  3490.93488  3486.84826     3.81070     5.64275    -1.71024
  Fock        0.00000     0.00000     0.00000     0.00000     0.00000     0.00000
  Total      -5.17687    -5.93036     0.86780     0.27441     0.37912     0.40133
  in kB      -6.37023    -7.29742     1.06785     0.33766     0.46651     0.49384

 VOLUME and BASIS-vectors are now :
  energy-cutoff  :      500.00
  volume of cell :     1302.03
      direct lattice vectors                 reciprocal lattice vectors
     7.696786404  0.000000000  0.000000000     0.129924354 -0.075011849  0.000000000
     3.848392758  6.665612809  0.000000000     0.000000000  0.150023716  0.000000000
     0.000000000  0.000000000 25.378895643     0.000000000  0.000000000  0.039402818

  length of vectors
     7.696786404  7.696786404 25.378895643     0.150023716  0.150023716  0.039402818

 FORCES acting on ions
    electron-ion (+dipol)            ewald-force                    non-local-force                 convergence-correction
   0.146E+00 0.947E-01 0.392E+04   0.748E-01 0.436E-01 -.392E+04   -.159E+00 -.959E-01 -.254E+01   -.278E-01 -.240E-01 -.411E+00
   -.960E-01 0.232E+00 0.392E+04   -.274E+00 -.226E+00 -.392E+04   0.186E+00 0.636E-01 -.165E+01   0.165E+00 -.391E-01 -.290E+00
   -.852E-01 0.504E+00 0.392E+04   0.199E+00 -.511E+00 -.392E+04   0.478E-02 0.694E-03 -.193E+01   -.134E+00 0.183E-02 -.387E+00
   0.146E+00 -.165E+00 0.392E+04   -.334E+00 -.127E+00 -.392E+04   0.154E+00 0.117E+00 -.168E+01   0.511E-01 0.143E+00 -.310E+00
   0.353E+00 0.220E+00 0.392E+04   -.288E+00 -.169E+00 -.392E+04   -.147E+00 -.823E-01 -.184E+01   0.715E-01 0.275E-01 -.345E+00
   -.511E+00 0.202E+00 0.392E+04   0.622E+00 -.206E+00 -.392E+04   -.992E-02 -.988E-01 -.221E+01   -.106E+00 0.983E-01 -.466E+00
   0.388E+00 -.344E+00 0.392E+04   -.343E+00 0.431E+00 -.392E+04   0.332E-02 -.103E-03 -.190E+01   -.594E-01 -.996E-01 -.391E+00
   -.987E-01 -.559E+00 0.392E+04   0.135E+00 0.643E+00 -.392E+04   -.856E-01 0.431E-01 -.219E+01   0.419E-01 -.129E+00 -.447E+00
   -.150E+00 -.972E-01 0.392E+04   0.208E+00 0.123E+00 -.392E+04   -.189E-01 -.194E-01 -.217E+01   -.381E-01 -.707E-02 -.331E+00
   0.263E+01 0.150E+01 0.139E+04   -.249E+01 -.145E+01 -.139E+04   -.321E+00 -.147E+00 -.104E+01   0.166E+00 0.824E-01 -.219E+00
   0.134E+01 0.457E+01 0.140E+04   -.123E+01 -.459E+01 -.140E+04   -.115E-01 0.278E-01 -.291E+00   -.840E-01 -.373E-01 -.190E+00
   -.399E+01 0.317E+01 0.139E+04   0.371E+01 -.320E+01 -.139E+04   0.327E+00 -.614E-01 -.827E+00   -.675E-01 0.802E-01 -.189E+00
   0.458E+01 -.109E+01 0.140E+04   -.458E+01 0.122E+01 -.140E+04   0.413E-01 -.427E-01 -.271E+00   -.559E-01 -.603E-01 -.178E+00
   -.231E+01 -.134E+01 0.140E+04   0.248E+01 0.142E+01 -.140E+04   -.158E+00 -.732E-01 -.835E+00   -.679E-03 0.283E-03 -.190E+00
   -.212E+01 0.130E+00 0.139E+04   0.210E+01 -.362E+00 -.139E+04   -.264E-01 0.104E+00 -.804E+00   0.436E-01 0.138E+00 -.272E+00
   0.724E+00 -.506E+01 0.139E+04   -.905E+00 0.483E+01 -.139E+04   0.118E+00 0.314E+00 -.801E+00   0.496E-01 -.905E-01 -.180E+00
   -.957E+00 -.191E+01 0.139E+04   0.745E+00 0.202E+01 -.139E+04   0.724E-01 -.982E-01 -.799E+00   0.142E+00 -.167E-01 -.274E+00
   0.778E-01 0.231E-02 0.139E+04   0.160E+00 0.115E+00 -.139E+04   -.621E-01 -.294E-01 -.717E+00   -.146E+00 -.717E-01 -.259E+00
   -.112E+02 0.620E+01 -.116E+04   0.109E+02 -.625E+01 0.116E+04   0.221E+00 0.142E-01 0.558E+00   -.366E-01 0.681E-01 0.119E+00
   0.146E+02 0.866E+01 -.115E+04   -.139E+02 -.819E+01 0.115E+04   -.104E+01 -.641E+00 -.128E+01   0.257E+00 0.120E+00 0.213E+00
   -.369E+01 0.205E+02 -.112E+04   0.326E+01 -.202E+02 0.112E+04   0.648E+00 -.383E+00 -.316E+00   -.225E+00 0.782E-01 0.344E+00
   0.115E+01 -.160E+01 -.116E+04   -.151E+01 0.175E+01 0.116E+04   0.247E+00 -.196E+00 0.822E+00   0.150E+00 0.514E-02 0.237E-01
   0.157E+02 -.134E+02 -.112E+04   -.157E+02 0.129E+02 0.112E+04   -.247E-01 0.734E+00 -.286E+00   -.327E-01 -.216E+00 0.371E+00
   -.169E+02 -.983E+01 -.114E+04   0.172E+02 0.996E+01 0.114E+04   -.241E+00 -.144E+00 0.607E+00   -.561E-01 -.873E-02 0.135E+00
   0.104E+01 0.491E+00 -.117E+04   -.897E+00 -.394E+00 0.117E+04   -.473E-01 -.374E-01 0.871E+00   -.694E-01 -.505E-01 0.180E+00
   -.344E+00 -.128E+02 -.116E+04   0.170E+00 0.126E+02 0.116E+04   0.119E+00 0.219E+00 0.514E+00   0.545E-01 -.787E-01 0.128E+00
   -.744E+00 0.161E+01 -.116E+04   0.743E+00 -.203E+01 0.116E+04   -.700E-01 0.335E+00 0.844E+00   0.511E-01 0.136E+00 0.145E-01
   -.109E+02 -.642E+01 -.373E+04   0.108E+02 0.637E+01 0.373E+04   0.243E+00 0.156E+00 0.239E+01   -.795E-01 -.747E-01 0.448E+00
   0.139E+02 0.930E+01 -.373E+04   -.137E+02 -.894E+01 0.373E+04   -.335E+00 -.536E+00 0.222E+01   0.129E+00 0.129E+00 0.256E+00
   -.286E+01 0.706E+02 -.371E+04   0.268E+01 -.724E+02 0.371E+04   0.264E+00 0.112E+01 0.309E+01   -.586E-01 0.278E+00 0.307E+00
   0.155E+02 0.825E+01 -.373E+04   -.151E+02 -.832E+01 0.373E+04   -.653E+00 -.102E-01 0.220E+01   0.206E+00 0.504E-01 0.269E+00
   -.170E+03 0.644E+02 -.360E+04   0.174E+03 -.657E+02 0.360E+04   -.249E+01 0.960E+00 0.333E+01   -.410E+00 0.102E+00 0.480E+00
   0.601E+02 -.391E+02 -.371E+04   -.618E+02 0.399E+02 0.371E+04   0.115E+01 -.393E+00 0.316E+01   0.242E+00 -.201E+00 0.306E+00
   -.298E+02 -.179E+03 -.360E+04   0.305E+02 0.183E+03 0.360E+04   -.520E+00 -.262E+01 0.328E+01   -.129E+00 -.380E+00 0.473E+00
   -.372E+02 -.221E+02 -.373E+04   0.377E+02 0.224E+02 0.372E+04   -.168E+00 -.119E+00 0.291E+01   -.105E+00 -.440E-01 0.347E+00
   0.145E+03 0.849E+02 -.277E+04   -.147E+03 -.857E+02 0.277E+04   0.862E+00 0.585E+00 0.466E-01   0.192E+00 0.130E+00 0.281E+00
   -.296E+02 -.110E+02 -.245E+04   0.359E+02 0.147E+02 0.247E+04   -.613E+01 -.361E+01 -.144E+02   -.228E+00 -.109E+00 0.180E+00
   0.946E+02 0.474E+01 -.230E+04   -.132E+03 0.632E+01 0.230E+04   0.370E+02 -.111E+02 0.710E+01   0.927E-01 0.144E-01 -.787E-01
   -.705E+02 0.290E+02 -.396E+03   0.775E+02 -.315E+02 0.399E+03   -.693E+01 0.246E+01 -.324E+01   -.478E-01 0.206E-01 -.231E-01
   -.219E+02 0.133E+02 0.105E+02   -.568E-13 0.213E-13 0.176E-11   0.220E+02 -.132E+02 -.101E+02   -.928E-01 -.328E-01 -.555E+00

 POSITION                                       TOTAL-FORCE (eV/Angst)
      0.00000      0.00000      5.37156         0.033183      0.018901      0.040955
      2.56560      0.00000      5.37156        -0.019609      0.030639      0.066379
      5.13119      0.00000      5.37156        -0.016203     -0.004060      0.078951
      1.28280      2.22187      5.37156         0.016812     -0.031343      0.067142
      3.84839      2.22187      5.37156        -0.011822     -0.004237      0.062352
      6.41399      2.22187      5.37156        -0.005291     -0.004491      0.074354
      2.56560      4.44374      5.37156        -0.011756     -0.012115      0.081473
      5.13119      4.44374      5.37156        -0.008298     -0.001081      0.071306
      7.69679      4.44374      5.37156         0.000643     -0.000603      0.035039
      1.28280      0.74062      7.46636        -0.008992     -0.006201     -0.060091
      3.84839      0.74062      7.46636         0.013890     -0.032476     -0.086839
      6.41399      0.74062      7.46636        -0.015292     -0.008906     -0.053035
      2.56560      2.96249      7.46636        -0.019532      0.028996     -0.085564
      5.13119      2.96249      7.46636         0.014116      0.006704     -0.148309
      7.69679      2.96249      7.46636        -0.006565      0.010657     -0.060400
      3.84839      5.18437      7.46636        -0.014982     -0.003164     -0.055599
      6.41399      5.18437      7.46636         0.002098     -0.006055     -0.059810
      8.97958      5.18437      7.46636         0.027868      0.016796     -0.031804
      7.69679      1.48420      9.55496        -0.047067      0.033702      0.077674
      2.56664      1.48185      9.54157        -0.068005     -0.042466     -0.137524
      5.13014      1.48185      9.54157        -0.016745      0.007496     -0.130226
      8.97778      3.70416      9.55304         0.029879     -0.041446     -0.003148
      3.84839      3.70191      9.54157        -0.008000     -0.018639     -0.133981
      6.41579      3.70416      9.55304        -0.039132     -0.021334     -0.034078
     10.25982      5.92351      9.55496         0.021075      0.009052      0.045488
      5.13375      5.92351      9.55496        -0.001645     -0.059987      0.083736
      7.69679      5.92291      9.55304        -0.020334      0.043277     -0.004293
      0.00000      0.00000     11.62172         0.043250      0.030040     -0.034026
      2.57582      0.02145     11.62841        -0.066963     -0.042836     -0.059922
      5.12097      0.02145     11.62841         0.032334     -0.379497     -0.126112
      1.30649      2.22000     11.62841        -0.086302     -0.035860     -0.059596
      6.39030      2.22000     11.62841         0.533379     -0.213271      0.087546
      2.57906      4.42416     11.62841        -0.314794      0.215574     -0.106095
      5.11773      4.42416     11.62841         0.069268      0.512326      0.147465
      7.69679      4.44374     11.62071         0.160152      0.094774     -0.037932
      3.84839      2.22187     11.51210        -0.184117     -0.095964      0.523353
      4.87804      2.81040     12.81757        -0.014808     -0.004475      0.033651
      4.20212      2.56690     14.50775        -0.022169      0.013680     -0.075182
      5.05002      2.26588     14.89720         0.030476     -0.002106      0.006701
    total drift:                                0.035118     -0.018516     -0.132586

  FREE ENERGIE OF THE ION-ELECTRON SYSTEM (eV)
  free  energy   TOTEN  =      -143.36025283 eV

  energy  without entropy=     -143.36025283  energy(sigma->0) =     -143.36025283

 stress matrix after NEB project (eV)
     -5.17687      0.27441      0.40133
      0.27441     -5.93036      0.37912
      0.40133      0.37912      0.86780
  FORCES: max atom, RMS     0.079568    0.014919
  FORCE total and by dimension    0.093171    0.075182
  Stress total and by dimension    7.967585    5.930362
|           W    W    AA    RRRRR   N    N  II  N    N   GGGG   !!!           |
|           W    W   A  A   R    R  NN   N  II  NN   N  G    G  !!!           |
|           W    W  A    A  R    R  N N  N  II  N N  N  G       !!!           |
|           W WW W  AAAAAA  RRRRR   N  N N  II  N  N N  G  GGG   !            |
|           WW  WW  A    A  R   R   N   NN  II  N   NN  G    G                |
|           W    W  A    A  R    R  N    N  II  N    N   GGGG   !!!           |
|     Tetrahedron method does not include variations of the Fermi             |
|     occupations, so forces and stress will be inaccurate. We suggest        |
|     using a different smearing scheme ISMEAR = 1 or 2 for metals in         |
|     relaxations.                                                            |

 total charge

# of ion       s       p       d       tot
    1        0.448   0.284   9.190   9.922
    2        0.449   0.286   9.184   9.919
    3        0.449   0.284   9.187   9.920
    4        0.449   0.286   9.184   9.919
    5        0.448   0.286   9.184   9.918
    6        0.447   0.284   9.188   9.920
    7        0.449   0.284   9.187   9.920
    8        0.448   0.284   9.188   9.920
    9        0.446   0.284   9.187   9.918
   10        0.444   0.370   9.176   9.990
   11        0.443   0.368   9.181   9.992
   12        0.440   0.372   9.179   9.990
   13        0.442   0.368   9.182   9.992
   14        0.442   0.369   9.182   9.993
   15        0.440   0.369   9.180   9.990
   16        0.440   0.371   9.179   9.991
   17        0.440   0.368   9.180   9.989
   18        0.441   0.368   9.181   9.990
   19        0.440   0.374   9.179   9.993
   20        0.462   0.385   9.169  10.015
   21        0.450   0.389   9.176  10.015
   22        0.437   0.372   9.184   9.993
   23        0.450   0.389   9.176  10.015
   24        0.437   0.378   9.179   9.995
   25        0.440   0.370   9.180   9.990
   26        0.440   0.374   9.178   9.993
   27        0.437   0.372   9.185   9.993
   28        0.449   0.280   9.199   9.928
   29        0.451   0.292   9.183   9.926
   30        0.441   0.285   9.198   9.925
   31        0.451   0.292   9.183   9.927
   32        0.431   0.344   9.178   9.952
   33        0.440   0.284   9.199   9.923
   34        0.428   0.342   9.176   9.946
   35        0.442   0.282   9.199   9.922
   36        0.461   0.476   7.375   8.312
   37        1.603   3.246   0.000   4.849
   38        1.601   3.313   0.000   4.914
   39        0.625   0.114   0.000   0.739
tot         19.824  18.837 328.796 367.458

 BZINTS: Fermi energy:   -0.829117;  407.000000 electrons
         Band energy:-0.154150E+04;  BLOECHL correction:   -0.041362