 vasp.6.2.0 18Jan21 (build Jun 12 2021 23:27:24) complex

 executed on             LinuxIFC date 2022.05.26  20:20:08

 INCAR:
   ISMEAR = -5
   SIGMA = 0.1
   ISPIN = 1
   EDIFF = 1.d-5
   EDIFFG = -0.01
   NSW = 0
   NELM = 150
   ENCUT = 500
   ISIF = 2
   IBRION = 2
   LREAL = Auto
   ALGO = Fast
   ICHARG = 11
   LORBIT = 10
   LCHARG = .F.
   LWAVE = .F.

 POTCAR:    PAW_PBE Ag 02Apr2005
 POTCAR:    PAW_PBE Mo 08Apr2002
|           W    W    AA    RRRRR   N    N  II  N    N   GGGG   !!!           |
|           W    W   A  A   R    R  NN   N  II  NN   N  G    G  !!!           |
|           W    W  A    A  R    R  N N  N  II  N N  N  G       !!!           |
|           W WW W  AAAAAA  RRRRR   N  N N  II  N  N N  G  GGG   !            |
|           WW  WW  A    A  R   R   N   NN  II  N   NN  G    G                |
|           W    W  A    A  R    R  N    N  II  N    N   GGGG   !!!           |
|     For optimal performance we recommend to set                             |
|       NCORE = 2 up to number-of-cores-per-socket                            |
|     This setting can greatly improve the performance of VASP for DFT.       |
|     The default, NCORE=1 might be grossly inefficient on modern             |
|     multi-core architectures or massively parallel machines. Do your        |
|     Unfortunately you need to use the default for GW and RPA                |
|     calculations (for HF NCORE is supported but not extensively tested      |
|     yet).                                                                   |

 POTCAR:    PAW_PBE Ag 02Apr2005
   VRHFIN =Ag : s1 d10

   TITEL  = PAW_PBE Ag 02Apr2005
   POMASS =  107.868; ZVAL   =   11.000    mass and valenz
   ENMAX  =  249.844; ENMIN  =  187.383 eV

 POTCAR:    PAW_PBE Mo 08Apr2002
   VRHFIN =Mo: 4p5s4d

   TITEL  = PAW_PBE Mo 08Apr2002
   POMASS =   95.940; ZVAL   =    6.000    mass and valenz
   ENMAX  =  224.584; ENMIN  =  168.438 eV

 Optimization of the real space projectors (new method)

 maximal supplied QI-value         = 15.12
 optimisation between [QCUT,QGAM] = [ 11.34, 22.83] = [ 36.00,145.93] Ry
 Optimized for a Real-space Cutoff    1.43 Angstroem

   l    n(q)    QCUT    max X(q) W(low)/X(q) W(high)/X(q)  e(spline)
   2      9    11.338    53.897    0.16E-03    0.20E-03    0.28E-06
   2      9    11.338    52.416    0.16E-03    0.20E-03    0.29E-06
   0     10    11.338   122.045    0.31E-04    0.76E-04    0.15E-06
   0     10    11.338    73.629    0.30E-04    0.72E-04    0.15E-06
   1      9    11.338    15.255    0.20E-03    0.19E-04    0.17E-06
   1      9    11.338     9.562    0.16E-03    0.15E-04    0.14E-06
 Optimization of the real space projectors (new method)

 maximal supplied QI-value         = 13.61
 optimisation between [QCUT,QGAM] = [ 11.43, 22.86] = [ 36.58,146.31] Ry
 Optimized for a Real-space Cutoff    1.56 Angstroem

   l    n(q)    QCUT    max X(q) W(low)/X(q) W(high)/X(q)  e(spline)
   2     10    11.429    80.908    0.27E-03    0.78E-03    0.13E-05
   2     10    11.429    79.000    0.27E-03    0.78E-03    0.13E-05
   0     11    11.429    52.066    0.33E-04    0.97E-04    0.72E-06
   0     11    11.429    24.514    0.27E-04    0.80E-04    0.60E-06
   1     10    11.429    16.033    0.31E-04    0.17E-03    0.36E-06
   1     10    11.429    11.179    0.22E-04    0.13E-03    0.29E-06
  PAW_PBE Ag 02Apr2005                  :
  PAW_PBE Mo 08Apr2002                  :

 POSCAR: Ag-Mo
  positions in direct lattice
  velocities in cartesian coordinates
 exchange correlation table for  LEXCH =        8
   RHO(1)=    0.500       N(1)  =     2000
   RHO(2)=  100.500       N(2)  =     4000

 VTST: version 3.2, (02/03/18)

 CHAIN: initializing optimizer

 OPT: Using VASP Conjugate-Gradient optimizer
 CHAIN: Read ICHAIN            0

 POSCAR: Ag-Mo
  positions in direct lattice
  velocities in cartesian coordinates

 ion  position               nearest neighbor table
   1  0.000  0.000  0.238-   2 2.93   8 2.93   7 2.93   6 2.93   4 2.93  12 2.93  16 2.93  10 2.93
                             3 2.93
   2  0.333  0.000  0.238-   1 2.93   8 2.93   9 2.93   3 2.93   4 2.93   5 2.93  10 2.93  17 2.93
                            11 2.93
   3  0.667  0.000  0.238-   9 2.93   2 2.93   5 2.93  11 2.93   7 2.93  18 2.93   1 2.93   6 2.93
                            12 2.93
   4  0.000  0.333  0.238-   5 2.93   6 2.93   2 2.93   1 2.93   7 2.93  13 2.93  15 2.93   9 2.93
                            10 2.93
   5  0.333  0.333  0.238-   4 2.93   3 2.93   7 2.93   2 2.93   8 2.93  14 2.93  13 2.93  11 2.93
                             6 2.93
   6  0.667  0.333  0.238-   4 2.93   9 2.93   1 2.93  15 2.93   8 2.93  12 2.93   3 2.93   5 2.93
                            14 2.93
   7  0.000  0.667  0.238-   8 2.93   1 2.93   5 2.93   3 2.93   4 2.93  16 2.93  18 2.93  13 2.93
                             9 2.93
   8  0.333  0.667  0.238-   7 2.93   1 2.93   2 2.93   9 2.93   5 2.93  16 2.93   6 2.93  17 2.93
                            14 2.93
   9  0.667  0.667  0.238-   3 2.93   2 2.93   8 2.93   6 2.93  17 2.93   4 2.93  15 2.93   7 2.93
                            18 2.93
  10  0.111  0.111  0.346-  20 2.90  19 2.93  26 2.93  12 2.93  16 2.93  15 2.93  17 2.93  13 2.93
                            11 2.93   2 2.93   1 2.93   4 2.93
  11  0.444  0.111  0.346-  21 2.90  20 2.90  27 2.93  14 2.93  17 2.93  18 2.93   3 2.93  12 2.93
                            13 2.93  10 2.93   5 2.93   2 2.93
  12  0.778  0.111  0.346-  21 2.90  25 2.93  19 2.93  10 2.93  16 2.93  18 2.93  15 2.93  11 2.93
                             1 2.93  14 2.93   6 2.93   3 2.93
  13  0.111  0.444  0.346-  20 2.90  23 2.90  22 2.93  15 2.93  14 2.93  18 2.93  10 2.93  11 2.93
                            16 2.93   4 2.93   5 2.93   7 2.93
  14  0.444  0.444  0.346-  23 2.90  21 2.90  24 2.93  13 2.93  11 2.93  16 2.93   5 2.93  12 2.93
                            17 2.93   8 2.93  15 2.93   6 2.93
  15  0.778  0.444  0.346-  24 2.92  22 2.92  19 2.92  13 2.93  10 2.93  12 2.93  17 2.93  18 2.93
                             4 2.93   6 2.93   9 2.93  14 2.93
  16  0.111  0.778  0.346-  23 2.90  26 2.93  25 2.93  18 2.93  12 2.93  10 2.93  14 2.93  17 2.93
                            13 2.93   7 2.93   8 2.93   1 2.93
  17  0.444  0.778  0.346-  27 2.92  24 2.92  26 2.92  11 2.93  10 2.93   9 2.93  18 2.93  15 2.93
                            16 2.93   2 2.93  14 2.93   8 2.93
  18  0.778  0.778  0.346-  22 2.92  27 2.92  25 2.92  16 2.93  12 2.93  13 2.93  11 2.93  17 2.93
                            15 2.93   7 2.93   3 2.93   9 2.93
  19  0.889  0.222  0.454-  28 2.92  15 2.92  10 2.93  12 2.93  24 2.93  22 2.93  26 2.93  25 2.93
                            20 2.93  21 2.93  32 2.96  31 2.96
  20  0.222  0.222  0.452-  36 2.79  13 2.90  11 2.90  10 2.90  21 2.93  23 2.93  19 2.93  26 2.93
                            27 2.93  22 2.93  31 2.94  29 2.94
  21  0.555  0.222  0.452-  36 2.79  11 2.90  14 2.90  12 2.90  20 2.93  23 2.93  25 2.93  19 2.93
                            27 2.93  24 2.93  30 2.94  32 2.94
  22  0.888  0.556  0.454-  35 2.91  24 2.92  27 2.92  18 2.92  15 2.92  13 2.93  25 2.93  19 2.93
                            23 2.93  20 2.93  33 2.94  31 2.94
  23  0.222  0.555  0.452-  36 2.79  14 2.90  13 2.90  16 2.90  21 2.93  20 2.93  26 2.93  25 2.93
                            22 2.93  24 2.93  34 2.94  33 2.94
  24  0.556  0.556  0.454-  35 2.91  27 2.92  22 2.92  15 2.92  17 2.92  14 2.93  19 2.93  26 2.93
                            23 2.93  21 2.93  32 2.94  34 2.94
  25  0.889  0.889  0.454-  28 2.92  18 2.92  16 2.93  12 2.93  22 2.93  27 2.93  26 2.93  19 2.93
                            23 2.93  21 2.93  33 2.96  30 2.96
  26  0.222  0.889  0.454-  28 2.92  17 2.92  16 2.93  10 2.93  27 2.93  24 2.93  25 2.93  19 2.93
                            23 2.93  20 2.93  34 2.96  29 2.96
  27  0.556  0.888  0.454-  35 2.91  24 2.92  22 2.92  17 2.92  18 2.92  11 2.93  26 2.93  25 2.93
                            20 2.93  21 2.93  29 2.94  30 2.94
  28  0.000  0.000  0.561-  26 2.92  25 2.92  19 2.92  29 2.95  34 2.95  33 2.95  32 2.95  31 2.95
                            30 2.95
  29  0.333  0.005  0.562-  31 2.88  30 2.89  36 2.89  27 2.94  20 2.94  28 2.95  35 2.96  26 2.96
                            34 3.02
  30  0.662  0.005  0.562-  32 2.88  29 2.89  36 2.89  27 2.94  21 2.94  28 2.95  35 2.96  25 2.96
                            33 3.02
  31  0.005  0.333  0.562-  29 2.88  33 2.89  36 2.89  22 2.94  20 2.94  28 2.95  35 2.96  19 2.96
                            32 3.02
  32  0.662  0.333  0.562-  30 2.88  34 2.89  36 2.89  24 2.94  21 2.94  28 2.95  35 2.96  19 2.96
                            31 3.02
  33  0.005  0.662  0.562-  34 2.88  31 2.89  36 2.89  22 2.94  23 2.94  28 2.95  35 2.96  25 2.96
                            30 3.02
  34  0.333  0.662  0.562-  33 2.88  32 2.89  36 2.89  24 2.94  23 2.94  28 2.95  35 2.96  26 2.96
                            29 3.02
  35  0.667  0.667  0.561-  24 2.91  27 2.91  22 2.91  30 2.96  32 2.96  29 2.96  34 2.96  31 2.96
                            33 2.96
  36  0.333  0.333  0.552-  21 2.79  20 2.79  23 2.79  31 2.89  30 2.89  33 2.89  29 2.89  34 2.89
                            32 2.89

  LATTYP: Found a hexagonal cell.
 ALAT       =     8.7913665772
 C/A-ratio  =     2.5227160501

  Lattice vectors:

 A1 = (  -4.3956832886,  -7.6135467898,   0.0000000000)
 A2 = (   8.7913665771,   0.0000000000,   0.0000000000)
 A3 = (   0.0000000000,   0.0000000000,  22.1781215668)

Analysis of symmetry for initial positions (statically):
 Subroutine PRICEL returns:
 Original cell was already a primitive cell.

 Routine SETGRP: Setting up the symmetry group for a
 hexagonal supercell.

 Subroutine GETGRP returns: Found  6 space group operations
 (whereof  6 operations were pure point group operations)
 out of a pool of 24 trial point group operations.

The static configuration has the point symmetry C_3v.

Analysis of symmetry for dynamics (positions and initial velocities):
 Subroutine PRICEL returns:
 Original cell was already a primitive cell.

[...]

The dynamic configuration has the point symmetry C_3v.

Analysis of constrained symmetry for selective dynamics:
 Subroutine PRICEL returns:
 Original cell was already a primitive cell.

 Routine SETGRP: Setting up the symmetry group for a
 hexagonal supercell.

 Subroutine GETGRP returns: Found  6 space group operations
 (whereof  6 operations were pure point group operations)
 out of a pool of 24 trial point group operations.

The constrained configuration has the point symmetry C_3v.

 Subroutine INISYM returns: Found  6 space group operations
 (whereof  6 operations are pure point group operations),
 and found     1 'primitive' translations

                                     Primitive cell

  volume of cell :    1484.4589

  direct lattice vectors                    reciprocal lattice vectors
     8.791366577  0.000000000  0.000000000     0.113747958 -0.065672414  0.000000000
     4.395683289  7.613546790  0.000000000     0.000000000  0.131344829  0.000000000
[...]
     15      -4.7458      2.00000
     16      -4.7437      2.00000
     17      -4.7161      2.00000
     18      -4.7100      2.00000
     19      -4.7027      2.00000
     20      -4.6989      2.00000
     21      -4.6820      2.00000
     22      -4.6554      2.00000
     23      -4.6462      2.00000
     24      -4.6358      2.00000
     25      -4.6141      2.00000
     26      -4.6011      2.00000
     27      -4.5683      2.00000
     28      -4.5633      2.00000
     29      -4.5580      2.00000
     30      -4.5426      2.00000
     31      -4.5319      2.00000
     32      -4.4990      2.00000
     33      -4.4801      2.00000
     34      -4.4501      2.00000
     35      -4.4235      2.00000
     36      -4.4151      2.00000
     37      -4.3751      2.00000
     38      -4.3421      2.00000
     39      -4.3391      2.00000
     40      -4.3347      2.00000
     41      -4.3198      2.00000
     42      -4.3109      2.00000
     43      -4.2115      2.00000
     44      -4.1891      2.00000
     45      -4.1792      2.00000
     46      -4.1757      2.00000
     47      -4.1713      2.00000
     48      -4.1688      2.00000
     49      -4.1580      2.00000
     50      -4.1478      2.00000
     51      -4.1419      2.00000
     52      -4.1345      2.00000
     53      -4.0618      2.00000
     54      -4.0511      2.00000
     55      -4.0444      2.00000
     56      -4.0406      2.00000
     57      -4.0276      2.00000
     58      -4.0116      2.00000
     59      -3.9839      2.00000
     60      -3.9631      2.00000
[...]
    238       7.2229      0.00000
    239       7.2317      0.00000
    240       7.2429      0.00000
    241       7.2872      0.00000
    242       7.2970      0.00000
    243       7.3460      0.00000
    244       7.3934      0.00000
    245       7.5347      0.00000
    246       7.5577      0.00000
    247       7.6111      0.00000
    248       7.6679      0.00000
    249       7.7384      0.00000
    250       7.9543      0.00000
    251       8.0416      0.00000
    252       8.1479      0.00000

 soft charge-density along one line, spin component           1
         0         1         2         3         4         5         6         7         8         9
 total charge-density along one line

------------------------ aborting loop because EDIFF is reached ----------------------------------------

 total charge

# of ion       s       p       d       tot
    1        0.421   0.201   9.177   9.799
    2        0.415   0.203   9.178   9.796
    3        0.415   0.203   9.178   9.796
    4        0.415   0.203   9.178   9.796
    5        0.418   0.202   9.175   9.795
    6        0.415   0.203   9.178   9.796
    7        0.415   0.203   9.178   9.796
    8        0.415   0.203   9.178   9.796
    9        0.417   0.201   9.178   9.796
   10        0.410   0.269   9.161   9.841
   11        0.407   0.267   9.169   9.843
   12        0.410   0.269   9.161   9.841
   13        0.407   0.267   9.169   9.843
   14        0.407   0.267   9.169   9.843
   15        0.405   0.267   9.166   9.837
   16        0.410   0.269   9.161   9.841
   17        0.405   0.267   9.166   9.837
   18        0.405   0.267   9.166   9.837
   19        0.402   0.265   9.167   9.834
   20        0.436   0.304   9.134   9.875
   21        0.436   0.304   9.134   9.875
   22        0.393   0.271   9.168   9.833
   23        0.436   0.304   9.134   9.875
   24        0.393   0.271   9.168   9.833
   25        0.402   0.265   9.167   9.834
   26        0.402   0.265   9.167   9.834
   27        0.393   0.271   9.168   9.833
   28        0.412   0.201   9.175   9.788
   29        0.437   0.218   9.155   9.810
   30        0.437   0.218   9.155   9.810
   31        0.437   0.218   9.155   9.810
   32        0.437   0.218   9.155   9.810
   33        0.437   0.218   9.155   9.810
   34        0.437   0.218   9.155   9.810
   35        0.402   0.202   9.179   9.782
   36        0.389   0.233   4.116   4.738
tot         14.931   8.699 324.890 348.520

  FORCE on cell =-STRESS in cart. coord.  units (eV):
  Direction    XX          YY          ZZ          XY          YZ          ZX
  Alpha Z   742.98322   742.98322   742.98322
  Ewald  119259.94133119259.94122************    -0.00001    -0.00001    -0.00002
  Hartree129286.91805129286.91801************    -0.00001    -0.00000    -0.00001
  E(xc)   -2055.49621 -2055.49620 -2061.61418    -0.00001     0.00000     0.00000
  Local  ************************259784.33636     0.00024    -0.00002    -0.00003
  n-local  -346.26034  -327.03345  -342.47038    10.70944    -0.28574     0.29154
  augment  3227.65654  3227.65670  3241.00455    -0.00013     0.00001     0.00002
  Kinetic  4833.83198  4840.85378  4874.61232     5.21617     0.42484     0.16505
  Fock        0.00000     0.00000     0.00000     0.00000     0.00000     0.00000
  Total      -9.60481    -9.60481     0.28275    -0.00000     0.00000    -0.00000
  in kB     -10.36648   -10.36648     0.30517    -0.00000     0.00000    -0.00000

 VOLUME and BASIS-vectors are now :
  energy-cutoff  :      500.00
  volume of cell :     1484.46
      direct lattice vectors                 reciprocal lattice vectors
     8.791366577  0.000000000  0.000000000     0.113747958 -0.065672414  0.000000000
     4.395683289  7.613546790  0.000000000     0.000000000  0.131344829  0.000000000
     0.000000000  0.000000000 22.178121567     0.000000000  0.000000000  0.045089481

  length of vectors
     8.791366577  8.791366577 22.178121567     0.131344829  0.131344829  0.045089481

 FORCES acting on ions
    electron-ion (+dipol)            ewald-force                    non-local-force                 convergence-correction
   0.460E-04 -.282E-04 0.248E+04   -.953E-04 0.593E-04 -.248E+04   0.158E-18 0.136E-17 -.202E+01   -.832E-04 -.155E-03 0.365E-01
   -.276E+00 0.712E-02 0.248E+04   -.188E-03 -.101E+00 -.248E+04   0.130E+00 0.129E+00 -.154E+01   0.135E+00 -.338E-01 0.638E-01
   0.276E+00 0.711E-02 0.248E+04   0.313E-03 -.101E+00 -.248E+04   -.130E+00 0.129E+00 -.154E+01   -.136E+00 -.319E-01 0.644E-01
   -.132E+00 -.243E+00 0.248E+04   -.879E-01 0.505E-01 -.248E+04   0.177E+00 0.486E-01 -.154E+01   0.384E-01 0.134E+00 0.638E-01
   -.775E-05 -.200E-04 0.248E+04   0.980E-04 -.198E-05 -.248E+04   0.222E-17 0.106E-17 -.125E+01   0.618E-02 0.378E-02 0.204E+00
   0.132E+00 -.243E+00 0.248E+04   0.877E-01 0.504E-01 -.248E+04   -.177E+00 0.486E-01 -.154E+01   -.398E-01 0.135E+00 0.645E-01
   0.144E+00 0.236E+00 0.248E+04   -.877E-01 0.508E-01 -.248E+04   0.463E-01 -.177E+00 -.154E+01   -.949E-01 -.101E+00 0.644E-01
   -.144E+00 0.236E+00 0.248E+04   0.876E-01 0.507E-01 -.248E+04   -.463E-01 -.177E+00 -.154E+01   0.965E-01 -.102E+00 0.645E-01
   0.365E-04 -.131E-04 0.248E+04   0.792E-04 -.643E-04 -.248E+04   -.138E-17 -.592E-18 -.173E+01   -.663E-02 -.341E-02 0.334E-01
   0.142E+01 0.818E+00 0.800E+03   -.103E+01 -.597E+00 -.799E+03   -.431E+00 -.249E+00 -.902E+00   0.596E-01 0.344E-01 -.533E-02
   -.284E-04 0.106E+01 0.798E+03   0.405E-04 -.124E+01 -.798E+03   0.879E-12 0.134E+00 -.186E+00   0.617E-02 -.407E-03 -.165E-02
   -.142E+01 0.818E+00 0.800E+03   0.103E+01 -.597E+00 -.799E+03   0.431E+00 -.249E+00 -.902E+00   -.609E-01 0.351E-01 -.621E-02
   0.916E+00 -.529E+00 0.798E+03   -.107E+01 0.619E+00 -.798E+03   0.116E+00 -.669E-01 -.186E+00   0.262E-02 0.558E-02 -.166E-02
   -.916E+00 -.529E+00 0.798E+03   0.107E+01 0.619E+00 -.798E+03   -.116E+00 -.669E-01 -.186E+00   0.768E-02 0.468E-02 -.334E-02
   0.154E-04 -.382E-01 0.799E+03   -.108E-03 -.200E+00 -.798E+03   0.728E-12 0.111E+00 -.740E+00   -.126E-02 0.107E+00 -.124E-01
   -.816E-05 -.164E+01 0.800E+03   0.205E-04 0.119E+01 -.799E+03   0.327E-11 0.498E+00 -.902E+00   -.939E-04 -.703E-01 -.620E-02
   -.331E-01 0.191E-01 0.799E+03   -.173E+00 0.999E-01 -.798E+03   0.960E-01 -.554E-01 -.740E+00   0.917E-01 -.544E-01 -.124E-01
   0.331E-01 0.191E-01 0.799E+03   0.173E+00 0.100E+00 -.798E+03   -.960E-01 -.554E-01 -.740E+00   -.915E-01 -.529E-01 -.116E-01
   0.391E-04 -.486E+01 -.894E+03   -.125E-03 0.463E+01 0.893E+03   0.782E-12 0.119E+00 0.698E+00   0.108E-02 0.107E+00 0.170E+00
   -.192E+02 -.111E+02 -.907E+03   0.207E+02 0.119E+02 0.908E+03   -.141E+01 -.813E+00 -.132E+01   -.402E-01 -.231E-01 0.130E+00
   0.192E+02 -.111E+02 -.907E+03   -.207E+02 0.119E+02 0.908E+03   0.141E+01 -.813E+00 -.132E+01   0.293E-01 -.236E-01 0.129E+00
   -.126E+02 0.730E+01 -.894E+03   0.124E+02 -.714E+01 0.894E+03   0.304E+00 -.175E+00 0.345E+00   -.113E-01 0.691E-02 0.138E+00
   -.515E-04 0.222E+02 -.907E+03   0.377E-04 -.239E+02 0.908E+03   0.107E-10 0.163E+01 -.132E+01   -.551E-02 0.378E-01 0.129E+00
   0.126E+02 0.730E+01 -.894E+03   -.124E+02 -.714E+01 0.894E+03   -.304E+00 -.175E+00 0.345E+00   0.129E-01 0.754E-02 0.138E+00
   0.421E+01 0.243E+01 -.894E+03   -.401E+01 -.232E+01 0.893E+03   -.103E+00 -.596E-01 0.698E+00   -.930E-01 -.539E-01 0.170E+00
   -.421E+01 0.243E+01 -.894E+03   0.401E+01 -.232E+01 0.893E+03   0.103E+00 -.596E-01 0.698E+00   0.932E-01 -.529E-01 0.170E+00
   0.196E-04 -.146E+02 -.894E+03   0.110E-03 0.143E+02 0.894E+03   0.230E-11 0.351E+00 0.345E+00   -.319E-03 -.132E-01 0.138E+00
   0.536E-04 -.362E-04 -.250E+04   -.113E-03 0.766E-04 0.250E+04   -.157E-16 0.113E-16 0.178E+01   0.292E-03 0.347E-04 0.681E-01
   -.215E+02 -.377E+02 -.251E+04   0.224E+02 0.393E+02 0.251E+04   -.106E+01 -.160E+01 0.111E+01   0.133E+00 0.346E-01 0.130E+00
   0.215E+02 -.377E+02 -.251E+04   -.224E+02 0.393E+02 0.251E+04   0.106E+01 -.160E+01 0.111E+01   -.134E+00 0.354E-01 0.130E+00
   -.434E+02 0.269E+00 -.251E+04   0.452E+02 -.253E+00 0.251E+04   -.192E+01 -.114E+00 0.111E+01   0.966E-01 0.980E-01 0.130E+00
   0.434E+02 0.269E+00 -.251E+04   -.452E+02 -.254E+00 0.251E+04   0.192E+01 -.114E+00 0.111E+01   -.965E-01 0.989E-01 0.131E+00
   -.219E+02 0.374E+02 -.251E+04   0.228E+02 -.390E+02 0.251E+04   -.860E+00 0.172E+01 0.111E+01   -.358E-01 -.133E+00 0.130E+00
   0.219E+02 0.374E+02 -.251E+04   -.228E+02 -.390E+02 0.251E+04   0.860E+00 0.172E+01 0.111E+01   0.370E-01 -.133E+00 0.131E+00
   0.269E-04 -.137E-04 -.250E+04   0.103E-03 -.647E-04 0.250E+04   -.402E-17 -.469E-18 0.211E+01   -.630E-02 -.320E-02 0.155E+00
   -.263E-04 -.350E-05 -.133E+04   0.573E-04 0.696E-05 0.133E+04   0.176E-16 0.247E-17 0.307E+01   0.435E-03 0.268E-03 0.151E+00
   0.294E-03 -.705E-03 0.393E+01   -.434E-13 -.656E-13 -.139E-10   -.653E-15 -.220E-15 -.697E+01   -.579E-02 -.152E-03 0.307E+01

 POSITION                                       TOTAL-FORCE (eV/Angst)
      0.00000      0.00000      5.28219        -0.000000     -0.000000     -0.046263
      2.93046      0.00000      5.28219        -0.010607      0.001759      0.022995
      5.86091      0.00000      5.28219         0.010607      0.001759      0.022995
      1.46523      2.53785      5.28219        -0.003780     -0.010065      0.022995
      4.39568      2.53785      5.28219        -0.000000     -0.000000     -0.000852
      7.32614      2.53785      5.28219         0.003780     -0.010065      0.022995
      2.93046      5.07570      5.28219         0.006827      0.008306      0.022995
      5.86091      5.07570      5.28219        -0.006827      0.008306      0.022995
      8.79137      5.07570      5.28219        -0.000000     -0.000000      0.002175
      1.46523      0.84595      7.67490         0.011392      0.006577     -0.018978
      4.39568      0.84595      7.67490        -0.000000     -0.049665     -0.064972
      7.32614      0.84595      7.67490        -0.011392      0.006577     -0.018978
      2.93046      3.38380      7.67490        -0.043011      0.024833     -0.064972
      5.86091      3.38380      7.67490         0.043011      0.024833     -0.064972
      8.79137      3.38380      7.67490        -0.000000     -0.021081      0.015745
      4.39568      5.92165      7.67490        -0.000000     -0.013154     -0.018978
      7.32614      5.92165      7.67490        -0.018256      0.010540      0.015745
     10.25659      5.92165      7.67490         0.018256      0.010540      0.015745
      8.79137      1.69286     10.06155         0.000000      0.001369      0.001049
      2.93202      1.69280     10.03008         0.002382      0.001375      0.002185
      5.85935      1.69280     10.03008        -0.002382      0.001375      0.002185
     10.25345      4.23157     10.06207         0.004641     -0.002680     -0.006511
      4.39568      4.22795     10.03008        -0.000000     -0.002751      0.002185
      7.32929      4.23157     10.06207        -0.004641     -0.002680     -0.006511
     11.72099      6.76712     10.06155        -0.001186     -0.000684      0.001049
      5.86174      6.76712     10.06155         0.001186     -0.000684      0.001049
      8.79137      6.76396     10.06207         0.000000      0.005359     -0.006511
      0.00000      0.00000     12.43674        -0.000000     -0.000000      0.026407
      2.95191      0.04038     12.46589        -0.003353     -0.004598      0.013570
      5.83946      0.04038     12.46589         0.003353     -0.004598      0.013570
      1.51092      2.53624     12.46589        -0.005659     -0.000605      0.013570
      7.28044      2.53624     12.46589         0.005659     -0.000605      0.013570
      2.95470      5.03693     12.46589        -0.002305      0.005203      0.013570
      5.83667      5.03693     12.46589         0.002305      0.005203      0.013570
      8.79137      5.07570     12.43630        -0.000000     -0.000000      0.018182
      4.39568      2.53785     12.24527        -0.000000     -0.000000     -0.004601
    total drift:                               -0.005497     -0.000857      0.032503

  FREE ENERGIE OF THE ION-ELECTRON SYSTEM (eV)
  free  energy   TOTEN  =       -96.25262786 eV

  energy  without entropy=      -96.25262786  energy(sigma->0) =      -96.25262786

 stress matrix after NEB project (eV)
     -9.60481     -0.00000     -0.00000
     -0.00000     -9.60481      0.00000
      0.00000      0.00000      0.28275
  FORCES: max atom, RMS     0.026407    0.008511
  FORCE total and by dimension    0.051065    0.026407
  Stress total and by dimension   13.586202    9.604815
|           W    W    AA    RRRRR   N    N  II  N    N   GGGG   !!!           |
|           W    W   A  A   R    R  NN   N  II  NN   N  G    G  !!!           |
|           W    W  A    A  R    R  N N  N  II  N N  N  G       !!!           |
|           W WW W  AAAAAA  RRRRR   N  N N  II  N  N N  G  GGG   !            |
|           WW  WW  A    A  R   R   N   NN  II  N   NN  G    G                |
|           W    W  A    A  R    R  N    N  II  N    N   GGGG   !!!           |
|     Tetrahedron method does not include variations of the Fermi             |
|     occupations, so forces and stress will be inaccurate. We suggest        |
|     using a different smearing scheme ISMEAR = 1 or 2 for metals in         |
|     relaxations.                                                            |

 total charge

# of ion       s       p       d       tot
    1        0.421   0.201   9.177   9.799
    2        0.415   0.203   9.178   9.796
    3        0.415   0.203   9.178   9.796
    4        0.415   0.203   9.178   9.796
    5        0.418   0.202   9.175   9.795
    6        0.415   0.203   9.178   9.796
    7        0.415   0.203   9.178   9.796
    8        0.415   0.203   9.178   9.796
    9        0.417   0.201   9.178   9.796
   10        0.410   0.269   9.161   9.841
   11        0.407   0.267   9.169   9.843
   12        0.410   0.269   9.161   9.841
   13        0.407   0.267   9.169   9.843
   14        0.407   0.267   9.169   9.843
   15        0.405   0.267   9.166   9.837
   16        0.410   0.269   9.161   9.841
   17        0.405   0.267   9.166   9.837
   18        0.405   0.267   9.166   9.837
   19        0.402   0.265   9.167   9.834
   20        0.436   0.304   9.134   9.875
   21        0.436   0.304   9.134   9.875
   22        0.393   0.271   9.168   9.833
   23        0.436   0.304   9.134   9.875
   24        0.393   0.271   9.168   9.833
   25        0.402   0.265   9.167   9.834
   26        0.402   0.265   9.167   9.834
   27        0.393   0.271   9.168   9.833
   28        0.412   0.201   9.175   9.788
   29        0.437   0.218   9.155   9.810
   30        0.437   0.218   9.155   9.810
   31        0.437   0.218   9.155   9.810
   32        0.437   0.218   9.155   9.810
   33        0.437   0.218   9.155   9.810
   34        0.437   0.218   9.155   9.810
   35        0.402   0.202   9.179   9.782
   36        0.389   0.233   4.116   4.738
tot         14.931   8.699 324.890 348.520

 BZINTS: Fermi energy:    0.803269;  391.000000 electrons
         Band energy:-0.126846E+04;  BLOECHL correction:   -0.018536