 vasp.6.2.0 18Jan21 (build Jun 12 2021 23:27:24) complex

 executed on             LinuxIFC date 2022.05.28  01:16:44

 INCAR:
   ISMEAR = -5
   SIGMA = 0.1
   ISPIN = 1
   EDIFF = 1.d-5
   EDIFFG = -0.01
   NSW = 0
   NELM = 150
   ENCUT = 500
   ISIF = 2
   IBRION = 2
   LREAL = Auto
   ALGO = Fast
   ICHARG = 11
   LORBIT = 10
   LCHARG = .F.
   LWAVE = .F.

 POTCAR:    PAW_PBE Au 04Oct2007
 POTCAR:    PAW_PBE Ir 06Sep2000
 POTCAR:    PAW_PBE C 08Apr2002
 POTCAR:    PAW_PBE O 08Apr2002
|           W    W    AA    RRRRR   N    N  II  N    N   GGGG   !!!           |
|           W    W   A  A   R    R  NN   N  II  NN   N  G    G  !!!           |
|           W    W  A    A  R    R  N N  N  II  N N  N  G       !!!           |
|           W WW W  AAAAAA  RRRRR   N  N N  II  N  N N  G  GGG   !            |
|           WW  WW  A    A  R   R   N   NN  II  N   NN  G    G                |
|           W    W  A    A  R    R  N    N  II  N    N   GGGG   !!!           |
|     For optimal performance we recommend to set                             |
|       NCORE = 2 up to number-of-cores-per-socket                            |
|     This setting can greatly improve the performance of VASP for DFT.       |
|     The default, NCORE=1 might be grossly inefficient on modern             |
|     multi-core architectures or massively parallel machines. Do your        |
|     Unfortunately you need to use the default for GW and RPA                |
|     calculations (for HF NCORE is supported but not extensively tested      |
|     yet).                                                                   |

 POTCAR:    PAW_PBE Au 04Oct2007
   VRHFIN =Au: s1d10

   TITEL  = PAW_PBE Au 04Oct2007
   POMASS =  196.966; ZVAL   =   11.000    mass and valenz
   ENMAX  =  229.943; ENMIN  =  172.457 eV

 POTCAR:    PAW_PBE Ir 06Sep2000
   VRHFIN =Ir: s1d8

   TITEL  = PAW_PBE Ir 06Sep2000
   POMASS =  192.220; ZVAL   =    9.000    mass and valenz
   ENMAX  =  210.864; ENMIN  =  158.148 eV

 POTCAR:    PAW_PBE C 08Apr2002
   VRHFIN =C: s2p2

   TITEL  = PAW_PBE C 08Apr2002
   POMASS =   12.011; ZVAL   =    4.000    mass and valenz
   ENMAX  =  400.000; ENMIN  =  300.000 eV

 POTCAR:    PAW_PBE O 08Apr2002
   VRHFIN =O: s2p4

   TITEL  = PAW_PBE O 08Apr2002
   POMASS =   16.000; ZVAL   =    6.000    mass and valenz
   ENMAX  =  400.000; ENMIN  =  300.000 eV

 Optimization of the real space projectors (new method)

 maximal supplied QI-value         = 15.12
 optimisation between [QCUT,QGAM] = [ 11.34, 22.83] = [ 36.00,145.93] Ry
 Optimized for a Real-space Cutoff    1.39 Angstroem

   l    n(q)    QCUT    max X(q) W(low)/X(q) W(high)/X(q)  e(spline)
   2      9    11.338    60.898    0.39E-03    0.42E-03    0.21E-06
   2      9    11.338    58.894    0.40E-03    0.42E-03    0.22E-06
   0      9    11.338   109.617    0.13E-03    0.20E-04    0.13E-06
   0      9    11.338    75.026    0.13E-03    0.20E-04    0.13E-06
   1      9    11.338    16.344    0.33E-04    0.24E-03    0.18E-06
   1      9    11.338    10.160    0.26E-04    0.19E-03    0.15E-06
 Optimization of the real space projectors (new method)

[...]

   l    n(q)    QCUT    max X(q) W(low)/X(q) W(high)/X(q)  e(spline)
   0      7    11.310   115.676    0.43E-03    0.13E-02    0.19E-06
   0      7    11.310    87.132    0.43E-03    0.13E-02    0.18E-06
   1      6    11.310     4.429    0.42E-03    0.74E-03    0.11E-06
   1      6    11.310     2.733    0.34E-03    0.55E-03    0.92E-07
 Optimization of the real space projectors (new method)

 maximal supplied QI-value         = 24.76
 optimisation between [QCUT,QGAM] = [ 11.39, 22.77] = [ 36.31,145.25] Ry
 Optimized for a Real-space Cutoff    1.00 Angstroem

   l    n(q)    QCUT    max X(q) W(low)/X(q) W(high)/X(q)  e(spline)
   0      7    11.387    20.381    0.39E-03    0.13E-02    0.15E-06
   0      7    11.387    15.268    0.42E-03    0.14E-02    0.17E-06
   1      6    11.387     5.964    0.41E-03    0.11E-02    0.17E-06
   1      6    11.387     5.382    0.39E-03    0.87E-03    0.15E-06
  PAW_PBE Au 04Oct2007                  :
  PAW_PBE Ir 06Sep2000                  :
  PAW_PBE C 08Apr2002                   :
  PAW_PBE O 08Apr2002                   :

 POSCAR: Au-Ir-CO2
  positions in direct lattice
  velocities in cartesian coordinates
 exchange correlation table for  LEXCH =        8
   RHO(1)=    0.500       N(1)  =     2000
   RHO(2)=  100.500       N(2)  =     4000

 VTST: version 3.2, (02/03/18)

 CHAIN: initializing optimizer

 OPT: Using VASP Conjugate-Gradient optimizer
 CHAIN: Read ICHAIN            0

 POSCAR: Au-Ir-CO2
  positions in direct lattice
  velocities in cartesian coordinates

 ion  position               nearest neighbor table
   1  0.000  0.000  0.217-  16 2.94  12 2.94   6 2.94   8 2.94   7 2.94   3 2.94  10 2.94   4 2.94
                             2 2.94
   2  0.333  0.000  0.217-   9 2.94  11 2.94  17 2.94  10 2.94   8 2.94   4 2.94   5 2.94   1 2.94
                             3 2.94
   3  0.667  0.000  0.217-   7 2.94  18 2.94  12 2.94   1 2.94  11 2.94   5 2.94   6 2.94   9 2.94
                             2 2.94
   4  0.000  0.333  0.217-  10 2.94   6 2.94   5 2.94  13 2.94   2 2.94  15 2.94   9 2.94   1 2.94
                             7 2.94
   5  0.333  0.333  0.217-  13 2.94   7 2.94  11 2.94   4 2.94   2 2.94  14 2.94   3 2.94   8 2.94
                             6 2.94
   6  0.667  0.333  0.217-  15 2.94  14 2.94   1 2.94  12 2.94   4 2.94   9 2.94   8 2.94   3 2.94
                             5 2.94
   7  0.000  0.667  0.217-  18 2.94   3 2.94  16 2.94   5 2.94   1 2.94  13 2.94   8 2.94   4 2.94
                             9 2.94
   8  0.333  0.667  0.217-   9 2.94  17 2.94   1 2.94   2 2.94  14 2.94  16 2.94   6 2.94   7 2.94
                             5 2.94
   9  0.667  0.667  0.217-   2 2.94   8 2.94  17 2.94   6 2.94  15 2.94   4 2.94   3 2.94  18 2.94
                             7 2.94
  10  0.111  0.111  0.315-  20 2.90  11 2.94  17 2.94   2 2.94   4 2.94   1 2.94  12 2.94  16 2.94
                            13 2.94  15 2.94  26 2.94  19 2.94
  11  0.444  0.111  0.315-  20 2.91  21 2.91  27 2.93  13 2.94   2 2.94  10 2.94  17 2.94   5 2.94
                             3 2.94  18 2.94  14 2.94  12 2.94
  12  0.778  0.111  0.315-  21 2.90  16 2.94  18 2.94   1 2.94  14 2.94  15 2.94   3 2.94   6 2.94
                            10 2.94  11 2.94  25 2.94  19 2.94
  13  0.111  0.444  0.315-  23 2.91  20 2.91  22 2.93   5 2.94  18 2.94  11 2.94   7 2.94   4 2.94
                            16 2.94  10 2.94  14 2.94  15 2.94
  14  0.444  0.444  0.315-  21 2.91  23 2.91  24 2.93  15 2.94   6 2.94  12 2.94   8 2.94  17 2.94
                             5 2.94  16 2.94  13 2.94  11 2.94
  15  0.778  0.444  0.315-  24 2.92  22 2.92  14 2.94   6 2.94  17 2.94  12 2.94   9 2.94   4 2.94
                            10 2.94  13 2.94  18 2.94  19 2.94
  16  0.111  0.778  0.315-  23 2.90  18 2.94  12 2.94   7 2.94   1 2.94   8 2.94  13 2.94  10 2.94
                            14 2.94  17 2.94  25 2.94  26 2.94
  17  0.444  0.778  0.315-  27 2.92  24 2.92   9 2.94  15 2.94   2 2.94  10 2.94  11 2.94   8 2.94
                            14 2.94  16 2.94  18 2.94  26 2.94
  18  0.778  0.778  0.315-  22 2.92  27 2.92  16 2.94   7 2.94  13 2.94  12 2.94   3 2.94  11 2.94
                             9 2.94  15 2.94  17 2.94  25 2.94
  19  0.889  0.223  0.414-  21 2.93  20 2.93  24 2.93  22 2.93  15 2.94  10 2.94  12 2.94  26 2.95
                            25 2.95  28 2.95  32 2.96  31 2.96
  20  0.222  0.222  0.412-  36 2.78  10 2.90  11 2.91  13 2.91  26 2.93  19 2.93  29 2.95  31 2.95
                            27 2.95  22 2.95  23 2.95  21 2.95
  21  0.557  0.222  0.412-  36 2.78  12 2.90  14 2.91  11 2.91  25 2.93  19 2.93  30 2.95  32 2.95
                            24 2.95  27 2.95  20 2.95  23 2.95
  22  0.887  0.557  0.413-  24 2.91  27 2.91  18 2.92  15 2.92  13 2.93  25 2.93  19 2.93  23 2.95
                            20 2.95  35 2.95  33 2.96  31 2.96
  23  0.222  0.557  0.412-  36 2.78  16 2.90  13 2.91  14 2.91  25 2.93  26 2.93  33 2.95  34 2.95
                            22 2.95  24 2.95  20 2.95  21 2.95
  24  0.557  0.557  0.413-  27 2.91  22 2.91  15 2.92  17 2.92  14 2.93  26 2.93  19 2.93  21 2.95
                            23 2.95  35 2.95  32 2.96  34 2.96
  25  0.889  0.889  0.414-  23 2.93  21 2.93  22 2.93  27 2.93  18 2.94  16 2.94  12 2.94  19 2.95
                            26 2.95  28 2.95  33 2.96  30 2.96
  26  0.223  0.889  0.414-  20 2.93  23 2.93  27 2.93  24 2.93  17 2.94  10 2.94  16 2.94  19 2.95
                            25 2.95  28 2.95  29 2.96  34 2.96
  27  0.557  0.887  0.413-  24 2.91  22 2.91  17 2.92  18 2.92  11 2.93  26 2.93  25 2.93  20 2.95
                            21 2.95  35 2.95  29 2.96  30 2.96
  28  0.000  0.000  0.513-  25 2.95  19 2.95  26 2.95  34 2.96  32 2.96  33 2.96  30 2.96  31 2.96
                            29 2.96
  29  0.333  0.005  0.512-  31 2.89  30 2.89  36 2.90  20 2.95  28 2.96  35 2.96  27 2.96  26 2.96
                            34 3.03
  30  0.661  0.005  0.512-  32 2.89  29 2.89  36 2.90  21 2.95  28 2.96  35 2.96  27 2.96  25 2.96
                            33 3.03
  31  0.005  0.333  0.512-  29 2.89  33 2.89  36 2.90  20 2.95  28 2.96  35 2.96  22 2.96  19 2.96
                            32 3.03
  32  0.661  0.333  0.512-  30 2.89  34 2.89  36 2.90  21 2.95  28 2.96  35 2.96  24 2.96  19 2.96
                            31 3.03
  33  0.005  0.661  0.512-  34 2.89  31 2.89  36 2.90  23 2.95  28 2.96  35 2.96  22 2.96  25 2.96
                            30 3.03
  34  0.333  0.661  0.512-  33 2.89  32 2.89  36 2.90  23 2.95  28 2.96  35 2.96  24 2.96  26 2.96
                            29 3.03
  35  0.667  0.667  0.513-  24 2.95  27 2.95  22 2.95  29 2.96  34 2.96  32 2.96  31 2.96  30 2.96
                            33 2.96
  36  0.333  0.333  0.502-  20 2.78  23 2.78  21 2.78  33 2.90  31 2.90  29 2.90  30 2.90  34 2.90
                            32 2.90
  37  0.325  0.334  0.656-  39 1.18  38 1.18
  38  0.191  0.335  0.655-  37 1.18
  39  0.459  0.333  0.657-  37 1.18

  LATTYP: Found a hexagonal cell.
 ALAT       =     8.8135128021
 C/A-ratio  =     2.7649717827

  Lattice vectors:

 A1 = (  -4.4067569092,  -7.6327256898,   0.0000000000)
 A2 = (   8.8135128021,   0.0000000000,   0.0000000000)
 A3 = (   0.0000000000,   0.0000000000,  24.3691142040)

Analysis of symmetry for initial positions (statically):
 Subroutine PRICEL returns:
 Original cell was already a primitive cell.

 Routine SETGRP: Setting up the symmetry group for a
 hexagonal supercell.

 Subroutine GETGRP returns: Found  1 space group operations
 (whereof  1 operations were pure point group operations)
 out of a pool of 24 trial point group operations.

The static configuration has the point symmetry C_1 .

Analysis of symmetry for dynamics (positions and initial velocities):
 Subroutine PRICEL returns:
 Original cell was already a primitive cell.

[...]

The dynamic configuration has the point symmetry C_1 .

Analysis of constrained symmetry for selective dynamics:
 Subroutine PRICEL returns:
[...]
     41      -5.0369      2.00000
     42      -5.0048      2.00000
     43      -4.9436      2.00000
     44      -4.9327      2.00000
     45      -4.8795      2.00000
     46      -4.7992      2.00000
     47      -4.7715      2.00000
     48      -4.7258      2.00000
     49      -4.7070      2.00000
     50      -4.6882      2.00000
     51      -4.6843      2.00000
     52      -4.5832      2.00000
     53      -4.5505      2.00000
     54      -4.5231      2.00000
     55      -4.5123      2.00000
     56      -4.5068      2.00000
     57      -4.5010      2.00000
     58      -4.4904      2.00000
     59      -4.4457      2.00000
     60      -4.4051      2.00000
[...]
    238       5.0692      0.00000
    239       5.2556      0.00000
    240       5.3597      0.00000
    241       5.5680      0.00000
    242       5.7741      0.00000
    243       5.8509      0.00000
    244       5.9460      0.00000
    245       6.0432      0.00000
    246       6.0826      0.00000
    247       6.1356      0.00000
    248       6.2324      0.00000
    249       6.3895      0.00000
    250       6.4578      0.00000
    251       6.5041      0.00000
    252       6.6374      0.00000

 soft charge-density along one line, spin component           1
         0         1         2         3         4         5         6         7         8         9
 total charge-density along one line

------------------------ aborting loop because EDIFF is reached ----------------------------------------

 total charge

# of ion       s       p       d       tot
    1        0.542   0.240   8.765   9.547
    2        0.545   0.240   8.764   9.550
    3        0.545   0.240   8.764   9.550
    4        0.545   0.240   8.764   9.550
    5        0.540   0.242   8.763   9.545
    6        0.545   0.240   8.764   9.550
    7        0.546   0.240   8.764   9.550
    8        0.546   0.240   8.764   9.550
    9        0.542   0.239   8.768   9.550
   10        0.522   0.310   8.766   9.598
   11        0.522   0.307   8.779   9.608
   12        0.522   0.310   8.766   9.598
   13        0.522   0.307   8.779   9.608
   14        0.522   0.307   8.779   9.608
   15        0.517   0.308   8.776   9.601
   16        0.522   0.310   8.766   9.598
   17        0.517   0.308   8.777   9.601
   18        0.517   0.308   8.777   9.601
   19        0.516   0.303   8.775   9.594
   20        0.534   0.329   8.756   9.618
   21        0.534   0.329   8.756   9.618
   22        0.510   0.308   8.778   9.595
   23        0.534   0.329   8.756   9.618
   24        0.510   0.308   8.778   9.595
   25        0.517   0.302   8.776   9.595
   26        0.517   0.302   8.776   9.595
   27        0.510   0.307   8.778   9.596
   28        0.537   0.229   8.769   9.535
   29        0.550   0.245   8.749   9.544
   30        0.550   0.245   8.749   9.544
   31        0.548   0.244   8.750   9.542
   32        0.548   0.244   8.750   9.542
   33        0.550   0.245   8.749   9.544
   34        0.550   0.245   8.749   9.544
   35        0.532   0.230   8.770   9.532
   36        0.534   0.307   6.987   7.828
   37        0.932   1.798   0.000   2.730
   38        1.607   3.528   0.000   5.135
   39        1.607   3.529   0.000   5.136
tot         23.302  18.844 313.796 355.941

  FORCE on cell =-STRESS in cart. coord.  units (eV):
  Direction    XX          YY          ZZ          XY          YZ          ZX
  Alpha Z   975.32291   975.32291   975.32291
  Ewald  146716.07783145922.75695************    -3.94272    -0.15924    22.04938
  Hartree155197.87186154823.88063************    -1.81843    -0.09833    10.89448
  E(xc)   -1841.04527 -1843.15375 -1850.60616    -0.01061    -0.00182     0.05527
  Local  ************************313283.33676     5.40194     0.21945   -31.09714
  n-local  -125.71933  -119.70520   -95.12029     0.03511     0.00471    -0.14419
  augment  2416.65003  2419.31669  2436.82507     0.01196     0.01383    -0.07146
  Kinetic  5739.21133  5804.49844  5862.84821     0.33100     0.03468    -1.68422
  Fock        0.00000     0.00000     0.00000     0.00000     0.00000     0.00000
  Total     -23.58936   -23.55236     2.64869     0.00825     0.01327     0.00213
  in kB     -23.05464   -23.01848     2.58865     0.00806     0.01297     0.00209

 VOLUME and BASIS-vectors are now :
  energy-cutoff  :      500.00
  volume of cell :     1639.34
      direct lattice vectors                 reciprocal lattice vectors
     8.813512802  0.000000000  0.000000000     0.113462137 -0.065507406  0.000000000
     4.406756909  7.632725690  0.000000000     0.000000000  0.131014796  0.000000000
     0.000000000  0.000000000 24.369114204     0.000000000  0.000000000  0.041035550

  length of vectors
     8.813512802  8.813512802 24.369114204     0.131014796  0.131014796  0.041035550

 FORCES acting on ions
    electron-ion (+dipol)            ewald-force                    non-local-force                 convergence-correction
   0.648E-02 0.372E-04 0.267E+04   -.305E-02 -.164E-01 -.267E+04   -.136E-03 -.185E-03 -.877E+00   -.332E-02 0.153E-01 -.260E+00
   0.509E+00 0.344E+00 0.267E+04   -.489E+00 -.286E+00 -.267E+04   0.146E-01 -.311E-02 -.300E+00   -.326E-01 -.479E-01 -.234E+00
   -.516E+00 0.327E+00 0.267E+04   0.492E+00 -.280E+00 -.267E+04   -.146E-01 -.274E-02 -.299E+00   0.359E-01 -.365E-01 -.230E+00
   0.567E+00 0.295E+00 0.267E+04   -.479E+00 -.292E+00 -.267E+04   0.482E-02 0.123E-01 -.305E+00   -.822E-01 -.165E-01 -.229E+00
   -.223E-01 0.642E-02 0.267E+04   0.668E-02 -.277E-03 -.267E+04   0.203E-04 -.125E-02 -.246E+00   0.158E-01 -.467E-02 -.206E+00
   -.549E+00 0.293E+00 0.267E+04   0.472E+00 -.292E+00 -.267E+04   -.506E-02 0.120E-01 -.305E+00   0.710E-01 -.144E-01 -.224E+00
   0.119E-01 -.636E+00 0.267E+04   0.165E-01 0.577E+00 -.267E+04   -.690E-02 -.948E-02 -.297E+00   -.164E-01 0.609E-01 -.223E+00
   -.226E-01 -.622E+00 0.267E+04   -.131E-01 0.572E+00 -.267E+04   0.674E-02 -.956E-02 -.297E+00   0.242E-01 0.529E-01 -.222E+00
   0.154E-01 -.991E-02 0.267E+04   -.327E-02 0.167E-01 -.267E+04   0.141E-03 0.243E-02 -.445E+00   -.126E-01 -.888E-02 -.262E+00
   0.557E+01 0.334E+01 0.947E+03   -.518E+01 -.312E+01 -.946E+03   -.259E+00 -.149E+00 -.766E+00   -.872E-01 -.378E-01 0.978E-01
   -.500E-01 0.343E+01 0.951E+03   0.342E-01 -.347E+01 -.951E+03   -.252E-03 -.186E-01 -.431E+00   0.163E-01 0.184E-01 0.244E+00
   -.553E+01 0.330E+01 0.947E+03   0.515E+01 -.309E+01 -.946E+03   0.259E+00 -.149E+00 -.764E+00   0.752E-01 -.302E-01 0.101E+00
   0.283E+01 -.175E+01 0.951E+03   -.287E+01 0.176E+01 -.951E+03   -.165E-01 0.112E-01 -.435E+00   0.220E-01 -.228E-02 0.247E+00
   -.289E+01 -.172E+01 0.951E+03   0.292E+01 0.175E+01 -.951E+03   0.169E-01 0.110E-01 -.435E+00   0.758E-04 -.104E-01 0.244E+00
   0.562E-01 0.318E+01 0.949E+03   -.429E-01 -.319E+01 -.949E+03   -.146E-03 -.266E-02 -.496E+00   -.132E-01 -.187E-01 0.134E+00
   -.818E-02 -.644E+01 0.947E+03   0.932E-02 0.601E+01 -.946E+03   -.166E-03 0.295E+00 -.760E+00   -.962E-03 0.823E-01 0.100E+00
   0.282E+01 -.164E+01 0.949E+03   -.284E+01 0.166E+01 -.948E+03   -.224E-02 0.113E-02 -.486E+00   -.515E-02 -.362E-02 0.123E+00
   -.281E+01 -.170E+01 0.949E+03   0.283E+01 0.170E+01 -.948E+03   0.214E-02 0.101E-02 -.486E+00   0.672E-02 0.102E-01 0.129E+00
   0.317E+00 0.442E+01 -.811E+03   -.301E+00 -.441E+01 0.810E+03   0.150E-02 -.507E-01 0.429E+00   -.168E-01 0.374E-01 0.510E+00
   0.701E+01 0.481E+01 -.774E+03   -.701E+01 -.483E+01 0.773E+03   -.403E+00 -.225E+00 -.503E+00   0.375E+00 0.228E+00 0.101E+01
   -.731E+01 0.468E+01 -.774E+03   0.730E+01 -.470E+01 0.774E+03   0.402E+00 -.225E+00 -.503E+00   -.362E+00 0.226E+00 0.101E+01
   -.316E+01 0.951E+00 -.799E+03   0.262E+01 -.612E+00 0.797E+03   0.368E+00 -.223E+00 0.603E+00   0.179E+00 -.118E+00 0.560E+00
   -.254E+00 -.919E+01 -.775E+03   0.250E+00 0.920E+01 0.774E+03   0.872E-04 0.455E+00 -.502E+00   0.380E-02 -.438E+00 0.101E+01
   0.342E+01 0.118E+01 -.799E+03   -.288E+01 -.827E+00 0.798E+03   -.369E+00 -.222E+00 0.602E+00   -.182E+00 -.129E+00 0.559E+00
   -.334E+01 -.179E+01 -.813E+03   0.331E+01 0.176E+01 0.812E+03   0.519E-01 0.309E-01 0.412E+00   -.264E-01 -.909E-02 0.505E+00
   0.340E+01 -.147E+01 -.812E+03   -.336E+01 0.145E+01 0.812E+03   -.521E-01 0.312E-01 0.412E+00   0.101E-01 -.180E-01 0.508E+00
   -.525E-01 -.360E+01 -.800E+03   0.452E-01 0.296E+01 0.799E+03   0.254E-03 0.426E+00 0.595E+00   0.710E-02 0.215E+00 0.551E+00
   0.872E+00 0.490E+01 -.253E+04   -.869E+00 -.492E+01 0.252E+04   -.120E-03 -.718E-03 0.557E+00   -.311E-02 0.260E-01 0.562E+00
   0.112E+02 0.289E+02 -.250E+04   -.110E+02 -.288E+02 0.250E+04   -.481E+00 -.625E+00 0.212E+00   0.312E+00 0.515E+00 0.539E+00
   -.121E+02 0.269E+02 -.250E+04   0.119E+02 -.267E+02 0.250E+04   0.480E+00 -.624E+00 0.216E+00   -.308E+00 0.521E+00 0.534E+00
   0.298E+02 0.189E-01 -.249E+04   -.296E+02 0.717E-01 0.249E+04   -.761E+00 -.991E-01 0.359E+00   0.564E+00 0.136E-01 0.543E+00
   -.270E+02 -.819E-01 -.249E+04   0.268E+02 0.174E+00 0.249E+04   0.765E+00 -.997E-01 0.339E+00   -.571E+00 0.132E-01 0.537E+00
   0.114E+02 -.289E+02 -.250E+04   -.113E+02 0.287E+02 0.250E+04   -.308E+00 0.724E+00 0.215E+00   0.290E+00 -.531E+00 0.534E+00
   -.124E+02 -.268E+02 -.250E+04   0.124E+02 0.266E+02 0.250E+04   0.307E+00 0.724E+00 0.216E+00   -.286E+00 -.537E+00 0.533E+00
   0.976E+00 -.496E+01 -.253E+04   -.967E+00 0.498E+01 0.253E+04   -.279E-03 0.200E-02 0.664E+00   -.905E-02 -.261E-01 0.577E+00
   -.188E+01 0.781E-01 -.192E+04   0.187E+01 -.797E-01 0.191E+04   0.874E-03 -.176E-02 0.168E+01   0.787E-02 0.510E-02 0.688E+00
   -.116E+00 -.454E-01 -.872E+03   0.926E-01 0.464E-01 0.872E+03   0.204E-01 0.128E-03 0.805E-02   0.449E-02 -.464E-03 -.179E+00
   0.260E+03 -.131E+01 -.131E+04   -.324E+03 0.163E+01 0.131E+04   0.636E+02 -.321E+00 0.160E+01   0.813E-01 -.222E-02 -.218E+00
   -.261E+03 0.136E+01 -.131E+04   0.325E+03 -.169E+01 0.131E+04   -.636E+02 0.338E+00 -.166E+01   -.795E-01 -.119E-02 -.222E+00
   0.356E-01 -.115E-01 -.757E+01   -.568E-13 0.795E-13 0.614E-11   -.358E-01 0.152E-01 -.249E+01   0.485E-02 -.171E-02 0.999E+01

 POSITION                                       TOTAL-FORCE (eV/Angst)
      0.00000      0.00000      5.28038        -0.000153     -0.001338     -0.029199
      2.93784      0.00000      5.28038         0.002389      0.007691     -0.074664
      5.87568      0.00000      5.28038        -0.002576      0.007711     -0.074446
      1.46892      2.54424      5.28038         0.010339     -0.001064     -0.075833
      4.40676      2.54424      5.28038         0.000115      0.000178     -0.109299
      7.34459      2.54424      5.28038        -0.010609     -0.000932     -0.075651
      2.93784      5.08848      5.28038         0.004885     -0.006692     -0.076571
      5.87568      5.08848      5.28038        -0.004983     -0.006831     -0.076575
      8.81351      5.08848      5.28038        -0.000451      0.000327     -0.069105
      1.46892      0.84808      7.67911         0.046868      0.027719      0.099857
      4.40676      0.84808      7.67911         0.000118     -0.042902     -0.015166
      7.34459      0.84808      7.67911        -0.047041      0.027716      0.100000
      2.93784      3.39232      7.67911        -0.038824      0.021973     -0.015801
      5.87568      3.39232      7.67911         0.039092      0.022000     -0.015793
      8.81351      3.39232      7.67911        -0.000149     -0.033798      0.057337
      4.40676      5.93656      7.67911        -0.000109     -0.054790      0.100254
      7.34459      5.93656      7.67911        -0.029934      0.015732      0.058714
     10.28243      5.93656      7.67911         0.029731      0.015806      0.058660
      8.81351      1.70038     10.08128        -0.000262      0.003052      0.021935
      2.93047      1.69191     10.03818        -0.027131     -0.016147     -0.029984
      5.88304      1.69191     10.03818         0.027063     -0.016424     -0.030447
     10.26792      4.24878     10.06124         0.005627     -0.002176      0.003574
      4.40676      4.24891     10.03818        -0.000233      0.030048     -0.029362
      7.35911      4.24878     10.06124        -0.005968     -0.001985      0.003157
     11.74770      6.78254     10.08128        -0.004730     -0.001783      0.016154
      5.87933      6.78254     10.08128         0.003961     -0.002077      0.016268
      8.81351      6.76789     10.06124        -0.000015      0.005338     -0.000731
      0.00000      0.00000     12.49619        -0.000282     -0.001632     -0.009890
      2.96082      0.04010     12.48308         0.016873      0.019186      0.040821
      5.85269      0.04010     12.48308        -0.016932      0.019885      0.041981
      1.51514      2.54410     12.48308         0.022098      0.005056      0.035646
      7.29838      2.54410     12.48308        -0.024309      0.005050      0.038288
      2.96107      5.04853     12.48308         0.011336     -0.023459      0.041487
      5.85244      5.04853     12.48308        -0.011151     -0.024377      0.042852
      8.81351      5.08848     12.49171        -0.000625      0.000798      0.021289
      4.40676      2.54424     12.23647         0.002019      0.001671      0.010921
      4.33627      2.54751     15.98242         0.001378      0.000681      0.003009
      3.15917      2.55336     15.95485         0.001878     -0.005600      0.001965
      5.51291      2.54140     16.01516         0.000696      0.006390     -0.005657
    total drift:                                0.004666      0.001989     -0.064273

  FREE ENERGIE OF THE ION-ELECTRON SYSTEM (eV)
  free  energy   TOTEN  =      -136.78306154 eV

  energy  without entropy=     -136.78306154  energy(sigma->0) =     -136.78306154

 stress matrix after NEB project (eV)
    -23.58936      0.00825      0.00213
      0.00825    -23.55236      0.01327
      0.00213      0.01327      2.64869
  FORCES: max atom, RMS     0.008562    0.001779
  FORCE total and by dimension    0.011112    0.006390
  Stress total and by dimension   33.439314   23.589359
|           W    W    AA    RRRRR   N    N  II  N    N   GGGG   !!!           |
|           W    W   A  A   R    R  NN   N  II  NN   N  G    G  !!!           |
|           W    W  A    A  R    R  N N  N  II  N N  N  G       !!!           |
|           W WW W  AAAAAA  RRRRR   N  N N  II  N  N N  G  GGG   !            |
|           WW  WW  A    A  R   R   N   NN  II  N   NN  G    G                |
|           W    W  A    A  R    R  N    N  II  N    N   GGGG   !!!           |
|     Tetrahedron method does not include variations of the Fermi             |
|     occupations, so forces and stress will be inaccurate. We suggest        |
|     using a different smearing scheme ISMEAR = 1 or 2 for metals in         |
|     relaxations.                                                            |

 total charge

# of ion       s       p       d       tot
    1        0.542   0.240   8.765   9.547
    2        0.545   0.240   8.764   9.550
    3        0.545   0.240   8.764   9.550
    4        0.545   0.240   8.764   9.550
    5        0.540   0.242   8.763   9.545
    6        0.545   0.240   8.764   9.550
    7        0.546   0.240   8.764   9.550
    8        0.546   0.240   8.764   9.550
    9        0.542   0.239   8.768   9.550
   10        0.522   0.310   8.766   9.598
   11        0.522   0.307   8.779   9.608
   12        0.522   0.310   8.766   9.598
   13        0.522   0.307   8.779   9.608
   14        0.522   0.307   8.779   9.608
   15        0.517   0.308   8.776   9.601
   16        0.522   0.310   8.766   9.598
   17        0.517   0.308   8.777   9.601
   18        0.517   0.308   8.777   9.601
   19        0.516   0.303   8.775   9.594
   20        0.534   0.329   8.756   9.618
   21        0.534   0.329   8.756   9.618
   22        0.510   0.308   8.778   9.595
   23        0.534   0.329   8.756   9.618
   24        0.510   0.308   8.778   9.595
   25        0.517   0.302   8.776   9.595
   26        0.517   0.302   8.776   9.595
   27        0.510   0.307   8.778   9.596
   28        0.537   0.229   8.769   9.535
   29        0.550   0.245   8.749   9.544
   30        0.550   0.245   8.749   9.544
   31        0.548   0.244   8.750   9.542
   32        0.548   0.244   8.750   9.542
   33        0.550   0.245   8.749   9.544
   34        0.550   0.245   8.749   9.544
   35        0.532   0.230   8.770   9.532
   36        0.534   0.307   6.987   7.828
   37        0.932   1.798   0.000   2.730
   38        1.607   3.528   0.000   5.135
   39        1.607   3.529   0.000   5.136
tot         23.302  18.844 313.796 355.941

 BZINTS: Fermi energy:    0.268324;  410.000000 electrons
         Band energy:-0.150163E+04;  BLOECHL correction:   -0.098099