 vasp.6.2.0 18Jan21 (build Jun 12 2021 23:27:24) complex

 executed on             LinuxIFC date 2022.05.30  18:18:10

 INCAR:
   ISMEAR = -5
   SIGMA = 0.1
   ISPIN = 1
   EDIFF = 1.d-5
   EDIFFG = -0.01
   NSW = 0
   NELM = 150
   ENCUT = 500
   ISIF = 2
   IBRION = 2
   LREAL = Auto
   ALGO = Fast
   ICHARG = 11
   LORBIT = 10
   LCHARG = .F.
   LWAVE = .F.

 POTCAR:    PAW_PBE Cu 22Jun2005
 POTCAR:    PAW_PBE Nb_sv 25May2007
 POTCAR:    PAW_PBE C 08Apr2002
|           W    W    AA    RRRRR   N    N  II  N    N   GGGG   !!!           |
|           W    W   A  A   R    R  NN   N  II  NN   N  G    G  !!!           |
|           W    W  A    A  R    R  N N  N  II  N N  N  G       !!!           |
|           W WW W  AAAAAA  RRRRR   N  N N  II  N  N N  G  GGG   !            |
|           WW  WW  A    A  R   R   N   NN  II  N   NN  G    G                |
|           W    W  A    A  R    R  N    N  II  N    N   GGGG   !!!           |
|     For optimal performance we recommend to set                             |
|       NCORE = 2 up to number-of-cores-per-socket                            |
|     This setting can greatly improve the performance of VASP for DFT.       |
|     The default, NCORE=1 might be grossly inefficient on modern             |
|     multi-core architectures or massively parallel machines. Do your        |
|     Unfortunately you need to use the default for GW and RPA                |
|     calculations (for HF NCORE is supported but not extensively tested      |
|     yet).                                                                   |

 POTCAR:    PAW_PBE Cu 22Jun2005
   VRHFIN =Cu: d10 p1

   TITEL  = PAW_PBE Cu 22Jun2005
   POMASS =   63.546; ZVAL   =   11.000    mass and valenz
   ENMAX  =  295.446; ENMIN  =  221.585 eV

 POTCAR:    PAW_PBE Nb_sv 25May2007
   VRHFIN =Nb: 4p5s4d

   TITEL  = PAW_PBE Nb_sv 25May2007
   POMASS =   92.910; ZVAL   =   13.000    mass and valenz
   ENMAX  =  293.235; ENMIN  =  219.927 eV

 POTCAR:    PAW_PBE C 08Apr2002
   VRHFIN =C: s2p2

   TITEL  = PAW_PBE C 08Apr2002
   POMASS =   12.011; ZVAL   =    4.000    mass and valenz
   ENMAX  =  400.000; ENMIN  =  300.000 eV

 Optimization of the real space projectors (new method)

 maximal supplied QI-value         = 16.25
 optimisation between [QCUT,QGAM] = [ 11.38, 22.75] = [ 36.24,144.96] Ry
 Optimized for a Real-space Cutoff    1.52 Angstroem

   l    n(q)    QCUT    max X(q) W(low)/X(q) W(high)/X(q)  e(spline)
   2      9    11.376     4.610    0.21E-03    0.10E-03    0.26E-06
   2      9    11.376     8.522    0.33E-03    0.16E-03    0.37E-06
   0     10    11.376    51.609    0.62E-04    0.20E-04    0.13E-06
   0     10    11.376    27.747    0.54E-04    0.20E-04    0.13E-06
   1     10    11.376    20.408    0.13E-04    0.99E-04    0.19E-06
   1     10    11.376    13.425    0.12E-04    0.87E-04    0.17E-06
 Optimization of the real space projectors (new method)

[...]

   l    n(q)    QCUT    max X(q) W(low)/X(q) W(high)/X(q)  e(spline)
   0     11    11.450    10.201    0.21E-04    0.96E-05    0.78E-07
   0     11    11.450     8.174    0.31E-04    0.18E-04    0.14E-06
   1     10    11.450     3.488    0.27E-04    0.12E-04    0.96E-07
   1     10    11.450     4.917    0.11E-03    0.11E-03    0.37E-06
   2     10    11.450   153.744    0.37E-03    0.81E-03    0.10E-05
   2     10    11.450   126.342    0.37E-03    0.81E-03    0.10E-05
 Optimization of the real space projectors (new method)

 maximal supplied QI-value         = 25.13
 optimisation between [QCUT,QGAM] = [ 11.31, 22.87] = [ 35.82,146.48] Ry
 Optimized for a Real-space Cutoff    1.00 Angstroem

   l    n(q)    QCUT    max X(q) W(low)/X(q) W(high)/X(q)  e(spline)
   0      7    11.310   115.676    0.43E-03    0.13E-02    0.19E-06
   0      7    11.310    87.132    0.43E-03    0.13E-02    0.18E-06
   1      6    11.310     4.429    0.42E-03    0.74E-03    0.11E-06
   1      6    11.310     2.733    0.34E-03    0.55E-03    0.92E-07
  PAW_PBE Cu 22Jun2005                  :
  PAW_PBE Nb_sv 25May2007               :
  PAW_PBE C 08Apr2002                   :

 POSCAR: Cu-Nb-C
  positions in direct lattice
  velocities in cartesian coordinates
 exchange correlation table for  LEXCH =        8
   RHO(1)=    0.500       N(1)  =     2000
   RHO(2)=  100.500       N(2)  =     4000

 VTST: version 3.2, (02/03/18)

 CHAIN: initializing optimizer

 OPT: Using VASP Conjugate-Gradient optimizer
 CHAIN: Read ICHAIN            0

 POSCAR: Cu-Nb-C
  positions in direct lattice
  velocities in cartesian coordinates

 ion  position               nearest neighbor table
   1  0.000  0.000  0.226-   7 2.57   3 2.57   4 2.57   2 2.57   6 2.57   8 2.57  12 2.57  10 2.57
                            16 2.57
   2  0.333  0.000  0.226-   8 2.57   9 2.57   5 2.57   1 2.57   3 2.57  11 2.57   4 2.57  10 2.57
                            17 2.57
   3  0.667  0.000  0.226-   1 2.57   7 2.57   6 2.57   9 2.57   2 2.57  12 2.57   5 2.57  18 2.57
                            11 2.57
   4  0.000  0.333  0.226-   5 2.57   6 2.57   1 2.57   7 2.57   2 2.57  13 2.57   9 2.57  10 2.57
                            15 2.57
   5  0.333  0.333  0.226-   4 2.57   2 2.57   7 2.57  13 2.57   8 2.57   6 2.57   3 2.57  11 2.57
                            14 2.57
   6  0.667  0.333  0.226-   4 2.57   9 2.57  15 2.57   3 2.57   1 2.57   8 2.57  14 2.57   5 2.57
                            12 2.57
   7  0.000  0.667  0.226-   1 2.57   3 2.57  16 2.57  18 2.57   4 2.57   5 2.57   8 2.57   9 2.57
                            13 2.57
   8  0.333  0.667  0.226-   9 2.57   2 2.57  17 2.57   6 2.57   1 2.57   7 2.57   5 2.57  14 2.57
                            16 2.57
   9  0.667  0.667  0.226-   8 2.57   6 2.57   2 2.57  17 2.57   3 2.57   7 2.57   4 2.57  15 2.57
                            18 2.57
  10  0.111  0.111  0.314-  26 2.55  19 2.55  11 2.57  12 2.57  13 2.57   1 2.57   2 2.57   4 2.57
                            15 2.57  16 2.57  17 2.57  20 2.57
  11  0.444  0.111  0.314-  20 2.57  21 2.57  10 2.57  13 2.57   2 2.57  17 2.57  14 2.57  12 2.57
                             5 2.57   3 2.57  18 2.57  27 2.57
  12  0.778  0.111  0.314-  19 2.55  25 2.55  15 2.57  10 2.57  14 2.57  18 2.57   3 2.57   1 2.57
                            16 2.57  11 2.57   6 2.57  21 2.57
  13  0.111  0.444  0.314-  23 2.57  20 2.57  16 2.57  18 2.57  10 2.57  11 2.57  14 2.57   5 2.57
                             4 2.57   7 2.57  15 2.57  22 2.57
  14  0.444  0.444  0.314-  21 2.57  23 2.57  15 2.57  17 2.57  12 2.57  16 2.57  13 2.57  11 2.57
                             6 2.57   8 2.57   5 2.57  24 2.57
  15  0.778  0.444  0.314-  19 2.55  14 2.57  17 2.57  12 2.57   6 2.57  18 2.57  10 2.57   9 2.57
                            13 2.57   4 2.57  24 2.57  22 2.57
  16  0.111  0.778  0.314-  25 2.55  26 2.55  18 2.57  13 2.57   7 2.57  14 2.57  17 2.57  12 2.57
                            10 2.57   8 2.57   1 2.57  23 2.57
  17  0.444  0.778  0.314-  26 2.55  14 2.57  15 2.57   8 2.57   9 2.57  11 2.57  16 2.57  18 2.57
                            10 2.57   2 2.57  27 2.57  24 2.57
  18  0.778  0.778  0.314-  25 2.55  16 2.57  13 2.57   7 2.57  15 2.57  12 2.57  17 2.57   9 2.57
                             3 2.57  11 2.57  22 2.57  27 2.57
  19  0.889  0.222  0.401-  12 2.55  10 2.55  15 2.55  25 2.56  26 2.56  21 2.57  20 2.57  22 2.57
                            24 2.57  28 2.57  32 2.58  31 2.58
  20  0.222  0.222  0.402-  23 2.56  21 2.56  11 2.57  13 2.57  10 2.57  26 2.57  19 2.57  27 2.57
                            22 2.57  29 2.59  31 2.59  36 2.66
  21  0.555  0.222  0.402-  20 2.56  23 2.56  14 2.57  11 2.57  12 2.57  19 2.57  25 2.57  24 2.57
                            27 2.57  32 2.59  30 2.59  36 2.66
  22  0.889  0.556  0.402-  24 2.56  27 2.56  18 2.57  15 2.57  23 2.57  20 2.57  19 2.57  25 2.57
                            13 2.57  35 2.57  31 2.57  33 2.57
  23  0.222  0.555  0.402-  20 2.56  21 2.56  13 2.57  14 2.57  16 2.57  25 2.57  26 2.57  22 2.57
                            24 2.57  33 2.59  34 2.59  36 2.66
  24  0.556  0.556  0.402-  22 2.56  27 2.56  15 2.57  17 2.57  21 2.57  23 2.57  19 2.57  26 2.57
                            14 2.57  35 2.57  32 2.57  34 2.57
  25  0.889  0.889  0.401-  12 2.55  16 2.55  18 2.55  19 2.56  26 2.56  21 2.57  23 2.57  22 2.57
                            27 2.57  28 2.57  33 2.58  30 2.58
  26  0.222  0.889  0.401-  10 2.55  16 2.55  17 2.55  25 2.56  19 2.56  20 2.57  23 2.57  27 2.57
                            24 2.57  28 2.57  29 2.58  34 2.58
  27  0.556  0.889  0.402-  24 2.56  22 2.56  17 2.57  18 2.57  20 2.57  21 2.57  26 2.57  25 2.57
                            11 2.57  35 2.57  29 2.57  30 2.57
  28  0.000  0.000  0.489-  33 2.55  30 2.55  31 2.55  29 2.55  32 2.55  34 2.55  25 2.57  19 2.57
                            26 2.57
  29  0.334  0.996  0.490-  34 2.51  35 2.55  28 2.55  27 2.57  26 2.58  20 2.59  30 2.59  36 2.60
                            31 2.60
  30  0.670  0.996  0.490-  33 2.51  35 2.55  28 2.55  27 2.57  25 2.58  21 2.59  29 2.59  36 2.60
                            32 2.60
  31  0.996  0.334  0.490-  32 2.51  35 2.55  28 2.55  22 2.57  19 2.58  20 2.59  33 2.59  36 2.60
                            29 2.60
  32  0.670  0.334  0.490-  31 2.51  35 2.55  28 2.55  24 2.57  19 2.58  21 2.59  34 2.59  36 2.60
                            30 2.60
  33  0.996  0.670  0.490-  30 2.51  35 2.55  28 2.55  22 2.57  25 2.58  23 2.59  31 2.59  36 2.60
                            34 2.60
  34  0.334  0.670  0.490-  29 2.51  35 2.55  28 2.55  24 2.57  26 2.58  23 2.59  32 2.59  36 2.60
                            33 2.60
  35  0.667  0.667  0.490-  34 2.55  32 2.55  29 2.55  30 2.55  33 2.55  31 2.55  24 2.57  27 2.57
                            22 2.57
  36  0.333  0.333  0.495-  37 1.81  31 2.60  29 2.60  33 2.60  32 2.60  34 2.60  30 2.60  23 2.66
                            20 2.66  21 2.66
  37  0.333  0.333  0.571-  36 1.81

  LATTYP: Found a hexagonal cell.
 ALAT       =     7.6967864036
 C/A-ratio  =     3.0908716217

  Lattice vectors:

 A1 = (  -3.8483927580,  -6.6656128093,   0.0000000000)
 A2 = (   7.6967864037,   0.0000000000,   0.0000000000)
 A3 = (   0.0000000000,   0.0000000000,  23.7897786731)

Analysis of symmetry for initial positions (statically):
 Subroutine PRICEL returns:
 Original cell was already a primitive cell.

 Routine SETGRP: Setting up the symmetry group for a
 hexagonal supercell.

 Subroutine GETGRP returns: Found  6 space group operations
 (whereof  6 operations were pure point group operations)
 out of a pool of 24 trial point group operations.

The static configuration has the point symmetry C_3v.

Analysis of symmetry for dynamics (positions and initial velocities):
 Subroutine PRICEL returns:
 Original cell was already a primitive cell.

[...]

The dynamic configuration has the point symmetry C_3v.

Analysis of constrained symmetry for selective dynamics:
 Subroutine PRICEL returns:
 Original cell was already a primitive cell.

 Routine SETGRP: Setting up the symmetry group for a
 hexagonal supercell.

 Subroutine GETGRP returns: Found  6 space group operations
[...]
     24      -5.0164      2.00000
     25      -4.9640      2.00000
     26      -4.9588      2.00000
     27      -4.9315      2.00000
     28      -4.8757      2.00000
     29      -4.7630      2.00000
     30      -4.7283      2.00000
     31      -4.7042      2.00000
     32      -4.6815      2.00000
     33      -4.6564      2.00000
     34      -4.6426      2.00000
     35      -4.6408      2.00000
     36      -4.6350      2.00000
     37      -4.6290      2.00000
     38      -4.5972      2.00000
     39      -4.5279      2.00000
     40      -4.5078      2.00000
     41      -4.4606      2.00000
     42      -4.3291      2.00000
     43      -4.3162      2.00000
     44      -4.2794      2.00000
     45      -4.2545      2.00000
     46      -4.2368      2.00000
     47      -4.2286      2.00000
     48      -4.2145      2.00000
     49      -4.2125      2.00000
     50      -4.1996      2.00000
     51      -4.0431      2.00000
     52      -4.0134      2.00000
     53      -4.0042      2.00000
     54      -3.9864      2.00000
     55      -3.9352      2.00000
     56      -3.9323      2.00000
     57      -3.9166      2.00000
     58      -3.9106      2.00000
     59      -3.9016      2.00000
     60      -3.8986      2.00000
[...]
    238       5.4513      0.00000
    239       5.6163      0.00000
    240       5.6383      0.00000
    241       5.7599      0.00000
    242       5.9890      0.00000
    243       6.0776      0.00000
    244       6.1024      0.00000
    245       6.2555      0.00000
    246       6.2971      0.00000
    247       6.3814      0.00000
    248       6.4328      0.00000
    249       6.7059      0.00000
    250       6.7443      0.00000
    251       6.8143      0.00000
    252       6.8978      0.00000

 soft charge-density along one line, spin component           1
         0         1         2         3         4         5         6         7         8         9
 total charge-density along one line

------------------------ aborting loop because EDIFF is reached ----------------------------------------

 total charge

# of ion       s       p       d       tot
    1        0.446   0.286   9.186   9.918
    2        0.449   0.285   9.186   9.919
    3        0.449   0.285   9.186   9.919
    4        0.449   0.285   9.186   9.919
    5        0.449   0.285   9.185   9.918
    6        0.449   0.285   9.186   9.919
    7        0.449   0.285   9.186   9.919
    8        0.449   0.285   9.186   9.919
    9        0.447   0.284   9.188   9.919
   10        0.441   0.373   9.177   9.991
   11        0.443   0.366   9.181   9.990
   12        0.441   0.373   9.177   9.991
   13        0.443   0.366   9.181   9.990
   14        0.443   0.366   9.181   9.990
   15        0.438   0.372   9.176   9.986
   16        0.441   0.373   9.177   9.991
   17        0.438   0.372   9.176   9.986
   18        0.438   0.372   9.176   9.986
   19        0.442   0.368   9.183   9.992
   20        0.450   0.385   9.173  10.008
   21        0.450   0.385   9.173  10.008
   22        0.430   0.373   9.180   9.983
   23        0.450   0.385   9.173  10.008
   24        0.430   0.373   9.180   9.983
   25        0.442   0.368   9.183   9.992
   26        0.442   0.368   9.183   9.992
   27        0.430   0.373   9.180   9.983
   28        0.447   0.292   9.185   9.925
   29        0.474   0.305   9.174   9.952
   30        0.474   0.305   9.174   9.952
   31        0.474   0.305   9.174   9.952
   32        0.474   0.305   9.174   9.952
   33        0.474   0.305   9.174   9.952
   34        0.474   0.305   9.174   9.952
   35        0.447   0.294   9.185   9.926
   36        2.215   6.010   2.780  11.005
   37        1.009   1.219   0.000   2.227
tot         18.922  18.916 324.079 361.917

  FORCE on cell =-STRESS in cart. coord.  units (eV):
  Direction    XX          YY          ZZ          XY          YZ          ZX
  Alpha Z   810.96137   810.96137   810.96137
  Ewald  226243.09549226243.09499************     0.00041     0.00012     0.00021
  Hartree239085.34327239085.34321************     0.00005     0.00006     0.00008
  E(xc)   -2320.27315 -2320.27266 -2324.17702    -0.00043    -0.00004    -0.00006
  Local  ************************479007.25300     0.01849    -0.00057    -0.00095
  n-local  -765.14906  -752.91507  -782.43312     7.05127    -0.18890     0.29846
  augment  3323.66096  3323.68100  3349.29642    -0.01736     0.00030     0.00061
  Kinetic  3430.44977  3434.66642  3476.47668     3.10593     1.72995    -1.17529
  Fock        0.00000     0.00000     0.00000     0.00000     0.00000     0.00000
  Total      -3.10764    -3.10764    -0.91028     0.00000     0.00000    -0.00000
  in kB      -4.07945    -4.07945    -1.19493     0.00000     0.00000    -0.00000

 VOLUME and BASIS-vectors are now :
  energy-cutoff  :      500.00
  volume of cell :     1220.51
      direct lattice vectors                 reciprocal lattice vectors
     7.696786404  0.000000000  0.000000000     0.129924354 -0.075011849  0.000000000
     3.848392758  6.665612809  0.000000000     0.000000000  0.150023716  0.000000000
     0.000000000  0.000000000 23.789778673     0.000000000  0.000000000  0.042034859

  length of vectors
     7.696786404  7.696786404 23.789778673     0.150023716  0.150023716  0.042034859

 FORCES acting on ions
    electron-ion (+dipol)            ewald-force                    non-local-force                 convergence-correction
   -.420E-04 -.108E-06 0.376E+04   0.578E-04 -.435E-05 -.376E+04   -.720E-17 0.405E-17 -.241E+01   -.335E-03 -.161E-03 -.255E+00
   -.522E+00 -.204E-01 0.376E+04   0.427E+00 -.216E-02 -.376E+04   0.379E-01 0.387E-01 -.191E+01   0.545E-01 -.174E-01 -.137E+00
   0.522E+00 -.204E-01 0.376E+04   -.427E+00 -.220E-02 -.376E+04   -.379E-01 0.387E-01 -.191E+01   -.537E-01 -.148E-01 -.136E+00
   -.279E+00 -.442E+00 0.376E+04   0.212E+00 0.371E+00 -.376E+04   0.525E-01 0.135E-01 -.191E+01   0.122E-01 0.559E-01 -.137E+00
   -.641E-04 -.488E-05 0.376E+04   0.116E-03 -.101E-04 -.376E+04   0.806E-18 0.355E-17 -.195E+01   0.122E-01 0.749E-02 -.113E+00
   0.279E+00 -.442E+00 0.376E+04   -.212E+00 0.371E+00 -.376E+04   -.525E-01 0.135E-01 -.191E+01   -.139E-01 0.571E-01 -.136E+00
   0.243E+00 0.462E+00 0.376E+04   -.216E+00 -.369E+00 -.376E+04   0.146E-01 -.522E-01 -.191E+01   -.397E-01 -.391E-01 -.136E+00
   -.243E+00 0.462E+00 0.376E+04   0.215E+00 -.369E+00 -.376E+04   -.146E-01 -.522E-01 -.191E+01   0.432E-01 -.406E-01 -.136E+00
   -.144E-03 -.332E-04 0.376E+04   0.263E-03 0.205E-04 -.376E+04   -.575E-17 -.104E-17 -.227E+01   -.133E-01 -.685E-02 -.822E-01
   -.317E+01 -.183E+01 0.131E+04   0.339E+01 0.196E+01 -.131E+04   -.251E+00 -.145E+00 -.881E+00   0.583E-01 0.336E-01 0.652E-01
   -.882E-04 0.308E+00 0.130E+04   0.190E-03 -.406E+00 -.130E+04   -.877E-08 0.132E+00 -.798E+00   0.118E-01 -.350E-01 0.110E+00
   0.317E+01 -.183E+01 0.131E+04   -.339E+01 0.196E+01 -.131E+04   0.251E+00 -.145E+00 -.881E+00   -.603E-01 0.357E-01 0.659E-01
   0.267E+00 -.154E+00 0.130E+04   -.351E+00 0.203E+00 -.130E+04   0.114E+00 -.659E-01 -.798E+00   -.239E-01 0.285E-01 0.110E+00
   -.267E+00 -.154E+00 0.130E+04   0.351E+00 0.203E+00 -.130E+04   -.114E+00 -.659E-01 -.798E+00   0.483E-01 0.275E-01 0.110E+00
   -.140E-03 -.330E+01 0.130E+04   0.297E-03 0.315E+01 -.130E+04   -.525E-08 0.789E-01 -.874E+00   -.407E-02 0.744E-01 0.649E-01
   -.895E-04 0.366E+01 0.131E+04   0.185E-03 -.391E+01 -.131E+04   -.193E-07 0.290E+00 -.881E+00   -.152E-03 -.713E-01 0.658E-01
   -.286E+01 0.165E+01 0.130E+04   0.273E+01 -.158E+01 -.130E+04   0.683E-01 -.394E-01 -.874E+00   0.631E-01 -.407E-01 0.648E-01
   0.286E+01 0.165E+01 0.130E+04   -.273E+01 -.158E+01 -.130E+04   -.683E-01 -.394E-01 -.874E+00   -.624E-01 -.377E-01 0.654E-01
   -.683E-04 -.249E+01 -.116E+04   0.642E-04 0.238E+01 0.116E+04   -.338E-08 0.508E-01 0.131E+01   -.235E-02 0.753E-01 0.576E-01
   0.582E+01 0.336E+01 -.117E+04   -.578E+01 -.334E+01 0.117E+04   -.358E+00 -.207E+00 0.148E+00   0.717E-01 0.413E-01 0.302E-02
   -.582E+01 0.336E+01 -.117E+04   0.578E+01 -.334E+01 0.117E+04   0.358E+00 -.207E+00 0.148E+00   -.477E-01 0.431E-01 0.329E-02
   0.422E+00 -.244E+00 -.118E+04   -.848E+00 0.490E+00 0.117E+04   0.420E+00 -.243E+00 0.100E+01   0.445E-01 -.264E-01 -.365E-01
   -.579E-04 -.672E+01 -.117E+04   0.141E-03 0.667E+01 0.117E+04   -.275E-07 0.414E+00 0.148E+00   0.123E-01 -.641E-01 0.321E-02
   -.422E+00 -.244E+00 -.118E+04   0.848E+00 0.490E+00 0.117E+04   -.420E+00 -.243E+00 0.100E+01   -.473E-01 -.282E-01 -.369E-01
   0.215E+01 0.124E+01 -.116E+04   -.206E+01 -.119E+01 0.116E+04   -.440E-01 -.254E-01 0.131E+01   -.639E-01 -.369E-01 0.566E-01
   -.215E+01 0.124E+01 -.116E+04   0.206E+01 -.119E+01 0.116E+04   0.440E-01 -.254E-01 0.131E+01   0.644E-01 -.395E-01 0.576E-01
   -.130E-03 0.487E+00 -.118E+04   0.243E-03 -.980E+00 0.117E+04   -.323E-07 0.486E+00 0.100E+01   -.707E-03 0.517E-01 -.364E-01
   -.273E-04 0.232E-04 -.365E+04   0.350E-04 -.338E-04 0.365E+04   0.433E-18 0.208E-17 0.220E+01   0.123E-02 0.757E-03 0.220E+00
   0.216E+02 0.288E+02 -.364E+04   -.214E+02 -.286E+02 0.364E+04   -.339E+00 -.326E+00 0.224E+01   0.247E-01 -.532E-02 0.158E+00
   -.216E+02 0.288E+02 -.364E+04   0.214E+02 -.286E+02 0.364E+04   0.339E+00 -.326E+00 0.224E+01   -.455E-01 -.259E-02 0.158E+00
   0.357E+02 0.432E+01 -.364E+04   -.354E+02 -.423E+01 0.364E+04   -.452E+00 -.131E+00 0.224E+01   0.784E-02 0.240E-01 0.158E+00
   -.357E+02 0.432E+01 -.364E+04   0.354E+02 -.423E+01 0.364E+04   0.452E+00 -.131E+00 0.224E+01   -.316E-01 0.250E-01 0.157E+00
   0.141E+02 -.331E+02 -.364E+04   -.141E+02 0.328E+02 0.364E+04   -.113E+00 0.457E+00 0.224E+01   -.250E-01 -.381E-01 0.158E+00
   -.141E+02 -.331E+02 -.364E+04   0.141E+02 0.328E+02 0.364E+04   0.113E+00 0.457E+00 0.224E+01   0.657E-02 -.398E-01 0.157E+00
   -.148E-03 -.180E-04 -.367E+04   0.260E-03 0.188E-05 0.367E+04   0.236E-17 -.295E-17 0.254E+01   -.118E-01 -.597E-02 0.242E+00
   0.138E-03 -.185E-03 -.420E+04   0.151E-03 0.344E-04 0.421E+04   0.363E-17 -.123E-17 -.632E+00   0.858E-02 0.514E-02 -.145E+00
   0.643E-04 -.231E-04 -.167E+04   0.905E-05 0.448E-05 0.168E+04   -.114E-17 -.160E-18 -.417E+01   0.941E-03 0.562E-03 -.660E-01
   0.428E-04 -.137E-03 0.420E+01   -.555E-13 -.320E-12 -.637E-11   0.881E-16 -.599E-16 -.498E+01   -.888E-03 -.345E-02 0.719E+00

 POSITION                                       TOTAL-FORCE (eV/Angst)
      0.00000      0.00000      5.37156         0.000000      0.000000      0.037138
      2.56560      0.00000      5.37156        -0.001780     -0.000164      0.048745
      5.13119      0.00000      5.37156         0.001780     -0.000164      0.048745
      1.28280      2.22187      5.37156        -0.001031     -0.001459      0.048745
      3.84839      2.22187      5.37156         0.000000      0.000000      0.026392
      6.41399      2.22187      5.37156         0.001031     -0.001459      0.048745
      2.56560      4.44374      5.37156         0.000748      0.001623      0.048745
      5.13119      4.44374      5.37156        -0.000748      0.001623      0.048745
      7.69679      4.44374      5.37156         0.000000      0.000000      0.036532
      1.28280      0.74062      7.46636         0.028822      0.016640     -0.060411
      3.84839      0.74062      7.46636         0.000000     -0.007398     -0.050359
      6.41399      0.74062      7.46636        -0.028822      0.016640     -0.060411
      2.56560      2.96249      7.46636        -0.006407      0.003699     -0.050359
      5.13119      2.96249      7.46636         0.006407      0.003699     -0.050359
      7.69679      2.96249      7.46636        -0.000000      0.010480      0.008676
      3.84839      5.18437      7.46636         0.000000     -0.033281     -0.060411
      6.41399      5.18437      7.46636         0.009076     -0.005240      0.008676
      8.97958      5.18437      7.46636        -0.009076     -0.005240      0.008676
      7.69679      1.47855      9.54201        -0.000000      0.016925      0.113911
      2.56706      1.48209      9.56134        -0.253102     -0.146128     -0.294821
      5.12972      1.48209      9.56134         0.253102     -0.146128     -0.294821
      8.97774      3.70418      9.56312         0.039925     -0.023051      0.053205
      3.84839      3.70142      9.56134        -0.000000      0.292257     -0.294821
      6.41583      3.70418      9.56312        -0.039925     -0.023051      0.053205
     10.26471      5.92634      9.54201        -0.014658     -0.008463      0.113911
      5.12886      5.92634      9.54201         0.014658     -0.008463      0.113911
      7.69679      5.92286      9.56312        -0.000000      0.046102      0.053205
      0.00000      0.00000     11.64396         0.000000      0.000000     -0.143675
      6.40056      6.63873     11.66709        -0.086387     -0.135949      0.058098
      8.99302      6.63873     11.66709         0.086387     -0.135949      0.058098
      8.94959      2.22368     11.66709        -0.160928     -0.006839      0.058098
      6.44399      2.22368     11.66709         0.160928     -0.006839      0.058098
     10.24582      4.46882     11.66709        -0.074542      0.142787      0.058098
      5.14776      4.46882     11.66709         0.074542      0.142787      0.058098
      7.69679      4.44374     11.66626         0.000000      0.000000     -0.147057
      3.84839      2.22187     11.77465         0.000000      0.000000      0.264266
      3.84839      2.22187     13.58283         0.000000      0.000000     -0.025255
    total drift:                               -0.000845     -0.003585     -0.063291

  FREE ENERGIE OF THE ION-ELECTRON SYSTEM (eV)
  free  energy   TOTEN  =      -137.12659772 eV

  energy  without entropy=     -137.12659772  energy(sigma->0) =     -137.12659772

 stress matrix after NEB project (eV)
     -3.10764      0.00000     -0.00000
      0.00000     -3.10764      0.00000
     -0.00000      0.00000     -0.91028
  FORCES: max atom, RMS     0.025255    0.004152
  FORCE total and by dimension    0.025255    0.025255
  Stress total and by dimension    4.488149    3.107642
|           W    W    AA    RRRRR   N    N  II  N    N   GGGG   !!!           |
|           W    W   A  A   R    R  NN   N  II  NN   N  G    G  !!!           |
|           W    W  A    A  R    R  N N  N  II  N N  N  G       !!!           |
|           W WW W  AAAAAA  RRRRR   N  N N  II  N  N N  G  GGG   !            |
|           WW  WW  A    A  R   R   N   NN  II  N   NN  G    G                |
|           W    W  A    A  R    R  N    N  II  N    N   GGGG   !!!           |
|     Tetrahedron method does not include variations of the Fermi             |
|     occupations, so forces and stress will be inaccurate. We suggest        |
|     using a different smearing scheme ISMEAR = 1 or 2 for metals in         |
|     relaxations.                                                            |

 total charge

# of ion       s       p       d       tot
    1        0.446   0.286   9.186   9.918
    2        0.449   0.285   9.186   9.919
    3        0.449   0.285   9.186   9.919
    4        0.449   0.285   9.186   9.919
    5        0.449   0.285   9.185   9.918
    6        0.449   0.285   9.186   9.919
    7        0.449   0.285   9.186   9.919
    8        0.449   0.285   9.186   9.919
    9        0.447   0.284   9.188   9.919
   10        0.441   0.373   9.177   9.991
   11        0.443   0.366   9.181   9.990
   12        0.441   0.373   9.177   9.991
   13        0.443   0.366   9.181   9.990
   14        0.443   0.366   9.181   9.990
   15        0.438   0.372   9.176   9.986
   16        0.441   0.373   9.177   9.991
   17        0.438   0.372   9.176   9.986
   18        0.438   0.372   9.176   9.986
   19        0.442   0.368   9.183   9.992
   20        0.450   0.385   9.173  10.008
   21        0.450   0.385   9.173  10.008
   22        0.430   0.373   9.180   9.983
   23        0.450   0.385   9.173  10.008
   24        0.430   0.373   9.180   9.983
   25        0.442   0.368   9.183   9.992
   26        0.442   0.368   9.183   9.992
   27        0.430   0.373   9.180   9.983
   28        0.447   0.292   9.185   9.925
   29        0.474   0.305   9.174   9.952
   30        0.474   0.305   9.174   9.952
   31        0.474   0.305   9.174   9.952
   32        0.474   0.305   9.174   9.952
   33        0.474   0.305   9.174   9.952
   34        0.474   0.305   9.174   9.952
   35        0.447   0.294   9.185   9.926
   36        2.215   6.010   2.780  11.005
   37        1.009   1.219   0.000   2.227
tot         18.922  18.916 324.079 361.917

 BZINTS: Fermi energy:   -0.526547;  402.000000 electrons
         Band energy:-0.162942E+04;  BLOECHL correction:   -0.063661