 vasp.6.2.0 18Jan21 (build Jun 12 2021 23:27:24) complex

 executed on             LinuxIFC date 2022.05.27  06:21:57

 INCAR:
   ISMEAR = -5
   SIGMA = 0.1
   ISPIN = 1
   EDIFF = 1.d-5
   EDIFFG = -0.01
   NSW = 0
   NELM = 150
   ENCUT = 500
   ISIF = 2
   IBRION = 2
   LREAL = Auto
   ALGO = Fast
   ICHARG = 11
   LORBIT = 10
   LCHARG = .F.
   LWAVE = .F.

 POTCAR:    PAW_PBE Cu 22Jun2005
 POTCAR:    PAW_PBE Pt 04Feb2005
 POTCAR:    PAW_PBE C 08Apr2002
 POTCAR:    PAW_PBE O 08Apr2002
|           W    W    AA    RRRRR   N    N  II  N    N   GGGG   !!!           |
|           W    W   A  A   R    R  NN   N  II  NN   N  G    G  !!!           |
|           W    W  A    A  R    R  N N  N  II  N N  N  G       !!!           |
|           W WW W  AAAAAA  RRRRR   N  N N  II  N  N N  G  GGG   !            |
|           WW  WW  A    A  R   R   N   NN  II  N   NN  G    G                |
|           W    W  A    A  R    R  N    N  II  N    N   GGGG   !!!           |
|     For optimal performance we recommend to set                             |
|       NCORE = 2 up to number-of-cores-per-socket                            |
|     This setting can greatly improve the performance of VASP for DFT.       |
|     The default, NCORE=1 might be grossly inefficient on modern             |
|     multi-core architectures or massively parallel machines. Do your        |
|     Unfortunately you need to use the default for GW and RPA                |
|     calculations (for HF NCORE is supported but not extensively tested      |
|     yet).                                                                   |

 POTCAR:    PAW_PBE Cu 22Jun2005
   VRHFIN =Cu: d10 p1

   TITEL  = PAW_PBE Cu 22Jun2005
   POMASS =   63.546; ZVAL   =   11.000    mass and valenz
   ENMAX  =  295.446; ENMIN  =  221.585 eV

 POTCAR:    PAW_PBE Pt 04Feb2005
   VRHFIN =Pt: s1d9

   TITEL  = PAW_PBE Pt 04Feb2005
   POMASS =  195.080; ZVAL   =   10.000    mass and valenz
   ENMAX  =  230.283; ENMIN  =  172.712 eV

 POTCAR:    PAW_PBE C 08Apr2002
   VRHFIN =C: s2p2

   TITEL  = PAW_PBE C 08Apr2002
   POMASS =   12.011; ZVAL   =    4.000    mass and valenz
   ENMAX  =  400.000; ENMIN  =  300.000 eV

 POTCAR:    PAW_PBE O 08Apr2002
   VRHFIN =O: s2p4

   TITEL  = PAW_PBE O 08Apr2002
   POMASS =   16.000; ZVAL   =    6.000    mass and valenz
   ENMAX  =  400.000; ENMIN  =  300.000 eV

 Optimization of the real space projectors (new method)

 maximal supplied QI-value         = 16.25
 optimisation between [QCUT,QGAM] = [ 11.38, 22.75] = [ 36.24,144.96] Ry
 Optimized for a Real-space Cutoff    1.52 Angstroem

   l    n(q)    QCUT    max X(q) W(low)/X(q) W(high)/X(q)  e(spline)
   2      9    11.376     4.610    0.21E-03    0.10E-03    0.26E-06
   2      9    11.376     8.522    0.33E-03    0.16E-03    0.37E-06
   0     10    11.376    51.609    0.62E-04    0.20E-04    0.13E-06
   0     10    11.376    27.747    0.54E-04    0.20E-04    0.13E-06
   1     10    11.376    20.408    0.13E-04    0.99E-04    0.19E-06
   1     10    11.376    13.425    0.12E-04    0.87E-04    0.17E-06
 Optimization of the real space projectors (new method)

[...]

   l    n(q)    QCUT    max X(q) W(low)/X(q) W(high)/X(q)  e(spline)
   0      7    11.310   115.676    0.43E-03    0.13E-02    0.19E-06
   0      7    11.310    87.132    0.43E-03    0.13E-02    0.18E-06
   1      6    11.310     4.429    0.42E-03    0.74E-03    0.11E-06
   1      6    11.310     2.733    0.34E-03    0.55E-03    0.92E-07
 Optimization of the real space projectors (new method)

 maximal supplied QI-value         = 24.76
 optimisation between [QCUT,QGAM] = [ 11.39, 22.77] = [ 36.31,145.25] Ry
 Optimized for a Real-space Cutoff    1.00 Angstroem

   l    n(q)    QCUT    max X(q) W(low)/X(q) W(high)/X(q)  e(spline)
   0      7    11.387    20.381    0.39E-03    0.13E-02    0.15E-06
   0      7    11.387    15.268    0.42E-03    0.14E-02    0.17E-06
   1      6    11.387     5.964    0.41E-03    0.11E-02    0.17E-06
   1      6    11.387     5.382    0.39E-03    0.87E-03    0.15E-06
  PAW_PBE Cu 22Jun2005                  :
  PAW_PBE Pt 04Feb2005                  :
  PAW_PBE C 08Apr2002                   :
  PAW_PBE O 08Apr2002                   :

 POSCAR: Cu-Pt-CO
  positions in direct lattice
  velocities in cartesian coordinates
 exchange correlation table for  LEXCH =        8
   RHO(1)=    0.500       N(1)  =     2000
   RHO(2)=  100.500       N(2)  =     4000

 VTST: version 3.2, (02/03/18)

 CHAIN: initializing optimizer

 OPT: Using VASP Conjugate-Gradient optimizer
 CHAIN: Read ICHAIN            0

 POSCAR: Cu-Pt-CO
  positions in direct lattice
  velocities in cartesian coordinates

 ion  position               nearest neighbor table
   1  0.000  0.000  0.218-   7 2.57   3 2.57   4 2.57   2 2.57   6 2.57   8 2.57  12 2.57  10 2.57
                            16 2.57
   2  0.333  0.000  0.218-   8 2.57   9 2.57   5 2.57   1 2.57   3 2.57  11 2.57   4 2.57  10 2.57
                            17 2.57
   3  0.667  0.000  0.218-   1 2.57   7 2.57   6 2.57   9 2.57   2 2.57  12 2.57   5 2.57  18 2.57
                            11 2.57
   4  0.000  0.333  0.218-   5 2.57   6 2.57   1 2.57   7 2.57   2 2.57  13 2.57   9 2.57  10 2.57
                            15 2.57
   5  0.333  0.333  0.218-   4 2.57   2 2.57   7 2.57  13 2.57   8 2.57   6 2.57   3 2.57  11 2.57
                            14 2.57
   6  0.667  0.333  0.218-   4 2.57   9 2.57  15 2.57   3 2.57   1 2.57   8 2.57  14 2.57   5 2.57
                            12 2.57
   7  0.000  0.667  0.218-   1 2.57   3 2.57  16 2.57  18 2.57   4 2.57   5 2.57   8 2.57   9 2.57
                            13 2.57
   8  0.333  0.667  0.218-   9 2.57   2 2.57  17 2.57   6 2.57   1 2.57   7 2.57   5 2.57  14 2.57
                            16 2.57
   9  0.667  0.667  0.218-   8 2.57   6 2.57   2 2.57  17 2.57   3 2.57   7 2.57   4 2.57  15 2.57
                            18 2.57
  10  0.111  0.111  0.303-  20 2.53  26 2.56  19 2.56  11 2.57  12 2.57  13 2.57   1 2.57   2 2.57
                             4 2.57  15 2.57  16 2.57  17 2.57
  11  0.444  0.111  0.303-  20 2.55  21 2.55  27 2.56  10 2.57  13 2.57   2 2.57  17 2.57  14 2.57
                            12 2.57   5 2.57   3 2.57  18 2.57
  12  0.778  0.111  0.303-  21 2.53  19 2.56  25 2.56  15 2.57  10 2.57  14 2.57  18 2.57   3 2.57
                             1 2.57  16 2.57  11 2.57   6 2.57
  13  0.111  0.444  0.303-  23 2.55  20 2.55  22 2.56  16 2.57  18 2.57  10 2.57  11 2.57  14 2.57
                             5 2.57   4 2.57   7 2.57  15 2.57
  14  0.444  0.444  0.303-  21 2.55  23 2.55  24 2.56  15 2.57  17 2.57  12 2.57  16 2.57  13 2.57
                            11 2.57   6 2.57   8 2.57   5 2.57
  15  0.778  0.444  0.303-  19 2.56  24 2.56  22 2.56  14 2.57  17 2.57  12 2.57   6 2.57  18 2.57
                            10 2.57   9 2.57  13 2.57   4 2.57
  16  0.111  0.778  0.303-  23 2.53  25 2.56  26 2.56  18 2.57  13 2.57   7 2.57  14 2.57  17 2.57
                            12 2.57  10 2.57   8 2.57   1 2.57
  17  0.444  0.778  0.303-  26 2.56  27 2.56  24 2.56  14 2.57  15 2.57   8 2.57   9 2.57  11 2.57
                            16 2.57  18 2.57  10 2.57   2 2.57
  18  0.778  0.778  0.303-  25 2.56  22 2.56  27 2.56  16 2.57  13 2.57   7 2.57  15 2.57  12 2.57
                            17 2.57   9 2.57   3 2.57  11 2.57
  19  0.888  0.223  0.387-  28 2.54  32 2.55  31 2.55  21 2.55  20 2.55  15 2.56  12 2.56  10 2.56
                            22 2.56  24 2.56  25 2.58  26 2.58
  20  0.221  0.221  0.387-  10 2.53  11 2.55  13 2.55  26 2.55  19 2.55  27 2.57  22 2.57  29 2.59
                            31 2.59  36 2.60  23 2.60  21 2.60
  21  0.558  0.221  0.387-  12 2.53  14 2.55  11 2.55  19 2.55  25 2.55  24 2.57  27 2.57  32 2.59
                            30 2.59  36 2.60  20 2.60  23 2.60
  22  0.889  0.556  0.387-  35 2.54  18 2.56  15 2.56  13 2.56  19 2.56  25 2.56  24 2.56  27 2.56
                            31 2.57  33 2.57  23 2.57  20 2.57
  23  0.221  0.558  0.387-  16 2.53  13 2.55  14 2.55  25 2.55  26 2.55  22 2.57  24 2.57  33 2.59
                            34 2.59  36 2.60  20 2.60  21 2.60
  24  0.556  0.556  0.387-  35 2.54  15 2.56  17 2.56  14 2.56  19 2.56  26 2.56  22 2.56  27 2.56
                            32 2.57  34 2.57  21 2.57  23 2.57
  25  0.888  0.888  0.387-  28 2.54  33 2.55  30 2.55  21 2.55  23 2.55  18 2.56  16 2.56  12 2.56
                            22 2.56  27 2.56  19 2.58  26 2.58
  26  0.223  0.888  0.387-  28 2.54  29 2.55  34 2.55  20 2.55  23 2.55  17 2.56  10 2.56  16 2.56
                            27 2.56  24 2.56  25 2.58  19 2.58
  27  0.556  0.889  0.387-  35 2.54  17 2.56  18 2.56  11 2.56  26 2.56  25 2.56  24 2.56  22 2.56
                            29 2.57  30 2.57  20 2.57  21 2.57
  28  0.000  0.000  0.471-  25 2.54  19 2.54  26 2.54  33 2.55  30 2.55  31 2.55  29 2.55  32 2.55
                            34 2.55
  29  0.333  0.997  0.472-  34 2.52  26 2.55  28 2.55  35 2.56  27 2.57  31 2.59  20 2.59  36 2.59
                            30 2.59
  30  0.670  0.997  0.472-  33 2.52  25 2.55  28 2.55  35 2.56  27 2.57  32 2.59  21 2.59  36 2.59
                            29 2.59
  31  0.997  0.333  0.472-  32 2.52  19 2.55  28 2.55  35 2.56  22 2.57  29 2.59  20 2.59  36 2.59
                            33 2.59
  32  0.670  0.333  0.472-  31 2.52  19 2.55  28 2.55  35 2.56  24 2.57  30 2.59  21 2.59  36 2.59
                            34 2.59
  33  0.997  0.670  0.472-  30 2.52  25 2.55  28 2.55  35 2.56  22 2.57  34 2.59  23 2.59  36 2.59
                            31 2.59
  34  0.333  0.670  0.472-  29 2.52  26 2.55  28 2.55  35 2.56  24 2.57  33 2.59  23 2.59  36 2.59
                            32 2.59
  35  0.667  0.667  0.471-  24 2.54  27 2.54  22 2.54  34 2.56  32 2.56  29 2.56  30 2.56  33 2.56
                            31 2.56
  36  0.333  0.333  0.472-  37 1.89  31 2.59  29 2.59  33 2.59  34 2.59  32 2.59  30 2.59  23 2.60
                            20 2.60  21 2.60
  37  0.333  0.333  0.549-  38 1.16  36 1.89
  38  0.333  0.333  0.596-  37 1.16

  LATTYP: Found a hexagonal cell.
 ALAT       =     7.6967864036
 C/A-ratio  =     3.2035062624

  Lattice vectors:

 A1 = (  -3.8483927580,  -6.6656128093,   0.0000000000)
 A2 = (   7.6967864037,   0.0000000000,   0.0000000000)
 A3 = (   0.0000000000,   0.0000000000,  24.6567034444)

Analysis of symmetry for initial positions (statically):
 Subroutine PRICEL returns:
 Original cell was already a primitive cell.

 Routine SETGRP: Setting up the symmetry group for a
 hexagonal supercell.

 Subroutine GETGRP returns: Found  6 space group operations
 (whereof  6 operations were pure point group operations)
 out of a pool of 24 trial point group operations.

The static configuration has the point symmetry C_3v.

Analysis of symmetry for dynamics (positions and initial velocities):
 Subroutine PRICEL returns:
 Original cell was already a primitive cell.

[...]

The dynamic configuration has the point symmetry C_3v.

Analysis of constrained symmetry for selective dynamics:
 Subroutine PRICEL returns:
[...]
     33      -4.5706      2.00000
     34      -4.5527      2.00000
     35      -4.5145      2.00000
     36      -4.4936      2.00000
     37      -4.4913      2.00000
     38      -4.4832      2.00000
     39      -4.4523      2.00000
     40      -4.4179      2.00000
     41      -4.3506      2.00000
     42      -4.2608      2.00000
     43      -4.2248      2.00000
     44      -4.1829      2.00000
     45      -4.1737      2.00000
     46      -4.1172      2.00000
     47      -4.0904      2.00000
     48      -4.0798      2.00000
     49      -4.0687      2.00000
     50      -4.0647      2.00000
     51      -3.9348      2.00000
     52      -3.9247      2.00000
     53      -3.9114      2.00000
     54      -3.8772      2.00000
     55      -3.8394      2.00000
     56      -3.8268      2.00000
     57      -3.7937      2.00000
     58      -3.7746      2.00000
     59      -3.7608      2.00000
     60      -3.7480      2.00000
[...]
    238       5.2849      0.00000
    239       5.4599      0.00000
    240       5.5966      0.00000
    241       5.6892      0.00000
    242       5.8469      0.00000
    243       5.8517      0.00000
    244       5.8620      0.00000
    245       5.9656      0.00000
    246       6.0263      0.00000
    247       6.1424      0.00000
    248       6.2752      0.00000
    249       6.4757      0.00000
    250       6.7541      0.00000
    251       6.8604      0.00000
    252       7.0760      0.00000

 soft charge-density along one line, spin component           1
         0         1         2         3         4         5         6         7         8         9
 total charge-density along one line

------------------------ aborting loop because EDIFF is reached ----------------------------------------

 total charge

# of ion       s       p       d       tot
    1        0.446   0.285   9.188   9.918
    2        0.450   0.284   9.187   9.921
    3        0.450   0.284   9.187   9.921
    4        0.450   0.284   9.187   9.921
    5        0.448   0.287   9.185   9.920
    6        0.450   0.284   9.187   9.921
    7        0.450   0.284   9.187   9.921
    8        0.450   0.284   9.187   9.921
    9        0.445   0.286   9.187   9.918
   10        0.441   0.374   9.178   9.993
   11        0.444   0.370   9.182   9.995
   12        0.441   0.374   9.178   9.993
   13        0.444   0.370   9.182   9.995
   14        0.444   0.370   9.182   9.995
   15        0.437   0.372   9.181   9.990
   16        0.441   0.374   9.178   9.993
   17        0.437   0.372   9.181   9.990
   18        0.437   0.372   9.181   9.990
   19        0.444   0.375   9.181   9.999
   20        0.444   0.390   9.174  10.008
   21        0.444   0.390   9.174  10.008
   22        0.437   0.375   9.181   9.992
   23        0.444   0.390   9.174  10.008
   24        0.437   0.375   9.181   9.992
   25        0.444   0.375   9.181   9.999
   26        0.444   0.375   9.181   9.999
   27        0.437   0.375   9.181   9.992
   28        0.456   0.292   9.193   9.941
   29        0.444   0.303   9.196   9.942
   30        0.444   0.303   9.196   9.942
   31        0.444   0.303   9.196   9.942
   32        0.444   0.303   9.196   9.942
   33        0.444   0.303   9.196   9.942
   34        0.444   0.303   9.196   9.942
   35        0.453   0.293   9.194   9.939
   36        0.750   0.807   8.077   9.633
   37        0.955   1.558   0.000   2.513
   38        1.617   3.526   0.000   5.143
tot         18.866  17.623 329.552 366.040

  FORCE on cell =-STRESS in cart. coord.  units (eV):
  Direction    XX          YY          ZZ          XY          YZ          ZX
  Alpha Z   789.42693   789.42693   789.42693
  Ewald  241840.78069241840.78024************     0.00040     0.00012     0.00019
  Hartree254807.90384254807.90381************     0.00004     0.00006     0.00007
  E(xc)   -2336.92961 -2336.92916 -2339.88412    -0.00039    -0.00003    -0.00005
  Local  ************************509745.14873     0.01881    -0.00058    -0.00096
  n-local  -770.26833  -756.17158  -785.55259     7.58581    -0.04392     0.10783
  augment  3367.77828  3367.79848  3377.33028    -0.01749     0.00035     0.00061
  Kinetic  3476.54026  3478.57110  3457.67062     2.75263     2.06076    -1.51435
  Fock        0.00000     0.00000     0.00000     0.00000     0.00000     0.00000
  Total       0.24325     0.24325     3.94445    -0.00000     0.00000     0.00000
  in kB       0.30809     0.30809     4.99588    -0.00000     0.00000     0.00000

 VOLUME and BASIS-vectors are now :
  energy-cutoff  :      500.00
  volume of cell :     1264.98
      direct lattice vectors                 reciprocal lattice vectors
     7.696786404  0.000000000  0.000000000     0.129924354 -0.075011849  0.000000000
     3.848392758  6.665612809  0.000000000     0.000000000  0.150023716  0.000000000
     0.000000000  0.000000000 24.656703444     0.000000000  0.000000000  0.040556922

  length of vectors
     7.696786404  7.696786404 24.656703444     0.150023716  0.150023716  0.040556922

 FORCES acting on ions
    electron-ion (+dipol)            ewald-force                    non-local-force                 convergence-correction
   -.427E-04 -.434E-06 0.384E+04   0.579E-04 -.441E-05 -.384E+04   -.107E-17 -.799E-18 -.311E+01   -.327E-03 -.156E-03 -.852E+00
   -.365E-01 0.519E-01 0.384E+04   0.969E-01 0.345E-01 -.384E+04   -.207E-01 -.223E-01 -.205E+01   -.303E-01 -.452E-01 -.757E+00
   0.365E-01 0.519E-01 0.384E+04   -.970E-01 0.344E-01 -.384E+04   0.207E-01 -.223E-01 -.205E+01   0.311E-01 -.428E-01 -.756E+00
   0.267E-01 -.576E-01 0.384E+04   0.782E-01 0.668E-01 -.384E+04   -.296E-01 -.676E-02 -.205E+01   -.542E-01 -.368E-02 -.757E+00
   -.673E-04 -.659E-05 0.384E+04   0.116E-03 -.101E-04 -.384E+04   -.448E-17 -.167E-18 -.195E+01   0.121E-01 0.738E-02 -.641E+00
   -.267E-01 -.575E-01 0.384E+04   -.783E-01 0.666E-01 -.384E+04   0.296E-01 -.676E-02 -.205E+01   0.527E-01 -.254E-02 -.756E+00
   0.632E-01 0.562E-02 0.384E+04   -.187E-01 -.101E+00 -.384E+04   -.896E-02 0.290E-01 -.205E+01   -.215E-01 0.483E-01 -.756E+00
   -.631E-01 0.561E-02 0.384E+04   0.184E-01 -.101E+00 -.384E+04   0.896E-02 0.290E-01 -.205E+01   0.248E-01 0.469E-01 -.756E+00
   -.145E-03 -.336E-04 0.384E+04   0.263E-03 0.206E-04 -.384E+04   -.305E-17 0.157E-17 -.260E+01   -.131E-01 -.675E-02 -.774E+00
   0.230E+01 0.133E+01 0.135E+04   -.185E+01 -.107E+01 -.135E+04   -.439E+00 -.253E+00 -.102E+01   -.217E-03 -.139E-03 -.494E+00
   -.898E-04 -.128E+01 0.135E+04   0.191E-03 0.128E+01 -.134E+04   0.437E-09 -.656E-02 -.767E+00   0.118E-01 -.231E-01 -.417E+00
   -.230E+01 0.133E+01 0.135E+04   0.185E+01 -.107E+01 -.135E+04   0.439E+00 -.253E+00 -.102E+01   -.124E-02 0.435E-03 -.495E+00
   -.111E+01 0.642E+00 0.135E+04   0.111E+01 -.640E+00 -.134E+04   -.568E-02 0.328E-02 -.767E+00   -.137E-01 0.226E-01 -.417E+00
   0.111E+01 0.642E+00 0.135E+04   -.111E+01 -.640E+00 -.134E+04   0.568E-02 0.328E-02 -.767E+00   0.368E-01 0.209E-01 -.420E+00
   -.142E-03 -.204E+00 0.135E+04   0.298E-03 0.137E+00 -.135E+04   -.124E-08 0.186E-01 -.682E+00   -.298E-02 0.326E-01 -.498E+00
   -.909E-04 -.266E+01 0.135E+04   0.186E-03 0.213E+01 -.135E+04   -.337E-07 0.506E+00 -.102E+01   -.117E-02 -.250E-02 -.495E+00
   -.177E+00 0.102E+00 0.135E+04   0.119E+00 -.684E-01 -.135E+04   0.161E-01 -.931E-02 -.682E+00   0.275E-01 -.189E-01 -.498E+00
   0.177E+00 0.102E+00 0.135E+04   -.119E+00 -.685E-01 -.135E+04   -.161E-01 -.931E-02 -.682E+00   -.258E-01 -.166E-01 -.496E+00
   -.503E-04 0.110E+01 -.117E+04   0.679E-04 -.112E+01 0.117E+04   0.124E-08 -.186E-01 0.782E+00   0.105E-02 0.713E-02 0.332E+00
   -.224E+02 -.129E+02 -.117E+04   0.229E+02 0.132E+02 0.117E+04   -.474E+00 -.273E+00 -.324E+00   0.540E-01 0.311E-01 0.394E+00
   0.224E+02 -.129E+02 -.117E+04   -.229E+02 0.132E+02 0.117E+04   0.474E+00 -.273E+00 -.324E+00   -.751E-01 0.286E-01 0.394E+00
   -.121E+02 0.697E+01 -.117E+04   0.116E+02 -.670E+01 0.117E+04   0.463E+00 -.268E+00 0.110E+01   0.346E-01 -.681E-02 0.306E+00
   -.841E-04 0.258E+02 -.117E+04   0.146E-03 -.264E+02 0.117E+04   -.364E-07 0.547E+00 -.324E+00   -.139E-01 -.805E-01 0.394E+00
   0.121E+02 0.697E+01 -.117E+04   -.116E+02 -.670E+01 0.117E+04   -.463E+00 -.268E+00 0.110E+01   -.110E-01 -.721E-02 0.306E+00
   -.956E+00 -.552E+00 -.117E+04   0.966E+00 0.558E+00 0.117E+04   0.161E-01 0.932E-02 0.782E+00   -.792E-02 -.456E-02 0.332E+00
   0.956E+00 -.552E+00 -.117E+04   -.967E+00 0.558E+00 0.117E+04   -.161E-01 0.932E-02 0.782E+00   0.705E-02 -.245E-02 0.332E+00
   -.126E-03 -.139E+02 -.117E+04   0.246E-03 0.134E+02 0.117E+04   -.356E-07 0.535E+00 0.110E+01   0.113E-01 0.333E-01 0.306E+00
   -.336E-04 0.188E-04 -.367E+04   0.366E-04 -.340E-04 0.367E+04   0.269E-17 -.173E-17 0.201E+01   -.169E-03 -.462E-04 0.733E+00
   -.123E+01 0.679E+00 -.366E+04   0.657E+00 -.199E+01 0.366E+04   0.456E+00 0.103E+01 0.261E+01   -.511E-02 0.305E-01 0.693E+00
   0.123E+01 0.680E+00 -.366E+04   -.657E+00 -.199E+01 0.366E+04   -.456E+00 0.103E+01 0.261E+01   0.569E-02 0.318E-01 0.693E+00
   -.247E-01 -.140E+01 -.366E+04   -.140E+01 0.157E+01 0.366E+04   0.112E+01 -.122E+00 0.261E+01   0.239E-01 -.198E-01 0.693E+00
   0.248E-01 -.140E+01 -.366E+04   0.140E+01 0.157E+01 0.366E+04   -.112E+01 -.122E+00 0.261E+01   -.242E-01 -.190E-01 0.695E+00
   0.120E+01 0.722E+00 -.366E+04   -.205E+01 0.427E+00 0.366E+04   0.667E+00 -.911E+00 0.261E+01   0.304E-01 -.110E-01 0.693E+00
   -.120E+01 0.722E+00 -.366E+04   0.205E+01 0.427E+00 0.366E+04   -.667E+00 -.911E+00 0.261E+01   -.278E-01 -.115E-01 0.695E+00
   -.165E-03 -.316E-04 -.367E+04   0.259E-03 0.370E-05 0.367E+04   0.445E-17 -.889E-18 0.228E+01   -.124E-01 -.635E-02 0.650E+00
   -.143E-04 -.288E-04 -.314E+04   0.123E-03 0.248E-04 0.314E+04   0.280E-17 -.385E-17 -.878E+00   0.235E-02 0.143E-02 0.532E+00
   -.675E-05 -.811E-04 -.141E+04   0.946E-05 0.459E-05 0.139E+04   0.561E-18 0.549E-18 0.146E+02   0.105E-02 0.637E-03 0.874E-01
   0.227E-03 -.739E-04 -.227E+04   0.248E-05 0.232E-05 0.233E+04   0.228E-19 0.681E-20 -.605E+02   0.324E-02 0.198E-02 -.510E-02
   -.121E-04 -.166E-03 0.512E+02   0.970E-13 -.181E-12 -.227E-11   0.341E-15 -.115E-15 -.494E+02   0.294E-01 0.141E-01 -.178E+01

 POSITION                                       TOTAL-FORCE (eV/Angst)
      0.00000      0.00000      5.37156         0.000000      0.000000      0.083584
      2.56560      0.00000      5.37156         0.009862      0.019927      0.097594
      5.13119      0.00000      5.37156        -0.009862      0.019927      0.097594
      1.28280      2.22187      5.37156         0.022188     -0.001423      0.097594
      3.84839      2.22187      5.37156         0.000000      0.000000      0.077235
      6.41399      2.22187      5.37156        -0.022188     -0.001423      0.097594
      2.56560      4.44374      5.37156         0.012327     -0.018504      0.097594
      5.13119      4.44374      5.37156        -0.012327     -0.018504      0.097594
      7.69679      4.44374      5.37156         0.000000      0.000000      0.084758
      1.28280      0.74062      7.46636         0.016838      0.009721     -0.083917
      3.84839      0.74062      7.46636         0.000000     -0.039466     -0.158579
      6.41399      0.74062      7.46636        -0.016838      0.009721     -0.083917
      2.56560      2.96249      7.46636        -0.034178      0.019733     -0.158579
      5.13119      2.96249      7.46636         0.034178      0.019733     -0.158579
      7.69679      2.96249      7.46636         0.000000     -0.015656     -0.052539
      3.84839      5.18437      7.46636         0.000000     -0.019443     -0.083917
      6.41399      5.18437      7.46636        -0.013558      0.007828     -0.052539
      8.97958      5.18437      7.46636         0.013558      0.007828     -0.052539
      7.69679      1.48680      9.55287         0.000000     -0.022701     -0.004034
      2.54973      1.47208      9.52995         0.070151      0.040502     -0.143344
      5.14706      1.47208      9.52995        -0.070151      0.040502     -0.143344
      8.97744      3.70436      9.55084         0.032595     -0.018819      0.020093
      3.84839      3.72144      9.52995         0.000000     -0.081004     -0.143344
      6.41613      3.70436      9.55084        -0.032595     -0.018819      0.020093
     10.25757      5.92221      9.55287         0.019660      0.011351     -0.004034
      5.13600      5.92221      9.55287        -0.019660      0.011351     -0.004034
      7.69679      5.92251      9.55084        -0.000000      0.037637      0.020093
      0.00000      0.00000     11.61595         0.000000      0.000000     -0.024337
      6.40108      6.64688     11.64473        -0.118531     -0.249286     -0.098783
      8.99249      6.64688     11.64473         0.118531     -0.249286     -0.098783
      8.95691      2.22006     11.64473        -0.275153      0.021992     -0.098783
      6.43666      2.22006     11.64473         0.275153      0.021992     -0.098783
     10.25261      4.46428     11.64473        -0.156622      0.227294     -0.098783
      5.14096      4.46428     11.64473         0.156622      0.227294     -0.098783
      7.69679      4.44374     11.61500         0.000000      0.000000      0.005496
      3.84839      2.22187     11.65010         0.000000      0.000000      1.054632
      3.84839      2.22187     13.53573         0.000000      0.000000     -0.002874
      3.84839      2.22187     14.69770         0.000000      0.000000     -0.004402
    total drift:                                0.029414      0.013906     -0.051410

  FREE ENERGIE OF THE ION-ELECTRON SYSTEM (eV)
  free  energy   TOTEN  =      -145.04452194 eV

  energy  without entropy=     -145.04452194  energy(sigma->0) =     -145.04452194

 stress matrix after NEB project (eV)
      0.24325     -0.00000      0.00000
     -0.00000      0.24325     -0.00000
     -0.00000      0.00000      3.94445
  FORCES: max atom, RMS     0.004402    0.000853
  FORCE total and by dimension    0.005257    0.004402
  Stress total and by dimension    3.959421    3.944449
|           W    W    AA    RRRRR   N    N  II  N    N   GGGG   !!!           |
|           W    W   A  A   R    R  NN   N  II  NN   N  G    G  !!!           |
|           W    W  A    A  R    R  N N  N  II  N N  N  G       !!!           |
|           W WW W  AAAAAA  RRRRR   N  N N  II  N  N N  G  GGG   !            |
|           WW  WW  A    A  R   R   N   NN  II  N   NN  G    G                |
|           W    W  A    A  R    R  N    N  II  N    N   GGGG   !!!           |
|     Tetrahedron method does not include variations of the Fermi             |
|     occupations, so forces and stress will be inaccurate. We suggest        |
|     using a different smearing scheme ISMEAR = 1 or 2 for metals in         |
|     relaxations.                                                            |

 total charge

# of ion       s       p       d       tot
    1        0.446   0.285   9.188   9.918
    2        0.450   0.284   9.187   9.921
    3        0.450   0.284   9.187   9.921
    4        0.450   0.284   9.187   9.921
    5        0.448   0.287   9.185   9.920
    6        0.450   0.284   9.187   9.921
    7        0.450   0.284   9.187   9.921
    8        0.450   0.284   9.187   9.921
    9        0.445   0.286   9.187   9.918
   10        0.441   0.374   9.178   9.993
   11        0.444   0.370   9.182   9.995
   12        0.441   0.374   9.178   9.993
   13        0.444   0.370   9.182   9.995
   14        0.444   0.370   9.182   9.995
   15        0.437   0.372   9.181   9.990
   16        0.441   0.374   9.178   9.993
   17        0.437   0.372   9.181   9.990
   18        0.437   0.372   9.181   9.990
   19        0.444   0.375   9.181   9.999
   20        0.444   0.390   9.174  10.008
   21        0.444   0.390   9.174  10.008
   22        0.437   0.375   9.181   9.992
   23        0.444   0.390   9.174  10.008
   24        0.437   0.375   9.181   9.992
   25        0.444   0.375   9.181   9.999
   26        0.444   0.375   9.181   9.999
   27        0.437   0.375   9.181   9.992
   28        0.456   0.292   9.193   9.941
   29        0.444   0.303   9.196   9.942
   30        0.444   0.303   9.196   9.942
   31        0.444   0.303   9.196   9.942
   32        0.444   0.303   9.196   9.942
   33        0.444   0.303   9.196   9.942
   34        0.444   0.303   9.196   9.942
   35        0.453   0.293   9.194   9.939
   36        0.750   0.807   8.077   9.633
   37        0.955   1.558   0.000   2.513
   38        1.617   3.526   0.000   5.143
tot         18.866  17.623 329.552 366.040

 BZINTS: Fermi energy:   -0.416734;  405.000000 electrons
         Band energy:-0.138921E+04;  BLOECHL correction:   -0.066799