 vasp.6.2.0 18Jan21 (build Jun 12 2021 23:27:24) complex

 executed on             LinuxIFC date 2022.05.27  05:12:53

 INCAR:
   ISMEAR = -5
   SIGMA = 0.1
   ISPIN = 1
   EDIFF = 1.d-5
   EDIFFG = -0.01
   NSW = 0
   NELM = 150
   ENCUT = 500
   ISIF = 2
   IBRION = 2
   LREAL = Auto
   ALGO = Fast
   ICHARG = 11
   LORBIT = 10
   LCHARG = .F.
   LWAVE = .F.

 POTCAR:    PAW_PBE Au 04Oct2007
 POTCAR:    PAW_PBE Mo 08Apr2002
 POTCAR:    PAW_PBE N 08Apr2002
|           W    W    AA    RRRRR   N    N  II  N    N   GGGG   !!!           |
|           W    W   A  A   R    R  NN   N  II  NN   N  G    G  !!!           |
|           W    W  A    A  R    R  N N  N  II  N N  N  G       !!!           |
|           W WW W  AAAAAA  RRRRR   N  N N  II  N  N N  G  GGG   !            |
|           WW  WW  A    A  R   R   N   NN  II  N   NN  G    G                |
|           W    W  A    A  R    R  N    N  II  N    N   GGGG   !!!           |
|     For optimal performance we recommend to set                             |
|       NCORE = 2 up to number-of-cores-per-socket                            |
|     This setting can greatly improve the performance of VASP for DFT.       |
|     The default, NCORE=1 might be grossly inefficient on modern             |
|     multi-core architectures or massively parallel machines. Do your        |
|     Unfortunately you need to use the default for GW and RPA                |
|     calculations (for HF NCORE is supported but not extensively tested      |
|     yet).                                                                   |

 POTCAR:    PAW_PBE Au 04Oct2007
   VRHFIN =Au: s1d10

   TITEL  = PAW_PBE Au 04Oct2007
   POMASS =  196.966; ZVAL   =   11.000    mass and valenz
   ENMAX  =  229.943; ENMIN  =  172.457 eV

 POTCAR:    PAW_PBE Mo 08Apr2002
   VRHFIN =Mo: 4p5s4d

   TITEL  = PAW_PBE Mo 08Apr2002
   POMASS =   95.940; ZVAL   =    6.000    mass and valenz
   ENMAX  =  224.584; ENMIN  =  168.438 eV

 POTCAR:    PAW_PBE N 08Apr2002
   VRHFIN =N: s2p3

   TITEL  = PAW_PBE N 08Apr2002
   POMASS =   14.001; ZVAL   =    5.000    mass and valenz
   ENMAX  =  400.000; ENMIN  =  300.000 eV

 Optimization of the real space projectors (new method)

 maximal supplied QI-value         = 15.12
 optimisation between [QCUT,QGAM] = [ 11.34, 22.83] = [ 36.00,145.93] Ry
 Optimized for a Real-space Cutoff    1.39 Angstroem

   l    n(q)    QCUT    max X(q) W(low)/X(q) W(high)/X(q)  e(spline)
   2      9    11.338    60.898    0.39E-03    0.42E-03    0.21E-06
   2      9    11.338    58.894    0.40E-03    0.42E-03    0.22E-06
   0      9    11.338   109.617    0.13E-03    0.20E-04    0.13E-06
   0      9    11.338    75.026    0.13E-03    0.20E-04    0.13E-06
   1      9    11.338    16.344    0.33E-04    0.24E-03    0.18E-06
   1      9    11.338    10.160    0.26E-04    0.19E-03    0.15E-06
 Optimization of the real space projectors (new method)

[...]

   l    n(q)    QCUT    max X(q) W(low)/X(q) W(high)/X(q)  e(spline)
   2     10    11.429    80.908    0.27E-03    0.78E-03    0.13E-05
   2     10    11.429    79.000    0.27E-03    0.78E-03    0.13E-05
   0     11    11.429    52.066    0.33E-04    0.97E-04    0.72E-06
   0     11    11.429    24.514    0.27E-04    0.80E-04    0.60E-06
   1     10    11.429    16.033    0.31E-04    0.17E-03    0.36E-06
   1     10    11.429    11.179    0.22E-04    0.13E-03    0.29E-06
 Optimization of the real space projectors (new method)

 maximal supplied QI-value         = 25.13
 optimisation between [QCUT,QGAM] = [ 11.31, 22.87] = [ 35.82,146.48] Ry
 Optimized for a Real-space Cutoff    1.27 Angstroem

   l    n(q)    QCUT    max X(q) W(low)/X(q) W(high)/X(q)  e(spline)
   0      9    11.310    79.467    0.75E-04    0.16E-03    0.36E-06
   0      9    11.310    66.151    0.74E-04    0.16E-03    0.36E-06
   1      8    11.310    17.416    0.35E-03    0.12E-03    0.95E-06
   1      8    11.310    12.382    0.37E-03    0.13E-03    0.98E-06
  PAW_PBE Au 04Oct2007                  :
  PAW_PBE Mo 08Apr2002                  :
  PAW_PBE N 08Apr2002                   :

 POSCAR: Au-Mo-N2
  positions in direct lattice
  velocities in cartesian coordinates
 exchange correlation table for  LEXCH =        8
   RHO(1)=    0.500       N(1)  =     2000
   RHO(2)=  100.500       N(2)  =     4000

 VTST: version 3.2, (02/03/18)

 CHAIN: initializing optimizer

 OPT: Using VASP Conjugate-Gradient optimizer
 CHAIN: Read ICHAIN            0

 POSCAR: Au-Mo-N2
  positions in direct lattice
  velocities in cartesian coordinates

 ion  position               nearest neighbor table
   1  0.000  0.000  0.214-  16 2.94  12 2.94   6 2.94   8 2.94   7 2.94   3 2.94  10 2.94   4 2.94
                             2 2.94
   2  0.333  0.000  0.214-   9 2.94  11 2.94  17 2.94  10 2.94   8 2.94   4 2.94   5 2.94   1 2.94
                             3 2.94
   3  0.667  0.000  0.214-   7 2.94  18 2.94  12 2.94   1 2.94  11 2.94   5 2.94   6 2.94   9 2.94
                             2 2.94
   4  0.000  0.333  0.214-  10 2.94   6 2.94   5 2.94  13 2.94   2 2.94  15 2.94   9 2.94   1 2.94
                             7 2.94
   5  0.333  0.333  0.214-  13 2.94   7 2.94  11 2.94   4 2.94   2 2.94  14 2.94   3 2.94   8 2.94
                             6 2.94
   6  0.667  0.333  0.214-  15 2.94  14 2.94   1 2.94  12 2.94   4 2.94   9 2.94   8 2.94   3 2.94
                             5 2.94
   7  0.000  0.667  0.214-  18 2.94   3 2.94  16 2.94   5 2.94   1 2.94  13 2.94   8 2.94   4 2.94
                             9 2.94
   8  0.333  0.667  0.214-   9 2.94  17 2.94   1 2.94   2 2.94  14 2.94  16 2.94   6 2.94   7 2.94
                             5 2.94
   9  0.667  0.667  0.214-   2 2.94   8 2.94  17 2.94   6 2.94  15 2.94   4 2.94   3 2.94  18 2.94
                             7 2.94
  10  0.111  0.111  0.312-  20 2.91  11 2.94  17 2.94   2 2.94   4 2.94   1 2.94  12 2.94  16 2.94
                            13 2.94  15 2.94  26 2.95  19 2.95
  11  0.444  0.111  0.312-  20 2.91  21 2.91  13 2.94   2 2.94  10 2.94  17 2.94   5 2.94   3 2.94
                            18 2.94  14 2.94  12 2.94  27 2.94
  12  0.778  0.111  0.312-  21 2.91  16 2.94  18 2.94   1 2.94  14 2.94  15 2.94   3 2.94   6 2.94
                            10 2.94  11 2.94  25 2.95  19 2.95
  13  0.111  0.444  0.312-  23 2.91  20 2.91   5 2.94  18 2.94  11 2.94   7 2.94   4 2.94  16 2.94
                            10 2.94  14 2.94  15 2.94  22 2.94
  14  0.444  0.444  0.312-  21 2.91  23 2.91  15 2.94   6 2.94  12 2.94   8 2.94  17 2.94   5 2.94
                            16 2.94  13 2.94  11 2.94  24 2.94
  15  0.778  0.444  0.312-  24 2.93  22 2.93  14 2.94   6 2.94  17 2.94  12 2.94   9 2.94   4 2.94
                            10 2.94  13 2.94  18 2.94  19 2.95
  16  0.111  0.778  0.312-  23 2.91  18 2.94  12 2.94   7 2.94   1 2.94   8 2.94  13 2.94  10 2.94
                            14 2.94  17 2.94  25 2.95  26 2.95
  17  0.444  0.778  0.312-  27 2.93  24 2.93   9 2.94  15 2.94   2 2.94  10 2.94  11 2.94   8 2.94
                            14 2.94  16 2.94  18 2.94  26 2.95
  18  0.778  0.778  0.312-  22 2.93  27 2.93  16 2.94   7 2.94  13 2.94  12 2.94   3 2.94  11 2.94
                             9 2.94  15 2.94  17 2.94  25 2.95
  19  0.889  0.223  0.410-  24 2.93  22 2.93  21 2.94  20 2.94  28 2.95  26 2.95  25 2.95  15 2.95
                            10 2.95  12 2.95  32 3.02  31 3.02
  20  0.222  0.222  0.408-  36 2.77  11 2.91  13 2.91  10 2.91  23 2.94  21 2.94  26 2.94  19 2.94
                            27 2.95  22 2.95  29 2.98  31 2.98
  21  0.555  0.222  0.408-  36 2.77  14 2.91  11 2.91  12 2.91  20 2.94  23 2.94  25 2.94  19 2.94
                            27 2.95  24 2.95  30 2.98  32 2.98
  22  0.887  0.557  0.408-  24 2.91  27 2.91  18 2.93  15 2.93  25 2.93  19 2.93  13 2.94  35 2.95
                            23 2.95  20 2.95  33 3.00  31 3.00
  23  0.222  0.555  0.408-  36 2.77  13 2.91  14 2.91  16 2.91  20 2.94  21 2.94  25 2.94  26 2.94
                            22 2.95  24 2.95  33 2.98  34 2.98
  24  0.557  0.557  0.408-  27 2.91  22 2.91  15 2.93  17 2.93  26 2.93  19 2.93  14 2.94  35 2.95
                            21 2.95  23 2.95  32 3.00  34 3.00
  25  0.889  0.889  0.410-  22 2.93  27 2.93  23 2.94  21 2.94  28 2.95  19 2.95  26 2.95  18 2.95
                            16 2.95  12 2.95  33 3.02  30 3.02
  26  0.223  0.889  0.410-  27 2.93  24 2.93  20 2.94  23 2.94  28 2.95  19 2.95  25 2.95  17 2.95
                            10 2.95  16 2.95  29 3.02  34 3.02
  27  0.557  0.887  0.408-  24 2.91  22 2.91  17 2.93  18 2.93  26 2.93  25 2.93  11 2.94  35 2.95
                            20 2.95  21 2.95  29 3.00  30 3.00
  28  0.000  0.000  0.507-  25 2.95  19 2.95  26 2.95  34 2.98  32 2.98  33 2.98  30 2.98  31 2.98
                            29 2.98
  29  0.333  0.010  0.509-  30 2.85  31 2.85  36 2.87  20 2.98  35 2.98  28 2.98  27 3.00  26 3.02
                            34 3.11
  30  0.657  0.010  0.509-  29 2.85  32 2.85  36 2.87  21 2.98  35 2.98  28 2.98  27 3.00  25 3.02
                            33 3.11
  31  0.010  0.333  0.509-  33 2.85  29 2.85  36 2.87  20 2.98  35 2.98  28 2.98  22 3.00  19 3.02
                            32 3.11
  32  0.657  0.333  0.509-  34 2.85  30 2.85  36 2.87  21 2.98  35 2.98  28 2.98  24 3.00  19 3.02
                            31 3.11
  33  0.010  0.657  0.509-  31 2.85  34 2.85  36 2.87  23 2.98  35 2.98  28 2.98  22 3.00  25 3.02
                            30 3.11
  34  0.333  0.657  0.509-  32 2.85  33 2.85  36 2.87  23 2.98  35 2.98  28 2.98  24 3.00  26 3.02
                            29 3.11
  35  0.667  0.667  0.507-  24 2.95  27 2.95  22 2.95  29 2.98  34 2.98  32 2.98  31 2.98  30 2.98
                            33 2.98
  36  0.333  0.333  0.496-  20 2.77  23 2.77  21 2.77  33 2.87  31 2.87  29 2.87  30 2.87  34 2.87
                            32 2.87
  37  0.269  0.333  0.606-  38 1.13
  38  0.397  0.333  0.606-  37 1.13

  LATTYP: Found a hexagonal cell.
 ALAT       =     8.8135128021
 C/A-ratio  =     2.7966269226

  Lattice vectors:

 A1 = (  -4.4067569092,  -7.6327256898,   0.0000000000)
 A2 = (   8.8135128021,   0.0000000000,   0.0000000000)
 A3 = (   0.0000000000,   0.0000000000,  24.6481071854)

Analysis of symmetry for initial positions (statically):
 Subroutine PRICEL returns:
 Original cell was already a primitive cell.

 Routine SETGRP: Setting up the symmetry group for a
 hexagonal supercell.

 Subroutine GETGRP returns: Found  2 space group operations
 (whereof  2 operations were pure point group operations)
 out of a pool of 24 trial point group operations.

The static configuration has the point symmetry C_1h.

Analysis of symmetry for dynamics (positions and initial velocities):
 Subroutine PRICEL returns:
 Original cell was already a primitive cell.

[...]

The dynamic configuration has the point symmetry C_1h.

Analysis of constrained symmetry for selective dynamics:
 Subroutine PRICEL returns:
 Original cell was already a primitive cell.

 Routine SETGRP: Setting up the symmetry group for a
 hexagonal supercell.

[...]
     33      -5.3201      2.00000
     34      -5.2320      2.00000
     35      -5.2227      2.00000
     36      -5.1883      2.00000
     37      -5.1694      2.00000
     38      -5.1542      2.00000
     39      -5.1500      2.00000
     40      -5.0930      2.00000
     41      -5.0879      2.00000
     42      -4.9655      2.00000
     43      -4.9528      2.00000
     44      -4.8979      2.00000
     45      -4.8371      2.00000
     46      -4.8135      2.00000
     47      -4.7771      2.00000
     48      -4.7550      2.00000
     49      -4.7309      2.00000
     50      -4.7158      2.00000
     51      -4.6154      2.00000
     52      -4.5943      2.00000
     53      -4.5715      2.00000
     54      -4.5461      2.00000
     55      -4.5417      2.00000
     56      -4.5400      2.00000
     57      -4.5206      2.00000
     58      -4.4947      2.00000
     59      -4.4485      2.00000
     60      -4.4222      2.00000
[...]
    226       3.3362      0.00000
    227       3.7543      0.00000
    228       3.8338      0.00000
    229       3.8433      0.00000
    230       4.2159      0.00000
    231       4.4458      0.00000
    232       4.6690      0.00000
    233       4.9364      0.00000
    234       5.0217      0.00000
    235       5.2629      0.00000
    236       5.3869      0.00000
    237       5.4575      0.00000
    238       5.6217      0.00000
    239       5.8471      0.00000
    240       5.8831      0.00000

 soft charge-density along one line, spin component           1
         0         1         2         3         4         5         6         7         8         9
 total charge-density along one line

------------------------ aborting loop because EDIFF is reached ----------------------------------------

 total charge

# of ion       s       p       d       tot
    1        0.547   0.238   8.766   9.551
    2        0.543   0.241   8.764   9.548
    3        0.543   0.241   8.764   9.548
    4        0.544   0.241   8.765   9.550
    5        0.544   0.240   8.761   9.545
    6        0.544   0.241   8.765   9.550
    7        0.543   0.241   8.765   9.548
    8        0.543   0.241   8.765   9.548
    9        0.542   0.239   8.769   9.550
   10        0.527   0.307   8.765   9.599
   11        0.522   0.306   8.781   9.610
   12        0.527   0.307   8.765   9.599
   13        0.523   0.306   8.782   9.611
   14        0.523   0.306   8.782   9.611
   15        0.515   0.307   8.776   9.598
   16        0.528   0.307   8.764   9.599
   17        0.515   0.307   8.776   9.599
   18        0.515   0.307   8.776   9.599
   19        0.515   0.295   8.774   9.585
   20        0.564   0.339   8.731   9.634
   21        0.564   0.339   8.731   9.634
   22        0.505   0.305   8.779   9.589
   23        0.566   0.338   8.730   9.634
   24        0.505   0.305   8.779   9.589
   25        0.517   0.295   8.774   9.586
   26        0.517   0.295   8.774   9.586
   27        0.506   0.304   8.779   9.590
   28        0.541   0.229   8.754   9.524
   29        0.580   0.248   8.734   9.562
   30        0.580   0.248   8.734   9.562
   31        0.575   0.247   8.737   9.559
   32        0.575   0.247   8.737   9.559
   33        0.580   0.248   8.734   9.562
   34        0.580   0.248   8.734   9.562
   35        0.536   0.228   8.757   9.522
   36        0.363   0.320   4.067   4.750
   37        1.369   2.453   0.000   3.823
   38        1.369   2.453   0.000   3.823
tot         21.997  14.905 310.694 347.595

  FORCE on cell =-STRESS in cart. coord.  units (eV):
  Direction    XX          YY          ZZ          XY          YZ          ZX
  Alpha Z   934.39866   934.39866   934.39866
  Ewald  152171.20813151858.83443************    -0.00032    -0.05347    -0.00014
  Hartree160481.83411160374.81731************     0.00001    -0.03350    -0.00004
  E(xc)   -1795.52432 -1796.62863 -1804.15245     0.00010     0.00547    -0.00001
  Local  ************************324641.51984     0.00239     0.15036     0.00005
  n-local   -96.24012   -83.46071   -58.40930     4.79539    -0.05922     0.10806
  augment  2373.23203  2372.62469  2394.67639    -0.00135    -0.00217     0.00003
  Kinetic  5592.99833  5609.14213  5675.03967     1.87403    -0.07972     0.09429
  Fock        0.00000     0.00000     0.00000     0.00000     0.00000     0.00000
  Total     -22.63218   -22.75466     3.24677    -0.00000    -0.07226    -0.00000
  in kB     -21.86879   -21.98714     3.13725    -0.00000    -0.06982    -0.00000

 VOLUME and BASIS-vectors are now :
  energy-cutoff  :      500.00
  volume of cell :     1658.11
      direct lattice vectors                 reciprocal lattice vectors
     8.813512802  0.000000000  0.000000000     0.113462137 -0.065507406  0.000000000
     4.406756909  7.632725690  0.000000000     0.000000000  0.131014796  0.000000000
     0.000000000  0.000000000 24.648107185     0.000000000  0.000000000  0.040571067

  length of vectors
     8.813512802  8.813512802 24.648107185     0.131014796  0.131014796  0.040571067

 FORCES acting on ions
    electron-ion (+dipol)            ewald-force                    non-local-force                 convergence-correction
   -.199E-04 0.555E-01 0.267E+04   0.519E-04 -.724E-02 -.267E+04   0.254E-09 0.382E-02 -.946E+00   -.280E-03 -.537E-01 -.287E+00
   0.350E+00 -.283E-01 0.267E+04   -.567E+00 -.149E+00 -.267E+04   0.944E-01 0.123E+00 -.237E+00   0.107E+00 0.472E-01 -.357E+00
   -.350E+00 -.283E-01 0.267E+04   0.567E+00 -.149E+00 -.267E+04   -.944E-01 0.123E+00 -.237E+00   -.107E+00 0.492E-01 -.356E+00
   0.155E+00 0.386E+00 0.267E+04   -.406E+00 -.420E+00 -.267E+04   0.136E+00 -.241E-02 -.234E+00   0.108E+00 0.276E-01 -.334E+00
   0.761E-05 -.192E-01 0.267E+04   0.951E-04 -.718E-04 -.267E+04   0.501E-09 0.752E-02 -.441E-01   0.440E-02 0.105E-01 -.331E+00
   -.156E+00 0.386E+00 0.267E+04   0.406E+00 -.420E+00 -.267E+04   -.136E+00 -.241E-02 -.234E+00   -.110E+00 0.285E-01 -.333E+00
   -.318E+00 -.357E+00 0.267E+04   0.161E+00 0.569E+00 -.267E+04   0.857E-01 -.124E+00 -.239E+00   0.685E-01 -.730E-01 -.367E+00
   0.318E+00 -.357E+00 0.267E+04   -.161E+00 0.569E+00 -.267E+04   -.857E-01 -.124E+00 -.239E+00   -.666E-01 -.742E-01 -.367E+00
   0.197E-04 -.503E-01 0.267E+04   0.166E-03 0.733E-02 -.267E+04   0.311E-10 0.467E-03 -.553E+00   -.466E-02 0.426E-01 -.318E+00
   0.550E+01 0.329E+01 0.905E+03   -.501E+01 -.295E+01 -.904E+03   -.446E+00 -.260E+00 -.794E+00   -.164E-01 -.562E-01 -.209E-01
   0.142E-04 0.269E+01 0.909E+03   0.148E-03 -.278E+01 -.909E+03   0.424E-08 0.637E-01 -.124E+00   0.426E-02 -.434E-01 0.253E-01
   -.550E+01 0.329E+01 0.905E+03   0.501E+01 -.295E+01 -.904E+03   0.446E+00 -.260E+00 -.794E+00   0.145E-01 -.543E-01 -.197E-01
   0.218E+01 -.137E+01 0.910E+03   -.236E+01 0.140E+01 -.909E+03   0.806E-01 -.334E-01 -.169E+00   0.327E-01 0.377E-01 0.246E-01
   -.219E+01 -.137E+01 0.910E+03   0.236E+01 0.140E+01 -.909E+03   -.806E-01 -.334E-01 -.169E+00   -.243E-01 0.371E-01 0.255E-01
   0.316E-04 0.436E+01 0.909E+03   0.236E-03 -.455E+01 -.908E+03   0.214E-08 0.321E-01 -.538E+00   -.297E-02 0.864E-01 0.556E-01
   -.212E-04 -.638E+01 0.905E+03   0.162E-03 0.581E+01 -.904E+03   0.355E-07 0.534E+00 -.768E+00   0.397E-03 0.120E-01 -.537E-02
   0.383E+01 -.226E+01 0.909E+03   -.397E+01 0.232E+01 -.908E+03   0.350E-01 -.192E-01 -.522E+00   0.466E-01 -.836E-02 0.349E-01
   -.383E+01 -.226E+01 0.909E+03   0.397E+01 0.232E+01 -.908E+03   -.350E-01 -.192E-01 -.522E+00   -.465E-01 -.571E-02 0.352E-01
   -.430E-04 0.492E+00 -.885E+03   0.548E-04 -.674E+00 0.884E+03   0.390E-08 0.586E-01 0.545E+00   -.593E-02 0.107E+00 0.677E+00
   -.263E+01 -.125E+01 -.858E+03   0.361E+01 0.175E+01 0.858E+03   -.116E+01 -.605E+00 -.129E+01   0.177E+00 0.106E+00 0.925E+00
   0.263E+01 -.125E+01 -.858E+03   -.361E+01 0.175E+01 0.858E+03   0.116E+01 -.605E+00 -.129E+01   -.167E+00 0.108E+00 0.924E+00
   -.101E+02 0.543E+01 -.868E+03   0.962E+01 -.515E+01 0.867E+03   0.481E+00 -.301E+00 0.636E+00   0.469E-01 0.876E-02 0.720E+00
   -.102E-04 0.250E+01 -.858E+03   0.139E-03 -.369E+01 0.859E+03   0.914E-07 0.137E+01 -.132E+01   0.582E-02 -.164E+00 0.996E+00
   0.101E+02 0.543E+01 -.868E+03   -.962E+01 -.515E+01 0.867E+03   -.481E+00 -.301E+00 0.636E+00   -.551E-01 0.700E-02 0.720E+00
   -.218E+00 0.729E-01 -.885E+03   0.372E+00 0.560E-01 0.884E+03   -.390E-01 -.149E-01 0.478E+00   -.104E+00 -.105E+00 0.675E+00
   0.218E+00 0.729E-01 -.885E+03   -.373E+00 0.560E-01 0.884E+03   0.390E-01 -.149E-01 0.478E+00   0.990E-01 -.109E+00 0.675E+00
   0.108E-04 -.116E+02 -.868E+03   0.198E-03 0.110E+02 0.867E+03   0.383E-07 0.575E+00 0.613E+00   -.308E-02 0.243E-01 0.690E+00
   -.135E-04 0.191E+01 -.258E+04   0.294E-04 -.189E+01 0.258E+04   -.608E-09 -.914E-02 0.417E+00   -.326E-03 -.182E-01 0.510E+00
   0.164E+02 0.311E+02 -.256E+04   -.155E+02 -.297E+02 0.256E+04   -.116E+01 -.172E+01 -.268E+00   0.231E+00 0.269E+00 0.450E+00
   -.164E+02 0.311E+02 -.256E+04   0.155E+02 -.297E+02 0.256E+04   0.116E+01 -.172E+01 -.268E+00   -.230E+00 0.271E+00 0.450E+00
   0.365E+02 0.884E+00 -.256E+04   -.350E+02 -.862E+00 0.256E+04   -.192E+01 -.910E-01 0.899E-01   0.332E+00 0.741E-01 0.476E+00
   -.365E+02 0.884E+00 -.256E+04   0.350E+02 -.862E+00 0.256E+04   0.192E+01 -.910E-01 0.899E-01   -.334E+00 0.748E-01 0.474E+00
   0.148E+02 -.320E+02 -.256E+04   -.140E+02 0.306E+02 0.256E+04   -.964E+00 0.182E+01 -.239E+00   0.156E+00 -.338E+00 0.433E+00
   -.148E+02 -.320E+02 -.256E+04   0.140E+02 0.306E+02 0.256E+04   0.964E+00 0.182E+01 -.239E+00   -.154E+00 -.339E+00 0.432E+00
   0.330E-04 -.191E+01 -.258E+04   0.142E-03 0.190E+01 0.258E+04   0.198E-08 0.297E-01 0.602E+00   -.477E-02 -.151E-01 0.469E+00
   -.195E-04 -.323E-01 -.126E+04   0.625E-04 -.206E-01 0.126E+04   0.461E-09 0.693E-02 0.309E+01   0.116E-02 0.236E-01 0.330E+00
   0.226E+03 0.825E-02 -.129E+04   -.271E+03 -.132E-01 0.130E+04   0.447E+02 -.461E-03 -.312E+01   0.357E-01 0.350E-02 -.167E+00
   -.226E+03 0.826E-02 -.129E+04   0.271E+03 -.132E-01 0.130E+04   -.447E+02 -.461E-03 -.312E+01   -.334E-01 0.354E-02 -.167E+00
   -.679E-03 -.220E+00 0.289E+01   -.171E-12 0.167E-12 -.409E-11   0.146E-07 0.220E+00 -.108E+02   0.925E-03 0.105E-02 0.780E+01

 POSITION                                       TOTAL-FORCE (eV/Angst)
      0.00000      0.00000      5.28038        -0.000000     -0.001623     -0.165048
      2.93784      0.00000      5.28038        -0.015666     -0.005698     -0.063853
      5.87568      0.00000      5.28038         0.015666     -0.005698     -0.063853
      1.46892      2.54424      5.28038        -0.005645     -0.008470     -0.073520
      4.40676      2.54424      5.28038        -0.000000     -0.001291     -0.109652
      7.34459      2.54424      5.28038         0.005645     -0.008470     -0.073520
      2.93784      5.08848      5.28038        -0.003642      0.015416     -0.062561
      5.87568      5.08848      5.28038         0.003642      0.015416     -0.062561
      8.81351      5.08848      5.28038         0.000000      0.000091     -0.093120
      1.46892      0.84808      7.67911         0.026151      0.019500      0.148313
      4.40676      0.84808      7.67911        -0.000000     -0.067720      0.001224
      7.34459      0.84808      7.67911        -0.026151      0.019500      0.148313
      2.93784      3.39232      7.67911        -0.061345      0.037190     -0.002683
      5.87568      3.39232      7.67911         0.061345      0.037190     -0.002683
      8.81351      3.39232      7.67911        -0.000000     -0.069553      0.101085
      4.40676      5.93656      7.67911        -0.000000     -0.029725      0.145036
      7.34459      5.93656      7.67911        -0.058276      0.028240      0.102748
     10.28243      5.93656      7.67911         0.058276      0.028240      0.102748
      8.81351      1.70181     10.09390        -0.000000     -0.017090      0.008004
      2.93906      1.69686     10.04479        -0.008662     -0.003688     -0.049902
      5.87446      1.69686     10.04479         0.008662     -0.003688     -0.049902
     10.26694      4.24935     10.06849         0.031386     -0.016728      0.031232
      4.40676      4.23900     10.04479         0.000000      0.025852     -0.038890
      7.36009      4.24935     10.06849        -0.031386     -0.016728      0.031232
     11.74646      6.78182     10.09390         0.014265      0.007070     -0.013897
      5.88057      6.78182     10.09390        -0.014265      0.007070     -0.013897
      8.81351      6.76675     10.06849         0.000000      0.039701      0.024544
      0.00000      0.00000     12.49934        -0.000000     -0.008485     -0.035724
      2.98260      0.07565     12.53968        -0.039933     -0.082023     -0.088549
      5.83091      0.07565     12.53968         0.039933     -0.082023     -0.088549
      1.55682      2.54518     12.53968        -0.110216      0.005514     -0.117457
      7.25669      2.54518     12.53968         0.110216      0.005514     -0.117457
      2.98097      5.01189     12.53968        -0.042515      0.077710     -0.089441
      5.83254      5.01189     12.53968         0.042515      0.077710     -0.089441
      8.81351      5.08848     12.49853         0.000000      0.007957     -0.002884
      4.40676      2.54424     12.23451        -0.000000     -0.022397      0.725303
      3.84375      2.54481     14.92851        -0.005545     -0.001890     -0.000369
      4.96977      2.54481     14.92851         0.005545     -0.001890     -0.000369
    total drift:                                0.000246      0.001345     -0.156613

  FREE ENERGIE OF THE ION-ELECTRON SYSTEM (eV)
  free  energy   TOTEN  =      -131.97076879 eV

  energy  without entropy=     -131.97076879  energy(sigma->0) =     -131.97076879

 stress matrix after NEB project (eV)
    -22.63218     -0.00000     -0.00000
     -0.00000    -22.75466     -0.07226
     -0.00000     -0.07226      3.24677
  FORCES: max atom, RMS     0.005870    0.001347
  FORCE total and by dimension    0.008302    0.005545
  Stress total and by dimension   32.257437   22.754664
|           W    W    AA    RRRRR   N    N  II  N    N   GGGG   !!!           |
|           W    W   A  A   R    R  NN   N  II  NN   N  G    G  !!!           |
|           W    W  A    A  R    R  N N  N  II  N N  N  G       !!!           |
|           W WW W  AAAAAA  RRRRR   N  N N  II  N  N N  G  GGG   !            |
|           WW  WW  A    A  R   R   N   NN  II  N   NN  G    G                |
|           W    W  A    A  R    R  N    N  II  N    N   GGGG   !!!           |
|     Tetrahedron method does not include variations of the Fermi             |
|     occupations, so forces and stress will be inaccurate. We suggest        |
|     using a different smearing scheme ISMEAR = 1 or 2 for metals in         |
|     relaxations.                                                            |

 total charge

# of ion       s       p       d       tot
    1        0.547   0.238   8.766   9.551
    2        0.543   0.241   8.764   9.548
    3        0.543   0.241   8.764   9.548
    4        0.544   0.241   8.765   9.550
    5        0.544   0.240   8.761   9.545
    6        0.544   0.241   8.765   9.550
    7        0.543   0.241   8.765   9.548
    8        0.543   0.241   8.765   9.548
    9        0.542   0.239   8.769   9.550
   10        0.527   0.307   8.765   9.599
   11        0.522   0.306   8.781   9.610
   12        0.527   0.307   8.765   9.599
   13        0.523   0.306   8.782   9.611
   14        0.523   0.306   8.782   9.611
   15        0.515   0.307   8.776   9.598
   16        0.528   0.307   8.764   9.599
   17        0.515   0.307   8.776   9.599
   18        0.515   0.307   8.776   9.599
   19        0.515   0.295   8.774   9.585
   20        0.564   0.339   8.731   9.634
   21        0.564   0.339   8.731   9.634
   22        0.505   0.305   8.779   9.589
   23        0.566   0.338   8.730   9.634
   24        0.505   0.305   8.779   9.589
   25        0.517   0.295   8.774   9.586
   26        0.517   0.295   8.774   9.586
   27        0.506   0.304   8.779   9.590
   28        0.541   0.229   8.754   9.524
   29        0.580   0.248   8.734   9.562
   30        0.580   0.248   8.734   9.562
   31        0.575   0.247   8.737   9.559
   32        0.575   0.247   8.737   9.559
   33        0.580   0.248   8.734   9.562
   34        0.580   0.248   8.734   9.562
   35        0.536   0.228   8.757   9.522
   36        0.363   0.320   4.067   4.750
   37        1.369   2.453   0.000   3.823
   38        1.369   2.453   0.000   3.823
tot         21.997  14.905 310.694 347.595

 BZINTS: Fermi energy:    0.243125;  401.000000 electrons
         Band energy:-0.145694E+04;  BLOECHL correction:   -0.035608