 vasp.6.2.0 18Jan21 (build Jun 12 2021 23:27:24) complex

 executed on             LinuxIFC date 2022.05.26  20:00:45

 INCAR:
   ISMEAR = -5
   SIGMA = 0.1
   ISPIN = 1
   EDIFF = 1.d-5
   EDIFFG = -0.01
   NSW = 0
   NELM = 150
   ENCUT = 500
   ISIF = 2
   IBRION = 2
   LREAL = Auto
   ALGO = Fast
   ICHARG = 11
   LORBIT = 10
   LCHARG = .F.
   LWAVE = .F.

 POTCAR:    PAW_PBE Cu 22Jun2005
 POTCAR:    PAW_PBE Ni 02Aug2007
 POTCAR:    PAW_PBE N 08Apr2002
|           W    W    AA    RRRRR   N    N  II  N    N   GGGG   !!!           |
|           W    W   A  A   R    R  NN   N  II  NN   N  G    G  !!!           |
|           W    W  A    A  R    R  N N  N  II  N N  N  G       !!!           |
|           W WW W  AAAAAA  RRRRR   N  N N  II  N  N N  G  GGG   !            |
|           WW  WW  A    A  R   R   N   NN  II  N   NN  G    G                |
|           W    W  A    A  R    R  N    N  II  N    N   GGGG   !!!           |
|     For optimal performance we recommend to set                             |
|       NCORE = 2 up to number-of-cores-per-socket                            |
|     This setting can greatly improve the performance of VASP for DFT.       |
|     The default, NCORE=1 might be grossly inefficient on modern             |
|     multi-core architectures or massively parallel machines. Do your        |
|     Unfortunately you need to use the default for GW and RPA                |
|     calculations (for HF NCORE is supported but not extensively tested      |
|     yet).                                                                   |

 POTCAR:    PAW_PBE Cu 22Jun2005
   VRHFIN =Cu: d10 p1

   TITEL  = PAW_PBE Cu 22Jun2005
   POMASS =   63.546; ZVAL   =   11.000    mass and valenz
   ENMAX  =  295.446; ENMIN  =  221.585 eV

 POTCAR:    PAW_PBE Ni 02Aug2007
   VRHFIN =Ni:

   TITEL  = PAW_PBE Ni 02Aug2007
   POMASS =   58.690; ZVAL   =   10.000    mass and valenz
   ENMAX  =  269.532; ENMIN  =  202.149 eV

 POTCAR:    PAW_PBE N 08Apr2002
   VRHFIN =N: s2p3

   TITEL  = PAW_PBE N 08Apr2002
   POMASS =   14.001; ZVAL   =    5.000    mass and valenz
   ENMAX  =  400.000; ENMIN  =  300.000 eV

 Optimization of the real space projectors (new method)

 maximal supplied QI-value         = 16.25
 optimisation between [QCUT,QGAM] = [ 11.38, 22.75] = [ 36.24,144.96] Ry
 Optimized for a Real-space Cutoff    1.52 Angstroem

   l    n(q)    QCUT    max X(q) W(low)/X(q) W(high)/X(q)  e(spline)
   2      9    11.376     4.610    0.21E-03    0.10E-03    0.26E-06
   2      9    11.376     8.522    0.33E-03    0.16E-03    0.37E-06
   0     10    11.376    51.609    0.62E-04    0.20E-04    0.13E-06
   0     10    11.376    27.747    0.54E-04    0.20E-04    0.13E-06
   1     10    11.376    20.408    0.13E-04    0.99E-04    0.19E-06
   1     10    11.376    13.425    0.12E-04    0.87E-04    0.17E-06
 Optimization of the real space projectors (new method)

[...]

   l    n(q)    QCUT    max X(q) W(low)/X(q) W(high)/X(q)  e(spline)
   2      8    11.376    60.317    0.19E-03    0.33E-04    0.13E-06
   2      8    11.376    55.921    0.20E-03    0.34E-04    0.14E-06
   0      9    11.376    51.690    0.82E-04    0.12E-03    0.20E-06
   0      9    11.376    30.015    0.74E-04    0.11E-03    0.18E-06
   1      9    11.376    18.849    0.39E-03    0.12E-03    0.13E-06
   1      9    11.376    14.624    0.33E-03    0.10E-03    0.11E-06
 Optimization of the real space projectors (new method)

 maximal supplied QI-value         = 25.13
 optimisation between [QCUT,QGAM] = [ 11.31, 22.87] = [ 35.82,146.48] Ry
 Optimized for a Real-space Cutoff    1.27 Angstroem

   l    n(q)    QCUT    max X(q) W(low)/X(q) W(high)/X(q)  e(spline)
   0      9    11.310    79.467    0.75E-04    0.16E-03    0.36E-06
   0      9    11.310    66.151    0.74E-04    0.16E-03    0.36E-06
   1      8    11.310    17.416    0.35E-03    0.12E-03    0.95E-06
   1      8    11.310    12.382    0.37E-03    0.13E-03    0.98E-06
  PAW_PBE Cu 22Jun2005                  :
  PAW_PBE Ni 02Aug2007                  :
  PAW_PBE N 08Apr2002                   :

 POSCAR: Cu-Ni-N
  positions in direct lattice
  velocities in cartesian coordinates
 exchange correlation table for  LEXCH =        8
   RHO(1)=    0.500       N(1)  =     2000
   RHO(2)=  100.500       N(2)  =     4000

 VTST: version 3.2, (02/03/18)

 CHAIN: initializing optimizer

 OPT: Using VASP Conjugate-Gradient optimizer
 CHAIN: Read ICHAIN            0

 POSCAR: Cu-Ni-N
  positions in direct lattice
  velocities in cartesian coordinates

 ion  position               nearest neighbor table
   1  0.000  0.000  0.252-   7 2.57   3 2.57   4 2.57   2 2.57   6 2.57   8 2.57  12 2.57  10 2.57
                            16 2.57
   2  0.333  0.000  0.252-   8 2.57   9 2.57   5 2.57   1 2.57   3 2.57  11 2.57   4 2.57  10 2.57
                            17 2.57
   3  0.667  0.000  0.252-   1 2.57   7 2.57   6 2.57   9 2.57   2 2.57  12 2.57   5 2.57  18 2.57
                            11 2.57
   4  0.000  0.333  0.252-   5 2.57   6 2.57   1 2.57   7 2.57   2 2.57  13 2.57   9 2.57  10 2.57
                            15 2.57
   5  0.333  0.333  0.252-   4 2.57   2 2.57   7 2.57  13 2.57   8 2.57   6 2.57   3 2.57  11 2.57
                            14 2.57
   6  0.667  0.333  0.252-   4 2.57   9 2.57  15 2.57   3 2.57   1 2.57   8 2.57  14 2.57   5 2.57
                            12 2.57
   7  0.000  0.667  0.252-   1 2.57   3 2.57  16 2.57  18 2.57   4 2.57   5 2.57   8 2.57   9 2.57
                            13 2.57
   8  0.333  0.667  0.252-   9 2.57   2 2.57  17 2.57   6 2.57   1 2.57   7 2.57   5 2.57  14 2.57
                            16 2.57
   9  0.667  0.667  0.252-   8 2.57   6 2.57   2 2.57  17 2.57   3 2.57   7 2.57   4 2.57  15 2.57
                            18 2.57
  10  0.111  0.111  0.351-  20 2.55  26 2.56  19 2.56  11 2.57  12 2.57  13 2.57   1 2.57   2 2.57
                             4 2.57  15 2.57  16 2.57  17 2.57
  11  0.444  0.111  0.351-  20 2.55  21 2.55  27 2.56  10 2.57  13 2.57   2 2.57  17 2.57  14 2.57
                            12 2.57   5 2.57   3 2.57  18 2.57
  12  0.778  0.111  0.351-  21 2.55  19 2.56  25 2.56  15 2.57  10 2.57  14 2.57  18 2.57   3 2.57
                             1 2.57  16 2.57  11 2.57   6 2.57
  13  0.111  0.444  0.351-  23 2.55  20 2.55  22 2.56  16 2.57  18 2.57  10 2.57  11 2.57  14 2.57
                             5 2.57   4 2.57   7 2.57  15 2.57
  14  0.444  0.444  0.351-  21 2.55  23 2.55  24 2.56  15 2.57  17 2.57  12 2.57  16 2.57  13 2.57
                            11 2.57   6 2.57   8 2.57   5 2.57
  15  0.778  0.444  0.351-  24 2.55  22 2.55  19 2.56  14 2.57  17 2.57  12 2.57   6 2.57  18 2.57
                            10 2.57   9 2.57  13 2.57   4 2.57
  16  0.111  0.778  0.351-  23 2.55  25 2.56  26 2.56  18 2.57  13 2.57   7 2.57  14 2.57  17 2.57
                            12 2.57  10 2.57   8 2.57   1 2.57
  17  0.444  0.778  0.351-  27 2.55  24 2.55  26 2.56  14 2.57  15 2.57   8 2.57   9 2.57  11 2.57
                            16 2.57  18 2.57  10 2.57   2 2.57
  18  0.778  0.778  0.351-  22 2.55  27 2.55  25 2.56  16 2.57  13 2.57   7 2.57  15 2.57  12 2.57
                            17 2.57   9 2.57   3 2.57  11 2.57
  19  0.889  0.223  0.449-  28 2.54  32 2.55  31 2.55  15 2.56  12 2.56  10 2.56  22 2.56  24 2.56
                            21 2.57  20 2.57  25 2.57  26 2.57
  20  0.222  0.222  0.448-  36 2.48  29 2.54  31 2.54  10 2.55  11 2.55  13 2.55  26 2.57  19 2.57
                            27 2.57  22 2.57  23 2.57  21 2.57
  21  0.556  0.222  0.448-  36 2.48  32 2.54  30 2.54  12 2.55  14 2.55  11 2.55  19 2.57  25 2.57
                            24 2.57  27 2.57  20 2.57  23 2.57
  22  0.889  0.556  0.449-  35 2.54  31 2.55  33 2.55  18 2.55  15 2.55  13 2.56  19 2.56  25 2.56
                            24 2.57  27 2.57  23 2.57  20 2.57
  23  0.222  0.556  0.448-  36 2.48  33 2.54  34 2.54  16 2.55  13 2.55  14 2.55  25 2.57  26 2.57
                            22 2.57  24 2.57  20 2.57  21 2.57
  24  0.556  0.556  0.449-  35 2.54  32 2.55  34 2.55  15 2.55  17 2.55  14 2.56  19 2.56  26 2.56
                            22 2.57  27 2.57  21 2.57  23 2.57
  25  0.889  0.889  0.449-  28 2.54  33 2.55  30 2.55  18 2.56  16 2.56  12 2.56  22 2.56  27 2.56
                            21 2.57  23 2.57  19 2.57  26 2.57
  26  0.223  0.889  0.449-  28 2.54  29 2.55  34 2.55  17 2.56  10 2.56  16 2.56  27 2.56  24 2.56
                            20 2.57  23 2.57  25 2.57  19 2.57
  27  0.556  0.889  0.449-  35 2.54  29 2.55  30 2.55  17 2.55  18 2.55  11 2.56  26 2.56  25 2.56
                            24 2.57  22 2.57  20 2.57  21 2.57
  28  0.000  0.000  0.546-  25 2.54  19 2.54  26 2.54  33 2.57  30 2.57  31 2.57  29 2.57  32 2.57
                            34 2.57
  29  0.333  0.002  0.546-  20 2.54  27 2.55  31 2.55  36 2.55  30 2.55  26 2.55  28 2.57  35 2.57
                            34 2.60
  30  0.665  0.002  0.546-  21 2.54  27 2.55  32 2.55  36 2.55  29 2.55  25 2.55  28 2.57  35 2.57
                            33 2.60
  31  0.002  0.333  0.546-  20 2.54  22 2.55  29 2.55  36 2.55  33 2.55  19 2.55  28 2.57  35 2.57
                            32 2.60
  32  0.665  0.333  0.546-  21 2.54  24 2.55  30 2.55  36 2.55  34 2.55  19 2.55  28 2.57  35 2.57
                            31 2.60
  33  0.002  0.665  0.546-  23 2.54  22 2.55  34 2.55  36 2.55  31 2.55  25 2.55  28 2.57  35 2.57
                            30 2.60
  34  0.333  0.665  0.546-  23 2.54  24 2.55  33 2.55  36 2.55  32 2.55  26 2.55  28 2.57  35 2.57
                            29 2.60
  35  0.667  0.667  0.546-  24 2.54  27 2.54  22 2.54  34 2.57  32 2.57  29 2.57  30 2.57  33 2.57
                            31 2.57
  36  0.333  0.333  0.542-  37 1.62  23 2.48  20 2.48  21 2.48  31 2.55  29 2.55  33 2.55  34 2.55
                            32 2.55  30 2.55
  37  0.333  0.333  0.618-  36 1.62

  LATTYP: Found a hexagonal cell.
 ALAT       =     7.6967864036
 C/A-ratio  =     2.7653617908

  Lattice vectors:

 A1 = (  -3.8483927580,  -6.6656128093,   0.0000000000)
 A2 = (   7.6967864037,   0.0000000000,   0.0000000000)
 A3 = (   0.0000000000,   0.0000000000,  21.2843990326)

Analysis of symmetry for initial positions (statically):
 Subroutine PRICEL returns:
 Original cell was already a primitive cell.

 Routine SETGRP: Setting up the symmetry group for a
 hexagonal supercell.

 Subroutine GETGRP returns: Found  6 space group operations
 (whereof  6 operations were pure point group operations)
 out of a pool of 24 trial point group operations.

The static configuration has the point symmetry C_3v.

Analysis of symmetry for dynamics (positions and initial velocities):
 Subroutine PRICEL returns:
 Original cell was already a primitive cell.

[...]

The dynamic configuration has the point symmetry C_3v.

Analysis of constrained symmetry for selective dynamics:
 Subroutine PRICEL returns:
 Original cell was already a primitive cell.

 Routine SETGRP: Setting up the symmetry group for a
 hexagonal supercell.

 Subroutine GETGRP returns: Found  6 space group operations
[...]
     24      -4.3966      2.00000
     25      -4.2598      2.00000
     26      -4.1965      2.00000
     27      -4.1598      2.00000
     28      -4.1351      2.00000
     29      -4.1215      2.00000
     30      -4.1175      2.00000
     31      -4.1068      2.00000
     32      -4.0993      2.00000
     33      -4.0744      2.00000
     34      -4.0339      2.00000
     35      -4.0133      2.00000
     36      -3.9748      2.00000
     37      -3.9296      2.00000
     38      -3.9231      2.00000
     39      -3.8834      2.00000
     40      -3.8688      2.00000
     41      -3.7860      2.00000
     42      -3.7600      2.00000
     43      -3.7020      2.00000
     44      -3.6922      2.00000
     45      -3.6644      2.00000
     46      -3.6572      2.00000
     47      -3.6116      2.00000
     48      -3.5887      2.00000
     49      -3.5554      2.00000
     50      -3.4477      2.00000
     51      -3.4323      2.00000
     52      -3.4249      2.00000
     53      -3.4012      2.00000
     54      -3.3686      2.00000
     55      -3.3652      2.00000
     56      -3.3337      2.00000
     57      -3.3234      2.00000
     58      -3.3159      2.00000
     59      -3.3035      2.00000
     60      -3.2882      2.00000
[...]
    238       6.2243      0.00000
    239       6.3051      0.00000
    240       6.3946      0.00000
    241       6.9479      0.00000
    242       6.9677      0.00000
    243       7.1144      0.00000
    244       7.1406      0.00000
    245       7.1583      0.00000
    246       7.2149      0.00000
    247       7.3697      0.00000
    248       7.4890      0.00000
    249       7.5157      0.00000
    250       7.6878      0.00000
    251       7.7975      0.00000
    252       7.9543      0.00000

 soft charge-density along one line, spin component           1
         0         1         2         3         4         5         6         7         8         9
 total charge-density along one line

------------------------ aborting loop because EDIFF is reached ----------------------------------------

 total charge

# of ion       s       p       d       tot
    1        0.451   0.283   9.189   9.922
    2        0.448   0.284   9.187   9.920
    3        0.448   0.284   9.187   9.920
    4        0.448   0.284   9.187   9.920
    5        0.448   0.286   9.187   9.920
    6        0.448   0.284   9.187   9.920
    7        0.448   0.284   9.187   9.920
    8        0.448   0.284   9.187   9.920
    9        0.449   0.284   9.184   9.916
   10        0.442   0.370   9.180   9.993
   11        0.440   0.371   9.180   9.991
   12        0.442   0.370   9.180   9.993
   13        0.440   0.371   9.180   9.991
   14        0.440   0.371   9.180   9.991
   15        0.441   0.368   9.183   9.991
   16        0.442   0.370   9.180   9.993
   17        0.441   0.368   9.183   9.991
   18        0.441   0.368   9.183   9.991
   19        0.441   0.376   9.176   9.994
   20        0.453   0.382   9.178  10.014
   21        0.453   0.382   9.178  10.014
   22        0.442   0.371   9.184   9.997
   23        0.453   0.382   9.178  10.014
   24        0.442   0.371   9.184   9.997
   25        0.441   0.376   9.176   9.994
   26        0.441   0.376   9.176   9.994
   27        0.442   0.371   9.184   9.997
   28        0.452   0.281   9.199   9.932
   29        0.432   0.290   9.195   9.917
   30        0.432   0.290   9.195   9.917
   31        0.432   0.290   9.195   9.917
   32        0.432   0.290   9.195   9.917
   33        0.432   0.290   9.195   9.917
   34        0.432   0.290   9.195   9.917
   35        0.451   0.282   9.194   9.927
   36        0.587   0.688   8.375   9.650
   37        1.353   2.096   0.000   3.449
tot         17.446  14.360 329.867 361.673

  FORCE on cell =-STRESS in cart. coord.  units (eV):
  Direction    XX          YY          ZZ          XY          YZ          ZX
  Alpha Z   878.96199   878.96199   878.96199
  Ewald  175797.68954175797.68906************     0.00042     0.00011     0.00020
  Hartree188988.64570188988.64563************     0.00006     0.00005     0.00009
  E(xc)   -2322.60284 -2322.60236 -2326.68718    -0.00042    -0.00003    -0.00006
  Local  ************************378056.70086     0.01887    -0.00058    -0.00102
  n-local  -777.10184  -764.36030  -782.55291     7.26854    -0.13807     0.27902
  augment  3487.69224  3487.71271  3489.44928    -0.01772     0.00025     0.00049
  Kinetic  3302.49364  3302.44900  3316.46436     1.18257     2.07476    -1.29338
  Fock        0.00000     0.00000     0.00000     0.00000     0.00000     0.00000
  Total      -5.34478    -5.34478     2.48476     0.00000     0.00000     0.00000
  in kB      -7.84205    -7.84205     3.64573     0.00000     0.00000     0.00000

 VOLUME and BASIS-vectors are now :
  energy-cutoff  :      500.00
  volume of cell :     1091.97
      direct lattice vectors                 reciprocal lattice vectors
     7.696786404  0.000000000  0.000000000     0.129924354 -0.075011849  0.000000000
     3.848392758  6.665612809  0.000000000     0.000000000  0.150023716  0.000000000
     0.000000000  0.000000000 21.284399033     0.000000000  0.000000000  0.046982769

  length of vectors
     7.696786404  7.696786404 21.284399033     0.150023716  0.150023716  0.046982769

 FORCES acting on ions
    electron-ion (+dipol)            ewald-force                    non-local-force                 convergence-correction
   -.415E-04 0.181E-06 0.351E+04   0.578E-04 -.445E-05 -.351E+04   0.694E-18 0.386E-17 -.237E+01   -.307E-03 -.144E-03 -.417E+00
   0.733E-01 0.462E+00 0.351E+04   -.244E+00 -.297E+00 -.351E+04   0.516E-01 -.358E-01 -.201E+01   0.112E+00 -.110E+00 -.356E+00
   -.733E-01 0.462E+00 0.351E+04   0.243E+00 -.297E+00 -.351E+04   -.516E-01 -.358E-01 -.201E+01   -.112E+00 -.108E+00 -.355E+00
   0.437E+00 -.168E+00 0.351E+04   -.379E+00 -.625E-01 -.351E+04   -.519E-02 0.626E-01 -.201E+01   -.394E-01 0.153E+00 -.356E+00
   -.656E-04 -.565E-05 0.351E+04   0.116E-03 -.101E-04 -.351E+04   0.317E-17 -.177E-17 -.188E+01   0.122E-01 0.744E-02 -.348E+00
   -.437E+00 -.167E+00 0.351E+04   0.379E+00 -.627E-01 -.351E+04   0.519E-02 0.626E-01 -.201E+01   0.377E-01 0.154E+00 -.355E+00
   0.363E+00 -.294E+00 0.351E+04   -.135E+00 0.359E+00 -.351E+04   -.568E-01 -.268E-01 -.201E+01   -.149E+00 -.428E-01 -.355E+00
   -.363E+00 -.294E+00 0.351E+04   0.135E+00 0.359E+00 -.351E+04   0.568E-01 -.268E-01 -.201E+01   0.153E+00 -.442E-01 -.355E+00
   -.144E-03 -.330E-04 0.351E+04   0.264E-03 0.206E-04 -.351E+04   0.596E-18 0.272E-17 -.208E+01   -.132E-01 -.683E-02 -.257E+00
   0.282E+01 0.163E+01 0.121E+04   -.269E+01 -.155E+01 -.121E+04   -.207E+00 -.120E+00 -.941E+00   0.668E-01 0.386E-01 -.157E+00
   -.902E-04 0.283E+01 0.121E+04   0.190E-03 -.284E+01 -.121E+04   -.279E-08 0.419E-01 -.402E+00   0.117E-01 -.598E-01 -.145E+00
   -.282E+01 0.163E+01 0.121E+04   0.269E+01 -.155E+01 -.121E+04   0.207E+00 -.120E+00 -.941E+00   -.683E-01 0.401E-01 -.157E+00
   0.245E+01 -.142E+01 0.121E+04   -.246E+01 0.142E+01 -.121E+04   0.363E-01 -.210E-01 -.402E+00   -.455E-01 0.409E-01 -.145E+00
   -.245E+01 -.142E+01 0.121E+04   0.246E+01 0.142E+01 -.121E+04   -.363E-01 -.210E-01 -.402E+00   0.696E-01 0.398E-01 -.146E+00
   -.143E-03 -.629E-01 0.121E+04   0.300E-03 -.116E+00 -.121E+04   -.831E-09 0.125E-01 -.744E+00   -.353E-02 0.168E+00 -.231E+00
   -.907E-04 -.326E+01 0.121E+04   0.185E-03 0.310E+01 -.121E+04   -.159E-07 0.239E+00 -.941E+00   -.354E-03 -.804E-01 -.157E+00
   -.545E-01 0.313E-01 0.121E+04   -.100E+00 0.580E-01 -.121E+04   0.108E-01 -.624E-02 -.744E+00   0.145E+00 -.872E-01 -.231E+00
   0.546E-01 0.314E-01 0.121E+04   0.998E-01 0.580E-01 -.121E+04   -.108E-01 -.624E-02 -.744E+00   -.144E+00 -.846E-01 -.230E+00
   -.548E-04 0.205E+01 -.113E+04   0.656E-04 -.219E+01 0.113E+04   -.626E-08 0.940E-01 0.535E+00   -.108E-01 0.549E-01 -.626E-02
   0.131E+02 0.758E+01 -.110E+04   -.126E+02 -.728E+01 0.110E+04   -.667E+00 -.385E+00 0.152E+00   0.145E+00 0.836E-01 0.139E+00
   -.131E+02 0.758E+01 -.110E+04   0.126E+02 -.728E+01 0.110E+04   0.667E+00 -.385E+00 0.152E+00   -.164E+00 0.842E-01 0.139E+00
   0.699E+01 -.403E+01 -.112E+04   -.702E+01 0.406E+01 0.112E+04   0.916E-02 -.529E-02 0.904E+00   0.204E-01 -.244E-01 -.316E-01
   -.719E-04 -.152E+02 -.110E+04   0.141E-03 0.146E+02 0.110E+04   -.513E-07 0.770E+00 0.152E+00   -.101E-01 -.185E+00 0.139E+00
   -.699E+01 -.403E+01 -.112E+04   0.702E+01 0.406E+01 0.112E+04   -.916E-02 -.529E-02 0.904E+00   -.414E-01 -.248E-01 -.315E-01
   -.177E+01 -.102E+01 -.113E+04   0.190E+01 0.110E+01 0.113E+04   -.814E-01 -.470E-01 0.535E+00   -.618E-01 -.357E-01 -.666E-02
   0.177E+01 -.102E+01 -.113E+04   -.190E+01 0.110E+01 0.113E+04   0.814E-01 -.470E-01 0.535E+00   0.425E-01 -.366E-01 -.619E-02
   -.132E-03 0.807E+01 -.112E+04   0.245E-03 -.811E+01 0.112E+04   -.704E-09 0.106E-01 0.904E+00   -.109E-01 0.298E-01 -.315E-01
   -.255E-04 0.210E-04 -.346E+04   0.324E-04 -.353E-04 0.346E+04   -.346E-17 -.182E-17 0.243E+01   -.415E-04 0.263E-04 0.366E+00
   0.237E+02 0.422E+02 -.344E+04   -.245E+02 -.436E+02 0.344E+04   0.603E+00 0.114E+01 0.297E+01   0.101E+00 0.136E+00 0.355E+00
   -.237E+02 0.422E+02 -.344E+04   0.245E+02 -.436E+02 0.344E+04   -.603E+00 0.114E+01 0.297E+01   -.998E-01 0.138E+00 0.355E+00
   0.484E+02 -.586E+00 -.344E+04   -.500E+02 0.605E+00 0.344E+04   0.129E+01 -.484E-01 0.297E+01   0.168E+00 0.191E-01 0.355E+00
   -.484E+02 -.586E+00 -.344E+04   0.500E+02 0.605E+00 0.344E+04   -.129E+01 -.484E-01 0.297E+01   -.169E+00 0.202E-01 0.355E+00
   0.247E+02 -.416E+02 -.344E+04   -.255E+02 0.430E+02 0.344E+04   0.687E+00 -.109E+01 0.297E+01   0.698E-01 -.156E+00 0.355E+00
   -.247E+02 -.416E+02 -.344E+04   0.255E+02 0.430E+02 0.344E+04   -.687E+00 -.109E+01 0.297E+01   -.665E-01 -.157E+00 0.355E+00
   -.134E-03 -.179E-04 -.346E+04   0.259E-03 0.667E-05 0.346E+04   0.742E-18 -.536E-18 0.227E+01   -.130E-01 -.668E-02 0.311E+00
   -.595E-04 -.241E-04 -.285E+04   0.130E-03 0.238E-04 0.285E+04   -.161E-17 0.219E-17 0.126E+01   0.893E-02 0.545E-02 0.496E+00
   0.104E-03 -.471E-04 -.196E+04   0.182E-04 0.794E-05 0.198E+04   0.225E-17 -.220E-18 -.193E+02   0.168E-02 0.102E-02 0.104E+00
   -.107E-03 -.411E-04 0.165E+02   0.935E-13 0.343E-13 -.341E-11   -.554E-15 -.443E-15 -.154E+02   -.571E-01 -.358E-01 -.104E+01

 POSITION                                       TOTAL-FORCE (eV/Angst)
      0.00000      0.00000      5.37156         0.000000      0.000000      0.033082
      2.56560      0.00000      5.37156        -0.005785      0.020074      0.064163
      5.13119      0.00000      5.37156         0.005785      0.020074      0.064163
      1.28280      2.22187      5.37156         0.014493     -0.015047      0.064163
      3.84839      2.22187      5.37156         0.000000      0.000000      0.086048
      6.41399      2.22187      5.37156        -0.014493     -0.015047      0.064163
      2.56560      4.44374      5.37156         0.020277     -0.005027      0.064163
      5.13119      4.44374      5.37156        -0.020277     -0.005027      0.064163
      7.69679      4.44374      5.37156         0.000000     -0.000000      0.061588
      1.28280      0.74062      7.46636        -0.002323     -0.001341     -0.055199
      3.84839      0.74062      7.46636         0.000000     -0.027148     -0.063377
      6.41399      0.74062      7.46636         0.002323     -0.001341     -0.055199
      2.56560      2.96249      7.46636        -0.023511      0.013574     -0.063377
      5.13119      2.96249      7.46636         0.023511      0.013574     -0.063377
      7.69679      2.96249      7.46636        -0.000000      0.002002     -0.068240
      3.84839      5.18437      7.46636        -0.000000      0.002683     -0.055199
      6.41399      5.18437      7.46636         0.001734     -0.001001     -0.068240
      8.97958      5.18437      7.46636        -0.001734     -0.001001     -0.068240
      7.69679      1.48353      9.55071        -0.000000      0.011822      0.026769
      2.56540      1.48114      9.54275         0.006896      0.003981     -0.225572
      5.13138      1.48114      9.54275        -0.006896      0.003981     -0.225572
      8.97935      3.70325      9.54809         0.004340     -0.002506     -0.008661
      3.84839      3.70334      9.54275         0.000000     -0.007963     -0.225572
      6.41422      3.70325      9.54809        -0.004340     -0.002506     -0.008661
     10.26040      5.92385      9.55071        -0.010238     -0.005911      0.026769
      5.13317      5.92385      9.55071         0.010238     -0.005911      0.026769
      7.69679      5.92472      9.54809        -0.000000      0.005011     -0.008661
      0.00000      0.00000     11.61525         0.000000     -0.000000     -0.032415
      2.57297      0.01446     11.62005        -0.084808     -0.126792      0.080320
      5.12381      0.01446     11.62005         0.084808     -0.126792      0.080320
      1.29901      2.22103     11.62005        -0.152209     -0.010050      0.080320
      6.39777      2.22103     11.62005         0.152209     -0.010050      0.080320
      2.57443      4.43012     11.62005        -0.067401      0.136842      0.080320
      5.12235      4.43012     11.62005         0.067401      0.136842      0.080320
      7.69679      4.44374     11.61370        -0.000000     -0.000000     -0.022653
      3.84839      2.22187     11.53520         0.000000      0.000000      0.198637
      3.84839      2.22187     13.15637         0.000000      0.000000     -0.008342
    total drift:                               -0.057202     -0.035807     -0.020261

  FREE ENERGIE OF THE ION-ELECTRON SYSTEM (eV)
  free  energy   TOTEN  =      -133.44828920 eV

  energy  without entropy=     -133.44828920  energy(sigma->0) =     -133.44828920

 stress matrix after NEB project (eV)
     -5.34478      0.00000      0.00000
      0.00000     -5.34478     -0.00000
      0.00000      0.00000      2.48476
  FORCES: max atom, RMS     0.008342    0.001371
  FORCE total and by dimension    0.008342    0.008342
  Stress total and by dimension    7.956593    5.344779
|           W    W    AA    RRRRR   N    N  II  N    N   GGGG   !!!           |
|           W    W   A  A   R    R  NN   N  II  NN   N  G    G  !!!           |
|           W    W  A    A  R    R  N N  N  II  N N  N  G       !!!           |
|           W WW W  AAAAAA  RRRRR   N  N N  II  N  N N  G  GGG   !            |
|           WW  WW  A    A  R   R   N   NN  II  N   NN  G    G                |
|           W    W  A    A  R    R  N    N  II  N    N   GGGG   !!!           |
|     Tetrahedron method does not include variations of the Fermi             |
|     occupations, so forces and stress will be inaccurate. We suggest        |
|     using a different smearing scheme ISMEAR = 1 or 2 for metals in         |
|     relaxations.                                                            |

 total charge

# of ion       s       p       d       tot
    1        0.451   0.283   9.189   9.922
    2        0.448   0.284   9.187   9.920
    3        0.448   0.284   9.187   9.920
    4        0.448   0.284   9.187   9.920
    5        0.448   0.286   9.187   9.920
    6        0.448   0.284   9.187   9.920
    7        0.448   0.284   9.187   9.920
    8        0.448   0.284   9.187   9.920
    9        0.449   0.284   9.184   9.916
   10        0.442   0.370   9.180   9.993
   11        0.440   0.371   9.180   9.991
   12        0.442   0.370   9.180   9.993
   13        0.440   0.371   9.180   9.991
   14        0.440   0.371   9.180   9.991
   15        0.441   0.368   9.183   9.991
   16        0.442   0.370   9.180   9.993
   17        0.441   0.368   9.183   9.991
   18        0.441   0.368   9.183   9.991
   19        0.441   0.376   9.176   9.994
   20        0.453   0.382   9.178  10.014
   21        0.453   0.382   9.178  10.014
   22        0.442   0.371   9.184   9.997
   23        0.453   0.382   9.178  10.014
   24        0.442   0.371   9.184   9.997
   25        0.441   0.376   9.176   9.994
   26        0.441   0.376   9.176   9.994
   27        0.442   0.371   9.184   9.997
   28        0.452   0.281   9.199   9.932
   29        0.432   0.290   9.195   9.917
   30        0.432   0.290   9.195   9.917
   31        0.432   0.290   9.195   9.917
   32        0.432   0.290   9.195   9.917
   33        0.432   0.290   9.195   9.917
   34        0.432   0.290   9.195   9.917
   35        0.451   0.282   9.194   9.927
   36        0.587   0.688   8.375   9.650
   37        1.353   2.096   0.000   3.449
tot         17.446  14.360 329.867 361.673

 BZINTS: Fermi energy:    0.003117;  400.000000 electrons
         Band energy:-0.114298E+04;  BLOECHL correction:   -0.042675