 vasp.6.2.0 18Jan21 (build Jun 12 2021 23:27:24) complex

 executed on             LinuxIFC date 2022.05.30  16:27:30

 INCAR:
   ISMEAR = -5
   SIGMA = 0.1
   ISPIN = 1
   EDIFF = 1.d-5
   EDIFFG = -0.01
   NSW = 0
   NELM = 150
   ENCUT = 500
   ISIF = 2
   IBRION = 2
   LREAL = Auto
   ALGO = Fast
   ICHARG = 11
   LORBIT = 10
   LCHARG = .F.
   LWAVE = .F.

 POTCAR:    PAW_PBE Au 04Oct2007
 POTCAR:    PAW_PBE Ta 17Jan2003
 POTCAR:    PAW_PBE C 08Apr2002
 POTCAR:    PAW_PBE O 08Apr2002
 POTCAR:    PAW_PBE H 15Jun2001
|           W    W    AA    RRRRR   N    N  II  N    N   GGGG   !!!           |
|           W    W   A  A   R    R  NN   N  II  NN   N  G    G  !!!           |
|           W    W  A    A  R    R  N N  N  II  N N  N  G       !!!           |
|           W WW W  AAAAAA  RRRRR   N  N N  II  N  N N  G  GGG   !            |
|           WW  WW  A    A  R   R   N   NN  II  N   NN  G    G                |
|           W    W  A    A  R    R  N    N  II  N    N   GGGG   !!!           |
|     For optimal performance we recommend to set                             |
|       NCORE = 2 up to number-of-cores-per-socket                            |
|     This setting can greatly improve the performance of VASP for DFT.       |
|     The default, NCORE=1 might be grossly inefficient on modern             |
|     multi-core architectures or massively parallel machines. Do your        |
|     Unfortunately you need to use the default for GW and RPA                |
|     calculations (for HF NCORE is supported but not extensively tested      |
|     yet).                                                                   |

 POTCAR:    PAW_PBE Au 04Oct2007
   VRHFIN =Au: s1d10

   TITEL  = PAW_PBE Au 04Oct2007
   POMASS =  196.966; ZVAL   =   11.000    mass and valenz
   ENMAX  =  229.943; ENMIN  =  172.457 eV

 POTCAR:    PAW_PBE Ta 17Jan2003
   VRHFIN =Ta:  6s5d

   TITEL  = PAW_PBE Ta 17Jan2003
   POMASS =  180.948; ZVAL   =    5.000    mass and valenz
   ENMAX  =  223.667; ENMIN  =  167.750 eV

 POTCAR:    PAW_PBE C 08Apr2002
   VRHFIN =C: s2p2

   TITEL  = PAW_PBE C 08Apr2002
   POMASS =   12.011; ZVAL   =    4.000    mass and valenz
   ENMAX  =  400.000; ENMIN  =  300.000 eV

 POTCAR:    PAW_PBE O 08Apr2002
   VRHFIN =O: s2p4

   TITEL  = PAW_PBE O 08Apr2002
   POMASS =   16.000; ZVAL   =    6.000    mass and valenz
   ENMAX  =  400.000; ENMIN  =  300.000 eV

 POTCAR:    PAW_PBE H 15Jun2001
   VRHFIN =H: ultrasoft test

   TITEL  = PAW_PBE H 15Jun2001
   POMASS =    1.000; ZVAL   =    1.000    mass and valenz
   ENMAX  =  250.000; ENMIN  =  200.000 eV

 Optimization of the real space projectors (new method)

 maximal supplied QI-value         = 15.12
 optimisation between [QCUT,QGAM] = [ 11.34, 22.83] = [ 36.00,145.93] Ry
 Optimized for a Real-space Cutoff    1.39 Angstroem

   l    n(q)    QCUT    max X(q) W(low)/X(q) W(high)/X(q)  e(spline)
   2      9    11.338    60.898    0.39E-03    0.42E-03    0.21E-06
   2      9    11.338    58.894    0.40E-03    0.42E-03    0.22E-06
   0      9    11.338   109.617    0.13E-03    0.20E-04    0.13E-06
   0      9    11.338    75.026    0.13E-03    0.20E-04    0.13E-06
   1      9    11.338    16.344    0.33E-04    0.24E-03    0.18E-06
   1      9    11.338    10.160    0.26E-04    0.19E-03    0.15E-06
 Optimization of the real space projectors (new method)

[...]

   l    n(q)    QCUT    max X(q) W(low)/X(q) W(high)/X(q)  e(spline)
   0      7    11.387    20.381    0.39E-03    0.13E-02    0.15E-06
   0      7    11.387    15.268    0.42E-03    0.14E-02    0.17E-06
   1      6    11.387     5.964    0.41E-03    0.11E-02    0.17E-06
   1      6    11.387     5.382    0.39E-03    0.87E-03    0.15E-06
 Optimization of the real space projectors (new method)

 maximal supplied QI-value         = 34.20
 optimisation between [QCUT,QGAM] = [ 11.29, 22.57] = [ 35.68,142.71] Ry
 Optimized for a Real-space Cutoff    1.16 Angstroem

   l    n(q)    QCUT    max X(q) W(low)/X(q) W(high)/X(q)  e(spline)
   0      8    11.287    19.460    0.40E-03    0.73E-03    0.16E-06
   0      8    11.287    12.209    0.38E-03    0.70E-03    0.15E-06
   1      7    11.287     4.655    0.22E-03    0.25E-04    0.22E-06
  PAW_PBE Au 04Oct2007                  :
  PAW_PBE Ta 17Jan2003                  :
  PAW_PBE C 08Apr2002                   :
  PAW_PBE O 08Apr2002                   :
  PAW_PBE H 15Jun2001                   :

 POSCAR: Au-Ta-COH
  positions in direct lattice
  velocities in cartesian coordinates
 exchange correlation table for  LEXCH =        8
   RHO(1)=    0.500       N(1)  =     2000
   RHO(2)=  100.500       N(2)  =     4000

 VTST: version 3.2, (02/03/18)

 CHAIN: initializing optimizer

 OPT: Using VASP Conjugate-Gradient optimizer
 CHAIN: Read ICHAIN            0

 POSCAR: Au-Ta-COH
  positions in direct lattice
  velocities in cartesian coordinates

 ion  position               nearest neighbor table
   1  0.000  0.000  0.197-  16 2.94  12 2.94   6 2.94   8 2.94   7 2.94   3 2.94  10 2.94   4 2.94
                             2 2.94
   2  0.333  0.000  0.197-   9 2.94  11 2.94  17 2.94  10 2.94   8 2.94   4 2.94   5 2.94   1 2.94
                             3 2.94
   3  0.667  0.000  0.197-   7 2.94  18 2.94  12 2.94   1 2.94  11 2.94   5 2.94   6 2.94   9 2.94
                             2 2.94
   4  0.000  0.333  0.197-  10 2.94   6 2.94   5 2.94  13 2.94   2 2.94  15 2.94   9 2.94   1 2.94
                             7 2.94
   5  0.333  0.333  0.197-  13 2.94   7 2.94  11 2.94   4 2.94   2 2.94  14 2.94   3 2.94   8 2.94
                             6 2.94
   6  0.667  0.333  0.197-  15 2.94  14 2.94   1 2.94  12 2.94   4 2.94   9 2.94   8 2.94   3 2.94
                             5 2.94
   7  0.000  0.667  0.197-  18 2.94   3 2.94  16 2.94   5 2.94   1 2.94  13 2.94   8 2.94   4 2.94
                             9 2.94
   8  0.333  0.667  0.197-   9 2.94  17 2.94   1 2.94   2 2.94  14 2.94  16 2.94   6 2.94   7 2.94
                             5 2.94
   9  0.667  0.667  0.197-   2 2.94   8 2.94  17 2.94   6 2.94  15 2.94   4 2.94   3 2.94  18 2.94
                             7 2.94
  10  0.111  0.111  0.287-  20 2.91  11 2.94  17 2.94   2 2.94   4 2.94   1 2.94  12 2.94  16 2.94
                            13 2.94  15 2.94  26 2.96  19 2.96
  11  0.444  0.111  0.287-  20 2.91  21 2.91  13 2.94   2 2.94  10 2.94  17 2.94   5 2.94   3 2.94
                            18 2.94  14 2.94  12 2.94  27 2.94
  12  0.778  0.111  0.287-  21 2.91  16 2.94  18 2.94   1 2.94  14 2.94  15 2.94   3 2.94   6 2.94
                            10 2.94  11 2.94  25 2.96  19 2.96
  13  0.111  0.444  0.287-  23 2.91  20 2.91   5 2.94  18 2.94  11 2.94   7 2.94   4 2.94  16 2.94
                            10 2.94  14 2.94  15 2.94  22 2.94
  14  0.444  0.444  0.287-  21 2.91  23 2.91  15 2.94   6 2.94  12 2.94   8 2.94  17 2.94   5 2.94
                            16 2.94  13 2.94  11 2.94  24 2.94
  15  0.778  0.444  0.287-  24 2.92  22 2.92  14 2.94   6 2.94  17 2.94  12 2.94   9 2.94   4 2.94
                            10 2.94  13 2.94  18 2.94  19 2.95
  16  0.111  0.778  0.287-  23 2.91  18 2.94  12 2.94   7 2.94   1 2.94   8 2.94  13 2.94  10 2.94
                            14 2.94  17 2.94  25 2.96  26 2.96
  17  0.444  0.778  0.287-  27 2.92  24 2.92   9 2.94  15 2.94   2 2.94  10 2.94  11 2.94   8 2.94
                            14 2.94  16 2.94  18 2.94  26 2.95
  18  0.778  0.778  0.287-  22 2.92  27 2.92  16 2.94   7 2.94  13 2.94  12 2.94   3 2.94  11 2.94
                             9 2.94  15 2.94  17 2.94  25 2.95
  19  0.888  0.223  0.377-  24 2.93  22 2.93  21 2.93  20 2.93  28 2.95  15 2.95  26 2.95  25 2.95
                            10 2.96  12 2.96  32 3.06  31 3.06
  20  0.222  0.222  0.376-  36 2.74  10 2.91  11 2.91  13 2.91  26 2.93  19 2.93  23 2.95  21 2.95
                            27 2.95  22 2.95  29 2.99  31 2.99
  21  0.556  0.222  0.376-  36 2.74  12 2.91  14 2.91  11 2.91  25 2.93  19 2.93  20 2.95  23 2.95
                            27 2.95  24 2.95  30 2.99  32 2.99
  22  0.886  0.557  0.376-  24 2.91  27 2.91  18 2.92  15 2.92  25 2.93  19 2.93  13 2.94  23 2.95
                            20 2.95  35 2.96  33 3.03  31 3.03
  23  0.222  0.556  0.376-  36 2.74  16 2.91  13 2.91  14 2.91  25 2.93  26 2.93  20 2.95  21 2.95
                            22 2.95  24 2.95  33 2.99  34 2.99
  24  0.557  0.557  0.376-  27 2.91  22 2.91  15 2.92  17 2.92  26 2.93  19 2.93  14 2.94  21 2.95
                            23 2.95  35 2.96  32 3.03  34 3.03
  25  0.888  0.888  0.377-  22 2.93  27 2.93  23 2.93  21 2.93  28 2.95  18 2.95  19 2.95  26 2.95
                            16 2.96  12 2.96  33 3.06  30 3.06
  26  0.223  0.888  0.377-  27 2.93  24 2.93  20 2.93  23 2.93  28 2.95  17 2.95  19 2.95  25 2.95
                            10 2.96  16 2.96  29 3.06  34 3.06
  27  0.557  0.886  0.376-  24 2.91  22 2.91  17 2.92  18 2.92  26 2.93  25 2.93  11 2.94  20 2.95
                            21 2.95  35 2.96  29 3.03  30 3.03
  28  0.000  0.000  0.467-  25 2.95  19 2.95  26 2.95  34 3.00  32 3.00  33 3.00  30 3.00  31 3.00
                            29 3.00
  29  0.334  0.012  0.470-  30 2.82  31 2.84  36 2.85  35 2.99  20 2.99  28 3.00  27 3.03  26 3.06
                            34 3.16
  30  0.654  0.012  0.470-  29 2.82  32 2.84  36 2.85  35 2.99  21 2.99  28 3.00  27 3.03  25 3.06
                            33 3.16
  31  0.012  0.334  0.470-  33 2.82  29 2.84  36 2.85  35 2.99  20 2.99  28 3.00  22 3.03  19 3.06
                            32 3.16
  32  0.654  0.334  0.470-  34 2.82  30 2.84  36 2.85  35 2.99  21 2.99  28 3.00  24 3.03  19 3.06
                            31 3.16
  33  0.012  0.654  0.470-  31 2.82  34 2.84  36 2.85  35 2.99  23 2.99  28 3.00  22 3.03  25 3.06
                            30 3.16
  34  0.334  0.654  0.470-  32 2.82  33 2.84  36 2.85  35 2.99  23 2.99  28 3.00  24 3.03  26 3.06
                            29 3.16
  35  0.667  0.667  0.467-  24 2.96  27 2.96  22 2.96  29 2.99  34 2.99  32 2.99  31 2.99  30 2.99
                            33 2.99
  36  0.333  0.333  0.456-  37 1.94  20 2.74  23 2.74  21 2.74  33 2.85  31 2.85  29 2.85  30 2.85
                            34 2.85  32 2.85
  37  0.333  0.333  0.529-  38 1.26  36 1.94
  38  0.333  0.333  0.576-  39 0.96  37 1.26
  39  0.333  0.333  0.611-  38 0.96

  LATTYP: Found a hexagonal cell.
 ALAT       =     8.8135128021
 C/A-ratio  =     3.0356784858

  Lattice vectors:

 A1 = (  -4.4067569092,  -7.6327256898,   0.0000000000)
 A2 = (   8.8135128021,   0.0000000000,   0.0000000000)
 A3 = (   0.0000000000,   0.0000000000,  26.7549911976)

Analysis of symmetry for initial positions (statically):
 Subroutine PRICEL returns:
 Original cell was already a primitive cell.

 Routine SETGRP: Setting up the symmetry group for a
 hexagonal supercell.

 Subroutine GETGRP returns: Found  6 space group operations
 (whereof  6 operations were pure point group operations)
 out of a pool of 24 trial point group operations.

The static configuration has the point symmetry C_3v.

Analysis of symmetry for dynamics (positions and initial velocities):
[...]
     41      -5.0794      2.00000
     42      -4.9319      2.00000
     43      -4.9142      2.00000
     44      -4.8547      2.00000
     45      -4.8156      2.00000
     46      -4.7872      2.00000
     47      -4.7581      2.00000
     48      -4.7326      2.00000
     49      -4.7073      2.00000
     50      -4.6835      2.00000
     51      -4.5989      2.00000
     52      -4.5782      2.00000
     53      -4.5595      2.00000
     54      -4.5296      2.00000
     55      -4.5196      2.00000
     56      -4.5049      2.00000
     57      -4.4879      2.00000
     58      -4.4737      2.00000
     59      -4.4443      2.00000
     60      -4.4095      2.00000
[...]
    238       5.2809      0.00000
    239       5.3145      0.00000
    240       5.4597      0.00000
    241       5.5945      0.00000
    242       5.7310      0.00000
    243       5.9200      0.00000
    244       5.9534      0.00000
    245       5.9652      0.00000
    246       6.0764      0.00000
    247       6.1081      0.00000
    248       6.1254      0.00000
    249       6.1898      0.00000
    250       6.3072      0.00000
    251       6.3368      0.00000
    252       6.3929      0.00000

 soft charge-density along one line, spin component           1
         0         1         2         3         4         5         6         7         8         9
 total charge-density along one line

------------------------ aborting loop because EDIFF is reached ----------------------------------------

 total charge

# of ion       s       p       d       tot
    1        0.545   0.237   8.770   9.552
    2        0.543   0.241   8.765   9.549
    3        0.543   0.241   8.765   9.549
    4        0.543   0.241   8.765   9.549
    5        0.548   0.241   8.759   9.549
    6        0.543   0.241   8.765   9.549
    7        0.543   0.241   8.765   9.549
    8        0.543   0.241   8.765   9.549
    9        0.541   0.240   8.769   9.551
   10        0.524   0.307   8.769   9.600
   11        0.525   0.307   8.776   9.608
   12        0.524   0.307   8.769   9.600
   13        0.525   0.307   8.776   9.608
   14        0.525   0.307   8.776   9.608
   15        0.515   0.309   8.773   9.597
   16        0.524   0.307   8.769   9.600
   17        0.515   0.309   8.773   9.597
   18        0.515   0.309   8.773   9.597
   19        0.518   0.295   8.768   9.581
   20        0.573   0.341   8.736   9.649
   21        0.573   0.341   8.736   9.649
   22        0.507   0.306   8.777   9.590
   23        0.573   0.341   8.736   9.649
   24        0.507   0.306   8.777   9.590
   25        0.518   0.295   8.768   9.581
   26        0.518   0.295   8.768   9.581
   27        0.507   0.306   8.777   9.590
   28        0.539   0.226   8.762   9.527
   29        0.579   0.251   8.741   9.571
   30        0.579   0.251   8.741   9.571
   31        0.579   0.251   8.741   9.571
   32        0.579   0.251   8.741   9.571
   33        0.579   0.251   8.741   9.571
   34        0.579   0.251   8.741   9.571
   35        0.542   0.227   8.757   9.526
   36        0.638   0.785   3.316   4.739
   37        0.934   1.428   0.000   2.363
   38        1.522   3.770   0.000   5.292
   39        0.563   0.138   0.000   0.701
tot         22.585  15.840 309.971 348.397

  FORCE on cell =-STRESS in cart. coord.  units (eV):
  Direction    XX          YY          ZZ          XY          YZ          ZX
  Alpha Z   860.71535   860.71535   860.71535
  Ewald  182763.93522182763.93563************    -0.00031    -0.00009    -0.00014
  Hartree191223.84067191223.84067************     0.00001    -0.00002    -0.00004
  E(xc)   -1797.20176 -1797.20189 -1805.31906     0.00011    -0.00001    -0.00001
  Local  ************************385944.17006     0.00214     0.00000    -0.00000
  n-local   -99.38970   -56.14413   -52.00824    21.83872    -1.51049     1.48671
  augment  2373.18260  2373.18410  2390.50970    -0.00129     0.00003     0.00005
  Kinetic  5609.81703  5616.44441  5617.35129     5.08589     0.39928     0.16279
  Fock        0.00000     0.00000     0.00000     0.00000     0.00000     0.00000
  Total     -20.66202   -20.66202     3.01644    -0.00000     0.00000    -0.00000
  in kB     -18.39289   -18.39289     2.68517    -0.00000     0.00000    -0.00000

 VOLUME and BASIS-vectors are now :
  energy-cutoff  :      500.00
  volume of cell :     1799.84
      direct lattice vectors                 reciprocal lattice vectors
     8.813512802  0.000000000  0.000000000     0.113462137 -0.065507406  0.000000000
     4.406756909  7.632725690  0.000000000     0.000000000  0.131014796  0.000000000
     0.000000000  0.000000000 26.754991198     0.000000000  0.000000000  0.037376204

  length of vectors
     8.813512802  8.813512802 26.754991198     0.131014796  0.131014796  0.037376204

 FORCES acting on ions
    electron-ion (+dipol)            ewald-force                    non-local-force                 convergence-correction
   -.200E-04 -.164E-04 0.280E+04   0.519E-04 0.433E-04 -.280E+04   -.129E-17 -.403E-17 -.867E+00   -.188E-03 -.121E-03 -.369E+00
   0.490E+00 -.211E+00 0.280E+04   -.555E+00 -.197E-01 -.280E+04   0.468E-01 0.144E+00 -.241E+00   0.254E-01 0.858E-01 -.326E+00
   -.490E+00 -.211E+00 0.280E+04   0.555E+00 -.197E-01 -.280E+04   -.468E-01 0.144E+00 -.241E+00   -.251E-01 0.877E-01 -.325E+00
   0.623E-01 0.530E+00 0.280E+04   -.295E+00 -.471E+00 -.280E+04   0.148E+00 -.314E-01 -.241E+00   0.870E-01 -.210E-01 -.326E+00
   0.106E-04 -.223E-04 0.280E+04   0.951E-04 0.174E-05 -.280E+04   0.663E-18 -.102E-17 0.118E+00   0.419E-02 0.258E-02 -.223E+00
   -.624E-01 0.530E+00 0.280E+04   0.295E+00 -.471E+00 -.280E+04   -.148E+00 -.314E-01 -.241E+00   -.885E-01 -.201E-01 -.325E+00
   -.428E+00 -.319E+00 0.280E+04   0.260E+00 0.490E+00 -.280E+04   0.101E+00 -.112E+00 -.241E+00   0.634E-01 -.656E-01 -.325E+00
   0.428E+00 -.319E+00 0.280E+04   -.261E+00 0.490E+00 -.280E+04   -.101E+00 -.112E+00 -.241E+00   -.616E-01 -.666E-01 -.325E+00
   0.198E-04 -.414E-04 0.281E+04   0.166E-03 -.200E-04 -.280E+04   0.269E-18 0.188E-17 -.590E+00   -.454E-02 -.238E-02 -.302E+00
   0.525E+01 0.303E+01 0.948E+03   -.502E+01 -.290E+01 -.947E+03   -.385E+00 -.222E+00 -.558E+00   0.118E+00 0.683E-01 0.513E-02
   0.146E-04 0.119E+01 0.951E+03   0.148E-03 -.133E+01 -.951E+03   0.274E-08 0.411E-01 -.156E+00   0.374E-02 0.529E-01 0.508E-01
   -.525E+01 0.303E+01 0.948E+03   0.502E+01 -.290E+01 -.947E+03   0.385E+00 -.222E+00 -.558E+00   -.119E+00 0.689E-01 0.358E-02
   0.103E+01 -.597E+00 0.951E+03   -.115E+01 0.665E+00 -.951E+03   0.356E-01 -.206E-01 -.156E+00   0.478E-01 -.229E-01 0.510E-01
   -.103E+01 -.597E+00 0.951E+03   0.115E+01 0.665E+00 -.951E+03   -.356E-01 -.206E-01 -.156E+00   -.408E-01 -.237E-01 0.491E-01
   0.321E-04 0.514E+01 0.952E+03   0.235E-03 -.520E+01 -.952E+03   0.110E-08 0.165E-01 -.503E+00   -.166E-02 -.220E-01 -.251E-01
   -.204E-04 -.606E+01 0.948E+03   0.162E-03 0.580E+01 -.947E+03   0.296E-07 0.444E+00 -.558E+00   -.239E-03 -.138E+00 0.403E-02
   0.445E+01 -.257E+01 0.952E+03   -.451E+01 0.260E+01 -.952E+03   0.143E-01 -.826E-02 -.503E+00   -.196E-01 0.963E-02 -.257E-01
   -.445E+01 -.257E+01 0.952E+03   0.451E+01 0.260E+01 -.952E+03   -.143E-01 -.826E-02 -.503E+00   0.200E-01 0.111E-01 -.249E-01
   -.441E-04 -.104E+01 -.934E+03   0.554E-04 0.938E+00 0.933E+03   0.396E-08 0.595E-01 0.719E+00   0.508E-02 0.420E-01 0.300E+00
   -.753E+01 -.435E+01 -.904E+03   0.828E+01 0.478E+01 0.905E+03   -.115E+01 -.664E+00 -.149E+01   0.165E+00 0.960E-01 0.338E+00
   0.753E+01 -.435E+01 -.904E+03   -.828E+01 0.478E+01 0.905E+03   0.115E+01 -.664E+00 -.149E+01   -.173E+00 0.957E-01 0.338E+00
   -.126E+02 0.728E+01 -.911E+03   0.120E+02 -.694E+01 0.911E+03   0.459E+00 -.265E+00 0.665E+00   0.145E+00 -.850E-01 0.277E+00
   -.101E-04 0.870E+01 -.904E+03   0.138E-03 -.956E+01 0.905E+03   0.885E-07 0.133E+01 -.149E+01   -.378E-02 -.197E+00 0.338E+00
   0.126E+02 0.728E+01 -.911E+03   -.120E+02 -.694E+01 0.911E+03   -.459E+00 -.265E+00 0.665E+00   -.144E+00 -.839E-01 0.276E+00
   0.900E+00 0.519E+00 -.934E+03   -.812E+00 -.469E+00 0.933E+03   -.515E-01 -.297E-01 0.719E+00   -.313E-01 -.189E-01 0.300E+00
   -.900E+00 0.519E+00 -.934E+03   0.812E+00 -.469E+00 0.933E+03   0.515E-01 -.297E-01 0.719E+00   0.319E-01 -.169E-01 0.301E+00
   0.927E-05 -.146E+02 -.911E+03   0.197E-03 0.139E+02 0.911E+03   0.353E-07 0.530E+00 0.665E+00   -.277E-03 0.168E+00 0.277E+00
   -.141E-04 -.128E-04 -.269E+04   0.299E-04 0.334E-04 0.269E+04   -.319E-17 -.132E-17 0.314E+00   0.151E-02 0.649E-03 0.395E+00
   0.263E+02 0.356E+02 -.269E+04   -.254E+02 -.343E+02 0.269E+04   -.115E+01 -.177E+01 0.202E-01   0.104E+00 0.179E+00 0.305E+00
   -.263E+02 0.356E+02 -.269E+04   0.254E+02 -.343E+02 0.269E+04   0.115E+01 -.177E+01 0.202E-01   -.110E+00 0.180E+00 0.306E+00
   0.440E+02 0.495E+01 -.269E+04   -.424E+02 -.483E+01 0.269E+04   -.211E+01 -.113E+00 0.202E-01   0.207E+00 0.878E-03 0.305E+00
   -.440E+02 0.495E+01 -.269E+04   0.424E+02 -.483E+01 0.269E+04   0.211E+01 -.113E+00 0.202E-01   -.213E+00 0.192E-02 0.306E+00
   0.177E+02 -.406E+02 -.269E+04   -.170E+02 0.391E+02 0.269E+04   -.959E+00 0.189E+01 0.202E-01   0.101E+00 -.186E+00 0.306E+00
   -.177E+02 -.406E+02 -.269E+04   0.170E+02 0.391E+02 0.269E+04   0.959E+00 0.189E+01 0.202E-01   -.105E+00 -.186E+00 0.306E+00
   0.349E-04 -.291E-04 -.269E+04   0.140E-03 -.494E-04 0.269E+04   0.778E-17 -.443E-17 0.293E+00   -.303E-02 -.174E-02 0.400E+00
   -.640E-05 0.492E-05 -.105E+04   0.528E-04 0.493E-05 0.106E+04   -.541E-17 0.527E-19 -.164E+01   0.585E-03 0.418E-03 0.184E+00
   -.726E-05 -.789E-04 -.982E+03   0.146E-04 0.971E-06 0.961E+03   -.854E-18 0.118E-17 0.216E+02   0.119E-02 0.738E-03 -.378E-01
   0.244E-03 -.901E-04 -.169E+04   0.461E-05 0.512E-06 0.170E+04   0.354E-18 -.174E-18 -.543E+01   0.385E-02 0.236E-02 -.149E+00
   0.641E-05 -.145E-04 -.327E+03   0.187E-06 0.385E-07 0.336E+03   0.436E-19 0.903E-20 -.874E+01   0.201E-03 0.124E-03 -.226E-01
   -.566E-03 -.955E-03 -.182E+01   -.395E-13 0.207E-12 -.557E-11   0.113E-15 -.447E-15 -.270E+00   -.982E-02 -.215E-02 0.259E+01

 POSITION                                       TOTAL-FORCE (eV/Angst)
      0.00000      0.00000      5.28038        -0.000000     -0.000000     -0.134190
      2.93784      0.00000      5.28038         0.007947     -0.000208     -0.057166
      5.87568      0.00000      5.28038        -0.007947     -0.000208     -0.057166
      1.46892      2.54424      5.28038         0.003794      0.006986     -0.057166
      4.40676      2.54424      5.28038        -0.000000     -0.000000     -0.104312
      7.34459      2.54424      5.28038        -0.003794      0.006986     -0.057166
      2.93784      5.08848      5.28038        -0.004153     -0.006779     -0.057166
      5.87568      5.08848      5.28038         0.004153     -0.006779     -0.057166
      8.81351      5.08848      5.28038        -0.000000     -0.000000     -0.069907
      1.46892      0.84808      7.67911        -0.044327     -0.025592      0.133840
      4.40676      0.84808      7.67911        -0.000000     -0.042905      0.030674
      7.34459      0.84808      7.67911         0.044327     -0.025592      0.133840
      2.93784      3.39232      7.67911        -0.037157      0.021452      0.030674
      5.87568      3.39232      7.67911         0.037157      0.021452      0.030674
      8.81351      3.39232      7.67911        -0.000000     -0.066886      0.136439
      4.40676      5.93656      7.67911         0.000000      0.051184      0.133840
      7.34459      5.93656      7.67911        -0.057925      0.033443      0.136439
     10.28243      5.93656      7.67911         0.057925      0.033443      0.136439
      8.81351      1.70341     10.09804        -0.000000     -0.003197      0.111184
      2.93277      1.69323     10.04724        -0.234266     -0.135254     -0.317440
      5.88075      1.69323     10.04724         0.234266     -0.135254     -0.317440
     10.26617      4.24979     10.06844         0.015157     -0.008751      0.071289
      4.40676      4.24626     10.04724         0.000000      0.270507     -0.317440
      7.36086      4.24979     10.06844        -0.015157     -0.008751      0.071289
     11.74508      6.78102     10.09804         0.002769      0.001598      0.111184
      5.88195      6.78102     10.09804        -0.002769      0.001598      0.111184
      8.81351      6.76586     10.06844         0.000000      0.017501      0.071289
      0.00000      0.00000     12.50054        -0.000000     -0.000000     -0.159152
      2.99863      0.09131     12.57640        -0.133779     -0.240862     -0.134296
      5.81488      0.09131     12.57640         0.133779     -0.240862     -0.134296
      1.57839      2.55123     12.57640        -0.275482      0.004575     -0.134296
      7.23512      2.55123     12.57640         0.275482      0.004575     -0.134296
      2.98652      4.99018     12.57640        -0.141703      0.236287     -0.134296
      5.82700      4.99018     12.57640         0.141703      0.236287     -0.134296
      8.81351      5.08848     12.50707        -0.000000     -0.000000     -0.090584
      4.40676      2.54424     12.20058        -0.000000     -0.000000      1.181003
      4.40676      2.54424     14.14458        -0.000000     -0.000000      0.040750
      4.40676      2.54424     15.40049        -0.000000     -0.000000     -0.017284
      4.40676      2.54424     16.35687        -0.000000     -0.000000      0.004487
    total drift:                               -0.010386     -0.003101      0.505799

  FREE ENERGIE OF THE ION-ELECTRON SYSTEM (eV)
  free  energy   TOTEN  =      -135.72056593 eV

  energy  without entropy=     -135.72056593  energy(sigma->0) =     -135.72056593

 stress matrix after NEB project (eV)
    -20.66202     -0.00000     -0.00000
     -0.00000    -20.66202      0.00000
     -0.00000      0.00000      3.01644
  FORCES: max atom, RMS     0.040750    0.007124
  FORCE total and by dimension    0.044491    0.040750
  Stress total and by dimension   29.375794   20.662023
|           W    W    AA    RRRRR   N    N  II  N    N   GGGG   !!!           |
|           W    W   A  A   R    R  NN   N  II  NN   N  G    G  !!!           |
|           W    W  A    A  R    R  N N  N  II  N N  N  G       !!!           |
|           W WW W  AAAAAA  RRRRR   N  N N  II  N  N N  G  GGG   !            |
|           WW  WW  A    A  R   R   N   NN  II  N   NN  G    G                |
|           W    W  A    A  R    R  N    N  II  N    N   GGGG   !!!           |
|     Tetrahedron method does not include variations of the Fermi             |
|     occupations, so forces and stress will be inaccurate. We suggest        |
|     using a different smearing scheme ISMEAR = 1 or 2 for metals in         |
|     relaxations.                                                            |

 total charge

# of ion       s       p       d       tot
    1        0.545   0.237   8.770   9.552
    2        0.543   0.241   8.765   9.549
    3        0.543   0.241   8.765   9.549
    4        0.543   0.241   8.765   9.549
    5        0.548   0.241   8.759   9.549
    6        0.543   0.241   8.765   9.549
    7        0.543   0.241   8.765   9.549
    8        0.543   0.241   8.765   9.549
    9        0.541   0.240   8.769   9.551
   10        0.524   0.307   8.769   9.600
   11        0.525   0.307   8.776   9.608
   12        0.524   0.307   8.769   9.600
   13        0.525   0.307   8.776   9.608
   14        0.525   0.307   8.776   9.608
   15        0.515   0.309   8.773   9.597
   16        0.524   0.307   8.769   9.600
   17        0.515   0.309   8.773   9.597
   18        0.515   0.309   8.773   9.597
   19        0.518   0.295   8.768   9.581
   20        0.573   0.341   8.736   9.649
   21        0.573   0.341   8.736   9.649
   22        0.507   0.306   8.777   9.590
   23        0.573   0.341   8.736   9.649
   24        0.507   0.306   8.777   9.590
   25        0.518   0.295   8.768   9.581
   26        0.518   0.295   8.768   9.581
   27        0.507   0.306   8.777   9.590
   28        0.539   0.226   8.762   9.527
   29        0.579   0.251   8.741   9.571
   30        0.579   0.251   8.741   9.571
   31        0.579   0.251   8.741   9.571
   32        0.579   0.251   8.741   9.571
   33        0.579   0.251   8.741   9.571
   34        0.579   0.251   8.741   9.571
   35        0.542   0.227   8.757   9.526
   36        0.638   0.785   3.316   4.739
   37        0.934   1.428   0.000   2.363
   38        1.522   3.770   0.000   5.292
   39        0.563   0.138   0.000   0.701
tot         22.585  15.840 309.971 348.397

 BZINTS: Fermi energy:    0.310973;  401.000000 electrons
         Band energy:-0.146711E+04;  BLOECHL correction:   -0.053666