 vasp.6.2.0 18Jan21 (build Jun 12 2021 23:27:24) complex

 executed on             LinuxIFC date 2022.05.27  05:36:51

 INCAR:
   ISMEAR = -5
   SIGMA = 0.1
   ISPIN = 1
   EDIFF = 1.d-5
   EDIFFG = -0.01
   NSW = 0
   NELM = 150
   ENCUT = 500
   ISIF = 2
   IBRION = 2
   LREAL = Auto
   ALGO = Fast
   ICHARG = 11
   LORBIT = 10
   LCHARG = .F.
   LWAVE = .F.

 POTCAR:    PAW_PBE Ag 02Apr2005
 POTCAR:    PAW_PBE Mo 08Apr2002
 POTCAR:    PAW_PBE C 08Apr2002
 POTCAR:    PAW_PBE O 08Apr2002
|           W    W    AA    RRRRR   N    N  II  N    N   GGGG   !!!           |
|           W    W   A  A   R    R  NN   N  II  NN   N  G    G  !!!           |
|           W    W  A    A  R    R  N N  N  II  N N  N  G       !!!           |
|           W WW W  AAAAAA  RRRRR   N  N N  II  N  N N  G  GGG   !            |
|           WW  WW  A    A  R   R   N   NN  II  N   NN  G    G                |
|           W    W  A    A  R    R  N    N  II  N    N   GGGG   !!!           |
|     For optimal performance we recommend to set                             |
|       NCORE = 2 up to number-of-cores-per-socket                            |
|     This setting can greatly improve the performance of VASP for DFT.       |
|     The default, NCORE=1 might be grossly inefficient on modern             |
|     multi-core architectures or massively parallel machines. Do your        |
|     Unfortunately you need to use the default for GW and RPA                |
|     calculations (for HF NCORE is supported but not extensively tested      |
|     yet).                                                                   |

 POTCAR:    PAW_PBE Ag 02Apr2005
   VRHFIN =Ag : s1 d10

   TITEL  = PAW_PBE Ag 02Apr2005
   POMASS =  107.868; ZVAL   =   11.000    mass and valenz
   ENMAX  =  249.844; ENMIN  =  187.383 eV

 POTCAR:    PAW_PBE Mo 08Apr2002
   VRHFIN =Mo: 4p5s4d

[...]

 POTCAR:    PAW_PBE C 08Apr2002
   VRHFIN =C: s2p2

[...]

 POTCAR:    PAW_PBE O 08Apr2002
   VRHFIN =O: s2p4

   TITEL  = PAW_PBE O 08Apr2002
   POMASS =   16.000; ZVAL   =    6.000    mass and valenz
   ENMAX  =  400.000; ENMIN  =  300.000 eV

 Optimization of the real space projectors (new method)

 maximal supplied QI-value         = 15.12
 optimisation between [QCUT,QGAM] = [ 11.34, 22.83] = [ 36.00,145.93] Ry
 Optimized for a Real-space Cutoff    1.43 Angstroem

   l    n(q)    QCUT    max X(q) W(low)/X(q) W(high)/X(q)  e(spline)
   2      9    11.338    53.897    0.16E-03    0.20E-03    0.28E-06
   2      9    11.338    52.416    0.16E-03    0.20E-03    0.29E-06
   0     10    11.338   122.045    0.31E-04    0.76E-04    0.15E-06
   0     10    11.338    73.629    0.30E-04    0.72E-04    0.15E-06
   1      9    11.338    15.255    0.20E-03    0.19E-04    0.17E-06
   1      9    11.338     9.562    0.16E-03    0.15E-04    0.14E-06
 Optimization of the real space projectors (new method)

[...]

   l    n(q)    QCUT    max X(q) W(low)/X(q) W(high)/X(q)  e(spline)
   0      7    11.310   115.676    0.43E-03    0.13E-02    0.19E-06
   0      7    11.310    87.132    0.43E-03    0.13E-02    0.18E-06
   1      6    11.310     4.429    0.42E-03    0.74E-03    0.11E-06
   1      6    11.310     2.733    0.34E-03    0.55E-03    0.92E-07
 Optimization of the real space projectors (new method)

 maximal supplied QI-value         = 24.76
 optimisation between [QCUT,QGAM] = [ 11.39, 22.77] = [ 36.31,145.25] Ry
 Optimized for a Real-space Cutoff    1.00 Angstroem

   l    n(q)    QCUT    max X(q) W(low)/X(q) W(high)/X(q)  e(spline)
   0      7    11.387    20.381    0.39E-03    0.13E-02    0.15E-06
   0      7    11.387    15.268    0.42E-03    0.14E-02    0.17E-06
   1      6    11.387     5.964    0.41E-03    0.11E-02    0.17E-06
   1      6    11.387     5.382    0.39E-03    0.87E-03    0.15E-06
  PAW_PBE Ag 02Apr2005                  :
  PAW_PBE Mo 08Apr2002                  :
  PAW_PBE C 08Apr2002                   :
  PAW_PBE O 08Apr2002                   :

 POSCAR: Ag-Mo-CO
  positions in direct lattice
  velocities in cartesian coordinates
 exchange correlation table for  LEXCH =        8
   RHO(1)=    0.500       N(1)  =     2000
   RHO(2)=  100.500       N(2)  =     4000

 VTST: version 3.2, (02/03/18)

 CHAIN: initializing optimizer

 OPT: Using VASP Conjugate-Gradient optimizer
 CHAIN: Read ICHAIN            0

 POSCAR: Ag-Mo-CO
  positions in direct lattice
  velocities in cartesian coordinates

 ion  position               nearest neighbor table
   1  0.000  0.000  0.238-   2 2.93   8 2.93   7 2.93   6 2.93   4 2.93  12 2.93  16 2.93  10 2.93
                             3 2.93
   2  0.333  0.000  0.238-   1 2.93   8 2.93   9 2.93   3 2.93   4 2.93   5 2.93  10 2.93  17 2.93
                            11 2.93
   3  0.667  0.000  0.238-   9 2.93   2 2.93   5 2.93  11 2.93   7 2.93  18 2.93   1 2.93   6 2.93
                            12 2.93
   4  0.000  0.333  0.238-   5 2.93   6 2.93   2 2.93   1 2.93   7 2.93  13 2.93  15 2.93   9 2.93
                            10 2.93
   5  0.333  0.333  0.238-   4 2.93   3 2.93   7 2.93   2 2.93   8 2.93  14 2.93  13 2.93  11 2.93
                             6 2.93
   6  0.667  0.333  0.238-   4 2.93   9 2.93   1 2.93  15 2.93   8 2.93  12 2.93   3 2.93   5 2.93
                            14 2.93
   7  0.000  0.667  0.238-   8 2.93   1 2.93   5 2.93   3 2.93   4 2.93  16 2.93  18 2.93  13 2.93
                             9 2.93
   8  0.333  0.667  0.238-   7 2.93   1 2.93   2 2.93   9 2.93   5 2.93  16 2.93   6 2.93  17 2.93
                            14 2.93
   9  0.667  0.667  0.238-   3 2.93   2 2.93   8 2.93   6 2.93  17 2.93   4 2.93  15 2.93   7 2.93
                            18 2.93
  10  0.111  0.111  0.346-  20 2.90  19 2.93  26 2.93  12 2.93  16 2.93  15 2.93  17 2.93  13 2.93
                            11 2.93   2 2.93   1 2.93   4 2.93
  11  0.444  0.111  0.346-  21 2.90  20 2.90  27 2.93  14 2.93  17 2.93  18 2.93   3 2.93  12 2.93
                            13 2.93  10 2.93   5 2.93   2 2.93
  12  0.778  0.111  0.346-  21 2.90  25 2.93  19 2.93  10 2.93  16 2.93  18 2.93  15 2.93  11 2.93
                             1 2.93  14 2.93   6 2.93   3 2.93
  13  0.111  0.444  0.346-  20 2.90  23 2.90  22 2.93  15 2.93  14 2.93  18 2.93  10 2.93  11 2.93
                            16 2.93   4 2.93   5 2.93   7 2.93
  14  0.444  0.444  0.346-  23 2.90  21 2.90  24 2.93  13 2.93  11 2.93  16 2.93   5 2.93  12 2.93
                            17 2.93   8 2.93  15 2.93   6 2.93
  15  0.778  0.444  0.346-  24 2.92  22 2.92  19 2.92  13 2.93  10 2.93  12 2.93  17 2.93  18 2.93
                             4 2.93   6 2.93   9 2.93  14 2.93
  16  0.111  0.778  0.346-  23 2.90  26 2.93  25 2.93  18 2.93  12 2.93  10 2.93  14 2.93  17 2.93
                            13 2.93   7 2.93   8 2.93   1 2.93
  17  0.444  0.778  0.346-  27 2.92  24 2.92  26 2.92  11 2.93  10 2.93   9 2.93  18 2.93  15 2.93
                            16 2.93   2 2.93  14 2.93   8 2.93
  18  0.778  0.778  0.346-  22 2.92  27 2.92  25 2.92  16 2.93  12 2.93  13 2.93  11 2.93  17 2.93
                            15 2.93   7 2.93   3 2.93   9 2.93
  19  0.889  0.222  0.454-  28 2.92  15 2.92  10 2.93  12 2.93  24 2.93  22 2.93  26 2.93  25 2.93
                            20 2.93  21 2.93  32 2.96  31 2.96
  20  0.222  0.222  0.452-  36 2.79  13 2.90  11 2.90  10 2.90  21 2.93  23 2.93  19 2.93  26 2.93
                            27 2.93  22 2.93  31 2.94  29 2.94
  21  0.555  0.222  0.452-  36 2.79  11 2.90  14 2.90  12 2.90  20 2.93  23 2.93  25 2.93  19 2.93
                            27 2.93  24 2.93  30 2.94  32 2.94
  22  0.888  0.556  0.454-  35 2.91  24 2.92  27 2.92  18 2.92  15 2.92  13 2.93  25 2.93  19 2.93
                            23 2.93  20 2.93  33 2.94  31 2.94
  23  0.222  0.555  0.452-  36 2.79  14 2.90  13 2.90  16 2.90  21 2.93  20 2.93  26 2.93  25 2.93
                            22 2.93  24 2.93  34 2.94  33 2.94
  24  0.556  0.556  0.454-  35 2.91  27 2.92  22 2.92  15 2.92  17 2.92  14 2.93  19 2.93  26 2.93
                            23 2.93  21 2.93  32 2.94  34 2.94
  25  0.889  0.889  0.454-  28 2.92  18 2.92  16 2.93  12 2.93  22 2.93  27 2.93  26 2.93  19 2.93
                            23 2.93  21 2.93  33 2.96  30 2.96
  26  0.222  0.889  0.454-  28 2.92  17 2.92  16 2.93  10 2.93  27 2.93  24 2.93  25 2.93  19 2.93
                            23 2.93  20 2.93  34 2.96  29 2.96
  27  0.556  0.888  0.454-  35 2.91  24 2.92  22 2.92  17 2.92  18 2.92  11 2.93  26 2.93  25 2.93
                            20 2.93  21 2.93  29 2.94  30 2.94
  28  0.000  0.000  0.561-  26 2.92  25 2.92  19 2.92  29 2.95  34 2.95  33 2.95  32 2.95  31 2.95
                            30 2.95
  29  0.333  0.005  0.562-  31 2.88  30 2.89  36 2.89  27 2.94  20 2.94  28 2.95  35 2.96  26 2.96
                            34 3.02
  30  0.662  0.005  0.562-  32 2.88  29 2.89  36 2.89  27 2.94  21 2.94  28 2.95  35 2.96  25 2.96
                            33 3.02
  31  0.005  0.333  0.562-  29 2.88  33 2.89  36 2.89  22 2.94  20 2.94  28 2.95  35 2.96  19 2.96
                            32 3.02
  32  0.662  0.333  0.562-  30 2.88  34 2.89  36 2.89  24 2.94  21 2.94  28 2.95  35 2.96  19 2.96
                            31 3.02
  33  0.005  0.662  0.562-  34 2.88  31 2.89  36 2.89  22 2.94  23 2.94  28 2.95  35 2.96  25 2.96
                            30 3.02
  34  0.333  0.662  0.562-  33 2.88  32 2.89  36 2.89  24 2.94  23 2.94  28 2.95  35 2.96  26 2.96
                            29 3.02
  35  0.667  0.667  0.561-  24 2.91  27 2.91  22 2.91  30 2.96  32 2.96  29 2.96  34 2.96  31 2.96
                            33 2.96
  36  0.333  0.333  0.552-  37 1.95  21 2.79  20 2.79  23 2.79  31 2.89  30 2.89  33 2.89  29 2.89
                            34 2.89  32 2.89
  37  0.333  0.333  0.640-  38 1.18  36 1.95
  38  0.333  0.333  0.693-  37 1.18

  LATTYP: Found a hexagonal cell.
 ALAT       =     8.7913665772
 C/A-ratio  =     2.5227160501

  Lattice vectors:

 A1 = (  -4.3956832886,  -7.6135467898,   0.0000000000)
 A2 = (   8.7913665771,   0.0000000000,   0.0000000000)
 A3 = (   0.0000000000,   0.0000000000,  22.1781215668)

Analysis of symmetry for initial positions (statically):
 Subroutine PRICEL returns:
 Original cell was already a primitive cell.

 Routine SETGRP: Setting up the symmetry group for a
 hexagonal supercell.

 Subroutine GETGRP returns: Found  6 space group operations
 (whereof  6 operations were pure point group operations)
 out of a pool of 24 trial point group operations.

The static configuration has the point symmetry C_3v.

Analysis of symmetry for dynamics (positions and initial velocities):
 Subroutine PRICEL returns:
 Original cell was already a primitive cell.

[...]

The dynamic configuration has the point symmetry C_3v.

Analysis of constrained symmetry for selective dynamics:
 Subroutine PRICEL returns:
 Original cell was already a primitive cell.

 Routine SETGRP: Setting up the symmetry group for a
 hexagonal supercell.

 Subroutine GETGRP returns: Found  6 space group operations
 (whereof  6 operations were pure point group operations)
[...]
     33      -4.6568      2.00000
     34      -4.6308      2.00000
     35      -4.6237      2.00000
     36      -4.5884      2.00000
     37      -4.5732      2.00000
     38      -4.5426      2.00000
     39      -4.5066      2.00000
     40      -4.4968      2.00000
     41      -4.4829      2.00000
     42      -4.4478      2.00000
     43      -4.4293      2.00000
     44      -4.4192      2.00000
     45      -4.4068      2.00000
     46      -4.4020      2.00000
     47      -4.3920      2.00000
     48      -4.2981      2.00000
     49      -4.2779      2.00000
     50      -4.2653      2.00000
     51      -4.2621      2.00000
     52      -4.2591      2.00000
     53      -4.2442      2.00000
     54      -4.2389      2.00000
     55      -4.2344      2.00000
     56      -4.2278      2.00000
     57      -4.2050      2.00000
     58      -4.1472      2.00000
     59      -4.1364      2.00000
     60      -4.1311      2.00000
[...]
    238       6.0967      0.00000
    239       6.1182      0.00000
    240       6.1720      0.00000
    241       6.3144      0.00000
    242       6.3596      0.00000
    243       6.4144      0.00000
    244       7.1395      0.00000
    245       7.2173      0.00000
    246       7.2483      0.00000
    247       7.4009      0.00000
    248       7.4201      0.00000
    249       7.4247      0.00000
    250       7.4345      0.00000
    251       7.5404      0.00000
    252       7.6398      0.00000

 soft charge-density along one line, spin component           1
         0         1         2         3         4         5         6         7         8         9
 total charge-density along one line

------------------------ aborting loop because EDIFF is reached ----------------------------------------

 total charge

# of ion       s       p       d       tot
    1        0.419   0.201   9.179   9.799
    2        0.416   0.203   9.178   9.796
    3        0.416   0.203   9.178   9.796
    4        0.416   0.203   9.178   9.796
    5        0.420   0.202   9.174   9.796
    6        0.416   0.203   9.178   9.796
    7        0.416   0.203   9.178   9.796
    8        0.416   0.203   9.178   9.796
    9        0.416   0.200   9.180   9.796
   10        0.409   0.270   9.162   9.840
   11        0.410   0.265   9.169   9.844
   12        0.409   0.270   9.162   9.840
   13        0.410   0.265   9.169   9.844
   14        0.410   0.265   9.169   9.844
   15        0.404   0.268   9.164   9.836
   16        0.409   0.270   9.162   9.840
   17        0.404   0.268   9.164   9.836
   18        0.404   0.268   9.164   9.836
   19        0.401   0.265   9.167   9.833
   20        0.440   0.297   9.143   9.879
   21        0.440   0.297   9.143   9.879
   22        0.392   0.272   9.167   9.832
   23        0.440   0.297   9.143   9.879
   24        0.392   0.272   9.167   9.832
   25        0.401   0.265   9.167   9.833
   26        0.401   0.265   9.167   9.833
   27        0.392   0.272   9.167   9.832
   28        0.411   0.199   9.179   9.789
   29        0.431   0.214   9.161   9.806
   30        0.431   0.214   9.161   9.806
   31        0.431   0.214   9.161   9.806
   32        0.431   0.214   9.161   9.806
   33        0.431   0.214   9.161   9.806
   34        0.431   0.214   9.161   9.806
   35        0.405   0.200   9.180   9.785
   36        0.429   0.406   4.306   5.140
   37        0.958   1.545   0.000   2.504
   38        1.609   3.532   0.000   5.141
tot         17.515  13.900 325.141 356.556

  FORCE on cell =-STRESS in cart. coord.  units (eV):
  Direction    XX          YY          ZZ          XY          YZ          ZX
  Alpha Z   773.78898   773.78898   773.78898
  Ewald  117315.34876117315.34874************     0.00002    -0.00001     0.00004
  Hartree127599.90931127599.90930************     0.00001     0.00000     0.00001
  E(xc)   -2100.61538 -2100.61544 -2107.13435     0.00006    -0.00000    -0.00000
  Local  ************************255728.34432     0.00055    -0.00005    -0.00017
  n-local  -368.51845  -349.25782  -366.68037    10.68560    -0.50735     0.60780
  augment  3233.39647  3233.39666  3247.05389    -0.00016    -0.00001    -0.00001
  Kinetic  5031.71370  5038.57777  5045.84068     4.96889     0.67771     0.11297
  Fock        0.00000     0.00000     0.00000     0.00000     0.00000     0.00000
  Total      -9.03179    -9.03179     0.85848    -0.00000    -0.00000     0.00000
  in kB      -9.74802    -9.74802     0.92656    -0.00000    -0.00000     0.00000

 VOLUME and BASIS-vectors are now :
  energy-cutoff  :      500.00
  volume of cell :     1484.46
      direct lattice vectors                 reciprocal lattice vectors
     8.791366577  0.000000000  0.000000000     0.113747958 -0.065672414  0.000000000
     4.395683289  7.613546790  0.000000000     0.000000000  0.131344829  0.000000000
     0.000000000  0.000000000 22.178121567     0.000000000  0.000000000  0.045089481

  length of vectors
     8.791366577  8.791366577 22.178121567     0.131344829  0.131344829  0.045089481

 FORCES acting on ions
    electron-ion (+dipol)            ewald-force                    non-local-force                 convergence-correction
   0.459E-04 -.283E-04 0.250E+04   -.953E-04 0.593E-04 -.250E+04   0.271E-17 -.489E-17 -.207E+01   -.835E-04 -.155E-03 0.347E+00
   -.180E+00 0.325E+00 0.250E+04   -.971E-01 -.269E+00 -.250E+04   0.126E+00 0.950E-01 -.150E+01   0.149E+00 -.135E+00 0.444E+00
   0.180E+00 0.325E+00 0.250E+04   0.972E-01 -.269E+00 -.250E+04   -.126E+00 0.950E-01 -.150E+01   -.149E+00 -.133E+00 0.444E+00
   0.192E+00 -.319E+00 0.250E+04   -.282E+00 0.505E-01 -.250E+04   0.145E+00 0.615E-01 -.150E+01   -.420E-01 0.196E+00 0.444E+00
   -.610E-05 -.191E-04 0.250E+04   0.980E-04 -.198E-05 -.250E+04   0.266E-17 -.262E-17 -.109E+01   0.618E-02 0.378E-02 0.606E+00
   -.192E+00 -.319E+00 0.250E+04   0.282E+00 0.504E-01 -.250E+04   -.145E+00 0.615E-01 -.150E+01   0.406E-01 0.197E+00 0.444E+00
   0.372E+00 -.666E-02 0.250E+04   -.185E+00 0.219E+00 -.250E+04   0.194E-01 -.156E+00 -.150E+01   -.189E+00 -.624E-01 0.444E+00
   -.372E+00 -.661E-02 0.250E+04   0.185E+00 0.219E+00 -.250E+04   -.194E-01 -.156E+00 -.150E+01   0.191E+00 -.634E-01 0.444E+00
   0.369E-04 -.128E-04 0.250E+04   0.792E-04 -.643E-04 -.250E+04   0.139E-17 0.624E-18 -.189E+01   -.663E-02 -.341E-02 0.365E+00
   0.225E+01 0.130E+01 0.850E+03   -.200E+01 -.116E+01 -.850E+03   -.383E+00 -.221E+00 -.819E+00   0.122E+00 0.705E-01 0.254E+00
   -.285E-04 0.249E+01 0.851E+03   0.406E-04 -.266E+01 -.851E+03   0.138E-11 0.209E+00 -.234E+00   0.618E-02 -.816E-01 0.281E+00
   -.225E+01 0.130E+01 0.850E+03   0.200E+01 -.116E+01 -.850E+03   0.383E+00 -.221E+00 -.819E+00   -.123E+00 0.711E-01 0.253E+00
   0.216E+01 -.125E+01 0.851E+03   -.230E+01 0.133E+01 -.851E+03   0.181E+00 -.105E+00 -.234E+00   -.677E-01 0.462E-01 0.281E+00
   -.216E+01 -.125E+01 0.851E+03   0.230E+01 0.133E+01 -.851E+03   -.181E+00 -.105E+00 -.234E+00   0.780E-01 0.453E-01 0.279E+00
   0.156E-04 -.313E+00 0.849E+03   -.108E-03 0.426E-01 -.849E+03   0.902E-12 0.137E+00 -.768E+00   -.127E-02 0.117E+00 0.259E+00
   -.792E-05 -.260E+01 0.850E+03   0.206E-04 0.231E+01 -.850E+03   0.290E-11 0.442E+00 -.819E+00   -.931E-04 -.142E+00 0.253E+00
   -.271E+00 0.157E+00 0.849E+03   0.369E-01 -.214E-01 -.849E+03   0.119E+00 -.687E-01 -.768E+00   0.101E+00 -.598E-01 0.259E+00
   0.271E+00 0.157E+00 0.849E+03   -.369E-01 -.213E-01 -.849E+03   -.119E+00 -.687E-01 -.768E+00   -.101E+00 -.582E-01 0.260E+00
   0.384E-04 -.352E+01 -.817E+03   -.127E-03 0.316E+01 0.816E+03   0.116E-11 0.177E+00 0.827E+00   0.105E-02 0.187E+00 0.142E+00
   -.103E+02 -.595E+01 -.814E+03   0.116E+02 0.667E+01 0.815E+03   -.139E+01 -.804E+00 -.119E+01   -.142E-01 -.815E-02 0.287E+00
   0.103E+02 -.595E+01 -.814E+03   -.116E+02 0.667E+01 0.815E+03   0.139E+01 -.804E+00 -.119E+01   0.331E-02 -.863E-02 0.286E+00
   -.624E+01 0.361E+01 -.814E+03   0.588E+01 -.340E+01 0.814E+03   0.359E+00 -.208E+00 0.393E+00   0.224E-01 -.125E-01 0.103E+00
   -.526E-04 0.119E+02 -.814E+03   0.393E-04 -.133E+02 0.815E+03   0.106E-10 0.161E+01 -.119E+01   -.548E-02 0.784E-02 0.286E+00
   0.624E+01 0.361E+01 -.814E+03   -.588E+01 -.340E+01 0.814E+03   -.359E+00 -.208E+00 0.393E+00   -.208E-01 -.119E-01 0.103E+00
   0.305E+01 0.176E+01 -.817E+03   -.273E+01 -.158E+01 0.816E+03   -.153E+00 -.886E-01 0.827E+00   -.162E+00 -.937E-01 0.142E+00
   -.305E+01 0.176E+01 -.817E+03   0.273E+01 -.158E+01 0.816E+03   0.153E+00 -.886E-01 0.827E+00   0.162E+00 -.927E-01 0.142E+00
   0.200E-04 -.721E+01 -.814E+03   0.110E-03 0.679E+01 0.814E+03   0.273E-11 0.415E+00 0.393E+00   -.313E-03 0.256E-01 0.103E+00
   0.542E-04 -.360E-04 -.243E+04   -.115E-03 0.776E-04 0.243E+04   0.886E-17 0.792E-17 0.199E+01   0.234E-03 -.102E-05 -.921E-01
   0.635E+01 0.105E+02 -.241E+04   -.569E+01 -.928E+01 0.241E+04   -.952E+00 -.152E+01 0.154E+01   0.291E+00 0.303E+00 -.583E-01
   -.635E+01 0.105E+02 -.241E+04   0.569E+01 -.928E+01 0.241E+04   0.952E+00 -.152E+01 0.154E+01   -.292E+00 0.304E+00 -.580E-01
   0.123E+02 0.253E+00 -.241E+04   -.109E+02 -.287E+00 0.241E+04   -.180E+01 -.621E-01 0.154E+01   0.408E+00 0.101E+00 -.582E-01
   -.123E+02 0.253E+00 -.241E+04   0.109E+02 -.287E+00 0.241E+04   0.180E+01 -.621E-01 0.154E+01   -.409E+00 0.102E+00 -.572E-01
   0.591E+01 -.107E+02 -.241E+04   -.519E+01 0.957E+01 0.241E+04   -.844E+00 0.159E+01 0.154E+01   0.118E+00 -.404E+00 -.580E-01
   -.591E+01 -.107E+02 -.241E+04   0.519E+01 0.957E+01 0.241E+04   0.844E+00 0.159E+01 0.154E+01   -.117E+00 -.405E+00 -.573E-01
   0.231E-04 -.119E-04 -.243E+04   0.105E-03 -.658E-04 0.243E+04   0.220E-17 0.199E-17 0.214E+01   -.635E-02 -.324E-02 -.833E-01
   -.112E-04 -.387E-05 -.117E+04   0.573E-04 0.696E-05 0.117E+04   -.275E-17 -.529E-18 -.255E+01   0.625E-03 0.384E-03 0.104E+00
   0.303E-05 -.784E-04 -.804E+03   0.161E-04 0.188E-06 0.788E+03   -.227E-18 0.254E-18 0.161E+02   0.107E-02 0.657E-03 -.236E+00
   0.234E-03 -.939E-04 -.146E+04   0.835E-05 0.104E-07 0.152E+04   0.278E-18 0.153E-18 -.573E+02   0.366E-02 0.225E-02 -.187E+00
   0.596E-03 -.852E-03 0.426E+02   -.434E-13 -.798E-13 0.227E-12   -.334E-15 0.187E-17 -.498E+02   -.121E-02 0.266E-02 0.712E+01

 POSITION                                       TOTAL-FORCE (eV/Angst)
      0.00000      0.00000      5.28219         0.000000      0.000000     -0.051342
      2.93046      0.00000      5.28219        -0.002138      0.017660      0.014969
      5.86091      0.00000      5.28219         0.002138      0.017660      0.014969
      1.46523      2.53785      5.28219         0.014225     -0.010681      0.014969
      4.39568      2.53785      5.28219         0.000000      0.000000     -0.039201
      7.32614      2.53785      5.28219        -0.014225     -0.010681      0.014969
      2.93046      5.07570      5.28219         0.016363     -0.006979      0.014969
      5.86091      5.07570      5.28219        -0.016363     -0.006979      0.014969
      8.79137      5.07570      5.28219         0.000000      0.000000     -0.006160
      1.46523      0.84595      7.67490        -0.012990     -0.007500     -0.025520
      4.39568      0.84595      7.67490        -0.000000     -0.039204     -0.041380
      7.32614      0.84595      7.67490         0.012990     -0.007500     -0.025520
      2.93046      3.38380      7.67490        -0.033952      0.019602     -0.041380
      5.86091      3.38380      7.67490         0.033952      0.019602     -0.041380
      8.79137      3.38380      7.67490        -0.000000     -0.016186      0.016421
      4.39568      5.92165      7.67490         0.000000      0.014999     -0.025520
      7.32614      5.92165      7.67490        -0.014018      0.008093      0.016421
     10.25659      5.92165      7.67490         0.014018      0.008093      0.016421
      8.79137      1.69286     10.06155        -0.000000     -0.001997      0.037853
      2.93202      1.69280     10.03008        -0.154236     -0.089048     -0.180843
      5.85935      1.69280     10.03008         0.154236     -0.089048     -0.180843
     10.25345      4.23157     10.06207         0.020174     -0.011647      0.012430
      4.39568      4.22795     10.03008         0.000000      0.178097     -0.180843
      7.32929      4.23157     10.06207        -0.020174     -0.011647      0.012430
     11.72099      6.76712     10.06155         0.001729      0.000998      0.037853
      5.86174      6.76712     10.06155        -0.001729      0.000998      0.037853
      8.79137      6.76396     10.06207         0.000000      0.023294      0.012430
      0.00000      0.00000     12.43674         0.000000      0.000000     -0.021622
      2.95191      0.04038     12.46589        -0.002143     -0.012003      0.019059
      5.83946      0.04038     12.46589         0.002143     -0.012003      0.019059
      1.51092      2.53624     12.46589        -0.011466      0.004146      0.019059
      7.28044      2.53624     12.46589         0.011466      0.004146      0.019059
      2.95470      5.03693     12.46589        -0.009324      0.007857      0.019059
      5.83667      5.03693     12.46589         0.009324      0.007857      0.019059
      8.79137      5.07570     12.43630         0.000000      0.000000     -0.018130
      4.39568      2.53785     12.24527         0.000000      0.000000      0.481415
      4.39568      2.53785     14.19806         0.000000      0.000000      0.012998
      4.39568      2.53785     15.37535         0.000000      0.000000     -0.019007
    total drift:                               -0.000613      0.001807     -0.028781

  FREE ENERGIE OF THE ION-ELECTRON SYSTEM (eV)
  free  energy   TOTEN  =      -113.56892326 eV

  energy  without entropy=     -113.56892326  energy(sigma->0) =     -113.56892326

 stress matrix after NEB project (eV)
     -9.03179     -0.00000      0.00000
     -0.00000     -9.03179      0.00000
      0.00000     -0.00000      0.85848
  FORCES: max atom, RMS     0.019007    0.003735
  FORCE total and by dimension    0.023026    0.019007
  Stress total and by dimension   12.801703    9.031795
|           W    W    AA    RRRRR   N    N  II  N    N   GGGG   !!!           |
|           W    W   A  A   R    R  NN   N  II  NN   N  G    G  !!!           |
|           W    W  A    A  R    R  N N  N  II  N N  N  G       !!!           |
|           W WW W  AAAAAA  RRRRR   N  N N  II  N  N N  G  GGG   !            |
|           WW  WW  A    A  R   R   N   NN  II  N   NN  G    G                |
|           W    W  A    A  R    R  N    N  II  N    N   GGGG   !!!           |
|     Tetrahedron method does not include variations of the Fermi             |
|     occupations, so forces and stress will be inaccurate. We suggest        |
|     using a different smearing scheme ISMEAR = 1 or 2 for metals in         |
|     relaxations.                                                            |

 total charge

# of ion       s       p       d       tot
    1        0.419   0.201   9.179   9.799
    2        0.416   0.203   9.178   9.796
    3        0.416   0.203   9.178   9.796
    4        0.416   0.203   9.178   9.796
    5        0.420   0.202   9.174   9.796
    6        0.416   0.203   9.178   9.796
    7        0.416   0.203   9.178   9.796
    8        0.416   0.203   9.178   9.796
    9        0.416   0.200   9.180   9.796
   10        0.409   0.270   9.162   9.840
   11        0.410   0.265   9.169   9.844
   12        0.409   0.270   9.162   9.840
   13        0.410   0.265   9.169   9.844
   14        0.410   0.265   9.169   9.844
   15        0.404   0.268   9.164   9.836
   16        0.409   0.270   9.162   9.840
   17        0.404   0.268   9.164   9.836
   18        0.404   0.268   9.164   9.836
   19        0.401   0.265   9.167   9.833
   20        0.440   0.297   9.143   9.879
   21        0.440   0.297   9.143   9.879
   22        0.392   0.272   9.167   9.832
   23        0.440   0.297   9.143   9.879
   24        0.392   0.272   9.167   9.832
   25        0.401   0.265   9.167   9.833
   26        0.401   0.265   9.167   9.833
   27        0.392   0.272   9.167   9.832
   28        0.411   0.199   9.179   9.789
   29        0.431   0.214   9.161   9.806
   30        0.431   0.214   9.161   9.806
   31        0.431   0.214   9.161   9.806
   32        0.431   0.214   9.161   9.806
   33        0.431   0.214   9.161   9.806
   34        0.431   0.214   9.161   9.806
   35        0.405   0.200   9.180   9.785
   36        0.429   0.406   4.306   5.140
   37        0.958   1.545   0.000   2.504
   38        1.609   3.532   0.000   5.141
tot         17.515  13.900 325.141 356.556

 BZINTS: Fermi energy:    0.716411;  401.000000 electrons
         Band energy:-0.138949E+04;  BLOECHL correction:   -0.025941