 vasp.6.2.0 18Jan21 (build Jun 12 2021 23:27:24) complex

 executed on             LinuxIFC date 2022.05.28  02:22:44

 INCAR:
   ISMEAR = -5
   SIGMA = 0.1
   ISPIN = 1
   EDIFF = 1.d-5
   EDIFFG = -0.01
   NSW = 0
   NELM = 150
   ENCUT = 500
   ISIF = 2
   IBRION = 2
   LREAL = Auto
   ALGO = Fast
   ICHARG = 11
   LORBIT = 10
   LCHARG = .F.
   LWAVE = .F.

 POTCAR:    PAW_PBE Cu 22Jun2005
 POTCAR:    PAW_PBE Fe 06Sep2000
 POTCAR:    PAW_PBE O 08Apr2002
 POTCAR:    PAW_PBE H 15Jun2001
|           W    W    AA    RRRRR   N    N  II  N    N   GGGG   !!!           |
|           W    W   A  A   R    R  NN   N  II  NN   N  G    G  !!!           |
|           W    W  A    A  R    R  N N  N  II  N N  N  G       !!!           |
|           W WW W  AAAAAA  RRRRR   N  N N  II  N  N N  G  GGG   !            |
|           WW  WW  A    A  R   R   N   NN  II  N   NN  G    G                |
|           W    W  A    A  R    R  N    N  II  N    N   GGGG   !!!           |
|     For optimal performance we recommend to set                             |
|       NCORE = 2 up to number-of-cores-per-socket                            |
|     This setting can greatly improve the performance of VASP for DFT.       |
|     The default, NCORE=1 might be grossly inefficient on modern             |
|     multi-core architectures or massively parallel machines. Do your        |
|     Unfortunately you need to use the default for GW and RPA                |
|     calculations (for HF NCORE is supported but not extensively tested      |
|     yet).                                                                   |

 POTCAR:    PAW_PBE Cu 22Jun2005
   VRHFIN =Cu: d10 p1

   TITEL  = PAW_PBE Cu 22Jun2005
   POMASS =   63.546; ZVAL   =   11.000    mass and valenz
   ENMAX  =  295.446; ENMIN  =  221.585 eV

 POTCAR:    PAW_PBE Fe 06Sep2000
   VRHFIN =Fe:  d7 s1

   TITEL  = PAW_PBE Fe 06Sep2000
   POMASS =   55.847; ZVAL   =    8.000    mass and valenz
   ENMAX  =  267.882; ENMIN  =  200.911 eV

 POTCAR:    PAW_PBE O 08Apr2002
   VRHFIN =O: s2p4

   TITEL  = PAW_PBE O 08Apr2002
   POMASS =   16.000; ZVAL   =    6.000    mass and valenz
   ENMAX  =  400.000; ENMIN  =  300.000 eV

 POTCAR:    PAW_PBE H 15Jun2001
   VRHFIN =H: ultrasoft test

   TITEL  = PAW_PBE H 15Jun2001
   POMASS =    1.000; ZVAL   =    1.000    mass and valenz
   ENMAX  =  250.000; ENMIN  =  200.000 eV

 Optimization of the real space projectors (new method)

 maximal supplied QI-value         = 16.25
 optimisation between [QCUT,QGAM] = [ 11.38, 22.75] = [ 36.24,144.96] Ry
 Optimized for a Real-space Cutoff    1.52 Angstroem

   l    n(q)    QCUT    max X(q) W(low)/X(q) W(high)/X(q)  e(spline)
   2      9    11.376     4.610    0.21E-03    0.10E-03    0.26E-06
   2      9    11.376     8.522    0.33E-03    0.16E-03    0.37E-06
   0     10    11.376    51.609    0.62E-04    0.20E-04    0.13E-06
   0     10    11.376    27.747    0.54E-04    0.20E-04    0.13E-06
   1     10    11.376    20.408    0.13E-04    0.99E-04    0.19E-06
   1     10    11.376    13.425    0.12E-04    0.87E-04    0.17E-06
 Optimization of the real space projectors (new method)

[...]

   l    n(q)    QCUT    max X(q) W(low)/X(q) W(high)/X(q)  e(spline)
   0      7    11.387    20.381    0.39E-03    0.13E-02    0.15E-06
   0      7    11.387    15.268    0.42E-03    0.14E-02    0.17E-06
   1      6    11.387     5.964    0.41E-03    0.11E-02    0.17E-06
   1      6    11.387     5.382    0.39E-03    0.87E-03    0.15E-06
 Optimization of the real space projectors (new method)

 maximal supplied QI-value         = 34.20
 optimisation between [QCUT,QGAM] = [ 11.29, 22.57] = [ 35.68,142.71] Ry
 Optimized for a Real-space Cutoff    1.16 Angstroem

   l    n(q)    QCUT    max X(q) W(low)/X(q) W(high)/X(q)  e(spline)
   0      8    11.287    19.460    0.40E-03    0.73E-03    0.16E-06
   0      8    11.287    12.209    0.38E-03    0.70E-03    0.15E-06
   1      7    11.287     4.655    0.22E-03    0.25E-04    0.22E-06
  PAW_PBE Cu 22Jun2005                  :
  PAW_PBE Fe 06Sep2000                  :
  PAW_PBE O 08Apr2002                   :
  PAW_PBE H 15Jun2001                   :

 POSCAR: Cu-Fe-OOH
  positions in direct lattice
  velocities in cartesian coordinates
 exchange correlation table for  LEXCH =        8
   RHO(1)=    0.500       N(1)  =     2000
   RHO(2)=  100.500       N(2)  =     4000

 VTST: version 3.2, (02/03/18)

 CHAIN: initializing optimizer

 OPT: Using VASP Conjugate-Gradient optimizer
 CHAIN: Read ICHAIN            0

 POSCAR: Cu-Fe-OOH
  positions in direct lattice
  velocities in cartesian coordinates

 ion  position               nearest neighbor table
   1  0.000  0.000  0.212-   7 2.57   3 2.57   4 2.57   2 2.57   6 2.57   8 2.57  12 2.57  10 2.57
                            16 2.57
   2  0.333  0.000  0.212-   8 2.57   9 2.57   5 2.57   1 2.57   3 2.57  11 2.57   4 2.57  10 2.57
                            17 2.57
   3  0.667  0.000  0.212-   1 2.57   7 2.57   6 2.57   9 2.57   2 2.57  12 2.57   5 2.57  18 2.57
                            11 2.57
   4  0.000  0.333  0.212-   5 2.57   6 2.57   1 2.57   7 2.57   2 2.57  13 2.57   9 2.57  10 2.57
                            15 2.57
   5  0.333  0.333  0.212-   4 2.57   2 2.57   7 2.57  13 2.57   8 2.57   6 2.57   3 2.57  11 2.57
                            14 2.57
   6  0.667  0.333  0.212-   4 2.57   9 2.57  15 2.57   3 2.57   1 2.57   8 2.57  14 2.57   5 2.57
                            12 2.57
   7  0.000  0.667  0.212-   1 2.57   3 2.57  16 2.57  18 2.57   4 2.57   5 2.57   8 2.57   9 2.57
                            13 2.57
   8  0.333  0.667  0.212-   9 2.57   2 2.57  17 2.57   6 2.57   1 2.57   7 2.57   5 2.57  14 2.57
                            16 2.57
   9  0.667  0.667  0.212-   8 2.57   6 2.57   2 2.57  17 2.57   3 2.57   7 2.57   4 2.57  15 2.57
                            18 2.57
  10  0.111  0.111  0.294-  20 2.55  26 2.56  19 2.56  11 2.57  12 2.57  13 2.57   1 2.57   2 2.57
                             4 2.57  15 2.57  16 2.57  17 2.57
  11  0.444  0.111  0.294-  20 2.55  21 2.55  27 2.56  10 2.57  13 2.57   2 2.57  17 2.57  14 2.57
                            12 2.57   5 2.57   3 2.57  18 2.57
  12  0.778  0.111  0.294-  21 2.55  19 2.56  25 2.56  15 2.57  10 2.57  14 2.57  18 2.57   3 2.57
                             1 2.57  16 2.57  11 2.57   6 2.57
  13  0.111  0.444  0.294-  23 2.55  20 2.55  22 2.56  16 2.57  18 2.57  10 2.57  11 2.57  14 2.57
                             5 2.57   4 2.57   7 2.57  15 2.57
  14  0.444  0.444  0.294-  21 2.55  23 2.55  24 2.56  15 2.57  17 2.57  12 2.57  16 2.57  13 2.57
                            11 2.57   6 2.57   8 2.57   5 2.57
  15  0.778  0.444  0.294-  19 2.56  24 2.56  22 2.56  14 2.57  17 2.57  12 2.57   6 2.57  18 2.57
                            10 2.57   9 2.57  13 2.57   4 2.57
  16  0.111  0.778  0.294-  23 2.55  25 2.56  26 2.56  18 2.57  13 2.57   7 2.57  14 2.57  17 2.57
                            12 2.57  10 2.57   8 2.57   1 2.57
  17  0.444  0.778  0.294-  26 2.56  27 2.56  24 2.56  14 2.57  15 2.57   8 2.57   9 2.57  11 2.57
                            16 2.57  18 2.57  10 2.57   2 2.57
  18  0.778  0.778  0.294-  25 2.56  22 2.56  27 2.56  16 2.57  13 2.57   7 2.57  15 2.57  12 2.57
                            17 2.57   9 2.57   3 2.57  11 2.57
  19  0.889  0.223  0.376-  28 2.55  15 2.56  12 2.56  10 2.56  22 2.56  24 2.56  32 2.57  31 2.57
                            21 2.57  20 2.57  25 2.57  26 2.57
  20  0.222  0.222  0.376-  36 2.47  11 2.55  13 2.55  10 2.55  29 2.55  31 2.55  23 2.56  21 2.56
                            26 2.57  19 2.57  27 2.57  22 2.57
  21  0.555  0.222  0.376-  36 2.47  14 2.55  11 2.55  12 2.55  32 2.55  30 2.55  20 2.56  23 2.56
                            19 2.57  25 2.57  24 2.57  27 2.57
  22  0.888  0.556  0.376-  35 2.54  31 2.56  33 2.56  18 2.56  15 2.56  24 2.56  27 2.56  13 2.56
                            19 2.56  25 2.56  23 2.57  20 2.57
  23  0.222  0.555  0.376-  36 2.47  13 2.55  14 2.55  16 2.55  33 2.55  34 2.55  20 2.56  21 2.56
                            25 2.57  26 2.57  22 2.57  24 2.57
  24  0.556  0.556  0.376-  35 2.54  32 2.56  34 2.56  15 2.56  17 2.56  22 2.56  27 2.56  14 2.56
                            19 2.56  26 2.56  21 2.57  23 2.57
  25  0.889  0.889  0.376-  28 2.55  18 2.56  16 2.56  12 2.56  22 2.56  27 2.56  33 2.57  30 2.57
                            21 2.57  23 2.57  19 2.57  26 2.57
  26  0.223  0.889  0.376-  28 2.55  17 2.56  10 2.56  16 2.56  27 2.56  24 2.56  29 2.57  34 2.57
                            20 2.57  23 2.57  25 2.57  19 2.57
  27  0.556  0.888  0.376-  35 2.54  29 2.56  30 2.56  17 2.56  18 2.56  24 2.56  22 2.56  11 2.56
                            26 2.56  25 2.56  20 2.57  21 2.57
  28  0.000  0.000  0.458-  38 2.00  25 2.55  19 2.55  26 2.55  33 2.58  30 2.58  31 2.58  29 2.58
                            32 2.58  34 2.58
  29  0.333  0.003  0.458-  38 2.07  31 2.54  30 2.54  36 2.54  20 2.55  27 2.56  26 2.57  28 2.58
                            35 2.58  34 2.61
  30  0.664  0.003  0.458-  32 2.54  29 2.54  36 2.54  21 2.55  27 2.56  25 2.57  28 2.58  35 2.58
                            33 2.61
  31  0.003  0.333  0.458-  38 2.07  29 2.54  33 2.54  36 2.54  20 2.55  22 2.56  19 2.57  28 2.58
                            35 2.58  32 2.61
  32  0.664  0.333  0.458-  37 1.99  30 2.54  34 2.54  36 2.54  21 2.55  24 2.56  19 2.57  28 2.58
                            35 2.58  31 2.61
  33  0.003  0.664  0.458-  34 2.54  31 2.54  36 2.54  23 2.55  22 2.56  25 2.57  28 2.58  35 2.58
                            30 2.61
  34  0.333  0.664  0.458-  37 1.99  33 2.54  32 2.54  36 2.54  23 2.55  24 2.56  26 2.57  28 2.58
                            35 2.58  29 2.61
  35  0.667  0.667  0.458-  24 2.54  27 2.54  22 2.54  34 2.58  32 2.58  29 2.58  30 2.58  33 2.58
                            31 2.58
  36  0.333  0.333  0.454-  37 1.72  23 2.47  20 2.47  21 2.47  31 2.54  29 2.54  33 2.54  34 2.54
                            32 2.54  30 2.54
  37  0.421  0.422  0.503-  36 1.72  34 1.99  32 1.99
  38  0.106  0.105  0.514-  39 0.97  28 2.00  29 2.07  31 2.07
  39  0.102  0.099  0.552-  38 0.97

  LATTYP: Found a hexagonal cell.
 ALAT       =     7.6967864036
 C/A-ratio  =     3.2973366172

  Lattice vectors:

 A1 = (  -3.8483927580,  -6.6656128093,   0.0000000000)
 A2 = (   7.6967864037,   0.0000000000,   0.0000000000)
 A3 = (   0.0000000000,   0.0000000000,  25.3788956434)

Analysis of symmetry for initial positions (statically):
 Subroutine PRICEL returns:
 Original cell was already a primitive cell.

 Routine SETGRP: Setting up the symmetry group for a
 hexagonal supercell.

 Subroutine GETGRP returns: Found  1 space group operations
 (whereof  1 operations were pure point group operations)
 out of a pool of 24 trial point group operations.

The static configuration has the point symmetry C_1 .

Analysis of symmetry for dynamics (positions and initial velocities):
 Subroutine PRICEL returns:
 Original cell was already a primitive cell.

[...]

The dynamic configuration has the point symmetry C_1 .

[...]
     41      -4.4823      2.00000
     42      -4.3775      2.00000
     43      -4.3264      2.00000
     44      -4.3088      2.00000
     45      -4.3022      2.00000
     46      -4.2478      2.00000
     47      -4.2309      2.00000
     48      -4.2075      2.00000
     49      -4.1807      2.00000
     50      -4.1766      2.00000
     51      -4.1659      2.00000
     52      -4.1402      2.00000
     53      -4.0797      2.00000
     54      -3.9908      2.00000
     55      -3.9737      2.00000
     56      -3.9546      2.00000
     57      -3.9534      2.00000
     58      -3.9011      2.00000
     59      -3.8923      2.00000
     60      -3.8803      2.00000
[...]
    238       5.1847      0.00000
    239       5.2882      0.00000
    240       5.3561      0.00000
    241       5.4785      0.00000
    242       5.5403      0.00000
    243       5.7128      0.00000
    244       5.8403      0.00000
    245       5.8661      0.00000
    246       5.9442      0.00000
    247       5.9875      0.00000
    248       6.2043      0.00000
    249       6.3277      0.00000
    250       6.3872      0.00000
    251       6.6309      0.00000
    252       6.7310      0.00000

 soft charge-density along one line, spin component           1
         0         1         2         3         4         5         6         7         8         9
 total charge-density along one line

------------------------ aborting loop because EDIFF is reached ----------------------------------------

 total charge

# of ion       s       p       d       tot
    1        0.447   0.284   9.189   9.920
    2        0.448   0.287   9.184   9.918
    3        0.448   0.284   9.187   9.919
    4        0.448   0.287   9.184   9.918
    5        0.447   0.287   9.183   9.917
    6        0.449   0.284   9.186   9.919
    7        0.448   0.284   9.187   9.919
    8        0.449   0.284   9.186   9.919
    9        0.447   0.284   9.186   9.917
   10        0.446   0.369   9.178   9.993
   11        0.441   0.369   9.182   9.992
   12        0.442   0.371   9.177   9.990
   13        0.441   0.369   9.182   9.992
   14        0.440   0.368   9.183   9.991
   15        0.441   0.367   9.182   9.991
   16        0.442   0.371   9.177   9.990
   17        0.441   0.367   9.182   9.991
   18        0.439   0.372   9.176   9.988
   19        0.441   0.376   9.176   9.993
   20        0.463   0.390   9.169  10.021
   21        0.451   0.396   9.168  10.015
   22        0.433   0.376   9.180   9.990
   23        0.451   0.396   9.168  10.015
   24        0.435   0.374   9.184   9.993
   25        0.437   0.376   9.175   9.988
   26        0.441   0.376   9.176   9.993
   27        0.433   0.376   9.180   9.990
   28        0.418   0.342   9.193   9.953
   29        0.422   0.340   9.182   9.944
   30        0.442   0.289   9.200   9.931
   31        0.422   0.339   9.182   9.943
   32        0.425   0.351   9.182   9.959
   33        0.442   0.289   9.200   9.931
   34        0.426   0.352   9.182   9.959
   35        0.443   0.280   9.203   9.927
   36        0.477   0.523   6.391   7.391
   37        1.589   3.325   0.000   4.914
   38        1.551   3.527   0.000   5.077
   39        0.609   0.120   0.000   0.729
tot         19.659  19.401 327.781 366.841

  FORCE on cell =-STRESS in cart. coord.  units (eV):
  Direction    XX          YY          ZZ          XY          YZ          ZX
  Alpha Z   767.73153   767.73153   767.73153
  Ewald  262335.89425262337.94433************    -1.38279    -6.68806   -10.54791
  Hartree275205.86902275224.42285************   -15.81454   -12.68404   -21.75716
  E(xc)   -2349.50363 -2349.54830 -2352.90353     0.03881     0.02928     0.05614
  Local  ************************550855.86691    18.95473    21.43858    36.18104
  n-local  -832.41625  -833.65836  -845.25110     1.07278     1.13729     1.96106
  augment  3360.47638  3361.45245  3371.90221    -0.84869    -1.13820    -1.98925
  Kinetic  3482.01060  3483.50817  3479.91533    -1.30684    -1.91168    -3.58777
  Fock        0.00000     0.00000     0.00000     0.00000     0.00000     0.00000
  Total      -3.91747    -4.73983    -0.47459     0.71346     0.18317     0.31615
  in kB      -4.82052    -5.83245    -0.58399     0.87792     0.22539     0.38902

 VOLUME and BASIS-vectors are now :
  energy-cutoff  :      500.00
  volume of cell :     1302.03
      direct lattice vectors                 reciprocal lattice vectors
     7.696786404  0.000000000  0.000000000     0.129924354 -0.075011849  0.000000000
     3.848392758  6.665612809  0.000000000     0.000000000  0.150023716  0.000000000
     0.000000000  0.000000000 25.378895643     0.000000000  0.000000000  0.039402818

  length of vectors
     7.696786404  7.696786404 25.378895643     0.150023716  0.150023716  0.039402818

 FORCES acting on ions
    electron-ion (+dipol)            ewald-force                    non-local-force                 convergence-correction
   0.516E+00 0.296E+00 0.392E+04   -.182E+00 -.104E+00 -.392E+04   -.208E+00 -.120E+00 -.237E+01   -.100E+00 -.575E-01 -.578E+00
   -.519E+00 0.371E+00 0.392E+04   0.124E+00 -.183E+00 -.392E+04   0.258E+00 -.649E-01 -.170E+01   0.120E+00 -.890E-01 -.534E+00
   -.249E-01 0.391E+00 0.392E+04   0.580E-01 -.365E+00 -.392E+04   -.234E-01 -.103E-01 -.195E+01   -.179E-01 -.250E-01 -.506E+00
   0.631E-01 -.634E+00 0.392E+04   -.979E-01 0.199E+00 -.392E+04   0.727E-01 0.255E+00 -.170E+01   -.165E-01 0.148E+00 -.534E+00
   -.102E+00 -.572E-01 0.392E+04   -.750E-01 -.438E-01 -.392E+04   0.377E-01 0.203E-01 -.195E+01   0.145E+00 0.841E-01 -.426E+00
   -.970E-01 -.170E+00 0.392E+04   0.173E+00 -.531E-01 -.392E+04   0.562E-02 0.249E-01 -.200E+01   -.909E-01 0.182E+00 -.525E+00
   0.327E+00 -.218E+00 0.392E+04   -.289E+00 0.233E+00 -.392E+04   -.208E-01 -.146E-01 -.196E+01   -.301E-01 -.283E-02 -.506E+00
   -.198E+00 0.200E-02 0.392E+04   0.408E-01 0.175E+00 -.392E+04   0.246E-01 -.738E-02 -.200E+01   0.114E+00 -.170E+00 -.526E+00
   0.534E-01 0.298E-01 0.392E+04   0.248E+00 0.142E+00 -.392E+04   -.159E+00 -.916E-01 -.219E+01   -.132E+00 -.744E-01 -.525E+00
   0.117E+01 0.668E+00 0.140E+04   -.103E+01 -.583E+00 -.140E+04   -.203E+00 -.117E+00 -.119E+01   0.532E-01 0.310E-01 -.362E+00
   -.890E+00 0.271E+01 0.140E+04   0.736E+00 -.292E+01 -.140E+04   0.869E-01 0.481E-01 -.349E+00   0.730E-01 0.120E+00 -.432E+00
   -.497E+00 0.229E+01 0.140E+04   0.289E+00 -.229E+01 -.140E+04   0.302E+00 -.514E-01 -.103E+01   -.989E-01 0.714E-01 -.441E+00
   0.191E+01 -.212E+01 0.140E+04   -.217E+01 0.209E+01 -.140E+04   0.829E-01 0.513E-01 -.350E+00   0.141E+00 0.443E-02 -.432E+00
   -.840E+00 -.475E+00 0.140E+04   0.110E+01 0.627E+00 -.140E+04   -.216E+00 -.125E+00 -.669E+00   -.301E-01 -.181E-01 -.439E+00
   -.721E+00 -.154E+01 0.140E+04   0.107E+01 0.117E+01 -.140E+04   -.235E+00 0.204E+00 -.756E+00   -.134E+00 0.154E+00 -.493E+00
   0.174E+01 -.158E+01 0.140E+04   -.184E+01 0.140E+01 -.140E+04   0.107E+00 0.289E+00 -.103E+01   0.106E-01 -.123E+00 -.442E+00
   -.170E+01 0.149E+00 0.140E+04   0.156E+01 0.337E+00 -.140E+04   0.574E-01 -.305E+00 -.755E+00   0.674E-01 -.194E+00 -.494E+00
   -.194E+00 -.109E+00 0.139E+04   0.287E+00 0.166E+00 -.139E+04   -.372E-01 -.220E-01 -.883E+00   -.459E-01 -.293E-01 -.509E+00
   0.360E+01 -.468E+01 -.114E+04   -.398E+01 0.471E+01 0.114E+04   0.384E+00 0.238E-01 -.246E+00   -.220E-01 -.804E-02 0.919E-01
   -.133E+02 -.771E+01 -.115E+04   0.137E+02 0.793E+01 0.115E+04   -.608E+00 -.349E+00 -.135E+01   0.679E-01 0.389E-01 0.491E-01
   0.872E+01 0.105E+02 -.115E+04   -.963E+01 -.101E+02 0.115E+04   0.954E+00 -.388E+00 -.281E+00   -.436E-01 -.121E-02 -.450E-01
   -.662E+01 -.797E+01 -.117E+04   0.637E+01 0.801E+01 0.117E+04   0.173E+00 -.202E+00 0.680E+00   0.107E+00 -.668E-02 -.319E-01
   0.135E+02 0.235E+01 -.115E+04   -.136E+02 -.335E+01 0.115E+04   0.141E+00 0.102E+01 -.282E+00   -.247E-01 -.394E-01 -.458E-01
   -.677E+01 -.383E+01 -.115E+04   0.716E+01 0.406E+01 0.115E+04   -.348E+00 -.201E+00 0.693E+00   -.601E-01 -.359E-01 -.103E+00
   0.124E+02 0.714E+01 -.116E+04   -.122E+02 -.698E+01 0.116E+04   -.108E+00 -.612E-01 0.218E+00   -.249E-01 -.140E-01 0.764E-01
   -.223E+01 0.541E+01 -.114E+04   0.206E+01 -.575E+01 0.114E+04   0.212E+00 0.323E+00 -.248E+00   -.169E-01 -.142E-01 0.932E-01
   -.103E+02 -.176E+01 -.117E+04   0.102E+02 0.152E+01 0.117E+04   -.838E-01 0.248E+00 0.670E+00   0.471E-01 0.954E-01 -.309E-01
   0.128E+03 0.732E+02 -.360E+04   -.131E+03 -.751E+02 0.360E+04   0.277E+01 0.159E+01 0.286E+01   -.160E-02 -.667E-03 0.258E+00
   -.138E+03 0.490E+02 -.363E+04   0.142E+03 -.498E+02 0.363E+04   -.371E+01 0.436E+00 0.368E+01   -.116E+00 0.211E-01 0.191E+00
   0.139E+02 0.420E+02 -.375E+04   -.144E+02 -.434E+02 0.374E+04   0.380E+00 0.964E+00 0.281E+01   0.775E-01 0.384E-01 0.186E+00
   -.259E+02 -.143E+03 -.363E+04   0.273E+02 0.147E+03 0.363E+04   -.147E+01 -.346E+01 0.373E+01   -.390E-01 -.112E+00 0.191E+00
   -.863E+02 0.368E+02 -.364E+04   0.884E+02 -.376E+02 0.364E+04   -.166E+01 0.782E+00 0.335E+01   -.814E-01 -.304E-01 0.264E+00
   0.437E+02 -.894E+01 -.375E+04   -.452E+02 0.927E+01 0.374E+04   0.104E+01 -.158E+00 0.282E+01   0.708E-01 0.489E-01 0.186E+00
   -.116E+02 -.932E+02 -.364E+04   0.120E+02 0.954E+02 0.363E+04   -.154E+00 -.179E+01 0.334E+01   -.640E-01 -.540E-01 0.264E+00
   -.405E+02 -.232E+02 -.375E+04   0.408E+02 0.233E+02 0.374E+04   -.670E-01 -.376E-01 0.264E+01   -.492E-01 -.263E-01 0.250E+00
   0.100E+03 0.582E+02 -.251E+04   -.101E+03 -.589E+02 0.251E+04   0.108E+01 0.625E+00 0.980E+00   0.729E-01 0.412E-01 0.173E+00
   0.288E+02 0.169E+02 -.259E+04   -.266E+02 -.157E+02 0.261E+04   -.226E+01 -.130E+01 -.265E+02   0.363E-01 0.182E-01 0.121E+00
   -.987E+01 -.632E+01 -.256E+04   0.133E+02 0.865E+01 0.254E+04   -.338E+01 -.230E+01 0.220E+02   -.494E-01 -.305E-01 0.691E-01
   0.460E+01 0.329E+01 -.479E+03   -.510E+01 -.364E+01 0.487E+03   0.494E+00 0.350E+00 -.815E+01   -.221E-02 -.131E-02 0.412E-02
   0.641E+01 0.401E+01 0.178E+02   0.121E-12 0.405E-12 0.142E-11   -.629E+01 -.393E+01 -.114E+02   -.885E-01 -.590E-01 -.649E+01

 POSITION                                       TOTAL-FORCE (eV/Angst)
      0.00000      0.00000      5.37156         0.025992      0.015007      0.021641
      2.56560      0.00000      5.37156        -0.017937      0.034049      0.070734
      5.13119      0.00000      5.37156        -0.008994     -0.009680      0.067824
      1.28280      2.22187      5.37156         0.020544     -0.032515      0.070847
      3.84839      2.22187      5.37156         0.004967      0.002853      0.038825
      6.41399      2.22187      5.37156        -0.010242     -0.016301      0.052537
      2.56560      4.44374      5.37156        -0.012821     -0.002944      0.067846
      5.13119      4.44374      5.37156        -0.019283     -0.000755      0.052500
      7.69679      4.44374      5.37156         0.009052      0.005280      0.046019
      1.28280      0.74062      7.46636        -0.003328     -0.001963     -0.127094
      3.84839      0.74062      7.46636         0.005149     -0.041217     -0.084534
      6.41399      0.74062      7.46636        -0.004776      0.022331     -0.074598
      2.56560      2.96249      7.46636        -0.032950      0.025052     -0.084682
      5.13119      2.96249      7.46636         0.014757      0.008540     -0.135067
      7.69679      2.96249      7.46636        -0.020847     -0.008714     -0.066737
      3.84839      5.18437      7.46636         0.016952     -0.015370     -0.074605
      6.41399      5.18437      7.46636        -0.017847     -0.013543     -0.066946
      8.97958      5.18437      7.46636         0.009277      0.005533      0.035731
      7.69679      1.48386      9.55425        -0.013197      0.043063      0.074111
      2.56752      1.48236      9.54187        -0.152920     -0.088478     -0.197979
      5.12927      1.48236      9.54187        -0.006244      0.031699     -0.055796
      8.97669      3.70479      9.55452         0.028130     -0.172333      0.114251
      3.84839      3.70090      9.54187         0.023980     -0.021437     -0.056114
      6.41688      3.70479      9.55452        -0.013969     -0.007725     -0.035316
     10.26012      5.92368      9.55425         0.131137      0.075578      0.173604
      5.13345      5.92368      9.55425         0.030988     -0.033292      0.073179
      7.69679      5.92165      9.55452        -0.135705      0.110964      0.114860
      0.00000      0.00000     11.62539        -0.546321     -0.314709      0.076173
      2.57645      0.02208     11.63568         0.410146     -0.374041      0.058241
      5.12034      0.02208     11.63568        -0.004438     -0.433542     -0.229248
      1.30734      2.22023     11.63568        -0.118534      0.538834      0.061277
      6.38944      2.22023     11.63568         0.349871     -0.014197     -0.022233
      2.57929      4.42331     11.63568        -0.379278      0.213398     -0.228617
      5.11749      4.42331     11.63568         0.164076      0.316669     -0.028088
      7.69679      4.44374     11.62587         0.195225      0.111535     -0.105503
      3.84839      2.22187     11.51524         0.092179      0.052240      0.461003
      4.86794      2.81283     12.77147        -0.006161     -0.009448     -0.039140
      1.22392      0.70312     13.04610        -0.005165     -0.001685     -0.023039
      1.16288      0.66005     14.01662        -0.001466      0.001261      0.004132
    total drift:                                0.031902      0.018327     -0.063998

  FREE ENERGIE OF THE ION-ELECTRON SYSTEM (eV)
  free  energy   TOTEN  =      -146.81894230 eV

  energy  without entropy=     -146.81894230  energy(sigma->0) =     -146.81894230

 stress matrix after NEB project (eV)
     -3.91747      0.71346      0.31615
      0.71346     -4.73983      0.18317
      0.31615      0.18317     -0.47459
  FORCES: max atom, RMS     0.040733    0.007579
  FORCE total and by dimension    0.047332    0.039140
  Stress total and by dimension    6.270786    4.739825
|           W    W    AA    RRRRR   N    N  II  N    N   GGGG   !!!           |
|           W    W   A  A   R    R  NN   N  II  NN   N  G    G  !!!           |
|           W    W  A    A  R    R  N N  N  II  N N  N  G       !!!           |
|           W WW W  AAAAAA  RRRRR   N  N N  II  N  N N  G  GGG   !            |
|           WW  WW  A    A  R   R   N   NN  II  N   NN  G    G                |
|           W    W  A    A  R    R  N    N  II  N    N   GGGG   !!!           |
|     Tetrahedron method does not include variations of the Fermi             |
|     occupations, so forces and stress will be inaccurate. We suggest        |
|     using a different smearing scheme ISMEAR = 1 or 2 for metals in         |
|     relaxations.                                                            |

 total charge

# of ion       s       p       d       tot
    1        0.447   0.284   9.189   9.920
    2        0.448   0.287   9.184   9.918
    3        0.448   0.284   9.187   9.919
    4        0.448   0.287   9.184   9.918
    5        0.447   0.287   9.183   9.917
    6        0.449   0.284   9.186   9.919
    7        0.448   0.284   9.187   9.919
    8        0.449   0.284   9.186   9.919
    9        0.447   0.284   9.186   9.917
   10        0.446   0.369   9.178   9.993
   11        0.441   0.369   9.182   9.992
   12        0.442   0.371   9.177   9.990
   13        0.441   0.369   9.182   9.992
   14        0.440   0.368   9.183   9.991
   15        0.441   0.367   9.182   9.991
   16        0.442   0.371   9.177   9.990
   17        0.441   0.367   9.182   9.991
   18        0.439   0.372   9.176   9.988
   19        0.441   0.376   9.176   9.993
   20        0.463   0.390   9.169  10.021
   21        0.451   0.396   9.168  10.015
   22        0.433   0.376   9.180   9.990
   23        0.451   0.396   9.168  10.015
   24        0.435   0.374   9.184   9.993
   25        0.437   0.376   9.175   9.988
   26        0.441   0.376   9.176   9.993
   27        0.433   0.376   9.180   9.990
   28        0.418   0.342   9.193   9.953
   29        0.422   0.340   9.182   9.944
   30        0.442   0.289   9.200   9.931
   31        0.422   0.339   9.182   9.943
   32        0.425   0.351   9.182   9.959
   33        0.442   0.289   9.200   9.931
   34        0.426   0.352   9.182   9.959
   35        0.443   0.280   9.203   9.927
   36        0.477   0.523   6.391   7.391
   37        1.589   3.325   0.000   4.914
   38        1.551   3.527   0.000   5.077
   39        0.609   0.120   0.000   0.729
tot         19.659  19.401 327.781 366.841

 BZINTS: Fermi energy:   -0.519880;  406.000000 electrons
         Band energy:-0.144014E+04;  BLOECHL correction:   -0.032832