 vasp.6.2.0 18Jan21 (build Jun 12 2021 23:27:24) complex

 executed on             LinuxIFC date 2022.05.28  01:44:27

 INCAR:
   ISMEAR = -5
   SIGMA = 0.1
   ISPIN = 1
   EDIFF = 1.d-5
   EDIFFG = -0.01
   NSW = 0
   NELM = 150
   ENCUT = 500
   ISIF = 2
   IBRION = 2
   LREAL = Auto
   ALGO = Fast
   ICHARG = 11
   LORBIT = 10
   LCHARG = .F.
   LWAVE = .F.

 POTCAR:    PAW_PBE Ag 02Apr2005
 POTCAR:    PAW_PBE Nb_sv 25May2007
 POTCAR:    PAW_PBE C 08Apr2002
 POTCAR:    PAW_PBE O 08Apr2002
|           W    W    AA    RRRRR   N    N  II  N    N   GGGG   !!!           |
|           W    W   A  A   R    R  NN   N  II  NN   N  G    G  !!!           |
|           W    W  A    A  R    R  N N  N  II  N N  N  G       !!!           |
|           W WW W  AAAAAA  RRRRR   N  N N  II  N  N N  G  GGG   !            |
|           WW  WW  A    A  R   R   N   NN  II  N   NN  G    G                |
|           W    W  A    A  R    R  N    N  II  N    N   GGGG   !!!           |
|     For optimal performance we recommend to set                             |
|       NCORE = 2 up to number-of-cores-per-socket                            |
|     This setting can greatly improve the performance of VASP for DFT.       |
|     The default, NCORE=1 might be grossly inefficient on modern             |
|     multi-core architectures or massively parallel machines. Do your        |
|     Unfortunately you need to use the default for GW and RPA                |
|     calculations (for HF NCORE is supported but not extensively tested      |
|     yet).                                                                   |

 POTCAR:    PAW_PBE Ag 02Apr2005
   VRHFIN =Ag : s1 d10

   TITEL  = PAW_PBE Ag 02Apr2005
   POMASS =  107.868; ZVAL   =   11.000    mass and valenz
   ENMAX  =  249.844; ENMIN  =  187.383 eV

 POTCAR:    PAW_PBE Nb_sv 25May2007
   VRHFIN =Nb: 4p5s4d

   TITEL  = PAW_PBE Nb_sv 25May2007
   POMASS =   92.910; ZVAL   =   13.000    mass and valenz
   ENMAX  =  293.235; ENMIN  =  219.927 eV

 POTCAR:    PAW_PBE C 08Apr2002
   VRHFIN =C: s2p2

[...]

 POTCAR:    PAW_PBE O 08Apr2002
   VRHFIN =O: s2p4

   TITEL  = PAW_PBE O 08Apr2002
   POMASS =   16.000; ZVAL   =    6.000    mass and valenz
   ENMAX  =  400.000; ENMIN  =  300.000 eV

 Optimization of the real space projectors (new method)

 maximal supplied QI-value         = 15.12
 optimisation between [QCUT,QGAM] = [ 11.34, 22.83] = [ 36.00,145.93] Ry
 Optimized for a Real-space Cutoff    1.43 Angstroem

   l    n(q)    QCUT    max X(q) W(low)/X(q) W(high)/X(q)  e(spline)
   2      9    11.338    53.897    0.16E-03    0.20E-03    0.28E-06
   2      9    11.338    52.416    0.16E-03    0.20E-03    0.29E-06
   0     10    11.338   122.045    0.31E-04    0.76E-04    0.15E-06
   0     10    11.338    73.629    0.30E-04    0.72E-04    0.15E-06
   1      9    11.338    15.255    0.20E-03    0.19E-04    0.17E-06
   1      9    11.338     9.562    0.16E-03    0.15E-04    0.14E-06
 Optimization of the real space projectors (new method)

[...]

   l    n(q)    QCUT    max X(q) W(low)/X(q) W(high)/X(q)  e(spline)
   0      7    11.310   115.676    0.43E-03    0.13E-02    0.19E-06
   0      7    11.310    87.132    0.43E-03    0.13E-02    0.18E-06
   1      6    11.310     4.429    0.42E-03    0.74E-03    0.11E-06
   1      6    11.310     2.733    0.34E-03    0.55E-03    0.92E-07
 Optimization of the real space projectors (new method)

 maximal supplied QI-value         = 24.76
 optimisation between [QCUT,QGAM] = [ 11.39, 22.77] = [ 36.31,145.25] Ry
 Optimized for a Real-space Cutoff    1.00 Angstroem

   l    n(q)    QCUT    max X(q) W(low)/X(q) W(high)/X(q)  e(spline)
   0      7    11.387    20.381    0.39E-03    0.13E-02    0.15E-06
   0      7    11.387    15.268    0.42E-03    0.14E-02    0.17E-06
   1      6    11.387     5.964    0.41E-03    0.11E-02    0.17E-06
   1      6    11.387     5.382    0.39E-03    0.87E-03    0.15E-06
  PAW_PBE Ag 02Apr2005                  :
  PAW_PBE Nb_sv 25May2007               :
  PAW_PBE C 08Apr2002                   :
  PAW_PBE O 08Apr2002                   :

 POSCAR: Ag-Nb-CO2
  positions in direct lattice
  velocities in cartesian coordinates
 exchange correlation table for  LEXCH =        8
   RHO(1)=    0.500       N(1)  =     2000
   RHO(2)=  100.500       N(2)  =     4000

 VTST: version 3.2, (02/03/18)

 CHAIN: initializing optimizer

 OPT: Using VASP Conjugate-Gradient optimizer
 CHAIN: Read ICHAIN            0

 POSCAR: Ag-Nb-CO2
  positions in direct lattice
  velocities in cartesian coordinates

 ion  position               nearest neighbor table
   1  0.000  0.000  0.217-   2 2.93   8 2.93   7 2.93   6 2.93   4 2.93  12 2.93  16 2.93  10 2.93
                             3 2.93
   2  0.333  0.000  0.217-   1 2.93   8 2.93   9 2.93   3 2.93   4 2.93   5 2.93  10 2.93  17 2.93
                            11 2.93
   3  0.667  0.000  0.217-   9 2.93   2 2.93   5 2.93  11 2.93   7 2.93  18 2.93   1 2.93   6 2.93
                            12 2.93
   4  0.000  0.333  0.217-   5 2.93   6 2.93   2 2.93   1 2.93   7 2.93  13 2.93  15 2.93   9 2.93
                            10 2.93
   5  0.333  0.333  0.217-   4 2.93   3 2.93   7 2.93   2 2.93   8 2.93  14 2.93  13 2.93  11 2.93
                             6 2.93
   6  0.667  0.333  0.217-   4 2.93   9 2.93   1 2.93  15 2.93   8 2.93  12 2.93   3 2.93   5 2.93
                            14 2.93
   7  0.000  0.667  0.217-   8 2.93   1 2.93   5 2.93   3 2.93   4 2.93  16 2.93  18 2.93  13 2.93
                             9 2.93
   8  0.333  0.667  0.217-   7 2.93   1 2.93   2 2.93   9 2.93   5 2.93  16 2.93   6 2.93  17 2.93
                            14 2.93
   9  0.667  0.667  0.217-   3 2.93   2 2.93   8 2.93   6 2.93  17 2.93   4 2.93  15 2.93   7 2.93
                            18 2.93
  10  0.111  0.111  0.315-  20 2.90  19 2.93  26 2.93  12 2.93  16 2.93  15 2.93  17 2.93  13 2.93
                            11 2.93   2 2.93   1 2.93   4 2.93
  11  0.444  0.111  0.315-  21 2.90  20 2.90  14 2.93  17 2.93  18 2.93   3 2.93  12 2.93  13 2.93
                            10 2.93   5 2.93   2 2.93  27 2.93
  12  0.778  0.111  0.315-  21 2.90  25 2.93  19 2.93  10 2.93  16 2.93  18 2.93  15 2.93  11 2.93
                             1 2.93  14 2.93   6 2.93   3 2.93
  13  0.111  0.444  0.315-  20 2.90  23 2.90  15 2.93  14 2.93  18 2.93  10 2.93  11 2.93  16 2.93
                             4 2.93   5 2.93   7 2.93  22 2.93
  14  0.444  0.444  0.315-  23 2.90  21 2.90  13 2.93  11 2.93  16 2.93   5 2.93  12 2.93  17 2.93
                             8 2.93  15 2.93   6 2.93  24 2.93
  15  0.778  0.444  0.315-  19 2.93  13 2.93  10 2.93  12 2.93  17 2.93  18 2.93   4 2.93   6 2.93
                             9 2.93  14 2.93  24 2.93  22 2.93
  16  0.111  0.778  0.315-  23 2.90  26 2.93  25 2.93  18 2.93  12 2.93  10 2.93  14 2.93  17 2.93
                            13 2.93   7 2.93   8 2.93   1 2.93
  17  0.444  0.778  0.315-  26 2.93  11 2.93  10 2.93   9 2.93  18 2.93  15 2.93  16 2.93   2 2.93
                            14 2.93   8 2.93  27 2.93  24 2.93
  18  0.778  0.778  0.315-  25 2.93  16 2.93  12 2.93  13 2.93  11 2.93  17 2.93  15 2.93   7 2.93
                             3 2.93   9 2.93  22 2.93  27 2.93
  19  0.889  0.222  0.413-  15 2.93  10 2.93  12 2.93  20 2.93  21 2.93  28 2.93  24 2.93  22 2.93
                            26 2.93  25 2.93  32 2.97  31 2.97
  20  0.222  0.222  0.412-  36 2.82  10 2.90  13 2.90  11 2.90  19 2.93  26 2.93  27 2.93  22 2.93
                            21 2.94  23 2.94  31 2.97  29 2.97
  21  0.556  0.222  0.412-  36 2.82  12 2.90  11 2.90  14 2.90  25 2.93  19 2.93  27 2.93  24 2.93
                            20 2.94  23 2.94  30 2.97  32 2.97
  22  0.889  0.556  0.413-  24 2.93  27 2.93  25 2.93  19 2.93  18 2.93  15 2.93  23 2.93  20 2.93
                            35 2.93  13 2.93  33 2.95  31 2.95
  23  0.222  0.556  0.412-  36 2.82  16 2.90  14 2.90  13 2.90  26 2.93  25 2.93  22 2.93  24 2.93
                            21 2.94  20 2.94  34 2.97  33 2.97
  24  0.556  0.556  0.413-  27 2.93  22 2.93  19 2.93  26 2.93  15 2.93  17 2.93  23 2.93  21 2.93
                            35 2.93  14 2.93  32 2.95  34 2.95
  25  0.889  0.889  0.413-  18 2.93  16 2.93  12 2.93  23 2.93  21 2.93  28 2.93  22 2.93  27 2.93
                            26 2.93  19 2.93  33 2.97  30 2.97
  26  0.222  0.889  0.413-  17 2.93  16 2.93  10 2.93  23 2.93  20 2.93  28 2.93  27 2.93  24 2.93
                            25 2.93  19 2.93  34 2.97  29 2.97
  27  0.556  0.889  0.413-  24 2.93  22 2.93  26 2.93  25 2.93  17 2.93  18 2.93  20 2.93  21 2.93
                            35 2.93  11 2.93  29 2.95  30 2.95
  28  0.000  0.000  0.511-  26 2.93  25 2.93  19 2.93  29 2.95  34 2.95  33 2.95  32 2.95  31 2.95
                            30 2.95
  29  0.333  0.004  0.513-  37 2.78  30 2.90  31 2.90  36 2.91  35 2.95  28 2.95  27 2.95  20 2.97
                            26 2.97  34 2.99
  30  0.663  0.004  0.513-  29 2.90  32 2.90  36 2.91  35 2.95  28 2.95  27 2.95  21 2.97  25 2.97
                            33 2.99
  31  0.004  0.333  0.513-  37 2.64  33 2.90  29 2.90  36 2.91  35 2.95  28 2.95  22 2.95  20 2.97
                            19 2.97  32 2.99
  32  0.663  0.333  0.513-  34 2.90  30 2.90  36 2.91  35 2.95  28 2.95  24 2.95  21 2.97  19 2.97
                            31 2.99
  33  0.004  0.663  0.513-  31 2.90  34 2.90  36 2.91  35 2.95  28 2.95  22 2.95  23 2.97  25 2.97
                            30 2.99
  34  0.333  0.663  0.513-  32 2.90  33 2.90  36 2.91  35 2.95  28 2.95  24 2.95  23 2.97  26 2.97
                            29 2.99
  35  0.667  0.667  0.512-  24 2.93  27 2.93  22 2.93  30 2.95  29 2.95  32 2.95  34 2.95  31 2.95
                            33 2.95
  36  0.333  0.333  0.505-  39 2.02  37 2.17  21 2.82  20 2.82  23 2.82  31 2.91  33 2.91  30 2.91
                            29 2.91  34 2.91  32 2.91
  37  0.252  0.283  0.583-  38 1.22  39 1.35  36 2.17  31 2.64  29 2.78
  38  0.186  0.242  0.620-  37 1.22
  39  0.353  0.358  0.586-  37 1.35  36 2.02

  LATTYP: Found a hexagonal cell.
 ALAT       =     8.7913665772
 C/A-ratio  =     2.7703738524

  Lattice vectors:

 A1 = (  -4.3956832886,  -7.6135467898,   0.0000000000)
 A2 = (   8.7913665771,   0.0000000000,   0.0000000000)
 A3 = (   0.0000000000,   0.0000000000,  24.3553720923)

Analysis of symmetry for initial positions (statically):
 Subroutine PRICEL returns:
 Original cell was already a primitive cell.

 Routine SETGRP: Setting up the symmetry group for a
 hexagonal supercell.

 Subroutine GETGRP returns: Found  1 space group operations
 (whereof  1 operations were pure point group operations)
 out of a pool of 24 trial point group operations.

The static configuration has the point symmetry C_1 .

Analysis of symmetry for dynamics (positions and initial velocities):
 Subroutine PRICEL returns:
 Original cell was already a primitive cell.

[...]

The dynamic configuration has the point symmetry C_1 .

Analysis of constrained symmetry for selective dynamics:
 Subroutine PRICEL returns:
 Original cell was already a primitive cell.
[...]
     41      -5.0557      2.00000
     42      -5.0332      2.00000
     43      -5.0101      2.00000
     44      -4.9946      2.00000
     45      -4.9655      2.00000
     46      -4.9492      2.00000
     47      -4.9035      2.00000
     48      -4.8834      2.00000
     49      -4.8759      2.00000
     50      -4.8643      2.00000
     51      -4.8563      2.00000
     52      -4.8436      2.00000
     53      -4.7531      2.00000
     54      -4.7361      2.00000
     55      -4.7194      2.00000
     56      -4.7116      2.00000
     57      -4.7033      2.00000
     58      -4.6977      2.00000
     59      -4.6950      2.00000
     60      -4.6886      2.00000
[...]
    238       5.1786      0.00000
    239       5.2134      0.00000
    240       5.3022      0.00000
    241       5.3375      0.00000
    242       5.3770      0.00000
    243       5.5368      0.00000
    244       5.7427      0.00000
    245       5.7846      0.00000
    246       5.8380      0.00000
    247       5.8944      0.00000
    248       5.9403      0.00000
    249       6.0086      0.00000
    250       6.1833      0.00000
    251       6.6911      0.00000
    252       6.7142      0.00000

 soft charge-density along one line, spin component           1
         0         1         2         3         4         5         6         7         8         9
 total charge-density along one line

------------------------ aborting loop because EDIFF is reached ----------------------------------------

 total charge

# of ion       s       p       d       tot
    1        0.420   0.200   9.179   9.799
    2        0.417   0.203   9.178   9.797
    3        0.416   0.204   9.176   9.796
    4        0.417   0.203   9.178   9.797
    5        0.418   0.202   9.177   9.797
    6        0.415   0.204   9.177   9.796
    7        0.416   0.204   9.177   9.796
    8        0.415   0.204   9.177   9.796
    9        0.413   0.204   9.178   9.794
   10        0.410   0.268   9.165   9.842
   11        0.406   0.269   9.167   9.842
   12        0.410   0.268   9.164   9.842
   13        0.406   0.269   9.167   9.842
   14        0.405   0.269   9.168   9.842
   15        0.400   0.270   9.164   9.834
   16        0.410   0.268   9.163   9.842
   17        0.401   0.270   9.164   9.834
   18        0.401   0.269   9.165   9.835
   19        0.400   0.265   9.166   9.831
   20        0.437   0.303   9.132   9.873
   21        0.446   0.297   9.135   9.878
   22        0.391   0.274   9.164   9.828
   23        0.446   0.297   9.135   9.878
   24        0.393   0.272   9.165   9.830
   25        0.406   0.261   9.169   9.836
   26        0.401   0.264   9.167   9.832
   27        0.392   0.273   9.164   9.829
   28        0.416   0.196   9.178   9.790
   29        0.421   0.224   9.167   9.812
   30        0.437   0.218   9.159   9.815
   31        0.410   0.230   9.171   9.811
   32        0.441   0.209   9.162   9.812
   33        0.437   0.216   9.162   9.816
   34        0.439   0.212   9.162   9.812
   35        0.406   0.204   9.176   9.786
   36        2.184   6.005   2.379  10.568
   37        0.874   1.638   0.000   2.513
   38        1.598   3.515   0.000   5.113
   39        1.594   3.451   0.000   5.046
tot         20.763  23.072 323.195 367.031

  FORCE on cell =-STRESS in cart. coord.  units (eV):
  Direction    XX          YY          ZZ          XY          YZ          ZX
  Alpha Z   733.40509   733.40509   733.40509
  Ewald  155359.32839154944.58016************   223.07526   -77.15448  -190.01190
  Hartree165709.93677165480.52585************   123.35960   -40.91851   -98.67954
  E(xc)   -2162.65822 -2163.64073 -2168.11845     0.54423    -0.14577    -0.37585
  Local  ************************331488.86684  -338.37873   113.38690   277.41456
  n-local  -371.96287  -369.36727  -375.96431    -1.60289     0.06522     0.36075
  augment  3250.53561  3250.45899  3263.19844     0.12002     0.00127     0.00285
  Kinetic  5328.91056  5343.40953  5360.93018    -7.27732     4.58279    11.15199
  Fock        0.00000     0.00000     0.00000     0.00000     0.00000     0.00000
  Total      -5.76497    -5.68131    -0.45187    -0.15983    -0.18258    -0.13714
  in kB      -5.66591    -5.58369    -0.44411    -0.15708    -0.17944    -0.13478

 VOLUME and BASIS-vectors are now :
  energy-cutoff  :      500.00
  volume of cell :     1630.19
      direct lattice vectors                 reciprocal lattice vectors
     8.791366577  0.000000000  0.000000000     0.113747958 -0.065672414  0.000000000
     4.395683289  7.613546790  0.000000000     0.000000000  0.131344829  0.000000000
     0.000000000  0.000000000 24.355372092     0.000000000  0.000000000  0.041058703

  length of vectors
     8.791366577  8.791366577 24.355372092     0.131344829  0.131344829  0.041058703

 FORCES acting on ions
    electron-ion (+dipol)            ewald-force                    non-local-force                 convergence-correction
   0.194E+00 0.127E+00 0.274E+04   -.995E-01 -.584E-01 -.274E+04   -.243E-01 -.253E-01 -.198E+01   -.712E-01 -.452E-01 0.293E-01
   0.183E+00 0.119E+01 0.274E+04   -.388E+00 -.125E+01 -.274E+04   0.739E-01 0.113E+00 -.171E+01   0.132E+00 -.545E-01 -.119E-01
   -.390E+00 0.120E+01 0.274E+04   0.488E+00 -.116E+01 -.274E+04   -.411E-01 0.721E-01 -.154E+01   -.563E-01 -.979E-01 0.409E-01
   0.116E+01 -.355E+00 0.274E+04   -.128E+01 0.258E+00 -.274E+04   0.115E+00 -.147E-01 -.171E+01   0.562E-02 0.113E+00 -.964E-02
   -.177E+00 -.981E-01 0.274E+04   0.129E+00 0.442E-01 -.274E+04   0.251E-01 0.270E-01 -.147E+01   0.331E-01 0.269E-01 0.106E+00
   -.984E+00 -.299E+00 0.274E+04   0.115E+01 0.216E+00 -.274E+04   -.145E+00 -.429E-01 -.161E+01   -.298E-01 0.117E+00 0.317E-01
   0.767E+00 -.979E+00 0.274E+04   -.758E+00 0.103E+01 -.274E+04   0.730E-01 -.666E-01 -.160E+01   -.771E-01 0.891E-02 0.358E-01
   -.748E+00 -.709E+00 0.274E+04   0.787E+00 0.901E+00 -.274E+04   -.119E+00 -.104E+00 -.162E+01   0.740E-01 -.898E-01 0.219E-01
   0.136E-01 -.630E-01 0.274E+04   -.285E-01 0.144E-01 -.274E+04   0.202E-01 0.253E-01 -.188E+01   -.522E-02 0.235E-01 -.676E-01
   0.726E+01 0.437E+01 0.102E+04   -.695E+01 -.418E+01 -.102E+04   -.368E+00 -.225E+00 -.842E+00   0.393E-01 0.252E-01 0.339E+00
   -.851E+00 0.109E+02 0.103E+04   0.900E+00 -.111E+02 -.103E+04   -.571E-01 0.154E+00 -.410E+00   0.159E-01 0.266E-01 0.259E+00
   -.643E+01 0.402E+01 0.101E+04   0.605E+01 -.379E+01 -.101E+04   0.452E+00 -.257E+00 -.651E+00   -.476E-01 0.243E-01 0.244E+00
   0.883E+01 -.608E+01 0.103E+04   -.906E+01 0.619E+01 -.103E+04   0.140E+00 -.882E-01 -.465E+00   0.322E-01 0.157E-01 0.266E+00
   -.954E+01 -.545E+01 0.102E+04   0.980E+01 0.558E+01 -.102E+04   -.201E+00 -.109E+00 -.215E+00   -.119E-01 0.573E-02 0.235E+00
   0.731E+00 -.298E+01 0.101E+04   -.749E+00 0.291E+01 -.101E+04   0.121E-01 0.510E-01 -.693E+00   -.124E-02 0.101E-01 0.264E+00
   0.105E+00 -.774E+01 0.101E+04   -.120E+00 0.730E+01 -.101E+04   0.810E-02 0.521E+00 -.655E+00   0.102E-01 -.619E-01 0.249E+00
   -.232E+01 0.191E+01 0.101E+04   0.222E+01 -.190E+01 -.101E+04   0.775E-01 0.306E-02 -.672E+00   0.111E-01 -.166E-01 0.248E+00
   0.216E+01 0.102E+01 0.101E+04   -.210E+01 -.968E+00 -.101E+04   -.372E-01 -.373E-01 -.590E+00   -.164E-01 -.125E-01 0.228E+00
   0.679E+01 0.149E+01 -.753E+03   -.673E+01 -.156E+01 0.752E+03   -.291E-03 0.632E-01 0.981E+00   -.142E-01 0.179E-01 0.193E+00
   0.465E+02 0.288E+02 -.661E+03   -.457E+02 -.284E+02 0.662E+03   -.989E+00 -.542E+00 -.952E+00   0.991E-01 0.630E-01 0.301E+00
   -.533E+02 0.285E+02 -.676E+03   0.522E+02 -.280E+02 0.677E+03   0.127E+01 -.685E+00 -.940E+00   -.412E-01 0.217E-01 0.220E+00
   0.245E+02 -.184E+02 -.745E+03   -.248E+02 0.186E+02 0.745E+03   0.295E+00 -.221E+00 0.633E+00   0.374E-01 -.593E-01 0.114E+00
   -.346E+01 -.605E+02 -.674E+03   0.345E+01 0.592E+02 0.675E+03   0.198E-01 0.148E+01 -.947E+00   0.354E-02 -.500E-01 0.216E+00
   -.210E+02 -.127E+02 -.752E+03   0.212E+02 0.128E+02 0.751E+03   -.125E+00 -.851E-01 0.641E+00   -.618E-01 -.399E-01 0.145E+00
   -.221E+00 -.109E+01 -.759E+03   0.190E+00 0.107E+01 0.758E+03   -.142E-01 -.126E-01 0.955E+00   0.330E-01 0.205E-01 0.202E+00
   0.325E+01 0.481E+01 -.754E+03   -.326E+01 -.474E+01 0.753E+03   0.264E-01 -.231E-01 0.970E+00   -.465E-02 -.120E-01 0.185E+00
   -.303E+01 0.288E+02 -.748E+03   0.309E+01 -.291E+02 0.748E+03   -.396E-01 0.325E+00 0.640E+00   -.171E-01 0.569E-01 0.117E+00
   0.254E+02 0.157E+02 -.254E+04   -.253E+02 -.157E+02 0.254E+04   -.677E-01 0.282E-01 0.181E+01   -.511E-01 -.149E-01 0.186E-01
   0.542E+02 0.165E+03 -.248E+04   -.530E+02 -.165E+03 0.247E+04   -.127E+01 -.568E+00 0.234E+01   0.395E-01 0.124E+00 -.750E-02
   -.798E+02 0.109E+03 -.254E+04   0.790E+02 -.108E+03 0.254E+04   0.896E+00 -.113E+01 0.169E+01   -.240E-01 0.845E-01 0.505E-01
   0.180E+03 -.268E+02 -.245E+04   -.180E+03 0.276E+02 0.245E+04   -.922E+00 -.708E+00 0.279E+01   0.108E+00 -.176E-01 -.782E-02
   -.114E+03 0.189E+01 -.254E+04   0.113E+03 -.168E+01 0.254E+04   0.116E+01 -.254E+00 0.187E+01   -.131E+00 0.142E-01 -.718E-02
   0.546E+02 -.137E+03 -.253E+04   -.543E+02 0.136E+03 0.253E+04   -.483E+00 0.121E+01 0.177E+01   0.715E-01 -.580E-01 0.354E-01
   -.618E+02 -.105E+03 -.254E+04   0.616E+02 0.104E+03 0.254E+04   0.314E+00 0.112E+01 0.193E+01   -.609E-01 -.144E+00 -.154E-01
   0.581E+01 -.389E+01 -.256E+04   -.580E+01 0.391E+01 0.255E+04   -.287E-01 0.630E-03 0.189E+01   -.872E-02 -.158E-01 0.487E-01
   -.666E+02 -.185E+02 -.251E+04   0.659E+02 0.183E+02 0.252E+04   0.569E+00 0.175E+00 -.238E+01   0.132E-01 0.109E-01 0.456E-01
   0.371E+02 0.236E+02 -.103E+04   -.408E+02 -.257E+02 0.103E+04   0.367E+01 0.210E+01 0.752E+01   0.479E-01 0.211E-01 -.421E-01
   0.183E+03 0.796E+02 -.175E+04   -.217E+03 -.940E+02 0.179E+04   0.340E+02 0.143E+02 -.403E+02   0.385E-01 0.143E-01 -.590E-01
   -.221E+03 -.103E+03 -.179E+04   0.256E+03 0.120E+03 0.181E+04   -.357E+02 -.170E+02 -.198E+02   -.878E-02 -.709E-02 -.132E+00
   -.270E+01 0.418E+00 0.529E+02   0.568E-13 0.000E+00 -.637E-11   0.259E+01 -.412E+00 -.572E+02   0.105E+00 0.488E-01 0.413E+01

 POSITION                                       TOTAL-FORCE (eV/Angst)
      0.00000      0.00000      5.28219        -0.000834     -0.002792     -0.040197
      2.93046      0.00000      5.28219         0.000445     -0.000198      0.023638
      5.86091      0.00000      5.28219         0.000012      0.011893      0.035476
      1.46523      2.53785      5.28219         0.002465     -0.000377      0.023449
      4.39568      2.53785      5.28219         0.010381     -0.001283     -0.000857
      7.32614      2.53785      5.28219        -0.012787     -0.009980      0.030830
      2.93046      5.07570      5.28219         0.005054     -0.006234      0.033515
      5.86091      5.07570      5.28219        -0.006192     -0.003856      0.037831
      8.79137      5.07570      5.28219         0.000111     -0.001146      0.021948
      1.46523      0.84595      7.67490        -0.015626     -0.008551     -0.066934
      4.39568      0.84595      7.67490         0.008145     -0.064687     -0.061718
      7.32614      0.84595      7.67490         0.017714     -0.008531     -0.034522
      2.93046      3.38380      7.67490        -0.052922      0.040299     -0.065630
      5.86091      3.38380      7.67490         0.053427      0.027665     -0.039315
      8.79137      3.38380      7.67490        -0.006767     -0.012073      0.037084
      4.39568      5.92165      7.67490         0.003058      0.019657     -0.035852
      7.32614      5.92165      7.67490        -0.012423     -0.003739      0.042045
     10.25659      5.92165      7.67490         0.009356      0.000272      0.056077
      8.79137      1.69211     10.06133         0.051726      0.004898      0.086077
      2.92756      1.69022     10.03254        -0.148910     -0.077638     -0.150622
      5.86381      1.69022     10.03254         0.137775     -0.077755     -0.178321
     10.25459      4.23091     10.07004         0.049993     -0.032326      0.047914
      4.39568      4.23310     10.03254         0.018654      0.153842     -0.152756
      7.32815      4.23091     10.07004        -0.037283     -0.018504      0.032293
     11.72164      6.76749     10.06133        -0.012592     -0.005083      0.005152
      5.86110      6.76749     10.06133         0.019688      0.033988      0.068809
      8.79137      6.76528     10.07004         0.005002      0.055464      0.033651
      0.00000      0.00000     12.45237        -0.056733     -0.038270     -0.045111
      2.94700      0.02679     12.48745        -0.028178     -0.257445     -0.156695
      5.84437      0.02679     12.48745         0.122081     -0.193364     -0.208239
      1.49670      2.53878     12.48745        -0.292234      0.101085     -0.171066
      7.29466      2.53878     12.48745         0.289374     -0.031494     -0.196490
      2.94539      5.04797     12.48745        -0.121139      0.250098     -0.238439
      5.84598      5.04797     12.48745         0.122592      0.252887     -0.197322
      8.79137      5.07570     12.46721        -0.029298      0.001165     -0.015959
      4.39568      2.53785     12.28926        -0.093356     -0.099422      1.439861
      3.45758      2.15467     14.20603        -0.008849     -0.001972      0.021473
      2.69891      1.83878     15.10724        -0.002021     -0.004696     -0.027797
      4.67800      2.72231     14.28241         0.011090      0.008203      0.006717
    total drift:                               -0.000908      0.054697     -0.116234

  FREE ENERGIE OF THE ION-ELECTRON SYSTEM (eV)
  free  energy   TOTEN  =      -120.24504606 eV

  energy  without entropy=     -120.24504606  energy(sigma->0) =     -120.24504606

 stress matrix after NEB project (eV)
     -5.76497     -0.15983     -0.13714
     -0.15983     -5.68131     -0.18258
     -0.13714     -0.18258     -0.45187
  FORCES: max atom, RMS     0.028264    0.006360
  FORCE total and by dimension    0.039718    0.027797
  Stress total and by dimension    8.116139    5.764969
|           W    W    AA    RRRRR   N    N  II  N    N   GGGG   !!!           |
|           W    W   A  A   R    R  NN   N  II  NN   N  G    G  !!!           |
|           W    W  A    A  R    R  N N  N  II  N N  N  G       !!!           |
|           W WW W  AAAAAA  RRRRR   N  N N  II  N  N N  G  GGG   !            |
|           WW  WW  A    A  R   R   N   NN  II  N   NN  G    G                |
|           W    W  A    A  R    R  N    N  II  N    N   GGGG   !!!           |
|     Tetrahedron method does not include variations of the Fermi             |
|     occupations, so forces and stress will be inaccurate. We suggest        |
|     using a different smearing scheme ISMEAR = 1 or 2 for metals in         |
|     relaxations.                                                            |

 total charge

# of ion       s       p       d       tot
    1        0.420   0.200   9.179   9.799
    2        0.417   0.203   9.178   9.797
    3        0.416   0.204   9.176   9.796
    4        0.417   0.203   9.178   9.797
    5        0.418   0.202   9.177   9.797
    6        0.415   0.204   9.177   9.796
    7        0.416   0.204   9.177   9.796
    8        0.415   0.204   9.177   9.796
    9        0.413   0.204   9.178   9.794
   10        0.410   0.268   9.165   9.842
   11        0.406   0.269   9.167   9.842
   12        0.410   0.268   9.164   9.842
   13        0.406   0.269   9.167   9.842
   14        0.405   0.269   9.168   9.842
   15        0.400   0.270   9.164   9.834
   16        0.410   0.268   9.163   9.842
   17        0.401   0.270   9.164   9.834
   18        0.401   0.269   9.165   9.835
   19        0.400   0.265   9.166   9.831
   20        0.437   0.303   9.132   9.873
   21        0.446   0.297   9.135   9.878
   22        0.391   0.274   9.164   9.828
   23        0.446   0.297   9.135   9.878
   24        0.393   0.272   9.165   9.830
   25        0.406   0.261   9.169   9.836
   26        0.401   0.264   9.167   9.832
   27        0.392   0.273   9.164   9.829
   28        0.416   0.196   9.178   9.790
   29        0.421   0.224   9.167   9.812
   30        0.437   0.218   9.159   9.815
   31        0.410   0.230   9.171   9.811
   32        0.441   0.209   9.162   9.812
   33        0.437   0.216   9.162   9.816
   34        0.439   0.212   9.162   9.812
   35        0.406   0.204   9.176   9.786
   36        2.184   6.005   2.379  10.568
   37        0.874   1.638   0.000   2.513
   38        1.598   3.515   0.000   5.113
   39        1.594   3.451   0.000   5.046
tot         20.763  23.072 323.195 367.031

 BZINTS: Fermi energy:    0.295418;  414.000000 electrons
         Band energy:-0.193081E+04;  BLOECHL correction:   -0.025455