 vasp.6.2.0 18Jan21 (build Jun 12 2021 23:27:24) complex

 executed on             LinuxIFC date 2022.05.27  05:00:43

 INCAR:
   ISMEAR = -5
   SIGMA = 0.1
   ISPIN = 1
   EDIFF = 1.d-5
   EDIFFG = -0.01
   NSW = 0
   NELM = 150
   ENCUT = 500
   ISIF = 2
   IBRION = 2
   LREAL = Auto
   ALGO = Fast
   ICHARG = 11
   LORBIT = 10
   LCHARG = .F.
   LWAVE = .F.

 POTCAR:    PAW_PBE Au 04Oct2007
 POTCAR:    PAW_PBE Cr 06Sep2000
 POTCAR:    PAW_PBE H 15Jun2001
|           W    W    AA    RRRRR   N    N  II  N    N   GGGG   !!!           |
|           W    W   A  A   R    R  NN   N  II  NN   N  G    G  !!!           |
|           W    W  A    A  R    R  N N  N  II  N N  N  G       !!!           |
|           W WW W  AAAAAA  RRRRR   N  N N  II  N  N N  G  GGG   !            |
|           WW  WW  A    A  R   R   N   NN  II  N   NN  G    G                |
|           W    W  A    A  R    R  N    N  II  N    N   GGGG   !!!           |
|     For optimal performance we recommend to set                             |
|       NCORE = 2 up to number-of-cores-per-socket                            |
|     This setting can greatly improve the performance of VASP for DFT.       |
|     The default, NCORE=1 might be grossly inefficient on modern             |
|     multi-core architectures or massively parallel machines. Do your        |
|     Unfortunately you need to use the default for GW and RPA                |
|     calculations (for HF NCORE is supported but not extensively tested      |
|     yet).                                                                   |

 POTCAR:    PAW_PBE Au 04Oct2007
   VRHFIN =Au: s1d10

   TITEL  = PAW_PBE Au 04Oct2007
   POMASS =  196.966; ZVAL   =   11.000    mass and valenz
   ENMAX  =  229.943; ENMIN  =  172.457 eV

 POTCAR:    PAW_PBE Cr 06Sep2000
   VRHFIN =Cr : d5 s1

   TITEL  = PAW_PBE Cr 06Sep2000
   POMASS =   51.996; ZVAL   =    6.000    mass and valenz
   ENMAX  =  227.080; ENMIN  =  170.310 eV

 POTCAR:    PAW_PBE H 15Jun2001
   VRHFIN =H: ultrasoft test

   TITEL  = PAW_PBE H 15Jun2001
   POMASS =    1.000; ZVAL   =    1.000    mass and valenz
   ENMAX  =  250.000; ENMIN  =  200.000 eV

 Optimization of the real space projectors (new method)

 maximal supplied QI-value         = 15.12
 optimisation between [QCUT,QGAM] = [ 11.34, 22.83] = [ 36.00,145.93] Ry
 Optimized for a Real-space Cutoff    1.39 Angstroem

   l    n(q)    QCUT    max X(q) W(low)/X(q) W(high)/X(q)  e(spline)
   2      9    11.338    60.898    0.39E-03    0.42E-03    0.21E-06
   2      9    11.338    58.894    0.40E-03    0.42E-03    0.22E-06
   0      9    11.338   109.617    0.13E-03    0.20E-04    0.13E-06
   0      9    11.338    75.026    0.13E-03    0.20E-04    0.13E-06
   1      9    11.338    16.344    0.33E-04    0.24E-03    0.18E-06
   1      9    11.338    10.160    0.26E-04    0.19E-03    0.15E-06
 Optimization of the real space projectors (new method)

[...]

   l    n(q)    QCUT    max X(q) W(low)/X(q) W(high)/X(q)  e(spline)
   2      9    11.338    94.395    0.18E-03    0.10E-02    0.64E-06
   2      9    11.338    88.078    0.18E-03    0.10E-02    0.65E-06
   0     10    11.338    50.173    0.13E-03    0.16E-03    0.96E-07
   0     10    11.338    24.906    0.12E-03    0.14E-03    0.88E-07
   1      9    11.338    12.133    0.13E-03    0.15E-03    0.24E-06
   1      9    11.338     7.290    0.10E-03    0.10E-03    0.18E-06
 Optimization of the real space projectors (new method)

 maximal supplied QI-value         = 34.20
 optimisation between [QCUT,QGAM] = [ 11.29, 22.57] = [ 35.68,142.71] Ry
 Optimized for a Real-space Cutoff    1.16 Angstroem

   l    n(q)    QCUT    max X(q) W(low)/X(q) W(high)/X(q)  e(spline)
   0      8    11.287    19.460    0.40E-03    0.73E-03    0.16E-06
   0      8    11.287    12.209    0.38E-03    0.70E-03    0.15E-06
   1      7    11.287     4.655    0.22E-03    0.25E-04    0.22E-06
  PAW_PBE Au 04Oct2007                  :
  PAW_PBE Cr 06Sep2000                  :
  PAW_PBE H 15Jun2001                   :

 POSCAR: Au-Cr-H2
  positions in direct lattice
  velocities in cartesian coordinates
 exchange correlation table for  LEXCH =        8
   RHO(1)=    0.500       N(1)  =     2000
   RHO(2)=  100.500       N(2)  =     4000

 VTST: version 3.2, (02/03/18)

 CHAIN: initializing optimizer

 OPT: Using VASP Conjugate-Gradient optimizer
 CHAIN: Read ICHAIN            0

 POSCAR: Au-Cr-H2
  positions in direct lattice
  velocities in cartesian coordinates

 ion  position               nearest neighbor table
   1  0.000  0.000  0.238-  16 2.94  12 2.94   6 2.94   8 2.94   7 2.94   3 2.94  10 2.94   4 2.94
                             2 2.94
   2  0.333  0.000  0.238-   9 2.94  11 2.94  17 2.94  10 2.94   8 2.94   4 2.94   5 2.94   1 2.94
                             3 2.94
   3  0.667  0.000  0.238-   7 2.94  18 2.94  12 2.94   1 2.94  11 2.94   5 2.94   6 2.94   9 2.94
                             2 2.94
   4  0.000  0.333  0.238-  10 2.94   6 2.94   5 2.94  13 2.94   2 2.94  15 2.94   9 2.94   1 2.94
                             7 2.94
   5  0.333  0.333  0.238-  13 2.94   7 2.94  11 2.94   4 2.94   2 2.94  14 2.94   3 2.94   8 2.94
                             6 2.94
   6  0.667  0.333  0.238-  15 2.94  14 2.94   1 2.94  12 2.94   4 2.94   9 2.94   8 2.94   3 2.94
                             5 2.94
   7  0.000  0.667  0.238-  18 2.94   3 2.94  16 2.94   5 2.94   1 2.94  13 2.94   8 2.94   4 2.94
                             9 2.94
   8  0.333  0.667  0.238-   9 2.94  17 2.94   1 2.94   2 2.94  14 2.94  16 2.94   6 2.94   7 2.94
                             5 2.94
   9  0.667  0.667  0.238-   2 2.94   8 2.94  17 2.94   6 2.94  15 2.94   4 2.94   3 2.94  18 2.94
                             7 2.94
  10  0.111  0.111  0.346-  20 2.92  26 2.94  19 2.94  11 2.94  17 2.94   2 2.94   4 2.94   1 2.94
                            12 2.94  16 2.94  13 2.94  15 2.94
  11  0.444  0.111  0.346-  20 2.91  21 2.91  27 2.93  13 2.94   2 2.94  10 2.94  17 2.94   5 2.94
                             3 2.94  18 2.94  14 2.94  12 2.94
  12  0.778  0.111  0.346-  21 2.92  25 2.94  19 2.94  16 2.94  18 2.94   1 2.94  14 2.94  15 2.94
                             3 2.94   6 2.94  10 2.94  11 2.94
  13  0.111  0.444  0.346-  23 2.91  20 2.91  22 2.93   5 2.94  18 2.94  11 2.94   7 2.94   4 2.94
                            16 2.94  10 2.94  14 2.94  15 2.94
  14  0.444  0.444  0.346-  21 2.91  23 2.91  24 2.93  15 2.94   6 2.94  12 2.94   8 2.94  17 2.94
                             5 2.94  16 2.94  13 2.94  11 2.94
  15  0.778  0.444  0.346-  24 2.92  22 2.92  19 2.94  14 2.94   6 2.94  17 2.94  12 2.94   9 2.94
                             4 2.94  10 2.94  13 2.94  18 2.94
  16  0.111  0.778  0.346-  23 2.92  25 2.94  26 2.94  18 2.94  12 2.94   7 2.94   1 2.94   8 2.94
                            13 2.94  10 2.94  14 2.94  17 2.94
  17  0.444  0.778  0.346-  27 2.92  24 2.92  26 2.94   9 2.94  15 2.94   2 2.94  10 2.94  11 2.94
                             8 2.94  14 2.94  16 2.94  18 2.94
  18  0.778  0.778  0.346-  22 2.92  27 2.92  25 2.94  16 2.94   7 2.94  13 2.94  12 2.94   3 2.94
                            11 2.94   9 2.94  15 2.94  17 2.94
  19  0.889  0.222  0.454-  10 2.94  12 2.94  15 2.94  26 2.94  25 2.94  24 2.94  22 2.94  28 2.95
                            21 2.95  20 2.95  32 3.00  31 3.00
  20  0.223  0.223  0.453-  36 2.71  11 2.91  13 2.91  23 2.91  21 2.91  29 2.92  31 2.92  10 2.92
                            26 2.95  19 2.95  27 2.96  22 2.96
  21  0.553  0.223  0.453-  36 2.71  14 2.91  11 2.91  20 2.91  23 2.91  30 2.92  32 2.92  12 2.92
                            25 2.95  19 2.95  27 2.96  24 2.96
  22  0.886  0.557  0.453-  24 2.90  27 2.90  18 2.92  15 2.92  13 2.93  25 2.94  19 2.94  23 2.96
                            20 2.96  35 2.96  33 2.96  31 2.96
  23  0.223  0.553  0.453-  36 2.71  13 2.91  14 2.91  20 2.91  21 2.91  33 2.92  34 2.92  16 2.92
                            25 2.95  26 2.95  22 2.96  24 2.96
  24  0.557  0.557  0.453-  27 2.90  22 2.90  15 2.92  17 2.92  14 2.93  26 2.94  19 2.94  21 2.96
                            23 2.96  35 2.96  32 2.96  34 2.96
  25  0.889  0.889  0.454-  16 2.94  12 2.94  18 2.94  19 2.94  26 2.94  22 2.94  27 2.94  28 2.95
                            23 2.95  21 2.95  33 3.00  30 3.00
  26  0.222  0.889  0.454-  10 2.94  16 2.94  17 2.94  19 2.94  25 2.94  27 2.94  24 2.94  28 2.95
                            20 2.95  23 2.95  29 3.00  34 3.00
  27  0.557  0.886  0.453-  24 2.90  22 2.90  17 2.92  18 2.92  11 2.93  26 2.94  25 2.94  20 2.96
                            21 2.96  35 2.96  29 2.96  30 2.96
  28  0.000  0.000  0.563-  25 2.95  19 2.95  26 2.95  34 2.99  32 2.99  33 2.99  30 2.99  31 2.99
                            29 2.99
  29  0.334  0.011  0.562-  30 2.84  31 2.84  36 2.86  20 2.92  27 2.96  35 2.99  28 2.99  26 3.00
                            34 3.13
  30  0.655  0.011  0.562-  29 2.84  32 2.84  36 2.86  21 2.92  27 2.96  35 2.99  28 2.99  25 3.00
                            33 3.13
  31  0.011  0.334  0.562-  33 2.84  29 2.84  36 2.86  20 2.92  22 2.96  35 2.99  28 2.99  19 3.00
                            32 3.13
  32  0.655  0.334  0.562-  34 2.84  30 2.84  36 2.86  21 2.92  24 2.96  35 2.99  28 2.99  19 3.00
                            31 3.13
  33  0.011  0.655  0.562-  31 2.84  34 2.84  36 2.86  23 2.92  22 2.96  35 2.99  28 2.99  25 3.00
                            30 3.13
  34  0.334  0.655  0.562-  32 2.84  33 2.84  36 2.86  23 2.92  24 2.96  35 2.99  28 2.99  26 3.00
                            29 3.13
  35  0.667  0.667  0.563-  24 2.96  27 2.96  22 2.96  29 2.99  34 2.99  32 2.99  31 2.99  30 2.99
                            33 2.99
  36  0.333  0.333  0.549-  38 1.72  37 1.72  20 2.71  23 2.71  21 2.71  33 2.86  31 2.86  29 2.86
                            30 2.86  34 2.86  32 2.86
  37  0.284  0.333  0.624-  38 0.86  36 1.72
  38  0.382  0.333  0.624-  37 0.86  36 1.72

  LATTYP: Found a hexagonal cell.
 ALAT       =     8.8135128021
 C/A-ratio  =     2.5184286595

  Lattice vectors:

 A1 = (  -4.4067569092,  -7.6327256898,   0.0000000000)
 A2 = (   8.8135128021,   0.0000000000,   0.0000000000)
 A3 = (   0.0000000000,   0.0000000000,  22.1962032318)

Analysis of symmetry for initial positions (statically):
 Subroutine PRICEL returns:
 Original cell was already a primitive cell.

 Routine SETGRP: Setting up the symmetry group for a
 hexagonal supercell.

 Subroutine GETGRP returns: Found  2 space group operations
 (whereof  2 operations were pure point group operations)
 out of a pool of 24 trial point group operations.

The static configuration has the point symmetry C_1h.

Analysis of symmetry for dynamics (positions and initial velocities):
 Subroutine PRICEL returns:
 Original cell was already a primitive cell.

[...]

The dynamic configuration has the point symmetry C_1h.

Analysis of constrained symmetry for selective dynamics:
 Subroutine PRICEL returns:
 Original cell was already a primitive cell.

 Routine SETGRP: Setting up the symmetry group for a
 hexagonal supercell.

 Subroutine GETGRP returns: Found  2 space group operations
[...]
     33      -4.6944      2.00000
     34      -4.6821      2.00000
     35      -4.6298      2.00000
     36      -4.5436      2.00000
     37      -4.5341      2.00000
     38      -4.4905      2.00000
     39      -4.4835      2.00000
     40      -4.4252      2.00000
     41      -4.3594      2.00000
     42      -4.3287      2.00000
     43      -4.2743      2.00000
     44      -4.2559      2.00000
     45      -4.2509      2.00000
     46      -4.2322      2.00000
     47      -4.1323      2.00000
     48      -4.1127      2.00000
     49      -4.0874      2.00000
     50      -4.0614      2.00000
     51      -4.0576      2.00000
     52      -4.0541      2.00000
     53      -4.0301      2.00000
     54      -4.0067      2.00000
     55      -3.9611      2.00000
     56      -3.9368      2.00000
     57      -3.9178      2.00000
     58      -3.9136      2.00000
     59      -3.8895      2.00000
     60      -3.8841      2.00000
[...]
    238       6.5805      0.00000
    239       6.6760      0.00000
    240       6.7363      0.00000
    241       6.8221      0.00000
    242       6.8523      0.00000
    243       7.0331      0.00000
    244       7.1453      0.00000
    245       7.3018      0.00000
    246       7.4950      0.00000
    247       7.5324      0.00000
    248       7.5761      0.00000
    249       7.6893      0.00000
    250       7.7273      0.00000
    251       7.7879      0.00000
    252       7.9083      0.00000

 soft charge-density along one line, spin component           1
         0         1         2         3         4         5         6         7         8         9
 total charge-density along one line

------------------------ aborting loop because EDIFF is reached ----------------------------------------

 total charge

# of ion       s       p       d       tot
    1        0.547   0.238   8.768   9.552
    2        0.543   0.241   8.765   9.549
    3        0.543   0.241   8.765   9.549
    4        0.545   0.241   8.766   9.552
    5        0.546   0.241   8.760   9.547
    6        0.545   0.241   8.766   9.552
    7        0.543   0.241   8.766   9.550
    8        0.543   0.241   8.766   9.550
    9        0.543   0.239   8.769   9.552
   10        0.525   0.308   8.768   9.601
   11        0.524   0.307   8.781   9.611
   12        0.525   0.308   8.768   9.601
   13        0.524   0.308   8.781   9.612
   14        0.524   0.308   8.781   9.612
   15        0.516   0.310   8.775   9.602
   16        0.526   0.309   8.766   9.600
   17        0.517   0.310   8.775   9.602
   18        0.517   0.310   8.775   9.602
   19        0.517   0.300   8.773   9.590
   20        0.557   0.335   8.743   9.635
   21        0.557   0.335   8.743   9.635
   22        0.509   0.311   8.777   9.596
   23        0.560   0.335   8.744   9.639
   24        0.509   0.311   8.777   9.596
   25        0.518   0.299   8.774   9.591
   26        0.518   0.299   8.774   9.591
   27        0.509   0.310   8.777   9.596
   28        0.538   0.223   8.762   9.523
   29        0.568   0.243   8.746   9.558
   30        0.568   0.243   8.746   9.558
   31        0.565   0.246   8.744   9.555
   32        0.565   0.246   8.744   9.555
   33        0.569   0.243   8.747   9.559
   34        0.569   0.243   8.747   9.559
   35        0.537   0.223   8.763   9.523
   36        0.365   0.455   4.245   5.066
   37        0.553   0.031   0.000   0.584
   38        0.553   0.031   0.000   0.584
tot         20.299  10.202 310.985 341.485

  FORCE on cell =-STRESS in cart. coord.  units (eV):
  Direction    XX          YY          ZZ          XY          YZ          ZX
  Alpha Z   994.87467   994.87467   994.87467
  Ewald  118509.00275118489.63304************    -0.00032     0.03457    -0.00016
  Hartree127063.41571127060.21879************     0.00000    -0.02174    -0.00004
  E(xc)   -1758.67520 -1758.87587 -1766.92721    -0.00000     0.03879    -0.00000
  Local  ************************257995.25262     0.00182     0.30879     0.00011
  n-local   -65.56995   -64.51761   -38.03291     4.78882     0.04564     0.10293
  augment  2391.69437  2391.40707  2411.99301    -0.00133    -0.15327     0.00003
  Kinetic  5406.19199  5411.02099  5468.85285     1.58477    -0.29482     0.18533
  Fock        0.00000     0.00000     0.00000     0.00000     0.00000     0.00000
  Total     -22.34365   -22.37432     2.79689    -0.00000    -0.04203    -0.00000
  in kB     -23.97493   -24.00784     3.00108    -0.00000    -0.04510    -0.00000

 VOLUME and BASIS-vectors are now :
  energy-cutoff  :      500.00
  volume of cell :     1493.16
      direct lattice vectors                 reciprocal lattice vectors
     8.813512802  0.000000000  0.000000000     0.113462137 -0.065507406  0.000000000
     4.406756909  7.632725690  0.000000000     0.000000000  0.131014796  0.000000000
     0.000000000  0.000000000 22.196203232     0.000000000  0.000000000  0.045052750

  length of vectors
     8.813512802  8.813512802 22.196203232     0.131014796  0.131014796  0.045052750

 FORCES acting on ions
    electron-ion (+dipol)            ewald-force                    non-local-force                 convergence-correction
   -.199E-04 0.315E-01 0.247E+04   0.519E-04 -.206E-02 -.247E+04   0.885E-09 0.133E-01 -.809E+00   -.216E-03 -.437E-01 -.164E+00
   0.316E+00 0.803E-02 0.247E+04   -.488E+00 -.648E-01 -.247E+04   0.901E-01 0.974E-01 -.270E+00   0.723E-01 -.377E-01 -.185E+00
   -.316E+00 0.803E-02 0.247E+04   0.488E+00 -.648E-01 -.247E+04   -.901E-01 0.974E-01 -.270E+00   -.720E-01 -.358E-01 -.184E+00
   0.241E+00 0.403E+00 0.247E+04   -.299E+00 -.392E+00 -.247E+04   0.834E-01 -.647E-02 -.246E+00   -.139E-01 -.841E-02 -.142E+00
   0.737E-05 0.380E-02 0.247E+04   0.951E-04 0.183E-05 -.247E+04   0.107E-08 0.160E-01 0.624E-02   0.422E-02 -.197E-01 -.133E+00
   -.241E+00 0.403E+00 0.247E+04   0.298E+00 -.392E+00 -.247E+04   -.834E-01 -.647E-02 -.246E+00   0.124E-01 -.751E-02 -.141E+00
   -.307E+00 -.408E+00 0.247E+04   0.190E+00 0.456E+00 -.247E+04   0.794E-01 -.925E-01 -.274E+00   0.298E-01 0.464E-01 -.211E+00
   0.307E+00 -.408E+00 0.247E+04   -.190E+00 0.456E+00 -.247E+04   -.794E-01 -.925E-01 -.274E+00   -.280E-01 0.453E-01 -.211E+00
   0.197E-04 -.652E-01 0.247E+04   0.166E-03 0.208E-02 -.247E+04   -.607E-09 -.911E-02 -.510E+00   -.455E-02 0.712E-01 -.188E+00
   0.324E+01 0.194E+01 0.803E+03   -.290E+01 -.169E+01 -.803E+03   -.311E+00 -.181E+00 -.694E+00   -.156E-01 -.563E-01 0.473E+00
   0.149E-04 0.277E+01 0.808E+03   0.148E-03 -.280E+01 -.808E+03   0.311E-08 0.467E-01 -.177E+00   0.388E-02 -.745E-01 0.587E+00
   -.324E+01 0.194E+01 0.803E+03   0.290E+01 -.169E+01 -.803E+03   0.311E+00 -.181E+00 -.694E+00   0.144E-01 -.556E-01 0.472E+00
   0.230E+01 -.132E+01 0.808E+03   -.241E+01 0.140E+01 -.808E+03   0.758E-01 -.391E-01 -.246E+00   -.114E-01 -.178E-01 0.522E+00
   -.230E+01 -.132E+01 0.808E+03   0.240E+01 0.140E+01 -.808E+03   -.758E-01 -.391E-01 -.246E+00   0.186E-01 -.187E-01 0.521E+00
   0.317E-04 0.430E+01 0.807E+03   0.236E-03 -.443E+01 -.807E+03   0.193E-08 0.289E-01 -.535E+00   -.191E-02 0.330E-01 0.548E+00
   -.212E-04 -.389E+01 0.803E+03   0.162E-03 0.336E+01 -.803E+03   0.271E-07 0.407E+00 -.670E+00   -.278E-03 0.104E+00 0.421E+00
   0.371E+01 -.224E+01 0.807E+03   -.384E+01 0.222E+01 -.807E+03   0.294E-01 -.148E-01 -.553E+00   0.541E-01 0.499E-01 0.503E+00
   -.371E+01 -.224E+01 0.807E+03   0.384E+01 0.222E+01 -.807E+03   -.294E-01 -.148E-01 -.553E+00   -.536E-01 0.515E-01 0.504E+00
   -.411E-04 -.279E+00 -.886E+03   0.555E-04 0.930E-01 0.884E+03   0.442E-08 0.665E-01 0.581E+00   0.836E-03 0.123E+00 0.116E+01
   0.349E+01 0.212E+01 -.869E+03   -.278E+01 -.172E+01 0.868E+03   -.113E+01 -.579E+00 -.111E+01   0.398E+00 0.174E+00 0.187E+01
   -.349E+01 0.212E+01 -.869E+03   0.278E+01 -.172E+01 0.868E+03   0.113E+01 -.579E+00 -.111E+01   -.404E+00 0.173E+00 0.187E+01
   -.711E+01 0.406E+01 -.872E+03   0.663E+01 -.372E+01 0.871E+03   0.393E+00 -.239E+00 0.556E+00   0.102E+00 -.109E+00 0.123E+01
   -.721E-05 -.421E+01 -.869E+03   0.139E-03 0.336E+01 0.868E+03   0.911E-07 0.137E+01 -.118E+01   -.375E-02 -.484E+00 0.180E+01
   0.711E+01 0.406E+01 -.872E+03   -.663E+01 -.372E+01 0.871E+03   -.393E+00 -.239E+00 0.556E+00   -.101E+00 -.109E+00 0.123E+01
   0.355E+00 0.151E+00 -.886E+03   -.134E+00 -.124E+00 0.884E+03   -.714E-01 -.350E-01 0.582E+00   -.153E+00 0.620E-02 0.110E+01
   -.355E+00 0.151E+00 -.886E+03   0.133E+00 -.124E+00 0.884E+03   0.714E-01 -.350E-01 0.582E+00   0.154E+00 0.710E-02 0.110E+01
   0.114E-04 -.837E+01 -.872E+03   0.198E-03 0.766E+01 0.871E+03   0.326E-07 0.490E+00 0.535E+00   -.275E-03 0.240E+00 0.117E+01
   -.107E-04 0.266E+00 -.248E+04   0.283E-04 -.368E+00 0.248E+04   -.699E-09 -.105E-01 0.639E+00   0.142E-03 0.973E-01 0.627E+00
   0.690E+01 0.848E+01 -.247E+04   -.644E+01 -.791E+01 0.247E+04   -.967E+00 -.144E+01 0.451E-01   0.469E+00 0.785E+00 0.479E+00
   -.690E+01 0.848E+01 -.247E+04   0.644E+01 -.791E+01 0.247E+04   0.967E+00 -.144E+01 0.451E-01   -.469E+00 0.786E+00 0.479E+00
   0.120E+02 0.230E+01 -.247E+04   -.112E+02 -.227E+01 0.247E+04   -.169E+01 -.441E-01 0.174E+00   0.886E+00 0.184E-01 0.543E+00
   -.120E+02 0.230E+01 -.247E+04   0.112E+02 -.227E+01 0.247E+04   0.169E+01 -.441E-01 0.174E+00   -.887E+00 0.193E-01 0.544E+00
   0.292E+01 -.108E+02 -.247E+04   -.251E+01 0.102E+02 0.247E+04   -.831E+00 0.149E+01 0.645E-01   0.363E+00 -.816E+00 0.545E+00
   -.292E+01 -.108E+02 -.247E+04   0.251E+01 0.102E+02 0.247E+04   0.831E+00 0.149E+01 0.645E-01   -.361E+00 -.816E+00 0.545E+00
   0.347E-04 -.340E+00 -.249E+04   0.142E-03 0.369E+00 0.248E+04   0.279E-08 0.419E-01 0.649E+00   -.420E-02 -.574E-01 0.591E+00
   -.290E-04 -.120E-01 -.125E+04   0.635E-04 0.510E-04 0.125E+04   0.995E-09 0.149E-01 0.365E+00   0.127E-02 -.329E-01 0.438E+00
   0.147E+02 -.115E-01 -.271E+03   -.181E+02 -.133E-03 0.272E+03   0.348E+01 0.172E-02 -.121E+01   0.193E-01 0.348E-02 -.184E+00
   -.147E+02 -.115E-01 -.271E+03   0.181E+02 -.133E-03 0.272E+03   -.348E+01 0.172E-02 -.121E+01   -.191E-01 0.348E-02 -.184E+00
   -.797E-03 -.344E+00 -.122E+02   -.213E-13 0.213E-12 0.153E-11   0.206E-07 0.309E+00 -.746E+01   -.482E-03 0.353E-01 0.200E+02

 POSITION                                       TOTAL-FORCE (eV/Angst)
      0.00000      0.00000      5.28038        -0.000000     -0.001001     -0.156467
      2.93784      0.00000      5.28038        -0.009780      0.003906     -0.063913
      5.87568      0.00000      5.28038         0.009780      0.003906     -0.063913
      1.46892      2.54424      5.28038         0.012310     -0.002758     -0.076527
      4.40676      2.54424      5.28038         0.000000      0.000119     -0.122407
      7.34459      2.54424      5.28038        -0.012310     -0.002758     -0.076527
      2.93784      5.08848      5.28038        -0.008678      0.001398     -0.062519
      5.87568      5.08848      5.28038         0.008678      0.001398     -0.062519
      8.81351      5.08848      5.28038        -0.000000     -0.001121     -0.093200
      1.46892      0.84808      7.67911         0.013231      0.014115      0.122339
      4.40676      0.84808      7.67911        -0.000000     -0.050391      0.024512
      7.34459      0.84808      7.67911        -0.013231      0.014115      0.122339
      2.93784      3.39232      7.67911        -0.040909      0.027182      0.029835
      5.87568      3.39232      7.67911         0.040909      0.027182      0.029835
      8.81351      3.39232      7.67911        -0.000000     -0.061473      0.084118
      4.40676      5.93656      7.67911        -0.000000     -0.018219      0.119252
      7.34459      5.93656      7.67911        -0.049877      0.023760      0.085057
     10.28243      5.93656      7.67911         0.049877      0.023760      0.085057
      8.81351      1.69581     10.07501         0.000000      0.002778      0.036163
      2.95207      1.70438     10.04871        -0.013302     -0.010048     -0.087489
      5.86144      1.70438     10.04871         0.013302     -0.010048     -0.087489
     10.26527      4.25031     10.05786         0.016440     -0.009016      0.012136
      4.40676      4.22397     10.04871         0.000000      0.034661     -0.061589
      7.36176      4.25031     10.05786        -0.016440     -0.009016      0.012136
     11.75166      6.78482     10.07501        -0.003162     -0.001396      0.020541
      5.87537      6.78482     10.07501         0.003162     -0.001396      0.020541
      8.81351      6.76483     10.05786         0.000000      0.025714      0.015874
      0.00000      0.00000     12.48798        -0.000000     -0.015205     -0.037153
      2.98892      0.08359     12.48152        -0.041068     -0.078980     -0.037621
      5.82460      0.08359     12.48152         0.041068     -0.078980     -0.037621
      1.56685      2.54668     12.48152        -0.041355      0.005750     -0.002630
      7.24666      2.54668     12.48152         0.041355      0.005750     -0.002630
      2.98469      5.00245     12.48152        -0.051183      0.082905     -0.042916
      5.82882      5.00245     12.48152         0.051183      0.082905     -0.042916
      8.81351      5.08848     12.49580         0.000000      0.013400     -0.016333
      4.40676      2.54424     12.17616        -0.000000     -0.029909      0.447329
      3.97606      2.54424     13.84445         0.035385     -0.006494     -0.016341
      4.83746      2.54424     13.84445        -0.035385     -0.006494     -0.016341
    total drift:                               -0.001279      0.000929      0.249641

  FREE ENERGIE OF THE ION-ELECTRON SYSTEM (eV)
  free  energy   TOTEN  =      -121.26287060 eV

  energy  without entropy=     -121.26287060  energy(sigma->0) =     -121.26287060

 stress matrix after NEB project (eV)
    -22.34365     -0.00000     -0.00000
     -0.00000    -22.37432     -0.04203
     -0.00000     -0.04203      2.79689
  FORCES: max atom, RMS     0.039513    0.009065
  FORCE total and by dimension    0.055880    0.035385
  Stress total and by dimension   31.743898   22.374325
|           W    W    AA    RRRRR   N    N  II  N    N   GGGG   !!!           |
|           W    W   A  A   R    R  NN   N  II  NN   N  G    G  !!!           |
|           W    W  A    A  R    R  N N  N  II  N N  N  G       !!!           |
|           W WW W  AAAAAA  RRRRR   N  N N  II  N  N N  G  GGG   !            |
|           WW  WW  A    A  R   R   N   NN  II  N   NN  G    G                |
|           W    W  A    A  R    R  N    N  II  N    N   GGGG   !!!           |
|     Tetrahedron method does not include variations of the Fermi             |
|     occupations, so forces and stress will be inaccurate. We suggest        |
|     using a different smearing scheme ISMEAR = 1 or 2 for metals in         |
|     relaxations.                                                            |

 total charge

# of ion       s       p       d       tot
    1        0.547   0.238   8.768   9.552
    2        0.543   0.241   8.765   9.549
    3        0.543   0.241   8.765   9.549
    4        0.545   0.241   8.766   9.552
    5        0.546   0.241   8.760   9.547
    6        0.545   0.241   8.766   9.552
    7        0.543   0.241   8.766   9.550
    8        0.543   0.241   8.766   9.550
    9        0.543   0.239   8.769   9.552
   10        0.525   0.308   8.768   9.601
   11        0.524   0.307   8.781   9.611
   12        0.525   0.308   8.768   9.601
   13        0.524   0.308   8.781   9.612
   14        0.524   0.308   8.781   9.612
   15        0.516   0.310   8.775   9.602
   16        0.526   0.309   8.766   9.600
   17        0.517   0.310   8.775   9.602
   18        0.517   0.310   8.775   9.602
   19        0.517   0.300   8.773   9.590
   20        0.557   0.335   8.743   9.635
   21        0.557   0.335   8.743   9.635
   22        0.509   0.311   8.777   9.596
   23        0.560   0.335   8.744   9.639
   24        0.509   0.311   8.777   9.596
   25        0.518   0.299   8.774   9.591
   26        0.518   0.299   8.774   9.591
   27        0.509   0.310   8.777   9.596
   28        0.538   0.223   8.762   9.523
   29        0.568   0.243   8.746   9.558
   30        0.568   0.243   8.746   9.558
   31        0.565   0.246   8.744   9.555
   32        0.565   0.246   8.744   9.555
   33        0.569   0.243   8.747   9.559
   34        0.569   0.243   8.747   9.559
   35        0.537   0.223   8.763   9.523
   36        0.365   0.455   4.245   5.066
   37        0.553   0.031   0.000   0.584
   38        0.553   0.031   0.000   0.584
tot         20.299  10.202 310.985 341.485

 BZINTS: Fermi energy:    0.733977;  393.000000 electrons
         Band energy:-0.117375E+04;  BLOECHL correction:   -0.030058