 vasp.6.2.0 18Jan21 (build Jun 12 2021 23:27:24) complex

 executed on             LinuxIFC date 2022.05.27  05:27:13

 INCAR:
   ISMEAR = -5
   SIGMA = 0.1
   ISPIN = 1
   EDIFF = 1.d-5
   EDIFFG = -0.01
   NSW = 0
   NELM = 150
   ENCUT = 500
   ISIF = 2
   IBRION = 2
   LREAL = Auto
   ALGO = Fast
   ICHARG = 11
   LORBIT = 10
   LCHARG = .F.
   LWAVE = .F.

 POTCAR:    PAW_PBE Ag 02Apr2005
 POTCAR:    PAW_PBE Ti 08Apr2002
 POTCAR:    PAW_PBE N 08Apr2002
|           W    W    AA    RRRRR   N    N  II  N    N   GGGG   !!!           |
|           W    W   A  A   R    R  NN   N  II  NN   N  G    G  !!!           |
|           W    W  A    A  R    R  N N  N  II  N N  N  G       !!!           |
|           W WW W  AAAAAA  RRRRR   N  N N  II  N  N N  G  GGG   !            |
|           WW  WW  A    A  R   R   N   NN  II  N   NN  G    G                |
|           W    W  A    A  R    R  N    N  II  N    N   GGGG   !!!           |
|     For optimal performance we recommend to set                             |
|       NCORE = 2 up to number-of-cores-per-socket                            |
|     This setting can greatly improve the performance of VASP for DFT.       |
|     The default, NCORE=1 might be grossly inefficient on modern             |
|     multi-core architectures or massively parallel machines. Do your        |
|     Unfortunately you need to use the default for GW and RPA                |
|     calculations (for HF NCORE is supported but not extensively tested      |
|     yet).                                                                   |

 POTCAR:    PAW_PBE Ag 02Apr2005
   VRHFIN =Ag : s1 d10

   TITEL  = PAW_PBE Ag 02Apr2005
   POMASS =  107.868; ZVAL   =   11.000    mass and valenz
   ENMAX  =  249.844; ENMIN  =  187.383 eV

 POTCAR:    PAW_PBE Ti 08Apr2002
   VRHFIN =Ti: d3 s1

[...]

 POTCAR:    PAW_PBE N 08Apr2002
   VRHFIN =N: s2p3

   TITEL  = PAW_PBE N 08Apr2002
   POMASS =   14.001; ZVAL   =    5.000    mass and valenz
   ENMAX  =  400.000; ENMIN  =  300.000 eV

 Optimization of the real space projectors (new method)

 maximal supplied QI-value         = 15.12
 optimisation between [QCUT,QGAM] = [ 11.34, 22.83] = [ 36.00,145.93] Ry
 Optimized for a Real-space Cutoff    1.43 Angstroem

   l    n(q)    QCUT    max X(q) W(low)/X(q) W(high)/X(q)  e(spline)
   2      9    11.338    53.897    0.16E-03    0.20E-03    0.28E-06
   2      9    11.338    52.416    0.16E-03    0.20E-03    0.29E-06
   0     10    11.338   122.045    0.31E-04    0.76E-04    0.15E-06
   0     10    11.338    73.629    0.30E-04    0.72E-04    0.15E-06
   1      9    11.338    15.255    0.20E-03    0.19E-04    0.17E-06
   1      9    11.338     9.562    0.16E-03    0.15E-04    0.14E-06
 Optimization of the real space projectors (new method)

[...]

   l    n(q)    QCUT    max X(q) W(low)/X(q) W(high)/X(q)  e(spline)
   2     10    11.404    49.363    0.27E-03    0.67E-03    0.76E-06
   2     10    11.404    47.669    0.26E-03    0.65E-03    0.73E-06
   0     11    11.404    26.374    0.17E-03    0.20E-03    0.34E-06
   0     11    11.404    11.549    0.14E-03    0.16E-03    0.29E-06
   1     10    11.404     9.492    0.33E-04    0.56E-04    0.16E-06
 Optimization of the real space projectors (new method)

 maximal supplied QI-value         = 25.13
 optimisation between [QCUT,QGAM] = [ 11.31, 22.87] = [ 35.82,146.48] Ry
 Optimized for a Real-space Cutoff    1.27 Angstroem

   l    n(q)    QCUT    max X(q) W(low)/X(q) W(high)/X(q)  e(spline)
   0      9    11.310    79.467    0.75E-04    0.16E-03    0.36E-06
   0      9    11.310    66.151    0.74E-04    0.16E-03    0.36E-06
   1      8    11.310    17.416    0.35E-03    0.12E-03    0.95E-06
   1      8    11.310    12.382    0.37E-03    0.13E-03    0.98E-06
  PAW_PBE Ag 02Apr2005                  :
  PAW_PBE Ti 08Apr2002                  :
  PAW_PBE N 08Apr2002                   :

 POSCAR: Ag-Ti-N2
  positions in direct lattice
  velocities in cartesian coordinates
 exchange correlation table for  LEXCH =        8
   RHO(1)=    0.500       N(1)  =     2000
   RHO(2)=  100.500       N(2)  =     4000

 VTST: version 3.2, (02/03/18)

 CHAIN: initializing optimizer

 OPT: Using VASP Conjugate-Gradient optimizer
 CHAIN: Read ICHAIN            0

 POSCAR: Ag-Ti-N2
  positions in direct lattice
  velocities in cartesian coordinates

 ion  position               nearest neighbor table
   1  0.000  0.000  0.218-   2 2.93   8 2.93   7 2.93   6 2.93   4 2.93  12 2.93  16 2.93  10 2.93
                             3 2.93
   2  0.333  0.000  0.218-   1 2.93   8 2.93   9 2.93   3 2.93   4 2.93   5 2.93  10 2.93  17 2.93
                            11 2.93
   3  0.667  0.000  0.218-   9 2.93   2 2.93   5 2.93  11 2.93   7 2.93  18 2.93   1 2.93   6 2.93
                            12 2.93
   4  0.000  0.333  0.218-   5 2.93   6 2.93   2 2.93   1 2.93   7 2.93  13 2.93  15 2.93   9 2.93
                            10 2.93
   5  0.333  0.333  0.218-   4 2.93   3 2.93   7 2.93   2 2.93   8 2.93  14 2.93  13 2.93  11 2.93
                             6 2.93
   6  0.667  0.333  0.218-   4 2.93   9 2.93   1 2.93  15 2.93   8 2.93  12 2.93   3 2.93   5 2.93
                            14 2.93
   7  0.000  0.667  0.218-   8 2.93   1 2.93   5 2.93   3 2.93   4 2.93  16 2.93  18 2.93  13 2.93
                             9 2.93
   8  0.333  0.667  0.218-   7 2.93   1 2.93   2 2.93   9 2.93   5 2.93  16 2.93   6 2.93  17 2.93
                            14 2.93
   9  0.667  0.667  0.218-   3 2.93   2 2.93   8 2.93   6 2.93  17 2.93   4 2.93  15 2.93   7 2.93
                            18 2.93
  10  0.111  0.111  0.317-  20 2.91  19 2.92  26 2.92  12 2.93  16 2.93  15 2.93  17 2.93  13 2.93
                            11 2.93   2 2.93   1 2.93   4 2.93
  11  0.444  0.111  0.317-  21 2.91  20 2.91  27 2.92  14 2.93  17 2.93  18 2.93   3 2.93  12 2.93
                            13 2.93  10 2.93   5 2.93   2 2.93
  12  0.778  0.111  0.317-  21 2.91  25 2.92  19 2.92  10 2.93  16 2.93  18 2.93  15 2.93  11 2.93
                             1 2.93  14 2.93   6 2.93   3 2.93
  13  0.111  0.444  0.317-  20 2.91  23 2.91  22 2.92  15 2.93  14 2.93  18 2.93  10 2.93  11 2.93
                            16 2.93   4 2.93   5 2.93   7 2.93
  14  0.444  0.444  0.317-  23 2.91  21 2.91  24 2.92  13 2.93  11 2.93  16 2.93   5 2.93  12 2.93
                            17 2.93   8 2.93  15 2.93   6 2.93
  15  0.778  0.444  0.317-  19 2.92  24 2.92  22 2.92  13 2.93  10 2.93  12 2.93  17 2.93  18 2.93
                             4 2.93   6 2.93   9 2.93  14 2.93
  16  0.111  0.778  0.317-  23 2.91  26 2.92  25 2.92  18 2.93  12 2.93  10 2.93  14 2.93  17 2.93
                            13 2.93   7 2.93   8 2.93   1 2.93
  17  0.444  0.778  0.317-  26 2.92  27 2.92  24 2.92  11 2.93  10 2.93   9 2.93  18 2.93  15 2.93
                            16 2.93   2 2.93  14 2.93   8 2.93
  18  0.778  0.778  0.317-  25 2.92  22 2.92  27 2.92  16 2.93  12 2.93  13 2.93  11 2.93  17 2.93
                            15 2.93   7 2.93   3 2.93   9 2.93
  19  0.889  0.222  0.416-  10 2.92  12 2.92  15 2.92  28 2.92  26 2.93  25 2.93  24 2.93  22 2.93
                            20 2.94  21 2.94  32 2.96  31 2.96
  20  0.223  0.223  0.415-  36 2.82  13 2.91  11 2.91  10 2.91  21 2.92  23 2.92  27 2.93  22 2.93
                            19 2.94  26 2.94  31 2.94  29 2.94
  21  0.555  0.223  0.415-  36 2.82  11 2.91  14 2.91  12 2.91  20 2.92  23 2.92  27 2.93  24 2.93
                            25 2.94  19 2.94  30 2.94  32 2.94
  22  0.889  0.556  0.416-  18 2.92  15 2.92  13 2.92  24 2.93  27 2.93  25 2.93  19 2.93  35 2.93
                            23 2.93  20 2.93  33 2.94  31 2.94
  23  0.223  0.555  0.415-  36 2.82  14 2.91  13 2.91  16 2.91  21 2.92  20 2.92  22 2.93  24 2.93
                            26 2.94  25 2.94  34 2.94  33 2.94
  24  0.556  0.556  0.416-  15 2.92  17 2.92  14 2.92  27 2.93  22 2.93  19 2.93  26 2.93  35 2.93
                            23 2.93  21 2.93  32 2.94  34 2.94
  25  0.889  0.889  0.416-  16 2.92  12 2.92  18 2.92  28 2.92  26 2.93  19 2.93  22 2.93  27 2.93
                            23 2.94  21 2.94  33 2.96  30 2.96
  26  0.222  0.889  0.416-  16 2.92  10 2.92  17 2.92  28 2.92  25 2.93  19 2.93  27 2.93  24 2.93
                            23 2.94  20 2.94  34 2.96  29 2.96
  27  0.556  0.889  0.416-  17 2.92  18 2.92  11 2.92  24 2.93  22 2.93  26 2.93  25 2.93  35 2.93
                            20 2.93  21 2.93  29 2.94  30 2.94
  28  0.000  0.000  0.514-  26 2.92  25 2.92  19 2.92  29 2.95  34 2.95  33 2.95  32 2.95  31 2.95
                            30 2.95
  29  0.334  0.004  0.515-  30 2.89  31 2.90  36 2.90  20 2.94  27 2.94  35 2.95  28 2.95  26 2.96
                            34 3.00
  30  0.662  0.004  0.515-  29 2.89  32 2.90  36 2.90  21 2.94  27 2.94  35 2.95  28 2.95  25 2.96
                            33 3.00
  31  0.004  0.334  0.515-  33 2.89  29 2.90  36 2.90  20 2.94  22 2.94  35 2.95  28 2.95  19 2.96
                            32 3.00
  32  0.662  0.334  0.515-  34 2.89  30 2.90  36 2.90  21 2.94  24 2.94  35 2.95  28 2.95  19 2.96
                            31 3.00
  33  0.004  0.662  0.515-  31 2.89  34 2.90  36 2.90  23 2.94  22 2.94  35 2.95  28 2.95  25 2.96
                            30 3.00
  34  0.334  0.662  0.515-  32 2.89  33 2.90  36 2.90  23 2.94  24 2.94  35 2.95  28 2.95  26 2.96
                            29 3.00
  35  0.667  0.667  0.515-  24 2.93  27 2.93  22 2.93  30 2.95  32 2.95  29 2.95  34 2.95  31 2.95
                            33 2.95
  36  0.333  0.333  0.509-  37 2.24  38 2.24  21 2.82  20 2.82  23 2.82  31 2.90  33 2.90  30 2.90
                            29 2.90  34 2.90  32 2.90
  37  0.264  0.339  0.598-  38 1.17  36 2.24
  38  0.397  0.339  0.598-  37 1.17  36 2.24

  LATTYP: Found a hexagonal cell.
 ALAT       =     8.7913665772
 C/A-ratio  =     2.7508061350

  Lattice vectors:

 A1 = (  -4.3956832886,  -7.6135467898,   0.0000000000)
 A2 = (   8.7913665771,   0.0000000000,   0.0000000000)
 A3 = (   0.0000000000,   0.0000000000,  24.1833451159)

Analysis of symmetry for initial positions (statically):
 Subroutine PRICEL returns:
 Original cell was already a primitive cell.

 Routine SETGRP: Setting up the symmetry group for a
 hexagonal supercell.

 Subroutine GETGRP returns: Found  2 space group operations
 (whereof  2 operations were pure point group operations)
 out of a pool of 24 trial point group operations.

The static configuration has the point symmetry C_1h.

Analysis of symmetry for dynamics (positions and initial velocities):
 Subroutine PRICEL returns:
 Original cell was already a primitive cell.

[...]

The dynamic configuration has the point symmetry C_1h.

Analysis of constrained symmetry for selective dynamics:
 Subroutine PRICEL returns:
 Original cell was already a primitive cell.

 Routine SETGRP: Setting up the symmetry group for a
 hexagonal supercell.

 Subroutine GETGRP returns: Found  2 space group operations
 (whereof  2 operations were pure point group operations)
 out of a pool of 24 trial point group operations.

[...]
     33      -4.9893      2.00000
     34      -4.9697      2.00000
     35      -4.9548      2.00000
     36      -4.9490      2.00000
     37      -4.9274      2.00000
     38      -4.8765      2.00000
     39      -4.8497      2.00000
     40      -4.8454      2.00000
     41      -4.8270      2.00000
     42      -4.7904      2.00000
     43      -4.7638      2.00000
     44      -4.7575      2.00000
     45      -4.7518      2.00000
     46      -4.7459      2.00000
     47      -4.7346      2.00000
     48      -4.6406      2.00000
     49      -4.6142      2.00000
     50      -4.6045      2.00000
     51      -4.6017      2.00000
     52      -4.5945      2.00000
     53      -4.5919      2.00000
     54      -4.5876      2.00000
     55      -4.5763      2.00000
     56      -4.5658      2.00000
     57      -4.5516      2.00000
     58      -4.4927      2.00000
     59      -4.4834      2.00000
     60      -4.4720      2.00000
[...]
    226       3.9615      0.00000
    227       4.3668      0.00000
    228       4.4651      0.00000
    229       4.5078      0.00000
    230       5.0629      0.00000
    231       5.1571      0.00000
    232       5.2171      0.00000
    233       5.2687      0.00000
    234       5.3497      0.00000
    235       5.3904      0.00000
    236       5.4926      0.00000
    237       5.5193      0.00000
    238       5.5844      0.00000
    239       5.7789      0.00000
    240       5.8660      0.00000

 soft charge-density along one line, spin component           1
         0         1         2         3         4         5         6         7         8         9
 total charge-density along one line

------------------------ aborting loop because EDIFF is reached ----------------------------------------

 total charge

# of ion       s       p       d       tot
    1        0.419   0.202   9.177   9.797
    2        0.416   0.204   9.176   9.796
    3        0.416   0.204   9.176   9.796
    4        0.414   0.203   9.178   9.795
    5        0.419   0.202   9.176   9.797
    6        0.414   0.203   9.178   9.795
    7        0.415   0.204   9.177   9.795
    8        0.415   0.204   9.177   9.795
    9        0.415   0.202   9.177   9.795
   10        0.408   0.270   9.162   9.840
   11        0.408   0.269   9.167   9.843
   12        0.408   0.270   9.162   9.840
   13        0.405   0.268   9.168   9.841
   14        0.405   0.268   9.168   9.841
   15        0.402   0.270   9.163   9.835
   16        0.409   0.270   9.163   9.841
   17        0.402   0.270   9.164   9.837
   18        0.402   0.270   9.164   9.837
   19        0.400   0.267   9.166   9.833
   20        0.432   0.295   9.136   9.864
   21        0.432   0.295   9.136   9.864
   22        0.395   0.274   9.164   9.833
   23        0.432   0.291   9.141   9.864
   24        0.395   0.274   9.164   9.833
   25        0.406   0.264   9.167   9.837
   26        0.406   0.264   9.167   9.837
   27        0.399   0.273   9.164   9.836
   28        0.411   0.203   9.173   9.787
   29        0.443   0.212   9.158   9.813
   30        0.443   0.212   9.158   9.813
   31        0.435   0.206   9.166   9.806
   32        0.435   0.206   9.166   9.806
   33        0.441   0.211   9.160   9.812
   34        0.441   0.211   9.160   9.812
   35        0.410   0.204   9.174   9.788
   36        0.412   0.474   2.348   3.233
   37        1.349   2.450   0.000   3.798
   38        1.349   2.450   0.000   3.798
tot         17.657  13.789 323.144 354.590

  FORCE on cell =-STRESS in cart. coord.  units (eV):
  Direction    XX          YY          ZZ          XY          YZ          ZX
  Alpha Z   699.45964   699.45964   699.45964
  Ewald  147533.69327147234.21663************     0.00001    -4.80565     0.00005
  Hartree157382.18552157274.57237************     0.00001    -4.62775     0.00001
  E(xc)   -2085.89144 -2086.28270 -2092.40687     0.00006    -0.04920    -0.00000
  Local  ************************315723.54653     0.00083     9.48353    -0.00015
  n-local  -345.07761  -331.11733  -340.87845     2.34094    -0.41386     0.16921
  augment  3226.61770  3224.73341  3239.03095    -0.00017     0.15869     0.00002
  Kinetic  4969.93274  4978.93683  5017.75596     0.74295     0.02598    -0.07319
  Fock        0.00000     0.00000     0.00000     0.00000     0.00000     0.00000
  Total      -7.74770    -7.13493    -0.74242    -0.00000    -0.22826    -0.00000
  in kB      -7.66873    -7.06221    -0.73485    -0.00000    -0.22593    -0.00000

 VOLUME and BASIS-vectors are now :
  energy-cutoff  :      500.00
  volume of cell :     1618.68
      direct lattice vectors                 reciprocal lattice vectors
     8.791366577  0.000000000  0.000000000     0.113747958 -0.065672414  0.000000000
     4.395683289  7.613546790  0.000000000     0.000000000  0.131344829  0.000000000
     0.000000000  0.000000000 24.183345116     0.000000000  0.000000000  0.041350772

  length of vectors
     8.791366577  8.791366577 24.183345116     0.131344829  0.131344829  0.041350772

 FORCES acting on ions
    electron-ion (+dipol)            ewald-force                    non-local-force                 convergence-correction
   0.459E-04 0.881E-01 0.266E+04   -.953E-04 -.729E-02 -.265E+04   -.457E-12 -.696E-01 -.183E+01   -.831E-04 -.164E-01 -.606E-01
   -.257E+00 -.130E+00 0.266E+04   0.199E+00 0.159E+00 -.265E+04   0.732E-01 0.806E-01 -.152E+01   -.118E-01 -.108E+00 -.436E-01
   0.257E+00 -.130E+00 0.266E+04   -.199E+00 0.159E+00 -.265E+04   -.732E-01 0.806E-01 -.152E+01   0.112E-01 -.106E+00 -.430E-01
   -.342E+00 -.213E+00 0.266E+04   0.243E+00 0.817E-01 -.265E+04   0.162E+00 -.105E-02 -.165E+01   -.632E-01 0.122E+00 -.370E-02
   -.741E-05 -.751E-01 0.265E+04   0.981E-04 -.802E-02 -.265E+04   -.467E-13 -.712E-02 -.138E+01   0.618E-02 0.861E-01 0.936E-01
   0.342E+00 -.213E+00 0.266E+04   -.243E+00 0.816E-01 -.265E+04   -.162E+00 -.105E-02 -.165E+01   0.619E-01 0.122E+00 -.299E-02
   0.676E-01 0.339E+00 0.266E+04   0.441E-01 -.240E+00 -.265E+04   0.232E-01 -.706E-01 -.161E+01   -.126E+00 -.213E-01 -.787E-01
   -.675E-01 0.339E+00 0.266E+04   -.441E-01 -.240E+00 -.265E+04   -.232E-01 -.706E-01 -.161E+01   0.127E+00 -.222E-01 -.787E-01
   0.365E-04 0.179E-01 0.266E+04   0.791E-04 0.151E-01 -.265E+04   0.246E-12 0.375E-01 -.173E+01   -.663E-02 -.613E-01 -.819E-01
   -.126E+01 -.722E+00 0.897E+03   0.158E+01 0.811E+00 -.896E+03   -.282E+00 -.166E+00 -.692E+00   -.376E-01 0.765E-01 -.781E-01
   -.283E-04 -.149E+01 0.893E+03   0.407E-04 0.124E+01 -.892E+03   0.101E-11 0.154E+00 -.357E+00   0.611E-02 0.495E-01 -.130E+00
   0.126E+01 -.722E+00 0.897E+03   -.158E+01 0.811E+00 -.896E+03   0.282E+00 -.166E+00 -.692E+00   0.362E-01 0.772E-01 -.789E-01
   -.132E+01 0.721E+00 0.893E+03   0.117E+01 -.656E+00 -.892E+03   0.204E+00 -.642E-01 -.340E+00   -.785E-01 0.317E-01 -.131E+00
   0.132E+01 0.721E+00 0.893E+03   -.117E+01 -.656E+00 -.892E+03   -.204E+00 -.642E-01 -.340E+00   0.887E-01 0.308E-01 -.133E+00
   0.154E-04 -.127E+00 0.897E+03   -.107E-03 0.134E+00 -.896E+03   0.263E-13 0.400E-02 -.753E+00   -.131E-02 -.219E-01 -.124E+00
   -.812E-05 0.140E+01 0.897E+03   0.207E-04 -.174E+01 -.896E+03   0.226E-11 0.344E+00 -.551E+00   -.142E-03 0.353E-02 -.683E-01
   -.169E+00 0.105E+00 0.896E+03   0.103E+00 0.259E-01 -.896E+03   0.629E-01 -.147E-01 -.570E+00   -.835E-02 -.117E+00 -.128E+00
   0.169E+00 0.105E+00 0.896E+03   -.103E+00 0.260E-01 -.896E+03   -.629E-01 -.147E-01 -.570E+00   0.841E-02 -.116E+00 -.127E+00
   0.384E-04 -.470E+01 -.871E+03   -.125E-03 0.455E+01 0.871E+03   0.944E-12 0.144E+00 0.100E+01   0.567E-02 -.268E-03 -.139E+00
   -.286E+02 -.157E+02 -.900E+03   0.299E+02 0.164E+02 0.901E+03   -.106E+01 -.614E+00 -.702E+00   -.245E+00 -.864E-01 -.276E+00
   0.286E+02 -.157E+02 -.900E+03   -.299E+02 0.164E+02 0.901E+03   0.106E+01 -.614E+00 -.702E+00   0.243E+00 -.869E-01 -.277E+00
   -.116E+02 0.625E+01 -.874E+03   0.115E+02 -.608E+01 0.874E+03   0.223E+00 -.158E+00 0.532E+00   -.495E-01 -.181E-01 -.175E+00
   -.533E-04 0.324E+02 -.900E+03   0.361E-04 -.337E+02 0.901E+03   0.779E-11 0.119E+01 -.373E+00   -.101E-02 0.223E+00 -.192E+00
   0.116E+02 0.625E+01 -.874E+03   -.115E+02 -.609E+01 0.874E+03   -.223E+00 -.158E+00 0.532E+00   0.603E-01 -.175E-01 -.175E+00
   0.447E+01 0.253E+01 -.872E+03   -.448E+01 -.249E+01 0.871E+03   -.551E-01 -.514E-01 0.878E+00   0.782E-01 0.253E-01 -.811E-01
   -.447E+01 0.253E+01 -.872E+03   0.448E+01 -.249E+01 0.871E+03   0.551E-01 -.514E-01 0.878E+00   -.690E-01 0.263E-01 -.807E-01
   0.192E-04 -.137E+02 -.875E+03   0.110E-03 0.136E+02 0.875E+03   0.150E-11 0.228E+00 0.541E+00   0.424E-02 -.874E-01 -.126E+00
   0.535E-04 0.173E+01 -.258E+04   -.115E-03 -.180E+01 0.258E+04   0.569E-12 0.866E-01 0.164E+01   0.269E-03 -.197E-01 -.136E+00
   -.613E+01 -.964E+01 -.256E+04   0.700E+01 0.108E+02 0.256E+04   -.807E+00 -.111E+01 0.146E+01   -.140E+00 -.199E+00 -.130E+00
   0.613E+01 -.964E+01 -.256E+04   -.700E+01 0.108E+02 0.256E+04   0.807E+00 -.111E+01 0.146E+01   0.139E+00 -.198E+00 -.130E+00
   -.646E+01 0.433E+01 -.255E+04   0.736E+01 -.430E+01 0.255E+04   -.862E+00 -.784E-01 0.208E+01   -.200E+00 0.343E-01 -.125E+00
   0.646E+01 0.433E+01 -.255E+04   -.736E+01 -.430E+01 0.255E+04   0.862E+00 -.784E-01 0.208E+01   0.200E+00 0.352E-01 -.124E+00
   -.910E+01 0.379E+01 -.256E+04   0.968E+01 -.491E+01 0.256E+04   -.569E+00 0.113E+01 0.166E+01   -.969E-01 0.157E+00 -.114E+00
   0.910E+01 0.379E+01 -.256E+04   -.968E+01 -.491E+01 0.256E+04   0.569E+00 0.113E+01 0.166E+01   0.981E-01 0.157E+00 -.114E+00
   0.236E-04 -.314E+01 -.259E+04   0.105E-03 0.327E+01 0.259E+04   -.517E-12 -.788E-01 0.174E+01   -.632E-02 -.407E-01 -.711E-01
   -.179E-04 0.199E+01 -.829E+03   0.380E-04 -.204E+01 0.828E+03   -.568E-12 -.865E-01 0.152E+01   0.180E-03 0.166E-01 -.951E-01
   0.203E+03 0.128E+01 -.132E+04   -.244E+03 -.129E+01 0.133E+04   0.406E+02 -.116E-02 -.779E+01   -.116E+00 0.192E-01 0.541E-01
   -.203E+03 0.128E+01 -.132E+04   0.244E+03 -.129E+01 0.133E+04   -.406E+02 -.116E-02 -.779E+01   0.116E+00 0.192E-01 0.540E-01
   0.389E-03 0.326E+00 0.209E+02   0.853E-13 -.235E-12 -.273E-11   -.195E-11 -.296E+00 -.170E+02   0.345E-01 -.310E-01 -.375E+01

 POSITION                                       TOTAL-FORCE (eV/Angst)
      0.00000      0.00000      5.28219        -0.000000     -0.005168     -0.023713
      2.93046      0.00000      5.28219         0.004321      0.002515      0.033354
      5.86091      0.00000      5.28219        -0.004321      0.002515      0.033354
      1.46523      2.53785      5.28219         0.000724     -0.010402      0.022888
      4.39568      2.53785      5.28219        -0.000000     -0.004010     -0.003773
      7.32614      2.53785      5.28219        -0.000724     -0.010402      0.022888
      2.93046      5.07570      5.28219         0.008577      0.006561      0.033602
      5.86091      5.07570      5.28219        -0.008577      0.006561      0.033602
      8.79137      5.07570      5.28219         0.000000      0.009246      0.014214
      1.46523      0.84595      7.67490        -0.001135     -0.001411     -0.041577
      4.39568      0.84595      7.67490        -0.000000     -0.045003     -0.040528
      7.32614      0.84595      7.67490         0.001135     -0.001411     -0.041577
      2.93046      3.38380      7.67490        -0.033561      0.032502     -0.059212
      5.86091      3.38380      7.67490         0.033561      0.032502     -0.059212
      8.79137      3.38380      7.67490        -0.000000     -0.010665      0.004547
      4.39568      5.92165      7.67490         0.000000      0.008431     -0.044005
      7.32614      5.92165      7.67490        -0.010861      0.000318      0.024583
     10.25659      5.92165      7.67490         0.010861      0.000318      0.024583
      8.79137      1.69074     10.05145        -0.000000     -0.001083      0.047391
      2.93556      1.69484     10.04095        -0.044025      0.008538     -0.027304
      5.85581      1.69484     10.04095         0.044025      0.008538     -0.027304
     10.25435      4.23104     10.05745         0.019791     -0.014558      0.039020
      4.39568      4.22386     10.04095         0.000000      0.051581     -0.035592
      7.32838      4.23104     10.05745        -0.019791     -0.014558      0.039020
     11.72283      6.76818     10.05145         0.000868      0.013103     -0.012799
      5.85990      6.76818     10.05145        -0.000868      0.013103     -0.012799
      8.79137      6.76501     10.05745         0.000000      0.026514      0.014871
      0.00000      0.00000     12.43413        -0.000000     -0.001707      0.016516
      2.95009      0.02948     12.45917        -0.076721     -0.152074     -0.143042
      5.84128      0.02948     12.45917         0.076721     -0.152074     -0.143042
      1.50057      2.54011     12.45917        -0.159114     -0.010453     -0.112242
      7.29079      2.54011     12.45917         0.159114     -0.010453     -0.112242
      2.94617      5.04396     12.45917        -0.093845      0.159697     -0.164945
      5.84520      5.04396     12.45917         0.093845      0.159697     -0.164945
      8.79137      5.07570     12.45428         0.000000      0.016496     -0.022238
      4.39568      2.53785     12.30230        -0.000000     -0.120198      0.959420
      3.81249      2.58102     14.46550        -0.030993      0.003448     -0.035882
      4.97887      2.58102     14.46550         0.030993      0.003448     -0.035882
    total drift:                                0.034871     -0.001530      0.144504

  FREE ENERGIE OF THE ION-ELECTRON SYSTEM (eV)
  free  energy   TOTEN  =      -112.19349818 eV

  energy  without entropy=     -112.19349818  energy(sigma->0) =     -112.19349818

 stress matrix after NEB project (eV)
     -7.74770     -0.00000     -0.00000
     -0.00000     -7.13493     -0.22826
     -0.00000     -0.22826     -0.74242
  FORCES: max atom, RMS     0.047539    0.010906
  FORCE total and by dimension    0.067230    0.035882
  Stress total and by dimension   10.563589    7.747697
|           W    W    AA    RRRRR   N    N  II  N    N   GGGG   !!!           |
|           W    W   A  A   R    R  NN   N  II  NN   N  G    G  !!!           |
|           W    W  A    A  R    R  N N  N  II  N N  N  G       !!!           |
|           W WW W  AAAAAA  RRRRR   N  N N  II  N  N N  G  GGG   !            |
|           WW  WW  A    A  R   R   N   NN  II  N   NN  G    G                |
|           W    W  A    A  R    R  N    N  II  N    N   GGGG   !!!           |
|     Tetrahedron method does not include variations of the Fermi             |
|     occupations, so forces and stress will be inaccurate. We suggest        |
|     using a different smearing scheme ISMEAR = 1 or 2 for metals in         |
|     relaxations.                                                            |

 total charge

# of ion       s       p       d       tot
    1        0.419   0.202   9.177   9.797
    2        0.416   0.204   9.176   9.796
    3        0.416   0.204   9.176   9.796
    4        0.414   0.203   9.178   9.795
    5        0.419   0.202   9.176   9.797
    6        0.414   0.203   9.178   9.795
    7        0.415   0.204   9.177   9.795
    8        0.415   0.204   9.177   9.795
    9        0.415   0.202   9.177   9.795
   10        0.408   0.270   9.162   9.840
   11        0.408   0.269   9.167   9.843
   12        0.408   0.270   9.162   9.840
   13        0.405   0.268   9.168   9.841
   14        0.405   0.268   9.168   9.841
   15        0.402   0.270   9.163   9.835
   16        0.409   0.270   9.163   9.841
   17        0.402   0.270   9.164   9.837
   18        0.402   0.270   9.164   9.837
   19        0.400   0.267   9.166   9.833
   20        0.432   0.295   9.136   9.864
   21        0.432   0.295   9.136   9.864
   22        0.395   0.274   9.164   9.833
   23        0.432   0.291   9.141   9.864
   24        0.395   0.274   9.164   9.833
   25        0.406   0.264   9.167   9.837
   26        0.406   0.264   9.167   9.837
   27        0.399   0.273   9.164   9.836
   28        0.411   0.203   9.173   9.787
   29        0.443   0.212   9.158   9.813
   30        0.443   0.212   9.158   9.813
   31        0.435   0.206   9.166   9.806
   32        0.435   0.206   9.166   9.806
   33        0.441   0.211   9.160   9.812
   34        0.441   0.211   9.160   9.812
   35        0.410   0.204   9.174   9.788
   36        0.412   0.474   2.348   3.233
   37        1.349   2.450   0.000   3.798
   38        1.349   2.450   0.000   3.798
tot         17.657  13.789 323.144 354.590

 BZINTS: Fermi energy:    0.425126;  399.000000 electrons
         Band energy:-0.153124E+04;  BLOECHL correction:   -0.026342